<VTKFile type="UnstructuredGrid" version="1,0" byte_order="LittleEndian">
<UnstructuredGrid>
<Piece NumberOfPoints="566" NumberOfCells="528">
<Points>
<DataArray type="Float64" NumberOfComponents="3" format="ascii">
-0.1200000000000E+01 -0.4500000000000E+01  0.0000000000000E+00
 0.0000000000000E+00 -0.4500000000000E+01  0.0000000000000E+00
 0.1200000000000E+01 -0.4500000000000E+01  0.0000000000000E+00
-0.1449029376496E+01 -0.1194133125621E+01  0.0000000000000E+00
-0.7245146813042E+00 -0.1048533280475E+01  0.0000000000000E+00
 0.7245146951927E+00 -0.1048533282336E+01  0.0000000000000E+00
 0.1449029376496E+01 -0.1194133125621E+01  0.0000000000000E+00
-0.1636858596770E+01  0.5972048417008E+00  0.0000000000000E+00
 0.1636858596719E+01  0.5972048417935E+00  0.0000000000000E+00
-0.9000000002171E+00  0.1038988058458E+00  0.0000000000000E+00
 0.9000000002171E+00  0.1038988058458E+00  0.0000000000000E+00
-0.1100000000000E+01 -0.4500000000000E+01  0.0000000000000E+00
-0.1000000000000E+01 -0.4500000000000E+01  0.0000000000000E+00
-0.9000000000000E+00 -0.4500000000000E+01  0.0000000000000E+00
-0.8000000000000E+00 -0.4500000000000E+01  0.0000000000000E+00
-0.7000000000000E+00 -0.4500000000000E+01  0.0000000000000E+00
-0.6000000000000E+00 -0.4500000000000E+01  0.0000000000000E+00
-0.5000000000000E+00 -0.4500000000000E+01  0.0000000000000E+00
-0.4000000000000E+00 -0.4500000000000E+01  0.0000000000000E+00
-0.3000000000000E+00 -0.4500000000000E+01  0.0000000000000E+00
-0.2000000000000E+00 -0.4500000000000E+01  0.0000000000000E+00
-0.1000000000000E+00 -0.4500000000000E+01  0.0000000000000E+00
 0.1000000000000E+00 -0.4500000000000E+01  0.0000000000000E+00
 0.2000000000000E+00 -0.4500000000000E+01  0.0000000000000E+00
 0.3000000000000E+00 -0.4500000000000E+01  0.0000000000000E+00
 0.4000000000000E+00 -0.4500000000000E+01  0.0000000000000E+00
 0.5000000000000E+00 -0.4500000000000E+01  0.0000000000000E+00
 0.6000000000000E+00 -0.4500000000000E+01  0.0000000000000E+00
 0.7000000000000E+00 -0.4500000000000E+01  0.0000000000000E+00
 0.8000000000000E+00 -0.4500000000000E+01  0.0000000000000E+00
 0.9000000000000E+00 -0.4500000000000E+01  0.0000000000000E+00
 0.1000000000000E+01 -0.4500000000000E+01  0.0000000000000E+00
 0.1100000000000E+01 -0.4500000000000E+01  0.0000000000000E+00
-0.1329656437025E+01 -0.1163464762365E+01  0.0000000000000E+00
-0.1209669604646E+01 -0.1135294082943E+01  0.0000000000000E+00
-0.1089113169793E+01 -0.1109670869329E+01  0.0000000000000E+00
-0.9680344936903E+00 -0.1086641693422E+01  0.0000000000000E+00
-0.8464839334734E+00 -0.1066249515369E+01  0.0000000000000E+00
-0.6043082067738E+00 -0.1033764649911E+01  0.0000000000000E+00
-0.4838062508176E+00 -0.1021641542759E+01  0.0000000000000E+00
-0.3630655727354E+00 -0.1012187521799E+01  0.0000000000000E+00
-0.2421445280939E+00 -0.1005421189464E+01  0.0000000000000E+00
-0.1211025856099E+00 -0.1001355976297E+01  0.0000000000000E+00
 0.7006279167943E-08 -0.1000000000000E+01  0.0000000000000E+00
 0.1211025996189E+00 -0.1001355976611E+01  0.0000000000000E+00
 0.2421445420924E+00 -0.1005421190090E+01  0.0000000000000E+00
 0.3630655867165E+00 -0.1012187522738E+01  0.0000000000000E+00
 0.4838062647744E+00 -0.1021641544008E+01  0.0000000000000E+00
 0.6043082206997E+00 -0.1033764651467E+01  0.0000000000000E+00
 0.8464839450101E+00 -0.1066249517175E+01  0.0000000000000E+00
 0.9680345028859E+00 -0.1086641695068E+01  0.0000000000000E+00
 0.1089113176662E+01 -0.1109670870712E+01  0.0000000000000E+00
 0.1209669609205E+01 -0.1135294083963E+01  0.0000000000000E+00
 0.1329656439293E+01 -0.1163464762923E+01  0.0000000000000E+00
-0.1633970086954E+01 -0.9365843800459E+00  0.0000000000000E+00
-0.1740568588835E+01 -0.6382988888924E+00  0.0000000000000E+00
-0.1789219221747E+01 -0.3247470389795E+00  0.0000000000000E+00
-0.1799998917174E+01 -0.7481859115273E-02  0.0000000000000E+00
-0.1763032195486E+01  0.3067610869093E+00  0.0000000000000E+00
-0.1438701544237E+01  0.8559643705434E+00  0.0000000000000E+00
-0.1199123756627E+01  0.1076770676070E+01  0.0000000000000E+00
-0.9258085254598E+00  0.1254639912712E+01  0.0000000000000E+00
-0.6366434628754E+00  0.1405203107479E+01  0.0000000000000E+00
-0.3242853635231E+00  0.1497747204822E+01  0.0000000000000E+00
-0.5242444812014E-10  0.1529422863469E+01  0.0000000000000E+00
 0.3242853634202E+00  0.1497747204842E+01  0.0000000000000E+00
 0.6366434627785E+00  0.1405203107519E+01  0.0000000000000E+00
 0.9258085253691E+00  0.1254639912765E+01  0.0000000000000E+00
 0.1199123756544E+01  0.1076770676133E+01  0.0000000000000E+00
 0.1438701544168E+01  0.8559643706226E+00  0.0000000000000E+00
 0.1763032195466E+01  0.3067610870086E+00  0.0000000000000E+00
 0.1799998917183E+01 -0.7481859018016E-02  0.0000000000000E+00
 0.1789219221721E+01 -0.3247470388865E+00  0.0000000000000E+00
 0.1740568588707E+01 -0.6382988887895E+00  0.0000000000000E+00
 0.1633970086825E+01 -0.9365843799552E+00  0.0000000000000E+00
-0.1200000000000E+01 -0.4243064409647E+01  0.0000000000000E+00
-0.1200000000000E+01 -0.3986128340496E+01  0.0000000000000E+00
-0.1200000000000E+01 -0.3729192467058E+01  0.0000000000000E+00
-0.1200000000000E+01 -0.3472256417482E+01  0.0000000000000E+00
-0.1200000000000E+01 -0.3215320409462E+01  0.0000000000000E+00
-0.1200000000000E+01 -0.2958384983411E+01  0.0000000000000E+00
-0.1200095697161E+01 -0.2701449452193E+01  0.0000000000000E+00
-0.1204338762609E+01 -0.2444559744307E+01  0.0000000000000E+00
-0.1218544071879E+01 -0.2188037078468E+01  0.0000000000000E+00
-0.1244730248174E+01 -0.1932467258751E+01  0.0000000000000E+00
-0.1286370089476E+01 -0.1678982200840E+01  0.0000000000000E+00
-0.1348526271975E+01 -0.1429784265175E+01  0.0000000000000E+00
 0.1348526272104E+01 -0.1429784265253E+01  0.0000000000000E+00
 0.1286370089541E+01 -0.1678982200902E+01  0.0000000000000E+00
 0.1244730248193E+01 -0.1932467258800E+01  0.0000000000000E+00
 0.1218544071883E+01 -0.2188037078511E+01  0.0000000000000E+00
 0.1204338762611E+01 -0.2444559744344E+01  0.0000000000000E+00
 0.1200095697162E+01 -0.2701449452226E+01  0.0000000000000E+00
 0.1200000000000E+01 -0.2958384983439E+01  0.0000000000000E+00
 0.1200000000000E+01 -0.3215320409485E+01  0.0000000000000E+00
 0.1200000000000E+01 -0.3472256417500E+01  0.0000000000000E+00
 0.1200000000000E+01 -0.3729192467072E+01  0.0000000000000E+00
 0.1200000000000E+01 -0.3986128340505E+01  0.0000000000000E+00
 0.1200000000000E+01 -0.4243064409652E+01  0.0000000000000E+00
-0.7545302259220E+00  0.1516828161088E+00  0.0000000000000E+00
-0.6067179635815E+00  0.1916296996744E+00  0.0000000000000E+00
-0.4569081785440E+00  0.2232644425063E+00  0.0000000000000E+00
-0.3055205522992E+00  0.2461797008265E+00  0.0000000000000E+00
-0.1530400097263E+00  0.2600615158822E+00  0.0000000000000E+00
-0.4440892098501E-15  0.2647114317343E+00  0.0000000000000E+00
 0.1530400097263E+00  0.2600615158822E+00  0.0000000000000E+00
 0.3055205522992E+00  0.2461797008265E+00  0.0000000000000E+00
 0.4569081785440E+00  0.2232644425063E+00  0.0000000000000E+00
 0.6067179635815E+00  0.1916296996744E+00  0.0000000000000E+00
 0.7545302259220E+00  0.1516828161088E+00  0.0000000000000E+00
-0.8921442967918E+00 -0.9107715503533E-01  0.0000000000000E+00
-0.8634513629173E+00 -0.2840200885178E+00  0.0000000000000E+00
-0.8122573433775E+00 -0.4723172376207E+00  0.0000000000000E+00
-0.7610633229675E+00 -0.6606143864994E+00  0.0000000000000E+00
-0.7323703870691E+00 -0.8535573196875E+00  0.0000000000000E+00
 0.8921442968242E+00 -0.9107715499903E-01  0.0000000000000E+00
 0.8634513632840E+00 -0.2840200884987E+00  0.0000000000000E+00
 0.8122573450876E+00 -0.4723172379386E+00  0.0000000000000E+00
 0.7610633277615E+00 -0.6606143876027E+00  0.0000000000000E+00
 0.7323703962456E+00 -0.8535573213969E+00  0.0000000000000E+00
-0.1022809766309E+01  0.1861164784883E+00  0.0000000000000E+00
-0.1145619532401E+01  0.2683341511308E+00  0.0000000000000E+00
-0.1268429298493E+01  0.3505518237733E+00  0.0000000000000E+00
-0.1391239064586E+01  0.4327694964158E+00  0.0000000000000E+00
-0.1514048830678E+01  0.5149871690583E+00  0.0000000000000E+00
 0.1022809766301E+01  0.1861164785038E+00  0.0000000000000E+00
 0.1145619532384E+01  0.2683341511617E+00  0.0000000000000E+00
 0.1268429298468E+01  0.3505518238197E+00  0.0000000000000E+00
 0.1391239064551E+01  0.4327694964776E+00  0.0000000000000E+00
 0.1514048830635E+01  0.5149871691356E+00  0.0000000000000E+00
-0.1100113834805E+01 -0.4240704626036E+01  0.0000000000000E+00
-0.1100227669822E+01 -0.3981408768876E+01  0.0000000000000E+00
-0.1100341504752E+01 -0.3722113109227E+01  0.0000000000000E+00
-0.1100455339761E+01 -0.3462817271822E+01  0.0000000000000E+00
-0.1100569174751E+01 -0.3203521476355E+01  0.0000000000000E+00
-0.1100683009483E+01 -0.2944226268202E+01  0.0000000000000E+00
-0.1100884528271E+01 -0.2684930953752E+01  0.0000000000000E+00
-0.1104886132483E+01 -0.2425681561844E+01  0.0000000000000E+00
-0.1118015792360E+01 -0.2166799295216E+01  0.0000000000000E+00
-0.1142123103116E+01 -0.1908869946572E+01  0.0000000000000E+00
-0.1180390061682E+01 -0.1653025593863E+01  0.0000000000000E+00
-0.1237455412522E+01 -0.1401468820168E+01  0.0000000000000E+00
-0.1000180432907E+01 -0.4238537027228E+01  0.0000000000000E+00
-0.1000360866151E+01 -0.3977073567222E+01  0.0000000000000E+00
-0.1000541299256E+01 -0.3715610306377E+01  0.0000000000000E+00
-0.1000721732486E+01 -0.3454146866291E+01  0.0000000000000E+00
-0.1000902165687E+01 -0.3192683468493E+01  0.0000000000000E+00
-0.1001082598478E+01 -0.2931220662919E+01  0.0000000000000E+00
-0.1001342702200E+01 -0.2669757750010E+01  0.0000000000000E+00
-0.1005055610598E+01 -0.2408340850773E+01  0.0000000000000E+00
-0.1017062388472E+01 -0.2147291153271E+01  0.0000000000000E+00
-0.1039043602884E+01 -0.1887194439762E+01  0.0000000000000E+00
-0.1073890453065E+01 -0.1629182937248E+01  0.0000000000000E+00
-0.1125817756369E+01 -0.1375459433319E+01  0.0000000000000E+00
-0.9002032021265E+00 -0.4236565443709E+01  0.0000000000000E+00
-0.9004064046316E+00 -0.3973130396510E+01  0.0000000000000E+00
-0.9006096069819E+00 -0.3709695549974E+01  0.0000000000000E+00
-0.9008128094716E+00 -0.3446260522844E+01  0.0000000000000E+00
-0.9010160119284E+00 -0.3182825538322E+01  0.0000000000000E+00
-0.9012192139249E+00 -0.2919391150490E+01  0.0000000000000E+00
-0.9014940737090E+00 -0.2655956654379E+01  0.0000000000000E+00
-0.9048744594144E+00 -0.2392568254828E+01  0.0000000000000E+00
-0.9157145303175E+00 -0.2129547126555E+01  0.0000000000000E+00
-0.9355258251919E+00 -0.1867479042314E+01  0.0000000000000E+00
-0.9669087487100E+00 -0.1607496364681E+01  0.0000000000000E+00
-0.1013654195433E+01 -0.1351802067259E+01  0.0000000000000E+00
-0.8001857869666E+00 -0.4234793458963E+01  0.0000000000000E+00
-0.8003715742793E+00 -0.3969586423715E+01  0.0000000000000E+00
-0.8005573614506E+00 -0.3704379590480E+01  0.0000000000000E+00
-0.8007431487492E+00 -0.3439172575437E+01  0.0000000000000E+00
-0.8009289360178E+00 -0.3173965603289E+01  0.0000000000000E+00
-0.8011147228656E+00 -0.2908759231843E+01  0.0000000000000E+00
-0.8013641543409E+00 -0.2643552751271E+01  0.0000000000000E+00
-0.8043718347629E+00 -0.2378392441756E+01  0.0000000000000E+00
-0.8140050177390E+00 -0.2113599466020E+01  0.0000000000000E+00
-0.8316062136036E+00 -0.1849759588277E+01  0.0000000000000E+00
-0.8594850353096E+00 -0.1588005292953E+01  0.0000000000000E+00
-0.9010084585283E+00 -0.1330539720832E+01  0.0000000000000E+00
-0.7001320623187E+00 -0.4233224378567E+01  0.0000000000000E+00
-0.7002641248835E+00 -0.3966448259999E+01  0.0000000000000E+00
-0.7003961873477E+00 -0.3699672344639E+01  0.0000000000000E+00
-0.7005282499024E+00 -0.3432896246396E+01  0.0000000000000E+00
-0.7006603124358E+00 -0.3166120191300E+01  0.0000000000000E+00
-0.7007923746700E+00 -0.2899344740462E+01  0.0000000000000E+00
-0.7009800683559E+00 -0.2632569179746E+01  0.0000000000000E+00
-0.7035787355979E+00 -0.2365839856055E+01  0.0000000000000E+00
-0.7119687241693E+00 -0.2099477921486E+01  0.0000000000000E+00
-0.7273235158191E+00 -0.1834069132693E+01  0.0000000000000E+00
-0.7516619343251E+00 -0.1570746081997E+01  0.0000000000000E+00
-0.7879270399648E+00 -0.1311712058221E+01  0.0000000000000E+00
-0.6000461208600E+00 -0.4231861199176E+01  0.0000000000000E+00
-0.6000922418059E+00 -0.3963721898676E+01  0.0000000000000E+00
-0.6001383627167E+00 -0.3695582802423E+01  0.0000000000000E+00
-0.6001844836591E+00 -0.3427443522352E+01  0.0000000000000E+00
-0.6002306045940E+00 -0.3159304285649E+01  0.0000000000000E+00
-0.6002767254245E+00 -0.2891165656292E+01  0.0000000000000E+00
-0.6003704645175E+00 -0.2623026916403E+01  0.0000000000000E+00
-0.6025279032327E+00 -0.2354934470851E+01  0.0000000000000E+00
-0.6096424834340E+00 -0.2087209462502E+01  0.0000000000000E+00
-0.6227186581789E+00 -0.1820437641442E+01  0.0000000000000E+00
-0.6434844643715E+00 -0.1555751693728E+01  0.0000000000000E+00
-0.6744590500593E+00 -0.1295355036796E+01  0.0000000000000E+00
-0.5000804446439E+00 -0.4230724823815E+01  0.0000000000000E+00
-0.5001608894378E+00 -0.3961449145836E+01  0.0000000000000E+00
-0.5002413341703E+00 -0.3692173672971E+01  0.0000000000000E+00
-0.5003217789581E+00 -0.3422898015508E+01  0.0000000000000E+00
-0.5004022237328E+00 -0.3153622401597E+01  0.0000000000000E+00
-0.5004826683253E+00 -0.2884347397605E+01  0.0000000000000E+00
-0.5006027948201E+00 -0.2615072282539E+01  0.0000000000000E+00
-0.5024426690958E+00 -0.2345843509583E+01  0.0000000000000E+00
-0.5084134927969E+00 -0.2076982213914E+01  0.0000000000000E+00
-0.5193523102721E+00 -0.1809074140138E+01  0.0000000000000E+00
-0.5366991492691E+00 -0.1543252052455E+01  0.0000000000000E+00
-0.5625532956964E+00 -0.1281719475517E+01  0.0000000000000E+00
-0.4000920320182E+00 -0.4229792008805E+01  0.0000000000000E+00
-0.4001840642080E+00 -0.3959583514079E+01  0.0000000000000E+00
-0.4002760963276E+00 -0.3689375225175E+01  0.0000000000000E+00
-0.4003681285104E+00 -0.3419166751035E+01  0.0000000000000E+00
-0.4004601606782E+00 -0.3148958320598E+01  0.0000000000000E+00
-0.4005521926376E+00 -0.2878750502193E+01  0.0000000000000E+00
-0.4006759701308E+00 -0.2608542572267E+01  0.0000000000000E+00
-0.4021755446342E+00 -0.2338381023669E+01  0.0000000000000E+00
-0.4069798775797E+00 -0.2068586985259E+01  0.0000000000000E+00
-0.4157586045532E+00 -0.1799746197149E+01  0.0000000000000E+00
-0.4296637458056E+00 -0.1532991487684E+01  0.0000000000000E+00
-0.4503747273917E+00 -0.1270526469521E+01  0.0000000000000E+00
-0.3000852508314E+00 -0.4229064567189E+01  0.0000000000000E+00
-0.3001705018216E+00 -0.3958128629492E+01  0.0000000000000E+00
-0.3002557527469E+00 -0.3687192898171E+01  0.0000000000000E+00
-0.3003410037306E+00 -0.3416256981115E+01  0.0000000000000E+00
-0.3004262547005E+00 -0.3145321107880E+01  0.0000000000000E+00
-0.3005115054774E+00 -0.2874385848324E+01  0.0000000000000E+00
-0.3006205654110E+00 -0.2603450476899E+01  0.0000000000000E+00
-0.3017614723644E+00 -0.2332561517385E+01  0.0000000000000E+00
-0.3053809474439E+00 -0.2062040093718E+01  0.0000000000000E+00
-0.3119812173880E+00 -0.1792471942503E+01  0.0000000000000E+00
-0.3224262962208E+00 -0.1524989942106E+01  0.0000000000000E+00
-0.3379757518861E+00 -0.1261797773819E+01  0.0000000000000E+00
-0.2000645910774E+00 -0.4228543930336E+01  0.0000000000000E+00
-0.2001291822752E+00 -0.3957087354814E+01  0.0000000000000E+00
-0.2001937734238E+00 -0.3685630986067E+01  0.0000000000000E+00
-0.2002583646167E+00 -0.3414174431227E+01  0.0000000000000E+00
-0.2003229557992E+00 -0.3142717920292E+01  0.0000000000000E+00
-0.2003875468353E+00 -0.2871262024215E+01  0.0000000000000E+00
-0.2004680106456E+00 -0.2599806016021E+01  0.0000000000000E+00
-0.2012363721174E+00 -0.2328396441625E+01  0.0000000000000E+00
-0.2036571120054E+00 -0.2057354421441E+01  0.0000000000000E+00
-0.2080650481579E+00 -0.1787265689563E+01  0.0000000000000E+00
-0.2150361893667E+00 -0.1519263160159E+01  0.0000000000000E+00
-0.2254102468335E+00 -0.1255550563641E+01  0.0000000000000E+00
-0.1000346286805E+00 -0.4228231131660E+01  0.0000000000000E+00
-0.1000692574256E+00 -0.3956461756881E+01  0.0000000000000E+00
-0.1001038861442E+00 -0.3684692589113E+01  0.0000000000000E+00
-0.1001385148866E+00 -0.3412923235039E+01  0.0000000000000E+00
-0.1001731436234E+00 -0.3141153924920E+01  0.0000000000000E+00
-0.1002077722818E+00 -0.2869385230368E+01  0.0000000000000E+00
-0.1002503373280E+00 -0.2597616423549E+01  0.0000000000000E+00
-0.1006368510972E+00 -0.2325894063679E+01  0.0000000000000E+00
-0.1018495539704E+00 -0.2054539269053E+01  0.0000000000000E+00
-0.1040558548743E+00 -0.1784137772259E+01  0.0000000000000E+00
-0.1075437580328E+00 -0.1515822508974E+01  0.0000000000000E+00
-0.1127331188180E+00 -0.1251797239122E+01  0.0000000000000E+00
 0.4887485772492E-09 -0.4228126795781E+01  0.0000000000000E+00
 0.9774981868636E-09 -0.3956253084928E+01  0.0000000000000E+00
 0.1466247545429E-08 -0.3684379581167E+01  0.0000000000000E+00
 0.1954997065399E-08 -0.3412505891027E+01  0.0000000000000E+00
 0.2443746498175E-08 -0.3140632244859E+01  0.0000000000000E+00
 0.2932494598848E-08 -0.2868759214495E+01  0.0000000000000E+00
 0.3421899210405E-08 -0.2596886071814E+01  0.0000000000000E+00
 0.3922778127281E-08 -0.2325059380468E+01  0.0000000000000E+00
 0.4449091723845E-08 -0.2053600258046E+01  0.0000000000000E+00
 0.5014271689376E-08 -0.1783094436634E+01  0.0000000000000E+00
 0.5635147017544E-08 -0.1514674859084E+01  0.0000000000000E+00
 0.6319325163968E-08 -0.1250545295161E+01  0.0000000000000E+00
 0.1000346296577E+00 -0.4228231131685E+01  0.0000000000000E+00
 0.1000692593800E+00 -0.3956461756930E+01  0.0000000000000E+00
 0.1001038890759E+00 -0.3684692589187E+01  0.0000000000000E+00
 0.1001385187955E+00 -0.3412923235137E+01  0.0000000000000E+00
 0.1001731485096E+00 -0.3141153925043E+01  0.0000000000000E+00
 0.1002077781452E+00 -0.2869385230515E+01  0.0000000000000E+00
 0.1002503441699E+00 -0.2597616423720E+01  0.0000000000000E+00
 0.1006368589406E+00 -0.2325894063875E+01  0.0000000000000E+00
 0.1018495628661E+00 -0.2054539269274E+01  0.0000000000000E+00
 0.1040558649001E+00 -0.1784137772505E+01  0.0000000000000E+00
 0.1075437693001E+00 -0.1515822509245E+01  0.0000000000000E+00
 0.1127331314534E+00 -0.1251797239418E+01  0.0000000000000E+00
 0.2000645920539E+00 -0.4228543930385E+01  0.0000000000000E+00
 0.2001291842281E+00 -0.3957087354912E+01  0.0000000000000E+00
 0.2001937763531E+00 -0.3685630986214E+01  0.0000000000000E+00
 0.2002583685224E+00 -0.3414174431423E+01  0.0000000000000E+00
 0.2003229606813E+00 -0.3142717920537E+01  0.0000000000000E+00
 0.2003875526938E+00 -0.2871262024509E+01  0.0000000000000E+00
 0.2004680174818E+00 -0.2599806016364E+01  0.0000000000000E+00
 0.2012363799543E+00 -0.2328396442017E+01  0.0000000000000E+00
 0.2036571208939E+00 -0.2057354421882E+01  0.0000000000000E+00
 0.2080650581756E+00 -0.1787265690053E+01  0.0000000000000E+00
 0.2150362006252E+00 -0.1519263160700E+01  0.0000000000000E+00
 0.2254102594592E+00 -0.1255550564233E+01  0.0000000000000E+00
 0.3000852518064E+00 -0.4229064567263E+01  0.0000000000000E+00
 0.3001705037717E+00 -0.3958128629638E+01  0.0000000000000E+00
 0.3002557556721E+00 -0.3687192898391E+01  0.0000000000000E+00
 0.3003410076309E+00 -0.3416256981409E+01  0.0000000000000E+00
 0.3004262595759E+00 -0.3145321108247E+01  0.0000000000000E+00
 0.3005115113278E+00 -0.2874385848765E+01  0.0000000000000E+00
 0.3006205722378E+00 -0.2603450477413E+01  0.0000000000000E+00
 0.3017614801906E+00 -0.2332561517972E+01  0.0000000000000E+00
 0.3053809563202E+00 -0.2062040094379E+01  0.0000000000000E+00
 0.3119812273923E+00 -0.1792471943238E+01  0.0000000000000E+00
 0.3224263074645E+00 -0.1524989942916E+01  0.0000000000000E+00
 0.3379757644956E+00 -0.1261797774705E+01  0.0000000000000E+00
 0.4000920329915E+00 -0.4229792008903E+01  0.0000000000000E+00
 0.4001840661544E+00 -0.3959583514274E+01  0.0000000000000E+00
 0.4002760992473E+00 -0.3689375225468E+01  0.0000000000000E+00
 0.4003681324032E+00 -0.3419166751426E+01  0.0000000000000E+00
 0.4004601655443E+00 -0.3148958321087E+01  0.0000000000000E+00
 0.4005521984769E+00 -0.2878750502779E+01  0.0000000000000E+00
 0.4006759769446E+00 -0.2608542572950E+01  0.0000000000000E+00
 0.4021755524455E+00 -0.2338381024450E+01  0.0000000000000E+00
 0.4069798864393E+00 -0.2068586986138E+01  0.0000000000000E+00
 0.4157586145388E+00 -0.1799746198126E+01  0.0000000000000E+00
 0.4296637570287E+00 -0.1532991488761E+01  0.0000000000000E+00
 0.4503747399788E+00 -0.1270526470699E+01  0.0000000000000E+00
 0.5000804456148E+00 -0.4230724823936E+01  0.0000000000000E+00
 0.5001608913794E+00 -0.3961449146080E+01  0.0000000000000E+00
 0.5002413370828E+00 -0.3692173673336E+01  0.0000000000000E+00
 0.5003217828414E+00 -0.3422898015995E+01  0.0000000000000E+00
 0.5004022285869E+00 -0.3153622402205E+01  0.0000000000000E+00
 0.5004826741502E+00 -0.2884347398335E+01  0.0000000000000E+00
 0.5006028016172E+00 -0.2615072283390E+01  0.0000000000000E+00
 0.5024426768880E+00 -0.2345843510556E+01  0.0000000000000E+00
 0.5084135016351E+00 -0.2076982215009E+01  0.0000000000000E+00
 0.5193523202339E+00 -0.1809074141356E+01  0.0000000000000E+00
 0.5366991604660E+00 -0.1543252053798E+01  0.0000000000000E+00
 0.5625533082551E+00 -0.1281719476986E+01  0.0000000000000E+00
 0.6000461218279E+00 -0.4231861199321E+01  0.0000000000000E+00
 0.6000922437418E+00 -0.3963721898967E+01  0.0000000000000E+00
 0.6001383656205E+00 -0.3695582802860E+01  0.0000000000000E+00
 0.6001844875309E+00 -0.3427443522934E+01  0.0000000000000E+00
 0.6002306094338E+00 -0.3159304286377E+01  0.0000000000000E+00
 0.6002767312322E+00 -0.2891165657164E+01  0.0000000000000E+00
 0.6003704712945E+00 -0.2623026917422E+01  0.0000000000000E+00
 0.6025279110018E+00 -0.2354934472014E+01  0.0000000000000E+00
 0.6096424922462E+00 -0.2087209463812E+01  0.0000000000000E+00
 0.6227186681119E+00 -0.1820437642898E+01  0.0000000000000E+00
 0.6434844755368E+00 -0.1555751695333E+01  0.0000000000000E+00
 0.6744590625834E+00 -0.1295355038553E+01  0.0000000000000E+00
 0.7001320631225E+00 -0.4233224378709E+01  0.0000000000000E+00
 0.7002641264910E+00 -0.3966448260282E+01  0.0000000000000E+00
 0.7003961897590E+00 -0.3699672345064E+01  0.0000000000000E+00
 0.7005282531175E+00 -0.3432896246962E+01  0.0000000000000E+00
 0.7006603164547E+00 -0.3166120192008E+01  0.0000000000000E+00
 0.7007923794927E+00 -0.2899344741312E+01  0.0000000000000E+00
 0.7009800739835E+00 -0.2632569180737E+01  0.0000000000000E+00
 0.7035787420499E+00 -0.2365839857188E+01  0.0000000000000E+00
 0.7119687314878E+00 -0.2099477922762E+01  0.0000000000000E+00
 0.7273235240712E+00 -0.1834069134111E+01  0.0000000000000E+00
 0.7516619436088E+00 -0.1570746083561E+01  0.0000000000000E+00
 0.7879270503888E+00 -0.1311712059933E+01  0.0000000000000E+00
 0.8001857876070E+00 -0.4234793459093E+01  0.0000000000000E+00
 0.8003715755602E+00 -0.3969586423974E+01  0.0000000000000E+00
 0.8005573633719E+00 -0.3704379590870E+01  0.0000000000000E+00
 0.8007431513109E+00 -0.3439172575956E+01  0.0000000000000E+00
 0.8009289392199E+00 -0.3173965603937E+01  0.0000000000000E+00
 0.8011147267081E+00 -0.2908759232622E+01  0.0000000000000E+00
 0.8013641588250E+00 -0.2643552752179E+01  0.0000000000000E+00
 0.8043718399043E+00 -0.2378392442794E+01  0.0000000000000E+00
 0.8140050235710E+00 -0.2113599467189E+01  0.0000000000000E+00
 0.8316062201831E+00 -0.1849759589576E+01  0.0000000000000E+00
 0.8594850427209E+00 -0.1588005294388E+01  0.0000000000000E+00
 0.9010084668621E+00 -0.1330539722403E+01  0.0000000000000E+00
 0.9002032026046E+00 -0.4236565443819E+01  0.0000000000000E+00
 0.9004064055879E+00 -0.3973130396729E+01  0.0000000000000E+00
 0.9006096084164E+00 -0.3709695550303E+01  0.0000000000000E+00
 0.9008128113841E+00 -0.3446260523284E+01  0.0000000000000E+00
 0.9010160143191E+00 -0.3182825538872E+01  0.0000000000000E+00
 0.9012192167937E+00 -0.2919391151149E+01  0.0000000000000E+00
 0.9014940770570E+00 -0.2655956655148E+01  0.0000000000000E+00
 0.9048744632536E+00 -0.2392568255708E+01  0.0000000000000E+00
 0.9157145346728E+00 -0.2129547127545E+01  0.0000000000000E+00
 0.9355258301094E+00 -0.1867479043414E+01  0.0000000000000E+00
 0.9669087542606E+00 -0.1607496365898E+01  0.0000000000000E+00
 0.1013654201689E+01 -0.1351802068595E+01  0.0000000000000E+00
 0.1000180433224E+01 -0.4238537027311E+01  0.0000000000000E+00
 0.1000360866785E+01 -0.3977073567387E+01  0.0000000000000E+00
 0.1000541300208E+01 -0.3715610306624E+01  0.0000000000000E+00
 0.1000721733755E+01 -0.3454146866620E+01  0.0000000000000E+00
 0.1000902167272E+01 -0.3192683468904E+01  0.0000000000000E+00
 0.1001082600381E+01 -0.2931220663413E+01  0.0000000000000E+00
 0.1001342704421E+01 -0.2669757750586E+01  0.0000000000000E+00
 0.1005055613146E+01 -0.2408340851431E+01  0.0000000000000E+00
 0.1017062391362E+01 -0.2147291154013E+01  0.0000000000000E+00
 0.1039043606153E+01 -0.1887194440587E+01  0.0000000000000E+00
 0.1073890456770E+01 -0.1629182938163E+01  0.0000000000000E+00
 0.1125817760564E+01 -0.1375459434325E+01  0.0000000000000E+00
 0.1100113834963E+01 -0.4240704626083E+01  0.0000000000000E+00
 0.1100227670138E+01 -0.3981408768970E+01  0.0000000000000E+00
 0.1100341505226E+01 -0.3722113109368E+01  0.0000000000000E+00
 0.1100455340392E+01 -0.3462817272011E+01  0.0000000000000E+00
 0.1100569175539E+01 -0.3203521476591E+01  0.0000000000000E+00
 0.1100683010429E+01 -0.2944226268485E+01  0.0000000000000E+00
 0.1100884529376E+01 -0.2684930954082E+01  0.0000000000000E+00
 0.1104886133752E+01 -0.2425681562221E+01  0.0000000000000E+00
 0.1118015793799E+01 -0.2166799295642E+01  0.0000000000000E+00
 0.1142123104751E+01 -0.1908869947046E+01  0.0000000000000E+00
 0.1180390063557E+01 -0.1653025594392E+01  0.0000000000000E+00
 0.1237455414674E+01 -0.1401468820754E+01  0.0000000000000E+00
-0.6115187998158E+00 -0.8332854567967E+00  0.0000000000000E+00
-0.6360934679390E+00 -0.6348412483069E+00  0.0000000000000E+00
-0.6794192189648E+00 -0.4410409171563E+00  0.0000000000000E+00
-0.7227449691204E+00 -0.2472405858188E+00  0.0000000000000E+00
-0.7473196352196E+00 -0.4879637708374E-01  0.0000000000000E+00
-0.4900304976362E+00 -0.8165244897400E+00  0.0000000000000E+00
-0.5101458094518E+00 -0.6134440706263E+00  0.0000000000000E+00
-0.5452621098165E+00 -0.4150059217465E+00  0.0000000000000E+00
-0.5803784093109E+00 -0.2165677727173E+00  0.0000000000000E+00
-0.6004937191026E+00 -0.1348735340736E-01  0.0000000000000E+00
-0.3680102833953E+00 -0.8033732323218E+00  0.0000000000000E+00
-0.3833731735556E+00 -0.5965968915260E+00  0.0000000000000E+00
-0.4099868782566E+00 -0.3944615397994E+00  0.0000000000000E+00
-0.4366005820875E+00 -0.1923261879607E+00  0.0000000000000E+00
-0.4519634702237E+00  0.1445015298224E-01  0.0000000000000E+00
-0.2455767441787E+00 -0.7939150850773E+00  0.0000000000000E+00
-0.2559543543090E+00 -0.5844478865996E+00  0.0000000000000E+00
-0.2738325428136E+00 -0.3796207444206E+00  0.0000000000000E+00
-0.2917107304479E+00 -0.1747936021669E+00  0.0000000000000E+00
-0.3020883385541E+00  0.3467359640896E-01  0.0000000000000E+00
-0.1228602712841E+00 -0.7882135726758E+00  0.0000000000000E+00
-0.1280906358899E+00 -0.5771106568268E+00  0.0000000000000E+00
-0.1370713002851E+00 -0.3706472302586E+00  0.0000000000000E+00
-0.1460519638101E+00 -0.1641838036529E+00  0.0000000000000E+00
-0.1512823263918E+00  0.4691911224508E-01  0.0000000000000E+00
 0.4639953197665E-08 -0.7863085397142E+00  0.0000000000000E+00
 0.2438376904880E-08 -0.5746567624190E+00  0.0000000000000E+00
 0.8860634463816E-09 -0.3676442841328E+00  0.0000000000000E+00
 0.2040043842070E-09 -0.1606318058467E+00  0.0000000000000E+00
 0.2656064743240E-10  0.5101997144851E-01  0.0000000000000E+00
 0.1228602805611E+00 -0.7882135729637E+00  0.0000000000000E+00
 0.1280906407643E+00 -0.5771106570131E+00  0.0000000000000E+00
 0.1370713020555E+00 -0.3706472303134E+00  0.0000000000000E+00
 0.1460519642170E+00 -0.1641838036510E+00  0.0000000000000E+00
 0.1512823264443E+00  0.4691911225053E-01  0.0000000000000E+00
 0.2455767534469E+00 -0.7939150856526E+00  0.0000000000000E+00
 0.2559543591764E+00 -0.5844478869718E+00  0.0000000000000E+00
 0.2738325445787E+00 -0.3796207445299E+00  0.0000000000000E+00
 0.2917107308512E+00 -0.1747936021627E+00  0.0000000000000E+00
 0.3020883386049E+00  0.3467359641997E-01  0.0000000000000E+00
 0.3680102926490E+00 -0.8033732331834E+00  0.0000000000000E+00
 0.3833731784114E+00 -0.5965968920832E+00  0.0000000000000E+00
 0.4099868800130E+00 -0.3944615399625E+00  0.0000000000000E+00
 0.4366005824850E+00 -0.1923261879540E+00  0.0000000000000E+00
 0.4519634702716E+00  0.1445015299901E-01  0.0000000000000E+00
 0.4900305068696E+00 -0.8165244908864E+00  0.0000000000000E+00
 0.5101458142914E+00 -0.6134440713673E+00  0.0000000000000E+00
 0.5452621115607E+00 -0.4150059219625E+00  0.0000000000000E+00
 0.5803784097003E+00 -0.2165677727073E+00  0.0000000000000E+00
 0.6004937191464E+00 -0.1348735338452E-01  0.0000000000000E+00
 0.6115188090235E+00 -0.8332854582258E+00  0.0000000000000E+00
 0.6360934727580E+00 -0.6348412492300E+00  0.0000000000000E+00
 0.6794192206936E+00 -0.4410409174240E+00  0.0000000000000E+00
 0.7227449694995E+00 -0.2472405858048E+00  0.0000000000000E+00
 0.7473196352583E+00 -0.4879637705442E-01  0.0000000000000E+00
-0.1484852973577E+01 -0.9174120796458E+00  0.0000000000000E+00
-0.1578237389975E+01 -0.6377501597125E+00  0.0000000000000E+00
-0.1627081831394E+01 -0.3461418457002E+00  0.0000000000000E+00
-0.1644367097508E+01 -0.5143939162634E-01  0.0000000000000E+00
-0.1618114001260E+01  0.2415211371712E+00  0.0000000000000E+00
-0.1335224321900E+01 -0.9003210610910E+00  0.0000000000000E+00
-0.1415496926509E+01 -0.6388666172679E+00  0.0000000000000E+00
-0.1464637568073E+01 -0.3687852468081E+00  0.0000000000000E+00
-0.1488530823499E+01 -0.9622880848338E-01  0.0000000000000E+00
-0.1473093549045E+01  0.1758651135666E+00  0.0000000000000E+00
-0.1185121040176E+01 -0.8853528073363E+00  0.0000000000000E+00
-0.1252376728997E+01 -0.6416814512256E+00  0.0000000000000E+00
-0.1301908575049E+01 -0.3927021285936E+00  0.0000000000000E+00
-0.1332504848654E+01 -0.1418666902213E+00  0.0000000000000E+00
-0.1327978218284E+01  0.1097847233199E+00  0.0000000000000E+00
-0.1034582589492E+01 -0.8725461249254E+00  0.0000000000000E+00
-0.1088908366660E+01 -0.6462257095777E+00  0.0000000000000E+00
-0.1138918522223E+01 -0.4179157717255E+00  0.0000000000000E+00
-0.1176304942248E+01 -0.1883685480844E+00  0.0000000000000E+00
-0.1182775895291E+01  0.4327220802614E-01  0.0000000000000E+00
-0.8836509293774E+00 -0.8619368112874E+00  0.0000000000000E+00
-0.9251254089310E+00 -0.6525280329048E+00  0.0000000000000E+00
-0.9756925799663E+00 -0.4444476516563E+00  0.0000000000000E+00
-0.1019947873712E+01 -0.2357486904232E+00  0.0000000000000E+00
-0.1037494967010E+01 -0.2367958893340E-01  0.0000000000000E+00
 0.8836509369720E+00 -0.8619368129093E+00  0.0000000000000E+00
 0.9251254128799E+00 -0.6525280339773E+00  0.0000000000000E+00
 0.9756925813684E+00 -0.4444476520333E+00  0.0000000000000E+00
 0.1019947874007E+01 -0.2357486904761E+00  0.0000000000000E+00
 0.1037494967027E+01 -0.2367958892912E-01  0.0000000000000E+00
 0.1034582595514E+01 -0.8725461263727E+00  0.0000000000000E+00
 0.1088908369771E+01 -0.6462257105493E+00  0.0000000000000E+00
 0.1138918523322E+01 -0.4179157721091E+00  0.0000000000000E+00
 0.1176304942475E+01 -0.1883685481743E+00  0.0000000000000E+00
 0.1182775895296E+01  0.4327220801587E-01  0.0000000000000E+00
 0.1185121044637E+01 -0.8853528085230E+00  0.0000000000000E+00
 0.1252376731279E+01 -0.6416814520278E+00  0.0000000000000E+00
 0.1301908575852E+01 -0.3927021289323E+00  0.0000000000000E+00
 0.1332504848816E+01 -0.1418666903140E+00  0.0000000000000E+00
 0.1327978218277E+01  0.1097847233123E+00  0.0000000000000E+00
 0.1335224324813E+01 -0.9003210619331E+00  0.0000000000000E+00
 0.1415496927973E+01 -0.6388666178334E+00  0.0000000000000E+00
 0.1464637568590E+01 -0.3687852470516E+00  0.0000000000000E+00
 0.1488530823604E+01 -0.9622880854516E-01  0.0000000000000E+00
 0.1473093549031E+01  0.1758651135784E+00  0.0000000000000E+00
 0.1484852974959E+01 -0.9174120800613E+00  0.0000000000000E+00
 0.1578237390635E+01 -0.6377501599757E+00  0.0000000000000E+00
 0.1627081831634E+01 -0.3461418457993E+00  0.0000000000000E+00
 0.1644367097561E+01 -0.5143939162452E-01  0.0000000000000E+00
 0.1618114001241E+01  0.2415211372187E+00  0.0000000000000E+00
-0.8685587789745E+00  0.2690630751812E+00  0.0000000000000E+00
-0.9825873320270E+00  0.3864433342537E+00  0.0000000000000E+00
-0.1096615885079E+01  0.5038235933261E+00  0.0000000000000E+00
-0.1210644438132E+01  0.6212038523985E+00  0.0000000000000E+00
-0.1324672991184E+01  0.7385841114710E+00  0.0000000000000E+00
-0.7054522624224E+00  0.3391531957403E+00  0.0000000000000E+00
-0.8041865612633E+00  0.4866766918061E+00  0.0000000000000E+00
-0.9029208601041E+00  0.6342001878720E+00  0.0000000000000E+00
-0.1001655158945E+01  0.7817236839378E+00  0.0000000000000E+00
-0.1100389457786E+01  0.9292471800037E+00  0.0000000000000E+00
-0.5350582363633E+00  0.3951603542074E+00  0.0000000000000E+00
-0.6132082941826E+00  0.5670562659084E+00  0.0000000000000E+00
-0.6913583520019E+00  0.7389521776094E+00  0.0000000000000E+00
-0.7695084098212E+00  0.9108480893104E+00  0.0000000000000E+00
-0.8476584676405E+00  0.1082744001011E+01  0.0000000000000E+00
-0.3607077040619E+00  0.4393502686020E+00  0.0000000000000E+00
-0.4158948558246E+00  0.6325208363775E+00  0.0000000000000E+00
-0.4710820075873E+00  0.8256914041530E+00  0.0000000000000E+00
-0.5262691593500E+00  0.1018861971928E+01  0.0000000000000E+00
-0.5814563111127E+00  0.1212032539704E+01  0.0000000000000E+00
-0.1815809020258E+00  0.4663424640389E+00  0.0000000000000E+00
-0.2101217943252E+00  0.6726234121955E+00  0.0000000000000E+00
-0.2386626866247E+00  0.8789043603522E+00  0.0000000000000E+00
-0.2672035789242E+00  0.1085185308509E+01  0.0000000000000E+00
-0.2957444712236E+00  0.1291466256666E+01  0.0000000000000E+00
-0.8737826785625E-11  0.4754966703566E+00  0.0000000000000E+00
-0.1747521398897E-10  0.6862819089790E+00  0.0000000000000E+00
-0.2621243465886E-10  0.8970671476014E+00  0.0000000000000E+00
-0.3494948879529E-10  0.1107852386224E+01  0.0000000000000E+00
-0.4368693150978E-10  0.1318637624846E+01  0.0000000000000E+00
 0.1815809020086E+00  0.4663424640422E+00  0.0000000000000E+00
 0.2101217942909E+00  0.6726234122022E+00  0.0000000000000E+00
 0.2386626865732E+00  0.8789043603622E+00  0.0000000000000E+00
 0.2672035788555E+00  0.1085185308522E+01  0.0000000000000E+00
 0.2957444711379E+00  0.1291466256682E+01  0.0000000000000E+00
 0.3607077040458E+00  0.4393502686086E+00  0.0000000000000E+00
 0.4158948557923E+00  0.6325208363908E+00  0.0000000000000E+00
 0.4710820075388E+00  0.8256914041730E+00  0.0000000000000E+00
 0.5262691592854E+00  0.1018861971955E+01  0.0000000000000E+00
 0.5814563110319E+00  0.1212032539737E+01  0.0000000000000E+00
 0.5350582363482E+00  0.3951603542162E+00  0.0000000000000E+00
 0.6132082941524E+00  0.5670562659260E+00  0.0000000000000E+00
 0.6913583519566E+00  0.7389521776358E+00  0.0000000000000E+00
 0.7695084097608E+00  0.9108480893456E+00  0.0000000000000E+00
 0.8476584675650E+00  0.1082744001055E+01  0.0000000000000E+00
 0.7054522624085E+00  0.3391531957509E+00  0.0000000000000E+00
 0.8041865612355E+00  0.4866766918274E+00  0.0000000000000E+00
 0.9029208600626E+00  0.6342001879039E+00  0.0000000000000E+00
 0.1001655158890E+01  0.7817236839804E+00  0.0000000000000E+00
 0.1100389457717E+01  0.9292471800569E+00  0.0000000000000E+00
 0.8685587789630E+00  0.2690630751944E+00  0.0000000000000E+00
 0.9825873320039E+00  0.3864433342801E+00  0.0000000000000E+00
 0.1096615885045E+01  0.5038235933657E+00  0.0000000000000E+00
 0.1210644438086E+01  0.6212038524513E+00  0.0000000000000E+00
 0.1324672991127E+01  0.7385841115370E+00  0.0000000000000E+00
</DataArray>
</Points>
<Cells>
<DataArray type="Int64" Name="connectivity" format="ascii">
0 11 130 75
75 130 131 76
76 131 132 77
77 132 133 78
78 133 134 79
79 134 135 80
80 135 136 81
81 136 137 82
82 137 138 83
83 138 139 84
84 139 140 85
85 140 141 86
86 141 33 3
11 12 142 130
130 142 143 131
131 143 144 132
132 144 145 133
133 145 146 134
134 146 147 135
135 147 148 136
136 148 149 137
137 149 150 138
138 150 151 139
139 151 152 140
140 152 153 141
141 153 34 33
12 13 154 142
142 154 155 143
143 155 156 144
144 156 157 145
145 157 158 146
146 158 159 147
147 159 160 148
148 160 161 149
149 161 162 150
150 162 163 151
151 163 164 152
152 164 165 153
153 165 35 34
13 14 166 154
154 166 167 155
155 167 168 156
156 168 169 157
157 169 170 158
158 170 171 159
159 171 172 160
160 172 173 161
161 173 174 162
162 174 175 163
163 175 176 164
164 176 177 165
165 177 36 35
14 15 178 166
166 178 179 167
167 179 180 168
168 180 181 169
169 181 182 170
170 182 183 171
171 183 184 172
172 184 185 173
173 185 186 174
174 186 187 175
175 187 188 176
176 188 189 177
177 189 37 36
15 16 190 178
178 190 191 179
179 191 192 180
180 192 193 181
181 193 194 182
182 194 195 183
183 195 196 184
184 196 197 185
185 197 198 186
186 198 199 187
187 199 200 188
188 200 201 189
189 201 4 37
16 17 202 190
190 202 203 191
191 203 204 192
192 204 205 193
193 205 206 194
194 206 207 195
195 207 208 196
196 208 209 197
197 209 210 198
198 210 211 199
199 211 212 200
200 212 213 201
201 213 38 4
17 18 214 202
202 214 215 203
203 215 216 204
204 216 217 205
205 217 218 206
206 218 219 207
207 219 220 208
208 220 221 209
209 221 222 210
210 222 223 211
211 223 224 212
212 224 225 213
213 225 39 38
18 19 226 214
214 226 227 215
215 227 228 216
216 228 229 217
217 229 230 218
218 230 231 219
219 231 232 220
220 232 233 221
221 233 234 222
222 234 235 223
223 235 236 224
224 236 237 225
225 237 40 39
19 20 238 226
226 238 239 227
227 239 240 228
228 240 241 229
229 241 242 230
230 242 243 231
231 243 244 232
232 244 245 233
233 245 246 234
234 246 247 235
235 247 248 236
236 248 249 237
237 249 41 40
20 21 250 238
238 250 251 239
239 251 252 240
240 252 253 241
241 253 254 242
242 254 255 243
243 255 256 244
244 256 257 245
245 257 258 246
246 258 259 247
247 259 260 248
248 260 261 249
249 261 42 41
21 1 262 250
250 262 263 251
251 263 264 252
252 264 265 253
253 265 266 254
254 266 267 255
255 267 268 256
256 268 269 257
257 269 270 258
258 270 271 259
259 271 272 260
260 272 273 261
261 273 43 42
1 22 274 262
262 274 275 263
263 275 276 264
264 276 277 265
265 277 278 266
266 278 279 267
267 279 280 268
268 280 281 269
269 281 282 270
270 282 283 271
271 283 284 272
272 284 285 273
273 285 44 43
22 23 286 274
274 286 287 275
275 287 288 276
276 288 289 277
277 289 290 278
278 290 291 279
279 291 292 280
280 292 293 281
281 293 294 282
282 294 295 283
283 295 296 284
284 296 297 285
285 297 45 44
23 24 298 286
286 298 299 287
287 299 300 288
288 300 301 289
289 301 302 290
290 302 303 291
291 303 304 292
292 304 305 293
293 305 306 294
294 306 307 295
295 307 308 296
296 308 309 297
297 309 46 45
24 25 310 298
298 310 311 299
299 311 312 300
300 312 313 301
301 313 314 302
302 314 315 303
303 315 316 304
304 316 317 305
305 317 318 306
306 318 319 307
307 319 320 308
308 320 321 309
309 321 47 46
25 26 322 310
310 322 323 311
311 323 324 312
312 324 325 313
313 325 326 314
314 326 327 315
315 327 328 316
316 328 329 317
317 329 330 318
318 330 331 319
319 331 332 320
320 332 333 321
321 333 48 47
26 27 334 322
322 334 335 323
323 335 336 324
324 336 337 325
325 337 338 326
326 338 339 327
327 339 340 328
328 340 341 329
329 341 342 330
330 342 343 331
331 343 344 332
332 344 345 333
333 345 5 48
27 28 346 334
334 346 347 335
335 347 348 336
336 348 349 337
337 349 350 338
338 350 351 339
339 351 352 340
340 352 353 341
341 353 354 342
342 354 355 343
343 355 356 344
344 356 357 345
345 357 49 5
28 29 358 346
346 358 359 347
347 359 360 348
348 360 361 349
349 361 362 350
350 362 363 351
351 363 364 352
352 364 365 353
353 365 366 354
354 366 367 355
355 367 368 356
356 368 369 357
357 369 50 49
29 30 370 358
358 370 371 359
359 371 372 360
360 372 373 361
361 373 374 362
362 374 375 363
363 375 376 364
364 376 377 365
365 377 378 366
366 378 379 367
367 379 380 368
368 380 381 369
369 381 51 50
30 31 382 370
370 382 383 371
371 383 384 372
372 384 385 373
373 385 386 374
374 386 387 375
375 387 388 376
376 388 389 377
377 389 390 378
378 390 391 379
379 391 392 380
380 392 393 381
381 393 52 51
31 32 394 382
382 394 395 383
383 395 396 384
384 396 397 385
385 397 398 386
386 398 399 387
387 399 400 388
388 400 401 389
389 401 402 390
390 402 403 391
391 403 404 392
392 404 405 393
393 405 53 52
32 2 98 394
394 98 97 395
395 97 96 396
396 96 95 397
397 95 94 398
398 94 93 399
399 93 92 400
400 92 91 401
401 91 90 402
402 90 89 403
403 89 88 404
404 88 87 405
405 87 6 53
4 38 406 114
114 406 407 113
113 407 408 112
112 408 409 111
111 409 410 110
110 410 99 9
38 39 411 406
406 411 412 407
407 412 413 408
408 413 414 409
409 414 415 410
410 415 100 99
39 40 416 411
411 416 417 412
412 417 418 413
413 418 419 414
414 419 420 415
415 420 101 100
40 41 421 416
416 421 422 417
417 422 423 418
418 423 424 419
419 424 425 420
420 425 102 101
41 42 426 421
421 426 427 422
422 427 428 423
423 428 429 424
424 429 430 425
425 430 103 102
42 43 431 426
426 431 432 427
427 432 433 428
428 433 434 429
429 434 435 430
430 435 104 103
43 44 436 431
431 436 437 432
432 437 438 433
433 438 439 434
434 439 440 435
435 440 105 104
44 45 441 436
436 441 442 437
437 442 443 438
438 443 444 439
439 444 445 440
440 445 106 105
45 46 446 441
441 446 447 442
442 447 448 443
443 448 449 444
444 449 450 445
445 450 107 106
46 47 451 446
446 451 452 447
447 452 453 448
448 453 454 449
449 454 455 450
450 455 108 107
47 48 456 451
451 456 457 452
452 457 458 453
453 458 459 454
454 459 460 455
455 460 109 108
48 5 119 456
456 119 118 457
457 118 117 458
458 117 116 459
459 116 115 460
460 115 10 109
3 33 461 54
54 461 462 55
55 462 463 56
56 463 464 57
57 464 465 58
58 465 124 7
33 34 466 461
461 466 467 462
462 467 468 463
463 468 469 464
464 469 470 465
465 470 123 124
34 35 471 466
466 471 472 467
467 472 473 468
468 473 474 469
469 474 475 470
470 475 122 123
35 36 476 471
471 476 477 472
472 477 478 473
473 478 479 474
474 479 480 475
475 480 121 122
36 37 481 476
476 481 482 477
477 482 483 478
478 483 484 479
479 484 485 480
480 485 120 121
37 4 114 481
481 114 113 482
482 113 112 483
483 112 111 484
484 111 110 485
485 110 9 120
5 49 486 119
119 486 487 118
118 487 488 117
117 488 489 116
116 489 490 115
115 490 125 10
49 50 491 486
486 491 492 487
487 492 493 488
488 493 494 489
489 494 495 490
490 495 126 125
50 51 496 491
491 496 497 492
492 497 498 493
493 498 499 494
494 499 500 495
495 500 127 126
51 52 501 496
496 501 502 497
497 502 503 498
498 503 504 499
499 504 505 500
500 505 128 127
52 53 506 501
501 506 507 502
502 507 508 503
503 508 509 504
504 509 510 505
505 510 129 128
53 6 74 506
506 74 73 507
507 73 72 508
508 72 71 509
509 71 70 510
510 70 8 129
9 99 511 120
120 511 512 121
121 512 513 122
122 513 514 123
123 514 515 124
124 515 59 7
99 100 516 511
511 516 517 512
512 517 518 513
513 518 519 514
514 519 520 515
515 520 60 59
100 101 521 516
516 521 522 517
517 522 523 518
518 523 524 519
519 524 525 520
520 525 61 60
101 102 526 521
521 526 527 522
522 527 528 523
523 528 529 524
524 529 530 525
525 530 62 61
102 103 531 526
526 531 532 527
527 532 533 528
528 533 534 529
529 534 535 530
530 535 63 62
103 104 536 531
531 536 537 532
532 537 538 533
533 538 539 534
534 539 540 535
535 540 64 63
104 105 541 536
536 541 542 537
537 542 543 538
538 543 544 539
539 544 545 540
540 545 65 64
105 106 546 541
541 546 547 542
542 547 548 543
543 548 549 544
544 549 550 545
545 550 66 65
106 107 551 546
546 551 552 547
547 552 553 548
548 553 554 549
549 554 555 550
550 555 67 66
107 108 556 551
551 556 557 552
552 557 558 553
553 558 559 554
554 559 560 555
555 560 68 67
108 109 561 556
556 561 562 557
557 562 563 558
558 563 564 559
559 564 565 560
560 565 69 68
109 10 125 561
561 125 126 562
562 126 127 563
563 127 128 564
564 128 129 565
565 129 8 69
</DataArray>
<DataArray type="Int64" Name="offsets" format="ascii">
4
8
12
16
20
24
28
32
36
40
44
48
52
56
60
64
68
72
76
80
84
88
92
96
100
104
108
112
116
120
124
128
132
136
140
144
148
152
156
160
164
168
172
176
180
184
188
192
196
200
204
208
212
216
220
224
228
232
236
240
244
248
252
256
260
264
268
272
276
280
284
288
292
296
300
304
308
312
316
320
324
328
332
336
340
344
348
352
356
360
364
368
372
376
380
384
388
392
396
400
404
408
412
416
420
424
428
432
436
440
444
448
452
456
460
464
468
472
476
480
484
488
492
496
500
504
508
512
516
520
524
528
532
536
540
544
548
552
556
560
564
568
572
576
580
584
588
592
596
600
604
608
612
616
620
624
628
632
636
640
644
648
652
656
660
664
668
672
676
680
684
688
692
696
700
704
708
712
716
720
724
728
732
736
740
744
748
752
756
760
764
768
772
776
780
784
788
792
796
800
804
808
812
816
820
824
828
832
836
840
844
848
852
856
860
864
868
872
876
880
884
888
892
896
900
904
908
912
916
920
924
928
932
936
940
944
948
952
956
960
964
968
972
976
980
984
988
992
996
1000
1004
1008
1012
1016
1020
1024
1028
1032
1036
1040
1044
1048
1052
1056
1060
1064
1068
1072
1076
1080
1084
1088
1092
1096
1100
1104
1108
1112
1116
1120
1124
1128
1132
1136
1140
1144
1148
1152
1156
1160
1164
1168
1172
1176
1180
1184
1188
1192
1196
1200
1204
1208
1212
1216
1220
1224
1228
1232
1236
1240
1244
1248
1252
1256
1260
1264
1268
1272
1276
1280
1284
1288
1292
1296
1300
1304
1308
1312
1316
1320
1324
1328
1332
1336
1340
1344
1348
1352
1356
1360
1364
1368
1372
1376
1380
1384
1388
1392
1396
1400
1404
1408
1412
1416
1420
1424
1428
1432
1436
1440
1444
1448
1452
1456
1460
1464
1468
1472
1476
1480
1484
1488
1492
1496
1500
1504
1508
1512
1516
1520
1524
1528
1532
1536
1540
1544
1548
1552
1556
1560
1564
1568
1572
1576
1580
1584
1588
1592
1596
1600
1604
1608
1612
1616
1620
1624
1628
1632
1636
1640
1644
1648
1652
1656
1660
1664
1668
1672
1676
1680
1684
1688
1692
1696
1700
1704
1708
1712
1716
1720
1724
1728
1732
1736
1740
1744
1748
1752
1756
1760
1764
1768
1772
1776
1780
1784
1788
1792
1796
1800
1804
1808
1812
1816
1820
1824
1828
1832
1836
1840
1844
1848
1852
1856
1860
1864
1868
1872
1876
1880
1884
1888
1892
1896
1900
1904
1908
1912
1916
1920
1924
1928
1932
1936
1940
1944
1948
1952
1956
1960
1964
1968
1972
1976
1980
1984
1988
1992
1996
2000
2004
2008
2012
2016
2020
2024
2028
2032
2036
2040
2044
2048
2052
2056
2060
2064
2068
2072
2076
2080
2084
2088
2092
2096
2100
2104
2108
2112
</DataArray>
<DataArray type="Int64" Name="types" format="ascii">
9
9
9
9
9
9
9
9
9
9
9
9
9
9
9
9
9
9
9
9
9
9
9
9
9
9
9
9
9
9
9
9
9
9
9
9
9
9
9
9
9
9
9
9
9
9
9
9
9
9
9
9
9
9
9
9
9
9
9
9
9
9
9
9
9
9
9
9
9
9
9
9
9
9
9
9
9
9
9
9
9
9
9
9
9
9
9
9
9
9
9
9
9
9
9
9
9
9
9
9
9
9
9
9
9
9
9
9
9
9
9
9
9
9
9
9
9
9
9
9
9
9
9
9
9
9
9
9
9
9
9
9
9
9
9
9
9
9
9
9
9
9
9
9
9
9
9
9
9
9
9
9
9
9
9
9
9
9
9
9
9
9
9
9
9
9
9
9
9
9
9
9
9
9
9
9
9
9
9
9
9
9
9
9
9
9
9
9
9
9
9
9
9
9
9
9
9
9
9
9
9
9
9
9
9
9
9
9
9
9
9
9
9
9
9
9
9
9
9
9
9
9
9
9
9
9
9
9
9
9
9
9
9
9
9
9
9
9
9
9
9
9
9
9
9
9
9
9
9
9
9
9
9
9
9
9
9
9
9
9
9
9
9
9
9
9
9
9
9
9
9
9
9
9
9
9
9
9
9
9
9
9
9
9
9
9
9
9
9
9
9
9
9
9
9
9
9
9
9
9
9
9
9
9
9
9
9
9
9
9
9
9
9
9
9
9
9
9
9
9
9
9
9
9
9
9
9
9
9
9
9
9
9
9
9
9
9
9
9
9
9
9
9
9
9
9
9
9
9
9
9
9
9
9
9
9
9
9
9
9
9
9
9
9
9
9
9
9
9
9
9
9
9
9
9
9
9
9
9
9
9
9
9
9
9
9
9
9
9
9
9
9
9
9
9
9
9
9
9
9
9
9
9
9
9
9
9
9
9
9
9
9
9
9
9
9
9
9
9
9
9
9
9
9
9
9
9
9
9
9
9
9
9
9
9
9
9
9
9
9
9
9
9
9
9
9
9
9
9
9
9
9
9
9
9
9
9
9
9
9
9
9
9
9
9
9
9
9
9
9
9
9
9
9
9
9
9
9
9
9
9
9
9
9
9
9
9
9
9
9
9
9
9
9
9
9
9
9
9
9
9
9
9
9
9
9
9
9
9
9
9
9
9
9
9
9
9
9
9
9
9
9
9
9
9
9
9
9
</DataArray>
</Cells>
<PointData Vectors="'U'">
<DataArray type="Float32" Name="U" NumberOfComponents="2" ComponentName0="U1" ComponentName1="U2" format="ascii">
-0.1564116333611E-02 -0.1482079845573E-36
 0.1401803165209E-03 -0.3022383306027E-36
 0.1844476908445E-02 -0.1482079845573E-36
-0.1097262464464E-01 -0.3377276659012E-01
-0.5944888107479E-02 -0.1900366134942E-01
 0.6225248798728E-02 -0.1900366134942E-01
 0.1125298533589E-01 -0.3377276659012E-01
-0.4338361918926E+00 -0.2621138989925E+00
 0.4341165423393E+00 -0.2621138989925E+00
-0.3650595843792E+00 -0.3145530223846E+00
 0.3653399646282E+00 -0.3145530223846E+00
-0.1421593595296E-02 -0.2976914870288E-36
-0.1278563868254E-02 -0.2988197901315E-36
-0.1135302823968E-02 -0.2997717089939E-36
-0.9920044103637E-03 -0.3005443737567E-36
-0.8489018073305E-03 -0.3011357217086E-36
-0.7061670185067E-03 -0.3015661333346E-36
-0.5639218143187E-03 -0.3018597782304E-36
-0.4222226270940E-03 -0.3020453549886E-36
-0.2810594742186E-03 -0.3021524141913E-36
-0.1403597998433E-03 -0.3022076141404E-36
 0.0000000000000E+00 -0.3022317837363E-36
 0.2803606330417E-03 -0.3022317837363E-36
 0.4207204037812E-03 -0.3022076141404E-36
 0.5614201072603E-03 -0.3021524141913E-36
 0.7025832310319E-03 -0.3020453549886E-36
 0.8442823891528E-03 -0.3018597782304E-36
 0.9865276515484E-03 -0.3015661333346E-36
 0.1129262498580E-02 -0.3011357217086E-36
 0.1272364985198E-02 -0.3005443737567E-36
 0.1415663398802E-02 -0.2997717089939E-36
 0.1558924443088E-02 -0.2988197901315E-36
 0.1701954170130E-02 -0.2976914870288E-36
-0.1088297553360E-01 -0.2738222666085E-01
-0.1005249656737E-01 -0.2407629601657E-01
-0.8998331613839E-02 -0.2199136652052E-01
-0.7981668226421E-02 -0.2060699276626E-01
-0.6957971956581E-02 -0.1965991593897E-01
-0.4942556843162E-02 -0.1856286637485E-01
-0.3938396461308E-02 -0.1826206408441E-01
-0.2927588764578E-02 -0.1806325837970E-01
-0.1909704878926E-02 -0.1793893426657E-01
-0.8863671682775E-03 -0.1787122897804E-01
 0.1401803747285E-03 -0.1784982904792E-01
 0.1166727975942E-02 -0.1787122897804E-01
 0.2190065570176E-02 -0.1793893426657E-01
 0.3207949455827E-02 -0.1806325837970E-01
 0.4218757618219E-02 -0.1826206594706E-01
 0.5222917534411E-02 -0.1856286637485E-01
 0.7238333113492E-02 -0.1965991593897E-01
 0.8262028917670E-02 -0.2060699276626E-01
 0.9278692305088E-02 -0.2199136652052E-01
 0.1033285725862E-01 -0.2407629601657E-01
 0.1116333622485E-01 -0.2738222666085E-01
-0.2305419147015E+00 -0.2417229264975E+00
-0.3288515210152E+00 -0.2801776826382E+00
-0.4153291881084E+00 -0.2787042260170E+00
-0.4488165378571E+00 -0.2752124369144E+00
-0.4569272994995E+00 -0.2618333697319E+00
-0.3869666457176E+00 -0.2844845950603E+00
-0.3136473894119E+00 -0.3492442965508E+00
-0.2202068865299E+00 -0.4814646542072E+00
-0.8166579157114E-01 -0.7747735381126E+00
 0.7776030804962E-02 -0.1122161269188E+01
 0.1401804765919E-03 -0.1257794499397E+01
-0.7495669648051E-02 -0.1122161269188E+01
 0.8194615691900E-01 -0.7747735381126E+00
 0.2204872369766E+00 -0.4814646542072E+00
 0.3139277398586E+00 -0.3492442965508E+00
 0.3872469961643E+00 -0.2844845950603E+00
 0.4572076797485E+00 -0.2618333697319E+00
 0.4490969181061E+00 -0.2752124369144E+00
 0.4156095385551E+00 -0.2787042260170E+00
 0.3291319012642E+00 -0.2801776826382E+00
 0.2308222800493E+00 -0.2417229264975E+00
-0.1555515686050E-02 -0.1462781336159E-02
-0.1528221997432E-02 -0.2927851630375E-02
-0.1478612190112E-02 -0.4399668890983E-02
-0.1400639535859E-02 -0.5887233186513E-02
-0.1289872918278E-02 -0.7408205419779E-02
-0.1140533247963E-02 -0.8993173018098E-02
-0.9670035215095E-03 -0.1070992462337E-01
-0.8052578778006E-03 -0.1264692097902E-01
-0.7890333654359E-03 -0.1489022374153E-01
-0.9850738570094E-03 -0.1752746291459E-01
-0.1906118122861E-02 -0.2078858949244E-01
-0.3231904236600E-02 -0.2527566812932E-01
 0.3512264927849E-02 -0.2527566812932E-01
 0.2186478814110E-02 -0.2078858949244E-01
 0.1265434431843E-02 -0.1752746291459E-01
 0.1069394056685E-02 -0.1489022374153E-01
 0.1085618510842E-02 -0.1264692097902E-01
 0.1247364096344E-02 -0.1070992462337E-01
 0.1420893822797E-02 -0.8993173018098E-02
 0.1570233493112E-02 -0.7408205419779E-02
 0.1681000110693E-02 -0.5887233186513E-02
 0.1758972881362E-02 -0.4399668890983E-02
 0.1808582572266E-02 -0.2927851630375E-02
 0.1835876377299E-02 -0.1462781336159E-02
-0.3285571336746E+00 -0.3547624647617E+00
-0.2808333933353E+00 -0.3981319963932E+00
-0.2223589271307E+00 -0.4395788908005E+00
-0.1541716158390E+00 -0.4737215042114E+00
-0.7893080264330E-01 -0.4961126148701E+00
 0.1401804183843E-03 -0.5039442777634E+00
 0.7921116054058E-01 -0.4961126148701E+00
 0.1544519811869E+00 -0.4737215042114E+00
 0.2226392924786E+00 -0.4395788908005E+00
 0.2811137437820E+00 -0.3981319963932E+00
 0.3288374841213E+00 -0.3547624647617E+00
-0.3384081125259E+00 -0.2583118677139E+00
-0.2961127460003E+00 -0.2017687559128E+00
-0.2395602911711E+00 -0.1471414417028E+00
-0.1735432446003E+00 -0.9529659897089E-01
-0.9884627908468E-01 -0.5146302282810E-01
 0.3386884927750E+00 -0.2583118677139E+00
 0.2963931262493E+00 -0.2017687559128E+00
 0.2398406565189E+00 -0.1471414417028E+00
 0.1738236099482E+00 -0.9529659897089E-01
 0.9912663698196E-01 -0.5146302282810E-01
-0.4017008841038E+00 -0.3158386051655E+00
-0.4268184900284E+00 -0.3094476461411E+00
-0.4428062438965E+00 -0.2997350692749E+00
-0.4463450610638E+00 -0.2869921922684E+00
-0.4445084929466E+00 -0.2733600735664E+00
 0.4019812345505E+00 -0.3158386051655E+00
 0.4270988702774E+00 -0.3094476461411E+00
 0.4430865943432E+00 -0.2997350692749E+00
 0.4466254115105E+00 -0.2869921922684E+00
 0.4447888433933E+00 -0.2733600735664E+00
-0.1412852318026E-02 -0.1482682884671E-02
-0.1384896575473E-02 -0.2968439366668E-02
-0.1333269057795E-02 -0.4462333861738E-02
-0.1252041896805E-02 -0.5973676685244E-02
-0.1133740879595E-02 -0.7519321050495E-02
-0.9756634244695E-03 -0.9129013866186E-02
-0.7812565891072E-03 -0.1085014268756E-01
-0.6174235604703E-03 -0.1273221615702E-01
-0.5625604535453E-03 -0.1483335718513E-01
-0.8646819624119E-03 -0.1718394830823E-01
-0.1636597327888E-02 -0.1995732821524E-01
-0.3957006148994E-02 -0.2297609858215E-01
-0.1269736909308E-02 -0.1500662998296E-02
-0.1241044141352E-02 -0.3004578640684E-02
-0.1187946530990E-02 -0.4516632296145E-02
-0.1103308633901E-02 -0.6045367103070E-02
-0.9801402920857E-03 -0.7605159655213E-02
-0.8123483858071E-03 -0.9219587780535E-02
-0.6149527034722E-03 -0.1091460231692E-01
-0.4425206861924E-03 -0.1271948963404E-01
-0.4180787946098E-03 -0.1464677695185E-01
-0.7379879825749E-03 -0.1673033274710E-01
-0.1680819084868E-02 -0.1890091225505E-01
-0.4521558526903E-02 -0.2101925946772E-01
-0.1126384129748E-02 -0.1516514923424E-02
-0.1097369706258E-02 -0.3035873640329E-02
-0.1043311320245E-02 -0.4562184680253E-02
-0.9570225956850E-03 -0.6102039013058E-02
-0.8304422372021E-03 -0.7666265126318E-02
-0.6603019428439E-03 -0.9268434718251E-02
-0.4640532133635E-03 -0.1092081516981E-01
-0.3029941872228E-03 -0.1262807101011E-01
-0.3093146369793E-03 -0.1439000200480E-01
-0.6750535685569E-03 -0.1619148068130E-01
-0.1833486952819E-02 -0.1790494658053E-01
-0.4697403404862E-02 -0.1962003670633E-01
-0.9831456700340E-03 -0.1530140638351E-02
-0.9542959742248E-03 -0.3062262665480E-02
-0.9004758903757E-03 -0.4599039442837E-02
-0.8143285522237E-03 -0.6144577637315E-02
-0.6881829467602E-03 -0.7704504765570E-02
-0.5211399402469E-03 -0.9283685125411E-02
-0.3339237009641E-03 -0.1088134944439E-01
-0.1936717162607E-03 -0.1248778216541E-01
-0.2315903693670E-03 -0.1409120019525E-01
-0.6628888659179E-03 -0.1564549282193E-01
-0.1942060189322E-02 -0.1708535663784E-01
-0.4550108220428E-02 -0.1860847324133E-01
-0.8402718231082E-03 -0.1541567267850E-02
-0.8122983272187E-03 -0.3083877731115E-02
-0.7601066026837E-03 -0.4627802874893E-02
-0.6765613215975E-03 -0.6174358539283E-02
-0.5549546331167E-03 -0.7723791990429E-02
-0.3965551150031E-03 -0.9273025207222E-02
-0.2251100377180E-03 -0.1081121992320E-01
-0.1096469277400E-03 -0.1232067029923E-01
-0.1792981638573E-03 -0.1378065906465E-01
-0.6646222900599E-03 -0.1515010278672E-01
-0.1939890556969E-02 -0.1644167676568E-01
-0.4213442094624E-02 -0.1787083037198E-01
-0.6979830795899E-03 -0.1550895394757E-02
-0.6716917268932E-03 -0.3101068083197E-02
-0.6227128906175E-03 -0.4649348091334E-02
-0.5444846465252E-03 -0.6193448323756E-02
-0.4315330006648E-03 -0.7728504948318E-02
-0.2869023010135E-03 -0.9244613349438E-02
-0.1361196336802E-03 -0.1072408165783E-01
-0.4605552021530E-04 -0.1214493438601E-01
-0.1433289289707E-03 -0.1348529011011E-01
-0.6455785478465E-03 -0.1472975686193E-01
-0.1830083201639E-02 -0.1594613492489E-01
-0.3744901623577E-02 -0.1733386144042E-01
-0.5566288600676E-03 -0.1558181480505E-02
-0.5330709973350E-03 -0.3114091930911E-02
-0.4891341086477E-03 -0.4664476960897E-02
-0.4191011539660E-03 -0.6203882396221E-02
-0.3187218972016E-03 -0.7722934707999E-02
-0.1923001109390E-03 -0.9206358343363E-02
-0.6494965055026E-04 -0.1063228212297E-01
 0.9726609278005E-06 -0.1197747327387E-01
-0.1120676752180E-03 -0.1322649512440E-01
-0.5921426345594E-03 -0.1439285092056E-01
-0.1629520673305E-02 -0.1557643245906E-01
-0.3199788974598E-02 -0.1695057190955E-01
-0.4160527023487E-03 -0.1563768950291E-02
-0.3960441681556E-03 -0.3123775823042E-02
-0.3587158862501E-03 -0.4674800205976E-02
-0.2993601665366E-03 -0.6208545528352E-02
-0.2148952189600E-03 -0.7711837999523E-02
-0.1100733861676E-03 -0.9165371768177E-02
-0.7776196071063E-05 -0.1054484862834E-01
 0.3717069193954E-04 -0.1182827167213E-01
-0.7710201316513E-04 -0.1301025412977E-01
-0.5002138786949E-03 -0.1412934157997E-01
-0.1356887398288E-02 -0.1530148927122E-01
-0.2592905657366E-02 -0.1667663268745E-01
-0.2762231742963E-03 -0.1567857922055E-02
-0.2604993933346E-03 -0.3130645491183E-02
-0.2311674616067E-03 -0.4681451246142E-02
-0.1846395607572E-03 -0.6209619343281E-02
-0.1188386013382E-03 -0.7698994595557E-02
-0.3817711331067E-04 -0.9127395227551E-02
 0.3842867590720E-04 -0.1046936772764E-01
 0.6662504165433E-04 -0.1170555502176E-01
-0.3403453229112E-04 -0.1284102909267E-01
-0.3733927733265E-03 -0.1393287442625E-01
-0.1028610742651E-02 -0.1510439813137E-01
-0.1943329814821E-02 -0.1648617163301E-01
-0.1370314130327E-03 -0.1570630585775E-02
-0.1261927827727E-03 -0.3135173814371E-02
-0.1059792120941E-03 -0.4685421939939E-02
-0.7397895387840E-04 -0.6208960898221E-02
-0.2893915916502E-04 -0.7687507662922E-02
 0.2576979932201E-04 -0.9096983820200E-02
 0.7663315045647E-04 -0.1041155122221E-01
 0.9245346154785E-04 -0.1161476131529E-01
 0.1790899477783E-04 -0.1272022817284E-01
-0.2184607437812E-03 -0.1379743684083E-01
-0.6603809888475E-03 -0.1497224625200E-01
-0.1264311606064E-02 -0.1636177487671E-01
 0.1696426465969E-05 -0.1572231994942E-02
 0.7225500667118E-05 -0.3137731924653E-02
 0.1753457763698E-04 -0.4687480162829E-02
 0.3383376679267E-04 -0.6207979749888E-02
 0.5670601603924E-04 -0.7679674774408E-02
 0.8433234324912E-04 -0.9077417664230E-02
 0.1096683772630E-03 -0.1037533953786E-01
 0.1166155416286E-03 -0.1155915483832E-01
 0.7705514144618E-04 -0.1264795102179E-01
-0.4408081804286E-04 -0.1371819805354E-01
-0.2664170751814E-03 -0.1489632949233E-01
-0.5665792850778E-03 -0.1629164256155E-01
 0.1401803165209E-03 -0.1572755048983E-02
 0.1401803165209E-03 -0.3138557542115E-02
 0.1401803165209E-03 -0.4688111133873E-02
 0.1401803165209E-03 -0.6207553204149E-02
 0.1401803165209E-03 -0.7676905952394E-02
 0.1401803165209E-03 -0.9070675820112E-02
 0.1401803165209E-03 -0.1036302000284E-01
 0.1401803165209E-03 -0.1154044270515E-01
 0.1401803165209E-03 -0.1262390986085E-01
 0.1401803165209E-03 -0.1369212567806E-01
 0.1401803310728E-03 -0.1487158332020E-01
 0.1401803601766E-03 -0.1626898907125E-01
 0.2786641998682E-03 -0.1572231994942E-02
 0.2731351123657E-03 -0.3137731924653E-02
 0.2628260408528E-03 -0.4687480162829E-02
 0.2465268480591E-03 -0.6207979749888E-02
 0.2236546133645E-03 -0.7679674774408E-02
 0.1960282825166E-03 -0.9077417664230E-02
 0.1706922485027E-03 -0.1037533953786E-01
 0.1637450914131E-03 -0.1155915483832E-01
 0.2033054915955E-03 -0.1264795102179E-01
 0.3244414692745E-03 -0.1371819805354E-01
 0.5467777373269E-03 -0.1489632949233E-01
 0.8469400345348E-03 -0.1629164256155E-01
 0.4173920315225E-03 -0.1570630585775E-02
 0.4065533867106E-03 -0.3135173814371E-02
 0.3863398451358E-03 -0.4685421939939E-02
 0.3543395723682E-03 -0.6208960898221E-02
 0.3092997940257E-03 -0.7687507662922E-02
 0.2545908209868E-03 -0.9096983820200E-02
 0.2037274825852E-03 -0.1041155122221E-01
 0.1879071642179E-03 -0.1161476131529E-01
 0.2624516491778E-03 -0.1272022817284E-01
 0.4988213768229E-03 -0.1379743684083E-01
 0.9407416218892E-03 -0.1497224625200E-01
 0.1544672297314E-02 -0.1636177487671E-01
 0.5565838073380E-03 -0.1567857922055E-02
 0.5408599972725E-03 -0.3130645491183E-02
 0.5115281092003E-03 -0.4681451246142E-02
 0.4650001937989E-03 -0.6209619343281E-02
 0.3991992271040E-03 -0.7698994595557E-02
 0.3185377281625E-03 -0.9127395227551E-02
 0.2419319498586E-03 -0.1046936772764E-01
 0.2137355768355E-03 -0.1170555502176E-01
 0.3143951762468E-03 -0.1284102909267E-01
 0.6537534063682E-03 -0.1393287442625E-01
 0.1308971433900E-02 -0.1510439813137E-01
 0.2223690506071E-02 -0.1648617163301E-01
 0.6964133353904E-03 -0.1563768950291E-02
 0.6764048011974E-03 -0.3123775823042E-02
 0.6390765192918E-03 -0.4674800205976E-02
 0.5797207704745E-03 -0.6208545528352E-02
 0.4952558665536E-03 -0.7711837999523E-02
 0.3904340264853E-03 -0.9165371768177E-02
 0.2881368272938E-03 -0.1054484862834E-01
 0.2431899338262E-03 -0.1182827167213E-01
 0.3574626462068E-03 -0.1301025412977E-01
 0.7805745117366E-03 -0.1412934157997E-01
 0.1637248089537E-02 -0.1530148927122E-01
 0.2873266348615E-02 -0.1667663455009E-01
 0.8369894931093E-03 -0.1558181480505E-02
 0.8134315721691E-03 -0.3114091930911E-02
 0.7694947416894E-03 -0.4664476960897E-02
 0.6994617870077E-03 -0.6203882396221E-02
 0.5990825011395E-03 -0.7722934707999E-02
 0.4726607294288E-03 -0.9206358343363E-02
 0.3453102835920E-03 -0.1063228212297E-01
 0.2793879539240E-03 -0.1197747327387E-01
 0.3924283082597E-03 -0.1322649512440E-01
 0.8725032676011E-03 -0.1439285092056E-01
 0.1909881364554E-02 -0.1557643245906E-01
 0.3480149665847E-02 -0.1695057190955E-01
 0.9783437708393E-03 -0.1550895394757E-02
 0.9520523599349E-03 -0.3101068083197E-02
 0.9030735236593E-03 -0.4649348091334E-02
 0.8248452795669E-03 -0.6193448323756E-02
 0.7118936628103E-03 -0.7728504948318E-02
 0.5672629340552E-03 -0.9244613349438E-02
 0.4164802667219E-03 -0.1072408165783E-01
 0.3264161350671E-03 -0.1214493438601E-01
 0.4236895474605E-03 -0.1348529011011E-01
 0.9259391808882E-03 -0.1472975686193E-01
 0.2110443776473E-02 -0.1594613492489E-01
 0.4025262314826E-02 -0.1733386144042E-01
 0.1120632514358E-02 -0.1541567267850E-02
 0.1092658960260E-02 -0.3083877731115E-02
 0.1040467293933E-02 -0.4627802874893E-02
 0.9569218964316E-03 -0.6174358539283E-02
 0.8353152661584E-03 -0.7723791990429E-02
 0.6769157480448E-03 -0.9273025207222E-02
 0.5054706707597E-03 -0.1081121992320E-01
 0.3900075680576E-03 -0.1232067029923E-01
 0.4596587968990E-03 -0.1378065906465E-01
 0.9449829231016E-03 -0.1515010278672E-01
 0.2220251131803E-02 -0.1644167676568E-01
 0.4493802785873E-02 -0.1787083037198E-01
 0.1263506361283E-02 -0.1530140638351E-02
 0.1234656549059E-02 -0.3062262665480E-02
 0.1180836465210E-02 -0.4599039442837E-02
 0.1094689127058E-02 -0.6144577637315E-02
 0.9685435798019E-03 -0.7704504765570E-02
 0.8015005732886E-03 -0.9283685125411E-02
 0.6142843049020E-03 -0.1088134944439E-01
 0.4740323347505E-03 -0.1248778216541E-01
 0.5119509878568E-03 -0.1409120019525E-01
 0.9432494989596E-03 -0.1564549282193E-01
 0.2222420880571E-02 -0.1708535663784E-01
 0.4830468911678E-02 -0.1860847324133E-01
 0.1406744704582E-02 -0.1516514923424E-02
 0.1377730397508E-02 -0.3035873640329E-02
 0.1323671895079E-02 -0.4562184680253E-02
 0.1237383228727E-02 -0.6102039013058E-02
 0.1110802870244E-02 -0.7666265126318E-02
 0.9406625758857E-03 -0.9268434718251E-02
 0.7444138755091E-03 -0.1092081516981E-01
 0.5833547911607E-03 -0.1262807101011E-01
 0.5896752700210E-03 -0.1439000200480E-01
 0.9554142015986E-03 -0.1619148068130E-01
 0.2113847527653E-02 -0.1790494658053E-01
 0.4977764096111E-02 -0.1962003670633E-01
 0.1550097484142E-02 -0.1500662998296E-02
 0.1521404832602E-02 -0.3004578640684E-02
 0.1468307105824E-02 -0.4516632296145E-02
 0.1383669208735E-02 -0.6045367103070E-02
 0.1260500983335E-02 -0.7605159655213E-02
 0.1092709018849E-02 -0.9219587780535E-02
 0.8953133365139E-03 -0.1091460231692E-01
 0.7228812901303E-03 -0.1271948963404E-01
 0.6984394276515E-03 -0.1464677695185E-01
 0.1018348615617E-02 -0.1673033274710E-01
 0.1961179543287E-02 -0.1890091411769E-01
 0.4801918752491E-02 -0.2101925946772E-01
 0.1693212892860E-02 -0.1482682884671E-02
 0.1665257150307E-02 -0.2968439366668E-02
 0.1613629749045E-02 -0.4462333861738E-02
 0.1532402588055E-02 -0.5973676685244E-02
 0.1414101454429E-02 -0.7519321050495E-02
 0.1256023999304E-02 -0.9129013866186E-02
 0.1061617163941E-02 -0.1085014268756E-01
 0.8977841935121E-03 -0.1273221615702E-01
 0.8429210865870E-03 -0.1483335718513E-01
 0.1145042595454E-02 -0.1718394830823E-01
 0.1916958019137E-02 -0.1995732821524E-01
 0.4237366840243E-02 -0.2297609858215E-01
-0.8871782571077E-01 -0.5121553689241E-01
-0.1543537974358E+00 -0.9884022176266E-01
-0.2124107033014E+00 -0.1558975875378E+00
-0.2633502781391E+00 -0.2184300422668E+00
-0.3019075095654E+00 -0.2852284014225E+00
-0.7548667490482E-01 -0.5117850005627E-01
-0.1303980797529E+00 -0.1025868803263E+00
-0.1791812479496E+00 -0.1657193899155E+00
-0.2225546091795E+00 -0.2365536838770E+00
-0.2565739452839E+00 -0.3145396411419E+00
-0.5941628292203E-01 -0.5119245499372E-01
-0.1021132767200E+00 -0.1062194034457E+00
-0.1401382237673E+00 -0.1750428676605E+00
-0.1745476275682E+00 -0.2539515793324E+00
-0.2020215243101E+00 -0.3427227735519E+00
-0.4099226370454E-01 -0.5125382915139E-01
-0.7019226998091E-01 -0.1092032566667E+00
-0.9631920605898E-01 -0.1827173680067E+00
-0.1201896369457E+00 -0.2683794200420E+00
-0.1395997554064E+00 -0.3660322725773E+00
-0.2086768299341E-01 -0.5131037160754E-01
-0.3570201992989E-01 -0.1111586391926E+00
-0.4899705573916E-01 -0.1877709925175E+00
-0.6125245615840E-01 -0.2778743505478E+00
-0.7126911729574E-01 -0.3814173638821E+00
 0.1401811605319E-03 -0.5132695659995E-01
 0.1401810586685E-03 -0.1118478327990E+00
 0.1401806948707E-03 -0.1895200163126E+00
 0.1401804765919E-03 -0.2812072634697E+00
 0.1401804038323E-03 -0.3867567777634E+00
 0.2114804647863E-01 -0.5131037160754E-01
 0.3598238155246E-01 -0.1111586391926E+00
 0.4927741736174E-01 -0.1877709925175E+00
 0.6153281405568E-01 -0.2778743505478E+00
 0.7154948264360E-01 -0.3814173638821E+00
 0.4127262532711E-01 -0.5125382915139E-01
 0.7047263532877E-01 -0.1092032566667E+00
 0.9659957140684E-01 -0.1827173680067E+00
 0.1204699948430E+00 -0.2683794200420E+00
 0.1398801207542E+00 -0.3660322725773E+00
 0.5969664826989E-01 -0.5119245499372E-01
 0.1023936420679E+00 -0.1062194034457E+00
 0.1404185742140E+00 -0.1750428676605E+00
 0.1748279929161E+00 -0.2539515793324E+00
 0.2023018896580E+00 -0.3427227735519E+00
 0.7576704025269E-01 -0.5117850005627E-01
 0.1306784451008E+00 -0.1025868803263E+00
 0.1794616132975E+00 -0.1657193899155E+00
 0.2228349745274E+00 -0.2365536838770E+00
 0.2568543255329E+00 -0.3145396411419E+00
 0.8899818360806E-01 -0.5121553689241E-01
 0.1546341627836E+00 -0.9884022176266E-01
 0.2126910686493E+00 -0.1558975875378E+00
 0.2636306583881E+00 -0.2184300422668E+00
 0.3021878600121E+00 -0.2852284014225E+00
-0.2043392360210E+00 -0.1286986321211E+00
-0.3397937417030E+00 -0.2327380925417E+00
-0.4031943380833E+00 -0.2523266375065E+00
-0.4497248828411E+00 -0.2629198133945E+00
-0.4575631618500E+00 -0.2657314836979E+00
-0.1756978780031E+00 -0.9425121545792E-01
-0.3140451908112E+00 -0.1680218279362E+00
-0.3944996595383E+00 -0.2267540693283E+00
-0.4350390136242E+00 -0.2496150285006E+00
-0.4555449485779E+00 -0.2679365277290E+00
-0.1554115414619E+00 -0.7342140376568E-01
-0.2798519432545E+00 -0.1364331692457E+00
-0.3664321899414E+00 -0.1933129876852E+00
-0.4172228574753E+00 -0.2389846593142E+00
-0.4401285946369E+00 -0.2680881619453E+00
-0.1361707001925E+00 -0.6341677159071E-01
-0.2453217655420E+00 -0.1154816970229E+00
-0.3291305005550E+00 -0.1727734804153E+00
-0.3857304751873E+00 -0.2239047586918E+00
-0.4176401197910E+00 -0.2686614096165E+00
-0.1177452057600E+00 -0.5623155832291E-01
-0.2100190222263E+00 -0.1038569360971E+00
-0.2860715687275E+00 -0.1575208455324E+00
-0.3449511229992E+00 -0.2127131223679E+00
-0.3826562762260E+00 -0.2645132243633E+00
 0.1180255711079E+00 -0.5623155832291E-01
 0.2102993875742E+00 -0.1038569360971E+00
 0.2863519191742E+00 -0.1575208455324E+00
 0.3452314734459E+00 -0.2127131223679E+00
 0.3829366266727E+00 -0.2645132243633E+00
 0.1364510655403E+00 -0.6341677159071E-01
 0.2456021308899E+00 -0.1154816970229E+00
 0.3294108510017E+00 -0.1727734804153E+00
 0.3860108554363E+00 -0.2239047586918E+00
 0.4179204702377E+00 -0.2686614096165E+00
 0.1556919068098E+00 -0.7342140376568E-01
 0.2801322937012E+00 -0.1364331692457E+00
 0.3667125403881E+00 -0.1933129876852E+00
 0.4175032079220E+00 -0.2389846593142E+00
 0.4404089748859E+00 -0.2680881619453E+00
 0.1759782433510E+00 -0.9425121545792E-01
 0.3143255412579E+00 -0.1680218279362E+00
 0.3947800397873E+00 -0.2267540693283E+00
 0.4353193938732E+00 -0.2496150285006E+00
 0.4558252990246E+00 -0.2679365277290E+00
 0.2046196013689E+00 -0.1286986321211E+00
 0.3400740921497E+00 -0.2327380925417E+00
 0.4034746885300E+00 -0.2523266375065E+00
 0.4500052630901E+00 -0.2629198133945E+00
 0.4578435122967E+00 -0.2657314836979E+00
-0.3728445470333E+00 -0.3681744039059E+00
-0.4057029485703E+00 -0.3682993054390E+00
-0.4227417409420E+00 -0.3553523123264E+00
-0.4241035878658E+00 -0.3334545493126E+00
-0.4101250171661E+00 -0.3095420002937E+00
-0.3295260369778E+00 -0.4331930875778E+00
-0.3683065772057E+00 -0.4509830474854E+00
-0.3917310833931E+00 -0.4478863179684E+00
-0.3919134736061E+00 -0.4236257672310E+00
-0.3639151155949E+00 -0.3846207261086E+00
-0.2688192725182E+00 -0.5030934810638E+00
-0.3101115226746E+00 -0.5521906614304E+00
-0.3388355374336E+00 -0.5796888470650E+00
-0.3449391722679E+00 -0.5781239271164E+00
-0.3116209208965E+00 -0.5421031117439E+00
-0.1919031441212E+00 -0.5678447484970E+00
-0.2278560996056E+00 -0.6565031409264E+00
-0.2565767168999E+00 -0.7323207259178E+00
-0.2645724415779E+00 -0.7856372594833E+00
-0.2272629737854E+00 -0.8047637343407E+00
-0.1000567898154E+00 -0.6136875152588E+00
-0.1214433610439E+00 -0.7360687851906E+00
-0.1395367681980E+00 -0.8600551486015E+00
-0.1458087712526E+00 -0.9777589440346E+00
-0.1140327155590E+00 -0.1075365662575E+01
 0.1401804183843E-03 -0.6302417516708E+00
 0.1401804329362E-03 -0.7662419080734E+00
 0.1401804329362E-03 -0.9102493524551E+00
 0.1401804474881E-03 -0.1057589769363E+01
 0.1401804620400E-03 -0.1188479900360E+01
 0.1003371551633E+00 -0.6136875152588E+00
 0.1217237263918E+00 -0.7360687851906E+00
 0.1398171335459E+00 -0.8600551486015E+00
 0.1460891366005E+00 -0.9777589440346E+00
 0.1143130734563E+00 -0.1075365662575E+01
 0.1921835094690E+00 -0.5678447484970E+00
 0.2281364500523E+00 -0.6565031409264E+00
 0.2568570673466E+00 -0.7323207259178E+00
 0.2648527920246E+00 -0.7856372594833E+00
 0.2275433242321E+00 -0.8047637343407E+00
 0.2690996527672E+00 -0.5030934810638E+00
 0.3103918731213E+00 -0.5521906614304E+00
 0.3391158878803E+00 -0.5796888470650E+00
 0.3452195525169E+00 -0.5781239271164E+00
 0.3119013011456E+00 -0.5421031117439E+00
 0.3298063874245E+00 -0.4331930875778E+00
 0.3685869574547E+00 -0.4509830474854E+00
 0.3920114338398E+00 -0.4478863179684E+00
 0.3921938240528E+00 -0.4236257672310E+00
 0.3641954660416E+00 -0.3846207261086E+00
 0.3731249272823E+00 -0.3681744039059E+00
 0.4059833288193E+00 -0.3682993054390E+00
 0.4230220913887E+00 -0.3553523123264E+00
 0.4243839681149E+00 -0.3334545493126E+00
 0.4104053676128E+00 -0.3095420002937E+00
</DataArray>
</PointData>
   <DataArray type="Float32" Name="Load" NumberOfComponents="1"    ComponentName0="Load" format="ascii">
 0.2723603487015E+01
 0.2728467226028E+01
 0.2742259263992E+01
 0.2772465944290E+01
 0.2835571289062E+01
 0.2951994180679E+01
 0.3179128170013E+01
 0.3520504951477E+01
 0.4018853187561E+01
 0.4484171867371E+01
 0.5363905429840E+01
 0.5719993114471E+01
 0.7016521930695E+01
 0.2734300374985E+01
 0.2739806652069E+01
 0.2753945827484E+01
 0.2784390449524E+01
 0.2842693567276E+01
 0.2951744079590E+01
 0.3123630762100E+01
 0.3376857519150E+01
 0.3671146869659E+01
 0.3984793186188E+01
 0.4274716854095E+01
 0.3319214105606E+01
 0.4800419807434E+01
 0.2742754936218E+01
 0.2747413158417E+01
 0.2759383678436E+01
 0.2784072637558E+01
 0.2831764221191E+01
 0.2913356781006E+01
 0.3033246994019E+01
 0.3190075397491E+01
 0.3341170549393E+01
 0.3476269721985E+01
 0.3199026823044E+01
 0.2373340368271E+01
 0.4890675067902E+01
 0.2748745918274E+01
 0.2751486063004E+01
 0.2758597850800E+01
 0.2773755311966E+01
 0.2803036451340E+01
 0.2850198030472E+01
 0.2915044307709E+01
 0.2983175039291E+01
 0.3028680801392E+01
 0.2964418411255E+01
 0.2456825256348E+01
 0.2548361301422E+01
 0.4859726428986E+01
 0.2752386331558E+01
 0.2752290248871E+01
 0.2752656936646E+01
 0.2754991531372E+01
 0.2761031389236E+01
 0.2770585536957E+01
 0.2779327630997E+01
 0.2773720979691E+01
 0.2728491783142E+01
 0.2526918411255E+01
 0.2139636516571E+01
 0.2873709678650E+01
 0.4871390342712E+01
 0.2753968477249E+01
 0.2750421762466E+01
 0.2742783308029E+01
 0.2730139255524E+01
 0.2710720300674E+01
 0.2681564331055E+01
 0.2637464284897E+01
 0.2570584297180E+01
 0.2453921794891E+01
 0.2216574907303E+01
 0.2107973098755E+01
 0.3147819280624E+01
 0.4865066528320E+01
 0.2753927946091E+01
 0.2746644496918E+01
 0.2730421781540E+01
 0.2702051401138E+01
 0.2657012701035E+01
 0.2590496778488E+01
 0.2499406099319E+01
 0.2382187604904E+01
 0.2224327564240E+01
 0.2033285856247E+01
 0.2202218770981E+01
 0.3345099925995E+01
 0.4881632328033E+01
 0.2752782344818E+01
 0.2741791486740E+01
 0.2717104434967E+01
 0.2673539638519E+01
 0.2604354858398E+01
 0.2503943920135E+01
 0.2372364759445E+01
 0.2216783523560E+01
 0.2047335624695E+01
 0.1947900295258E+01
 0.2324182033539E+01
 0.3490326642990E+01
 0.4895647525787E+01
 0.2751067161560E+01
 0.2736689567566E+01
 0.2704318761826E+01
 0.2647130966187E+01
 0.2556688785553E+01
 0.2427148580551E+01
 0.2262123107910E+01
 0.2079740762711E+01
 0.1920369029045E+01
 0.1922006964684E+01
 0.2436433553696E+01
 0.3593268156052E+01
 0.4914175987244E+01
 0.2749280691147E+01
 0.2732103586197E+01
 0.2693412303925E+01
 0.2625118732452E+01
 0.2517557621002E+01
 0.2364915370941E+01
 0.2174218654633E+01
 0.1975188255310E+01
 0.1836521029472E+01
 0.1925371408463E+01
 0.2524290323257E+01
 0.3664213180542E+01
 0.4932072162628E+01
 0.2747838735580E+01
 0.2728666782379E+01
 0.2685487270355E+01
 0.2609353065491E+01
 0.2489801168442E+01
 0.2321114063263E+01
 0.2113064289093E+01
 0.1905078530312E+01
 0.1786993384361E+01
 0.1937381267548E+01
 0.2583358287811E+01
 0.3709084987640E+01
 0.4945604324341E+01
 0.2747040271759E+01
 0.2726831197739E+01
 0.2681322813034E+01
 0.2601135015488E+01
 0.2475409269333E+01
 0.2298495054245E+01
 0.2081711769104E+01
 0.1869994044304E+01
 0.1764330387115E+01
 0.1946031570435E+01
 0.2612911462784E+01
 0.3730759859085E+01
 0.4953169822693E+01
 0.2747040271759E+01
 0.2726831197739E+01
 0.2681322813034E+01
 0.2601135015488E+01
 0.2475409269333E+01
 0.2298495054245E+01
 0.2081711769104E+01
 0.1869994044304E+01
 0.1764330387115E+01
 0.1946031570435E+01
 0.2612911462784E+01
 0.3730759859085E+01
 0.4953169822693E+01
 0.2747838735580E+01
 0.2728666782379E+01
 0.2685487270355E+01
 0.2609353065491E+01
 0.2489801168442E+01
 0.2321114063263E+01
 0.2113064289093E+01
 0.1905078530312E+01
 0.1786993384361E+01
 0.1937381267548E+01
 0.2583358287811E+01
 0.3709084987640E+01
 0.4945604324341E+01
 0.2749280691147E+01
 0.2732103586197E+01
 0.2693412303925E+01
 0.2625118732452E+01
 0.2517557621002E+01
 0.2364915370941E+01
 0.2174218654633E+01
 0.1975188255310E+01
 0.1836521029472E+01
 0.1925371408463E+01
 0.2524290323257E+01
 0.3664213180542E+01
 0.4932072162628E+01
 0.2751067161560E+01
 0.2736689567566E+01
 0.2704318761826E+01
 0.2647130966187E+01
 0.2556688785553E+01
 0.2427148580551E+01
 0.2262123107910E+01
 0.2079740762711E+01
 0.1920369029045E+01
 0.1922006964684E+01
 0.2436433553696E+01
 0.3593268156052E+01
 0.4914175987244E+01
 0.2752782344818E+01
 0.2741791486740E+01
 0.2717104434967E+01
 0.2673539638519E+01
 0.2604354858398E+01
 0.2503943920135E+01
 0.2372364759445E+01
 0.2216783523560E+01
 0.2047335624695E+01
 0.1947900295258E+01
 0.2324182033539E+01
 0.3490326642990E+01
 0.4895647525787E+01
 0.2753927946091E+01
 0.2746644496918E+01
 0.2730421781540E+01
 0.2702051401138E+01
 0.2657012701035E+01
 0.2590496778488E+01
 0.2499406099319E+01
 0.2382187843323E+01
 0.2224327564240E+01
 0.2033285856247E+01
 0.2202218532562E+01
 0.3345099687576E+01
 0.4881632328033E+01
 0.2753968477249E+01
 0.2750421762466E+01
 0.2742783308029E+01
 0.2730139255524E+01
 0.2710720300674E+01
 0.2681564331055E+01
 0.2637464523315E+01
 0.2570584297180E+01
 0.2453921794891E+01
 0.2216574907303E+01
 0.2107973098755E+01
 0.3147819280624E+01
 0.4865066528320E+01
 0.2752386331558E+01
 0.2752290248871E+01
 0.2752656936646E+01
 0.2754991531372E+01
 0.2761031389236E+01
 0.2770585536957E+01
 0.2779327630997E+01
 0.2773720979691E+01
 0.2728491783142E+01
 0.2526918411255E+01
 0.2139636516571E+01
 0.2873709678650E+01
 0.4871390342712E+01
 0.2748745918274E+01
 0.2751486063004E+01
 0.2758597850800E+01
 0.2773755311966E+01
 0.2803036451340E+01
 0.2850198030472E+01
 0.2915044307709E+01
 0.2983175039291E+01
 0.3028680801392E+01
 0.2964418411255E+01
 0.2456825256348E+01
 0.2548361301422E+01
 0.4859726428986E+01
 0.2742754936218E+01
 0.2747413158417E+01
 0.2759383678436E+01
 0.2784072637558E+01
 0.2831764221191E+01
 0.2913356781006E+01
 0.3033246994019E+01
 0.3190075397491E+01
 0.3341170549393E+01
 0.3476269721985E+01
 0.3199026823044E+01
 0.2373340368271E+01
 0.4890675067902E+01
 0.2734300374985E+01
 0.2739806652069E+01
 0.2753945827484E+01
 0.2784390449524E+01
 0.2842693567276E+01
 0.2951744079590E+01
 0.3123630762100E+01
 0.3376857519150E+01
 0.3671146869659E+01
 0.3984793186188E+01
 0.4274716854095E+01
 0.3319214105606E+01
 0.4800419807434E+01
 0.2723603487015E+01
 0.2728467226028E+01
 0.2742259263992E+01
 0.2772465944290E+01
 0.2835571289062E+01
 0.2951994180679E+01
 0.3179128170013E+01
 0.3520504951477E+01
 0.4018853187561E+01
 0.4484171867371E+01
 0.5363905429840E+01
 0.5719993114471E+01
 0.7016521930695E+01
 0.1764489412308E+01
 0.1810709238052E+01
 0.2041766166687E+01
 0.2214434623718E+01
 0.2313807249069E+01
 0.2346780776978E+01
 0.1581667184830E+01
 0.1793699860573E+01
 0.2142217636108E+01
 0.2416359186172E+01
 0.2598624706268E+01
 0.2735051870346E+01
 0.1380531430244E+01
 0.1791001915932E+01
 0.2249404668808E+01
 0.2601136922836E+01
 0.2866954565048E+01
 0.3084881305695E+01
 0.1179178714752E+01
 0.1798400521278E+01
 0.2344747781754E+01
 0.2760923385620E+01
 0.3089824199677E+01
 0.3370850801468E+01
 0.1005116820335E+01
 0.1807985067368E+01
 0.2417441368103E+01
 0.2877162694931E+01
 0.3249693155289E+01
 0.3571004867554E+01
 0.8989191055298E+00
 0.1814714312553E+01
 0.2456307172775E+01
 0.2938728809357E+01
 0.3332575559616E+01
 0.3674617052078E+01
 0.8989191055298E+00
 0.1814714312553E+01
 0.2456307172775E+01
 0.2938728809357E+01
 0.3332575559616E+01
 0.3674617052078E+01
 0.1005116939545E+01
 0.1807985067368E+01
 0.2417441368103E+01
 0.2877162694931E+01
 0.3249693155289E+01
 0.3571004867554E+01
 0.1179178833961E+01
 0.1798400521278E+01
 0.2344747781754E+01
 0.2760923385620E+01
 0.3089824199677E+01
 0.3370850801468E+01
 0.1380531430244E+01
 0.1791001915932E+01
 0.2249404668808E+01
 0.2601136922836E+01
 0.2866954565048E+01
 0.3084881305695E+01
 0.1581667184830E+01
 0.1793699860573E+01
 0.2142217636108E+01
 0.2416359186172E+01
 0.2598624706268E+01
 0.2735051870346E+01
 0.1764489412308E+01
 0.1810709238052E+01
 0.2041766166687E+01
 0.2214434623718E+01
 0.2313807249069E+01
 0.2346780776978E+01
 0.1894589900970E+01
 0.7078714966774E+00
 0.1010744944215E+00
 0.6367091834545E-01
 0.1020616739988E+00
 0.6759341061115E-01
 0.2265645742416E+01
 0.1539516091347E+01
 0.6488392949104E+00
 0.3573071062565E+00
 0.2872333228588E+00
 0.2092567384243E+00
 0.2169039011002E+01
 0.1776266813278E+01
 0.1310031890869E+01
 0.8268639445305E+00
 0.6706334352493E+00
 0.6124213337898E+00
 0.2150228261948E+01
 0.1871277928352E+01
 0.1623059511185E+01
 0.1364027976990E+01
 0.1113787174225E+01
 0.1049517154694E+01
 0.2045684099197E+01
 0.1882477879524E+01
 0.1834879875183E+01
 0.1731234312057E+01
 0.1599797844887E+01
 0.1509923458099E+01
 0.1922724366188E+01
 0.1849572420120E+01
 0.1949653863907E+01
 0.2011846780777E+01
 0.1983581185341E+01
 0.1958775997162E+01
 0.1922724366188E+01
 0.1849572420120E+01
 0.1949653863907E+01
 0.2011846780777E+01
 0.1983581185341E+01
 0.1958775997162E+01
 0.2045684099197E+01
 0.1882477879524E+01
 0.1834879875183E+01
 0.1731234312057E+01
 0.1599797844887E+01
 0.1509923458099E+01
 0.2150228261948E+01
 0.1871277928352E+01
 0.1623059511185E+01
 0.1364027976990E+01
 0.1113787174225E+01
 0.1049517154694E+01
 0.2169039011002E+01
 0.1776266813278E+01
 0.1310031890869E+01
 0.8268639445305E+00
 0.6706334352493E+00
 0.6124213337898E+00
 0.2265645742416E+01
 0.1539516091347E+01
 0.6488392949104E+00
 0.3573071062565E+00
 0.2872333228588E+00
 0.2092567384243E+00
 0.1894589900970E+01
 0.7078714966774E+00
 0.1010744944215E+00
 0.6367091834545E-01
 0.1020616739988E+00
 0.6759341061115E-01
 0.2179552078247E+01
 0.1749326944351E+01
 0.1286122202873E+01
 0.7632519602776E+00
 0.3426252007484E+00
 0.5822991579771E-01
 0.2657209634781E+01
 0.2322556734085E+01
 0.1856865167618E+01
 0.1295519709587E+01
 0.6373026371002E+00
 0.7069116830826E-01
 0.3123611211777E+01
 0.2943623304367E+01
 0.2620244741440E+01
 0.2121720552444E+01
 0.1394139885902E+01
 0.3800235092640E+00
 0.3525915145874E+01
 0.3533304929733E+01
 0.3408062696457E+01
 0.3095416545868E+01
 0.2480238199234E+01
 0.1143949747086E+01
 0.3823611021042E+01
 0.3982125043869E+01
 0.4042608261108E+01
 0.3893496036530E+01
 0.3315802812576E+01
 0.1654147148132E+01
 0.3979932546616E+01
 0.4227453708649E+01
 0.4390148639679E+01
 0.4336533546448E+01
 0.3677289247513E+01
 0.1642991781235E+01
 0.3979932546616E+01
 0.4227453708649E+01
 0.4390148639679E+01
 0.4336533546448E+01
 0.3677289247513E+01
 0.1642991781235E+01
 0.3823611021042E+01
 0.3982125043869E+01
 0.4042608261108E+01
 0.3893496036530E+01
 0.3315802812576E+01
 0.1654147148132E+01
 0.3525915145874E+01
 0.3533304929733E+01
 0.3408062696457E+01
 0.3095416545868E+01
 0.2480238199234E+01
 0.1143949747086E+01
 0.3123611211777E+01
 0.2943623304367E+01
 0.2620244741440E+01
 0.2121720552444E+01
 0.1394139885902E+01
 0.3800235092640E+00
 0.2657209634781E+01
 0.2322556734085E+01
 0.1856865167618E+01
 0.1295519709587E+01
 0.6373026371002E+00
 0.7069116830826E-01
 0.2179552078247E+01
 0.1749326944351E+01
 0.1286122202873E+01
 0.7632519602776E+00
 0.3426252007484E+00
 0.5822991579771E-01
</DataArray>
<CellData Tensors="'E_Centroid','S_Centroid'">
<DataArray type="Float32" Name="E_Centroid" NumberOfComponents="4" ComponentName0="E11" ComponentName1="E22" ComponentName2="E33" ComponentName3="E12" format="ascii">
 0.1426333095878E-02 -0.5705707706511E-02  0.0000000000000E+00  0.1696024241937E-05
 0.1428573392332E-02 -0.5716098938137E-02  0.0000000000000E+00  0.7044528047118E-05
 0.1435828977264E-02 -0.5744952708483E-02  0.0000000000000E+00  0.1856289054558E-04
 0.1449970295653E-02 -0.5809270776808E-02  0.0000000000000E+00  0.4188583625364E-04
 0.1484084059484E-02 -0.5940453615040E-02  0.0000000000000E+00  0.8521077688783E-04
 0.1537290518172E-02 -0.6188522558659E-02  0.0000000000000E+00  0.1615038490854E-03
 0.1655828789808E-02 -0.6659816950560E-02  0.0000000000000E+00  0.3522142360453E-03
 0.1763166161254E-02 -0.7396490313113E-02  0.0000000000000E+00  0.8415190968663E-03
 0.2022634958848E-02 -0.8348000235856E-02  0.0000000000000E+00  0.1776021206751E-02
 0.1882562413812E-02 -0.9320466779172E-02  0.0000000000000E+00  0.3237158525735E-02
 0.2562952227890E-02 -0.1056991145015E-01  0.0000000000000E+00  0.5207919050008E-02
-0.2385581319686E-03 -0.1092973444611E-01  0.0000000000000E+00  0.9767217561603E-02
 0.4697849974036E-02 -0.1079437602311E-01  0.0000000000000E+00  0.1121161319315E-01
 0.1430820440874E-02 -0.5728857126087E-02  0.0000000000000E+00  0.6720322289766E-05
 0.1432700082660E-02 -0.5741026252508E-02  0.0000000000000E+00  0.2556818617450E-04
 0.1437319326214E-02 -0.5772316362709E-02  0.0000000000000E+00  0.6228775600903E-04
 0.1449426868930E-02 -0.5837880074978E-02  0.0000000000000E+00  0.1318315189565E-03
 0.1470766845159E-02 -0.5963404197246E-02  0.0000000000000E+00  0.2579250140116E-03
 0.1515439944342E-02 -0.6191303953528E-02  0.0000000000000E+00  0.4821231123060E-03
 0.1548592816107E-02 -0.6559863220900E-02  0.0000000000000E+00  0.9034838294610E-03
 0.1602323260158E-02 -0.7068117149174E-02  0.0000000000000E+00  0.1562523772009E-02
 0.1549375476316E-02 -0.7632706779987E-02  0.0000000000000E+00  0.2619071397930E-02
 0.1544397789985E-02 -0.8135126903653E-02  0.0000000000000E+00  0.3711473895237E-02
 0.1088573597372E-02 -0.8342266082764E-02  0.0000000000000E+00  0.5818829871714E-02
-0.4224979202263E-03 -0.6862004753202E-02  0.0000000000000E+00  0.5045465193689E-02
 0.6644591689110E-02 -0.6645020563155E-02  0.0000000000000E+00  0.6036236300133E-03
 0.1432883087546E-02 -0.5748138763011E-02  0.0000000000000E+00  0.1225667256222E-04
 0.1432337914594E-02 -0.5759774241596E-02  0.0000000000000E+00  0.4556564454106E-04
 0.1432246295735E-02 -0.5788553506136E-02  0.0000000000000E+00  0.1062119044946E-03
 0.1433205674402E-02 -0.5846141371876E-02  0.0000000000000E+00  0.2188895305153E-03
 0.1439096871763E-02 -0.5951717495918E-02  0.0000000000000E+00  0.4159473464824E-03
 0.1440629479475E-02 -0.6127997301519E-02  0.0000000000000E+00  0.7597494404763E-03
 0.1420547021553E-02 -0.6376750301570E-02  0.0000000000000E+00  0.1294096116908E-02
 0.1355402753688E-02 -0.6673334632069E-02  0.0000000000000E+00  0.2066087909043E-02
 0.1217840355821E-02 -0.6914473138750E-02  0.0000000000000E+00  0.2963670762256E-02
 0.1063521718606E-02 -0.7027452811599E-02  0.0000000000000E+00  0.3935549873859E-02
 0.3662868402898E-03 -0.6408751942217E-02  0.0000000000000E+00  0.4530316218734E-02
 0.7880007615313E-03 -0.5201188847423E-02  0.0000000000000E+00  0.9471038356423E-03
 0.7537405006588E-02 -0.5872792098671E-02  0.0000000000000E+00 -0.1714239129797E-02
 0.1432248740457E-02 -0.5763192195445E-02  0.0000000000000E+00  0.1761774547049E-04
 0.1428247895092E-02 -0.5772331729531E-02  0.0000000000000E+00  0.6387624307536E-04
 0.1419841311872E-02 -0.5794304423034E-02  0.0000000000000E+00  0.1456062746001E-03
 0.1406501047313E-02 -0.5836479831487E-02  0.0000000000000E+00  0.2922523999587E-03
 0.1385494484566E-02 -0.5909737665206E-02  0.0000000000000E+00  0.5463806446642E-03
 0.1343596028164E-02 -0.6017782259732E-02  0.0000000000000E+00  0.9575560688972E-03
 0.1261355937459E-02 -0.6147171370685E-02  0.0000000000000E+00  0.1554775051773E-02
 0.1116324565373E-02 -0.6248726509511E-02  0.0000000000000E+00  0.2307030837983E-02
 0.9324548300356E-03 -0.6255990825593E-02  0.0000000000000E+00  0.3054095432162E-02
 0.6783212884329E-03 -0.6019482389092E-02  0.0000000000000E+00  0.3622183576226E-02
 0.3613074077293E-03 -0.5207932088524E-02  0.0000000000000E+00  0.2740447875112E-02
 0.2080094302073E-02 -0.4724304191768E-02  0.0000000000000E+00 -0.1115608611144E-02
 0.7555935066193E-02 -0.5652416497469E-02  0.0000000000000E+00 -0.2389512024820E-02
 0.1429231371731E-02 -0.5774085875601E-02  0.0000000000000E+00  0.2190007035097E-04
 0.1420677755959E-02 -0.5779208149761E-02  0.0000000000000E+00  0.7850102701923E-04
 0.1402103574947E-02 -0.5790997762233E-02  0.0000000000000E+00  0.1754215481924E-03
 0.1370550715365E-02 -0.5812382791191E-02  0.0000000000000E+00  0.3462358727120E-03
 0.1318869297393E-02 -0.5844769068062E-02  0.0000000000000E+00  0.6334531935863E-03
 0.1232603332028E-02 -0.5880438257009E-02  0.0000000000000E+00  0.1075471518561E-02
 0.1094339764677E-02 -0.5893912632018E-02  0.0000000000000E+00  0.1676633837633E-02
 0.9013317176141E-03 -0.5838647950441E-02  0.0000000000000E+00  0.2352290786803E-02
 0.6959197344258E-03 -0.5662583280355E-02  0.0000000000000E+00  0.2919228747487E-02
 0.4915924509987E-03 -0.5234683863819E-02  0.0000000000000E+00  0.2958042081445E-02
 0.7464060327038E-03 -0.4597038496286E-02  0.0000000000000E+00  0.1290162559599E-02
 0.2998186741024E-02 -0.4653804004192E-02  0.0000000000000E+00 -0.1989064505324E-02
 0.7567393593490E-02 -0.5639867391437E-02  0.0000000000000E+00 -0.2565073780715E-02
 0.1424287329428E-02 -0.5781230516732E-02  0.0000000000000E+00  0.2467616832291E-04
 0.1410574885085E-02 -0.5781261716038E-02  0.0000000000000E+00  0.8755849557929E-04
 0.1380577916279E-02 -0.5780743900687E-02  0.0000000000000E+00  0.1929180289153E-03
 0.1328914193437E-02 -0.5777826532722E-02  0.0000000000000E+00  0.3751487820409E-03
 0.1245769904926E-02 -0.5766257643700E-02  0.0000000000000E+00  0.6727139698341E-03
 0.1117624924518E-02 -0.5730385426432E-02  0.0000000000000E+00  0.1112422789447E-02
 0.9345979196951E-03 -0.5640890449286E-02  0.0000000000000E+00  0.1674409373663E-02
 0.7171363686211E-03 -0.5462631583214E-02  0.0000000000000E+00  0.2247796859592E-02
 0.5236687138677E-03 -0.5159175489098E-02  0.0000000000000E+00  0.2605674322695E-02
 0.4950828151777E-03 -0.4695799201727E-02  0.0000000000000E+00  0.2214983338490E-02
 0.1217160024680E-02 -0.4331230651587E-02  0.0000000000000E+00  0.3306797589175E-03
 0.3676281077787E-02 -0.4727139603347E-02  0.0000000000000E+00 -0.2261357614771E-02
 0.7495180703700E-02 -0.5713408812881E-02  0.0000000000000E+00 -0.2500378293917E-02
 0.1418074709363E-02 -0.5785255227238E-02  0.0000000000000E+00  0.2557394327596E-04
 0.1399008673616E-02 -0.5779674276710E-02  0.0000000000000E+00  0.9005779429572E-04
 0.1357243629172E-02 -0.5765871144831E-02  0.0000000000000E+00  0.1962821552297E-03
 0.1285377074964E-02 -0.5737645085901E-02  0.0000000000000E+00  0.3767069720197E-03
 0.1172483200207E-02 -0.5682912655175E-02  0.0000000000000E+00  0.6639591883868E-03
 0.1007452607155E-02 -0.5581310484558E-02  0.0000000000000E+00  0.1073675462976E-02
 0.7923815282993E-03 -0.5405863281339E-02  0.0000000000000E+00  0.1569782500155E-02
 0.5663909832947E-03 -0.5135016981512E-02  0.0000000000000E+00  0.2029556781054E-02
 0.4256488755345E-03 -0.4763009957969E-02  0.0000000000000E+00  0.2191971521825E-02
 0.6048591458239E-03 -0.4357353318483E-02  0.0000000000000E+00  0.1560052158311E-02
 0.1668737968430E-02 -0.4245821386576E-02  0.0000000000000E+00 -0.2245318028145E-03
 0.4147784784436E-02 -0.4847718402743E-02  0.0000000000000E+00 -0.2203284529969E-02
 0.7462274748832E-02 -0.5832025781274E-02  0.0000000000000E+00 -0.2322206273675E-02
 0.1411339617334E-02 -0.5786928348243E-02  0.0000000000000E+00  0.2446092912578E-04
 0.1387120224535E-02 -0.5775733385235E-02  0.0000000000000E+00  0.8566305041313E-04
 0.1334090949968E-02 -0.5748837720603E-02  0.0000000000000E+00  0.1851098495536E-03
 0.1243462204002E-02 -0.5696431733668E-02  0.0000000000000E+00  0.3513405681588E-03
 0.1104026683606E-02 -0.5602211691439E-02  0.0000000000000E+00  0.6104721105658E-03
 0.9088570368476E-03 -0.5443868692964E-02  0.0000000000000E+00  0.9690177394077E-03
 0.6716775824316E-03 -0.5199757404625E-02  0.0000000000000E+00  0.1384078059345E-02
 0.4519080976024E-03 -0.4863949026912E-02  0.0000000000000E+00  0.1730165211484E-02
 0.3854357637465E-03 -0.4469871986657E-02  0.0000000000000E+00  0.1748277805746E-02
 0.7614968926646E-03 -0.4158317577094E-02  0.0000000000000E+00  0.1043856726028E-02
 0.2048093127087E-02 -0.4247774835676E-02  0.0000000000000E+00 -0.4849461838603E-03
 0.4491510801017E-02 -0.4975285381079E-02  0.0000000000000E+00 -0.1965307630599E-02
 0.7425401825458E-02 -0.5963202565908E-02  0.0000000000000E+00 -0.2025327179581E-02
 0.1404840382747E-02 -0.5787055008113E-02  0.0000000000000E+00  0.2140377910109E-04
 0.1376006868668E-02 -0.5770720541477E-02  0.0000000000000E+00  0.7465847011190E-04
 0.1312997308560E-02 -0.5731976125389E-02  0.0000000000000E+00  0.1602515840204E-03
 0.1206071232446E-02 -0.5658189300448E-02  0.0000000000000E+00  0.3014820395038E-03
 0.1044474076480E-02 -0.5530186463147E-02  0.0000000000000E+00  0.5178424762562E-03
 0.8257442968898E-03 -0.5325501319021E-02  0.0000000000000E+00  0.8100425475277E-03
 0.5746040260419E-03 -0.5028745625168E-02  0.0000000000000E+00  0.1135538914241E-02
 0.3699993540067E-03 -0.4650869872421E-02  0.0000000000000E+00  0.1378667890094E-02
 0.3829375491478E-03 -0.4262438043952E-02  0.0000000000000E+00  0.1313802902587E-02
 0.9200393687934E-03 -0.4047079011798E-02  0.0000000000000E+00  0.6626058020629E-03
 0.2351276576519E-02 -0.4285257775337E-02  0.0000000000000E+00 -0.5474814679474E-03
 0.4733548499644E-02 -0.5090856924653E-02  0.0000000000000E+00 -0.1612268504687E-02
 0.7410733029246E-02 -0.6084653548896E-02  0.0000000000000E+00 -0.1659416477196E-02
 0.1399272587150E-02 -0.5786389578134E-02  0.0000000000000E+00  0.1664008959779E-04
 0.1366683631204E-02 -0.5765805952251E-02  0.0000000000000E+00  0.5787457848783E-04
 0.1295613241382E-02 -0.5717358086258E-02  0.0000000000000E+00  0.1236156676896E-03
 0.1175753423013E-02 -0.5626362282783E-02  0.0000000000000E+00  0.2310157287866E-03
 0.9970847750083E-03 -0.5471862386912E-02  0.0000000000000E+00  0.3933920525014E-03
 0.7612224435434E-03 -0.5232069175690E-02  0.0000000000000E+00  0.6087090005167E-03
 0.5021152901463E-03 -0.4897628445178E-02  0.0000000000000E+00  0.8412426686846E-03
 0.3159108455293E-03 -0.4495060537010E-02  0.0000000000000E+00  0.9976488072425E-03
 0.3983824281022E-03 -0.4124112427235E-02  0.0000000000000E+00  0.9073017863557E-03
 0.1055419794284E-02 -0.3989118617028E-02  0.0000000000000E+00  0.3923701297026E-03
 0.2574848709628E-02 -0.4330552183092E-02  0.0000000000000E+00 -0.4745752667077E-03
 0.4899821709841E-02 -0.5183185916394E-02  0.0000000000000E+00 -0.1192223280668E-02
 0.7407731376588E-02 -0.6186635233462E-02  0.0000000000000E+00 -0.1230751513503E-02
 0.1395214581862E-02 -0.5785563960671E-02  0.0000000000000E+00  0.1054711356119E-04
 0.1359977643006E-02 -0.5761954002082E-02  0.0000000000000E+00  0.3661472146632E-04
 0.1283259480260E-02 -0.5706644151360E-02  0.0000000000000E+00  0.7795201963745E-04
 0.1154448953457E-02 -0.5603625904769E-02  0.0000000000000E+00  0.1450334821129E-03
 0.9642313816585E-03 -0.5430949851871E-02  0.0000000000000E+00  0.2455525391269E-03
 0.7172524346970E-03 -0.5167660303414E-02  0.0000000000000E+00  0.3772317722905E-03
 0.4542392271105E-03 -0.4809144418687E-02  0.0000000000000E+00  0.5163012538105E-03
 0.2838470390998E-03 -0.4393753595650E-02  0.0000000000000E+00  0.6023431196809E-03
 0.4168743034825E-03 -0.4040385130793E-02  0.0000000000000E+00  0.5302079953253E-03
 0.1152346143499E-02 -0.3961776383221E-02  0.0000000000000E+00  0.2030979521805E-03
 0.2721265656874E-02 -0.4367527551949E-02  0.0000000000000E+00 -0.3161358763464E-03
 0.5004617851228E-02 -0.5247353110462E-02  0.0000000000000E+00 -0.7304839091375E-03
 0.7409160025418E-02 -0.6259460933506E-02  0.0000000000000E+00 -0.7571929600090E-03
 0.1393078360707E-02 -0.5785032641143E-02  0.0000000000000E+00  0.3611839247242E-05
 0.1356473658234E-02 -0.5759850610048E-02  0.0000000000000E+00  0.1252704987564E-04
 0.1276849186979E-02 -0.5700991023332E-02  0.0000000000000E+00  0.2662674523890E-04
 0.1143468194641E-02 -0.5591798108071E-02  0.0000000000000E+00  0.4943032399751E-04
 0.9474334656261E-03 -0.5409889854491E-02  0.0000000000000E+00  0.8344798698090E-04
 0.6949999951757E-03 -0.5134838167578E-02  0.0000000000000E+00  0.1277400442632E-03
 0.4305019683670E-03 -0.4764648620039E-02  0.0000000000000E+00  0.1739709987305E-03
 0.2691000117920E-03 -0.4343990236521E-02  0.0000000000000E+00  0.2012658369495E-03
 0.4285650793463E-03 -0.4001114517450E-02  0.0000000000000E+00  0.1742091553751E-03
 0.1202537096106E-02 -0.3951297607273E-02  0.0000000000000E+00  0.6234257307369E-04
 0.2793682040647E-02 -0.4387849010527E-02  0.0000000000000E+00 -0.1104441762436E-03
 0.5055117420852E-02 -0.5280127748847E-02  0.0000000000000E+00 -0.2458573435433E-03
 0.7411658298224E-02 -0.6297502666712E-02  0.0000000000000E+00 -0.2557735424489E-03
 0.1393078360707E-02 -0.5785032641143E-02  0.0000000000000E+00 -0.3611837200879E-05
 0.1356473658234E-02 -0.5759850610048E-02  0.0000000000000E+00 -0.1252704896615E-04
 0.1276849186979E-02 -0.5700991023332E-02  0.0000000000000E+00 -0.2662674523890E-04
 0.1143468194641E-02 -0.5591798108071E-02  0.0000000000000E+00 -0.4943032399751E-04
 0.9474334656261E-03 -0.5409889854491E-02  0.0000000000000E+00 -0.8344799425686E-04
 0.6949999951757E-03 -0.5134838167578E-02  0.0000000000000E+00 -0.1277400588151E-03
 0.4305019683670E-03 -0.4764648620039E-02  0.0000000000000E+00 -0.1739710132824E-03
 0.2691000117920E-03 -0.4343990236521E-02  0.0000000000000E+00 -0.2012658660533E-03
 0.4285650793463E-03 -0.4001114517450E-02  0.0000000000000E+00 -0.1742091844790E-03
 0.1202537096106E-02 -0.3951297607273E-02  0.0000000000000E+00 -0.6234258762561E-04
 0.2793682040647E-02 -0.4387849010527E-02  0.0000000000000E+00  0.1104441980715E-03
 0.5055117420852E-02 -0.5280127748847E-02  0.0000000000000E+00  0.2458574017510E-03
 0.7411658298224E-02 -0.6297502666712E-02  0.0000000000000E+00  0.2557736006565E-03
 0.1395214581862E-02 -0.5785563960671E-02  0.0000000000000E+00 -0.1054711174220E-04
 0.1359977643006E-02 -0.5761954002082E-02  0.0000000000000E+00 -0.3661472146632E-04
 0.1283259480260E-02 -0.5706644151360E-02  0.0000000000000E+00 -0.7795201963745E-04
 0.1154448953457E-02 -0.5603625904769E-02  0.0000000000000E+00 -0.1450334821129E-03
 0.9642313816585E-03 -0.5430949851871E-02  0.0000000000000E+00 -0.2455525391269E-03
 0.7172524346970E-03 -0.5167660303414E-02  0.0000000000000E+00 -0.3772317722905E-03
 0.4542392271105E-03 -0.4809144418687E-02  0.0000000000000E+00 -0.5163012538105E-03
 0.2838470390998E-03 -0.4393753595650E-02  0.0000000000000E+00 -0.6023431196809E-03
 0.4168743034825E-03 -0.4040385130793E-02  0.0000000000000E+00 -0.5302080535330E-03
 0.1152346143499E-02 -0.3961776383221E-02  0.0000000000000E+00 -0.2030979667325E-03
 0.2721265656874E-02 -0.4367527551949E-02  0.0000000000000E+00  0.3161359054502E-03
 0.5004617851228E-02 -0.5247353110462E-02  0.0000000000000E+00  0.7304839673452E-03
 0.7409160025418E-02 -0.6259460933506E-02  0.0000000000000E+00  0.7571930182166E-03
 0.1399272587150E-02 -0.5786389578134E-02  0.0000000000000E+00 -0.1664008777880E-04
 0.1366683631204E-02 -0.5765805952251E-02  0.0000000000000E+00 -0.5787457848783E-04
 0.1295613241382E-02 -0.5717358086258E-02  0.0000000000000E+00 -0.1236156676896E-03
 0.1175753423013E-02 -0.5626362282783E-02  0.0000000000000E+00 -0.2310157287866E-03
 0.9970847750083E-03 -0.5471862386912E-02  0.0000000000000E+00 -0.3933920525014E-03
 0.7612224435434E-03 -0.5232069175690E-02  0.0000000000000E+00 -0.6087090587243E-03
 0.5021152901463E-03 -0.4897628445178E-02  0.0000000000000E+00 -0.8412427268922E-03
 0.3159108455293E-03 -0.4495060537010E-02  0.0000000000000E+00 -0.9976488072425E-03
 0.3983824281022E-03 -0.4124112427235E-02  0.0000000000000E+00 -0.9073018445633E-03
 0.1055419794284E-02 -0.3989118617028E-02  0.0000000000000E+00 -0.3923701588064E-03
 0.2574848476797E-02 -0.4330552183092E-02  0.0000000000000E+00  0.4745752958115E-03
 0.4899821709841E-02 -0.5183185916394E-02  0.0000000000000E+00  0.1192223280668E-02
 0.7407731376588E-02 -0.6186635233462E-02  0.0000000000000E+00  0.1230751513503E-02
 0.1404840382747E-02 -0.5787055008113E-02  0.0000000000000E+00 -0.2140377910109E-04
 0.1376006868668E-02 -0.5770720541477E-02  0.0000000000000E+00 -0.7465847011190E-04
 0.1312997308560E-02 -0.5731976125389E-02  0.0000000000000E+00 -0.1602515840204E-03
 0.1206071232446E-02 -0.5658189300448E-02  0.0000000000000E+00 -0.3014820395038E-03
 0.1044474076480E-02 -0.5530186463147E-02  0.0000000000000E+00 -0.5178424762562E-03
 0.8257442968898E-03 -0.5325501319021E-02  0.0000000000000E+00 -0.8100425475277E-03
 0.5746040260419E-03 -0.5028745625168E-02  0.0000000000000E+00 -0.1135538914241E-02
 0.3699993540067E-03 -0.4650869872421E-02  0.0000000000000E+00 -0.1378667890094E-02
 0.3829375491478E-03 -0.4262438043952E-02  0.0000000000000E+00 -0.1313802902587E-02
 0.9200393105857E-03 -0.4047079011798E-02  0.0000000000000E+00 -0.6626058602706E-03
 0.2351276576519E-02 -0.4285257775337E-02  0.0000000000000E+00  0.5474814679474E-03
 0.4733548499644E-02 -0.5090856924653E-02  0.0000000000000E+00  0.1612268504687E-02
 0.7410733029246E-02 -0.6084653548896E-02  0.0000000000000E+00  0.1659416477196E-02
 0.1411339617334E-02 -0.5786928348243E-02  0.0000000000000E+00 -0.2446092912578E-04
 0.1387120224535E-02 -0.5775733385235E-02  0.0000000000000E+00 -0.8566305041313E-04
 0.1334090949968E-02 -0.5748837720603E-02  0.0000000000000E+00 -0.1851098495536E-03
 0.1243462204002E-02 -0.5696431733668E-02  0.0000000000000E+00 -0.3513405681588E-03
 0.1104026683606E-02 -0.5602211691439E-02  0.0000000000000E+00 -0.6104721105658E-03
 0.9088570368476E-03 -0.5443868692964E-02  0.0000000000000E+00 -0.9690177976154E-03
 0.6716776406392E-03 -0.5199757404625E-02  0.0000000000000E+00 -0.1384078059345E-02
 0.4519080976024E-03 -0.4863949026912E-02  0.0000000000000E+00 -0.1730165211484E-02
 0.3854357928503E-03 -0.4469871986657E-02  0.0000000000000E+00 -0.1748277805746E-02
 0.7614968926646E-03 -0.4158317577094E-02  0.0000000000000E+00 -0.1043856726028E-02
 0.2048093127087E-02 -0.4247774835676E-02  0.0000000000000E+00  0.4849461838603E-03
 0.4491510801017E-02 -0.4975285381079E-02  0.0000000000000E+00  0.1965307863429E-02
 0.7425401825458E-02 -0.5963202565908E-02  0.0000000000000E+00  0.2025327179581E-02
 0.1418074709363E-02 -0.5785255227238E-02  0.0000000000000E+00 -0.2557394327596E-04
 0.1399008673616E-02 -0.5779674276710E-02  0.0000000000000E+00 -0.9005779429572E-04
 0.1357243629172E-02 -0.5765871144831E-02  0.0000000000000E+00 -0.1962821552297E-03
 0.1285377074964E-02 -0.5737645085901E-02  0.0000000000000E+00 -0.3767069720197E-03
 0.1172483200207E-02 -0.5682912655175E-02  0.0000000000000E+00 -0.6639591883868E-03
 0.1007452607155E-02 -0.5581310484558E-02  0.0000000000000E+00 -0.1073675462976E-02
 0.7923815282993E-03 -0.5405863281339E-02  0.0000000000000E+00 -0.1569782500155E-02
 0.5663909832947E-03 -0.5135017447174E-02  0.0000000000000E+00 -0.2029556781054E-02
 0.4256488755345E-03 -0.4763009957969E-02  0.0000000000000E+00 -0.2191971521825E-02
 0.6048591458239E-03 -0.4357353318483E-02  0.0000000000000E+00 -0.1560052158311E-02
 0.1668737968430E-02 -0.4245821386576E-02  0.0000000000000E+00  0.2245317591587E-03
 0.4147784784436E-02 -0.4847717937082E-02  0.0000000000000E+00  0.2203284529969E-02
 0.7462274748832E-02 -0.5832025315613E-02  0.0000000000000E+00  0.2322206273675E-02
 0.1424287329428E-02 -0.5781230516732E-02  0.0000000000000E+00 -0.2467616832291E-04
 0.1410574885085E-02 -0.5781261716038E-02  0.0000000000000E+00 -0.8755849557929E-04
 0.1380577916279E-02 -0.5780743900687E-02  0.0000000000000E+00 -0.1929180289153E-03
 0.1328914193437E-02 -0.5777826532722E-02  0.0000000000000E+00 -0.3751487820409E-03
 0.1245769904926E-02 -0.5766257643700E-02  0.0000000000000E+00 -0.6727139116265E-03
 0.1117624924518E-02 -0.5730385426432E-02  0.0000000000000E+00 -0.1112422789447E-02
 0.9345979196951E-03 -0.5640890449286E-02  0.0000000000000E+00 -0.1674409373663E-02
 0.7171363686211E-03 -0.5462631583214E-02  0.0000000000000E+00 -0.2247796859592E-02
 0.5236687720753E-03 -0.5159175489098E-02  0.0000000000000E+00 -0.2605674322695E-02
 0.4950828151777E-03 -0.4695799201727E-02  0.0000000000000E+00 -0.2214983338490E-02
 0.1217160024680E-02 -0.4331230651587E-02  0.0000000000000E+00 -0.3306798171252E-03
 0.3676281077787E-02 -0.4727139603347E-02  0.0000000000000E+00  0.2261357614771E-02
 0.7495180703700E-02 -0.5713408812881E-02  0.0000000000000E+00  0.2500378293917E-02
 0.1429231371731E-02 -0.5774085875601E-02  0.0000000000000E+00 -0.2190007035097E-04
 0.1420677755959E-02 -0.5779208149761E-02  0.0000000000000E+00 -0.7850102701923E-04
 0.1402103574947E-02 -0.5790997762233E-02  0.0000000000000E+00 -0.1754215481924E-03
 0.1370550715365E-02 -0.5812382791191E-02  0.0000000000000E+00 -0.3462358727120E-03
 0.1318869297393E-02 -0.5844769068062E-02  0.0000000000000E+00 -0.6334531935863E-03
 0.1232603332028E-02 -0.5880438257009E-02  0.0000000000000E+00 -0.1075471518561E-02
 0.1094339764677E-02 -0.5893912632018E-02  0.0000000000000E+00 -0.1676633837633E-02
 0.9013317176141E-03 -0.5838647950441E-02  0.0000000000000E+00 -0.2352290786803E-02
 0.6959197344258E-03 -0.5662583280355E-02  0.0000000000000E+00 -0.2919228747487E-02
 0.4915924509987E-03 -0.5234683863819E-02  0.0000000000000E+00 -0.2958042081445E-02
 0.7464059744962E-03 -0.4597038961947E-02  0.0000000000000E+00 -0.1290162676014E-02
 0.2998186741024E-02 -0.4653804004192E-02  0.0000000000000E+00  0.1989064505324E-02
 0.7567393593490E-02 -0.5639867391437E-02  0.0000000000000E+00  0.2565073780715E-02
 0.1432248740457E-02 -0.5763192195445E-02  0.0000000000000E+00 -0.1761774365150E-04
 0.1428247895092E-02 -0.5772331729531E-02  0.0000000000000E+00 -0.6387624307536E-04
 0.1419841311872E-02 -0.5794304423034E-02  0.0000000000000E+00 -0.1456062746001E-03
 0.1406501047313E-02 -0.5836479831487E-02  0.0000000000000E+00 -0.2922523999587E-03
 0.1385494484566E-02 -0.5909737665206E-02  0.0000000000000E+00 -0.5463806446642E-03
 0.1343596028164E-02 -0.6017782259732E-02  0.0000000000000E+00 -0.9575560688972E-03
 0.1261355937459E-02 -0.6147171370685E-02  0.0000000000000E+00 -0.1554775051773E-02
 0.1116324565373E-02 -0.6248726509511E-02  0.0000000000000E+00 -0.2307030837983E-02
 0.9324548300356E-03 -0.6255990825593E-02  0.0000000000000E+00 -0.3054095432162E-02
 0.6783212884329E-03 -0.6019482389092E-02  0.0000000000000E+00 -0.3622183576226E-02
 0.3613073786255E-03 -0.5207932088524E-02  0.0000000000000E+00 -0.2740448107943E-02
 0.2080094302073E-02 -0.4724304191768E-02  0.0000000000000E+00  0.1115608611144E-02
 0.7555935066193E-02 -0.5652416497469E-02  0.0000000000000E+00  0.2389512024820E-02
 0.1432883087546E-02 -0.5748138763011E-02  0.0000000000000E+00 -0.1225667256222E-04
 0.1432337914594E-02 -0.5759774241596E-02  0.0000000000000E+00 -0.4556564454106E-04
 0.1432246295735E-02 -0.5788553506136E-02  0.0000000000000E+00 -0.1062119044946E-03
 0.1433205674402E-02 -0.5846141371876E-02  0.0000000000000E+00 -0.2188895305153E-03
 0.1439096871763E-02 -0.5951717495918E-02  0.0000000000000E+00 -0.4159473464824E-03
 0.1440629479475E-02 -0.6127997301519E-02  0.0000000000000E+00 -0.7597494404763E-03
 0.1420547137968E-02 -0.6376750301570E-02  0.0000000000000E+00 -0.1294096116908E-02
 0.1355402753688E-02 -0.6673334632069E-02  0.0000000000000E+00 -0.2066087676212E-02
 0.1217840355821E-02 -0.6914473138750E-02  0.0000000000000E+00 -0.2963670762256E-02
 0.1063521718606E-02 -0.7027452811599E-02  0.0000000000000E+00 -0.3935549873859E-02
 0.3662868693937E-03 -0.6408751942217E-02  0.0000000000000E+00 -0.4530316218734E-02
 0.7880007033236E-03 -0.5201188847423E-02  0.0000000000000E+00 -0.9471039520577E-03
 0.7537405006588E-02 -0.5872792098671E-02  0.0000000000000E+00  0.1714239013381E-02
 0.1430820440874E-02 -0.5728857126087E-02  0.0000000000000E+00 -0.6720322289766E-05
 0.1432700082660E-02 -0.5741026252508E-02  0.0000000000000E+00 -0.2556818617450E-04
 0.1437319326214E-02 -0.5772316362709E-02  0.0000000000000E+00 -0.6228775600903E-04
 0.1449426868930E-02 -0.5837880074978E-02  0.0000000000000E+00 -0.1318315189565E-03
 0.1470766845159E-02 -0.5963404197246E-02  0.0000000000000E+00 -0.2579250140116E-03
 0.1515439944342E-02 -0.6191303953528E-02  0.0000000000000E+00 -0.4821231123060E-03
 0.1548592816107E-02 -0.6559863220900E-02  0.0000000000000E+00 -0.9034838294610E-03
 0.1602323260158E-02 -0.7068117149174E-02  0.0000000000000E+00 -0.1562523655593E-02
 0.1549375476316E-02 -0.7632706779987E-02  0.0000000000000E+00 -0.2619071397930E-02
 0.1544397789985E-02 -0.8135126903653E-02  0.0000000000000E+00 -0.3711473895237E-02
 0.1088573597372E-02 -0.8342266082764E-02  0.0000000000000E+00 -0.5818829871714E-02
-0.4224979493301E-03 -0.6862004753202E-02  0.0000000000000E+00 -0.5045465193689E-02
 0.6644591689110E-02 -0.6645020563155E-02  0.0000000000000E+00 -0.6036237464286E-03
 0.1426333095878E-02 -0.5705707706511E-02  0.0000000000000E+00 -0.1696024241937E-05
 0.1428573392332E-02 -0.5716098938137E-02  0.0000000000000E+00 -0.7044528047118E-05
 0.1435828977264E-02 -0.5744952708483E-02  0.0000000000000E+00 -0.1856289054558E-04
 0.1449970295653E-02 -0.5809270776808E-02  0.0000000000000E+00 -0.4188583625364E-04
 0.1484084059484E-02 -0.5940453615040E-02  0.0000000000000E+00 -0.8521076961188E-04
 0.1537290518172E-02 -0.6188522558659E-02  0.0000000000000E+00 -0.1615038490854E-03
 0.1655828789808E-02 -0.6659816950560E-02  0.0000000000000E+00 -0.3522142360453E-03
 0.1763166161254E-02 -0.7396490313113E-02  0.0000000000000E+00 -0.8415190386586E-03
 0.2022634958848E-02 -0.8348000235856E-02  0.0000000000000E+00 -0.1776021206751E-02
 0.1882562413812E-02 -0.9320466779172E-02  0.0000000000000E+00 -0.3237158525735E-02
 0.2562952227890E-02 -0.1056991145015E-01  0.0000000000000E+00 -0.5207919050008E-02
-0.2385581319686E-03 -0.1092973444611E-01  0.0000000000000E+00 -0.9767217561603E-02
 0.4697849974036E-02 -0.1079437602311E-01  0.0000000000000E+00 -0.1121161319315E-01
 0.1104911044240E+00 -0.1636215150356E+00  0.0000000000000E+00 -0.4160515964031E+00
 0.1816535890102E+00 -0.2295098900795E+00  0.0000000000000E+00 -0.3042760491371E+00
 0.2383558899164E+00 -0.2812244296074E+00  0.0000000000000E+00 -0.2511322498322E+00
 0.2721261382103E+00 -0.3103688657284E+00  0.0000000000000E+00 -0.2295064181089E+00
 0.2888149619102E+00 -0.3236375749111E+00  0.0000000000000E+00 -0.2301574051380E+00
 0.2898065745831E+00 -0.3229791820049E+00  0.0000000000000E+00 -0.2547563612461E+00
 0.1040885001421E+00 -0.1609433144331E+00  0.0000000000000E+00 -0.3590232729912E+00
 0.1931162029505E+00 -0.2439669221640E+00  0.0000000000000E+00 -0.2561101317406E+00
 0.2598417103291E+00 -0.3055031597614E+00  0.0000000000000E+00 -0.2167277038097E+00
 0.3043721020222E+00 -0.3458858728409E+00  0.0000000000000E+00 -0.2094947695732E+00
 0.3305955529213E+00 -0.3693861663342E+00  0.0000000000000E+00 -0.2235555797815E+00
 0.3449198007584E+00 -0.3824125826359E+00  0.0000000000000E+00 -0.2630761861801E+00
 0.9886083006859E-01 -0.1590806841850E+00  0.0000000000000E+00 -0.2911876440048E+00
 0.2046905010939E+00 -0.2580938339233E+00  0.0000000000000E+00 -0.2039655894041E+00
 0.2814461290836E+00 -0.3295728862286E+00  0.0000000000000E+00 -0.1756076663733E+00
 0.3346775472164E+00 -0.3790461719036E+00  0.0000000000000E+00 -0.1773156821728E+00
 0.3718174993992E+00 -0.4138892292976E+00  0.0000000000000E+00 -0.1997578442097E+00
 0.3981745243073E+00 -0.4398199319839E+00  0.0000000000000E+00 -0.2425362020731E+00
 0.9484930336475E-01 -0.1577896326780E+00  0.0000000000000E+00 -0.2147939205170E+00
 0.2151059955359E+00 -0.2705455422401E+00  0.0000000000000E+00 -0.1482074111700E+00
 0.2999232709408E+00 -0.3500386774540E+00  0.0000000000000E+00 -0.1293170601130E+00
 0.3611149191856E+00 -0.4076888561249E+00  0.0000000000000E+00 -0.1352319568396E+00
 0.4073017239571E+00 -0.4521296620369E+00  0.0000000000000E+00 -0.1574394851923E+00
 0.4441283345222E+00 -0.4890110492706E+00  0.0000000000000E+00 -0.1948561966419E+00
 0.9219566732645E-01 -0.1570310890675E+00  0.0000000000000E+00 -0.1316787153482E+00
 0.2227850258350E+00 -0.2796621024609E+00  0.0000000000000E+00 -0.8990178257227E-01
 0.3135868310928E+00 -0.3650510311127E+00  0.0000000000000E+00 -0.7927413284779E-01
 0.3804501593113E+00 -0.4286107122898E+00  0.0000000000000E+00 -0.8466727286577E-01
 0.4333608150482E+00 -0.4800512492657E+00  0.0000000000000E+00 -0.1007185280323E+00
 0.4773665964603E+00 -0.5246338844299E+00  0.0000000000000E+00 -0.1258629262447E+00
 0.9084179252386E-01 -0.1566672027111E+00  0.0000000000000E+00 -0.4434351995587E-01
 0.2269097268581E+00 -0.2845098078251E+00  0.0000000000000E+00 -0.3014903329313E-01
 0.3207767605782E+00 -0.3729505240917E+00  0.0000000000000E+00 -0.2667895890772E-01
 0.3907200396061E+00 -0.4396685361862E+00  0.0000000000000E+00 -0.2888176217675E-01
 0.4470326900482E+00 -0.4947220385075E+00  0.0000000000000E+00 -0.3456920012832E-01
 0.4949117302895E+00 -0.5433537960052E+00  0.0000000000000E+00 -0.4356019198895E-01
 0.9084179252386E-01 -0.1566672027111E+00  0.0000000000000E+00  0.4434353113174E-01
 0.2269097268581E+00 -0.2845098078251E+00  0.0000000000000E+00  0.3014903701842E-01
 0.3207767605782E+00 -0.3729505240917E+00  0.0000000000000E+00  0.2667896077037E-01
 0.3907200396061E+00 -0.4396685361862E+00  0.0000000000000E+00  0.2888176403940E-01
 0.4470326900482E+00 -0.4947220385075E+00  0.0000000000000E+00  0.3456920012832E-01
 0.4949117302895E+00 -0.5433537960052E+00  0.0000000000000E+00  0.4356019198895E-01
 0.9219566732645E-01 -0.1570310890675E+00  0.0000000000000E+00  0.1316787302494E+00
 0.2227850258350E+00 -0.2796621024609E+00  0.0000000000000E+00  0.8990178257227E-01
 0.3135868310928E+00 -0.3650510311127E+00  0.0000000000000E+00  0.7927413284779E-01
 0.3804501593113E+00 -0.4286107122898E+00  0.0000000000000E+00  0.8466727286577E-01
 0.4333608150482E+00 -0.4800512492657E+00  0.0000000000000E+00  0.1007185280323E+00
 0.4773665964603E+00 -0.5246338844299E+00  0.0000000000000E+00  0.1258629262447E+00
 0.9484930336475E-01 -0.1577896326780E+00  0.0000000000000E+00  0.2147939354181E+00
 0.2151059955359E+00 -0.2705455422401E+00  0.0000000000000E+00  0.1482074111700E+00
 0.2999232709408E+00 -0.3500386774540E+00  0.0000000000000E+00  0.1293170601130E+00
 0.3611149191856E+00 -0.4076888561249E+00  0.0000000000000E+00  0.1352319568396E+00
 0.4073017239571E+00 -0.4521296620369E+00  0.0000000000000E+00  0.1574394851923E+00
 0.4441283345222E+00 -0.4890110492706E+00  0.0000000000000E+00  0.1948561966419E+00
 0.9886083006859E-01 -0.1590806841850E+00  0.0000000000000E+00  0.2911876738071E+00
 0.2046905010939E+00 -0.2580938339233E+00  0.0000000000000E+00  0.2039655894041E+00
 0.2814461290836E+00 -0.3295728862286E+00  0.0000000000000E+00  0.1756076663733E+00
 0.3346775472164E+00 -0.3790461719036E+00  0.0000000000000E+00  0.1773156821728E+00
 0.3718174993992E+00 -0.4138892292976E+00  0.0000000000000E+00  0.1997578442097E+00
 0.3981745243073E+00 -0.4398199319839E+00  0.0000000000000E+00  0.2425362020731E+00
 0.1040885001421E+00 -0.1609433144331E+00  0.0000000000000E+00  0.3590232729912E+00
 0.1931162029505E+00 -0.2439669221640E+00  0.0000000000000E+00  0.2561101317406E+00
 0.2598417103291E+00 -0.3055031597614E+00  0.0000000000000E+00  0.2167277038097E+00
 0.3043721020222E+00 -0.3458858728409E+00  0.0000000000000E+00  0.2094947695732E+00
 0.3305955529213E+00 -0.3693861663342E+00  0.0000000000000E+00  0.2235555797815E+00
 0.3449198007584E+00 -0.3824125826359E+00  0.0000000000000E+00  0.2630761861801E+00
 0.1104911044240E+00 -0.1636215150356E+00  0.0000000000000E+00  0.4160515964031E+00
 0.1816535890102E+00 -0.2295098900795E+00  0.0000000000000E+00  0.3042760491371E+00
 0.2383558899164E+00 -0.2812244296074E+00  0.0000000000000E+00  0.2511322498322E+00
 0.2721261382103E+00 -0.3103688657284E+00  0.0000000000000E+00  0.2295064181089E+00
 0.2888149619102E+00 -0.3236375749111E+00  0.0000000000000E+00  0.2301574051380E+00
 0.2898065745831E+00 -0.3229791820049E+00  0.0000000000000E+00  0.2547563612461E+00
 0.2234285920858E+00 -0.2798887789249E+00  0.0000000000000E+00 -0.1813459396362E+00
 0.7394190132618E-01 -0.6774291396141E-01  0.0000000000000E+00  0.1414774507284E+00
-0.1201310195029E-01  0.6436756812036E-02  0.0000000000000E+00 -0.2160699851811E-01
 0.8434064686298E-02 -0.5996444262564E-02  0.0000000000000E+00 -0.1068801898509E-01
-0.1401267666370E-01  0.1383375935256E-01  0.0000000000000E+00  0.7631473243237E-02
-0.5919588264078E-02  0.7663616444916E-02  0.0000000000000E+00  0.1342179253697E-01
 0.2133991867304E+00 -0.2499665021896E+00  0.0000000000000E+00 -0.4423456788063E+00
 0.1967945247889E+00 -0.2230850905180E+00  0.0000000000000E+00 -0.1147105172276E+00
 0.8869389444590E-01 -0.9253880381584E-01  0.0000000000000E+00  0.2903811819851E-01
 0.4179967567325E-01 -0.5111190304160E-01  0.0000000000000E+00 -0.3944944217801E-01
 0.3602968901396E-01 -0.3896533325315E-01  0.0000000000000E+00 -0.3123878687620E-01
 0.1991900801659E-01 -0.2472739852965E-01  0.0000000000000E+00 -0.3877526894212E-01
 0.1683239936829E+00 -0.2085932195187E+00  0.0000000000000E+00 -0.4836611747742E+00
 0.1918642818928E+00 -0.2193464785814E+00  0.0000000000000E+00 -0.2883903980255E+00
 0.1672111004591E+00 -0.1876526176929E+00  0.0000000000000E+00 -0.1062278077006E+00
 0.1084913089871E+00 -0.1194146797061E+00  0.0000000000000E+00 -0.5232779309154E-01
 0.7859213650227E-01 -0.9069158881903E-01  0.0000000000000E+00 -0.8537650853395E-01
 0.6708455830812E-01 -0.7590122520924E-01  0.0000000000000E+00 -0.9770593792200E-01
 0.1494928300381E+00 -0.1897152662277E+00  0.0000000000000E+00 -0.5044118165970E+00
 0.1829437464476E+00 -0.2177333086729E+00  0.0000000000000E+00 -0.3454065322876E+00
 0.1911759972572E+00 -0.2168741226196E+00  0.0000000000000E+00 -0.2100203633308E+00
 0.1707219332457E+00 -0.1918129771948E+00  0.0000000000000E+00 -0.1316357702017E+00
 0.1368412375450E+00 -0.1529284715652E+00  0.0000000000000E+00 -0.1234112679958E+00
 0.1159905791283E+00 -0.1322101801634E+00  0.0000000000000E+00 -0.1626785248518E+00
 0.1321428269148E+00 -0.1768457442522E+00  0.0000000000000E+00 -0.4886566698551E+00
 0.1764002889395E+00 -0.2148864269257E+00  0.0000000000000E+00 -0.3605786263943E+00
 0.2076949924231E+00 -0.2409291714430E+00  0.0000000000000E+00 -0.2604287564754E+00
 0.2105484604836E+00 -0.2375124394894E+00  0.0000000000000E+00 -0.1971617192030E+00
 0.1957782059908E+00 -0.2194182425737E+00  0.0000000000000E+00 -0.1796084195375E+00
 0.1762489378452E+00 -0.1975851058960E+00  0.0000000000000E+00 -0.2063052505255E+00
 0.1196708232164E+00 -0.1682054847479E+00  0.0000000000000E+00 -0.4606677293777E+00
 0.1758143156767E+00 -0.2197594344616E+00  0.0000000000000E+00 -0.3415628373623E+00
 0.2203858047724E+00 -0.2587560713291E+00  0.0000000000000E+00 -0.2723068594933E+00
 0.2428598105907E+00 -0.2765575647354E+00  0.0000000000000E+00 -0.2318710833788E+00
 0.2434604763985E+00 -0.2730807065964E+00  0.0000000000000E+00 -0.2186125665903E+00
 0.2364743500948E+00 -0.2637754976749E+00  0.0000000000000E+00 -0.2378525137901E+00
 0.1196708232164E+00 -0.1682054847479E+00  0.0000000000000E+00  0.4606677293777E+00
 0.1758143156767E+00 -0.2197594344616E+00  0.0000000000000E+00  0.3415628373623E+00
 0.2203858047724E+00 -0.2587560713291E+00  0.0000000000000E+00  0.2723068594933E+00
 0.2428598105907E+00 -0.2765575647354E+00  0.0000000000000E+00  0.2318710833788E+00
 0.2434604763985E+00 -0.2730807065964E+00  0.0000000000000E+00  0.2186125665903E+00
 0.2364743500948E+00 -0.2637754976749E+00  0.0000000000000E+00  0.2378525137901E+00
 0.1321428269148E+00 -0.1768457442522E+00  0.0000000000000E+00  0.4886566698551E+00
 0.1764002889395E+00 -0.2148864269257E+00  0.0000000000000E+00  0.3605786263943E+00
 0.2076949924231E+00 -0.2409291714430E+00  0.0000000000000E+00  0.2604287564754E+00
 0.2105484604836E+00 -0.2375124394894E+00  0.0000000000000E+00  0.1971617192030E+00
 0.1957782059908E+00 -0.2194182425737E+00  0.0000000000000E+00  0.1796084195375E+00
 0.1762489378452E+00 -0.1975851058960E+00  0.0000000000000E+00  0.2063052505255E+00
 0.1494928300381E+00 -0.1897152662277E+00  0.0000000000000E+00  0.5044118165970E+00
 0.1829437464476E+00 -0.2177333086729E+00  0.0000000000000E+00  0.3454065322876E+00
 0.1911759972572E+00 -0.2168741226196E+00  0.0000000000000E+00  0.2100203633308E+00
 0.1707219332457E+00 -0.1918129771948E+00  0.0000000000000E+00  0.1316357702017E+00
 0.1368412375450E+00 -0.1529284715652E+00  0.0000000000000E+00  0.1234112679958E+00
 0.1159905791283E+00 -0.1322101801634E+00  0.0000000000000E+00  0.1626785248518E+00
 0.1683239936829E+00 -0.2085932195187E+00  0.0000000000000E+00  0.4836611747742E+00
 0.1918642818928E+00 -0.2193464785814E+00  0.0000000000000E+00  0.2883903980255E+00
 0.1672110855579E+00 -0.1876526176929E+00  0.0000000000000E+00  0.1062278077006E+00
 0.1084913089871E+00 -0.1194146797061E+00  0.0000000000000E+00  0.5232779309154E-01
 0.7859213650227E-01 -0.9069158881903E-01  0.0000000000000E+00  0.8537650853395E-01
 0.6708455830812E-01 -0.7590122520924E-01  0.0000000000000E+00  0.9770593792200E-01
 0.2133991867304E+00 -0.2499665021896E+00  0.0000000000000E+00  0.4423456788063E+00
 0.1967945247889E+00 -0.2230850905180E+00  0.0000000000000E+00  0.1147105097771E+00
 0.8869389444590E-01 -0.9253880381584E-01  0.0000000000000E+00 -0.2903811819851E-01
 0.4179967567325E-01 -0.5111190304160E-01  0.0000000000000E+00  0.3944944217801E-01
 0.3602968901396E-01 -0.3896533325315E-01  0.0000000000000E+00  0.3123878687620E-01
 0.1991900801659E-01 -0.2472739852965E-01  0.0000000000000E+00  0.3877526894212E-01
 0.2234285920858E+00 -0.2798887789249E+00  0.0000000000000E+00  0.1813459396362E+00
 0.7394190132618E-01 -0.6774291396141E-01  0.0000000000000E+00 -0.1414774507284E+00
-0.1201310195029E-01  0.6436756812036E-02  0.0000000000000E+00  0.2160699851811E-01
 0.8434064686298E-02 -0.5996444262564E-02  0.0000000000000E+00  0.1068801898509E-01
-0.1401267666370E-01  0.1383375935256E-01  0.0000000000000E+00 -0.7631473243237E-02
-0.5919588264078E-02  0.7663616444916E-02  0.0000000000000E+00 -0.1342179253697E-01
 0.2603017389774E+00 -0.2900210022926E+00  0.0000000000000E+00 -0.2775689959526E+00
 0.1952013969421E+00 -0.2196692824364E+00  0.0000000000000E+00 -0.2694370746613E+00
 0.1316069960594E+00 -0.1494620889425E+00  0.0000000000000E+00 -0.2308199703693E+00
 0.6746572256088E-01 -0.7969523966312E-01  0.0000000000000E+00 -0.1578527837992E+00
 0.2843828685582E-01 -0.3367099910975E-01  0.0000000000000E+00 -0.7435445487499E-01
-0.3441134686000E-04  0.5607282510027E-03  0.0000000000000E+00  0.1645977981389E-01
 0.3244104385376E+00 -0.3601794540882E+00  0.0000000000000E+00 -0.3098492324352E+00
 0.2649558186531E+00 -0.2962107956409E+00  0.0000000000000E+00 -0.3413030207157E+00
 0.1860864162445E+00 -0.2122151404619E+00  0.0000000000000E+00 -0.3421681821346E+00
 0.1023587733507E+00 -0.1207156255841E+00  0.0000000000000E+00 -0.2906047999859E+00
 0.3236318379641E-01 -0.4224050045013E-01  0.0000000000000E+00 -0.1640356183052E+00
 0.7253075484186E-02 -0.8528449572623E-02  0.0000000000000E+00 -0.1226161327213E-01
 0.3935466706753E+00 -0.4347391426563E+00  0.0000000000000E+00 -0.3070146739483E+00
 0.3500640988350E+00 -0.3897409737110E+00  0.0000000000000E+00 -0.3816359043121E+00
 0.2795735299587E+00 -0.3161430358887E+00  0.0000000000000E+00 -0.4406352341175E+00
 0.1822256743908E+00 -0.2139713764191E+00  0.0000000000000E+00 -0.4505306780338E+00
 0.7041704654694E-01 -0.9202690422535E-01  0.0000000000000E+00 -0.3591812252998E+00
-0.1297774491832E-02 -0.3704184433445E-02  0.0000000000000E+00 -0.1074435338378E+00
 0.4579808712006E+00 -0.5042237639427E+00  0.0000000000000E+00 -0.2615914344788E+00
 0.4424886703491E+00 -0.4901441037655E+00  0.0000000000000E+00 -0.3586011230946E+00
 0.3978582620621E+00 -0.4476546347141E+00  0.0000000000000E+00 -0.4624497890472E+00
 0.3178128004074E+00 -0.3685007989407E+00  0.0000000000000E+00 -0.5431066751480E+00
 0.1989091038704E+00 -0.2481214702129E+00  0.0000000000000E+00 -0.5400814414024E+00
 0.6229652464390E-01 -0.9876336902380E-01  0.0000000000000E+00 -0.2799102067947E+00
 0.5085033774376E+00 -0.5582872033119E+00  0.0000000000000E+00 -0.1766895353794E+00
 0.5207453370094E+00 -0.5752564072609E+00  0.0000000000000E+00 -0.2586575448513E+00
 0.5117291808128E+00 -0.5734325051308E+00  0.0000000000000E+00 -0.3593248426914E+00
 0.4645234644413E+00 -0.5369172096252E+00  0.0000000000000E+00 -0.4567491710186E+00
 0.3592011034489E+00 -0.4450781345367E+00  0.0000000000000E+00 -0.4802155792713E+00
 0.1380847096443E+00 -0.2439835369587E+00  0.0000000000000E+00 -0.2631978094578E+00
 0.5360303521156E+00 -0.5877802968025E+00  0.0000000000000E+00 -0.6224180757999E-01
 0.5667190551758E+00 -0.6249891519547E+00  0.0000000000000E+00 -0.9489237517118E-01
 0.5823135375977E+00 -0.6515738964081E+00  0.0000000000000E+00 -0.1357854753733E+00
 0.5628450512886E+00 -0.6496109962463E+00  0.0000000000000E+00 -0.1803044676781E+00
 0.4531890153885E+00 -0.5684865713120E+00  0.0000000000000E+00 -0.1843777298927E+00
 0.1447011530399E+00 -0.3054030835629E+00  0.0000000000000E+00 -0.6958135962486E-01
 0.5360303521156E+00 -0.5877802968025E+00  0.0000000000000E+00  0.6224180757999E-01
 0.5667190551758E+00 -0.6249891519547E+00  0.0000000000000E+00  0.9489237517118E-01
 0.5823135375977E+00 -0.6515738964081E+00  0.0000000000000E+00  0.1357854753733E+00
 0.5628450512886E+00 -0.6496109962463E+00  0.0000000000000E+00  0.1803044676781E+00
 0.4531890153885E+00 -0.5684865713120E+00  0.0000000000000E+00  0.1843777298927E+00
 0.1447011530399E+00 -0.3054030835629E+00  0.0000000000000E+00  0.6958135962486E-01
 0.5085033774376E+00 -0.5582872033119E+00  0.0000000000000E+00  0.1766895353794E+00
 0.5207453370094E+00 -0.5752564072609E+00  0.0000000000000E+00  0.2586575448513E+00
 0.5117291808128E+00 -0.5734325051308E+00  0.0000000000000E+00  0.3593248426914E+00
 0.4645234644413E+00 -0.5369172096252E+00  0.0000000000000E+00  0.4567491710186E+00
 0.3592011034489E+00 -0.4450781345367E+00  0.0000000000000E+00  0.4802155792713E+00
 0.1380847096443E+00 -0.2439835369587E+00  0.0000000000000E+00  0.2631978094578E+00
 0.4579808712006E+00 -0.5042237639427E+00  0.0000000000000E+00  0.2615914344788E+00
 0.4424886703491E+00 -0.4901441037655E+00  0.0000000000000E+00  0.3586011230946E+00
 0.3978582620621E+00 -0.4476546347141E+00  0.0000000000000E+00  0.4624497890472E+00
 0.3178128004074E+00 -0.3685007989407E+00  0.0000000000000E+00  0.5431066751480E+00
 0.1989091038704E+00 -0.2481214702129E+00  0.0000000000000E+00  0.5400814414024E+00
 0.6229652464390E-01 -0.9876336902380E-01  0.0000000000000E+00  0.2799102067947E+00
 0.3935466706753E+00 -0.4347391426563E+00  0.0000000000000E+00  0.3070146739483E+00
 0.3500640988350E+00 -0.3897409737110E+00  0.0000000000000E+00  0.3816359043121E+00
 0.2795735299587E+00 -0.3161430358887E+00  0.0000000000000E+00  0.4406352341175E+00
 0.1822256743908E+00 -0.2139713764191E+00  0.0000000000000E+00  0.4505306780338E+00
 0.7041704654694E-01 -0.9202690422535E-01  0.0000000000000E+00  0.3591812252998E+00
-0.1297774491832E-02 -0.3704184433445E-02  0.0000000000000E+00  0.1074435338378E+00
 0.3244104385376E+00 -0.3601794540882E+00  0.0000000000000E+00  0.3098492324352E+00
 0.2649558186531E+00 -0.2962107956409E+00  0.0000000000000E+00  0.3413030207157E+00
 0.1860864162445E+00 -0.2122151404619E+00  0.0000000000000E+00  0.3421681821346E+00
 0.1023587733507E+00 -0.1207156255841E+00  0.0000000000000E+00  0.2906047999859E+00
 0.3236318379641E-01 -0.4224050045013E-01  0.0000000000000E+00  0.1640356183052E+00
 0.7253075484186E-02 -0.8528449572623E-02  0.0000000000000E+00  0.1226161327213E-01
 0.2603017389774E+00 -0.2900210022926E+00  0.0000000000000E+00  0.2775689959526E+00
 0.1952013969421E+00 -0.2196692824364E+00  0.0000000000000E+00  0.2694370746613E+00
 0.1316069960594E+00 -0.1494620889425E+00  0.0000000000000E+00  0.2308199703693E+00
 0.6746572256088E-01 -0.7969523966312E-01  0.0000000000000E+00  0.1578527837992E+00
 0.2843828685582E-01 -0.3367099910975E-01  0.0000000000000E+00  0.7435445487499E-01
-0.3441134322202E-04  0.5607282510027E-03  0.0000000000000E+00 -0.1645977981389E-01
</DataArray>
<DataArray type="Float32" Name="S_Centroid" NumberOfComponents="4" ComponentName0="S11" ComponentName1="S22" ComponentName2="S33" ComponentName3="S12" format="ascii">
-0.5215033161221E-04 -0.2971735954285E+01 -0.5943576097488E+00  0.3533384006005E-03
-0.2507776080165E-03 -0.2977197647095E+01 -0.5954896807671E+00  0.1467610010877E-02
-0.2273190330015E-03 -0.2992219686508E+01 -0.5984894037247E+00  0.3867268795148E-02
-0.1304162433371E-02 -0.3025988101959E+01 -0.6054584383965E+00  0.8726215921342E-02
-0.5718388711102E-03 -0.3094129323959E+01 -0.6189402341843E+00  0.1775224506855E-01
-0.5466737784445E-02 -0.3224555492401E+01 -0.6460044384003E+00  0.3364663571119E-01
-0.5069687496871E-02 -0.3469922065735E+01 -0.6949983239174E+00  0.7337796688080E-01
-0.4775356501341E-01 -0.3864277124405E+01 -0.7824060916901E+00  0.1753164678812E+00
-0.3575839474797E-01 -0.4356856346130E+01 -0.8785229325294E+00  0.3700044155121E+00
-0.2486412823200E+00 -0.4916570186615E+01 -0.1033042311668E+01  0.6744080185890E+00
-0.4418092221022E-01 -0.5516207218170E+01 -0.1112077593803E+01  0.1084983110428E+01
-0.1650550961494E+01 -0.6105207920074E+01 -0.1551151752472E+01  0.2034837007523E+01
 0.1110697627068E+01 -0.5344396591187E+01 -0.8467398285866E+00  0.2335752725601E+01
-0.7743855821900E-03 -0.2983973503113E+01 -0.5969495773315E+00  0.1400067121722E-02
-0.1420270884410E-02 -0.2990472793579E+01 -0.5983786582947E+00  0.5326705519110E-02
-0.3199904458597E-02 -0.3007214784622E+01 -0.6020829677582E+00  0.1297661568969E-01
-0.5579541902989E-02 -0.3041957378387E+01 -0.6095073819160E+00  0.2746490016580E-01
-0.1115788891912E-01 -0.3108729362488E+01 -0.6239774227142E+00  0.5373437702656E-01
-0.1799223013222E-01 -0.3229135513306E+01 -0.6494255661964E+00  0.1004423126578E+00
-0.5076279863715E-01 -0.3429286241531E+01 -0.6960098147392E+00  0.1882258057594E+00
-0.9150331467390E-01 -0.3704186677933E+01 -0.7591380476952E+00  0.3255257606506E+00
-0.1993339955807E+00 -0.4025201797485E+01 -0.8449071049690E+00  0.5456398725510E+00
-0.2718800008297E+00 -0.4305015087128E+01 -0.9153790473938E+00  0.7732237577438E+00
-0.5538849234581E+00 -0.4483401298523E+01 -0.1007457256317E+01  0.1212256193161E+01
-0.1187777280807E+01 -0.3870904922485E+01 -0.1011736512184E+01  0.1051138639450E+01
 0.2768520355225E+01 -0.2768818140030E+01 -0.5955368760624E-04  0.1257549226284E+00
-0.2306472044438E-02 -0.2994398832321E+01 -0.5993410944939E+00  0.2553473459557E-02
-0.4225343931466E-02 -0.3000938653946E+01 -0.6010327935219E+00  0.9492842480540E-02
-0.8273398503661E-02 -0.3016940116882E+01 -0.6050426959991E+00  0.2212748117745E-01
-0.1573872379959E-01 -0.3048799991608E+01 -0.6129077672958E+00  0.4560198634863E-01
-0.2712921798229E-01 -0.3106635332108E+01 -0.6267529129982E+00  0.8665569871664E-01
-0.5076102167368E-01 -0.3204355478287E+01 -0.6510233283043E+00  0.1582811325788E+00
-0.9646694362164E-01 -0.3345340967178E+01 -0.6883615851402E+00  0.2696033716202E+00
-0.1738505214453E+00 -0.3519157648087E+01 -0.7386016249657E+00  0.4304349720478E+00
-0.2837655544281E+00 -0.3672229528427E+01 -0.7911990284920E+00  0.6174314022064E+00
-0.3851897120476E+00 -0.3756429195404E+01 -0.8283237814903E+00  0.8199062347412E+00
-0.6866117119789E+00 -0.3509544610977E+01 -0.8392312526703E+00  0.9438158273697E+00
-0.2846091389656E+00 -0.2780104875565E+01 -0.6129428148270E+00  0.1973132938147E+00
 0.3371781587601E+01 -0.2215800523758E+01  0.2311961948872E+00 -0.3571331501007E+00
-0.4749638959765E-02 -0.3002850055695E+01 -0.6015199422836E+00  0.3670363454148E-02
-0.8241687901318E-02 -0.3008483409882E+01 -0.6033449769020E+00  0.1330755092204E-01
-0.1596375741065E-01 -0.3021857976913E+01 -0.6075643301010E+00  0.3033464029431E-01
-0.2923276275396E-01 -0.3047141551971E+01 -0.6152748465538E+00  0.6088591739535E-01
-0.5107772722840E-01 -0.3090757608414E+01 -0.6283670663834E+00  0.1138292998075E+00
-0.8936083316803E-01 -0.3156601667404E+01 -0.6491925120354E+00  0.1994908452034E+00
-0.1530205160379E+00 -0.3239907026291E+01 -0.6785854697227E+00  0.3239114880562E+00
-0.2476983368397E+00 -0.3316469430923E+01 -0.7128335833549E+00  0.4806314110756E+00
-0.3508571386337E+00 -0.3346042871475E+01 -0.7393800020218E+00  0.6362699270248E+00
-0.4591940641403E+00 -0.3249945640564E+01 -0.7418279051781E+00  0.7546215653419E+00
-0.5225975513458E+00 -0.2843114137650E+01 -0.6731423139572E+00  0.5709266662598E+00
 0.4994546175003E+00 -0.2335711479187E+01 -0.3672513663769E+00 -0.2324184626341E+00
 0.3412683725357E+01 -0.2090795993805E+01  0.2643775343895E+00 -0.4978149831295E+00
-0.7938946597278E-02 -0.3009320974350E+01 -0.6034520268440E+00  0.4562514834106E-02
-0.1340236887336E-01 -0.3013354778290E+01 -0.6053514480591E+00  0.1635438017547E-01
-0.2535886131227E-01 -0.3022484540939E+01 -0.6095686554909E+00  0.3654615581036E-01
-0.4585836082697E-01 -0.3038747310638E+01 -0.6169211268425E+00  0.7213247567415E-01
-0.7906829565763E-01 -0.3063917636871E+01 -0.6285971403122E+00  0.1319694221020E+00
-0.1319478899240E+00 -0.3095715284348E+01 -0.6455326080322E+00  0.2240565717220E+00
-0.2106324285269E+00 -0.3122404336929E+01 -0.6666073203087E+00  0.3492987155914E+00
-0.3101835250854E+00 -0.3118508338928E+01 -0.6857383847237E+00  0.4900605678558E+00
-0.3998478651047E+00 -0.3049224138260E+01 -0.6898143887520E+00  0.6081726551056E+00
-0.4539325237274E+00 -0.2839880943298E+01 -0.6587626934052E+00  0.6162587404251E+00
-0.2238075882196E+00 -0.2450242996216E+01 -0.5348100662231E+00  0.2687838673592E+00
 0.1019297599792E+01 -0.2169031858444E+01 -0.2299468517303E+00 -0.4143884480000E+00
 0.3420792818069E+01 -0.2082232713699E+01  0.2677119970322E+00 -0.5343903899193E+00
-0.1167796086520E-01 -0.3013977050781E+01 -0.6051309704781E+00  0.5140868481249E-02
-0.1930027641356E-01 -0.3015898942947E+01 -0.6070398092270E+00  0.1824135333300E-01
-0.3589333966374E-01 -0.3019777536392E+01 -0.6111341714859E+00  0.4019125550985E-01
-0.6419023871422E-01 -0.3025332212448E+01 -0.6179044842720E+00  0.7815600186586E-01
-0.1087747365236E+00 -0.3030452966690E+01 -0.6278455257416E+00  0.1401487439871E+00
-0.1749841570854E+00 -0.3028321743011E+01 -0.6406611800194E+00  0.2317547649145E+00
-0.2642359435558E+00 -0.3004022836685E+01 -0.6536517739296E+00  0.3488352894783E+00
-0.3602897524834E+00 -0.2935193061829E+01 -0.6590965986252E+00  0.4682910442352E+00
-0.4256250858307E+00 -0.2793476819992E+01 -0.6438204050064E+00  0.5428488254547E+00
-0.3771483004093E+00 -0.2540015697479E+01 -0.5834327936172E+00  0.4614548683167E+00
 0.7464018464088E-01 -0.2237189292908E+01 -0.4325098395348E+00  0.6889161467552E-01
 0.1385831236839E+01 -0.2115594148636E+01 -0.1459525972605E+00 -0.4711161851883E+00
 0.3370460271835E+01 -0.2133118629456E+01  0.2474683225155E+00 -0.5209121704102E+00
-0.1568840444088E-01 -0.3017076015472E+01 -0.6065528392792E+00  0.5327905062586E-02
-0.2550549246371E-01 -0.3016623497009E+01 -0.6084257960320E+00  0.1876204088330E-01
-0.4679115489125E-01 -0.3014755725861E+01 -0.6123093366623E+00  0.4089211672544E-01
-0.8279678225517E-01 -0.3009055852890E+01 -0.6183705329895E+00  0.7848061621189E-01
-0.1379138827324E+00 -0.2994328737259E+01 -0.6264485120773E+00  0.1383248269558E+00
-0.2154861390591E+00 -0.2960804224014E+01 -0.6352580785751E+00  0.2236823886633E+00
-0.3106023967266E+00 -0.2893204450607E+01 -0.6407613754272E+00  0.3270380198956E+00
-0.3985351920128E+00 -0.2774121999741E+01 -0.6345314383507E+00  0.4228243529797E+00
-0.4250575602055E+00 -0.2586998701096E+01 -0.6024112701416E+00  0.4566607177258E+00
-0.2691550850868E+00 -0.2336743593216E+01 -0.5211797356606E+00  0.3250108659267E+00
 0.3373792469501E+00 -0.2127020359039E+01 -0.3579282164574E+00 -0.4677745699883E-01
 0.1631030797958E+01 -0.2117095470428E+01 -0.9721295535564E-01 -0.4590176045895E+00
 0.3335704565048E+01 -0.2203587055206E+01  0.2264235019684E+00 -0.4837929606438E+00
-0.1966247148812E-01 -0.3018940925598E+01 -0.6077206730843E+00  0.5096026696265E-02
-0.3156286850572E-01 -0.3016085386276E+01 -0.6095296144485E+00  0.1784646883607E-01
-0.5728802084923E-01 -0.3008508205414E+01 -0.6131592392921E+00  0.3856455162168E-01
-0.1003587469459E+00 -0.2991981267929E+01 -0.6184679865837E+00  0.7319594919682E-01
-0.1647367477417E+00 -0.2959002733231E+01 -0.6247478723526E+00  0.1271816790104E+00
-0.2511722743511E+00 -0.2898141384125E+01 -0.6298627257347E+00  0.2018786966801E+00
-0.3490342795849E+00 -0.2795465469360E+01 -0.6288999319077E+00  0.2883495986462E+00
-0.4244884252548E+00 -0.2639428853989E+01 -0.6127834320068E+00  0.3604511022568E+00
-0.4066845476627E+00 -0.2429729461670E+01 -0.5672827959061E+00  0.3642245531082E+00
-0.1544903069735E+00 -0.2204413175583E+01 -0.4717806875706E+00  0.2174701541662E+00
 0.5478608012199E+00 -0.2075417518616E+01 -0.3055113255978E+00 -0.1010304540396E+00
 0.1804271817207E+01 -0.2140226602554E+01 -0.6719093769789E-01 -0.4094391167164E+00
 0.3297000646591E+01 -0.2281584501266E+01  0.2030832320452E+00 -0.4219431877136E+00
-0.2329080924392E-01 -0.3019913911819E+01 -0.6086409687996E+00  0.4459120798856E-02
-0.3704072907567E-01 -0.3014843940735E+01 -0.6103769540787E+00  0.1555384788662E-01
-0.6666482239962E-01 -0.3002070426941E+01 -0.6137470006943E+00  0.3338574618101E-01
-0.1158200576901E+00 -0.2975928783417E+01 -0.6183497309685E+00  0.6280875951052E-01
-0.1878181248903E+00 -0.2927260160446E+01 -0.6230156421661E+00  0.1078838482499E+00
-0.2809061408043E+00 -0.2843925237656E+01 -0.6249662637711E+00  0.1687588691711E+00
-0.3792124688625E+00 -0.2713941574097E+01 -0.6186307668686E+00  0.2365705966949E+00
-0.4403989315033E+00 -0.2532427787781E+01 -0.5945653319359E+00  0.2872224748135E+00
-0.3792622089386E+00 -0.2314835309982E+01 -0.5388195514679E+00  0.2737089395523E+00
-0.5096134543419E-01 -0.2120594024658E+01 -0.4343110620975E+00  0.1380428820848E+00
 0.7110900282860E+00 -0.2054132461548E+01 -0.2686085104942E+00 -0.1140586361289E+00
 0.1922685623169E+01 -0.2170816421509E+01 -0.4962615668774E-01 -0.3358892798424E+00
 0.3271983146667E+01 -0.2351094484329E+01  0.1841777116060E+00 -0.3457117676735E+00
-0.2629156038165E-01 -0.3020317554474E+01 -0.6093217730522E+00  0.3466685302556E-02
-0.4153765738010E-01 -0.3013408184052E+01 -0.6109891533852E+00  0.1205720379949E-01
-0.7429236918688E-01 -0.2996363878250E+01 -0.6141312122345E+00  0.2575326338410E-01
-0.1282428652048E+00 -0.2962457656860E+01 -0.6181401014328E+00  0.4812827706337E-01
-0.2060448974371E+00 -0.2901439428329E+01 -0.6214969158173E+00  0.8195667713881E-01
-0.3037748932838E+00 -0.2800979614258E+01 -0.6209509372711E+00  0.1268143802881E+00
-0.4012732505798E+00 -0.2651166439056E+01 -0.6104879379272E+00  0.1752588897943E+00
-0.4488079249859E+00 -0.2453379154205E+01 -0.5804374217987E+00  0.2078434973955E+00
-0.3514698147774E+00 -0.2235842704773E+01 -0.5174624919891E+00  0.1890211999416E+00
 0.3230011463165E-01 -0.2069590806961E+01 -0.4074581265450E+00  0.8174377679825E-01
 0.8290058374405E+00 -0.2048244476318E+01 -0.2438477277756E+00 -0.9886984527111E-01
 0.2002236366272E+01 -0.2199016809464E+01 -0.3935611620545E-01 -0.2483798563480E+00
 0.3256151199341E+01 -0.2408168077469E+01  0.1695966422558E+00 -0.2564065456390E+00
-0.2843136712909E-01 -0.3020422458649E+01 -0.6097707748413E+00  0.2197315217927E-02
-0.4472826793790E-01 -0.3012199878693E+01 -0.6113856434822E+00  0.7628067396581E-02
-0.7966752350330E-01 -0.2992127418518E+01 -0.6143589615822E+00  0.1624000445008E-01
-0.1369208246469E+00 -0.2952785253525E+01 -0.6179412007332E+00  0.3021530807018E-01
-0.2186144590378E+00 -0.2883273124695E+01 -0.6203775405884E+00  0.5115677788854E-01
-0.3192570209503E+00 -0.2771303892136E+01 -0.6181122064590E+00  0.7858995348215E-01
-0.4155816137791E+00 -0.2608658075333E+01 -0.6048479676247E+00  0.1075627580285E+00
-0.4525507688522E+00 -0.2401551008224E+01 -0.5708203315735E+00  0.1254881471395E+00
-0.3295677602291E+00 -0.2186759233475E+01 -0.5032653808594E+00  0.1104600057006E+00
 0.8994560688734E-01 -0.2040938854218E+01 -0.3901986479759E+00  0.4231207072735E-01
 0.9052132368088E+00 -0.2048450469971E+01 -0.2286474704742E+00 -0.6586164236069E-01
 0.2051544189453E+01 -0.2220110416412E+01 -0.3371328115463E-01 -0.1521841585636E+00
 0.3246830463409E+01 -0.2448428392410E+01  0.1596804410219E+00 -0.1577485352755E+00
-0.2954434417188E-01 -0.3020423889160E+01 -0.6099936366081E+00  0.7524664979428E-03
-0.4638280346990E-01 -0.3011518001556E+01 -0.6115801334381E+00  0.2609801944345E-02
-0.8244361728430E-01 -0.2989876985550E+01 -0.6144641041756E+00  0.5547238513827E-02
-0.1413785368204E+00 -0.2947739601135E+01 -0.6178236007690E+00  0.1029798388481E-01
-0.2250216603279E+00 -0.2873906373978E+01 -0.6197856068611E+00  0.1738499663770E-01
-0.3270608484745E+00 -0.2756160020828E+01 -0.6166442036629E+00  0.2661250904202E-01
-0.4225890040398E+00 -0.2587235212326E+01 -0.6019648313522E+00  0.3624395653605E-01
-0.4538319706917E+00 -0.2375952959061E+01 -0.5659569501877E+00  0.4193038120866E-01
-0.3176186382771E+00 -0.2163318395615E+01 -0.4961874186993E+00  0.3629357367754E-01
 0.1192848309875E+00 -0.2028146266937E+01 -0.3817722797394E+00  0.1298803649843E-01
 0.9426221251488E+00 -0.2049682617188E+01 -0.2214120924473E+00 -0.2300920337439E-01
 0.2075047492981E+01 -0.2231304645538E+01 -0.3125140815973E-01 -0.5122028291225E-01
 0.3242934703827E+01 -0.2469215631485E+01  0.1547438502312E+00 -0.5328615754843E-01
-0.2954434417188E-01 -0.3020423889160E+01 -0.6099936366081E+00 -0.7524660904892E-03
-0.4638280346990E-01 -0.3011518001556E+01 -0.6115801334381E+00 -0.2609801944345E-02
-0.8244361728430E-01 -0.2989876985550E+01 -0.6144641041756E+00 -0.5547238513827E-02
-0.1413785368204E+00 -0.2947739601135E+01 -0.6178236007690E+00 -0.1029798481613E-01
-0.2250216603279E+00 -0.2873906373978E+01 -0.6197856068611E+00 -0.1738499850035E-01
-0.3270608484745E+00 -0.2756160020828E+01 -0.6166442036629E+00 -0.2661251276731E-01
-0.4225890040398E+00 -0.2587235212326E+01 -0.6019648313522E+00 -0.3624396026134E-01
-0.4538319706917E+00 -0.2375952959061E+01 -0.5659569501877E+00 -0.4193038865924E-01
-0.3176186382771E+00 -0.2163318395615E+01 -0.4961874186993E+00 -0.3629357740283E-01
 0.1192848309875E+00 -0.2028146266937E+01 -0.3817722797394E+00 -0.1298803836107E-01
 0.9426221251488E+00 -0.2049682617188E+01 -0.2214120924473E+00  0.2300920896232E-01
 0.2075047492981E+01 -0.2231304645538E+01 -0.3125140815973E-01  0.5122029408813E-01
 0.3242934703827E+01 -0.2469215631485E+01  0.1547438502312E+00  0.5328616872430E-01
-0.2843136526644E-01 -0.3020422458649E+01 -0.6097707748413E+00 -0.2197314985096E-02
-0.4472826793790E-01 -0.3012199878693E+01 -0.6113856434822E+00 -0.7628067396581E-02
-0.7966752350330E-01 -0.2992127418518E+01 -0.6143589615822E+00 -0.1624000445008E-01
-0.1369208246469E+00 -0.2952785253525E+01 -0.6179412007332E+00 -0.3021530807018E-01
-0.2186144441366E+00 -0.2883273124695E+01 -0.6203775405884E+00 -0.5115677788854E-01
-0.3192570209503E+00 -0.2771303892136E+01 -0.6181122064590E+00 -0.7858995348215E-01
-0.4155816137791E+00 -0.2608658075333E+01 -0.6048479676247E+00 -0.1075627654791E+00
-0.4525507688522E+00 -0.2401551008224E+01 -0.5708203315735E+00 -0.1254881620407E+00
-0.3295677602291E+00 -0.2186759233475E+01 -0.5032653808594E+00 -0.1104600057006E+00
 0.8994560688734E-01 -0.2040938854218E+01 -0.3901986479759E+00 -0.4231207445264E-01
 0.9052132368088E+00 -0.2048450469971E+01 -0.2286474704742E+00  0.6586164981127E-01
 0.2051544189453E+01 -0.2220110416412E+01 -0.3371328115463E-01  0.1521841585636E+00
 0.3246830463409E+01 -0.2448428392410E+01  0.1596804410219E+00  0.1577485501766E+00
-0.2629156038165E-01 -0.3020317554474E+01 -0.6093217730522E+00 -0.3466685069725E-02
-0.4153765738010E-01 -0.3013408184052E+01 -0.6109891533852E+00 -0.1205720379949E-01
-0.7429236918688E-01 -0.2996363878250E+01 -0.6141312122345E+00 -0.2575326338410E-01
-0.1282428652048E+00 -0.2962457656860E+01 -0.6181401014328E+00 -0.4812827706337E-01
-0.2060448974371E+00 -0.2901439428329E+01 -0.6214969158173E+00 -0.8195667713881E-01
-0.3037748932838E+00 -0.2800979614258E+01 -0.6209509372711E+00 -0.1268143802881E+00
-0.4012732505798E+00 -0.2651166439056E+01 -0.6104879379272E+00 -0.1752589046955E+00
-0.4488079249859E+00 -0.2453379154205E+01 -0.5804374217987E+00 -0.2078435122967E+00
-0.3514698147774E+00 -0.2235842704773E+01 -0.5174624919891E+00 -0.1890212148428E+00
 0.3230010718107E-01 -0.2069590806961E+01 -0.4074581265450E+00 -0.8174378424883E-01
 0.8290058374405E+00 -0.2048244476318E+01 -0.2438477277756E+00  0.9886985272169E-01
 0.2002236366272E+01 -0.2199016809464E+01 -0.3935611993074E-01  0.2483798563480E+00
 0.3256151199341E+01 -0.2408168077469E+01  0.1695966571569E+00  0.2564065754414E+00
-0.2329080924392E-01 -0.3019913911819E+01 -0.6086409687996E+00 -0.4459120333195E-02
-0.3704072907567E-01 -0.3014843940735E+01 -0.6103769540787E+00 -0.1555384788662E-01
-0.6666482239962E-01 -0.3002070426941E+01 -0.6137470006943E+00 -0.3338574618101E-01
-0.1158200576901E+00 -0.2975928783417E+01 -0.6183497309685E+00 -0.6280875951052E-01
-0.1878181248903E+00 -0.2927260160446E+01 -0.6230156421661E+00 -0.1078838482499E+00
-0.2809061408043E+00 -0.2843925237656E+01 -0.6249662637711E+00 -0.1687588691711E+00
-0.3792124390602E+00 -0.2713941574097E+01 -0.6186307668686E+00 -0.2365705966949E+00
-0.4403989315033E+00 -0.2532427787781E+01 -0.5945653319359E+00 -0.2872224748135E+00
-0.3792622089386E+00 -0.2314835548401E+01 -0.5388195514679E+00 -0.2737089395523E+00
-0.5096135661006E-01 -0.2120594024658E+01 -0.4343110620975E+00 -0.1380428820848E+00
 0.7110900282860E+00 -0.2054132461548E+01 -0.2686085104942E+00  0.1140586361289E+00
 0.1922685623169E+01 -0.2170816421509E+01 -0.4962615668774E-01  0.3358892798424E+00
 0.3271983146667E+01 -0.2351094484329E+01  0.1841777116060E+00  0.3457117676735E+00
-0.1966247148812E-01 -0.3018940925598E+01 -0.6077206730843E+00 -0.5096026696265E-02
-0.3156286478043E-01 -0.3016085386276E+01 -0.6095296144485E+00 -0.1784646883607E-01
-0.5728802084923E-01 -0.3008508205414E+01 -0.6131592392921E+00 -0.3856455162168E-01
-0.1003587469459E+00 -0.2991981267929E+01 -0.6184679865837E+00 -0.7319594919682E-01
-0.1647367477417E+00 -0.2959002733231E+01 -0.6247478723526E+00 -0.1271816790104E+00
-0.2511722743511E+00 -0.2898141384125E+01 -0.6298627257347E+00 -0.2018786966801E+00
-0.3490342795849E+00 -0.2795465469360E+01 -0.6288999319077E+00 -0.2883495986462E+00
-0.4244884252548E+00 -0.2639428853989E+01 -0.6127834916115E+00 -0.3604511022568E+00
-0.4066845476627E+00 -0.2429729461670E+01 -0.5672827959061E+00 -0.3642245531082E+00
-0.1544903218746E+00 -0.2204413175583E+01 -0.4717806875706E+00 -0.2174701541662E+00
 0.5478608012199E+00 -0.2075417518616E+01 -0.3055113255978E+00  0.1010304540396E+00
 0.1804271817207E+01 -0.2140226602554E+01 -0.6719093769789E-01  0.4094391167164E+00
 0.3297000646591E+01 -0.2281584501266E+01  0.2030832469463E+00  0.4219431877136E+00
-0.1568840444088E-01 -0.3017076015472E+01 -0.6065528392792E+00 -0.5327904596925E-02
-0.2550549246371E-01 -0.3016623497009E+01 -0.6084257960320E+00 -0.1876204088330E-01
-0.4679115489125E-01 -0.3014755725861E+01 -0.6123093366623E+00 -0.4089211672544E-01
-0.8279678225517E-01 -0.3009055852890E+01 -0.6183705329895E+00 -0.7848061621189E-01
-0.1379138678312E+00 -0.2994328737259E+01 -0.6264485120773E+00 -0.1383248269558E+00
-0.2154861390591E+00 -0.2960804224014E+01 -0.6352580785751E+00 -0.2236823886633E+00
-0.3106023967266E+00 -0.2893204450607E+01 -0.6407613754272E+00 -0.3270380198956E+00
-0.3985351920128E+00 -0.2774121999741E+01 -0.6345314383507E+00 -0.4228243529797E+00
-0.4250575602055E+00 -0.2586998701096E+01 -0.6024112701416E+00 -0.4566607177258E+00
-0.2691551148891E+00 -0.2336743593216E+01 -0.5211797356606E+00 -0.3250108659267E+00
 0.3373792171478E+00 -0.2127020359039E+01 -0.3579282462597E+00  0.4677744954824E-01
 0.1631030797958E+01 -0.2117095470428E+01 -0.9721295535564E-01  0.4590176045895E+00
 0.3335704565048E+01 -0.2203587055206E+01  0.2264235019684E+00  0.4837929904461E+00
-0.1167796086520E-01 -0.3013977050781E+01 -0.6051309704781E+00 -0.5140868015587E-02
-0.1930027641356E-01 -0.3015898942947E+01 -0.6070398092270E+00 -0.1824135333300E-01
-0.3589333966374E-01 -0.3019777536392E+01 -0.6111341714859E+00 -0.4019125550985E-01
-0.6419023871422E-01 -0.3025332212448E+01 -0.6179044842720E+00 -0.7815600186586E-01
-0.1087747365236E+00 -0.3030452966690E+01 -0.6278455257416E+00 -0.1401487439871E+00
-0.1749841570854E+00 -0.3028321743011E+01 -0.6406611800194E+00 -0.2317547649145E+00
-0.2642359435558E+00 -0.3004022836685E+01 -0.6536517739296E+00 -0.3488352894783E+00
-0.3602897524834E+00 -0.2935193061829E+01 -0.6590965986252E+00 -0.4682910442352E+00
-0.4256250858307E+00 -0.2793476819992E+01 -0.6438204050064E+00 -0.5428488254547E+00
-0.3771483004093E+00 -0.2540015697479E+01 -0.5834327936172E+00 -0.4614548683167E+00
 0.7464016228914E-01 -0.2237189292908E+01 -0.4325098395348E+00 -0.6889162957668E-01
 0.1385831117630E+01 -0.2115594148636E+01 -0.1459526121616E+00  0.4711161851883E+00
 0.3370460271835E+01 -0.2133118629456E+01  0.2474683225155E+00  0.5209121704102E+00
-0.7938945665956E-02 -0.3009320974350E+01 -0.6034520268440E+00 -0.4562514834106E-02
-0.1340236887336E-01 -0.3013354778290E+01 -0.6053514480591E+00 -0.1635438017547E-01
-0.2535886131227E-01 -0.3022484540939E+01 -0.6095686554909E+00 -0.3654615581036E-01
-0.4585836082697E-01 -0.3038747310638E+01 -0.6169211268425E+00 -0.7213247567415E-01
-0.7906828820705E-01 -0.3063917636871E+01 -0.6285971403122E+00 -0.1319694221020E+00
-0.1319478899240E+00 -0.3095715284348E+01 -0.6455326080322E+00 -0.2240565717220E+00
-0.2106324285269E+00 -0.3122404336929E+01 -0.6666073203087E+00 -0.3492987155914E+00
-0.3101835250854E+00 -0.3118508577347E+01 -0.6857383847237E+00 -0.4900605678558E+00
-0.3998478651047E+00 -0.3049224138260E+01 -0.6898143887520E+00 -0.6081726551056E+00
-0.4539325237274E+00 -0.2839881181717E+01 -0.6587626934052E+00 -0.6162587404251E+00
-0.2238076031208E+00 -0.2450242996216E+01 -0.5348101258278E+00 -0.2687838971615E+00
 0.1019297599792E+01 -0.2169031858444E+01 -0.2299468517303E+00  0.4143884480000E+00
 0.3420792818069E+01 -0.2082232713699E+01  0.2677119970322E+00  0.5343903899193E+00
-0.4749638959765E-02 -0.3002850055695E+01 -0.6015199422836E+00 -0.3670363454148E-02
-0.8241687901318E-02 -0.3008483409882E+01 -0.6033449769020E+00 -0.1330755092204E-01
-0.1596375741065E-01 -0.3021857976913E+01 -0.6075643301010E+00 -0.3033464029431E-01
-0.2923276275396E-01 -0.3047141551971E+01 -0.6152748465538E+00 -0.6088591739535E-01
-0.5107772350311E-01 -0.3090757608414E+01 -0.6283670663834E+00 -0.1138292998075E+00
-0.8936083316803E-01 -0.3156601667404E+01 -0.6491925120354E+00 -0.1994908452034E+00
-0.1530205160379E+00 -0.3239907026291E+01 -0.6785854697227E+00 -0.3239114880562E+00
-0.2476983368397E+00 -0.3316469669342E+01 -0.7128335833549E+00 -0.4806314110756E+00
-0.3508571386337E+00 -0.3346042871475E+01 -0.7393800020218E+00 -0.6362699270248E+00
-0.4591940641403E+00 -0.3249945640564E+01 -0.7418279051781E+00 -0.7546215653419E+00
-0.5225976109505E+00 -0.2843114137650E+01 -0.6731423139572E+00 -0.5709266662598E+00
 0.4994545578957E+00 -0.2335711479187E+01 -0.3672513663769E+00  0.2324184477329E+00
 0.3412683725357E+01 -0.2090795993805E+01  0.2643775343895E+00  0.4978149831295E+00
-0.2306472044438E-02 -0.2994398832321E+01 -0.5993410944939E+00 -0.2553473459557E-02
-0.4225343465805E-02 -0.3000938653946E+01 -0.6010327935219E+00 -0.9492842480540E-02
-0.8273398503661E-02 -0.3016940116882E+01 -0.6050426959991E+00 -0.2212748117745E-01
-0.1573872379959E-01 -0.3048799991608E+01 -0.6129077672958E+00 -0.4560198634863E-01
-0.2712921798229E-01 -0.3106635332108E+01 -0.6267529129982E+00 -0.8665569871664E-01
-0.5076102167368E-01 -0.3204355478287E+01 -0.6510233283043E+00 -0.1582811325788E+00
-0.9646694362164E-01 -0.3345340967178E+01 -0.6883615851402E+00 -0.2696033716202E+00
-0.1738505214453E+00 -0.3519157648087E+01 -0.7386016249657E+00 -0.4304349422455E+00
-0.2837655544281E+00 -0.3672229528427E+01 -0.7911990284920E+00 -0.6174314022064E+00
-0.3851897120476E+00 -0.3756429195404E+01 -0.8283237814903E+00 -0.8199062347412E+00
-0.6866117119789E+00 -0.3509544610977E+01 -0.8392312526703E+00 -0.9438158869743E+00
-0.2846091985703E+00 -0.2780104875565E+01 -0.6129428148270E+00 -0.1973133236170E+00
 0.3371781587601E+01 -0.2215800523758E+01  0.2311961799860E+00  0.3571331202984E+00
-0.7743855239823E-03 -0.2983973503113E+01 -0.5969495773315E+00 -0.1400067121722E-02
-0.1420270884410E-02 -0.2990472793579E+01 -0.5983786582947E+00 -0.5326705519110E-02
-0.3199904458597E-02 -0.3007214784622E+01 -0.6020829677582E+00 -0.1297661568969E-01
-0.5579541902989E-02 -0.3041957378387E+01 -0.6095073819160E+00 -0.2746490016580E-01
-0.1115788891912E-01 -0.3108729362488E+01 -0.6239774227142E+00 -0.5373437702656E-01
-0.1799223013222E-01 -0.3229135513306E+01 -0.6494255661964E+00 -0.1004423126578E+00
-0.5076279491186E-01 -0.3429286241531E+01 -0.6960098147392E+00 -0.1882258057594E+00
-0.9150331467390E-01 -0.3704186677933E+01 -0.7591380476952E+00 -0.3255257606506E+00
-0.1993339955807E+00 -0.4025201797485E+01 -0.8449071049690E+00 -0.5456398725510E+00
-0.2718800008297E+00 -0.4305015563965E+01 -0.9153790473938E+00 -0.7732237577438E+00
-0.5538849234581E+00 -0.4483401298523E+01 -0.1007457256317E+01 -0.1212256193161E+01
-0.1187777280807E+01 -0.3870905160904E+01 -0.1011736512184E+01 -0.1051138639450E+01
 0.2768520355225E+01 -0.2768818140030E+01 -0.5956587119726E-04 -0.1257549524307E+00
-0.5215032797423E-04 -0.2971735954285E+01 -0.5943576097488E+00 -0.3533384006005E-03
-0.2507776080165E-03 -0.2977197647095E+01 -0.5954896807671E+00 -0.1467610010877E-02
-0.2273190330015E-03 -0.2992219686508E+01 -0.5984894037247E+00 -0.3867268795148E-02
-0.1304162433371E-02 -0.3025988101959E+01 -0.6054584383965E+00 -0.8726215921342E-02
-0.5718388129026E-03 -0.3094129323959E+01 -0.6189402341843E+00 -0.1775224506855E-01
-0.5466737784445E-02 -0.3224555492401E+01 -0.6460044384003E+00 -0.3364663571119E-01
-0.5069687496871E-02 -0.3469922065735E+01 -0.6949983239174E+00 -0.7337796688080E-01
-0.4775356501341E-01 -0.3864277124405E+01 -0.7824060916901E+00 -0.1753164678812E+00
-0.3575839474797E-01 -0.4356856346130E+01 -0.8785229325294E+00 -0.3700044155121E+00
-0.2486412823200E+00 -0.4916570186615E+01 -0.1033042311668E+01 -0.6744080185890E+00
-0.4418091848493E-01 -0.5516207218170E+01 -0.1112077593803E+01 -0.1084983110428E+01
-0.1650551080704E+01 -0.6105207920074E+01 -0.1551151752472E+01 -0.2034837007523E+01
 0.1110697627068E+01 -0.5344396591187E+01 -0.8467398285866E+00 -0.2335752725601E+01
-0.1247743368149E+01 -0.2366570472717E+01 -0.1698727488518E+01 -0.8490848541260E+00
-0.7886562347412E+00 -0.2466874599457E+01 -0.1530099391937E+01 -0.6209715008736E+00
-0.3977455496788E+00 -0.2518481492996E+01 -0.1370626688004E+01 -0.5125148296356E+00
-0.1120076254010E+00 -0.2489538431168E+01 -0.1222726583481E+01 -0.4683804512024E+00
 0.6546001136303E-01 -0.2434346199036E+01 -0.1113376498222E+01 -0.4697089791298E+00
 0.1222626566887E+00 -0.2378903627396E+01 -0.1060621261597E+01 -0.5199109315872E+00
-0.1392956137657E+01 -0.2474718570709E+01 -0.1817807197571E+01 -0.7327005267143E+00
-0.8376099467278E+00 -0.2621622800827E+01 -0.1625839352608E+01 -0.5226737260818E+00
-0.3993458449841E+00 -0.2706875801086E+01 -0.1459924221039E+01 -0.4423014223576E+00
-0.8497533202171E-01 -0.2739089488983E+01 -0.1327310442924E+01 -0.4275403320789E+00
 0.1091255545616E+00 -0.2747942686081E+01 -0.1240244150162E+01 -0.4562358558178E+00
 0.2090868353844E+00 -0.2759616851807E+01 -0.1198749065399E+01 -0.5368902087212E+00
-0.1521883010864E+01 -0.2574705600739E+01 -0.1925396561623E+01 -0.5942605137825E+00
-0.8719818592072E+00 -0.2760897636414E+01 -0.1707453370094E+01 -0.4162563085556E+00
-0.3899863958359E+00 -0.2883941650391E+01 -0.1538746118546E+01 -0.3583829700947E+00
-0.5255796015263E-01 -0.2965716123581E+01 -0.1418588757515E+01 -0.3618687391281E+00
 0.1724720001221E+00 -0.3034494161606E+01 -0.1345150470734E+01 -0.4076690673828E+00
 0.2936817407608E+00 -0.3126703739166E+01 -0.1331520318985E+01 -0.4949718415737E+00
-0.1625237584114E+01 -0.2656416893005E+01 -0.2012377738953E+01 -0.4383549690247E+00
-0.8945732116699E+00 -0.2876824378967E+01 -0.1772556900978E+01 -0.3024640977383E+00
-0.3781533241272E+00 -0.3031059265137E+01 -0.1602329850197E+01 -0.2639123797417E+00
-0.1516106165946E-01 -0.3153135776520E+01 -0.1489099502563E+01 -0.2759835720062E+00
 0.2291816771030E+00 -0.3278701543808E+01 -0.1433274269104E+01 -0.3213050663471E+00
 0.3777432739735E+00 -0.3430989027023E+01 -0.1435025453568E+01 -0.3976657092571E+00
-0.1696660518646E+01 -0.2713912487030E+01 -0.2072969198227E+01 -0.2687320709229E+00
-0.9091920256615E+00 -0.2959996461868E+01 -0.1818518638611E+01 -0.1834730207920E+00
-0.3655076622963E+00 -0.3135458230972E+01 -0.1645453929901E+01 -0.1617839336395E+00
 0.1303138490766E-01 -0.3289258003235E+01 -0.1539826512337E+01 -0.1727903485298E+00
 0.2759962081909E+00 -0.3452216386795E+01 -0.1492823481560E+01 -0.2055480182171E+00
 0.4371677637100E+00 -0.3652630090714E+01 -0.1511267304420E+01 -0.2568631172180E+00
-0.1733839154243E+01 -0.2744080066681E+01 -0.2104622125626E+01 -0.9049697965384E-01
-0.9154727458954E+00 -0.3002899408340E+01 -0.1841634988785E+01 -0.6152863800526E-01
-0.3588473200798E+00 -0.3190387248993E+01 -0.1668140292168E+01 -0.5444685369730E-01
 0.2975602075458E-01 -0.3359585285187E+01 -0.1565019726753E+01 -0.5894237384200E-01
 0.2998616397381E+00 -0.3544035196304E+01 -0.1524761557579E+01 -0.7054938375950E-01
 0.4712202250957E+00 -0.3766598224640E+01 -0.1548827648163E+01 -0.8889834582806E-01
-0.1733839154243E+01 -0.2744080066681E+01 -0.2104622125626E+01  0.9049700200558E-01
-0.9154727458954E+00 -0.3002899408340E+01 -0.1841634988785E+01  0.6152864545584E-01
-0.3588473200798E+00 -0.3190387248993E+01 -0.1668140292168E+01  0.5444685742259E-01
 0.2975602075458E-01 -0.3359585285187E+01 -0.1565019726753E+01  0.5894237384200E-01
 0.2998616397381E+00 -0.3544035196304E+01 -0.1524761557579E+01  0.7054938375950E-01
 0.4712202250957E+00 -0.3766598224640E+01 -0.1548827648163E+01  0.8889834582806E-01
-0.1696660518646E+01 -0.2713912487030E+01 -0.2072969198227E+01  0.2687321007252E+00
-0.9091920256615E+00 -0.2959996461868E+01 -0.1818518638611E+01  0.1834730356932E+00
-0.3655076622963E+00 -0.3135458230972E+01 -0.1645453929901E+01  0.1617839485407E+00
 0.1303138490766E-01 -0.3289258003235E+01 -0.1539826512337E+01  0.1727903485298E+00
 0.2759962081909E+00 -0.3452216386795E+01 -0.1492823481560E+01  0.2055480182171E+00
 0.4371677637100E+00 -0.3652630090714E+01 -0.1511267304420E+01  0.2568631172180E+00
-0.1625237584114E+01 -0.2656416893005E+01 -0.2012377738953E+01  0.4383549690247E+00
-0.8945732116699E+00 -0.2876824378967E+01 -0.1772556900978E+01  0.3024640977383E+00
-0.3781533241272E+00 -0.3031059265137E+01 -0.1602329850197E+01  0.2639123797417E+00
-0.1516106165946E-01 -0.3153135776520E+01 -0.1489099502563E+01  0.2759835720062E+00
 0.2291816771030E+00 -0.3278701543808E+01 -0.1433274269104E+01  0.3213050663471E+00
 0.3777432739735E+00 -0.3430989027023E+01 -0.1435025453568E+01  0.3976657092571E+00
-0.1521883010864E+01 -0.2574705600739E+01 -0.1925396561623E+01  0.5942605137825E+00
-0.8719818592072E+00 -0.2760897636414E+01 -0.1707453250885E+01  0.4162563085556E+00
-0.3899863958359E+00 -0.2883941650391E+01 -0.1538746118546E+01  0.3583829700947E+00
-0.5255796015263E-01 -0.2965716123581E+01 -0.1418588757515E+01  0.3618687391281E+00
 0.1724720001221E+00 -0.3034494161606E+01 -0.1345150470734E+01  0.4076690673828E+00
 0.2936817407608E+00 -0.3126703739166E+01 -0.1331520318985E+01  0.4949718415737E+00
-0.1392956137657E+01 -0.2474718570709E+01 -0.1817807078362E+01  0.7327005863190E+00
-0.8376099467278E+00 -0.2621622800827E+01 -0.1625839352608E+01  0.5226737260818E+00
-0.3993458449841E+00 -0.2706875801086E+01 -0.1459924221039E+01  0.4423014223576E+00
-0.8497533202171E-01 -0.2739089488983E+01 -0.1327310442924E+01  0.4275403320789E+00
 0.1091255545616E+00 -0.2747942686081E+01 -0.1240244150162E+01  0.4562358558178E+00
 0.2090868353844E+00 -0.2759616851807E+01 -0.1198749065399E+01  0.5368902087212E+00
-0.1247743368149E+01 -0.2366570472717E+01 -0.1698727488518E+01  0.8490848541260E+00
-0.7886562347412E+00 -0.2466874599457E+01 -0.1530099391937E+01  0.6209715008736E+00
-0.3977455496788E+00 -0.2518481492996E+01 -0.1370626688004E+01  0.5125148296356E+00
-0.1120076254010E+00 -0.2489538431168E+01 -0.1222726583481E+01  0.4683804512024E+00
 0.6546001136303E-01 -0.2434346199036E+01 -0.1113376498222E+01  0.4697089791298E+00
 0.1222626566887E+00 -0.2378903627396E+01 -0.1060621261597E+01  0.5199109315872E+00
-0.8932363986969E+00 -0.2947592973709E+01 -0.1805189847946E+01 -0.3700937628746E+00
 0.5000026226044E+00 -0.7830275595188E-01  0.1981989443302E+00  0.2887294888496E+00
-0.2273243665695E+00 -0.1520188152790E+00 -0.1782912909985E+00 -0.4409591481090E-01
 0.1123622953892E+00  0.5346225947142E-01  0.7793753594160E-01 -0.2181228250265E-01
-0.6291507184505E-01  0.5074385181069E-01 -0.5720473360270E-02  0.1557443477213E-01
 0.3159986808896E-01  0.8704151958227E-01  0.5576145276427E-01  0.2739141322672E-01
-0.2981421053410E+00 -0.2189430475235E+01 -0.1169159173965E+01 -0.9027462601662E+00
-0.3733974322677E-01 -0.1751134037971E+01 -0.8405827283859E+00 -0.2341030836105E+00
 0.2390835881233E+00 -0.5006417036057E+00 -0.1229323074222E+00  0.5926146358252E-01
-0.1271269768476E+00 -0.5063579082489E+00 -0.2977378964424E+00 -0.8050906658173E-01
 0.5319917201996E-01 -0.2529029548168E+00 -0.9386078268290E-01 -0.6375262886286E-01
-0.7243557274342E-01 -0.2546657919884E+00 -0.1537376493216E+00 -0.7913320511580E-01
-0.6004827618599E+00 -0.2138920307159E+01 -0.1287519454956E+01 -0.9870636463165E+00
-0.9556280821562E-01 -0.1773974061012E+01 -0.8786823153496E+00 -0.5885518193245E+00
 0.2892165258527E-01 -0.1419501662254E+01 -0.6535726189613E+00 -0.2167914509773E+00
 0.9357111901045E-01 -0.8366574048996E+00 -0.3492505550385E+00 -0.1067914143205E+00
-0.6606885790825E-01 -0.7570228576660E+00 -0.3868530988693E+00 -0.1742377728224E+00
-0.8078900165856E-02 -0.5916942954063E+00 -0.2818934023380E+00 -0.1993998736143E+00
-0.6758487224579E+00 -0.2060371637344E+01 -0.1286023497581E+01 -0.1029411792755E+01
-0.3656100630760E+00 -0.2001026630402E+01 -0.1112319231033E+01 -0.7049112915993E+00
-0.4133073985577E-01 -0.1706841468811E+01 -0.8216409087181E+00 -0.4286130070686E+00
 0.2248469740152E-01 -0.1457249641418E+01 -0.6743394732475E+00 -0.2686444222927E+00
 0.4418169334531E-01 -0.1138551831245E+01 -0.5143539309502E+00 -0.2518597245216E+00
-0.4515503346920E-01 -0.1058219432831E+01 -0.5185859799385E+00 -0.3319970071316E+00
-0.8899186253548E+00 -0.2151096582413E+01 -0.1429277062416E+01 -0.9972584843636E+00
-0.5105079412460E+00 -0.2107596635818E+01 -0.1230509161949E+01 -0.7358747720718E+00
-0.2148550003767E+00 -0.2045974016190E+01 -0.1062589645386E+01 -0.5314872264862E+00
-0.2732093911618E-02 -0.1831552147865E+01 -0.8621135950089E+00 -0.4023708403111E+00
 0.4325688630342E-01 -0.1651422500610E+01 -0.7558377981186E+00 -0.3665477931499E+00
 0.3720680251718E-01 -0.1488646507263E+01 -0.6821766495705E+00 -0.4210311174393E+00
-0.1063336372375E+01 -0.2238341808319E+01 -0.1551788687706E+01 -0.9401382207870E+00
-0.6874386072159E+00 -0.2302025318146E+01 -0.1405048012733E+01 -0.6970670223236E+00
-0.3272702991962E+00 -0.2282951354980E+01 -0.1226804137230E+01 -0.5557283163071E+00
-0.8614689111710E-01 -0.2206217765808E+01 -0.1077411413193E+01 -0.4732063114643E+00
 0.4667481780052E-01 -0.2061656475067E+01 -0.9470413923264E+00 -0.4461480975151E+00
 0.9230779856443E-01 -0.1949528336525E+01 -0.8728936314583E+00 -0.4854133129120E+00
-0.1063336372375E+01 -0.2238341808319E+01 -0.1551788687706E+01  0.9401382207870E+00
-0.6874386072159E+00 -0.2302025318146E+01 -0.1405048012733E+01  0.6970670223236E+00
-0.3272702991962E+00 -0.2282951354980E+01 -0.1226804137230E+01  0.5557283163071E+00
-0.8614689111710E-01 -0.2206217765808E+01 -0.1077411413193E+01  0.4732063114643E+00
 0.4667481780052E-01 -0.2061656475067E+01 -0.9470413923264E+00  0.4461480975151E+00
 0.9230779856443E-01 -0.1949528336525E+01 -0.8728936314583E+00  0.4854133129120E+00
-0.8899186253548E+00 -0.2151096582413E+01 -0.1429277062416E+01  0.9972584843636E+00
-0.5105079412460E+00 -0.2107596635818E+01 -0.1230509161949E+01  0.7358747720718E+00
-0.2148550003767E+00 -0.2045974016190E+01 -0.1062589645386E+01  0.5314872264862E+00
-0.2732093911618E-02 -0.1831552147865E+01 -0.8621135950089E+00  0.4023708403111E+00
 0.4325688630342E-01 -0.1651422500610E+01 -0.7558377981186E+00  0.3665477931499E+00
 0.3720680251718E-01 -0.1488646507263E+01 -0.6821766495705E+00  0.4210311174393E+00
-0.6758487224579E+00 -0.2060371637344E+01 -0.1286023497581E+01  0.1029411792755E+01
-0.3656100630760E+00 -0.2001026630402E+01 -0.1112319231033E+01  0.7049112915993E+00
-0.4133073985577E-01 -0.1706841468811E+01 -0.8216409087181E+00  0.4286130070686E+00
 0.2248469740152E-01 -0.1457249641418E+01 -0.6743394732475E+00  0.2686444222927E+00
 0.4418169334531E-01 -0.1138551831245E+01 -0.5143539309502E+00  0.2518597245216E+00
-0.4515503346920E-01 -0.1058219432831E+01 -0.5185859799385E+00  0.3319970071316E+00
-0.6004827618599E+00 -0.2138920307159E+01 -0.1287519454956E+01  0.9870636463165E+00
-0.9556280821562E-01 -0.1773974061012E+01 -0.8786823153496E+00  0.5885518193245E+00
 0.2892165444791E-01 -0.1419501662254E+01 -0.6535726189613E+00  0.2167914360762E+00
 0.9357111901045E-01 -0.8366574048996E+00 -0.3492505550385E+00  0.1067914143205E+00
-0.6606885790825E-01 -0.7570228576660E+00 -0.3868530988693E+00  0.1742377728224E+00
-0.8078901097178E-02 -0.5916942954063E+00 -0.2818934023380E+00  0.1993998736143E+00
-0.2981421053410E+00 -0.2189430713654E+01 -0.1169159173965E+01  0.9027462601662E+00
-0.3733973950148E-01 -0.1751134037971E+01 -0.8405826687813E+00  0.2341030836105E+00
 0.2390835881233E+00 -0.5006417036057E+00 -0.1229323074222E+00 -0.5926146358252E-01
-0.1271269768476E+00 -0.5063579082489E+00 -0.2977378964424E+00  0.8050906658173E-01
 0.5319917201996E-01 -0.2529029548168E+00 -0.9386078268290E-01  0.6375262886286E-01
-0.7243557274342E-01 -0.2546657919884E+00 -0.1537376493216E+00  0.7913320511580E-01
-0.8932363986969E+00 -0.2947592973709E+01 -0.1805189847946E+01  0.3700937628746E+00
 0.5000026226044E+00 -0.7830274850130E-01  0.1981989443302E+00 -0.2887294888496E+00
-0.2273243665695E+00 -0.1520188152790E+00 -0.1782912909985E+00  0.4409591481090E-01
 0.1123622953892E+00  0.5346225947142E-01  0.7793754339218E-01  0.2181228250265E-01
-0.6291507184505E-01  0.5074385181069E-01 -0.5720473360270E-02 -0.1557443477213E-01
 0.3159986808896E-01  0.8704151958227E-01  0.5576145276427E-01 -0.2739141322672E-01
 0.1122486889362E+00 -0.2133966684341E+01 -0.9502074122429E+00 -0.5664673447609E+00
 0.1443372666836E-01 -0.1678915977478E+01 -0.7823066711426E+00 -0.5498716235161E+00
-0.3370611369610E-01 -0.1180926918983E+01 -0.5708774924278E+00 -0.4710611701012E+00
-0.1156416088343E+00 -0.7162985801697E+00 -0.3910118937492E+00 -0.3221485316753E+00
-0.5122972279787E-01 -0.3047370016575E+00 -0.1673043668270E+00 -0.1517437845469E+00
 0.1668736524880E-01  0.1911650598049E-01  0.1682781986892E-01  0.3359138593078E-01
 0.1804886907339E+00 -0.2613755702972E+01 -0.1143635511398E+01 -0.6323453783989E+00
 0.8214320987463E-01 -0.2208332777023E+01 -0.9993090629578E+00 -0.6965367794037E+00
-0.7587178051472E-01 -0.1701592445374E+01 -0.8354082107544E+00 -0.6983024477959E+00
-0.1691288352013E+00 -0.1079636573792E+01 -0.5869197845459E+00 -0.5930709838867E+00
-0.1837106645107E+00 -0.4882155060768E+00 -0.3158052861691E+00 -0.3347665667534E+00
-0.1117287296802E-01 -0.7558725774288E-01 -0.4077726230025E-01 -0.2502370066941E-01
 0.2892746031284E+00 -0.3091483831406E+01 -0.1317038416862E+01 -0.6265605688095E+00
 0.1602529585361E+00 -0.2859359502792E+01 -0.1268580079079E+01 -0.7788487672806E+00
-0.2811262756586E-01 -0.2459608793259E+01 -0.1169229149818E+01 -0.8992555737495E+00
-0.2712204158306E+00 -0.1888351321220E+01 -0.1014998674393E+01 -0.9194504022598E+00
-0.4035110175610E+00 -0.1066547513008E+01 -0.6909275054932E+00 -0.7330229282379E+00
-0.1652236133814E+00 -0.1750456988811E+00 -0.1599265784025E+00 -0.2192725241184E+00
 0.3907955586910E+00 -0.3536570310593E+01 -0.1478514075279E+01 -0.5338600873947E+00
 0.2823994755745E+00 -0.3524265050888E+01 -0.1523676753044E+01 -0.7318390011787E+00
 0.3178140148520E-01 -0.3419291734695E+01 -0.1592129826546E+01 -0.9437750577927E+00
-0.3234414458275E+00 -0.3124721288681E+01 -0.1620636463165E+01 -0.1108381032944E+01
-0.7615826129913E+00 -0.2586197137833E+01 -0.1573456525803E+01 -0.1102207064629E+01
-0.9116750955582E+00 -0.1569062352180E+01 -0.1165946602821E+01 -0.5712453126907E+00
 0.4837968647480E+00 -0.3870450258255E+01 -0.1591727137566E+01 -0.3605908751488E+00
 0.3826200366020E+00 -0.4090856552124E+01 -0.1742871165276E+01 -0.5278725624084E+00
 0.1158624887466E+00 -0.4313369274139E+01 -0.1972828030586E+01 -0.7333160042763E+00
-0.4186165332794E+00 -0.4506129741669E+01 -0.2314630746841E+01 -0.9321411848068E+00
-0.1279602050781E+01 -0.4562374591827E+01 -0.2745728969574E+01 -0.9800317883492E+00
-0.2822269916534E+01 -0.4381731987000E+01 -0.3385880947113E+01 -0.5371383428574E+00
 0.5332878828049E+00 -0.4053694248199E+01 -0.1654590964317E+01 -0.1270240992308E+00
 0.4500819742680E+00 -0.4414032936096E+01 -0.1863057017326E+01 -0.1936579048634E+00
 0.1623443067074E+00 -0.4873930931091E+01 -0.2214445590973E+01 -0.2771131992340E+00
-0.4768210649490E+00 -0.5425621509552E+01 -0.2774147987366E+01 -0.3679682910442E+00
-0.1836633324623E+01 -0.6006737709045E+01 -0.3686384439468E+01 -0.3762810826302E+00
-0.4547471523285E+01 -0.6384631633759E+01 -0.5138088703156E+01 -0.1420027762651E+00
 0.5332878828049E+00 -0.4053694248199E+01 -0.1654590964317E+01  0.1270240992308E+00
 0.4500819742680E+00 -0.4414032936096E+01 -0.1863057017326E+01  0.1936579048634E+00
 0.1623443067074E+00 -0.4873930931091E+01 -0.2214445590973E+01  0.2771131992340E+00
-0.4768210649490E+00 -0.5425621509552E+01 -0.2774147987366E+01  0.3679682910442E+00
-0.1836633324623E+01 -0.6006737709045E+01 -0.3686384439468E+01  0.3762810826302E+00
-0.4547471523285E+01 -0.6384631633759E+01 -0.5138088703156E+01  0.1420027762651E+00
 0.4837968647480E+00 -0.3870450258255E+01 -0.1591727137566E+01  0.3605908751488E+00
 0.3826200366020E+00 -0.4090856552124E+01 -0.1742871165276E+01  0.5278725624084E+00
 0.1158624887466E+00 -0.4313369274139E+01 -0.1972828030586E+01  0.7333160042763E+00
-0.4186165332794E+00 -0.4506129741669E+01 -0.2314630746841E+01  0.9321411848068E+00
-0.1279602050781E+01 -0.4562374591827E+01 -0.2745728969574E+01  0.9800317883492E+00
-0.2822269916534E+01 -0.4381731987000E+01 -0.3385880947113E+01  0.5371383428574E+00
 0.3907955586910E+00 -0.3536570310593E+01 -0.1478514075279E+01  0.5338600873947E+00
 0.2823994755745E+00 -0.3524265050888E+01 -0.1523676753044E+01  0.7318390011787E+00
 0.3178140148520E-01 -0.3419291734695E+01 -0.1592129826546E+01  0.9437750577927E+00
-0.3234414458275E+00 -0.3124721288681E+01 -0.1620636463165E+01  0.1108381032944E+01
-0.7615826129913E+00 -0.2586197137833E+01 -0.1573456525803E+01  0.1102207064629E+01
-0.9116750955582E+00 -0.1569062352180E+01 -0.1165946602821E+01  0.5712453126907E+00
 0.2892746031284E+00 -0.3091483831406E+01 -0.1317038416862E+01  0.6265605688095E+00
 0.1602529585361E+00 -0.2859359502792E+01 -0.1268580079079E+01  0.7788487672806E+00
-0.2811262756586E-01 -0.2459608793259E+01 -0.1169229149818E+01  0.8992555737495E+00
-0.2712204158306E+00 -0.1888351321220E+01 -0.1014998674393E+01  0.9194504022598E+00
-0.4035110175610E+00 -0.1066547513008E+01 -0.6909275054932E+00  0.7330229282379E+00
-0.1652236133814E+00 -0.1750456988811E+00 -0.1599265784025E+00  0.2192725241184E+00
 0.1804886907339E+00 -0.2613755702972E+01 -0.1143635511398E+01  0.6323453783989E+00
 0.8214320987463E-01 -0.2208332777023E+01 -0.9993090629578E+00  0.6965367794037E+00
-0.7587178051472E-01 -0.1701592445374E+01 -0.8354082107544E+00  0.6983024477959E+00
-0.1691288352013E+00 -0.1079636573792E+01 -0.5869197845459E+00  0.5930709838867E+00
-0.1837106645107E+00 -0.4882155060768E+00 -0.3158052861691E+00  0.3347665667534E+00
-0.1117287296802E-01 -0.7558725774288E-01 -0.4077726230025E-01  0.2502370066941E-01
 0.1122486889362E+00 -0.2133966684341E+01 -0.9502074122429E+00  0.5664673447609E+00
 0.1443372666836E-01 -0.1678915977478E+01 -0.7823066711426E+00  0.5498716235161E+00
-0.3370611369610E-01 -0.1180926918983E+01 -0.5708774924278E+00  0.4710611701012E+00
-0.1156416088343E+00 -0.7162985801697E+00 -0.3910118937492E+00  0.3221485316753E+00
-0.5122972279787E-01 -0.3047370016575E+00 -0.1673043668270E+00  0.1517437845469E+00
 0.1668736524880E-01  0.1911650598049E-01  0.1682781986892E-01 -0.3359138593078E-01
</DataArray>
<DataArray type="Float32" Name="S_Mises" NumberOfComponents="1" ComponentName0="S_Mises" format="ascii">
 0.2723603487015E+01
 0.2728467226028E+01
 0.2742259263992E+01
 0.2772465944290E+01
 0.2835571289062E+01
 0.2951994180679E+01
 0.3179128170013E+01
 0.3520504951477E+01
 0.4018853187561E+01
 0.4484171867371E+01
 0.5363905429840E+01
 0.5719993114471E+01
 0.7016521930695E+01
 0.2734300374985E+01
 0.2739806652069E+01
 0.2753945827484E+01
 0.2784390449524E+01
 0.2842693567276E+01
 0.2951744079590E+01
 0.3123630762100E+01
 0.3376857519150E+01
 0.3671146869659E+01
 0.3984793186188E+01
 0.4274716854095E+01
 0.3319214105606E+01
 0.4800419807434E+01
 0.2742754936218E+01
 0.2747413158417E+01
 0.2759383678436E+01
 0.2784072637558E+01
 0.2831764221191E+01
 0.2913356781006E+01
 0.3033246994019E+01
 0.3190075397491E+01
 0.3341170549393E+01
 0.3476269721985E+01
 0.3199026823044E+01
 0.2373340368271E+01
 0.4890675067902E+01
 0.2748745918274E+01
 0.2751486063004E+01
 0.2758597850800E+01
 0.2773755311966E+01
 0.2803036451340E+01
 0.2850198030472E+01
 0.2915044307709E+01
 0.2983175039291E+01
 0.3028680801392E+01
 0.2964418411255E+01
 0.2456825256348E+01
 0.2548361301422E+01
 0.4859726428986E+01
 0.2752386331558E+01
 0.2752290248871E+01
 0.2752656936646E+01
 0.2754991531372E+01
 0.2761031389236E+01
 0.2770585536957E+01
 0.2779327630997E+01
 0.2773720979691E+01
 0.2728491783142E+01
 0.2526918411255E+01
 0.2139636516571E+01
 0.2873709678650E+01
 0.4871390342712E+01
 0.2753968477249E+01
 0.2750421762466E+01
 0.2742783308029E+01
 0.2730139255524E+01
 0.2710720300674E+01
 0.2681564331055E+01
 0.2637464284897E+01
 0.2570584297180E+01
 0.2453921794891E+01
 0.2216574907303E+01
 0.2107973098755E+01
 0.3147819280624E+01
 0.4865066528320E+01
 0.2753927946091E+01
 0.2746644496918E+01
 0.2730421781540E+01
 0.2702051401138E+01
 0.2657012701035E+01
 0.2590496778488E+01
 0.2499406099319E+01
 0.2382187604904E+01
 0.2224327564240E+01
 0.2033285856247E+01
 0.2202218770981E+01
 0.3345099925995E+01
 0.4881632328033E+01
 0.2752782344818E+01
 0.2741791486740E+01
 0.2717104434967E+01
 0.2673539638519E+01
 0.2604354858398E+01
 0.2503943920135E+01
 0.2372364759445E+01
 0.2216783523560E+01
 0.2047335624695E+01
 0.1947900295258E+01
 0.2324182033539E+01
 0.3490326642990E+01
 0.4895647525787E+01
 0.2751067161560E+01
 0.2736689567566E+01
 0.2704318761826E+01
 0.2647130966187E+01
 0.2556688785553E+01
 0.2427148580551E+01
 0.2262123107910E+01
 0.2079740762711E+01
 0.1920369029045E+01
 0.1922006964684E+01
 0.2436433553696E+01
 0.3593268156052E+01
 0.4914175987244E+01
 0.2749280691147E+01
 0.2732103586197E+01
 0.2693412303925E+01
 0.2625118732452E+01
 0.2517557621002E+01
 0.2364915370941E+01
 0.2174218654633E+01
 0.1975188255310E+01
 0.1836521029472E+01
 0.1925371408463E+01
 0.2524290323257E+01
 0.3664213180542E+01
 0.4932072162628E+01
 0.2747838735580E+01
 0.2728666782379E+01
 0.2685487270355E+01
 0.2609353065491E+01
 0.2489801168442E+01
 0.2321114063263E+01
 0.2113064289093E+01
 0.1905078530312E+01
 0.1786993384361E+01
 0.1937381267548E+01
 0.2583358287811E+01
 0.3709084987640E+01
 0.4945604324341E+01
 0.2747040271759E+01
 0.2726831197739E+01
 0.2681322813034E+01
 0.2601135015488E+01
 0.2475409269333E+01
 0.2298495054245E+01
 0.2081711769104E+01
 0.1869994044304E+01
 0.1764330387115E+01
 0.1946031570435E+01
 0.2612911462784E+01
 0.3730759859085E+01
 0.4953169822693E+01
 0.2747040271759E+01
 0.2726831197739E+01
 0.2681322813034E+01
 0.2601135015488E+01
 0.2475409269333E+01
 0.2298495054245E+01
 0.2081711769104E+01
 0.1869994044304E+01
 0.1764330387115E+01
 0.1946031570435E+01
 0.2612911462784E+01
 0.3730759859085E+01
 0.4953169822693E+01
 0.2747838735580E+01
 0.2728666782379E+01
 0.2685487270355E+01
 0.2609353065491E+01
 0.2489801168442E+01
 0.2321114063263E+01
 0.2113064289093E+01
 0.1905078530312E+01
 0.1786993384361E+01
 0.1937381267548E+01
 0.2583358287811E+01
 0.3709084987640E+01
 0.4945604324341E+01
 0.2749280691147E+01
 0.2732103586197E+01
 0.2693412303925E+01
 0.2625118732452E+01
 0.2517557621002E+01
 0.2364915370941E+01
 0.2174218654633E+01
 0.1975188255310E+01
 0.1836521029472E+01
 0.1925371408463E+01
 0.2524290323257E+01
 0.3664213180542E+01
 0.4932072162628E+01
 0.2751067161560E+01
 0.2736689567566E+01
 0.2704318761826E+01
 0.2647130966187E+01
 0.2556688785553E+01
 0.2427148580551E+01
 0.2262123107910E+01
 0.2079740762711E+01
 0.1920369029045E+01
 0.1922006964684E+01
 0.2436433553696E+01
 0.3593268156052E+01
 0.4914175987244E+01
 0.2752782344818E+01
 0.2741791486740E+01
 0.2717104434967E+01
 0.2673539638519E+01
 0.2604354858398E+01
 0.2503943920135E+01
 0.2372364759445E+01
 0.2216783523560E+01
 0.2047335624695E+01
 0.1947900295258E+01
 0.2324182033539E+01
 0.3490326642990E+01
 0.4895647525787E+01
 0.2753927946091E+01
 0.2746644496918E+01
 0.2730421781540E+01
 0.2702051401138E+01
 0.2657012701035E+01
 0.2590496778488E+01
 0.2499406099319E+01
 0.2382187843323E+01
 0.2224327564240E+01
 0.2033285856247E+01
 0.2202218532562E+01
 0.3345099687576E+01
 0.4881632328033E+01
 0.2753968477249E+01
 0.2750421762466E+01
 0.2742783308029E+01
 0.2730139255524E+01
 0.2710720300674E+01
 0.2681564331055E+01
 0.2637464523315E+01
 0.2570584297180E+01
 0.2453921794891E+01
 0.2216574907303E+01
 0.2107973098755E+01
 0.3147819280624E+01
 0.4865066528320E+01
 0.2752386331558E+01
 0.2752290248871E+01
 0.2752656936646E+01
 0.2754991531372E+01
 0.2761031389236E+01
 0.2770585536957E+01
 0.2779327630997E+01
 0.2773720979691E+01
 0.2728491783142E+01
 0.2526918411255E+01
 0.2139636516571E+01
 0.2873709678650E+01
 0.4871390342712E+01
 0.2748745918274E+01
 0.2751486063004E+01
 0.2758597850800E+01
 0.2773755311966E+01
 0.2803036451340E+01
 0.2850198030472E+01
 0.2915044307709E+01
 0.2983175039291E+01
 0.3028680801392E+01
 0.2964418411255E+01
 0.2456825256348E+01
 0.2548361301422E+01
 0.4859726428986E+01
 0.2742754936218E+01
 0.2747413158417E+01
 0.2759383678436E+01
 0.2784072637558E+01
 0.2831764221191E+01
 0.2913356781006E+01
 0.3033246994019E+01
 0.3190075397491E+01
 0.3341170549393E+01
 0.3476269721985E+01
 0.3199026823044E+01
 0.2373340368271E+01
 0.4890675067902E+01
 0.2734300374985E+01
 0.2739806652069E+01
 0.2753945827484E+01
 0.2784390449524E+01
 0.2842693567276E+01
 0.2951744079590E+01
 0.3123630762100E+01
 0.3376857519150E+01
 0.3671146869659E+01
 0.3984793186188E+01
 0.4274716854095E+01
 0.3319214105606E+01
 0.4800419807434E+01
 0.2723603487015E+01
 0.2728467226028E+01
 0.2742259263992E+01
 0.2772465944290E+01
 0.2835571289062E+01
 0.2951994180679E+01
 0.3179128170013E+01
 0.3520504951477E+01
 0.4018853187561E+01
 0.4484171867371E+01
 0.5363905429840E+01
 0.5719993114471E+01
 0.7016521930695E+01
 0.1764489412308E+01
 0.1810709238052E+01
 0.2041766166687E+01
 0.2214434623718E+01
 0.2313807249069E+01
 0.2346780776978E+01
 0.1581667184830E+01
 0.1793699860573E+01
 0.2142217636108E+01
 0.2416359186172E+01
 0.2598624706268E+01
 0.2735051870346E+01
 0.1380531430244E+01
 0.1791001915932E+01
 0.2249404668808E+01
 0.2601136922836E+01
 0.2866954565048E+01
 0.3084881305695E+01
 0.1179178714752E+01
 0.1798400521278E+01
 0.2344747781754E+01
 0.2760923385620E+01
 0.3089824199677E+01
 0.3370850801468E+01
 0.1005116820335E+01
 0.1807985067368E+01
 0.2417441368103E+01
 0.2877162694931E+01
 0.3249693155289E+01
 0.3571004867554E+01
 0.8989191055298E+00
 0.1814714312553E+01
 0.2456307172775E+01
 0.2938728809357E+01
 0.3332575559616E+01
 0.3674617052078E+01
 0.8989191055298E+00
 0.1814714312553E+01
 0.2456307172775E+01
 0.2938728809357E+01
 0.3332575559616E+01
 0.3674617052078E+01
 0.1005116939545E+01
 0.1807985067368E+01
 0.2417441368103E+01
 0.2877162694931E+01
 0.3249693155289E+01
 0.3571004867554E+01
 0.1179178833961E+01
 0.1798400521278E+01
 0.2344747781754E+01
 0.2760923385620E+01
 0.3089824199677E+01
 0.3370850801468E+01
 0.1380531430244E+01
 0.1791001915932E+01
 0.2249404668808E+01
 0.2601136922836E+01
 0.2866954565048E+01
 0.3084881305695E+01
 0.1581667184830E+01
 0.1793699860573E+01
 0.2142217636108E+01
 0.2416359186172E+01
 0.2598624706268E+01
 0.2735051870346E+01
 0.1764489412308E+01
 0.1810709238052E+01
 0.2041766166687E+01
 0.2214434623718E+01
 0.2313807249069E+01
 0.2346780776978E+01
 0.1894589900970E+01
 0.7078714966774E+00
 0.1010744944215E+00
 0.6367091834545E-01
 0.1020616739988E+00
 0.6759341061115E-01
 0.2265645742416E+01
 0.1539516091347E+01
 0.6488392949104E+00
 0.3573071062565E+00
 0.2872333228588E+00
 0.2092567384243E+00
 0.2169039011002E+01
 0.1776266813278E+01
 0.1310031890869E+01
 0.8268639445305E+00
 0.6706334352493E+00
 0.6124213337898E+00
 0.2150228261948E+01
 0.1871277928352E+01
 0.1623059511185E+01
 0.1364027976990E+01
 0.1113787174225E+01
 0.1049517154694E+01
 0.2045684099197E+01
 0.1882477879524E+01
 0.1834879875183E+01
 0.1731234312057E+01
 0.1599797844887E+01
 0.1509923458099E+01
 0.1922724366188E+01
 0.1849572420120E+01
 0.1949653863907E+01
 0.2011846780777E+01
 0.1983581185341E+01
 0.1958775997162E+01
 0.1922724366188E+01
 0.1849572420120E+01
 0.1949653863907E+01
 0.2011846780777E+01
 0.1983581185341E+01
 0.1958775997162E+01
 0.2045684099197E+01
 0.1882477879524E+01
 0.1834879875183E+01
 0.1731234312057E+01
 0.1599797844887E+01
 0.1509923458099E+01
 0.2150228261948E+01
 0.1871277928352E+01
 0.1623059511185E+01
 0.1364027976990E+01
 0.1113787174225E+01
 0.1049517154694E+01
 0.2169039011002E+01
 0.1776266813278E+01
 0.1310031890869E+01
 0.8268639445305E+00
 0.6706334352493E+00
 0.6124213337898E+00
 0.2265645742416E+01
 0.1539516091347E+01
 0.6488392949104E+00
 0.3573071062565E+00
 0.2872333228588E+00
 0.2092567384243E+00
 0.1894589900970E+01
 0.7078714966774E+00
 0.1010744944215E+00
 0.6367091834545E-01
 0.1020616739988E+00
 0.6759341061115E-01
 0.2179552078247E+01
 0.1749326944351E+01
 0.1286122202873E+01
 0.7632519602776E+00
 0.3426252007484E+00
 0.5822991579771E-01
 0.2657209634781E+01
 0.2322556734085E+01
 0.1856865167618E+01
 0.1295519709587E+01
 0.6373026371002E+00
 0.7069116830826E-01
 0.3123611211777E+01
 0.2943623304367E+01
 0.2620244741440E+01
 0.2121720552444E+01
 0.1394139885902E+01
 0.3800235092640E+00
 0.3525915145874E+01
 0.3533304929733E+01
 0.3408062696457E+01
 0.3095416545868E+01
 0.2480238199234E+01
 0.1143949747086E+01
 0.3823611021042E+01
 0.3982125043869E+01
 0.4042608261108E+01
 0.3893496036530E+01
 0.3315802812576E+01
 0.1654147148132E+01
 0.3979932546616E+01
 0.4227453708649E+01
 0.4390148639679E+01
 0.4336533546448E+01
 0.3677289247513E+01
 0.1642991781235E+01
 0.3979932546616E+01
 0.4227453708649E+01
 0.4390148639679E+01
 0.4336533546448E+01
 0.3677289247513E+01
 0.1642991781235E+01
 0.3823611021042E+01
 0.3982125043869E+01
 0.4042608261108E+01
 0.3893496036530E+01
 0.3315802812576E+01
 0.1654147148132E+01
 0.3525915145874E+01
 0.3533304929733E+01
 0.3408062696457E+01
 0.3095416545868E+01
 0.2480238199234E+01
 0.1143949747086E+01
 0.3123611211777E+01
 0.2943623304367E+01
 0.2620244741440E+01
 0.2121720552444E+01
 0.1394139885902E+01
 0.3800235092640E+00
 0.2657209634781E+01
 0.2322556734085E+01
 0.1856865167618E+01
 0.1295519709587E+01
 0.6373026371002E+00
 0.7069116830826E-01
 0.2179552078247E+01
 0.1749326944351E+01
 0.1286122202873E+01
 0.7632519602776E+00
 0.3426252007484E+00
 0.5822991579771E-01
</DataArray>
<DataArray type="Float32" Name="S_Hyd" NumberOfComponents="1" ComponentName0="S_Hyd" format="ascii">
 0.1188715219498E+01
 0.1190979361534E+01
 0.1196978807449E+01
 0.1210916876793E+01
 0.1237880468369E+01
 0.1292008876801E+01
 0.1389996767044E+01
 0.1564812302589E+01
 0.1757045984268E+01
 0.2066084623337E+01
 0.2224155187607E+01
 0.3102303504944E+01
 0.1693479537964E+01
 0.1193899154663E+01
 0.1196757197380E+01
 0.1204165816307E+01
 0.1219014763832E+01
 0.1247954964638E+01
 0.1298851132393E+01
 0.1392019629478E+01
 0.1518275976181E+01
 0.1689814329147E+01
 0.1830758094788E+01
 0.2014914512634E+01
 0.2023473024368E+01
 0.1191128321807E-03
 0.1198682069778E+01
 0.1202065587044E+01
 0.1210085391998E+01
 0.1225815534592E+01
 0.1253505825996E+01
 0.1302046537399E+01
 0.1376723170280E+01
 0.1477203249931E+01
 0.1582398056984E+01
 0.1656647443771E+01
 0.1678462624550E+01
 0.1225885629654E+01
-0.4623924195766E+00
 0.1203039884567E+01
 0.1206690073013E+01
 0.1215128660202E+01
 0.1230549693108E+01
 0.1256734132767E+01
 0.1298385024071E+01
 0.1357171058655E+01
 0.1425667047501E+01
 0.1478760004044E+01
 0.1483655929565E+01
 0.1346284627914E+01
 0.7345027327538E+00
-0.5287550687790E+00
 0.1206903934479E+01
 0.1210702896118E+01
 0.1219137430191E+01
 0.1233842253685E+01
 0.1257194280624E+01
 0.1291065335274E+01
 0.1333214640617E+01
 0.1371476769447E+01
 0.1379628777504E+01
 0.1317525386810E+01
 0.1069620251656E+01
 0.4598937034607E+00
-0.5354240536690E+00
 0.1210262060165E+01
 0.1214079618454E+01
 0.1222268342972E+01
 0.1235808968544E+01
 0.1255691051483E+01
 0.1281322360039E+01
 0.1307303547859E+01
 0.1318193197250E+01
 0.1287640810013E+01
 0.1166865587234E+01
 0.8650196194649E+00
 0.2919051647186E+00
-0.4949366450310E+00
 0.1213105797768E+01
 0.1216851592064E+01
 0.1224618673325E+01
 0.1236741065979E+01
 0.1252897024155E+01
 0.1270516157150E+01
 0.1281522750854E+01
 0.1269062876701E+01
 0.1204822540283E+01
 0.1042359471321E+01
 0.7158564329147E+00
 0.1944258809090E+00
-0.4528470039368E+00
 0.1215441346169E+01
 0.1219059228897E+01
 0.1226318478584E+01
 0.1236935973167E+01
 0.1249495744705E+01
 0.1259725451469E+01
 0.1257799863815E+01
 0.1225566864014E+01
 0.1134565591812E+01
 0.9435613751411E+00
 0.6110226511955E+00
 0.1343819051981E+00
-0.4061664640903E+00
 0.1217281937599E+01
 0.1220753908157E+01
 0.1227494120598E+01
 0.1236699581146E+01
 0.1246031284332E+01
 0.1249932527542E+01
 0.1237261533737E+01
 0.1189130663872E+01
 0.1077638983727E+01
 0.8686221241951E+00
 0.5372169613838E+00
 0.9925232082605E-01
-0.3683554530144E+00
 0.1218643665314E+01
 0.1221978425980E+01
 0.1228262543678E+01
 0.1236280202866E+01
 0.1242993712425E+01
 0.1241901755333E+01
 0.1220975875854E+01
 0.1160874843597E+01
 0.1034924983978E+01
 0.8149162530899E+00
 0.4876954555511E+00
 0.7871218770742E-01
-0.3391932547092E+00
 0.1219541549683E+01
 0.1222771286964E+01
 0.1228718042374E+01
 0.1235882520676E+01
 0.1240755081177E+01
 0.1236224412918E+01
 0.1209695935249E+01
 0.1141640663147E+01
 0.1006530761719E+01
 0.7803972959518E+00
 0.4572949111462E+00
 0.6742650270462E-01
-0.3193608522415E+00
 0.1219987273216E+01
 0.1223160386086E+01
 0.1228928327560E+01
 0.1235647320747E+01
 0.1239571213722E+01
 0.1233288407326E+01
 0.1203929662704E+01
 0.1131913900375E+01
 0.9923747777939E+00
 0.7635445594788E+00
 0.4428241848946E+00
 0.6250285357237E-01
-0.3094876408577E+00
 0.1219987273216E+01
 0.1223160386086E+01
 0.1228928327560E+01
 0.1235647320747E+01
 0.1239571213722E+01
 0.1233288407326E+01
 0.1203929662704E+01
 0.1131913900375E+01
 0.9923747777939E+00
 0.7635445594788E+00
 0.4428241848946E+00
 0.6250285357237E-01
-0.3094876408577E+00
 0.1219541549683E+01
 0.1222771286964E+01
 0.1228718042374E+01
 0.1235882520676E+01
 0.1240754961967E+01
 0.1236224412918E+01
 0.1209695935249E+01
 0.1141640663147E+01
 0.1006530761719E+01
 0.7803972959518E+00
 0.4572949111462E+00
 0.6742650270462E-01
-0.3193608522415E+00
 0.1218643665314E+01
 0.1221978425980E+01
 0.1228262543678E+01
 0.1236280202866E+01
 0.1242993712425E+01
 0.1241901755333E+01
 0.1220975875854E+01
 0.1160874843597E+01
 0.1034924983978E+01
 0.8149163126945E+00
 0.4876954555511E+00
 0.7871218770742E-01
-0.3391932547092E+00
 0.1217281937599E+01
 0.1220753908157E+01
 0.1227494120598E+01
 0.1236699581146E+01
 0.1246031284332E+01
 0.1249932527542E+01
 0.1237261533737E+01
 0.1189130663872E+01
 0.1077639102936E+01
 0.8686221241951E+00
 0.5372169613838E+00
 0.9925232082605E-01
-0.3683554530144E+00
 0.1215441346169E+01
 0.1219059228897E+01
 0.1226318478584E+01
 0.1236935973167E+01
 0.1249495744705E+01
 0.1259725451469E+01
 0.1257799863815E+01
 0.1225566864014E+01
 0.1134565591812E+01
 0.9435613751411E+00
 0.6110226511955E+00
 0.1343819051981E+00
-0.4061664640903E+00
 0.1213105797768E+01
 0.1216851592064E+01
 0.1224618673325E+01
 0.1236741065979E+01
 0.1252897024155E+01
 0.1270516157150E+01
 0.1281522750854E+01
 0.1269062876701E+01
 0.1204822540283E+01
 0.1042359471321E+01
 0.7158564329147E+00
 0.1944258809090E+00
-0.4528470039368E+00
 0.1210262060165E+01
 0.1214079618454E+01
 0.1222268342972E+01
 0.1235808968544E+01
 0.1255691051483E+01
 0.1281322360039E+01
 0.1307303547859E+01
 0.1318193197250E+01
 0.1287640810013E+01
 0.1166865587234E+01
 0.8650196194649E+00
 0.2919052243233E+00
-0.4949366450310E+00
 0.1206903934479E+01
 0.1210702896118E+01
 0.1219137430191E+01
 0.1233842253685E+01
 0.1257194280624E+01
 0.1291065335274E+01
 0.1333214640617E+01
 0.1371476888657E+01
 0.1379628777504E+01
 0.1317525506020E+01
 0.1069620251656E+01
 0.4598937034607E+00
-0.5354240536690E+00
 0.1203039884567E+01
 0.1206690073013E+01
 0.1215128660202E+01
 0.1230549693108E+01
 0.1256734132767E+01
 0.1298385024071E+01
 0.1357171058655E+01
 0.1425667166710E+01
 0.1478760004044E+01
 0.1483655929565E+01
 0.1346284627914E+01
 0.7345027923584E+00
-0.5287550687790E+00
 0.1198682069778E+01
 0.1202065587044E+01
 0.1210085391998E+01
 0.1225815534592E+01
 0.1253505825996E+01
 0.1302046537399E+01
 0.1376723170280E+01
 0.1477203249931E+01
 0.1582398056984E+01
 0.1656647443771E+01
 0.1678462624550E+01
 0.1225885629654E+01
-0.4623924195766E+00
 0.1193899154663E+01
 0.1196757197380E+01
 0.1204165816307E+01
 0.1219014763832E+01
 0.1247954964638E+01
 0.1298851132393E+01
 0.1392019629478E+01
 0.1518275976181E+01
 0.1689814329147E+01
 0.1830758213997E+01
 0.2014914512634E+01
 0.2023473024368E+01
 0.1191168921650E-03
 0.1188715219498E+01
 0.1190979361534E+01
 0.1196978807449E+01
 0.1210916876793E+01
 0.1237880468369E+01
 0.1292008876801E+01
 0.1389996767044E+01
 0.1564812302589E+01
 0.1757045984268E+01
 0.2066084623337E+01
 0.2224155187607E+01
 0.3102303743362E+01
 0.1693479537964E+01
 0.1771013736725E+01
 0.1595210075378E+01
 0.1428951263428E+01
 0.1274757504463E+01
 0.1160754203796E+01
 0.1105754017830E+01
 0.1895160675049E+01
 0.1695024013519E+01
 0.1522048592567E+01
 0.1383791685104E+01
 0.1293020367622E+01
 0.1249759674072E+01
 0.2007328510284E+01
 0.1780110955238E+01
 0.1604224801064E+01
 0.1478954315186E+01
 0.1402390837669E+01
 0.1388180851936E+01
 0.2098010778427E+01
 0.1847984790802E+01
 0.1670514106750E+01
 0.1552465438843E+01
 0.1494264721870E+01
 0.1496090412140E+01
 0.2161180734634E+01
 0.1895902395248E+01
 0.1715473294258E+01
 0.1605350971222E+01
 0.1556347846985E+01
 0.1575576543808E+01
 0.2194180488586E+01
 0.1920002341270E+01
 0.1739125013351E+01
 0.1631616353989E+01
 0.1589645028114E+01
 0.1614735245705E+01
 0.2194180488586E+01
 0.1920002341270E+01
 0.1739125013351E+01
 0.1631616353989E+01
 0.1589645028114E+01
 0.1614735245705E+01
 0.2161180734634E+01
 0.1895902395248E+01
 0.1715473294258E+01
 0.1605350971222E+01
 0.1556347846985E+01
 0.1575576543808E+01
 0.2098010778427E+01
 0.1847984790802E+01
 0.1670514106750E+01
 0.1552465438843E+01
 0.1494264721870E+01
 0.1496090412140E+01
 0.2007328510284E+01
 0.1780110955238E+01
 0.1604224801064E+01
 0.1478954315186E+01
 0.1402390837669E+01
 0.1388180851936E+01
 0.1895160675049E+01
 0.1695024013519E+01
 0.1522048592567E+01
 0.1383791685104E+01
 0.1293020367622E+01
 0.1249759674072E+01
 0.1771013736725E+01
 0.1595210075378E+01
 0.1428951263428E+01
 0.1274757504463E+01
 0.1160754203796E+01
 0.1105754017830E+01
 0.1882006406784E+01
-0.2066329419613E+00
 0.1858781576157E+00
-0.8125403523445E-01
 0.5963897798210E-02
-0.5813428014517E-01
 0.1218910574913E+01
 0.8763521313667E+00
 0.1281634718180E+00
 0.3104076087475E+00
 0.9785485267639E-01
 0.1602796614170E+00
 0.1342307448387E+01
 0.9160730838776E+00
 0.6813842058182E+00
 0.3641122877598E+00
 0.4033149480820E+00
 0.2938888669014E+00
 0.1340747952461E+01
 0.1159651994705E+01
 0.8566043376923E+00
 0.7030348181725E+00
 0.5362413525581E+00
 0.5406534671783E+00
 0.1490097403526E+01
 0.1282871246338E+01
 0.1107806205750E+01
 0.8987992405891E+00
 0.7880011200905E+00
 0.7112054824829E+00
 0.1617822289467E+01
 0.1464837312698E+01
 0.1279008626938E+01
 0.1123258709908E+01
 0.9873410463333E+00
 0.9100380539894E+00
 0.1617822289467E+01
 0.1464837312698E+01
 0.1279008626938E+01
 0.1123258709908E+01
 0.9873410463333E+00
 0.9100380539894E+00
 0.1490097403526E+01
 0.1282871246338E+01
 0.1107806205750E+01
 0.8987992405891E+00
 0.7880011200905E+00
 0.7112054824829E+00
 0.1340747952461E+01
 0.1159651994705E+01
 0.8566043376923E+00
 0.7030348181725E+00
 0.5362413525581E+00
 0.5406534671783E+00
 0.1342307448387E+01
 0.9160730838776E+00
 0.6813842058182E+00
 0.3641122877598E+00
 0.4033149480820E+00
 0.2938888669014E+00
 0.1218910694122E+01
 0.8763521313667E+00
 0.1281634718180E+00
 0.3104076087475E+00
 0.9785485267639E-01
 0.1602796614170E+00
 0.1882006406784E+01
-0.2066329419613E+00
 0.1858781576157E+00
-0.8125403523445E-01
 0.5963897798210E-02
-0.5813428014517E-01
 0.9906418323517E+00
 0.8155962824821E+00
 0.5951701402664E+00
 0.4076506793499E+00
 0.1744236946106E+00
-0.1754389703274E-01
 0.1192300915718E+01
 0.1041832804680E+01
 0.8709574937820E+00
 0.6118950843811E+00
 0.3292438089848E+00
 0.4251246526837E-01
 0.1373082518578E+01
 0.1322562217712E+01
 0.1218983530998E+01
 0.1058190107346E+01
 0.7203286886215E+00
 0.1667319685221E+00
 0.1541429638863E+01
 0.1588514089584E+01
 0.1659880042076E+01
 0.1689599752426E+01
 0.1640412092209E+01
 0.1215561389923E+01
 0.1659460186958E+01
 0.1817035913467E+01
 0.2056778430939E+01
 0.2413125753403E+01
 0.2862568616867E+01
 0.3529960870743E+01
 0.1724999070168E+01
 0.1942335963249E+01
 0.2308677434921E+01
 0.2892196893692E+01
 0.3843251705170E+01
 0.5356730461121E+01
 0.1724999070168E+01
 0.1942335963249E+01
 0.2308677434921E+01
 0.2892196893692E+01
 0.3843251705170E+01
 0.5356730461121E+01
 0.1659460186958E+01
 0.1817035913467E+01
 0.2056778430939E+01
 0.2413125753403E+01
 0.2862568616867E+01
 0.3529960870743E+01
 0.1541429638863E+01
 0.1588514089584E+01
 0.1659880042076E+01
 0.1689599752426E+01
 0.1640412092209E+01
 0.1215561389923E+01
 0.1373082518578E+01
 0.1322562217712E+01
 0.1218983530998E+01
 0.1058190107346E+01
 0.7203286886215E+00
 0.1667319685221E+00
 0.1192300915718E+01
 0.1041832804680E+01
 0.8709574937820E+00
 0.6118950843811E+00
 0.3292438089848E+00
 0.4251246526837E-01
 0.9906418323517E+00
 0.8155962824821E+00
 0.5951701402664E+00
 0.4076506793499E+00
 0.1744236946106E+00
-0.1754389703274E-01
</DataArray>
<DataArray type="Float32" Name="S_Oct" NumberOfComponents="1" ComponentName0="S_Oct" format="ascii">
 0.1283918976784E+01
 0.1286211848259E+01
 0.1292713403702E+01
 0.1306953072548E+01
 0.1336701154709E+01
 0.1391583442688E+01
 0.1498655319214E+01
 0.1659582018852E+01
 0.1894505500793E+01
 0.2113858699799E+01
 0.2528569221497E+01
 0.2696430683136E+01
 0.3307620286942E+01
 0.1288961529732E+01
 0.1291557192802E+01
 0.1298222541809E+01
 0.1312574148178E+01
 0.1340058565140E+01
 0.1391465425491E+01
 0.1472493648529E+01
 0.1591865777969E+01
 0.1730595350266E+01
 0.1878449440002E+01
 0.2015120744705E+01
 0.1564692497253E+01
 0.2262939691544E+01
 0.1292947053909E+01
 0.1295143008232E+01
 0.1300785899162E+01
 0.1312424421310E+01
 0.1334906578064E+01
 0.1373369574547E+01
 0.1429886341095E+01
 0.1503815889359E+01
 0.1575042963028E+01
 0.1638729214668E+01
 0.1508035778999E+01
 0.1118803381920E+01
 0.2305486440659E+01
 0.1295771241188E+01
 0.1297062993050E+01
 0.1300415515900E+01
 0.1307560801506E+01
 0.1321364045143E+01
 0.1343596220016E+01
 0.1374165058136E+01
 0.1406282186508E+01
 0.1427733898163E+01
 0.1397440195084E+01
 0.1158158540726E+01
 0.1201309084892E+01
 0.2290897130966E+01
 0.1297487378120E+01
 0.1297442078590E+01
 0.1297614932060E+01
 0.1298715472221E+01
 0.1301562786102E+01
 0.1306066513062E+01
 0.1310187697411E+01
 0.1307544589043E+01
 0.1286223292351E+01
 0.1191200613976E+01
 0.1008634328842E+01
 0.1354679703712E+01
 0.2296395540237E+01
 0.1298233151436E+01
 0.1296561241150E+01
 0.1292960524559E+01
 0.1286999940872E+01
 0.1277845859528E+01
 0.1264101505280E+01
 0.1243312597275E+01
 0.1211785078049E+01
 0.1156789779663E+01
 0.1044903397560E+01
 0.9937080740929E+00
 0.1483896255493E+01
 0.2293414592743E+01
 0.1298214197159E+01
 0.1294780611992E+01
 0.1287133216858E+01
 0.1273759245872E+01
 0.1252527713776E+01
 0.1221171975136E+01
 0.1178231358528E+01
 0.1122974038124E+01
 0.1048557996750E+01
 0.9585001468658E+00
 0.1038135766983E+01
 0.1576895117760E+01
 0.2301223278046E+01
 0.1297674179077E+01
 0.1292492985725E+01
 0.1280855417252E+01
 0.1260318756104E+01
 0.1227704644203E+01
 0.1180370450020E+01
 0.1118343472481E+01
 0.1045001745224E+01
 0.9651232957840E+00
 0.9182490706444E+00
 0.1095629930496E+01
 0.1645355820656E+01
 0.2307830333710E+01
 0.1296865463257E+01
 0.1290087819099E+01
 0.1274828195572E+01
 0.1247869610786E+01
 0.1205234766006E+01
 0.1144168853760E+01
 0.1066375136375E+01
 0.9803991913795E+00
 0.9052705764771E+00
 0.9060428142548E+00
 0.1148545742035E+01
 0.1693882822990E+01
 0.2316564559937E+01
 0.1296023368835E+01
 0.1287925958633E+01
 0.1269686698914E+01
 0.1237492799759E+01
 0.1186787962914E+01
 0.1114831805229E+01
 0.1024936437607E+01
 0.9311125874519E+00
 0.8657443523407E+00
 0.9076288342476E+00
 0.1189961791039E+01
 0.1727326631546E+01
 0.2325001001358E+01
 0.1295343637466E+01
 0.1286305904388E+01
 0.1265950798988E+01
 0.1230060815811E+01
 0.1173703432083E+01
 0.1094183683395E+01
 0.9961079359055E+00
 0.8980625867844E+00
 0.8423967957497E+00
 0.9132902622223E+00
 0.1217806696892E+01
 0.1748479485512E+01
 0.2331380367279E+01
 0.1294967174530E+01
 0.1285440564156E+01
 0.1263987779617E+01
 0.1226186752319E+01
 0.1166919112206E+01
 0.1083520889282E+01
 0.9813283681870E+00
 0.8815236687660E+00
 0.8317133188248E+00
 0.9173681139946E+00
 0.1231738328934E+01
 0.1758697032928E+01
 0.2334946870804E+01
 0.1294967174530E+01
 0.1285440564156E+01
 0.1263987779617E+01
 0.1226186752319E+01
 0.1166919112206E+01
 0.1083520889282E+01
 0.9813283681870E+00
 0.8815236687660E+00
 0.8317133188248E+00
 0.9173681139946E+00
 0.1231738328934E+01
 0.1758697032928E+01
 0.2334946870804E+01
 0.1295343637466E+01
 0.1286305904388E+01
 0.1265950798988E+01
 0.1230060815811E+01
 0.1173703432083E+01
 0.1094183683395E+01
 0.9961079359055E+00
 0.8980625867844E+00
 0.8423967957497E+00
 0.9132902622223E+00
 0.1217806696892E+01
 0.1748479485512E+01
 0.2331380367279E+01
 0.1296023368835E+01
 0.1287925958633E+01
 0.1269686698914E+01
 0.1237492799759E+01
 0.1186787962914E+01
 0.1114831805229E+01
 0.1024936437607E+01
 0.9311126470566E+00
 0.8657443523407E+00
 0.9076287746429E+00
 0.1189961791039E+01
 0.1727326631546E+01
 0.2325001001358E+01
 0.1296865463257E+01
 0.1290087819099E+01
 0.1274828195572E+01
 0.1247869610786E+01
 0.1205234766006E+01
 0.1144168853760E+01
 0.1066375136375E+01
 0.9803991913795E+00
 0.9052706956863E+00
 0.9060428142548E+00
 0.1148545742035E+01
 0.1693882822990E+01
 0.2316564559937E+01
 0.1297674179077E+01
 0.1292492985725E+01
 0.1280855417252E+01
 0.1260318756104E+01
 0.1227704644203E+01
 0.1180370450020E+01
 0.1118343472481E+01
 0.1045001745224E+01
 0.9651232957840E+00
 0.9182490706444E+00
 0.1095629930496E+01
 0.1645355820656E+01
 0.2307830333710E+01
 0.1298214197159E+01
 0.1294780611992E+01
 0.1287133216858E+01
 0.1273759245872E+01
 0.1252527713776E+01
 0.1221171975136E+01
 0.1178231358528E+01
 0.1122974038124E+01
 0.1048557996750E+01
 0.9585001468658E+00
 0.1038135766983E+01
 0.1576895117760E+01
 0.2301223516464E+01
 0.1298233151436E+01
 0.1296561241150E+01
 0.1292960524559E+01
 0.1286999940872E+01
 0.1277845859528E+01
 0.1264101505280E+01
 0.1243312597275E+01
 0.1211785078049E+01
 0.1156789779663E+01
 0.1044903397560E+01
 0.9937080740929E+00
 0.1483896136284E+01
 0.2293414592743E+01
 0.1297487378120E+01
 0.1297442078590E+01
 0.1297614932060E+01
 0.1298715472221E+01
 0.1301562786102E+01
 0.1306066513062E+01
 0.1310187697411E+01
 0.1307544708252E+01
 0.1286223292351E+01
 0.1191200733185E+01
 0.1008634328842E+01
 0.1354679703712E+01
 0.2296395540237E+01
 0.1295771241188E+01
 0.1297062993050E+01
 0.1300415515900E+01
 0.1307560801506E+01
 0.1321364045143E+01
 0.1343596220016E+01
 0.1374165058136E+01
 0.1406282305717E+01
 0.1427733898163E+01
 0.1397440195084E+01
 0.1158158540726E+01
 0.1201309084892E+01
 0.2290897130966E+01
 0.1292947053909E+01
 0.1295143008232E+01
 0.1300785899162E+01
 0.1312424421310E+01
 0.1334906578064E+01
 0.1373369574547E+01
 0.1429886341095E+01
 0.1503815889359E+01
 0.1575042963028E+01
 0.1638729214668E+01
 0.1508035778999E+01
 0.1118803381920E+01
 0.2305486440659E+01
 0.1288961529732E+01
 0.1291557192802E+01
 0.1298222541809E+01
 0.1312574148178E+01
 0.1340058565140E+01
 0.1391465425491E+01
 0.1472493648529E+01
 0.1591865777969E+01
 0.1730595350266E+01
 0.1878449678421E+01
 0.2015120744705E+01
 0.1564692616463E+01
 0.2262939691544E+01
 0.1283918976784E+01
 0.1286211848259E+01
 0.1292713403702E+01
 0.1306953072548E+01
 0.1336701154709E+01
 0.1391583442688E+01
 0.1498655319214E+01
 0.1659582018852E+01
 0.1894505500793E+01
 0.2113858699799E+01
 0.2528569221497E+01
 0.2696430683136E+01
 0.3307620286942E+01
 0.8317883014679E+00
 0.8535765409470E+00
 0.9624977707863E+00
 0.1043894529343E+01
 0.1090739130974E+01
 0.1106283068657E+01
 0.7456049919128E+00
 0.8455582261086E+00
 0.1009851098061E+01
 0.1139082670212E+01
 0.1225003361702E+01
 0.1289315819740E+01
 0.6507887840271E+00
 0.8442864418030E+00
 0.1060379505157E+01
 0.1226187705994E+01
 0.1351495265961E+01
 0.1454226970673E+01
 0.5558702349663E+00
 0.8477741479874E+00
 0.1105324745178E+01
 0.1301511883736E+01
 0.1456557154655E+01
 0.1589034318924E+01
 0.4738166332245E+00
 0.8522922992706E+00
 0.1139592766762E+01
 0.1356307625771E+01
 0.1531920075417E+01
 0.1683387875557E+01
 0.4237545728683E+00
 0.8554645180702E+00
 0.1157914280891E+01
 0.1385330080986E+01
 0.1570991277695E+01
 0.1732231020927E+01
 0.4237545728683E+00
 0.8554645180702E+00
 0.1157914280891E+01
 0.1385330080986E+01
 0.1570991277695E+01
 0.1732231020927E+01
 0.4738166332245E+00
 0.8522922992706E+00
 0.1139592766762E+01
 0.1356307625771E+01
 0.1531920075417E+01
 0.1683387875557E+01
 0.5558702349663E+00
 0.8477741479874E+00
 0.1105324745178E+01
 0.1301511883736E+01
 0.1456557154655E+01
 0.1589034318924E+01
 0.6507887840271E+00
 0.8442864418030E+00
 0.1060379505157E+01
 0.1226187705994E+01
 0.1351495265961E+01
 0.1454226970673E+01
 0.7456050515175E+00
 0.8455582261086E+00
 0.1009851098061E+01
 0.1139082670212E+01
 0.1225003361702E+01
 0.1289315819740E+01
 0.8317883014679E+00
 0.8535765409470E+00
 0.9624977707863E+00
 0.1043894529343E+01
 0.1090739130974E+01
 0.1106283068657E+01
 0.8931182026863E+00
 0.3336938023567E+00
 0.4764697700739E-01
 0.3001475892961E-01
 0.4811233282089E-01
 0.3186383843422E-01
 0.1068035602570E+01
 0.7257348299026E+00
 0.3058657944202E+00
 0.1684361845255E+00
 0.1354030817747E+00
 0.9864456951618E-01
 0.1022494792938E+01
 0.8373401761055E+00
 0.6175549626350E+00
 0.3897874057293E+00
 0.3161396384239E+00
 0.2886981964111E+00
 0.1013627409935E+01
 0.8821288943291E+00
 0.7651176452637E+00
 0.6430089473724E+00
 0.5250443220139E+00
 0.4947471618652E+00
 0.9643447995186E+00
 0.8874086141586E+00
 0.8649706244469E+00
 0.8161116838455E+00
 0.7541519403458E+00
 0.7117847204208E+00
 0.9063809514046E+00
 0.8718968033791E+00
 0.9190756082535E+00
 0.9483937025070E+00
 0.9350690841675E+00
 0.9233759045601E+00
 0.9063809514046E+00
 0.8718968033791E+00
 0.9190756082535E+00
 0.9483937025070E+00
 0.9350690841675E+00
 0.9233759045601E+00
 0.9643447995186E+00
 0.8874086141586E+00
 0.8649706244469E+00
 0.8161116838455E+00
 0.7541519403458E+00
 0.7117847204208E+00
 0.1013627409935E+01
 0.8821288943291E+00
 0.7651176452637E+00
 0.6430089473724E+00
 0.5250443220139E+00
 0.4947471618652E+00
 0.1022494792938E+01
 0.8373401761055E+00
 0.6175549030304E+00
 0.3897874057293E+00
 0.3161396384239E+00
 0.2886981964111E+00
 0.1068035721779E+01
 0.7257348299026E+00
 0.3058657944202E+00
 0.1684361845255E+00
 0.1354030817747E+00
 0.9864456951618E-01
 0.8931182026863E+00
 0.3336938023567E+00
 0.4764697700739E-01
 0.3001475892961E-01
 0.4811233282089E-01
 0.3186383843422E-01
 0.1027450680733E+01
 0.8246406316757E+00
 0.6062838435173E+00
 0.3598004281521E+00
 0.1615150719881E+00
 0.2744984440506E-01
 0.1252620577812E+01
 0.1094863772392E+01
 0.8753346204758E+00
 0.6107138395309E+00
 0.3004273474216E+00
 0.3332413360476E-01
 0.1472484469414E+01
 0.1387637257576E+01
 0.1235195159912E+01
 0.1000188708305E+01
 0.6572037935257E+00
 0.1791448146105E+00
 0.1662132382393E+01
 0.1665615916252E+01
 0.1606576204300E+01
 0.1459193348885E+01
 0.1169195532799E+01
 0.5392630100250E+00
 0.1802467465401E+01
 0.1877191662788E+01
 0.1905704021454E+01
 0.1835411667824E+01
 0.1563084483147E+01
 0.7797723412514E+00
 0.1876158237457E+01
 0.1992840647697E+01
 0.2069535970688E+01
 0.2044261693954E+01
 0.1733490824699E+01
 0.7745137810707E+00
 0.1876158237457E+01
 0.1992840647697E+01
 0.2069535970688E+01
 0.2044261693954E+01
 0.1733490824699E+01
 0.7745137810707E+00
 0.1802467465401E+01
 0.1877191662788E+01
 0.1905704021454E+01
 0.1835411667824E+01
 0.1563084483147E+01
 0.7797723412514E+00
 0.1662132382393E+01
 0.1665615916252E+01
 0.1606576204300E+01
 0.1459193348885E+01
 0.1169195532799E+01
 0.5392630100250E+00
 0.1472484469414E+01
 0.1387637257576E+01
 0.1235195159912E+01
 0.1000188708305E+01
 0.6572037935257E+00
 0.1791448146105E+00
 0.1252620577812E+01
 0.1094863772392E+01
 0.8753346204758E+00
 0.6107138395309E+00
 0.3004273474216E+00
 0.3332413360476E-01
 0.1027450680733E+01
 0.8246406316757E+00
 0.6062838435173E+00
 0.3598004281521E+00
 0.1615150719881E+00
 0.2744984440506E-01
</DataArray>
<DataArray type="Float32" Name="IO" NumberOfComponents="1" ComponentName0="IO" format="ascii">
 0.1878276586533E+01
 0.1881701469421E+01
 0.1891202807426E+01
 0.1912411451340E+01
 0.1955641388893E+01
 0.2037587881088E+01
 0.2193653583527E+01
 0.2441988229752E+01
 0.2773028373718E+01
 0.3146901130676E+01
 0.3640646934509E+01
 0.4247582435608E+01
 0.4154359817505E+01
 0.1885911107063E+01
 0.1889935731888E+01
 0.1900305509567E+01
 0.1922081470490E+01
 0.1964035987854E+01
 0.2040890932083E+01
 0.2168503522873E+01
 0.2351003646851E+01
 0.2575502395630E+01
 0.2793828487396E+01
 0.3022578001022E+01
 0.2576428890228E+01
 0.2262999296188E+01
 0.1892288088799E+01
 0.1896175861359E+01
 0.1905828595161E+01
 0.1925332188606E+01
 0.1961659431458E+01
 0.2024392843246E+01
 0.2118247985840E+01
 0.2242417573929E+01
 0.2366241931915E+01
 0.2467052936554E+01
 0.2347267150879E+01
 0.1731746196747E+01
 0.2074290275574E+01
 0.1897291183472E+01
 0.1900408029556E+01
 0.1907979846001E+01
 0.1922835588455E+01
 0.1949731111526E+01
 0.1992788791656E+01
 0.2052750587463E+01
 0.2119115829468E+01
 0.2167113780975E+01
 0.2139268159866E+01
 0.1831300854683E+01
 0.1568560481071E+01
 0.2026519536972E+01
 0.1900939345360E+01
 0.1902793526649E+01
 0.1907183647156E+01
 0.1915636539459E+01
 0.1930159926414E+01
 0.1951599121094E+01
 0.1976794958115E+01
 0.1993283033371E+01
 0.1976037740707E+01
 0.1849963307381E+01
 0.1543444395065E+01
 0.1584626555443E+01
 0.2028683423996E+01
 0.1903364181519E+01
 0.1903601050377E+01
 0.1904094696045E+01
 0.1904904365540E+01
 0.1905691385269E+01
 0.1904762744904E+01
 0.1896964311600E+01
 0.1870881676674E+01
 0.1800610184669E+01
 0.1628336191177E+01
 0.1426217913628E+01
 0.1629848837852E+01
 0.2045946359634E+01
 0.1904767036438E+01
 0.1903206348419E+01
 0.1899442553520E+01
 0.1892129778862E+01
 0.1878976225853E+01
 0.1856430053711E+01
 0.1818992733955E+01
 0.1757505416870E+01
 0.1650969266891E+01
 0.1479679822922E+01
 0.1396064043045E+01
 0.1674108028412E+01
 0.2074799776077E+01
 0.1905394792557E+01
 0.1902022600174E+01
 0.1894014596939E+01
 0.1878786802292E+01
 0.1852452516556E+01
 0.1810233116150E+01
 0.1747243404388E+01
 0.1657785177231E+01
 0.1532406091690E+01
 0.1390029788017E+01
 0.1401141285896E+01
 0.1712546825409E+01
 0.2104747056961E+01
 0.1905506372452E+01
 0.1900464773178E+01
 0.1888575315475E+01
 0.1866219401360E+01
 0.1828250408173E+01
 0.1769135117531E+01
 0.1685005903244E+01
 0.1574964523315E+01
 0.1444090127945E+01
 0.1340353846550E+01
 0.1417154192924E+01
 0.1743508934975E+01
 0.2132386922836E+01
 0.1905345201492E+01
 0.1898915171623E+01
 0.1883817911148E+01
 0.1855632901192E+01
 0.1808284759521E+01
 0.1735782623291E+01
 0.1635424375534E+01
 0.1511549949646E+01
 0.1383206844330E+01
 0.1315086960793E+01
 0.1433809518814E+01
 0.1766682744026E+01
 0.2155404329300E+01
 0.1905114412308E+01
 0.1897691488266E+01
 0.1880309820175E+01
 0.1848002076149E+01
 0.1794080972672E+01
 0.1712295889854E+01
 0.1600955963135E+01
 0.1468882918358E+01
 0.1345662117004E+01
 0.1303488969803E+01
 0.1446454167366E+01
 0.1782192707062E+01
 0.2171700000763E+01
 0.1904960870743E+01
 0.1897020816803E+01
 0.1878451943398E+01
 0.1844010353088E+01
 0.1786704778671E+01
 0.1700165033340E+01
 0.1583293199539E+01
 0.1447480678558E+01
 0.1327900648117E+01
 0.1299140453339E+01
 0.1453150391579E+01
 0.1789948463440E+01
 0.2180202960968E+01
 0.1904960870743E+01
 0.1897020816803E+01
 0.1878451943398E+01
 0.1844010353088E+01
 0.1786704778671E+01
 0.1700165033340E+01
 0.1583293199539E+01
 0.1447480678558E+01
 0.1327900648117E+01
 0.1299140453339E+01
 0.1453150391579E+01
 0.1789948463440E+01
 0.2180202960968E+01
 0.1905114412308E+01
 0.1897691488266E+01
 0.1880309820175E+01
 0.1848002076149E+01
 0.1794080972672E+01
 0.1712295889854E+01
 0.1600955963135E+01
 0.1468882918358E+01
 0.1345662117004E+01
 0.1303488969803E+01
 0.1446454167366E+01
 0.1782192707062E+01
 0.2171700000763E+01
 0.1905345201492E+01
 0.1898915171623E+01
 0.1883817911148E+01
 0.1855632901192E+01
 0.1808284759521E+01
 0.1735782623291E+01
 0.1635424375534E+01
 0.1511550068855E+01
 0.1383206844330E+01
 0.1315086960793E+01
 0.1433809518814E+01
 0.1766682744026E+01
 0.2155404329300E+01
 0.1905506372452E+01
 0.1900464773178E+01
 0.1888575315475E+01
 0.1866219401360E+01
 0.1828250408173E+01
 0.1769135117531E+01
 0.1685005903244E+01
 0.1574964523315E+01
 0.1444090247154E+01
 0.1340353846550E+01
 0.1417154192924E+01
 0.1743508934975E+01
 0.2132386922836E+01
 0.1905394792557E+01
 0.1902022600174E+01
 0.1894014596939E+01
 0.1878786802292E+01
 0.1852452516556E+01
 0.1810233116150E+01
 0.1747243404388E+01
 0.1657785177231E+01
 0.1532406091690E+01
 0.1390029788017E+01
 0.1401141285896E+01
 0.1712546825409E+01
 0.2104747056961E+01
 0.1904767036438E+01
 0.1903206348419E+01
 0.1899442553520E+01
 0.1892129778862E+01
 0.1878976225853E+01
 0.1856430053711E+01
 0.1818992733955E+01
 0.1757505416870E+01
 0.1650969266891E+01
 0.1479679822922E+01
 0.1396064043045E+01
 0.1674108028412E+01
 0.2074800014496E+01
 0.1903364181519E+01
 0.1903601050377E+01
 0.1904094696045E+01
 0.1904904365540E+01
 0.1905691385269E+01
 0.1904762744904E+01
 0.1896964311600E+01
 0.1870881676674E+01
 0.1800610184669E+01
 0.1628336191177E+01
 0.1426217913628E+01
 0.1629848718643E+01
 0.2045946359634E+01
 0.1900939345360E+01
 0.1902793526649E+01
 0.1907183647156E+01
 0.1915636539459E+01
 0.1930159926414E+01
 0.1951599121094E+01
 0.1976794958115E+01
 0.1993283152580E+01
 0.1976037740707E+01
 0.1849963426590E+01
 0.1543444395065E+01
 0.1584626555443E+01
 0.2028683423996E+01
 0.1897291183472E+01
 0.1900408029556E+01
 0.1907979846001E+01
 0.1922835588455E+01
 0.1949731111526E+01
 0.1992788791656E+01
 0.2052750587463E+01
 0.2119115829468E+01
 0.2167113780975E+01
 0.2139268159866E+01
 0.1831300854683E+01
 0.1568560481071E+01
 0.2026519536972E+01
 0.1892288088799E+01
 0.1896175861359E+01
 0.1905828595161E+01
 0.1925332188606E+01
 0.1961659431458E+01
 0.2024392843246E+01
 0.2118247985840E+01
 0.2242417573929E+01
 0.2366241931915E+01
 0.2467052936554E+01
 0.2347267150879E+01
 0.1731746196747E+01
 0.2074290275574E+01
 0.1885911107063E+01
 0.1889935731888E+01
 0.1900305509567E+01
 0.1922081470490E+01
 0.1964035987854E+01
 0.2040890932083E+01
 0.2168503522873E+01
 0.2351003646851E+01
 0.2575502395630E+01
 0.2793828725815E+01
 0.3022578001022E+01
 0.2576429128647E+01
 0.2262999296188E+01
 0.1878276586533E+01
 0.1881701469421E+01
 0.1891202807426E+01
 0.1912411451340E+01
 0.1955641388893E+01
 0.2037587881088E+01
 0.2193653583527E+01
 0.2441988229752E+01
 0.2773028373718E+01
 0.3146901130676E+01
 0.3640646934509E+01
 0.4247582435608E+01
 0.4154359817505E+01
 0.1717295169830E+01
 0.1651181578636E+01
 0.1676973342896E+01
 0.1681273221970E+01
 0.1671116232872E+01
 0.1659160137177E+01
 0.1693185329437E+01
 0.1693070173264E+01
 0.1770875453949E+01
 0.1830978512764E+01
 0.1871513605118E+01
 0.1914195656776E+01
 0.1654453039169E+01
 0.1734341859818E+01
 0.1862491846085E+01
 0.1965664863586E+01
 0.2052690744400E+01
 0.2148317337036E+01
 0.1604875564575E+01
 0.1771766543388E+01
 0.1940581798553E+01
 0.2077744483948E+01
 0.2203689575195E+01
 0.2337079524994E+01
 0.1554407000542E+01
 0.1800243496895E+01
 0.1997329473495E+01
 0.2158983230591E+01
 0.2310093879700E+01
 0.2471176147461E+01
 0.1520844817162E+01
 0.1815465688705E+01
 0.2027476787567E+01
 0.2201138257980E+01
 0.2365813732147E+01
 0.2539598703384E+01
 0.1520844817162E+01
 0.1815465688705E+01
 0.2027476787567E+01
 0.2201138257980E+01
 0.2365813732147E+01
 0.2539598703384E+01
 0.1554407000542E+01
 0.1800243496895E+01
 0.1997329473495E+01
 0.2158983230591E+01
 0.2310093879700E+01
 0.2471176147461E+01
 0.1604875564575E+01
 0.1771766543388E+01
 0.1940581798553E+01
 0.2077744483948E+01
 0.2203689575195E+01
 0.2337079524994E+01
 0.1654453039169E+01
 0.1734341859818E+01
 0.1862491846085E+01
 0.1965664863586E+01
 0.2052690744400E+01
 0.2148317337036E+01
 0.1693185329437E+01
 0.1693070173264E+01
 0.1770875453949E+01
 0.1830978512764E+01
 0.1871513605118E+01
 0.1914195656776E+01
 0.1717295169830E+01
 0.1651181578636E+01
 0.1676973342896E+01
 0.1681273221970E+01
 0.1671116232872E+01
 0.1659160137177E+01
 0.1834121465683E+01
 0.2303773313761E+00
 0.1405860483646E+00
-0.1061225868762E-01
 0.5109428241849E-01
 0.2796698361635E-02
 0.1677490949631E+01
 0.1163910865784E+01
 0.3699475228786E+00
 0.3236399888992E+00
 0.1843305081129E+00
 0.1787844002247E+00
 0.1693648576736E+01
 0.1295376777649E+01
 0.9582470655441E+00
 0.5718435645103E+00
 0.5177971124649E+00
 0.4356426298618E+00
 0.1684001445770E+01
 0.1461954832077E+01
 0.1193419814110E+01
 0.9945263862610E+00
 0.7931649684906E+00
 0.7650738954544E+00
 0.1709393501282E+01
 0.1528844237328E+01
 0.1418873786926E+01
 0.1265511274338E+01
 0.1148152470589E+01
 0.1067387461662E+01
 0.1715292096138E+01
 0.1604315519333E+01
 0.1558579921722E+01
 0.1510023117065E+01
 0.1428739547729E+01
 0.1378394961357E+01
 0.1715292096138E+01
 0.1604315519333E+01
 0.1558579921722E+01
 0.1510023117065E+01
 0.1428739547729E+01
 0.1378394961357E+01
 0.1709393501282E+01
 0.1528844237328E+01
 0.1418873786926E+01
 0.1265511274338E+01
 0.1148152470589E+01
 0.1067387461662E+01
 0.1684001445770E+01
 0.1461954832077E+01
 0.1193419814110E+01
 0.9945263862610E+00
 0.7931649684906E+00
 0.7650738954544E+00
 0.1693648576736E+01
 0.1295376777649E+01
 0.9582470059395E+00
 0.5718435645103E+00
 0.5177971124649E+00
 0.4356426298618E+00
 0.1677491068840E+01
 0.1163910865784E+01
 0.3699475228786E+00
 0.3236399888992E+00
 0.1843305081129E+00
 0.1787844002247E+00
 0.1834121465683E+01
 0.2303773313761E+00
 0.1405860483646E+00
-0.1061225868762E-01
 0.5109428241849E-01
 0.2796698361635E-02
 0.1522771596909E+01
 0.1232438802719E+01
 0.9038689136505E+00
 0.5636257529259E+00
 0.2487269192934E+00
 0.1867789588869E-01
 0.1848771095276E+01
 0.1615780115128E+01
 0.1310813426971E+01
 0.9166613817215E+00
 0.4650492668152E+00
 0.5458036810160E-01
 0.2159025669098E+01
 0.2048918247223E+01
 0.1844686985016E+01
 0.1529283761978E+01
 0.1017368078232E+01
 0.2625108063221E+00
 0.2432847261429E+01
 0.2459872961044E+01
 0.2436516284943E+01
 0.2303993225098E+01
 0.1989401578903E+01
 0.1147043704987E+01
 0.2632197618484E+01
 0.2785709619522E+01
 0.2934093236923E+01
 0.3041974544525E+01
 0.2994368791580E+01
 0.2544752836227E+01
 0.2738657712936E+01
 0.2964008569717E+01
 0.3223874568939E+01
 0.3490360260010E+01
 0.3655116558075E+01
 0.3452878952026E+01
 0.2738657712936E+01
 0.2964008569717E+01
 0.3223874568939E+01
 0.3490360260010E+01
 0.3655116558075E+01
 0.3452878952026E+01
 0.2632197618484E+01
 0.2785709619522E+01
 0.2934093236923E+01
 0.3041974544525E+01
 0.2994368791580E+01
 0.2544752836227E+01
 0.2432847261429E+01
 0.2459872961044E+01
 0.2436516284943E+01
 0.2303993225098E+01
 0.1989401578903E+01
 0.1147043704987E+01
 0.2159025669098E+01
 0.2048918247223E+01
 0.1844686985016E+01
 0.1529283761978E+01
 0.1017368078232E+01
 0.2625108063221E+00
 0.1848771095276E+01
 0.1615780115128E+01
 0.1310813426971E+01
 0.9166613817215E+00
 0.4650492668152E+00
 0.5458036810160E-01
 0.1522771596909E+01
 0.1232438802719E+01
 0.9038689136505E+00
 0.5636257529259E+00
 0.2487269192934E+00
 0.1867789588869E-01
</DataArray>
<DataArray type="Float32" Name="CK" NumberOfComponents="1" ComponentName0="CK" format="ascii">
-0.1983722852650E-07
 0.6307899869107E-07
-0.1052527975887E-07
 0.9267035383509E-07
 0.3001954662629E-07
 0.4056693847510E-07
-0.7230458209939E-07
 0.6925874029839E-07
-0.6021826304270E-07
-0.1904838820010E-06
-0.4722559765469E-07
 0.7008057822944E-07
 0.1285826853881E-06
-0.2823666966911E-07
-0.4907628192719E-07
 0.2871946391814E-07
-0.9737485107131E-07
-0.3369772128003E-07
-0.7784548228251E-07
-0.1400692650755E-07
-0.1226250339048E-06
 0.1194202061683E-06
-0.8238376048020E-07
-0.1054170160053E-06
-0.3760264877251E-07
 0.9262433886548E-07
-0.2244590469047E-07
 0.2487369465953E-07
-0.4144955600971E-07
-0.6245020056639E-08
 0.1223800409900E-06
 0.1730344401096E-07
-0.4561183430951E-08
-0.7468319895843E-07
 0.6131038010615E-07
-0.4776437356746E-07
 0.7248469846566E-07
 0.2941118681932E-08
 0.1039297639061E-06
-0.1119217496459E-07
 0.2405623522606E-07
 0.1798832127697E-07
 0.7877158703096E-08
-0.9960468227987E-08
-0.1669762261791E-07
-0.6824077303236E-08
-0.1332474242055E-07
 0.7635383592053E-07
-0.4549810150856E-07
 0.8089837466585E-08
 0.4679296883303E-07
 0.1225347197042E-06
 0.1846043029552E-07
 0.1274360084125E-07
 0.7938756763082E-08
 0.9591573091328E-08
 0.1071702895317E-06
-0.3429815409461E-07
 0.8739930890123E-07
-0.2019639189221E-07
-0.6916359551745E-07
-0.1487601182237E-06
 0.2080997374421E-08
-0.3024404371388E-07
 0.1101450268770E-06
-0.3885538868431E-07
-0.1175881014781E-07
 0.7360388720734E-07
-0.4657073282566E-07
 0.5518963286377E-07
-0.4317161761414E-07
 0.9949519208519E-08
 0.1928353410285E-07
-0.4811634268798E-07
-0.3441440887819E-07
 0.2563393330934E-07
 0.1597365351103E-07
 0.2373435945557E-06
 0.1134388976087E-06
-0.2086094208487E-07
 0.4537369036051E-07
-0.3384115210281E-10
-0.8529124007062E-07
 0.8266188111783E-07
 0.2401626630899E-07
 0.3179989627178E-07
-0.7275272717600E-07
 0.2170569501914E-08
-0.1174282031613E-06
-0.1098520241438E-06
-0.2702289614298E-06
 0.1369761521985E-06
 0.8380974980682E-07
 0.1031467620205E-06
 0.8399150286387E-07
-0.9789924648729E-08
-0.3373925538952E-07
-0.8701728226868E-10
-0.2939705501248E-07
 0.2672632548606E-07
 0.6540977548486E-07
 0.1274472349877E-07
 0.6211289860225E-07
-0.4214587079332E-07
-0.3370232737332E-07
-0.1505280100567E-07
 0.1055873244393E-06
 0.1062001790952E-06
 0.1142410630539E-06
 0.4025641908711E-07
 0.7672072066534E-07
-0.6235604477212E-08
-0.6540189578796E-07
 0.4211109461139E-07
-0.4978418988166E-07
-0.3018677818822E-07
-0.2164128658499E-06
 0.2210533156521E-07
-0.2316918568113E-07
-0.3751065191793E-07
-0.3833236950079E-07
-0.8097883741343E-07
 0.8079323432497E-08
-0.6537517616145E-07
-0.8551457730821E-07
 0.3651963231821E-07
 0.4809655906879E-07
-0.7913410171589E-07
-0.2690355938029E-07
-0.1129724895854E-06
 0.3510909674098E-07
 0.4744257786626E-07
-0.4078387827455E-07
-0.1560110640675E-07
-0.9459111471877E-07
 0.2070159532686E-07
-0.1226950795408E-06
-0.4486645266422E-07
 0.3573809725932E-07
-0.2579551150461E-07
-0.7880543173577E-07
 0.5433995631243E-07
 0.1307411143792E-06
-0.2837220325347E-07
 0.1010755634745E-07
 0.8385292837865E-07
-0.5316940243638E-07
-0.8166041620683E-08
-0.7030469184599E-07
 0.2924742681376E-07
 0.2242886132375E-07
-0.1830459450680E-08
 0.3408967097496E-07
 0.5295071847655E-07
-0.3062995368452E-07
 0.2241407006665E-06
-0.2837220325347E-07
 0.1010755634745E-07
 0.8385292837865E-07
-0.5316940243638E-07
-0.8166041620683E-08
-0.7030469184599E-07
 0.2924742681376E-07
 0.2242886132375E-07
-0.1830459450680E-08
 0.3408967097496E-07
 0.5295071847655E-07
-0.3062995368452E-07
 0.2241407006665E-06
 0.3510909674098E-07
 0.4744257786626E-07
-0.4078387827455E-07
-0.1560110640675E-07
-0.9459111471877E-07
 0.2070159532686E-07
-0.1226950795408E-06
-0.4486645266422E-07
 0.3573809725932E-07
-0.2579551150461E-07
-0.7880543173577E-07
 0.5433995631243E-07
 0.1307411143792E-06
 0.2210533156521E-07
-0.2316918568113E-07
-0.3751065191793E-07
-0.3833236950079E-07
-0.8097883741343E-07
 0.8079323432497E-08
-0.6537517616145E-07
-0.2590993253282E-07
 0.3651963231821E-07
-0.1150808570660E-07
-0.7913410171589E-07
-0.2690355938029E-07
-0.1129724895854E-06
-0.3370232737332E-07
-0.1505280100567E-07
 0.1055873244393E-06
 0.1062001790952E-06
 0.1142410630539E-06
 0.4025641908711E-07
 0.7672072066534E-07
-0.6235604477212E-08
 0.5380739376282E-07
 0.4211109461139E-07
-0.4978418988166E-07
-0.3018677818822E-07
-0.2164128658499E-06
 0.1369761521985E-06
 0.8380974980682E-07
 0.1031467620205E-06
 0.8399150286387E-07
-0.9789924648729E-08
-0.3373925538952E-07
-0.8701728226868E-10
-0.2939705501248E-07
 0.2672632548606E-07
 0.6540977548486E-07
 0.1274472349877E-07
 0.6211289860225E-07
-0.4214587079332E-07
 0.1134388976087E-06
-0.2086094208487E-07
 0.4537369036051E-07
-0.3384115210281E-10
-0.8529124007062E-07
 0.8266188111783E-07
 0.2401626630899E-07
-0.8059169975816E-07
-0.7275272717600E-07
 0.2170569501914E-08
-0.5036607131359E-08
 0.2539571886118E-08
-0.3181038232825E-07
-0.3885538868431E-07
-0.1175881014781E-07
 0.7360388720734E-07
-0.4657073282566E-07
 0.5518963286377E-07
-0.4317161761414E-07
-0.1024420768214E-06
 0.1928353410285E-07
-0.4811634268798E-07
-0.3441440887819E-07
 0.2563393330934E-07
-0.1032356360398E-06
 0.2373435945557E-06
 0.1846043029552E-07
 0.1274360084125E-07
 0.7938756763082E-08
 0.9591573091328E-08
 0.1071702895317E-06
-0.3429815409461E-07
 0.8739930890123E-07
 0.9901289765857E-07
-0.6916359551745E-07
-0.2955082867295E-07
 0.2080997374421E-08
-0.3024404371388E-07
 0.1101450268770E-06
-0.1119217496459E-07
 0.2405623522606E-07
 0.1798832127697E-07
 0.7877158703096E-08
-0.9960468227987E-08
-0.1669762261791E-07
-0.6824077303236E-08
 0.1058845471302E-06
 0.7635383592053E-07
-0.4549810150856E-07
 0.8089837466585E-08
 0.4679296883303E-07
 0.1225347197042E-06
-0.2244590469047E-07
 0.2487369465953E-07
-0.4144955600971E-07
-0.6245020056639E-08
 0.1223800409900E-06
 0.1730344401096E-07
-0.4561183430951E-08
-0.7468319895843E-07
 0.6131038010615E-07
-0.4776437356746E-07
 0.7248469846566E-07
 0.2941118681932E-08
 0.1039297639061E-06
-0.2823666966911E-07
-0.4907628192719E-07
 0.2871946391814E-07
-0.9737485107131E-07
-0.3369772128003E-07
-0.7784548228251E-07
-0.1400692650755E-07
-0.1226250339048E-06
 0.1194202061683E-06
 0.1560348186214E-06
-0.1054170160053E-06
 0.8160664077828E-07
 0.9262433886548E-07
-0.1983722852650E-07
 0.6307899869107E-07
-0.1052527975887E-07
 0.9267035383509E-07
 0.3001954662629E-07
 0.4056693847510E-07
-0.7230458209939E-07
 0.6925874029839E-07
-0.6021826304270E-07
-0.1904838820010E-06
-0.4722559765469E-07
 0.7008057822944E-07
 0.1285826853881E-06
 0.1561811657780E-07
 0.2029098966627E-07
-0.3058814712631E-07
 0.3672567561175E-07
-0.6647647210478E-07
 0.1084219602987E-08
-0.6940270880218E-07
 0.2892282857658E-08
 0.1988083164761E-07
 0.2599514403734E-07
-0.7267218316009E-07
 0.3461191555587E-08
 0.2671575904944E-07
 0.4188737501298E-07
-0.2480706617902E-07
 0.1372145730372E-08
-0.7690552261685E-07
-0.2293555834143E-07
 0.5801153390994E-07
 0.1206378874574E-07
 0.4074486059658E-07
 0.1181966524655E-06
 0.5847841655360E-07
 0.1219991152546E-07
 0.2019527811647E-07
-0.3500911294196E-07
-0.2290924405735E-07
 0.1243287730546E-06
 0.3082980115643E-07
 0.3722534702710E-07
 0.4269617592811E-07
-0.1281164385691E-07
-0.2480628102930E-07
 0.3487643351896E-07
 0.9301397541073E-07
-0.6959807041795E-07
 0.4269617592811E-07
-0.1281164385691E-07
-0.2480628102930E-07
 0.3487643351896E-07
 0.9301397541073E-07
-0.6959807041795E-07
-0.3600051989849E-07
-0.3500911294196E-07
-0.2290924405735E-07
 0.1243287730546E-06
 0.3082980115643E-07
 0.3722534702710E-07
 0.1815735894972E-08
 0.1206378874574E-07
 0.4074486059658E-07
 0.1181966524655E-06
 0.5847841655360E-07
 0.1219991152546E-07
 0.2671575904944E-07
 0.4188737501298E-07
-0.2480706617902E-07
 0.1372145730372E-08
-0.7690552261685E-07
-0.2293555834143E-07
-0.9798064026789E-08
 0.2892282857658E-08
 0.1988083164761E-07
 0.2599514403734E-07
-0.7267218316009E-07
 0.3461191555587E-08
 0.1561811657780E-07
 0.2029098966627E-07
-0.3058814712631E-07
 0.3672567561175E-07
-0.6647647210478E-07
 0.1084219602987E-08
-0.4167619760409E-07
-0.2131611953615E-07
 0.3400434496481E-08
 0.1786478465160E-09
-0.1701657897923E-08
-0.9035624956577E-09
-0.4291645572252E-07
-0.1538874361273E-07
 0.1753259976089E-07
-0.6745787539675E-09
-0.5142761633214E-08
-0.2983020011560E-08
-0.2620023975552E-08
-0.2980492286309E-07
 0.6898903892605E-08
 0.4198517311593E-08
 0.5253766532931E-08
 0.1103373564737E-07
 0.8652024119371E-07
 0.1924729409186E-07
 0.5417832582566E-07
-0.7465975171428E-08
 0.1288519058118E-07
 0.3049492908191E-07
 0.6704660726609E-07
 0.3146179272662E-07
-0.4382293106175E-07
 0.2593064984957E-08
 0.3914386481618E-08
-0.2377563135258E-07
-0.7051546013770E-08
 0.3003968629400E-08
-0.3716991781033E-07
 0.3490986821841E-07
-0.5395824442811E-07
 0.4428102473586E-07
-0.7051546013770E-08
 0.3003968629400E-08
-0.3716991781033E-07
 0.3490986821841E-07
-0.5395824442811E-07
 0.4428102473586E-07
 0.6704660726609E-07
 0.3146179272662E-07
-0.4382293106175E-07
 0.2593064984957E-08
 0.3914386481618E-08
-0.2377563135258E-07
 0.8652024119371E-07
 0.1924729409186E-07
 0.5417832582566E-07
-0.7465975171428E-08
 0.1288519058118E-07
 0.3049492908191E-07
-0.2620023975552E-08
-0.2980492286309E-07
-0.5270574088279E-07
 0.4198517311593E-08
 0.5253766532931E-08
 0.1103373564737E-07
 0.7629283382826E-07
-0.1538874361273E-07
 0.1753259976089E-07
-0.6745787539675E-09
-0.5142761633214E-08
-0.2983020011560E-08
-0.4167619760409E-07
-0.2131611953615E-07
 0.3400434496481E-08
 0.1786478465160E-09
-0.1701657897923E-08
-0.9035624956577E-09
-0.2225243034282E-07
 0.1767004764730E-08
 0.2279314237352E-07
 0.3574626816771E-08
 0.3418354682649E-08
-0.1147266764229E-08
-0.5671300007393E-07
 0.2815091071362E-07
-0.1403865779182E-07
-0.8342297297403E-08
 0.3180556262805E-08
-0.2715747619841E-08
 0.2298865253714E-07
-0.7560848103161E-07
-0.5678154946231E-07
 0.4802779618451E-07
-0.5130379099327E-07
 0.1433656274252E-07
 0.4270229858605E-07
-0.9573690729070E-09
 0.4205086612252E-07
-0.4568915024095E-08
 0.3304124773784E-07
-0.7230887122400E-07
-0.5566485428155E-07
-0.8524664973919E-07
 0.2113801869097E-06
 0.3452180208363E-07
 0.4724658442257E-07
-0.1024317968223E-06
 0.4253931784604E-07
-0.1419943529424E-06
 0.5499860877833E-07
 0.1755970311379E-06
 0.4916560847334E-07
 0.2777414243038E-07
 0.4253931784604E-07
-0.1419943529424E-06
 0.5499860877833E-07
 0.1755970311379E-06
 0.4916560847334E-07
 0.2777414243038E-07
-0.5566485428155E-07
-0.8524664973919E-07
 0.2113801869097E-06
 0.3452180208363E-07
 0.4724658442257E-07
-0.1024317968223E-06
 0.4270229858605E-07
-0.9573690729070E-09
 0.4205086612252E-07
-0.4568915024095E-08
 0.3304124773784E-07
-0.7230887122400E-07
 0.2298865253714E-07
-0.7560848103161E-07
-0.5678154946231E-07
 0.4802779618451E-07
-0.5130379099327E-07
 0.1433656274252E-07
-0.5671300007393E-07
 0.2815091071362E-07
-0.1403865779182E-07
-0.8342297297403E-08
 0.3180556262805E-08
-0.2715747619841E-08
-0.2225243034282E-07
 0.1767004764730E-08
 0.2279314237352E-07
 0.3574626816771E-08
 0.3418354682649E-08
-0.1147266764229E-08
</DataArray>
<DataArray type="Int32" Name="Region" format="ascii">
           1
           1
           1
           1
           1
           1
           1
           1
           1
           1
           1
           1
           1
           1
           1
           1
           1
           1
           1
           1
           1
           1
           1
           1
           1
           1
           1
           1
           1
           1
           1
           1
           1
           1
           1
           1
           1
           1
           1
           1
           1
           1
           1
           1
           1
           1
           1
           1
           1
           1
           1
           1
           1
           1
           1
           1
           1
           1
           1
           1
           1
           1
           1
           1
           1
           1
           1
           1
           1
           1
           1
           1
           1
           1
           1
           1
           1
           1
           1
           1
           1
           1
           1
           1
           1
           1
           1
           1
           1
           1
           1
           1
           1
           1
           1
           1
           1
           1
           1
           1
           1
           1
           1
           1
           1
           1
           1
           1
           1
           1
           1
           1
           1
           1
           1
           1
           1
           1
           1
           1
           1
           1
           1
           1
           1
           1
           1
           1
           1
           1
           1
           1
           1
           1
           1
           1
           1
           1
           1
           1
           1
           1
           1
           1
           1
           1
           1
           1
           1
           1
           1
           1
           1
           1
           1
           1
           1
           1
           1
           1
           1
           1
           1
           1
           1
           1
           1
           1
           1
           1
           1
           1
           1
           1
           1
           1
           1
           1
           1
           1
           1
           1
           1
           1
           1
           1
           1
           1
           1
           1
           1
           1
           1
           1
           1
           1
           1
           1
           1
           1
           1
           1
           1
           1
           1
           1
           1
           1
           1
           1
           1
           1
           1
           1
           1
           1
           1
           1
           1
           1
           1
           1
           1
           1
           1
           1
           1
           1
           1
           1
           1
           1
           1
           1
           1
           1
           1
           1
           1
           1
           1
           1
           1
           1
           1
           1
           1
           1
           1
           1
           1
           1
           1
           1
           1
           1
           1
           1
           1
           1
           1
           1
           1
           1
           1
           1
           1
           1
           1
           1
           1
           1
           1
           1
           1
           1
           1
           1
           1
           1
           1
           1
           1
           1
           1
           1
           1
           1
           1
           1
           1
           1
           1
           1
           1
           1
           1
           1
           1
           1
           1
           1
           1
           1
           1
           1
           1
           1
           1
           1
           1
           1
           2
           2
           2
           2
           2
           2
           2
           2
           2
           2
           2
           2
           2
           2
           2
           2
           2
           2
           2
           2
           2
           2
           2
           2
           2
           2
           2
           2
           2
           2
           2
           2
           2
           2
           2
           2
           2
           2
           2
           2
           2
           2
           2
           2
           2
           2
           2
           2
           2
           2
           2
           2
           2
           2
           2
           2
           2
           2
           2
           2
           2
           2
           2
           2
           2
           2
           2
           2
           2
           2
           2
           2
           2
           2
           2
           2
           2
           2
           2
           2
           2
           2
           2
           2
           2
           2
           2
           2
           2
           2
           2
           2
           2
           2
           2
           2
           2
           2
           2
           2
           2
           2
           2
           2
           2
           2
           2
           2
           2
           2
           2
           2
           2
           2
           2
           2
           2
           2
           2
           2
           2
           2
           2
           2
           2
           2
           2
           2
           2
           2
           2
           2
           2
           2
           2
           2
           2
           2
           2
           2
           2
           2
           2
           2
           2
           2
           2
           2
           2
           2
           2
           2
           2
           2
           2
           2
           2
           2
           2
           2
           2
           2
           2
           2
           2
           2
           2
           2
           2
           2
           2
           2
           2
           2
           2
           2
           2
           2
           2
           2
           2
           2
           2
           2
           2
           2
           2
           2
           2
           2
           2
           2
           2
           2
           2
           2
           2
           2
           2
           2
           2
           2
           2
           2
           2
           2
           2
           2
           2
           2
           2
           2
           2
           2
           2
           2
</DataArray>
</CellData>
</Piece>
</UnstructuredGrid>
</VTKFile>
