<VTKFile type="UnstructuredGrid" version="1,0" byte_order="LittleEndian">
<UnstructuredGrid>
<Piece NumberOfPoints="566" NumberOfCells="528">
<Points>
<DataArray type="Float64" NumberOfComponents="3" format="ascii">
-0.1100000000000E+01 -0.5395955351400E+01  0.0000000000000E+00
 0.0000000000000E+00 -0.5395955351400E+01  0.0000000000000E+00
 0.1100000000000E+01 -0.5395955351400E+01  0.0000000000000E+00
-0.1147096914462E+01 -0.2549637197335E+01  0.0000000000000E+00
-0.5735484517343E+00 -0.2434375812148E+01  0.0000000000000E+00
 0.5735484627289E+00 -0.2434375813621E+01  0.0000000000000E+00
 0.1147096914462E+01 -0.2549637197335E+01  0.0000000000000E+00
-0.1849553131613E+01  0.3526358745087E+00  0.0000000000000E+00
 0.1849553119580E+01  0.3526358820960E+00  0.0000000000000E+00
-0.7500000000000E+00 -0.7469172457236E+00  0.0000000000000E+00
 0.7500000000000E+00 -0.7469172457236E+00  0.0000000000000E+00
-0.1008333333333E+01 -0.5395955351400E+01  0.0000000000000E+00
-0.9166666666667E+00 -0.5395955351400E+01  0.0000000000000E+00
-0.8250000000000E+00 -0.5395955351400E+01  0.0000000000000E+00
-0.7333333333333E+00 -0.5395955351400E+01  0.0000000000000E+00
-0.6416666666667E+00 -0.5395955351400E+01  0.0000000000000E+00
-0.5500000000000E+00 -0.5395955351400E+01  0.0000000000000E+00
-0.4583333333333E+00 -0.5395955351400E+01  0.0000000000000E+00
-0.3666666666667E+00 -0.5395955351400E+01  0.0000000000000E+00
-0.2750000000000E+00 -0.5395955351400E+01  0.0000000000000E+00
-0.1833333333333E+00 -0.5395955351400E+01  0.0000000000000E+00
-0.9166666666667E-01 -0.5395955351400E+01  0.0000000000000E+00
 0.9166666666667E-01 -0.5395955351400E+01  0.0000000000000E+00
 0.1833333333333E+00 -0.5395955351400E+01  0.0000000000000E+00
 0.2750000000000E+00 -0.5395955351400E+01  0.0000000000000E+00
 0.3666666666667E+00 -0.5395955351400E+01  0.0000000000000E+00
 0.4583333333333E+00 -0.5395955351400E+01  0.0000000000000E+00
 0.5500000000000E+00 -0.5395955351400E+01  0.0000000000000E+00
 0.6416666666667E+00 -0.5395955351400E+01  0.0000000000000E+00
 0.7333333333333E+00 -0.5395955351400E+01  0.0000000000000E+00
 0.8250000000000E+00 -0.5395955351400E+01  0.0000000000000E+00
 0.9166666666667E+00 -0.5395955351400E+01  0.0000000000000E+00
 0.1008333333333E+01 -0.5395955351400E+01  0.0000000000000E+00
-0.1052597566997E+01 -0.2525359163065E+01  0.0000000000000E+00
-0.9576122427306E+00 -0.2503058373331E+01  0.0000000000000E+00
-0.8621760033544E+00 -0.2482774237100E+01  0.0000000000000E+00
-0.7663263414926E+00 -0.2464543622143E+01  0.0000000000000E+00
-0.6701031214270E+00 -0.2448400537052E+01  0.0000000000000E+00
-0.4783892518804E+00 -0.2422684502899E+01  0.0000000000000E+00
-0.3829961397004E+00 -0.2413087472616E+01  0.0000000000000E+00
-0.2874140476292E+00 -0.2405603374330E+01  0.0000000000000E+00
-0.1916891717559E+00 -0.2400246934309E+01  0.0000000000000E+00
-0.9586858937425E-01 -0.2397028784591E+01  0.0000000000000E+00
 0.5546389486577E-08 -0.2395955351400E+01  0.0000000000000E+00
 0.9586860046425E-01 -0.2397028784839E+01  0.0000000000000E+00
 0.1916891828375E+00 -0.2400246934805E+01  0.0000000000000E+00
 0.2874140586971E+00 -0.2405603375073E+01  0.0000000000000E+00
 0.3829961507491E+00 -0.2413087473604E+01  0.0000000000000E+00
 0.4783892629046E+00 -0.2422684504131E+01  0.0000000000000E+00
 0.6701031305598E+00 -0.2448400538481E+01  0.0000000000000E+00
 0.7663263487720E+00 -0.2464543623446E+01  0.0000000000000E+00
 0.8621760087916E+00 -0.2482774238195E+01  0.0000000000000E+00
 0.9576122463390E+00 -0.2503058374138E+01  0.0000000000000E+00
 0.1052597568792E+01 -0.2525359163506E+01  0.0000000000000E+00
-0.1243131161036E+01 -0.2037610559518E+01  0.0000000000000E+00
-0.1406537509160E+01 -0.1543675335298E+01  0.0000000000000E+00
-0.1680144970038E+01 -0.1100774774047E+01  0.0000000000000E+00
-0.1897231924415E+01 -0.6279519832455E+00  0.0000000000000E+00
-0.1998599493545E+01 -0.1184785758543E+00  0.0000000000000E+00
-0.1542600023501E+01  0.4158036957262E+00  0.0000000000000E+00
-0.1231313400754E+01  0.3635443025863E+00  0.0000000000000E+00
-0.9317783393447E+00  0.2612690433592E+00  0.0000000000000E+00
-0.6282763739427E+00  0.1719988208541E+00  0.0000000000000E+00
-0.3159718680769E+00  0.1211633805885E+00  0.0000000000000E+00
-0.6960505408160E-08  0.1040446485997E+00  0.0000000000000E+00
 0.3159718542389E+00  0.1211633791072E+00  0.0000000000000E+00
 0.6282763603577E+00  0.1719988178054E+00  0.0000000000000E+00
 0.9317783262470E+00  0.2612690386552E+00  0.0000000000000E+00
 0.1231313387360E+01  0.3635442987769E+00  0.0000000000000E+00
 0.1542600009557E+01  0.4158036956212E+00  0.0000000000000E+00
 0.1998599493920E+01 -0.1184785639515E+00  0.0000000000000E+00
 0.1897231927146E+01 -0.6279519741738E+00  0.0000000000000E+00
 0.1680144973598E+01 -0.1100774767938E+01  0.0000000000000E+00
 0.1406537511171E+01 -0.1543675331034E+01  0.0000000000000E+00
 0.1243131161584E+01 -0.2037610557226E+01  0.0000000000000E+00
-0.1100000000000E+01 -0.5176863099544E+01  0.0000000000000E+00
-0.1100000000000E+01 -0.4957770754270E+01  0.0000000000000E+00
-0.1100000000000E+01 -0.4738678354999E+01  0.0000000000000E+00
-0.1100000000000E+01 -0.4519585936506E+01  0.0000000000000E+00
-0.1100000000000E+01 -0.4300493542565E+01  0.0000000000000E+00
-0.1100000000000E+01 -0.4081400872064E+01  0.0000000000000E+00
-0.1100000000000E+01 -0.3862308883724E+01  0.0000000000000E+00
-0.1100000000000E+01 -0.3643216671679E+01  0.0000000000000E+00
-0.1100035806624E+01 -0.3424124477674E+01  0.0000000000000E+00
-0.1101937402719E+01 -0.3205043502260E+01  0.0000000000000E+00
-0.1109333708784E+01 -0.2986084852631E+01  0.0000000000000E+00
-0.1124056733736E+01 -0.2767499395959E+01  0.0000000000000E+00
 0.1124056733789E+01 -0.2767499395965E+01  0.0000000000000E+00
 0.1109333708827E+01 -0.2986084852636E+01  0.0000000000000E+00
 0.1101937402735E+01 -0.3205043502263E+01  0.0000000000000E+00
 0.1100035806625E+01 -0.3424124477677E+01  0.0000000000000E+00
 0.1100000000000E+01 -0.3643216671682E+01  0.0000000000000E+00
 0.1100000000000E+01 -0.3862308883726E+01  0.0000000000000E+00
 0.1100000000000E+01 -0.4081400872066E+01  0.0000000000000E+00
 0.1100000000000E+01 -0.4300493542567E+01  0.0000000000000E+00
 0.1100000000000E+01 -0.4519585936507E+01  0.0000000000000E+00
 0.1100000000000E+01 -0.4738678355000E+01  0.0000000000000E+00
 0.1100000000000E+01 -0.4957770754271E+01  0.0000000000000E+00
 0.1100000000000E+01 -0.5176863099545E+01  0.0000000000000E+00
-0.6271906632745E+00 -0.7167047467301E+00  0.0000000000000E+00
-0.5032223282799E+00 -0.6916719656231E+00  0.0000000000000E+00
-0.3782916751723E+00 -0.6719994717132E+00  0.0000000000000E+00
-0.2526175835472E+00 -0.6578358653252E+00  0.0000000000000E+00
-0.1264370694116E+00 -0.6492919818213E+00  0.0000000000000E+00
-0.3330669073875E-15 -0.6464362985620E+00  0.0000000000000E+00
 0.1264370694116E+00 -0.6492919818213E+00  0.0000000000000E+00
 0.2526175835472E+00 -0.6578358653252E+00  0.0000000000000E+00
 0.3782916751723E+00 -0.6719994717132E+00  0.0000000000000E+00
 0.5032223282799E+00 -0.6916719656231E+00  0.0000000000000E+00
 0.6271906632745E+00 -0.7167047467301E+00  0.0000000000000E+00
-0.7422338203668E+00 -0.1030186986488E+01  0.0000000000000E+00
-0.7136730888562E+00 -0.1312070331021E+01  0.0000000000000E+00
-0.6617742279509E+00 -0.1590646529104E+01  0.0000000000000E+00
-0.6098753663230E+00 -0.1869222727060E+01  0.0000000000000E+00
-0.5813146332022E+00 -0.2151106071433E+01  0.0000000000000E+00
 0.7422338203860E+00 -0.1030186986543E+01  0.0000000000000E+00
 0.7136730891148E+00 -0.1312070331158E+01  0.0000000000000E+00
 0.6617742292803E+00 -0.1590646529503E+01  0.0000000000000E+00
 0.6098753701687E+00 -0.1869222727976E+01  0.0000000000000E+00
 0.5813146405079E+00 -0.2151106072751E+01  0.0000000000000E+00
-0.9332588552688E+00 -0.5636583923516E+00  0.0000000000000E+00
-0.1116517710538E+01 -0.3803995389795E+00  0.0000000000000E+00
-0.1299776565806E+01 -0.1971406856075E+00  0.0000000000000E+00
-0.1483035421075E+01 -0.1388183223543E-01  0.0000000000000E+00
-0.1666294276344E+01  0.1693770211366E+00  0.0000000000000E+00
 0.9332588532634E+00 -0.5636583910870E+00  0.0000000000000E+00
 0.1116517706527E+01 -0.3803995364504E+00  0.0000000000000E+00
 0.1299776559790E+01 -0.1971406818138E+00  0.0000000000000E+00
 0.1483035413054E+01 -0.1388182717722E-01  0.0000000000000E+00
 0.1666294266317E+01  0.1693770274594E+00  0.0000000000000E+00
-0.1008418696358E+01 -0.5174995533681E+01  0.0000000000000E+00
-0.1008504059419E+01 -0.4954035621747E+01  0.0000000000000E+00
-0.1008589422501E+01 -0.4733075655355E+01  0.0000000000000E+00
-0.1008674785591E+01 -0.4512115669579E+01  0.0000000000000E+00
-0.1008760148671E+01 -0.4291155708563E+01  0.0000000000000E+00
-0.1008845511858E+01 -0.4070195468630E+01  0.0000000000000E+00
-0.1008930874780E+01 -0.3849235916673E+01  0.0000000000000E+00
-0.1009016237789E+01 -0.3628276139104E+01  0.0000000000000E+00
-0.1009134410119E+01 -0.3407316379703E+01  0.0000000000000E+00
-0.1010962189379E+01 -0.3186367864201E+01  0.0000000000000E+00
-0.1017824725572E+01 -0.2965541723007E+01  0.0000000000000E+00
-0.1031400675063E+01 -0.2745088798625E+01  0.0000000000000E+00
-0.9168000092861E+00 -0.5173280065568E+01  0.0000000000000E+00
-0.9169333519624E+00 -0.4950604684790E+01  0.0000000000000E+00
-0.9170666946716E+00 -0.4727929249131E+01  0.0000000000000E+00
-0.9172000373924E+00 -0.4505253793937E+01  0.0000000000000E+00
-0.9173333800983E+00 -0.4282578363696E+01  0.0000000000000E+00
-0.9174667229726E+00 -0.4059902652372E+01  0.0000000000000E+00
-0.9176000654316E+00 -0.3837227634365E+01  0.0000000000000E+00
-0.9177334080268E+00 -0.3614552388995E+01  0.0000000000000E+00
-0.9178965626411E+00 -0.3391877161911E+01  0.0000000000000E+00
-0.9196131422075E+00 -0.3169213201972E+01  0.0000000000000E+00
-0.9259045267972E+00 -0.2946671660912E+01  0.0000000000000E+00
-0.9382960197803E+00 -0.2724503358577E+01  0.0000000000000E+00
-0.8251466358527E+00 -0.5171719726705E+01  0.0000000000000E+00
-0.8252932717680E+00 -0.4947484006398E+01  0.0000000000000E+00
-0.8254399077194E+00 -0.4723248230826E+01  0.0000000000000E+00
-0.8255865436837E+00 -0.4499012435582E+01  0.0000000000000E+00
-0.8257331796315E+00 -0.4274776665466E+01  0.0000000000000E+00
-0.8258798157645E+00 -0.4050540612298E+01  0.0000000000000E+00
-0.8260264514408E+00 -0.3826305257304E+01  0.0000000000000E+00
-0.8261730872669E+00 -0.3602069673354E+01  0.0000000000000E+00
-0.8263465378149E+00 -0.3377834107799E+01  0.0000000000000E+00
-0.8279172318695E+00 -0.3153609830531E+01  0.0000000000000E+00
-0.8336027801269E+00 -0.2929508012684E+01  0.0000000000000E+00
-0.8447751325675E+00 -0.2705779453492E+01  0.0000000000000E+00
-0.7334614601943E+00 -0.5170317353111E+01  0.0000000000000E+00
-0.7335895871100E+00 -0.4944679258613E+01  0.0000000000000E+00
-0.7337177140572E+00 -0.4719041108504E+01  0.0000000000000E+00
-0.7338458410157E+00 -0.4493402938600E+01  0.0000000000000E+00
-0.7339739679598E+00 -0.4267764793981E+01  0.0000000000000E+00
-0.7341020950656E+00 -0.4042126364539E+01  0.0000000000000E+00
-0.7342302217725E+00 -0.3816488637639E+01  0.0000000000000E+00
-0.7343583486102E+00 -0.3590850680350E+01  0.0000000000000E+00
-0.7345102928754E+00 -0.3365212741553E+01  0.0000000000000E+00
-0.7359032996708E+00 -0.3139586110047E+01  0.0000000000000E+00
-0.7409512107864E+00 -0.2914081974396E+01  0.0000000000000E+00
-0.7508726224302E+00 -0.2688951115316E+01  0.0000000000000E+00
-0.6417475488614E+00 -0.5169075560868E+01  0.0000000000000E+00
-0.6418284310907E+00 -0.4942195673596E+01  0.0000000000000E+00
-0.6419093133398E+00 -0.4715315730408E+01  0.0000000000000E+00
-0.6419901955961E+00 -0.4488435767316E+01  0.0000000000000E+00
-0.6420710778433E+00 -0.4261555829648E+01  0.0000000000000E+00
-0.6421519601926E+00 -0.4034675605590E+01  0.0000000000000E+00
-0.6422328422901E+00 -0.3807796087940E+01  0.0000000000000E+00
-0.6423137244702E+00 -0.3580916338633E+01  0.0000000000000E+00
-0.6424154267858E+00 -0.3354036607903E+01  0.0000000000000E+00
-0.6436020110686E+00 -0.3127168201292E+01  0.0000000000000E+00
-0.6479835506072E+00 -0.2900422322801E+01  0.0000000000000E+00
-0.6566252874810E+00 -0.2674049736742E+01  0.0000000000000E+00
-0.5500081409821E+00 -0.5167996721569E+01  0.0000000000000E+00
-0.5500162819676E+00 -0.4940037994538E+01  0.0000000000000E+00
-0.5500244229551E+00 -0.4712079211325E+01  0.0000000000000E+00
-0.5500325639433E+00 -0.4484120408113E+01  0.0000000000000E+00
-0.5500407049307E+00 -0.4256161630447E+01  0.0000000000000E+00
-0.5500488459283E+00 -0.4028202565028E+01  0.0000000000000E+00
-0.5500569869005E+00 -0.3800244209376E+01  0.0000000000000E+00
-0.5500651278811E+00 -0.3572285620967E+01  0.0000000000000E+00
-0.5500910917080E+00 -0.3344327051208E+01  0.0000000000000E+00
-0.5510457573274E+00 -0.3116379820188E+01  0.0000000000000E+00
-0.5547354299265E+00 -0.2888555145317E+01  0.0000000000000E+00
-0.5620719971619E+00 -0.2661103776660E+01  0.0000000000000E+00
-0.4583733648668E+00 -0.5167097378162E+01  0.0000000000000E+00
-0.4584133964173E+00 -0.4938239307341E+01  0.0000000000000E+00
-0.4584534279776E+00 -0.4709381180116E+01  0.0000000000000E+00
-0.4584934595415E+00 -0.4480523032814E+01  0.0000000000000E+00
-0.4585334911009E+00 -0.4251664911157E+01  0.0000000000000E+00
-0.4585735227108E+00 -0.4022806500613E+01  0.0000000000000E+00
-0.4586135541961E+00 -0.3793948802636E+01  0.0000000000000E+00
-0.4586535857223E+00 -0.3565090870983E+01  0.0000000000000E+00
-0.4587084696169E+00 -0.3336232958043E+01  0.0000000000000E+00
-0.4595372711623E+00 -0.3107386396028E+01  0.0000000000000E+00
-0.4626452441553E+00 -0.2878662413530E+01  0.0000000000000E+00
-0.4687922953612E+00 -0.2650311748732E+01  0.0000000000000E+00
-0.3667205951635E+00 -0.5166359135273E+01  0.0000000000000E+00
-0.3667745236834E+00 -0.4936762821250E+01  0.0000000000000E+00
-0.3668284522165E+00 -0.4707166450639E+01  0.0000000000000E+00
-0.3668823807544E+00 -0.4477570059886E+01  0.0000000000000E+00
-0.3669363092862E+00 -0.4247973694863E+01  0.0000000000000E+00
-0.3669902378861E+00 -0.4018377040020E+01  0.0000000000000E+00
-0.3670441663181E+00 -0.3788781100042E+01  0.0000000000000E+00
-0.3670980948052E+00 -0.3559184925635E+01  0.0000000000000E+00
-0.3671639051849E+00 -0.3329588769992E+01  0.0000000000000E+00
-0.3678488493658E+00 -0.3100003975277E+01  0.0000000000000E+00
-0.3703571300716E+00 -0.2870541779260E+01  0.0000000000000E+00
-0.3752966729856E+00 -0.2641452910374E+01  0.0000000000000E+00
-0.2750532883462E+00 -0.5165783427771E+01  0.0000000000000E+00
-0.2751065767151E+00 -0.4935611405999E+01  0.0000000000000E+00
-0.2751598650971E+00 -0.4705439327499E+01  0.0000000000000E+00
-0.2752131534839E+00 -0.4475267228806E+01  0.0000000000000E+00
-0.2752664418646E+00 -0.4245095155906E+01  0.0000000000000E+00
-0.2753197303126E+00 -0.4014922792460E+01  0.0000000000000E+00
-0.2753730185947E+00 -0.3784751145673E+01  0.0000000000000E+00
-0.2754263069312E+00 -0.3554579263867E+01  0.0000000000000E+00
-0.2754885066858E+00 -0.3324407400866E+01  0.0000000000000E+00
-0.2760150565922E+00 -0.3094246906594E+01  0.0000000000000E+00
-0.2779091084884E+00 -0.2864209025978E+01  0.0000000000000E+00
-0.2816266067873E+00 -0.2634544479847E+01  0.0000000000000E+00
-0.1833749979742E+00 -0.5165371388459E+01  0.0000000000000E+00
-0.1834166626328E+00 -0.4934787327200E+01  0.0000000000000E+00
-0.1834583273017E+00 -0.4704203209110E+01  0.0000000000000E+00
-0.1834999919742E+00 -0.4473619070792E+01  0.0000000000000E+00
-0.1835416566421E+00 -0.4243034958313E+01  0.0000000000000E+00
-0.1835833213626E+00 -0.4012450554768E+01  0.0000000000000E+00
-0.1836249859533E+00 -0.3781866869165E+01  0.0000000000000E+00
-0.1836666505866E+00 -0.3551282948122E+01  0.0000000000000E+00
-0.1837142561645E+00 -0.3320699045912E+01  0.0000000000000E+00
-0.1840714284141E+00 -0.3090126518015E+01  0.0000000000000E+00
-0.1853402684639E+00 -0.2859676614480E+01  0.0000000000000E+00
-0.1878247393313E+00 -0.2629600050693E+01  0.0000000000000E+00
-0.9168934544193E-01 -0.5165123835198E+01  0.0000000000000E+00
-0.9171202422686E-01 -0.4934292220572E+01  0.0000000000000E+00
-0.9173470301738E-01 -0.4703460549055E+01  0.0000000000000E+00
-0.9175738180989E-01 -0.4472628857287E+01  0.0000000000000E+00
-0.9178006059986E-01 -0.4241797191387E+01  0.0000000000000E+00
-0.9180273941846E-01 -0.4010965234108E+01  0.0000000000000E+00
-0.9182541816644E-01 -0.3780133995541E+01  0.0000000000000E+00
-0.9184809693758E-01 -0.3549302521282E+01  0.0000000000000E+00
-0.9187374618062E-01 -0.3318471065873E+01  0.0000000000000E+00
-0.9205417872710E-01 -0.3087650988132E+01  0.0000000000000E+00
-0.9269044511122E-01 -0.2856953541183E+01  0.0000000000000E+00
-0.9393452686946E-01 -0.2626629437146E+01  0.0000000000000E+00
 0.4177630054583E-09 -0.5165041262319E+01  0.0000000000000E+00
 0.8355261512023E-09 -0.4934127074779E+01  0.0000000000000E+00
 0.1253289242504E-08 -0.4703212830328E+01  0.0000000000000E+00
 0.1671052232458E-08 -0.4472298565618E+01  0.0000000000000E+00
 0.2088815701957E-08 -0.4241384326785E+01  0.0000000000000E+00
 0.2506579543484E-08 -0.4010469796470E+01  0.0000000000000E+00
 0.2924341973333E-08 -0.3779555985123E+01  0.0000000000000E+00
 0.3342104727793E-08 -0.3548641938001E+01  0.0000000000000E+00
 0.3760390090311E-08 -0.3317727909734E+01  0.0000000000000E+00
 0.4190208219286E-08 -0.3086825260253E+01  0.0000000000000E+00
 0.4639581556105E-08 -0.2856045243711E+01  0.0000000000000E+00
 0.5098553427270E-08 -0.2625638571134E+01  0.0000000000000E+00
 0.9168934627724E-01 -0.5165123835217E+01  0.0000000000000E+00
 0.9171202589748E-01 -0.4934292220610E+01  0.0000000000000E+00
 0.9173470552332E-01 -0.4703460549112E+01  0.0000000000000E+00
 0.9175738515114E-01 -0.4472628857364E+01  0.0000000000000E+00
 0.9178006477642E-01 -0.4241797191482E+01  0.0000000000000E+00
 0.9180274443033E-01 -0.4010965234222E+01  0.0000000000000E+00
 0.9182542401363E-01 -0.3780133995675E+01  0.0000000000000E+00
 0.9184810362008E-01 -0.3549302521435E+01  0.0000000000000E+00
 0.9187375369948E-01 -0.3318471066045E+01  0.0000000000000E+00
 0.9205418710537E-01 -0.3087650988323E+01  0.0000000000000E+00
 0.9269045438803E-01 -0.2856953541394E+01  0.0000000000000E+00
 0.9393453706400E-01 -0.2626629437376E+01  0.0000000000000E+00
 0.1833749988089E+00 -0.5165371388497E+01  0.0000000000000E+00
 0.1834166643021E+00 -0.4934787327276E+01  0.0000000000000E+00
 0.1834583298057E+00 -0.4704203209225E+01  0.0000000000000E+00
 0.1834999953129E+00 -0.4473619070945E+01  0.0000000000000E+00
 0.1835416608155E+00 -0.4243034958504E+01  0.0000000000000E+00
 0.1835833263706E+00 -0.4012450554998E+01  0.0000000000000E+00
 0.1836249917960E+00 -0.3781866869432E+01  0.0000000000000E+00
 0.1836666572640E+00 -0.3551282948428E+01  0.0000000000000E+00
 0.1837142636776E+00 -0.3320699046256E+01  0.0000000000000E+00
 0.1840714367860E+00 -0.3090126518398E+01  0.0000000000000E+00
 0.1853402777337E+00 -0.2859676614900E+01  0.0000000000000E+00
 0.1878247495182E+00 -0.2629600051151E+01  0.0000000000000E+00
 0.2750532891798E+00 -0.5165783427828E+01  0.0000000000000E+00
 0.2751065783823E+00 -0.4935611406113E+01  0.0000000000000E+00
 0.2751598675980E+00 -0.4705439327670E+01  0.0000000000000E+00
 0.2752131568183E+00 -0.4475267229034E+01  0.0000000000000E+00
 0.2752664460327E+00 -0.4245095156192E+01  0.0000000000000E+00
 0.2753197353143E+00 -0.4014922792803E+01  0.0000000000000E+00
 0.2753730244300E+00 -0.3784751146073E+01  0.0000000000000E+00
 0.2754263136001E+00 -0.3554579264325E+01  0.0000000000000E+00
 0.2754885141894E+00 -0.3324407401381E+01  0.0000000000000E+00
 0.2760150649535E+00 -0.3094246907166E+01  0.0000000000000E+00
 0.2779091177465E+00 -0.2864209026608E+01  0.0000000000000E+00
 0.2816266169614E+00 -0.2634544480534E+01  0.0000000000000E+00
 0.3667205959957E+00 -0.5166359135350E+01  0.0000000000000E+00
 0.3667745253476E+00 -0.4936762821402E+01  0.0000000000000E+00
 0.3668284547129E+00 -0.4707166450868E+01  0.0000000000000E+00
 0.3668823840829E+00 -0.4477570060191E+01  0.0000000000000E+00
 0.3669363134469E+00 -0.4247973695243E+01  0.0000000000000E+00
 0.3669902428789E+00 -0.4018377040476E+01  0.0000000000000E+00
 0.3670441721430E+00 -0.3788781100575E+01  0.0000000000000E+00
 0.3670981014622E+00 -0.3559184926244E+01  0.0000000000000E+00
 0.3671639126752E+00 -0.3329588770677E+01  0.0000000000000E+00
 0.3678488577123E+00 -0.3100003976038E+01  0.0000000000000E+00
 0.3703571393134E+00 -0.2870541780097E+01  0.0000000000000E+00
 0.3752966831420E+00 -0.2641452911288E+01  0.0000000000000E+00
 0.4583733656970E+00 -0.5167097378257E+01  0.0000000000000E+00
 0.4584133980778E+00 -0.4938239307531E+01  0.0000000000000E+00
 0.4584534304684E+00 -0.4709381180401E+01  0.0000000000000E+00
 0.4584934628625E+00 -0.4480523033193E+01  0.0000000000000E+00
 0.4585334952521E+00 -0.4251664911631E+01  0.0000000000000E+00
 0.4585735276923E+00 -0.4022806501182E+01  0.0000000000000E+00
 0.4586135600078E+00 -0.3793948803301E+01  0.0000000000000E+00
 0.4586535923642E+00 -0.3565090871743E+01  0.0000000000000E+00
 0.4587084770901E+00 -0.3336232958898E+01  0.0000000000000E+00
 0.4595372794899E+00 -0.3107386396977E+01  0.0000000000000E+00
 0.4626452533764E+00 -0.2878662414574E+01  0.0000000000000E+00
 0.4687923054949E+00 -0.2650311749872E+01  0.0000000000000E+00
 0.5500081418100E+00 -0.5167996721682E+01  0.0000000000000E+00
 0.5500162836235E+00 -0.4940037994765E+01  0.0000000000000E+00
 0.5500244254390E+00 -0.4712079211666E+01  0.0000000000000E+00
 0.5500325672552E+00 -0.4484120408567E+01  0.0000000000000E+00
 0.5500407090705E+00 -0.4256161631014E+01  0.0000000000000E+00
 0.5500488508961E+00 -0.4028202565709E+01  0.0000000000000E+00
 0.5500569926963E+00 -0.3800244210171E+01  0.0000000000000E+00
 0.5500651345049E+00 -0.3572285621875E+01  0.0000000000000E+00
 0.5500910991607E+00 -0.3344327052230E+01  0.0000000000000E+00
 0.5510457656322E+00 -0.3116379821322E+01  0.0000000000000E+00
 0.5547354391225E+00 -0.2888555146566E+01  0.0000000000000E+00
 0.5620720072683E+00 -0.2661103778022E+01  0.0000000000000E+00
 0.6417475495491E+00 -0.5169075560978E+01  0.0000000000000E+00
 0.6418284324661E+00 -0.4942195673817E+01  0.0000000000000E+00
 0.6419093154030E+00 -0.4715315730739E+01  0.0000000000000E+00
 0.6419901983470E+00 -0.4488435767757E+01  0.0000000000000E+00
 0.6420710812819E+00 -0.4261555830199E+01  0.0000000000000E+00
 0.6421519643189E+00 -0.4034675606251E+01  0.0000000000000E+00
 0.6422328471041E+00 -0.3807796088711E+01  0.0000000000000E+00
 0.6423137299719E+00 -0.3580916339514E+01  0.0000000000000E+00
 0.6424154329763E+00 -0.3354036608895E+01  0.0000000000000E+00
 0.6436020179694E+00 -0.3127168202394E+01  0.0000000000000E+00
 0.6479835582528E+00 -0.2900422324013E+01  0.0000000000000E+00
 0.6566252958847E+00 -0.2674049738065E+01  0.0000000000000E+00
 0.7334614607425E+00 -0.5170317353212E+01  0.0000000000000E+00
 0.7335895882062E+00 -0.4944679258814E+01  0.0000000000000E+00
 0.7337177157015E+00 -0.4719041108805E+01  0.0000000000000E+00
 0.7338458432081E+00 -0.4493402939002E+01  0.0000000000000E+00
 0.7339739707003E+00 -0.4267764794483E+01  0.0000000000000E+00
 0.7341020983543E+00 -0.4042126365142E+01  0.0000000000000E+00
 0.7342302256093E+00 -0.3816488638342E+01  0.0000000000000E+00
 0.7343583529951E+00 -0.3590850681154E+01  0.0000000000000E+00
 0.7345102978095E+00 -0.3365212742457E+01  0.0000000000000E+00
 0.7359033051739E+00 -0.3139586111051E+01  0.0000000000000E+00
 0.7409512168888E+00 -0.2914081975502E+01  0.0000000000000E+00
 0.7508726291391E+00 -0.2688951116522E+01  0.0000000000000E+00
 0.8251466362621E+00 -0.5171719726789E+01  0.0000000000000E+00
 0.8252932725867E+00 -0.4947484006567E+01  0.0000000000000E+00
 0.8254399089475E+00 -0.4723248231080E+01  0.0000000000000E+00
 0.8255865453212E+00 -0.4499012435920E+01  0.0000000000000E+00
 0.8257331816784E+00 -0.4274776665888E+01  0.0000000000000E+00
 0.8258798182207E+00 -0.4050540612805E+01  0.0000000000000E+00
 0.8260264543064E+00 -0.3826305257896E+01  0.0000000000000E+00
 0.8261730905419E+00 -0.3602069674030E+01  0.0000000000000E+00
 0.8263465415001E+00 -0.3377834108559E+01  0.0000000000000E+00
 0.8279172359835E+00 -0.3153609831376E+01  0.0000000000000E+00
 0.8336027846954E+00 -0.2929508013613E+01  0.0000000000000E+00
 0.8447751375917E+00 -0.2705779454507E+01  0.0000000000000E+00
 0.9168000095578E+00 -0.5173280065631E+01  0.0000000000000E+00
 0.9169333525057E+00 -0.4950604684915E+01  0.0000000000000E+00
 0.9170666954865E+00 -0.4727929249318E+01  0.0000000000000E+00
 0.9172000384790E+00 -0.4505253794186E+01  0.0000000000000E+00
 0.9173333814566E+00 -0.4282578364008E+01  0.0000000000000E+00
 0.9174667246025E+00 -0.4059902652746E+01  0.0000000000000E+00
 0.9176000673332E+00 -0.3837227634802E+01  0.0000000000000E+00
 0.9177334102000E+00 -0.3614552389494E+01  0.0000000000000E+00
 0.9178965650869E+00 -0.3391877162473E+01  0.0000000000000E+00
 0.9196131449428E+00 -0.3169213202596E+01  0.0000000000000E+00
 0.9259045298433E+00 -0.2946671661599E+01  0.0000000000000E+00
 0.9382960231323E+00 -0.2724503359327E+01  0.0000000000000E+00
 0.1008418696493E+01 -0.5174995533715E+01  0.0000000000000E+00
 0.1008504059689E+01 -0.4954035621816E+01  0.0000000000000E+00
 0.1008589422906E+01 -0.4733075655458E+01  0.0000000000000E+00
 0.1008674786131E+01 -0.4512115669716E+01  0.0000000000000E+00
 0.1008760149346E+01 -0.4291155708735E+01  0.0000000000000E+00
 0.1008845512669E+01 -0.4070195468836E+01  0.0000000000000E+00
 0.1008930875726E+01 -0.3849235916913E+01  0.0000000000000E+00
 0.1009016238871E+01 -0.3628276139378E+01  0.0000000000000E+00
 0.1009134411336E+01 -0.3407316380011E+01  0.0000000000000E+00
 0.1010962190748E+01 -0.3186367864544E+01  0.0000000000000E+00
 0.1017824727109E+01 -0.2965541723384E+01  0.0000000000000E+00
 0.1031400676757E+01 -0.2745088799037E+01  0.0000000000000E+00
-0.4851541832137E+00 -0.2136327692227E+01  0.0000000000000E+00
-0.5092478388736E+00 -0.1851357818517E+01  0.0000000000000E+00
-0.5527899596612E+00 -0.1569694624955E+01  0.0000000000000E+00
-0.5963320797261E+00 -0.1288031431288E+01  0.0000000000000E+00
-0.6204257337759E+00 -0.1003061557444E+01  0.0000000000000E+00
-0.3886056197379E+00 -0.2124157865959E+01  0.0000000000000E+00
-0.4080780333230E+00 -0.1836615646818E+01  0.0000000000000E+00
-0.4431092360740E+00 -0.1552379719232E+01  0.0000000000000E+00
-0.4781404381023E+00 -0.1268143791561E+01  0.0000000000000E+00
-0.4976128500772E+00 -0.9806015723138E+00  0.0000000000000E+00
-0.2917391707853E+00 -0.2114642233498E+01  0.0000000000000E+00
-0.3064614663203E+00 -0.1825068835947E+01  0.0000000000000E+00
-0.3328528634846E+00 -0.1538801423106E+01  0.0000000000000E+00
-0.3592442599262E+00 -0.1252534010201E+01  0.0000000000000E+00
-0.3739665538510E+00 -0.9629606125699E+00  0.0000000000000E+00
-0.1946298160855E+00 -0.2107817834939E+01  0.0000000000000E+00
-0.2045018950950E+00 -0.1816776735913E+01  0.0000000000000E+00
-0.2221533797354E+00 -0.1529041399873E+01  0.0000000000000E+00
-0.2398048636531E+00 -0.1241306063791E+01  0.0000000000000E+00
-0.2496769410523E+00 -0.9502649647122E+00  0.0000000000000E+00
-0.9735629325945E-01 -0.2103712003981E+01  0.0000000000000E+00
-0.1023097103472E+00 -0.1811783379155E+01  0.0000000000000E+00
-0.1111528314768E+00 -0.1523160383234E+01  0.0000000000000E+00
-0.1199959518837E+00 -0.1234537387292E+01  0.0000000000000E+00
-0.1249493673612E+00 -0.9426087624397E+00  0.0000000000000E+00
 0.3693741610647E-08 -0.2102341509392E+01  0.0000000000000E+00
 0.1955577814375E-08 -0.1810115875173E+01  0.0000000000000E+00
 0.6892481014891E-09 -0.1521195824981E+01  0.0000000000000E+00
 0.1456733833455E-09 -0.1232275774790E+01  0.0000000000000E+00
 0.1778419517218E-10 -0.9400501405700E+00  0.0000000000000E+00
 0.9735630064462E-01 -0.2103712004203E+01  0.0000000000000E+00
 0.1023097142565E+00 -0.1811783379310E+01  0.0000000000000E+00
 0.1111528328539E+00 -0.1523160383302E+01  0.0000000000000E+00
 0.1199959521741E+00 -0.1234537387316E+01  0.0000000000000E+00
 0.1249493673963E+00 -0.9426087624494E+00  0.0000000000000E+00
 0.1946298234638E+00 -0.2107817835382E+01  0.0000000000000E+00
 0.2045018989987E+00 -0.1816776736222E+01  0.0000000000000E+00
 0.2221533811083E+00 -0.1529041400009E+01  0.0000000000000E+00
 0.2398048639408E+00 -0.1241306063839E+01  0.0000000000000E+00
 0.2496769410860E+00 -0.9502649647315E+00  0.0000000000000E+00
 0.2917391781520E+00 -0.2114642234163E+01  0.0000000000000E+00
 0.3064614702149E+00 -0.1825068836409E+01  0.0000000000000E+00
 0.3328528648507E+00 -0.1538801423309E+01  0.0000000000000E+00
 0.3592442602093E+00 -0.1252534010272E+01  0.0000000000000E+00
 0.3739665538824E+00 -0.9629606125987E+00  0.0000000000000E+00
 0.3886056270886E+00 -0.2124157866843E+01  0.0000000000000E+00
 0.4080780372047E+00 -0.1836615647433E+01  0.0000000000000E+00
 0.4431092374304E+00 -0.1552379719501E+01  0.0000000000000E+00
 0.4781404383790E+00 -0.1268143791655E+01  0.0000000000000E+00
 0.4976128501055E+00 -0.9806015723517E+00  0.0000000000000E+00
 0.4851541905440E+00 -0.2136327693329E+01  0.0000000000000E+00
 0.5092478427390E+00 -0.1851357819283E+01  0.0000000000000E+00
 0.5527899610054E+00 -0.1569694625290E+01  0.0000000000000E+00
 0.5963320799946E+00 -0.1288031431404E+01  0.0000000000000E+00
 0.6204257338001E+00 -0.1003061557491E+01  0.0000000000000E+00
-0.1133737314259E+01 -0.2052308622102E+01  0.0000000000000E+00
-0.1274486403702E+01 -0.1594564540690E+01  0.0000000000000E+00
-0.1510959349965E+01 -0.1179900931720E+01  0.0000000000000E+00
-0.1700331950920E+01 -0.7403017946010E+00  0.0000000000000E+00
-0.1789382244740E+01 -0.2696083795159E+00  0.0000000000000E+00
-0.1023938996184E+01 -0.2068652315303E+01  0.0000000000000E+00
-0.1142112258732E+01 -0.1646768068914E+01  0.0000000000000E+00
-0.1341532163024E+01 -0.1260009950269E+01  0.0000000000000E+00
-0.1503271849004E+01 -0.8533031361939E+00  0.0000000000000E+00
-0.1580086216045E+01 -0.4210587363028E+00  0.0000000000000E+00
-0.9137653881372E+00 -0.2086674438468E+01  0.0000000000000E+00
-0.1009438380911E+01 -0.1700312115893E+01  0.0000000000000E+00
-0.1171880838976E+01 -0.1341121419376E+01  0.0000000000000E+00
-0.1306063173532E+01 -0.9669689939217E+00  0.0000000000000E+00
-0.1370717093159E+01 -0.5728360351920E+00  0.0000000000000E+00
-0.8032476946747E+00 -0.2106405676464E+01  0.0000000000000E+00
-0.8764896918390E+00 -0.1755221189044E+01  0.0000000000000E+00
-0.1002024012244E+01 -0.1423253665411E+01  0.0000000000000E+00
-0.1108718275083E+01 -0.1081311516010E+01  0.0000000000000E+00
-0.1161280950892E+01 -0.7249462533666E+00  0.0000000000000E+00
-0.6924190942478E+00 -0.2127874334334E+01  0.0000000000000E+00
-0.7432926899379E+00 -0.1811517894989E+01  0.0000000000000E+00
-0.8319814974067E+00 -0.1506423593525E+01  0.0000000000000E+00
-0.9112502874979E+00 -0.1196341908649E+01  0.0000000000000E+00
-0.9517842502118E+00 -0.8773949044136E+00  0.0000000000000E+00
 0.6924191004027E+00 -0.2127874335219E+01  0.0000000000000E+00
 0.7432926934581E+00 -0.1811517895177E+01  0.0000000000000E+00
 0.8319814990929E+00 -0.1506423592942E+01  0.0000000000000E+00
 0.9112502881585E+00 -0.1196341907320E+01  0.0000000000000E+00
 0.9517842502851E+00 -0.8773949025109E+00  0.0000000000000E+00
 0.8032476996858E+00 -0.2106405676847E+01  0.0000000000000E+00
 0.8764896950395E+00 -0.1755221188447E+01  0.0000000000000E+00
 0.1002024014292E+01 -0.1423253663802E+01  0.0000000000000E+00
 0.1108718276148E+01 -0.1081311513186E+01  0.0000000000000E+00
 0.1161280951021E+01 -0.7249462494916E+00  0.0000000000000E+00
 0.9137653920139E+00 -0.2086674438280E+01  0.0000000000000E+00
 0.1009438383799E+01 -0.1700312114458E+01  0.0000000000000E+00
 0.1171880841391E+01 -0.1341121416702E+01  0.0000000000000E+00
 0.1306063175006E+01 -0.9669689895761E+00  0.0000000000000E+00
 0.1370717093346E+01 -0.5728360293306E+00  0.0000000000000E+00
 0.1023938998937E+01 -0.2068652314478E+01  0.0000000000000E+00
 0.1142112261317E+01 -0.1646768066588E+01  0.0000000000000E+00
 0.1341532165812E+01 -0.1260009946489E+01  0.0000000000000E+00
 0.1503271850892E+01 -0.8533031302991E+00  0.0000000000000E+00
 0.1580086216292E+01 -0.4210587284410E+00  0.0000000000000E+00
 0.1133737315902E+01 -0.2052308620576E+01  0.0000000000000E+00
 0.1274486405994E+01 -0.1594564537420E+01  0.0000000000000E+00
 0.1510959353135E+01 -0.1179900926795E+01  0.0000000000000E+00
 0.1700331953226E+01 -0.7403017871305E+00  0.0000000000000E+00
 0.1789382245050E+01 -0.2696083696401E+00  0.0000000000000E+00
-0.7797588899790E+00 -0.5279533396540E+00  0.0000000000000E+00
-0.9323271166835E+00 -0.3392019325780E+00  0.0000000000000E+00
-0.1084895343388E+01 -0.1504505255019E+00  0.0000000000000E+00
-0.1237463570092E+01  0.3830088157410E-01  0.0000000000000E+00
-0.1390031796797E+01  0.2270522886501E+00  0.0000000000000E+00
-0.6245708403589E+00 -0.5158025875882E+00  0.0000000000000E+00
-0.7459193524378E+00 -0.3399332095533E+00  0.0000000000000E+00
-0.8672678645167E+00 -0.1640638315184E+00  0.0000000000000E+00
-0.9886163765957E+00  0.1180554651654E-01  0.0000000000000E+00
-0.1109964888675E+01  0.1876749245514E+00  0.0000000000000E+00
-0.4705394525344E+00 -0.5164547192011E+00  0.0000000000000E+00
-0.5627872298964E+00 -0.3609099666891E+00  0.0000000000000E+00
-0.6550350072585E+00 -0.2053652141770E+00  0.0000000000000E+00
-0.7472827846206E+00 -0.4982046166492E-01  0.0000000000000E+00
-0.8395305619826E+00  0.1057242908471E+00  0.0000000000000E+00
-0.3152273819464E+00 -0.5195300842953E+00  0.0000000000000E+00
-0.3778371803457E+00 -0.3812243032654E+00  0.0000000000000E+00
-0.4404469787449E+00 -0.2429185222355E+00  0.0000000000000E+00
-0.5030567771442E+00 -0.1046127412057E+00  0.0000000000000E+00
-0.5656665755435E+00  0.3369303982424E-01  0.0000000000000E+00
-0.1580262025224E+00 -0.5208827547530E+00  0.0000000000000E+00
-0.1896153356333E+00 -0.3924735276847E+00  0.0000000000000E+00
-0.2212044687442E+00 -0.2640643006164E+00  0.0000000000000E+00
-0.2527936018551E+00 -0.1356550735481E+00  0.0000000000000E+00
-0.2843827349660E+00 -0.7245846479776E-02  0.0000000000000E+00
-0.1160084605072E-08 -0.5213561407017E+00  0.0000000000000E+00
-0.2320168846704E-08 -0.3962759828414E+00  0.0000000000000E+00
-0.3480252921803E-08 -0.2711958249811E+00  0.0000000000000E+00
-0.4640337052413E-08 -0.1461156671208E+00  0.0000000000000E+00
-0.5800421349557E-08 -0.2103550926056E-01  0.0000000000000E+00
 0.1580262002161E+00 -0.5208827549999E+00  0.0000000000000E+00
 0.1896153310207E+00 -0.3924735281785E+00  0.0000000000000E+00
 0.2212044618252E+00 -0.2640643013571E+00  0.0000000000000E+00
 0.2527935926298E+00 -0.1356550745356E+00  0.0000000000000E+00
 0.2843827234343E+00 -0.7245847714223E-02  0.0000000000000E+00
 0.3152273796822E+00 -0.5195300848035E+00  0.0000000000000E+00
 0.3778371758173E+00 -0.3812243042817E+00  0.0000000000000E+00
 0.4404469719524E+00 -0.2429185237599E+00  0.0000000000000E+00
 0.5030567680875E+00 -0.1046127432382E+00  0.0000000000000E+00
 0.5656665642226E+00  0.3369303728360E-01  0.0000000000000E+00
 0.4705394503514E+00 -0.5164547199851E+00  0.0000000000000E+00
 0.5627872255305E+00 -0.3609099682571E+00  0.0000000000000E+00
 0.6550350007097E+00 -0.2053652165290E+00  0.0000000000000E+00
 0.7472827758888E+00 -0.4982046480095E-01  0.0000000000000E+00
 0.8395305510679E+00  0.1057242869271E+00  0.0000000000000E+00
 0.6245708381267E+00 -0.5158025882231E+00  0.0000000000000E+00
 0.7459193479734E+00 -0.3399332108231E+00  0.0000000000000E+00
 0.8672678578201E+00 -0.1640638334231E+00  0.0000000000000E+00
 0.9886163676669E+00  0.1180554397689E-01  0.0000000000000E+00
 0.1109964877514E+01  0.1876749213769E+00  0.0000000000000E+00
 0.7797588876550E+00 -0.5279533396715E+00  0.0000000000000E+00
 0.9323271120354E+00 -0.3392019326130E+00  0.0000000000000E+00
 0.1084895336416E+01 -0.1504505255544E+00  0.0000000000000E+00
 0.1237463560796E+01  0.3830088150411E-01  0.0000000000000E+00
 0.1390031785177E+01  0.2270522885627E+00  0.0000000000000E+00
</DataArray>
</Points>
<Cells>
<DataArray type="Int64" Name="connectivity" format="ascii">
0 11 130 75
75 130 131 76
76 131 132 77
77 132 133 78
78 133 134 79
79 134 135 80
80 135 136 81
81 136 137 82
82 137 138 83
83 138 139 84
84 139 140 85
85 140 141 86
86 141 33 3
11 12 142 130
130 142 143 131
131 143 144 132
132 144 145 133
133 145 146 134
134 146 147 135
135 147 148 136
136 148 149 137
137 149 150 138
138 150 151 139
139 151 152 140
140 152 153 141
141 153 34 33
12 13 154 142
142 154 155 143
143 155 156 144
144 156 157 145
145 157 158 146
146 158 159 147
147 159 160 148
148 160 161 149
149 161 162 150
150 162 163 151
151 163 164 152
152 164 165 153
153 165 35 34
13 14 166 154
154 166 167 155
155 167 168 156
156 168 169 157
157 169 170 158
158 170 171 159
159 171 172 160
160 172 173 161
161 173 174 162
162 174 175 163
163 175 176 164
164 176 177 165
165 177 36 35
14 15 178 166
166 178 179 167
167 179 180 168
168 180 181 169
169 181 182 170
170 182 183 171
171 183 184 172
172 184 185 173
173 185 186 174
174 186 187 175
175 187 188 176
176 188 189 177
177 189 37 36
15 16 190 178
178 190 191 179
179 191 192 180
180 192 193 181
181 193 194 182
182 194 195 183
183 195 196 184
184 196 197 185
185 197 198 186
186 198 199 187
187 199 200 188
188 200 201 189
189 201 4 37
16 17 202 190
190 202 203 191
191 203 204 192
192 204 205 193
193 205 206 194
194 206 207 195
195 207 208 196
196 208 209 197
197 209 210 198
198 210 211 199
199 211 212 200
200 212 213 201
201 213 38 4
17 18 214 202
202 214 215 203
203 215 216 204
204 216 217 205
205 217 218 206
206 218 219 207
207 219 220 208
208 220 221 209
209 221 222 210
210 222 223 211
211 223 224 212
212 224 225 213
213 225 39 38
18 19 226 214
214 226 227 215
215 227 228 216
216 228 229 217
217 229 230 218
218 230 231 219
219 231 232 220
220 232 233 221
221 233 234 222
222 234 235 223
223 235 236 224
224 236 237 225
225 237 40 39
19 20 238 226
226 238 239 227
227 239 240 228
228 240 241 229
229 241 242 230
230 242 243 231
231 243 244 232
232 244 245 233
233 245 246 234
234 246 247 235
235 247 248 236
236 248 249 237
237 249 41 40
20 21 250 238
238 250 251 239
239 251 252 240
240 252 253 241
241 253 254 242
242 254 255 243
243 255 256 244
244 256 257 245
245 257 258 246
246 258 259 247
247 259 260 248
248 260 261 249
249 261 42 41
21 1 262 250
250 262 263 251
251 263 264 252
252 264 265 253
253 265 266 254
254 266 267 255
255 267 268 256
256 268 269 257
257 269 270 258
258 270 271 259
259 271 272 260
260 272 273 261
261 273 43 42
1 22 274 262
262 274 275 263
263 275 276 264
264 276 277 265
265 277 278 266
266 278 279 267
267 279 280 268
268 280 281 269
269 281 282 270
270 282 283 271
271 283 284 272
272 284 285 273
273 285 44 43
22 23 286 274
274 286 287 275
275 287 288 276
276 288 289 277
277 289 290 278
278 290 291 279
279 291 292 280
280 292 293 281
281 293 294 282
282 294 295 283
283 295 296 284
284 296 297 285
285 297 45 44
23 24 298 286
286 298 299 287
287 299 300 288
288 300 301 289
289 301 302 290
290 302 303 291
291 303 304 292
292 304 305 293
293 305 306 294
294 306 307 295
295 307 308 296
296 308 309 297
297 309 46 45
24 25 310 298
298 310 311 299
299 311 312 300
300 312 313 301
301 313 314 302
302 314 315 303
303 315 316 304
304 316 317 305
305 317 318 306
306 318 319 307
307 319 320 308
308 320 321 309
309 321 47 46
25 26 322 310
310 322 323 311
311 323 324 312
312 324 325 313
313 325 326 314
314 326 327 315
315 327 328 316
316 328 329 317
317 329 330 318
318 330 331 319
319 331 332 320
320 332 333 321
321 333 48 47
26 27 334 322
322 334 335 323
323 335 336 324
324 336 337 325
325 337 338 326
326 338 339 327
327 339 340 328
328 340 341 329
329 341 342 330
330 342 343 331
331 343 344 332
332 344 345 333
333 345 5 48
27 28 346 334
334 346 347 335
335 347 348 336
336 348 349 337
337 349 350 338
338 350 351 339
339 351 352 340
340 352 353 341
341 353 354 342
342 354 355 343
343 355 356 344
344 356 357 345
345 357 49 5
28 29 358 346
346 358 359 347
347 359 360 348
348 360 361 349
349 361 362 350
350 362 363 351
351 363 364 352
352 364 365 353
353 365 366 354
354 366 367 355
355 367 368 356
356 368 369 357
357 369 50 49
29 30 370 358
358 370 371 359
359 371 372 360
360 372 373 361
361 373 374 362
362 374 375 363
363 375 376 364
364 376 377 365
365 377 378 366
366 378 379 367
367 379 380 368
368 380 381 369
369 381 51 50
30 31 382 370
370 382 383 371
371 383 384 372
372 384 385 373
373 385 386 374
374 386 387 375
375 387 388 376
376 388 389 377
377 389 390 378
378 390 391 379
379 391 392 380
380 392 393 381
381 393 52 51
31 32 394 382
382 394 395 383
383 395 396 384
384 396 397 385
385 397 398 386
386 398 399 387
387 399 400 388
388 400 401 389
389 401 402 390
390 402 403 391
391 403 404 392
392 404 405 393
393 405 53 52
32 2 98 394
394 98 97 395
395 97 96 396
396 96 95 397
397 95 94 398
398 94 93 399
399 93 92 400
400 92 91 401
401 91 90 402
402 90 89 403
403 89 88 404
404 88 87 405
405 87 6 53
4 38 406 114
114 406 407 113
113 407 408 112
112 408 409 111
111 409 410 110
110 410 99 9
38 39 411 406
406 411 412 407
407 412 413 408
408 413 414 409
409 414 415 410
410 415 100 99
39 40 416 411
411 416 417 412
412 417 418 413
413 418 419 414
414 419 420 415
415 420 101 100
40 41 421 416
416 421 422 417
417 422 423 418
418 423 424 419
419 424 425 420
420 425 102 101
41 42 426 421
421 426 427 422
422 427 428 423
423 428 429 424
424 429 430 425
425 430 103 102
42 43 431 426
426 431 432 427
427 432 433 428
428 433 434 429
429 434 435 430
430 435 104 103
43 44 436 431
431 436 437 432
432 437 438 433
433 438 439 434
434 439 440 435
435 440 105 104
44 45 441 436
436 441 442 437
437 442 443 438
438 443 444 439
439 444 445 440
440 445 106 105
45 46 446 441
441 446 447 442
442 447 448 443
443 448 449 444
444 449 450 445
445 450 107 106
46 47 451 446
446 451 452 447
447 452 453 448
448 453 454 449
449 454 455 450
450 455 108 107
47 48 456 451
451 456 457 452
452 457 458 453
453 458 459 454
454 459 460 455
455 460 109 108
48 5 119 456
456 119 118 457
457 118 117 458
458 117 116 459
459 116 115 460
460 115 10 109
3 33 461 54
54 461 462 55
55 462 463 56
56 463 464 57
57 464 465 58
58 465 124 7
33 34 466 461
461 466 467 462
462 467 468 463
463 468 469 464
464 469 470 465
465 470 123 124
34 35 471 466
466 471 472 467
467 472 473 468
468 473 474 469
469 474 475 470
470 475 122 123
35 36 476 471
471 476 477 472
472 477 478 473
473 478 479 474
474 479 480 475
475 480 121 122
36 37 481 476
476 481 482 477
477 482 483 478
478 483 484 479
479 484 485 480
480 485 120 121
37 4 114 481
481 114 113 482
482 113 112 483
483 112 111 484
484 111 110 485
485 110 9 120
5 49 486 119
119 486 487 118
118 487 488 117
117 488 489 116
116 489 490 115
115 490 125 10
49 50 491 486
486 491 492 487
487 492 493 488
488 493 494 489
489 494 495 490
490 495 126 125
50 51 496 491
491 496 497 492
492 497 498 493
493 498 499 494
494 499 500 495
495 500 127 126
51 52 501 496
496 501 502 497
497 502 503 498
498 503 504 499
499 504 505 500
500 505 128 127
52 53 506 501
501 506 507 502
502 507 508 503
503 508 509 504
504 509 510 505
505 510 129 128
53 6 74 506
506 74 73 507
507 73 72 508
508 72 71 509
509 71 70 510
510 70 8 129
9 99 511 120
120 511 512 121
121 512 513 122
122 513 514 123
123 514 515 124
124 515 59 7
99 100 516 511
511 516 517 512
512 517 518 513
513 518 519 514
514 519 520 515
515 520 60 59
100 101 521 516
516 521 522 517
517 522 523 518
518 523 524 519
519 524 525 520
520 525 61 60
101 102 526 521
521 526 527 522
522 527 528 523
523 528 529 524
524 529 530 525
525 530 62 61
102 103 531 526
526 531 532 527
527 532 533 528
528 533 534 529
529 534 535 530
530 535 63 62
103 104 536 531
531 536 537 532
532 537 538 533
533 538 539 534
534 539 540 535
535 540 64 63
104 105 541 536
536 541 542 537
537 542 543 538
538 543 544 539
539 544 545 540
540 545 65 64
105 106 546 541
541 546 547 542
542 547 548 543
543 548 549 544
544 549 550 545
545 550 66 65
106 107 551 546
546 551 552 547
547 552 553 548
548 553 554 549
549 554 555 550
550 555 67 66
107 108 556 551
551 556 557 552
552 557 558 553
553 558 559 554
554 559 560 555
555 560 68 67
108 109 561 556
556 561 562 557
557 562 563 558
558 563 564 559
559 564 565 560
560 565 69 68
109 10 125 561
561 125 126 562
562 126 127 563
563 127 128 564
564 128 129 565
565 129 8 69
</DataArray>
<DataArray type="Int64" Name="offsets" format="ascii">
4
8
12
16
20
24
28
32
36
40
44
48
52
56
60
64
68
72
76
80
84
88
92
96
100
104
108
112
116
120
124
128
132
136
140
144
148
152
156
160
164
168
172
176
180
184
188
192
196
200
204
208
212
216
220
224
228
232
236
240
244
248
252
256
260
264
268
272
276
280
284
288
292
296
300
304
308
312
316
320
324
328
332
336
340
344
348
352
356
360
364
368
372
376
380
384
388
392
396
400
404
408
412
416
420
424
428
432
436
440
444
448
452
456
460
464
468
472
476
480
484
488
492
496
500
504
508
512
516
520
524
528
532
536
540
544
548
552
556
560
564
568
572
576
580
584
588
592
596
600
604
608
612
616
620
624
628
632
636
640
644
648
652
656
660
664
668
672
676
680
684
688
692
696
700
704
708
712
716
720
724
728
732
736
740
744
748
752
756
760
764
768
772
776
780
784
788
792
796
800
804
808
812
816
820
824
828
832
836
840
844
848
852
856
860
864
868
872
876
880
884
888
892
896
900
904
908
912
916
920
924
928
932
936
940
944
948
952
956
960
964
968
972
976
980
984
988
992
996
1000
1004
1008
1012
1016
1020
1024
1028
1032
1036
1040
1044
1048
1052
1056
1060
1064
1068
1072
1076
1080
1084
1088
1092
1096
1100
1104
1108
1112
1116
1120
1124
1128
1132
1136
1140
1144
1148
1152
1156
1160
1164
1168
1172
1176
1180
1184
1188
1192
1196
1200
1204
1208
1212
1216
1220
1224
1228
1232
1236
1240
1244
1248
1252
1256
1260
1264
1268
1272
1276
1280
1284
1288
1292
1296
1300
1304
1308
1312
1316
1320
1324
1328
1332
1336
1340
1344
1348
1352
1356
1360
1364
1368
1372
1376
1380
1384
1388
1392
1396
1400
1404
1408
1412
1416
1420
1424
1428
1432
1436
1440
1444
1448
1452
1456
1460
1464
1468
1472
1476
1480
1484
1488
1492
1496
1500
1504
1508
1512
1516
1520
1524
1528
1532
1536
1540
1544
1548
1552
1556
1560
1564
1568
1572
1576
1580
1584
1588
1592
1596
1600
1604
1608
1612
1616
1620
1624
1628
1632
1636
1640
1644
1648
1652
1656
1660
1664
1668
1672
1676
1680
1684
1688
1692
1696
1700
1704
1708
1712
1716
1720
1724
1728
1732
1736
1740
1744
1748
1752
1756
1760
1764
1768
1772
1776
1780
1784
1788
1792
1796
1800
1804
1808
1812
1816
1820
1824
1828
1832
1836
1840
1844
1848
1852
1856
1860
1864
1868
1872
1876
1880
1884
1888
1892
1896
1900
1904
1908
1912
1916
1920
1924
1928
1932
1936
1940
1944
1948
1952
1956
1960
1964
1968
1972
1976
1980
1984
1988
1992
1996
2000
2004
2008
2012
2016
2020
2024
2028
2032
2036
2040
2044
2048
2052
2056
2060
2064
2068
2072
2076
2080
2084
2088
2092
2096
2100
2104
2108
2112
</DataArray>
<DataArray type="Int64" Name="types" format="ascii">
9
9
9
9
9
9
9
9
9
9
9
9
9
9
9
9
9
9
9
9
9
9
9
9
9
9
9
9
9
9
9
9
9
9
9
9
9
9
9
9
9
9
9
9
9
9
9
9
9
9
9
9
9
9
9
9
9
9
9
9
9
9
9
9
9
9
9
9
9
9
9
9
9
9
9
9
9
9
9
9
9
9
9
9
9
9
9
9
9
9
9
9
9
9
9
9
9
9
9
9
9
9
9
9
9
9
9
9
9
9
9
9
9
9
9
9
9
9
9
9
9
9
9
9
9
9
9
9
9
9
9
9
9
9
9
9
9
9
9
9
9
9
9
9
9
9
9
9
9
9
9
9
9
9
9
9
9
9
9
9
9
9
9
9
9
9
9
9
9
9
9
9
9
9
9
9
9
9
9
9
9
9
9
9
9
9
9
9
9
9
9
9
9
9
9
9
9
9
9
9
9
9
9
9
9
9
9
9
9
9
9
9
9
9
9
9
9
9
9
9
9
9
9
9
9
9
9
9
9
9
9
9
9
9
9
9
9
9
9
9
9
9
9
9
9
9
9
9
9
9
9
9
9
9
9
9
9
9
9
9
9
9
9
9
9
9
9
9
9
9
9
9
9
9
9
9
9
9
9
9
9
9
9
9
9
9
9
9
9
9
9
9
9
9
9
9
9
9
9
9
9
9
9
9
9
9
9
9
9
9
9
9
9
9
9
9
9
9
9
9
9
9
9
9
9
9
9
9
9
9
9
9
9
9
9
9
9
9
9
9
9
9
9
9
9
9
9
9
9
9
9
9
9
9
9
9
9
9
9
9
9
9
9
9
9
9
9
9
9
9
9
9
9
9
9
9
9
9
9
9
9
9
9
9
9
9
9
9
9
9
9
9
9
9
9
9
9
9
9
9
9
9
9
9
9
9
9
9
9
9
9
9
9
9
9
9
9
9
9
9
9
9
9
9
9
9
9
9
9
9
9
9
9
9
9
9
9
9
9
9
9
9
9
9
9
9
9
9
9
9
9
9
9
9
9
9
9
9
9
9
9
9
9
9
9
9
9
9
9
9
9
9
9
9
9
9
9
9
9
9
9
9
9
9
9
9
9
9
9
9
9
9
9
9
9
9
9
9
9
9
9
9
9
9
9
9
9
9
9
9
9
9
9
9
9
9
9
9
9
9
9
9
9
9
9
9
9
9
</DataArray>
</Cells>
<PointData Vectors="'U'">
<DataArray type="Float64" Name="U" NumberOfComponents="2" ComponentName0="U1" ComponentName1="U2" format="ascii">
 0.3770934987959E-35  0.7803521540770E-36
 0.1049231780647E-43  0.6009527958209E-36
-0.3770934962840E-35  0.7803522166780E-36
-0.6537094673912E+00  0.9087486800554E+00
 0.1501763052537E+00  0.2910946487601E+00
-0.1501762910634E+00  0.2910946493508E+00
 0.6537094933819E+00  0.9087486684768E+00
-0.9201584822481E+01 -0.1162020761013E+02
 0.9201584525015E+01 -0.1162020753285E+02
-0.9550234532495E+01 -0.1477253843215E+02
 0.9550234402448E+01 -0.1477253837568E+02
 0.3875672074661E-36 -0.2639997716835E-35
-0.1057362937556E-35 -0.2015757446573E-35
-0.1511177081392E-35 -0.1323852428186E-35
-0.1528563867524E-35 -0.7435396896963E-36
-0.1369571553529E-35 -0.3033245370014E-36
-0.1152646344024E-35  0.1449221619369E-37
-0.9282357068718E-36  0.2374805734803E-36
-0.7156516406127E-36  0.3899149757968E-36
-0.5193339804148E-36  0.4911865476975E-36
-0.3375593186866E-36  0.5548813365468E-36
-0.1661330571755E-36  0.5898291488696E-36
 0.1661330778844E-36  0.5898291453068E-36
 0.3375593385339E-36  0.5548813294153E-36
 0.5193339987061E-36  0.4911865370079E-36
 0.7156516564511E-36  0.3899149616296E-36
 0.9282357190336E-36  0.2374805560939E-36
 0.1152646350731E-35  0.1449219643717E-37
 0.1369571552783E-35 -0.3033245581680E-36
 0.1528563856346E-35 -0.7435397098823E-36
 0.1511177056462E-35 -0.1323852443134E-35
 0.1057362896531E-35 -0.2015757448865E-35
-0.3875672611377E-36 -0.2639997694206E-35
-0.3076583744230E+00  0.1104098381550E+01
 0.2461006347634E-01  0.1109496263806E+01
 0.2719400149361E+00  0.9556968776118E+00
 0.3788564820143E+00  0.7099349837825E+00
 0.3282762216188E+00  0.4603808394431E+00
-0.8242473918585E-01  0.2554030382025E+00
-0.2876558053927E+00  0.3564941578667E+00
-0.3960554178039E+00  0.5549744760610E+00
-0.3716115820084E+00  0.7808204628952E+00
-0.2229801112989E+00  0.9565303707097E+00
 0.2563127503492E-07  0.1022523410115E+01
 0.2229801594305E+00  0.9565303592490E+00
 0.3716116217643E+00  0.7808204433944E+00
 0.3960554466670E+00  0.5549744542568E+00
 0.2876558244163E+00  0.3564941399510E+00
 0.8242475269074E-01  0.2554030287921E+00
-0.3282761983374E+00  0.4603808443888E+00
-0.3788564499809E+00  0.7099349862895E+00
-0.2719399782682E+00  0.9556968734232E+00
-0.2461002748792E-01  0.1109496252799E+01
 0.3076584058998E+00  0.1104098367394E+01
-0.9584334636739E+01 -0.5428999621927E+01
-0.1211161393366E+02 -0.9414518278203E+01
-0.1356413358878E+02 -0.1160598040972E+02
-0.1364392146102E+02 -0.1181204785067E+02
-0.1207445385019E+02 -0.1126576185005E+02
-0.8342901034086E+01 -0.1337471914493E+02
-0.8156688277241E+01 -0.1556938417832E+02
-0.7966312084220E+01 -0.1883847547956E+02
-0.6268066219211E+01 -0.2495106184342E+02
-0.3077215892127E+01 -0.3277028551170E+02
-0.1514582283784E-06 -0.3638650779070E+02
 0.3077215559362E+01 -0.3277028576038E+02
 0.6268065888533E+01 -0.2495106208973E+02
 0.7966311826285E+01 -0.1883847557110E+02
 0.8156688045286E+01 -0.1556938417763E+02
 0.8342900783038E+01 -0.1337471910409E+02
 0.1207445360223E+02 -0.1126576169691E+02
 0.1364392128240E+02 -0.1181204769986E+02
 0.1356413347540E+02 -0.1160598029664E+02
 0.1211161386837E+02 -0.9414518214111E+01
 0.9584334620780E+01 -0.5428999594692E+01
 0.7679459980434E-01 -0.2743057747485E+00
-0.4267252801544E+00 -0.5137426763159E+00
-0.9776164212064E+00 -0.3534646848525E-01
-0.7946271100268E+00  0.7198170665593E+00
-0.9142111213982E-01  0.8549991416491E+00
 0.2003409225776E+00  0.2940052305605E+00
-0.2906115402924E+00 -0.1011942541148E+00
-0.8726683288633E+00  0.2928767338693E+00
-0.7435813562891E+00  0.1023746503490E+01
-0.7581368901039E-01  0.1205401271990E+01
 0.2517673938059E+00  0.7356981335769E+00
-0.1341680365098E+00  0.4329697147313E+00
 0.1341680627128E+00  0.4329697018728E+00
-0.2517673684782E+00  0.7356981201768E+00
 0.7581371283050E-01  0.1205401256169E+01
 0.7435813745295E+00  0.1023746484224E+01
 0.8726683381144E+00  0.2928767162495E+00
 0.2906115452841E+00 -0.1011942636337E+00
-0.2003409126794E+00  0.2940052263738E+00
 0.9142112727533E-01  0.8549991319195E+00
 0.7946271190790E+00  0.7198170473050E+00
 0.9776164162673E+00 -0.3534648683064E-01
 0.4267252688920E+00 -0.5137426823603E+00
-0.7679460467432E-01 -0.2743057723322E+00
-0.8509736974884E+01 -0.1607041898292E+02
-0.7294710706040E+01 -0.1752116068670E+02
-0.5839066439992E+01 -0.1899070935002E+02
-0.4114228870892E+01 -0.2030735635139E+02
-0.2136866743911E+01 -0.2126783686461E+02
-0.6532024682868E-07 -0.2163214893356E+02
 0.2136866614331E+01 -0.2126783685888E+02
 0.4114228743359E+01 -0.2030735633536E+02
 0.5839066313509E+01 -0.1899070932374E+02
 0.7294710579292E+01 -0.1752116065072E+02
 0.8509736846772E+01 -0.1607041893708E+02
-0.9247558588920E+01 -0.1211361984931E+02
-0.8499028710869E+01 -0.9389866929770E+01
-0.7211722034838E+01 -0.6535740277308E+01
-0.5498054961674E+01 -0.3617041547913E+01
-0.3335842626174E+01 -0.1046840083795E+01
 0.9247558480063E+01 -0.1211361980420E+02
 0.8499028634513E+01 -0.9389866896760E+01
 0.7211721996110E+01 -0.6535740256837E+01
 0.5498054963914E+01 -0.3617041539984E+01
 0.3335842656989E+01 -0.1046840088677E+01
-0.1098509778570E+02 -0.1494275978121E+02
-0.1174035997467E+02 -0.1458242474684E+02
-0.1179411530568E+02 -0.1391251559024E+02
-0.1126862931391E+02 -0.1313896727619E+02
-0.1035416532762E+02 -0.1238353294539E+02
 0.1098509762432E+02 -0.1494275972396E+02
 0.1174035978426E+02 -0.1458242468568E+02
 0.1179411508683E+02 -0.1391251552291E+02
 0.1126862906708E+02 -0.1313896720266E+02
 0.1035416505516E+02 -0.1238353286847E+02
-0.5898208880715E-01 -0.2056757893787E+00
-0.3811446972632E+00 -0.2869608410211E+00
-0.6822850350488E+00  0.5705298993519E-01
-0.5668062574429E+00  0.5465671147000E+00
-0.1778443785826E+00  0.6391054708636E+00
-0.3393623711837E-01  0.3176223196831E+00
-0.3134985700781E+00  0.1259084108994E+00
-0.6109325362653E+00  0.4195448865956E+00
-0.5006979079241E+00  0.8838275481685E+00
-0.1182691703980E+00  0.9871189078463E+00
 0.6055247644148E-01  0.7258792272934E+00
-0.1027935360139E+00  0.6102495542839E+00
-0.1074156318591E+00 -0.1369992429329E+00
-0.3246803537666E+00 -0.1462908780784E+00
-0.4979839970775E+00  0.1081233455109E+00
-0.4299739410448E+00  0.4359082045246E+00
-0.2164110590834E+00  0.5114778488771E+00
-0.1446692459601E+00  0.3413729104927E+00
-0.2991943753643E+00  0.2652173425692E+00
-0.4460918918319E+00  0.4840216839869E+00
-0.3612319154740E+00  0.7862130146553E+00
-0.1351773240887E+00  0.8568950547702E+00
-0.1662836262738E-01  0.7208155659202E+00
-0.4472010771432E-01  0.6985904450547E+00
-0.1160890024411E+00 -0.8118339929517E-01
-0.2700462943846E+00 -0.5634824611270E-01
-0.3772162856923E+00  0.1365541408571E+00
-0.3411090391440E+00  0.3661083734721E+00
-0.2250893249383E+00  0.4362766967060E+00
-0.1883910605159E+00  0.3606261513011E+00
-0.2705903939543E+00  0.3492938437630E+00
-0.3387975178460E+00  0.5151059047326E+00
-0.2750695140779E+00  0.7195212372748E+00
-0.1340254330571E+00  0.7765355206836E+00
-0.4145369277682E-01  0.7124558925192E+00
 0.1407106524764E-01  0.7196845467846E+00
-0.1078434886169E+00 -0.3938366026445E-01
-0.2215492530439E+00  0.2203103186733E-02
-0.2935330668427E+00  0.1529589715214E+00
-0.2778348179152E+00  0.3225737677494E+00
-0.2159100853104E+00  0.3920297136375E+00
-0.1962831810911E+00  0.3745968126106E+00
-0.2375717660545E+00  0.3991595989807E+00
-0.2652413638228E+00  0.5286685084614E+00
-0.2169206794925E+00  0.6739956937412E+00
-0.1232965071171E+00  0.7246211748048E+00
-0.4535029769768E-01  0.6989001920250E+00
 0.4921344467079E-01  0.6963764945491E+00
-0.9337855718511E-01 -0.9334394548282E-02
-0.1798649394971E+00  0.4078122386926E-01
-0.2319885199703E+00  0.1629751851928E+00
-0.2285886433593E+00  0.2957432134622E+00
-0.1965328480588E+00  0.3659751314376E+00
-0.1853702039321E+00  0.3839925692218E+00
-0.2041134150167E+00  0.4281320911035E+00
-0.2114460192459E+00  0.5332585224540E+00
-0.1741592167222E+00  0.6425471638379E+00
-0.1088054238125E+00  0.6892863531753E+00
-0.4459107026808E-01  0.6818290460401E+00
 0.4847767930884E-01  0.6532978588521E+00
-0.7747740488259E-01  0.1176438940631E-01
-0.1442681331481E+00  0.6641893807409E-01
-0.1840033945597E+00  0.1694989514932E+00
-0.1873706301754E+00  0.2794269655992E+00
-0.1716483842622E+00  0.3505892486620E+00
-0.1648483948345E+00  0.3899178400649E+00
-0.1716212025857E+00  0.4445186267806E+00
-0.1693475241883E+00  0.5334365639333E+00
-0.1403175385416E+00  0.6204251979612E+00
-0.9370575642047E-01  0.6641236979427E+00
-0.4583707287096E-01  0.6645509670795E+00
 0.1469109576019E-01  0.6133006674368E+00
-0.6209861761972E-01  0.2632207873128E-01
-0.1136971262942E+00  0.8349419562540E-01
-0.1446953621841E+00  0.1739600488704E+00
-0.1511980646565E+00  0.2696801688285E+00
-0.1442205130741E+00  0.3415030105339E+00
-0.1398398553162E+00  0.3933897714594E+00
-0.1407321011370E+00  0.4533703795876E+00
-0.1346537664467E+00  0.5316462901209E+00
-0.1122124012583E+00  0.6047565527100E+00
-0.7928963952416E-01  0.6459817119300E+00
-0.4931064455223E-01  0.6504965841267E+00
-0.3578772776947E-01  0.5928293576839E+00
-0.4785183057899E-01  0.3621979405167E-01
-0.8693023026971E-01  0.9489462606974E-01
-0.1108465597030E+00  0.1771431218470E+00
-0.1180949173234E+00  0.2639347679983E+00
-0.1156148106947E+00  0.3360753394054E+00
-0.1127121387297E+00  0.3952983298997E+00
-0.1110673606849E+00  0.4579701983254E+00
-0.1042022470753E+00  0.5292145961759E+00
-0.8734481502180E-01  0.5934464966814E+00
-0.6514109328708E-01  0.6327531299148E+00
-0.5175036137197E-01  0.6412815267445E+00
-0.8301717223853E-01  0.5971257761338E+00
-0.3476764726740E-01  0.4278381045026E-01
-0.6296702625948E-01  0.1023916711569E+00
-0.8056188615840E-01  0.1794078007562E+00
-0.8703298518978E-01  0.2606315714925E+00
-0.8663696127523E-01  0.3328487272172E+00
-0.8473134746896E-01  0.3962531439713E+00
-0.8241552489023E-01  0.4601830389444E+00
-0.7638212175892E-01  0.5268449157054E+00
-0.6440942430292E-01  0.5854140358066E+00
-0.5051548311372E-01  0.6234454212389E+00
-0.4925913694166E-01  0.6370208562121E+00
-0.1078123766182E+00  0.6221824614205E+00
-0.2263450928571E-01  0.4691474577666E-01
-0.4095868961861E-01  0.1070979682392E+00
-0.5257287055915E-01  0.1809374704171E+00
-0.5732725584970E-01  0.2588129913285E+00
-0.5765561921071E-01  0.3309862764167E+00
-0.5649310987399E-01  0.3966735473301E+00
-0.5452474469586E-01  0.4611343478215E+00
-0.5016965401162E-01  0.5249361853414E+00
-0.4253510760616E-01  0.5800245079914E+00
-0.3478201928596E-01  0.6173556676275E+00
-0.3927658727080E-01  0.6363579537575E+00
-0.9952677292458E-01  0.6561627087789E+00
-0.1115325124145E-01  0.4918443215885E-01
-0.2018211949248E-01  0.1096845592373E+00
-0.2596220662812E-01  0.1818258037087E+00
-0.2846159971716E-01  0.2579161150860E+00
-0.2878489858525E-01  0.3300226861631E+00
-0.2823259449668E-01  0.3968275747869E+00
-0.2713744599253E-01  0.4614795896553E+00
-0.2487623820513E-01  0.5237140083759E+00
-0.2117146536810E-01  0.5769147677440E+00
-0.1779807200694E-01  0.6139458494934E+00
-0.2190920010347E-01  0.6371964975920E+00
-0.5941548535033E-01  0.6844714468535E+00
 0.7925461261898E-09  0.4990758545689E-01
 0.1724928929715E-08  0.1105093287006E+00
 0.2808208098782E-08  0.1821174887540E+00
 0.4007809652228E-08  0.2576474426251E+00
 0.5288044301630E-08  0.3297250117262E+00
 0.6636223914600E-08  0.3968631918078E+00
 0.8042206474489E-08  0.4615595126660E+00
 0.9472244437828E-08  0.5232946250755E+00
 0.1088621026221E-07  0.5758974975966E+00
 0.1230515777506E-07  0.6128527929024E+00
 0.1397149202928E-07  0.6377140749304E+00
 0.1698337548530E-07  0.6953924859699E+00
 0.1115325280921E-01  0.4918443186567E-01
 0.2018212291896E-01  0.1096845586615E+00
 0.2596221222479E-01  0.1818258029337E+00
 0.2846160771655E-01  0.2579161142129E+00
 0.2878490914315E-01  0.3300226852247E+00
 0.2823260774932E-01  0.3968275737572E+00
 0.2713746206273E-01  0.4614795885441E+00
 0.2487625714385E-01  0.5237140072591E+00
 0.2117148713376E-01  0.5769147666827E+00
 0.1779809658229E-01  0.6139458484599E+00
 0.2190922788000E-01  0.6371964963714E+00
 0.5941551856384E-01  0.6844714441366E+00
 0.2263451079958E-01  0.4691474518730E-01
 0.4095869297317E-01  0.1070979670760E+00
 0.5257287609676E-01  0.1809374688536E+00
 0.5732726380176E-01  0.2588129895799E+00
 0.5765562971386E-01  0.3309862745473E+00
 0.5649312306525E-01  0.3966735452715E+00
 0.5452476072260E-01  0.4611343455874E+00
 0.5016967293492E-01  0.5249361830986E+00
 0.4253512935521E-01  0.5800245058729E+00
 0.3478204376771E-01  0.6173556655752E+00
 0.3927661460527E-01  0.6363579514031E+00
 0.9952680413601E-01  0.6561627039672E+00
 0.3476764868469E-01  0.4278380955956E-01
 0.6296702948767E-01  0.1023916693824E+00
 0.8056189159845E-01  0.1794077983754E+00
 0.8703299306804E-01  0.2606315688641E+00
 0.8663697168652E-01  0.3328487244343E+00
 0.8473136055064E-01  0.3962531408863E+00
 0.8241554084136E-01  0.4601830355618E+00
 0.7638214066338E-01  0.5268449123163E+00
 0.6440944603632E-01  0.5854140326410E+00
 0.5051550747191E-01  0.6234454181955E+00
 0.4925916370816E-01  0.6370208528585E+00
 0.1078124052641E+00  0.6221824555282E+00
 0.4785183184549E-01  0.3621979285444E-01
 0.8693023330566E-01  0.9489462364620E-01
 0.1108465650089E+00  0.1771431185994E+00
 0.1180949251116E+00  0.2639347644836E+00
 0.1156148209765E+00  0.3360753357433E+00
 0.1127121516397E+00  0.3952983257957E+00
 0.1110673765218E+00  0.4579701937483E+00
 0.1042022659699E+00  0.5292145916028E+00
 0.8734483675857E-01  0.5934464924886E+00
 0.6514111752405E-01  0.6327531259210E+00
 0.5175038762714E-01  0.6412815225102E+00
 0.8301719863462E-01  0.5971257701868E+00
 0.6209861866193E-01  0.2632207722690E-01
 0.1136971290519E+00  0.8349419249838E-01
 0.1446953673231E+00  0.1739600446771E+00
 0.1511980723586E+00  0.2696801644186E+00
 0.1442205231889E+00  0.3415030060553E+00
 0.1398398679660E+00  0.3933897663546E+00
 0.1407321168070E+00  0.4533703737389E+00
 0.1346537853632E+00  0.5316462842978E+00
 0.1122124230457E+00  0.6047565475275E+00
 0.7928966365986E-01  0.6459817070489E+00
 0.4931067049114E-01  0.6504965790501E+00
 0.3578775300195E-01  0.5928293523202E+00
 0.7747740559665E-01  0.1176438760790E-01
 0.1442681355068E+00  0.6641893416981E-01
 0.1840033995066E+00  0.1694989462299E+00
 0.1873706378349E+00  0.2794269602806E+00
 0.1716483941760E+00  0.3505892434788E+00
 0.1648484070860E+00  0.3899178340006E+00
 0.1716212180079E+00  0.4445186195338E+00
 0.1693475431995E+00  0.5334365567442E+00
 0.1403175604769E+00  0.6204251918537E+00
 0.9370578045985E-01  0.6641236922898E+00
 0.4583709870928E-01  0.6645509610735E+00
-0.1469107020378E-01  0.6133006626285E+00
 0.9337855741237E-01 -0.9334396566932E-02
 0.1798649411778E+00  0.4078121920092E-01
 0.2319885244753E+00  0.1629751787343E+00
 0.2285886508138E+00  0.2957432071157E+00
 0.1965328575640E+00  0.3659751255966E+00
 0.1853702154062E+00  0.3839925623424E+00
 0.2041134297135E+00  0.4281320824893E+00
 0.2114460379351E+00  0.5332585137415E+00
 0.1741592384732E+00  0.6425471565787E+00
 0.1088054474688E+00  0.6892863465188E+00
 0.4459109602098E-01  0.6818290386236E+00
-0.4847765158281E-01  0.6532978528840E+00
 0.1078434881610E+00 -0.3938366238427E-01
 0.2215492537453E+00  0.2203097741783E-02
 0.2935330707638E+00  0.1529589636370E+00
 0.2778348252705E+00  0.3225737602024E+00
 0.2159100945003E+00  0.3920297072444E+00
 0.1962831916430E+00  0.3745968051279E+00
 0.2375717797862E+00  0.3991595890151E+00
 0.2652413821175E+00  0.5286684980502E+00
 0.2169207011084E+00  0.6739956852230E+00
 0.1232965302900E+00  0.7246211671753E+00
 0.4535032303198E-01  0.6989001830535E+00
-0.4921341532612E-01  0.6963764860196E+00
 0.1160890010507E+00 -0.8118340128463E-01
 0.2700462936451E+00 -0.5634825228625E-01
 0.3772162887739E+00  0.1365541312128E+00
 0.3411090465832E+00  0.3661083643995E+00
 0.2250893340739E+00  0.4362766898490E+00
 0.1883910700467E+00  0.3606261435674E+00
 0.2705904063565E+00  0.3492938325935E+00
 0.3387975355423E+00  0.5151058924193E+00
 0.2750695356102E+00  0.7195212272594E+00
 0.1340254557063E+00  0.7765355120738E+00
 0.4145371723265E-01  0.7124558820617E+00
-0.1407103568377E-01  0.7196845351522E+00
 0.1074156292609E+00 -0.1369992443665E+00
 0.3246803508724E+00 -0.1462908848032E+00
 0.4979839988218E+00  0.1081233336384E+00
 0.4299739488285E+00  0.4359081933361E+00
 0.2164110687445E+00  0.5114778415474E+00
 0.1446692545620E+00  0.3413729030596E+00
 0.2991943859128E+00  0.2652173306276E+00
 0.4460919084048E+00  0.4840216696062E+00
 0.3612319368757E+00  0.7862130026535E+00
 0.1351773463824E+00  0.8568950449698E+00
 0.1662838600170E-01  0.7208155542516E+00
 0.4472013612442E-01  0.6985904309359E+00
 0.5898208485084E-01 -0.2056757895097E+00
 0.3811446910960E+00 -0.2869608478655E+00
 0.6822850344547E+00  0.5705297521056E-01
 0.5668062658430E+00  0.5465671003592E+00
 0.1778443899207E+00  0.6391054627824E+00
 0.3393624541672E-01  0.3176223133516E+00
 0.3134985781170E+00  0.1259083991723E+00
 0.6109325504868E+00  0.4195448702158E+00
 0.5006979286952E+00  0.8838275332724E+00
 0.1182691929161E+00  0.9871188960808E+00
-0.6055245350047E-01  0.7258792147407E+00
 0.1027935628410E+00  0.6102495394175E+00
-0.2891306091179E+01 -0.1002471362004E+01
-0.4719583685223E+01 -0.3595929511197E+01
-0.6229862521783E+01 -0.6699263771779E+01
-0.7404345163056E+01 -0.9884464047447E+01
-0.8140751804040E+01 -0.1303466211518E+02
-0.2406506239789E+01 -0.9516645887826E+00
-0.3871602198020E+01 -0.3631331721666E+01
-0.5132323785850E+01 -0.6903234903138E+01
-0.6155265256718E+01 -0.1039363517032E+02
-0.6859602689721E+01 -0.1396711312240E+02
-0.1869726568830E+01 -0.9203123542532E+00
-0.2960680386151E+01 -0.3689913073737E+01
-0.3939109779997E+01 -0.7110735711071E+01
-0.4766450025843E+01 -0.1087193697772E+02
-0.5387217888270E+01 -0.1486288247245E+02
-0.1281487440727E+01 -0.9041891782715E+00
-0.2000873696298E+01 -0.3751987461001E+01
-0.2670329157062E+01 -0.7286551774773E+01
-0.3255964916221E+01 -0.1126910655621E+02
-0.3727217471024E+01 -0.1562597238937E+02
-0.6521233965067E+00 -0.8977511282360E+00
-0.1008507832626E+01 -0.3798236923686E+01
-0.1348765610907E+01 -0.7404059262370E+01
-0.1653133642898E+01 -0.1153312606370E+02
-0.1910388048279E+01 -0.1615091048338E+02
 0.2650954843436E-07 -0.8962144798155E+00
 0.8175927437286E-08 -0.3815267145477E+01
-0.1489928337193E-07 -0.7445323104403E+01
-0.3476130934407E-07 -0.1162582099523E+02
-0.5110006165801E-07 -0.1634074169525E+02
 0.6521234485392E+00 -0.8977511265724E+00
 0.1008507848673E+01 -0.3798236919176E+01
 0.1348765580924E+01 -0.7404059257347E+01
 0.1653133573169E+01 -0.1153312605773E+02
 0.1910387946143E+01 -0.1615091047611E+02
 0.1281487489962E+01 -0.9041891758215E+00
 0.2000873711361E+01 -0.3751987452893E+01
 0.2670329126489E+01 -0.7286551765191E+01
 0.3255964845890E+01 -0.1126910654454E+02
 0.3727217368639E+01 -0.1562597237433E+02
 0.1869726613914E+01 -0.9203123524564E+00
 0.2960680399382E+01 -0.3689913063559E+01
 0.3939109748349E+01 -0.7110735697677E+01
 0.4766449954521E+01 -0.1087193696070E+02
 0.5387217785013E+01 -0.1486288244997E+02
 0.2406506280014E+01 -0.9516645891139E+00
 0.3871602208410E+01 -0.3631331711067E+01
 0.5132323752537E+01 -0.6903234886719E+01
 0.6155265184063E+01 -0.1039363514821E+02
 0.6859602585072E+01 -0.1396711309273E+02
 0.2891306126534E+01 -0.1002471365391E+01
 0.4719583691737E+01 -0.3595929501410E+01
 0.6229862486191E+01 -0.6699263752978E+01
 0.7404345088687E+01 -0.9884464020341E+01
 0.8140751697560E+01 -0.1303466207784E+02
-0.8604799196343E+01 -0.4008375712568E+01
-0.1150629144654E+02 -0.8340193112058E+01
-0.1326286335124E+02 -0.1082323796148E+02
-0.1374014832922E+02 -0.1175275430571E+02
-0.1272241478203E+02 -0.1181385269903E+02
-0.7523427818736E+01 -0.3092795939615E+01
-0.1065389906415E+02 -0.7217483302380E+01
-0.1266256721225E+02 -0.1002256672463E+02
-0.1350616777783E+02 -0.1151056789522E+02
-0.1303721968263E+02 -0.1221626678655E+02
-0.6427150207494E+01 -0.2390031981073E+01
-0.9576068227661E+01 -0.6190849398149E+01
-0.1175343265384E+02 -0.9147045808107E+01
-0.1288651252245E+02 -0.1115674412804E+02
-0.1290795696696E+02 -0.1251023803201E+02
-0.5345561898759E+01 -0.1834346351209E+01
-0.8323143327820E+01 -0.5263623058808E+01
-0.1052188907606E+02 -0.8266543547407E+01
-0.1184491408631E+02 -0.1067803847353E+02
-0.1224107449861E+02 -0.1265670305089E+02
-0.4305914484713E+01 -0.1393440443054E+01
-0.6943597723298E+01 -0.4420586579709E+01
-0.8993279569163E+01 -0.7402716747846E+01
-0.1037761761936E+02 -0.1008490745969E+02
-0.1099939582100E+02 -0.1254123478325E+02
 0.4305914511731E+01 -0.1393440449632E+01
 0.6943597716311E+01 -0.4420586574439E+01
 0.8993279520221E+01 -0.7402716723540E+01
 0.1037761752828E+02 -0.1008490741940E+02
 0.1099939569209E+02 -0.1254123473245E+02
 0.5345561920678E+01 -0.1834346359774E+01
 0.8323143309936E+01 -0.5263623052125E+01
 0.1052188901456E+02 -0.8266543513931E+01
 0.1184491397887E+02 -0.1067803841839E+02
 0.1224107434803E+02 -0.1265670298277E+02
 0.6427150222607E+01 -0.2390031989077E+01
 0.9576068197446E+01 -0.6190849385937E+01
 0.1175343257858E+02 -0.9147045760131E+01
 0.1288651239741E+02 -0.1115674405166E+02
 0.1290795679248E+02 -0.1251023794077E+02
 0.7523427825120E+01 -0.3092795943680E+01
 0.1065389902083E+02 -0.7217483279537E+01
 0.1266256712325E+02 -0.1002256665688E+02
 0.1350616763461E+02 -0.1151056779436E+02
 0.1303721948315E+02 -0.1221626667132E+02
 0.8604799191785E+01 -0.4008375708461E+01
 0.1150629139073E+02 -0.8340193071626E+01
 0.1326286324976E+02 -0.1082323787041E+02
 0.1374014816777E+02 -0.1175275418053E+02
 0.1272241455778E+02 -0.1181385256169E+02
-0.1008272378044E+02 -0.1640397260878E+02
-0.1099396242122E+02 -0.1621631910111E+02
-0.1111804877440E+02 -0.1562774474958E+02
-0.1053063201983E+02 -0.1486002981051E+02
-0.9498230219038E+01 -0.1409124745669E+02
-0.8823161509480E+01 -0.1817572239274E+02
-0.9910278619839E+01 -0.1825723043638E+02
-0.1033713032416E+02 -0.1785776484245E+02
-0.1003617643911E+02 -0.1715310724384E+02
-0.9177786664425E+01 -0.1635285710853E+02
-0.7218566674821E+01 -0.2007768991919E+02
-0.8366136385126E+01 -0.2064661109807E+02
-0.9093673909679E+01 -0.2070139079703E+02
-0.9249429314586E+01 -0.2031131770203E+02
-0.8779615500115E+01 -0.1963457664664E+02
-0.5199675787773E+01 -0.2194595404222E+02
-0.6188387946800E+01 -0.2326418567319E+02
-0.6965968310272E+01 -0.2420820833621E+02
-0.7376377422321E+01 -0.2474847660565E+02
-0.7218940463360E+01 -0.2492643841893E+02
-0.2734706247934E+01 -0.2347955050185E+02
-0.3299371015681E+01 -0.2564335140000E+02
-0.3776781400327E+01 -0.2771259665866E+02
-0.4065109967683E+01 -0.2962959539103E+02
-0.3978613170710E+01 -0.3132976754878E+02
-0.8870806577617E-07 -0.2410129307651E+02
-0.1120175015218E-06 -0.2665229191723E+02
-0.1341486496084E-06 -0.2925124058108E+02
-0.1528182779824E-06 -0.3183769659313E+02
-0.1633467068407E-06 -0.3429792161103E+02
 0.2734706072140E+01 -0.2347955050930E+02
 0.3299370794169E+01 -0.2564335143265E+02
 0.3776781135926E+01 -0.2771259673016E+02
 0.4065109666957E+01 -0.2962959551548E+02
 0.3978612845368E+01 -0.3132976773720E+02
 0.5199675617560E+01 -0.2194595403886E+02
 0.6188387736233E+01 -0.2326418569655E+02
 0.6965968065364E+01 -0.2420820840052E+02
 0.7376377150954E+01 -0.2474847672351E+02
 0.7218940170937E+01 -0.2492643859839E+02
 0.7218566508016E+01 -0.2007768989913E+02
 0.8366136184627E+01 -0.2064661109412E+02
 0.9093673686534E+01 -0.2070139081638E+02
 0.9249429080303E+01 -0.2031131774678E+02
 0.8779615258747E+01 -0.1963457671438E+02
 0.8823161341976E+01 -0.1817572235962E+02
 0.9910278422608E+01 -0.1825723041107E+02
 0.1033713010967E+02 -0.1785776482727E+02
 0.1003617621647E+02 -0.1715310723735E+02
 0.9177786435769E+01 -0.1635285710734E+02
 0.1008272361305E+02 -0.1640397256300E+02
 0.1099396222616E+02 -0.1621631905691E+02
 0.1111804855995E+02 -0.1562774470740E+02
 0.1053063179018E+02 -0.1486002976977E+02
 0.9498229975776E+01 -0.1409124741661E+02
</DataArray>
</PointData>
   <DataArray type="Float64" Name="Load" NumberOfComponents="1"    ComponentName0="Load" format="ascii">
 0.6890489792811E+02
 0.4534921586819E+02
 0.1369756387429E+03
 0.2015260809361E+03
 0.3800850790948E+02
 0.1386582039494E+03
 0.9020625443603E+02
 0.1137170074299E+03
 0.1926929509178E+03
 0.4518509913037E+02
 0.1150790658000E+03
 0.5525083766422E+02
 0.1688408543618E+03
 0.4860200432261E+02
 0.1798783735805E+02
 0.9694978936432E+02
 0.1276859299745E+03
 0.2873366031856E+02
 0.7210546537851E+02
 0.3809091495646E+02
 0.8137008381857E+02
 0.1189974627980E+03
 0.2896545014715E+02
 0.5798765411674E+02
 0.1973096357370E+02
 0.1484185989711E+03
 0.3342630661073E+02
 0.1829626900293E+02
 0.7090323947505E+02
 0.8519996775583E+02
 0.2547243071072E+02
 0.3411111633493E+02
 0.1318702530725E+02
 0.5955086906794E+02
 0.7687371385262E+02
 0.2258497303403E+02
 0.2841365405977E+02
 0.1327294279160E+02
 0.1007183982821E+03
 0.2109198184433E+02
 0.2000732483483E+02
 0.5359847673238E+02
 0.6034252066417E+02
 0.2446333226824E+02
 0.1466195805736E+02
 0.1082155822684E+02
 0.4516491973872E+02
 0.5252587856511E+02
 0.1947889927706E+02
 0.1405386680654E+02
 0.7728895577567E+01
 0.3396750959320E+02
 0.1175654136896E+02
 0.1975328128879E+02
 0.4200653895887E+02
 0.4552377860060E+02
 0.2412291652630E+02
 0.1136217246546E+02
 0.1574660684800E+02
 0.3580312083178E+02
 0.3822267008140E+02
 0.1738649378612E+02
 0.7383821406092E+01
 0.5282488933554E+01
 0.3490192388104E+02
 0.6167945107320E+01
 0.1878417461721E+02
 0.3421765686484E+02
 0.3650780404921E+02
 0.2388212993876E+02
 0.1509919619380E+02
 0.1876081199100E+02
 0.2974514529144E+02
 0.2966368702916E+02
 0.1572352327724E+02
 0.4050445385058E+01
 0.1510524311240E+02
 0.8641080027115E+02
 0.6029144108946E+01
 0.1784576569148E+02
 0.2898983807964E+02
 0.3091181452308E+02
 0.2359341005190E+02
 0.1810912839210E+02
 0.2020759177400E+02
 0.2583801889862E+02
 0.2446960318755E+02
 0.1445906821153E+02
 0.2753933276323E+01
 0.2010795495510E+02
 0.1063043044572E+03
 0.8472464184297E+01
 0.1718105872905E+02
 0.2549698377686E+02
 0.2736848263647E+02
 0.2325713690277E+02
 0.1986046621059E+02
 0.2079268212683E+02
 0.2331099406262E+02
 0.2127940256091E+02
 0.1364491733814E+02
 0.3440485970896E+01
 0.1753551774751E+02
 0.9002418570851E+02
 0.1067681198906E+02
 0.1678839818291E+02
 0.2318986103219E+02
 0.2509432352540E+02
 0.2291731814744E+02
 0.2078350732248E+02
 0.2095424580889E+02
 0.2166944417585E+02
 0.1930940972039E+02
 0.1328830249060E+02
 0.5614638319167E+01
 0.8385678615791E+01
 0.4491629364657E+02
 0.1224317931951E+02
 0.1658828404917E+02
 0.2171467166365E+02
 0.2365466001632E+02
 0.2262135006483E+02
 0.2122896564838E+02
 0.2093397106742E+02
 0.2062589352980E+02
 0.1812853219146E+02
 0.1329930162958E+02
 0.8639193262615E+01
 0.7507568256422E+01
 0.1498158292752E+02
 0.1321881062370E+02
 0.1650066671762E+02
 0.2084355017930E+02
 0.2280328790814E+02
 0.2240520666276E+02
 0.2142166815770E+02
 0.2086463095686E+02
 0.2000886899172E+02
 0.1747307295787E+02
 0.1349565764570E+02
 0.1153865439047E+02
 0.1947073059529E+02
 0.6857875434899E+02
 0.1368368317140E+02
 0.1647029967949E+02
 0.2044001326830E+02
 0.2240694031028E+02
 0.2229171050048E+02
 0.2148940332886E+02
 0.2081527379144E+02
 0.1972205784618E+02
 0.1718392085338E+02
 0.1366501809618E+02
 0.1330242321750E+02
 0.2701532233767E+02
 0.1005809468741E+03
 0.1368368313091E+02
 0.1647029964565E+02
 0.2044001324486E+02
 0.2240694029718E+02
 0.2229171049024E+02
 0.2148940331663E+02
 0.2081527378139E+02
 0.1972205784440E+02
 0.1718392085670E+02
 0.1366501808981E+02
 0.1330242315920E+02
 0.2701532205862E+02
 0.1005809455849E+03
 0.1321881050230E+02
 0.1650066661585E+02
 0.2084355010889E+02
 0.2280328787000E+02
 0.2240520663282E+02
 0.2142166812012E+02
 0.2086463092548E+02
 0.2000886898695E+02
 0.1747307297007E+02
 0.1349565763095E+02
 0.1153865423576E+02
 0.1947072985843E+02
 0.6857875088204E+02
 0.1224317911794E+02
 0.1658828387874E+02
 0.2171467154583E+02
 0.2365465995702E+02
 0.2262135001787E+02
 0.2122896558263E+02
 0.2093397101055E+02
 0.2062589352395E+02
 0.1812853221963E+02
 0.1329930161748E+02
 0.8639193064343E+01
 0.7507567438644E+01
 0.1498157852438E+02
 0.1067681171100E+02
 0.1678839794238E+02
 0.2318986086551E+02
 0.2509432345253E+02
 0.2291731808888E+02
 0.2078350722313E+02
 0.2095424571804E+02
 0.2166944417244E+02
 0.1930940977788E+02
 0.1328830249407E+02
 0.5614638141297E+01
 0.8385679368540E+01
 0.4491629788333E+02
 0.8472463846660E+01
 0.1718105841555E+02
 0.2549698355758E+02
 0.2736848256354E+02
 0.2325713684279E+02
 0.1986046606860E+02
 0.2079268198623E+02
 0.2331099406746E+02
 0.2127940267116E+02
 0.1364491736769E+02
 0.3440485861450E+01
 0.1753551821471E+02
 0.9002418828918E+02
 0.6029143806864E+01
 0.1784576529866E+02
 0.2898983779926E+02
 0.3091181447353E+02
 0.2359341000937E+02
 0.1810912819482E+02
 0.2020759155567E+02
 0.2583801892034E+02
 0.2446960339203E+02
 0.1445906827510E+02
 0.2753933272982E+01
 0.2010795489437E+02
 0.1063043045061E+03
 0.6167945182064E+01
 0.1878417413157E+02
 0.3421765649350E+02
 0.3650780404010E+02
 0.2388212994618E+02
 0.1509919595349E+02
 0.1876081166223E+02
 0.2974514531236E+02
 0.2966368735168E+02
 0.1572352337464E+02
 0.4050445499239E+01
 0.1510524263195E+02
 0.8641079806212E+02
 0.1175654171541E+02
 0.1975328068885E+02
 0.4200653843813E+02
 0.4552377864325E+02
 0.2412291664045E+02
 0.1136217229396E+02
 0.1574660639380E+02
 0.3580312080239E+02
 0.3822267053014E+02
 0.1738649391926E+02
 0.7383821623514E+01
 0.5282488579952E+01
 0.3490192067241E+02
 0.2109198223638E+02
 0.2000732410754E+02
 0.5359847596715E+02
 0.6034252077568E+02
 0.2446333259380E+02
 0.1466195820852E+02
 0.1082155781621E+02
 0.4516491958333E+02
 0.5252587915809E+02
 0.1947889948917E+02
 0.1405386718384E+02
 0.7728895789973E+01
 0.3396751245841E+02
 0.3342630692695E+02
 0.1829626828632E+02
 0.7090323829342E+02
 0.8519996793001E+02
 0.2547243142717E+02
 0.3411111652127E+02
 0.1318702608020E+02
 0.5955086863676E+02
 0.7687371455525E+02
 0.2258497341796E+02
 0.2841365460031E+02
 0.1327294276988E+02
 0.1007184000876E+03
 0.4860200444559E+02
 0.1798783783401E+02
 0.9694978745514E+02
 0.1276859301388E+03
 0.2873366171201E+02
 0.7210546522556E+02
 0.3809091640655E+02
 0.8137008283560E+02
 0.1189974634253E+03
 0.2896545083265E+02
 0.5798765459757E+02
 0.1973096395632E+02
 0.1484185997978E+03
 0.6890489773278E+02
 0.4534921810759E+02
 0.1369756355325E+03
 0.2015260808559E+03
 0.3800851037668E+02
 0.1386582028562E+03
 0.9020625617078E+02
 0.1137170054199E+03
 0.1926929509182E+03
 0.4518510013645E+02
 0.1150790656043E+03
 0.5525083786709E+02
 0.1688408548138E+03
 0.8544573921921E+00
 0.1913491554476E+01
 0.2323821115320E+01
 0.2431554498695E+01
 0.2390189317205E+01
 0.2259964475105E+01
 0.8191551273894E+00
 0.1954120270043E+01
 0.2470653704716E+01
 0.2670107394903E+01
 0.2691883043096E+01
 0.2588401462467E+01
 0.8989510745984E+00
 0.2018839086005E+01
 0.2591989070816E+01
 0.2873998281797E+01
 0.2988082640909E+01
 0.2988850835423E+01
 0.1048943821897E+01
 0.2081684592954E+01
 0.2685733305109E+01
 0.3041621749303E+01
 0.3260089416916E+01
 0.3402118559450E+01
 0.1202823933685E+01
 0.2130787693237E+01
 0.2748670961596E+01
 0.3163539943436E+01
 0.3476100010868E+01
 0.3765691496023E+01
 0.1298385001624E+01
 0.2157563763437E+01
 0.2780151879647E+01
 0.3228144318069E+01
 0.3599504170629E+01
 0.3989417308686E+01
 0.1298384997415E+01
 0.2157563762180E+01
 0.2780151878992E+01
 0.3228144317322E+01
 0.3599504170003E+01
 0.3989417309246E+01
 0.1202823922525E+01
 0.2130787689558E+01
 0.2748670959493E+01
 0.3163539941158E+01
 0.3476100008665E+01
 0.3765691496218E+01
 0.1048943807712E+01
 0.2081684587124E+01
 0.2685733301222E+01
 0.3041621745386E+01
 0.3260089412867E+01
 0.3402118557422E+01
 0.8989510624706E+00
 0.2018839078473E+01
 0.2591989064781E+01
 0.2873998276119E+01
 0.2988082635118E+01
 0.2988850831119E+01
 0.8191551218566E+00
 0.1954120261398E+01
 0.2470653696421E+01
 0.2670107387356E+01
 0.2691883035521E+01
 0.2588401456155E+01
 0.8544573951215E+00
 0.1913491545979E+01
 0.2323821105044E+01
 0.2431554488994E+01
 0.2390189307931E+01
 0.2259964466888E+01
 0.2056340456182E+01
 0.1348918976296E+01
 0.5051285970118E+00
 0.7079771364744E-01
 0.5254850026982E-01
 0.3549100632581E-01
 0.1992355434872E+01
 0.1696080097950E+01
 0.9112787338862E+00
 0.4723718738690E+00
 0.2401483730677E+00
 0.1961058615589E+00
 0.1820568181667E+01
 0.1866093719957E+01
 0.1315277956201E+01
 0.8904495926920E+00
 0.6187986916277E+00
 0.4502886699657E+00
 0.1571049212712E+01
 0.1960440447181E+01
 0.1667430343966E+01
 0.1334872649873E+01
 0.1070057974304E+01
 0.8332690215105E+00
 0.1280915413104E+01
 0.1997576628023E+01
 0.1956458832955E+01
 0.1754733075674E+01
 0.1554688676973E+01
 0.1336448891246E+01
 0.1008658066311E+01
 0.1969273992274E+01
 0.2179276880432E+01
 0.2138781411714E+01
 0.2004989644283E+01
 0.1880944664308E+01
 0.1008658074303E+01
 0.1969273984059E+01
 0.2179276866667E+01
 0.2138781399483E+01
 0.2004989634740E+01
 0.1880944654078E+01
 0.1280915420114E+01
 0.1997576618719E+01
 0.1956458817301E+01
 0.1754733062887E+01
 0.1554688667293E+01
 0.1336448880687E+01
 0.1571049214289E+01
 0.1960440435935E+01
 0.1667430327228E+01
 0.1334872637467E+01
 0.1070057964971E+01
 0.8332690139513E+00
 0.1820568175583E+01
 0.1866093706549E+01
 0.1315277939328E+01
 0.8904495821346E+00
 0.6187986844258E+00
 0.4502886679608E+00
 0.1992355421083E+01
 0.1696080082354E+01
 0.9112787188171E+00
 0.4723718666334E+00
 0.2401483690821E+00
 0.1961058662249E+00
 0.2056340435667E+01
 0.1348918962437E+01
 0.5051285850778E+00
 0.7079770965047E-01
 0.5254849987166E-01
 0.3549101488059E-01
 0.1875550511857E+01
 0.1242616811437E+01
 0.7733762486198E+00
 0.4957916477900E+00
 0.3750155198174E+00
 0.3017149420041E+00
 0.2291536029109E+01
 0.1741199079440E+01
 0.1186374024835E+01
 0.7799857682935E+00
 0.5657833964709E+00
 0.4442880492133E+00
 0.2779611275597E+01
 0.2345806410182E+01
 0.1836504406017E+01
 0.1353595526486E+01
 0.1020404292793E+01
 0.8131907883302E+00
 0.3337888381461E+01
 0.3083179984981E+01
 0.2746115974247E+01
 0.2370332134232E+01
 0.2077999365631E+01
 0.2087480977467E+01
 0.3899902604731E+01
 0.3862559413329E+01
 0.3753182573596E+01
 0.3568528313140E+01
 0.3343084879379E+01
 0.3226821465741E+01
 0.4244056214262E+01
 0.4310766753060E+01
 0.4300966780387E+01
 0.4175849862932E+01
 0.3867379665459E+01
 0.3236655589930E+01
 0.4244056216082E+01
 0.4310766755328E+01
 0.4300966783130E+01
 0.4175849865449E+01
 0.3867379664511E+01
 0.3236655572380E+01
 0.3899902610189E+01
 0.3862559423924E+01
 0.3753182590163E+01
 0.3568528334967E+01
 0.3343084900913E+01
 0.3226821470259E+01
 0.3337888383641E+01
 0.3083179994133E+01
 0.2746115993234E+01
 0.2370332163819E+01
 0.2077999404431E+01
 0.2087481030758E+01
 0.2779611273438E+01
 0.2345806414171E+01
 0.1836504418007E+01
 0.1353595544590E+01
 0.1020404315689E+01
 0.8131908217847E+00
 0.2291536024920E+01
 0.1741199081750E+01
 0.1186374032298E+01
 0.7799857782457E+00
 0.5657834073110E+00
 0.4442880579756E+00
 0.1875550507043E+01
 0.1242616810684E+01
 0.7733762499195E+00
 0.4957916518164E+00
 0.3750155269663E+00
 0.3017149486792E+00
</DataArray>
<CellData Tensors="'E_Centroid','S_Centroid'">
<DataArray type="Float64" Name="E_Centroid" NumberOfComponents="4" ComponentName0="E11" ComponentName1="E22" ComponentName2="E33" ComponentName3="E12" format="ascii">
-0.7413561825020E+00 -0.1090663306281E+01  0.0000000000000E+00  0.4259695959086E+00
-0.4352432312193E+00 -0.7285096343679E+00  0.0000000000000E+00 -0.2405270250083E+00
 0.1962687675558E+01  0.1869211302848E+01  0.0000000000000E+00 -0.2862003970899E+00
 0.2814327074030E+01  0.2828350911920E+01  0.0000000000000E+00  0.3401599234257E-01
 0.5459955103601E+00  0.5170621421908E+00  0.0000000000000E+00  0.3028724086593E+00
-0.1869748874110E+01 -0.2005549212711E+01  0.0000000000000E+00  0.1613838958792E+00
-0.1177937719715E+01 -0.1333436482305E+01  0.0000000000000E+00 -0.1976438027889E+00
 0.1619463048428E+01  0.1563117149728E+01  0.0000000000000E+00 -0.2955869144466E+00
 0.2679289690929E+01  0.2715743474710E+01  0.0000000000000E+00 -0.2108176068820E-02
 0.6353188810856E+00  0.6298281504622E+00  0.0000000000000E+00  0.2996820767691E+00
-0.1517394429110E+01 -0.1690792231932E+01  0.0000000000000E+00  0.2156810846986E+00
-0.5675860412403E+00 -0.8810408390431E+00  0.0000000000000E+00 -0.1728982430383E+00
 0.2369850845261E+01  0.2357645812294E+01  0.0000000000000E+00 -0.1299734413557E-01
-0.2607403559563E+00 -0.7722371389756E+00  0.0000000000000E+00  0.6718759983171E-02
 0.7799712526870E-01 -0.2036030567543E+00  0.0000000000000E+00 -0.6737957423339E-01
 0.1365055016161E+01  0.1349403723780E+01  0.0000000000000E+00 -0.8476140894066E-01
 0.1727654803773E+01  0.1842056012737E+01  0.0000000000000E+00 -0.3204614968797E-01
 0.4225967957177E+00  0.3782747893224E+00  0.0000000000000E+00  0.2361685102385E-01
-0.8668464451293E+00 -0.1108312669338E+01  0.0000000000000E+00  0.3183742344595E-01
-0.4083154440912E+00 -0.6033303198309E+00  0.0000000000000E+00 -0.1258815525765E-01
 0.1122057669013E+01  0.1155565365363E+01  0.0000000000000E+00 -0.4790784126490E-01
 0.1596817923664E+01  0.1727422974030E+01  0.0000000000000E+00 -0.1678554850887E-01
 0.4257665866690E+00  0.3816600141633E+00  0.0000000000000E+00  0.5909078726850E-01
-0.6414904703894E+00 -0.9127172076498E+00  0.0000000000000E+00  0.9289726836750E-01
-0.1090288758535E-01 -0.2815235110086E+00  0.0000000000000E+00  0.7697115741454E-01
 0.2101342540897E+01  0.2053553829072E+01  0.0000000000000E+00 -0.8410370386606E-01
-0.4305578023805E-01 -0.4880082998615E+00  0.0000000000000E+00 -0.1915111723014E+00
 0.2719580438954E+00  0.3527750846251E-01  0.0000000000000E+00 -0.3615084492743E-01
 0.9837739536357E+00  0.1001285055191E+01  0.0000000000000E+00 -0.2368358294779E-01
 0.1130102421363E+01  0.1246903211499E+01  0.0000000000000E+00 -0.6640900183072E-01
 0.3811231582767E+00  0.3255890579199E+00  0.0000000000000E+00 -0.7868032836323E-01
-0.3087631253368E+00 -0.5500561484289E+00  0.0000000000000E+00 -0.1142672857778E-01
-0.2387552608852E-01 -0.1953945868081E+00  0.0000000000000E+00  0.5608175396728E-01
 0.8035200202495E+00  0.8609360767007E+00  0.0000000000000E+00  0.3799192618618E-01
 0.1008230301341E+01  0.1133304350646E+01  0.0000000000000E+00 -0.2539521028920E-01
 0.3431794658145E+00  0.2795099258475E+00  0.0000000000000E+00 -0.2372149068793E-01
-0.2118272962845E+00 -0.4588792298484E+00  0.0000000000000E+00  0.6654596860467E-01
 0.1691778675108E+00 -0.2970741302261E-01  0.0000000000000E+00  0.1447309415371E+00
 0.1443460942460E+01  0.1374093673890E+01  0.0000000000000E+00 -0.1305333800540E+00
 0.4877795608586E-01 -0.2678615755612E+00  0.0000000000000E+00 -0.2677134483892E+00
 0.3230558892152E+00  0.1479777950298E+00  0.0000000000000E+00 -0.5096723926150E-01
 0.7358255837939E+00  0.7641307716128E+00  0.0000000000000E+00 -0.1834674921239E-01
 0.7948323017260E+00  0.8871714876592E+00  0.0000000000000E+00 -0.7970528612351E-01
 0.3676205201227E+00  0.3100579195215E+00  0.0000000000000E+00 -0.1039327436029E+00
-0.3510074458573E-02 -0.2069999404348E+00  0.0000000000000E+00 -0.2236239356736E-01
 0.1641243871124E+00  0.2961994753468E-01  0.0000000000000E+00  0.7040588445873E-01
 0.6048119401987E+00  0.6566183397957E+00  0.0000000000000E+00  0.5747357303674E-01
 0.6847517466807E+00  0.7772252681824E+00  0.0000000000000E+00 -0.2537363339508E-01
 0.2987524905082E+00  0.2355621223008E+00  0.0000000000000E+00 -0.4050970074922E-01
-0.2339566371779E-01 -0.2074059613368E+00  0.0000000000000E+00  0.5724550248842E-01
 0.1087927512206E+00  0.1186178995579E-02  0.0000000000000E+00  0.1416814865914E+00
 0.4992642333957E+00  0.4476083619895E+00  0.0000000000000E+00 -0.1509138638962E+00
 0.8189021443724E-01 -0.1075839556503E+00  0.0000000000000E+00 -0.2800429181084E+00
 0.3150117113515E+00  0.2028200050299E+00  0.0000000000000E+00 -0.7232664471487E-01
 0.5716094229155E+00  0.6032927687529E+00  0.0000000000000E+00 -0.2968205265930E-01
 0.6012142746819E+00  0.6681656672134E+00  0.0000000000000E+00 -0.8069093920268E-01
 0.3608020191117E+00  0.3085485307714E+00  0.0000000000000E+00 -0.9871259875997E-01
 0.1596916553989E+00  0.1249847068075E-02  0.0000000000000E+00 -0.2258817787612E-01
 0.2528495423898E+00  0.1519127020866E+00  0.0000000000000E+00  0.6270555753823E-01
 0.4819026970326E+00  0.5185708387513E+00  0.0000000000000E+00  0.5275141483132E-01
 0.5026470458305E+00  0.5625470311630E+00  0.0000000000000E+00 -0.2089004897466E-01
 0.2653385665290E+00  0.2129528831124E+00  0.0000000000000E+00 -0.3657217589646E-01
 0.3795797972853E-01 -0.7902853162454E-01  0.0000000000000E+00  0.4339147063027E-01
-0.6287896538376E-01 -0.8147942567239E-01  0.0000000000000E+00  0.1041305462507E+00
-0.4850445874446E+00 -0.4921321735353E+00  0.0000000000000E+00 -0.1331924880069E+00
 0.8890866809926E-01  0.5365055025759E-02  0.0000000000000E+00 -0.2606165313235E+00
 0.2865051094235E+00  0.2303948466912E+00  0.0000000000000E+00 -0.8637544497436E-01
 0.4609266050966E+00  0.4953146091984E+00  0.0000000000000E+00 -0.4133474415017E-01
 0.4852080926245E+00  0.5335722617790E+00  0.0000000000000E+00 -0.7501693248484E-01
 0.3537289011839E+00  0.3108297442733E+00  0.0000000000000E+00 -0.8359561823341E-01
 0.2440460046769E+00  0.1260681151827E+00  0.0000000000000E+00 -0.1996404267428E-01
 0.2919487030352E+00  0.2171094844910E+00  0.0000000000000E+00  0.4851068847754E-01
 0.4054202847159E+00  0.4266329718413E+00  0.0000000000000E+00  0.4133902377757E-01
 0.3969382845247E+00  0.4314865815862E+00  0.0000000000000E+00 -0.1585094645255E-01
 0.2373007654465E+00  0.1975375182515E+00  0.0000000000000E+00 -0.3036371977228E-01
 0.4439962440934E-01 -0.1947874518915E-01  0.0000000000000E+00  0.2131627396562E-01
-0.2301873342899E+00 -0.1856723024985E+00  0.0000000000000E+00  0.4989995244442E-01
-0.1228717148132E+01 -0.1189848454517E+01  0.0000000000000E+00 -0.7696043393893E-01
 0.8539793717574E-01  0.8338198306735E-01  0.0000000000000E+00 -0.2265213115014E+00
 0.2545816530815E+00  0.2448132569372E+00  0.0000000000000E+00 -0.9010570581183E-01
 0.3852903474940E+00  0.4236949749267E+00  0.0000000000000E+00 -0.4762726044511E-01
 0.4129556036596E+00  0.4501715571212E+00  0.0000000000000E+00 -0.6590567986646E-01
 0.3452565287376E+00  0.3129908327656E+00  0.0000000000000E+00 -0.6699916053144E-01
 0.2852402597786E+00  0.1996713327769E+00  0.0000000000000E+00 -0.1697208212632E-01
 0.3066576596160E+00  0.2508315264313E+00  0.0000000000000E+00  0.3459328786650E-01
 0.3573088964282E+00  0.3659990388448E+00  0.0000000000000E+00  0.2993703946513E-01
 0.3341208169202E+00  0.3504444587099E+00  0.0000000000000E+00 -0.1208926130698E-01
 0.2161485330434E+00  0.1851231525771E+00  0.0000000000000E+00 -0.2720493118783E-01
 0.4199590673388E-01  0.8201431678422E-02  0.0000000000000E+00 -0.5067690185344E-02
-0.3081640918169E+00 -0.2436634082078E+00  0.0000000000000E+00 -0.5716352546403E-02
-0.1517172569887E+01 -0.1457556351203E+01  0.0000000000000E+00  0.1043293597543E-02
 0.7868138379195E-01  0.1364299763555E+00  0.0000000000000E+00 -0.1863703061259E+00
 0.2261512162686E+00  0.2527134297629E+00  0.0000000000000E+00 -0.8459736971747E-01
 0.3331676590451E+00  0.3767464685464E+00  0.0000000000000E+00 -0.4772535949189E-01
 0.3662301293989E+00  0.3980970458923E+00  0.0000000000000E+00 -0.5513038090679E-01
 0.3360728713042E+00  0.3140041532994E+00  0.0000000000000E+00 -0.5167492198110E-01
 0.3035471203567E+00  0.2423507672470E+00  0.0000000000000E+00 -0.1400607407115E-01
 0.3099932593247E+00  0.2675395897500E+00  0.0000000000000E+00  0.2322122635418E-01
 0.3265688356607E+00  0.3261385726505E+00  0.0000000000000E+00  0.2041758511471E-01
 0.2962441827039E+00  0.2995515499690E+00  0.0000000000000E+00 -0.9784264588624E-02
 0.2036750950792E+00  0.1751816712963E+00  0.0000000000000E+00 -0.2640790920275E-01
 0.5560935469580E-01  0.2694402581586E-01  0.0000000000000E+00 -0.2892545070495E-01
-0.2632211793852E+00 -0.2227415780898E+00  0.0000000000000E+00 -0.5128696436887E-01
-0.1277978343556E+01 -0.1241925239283E+01  0.0000000000000E+00  0.7975266017115E-01
 0.7193226093934E-01  0.1718418014710E+00  0.0000000000000E+00 -0.1444173807261E+00
 0.2034526040325E+00  0.2572831722911E+00  0.0000000000000E+00 -0.7201014896522E-01
 0.2973088441957E+00  0.3464129634859E+00  0.0000000000000E+00 -0.4241197056747E-01
 0.3352638643399E+00  0.3654316295853E+00  0.0000000000000E+00 -0.4345880801612E-01
 0.3273004787598E+00  0.3139688269950E+00  0.0000000000000E+00 -0.3815720054867E-01
 0.3103078296100E+00  0.2667102090259E+00  0.0000000000000E+00 -0.1107321666893E-01
 0.3085366329471E+00  0.2753617573012E+00  0.0000000000000E+00  0.1472307532446E-01
 0.3066879904194E+00  0.2999439963484E+00  0.0000000000000E+00  0.1314284283570E-01
 0.2734760649894E+00  0.2670736720695E+00  0.0000000000000E+00 -0.8209037666155E-02
 0.1999702961081E+00  0.1679438942889E+00  0.0000000000000E+00 -0.2545913390090E-01
 0.9073574762709E-01  0.4736890207565E-01  0.0000000000000E+00 -0.4399063360904E-01
-0.1057663981862E+00 -0.1263185074067E+00  0.0000000000000E+00 -0.7706506901196E-01
-0.6204383625129E+00 -0.6368948185344E+00  0.0000000000000E+00  0.1335043774808E+00
 0.6645650611542E-01  0.1946815150463E+00  0.0000000000000E+00 -0.1024754538635E+00
 0.1868712228309E+00  0.2599976371797E+00  0.0000000000000E+00 -0.5449246983920E-01
 0.2733379293434E+00  0.3274150459339E+00  0.0000000000000E+00 -0.3301192797539E-01
 0.3149411038838E+00  0.3452989101546E+00  0.0000000000000E+00 -0.3130342337925E-01
 0.3199244398283E+00  0.3133716669390E+00  0.0000000000000E+00 -0.2618920042336E-01
 0.3117231838530E+00  0.2801701316831E+00  0.0000000000000E+00 -0.8058756670083E-02
 0.3056328594891E+00  0.2786525165880E+00  0.0000000000000E+00  0.8702290521688E-02
 0.2940668160370E+00  0.2831484976462E+00  0.0000000000000E+00  0.7853377722664E-02
 0.2603784235450E+00  0.2466643961676E+00  0.0000000000000E+00 -0.6562676587718E-02
 0.2026852934152E+00  0.1634377588058E+00  0.0000000000000E+00 -0.2207509619126E-01
 0.1396575603273E+00  0.7047204325864E-01  0.0000000000000E+00 -0.4597501692425E-01
 0.1110845053228E+00  0.1320507740896E-01  0.0000000000000E+00 -0.7881746383064E-01
 0.2388678811021E+00  0.1540515029741E+00  0.0000000000000E+00  0.1449412832492E+00
 0.6271741391312E-01  0.2082720686279E+00  0.0000000000000E+00 -0.6111995376821E-01
 0.1761371071991E+00  0.2615537172803E+00  0.0000000000000E+00 -0.3383478023470E-01
 0.2585961921059E+00  0.3163780510197E+00  0.0000000000000E+00 -0.2085212317939E-01
 0.3025269968937E+00  0.3336808502516E+00  0.0000000000000E+00 -0.1887675348513E-01
 0.3146490578813E+00  0.3126875289071E+00  0.0000000000000E+00 -0.1530341717048E-01
 0.3112145575266E+00  0.2871411004697E+00  0.0000000000000E+00 -0.4911074761975E-02
 0.3030083118119E+00  0.2798190261393E+00  0.0000000000000E+00  0.4495989914288E-02
 0.2866128907288E+00  0.2731499529544E+00  0.0000000000000E+00  0.4079342199021E-02
 0.2534776440234E+00  0.2346843434059E+00  0.0000000000000E+00 -0.4349022441557E-02
 0.2079489318513E+00  0.1611230027686E+00  0.0000000000000E+00 -0.1522440092595E-01
 0.1865212985972E+00  0.9155749776195E-01  0.0000000000000E+00 -0.3439221863242E-01
 0.3145335894961E+00  0.1469276268769E+00  0.0000000000000E+00 -0.5801433790257E-01
 0.1025440304369E+01  0.8776188560069E+00  0.0000000000000E+00  0.1105221726030E+00
 0.6083927187915E-01  0.2146032441527E+00  0.0000000000000E+00 -0.2030420722493E-01
 0.1708832101233E+00  0.2622699613674E+00  0.0000000000000E+00 -0.1145953171577E-01
 0.2515689100278E+00  0.3113173753882E+00  0.0000000000000E+00 -0.7120199702522E-02
 0.2966173317288E+00  0.3283629071530E+00  0.0000000000000E+00 -0.6307294453297E-02
 0.3119091920436E+00  0.3122584088939E+00  0.0000000000000E+00 -0.5034930273490E-02
 0.3105759541601E+00  0.2900790961775E+00  0.0000000000000E+00 -0.1651293161052E-02
 0.3015196165833E+00  0.2801292897084E+00  0.0000000000000E+00  0.1378207154801E-02
 0.2831525121025E+00  0.2684800229079E+00  0.0000000000000E+00  0.1252342029111E-02
 0.2505768451500E+00  0.2291378912374E+00  0.0000000000000E+00 -0.1533133000108E-02
 0.2118110483298E+00  0.1602348246350E+00  0.0000000000000E+00 -0.5451568790526E-02
 0.2150115623536E+00  0.1042506500898E+00  0.0000000000000E+00 -0.1270567097988E-01
 0.4365818564150E+00  0.2279568282955E+00  0.0000000000000E+00 -0.2125497894271E-01
 0.1491639445176E+01  0.1306264270706E+01  0.0000000000000E+00  0.4117557005957E-01
 0.6083927179020E-01  0.2146032435407E+00  0.0000000000000E+00  0.2030421225706E-01
 0.1708832099182E+00  0.2622699607956E+00  0.0000000000000E+00  0.1145953450518E-01
 0.2515689098198E+00  0.3113173749896E+00  0.0000000000000E+00  0.7120200982424E-02
 0.2966173315685E+00  0.3283629069512E+00  0.0000000000000E+00  0.6307295036386E-02
 0.3119091919003E+00  0.3122584087503E+00  0.0000000000000E+00  0.5034930653216E-02
 0.3105759540080E+00  0.2900790959820E+00  0.0000000000000E+00  0.1651293324103E-02
 0.3015196164642E+00  0.2801292895401E+00  0.0000000000000E+00 -0.1378207334620E-02
 0.2831525120677E+00  0.2684800228944E+00  0.0000000000000E+00 -0.1252342358788E-02
 0.2505768451592E+00  0.2291378913331E+00  0.0000000000000E+00  0.1533132889689E-02
 0.2118110481906E+00  0.1602348246582E+00  0.0000000000000E+00  0.5451569160879E-02
 0.2150115614123E+00  0.1042506496894E+00  0.0000000000000E+00  0.1270567232433E-01
 0.4365818519233E+00  0.2279568253479E+00  0.0000000000000E+00  0.2125498150162E-01
 0.1491639426336E+01  0.1306264253548E+01  0.0000000000000E+00 -0.4117557724737E-01
 0.6271741363574E-01  0.2082720667851E+00  0.0000000000000E+00  0.6111995863279E-01
 0.1761371065633E+00  0.2615537155493E+00  0.0000000000000E+00  0.3383478287885E-01
 0.2585961914733E+00  0.3163780498216E+00  0.0000000000000E+00  0.2085212433857E-01
 0.3025269964210E+00  0.3336808496689E+00  0.0000000000000E+00  0.1887675400075E-01
 0.3146490574567E+00  0.3126875284937E+00  0.0000000000000E+00  0.1530341754959E-01
 0.3112145570579E+00  0.2871410998677E+00  0.0000000000000E+00  0.4911074942365E-02
 0.3030083114411E+00  0.2798190256105E+00  0.0000000000000E+00 -0.4495990112106E-02
 0.2866128906324E+00  0.2731499529220E+00  0.0000000000000E+00 -0.4079342564518E-02
 0.2534776440802E+00  0.2346843437216E+00  0.0000000000000E+00  0.4349022307790E-02
 0.2079489315050E+00  0.1611230028574E+00  0.0000000000000E+00  0.1522440119276E-01
 0.1865212960985E+00  0.9155749669611E-01  0.0000000000000E+00  0.3439221955978E-01
 0.3145335774955E+00  0.1469276190521E+00  0.0000000000000E+00  0.5801433979046E-01
 0.1025440253668E+01  0.8776188098070E+00  0.0000000000000E+00 -0.1105221775383E+00
 0.6645650561583E-01  0.1946815119547E+00  0.0000000000000E+00  0.1024754583799E+00
 0.1868712216987E+00  0.2599976342394E+00  0.0000000000000E+00  0.5449247219247E-01
 0.2733379282593E+00  0.3274150439281E+00  0.0000000000000E+00  0.3301192889381E-01
 0.3149411031277E+00  0.3452989092637E+00  0.0000000000000E+00  0.3130342375941E-01
 0.3199244391414E+00  0.3133716663127E+00  0.0000000000000E+00  0.2618920080433E-01
 0.3117231830266E+00  0.2801701306235E+00  0.0000000000000E+00  0.8058756890306E-02
 0.3056328588193E+00  0.2786525156191E+00  0.0000000000000E+00 -0.8702290754725E-02
 0.2940668159043E+00  0.2831484976209E+00  0.0000000000000E+00 -0.7853378161121E-02
 0.2603784237396E+00  0.2466643967979E+00  0.0000000000000E+00  0.6562676419074E-02
 0.2026852930495E+00  0.1634377590102E+00  0.0000000000000E+00  0.2207509629835E-01
 0.1396575571208E+00  0.7047204186198E-01  0.0000000000000E+00  0.4597501713264E-01
 0.1110844897548E+00  0.1320506741233E-01  0.0000000000000E+00  0.7881746451191E-01
 0.2388678142572E+00  0.1540514419927E+00  0.0000000000000E+00 -0.1449412843823E+00
 0.7193226015358E-01  0.1718417971077E+00  0.0000000000000E+00  0.1444173846868E+00
 0.2034526022784E+00  0.2572831680467E+00  0.0000000000000E+00  0.7201015088345E-01
 0.2973088426103E+00  0.3464129606500E+00  0.0000000000000E+00  0.4241197112848E-01
 0.3352638633657E+00  0.3654316285246E+00  0.0000000000000E+00  0.4345880819176E-01
 0.3273004778551E+00  0.3139688262703E+00  0.0000000000000E+00  0.3815720093841E-01
 0.3103078283420E+00  0.2667102074091E+00  0.0000000000000E+00  0.1107321696119E-01
 0.3085366318770E+00  0.2753617557296E+00  0.0000000000000E+00 -0.1472307560675E-01
 0.3066879902988E+00  0.2999439963785E+00  0.0000000000000E+00 -0.1314284338641E-01
 0.2734760654859E+00  0.2670736732059E+00  0.0000000000000E+00  0.8209037469383E-02
 0.1999702959605E+00  0.1679438946740E+00  0.0000000000000E+00  0.2545913387208E-01
 0.9073574474927E-01  0.4736890068679E-01  0.0000000000000E+00  0.4399063299448E-01
-0.1057664122123E+00 -0.1263185161164E+00  0.0000000000000E+00  0.7706506819710E-01
-0.6204384246205E+00 -0.6368948752965E+00  0.0000000000000E+00 -0.1335043744505E+00
 0.7868138261331E-01  0.1364299707077E+00  0.0000000000000E+00  0.1863703092813E+00
 0.2261512136775E+00  0.2527134240543E+00  0.0000000000000E+00  0.8459737106459E-01
 0.3331676568760E+00  0.3767464648264E+00  0.0000000000000E+00  0.4772535959000E-01
 0.3662301283397E+00  0.3980970448963E+00  0.0000000000000E+00  0.5513038080778E-01
 0.3360728702786E+00  0.3140041526847E+00  0.0000000000000E+00  0.5167492238784E-01
 0.3035471184912E+00  0.2423507649009E+00  0.0000000000000E+00  0.1400607447935E-01
 0.3099932576532E+00  0.2675395872759E+00  0.0000000000000E+00 -0.2322122668994E-01
 0.3265688356359E+00  0.3261385728110E+00  0.0000000000000E+00 -0.2041758581628E-01
 0.2962441837812E+00  0.2995515519634E+00  0.0000000000000E+00  0.9784264385295E-02
 0.2036750953558E+00  0.1751816719359E+00  0.0000000000000E+00  0.2640790914711E-01
 0.5560935291753E-01  0.2694402450485E-01  0.0000000000000E+00  0.2892544938693E-01
-0.2632211873050E+00 -0.2227415825134E+00  0.0000000000000E+00  0.5128696207894E-01
-0.1277978381207E+01 -0.1241925273777E+01  0.0000000000000E+00 -0.7975265391888E-01
 0.8539793543560E-01  0.8338197616232E-01  0.0000000000000E+00  0.2265213135451E+00
 0.2545816492981E+00  0.2448132495011E+00  0.0000000000000E+00  0.9010570647423E-01
 0.3852903446041E+00  0.4236949702010E+00  0.0000000000000E+00  0.4762726000357E-01
 0.4129556027750E+00  0.4501715565712E+00  0.0000000000000E+00  0.6590567942440E-01
 0.3452565277953E+00  0.3129908326318E+00  0.0000000000000E+00  0.6699916095135E-01
 0.2852402570352E+00  0.1996713294188E+00  0.0000000000000E+00  0.1697208269986E-01
 0.3066576569510E+00  0.2508315225163E+00  0.0000000000000E+00 -0.3459328823502E-01
 0.3573088966367E+00  0.3659990392380E+00  0.0000000000000E+00 -0.2993704033927E-01
 0.3341208190778E+00  0.3504444621882E+00  0.0000000000000E+00  0.1208926111671E-01
 0.2161485338660E+00  0.1851231535955E+00  0.0000000000000E+00  0.2720493126756E-01
 0.4199590609639E-01  0.8201429931499E-02  0.0000000000000E+00  0.5067688460460E-02
-0.3081640911671E+00 -0.2436634068873E+00  0.0000000000000E+00  0.5716349133896E-02
-0.1517172570656E+01 -0.1457556351794E+01  0.0000000000000E+00 -0.1043286108750E-02
 0.8890866551780E-01  0.5365047019765E-02  0.0000000000000E+00  0.2606165319461E+00
 0.2865051038219E+00  0.2303948371852E+00  0.0000000000000E+00  0.8637544488083E-01
 0.4609266010479E+00  0.4953146030555E+00  0.0000000000000E+00  0.4133474311027E-01
 0.4852080921414E+00  0.5335722619177E+00  0.0000000000000E+00  0.7501693156400E-01
 0.3537289007277E+00  0.3108297452079E+00  0.0000000000000E+00  0.8359561859964E-01
 0.2440460008452E+00  0.1260681108278E+00  0.0000000000000E+00  0.1996404350374E-01
 0.2919486987534E+00  0.2171094785350E+00  0.0000000000000E+00 -0.4851068874750E-01
 0.4054202850032E+00  0.4266329721394E+00  0.0000000000000E+00 -0.4133902481556E-01
 0.3969382881232E+00  0.4314865868355E+00  0.0000000000000E+00  0.1585094620206E-01
 0.2373007667574E+00  0.1975375197547E+00  0.0000000000000E+00  0.3036372009032E-01
 0.4439962369855E-01 -0.1947874828735E-01  0.0000000000000E+00 -0.2131627543413E-01
-0.2301873264992E+00 -0.1856722975060E+00  0.0000000000000E+00 -0.4989995640317E-01
-0.1228717116374E+01 -0.1189848424481E+01  0.0000000000000E+00  0.7696043998994E-01
 0.8189021074726E-01 -0.1075839643960E+00  0.0000000000000E+00  0.2800429168577E+00
 0.3150117030434E+00  0.2028199929338E+00  0.0000000000000E+00  0.7232664392701E-01
 0.5716094169043E+00  0.6032927603603E+00  0.0000000000000E+00  0.2968205121446E-01
 0.6012142747661E+00  0.6681656681876E+00  0.0000000000000E+00  0.8069093780260E-01
 0.3608020198780E+00  0.3085485337481E+00  0.0000000000000E+00  0.9871259885669E-01
 0.1596916505534E+00  0.1249842120815E-02  0.0000000000000E+00  0.2258817887639E-01
 0.2528495357202E+00  0.1519126933767E+00  0.0000000000000E+00 -0.6270555743719E-01
 0.4819026968511E+00  0.5185708381541E+00  0.0000000000000E+00 -0.5275141572639E-01
 0.5026470510511E+00  0.5625470382515E+00  0.0000000000000E+00  0.2089004857189E-01
 0.2653385682073E+00  0.2129528854427E+00  0.0000000000000E+00  0.3657217620957E-01
 0.3795797710538E-01 -0.7902853690863E-01  0.0000000000000E+00 -0.4339147140946E-01
-0.6287895759728E-01 -0.8147942180107E-01  0.0000000000000E+00 -0.1041305492803E+00
-0.4850445413350E+00 -0.4921321297455E+00  0.0000000000000E+00  0.1331924905842E+00
 0.4877795095212E-01 -0.2678615843163E+00  0.0000000000000E+00  0.2677134448825E+00
 0.3230558769228E+00  0.1479777795592E+00  0.0000000000000E+00  0.5096723795500E-01
 0.7358255745165E+00  0.7641307596066E+00  0.0000000000000E+00  0.1834674767208E-01
 0.7948323027193E+00  0.8871714896396E+00  0.0000000000000E+00  0.7970528439440E-01
 0.3676205235707E+00  0.3100579260797E+00  0.0000000000000E+00  0.1039327432707E+00
-0.3510079902105E-02 -0.2069999452032E+00  0.0000000000000E+00  0.2236239456176E-01
 0.1641243769233E+00  0.2961993513225E-01  0.0000000000000E+00 -0.7040588381589E-01
 0.6048119386501E+00  0.6566183371210E+00  0.0000000000000E+00 -0.5747357346736E-01
 0.6847517539930E+00  0.7772252772415E+00  0.0000000000000E+00  0.2537363278410E-01
 0.2987524930877E+00  0.2355621262808E+00  0.0000000000000E+00  0.4050970060420E-01
-0.2339566957985E-01 -0.2074059690526E+00  0.0000000000000E+00 -0.5724550274549E-01
 0.1087927536556E+00  0.1186177899843E-02  0.0000000000000E+00 -0.1416814881669E+00
 0.4992642742855E+00  0.4476084014490E+00  0.0000000000000E+00  0.1509138637542E+00
-0.4305578699327E-01 -0.4880083072126E+00  0.0000000000000E+00  0.1915111664077E+00
 0.2719580258802E+00  0.3527748848423E-01  0.0000000000000E+00  0.3615084330347E-01
 0.9837739386513E+00  0.1001285037166E+01  0.0000000000000E+00  0.2368358178891E-01
 0.1130102423368E+01  0.1246903214275E+01  0.0000000000000E+00  0.6640900027848E-01
 0.3811231669542E+00  0.3255890703798E+00  0.0000000000000E+00  0.7868032752709E-01
-0.3087631298727E+00 -0.5500561511908E+00  0.0000000000000E+00  0.1142672911708E-01
-0.2387554112736E-01 -0.1953946037493E+00  0.0000000000000E+00 -0.5608175283645E-01
 0.8035200152865E+00  0.8609360697724E+00  0.0000000000000E+00 -0.3799192572614E-01
 0.1008230310636E+01  0.1133304360949E+01  0.0000000000000E+00  0.2539520963274E-01
 0.3431794705425E+00  0.2795099326833E+00  0.0000000000000E+00  0.2372148956481E-01
-0.2118273050263E+00 -0.4588792388132E+00  0.0000000000000E+00 -0.6654596887498E-01
 0.1691778629627E+00 -0.2970741985122E-01  0.0000000000000E+00 -0.1447309412721E+00
 0.1443460967890E+01  0.1374093699042E+01  0.0000000000000E+00  0.1305333787477E+00
-0.2607403637532E+00 -0.7722371423238E+00  0.0000000000000E+00 -0.6718767523627E-02
 0.7799709944936E-01 -0.2036030828066E+00  0.0000000000000E+00  0.6737957204043E-01
 0.1365054990812E+01  0.1349403695621E+01  0.0000000000000E+00  0.8476140869827E-01
 0.1727654805943E+01  0.1842056015152E+01  0.0000000000000E+00  0.3204614959783E-01
 0.4225968138317E+00  0.3782748109943E+00  0.0000000000000E+00 -0.2361685193300E-01
-0.8668464447975E+00 -0.1108312666288E+01  0.0000000000000E+00 -0.3183742416416E-01
-0.4083154648742E+00 -0.6033303413995E+00  0.0000000000000E+00  0.1258815605265E-01
 0.1122057656428E+01  0.1155565350516E+01  0.0000000000000E+00  0.4790784275695E-01
 0.1596817932630E+01  0.1727422982706E+01  0.0000000000000E+00  0.1678554845681E-01
 0.4257665954387E+00  0.3816600250144E+00  0.0000000000000E+00 -0.5909078920073E-01
-0.6414904786736E+00 -0.9127172142907E+00  0.0000000000000E+00 -0.9289726932507E-01
-0.1090289575862E-01 -0.2815235202129E+00  0.0000000000000E+00 -0.7697115520008E-01
 0.2101342552537E+01  0.2053553840579E+01  0.0000000000000E+00  0.8410370250637E-01
-0.7413561882294E+00 -0.1090663301058E+01  0.0000000000000E+00 -0.4259696018685E+00
-0.4352432666373E+00 -0.7285096684078E+00  0.0000000000000E+00  0.2405270197701E+00
 0.1962687630758E+01  0.1869211257646E+01  0.0000000000000E+00  0.2862003981249E+00
 0.2814327072944E+01  0.2828350910761E+01  0.0000000000000E+00 -0.3401598815025E-01
 0.5459955443747E+00  0.5170621774350E+00  0.0000000000000E+00 -0.3028724075736E+00
-0.1869748859796E+01 -0.2005549196555E+01  0.0000000000000E+00 -0.1613838988007E+00
-0.1177937744750E+01 -0.1333436506313E+01  0.0000000000000E+00  0.1976438004912E+00
 0.1619463020435E+01  0.1563117121397E+01  0.0000000000000E+00  0.2955869154722E+00
 0.2679289691269E+01  0.2715743474395E+01  0.0000000000000E+00  0.2108177906060E-02
 0.6353188949243E+00  0.6298281648010E+00  0.0000000000000E+00 -0.2996820768630E+00
-0.1517394427213E+01 -0.1690792228563E+01  0.0000000000000E+00 -0.2156810854959E+00
-0.5675860441399E+00 -0.8810408421047E+00  0.0000000000000E+00  0.1728982447337E+00
 0.2369850852023E+01  0.2357645818180E+01  0.0000000000000E+00  0.1299734292676E-01
 0.2627413859769E+01 -0.4539856920784E+01  0.0000000000000E+00 -0.1031044213194E+02
 0.7270574723846E+01 -0.8940671049469E+01  0.0000000000000E+00 -0.4548536883437E+01
 0.9174285074552E+01 -0.1053250267080E+02  0.0000000000000E+00 -0.2920629652023E+01
 0.9719400140181E+01 -0.1090594799983E+02  0.0000000000000E+00 -0.3478279886184E+01
 0.9575665775048E+01 -0.1069960622064E+02  0.0000000000000E+00 -0.5360516834701E+01
 0.9000780157035E+01 -0.1016781040047E+02  0.0000000000000E+00 -0.7637190695436E+01
 0.2422002349219E+01 -0.4432609530759E+01  0.0000000000000E+00 -0.7219555666318E+01
 0.7446664924635E+01 -0.9110215115693E+01  0.0000000000000E+00 -0.3867903778057E+01
 0.9765335793745E+01 -0.1118714854666E+02  0.0000000000000E+00 -0.2975161627645E+01
 0.1068958930797E+02 -0.1195987177990E+02  0.0000000000000E+00 -0.3575845579196E+01
 0.1079650426334E+02 -0.1203838466835E+02  0.0000000000000E+00 -0.5561377809851E+01
 0.1034111566332E+02 -0.1161446897264E+02  0.0000000000000E+00 -0.8597205262059E+01
 0.2768999119242E+01 -0.4772266470025E+01  0.0000000000000E+00 -0.4531924099281E+01
 0.7715313643032E+01 -0.9391326381212E+01  0.0000000000000E+00 -0.3112473439629E+01
 0.1026549093977E+02 -0.1171688126540E+02  0.0000000000000E+00 -0.2686048969955E+01
 0.1152281668438E+02 -0.1285678505548E+02  0.0000000000000E+00 -0.3357810667767E+01
 0.1201388518013E+02 -0.1333465109491E+02  0.0000000000000E+00 -0.5421448180886E+01
 0.1197795689795E+02 -0.1337572596378E+02  0.0000000000000E+00 -0.8831947923937E+01
 0.3432633551475E+01 -0.5397248738093E+01  0.0000000000000E+00 -0.2447196456800E+01
 0.7987505107135E+01 -0.9653646327285E+01  0.0000000000000E+00 -0.2277399458678E+01
 0.1065393368570E+02 -0.1212420445164E+02  0.0000000000000E+00 -0.2142848124931E+01
 0.1221548643779E+02 -0.1358676249412E+02  0.0000000000000E+00 -0.2774998984240E+01
 0.1313822670056E+02 -0.1451882746404E+02  0.0000000000000E+00 -0.4659607412268E+01
 0.1367752057857E+02 -0.1518333441368E+02  0.0000000000000E+00 -0.7956226908266E+01
 0.4114627709827E+01 -0.6033504506470E+01  0.0000000000000E+00 -0.1082739364516E+01
 0.8205030648575E+01 -0.9853991636837E+01  0.0000000000000E+00 -0.1386739335580E+01
 0.1091745746898E+02 -0.1239504374590E+02  0.0000000000000E+00 -0.1385900055821E+01
 0.1272274580749E+02 -0.1411434822132E+02  0.0000000000000E+00 -0.1838780766957E+01
 0.1403691324751E+02 -0.1545357715988E+02  0.0000000000000E+00 -0.3207428771983E+01
 0.1518205158360E+02 -0.1676449452445E+02  0.0000000000000E+00 -0.5770343567169E+01
 0.4538040388343E+01 -0.6427298847048E+01  0.0000000000000E+00 -0.2888819590180E+00
 0.8325253972872E+01 -0.9961704374100E+01  0.0000000000000E+00 -0.4655171487102E+00
 0.1105017618244E+02 -0.1252964262466E+02  0.0000000000000E+00 -0.4798472580727E+00
 0.1299286805758E+02 -0.1439262860000E+02  0.0000000000000E+00 -0.6444526589761E+00
 0.1455447072605E+02 -0.1598355286342E+02  0.0000000000000E+00 -0.1155859137050E+01
 0.1610716510083E+02 -0.1773811805117E+02  0.0000000000000E+00 -0.2167351289845E+01
 0.4538040369751E+01 -0.6427298829670E+01  0.0000000000000E+00  0.2888819598256E+00
 0.8325253967209E+01 -0.9961704369060E+01  0.0000000000000E+00  0.4655171356140E+00
 0.1105017617969E+02 -0.1252964262185E+02  0.0000000000000E+00  0.4798472270031E+00
 0.1299286805453E+02 -0.1439262859671E+02  0.0000000000000E+00  0.6444526122047E+00
 0.1455447072365E+02 -0.1598355286052E+02  0.0000000000000E+00  0.1155859090304E+01
 0.1610716510334E+02 -0.1773811805342E+02  0.0000000000000E+00  0.2167351247534E+01
 0.4114627660614E+01 -0.6033504460218E+01  0.0000000000000E+00  0.1082739388895E+01
 0.8205030632183E+01 -0.9853991621913E+01  0.0000000000000E+00  0.1386739316988E+01
 0.1091745746017E+02 -0.1239504373686E+02  0.0000000000000E+00  0.1385900018349E+01
 0.1272274579817E+02 -0.1411434821131E+02  0.0000000000000E+00  0.1838780716630E+01
 0.1403691323860E+02 -0.1545357715009E+02  0.0000000000000E+00  0.3207428727441E+01
 0.1518205158520E+02 -0.1676449452454E+02  0.0000000000000E+00  0.5770343550486E+01
 0.3432633489237E+01 -0.5397248678740E+01  0.0000000000000E+00  0.2447196519404E+01
 0.7987505081713E+01 -0.9653646303121E+01  0.0000000000000E+00  0.2277399430744E+01
 0.1065393366953E+02 -0.1212420443481E+02  0.0000000000000E+00  0.2142848077343E+01
 0.1221548642168E+02 -0.1358676247699E+02  0.0000000000000E+00  0.2774998928733E+01
 0.1313822668382E+02 -0.1451882744641E+02  0.0000000000000E+00  0.4659607366387E+01
 0.1367752057071E+02 -0.1518333440436E+02  0.0000000000000E+00  0.7956226898137E+01
 0.2768999066956E+01 -0.4772266418143E+01  0.0000000000000E+00  0.4531924200001E+01
 0.7715313611168E+01 -0.9391326349062E+01  0.0000000000000E+00  0.3112473401262E+01
 0.1026549091484E+02 -0.1171688123910E+02  0.0000000000000E+00  0.2686048912579E+01
 0.1152281666098E+02 -0.1285678503069E+02  0.0000000000000E+00  0.3357810608072E+01
 0.1201388515598E+02 -0.1333465106990E+02  0.0000000000000E+00  0.5421448134167E+01
 0.1197795687997E+02 -0.1337572594523E+02  0.0000000000000E+00  0.8831947917524E+01
 0.2422002327799E+01 -0.4432609504979E+01  0.0000000000000E+00  0.7219555789615E+01
 0.7446664889412E+01 -0.9110215077522E+01  0.0000000000000E+00  0.3867903731333E+01
 0.9765335759684E+01 -0.1118714851032E+02  0.0000000000000E+00  0.2975161564357E+01
 0.1068958927687E+02 -0.1195987174695E+02  0.0000000000000E+00  0.3575845517737E+01
 0.1079650423172E+02 -0.1203838463567E+02  0.0000000000000E+00  0.5561377766088E+01
 0.1034111563622E+02 -0.1161446894614E+02  0.0000000000000E+00  0.8597205263174E+01
 0.2627413879827E+01 -0.4539856927103E+01  0.0000000000000E+00  0.1031044226007E+02
 0.7270574689606E+01 -0.8940671011594E+01  0.0000000000000E+00  0.4548536838096E+01
 0.9174285032808E+01 -0.1053250262535E+02  0.0000000000000E+00  0.2920629582820E+01
 0.9719400100795E+01 -0.1090594795691E+02  0.0000000000000E+00  0.3478279829355E+01
 0.9575665735652E+01 -0.1069960618129E+02  0.0000000000000E+00  0.5360516796626E+01
 0.9000780122332E+01 -0.1016781036541E+02  0.0000000000000E+00  0.7637190704981E+01
 0.7261723691334E+01 -0.1011274064894E+02  0.0000000000000E+00 -0.7781930102714E+01
 0.5491213225765E+01 -0.5954009490486E+01  0.0000000000000E+00  0.4766603404798E+01
 0.1876086437630E+01 -0.2400269211893E+01  0.0000000000000E+00  0.2502640701214E+01
 0.3138987295450E+00 -0.2867606049323E+00  0.0000000000000E+00  0.1679411196328E+01
-0.1372653245338E+00  0.2988498844416E+00  0.0000000000000E+00  0.1603185469908E+01
 0.2541283904499E+00 -0.1297662959972E-01  0.0000000000000E+00  0.2330403317447E+01
 0.7376158649812E+01 -0.9489001114390E+01  0.0000000000000E+00 -0.1148906957036E+02
 0.6593419118305E+01 -0.7784850555078E+01  0.0000000000000E+00  0.1296575061284E+01
 0.3615862761245E+01 -0.4112879195226E+01  0.0000000000000E+00  0.1838344071554E+01
 0.1860795156200E+01 -0.2144891239707E+01  0.0000000000000E+00  0.9265919010591E+00
 0.9911004755364E+00 -0.1046796807895E+01  0.0000000000000E+00  0.7530072004617E+00
 0.8487850634455E+00 -0.8154637697727E+00  0.0000000000000E+00  0.1023303152306E+01
 0.6712985328845E+01 -0.8695799238660E+01  0.0000000000000E+00 -0.1343604232666E+02
 0.7226484803206E+01 -0.8591522884134E+01  0.0000000000000E+00 -0.1267717594906E+01
 0.5195372073835E+01 -0.5958752027369E+01  0.0000000000000E+00  0.5463294495733E+00
 0.3534358689523E+01 -0.4017774948041E+01  0.0000000000000E+00  0.2582816900522E-01
 0.2471814255169E+01 -0.2777003773861E+01  0.0000000000000E+00 -0.7011401033860E+00
 0.1802577781731E+01 -0.2017037790473E+01  0.0000000000000E+00 -0.1145016746957E+01
 0.5644211725417E+01 -0.7639502506168E+01  0.0000000000000E+00 -0.1436299838499E+02
 0.7573844321728E+01 -0.9042878083289E+01  0.0000000000000E+00 -0.3253485328194E+01
 0.6580149752337E+01 -0.7560098758543E+01  0.0000000000000E+00 -0.1041443592801E+01
 0.5311174874891E+01 -0.6010752332492E+01  0.0000000000000E+00 -0.1157893336455E+01
 0.4272633797063E+01 -0.4803820788640E+01  0.0000000000000E+00 -0.2218994286216E+01
 0.3297193830024E+01 -0.3769540975851E+01  0.0000000000000E+00 -0.3586156208949E+01
 0.4394186452000E+01 -0.6414262647998E+01  0.0000000000000E+00 -0.1412049344308E+02
 0.7688576114607E+01 -0.9241237993741E+01  0.0000000000000E+00 -0.4665795920573E+01
 0.7716592094286E+01 -0.8874506283989E+01  0.0000000000000E+00 -0.2526766589428E+01
 0.6987316429250E+01 -0.7895946348546E+01  0.0000000000000E+00 -0.2453327220889E+01
 0.6230330681425E+01 -0.6957703467196E+01  0.0000000000000E+00 -0.3480259159820E+01
 0.5316278860377E+01 -0.6018970280432E+01  0.0000000000000E+00 -0.5496928913017E+01
 0.3224658137596E+01 -0.5255217335109E+01  0.0000000000000E+00 -0.1266707119755E+02
 0.7555260007018E+01 -0.9133216097605E+01  0.0000000000000E+00 -0.5339613192773E+01
 0.8580758942548E+01 -0.9899199766831E+01  0.0000000000000E+00 -0.3506296093940E+01
 0.8516094929413E+01 -0.9624562208755E+01  0.0000000000000E+00 -0.3626371197970E+01
 0.8021339542015E+01 -0.8985988812891E+01  0.0000000000000E+00 -0.4527441950644E+01
 0.7582440321438E+01 -0.8374674785470E+01  0.0000000000000E+00 -0.6262329407587E+01
 0.3224658177085E+01 -0.5255217364878E+01  0.0000000000000E+00  0.1266707126668E+02
 0.7555259978179E+01 -0.9133216056984E+01  0.0000000000000E+00  0.5339613158032E+01
 0.8580758887815E+01 -0.9899199704808E+01  0.0000000000000E+00  0.3506296050084E+01
 0.8516094880115E+01 -0.9624562154288E+01  0.0000000000000E+00  0.3626371161931E+01
 0.8021339504211E+01 -0.8985988769762E+01  0.0000000000000E+00  0.4527441922896E+01
 0.7582440277428E+01 -0.8374674742604E+01  0.0000000000000E+00  0.6262329420674E+01
 0.4394186488344E+01 -0.6414262672243E+01  0.0000000000000E+00  0.1412049342009E+02
 0.7688576080879E+01 -0.9241237948741E+01  0.0000000000000E+00  0.4665795868059E+01
 0.7716592032414E+01 -0.8874506213104E+01  0.0000000000000E+00  0.2526766556129E+01
 0.6987316378096E+01 -0.7895946291236E+01  0.0000000000000E+00  0.2453327203367E+01
 0.6230330642503E+01 -0.6957703424000E+01  0.0000000000000E+00  0.3480259164517E+01
 0.5316278815313E+01 -0.6018970235813E+01  0.0000000000000E+00  0.5496928942409E+01
 0.5644211737122E+01 -0.7639502508379E+01  0.0000000000000E+00  0.1436299830235E+02
 0.7573844279818E+01 -0.9042878029966E+01  0.0000000000000E+00  0.3253485272557E+01
 0.6580149686285E+01 -0.7560098682655E+01  0.0000000000000E+00  0.1041443575646E+01
 0.5311174825170E+01 -0.6010752276978E+01  0.0000000000000E+00  0.1157893338138E+01
 0.4272633759486E+01 -0.4803820747042E+01  0.0000000000000E+00  0.2218994302334E+01
 0.3297193797987E+01 -0.3769540943688E+01  0.0000000000000E+00  0.3586156230756E+01
 0.6712985305545E+01 -0.8695799210393E+01  0.0000000000000E+00  0.1343604221674E+02
 0.7226484752403E+01 -0.8591522821339E+01  0.0000000000000E+00  0.1267717549812E+01
 0.5195372007344E+01 -0.5958751950781E+01  0.0000000000000E+00 -0.5463294415620E+00
 0.3534358647137E+01 -0.4017774900867E+01  0.0000000000000E+00 -0.2582815633404E-01
 0.2471814226440E+01 -0.2777003741503E+01  0.0000000000000E+00  0.7011401136092E+00
 0.1802577773639E+01 -0.2017037781556E+01  0.0000000000000E+00  0.1145016748901E+01
 0.7376158591386E+01 -0.9489001055499E+01  0.0000000000000E+00  0.1148906945876E+02
 0.6593419060078E+01 -0.7784850481221E+01  0.0000000000000E+00 -0.1296575078265E+01
 0.3615862700878E+01 -0.4112879127764E+01  0.0000000000000E+00 -0.1838344032370E+01
 0.1860795127563E+01 -0.2144891206980E+01  0.0000000000000E+00 -0.9265918921552E+00
 0.9911004602798E+00 -0.1046796789351E+01  0.0000000000000E+00 -0.7530072064459E+00
 0.8487850839634E+00 -0.8154637888483E+00  0.0000000000000E+00 -0.1023303170218E+01
 0.7261723609252E+01 -0.1011274055669E+02  0.0000000000000E+00  0.7781930036566E+01
 0.5491213173516E+01 -0.5954009425258E+01  0.0000000000000E+00 -0.4766603351617E+01
 0.1876086388502E+01 -0.2400269159613E+01  0.0000000000000E+00 -0.2502640649065E+01
 0.3138987155893E+00 -0.2867605848619E+00  0.0000000000000E+00 -0.1679411202991E+01
-0.1372653226160E+00  0.2988498828620E+00  0.0000000000000E+00 -0.1603185492594E+01
 0.2541284324905E+00 -0.1297666848635E-01  0.0000000000000E+00 -0.2330403364062E+01
 0.7372623879155E+01 -0.8531204171149E+01  0.0000000000000E+00 -0.9380145398356E+01
 0.4896114731462E+01 -0.5641256456631E+01  0.0000000000000E+00 -0.7940641092727E+01
 0.3061130511099E+01 -0.3497709881893E+01  0.0000000000000E+00 -0.5336643424714E+01
 0.2034305786357E+01 -0.2172742967496E+01  0.0000000000000E+00 -0.2168264019973E+01
 0.1640891718630E+01 -0.1541364553709E+01  0.0000000000000E+00  0.4685264868883E+00
 0.1393781645637E+01 -0.1163431875777E+01  0.0000000000000E+00  0.1766725961236E+01
 0.9088112794106E+01 -0.1034668616952E+02  0.0000000000000E+00 -0.1184410036048E+02
 0.6870379706702E+01 -0.7895407237576E+01  0.0000000000000E+00 -0.1121673670440E+02
 0.4686294463240E+01 -0.5374672977849E+01  0.0000000000000E+00 -0.8751978825626E+01
 0.3146822313580E+01 -0.3470319664212E+01  0.0000000000000E+00 -0.5194293894255E+01
 0.2412230752443E+01 -0.2389582753691E+01  0.0000000000000E+00 -0.1911203048374E+01
 0.2016482838965E+01 -0.1751097218398E+01  0.0000000000000E+00 -0.3231980425883E+00
 0.1108139398699E+02 -0.1249517712675E+02  0.0000000000000E+00 -0.1286639589419E+02
 0.9290457360251E+01 -0.1060406546481E+02  0.0000000000000E+00 -0.1416322837741E+02
 0.7236701864959E+01 -0.8336853210553E+01  0.0000000000000E+00 -0.1336828534977E+02
 0.5359344686426E+01 -0.6120283118105E+01  0.0000000000000E+00 -0.1072919667309E+02
 0.4198927676864E+01 -0.4459981739284E+01  0.0000000000000E+00 -0.7121048615516E+01
 0.3564103536267E+01 -0.3336232328314E+01  0.0000000000000E+00 -0.4739469460392E+01
 0.1337637903572E+02 -0.1493808999278E+02  0.0000000000000E+00 -0.1208443858418E+02
 0.1227861105378E+02 -0.1387230580370E+02  0.0000000000000E+00 -0.1493626722237E+02
 0.1086340099719E+02 -0.1242556164308E+02  0.0000000000000E+00 -0.1652545662634E+02
 0.9320612020691E+01 -0.1077888661237E+02  0.0000000000000E+00 -0.1649842073804E+02
 0.8209207044283E+01 -0.9413171180474E+01  0.0000000000000E+00 -0.1462208889778E+02
 0.8585813409519E+01 -0.9127974154688E+01  0.0000000000000E+00 -0.1177434086136E+02
 0.1569562520265E+02 -0.1738860298878E+02  0.0000000000000E+00 -0.9127630087748E+01
 0.1548686583977E+02 -0.1727853986798E+02  0.0000000000000E+00 -0.1231224066021E+02
 0.1496320481030E+02 -0.1687118563314E+02  0.0000000000000E+00 -0.1520138564947E+02
 0.1410796327493E+02 -0.1615523689311E+02  0.0000000000000E+00 -0.1729314434617E+02
 0.1307470222695E+02 -0.1526990132088E+02  0.0000000000000E+00 -0.1776493453326E+02
 0.1259593590248E+02 -0.1476169504540E+02  0.0000000000000E+00 -0.1484917636328E+02
 0.1712736635517E+02 -0.1887796293030E+02  0.0000000000000E+00 -0.3532347331050E+01
 0.1735638572734E+02 -0.1921358594754E+02  0.0000000000000E+00 -0.4991685367983E+01
 0.1723149324226E+02 -0.1925237018742E+02  0.0000000000000E+00 -0.6449637918799E+01
 0.1657860378918E+02 -0.1883802258911E+02  0.0000000000000E+00 -0.7675177894716E+01
 0.1507429068172E+02 -0.1771297534722E+02  0.0000000000000E+00 -0.8215938329090E+01
 0.1201291391365E+02 -0.1538755723763E+02  0.0000000000000E+00 -0.6706712971913E+01
 0.1712736636350E+02 -0.1887796293744E+02  0.0000000000000E+00  0.3532347253351E+01
 0.1735638573793E+02 -0.1921358595623E+02  0.0000000000000E+00  0.4991685162493E+01
 0.1723149325502E+02 -0.1925237019799E+02  0.0000000000000E+00  0.6449637575425E+01
 0.1657860380063E+02 -0.1883802259906E+02  0.0000000000000E+00  0.7675177420895E+01
 0.1507429067648E+02 -0.1771297534433E+02  0.0000000000000E+00  0.8215937764277E+01
 0.1201291382536E+02 -0.1538755717552E+02  0.0000000000000E+00  0.6706712457915E+01
 0.1569562522615E+02 -0.1738860301163E+02  0.0000000000000E+00  0.9127630073882E+01
 0.1548686588539E+02 -0.1727853991235E+02  0.0000000000000E+00  0.1231224060398E+02
 0.1496320488013E+02 -0.1687118570398E+02  0.0000000000000E+00  0.1520138557386E+02
 0.1410796336446E+02 -0.1615523698883E+02  0.0000000000000E+00  0.1729314427894E+02
 0.1307470230921E+02 -0.1526990142110E+02  0.0000000000000E+00  0.1776493450000E+02
 0.1259593589409E+02 -0.1476169509076E+02  0.0000000000000E+00  0.1484917631271E+02
 0.1337637904590E+02 -0.1493809000115E+02  0.0000000000000E+00  0.1208443858253E+02
 0.1227861109224E+02 -0.1387230584296E+02  0.0000000000000E+00  0.1493626722762E+02
 0.1086340107428E+02 -0.1242556172711E+02  0.0000000000000E+00  0.1652545668625E+02
 0.9320612137191E+01 -0.1077888674677E+02  0.0000000000000E+00  0.1649842089150E+02
 0.8209207190736E+01 -0.9413171362763E+01  0.0000000000000E+00  0.1462208914718E+02
 0.8585813614203E+01 -0.9127974401916E+01  0.0000000000000E+00  0.1177434109871E+02
 0.1108139397884E+02 -0.1249517711661E+02  0.0000000000000E+00  0.1286639590035E+02
 0.9290457375710E+01 -0.1060406548317E+02  0.0000000000000E+00  0.1416322842629E+02
 0.7236701911122E+01 -0.8336853266019E+01  0.0000000000000E+00  0.1336828546588E+02
 0.5359344755042E+01 -0.6120283202891E+01  0.0000000000000E+00  0.1072919685897E+02
 0.4198927765123E+01 -0.4459981845192E+01  0.0000000000000E+00  0.7121048834500E+01
 0.3564103673535E+01 -0.3336232475133E+01  0.0000000000000E+00  0.4739469677695E+01
 0.9088112776914E+01 -0.1034668615115E+02  0.0000000000000E+00  0.1184410037982E+02
 0.6870379714631E+01 -0.7895407249182E+01  0.0000000000000E+00  0.1121673677107E+02
 0.4686294491758E+01 -0.5374673012577E+01  0.0000000000000E+00  0.8751978926745E+01
 0.3146822352815E+01 -0.3470319709379E+01  0.0000000000000E+00  0.5194294012568E+01
 0.2412230797575E+01 -0.2389582800563E+01  0.0000000000000E+00  0.1911203161383E+01
 0.2016482878904E+01 -0.1751097252755E+01  0.0000000000000E+00  0.3231981663920E+00
 0.7372623857479E+01 -0.8531204151877E+01  0.0000000000000E+00  0.9380145424120E+01
 0.4896114727527E+01 -0.5641256454138E+01  0.0000000000000E+00  0.7940641127326E+01
 0.3061130516403E+01 -0.3497709887619E+01  0.0000000000000E+00  0.5336643464638E+01
 0.2034305803979E+01 -0.2172742984064E+01  0.0000000000000E+00  0.2168264058569E+01
 0.1640891749830E+01 -0.1541364583172E+01  0.0000000000000E+00 -0.4685264519278E+00
 0.1393781673170E+01 -0.1163431905023E+01  0.0000000000000E+00 -0.1766725919488E+01
</DataArray>
<DataArray type="Float64" Name="S_Centroid" NumberOfComponents="4" ComponentName0="S11" ComponentName1="S22" ComponentName2="S33" ComponentName3="S12" format="ascii">
 0.1842336964401E+02 -0.6527139197366E+01  0.7137738267987E+02  0.1521319985388E+02
 0.1425221850722E+02 -0.6695381717688E+01  0.4534102073716E+02 -0.8590250893154E+01
-0.9102788566903E+01 -0.1577967233184E+02 -0.1492947653924E+03 -0.1022144275321E+02
-0.1882123442451E+02 -0.1781953171802E+02 -0.2198445968552E+03  0.1214856869377E+01
-0.2418151307432E+01 -0.4484820462379E+01 -0.4141783061887E+02  0.1081687173783E+02
 0.1743214873841E+02  0.7732124552628E+01  0.1509856397463E+03  0.5763710567115E+01
 0.1370733957959E+02  0.2600285108847E+01  0.9784574813065E+02 -0.7058707242460E+01
-0.8320699066388E+01 -0.1234540611644E+02 -0.1239966310970E+03 -0.1055667551595E+02
-0.1881826229620E+02 -0.1621442059756E+02 -0.2101960973625E+03 -0.7529200245785E-01
-0.3911522710036E+01 -0.4303717754560E+01 -0.4929144278758E+02  0.1070293131318E+02
 0.1660896913012E+02  0.4223411785733E+01  0.1249942854951E+03  0.7702895882093E+01
 0.1589814823414E+02 -0.6491480180349E+01  0.5644000832273E+02 -0.6174937251368E+01
-0.1491312108739E+02 -0.1578490915647E+02 -0.1841881814632E+03 -0.4641908619847E+00
 0.2162156528618E+02 -0.1491391921520E+02  0.4024587642592E+02  0.2399557136847E+00
 0.1046496082383E+02 -0.9649337892102E+01  0.4893737590348E+01 -0.2406413365478E+01
-0.8254202999208E+01 -0.9372152454957E+01 -0.1057581327250E+03 -0.3027193176452E+01
-0.1567572764648E+02 -0.7504212720473E+01 -0.1390796422017E+03 -0.1144505345999E+01
-0.1017303619130E+01 -0.4183161218793E+01 -0.3120278902753E+02  0.8434589651375E+00
 0.1503664798947E+02 -0.2210939453974E+01  0.7695425121299E+02  0.1137050837355E+01
 0.1024938115928E+02 -0.3680252822124E+01  0.3941477002294E+02 -0.4495769734876E+00
-0.8591583422802E+01 -0.6198176540676E+01 -0.8873855978087E+02 -0.1710994330889E+01
-0.1545745601208E+02 -0.6128523843073E+01 -0.1295158791309E+03 -0.5994838753167E+00
-0.1046280205421E+01 -0.4196749670113E+01 -0.3145817925320E+02  0.2110385259589E+01
 0.1473279801267E+02 -0.4640540363068E+01  0.6055354589763E+02  0.3317759584554E+01
 0.1061445862419E+02 -0.8715585906045E+01  0.1139323630885E+02  0.2748969907662E+01
-0.1178318357106E+02 -0.1519666298718E+02 -0.1618790793494E+03 -0.3003703709502E+01
 0.1761539544142E+02 -0.1416692738883E+02  0.2069080831557E+02 -0.6839684725049E+01
 0.7455358238325E+01 -0.9450394292597E+01 -0.1197021632563E+02 -0.1291101604551E+01
-0.7070393266010E+01 -0.5819600297797E+01 -0.7733996138284E+02 -0.8458422481354E+00
-0.1188900754660E+02 -0.3546093965492E+01 -0.9261060907254E+02 -0.2371750065383E+01
-0.3111594554294E+00 -0.4277880909483E+01 -0.2753424218948E+02 -0.2810011727258E+01
 0.1140598223305E+02 -0.5829233702101E+01  0.3346049118568E+02 -0.4080974492064E+00
 0.6837596690948E+01 -0.5413764789022E+01  0.8542991411557E+01  0.2002919784546E+01
-0.7454651681539E+01 -0.3353504792164E+01 -0.6484893884221E+02  0.1356854506649E+01
-0.1141996491671E+02 -0.2486104252036E+01 -0.8343641501250E+02 -0.9069717960429E+00
 0.2521933375828E+00 -0.4295630945778E+01 -0.2426062564917E+02 -0.8471960959974E+00
 0.1100090193291E+02 -0.6645664750225E+01  0.2613142309609E+02  0.2376641735881E+01
 0.6650219582399E+01 -0.7555871884270E+01 -0.5433913811227E+01  0.5168962197755E+01
-0.6670502149612E+01 -0.1162530704747E+02 -0.1097748551825E+03 -0.4661906430498E+01
 0.1201986515452E+02 -0.1059724424884E+02  0.8535725434103E+01 -0.9561194585328E+01
 0.4723458934397E+01 -0.7782119221702E+01 -0.1835196172383E+02 -0.1820258545054E+01
-0.5880887731866E+01 -0.3859088601944E+01 -0.5843985800286E+02 -0.6552410432995E+00
-0.8758879333282E+01 -0.2163223195194E+01 -0.6553261517085E+02 -0.2846617361554E+01
-0.1444475098433E+00 -0.4256061838496E+01 -0.2640305609003E+02 -0.3711883700104E+01
 0.7950969287766E+01 -0.6584021139108E+01  0.8201688891950E+01 -0.7986569131199E+00
 0.4174689937362E+01 -0.5432770032473E+01 -0.7548480570664E+01  0.2514495873526E+01
-0.5945781414158E+01 -0.2245324300092E+01 -0.4914663428550E+02  0.2052627608455E+01
-0.8049304387603E+01 -0.1444052851768E+01 -0.5696014343623E+02 -0.9062011926813E+00
 0.5220111606231E+00 -0.3991586568474E+01 -0.2081745244711E+02 -0.1446775026758E+01
 0.7321152269038E+01 -0.5822440418034E+01  0.8992271106023E+01  0.2044482231729E+01
 0.3486017416426E+01 -0.4200166313934E+01 -0.4284893385046E+01  0.5060053092550E+01
-0.1229409123107E+01 -0.4919114223550E+01 -0.3689114007995E+02 -0.5389780853435E+01
 0.6850355883689E+01 -0.6683513408280E+01  0.1001054852458E+01 -0.1000153278959E+02
 0.2325574847909E+01 -0.5688118460775E+01 -0.2017526167720E+02 -0.2583094454102E+01
-0.4946165571039E+01 -0.2683069439795E+01 -0.4577541006500E+02 -0.1060073309261E+01
-0.6512484609552E+01 -0.1730242285872E+01 -0.4945636137254E+02 -0.2881819257239E+01
-0.3070200588932E+00 -0.4039412083205E+01 -0.2607859285259E+02 -0.3525449955713E+01
 0.5136098666143E+01 -0.6181173357487E+01 -0.6270448148064E+01 -0.8067206384330E+00
 0.2290724022268E+01 -0.4919050285102E+01 -0.1576995757700E+02  0.2239484197794E+01
-0.4557867190551E+01 -0.1938714210643E+01 -0.3897948840717E+02  0.1883979101119E+01
-0.5597707518347E+01 -0.1319137137456E+01 -0.4150106793481E+02 -0.7460731776664E+00
 0.3180229478619E+00 -0.3423811581897E+01 -0.1863473180421E+02 -0.1306149139159E+01
 0.4311435638896E+01 -0.4044743743467E+01  0.1600151372572E+01  0.1549695379652E+01
 0.1132998228023E+01 -0.1956060783077E+00  0.5624352898292E+01  0.3718948080383E+01
 0.3425779896030E+01  0.2919523746696E+01  0.3807182185636E+02 -0.4756874571676E+01
 0.2677616950271E+01 -0.3289783983550E+01 -0.3673002199676E+01 -0.9307733261554E+01
 0.3256913439615E+00 -0.3682184565486E+01 -0.2013895932914E+02 -0.3084837320513E+01
-0.4332822270828E+01 -0.1876536263555E+01 -0.3725615120630E+02 -0.1476240862506E+01
-0.5035020178907E+01 -0.1580436667869E+01 -0.3969274108065E+02 -0.2679176160173E+01
-0.6255451929872E+00 -0.3689770686605E+01 -0.2589189527755E+02 -0.2985557794050E+01
 0.3011826833039E+01 -0.5415165273687E+01 -0.1442003064388E+02 -0.7130015240815E+00
 0.1020042910585E+01 -0.4325615556858E+01 -0.1983343587764E+02  0.1732524588484E+01
-0.3459067580961E+01 -0.1943875643436E+01 -0.3241765934638E+02  0.1476393706342E+01
-0.3923558875935E+01 -0.1455823371538E+01 -0.3227629348484E+02 -0.5661052304482E+00
 0.8303361842263E-02 -0.2831928580661E+01 -0.1694175131291E+02 -0.1084418563296E+01
 0.2200458397283E+01 -0.2362282288323E+01 -0.9709433462410E+00  0.7612954987721E+00
-0.2396289380414E+00  0.2940016189914E+01  0.1620232351123E+02  0.1782141158729E+01
 0.6464318093773E+01  0.9240653351997E+01  0.9422982867462E+02 -0.2748586926390E+01
-0.4759883930218E+00 -0.6199851150502E+00 -0.6575841048432E+01 -0.8090046839337E+01
-0.1272540754646E+01 -0.1970283336384E+01 -0.1945694454618E+02 -0.3218060921851E+01
-0.3998169559028E+01 -0.1254981885262E+01 -0.3151890866574E+02 -0.1700973587325E+01
-0.4131502106685E+01 -0.1473219716567E+01 -0.3362833093951E+02 -0.2353774280945E+01
-0.9848204734122E+00 -0.3289513042842E+01 -0.2564600109753E+02 -0.2392827161837E+01
 0.1481644819684E+01 -0.4630421394720E+01 -0.1889265945022E+02 -0.6061457902257E+00
 0.1837606460538E+00 -0.3803820295712E+01 -0.2172035789795E+02  0.1235474566661E+01
-0.2658764616415E+01 -0.2038040158085E+01 -0.2818082864700E+02  0.1069179980897E+01
-0.2805601738043E+01 -0.1639627324491E+01 -0.2667137437520E+02 -0.4317593323922E+00
-0.1947808457519E+00 -0.2410879450485E+01 -0.1563396177742E+02 -0.9716046852796E+00
 0.1043967166227E+01 -0.1369923909164E+01 -0.1955740457622E+01 -0.1809889351909E+00
-0.5119481158282E+00  0.4095243570534E+01  0.2149977272823E+02 -0.2041554480858E+00
 0.7529060115455E+01  0.1178736145006E+02  0.1158985293931E+03  0.3726048562652E-01
-0.2760863241384E+01  0.1364036227440E+01 -0.8380962083667E+01 -0.6656082361641E+01
-0.2503405826198E+01 -0.6061048623182E+00 -0.1865706413110E+02 -0.3021334632767E+01
-0.3861302052290E+01 -0.7485299450575E+00 -0.2765899198409E+02 -0.1704477124710E+01
-0.3619685898434E+01 -0.1343477577482E+01 -0.2977898085550E+02 -0.1968942175243E+01
-0.1322471190100E+01 -0.2898808190443E+01 -0.2532767628326E+02 -0.1845532927896E+01
 0.4131883006583E+00 -0.3957979778605E+01 -0.2126874886768E+02 -0.5002169311124E+00
-0.3589041680299E+00 -0.3391309137649E+01 -0.2250127983408E+02  0.8293295126492E+00
-0.2103813361034E+01 -0.2134546433194E+01 -0.2543015876537E+02  0.7291994683824E+00
-0.2052521988926E+01 -0.1816281469989E+01 -0.2321282075349E+02 -0.3494380210223E+00
-0.2124321583237E+00 -0.2247676714244E+01 -0.1476065323541E+02 -0.9431396143840E+00
 0.7557312895057E+00 -0.1291792201919E+01 -0.3216365474480E+01 -0.1033051810891E+01
 0.1321011143658E+00  0.3023501206900E+01  0.1893361392760E+02 -0.1831677298888E+01
 0.6893894272184E+01  0.9469116005986E+01  0.9817806166902E+02  0.2848309291827E+01
-0.4359672104735E+01  0.2776723647525E+01 -0.9497690743259E+01 -0.5157763597360E+01
-0.3418415672622E+01  0.4266249172741E+00 -0.1795074453209E+02 -0.2571791034472E+01
-0.3843724415174E+01 -0.3362873230178E+00 -0.2508007042915E+02 -0.1514713234552E+01
-0.3352405557224E+01 -0.1197565182550E+01 -0.2729982443864E+02 -0.1552100286290E+01
-0.1605912780331E+01 -0.2558173620674E+01 -0.2498451840603E+02 -0.1362757162453E+01
-0.3163773123699E+00 -0.3430493068383E+01 -0.2248122228452E+02 -0.3954720238903E+00
-0.7109570069592E+00 -0.3080590981666E+01 -0.2274928793175E+02  0.5258241187307E+00
-0.1728727441516E+01 -0.2210441303729E+01 -0.2363501247147E+02  0.4693872441323E+00
-0.1526374723831E+01 -0.1983688503825E+01 -0.2106037936593E+02 -0.2931799166484E+00
-0.5072652722697E-01 -0.2338326657170E+01 -0.1433431910638E+02 -0.9092547821750E+00
 0.1100424192737E+01 -0.1997207632365E+01 -0.5380700637769E+01 -0.1571094057466E+01
 0.1487526321490E+01  0.1951852002222E-01  0.9042269049074E+01 -0.2752323893284E+01
 0.4669981160014E+01  0.3494520015618E+01  0.4898700705379E+02  0.4768013481457E+01
-0.5427315322732E+01  0.3731613886617E+01 -0.1017420861669E+02 -0.3659837637982E+01
-0.4062530577428E+01  0.1160784733203E+01 -0.1741047506535E+02 -0.1946159637114E+01
-0.3881822265497E+01 -0.1917108046023E-01 -0.2340596007574E+02 -0.1178997427693E+01
-0.3227843776030E+01 -0.1059429042402E+01 -0.2572363691059E+02 -0.1117979406402E+01
-0.1822128587614E+01 -0.2290183793992E+01 -0.2467387428964E+02 -0.9353285865487E+00
-0.7948368235933E+00 -0.3048626264303E+01 -0.2306077852738E+02 -0.2878127382173E+00
-0.9334467667692E+00 -0.2860614116848E+01 -0.2276436530171E+02  0.3107960900603E+00
-0.1484135751246E+01 -0.2264015636307E+01 -0.2248890832532E+02  0.2804777758094E+00
-0.1156456229096E+01 -0.2136029613193E+01 -0.1975491505374E+02 -0.2343813067042E+00
 0.2129864561120E+00 -0.2590408873131E+01 -0.1426453450212E+02 -0.7883962925451E+00
 0.1788672351200E+01 -0.3153150296564E+01 -0.8186867672181E+01 -0.1641964890152E+01
 0.3092156247794E+01 -0.3899231460338E+01 -0.4842451275264E+01 -0.2814909422523E+01
 0.1753444075754E+01 -0.4304868647678E+01 -0.1530854743154E+02  0.5176474401756E+01
-0.6078216507805E+01  0.4318544543253E+01 -0.1055803178731E+02 -0.2182855491722E+01
-0.4471667322638E+01  0.1629519111733E+01 -0.1705288926543E+02 -0.1208385008382E+01
-0.3930437309017E+01  0.1968383276820E+00 -0.2240159388801E+02 -0.7447186849781E+00
-0.3178247513253E+01 -0.9529722734051E+00 -0.2478731871995E+02 -0.6741697673261E+00
-0.1966752493744E+01 -0.2106861706181E+01 -0.2444168519955E+02 -0.5465506132314E+00
-0.1082946851850E+01 -0.2802479498775E+01 -0.2331255810375E+02 -0.1753955272134E+00
-0.1064107777766E+01 -0.2720485325813E+01 -0.2270755862148E+02  0.1605710683674E+00
-0.1336592623911E+01 -0.2298231036370E+01 -0.2180894196168E+02  0.1456907928222E+00
-0.9137522098605E+00 -0.2256130825395E+01 -0.1901929821153E+02 -0.1553222300556E+00
 0.4740691080848E+00 -0.2870640112110E+01 -0.1437942602415E+02 -0.5437286044982E+00
 0.2488711080613E+01 -0.4294417550478E+01 -0.1083423881919E+02 -0.1228293522587E+01
 0.4487676533890E+01 -0.7484177938910E+01 -0.1797900843012E+02 -0.2071940639378E+01
-0.8994260662090E+00 -0.1145810094922E+02 -0.7414516209257E+02  0.3947220450108E+01
-0.6385864321562E+01  0.4597276555121E+01 -0.1073152659864E+02 -0.7251502580333E+00
-0.4670154010310E+01  0.1857471078552E+01 -0.1687609759055E+02 -0.4092689898491E+00
-0.3961426637599E+01  0.3063208881444E+00 -0.2193063449673E+02 -0.2542928465186E+00
-0.3162927170612E+01 -0.8953860688806E+00 -0.2434987943695E+02 -0.2252605161892E+00
-0.2038990215229E+01 -0.2014046154495E+01 -0.2431821821834E+02 -0.1798189383389E+00
-0.1218148092626E+01 -0.2682209377099E+01 -0.2340214481835E+02 -0.5897475575185E-01
-0.1124530229441E+01 -0.2652410720505E+01 -0.2266164569968E+02  0.4922168410003E-01
-0.1266997252826E+01 -0.2315032195294E+01 -0.2149217668872E+02  0.4472650103969E-01
-0.7918384524321E+00 -0.2323192303331E+01 -0.1869018453458E+02 -0.5475475000384E-01
 0.6340668431119E+00 -0.3049949135091E+01 -0.1449529375187E+02 -0.1946988853759E+00
 0.2919181241748E+01 -0.4992312491380E+01 -0.1243878749779E+02 -0.4537739635673E+00
 0.5293300729234E+01 -0.9608486993588E+01 -0.2589111758612E+02 -0.7591063908111E+00
-0.2463561028296E+01 -0.1570464491899E+02 -0.1090092356837E+03  0.1470556073556E+01
-0.6385864300604E+01  0.4597276538715E+01 -0.1073152657133E+02  0.7251504377520E+00
-0.4670153994694E+01  0.1857471067980E+01 -0.1687609756028E+02  0.4092690894707E+00
-0.3961426628819E+01  0.3063208833038E+00 -0.2193063447309E+02  0.2542928922294E+00
-0.3162927167955E+01 -0.8953860691857E+00 -0.2434987942285E+02  0.2252605370138E+00
-0.2038990214285E+01 -0.2014046153576E+01 -0.2431821820717E+02  0.1798189519006E+00
-0.1218148089952E+01 -0.2682209377516E+01 -0.2340214480481E+02  0.5897476157511E-01
-0.1124530226750E+01 -0.2652410721330E+01 -0.2266164568848E+02 -0.4922169052216E-01
-0.1266997253427E+01 -0.2315032194379E+01 -0.2149217668684E+02 -0.4472651281386E-01
-0.7918384558631E+00 -0.2323192300580E+01 -0.1869018453866E+02  0.5475474606033E-01
 0.6340668376876E+00 -0.3049949128914E+01 -0.1449529374736E+02  0.1946988986028E+00
 0.2919181226788E+01 -0.4992312467708E+01 -0.1243878744552E+02  0.4537740115833E+00
 0.5293300698240E+01 -0.9608486914286E+01 -0.2589111729628E+02  0.7591064822006E+00
-0.2463560971491E+01 -0.1570464474204E+02 -0.1090092342812E+03 -0.1470556330263E+01
-0.6078216445014E+01  0.4318544494229E+01 -0.1055803170471E+02  0.2182855665457E+01
-0.4471667275841E+01  0.1629519080305E+01 -0.1705288917322E+02  0.1208385102816E+01
-0.3930437282876E+01  0.1968383134282E+00 -0.2240159381669E+02  0.7447187263775E+00
-0.3178247505899E+01 -0.9529722739053E+00 -0.2478731867882E+02  0.6741697857411E+00
-0.1966752491419E+01 -0.2106861703064E+01 -0.2444168516690E+02  0.5465506267712E+00
-0.1082946843615E+01 -0.2802479500058E+01 -0.2331255806204E+02  0.1753955336559E+00
-0.1064107769206E+01 -0.2720485328532E+01 -0.2270755858643E+02 -0.1605710754323E+00
-0.1336592625777E+01 -0.2298231033667E+01 -0.2180894195666E+02 -0.1456908058756E+00
-0.9137522203151E+00 -0.2256130817358E+01 -0.1901929822604E+02  0.1553222252782E+00
 0.4740690933803E+00 -0.2870640095733E+01 -0.1437942601412E+02  0.5437286140270E+00
 0.2488711041010E+01 -0.4294417487728E+01 -0.1083423868031E+02  0.1228293555706E+01
 0.4487676449122E+01 -0.7484177725406E+01 -0.1797900765770E+02  0.2071940706802E+01
-0.8994259123361E+00 -0.1145810047387E+02 -0.7414515831722E+02 -0.3947220626368E+01
-0.5427315218501E+01  0.3731613805705E+01 -0.1017420847677E+02  0.3659837799284E+01
-0.4062530499628E+01  0.1160784681848E+01 -0.1741047490668E+02  0.1946159721160E+01
-0.3881822222547E+01 -0.1917110334579E-01 -0.2340595995535E+02  0.1178997460493E+01
-0.3227843765866E+01 -0.1059429041870E+01 -0.2572363684642E+02  0.1117979419979E+01
-0.1822128585516E+01 -0.2290183787563E+01 -0.2467387423847E+02  0.9353286001545E+00
-0.7948368091400E+00 -0.3048626266510E+01 -0.2306077845390E+02  0.2878127460824E+00
-0.9334467507641E+00 -0.2860614122212E+01 -0.2276436523786E+02 -0.3107960983830E+00
-0.1484135754572E+01 -0.2264015631955E+01 -0.2248890831916E+02 -0.2804777914686E+00
-0.1156456247333E+01 -0.2136029600314E+01 -0.1975491508588E+02  0.2343813006812E+00
 0.2129864362754E+00 -0.2590408852247E+01 -0.1426453449583E+02  0.7883962963697E+00
 0.1788672301507E+01 -0.3153150216980E+01 -0.8186867492835E+01  0.1641964897594E+01
 0.3092156131819E+01 -0.3899231178359E+01 -0.4842450279240E+01  0.2814909446854E+01
 0.1753444281363E+01 -0.4304868023246E+01 -0.1530854245130E+02 -0.5176474442226E+01
-0.4359671960249E+01  0.2776723536475E+01 -0.9497690542648E+01  0.5157763738816E+01
-0.3418415564210E+01  0.4266248478130E+00 -0.1795074429838E+02  0.2571791102980E+01
-0.3843724356158E+01 -0.3362873533238E+00 -0.2508007025689E+02  0.1514713254589E+01
-0.3352405547527E+01 -0.1197565179034E+01 -0.2729982435937E+02  0.1552100292563E+01
-0.1605912781470E+01 -0.2558173608956E+01 -0.2498451834255E+02  0.1362757176372E+01
-0.3163772905473E+00 -0.3430493071473E+01 -0.2248122217212E+02  0.3954720343283E+00
-0.7109569804723E+00 -0.3080590990999E+01 -0.2274928782883E+02 -0.5258241288125E+00
-0.1728727446606E+01 -0.2210441298052E+01 -0.2363501246795E+02 -0.4693872638002E+00
-0.1526374751987E+01 -0.1983688486272E+01 -0.2106037942955E+02  0.2931799096208E+00
-0.5072654702475E-01 -0.2338326638913E+01 -0.1433431911563E+02  0.9092547811455E+00
 0.1100424153413E+01 -0.1997207565335E+01 -0.5380700471535E+01  0.1571094035517E+01
 0.1487526205436E+01  0.1951878371172E-01  0.9042269934886E+01  0.2752323864182E+01
 0.4669981355040E+01  0.3494520592473E+01  0.4898701168508E+02 -0.4768013373233E+01
-0.2760863059606E+01  0.1364036089990E+01 -0.8380961817700E+01  0.6656082474333E+01
-0.2503405687912E+01 -0.6061049467100E+00 -0.1865706380773E+02  0.3021334680878E+01
-0.3861301977783E+01 -0.7485299813241E+00 -0.2765899175464E+02  0.1704477128214E+01
-0.3619685894020E+01 -0.1343477568551E+01 -0.2977898077543E+02  0.1968942171706E+01
-0.1322471199447E+01 -0.2898808170445E+01 -0.2532767621935E+02  0.1845532942423E+01
 0.4131883314954E+00 -0.3957979782093E+01 -0.2126874870359E+02  0.5002169456910E+00
-0.3589041259055E+00 -0.3391309152855E+01 -0.2250127967256E+02 -0.8293295246406E+00
-0.2103813368094E+01 -0.2134546427016E+01 -0.2543015877066E+02 -0.7291994934385E+00
-0.2052522031653E+01 -0.1816281447208E+01 -0.2321282087317E+02  0.3494380137605E+00
-0.2124321742618E+00 -0.2247676704255E+01 -0.1476065327110E+02  0.9431396123969E+00
 0.7557312828477E+00 -0.1291792175201E+01 -0.3216365354119E+01  0.1033051763819E+01
 0.1321010295806E+00  0.3023501371838E+01  0.1893361440851E+02  0.1831677217105E+01
 0.6893894393658E+01  0.9469116352991E+01  0.9817806447989E+02 -0.2848309068531E+01
-0.4759881804930E+00 -0.6199852714415E+00 -0.6575840711607E+01  0.8090046912324E+01
-0.1272540587766E+01 -0.1970283430410E+01 -0.1945694410906E+02  0.3218060945508E+01
-0.3998169468735E+01 -0.1254981926103E+01 -0.3151890836903E+02  0.1700973571556E+01
-0.4131502113977E+01 -0.1473219699960E+01 -0.3362833088362E+02  0.2353774265157E+01
-0.9848204987955E+00 -0.3289513010471E+01 -0.2564600105560E+02  0.2392827176834E+01
 0.1481644861450E+01 -0.4630421396866E+01 -0.1889265921249E+02  0.6061458107093E+00
 0.1837607120586E+00 -0.3803820318989E+01 -0.2172035764158E+02 -0.1235474579822E+01
-0.2658764624963E+01 -0.2038040153444E+01 -0.2818082867044E+02 -0.1069180012117E+01
-0.2805601803506E+01 -0.1639627295623E+01 -0.2667137459478E+02  0.4317593255968E+00
-0.1947808587208E+00 -0.2410879449471E+01 -0.1563396184915E+02  0.9716046881271E+00
 0.1043967213591E+01 -0.1369923941044E+01 -0.1955740364723E+01  0.1809888735879E+00
-0.5119481461787E+00  0.4095243588090E+01  0.2149977265147E+02  0.2041553262106E+00
 0.7529060113526E+01  0.1178736146082E+02  0.1158985294461E+03 -0.3726021816963E-01
 0.2677617178379E+01 -0.3289784142909E+01 -0.3673001787178E+01  0.9307733283788E+01
 0.3256915324569E+00 -0.3682184655879E+01 -0.2013895874054E+02  0.3084837317172E+01
-0.4332822162946E+01 -0.1876536305258E+01 -0.3725615080922E+02  0.1476240825367E+01
-0.5035020199994E+01 -0.1580436644546E+01 -0.3969274106724E+02  0.2679176127286E+01
-0.6255452442128E+00 -0.3689770638486E+01 -0.2589189529619E+02  0.2985557807130E+01
 0.3011826878309E+01 -0.5415165265796E+01 -0.1442003032492E+02  0.7130015537050E+00
 0.1020043003616E+01 -0.4325615583411E+01 -0.1983343547877E+02 -0.1732524598125E+01
-0.3459067583250E+01 -0.1943875644949E+01 -0.3241765936919E+02 -0.1476393743413E+01
-0.3923558963615E+01 -0.1455823341311E+01 -0.3227629382956E+02  0.5661052215022E+00
 0.8303345837723E-02 -0.2831928582929E+01 -0.1694175142255E+02  0.1084418574654E+01
 0.2200458494915E+01 -0.2362282361221E+01 -0.9709431978387E+00 -0.7612955512189E+00
-0.2396288796113E+00  0.2940016048476E+01  0.1620232301319E+02 -0.1782141300113E+01
 0.6464317954653E+01  0.9240653089857E+01  0.9422982626706E+02  0.2748587142498E+01
 0.6850356104625E+01 -0.6683513548465E+01  0.1001055336964E+01  0.1000153274492E+02
 0.2325575049443E+01 -0.5688118529814E+01 -0.2017526088223E+02  0.2583094425965E+01
-0.4946165439224E+01 -0.2683069478078E+01 -0.4577540950381E+02  0.1060073257659E+01
-0.6512484644773E+01 -0.1730242257524E+01 -0.4945636141378E+02  0.2881819207236E+01
-0.3070201499897E+00 -0.4039412016413E+01 -0.2607859299842E+02  0.3525449959168E+01
 0.5136098701571E+01 -0.6181173329325E+01 -0.6270447766526E+01  0.8067206741567E+00
 0.2290724145071E+01 -0.4919050308038E+01 -0.1576995697780E+02 -0.2239484194186E+01
-0.4557867173175E+01 -0.1938714222963E+01 -0.3897948837683E+02 -0.1883979133085E+01
-0.5597707625023E+01 -0.1319137110708E+01 -0.4150106841439E+02  0.7460731632819E+00
 0.3180229115587E+00 -0.3423811571624E+01 -0.1863473196039E+02  0.1306149150342E+01
 0.4311435759602E+01 -0.4044743812828E+01  0.1600151680646E+01 -0.1549695407481E+01
 0.1132998330000E+01 -0.1956062559848E+00  0.5624352444091E+01 -0.3718948188582E+01
 0.3425779687002E+01  0.2919523371963E+01  0.3807181835379E+02  0.4756874663721E+01
 0.1201986532895E+02 -0.1059724433308E+02  0.8535725975229E+01  0.9561194460090E+01
 0.4723459138042E+01 -0.7782119245068E+01 -0.1835196064215E+02  0.1820258498393E+01
-0.5880887565306E+01 -0.3859088630298E+01 -0.5843985717363E+02  0.6552409882887E+00
-0.8758879378189E+01 -0.2163223169596E+01 -0.6553261528671E+02  0.2846617299800E+01
-0.1444476534073E+00 -0.4256061759907E+01 -0.2640305647989E+02  0.3711883688241E+01
 0.7950969296810E+01 -0.6584021081841E+01  0.8201689289818E+01  0.7986569486344E+00
 0.4174690089760E+01 -0.5432770038173E+01 -0.7548479690477E+01 -0.2514495850568E+01
-0.5945781360229E+01 -0.2245324326596E+01 -0.4914663412095E+02 -0.2052627623834E+01
-0.8049304503144E+01 -0.1444052842534E+01 -0.5696014407407E+02  0.9062011708607E+00
 0.5220110893094E+00 -0.3991586539754E+01 -0.2081745270267E+02  0.1446775021579E+01
 0.7321152379328E+01 -0.5822440440156E+01  0.8992271635032E+01 -0.2044482240910E+01
 0.3486017538174E+01 -0.4200166444378E+01 -0.4284893437224E+01 -0.5060053148820E+01
-0.1229409332901E+01 -0.4919114535505E+01 -0.3689114321043E+02  0.5389780848364E+01
 0.1761539550850E+02 -0.1416692736431E+02  0.2069080886516E+02  0.6839684514559E+01
 0.7455358431789E+01 -0.9450394239350E+01 -0.1197021484537E+02  0.1291101546552E+01
-0.7070393050257E+01 -0.5819600299206E+01 -0.7733996009678E+02  0.8458422067468E+00
-0.1188900758971E+02 -0.3546093953430E+01 -0.9261060925881E+02  0.2371750009946E+01
-0.3111596591413E+00 -0.4277880843028E+01 -0.2753424301301E+02  0.2810011697396E+01
 0.1140598219338E+02 -0.5829233615049E+01  0.3346049147001E+02  0.4080974684670E+00
 0.6837596862722E+01 -0.5413764753133E+01  0.8542992657533E+01 -0.2002919744159E+01
-0.7454651572742E+01 -0.3353504823744E+01 -0.6484893837892E+02 -0.1356854490219E+01
-0.1141996501630E+02 -0.2486104279708E+01 -0.8343641577604E+02  0.9069717725978E+00
 0.2521932247578E+00 -0.4295630908043E+01 -0.2426062609971E+02  0.8471960558861E+00
 0.1100090199836E+02 -0.6645664700702E+01  0.2613142378596E+02 -0.2376641745535E+01
 0.6650219700786E+01 -0.7555871928782E+01 -0.5433913367981E+01 -0.5168962188291E+01
-0.6670502303936E+01 -0.1162530722160E+02 -0.1097748571532E+03  0.4661906383847E+01
 0.2162156516349E+02 -0.1491391902013E+02  0.4024587686014E+02 -0.2399559829867E+00
 0.1046496100056E+02 -0.9649337732007E+01  0.4893739611321E+01  0.2406413287158E+01
-0.8254202725111E+01 -0.9372152381598E+01 -0.1057581306403E+03  0.3027193167796E+01
-0.1567572767009E+02 -0.7504212726629E+01 -0.1390796423803E+03  0.1144505342780E+01
-0.1017303875369E+01 -0.4183161220903E+01 -0.3120279057764E+02 -0.8434589976073E+00
 0.1503664788145E+02 -0.2210939367902E+01  0.7695425108127E+02 -0.1137050863006E+01
 0.1024938132484E+02 -0.3680252712675E+01  0.3941477167300E+02  0.4495770018805E+00
-0.8591583252955E+01 -0.6198176532390E+01 -0.8873855871208E+02  0.1710994384177E+01
-0.1545745605901E+02 -0.6128523910697E+01 -0.1295158798183E+03  0.5994838734575E+00
-0.1046280343461E+01 -0.4196749659480E+01 -0.3145818001765E+02 -0.2110385328598E+01
 0.1473279800244E+02 -0.4640540255921E+01  0.6055354647913E+02 -0.3317759618753E+01
 0.1061445871743E+02 -0.8715585886447E+01  0.1139323698590E+02 -0.2748969828574E+01
-0.1178318364147E+02 -0.1519666306707E+02 -0.1618790802512E+03  0.3003703660942E+01
 0.1842336925455E+02 -0.6527138804636E+01  0.7137738269951E+02 -0.1521320006673E+02
 0.1425221868351E+02 -0.6695381442955E+01  0.4534102344331E+02  0.8590250706074E+01
-0.9102788260278E+01 -0.1577967205404E+02 -0.1492947618859E+03  0.1022144279018E+02
-0.1882123441458E+02 -0.1781953171337E+02 -0.2198445967677E+03 -0.1214856719652E+01
-0.2418151576211E+01 -0.4484820643333E+01 -0.4141783331726E+02 -0.1081687169906E+02
 0.1743214857369E+02  0.7732124519489E+01  0.1509856385591E+03 -0.5763710671453E+01
 0.1370733970212E+02  0.2600285304773E+01  0.9784575004138E+02  0.7058707160398E+01
-0.8320698871457E+01 -0.1234540594563E+02 -0.1239966289025E+03  0.1055667555258E+02
-0.1881826227291E+02 -0.1621442062101E+02 -0.2101960973635E+03  0.7529206807358E-01
-0.3911522819378E+01 -0.4303717828189E+01 -0.4929144388540E+02 -0.1070293131654E+02
 0.1660896906047E+02  0.4223411821189E+01  0.1249942852899E+03 -0.7702895910568E+01
 0.1589814825927E+02 -0.6491480166777E+01  0.5644000855498E+02  0.6174937311919E+01
-0.1491312109715E+02 -0.1578490922884E+02 -0.1841881819560E+03  0.4641908188129E+00
-0.1680733289660E+01 -0.2655872186690E+01 -0.2038204568715E+01 -0.7013906322410E+00
-0.7907273512678E+00 -0.2996339055761E+01 -0.1779921206789E+01 -0.3094242826465E+00
-0.1993313835866E+00 -0.2880527037327E+01 -0.1447533454158E+01 -0.1986822923750E+00
 0.5779260396841E-01 -0.2748377255090E+01 -0.1264574782820E+01 -0.2366176830500E+00
 0.1049613608400E+00 -0.2653579090080E+01 -0.1197850329704E+01 -0.3646610148929E+00
-0.1917773682576E-01 -0.2627149282226E+01 -0.1243773695799E+01 -0.5195367901655E+00
-0.1813299789087E+01 -0.2745900059520E+01 -0.2142823923410E+01 -0.4911262435206E+00
-0.7597928946303E+00 -0.3012429670205E+01 -0.1772944600976E+01 -0.2631227101245E+00
-0.1866934677738E+00 -0.3037371654115E+01 -0.1515310603444E+01 -0.2023919506388E+00
 0.1005501646373E+00 -0.2981009215463E+01 -0.1353815750454E+01 -0.2432548051279E+00
 0.1453661930392E+00 -0.2961421465529E+01 -0.1323545974713E+01 -0.3783250270226E+00
 0.4986600921266E-01 -0.2937288409962E+01 -0.1357088524910E+01 -0.5848439045673E+00
-0.1758266848289E+01 -0.2784289393562E+01 -0.2135001428255E+01 -0.3082941612576E+00
-0.7365241273623E+00 -0.3063958180835E+01 -0.1786226680322E+01 -0.2117328903763E+00
-0.1501677298495E+00 -0.3140966716320E+01 -0.1546833185777E+01 -0.1827244225958E+00
 0.1460405763208E+00 -0.3170912093463E+01 -0.1421689609451E+01 -0.2284224979949E+00
 0.2269232622991E+00 -0.3221857237471E+01 -0.1407618964761E+01 -0.3688060044944E+00
 0.1399682124239E+00 -0.3309512503235E+01 -0.1489685812903E+01 -0.6008127933813E+00
-0.1626782532564E+01 -0.2828127080632E+01 -0.2093807512892E+01 -0.1664759520579E+00
-0.6889706093263E+00 -0.3089127304782E+01 -0.1775706015127E+01 -0.1549251356776E+00
-0.1174403865119E+00 -0.3216506848449E+01 -0.1566955196457E+01 -0.1457719835782E+00
 0.2005203365709E+00 -0.3309989777351E+01 -0.1461450633460E+01 -0.1887754440708E+00
 0.3161253351872E+00 -0.3446739236125E+01 -0.1471388529709E+01 -0.3169801010531E+00
 0.2560516188345E+00 -0.3670595380583E+01 -0.1604835563952E+01 -0.5412399342364E+00
-0.1485248081631E+01 -0.2865946364045E+01 -0.2045061384281E+01 -0.7365574024004E-01
-0.6410652998836E+00 -0.3098075173238E+01 -0.1757396017910E+01 -0.9433601070536E-01
-0.8938338612067E-01 -0.3261152308729E+01 -0.1574751772585E+01 -0.9427891684332E-01
 0.2478722070716E+00 -0.3403433160340E+01 -0.1483113644274E+01 -0.1250871289692E+00
 0.3999609681574E+00 -0.3612350714937E+01 -0.1509823177157E+01 -0.2181924368965E+00
 0.3790815122092E+00 -0.3967387414322E+01 -0.1686503769715E+01 -0.3925403848866E+00
-0.1396074885325E+01 -0.2887957797935E+01 -0.2013495356025E+01 -0.1965183425558E-01
-0.6113751064114E+00 -0.3099396689309E+01 -0.1744062739565E+01 -0.3166783374316E-01
-0.7333022224305E-01 -0.3281468885861E+01 -0.1576755576810E+01 -0.3264267113007E-01
 0.2759289302546E+00 -0.3449989040883E+01 -0.1491808248212E+01 -0.4384031762597E-01
 0.4571421101072E+00 -0.3697691096599E+01 -0.1523058019788E+01 -0.7862987450417E-01
 0.4532472900983E+00 -0.4151553211096E+01 -0.1738203778460E+01 -0.1474388655714E+00
-0.1396074889148E+01 -0.2887957796864E+01 -0.2013495357318E+01  0.1965183431051E-01
-0.6113751078467E+00 -0.3099396689288E+01 -0.1744062740230E+01  0.3166783285227E-01
-0.7333022256317E-01 -0.3281468885424E+01 -0.1576755576755E+01  0.3264266901650E-01
 0.2759289300819E+00 -0.3449989040193E+01 -0.1491808247968E+01  0.4384031444425E-01
 0.4571421103294E+00 -0.3697691095655E+01 -0.1523058019240E+01  0.7862987132415E-01
 0.4532472907221E+00 -0.4151553211120E+01 -0.1738203778178E+01  0.1474388626930E+00
-0.1485248091483E+01 -0.2865946360909E+01 -0.2045061387437E+01  0.7365574189847E-01
-0.6410653036781E+00 -0.3098075172772E+01 -0.1757396019474E+01  0.9433600944059E-01
-0.8938338707338E-01 -0.3261152307253E+01 -0.1574751772339E+01  0.9427891429420E-01
 0.2478722065314E+00 -0.3403433158251E+01 -0.1483113643546E+01  0.1250871255457E+00
 0.3999609678740E+00 -0.3612350712677E+01 -0.1509823176228E+01  0.2181924338664E+00
 0.3790815140390E+00 -0.3967387412721E+01 -0.1686503768103E+01  0.3925403837517E+00
-0.1626782544106E+01 -0.2828127075631E+01 -0.2093807515966E+01  0.1664759563166E+00
-0.6889706141256E+00 -0.3089127302835E+01 -0.1775706016468E+01  0.1549251337773E+00
-0.1174403880103E+00 -0.3216506845458E+01 -0.1566955195756E+01  0.1457719803409E+00
 0.2005203354622E+00 -0.3309989773936E+01 -0.1461450632376E+01  0.1887754402948E+00
 0.3161253338679E+00 -0.3446739232769E+01 -0.1471388528752E+01  0.3169800979319E+00
 0.2560516193172E+00 -0.3670595377762E+01 -0.1604835562399E+01  0.5412399335474E+00
-0.1758266855833E+01 -0.2784289386934E+01 -0.2135001428685E+01  0.3082941681093E+00
-0.7365241313925E+00 -0.3063958176156E+01 -0.1786226680017E+01  0.2117328877664E+00
-0.1501677317832E+00 -0.3140966711284E+01 -0.1546833184318E+01  0.1827244186927E+00
 0.1460405746301E+00 -0.3170912088598E+01 -0.1421689607959E+01  0.2284224939340E+00
 0.2269232599312E+00 -0.3221857233151E+01 -0.1407618963843E+01  0.3688060013163E+00
 0.1399682105805E+00 -0.3309512500108E+01 -0.1489685812300E+01  0.6008127929451E+00
-0.1813299787356E+01 -0.2745900051367E+01 -0.2142823918765E+01  0.4911262519081E+00
-0.7597928962814E+00 -0.3012429661870E+01 -0.1772944597834E+01  0.2631227069460E+00
-0.1866934699837E+00 -0.3037371646747E+01 -0.1515310601020E+01  0.2023919463335E+00
 0.1005501623847E+00 -0.2981009209001E+01 -0.1353815748476E+01  0.2432548009470E+00
 0.1453661898595E+00 -0.2961421459960E+01 -0.1323545973590E+01  0.3783250240455E+00
 0.4986600489323E-01 -0.2937288406988E+01 -0.1357088525542E+01  0.5848439046432E+00
-0.1680733272288E+01 -0.2655872172906E+01 -0.2038204554072E+01  0.7013906409573E+00
-0.7907273520529E+00 -0.2996339046735E+01 -0.1779921202916E+01  0.3094242795621E+00
-0.1993313853085E+00 -0.2880527027185E+01 -0.1447533450200E+01  0.1986822876673E+00
 0.5779260238290E-01 -0.2748377245477E+01 -0.1264574779047E+01  0.2366176791841E+00
 0.1049613554395E+00 -0.2653579084765E+01 -0.1197850329745E+01  0.3646610123028E+00
-0.1917774116138E-01 -0.2627149277069E+01 -0.1243773695413E+01  0.5195367908148E+00
-0.2050509084257E+01 -0.4414381820755E+01 -0.3038498717649E+01 -0.5293830085024E+00
 0.2538742858985E+00 -0.1303298897242E+01 -0.4932295660803E+00  0.3242587401150E+00
-0.3034029690101E+00 -0.8852200733249E+00 -0.5586528284805E+00  0.1702476694242E+00
 0.7163002788617E-01 -0.1009233183014E-01  0.2892271707297E-01  0.1142456614092E+00
 0.1535347427168E+00  0.2128701462308E+00  0.1722102973686E+00  0.1090602377618E+00
 0.2915850980856E+00  0.2552442784602E+00  0.2570098063247E+00  0.1585308404124E+00
-0.1248223142933E+01 -0.3542802738741E+01 -0.2251782158675E+01 -0.7815693708077E+00
-0.3727156623490E+00 -0.2328942859532E+01 -0.1269779502064E+01  0.8820238650721E-01
-0.3774591538147E-01 -0.1089275449790E+01 -0.5297000402872E+00  0.1250574217985E+00
-0.4960871785832E-01 -0.5946000728031E+00 -0.3027781308429E+00  0.6303346364747E-01
 0.7548470284222E-01 -0.2017802380354E+00 -0.5935890139025E-01  0.5122498042810E-01
 0.1509934517396E+00 -0.7543496450078E-01  0.3551248891220E-01  0.6961246043432E-01
-0.1199871625400E+01 -0.3296304932830E+01 -0.2113202977008E+01 -0.9140164991676E+00
-0.4716072244687E+00 -0.2623717147717E+01 -0.1454802451237E+01 -0.8623929352545E-01
-0.1067261662210E+00 -0.1624294094991E+01 -0.8135795207061E+00  0.3716526926240E-01
-0.3434038722299E-01 -0.1061841578546E+01 -0.5152055226047E+00  0.1757018327281E-02
 0.1104260241469E-01 -0.7030823107146E+00 -0.3252586620760E+00 -0.4769660642193E-01
 0.1668586660308E-01 -0.5029897296171E+00 -0.2285628150369E+00 -0.7789229693522E-01
-0.1358580347389E+01 -0.3165888434504E+01 -0.2126500322096E+01 -0.9770747354195E+00
-0.5351818212051E+00 -0.2795960415232E+01 -0.1565636847155E+01 -0.2213255360077E+00
-0.1491315858052E+00 -0.2072974950847E+01 -0.1044390069577E+01 -0.7084650402480E-01
-0.2297255972565E-01 -0.1563370843436E+01 -0.7455813975951E+00 -0.7876825541822E-01
 0.1519308943598E-01 -0.1219698710334E+01 -0.5661176403864E+00 -0.1509519946313E+00
-0.5481070234051E-01 -0.1016271235253E+01 -0.5034085093922E+00 -0.2439562085235E+00
-0.1555067110293E+01 -0.3025604425914E+01 -0.2152915616557E+01 -0.9605778003362E+00
-0.6086995230961E+00 -0.2912075628450E+01 -0.1654764317030E+01 -0.3174010880192E+00
-0.1841816820273E+00 -0.2441474013858E+01 -0.1234058173936E+01 -0.1718888863353E+00
-0.1772575597349E-01 -0.2042659499054E+01 -0.9683810674068E+00 -0.1668930108460E+00
 0.7245951593385E-01 -0.1721830872615E+01 -0.7752045356738E+00 -0.2367523275172E+00
-0.2559687532735E-01 -0.1567807667016E+01 -0.7489001330017E+00 -0.3739407482575E+00
-0.1725358970945E+01 -0.2879083543182E+01 -0.2164087976151E+01 -0.8617055371823E+00
-0.6537953182175E+00 -0.2924336320508E+01 -0.1681721865935E+01 -0.3632389984129E+00
-0.2376907626114E+00 -0.2751970898630E+01 -0.1405140977220E+01 -0.2385235475532E+00
-0.2270726453468E-01 -0.2490823920752E+01 -0.1181359654088E+01 -0.2466919221053E+00
 0.6325450071096E-01 -0.2250667760803E+01 -0.1028084229636E+01 -0.3079892531823E+00
 0.1872930572098E+00 -0.1983743045869E+01 -0.8443314925282E+00 -0.4260088099307E+00
-0.1725358955213E+01 -0.2879083536873E+01 -0.2164087965792E+01  0.8617055418847E+00
-0.6537953095845E+00 -0.2924336302424E+01 -0.1681721853379E+01  0.3632389960496E+00
-0.2376907622898E+00 -0.2751970882424E+01 -0.1405140969451E+01  0.2385235445697E+00
-0.2270726573346E-01 -0.2490823907833E+01 -0.1181359648580E+01  0.2466919196536E+00
 0.6325450124229E-01 -0.2250667749260E+01 -0.1028084223961E+01  0.3079892512946E+00
 0.1872930500024E+00 -0.1983743041256E+01 -0.8443314937479E+00  0.4260088108210E+00
-0.1555067092453E+01 -0.3025604416319E+01 -0.2152915603662E+01  0.9605777987720E+00
-0.6086995156728E+00 -0.2912075610315E+01 -0.1654764305017E+01  0.3174010844468E+00
-0.1841816808394E+00 -0.2441473994608E+01 -0.1234058164330E+01  0.1718888840701E+00
-0.1772575637210E-01 -0.2042659484696E+01 -0.9683810608458E+00  0.1668930096540E+00
 0.7245951519345E-01 -0.1721830862183E+01 -0.7752045311188E+00  0.2367523278367E+00
-0.2559688193313E-01 -0.1567807661420E+01 -0.7489001334763E+00  0.3739407502570E+00
-0.1358580335678E+01 -0.3165888424687E+01 -0.2126500311978E+01  0.9770747297974E+00
-0.5351818147439E+00 -0.2795960395814E+01 -0.1565636834991E+01  0.2213255322228E+00
-0.1491315843093E+00 -0.2072974930039E+01 -0.1044390059095E+01  0.7084650285776E-01
-0.2297256031684E-01 -0.1563370829710E+01 -0.7455813914215E+00  0.7876825553273E-01
 0.1519308860986E-01 -0.1219698700389E+01 -0.5661176361001E+00  0.1509519957278E+00
-0.5481070656571E-01 -0.1016271230744E+01 -0.5034085092586E+00  0.2439562100070E+00
-0.1199871623276E+01 -0.3296304923690E+01 -0.2113202971714E+01  0.9140164916904E+00
-0.4716072186006E+00 -0.2623717126393E+01 -0.1454802438457E+01  0.8623929045784E-01
-0.1067261645058E+00 -0.1624294073809E+01 -0.8135795099445E+00 -0.3716526871742E-01
-0.3434038788710E-01 -0.1061841567025E+01 -0.5152055175019E+00 -0.1757017465296E-02
 0.1104260237382E-01 -0.7030823024442E+00 -0.3252586582081E+00  0.4769660711739E-01
 0.1668586638049E-01 -0.5029897275255E+00 -0.2285628141585E+00  0.7789229706744E-01
-0.1248223150386E+01 -0.3542802730233E+01 -0.2251782158180E+01  0.7815693632162E+00
-0.3727156536137E+00 -0.2328942832826E+01 -0.1269779485406E+01 -0.8820238766237E-01
-0.3774591603209E-01 -0.1089275433049E+01 -0.5297000327248E+00 -0.1250574191329E+00
-0.4960871739550E-01 -0.5946000639915E+00 -0.3027781264839E+00 -0.6303346304176E-01
 0.7548470426928E-01 -0.2017802320097E+00 -0.5935889788747E-01 -0.5122498083519E-01
 0.1509934560683E+00 -0.7543496555896E-01  0.3551249044933E-01 -0.6961246165283E-01
-0.2050509084584E+01 -0.4414381797363E+01 -0.3038498706809E+01  0.5293830040025E+00
 0.2538742926216E+00 -0.1303298874535E+01 -0.4932295522484E+00 -0.3242587364973E+00
-0.3034029723352E+00 -0.8852200628529E+00 -0.5586528251214E+00 -0.1702476658766E+00
 0.7163003250430E-01 -0.1009232258261E-01  0.2892272358983E-01 -0.1142456618625E+00
 0.1535347433382E+00  0.2128701463763E+00  0.1722102977290E+00 -0.1090602393050E+00
 0.2915851071668E+00  0.2552442765309E+00  0.2570098096860E+00 -0.1585308435835E+00
-0.2316899842960E+00 -0.2395476147587E+01 -0.1234768078853E+01 -0.6381051391658E+00
-0.1280038844091E+00 -0.1561659850893E+01 -0.7941419535778E+00 -0.5401796746593E+00
-0.4880831127328E-01 -0.9411675624359E+00 -0.4652886594632E+00 -0.3630369733717E+00
 0.1292355457868E+00 -0.4431520487649E+00 -0.1475407560255E+00 -0.1475009560572E+00
 0.3293226098305E+00 -0.1036374340251E+00  0.1060720323595E+00  0.3187255062924E-01
 0.4351276394795E+00  0.8720742701783E-01  0.2454974806311E+00  0.1201854414282E+00
-0.1048587177259E+00 -0.2749049094458E+01 -0.1341336668325E+01 -0.8057211256174E+00
-0.1576873873824E+00 -0.2166638023611E+01 -0.1092432940396E+01 -0.7630433252137E+00
-0.9605492303967E-01 -0.1464894052178E+01 -0.7336460164916E+00 -0.5953727185808E+00
 0.8336868712540E-01 -0.8169227525700E+00 -0.3447704098845E+00 -0.3533533316918E+00
 0.3523319876443E+00 -0.3009759826388E+00  0.2413732229138E-01 -0.1300138148574E+00
 0.5571886861503E+00  0.4459275192449E-01  0.2828372751778E+00 -0.2198626174601E-01
 0.9197089056343E-03 -0.3206777091663E+01 -0.1506752966074E+01 -0.8752650405676E+00
-0.1359826357585E+00 -0.2842720477615E+01 -0.1399990459734E+01 -0.9634849387720E+00
-0.1879115645711E+00 -0.2306762628545E+01 -0.1172496867790E+01 -0.9094071809397E+00
-0.8181489150190E-01 -0.1643669039107E+01 -0.8109774453294E+00 -0.7298773361680E+00
 0.2930618106383E+00 -0.8850211216336E+00 -0.2782208754621E+00 -0.4844250834968E+00
 0.7277679828332E+00 -0.2110532379831E+00  0.2428559294636E+00 -0.3224128935278E+00
 0.1555070848847E+00 -0.3696801687004E+01 -0.1664408458775E+01 -0.8220706649015E+00
-0.2793614005770E-01 -0.3585884067728E+01 -0.1698495493351E+01 -0.1016072616126E+01
-0.1868739546339E+00 -0.3355440350034E+01 -0.1664887718971E+01 -0.1124180740544E+01
-0.2860596595344E+00 -0.3020685366863E+01 -0.1554170158465E+01 -0.1122341564440E+01
-0.1662374117551E+00 -0.2563839928985E+01 -0.1283136346893E+01 -0.9946999406479E+00
 0.5903248734787E+00 -0.1819714288770E+01 -0.5778130237214E+00 -0.8009755813849E+00
 0.3311519015982E+00 -0.4170103705375E+01 -0.1804307343199E+01 -0.6209272266097E+00
 0.1975627984060E+00 -0.4260315599221E+01 -0.1909493811540E+01 -0.8375674050108E+00
 0.2361314760197E-02 -0.4328848337434E+01 -0.2033448895499E+01 -0.1034107883559E+01
-0.2624507147160E+00 -0.4379892979143E+01 -0.2181901530580E+01 -0.1176404395775E+01
-0.5606834485366E+00 -0.4417092155092E+01 -0.2339554527771E+01 -0.1208498966829E+01
-0.5944458143156E+00 -0.4316572532374E+01 -0.2308178617090E+01 -0.1010148067795E+01
 0.4645388412729E+00 -0.4434145492222E+01 -0.1865715121214E+01 -0.2402957405817E+00
 0.3820840809340E+00 -0.4593422347565E+01 -0.1979328980296E+01 -0.3395704385315E+00
 0.1906518634494E+00 -0.4773139157356E+01 -0.2153769022673E+01 -0.4387508857235E+00
-0.1524049088066E+00 -0.4970993607413E+01 -0.2407997296516E+01 -0.5221209534224E+00
-0.7612796025612E+00 -0.5222132193594E+01 -0.2812203537060E+01 -0.5589073781075E+00
-0.1962148467112E+01 -0.5690103784364E+01 -0.3596558549072E+01 -0.4562389848496E+00
 0.4645388436702E+00 -0.4434145491930E+01 -0.1865715119950E+01  0.2402957352960E+00
 0.3820840843925E+00 -0.4593422346730E+01 -0.1979328978278E+01  0.3395704245526E+00
 0.1906518675209E+00 -0.4773139156459E+01 -0.2153769020338E+01  0.4387508623648E+00
-0.1524049056501E+00 -0.4970993607169E+01 -0.2407997294917E+01  0.5221209211897E+00
-0.7612796057785E+00 -0.5222132195707E+01 -0.2812203539565E+01  0.5589073396848E+00
-0.1962148507032E+01 -0.5690103803822E+01 -0.3596558576979E+01  0.4562389498838E+00
 0.3311519054955E+00 -0.4170103707784E+01 -0.1804307342499E+01  0.6209272256664E+00
 0.1975628059410E+00 -0.4260315603931E+01 -0.1909493810212E+01  0.8375674011858E+00
 0.2361323181244E-02 -0.4328848348152E+01 -0.2033448896579E+01  0.1034107878416E+01
-0.2624507091367E+00 -0.4379892998768E+01 -0.2181901537181E+01  0.1176404391201E+01
-0.5606834564779E+00 -0.4417092187861E+01 -0.2339554546905E+01  0.1208498964566E+01
-0.5944458727356E+00 -0.4316572595823E+01 -0.2308178674368E+01  0.1010148064355E+01
 0.1555070881844E+00 -0.3696801686228E+01 -0.1664408456859E+01  0.8220706647891E+00
-0.2793613568434E-01 -0.3585884073927E+01 -0.1698495494209E+01  0.1016072616483E+01
-0.1868739515433E+00 -0.3355440368863E+01 -0.1664887726368E+01  0.1124180744619E+01
-0.2860596627625E+00 -0.3020685404227E+01 -0.1554170177543E+01  0.1122341574879E+01
-0.1662374300225E+00 -0.2563839991979E+01 -0.1283136385086E+01  0.9946999576136E+00
 0.5903248559851E+00 -0.1819714367748E+01 -0.5778130690632E+00  0.8009755975312E+00
 0.9197099191276E-03 -0.3206777088161E+01 -0.1506752963952E+01  0.8752650409869E+00
-0.1359826367485E+00 -0.2842720483206E+01 -0.1399990462828E+01  0.9634849420969E+00
-0.1879115682047E+00 -0.2306762646005E+01 -0.1172496877705E+01  0.9094071888385E+00
-0.8181489939922E-01 -0.1643669067876E+01 -0.8109774625623E+00  0.7298773488128E+00
 0.2930618038369E+00 -0.8850211548521E+00 -0.2782208942715E+00  0.4844250983936E+00
 0.7277679913297E+00 -0.2110532681378E+00  0.2428559192842E+00  0.3224129083103E+00
-0.1048587188148E+00 -0.2749049090709E+01 -0.1341336667074E+01  0.8057211269330E+00
-0.1576873902237E+00 -0.2166638029110E+01 -0.1092432944316E+01  0.7630433297487E+00
-0.9605492577820E-01 -0.1464894063522E+01 -0.7336460231102E+00  0.5953727254597E+00
 0.8336868614160E-01 -0.8169227650371E+00 -0.3447704162064E+00  0.3533533397402E+00
 0.3523319919303E+00 -0.3009759908704E+00  0.2413732043695E-01  0.1300138225450E+00
 0.5571886975336E+00  0.4459275319942E-01  0.2828372811271E+00  0.2198627016804E-01
-0.2316899898067E+00 -0.2395476147526E+01 -0.1234768081415E+01  0.6381051409185E+00
-0.1280038864805E+00 -0.1561659852090E+01 -0.7941419551139E+00  0.5401796770130E+00
-0.4880831100147E-01 -0.9411675636647E+00 -0.4652886599130E+00  0.3630369760876E+00
 0.1292355493082E+00 -0.4431520498952E+00 -0.1475407549016E+00  0.1475009586828E+00
 0.3293226159266E+00 -0.1036374361826E+00  0.1060720342106E+00 -0.3187254825097E-01
 0.4351276414006E+00  0.8720742121379E-01  0.2454974788061E+00 -0.1201854385883E+00
</DataArray>
<DataArray type="Float64" Name="S_Mises" NumberOfComponents="1" ComponentName0="S_Mises" format="ascii">
 0.6890489792811E+02
 0.4534921586819E+02
 0.1369756387429E+03
 0.2015260809361E+03
 0.3800850790948E+02
 0.1386582039494E+03
 0.9020625443603E+02
 0.1137170074299E+03
 0.1926929509178E+03
 0.4518509913037E+02
 0.1150790658000E+03
 0.5525083766422E+02
 0.1688408543618E+03
 0.4860200432261E+02
 0.1798783735805E+02
 0.9694978936432E+02
 0.1276859299745E+03
 0.2873366031856E+02
 0.7210546537851E+02
 0.3809091495646E+02
 0.8137008381857E+02
 0.1189974627980E+03
 0.2896545014715E+02
 0.5798765411674E+02
 0.1973096357370E+02
 0.1484185989711E+03
 0.3342630661073E+02
 0.1829626900293E+02
 0.7090323947505E+02
 0.8519996775583E+02
 0.2547243071072E+02
 0.3411111633493E+02
 0.1318702530725E+02
 0.5955086906794E+02
 0.7687371385262E+02
 0.2258497303403E+02
 0.2841365405977E+02
 0.1327294279160E+02
 0.1007183982821E+03
 0.2109198184433E+02
 0.2000732483483E+02
 0.5359847673238E+02
 0.6034252066417E+02
 0.2446333226824E+02
 0.1466195805736E+02
 0.1082155822684E+02
 0.4516491973872E+02
 0.5252587856511E+02
 0.1947889927706E+02
 0.1405386680654E+02
 0.7728895577567E+01
 0.3396750959320E+02
 0.1175654136896E+02
 0.1975328128879E+02
 0.4200653895887E+02
 0.4552377860060E+02
 0.2412291652630E+02
 0.1136217246546E+02
 0.1574660684800E+02
 0.3580312083178E+02
 0.3822267008140E+02
 0.1738649378612E+02
 0.7383821406092E+01
 0.5282488933554E+01
 0.3490192388104E+02
 0.6167945107320E+01
 0.1878417461721E+02
 0.3421765686484E+02
 0.3650780404921E+02
 0.2388212993876E+02
 0.1509919619380E+02
 0.1876081199100E+02
 0.2974514529144E+02
 0.2966368702916E+02
 0.1572352327724E+02
 0.4050445385058E+01
 0.1510524311240E+02
 0.8641080027115E+02
 0.6029144108946E+01
 0.1784576569148E+02
 0.2898983807964E+02
 0.3091181452308E+02
 0.2359341005190E+02
 0.1810912839210E+02
 0.2020759177400E+02
 0.2583801889862E+02
 0.2446960318755E+02
 0.1445906821153E+02
 0.2753933276323E+01
 0.2010795495510E+02
 0.1063043044572E+03
 0.8472464184297E+01
 0.1718105872905E+02
 0.2549698377686E+02
 0.2736848263647E+02
 0.2325713690277E+02
 0.1986046621059E+02
 0.2079268212683E+02
 0.2331099406262E+02
 0.2127940256091E+02
 0.1364491733814E+02
 0.3440485970896E+01
 0.1753551774751E+02
 0.9002418570851E+02
 0.1067681198906E+02
 0.1678839818291E+02
 0.2318986103219E+02
 0.2509432352540E+02
 0.2291731814744E+02
 0.2078350732248E+02
 0.2095424580889E+02
 0.2166944417585E+02
 0.1930940972039E+02
 0.1328830249060E+02
 0.5614638319167E+01
 0.8385678615791E+01
 0.4491629364657E+02
 0.1224317931951E+02
 0.1658828404917E+02
 0.2171467166365E+02
 0.2365466001632E+02
 0.2262135006483E+02
 0.2122896564838E+02
 0.2093397106742E+02
 0.2062589352980E+02
 0.1812853219146E+02
 0.1329930162958E+02
 0.8639193262615E+01
 0.7507568256422E+01
 0.1498158292752E+02
 0.1321881062370E+02
 0.1650066671762E+02
 0.2084355017930E+02
 0.2280328790814E+02
 0.2240520666276E+02
 0.2142166815770E+02
 0.2086463095686E+02
 0.2000886899172E+02
 0.1747307295787E+02
 0.1349565764570E+02
 0.1153865439047E+02
 0.1947073059529E+02
 0.6857875434899E+02
 0.1368368317140E+02
 0.1647029967949E+02
 0.2044001326830E+02
 0.2240694031028E+02
 0.2229171050048E+02
 0.2148940332886E+02
 0.2081527379144E+02
 0.1972205784618E+02
 0.1718392085338E+02
 0.1366501809618E+02
 0.1330242321750E+02
 0.2701532233767E+02
 0.1005809468741E+03
 0.1368368313091E+02
 0.1647029964565E+02
 0.2044001324486E+02
 0.2240694029718E+02
 0.2229171049024E+02
 0.2148940331663E+02
 0.2081527378139E+02
 0.1972205784440E+02
 0.1718392085670E+02
 0.1366501808981E+02
 0.1330242315920E+02
 0.2701532205862E+02
 0.1005809455849E+03
 0.1321881050230E+02
 0.1650066661585E+02
 0.2084355010889E+02
 0.2280328787000E+02
 0.2240520663282E+02
 0.2142166812012E+02
 0.2086463092548E+02
 0.2000886898695E+02
 0.1747307297007E+02
 0.1349565763095E+02
 0.1153865423576E+02
 0.1947072985843E+02
 0.6857875088204E+02
 0.1224317911794E+02
 0.1658828387874E+02
 0.2171467154583E+02
 0.2365465995702E+02
 0.2262135001787E+02
 0.2122896558263E+02
 0.2093397101055E+02
 0.2062589352395E+02
 0.1812853221963E+02
 0.1329930161748E+02
 0.8639193064343E+01
 0.7507567438644E+01
 0.1498157852438E+02
 0.1067681171100E+02
 0.1678839794238E+02
 0.2318986086551E+02
 0.2509432345253E+02
 0.2291731808888E+02
 0.2078350722313E+02
 0.2095424571804E+02
 0.2166944417244E+02
 0.1930940977788E+02
 0.1328830249407E+02
 0.5614638141297E+01
 0.8385679368540E+01
 0.4491629788333E+02
 0.8472463846660E+01
 0.1718105841555E+02
 0.2549698355758E+02
 0.2736848256354E+02
 0.2325713684279E+02
 0.1986046606860E+02
 0.2079268198623E+02
 0.2331099406746E+02
 0.2127940267116E+02
 0.1364491736769E+02
 0.3440485861450E+01
 0.1753551821471E+02
 0.9002418828918E+02
 0.6029143806864E+01
 0.1784576529866E+02
 0.2898983779926E+02
 0.3091181447353E+02
 0.2359341000937E+02
 0.1810912819482E+02
 0.2020759155567E+02
 0.2583801892034E+02
 0.2446960339203E+02
 0.1445906827510E+02
 0.2753933272982E+01
 0.2010795489437E+02
 0.1063043045061E+03
 0.6167945182064E+01
 0.1878417413157E+02
 0.3421765649350E+02
 0.3650780404010E+02
 0.2388212994618E+02
 0.1509919595349E+02
 0.1876081166223E+02
 0.2974514531236E+02
 0.2966368735168E+02
 0.1572352337464E+02
 0.4050445499239E+01
 0.1510524263195E+02
 0.8641079806212E+02
 0.1175654171541E+02
 0.1975328068885E+02
 0.4200653843813E+02
 0.4552377864325E+02
 0.2412291664045E+02
 0.1136217229396E+02
 0.1574660639380E+02
 0.3580312080239E+02
 0.3822267053014E+02
 0.1738649391926E+02
 0.7383821623514E+01
 0.5282488579952E+01
 0.3490192067241E+02
 0.2109198223638E+02
 0.2000732410754E+02
 0.5359847596715E+02
 0.6034252077568E+02
 0.2446333259380E+02
 0.1466195820852E+02
 0.1082155781621E+02
 0.4516491958333E+02
 0.5252587915809E+02
 0.1947889948917E+02
 0.1405386718384E+02
 0.7728895789973E+01
 0.3396751245841E+02
 0.3342630692695E+02
 0.1829626828632E+02
 0.7090323829342E+02
 0.8519996793001E+02
 0.2547243142717E+02
 0.3411111652127E+02
 0.1318702608020E+02
 0.5955086863676E+02
 0.7687371455525E+02
 0.2258497341796E+02
 0.2841365460031E+02
 0.1327294276988E+02
 0.1007184000876E+03
 0.4860200444559E+02
 0.1798783783401E+02
 0.9694978745514E+02
 0.1276859301388E+03
 0.2873366171201E+02
 0.7210546522556E+02
 0.3809091640655E+02
 0.8137008283560E+02
 0.1189974634253E+03
 0.2896545083265E+02
 0.5798765459757E+02
 0.1973096395632E+02
 0.1484185997978E+03
 0.6890489773278E+02
 0.4534921810759E+02
 0.1369756355325E+03
 0.2015260808559E+03
 0.3800851037668E+02
 0.1386582028562E+03
 0.9020625617078E+02
 0.1137170054199E+03
 0.1926929509182E+03
 0.4518510013645E+02
 0.1150790656043E+03
 0.5525083786709E+02
 0.1688408548138E+03
 0.8544573921921E+00
 0.1913491554476E+01
 0.2323821115320E+01
 0.2431554498695E+01
 0.2390189317205E+01
 0.2259964475105E+01
 0.8191551273894E+00
 0.1954120270043E+01
 0.2470653704716E+01
 0.2670107394903E+01
 0.2691883043096E+01
 0.2588401462467E+01
 0.8989510745984E+00
 0.2018839086005E+01
 0.2591989070816E+01
 0.2873998281797E+01
 0.2988082640909E+01
 0.2988850835423E+01
 0.1048943821897E+01
 0.2081684592954E+01
 0.2685733305109E+01
 0.3041621749303E+01
 0.3260089416916E+01
 0.3402118559450E+01
 0.1202823933685E+01
 0.2130787693237E+01
 0.2748670961596E+01
 0.3163539943436E+01
 0.3476100010868E+01
 0.3765691496023E+01
 0.1298385001624E+01
 0.2157563763437E+01
 0.2780151879647E+01
 0.3228144318069E+01
 0.3599504170629E+01
 0.3989417308686E+01
 0.1298384997415E+01
 0.2157563762180E+01
 0.2780151878992E+01
 0.3228144317322E+01
 0.3599504170003E+01
 0.3989417309246E+01
 0.1202823922525E+01
 0.2130787689558E+01
 0.2748670959493E+01
 0.3163539941158E+01
 0.3476100008665E+01
 0.3765691496218E+01
 0.1048943807712E+01
 0.2081684587124E+01
 0.2685733301222E+01
 0.3041621745386E+01
 0.3260089412867E+01
 0.3402118557422E+01
 0.8989510624706E+00
 0.2018839078473E+01
 0.2591989064781E+01
 0.2873998276119E+01
 0.2988082635118E+01
 0.2988850831119E+01
 0.8191551218566E+00
 0.1954120261398E+01
 0.2470653696421E+01
 0.2670107387356E+01
 0.2691883035521E+01
 0.2588401456155E+01
 0.8544573951215E+00
 0.1913491545979E+01
 0.2323821105044E+01
 0.2431554488994E+01
 0.2390189307931E+01
 0.2259964466888E+01
 0.2056340456182E+01
 0.1348918976296E+01
 0.5051285970118E+00
 0.7079771364744E-01
 0.5254850026982E-01
 0.3549100632581E-01
 0.1992355434872E+01
 0.1696080097950E+01
 0.9112787338862E+00
 0.4723718738690E+00
 0.2401483730677E+00
 0.1961058615589E+00
 0.1820568181667E+01
 0.1866093719957E+01
 0.1315277956201E+01
 0.8904495926920E+00
 0.6187986916277E+00
 0.4502886699657E+00
 0.1571049212712E+01
 0.1960440447181E+01
 0.1667430343966E+01
 0.1334872649873E+01
 0.1070057974304E+01
 0.8332690215105E+00
 0.1280915413104E+01
 0.1997576628023E+01
 0.1956458832955E+01
 0.1754733075674E+01
 0.1554688676973E+01
 0.1336448891246E+01
 0.1008658066311E+01
 0.1969273992274E+01
 0.2179276880432E+01
 0.2138781411714E+01
 0.2004989644283E+01
 0.1880944664308E+01
 0.1008658074303E+01
 0.1969273984059E+01
 0.2179276866667E+01
 0.2138781399483E+01
 0.2004989634740E+01
 0.1880944654078E+01
 0.1280915420114E+01
 0.1997576618719E+01
 0.1956458817301E+01
 0.1754733062887E+01
 0.1554688667293E+01
 0.1336448880687E+01
 0.1571049214289E+01
 0.1960440435935E+01
 0.1667430327228E+01
 0.1334872637467E+01
 0.1070057964971E+01
 0.8332690139513E+00
 0.1820568175583E+01
 0.1866093706549E+01
 0.1315277939328E+01
 0.8904495821346E+00
 0.6187986844258E+00
 0.4502886679608E+00
 0.1992355421083E+01
 0.1696080082354E+01
 0.9112787188171E+00
 0.4723718666334E+00
 0.2401483690821E+00
 0.1961058662249E+00
 0.2056340435667E+01
 0.1348918962437E+01
 0.5051285850778E+00
 0.7079770965047E-01
 0.5254849987166E-01
 0.3549101488059E-01
 0.1875550511857E+01
 0.1242616811437E+01
 0.7733762486198E+00
 0.4957916477900E+00
 0.3750155198174E+00
 0.3017149420041E+00
 0.2291536029109E+01
 0.1741199079440E+01
 0.1186374024835E+01
 0.7799857682935E+00
 0.5657833964709E+00
 0.4442880492133E+00
 0.2779611275597E+01
 0.2345806410182E+01
 0.1836504406017E+01
 0.1353595526486E+01
 0.1020404292793E+01
 0.8131907883302E+00
 0.3337888381461E+01
 0.3083179984981E+01
 0.2746115974247E+01
 0.2370332134232E+01
 0.2077999365631E+01
 0.2087480977467E+01
 0.3899902604731E+01
 0.3862559413329E+01
 0.3753182573596E+01
 0.3568528313140E+01
 0.3343084879379E+01
 0.3226821465741E+01
 0.4244056214262E+01
 0.4310766753060E+01
 0.4300966780387E+01
 0.4175849862932E+01
 0.3867379665459E+01
 0.3236655589930E+01
 0.4244056216082E+01
 0.4310766755328E+01
 0.4300966783130E+01
 0.4175849865449E+01
 0.3867379664511E+01
 0.3236655572380E+01
 0.3899902610189E+01
 0.3862559423924E+01
 0.3753182590163E+01
 0.3568528334967E+01
 0.3343084900913E+01
 0.3226821470259E+01
 0.3337888383641E+01
 0.3083179994133E+01
 0.2746115993234E+01
 0.2370332163819E+01
 0.2077999404431E+01
 0.2087481030758E+01
 0.2779611273438E+01
 0.2345806414171E+01
 0.1836504418007E+01
 0.1353595544590E+01
 0.1020404315689E+01
 0.8131908217847E+00
 0.2291536024920E+01
 0.1741199081750E+01
 0.1186374032298E+01
 0.7799857782457E+00
 0.5657834073110E+00
 0.4442880579756E+00
 0.1875550507043E+01
 0.1242616810684E+01
 0.7733762499195E+00
 0.4957916518164E+00
 0.3750155269663E+00
 0.3017149486792E+00
</DataArray>
<DataArray type="Float64" Name="S_Hyd" NumberOfComponents="1" ComponentName0="S_Hyd" format="ascii">
-0.2775787104217E+02
-0.1763261917556E+02
 0.5805907543039E+02
 0.8549512099924E+02
 0.1610693412956E+02
-0.5871663767910E+02
-0.3805112427303E+02
 0.4822091209327E+02
 0.8174292675210E+02
 0.1916889441739E+02
-0.4860888880367E+02
-0.2194889212551E+02
 0.7162873723567E+02
-0.1565117416564E+02
-0.1903120174024E+01
 0.4112816272639E+02
 0.5408652752288E+02
 0.1213441795515E+02
-0.2992665324950E+02
-0.1532796612003E+02
 0.3450943991478E+02
 0.5036728632869E+02
 0.1223373637625E+02
-0.2354860118241E+02
-0.4430703008999E+01
 0.6295297530256E+02
-0.8046425456054E+01
 0.4655084126635E+01
 0.3007665164888E+02
 0.3601523686154E+02
 0.1070776085146E+02
-0.1301241323887E+02
-0.3322274437828E+01
 0.2521903177197E+02
 0.3244749472708E+02
 0.9434687752455E+01
-0.1016222009292E+02
 0.2113188704366E+01
 0.4269022145986E+02
-0.3319448779929E+01
 0.7136874003713E+01
 0.2272661144555E+02
 0.2548490589978E+02
 0.1026785514612E+02
-0.3189545680203E+01
 0.2935520221925E+01
 0.1911257999991E+02
 0.2215116689187E+02
 0.8095675951652E+01
-0.3496994319009E+01
 0.1666347427518E+01
 0.1434655447553E+02
-0.3892991092893E+00
 0.7845935096688E+01
 0.1780154835861E+02
 0.1923302942266E+02
 0.1014167499823E+02
 0.2438507613136E+01
 0.6132761279946E+01
 0.1515868993612E+02
 0.1613930419687E+02
 0.7246840146081E+01
-0.6222810893335E+00
-0.2187248349336E+01
-0.1480570849969E+02
 0.1428389744318E+01
 0.7831817516890E+01
 0.1448850324689E+02
 0.1543606597581E+02
 0.1006907038572E+02
 0.5607789694843E+01
 0.7713002841305E+01
 0.1260686752359E+02
 0.1255189191077E+02
 0.6588458843910E+01
 0.3775890790937E+00
-0.6300903587702E+01
-0.3664493337346E+02
 0.2557271518835E+01
 0.7566589545737E+01
 0.1225735337001E+02
 0.1307768425425E+02
 0.9973444871261E+01
 0.7347145341751E+01
 0.8446805849202E+01
 0.1095921114050E+02
 0.1037220114591E+02
 0.6079874024553E+01
 0.7605657335198E+00
-0.8361022727646E+01
-0.4507165031954E+02
 0.3259263032537E+01
 0.7255524939870E+01
 0.1075627466048E+02
 0.1158071477714E+02
 0.9849651887934E+01
 0.8271180115209E+01
 0.8750497713252E+01
 0.9889506186533E+01
 0.9027208070800E+01
 0.5740254035991E+01
 0.1250808795631E+01
-0.7363072082954E+01
-0.3818035731573E+02
 0.3693546400156E+01
 0.6980845095812E+01
 0.9753360722448E+01
 0.1061659839281E+02
 0.9716201602345E+01
 0.8742697555089E+01
 0.8846945306791E+01
 0.9191393738905E+01
 0.8190147531196E+01
 0.5574457430259E+01
 0.2092494692466E+01
-0.3516437963529E+01
-0.1905050274314E+02
 0.3956636684269E+01
 0.6770740303190E+01
 0.9102317807233E+01
 0.1000363657634E+02
 0.9595395557081E+01
 0.8968080538425E+01
 0.8852808728441E+01
 0.8745686570957E+01
 0.7682466965343E+01
 0.5547318973045E+01
 0.3183781872515E+01
 0.1883175495936E+01
 0.5953324001155E+01
 0.4105901250622E+01
 0.6631679158779E+01
 0.8711730956448E+01
 0.9639512835535E+01
 0.9505099799824E+01
 0.9065994818126E+01
 0.8830717241685E+01
 0.8481255207322E+01
 0.7396393748929E+01
 0.5591999009392E+01
 0.4213315096351E+01
 0.6991836611712E+01
 0.2883422970267E+02
 0.4173371455028E+01
 0.6562926840769E+01
 0.8528580082061E+01
 0.9469397558815E+01
 0.9457084862689E+01
 0.9100834096025E+01
 0.8812862216540E+01
 0.8358068712279E+01
 0.7268405096780E+01
 0.5637058681284E+01
 0.4837306249142E+01
 0.1006876795016E+02
 0.4239248054368E+02
 0.4173371444407E+01
 0.6562926828997E+01
 0.8528580072870E+01
 0.9469397553329E+01
 0.9457084858342E+01
 0.9100834090758E+01
 0.8812862212187E+01
 0.8358068711547E+01
 0.7268405098368E+01
 0.5637058679528E+01
 0.4837306228814E+01
 0.1006876783744E+02
 0.4239247999824E+02
 0.4105901218498E+01
 0.6631679122918E+01
 0.8711730928711E+01
 0.9639512819543E+01
 0.9505099787127E+01
 0.9065994801903E+01
 0.8830717228055E+01
 0.8481255205369E+01
 0.7396393754572E+01
 0.5591999005490E+01
 0.4213315042342E+01
 0.6991836311328E+01
 0.2883422823448E+02
 0.3956636629857E+01
 0.6770740241487E+01
 0.9102317760415E+01
 0.1000363655138E+02
 0.9595395537184E+01
 0.8968080509850E+01
 0.8852808703612E+01
 0.8745686568564E+01
 0.7682466977841E+01
 0.5547318970601E+01
 0.3183781802769E+01
 0.1883175108593E+01
 0.5953322064393E+01
 0.3693546322141E+01
 0.6980845004926E+01
 0.9753360655458E+01
 0.1061659836198E+02
 0.9716201577659E+01
 0.8742697511380E+01
 0.8846945266766E+01
 0.9191393737535E+01
 0.8190147555937E+01
 0.5574457433856E+01
 0.2092494627819E+01
-0.3516438308011E+01
-0.1905050454420E+02
 0.3259262929105E+01
 0.7255524814118E+01
 0.1075627457125E+02
 0.1158071474600E+02
 0.9849651863080E+01
 0.8271180051395E+01
 0.8750497650440E+01
 0.9889506188590E+01
 0.9027208117343E+01
 0.5740254049873E+01
 0.1250808748824E+01
-0.7363072269976E+01
-0.3818035840885E+02
 0.2557271387847E+01
 0.7566589375745E+01
 0.1225735325462E+02
 0.1307768423252E+02
 0.9973444854956E+01
 0.7347145249303E+01
 0.8446805749504E+01
 0.1095921114962E+02
 0.1037220123130E+02
 0.6079874052447E+01
 0.7605656973923E+00
-0.8361022697794E+01
-0.4507165034014E+02
 0.1428389583903E+01
 0.7831817287986E+01
 0.1448850309247E+02
 0.1543606597059E+02
 0.1006907039296E+02
 0.5607789570803E+01
 0.7713002686189E+01
 0.1260686753246E+02
 0.1255189204483E+02
 0.6588458886547E+01
 0.3775890213817E+00
-0.6300903394018E+01
-0.3664493243719E+02
-0.3892992977081E+00
 0.7845934787533E+01
 0.1780154814037E+02
 0.1923302943869E+02
 0.1014167505494E+02
 0.2438507464760E+01
 0.6132761046922E+01
 0.1515868992432E+02
 0.1613930438337E+02
 0.7246840206818E+01
-0.6222812091402E+00
-0.2187248172702E+01
-0.1480570713758E+02
-0.3319448990367E+01
 0.7136873583060E+01
 0.2272661112308E+02
 0.2548490594483E+02
 0.1026785529773E+02
-0.3189545834929E+01
 0.2935519879630E+01
 0.1911257993593E+02
 0.2215116713992E+02
 0.8095676051038E+01
-0.3496994524735E+01
 0.1666347447809E+01
 0.1434655569295E+02
-0.8046425669786E+01
 0.4655083550976E+01
 0.3007665114875E+02
 0.3601523693398E+02
 0.1070776117173E+02
-0.1301241334945E+02
-0.3322274922374E+01
 0.2521903159180E+02
 0.3244749502401E+02
 0.9434687927664E+01
-0.1016222036120E+02
 0.2113188531993E+01
 0.4269022222624E+02
-0.1565117433450E+02
-0.1903120959958E+01
 0.4112816191565E+02
 0.5408652759235E+02
 0.1213441855797E+02
-0.2992665319827E+02
-0.1532796676172E+02
 0.3450943949914E+02
 0.5036728659599E+02
 0.1223373667353E+02
-0.2354860140855E+02
-0.4430703272296E+01
 0.6295297565326E+02
-0.2775787104981E+02
-0.1763262022796E+02
 0.5805907406673E+02
 0.8549512096522E+02
 0.1610693517894E+02
-0.5871663721743E+02
-0.3805112501609E+02
 0.4822091123987E+02
 0.8174292675248E+02
 0.1916889484432E+02
-0.4860888872387E+02
-0.2194889221583E+02
 0.7162873742732E+02
 0.2124936681688E+01
 0.1855662537939E+01
 0.1509130625024E+01
 0.1318386477980E+01
 0.1248822686315E+01
 0.1296700238284E+01
 0.2234007924006E+01
 0.1848389055270E+01
 0.1579791908444E+01
 0.1411424933760E+01
 0.1379867082401E+01
 0.1414836975220E+01
 0.2225852556702E+01
 0.1862236329507E+01
 0.1612655877315E+01
 0.1482187042198E+01
 0.1467517646644E+01
 0.1553076701238E+01
 0.2182905708696E+01
 0.1851267976412E+01
 0.1633634143806E+01
 0.1523640024746E+01
 0.1534000810216E+01
 0.1673126441900E+01
 0.2132085276652E+01
 0.1832178830344E+01
 0.1641762489145E+01
 0.1546224865848E+01
 0.1574070974645E+01
 0.1758269890609E+01
 0.2099176013095E+01
 0.1818278178429E+01
 0.1643851561638E+01
 0.1555289452947E+01
 0.1587869002093E+01
 0.1812169899820E+01
 0.2099176014443E+01
 0.1818278179122E+01
 0.1643851561581E+01
 0.1555289452693E+01
 0.1587869001522E+01
 0.1812169899525E+01
 0.2132085279943E+01
 0.1832178831975E+01
 0.1641762488888E+01
 0.1546224865089E+01
 0.1574070973677E+01
 0.1758269888928E+01
 0.2182905711901E+01
 0.1851267977809E+01
 0.1633634143075E+01
 0.1523640023617E+01
 0.1534000809218E+01
 0.1673126440281E+01
 0.2225852557151E+01
 0.1862236329189E+01
 0.1612655875795E+01
 0.1482187040643E+01
 0.1467517645688E+01
 0.1553076700609E+01
 0.2234007919162E+01
 0.1848389051995E+01
 0.1579791905917E+01
 0.1411424931698E+01
 0.1379867081230E+01
 0.1414836975879E+01
 0.2124936666422E+01
 0.1855662533901E+01
 0.1509130620898E+01
 0.1318386474047E+01
 0.1248822686357E+01
 0.1296700237881E+01
 0.3167796540887E+01
 0.5142180591412E+00
 0.5824252902718E+00
-0.3015347104300E-01
-0.1795383954387E+00
-0.2679463942902E+00
 0.2347602680117E+01
 0.1323812674648E+01
 0.5522404684863E+00
 0.3156623071681E+00
 0.6188481219448E-01
-0.3702365871702E-01
 0.2203126511746E+01
 0.1516708941141E+01
 0.8481999273060E+00
 0.5371291627912E+00
 0.3390994567919E+00
 0.2382888926836E+00
 0.2216989701330E+01
 0.1632259694531E+01
 0.1088832202076E+01
 0.7773082669191E+00
 0.5902077537616E+00
 0.5248301489953E+00
 0.2244529050921E+01
 0.1725179822859E+01
 0.1286571289941E+01
 0.1009588774145E+01
 0.8081919641182E+00
 0.7807682251149E+00
 0.2256176830093E+01
 0.1753284501554E+01
 0.1464934212820E+01
 0.1231630279792E+01
 0.1071832496576E+01
 0.8802604937291E+00
 0.2256176819293E+01
 0.1753284488463E+01
 0.1464934204722E+01
 0.1231630274049E+01
 0.1071832490660E+01
 0.8802604950006E+00
 0.2244529037478E+01
 0.1725179810335E+01
 0.1286571279926E+01
 0.1009588767305E+01
 0.8081919593694E+00
 0.7807682256097E+00
 0.2216989690781E+01
 0.1632259681850E+01
 0.1088832191148E+01
 0.7773082604827E+00
 0.5902077492930E+00
 0.5248301488561E+00
 0.2203126506227E+01
 0.1516708927817E+01
 0.8481999160865E+00
 0.5371291574713E+00
 0.3390994527595E+00
 0.2382888917678E+00
 0.2347602679600E+01
 0.1323812657282E+01
 0.5522404606021E+00
 0.3156623026236E+00
 0.6188480854265E-01
-0.3702366031956E-01
 0.3167796529585E+01
 0.5142180447207E+00
 0.5824252867698E+00
-0.3015347783717E-01
-0.1795383958145E+00
-0.2679463977946E+00
 0.1287311403579E+01
 0.8279352296267E+00
 0.4850881777241E+00
 0.1538190863346E+00
-0.1105857360550E+00
-0.2559441823761E+00
 0.1398414826836E+01
 0.1138919450463E+01
 0.7648649972365E+00
 0.3594414917764E+00
-0.2516444243230E-01
-0.2948729044175E+00
 0.1570870116277E+01
 0.1459564524369E+01
 0.1222390353635E+01
 0.8454871253129E+00
 0.2900600621525E+00
-0.2531902247713E+00
 0.1735234353631E+01
 0.1770771900379E+01
 0.1735734007880E+01
 0.1620305061621E+01
 0.1337737895878E+01
 0.6024008130043E+00
 0.1881086382325E+01
 0.1990748870785E+01
 0.2119978639391E+01
 0.2274748408146E+01
 0.2439110043800E+01
 0.2406398987926E+01
 0.1945107257388E+01
 0.2063555748976E+01
 0.2245418772193E+01
 0.2510465270912E+01
 0.2931871777739E+01
 0.3749603600183E+01
 0.1945107256070E+01
 0.2063555746872E+01
 0.2245418769759E+01
 0.2510465269245E+01
 0.2931871780350E+01
 0.3749603629278E+01
 0.1881086381596E+01
 0.1990748869401E+01
 0.2119978640516E+01
 0.2274748415029E+01
 0.2439110063748E+01
 0.2406399047642E+01
 0.1735234351634E+01
 0.1770771901273E+01
 0.1735734015592E+01
 0.1620305081511E+01
 0.1337737935696E+01
 0.6024008602755E+00
 0.1570870114065E+01
 0.1459564527594E+01
 0.1222390363972E+01
 0.8454871432791E+00
 0.2900600817622E+00
-0.2531902141587E+00
 0.1398414825533E+01
 0.1138919454550E+01
 0.7648650041367E+00
 0.3594414983673E+00
-0.2516444049897E-01
-0.2948729106200E+00
 0.1287311406249E+01
 0.8279352312282E+00
 0.4850881781930E+00
 0.1538190851629E+00
-0.1105857379848E+00
-0.2559441804735E+00
</DataArray>
<DataArray type="Float64" Name="S_Oct" NumberOfComponents="1" ComponentName0="S_Oct" format="ascii">
 0.3248208038795E+02
 0.2137782537459E+02
 0.6457093534164E+02
 0.9500030561058E+02
 0.1791738245705E+02
 0.6536410418649E+02
 0.4252363614477E+02
 0.5360671139330E+02
 0.9083632818722E+02
 0.2130046000245E+02
 0.5424879186654E+02
 0.2604549465240E+02
 0.7959234204038E+02
 0.2291120455718E+02
 0.8479547849837E+01
 0.4570256899608E+02
 0.6019172463139E+02
 0.1354517737305E+02
 0.3399084235317E+02
 0.1795622951154E+02
 0.3835822536922E+02
 0.5609594192562E+02
 0.1365444414611E+02
 0.2733564230070E+02
 0.9301265428205E+01
 0.6996519852446E+02
 0.1575731204965E+02
 0.8624943921588E+01
 0.3342410762727E+02
 0.4016364997135E+02
 0.1200781899257E+02
 0.1608013444951E+02
 0.6216423345626E+01
 0.2807254889566E+02
 0.3623861624012E+02
 0.1064665839019E+02
 0.1339432497597E+02
 0.6256925236160E+01
 0.4747910827700E+02
 0.9942855593860E+01
 0.9431543376071E+01
 0.2526656423916E+02
 0.2844573703702E+02
 0.1153212542486E+02
 0.6911713311890E+01
 0.5101331470134E+01
 0.2129094734600E+02
 0.2476093661411E+02
 0.9182441179237E+01
 0.6625056347199E+01
 0.3643436315987E+01
 0.1601243758225E+02
 0.5542086750193E+01
 0.9311786099994E+01
 0.1980207236800E+02
 0.2146011503581E+02
 0.1137165190516E+02
 0.5356179466226E+01
 0.7423021655266E+01
 0.1687775301853E+02
 0.1801833947307E+02
 0.8196071771484E+01
 0.3480766791545E+01
 0.2490189164306E+01
 0.1645292470183E+02
 0.2907597207581E+01
 0.8854944833880E+01
 0.1613035813696E+02
 0.1720994387295E+02
 0.1125814401925E+02
 0.7117829346070E+01
 0.8843931586268E+01
 0.1402199596197E+02
 0.1398359616887E+02
 0.7412139955654E+01
 0.1909398265733E+01
 0.7120679890831E+01
 0.4073444189299E+02
 0.2842165789458E+01
 0.8412574623940E+01
 0.1366594072774E+02
 0.1457196911203E+02
 0.1112204015934E+02
 0.8536724991623E+01
 0.9525950116562E+01
 0.1218015891709E+02
 0.1153508156457E+02
 0.6816070121343E+01
 0.1298216596415E+01
 0.9478980869699E+01
 0.5011232970065E+02
 0.3993957918718E+01
 0.8099228756849E+01
 0.1201939341895E+02
 0.1290162644202E+02
 0.1096351947662E+02
 0.9362313556691E+01
 0.9801764353956E+01
 0.1098890798525E+02
 0.1003120656695E+02
 0.6432275719018E+01
 0.1621860640398E+01
 0.8266322340588E+01
 0.4243780812352E+02
 0.5033097439278E+01
 0.7914126800265E+01
 0.1093180532709E+02
 0.1182957755607E+02
 0.1080332737911E+02
 0.9797439309713E+01
 0.9877926204078E+01
 0.1021507394752E+02
 0.9102543035997E+01
 0.6264165867706E+01
 0.2646765886262E+01
 0.3953046809384E+01
 0.2117374388217E+02
 0.5771490080074E+01
 0.7819792092946E+01
 0.1023639438974E+02
 0.1115091366947E+02
 0.1066380668696E+02
 0.1000743037836E+02
 0.9868368599289E+01
 0.9723139455304E+01
 0.8545872030361E+01
 0.6269350911549E+01
 0.4072554759984E+01
 0.3539101616225E+01
 0.7062385920639E+01
 0.6231407087493E+01
 0.7778488886752E+01
 0.9825743783858E+01
 0.1074957300880E+02
 0.1056191571008E+02
 0.1009827121242E+02
 0.9835681357701E+01
 0.9432271298610E+01
 0.8236885584449E+01
 0.6361914025233E+01
 0.5439373843511E+01
 0.9178590425726E+01
 0.3232833483033E+02
 0.6450550108069E+01
 0.7764173727696E+01
 0.9635514659708E+01
 0.1056273295936E+02
 0.1050841310609E+02
 0.1013020187833E+02
 0.9812414166786E+01
 0.9297067227993E+01
 0.8100577975199E+01
 0.6441751307229E+01
 0.6270822442207E+01
 0.1273514508060E+02
 0.4741431306187E+02
 0.6450550088982E+01
 0.7764173711741E+01
 0.9635514648657E+01
 0.1056273295318E+02
 0.1050841310126E+02
 0.1013020187256E+02
 0.9812414162049E+01
 0.9297067227152E+01
 0.8100577976764E+01
 0.6441751304226E+01
 0.6270822414722E+01
 0.1273514494906E+02
 0.4741431245416E+02
 0.6231407030266E+01
 0.7778488838776E+01
 0.9825743750666E+01
 0.1074957299082E+02
 0.1056191569597E+02
 0.1009827119471E+02
 0.9835681342908E+01
 0.9432271296365E+01
 0.8236885590203E+01
 0.6361914018276E+01
 0.5439373770584E+01
 0.9178590078364E+01
 0.3232833319599E+02
 0.5771489985050E+01
 0.7819792012603E+01
 0.1023639433420E+02
 0.1115091364151E+02
 0.1066380666482E+02
 0.1000743034737E+02
 0.9868368572483E+01
 0.9723139452544E+01
 0.8545872043640E+01
 0.6269350905844E+01
 0.4072554666518E+01
 0.3539101230720E+01
 0.7062383844978E+01
 0.5033097308202E+01
 0.7914126686877E+01
 0.1093180524852E+02
 0.1182957752172E+02
 0.1080332735151E+02
 0.9797439262875E+01
 0.9877926161249E+01
 0.1021507394592E+02
 0.9102543063099E+01
 0.6264165869342E+01
 0.2646765802413E+01
 0.3953047164234E+01
 0.2117374587940E+02
 0.3993957759554E+01
 0.8099228609064E+01
 0.1201939331558E+02
 0.1290162640764E+02
 0.1096351944835E+02
 0.9362313489754E+01
 0.9801764287677E+01
 0.1098890798753E+02
 0.1003120661892E+02
 0.6432275732947E+01
 0.1621860588805E+01
 0.8266322560828E+01
 0.4243780934006E+02
 0.2842165647055E+01
 0.8412574438765E+01
 0.1366594059557E+02
 0.1457196908868E+02
 0.1112204013929E+02
 0.8536724898624E+01
 0.9525950013640E+01
 0.1218015892733E+02
 0.1153508166097E+02
 0.6816070151307E+01
 0.1298216594840E+01
 0.9478980841068E+01
 0.5011232972370E+02
 0.2907597242816E+01
 0.8854944604948E+01
 0.1613035796191E+02
 0.1720994386866E+02
 0.1125814402275E+02
 0.7117829232784E+01
 0.8843931431284E+01
 0.1402199597183E+02
 0.1398359632092E+02
 0.7412140001570E+01
 0.1909398319559E+01
 0.7120679664347E+01
 0.4073444085164E+02
 0.5542086913512E+01
 0.9311785817180E+01
 0.1980207212252E+02
 0.2146011505592E+02
 0.1137165195897E+02
 0.5356179385379E+01
 0.7423021441155E+01
 0.1687775300468E+02
 0.1801833968461E+02
 0.8196071834246E+01
 0.3480766894039E+01
 0.2490188997617E+01
 0.1645292318926E+02
 0.9942855778671E+01
 0.9431543033224E+01
 0.2526656387842E+02
 0.2844573708958E+02
 0.1153212557833E+02
 0.6911713383147E+01
 0.5101331276561E+01
 0.2129094727275E+02
 0.2476093689365E+02
 0.9182441279231E+01
 0.6625056525058E+01
 0.3643436416116E+01
 0.1601243893292E+02
 0.1575731219871E+02
 0.8624943583779E+01
 0.3342410707024E+02
 0.4016365005346E+02
 0.1200781933031E+02
 0.1608013453736E+02
 0.6216423709994E+01
 0.2807254869240E+02
 0.3623861657134E+02
 0.1064665857117E+02
 0.1339432523078E+02
 0.6256925225923E+01
 0.4747910912816E+02
 0.2291120461516E+02
 0.8479548074206E+01
 0.4570256809608E+02
 0.6019172470886E+02
 0.1354517802992E+02
 0.3399084228107E+02
 0.1795623019512E+02
 0.3835822490584E+02
 0.5609594222138E+02
 0.1365444446926E+02
 0.2733564252736E+02
 0.9301265608573E+01
 0.6996519891415E+02
 0.3248208029588E+02
 0.2137782643026E+02
 0.6457093382823E+02
 0.9500030557277E+02
 0.1791738362010E+02
 0.6536410367118E+02
 0.4252363696254E+02
 0.5360671044578E+02
 0.9083632818742E+02
 0.2130046047672E+02
 0.5424879177425E+02
 0.2604549474804E+02
 0.7959234225345E+02
 0.4027950775026E+00
 0.9020285692752E+00
 0.1095459779272E+01
 0.1146245783234E+01
 0.1126746049677E+01
 0.1065357470391E+01
 0.3861534302805E+00
 0.9211811294675E+00
 0.1164677325712E+01
 0.1258700696955E+01
 0.1268965835956E+01
 0.1220184151029E+01
 0.4237696005357E+00
 0.9516898718922E+00
 0.1221875365824E+01
 0.1354815782785E+01
 0.1408595665422E+01
 0.1408957795788E+01
 0.4944768596980E+00
 0.9813155279794E+00
 0.1266066821667E+01
 0.1433834243158E+01
 0.1536820889317E+01
 0.1603774069192E+01
 0.5670166400546E+00
 0.1004462951438E+01
 0.1295735917463E+01
 0.1491307031039E+01
 0.1638649259845E+01
 0.1775163995129E+01
 0.6120645594930E+00
 0.1017085311979E+01
 0.1310576164551E+01
 0.1521761825304E+01
 0.1696822538641E+01
 0.1880629354637E+01
 0.6120645575087E+00
 0.1017085311386E+01
 0.1310576164242E+01
 0.1521761824951E+01
 0.1696822538346E+01
 0.1880629354901E+01
 0.5670166347937E+00
 0.1004462949703E+01
 0.1295735916472E+01
 0.1491307029965E+01
 0.1638649258806E+01
 0.1775163995222E+01
 0.4944768530112E+00
 0.9813155252315E+00
 0.1266066819835E+01
 0.1433834241311E+01
 0.1536820887408E+01
 0.1603774068236E+01
 0.4237695948186E+00
 0.9516898683417E+00
 0.1221875362979E+01
 0.1354815780108E+01
 0.1408595662692E+01
 0.1408957793760E+01
 0.3861534276723E+00
 0.9211811253922E+00
 0.1164677321802E+01
 0.1258700693397E+01
 0.1268965832385E+01
 0.1220184148054E+01
 0.4027950788836E+00
 0.9020285652698E+00
 0.1095459774427E+01
 0.1146245778661E+01
 0.1126746045305E+01
 0.1065357466518E+01
 0.9693681873297E+00
 0.6358865036066E+00
 0.2381199042122E+00
 0.3337436227507E-01
 0.2477160058798E-01
 0.1673062082941E-01
 0.9392053590214E+00
 0.7995398257975E+00
 0.4295809148547E+00
 0.2226782368364E+00
 0.1132070287247E+00
 0.9244518969249E-01
 0.8582240712464E+00
 0.8796850158077E+00
 0.6200279746498E+00
 0.4197619635316E+00
 0.2917045006929E+00
 0.2122681146828E+00
 0.7405997012575E+00
 0.9241604895426E+00
 0.7860342022496E+00
 0.6292650018302E+00
 0.5044301665952E+00
 0.3928067837752E+00
 0.6038293164884E+00
 0.9416666530766E+00
 0.9222835385968E+00
 0.8271891046541E+00
 0.7328872707477E+00
 0.6300080491397E+00
 0.4754859723911E+00
 0.9283246626344E+00
 0.1027320973491E+01
 0.1008231226466E+01
 0.9451611824543E+00
 0.8866858181127E+00
 0.4754859761590E+00
 0.9283246587615E+00
 0.1027320967002E+01
 0.1008231220700E+01
 0.9451611779558E+00
 0.8866858132903E+00
 0.6038293197927E+00
 0.9416666486907E+00
 0.9222835312173E+00
 0.8271890986264E+00
 0.7328872661846E+00
 0.6300080441620E+00
 0.7405997020013E+00
 0.9241604842412E+00
 0.7860341943593E+00
 0.6292649959821E+00
 0.5044301621957E+00
 0.3928067802118E+00
 0.8582240683782E+00
 0.8796850094868E+00
 0.6200279666961E+00
 0.4197619585547E+00
 0.2917044972978E+00
 0.2122681137377E+00
 0.9392053525210E+00
 0.7995398184454E+00
 0.4295809077510E+00
 0.2226782334255E+00
 0.1132070268459E+00
 0.9244519189206E-01
 0.9693681776589E+00
 0.6358864970734E+00
 0.2381198985865E+00
 0.3337436039088E-01
 0.2477160040029E-01
 0.1673062486217E-01
 0.8841429902612E+00
 0.5857751825222E+00
 0.3645730598718E+00
 0.2337184241386E+00
 0.1767840114087E+00
 0.1422297876510E+00
 0.1080240443678E+01
 0.8208091176453E+00
 0.5592620786562E+00
 0.3676888173262E+00
 0.2667128508849E+00
 0.2094393949326E+00
 0.1310321321358E+01
 0.1105823746660E+01
 0.8657364794489E+00
 0.6380910505080E+00
 0.4810231966573E+00
 0.3833418138845E+00
 0.1573495672916E+01
 0.1453424983332E+01
 0.1294531484876E+01
 0.1117385283853E+01
 0.9795782951592E+00
 0.9840479698434E+00
 0.1838431718515E+01
 0.1820827969267E+01
 0.1769267232547E+01
 0.1682220379385E+01
 0.1575945325527E+01
 0.1521138226736E+01
 0.2000667285894E+01
 0.2032114935468E+01
 0.2027495184046E+01
 0.1968514503531E+01
 0.1823100257913E+01
 0.1525774077337E+01
 0.2000667286753E+01
 0.2032114936537E+01
 0.2027495185339E+01
 0.1968514504717E+01
 0.1823100257466E+01
 0.1525774069064E+01
 0.1838431721088E+01
 0.1820827974262E+01
 0.1769267240357E+01
 0.1682220389675E+01
 0.1575945335679E+01
 0.1521138228866E+01
 0.1573495673944E+01
 0.1453424987647E+01
 0.1294531493827E+01
 0.1117385297801E+01
 0.9795783134500E+00
 0.9840479949646E+00
 0.1310321320340E+01
 0.1105823748541E+01
 0.8657364851012E+00
 0.6380910590421E+00
 0.4810232074503E+00
 0.3833418296551E+00
 0.1080240441703E+01
 0.8208091187342E+00
 0.5592620821743E+00
 0.3676888220177E+00
 0.2667128559950E+00
 0.2094393990632E+00
 0.8841429879920E+00
 0.5857751821674E+00
 0.3645730604845E+00
 0.2337184260367E+00
 0.1767840147787E+00
 0.1422297907976E+00
</DataArray>
<DataArray type="Float64" Name="OI" NumberOfComponents="1" ComponentName0="OI" format="ascii">
 0.4724209345784E+01
 0.3745206199027E+01
 0.1226300107720E+03
 0.1804954266098E+03
 0.3402431658661E+02
 0.6647466507388E+01
 0.4472511871743E+01
 0.1018276234866E+03
 0.1725792549393E+03
 0.4046935441984E+02
 0.5639903062871E+01
 0.4096602526896E+01
 0.1512210792761E+03
 0.7260030391548E+01
 0.6576427675813E+01
 0.8683073172246E+02
 0.1142782521543E+03
 0.2567959532820E+02
 0.4064189103672E+01
 0.2628263391511E+01
 0.7286766528400E+02
 0.1064632282543E+03
 0.2588818052236E+02
 0.3787041118286E+01
 0.4870562419206E+01
 0.1329181738270E+03
 0.7710886593594E+01
 0.1328002804822E+02
 0.6350075927615E+02
 0.7617888683289E+02
 0.2271557984403E+02
 0.3067721210640E+01
 0.2894148907798E+01
 0.5329158066764E+02
 0.6868611096721E+02
 0.2008134614264E+02
 0.3232104883045E+01
 0.8370113940526E+01
 0.9016932973685E+02
 0.6623406813931E+01
 0.1656841737978E+02
 0.4799317568471E+02
 0.5393064293679E+02
 0.2179998057099E+02
 0.3722167631687E+01
 0.8036851692059E+01
 0.4040352734591E+02
 0.4691210350598E+02
 0.1727811713089E+02
 0.3128062028190E+01
 0.5309783743505E+01
 0.3035899205778E+02
 0.5152787640904E+01
 0.1715772119668E+02
 0.3760362072661E+02
 0.4069314445847E+02
 0.2151332690339E+02
 0.7794687079362E+01
 0.1355578293521E+02
 0.3203644295465E+02
 0.3415764366995E+02
 0.1544291191756E+02
 0.2858485702212E+01
 0.3029408149704E+00
 0.1647216202133E+01
 0.4335986951900E+01
 0.1668676235077E+02
 0.3061886138386E+02
 0.3264600984876E+02
 0.2132721440497E+02
 0.1272561904091E+02
 0.1655693442757E+02
 0.2662886348557E+02
 0.2653548807965E+02
 0.1400059879956E+02
 0.2286987344827E+01
 0.8197763031285E+00
 0.4089508519529E+01
 0.5399437308292E+01
 0.1597916416968E+02
 0.2592329409775E+02
 0.2764965336629E+02
 0.2109548503060E+02
 0.1588387033337E+02
 0.1797275596576E+02
 0.2313937005759E+02
 0.2190728271048E+02
 0.1289594414590E+02
 0.2058782329935E+01
 0.1117958142052E+01
 0.5040679381110E+01
 0.7253220951255E+01
 0.1535475369672E+02
 0.2277566807943E+02
 0.2448234121916E+02
 0.2081317136455E+02
 0.1763349367190E+02
 0.1855226206721E+02
 0.2087841417179E+02
 0.1905841463775E+02
 0.1217252975501E+02
 0.2872669436030E+01
 0.9032502576332E+00
 0.4257450807791E+01
 0.8726643839434E+01
 0.1489497189608E+02
 0.2068516604954E+02
 0.2244617594887E+02
 0.2051952898145E+02
 0.1854013686480E+02
 0.1872487151087E+02
 0.1940646768643E+02
 0.1729269056719E+02
 0.1183862329797E+02
 0.4739260578728E+01
 0.4366088458556E+00
 0.2123241139030E+01
 0.9728126764343E+01
 0.1459053239614E+02
 0.1933871219697E+02
 0.2115455024581E+02
 0.2025920224404E+02
 0.1897551091679E+02
 0.1872117732773E+02
 0.1846882602626E+02
 0.1622833899570E+02
 0.1181666988459E+02
 0.7256336632499E+01
 0.5422277112161E+01
 0.1301570992179E+02
 0.1033730833811E+02
 0.1441016804553E+02
 0.1853747474031E+02
 0.2038908584433E+02
 0.2006701550991E+02
 0.1916426603055E+02
 0.1866639859939E+02
 0.1791352650593E+02
 0.1563327933338E+02
 0.1195391303462E+02
 0.9652688939862E+01
 0.1617042703744E+02
 0.6116256453300E+02
 0.1062392156310E+02
 0.1432710056847E+02
 0.1816409474177E+02
 0.2003213051818E+02
 0.1996549796878E+02
 0.1923103597435E+02
 0.1862527638333E+02
 0.1765513594027E+02
 0.1536898307198E+02
 0.1207880998851E+02
 0.1110812869135E+02
 0.2280391303076E+02
 0.8980679360555E+02
 0.1062392153339E+02
 0.1432710054074E+02
 0.1816409472153E+02
 0.2003213050651E+02
 0.1996549795961E+02
 0.1923103596332E+02
 0.1862527637424E+02
 0.1765513593870E+02
 0.1536898307513E+02
 0.1207880998375E+02
 0.1110812864354E+02
 0.2280391278650E+02
 0.8980679245240E+02
 0.1033730824876E+02
 0.1441016796169E+02
 0.1853747467938E+02
 0.2038908581036E+02
 0.2006701548310E+02
 0.1916426599661E+02
 0.1866639857096E+02
 0.1791352650173E+02
 0.1563327934477E+02
 0.1195391302377E+02
 0.9652688812926E+01
 0.1617042638969E+02
 0.6116256143047E+02
 0.9728126614907E+01
 0.1459053225409E+02
 0.1933871209461E+02
 0.2115455019290E+02
 0.2025920220200E+02
 0.1897551085722E+02
 0.1872117727610E+02
 0.1846882602111E+02
 0.1622833902148E+02
 0.1181666987645E+02
 0.7256336469287E+01
 0.5422276339314E+01
 0.1301570590937E+02
 0.8726643630343E+01
 0.1489497169180E+02
 0.2068516590397E+02
 0.2244617588369E+02
 0.2051952892917E+02
 0.1854013677426E+02
 0.1872487142801E+02
 0.1940646768345E+02
 0.1729269061904E+02
 0.1183862330320E+02
 0.4739260430232E+01
 0.4366088562227E+00
 0.2123241335203E+01
 0.7253220688660E+01
 0.1535475342318E+02
 0.2277566788683E+02
 0.2448234115364E+02
 0.2081317131143E+02
 0.1763349354115E+02
 0.1855226193812E+02
 0.2087841417612E+02
 0.1905841473626E+02
 0.1217252978282E+02
 0.2872669337629E+01
 0.9032502908523E+00
 0.4257450931218E+01
 0.5399437034902E+01
 0.1597916381451E+02
 0.2592329385020E+02
 0.2764965332119E+02
 0.2109548499425E+02
 0.1588387014793E+02
 0.1797275576314E+02
 0.2313937007695E+02
 0.2190728289227E+02
 0.1289594420375E+02
 0.2058782292233E+01
 0.1117958143274E+01
 0.5040679383565E+01
 0.4335986826719E+01
 0.1668676189293E+02
 0.3061886105439E+02
 0.3264600983925E+02
 0.2132721441571E+02
 0.1272561880359E+02
 0.1655693411747E+02
 0.2662886350429E+02
 0.2653548836574E+02
 0.1400059888812E+02
 0.2286987340941E+01
 0.8197762703286E+00
 0.4089508414451E+01
 0.5152787615804E+01
 0.1715772060471E+02
 0.3760362026289E+02
 0.4069314449461E+02
 0.2151332701391E+02
 0.7794686850140E+01
 0.1355578248808E+02
 0.3203644292900E+02
 0.3415764406799E+02
 0.1544291204106E+02
 0.2858485684899E+01
 0.3029408249144E+00
 0.1647216051679E+01
 0.6623406788305E+01
 0.1656841661628E+02
 0.4799317500150E+02
 0.5393064303441E+02
 0.2179998087606E+02
 0.3722167548218E+01
 0.8036851156191E+01
 0.4040352720867E+02
 0.4691210403356E+02
 0.1727811733027E+02
 0.3128062000323E+01
 0.5309783863925E+01
 0.3035899462587E+02
 0.7710886528927E+01
 0.1328002713475E+02
 0.6350075821899E+02
 0.7617888698744E+02
 0.2271558050204E+02
 0.3067721187909E+01
 0.2894148787620E+01
 0.5329158028420E+02
 0.6868611159536E+02
 0.2008134649884E+02
 0.3232104869576E+01
 0.8370113757915E+01
 0.9016933135440E+02
 0.7260030280657E+01
 0.6576427114248E+01
 0.8683073001174E+02
 0.1142782523012E+03
 0.2567959658789E+02
 0.4064189082797E+01
 0.2628263433399E+01
 0.7286766440498E+02
 0.1064632288174E+03
 0.2588818114279E+02
 0.3787041118813E+01
 0.4870562336277E+01
 0.1329181745674E+03
 0.4724209246067E+01
 0.3745206202300E+01
 0.1226300078950E+03
 0.1804954265380E+03
 0.3402431879904E+02
 0.6647466453753E+01
 0.4472511946445E+01
 0.1018276216856E+03
 0.1725792549399E+03
 0.4046935532104E+02
 0.5639903050386E+01
 0.4096602532211E+01
 0.1512210796808E+03
 0.2527731759191E+01
 0.2757691107215E+01
 0.2604590404296E+01
 0.2464632261215E+01
 0.2375568735992E+01
 0.2362057708675E+01
 0.2620161354286E+01
 0.2769570184738E+01
 0.2744469234157E+01
 0.2670125630715E+01
 0.2648832918357E+01
 0.2635021126249E+01
 0.2649622157237E+01
 0.2813926201399E+01
 0.2834531243139E+01
 0.2837002824983E+01
 0.2876113312066E+01
 0.2962034497027E+01
 0.2677382568394E+01
 0.2832583504391E+01
 0.2899700965474E+01
 0.2957474267904E+01
 0.3070821699533E+01
 0.3276900511092E+01
 0.2699101916707E+01
 0.2836641781782E+01
 0.2937498406608E+01
 0.3037531896886E+01
 0.3212720234490E+01
 0.3533433885739E+01
 0.2711240572588E+01
 0.2835363490408E+01
 0.2954427726189E+01
 0.3077051278250E+01
 0.3284691540734E+01
 0.3692799254456E+01
 0.2711240571952E+01
 0.2835363490508E+01
 0.2954427725823E+01
 0.3077051277645E+01
 0.3284691539867E+01
 0.3692799254426E+01
 0.2699101914737E+01
 0.2836641781678E+01
 0.2937498405360E+01
 0.3037531895054E+01
 0.3212720232483E+01
 0.3533433884150E+01
 0.2677382564912E+01
 0.2832583503041E+01
 0.2899700962910E+01
 0.2957474264928E+01
 0.3070821696626E+01
 0.3276900508517E+01
 0.2649622151969E+01
 0.2813926197530E+01
 0.2834531238774E+01
 0.2837002820751E+01
 0.2876113308379E+01
 0.2962034494369E+01
 0.2620161346835E+01
 0.2769570177388E+01
 0.2744469227719E+01
 0.2670125625095E+01
 0.2648832913615E+01
 0.2635021123932E+01
 0.2527731745306E+01
 0.2757691099171E+01
 0.2604590395325E+01
 0.2464632252708E+01
 0.2375568731662E+01
 0.2362057704399E+01
 0.4137164728217E+01
 0.1150104562748E+01
 0.8205451944840E+00
 0.3220891232069E-02
-0.1547667948508E+00
-0.2512157734608E+00
 0.3286808039138E+01
 0.2123352500446E+01
 0.9818213833410E+00
 0.5383405440045E+00
 0.1750918409192E+00
 0.5542153097547E-01
 0.3061350582992E+01
 0.2396393956949E+01
 0.1468227901956E+01
 0.9568911263228E+00
 0.6308039574848E+00
 0.4505570073664E+00
 0.2957589402587E+01
 0.2556420184073E+01
 0.1874866404326E+01
 0.1406573268749E+01
 0.1094637920357E+01
 0.9176369327705E+00
 0.2848358367410E+01
 0.2666846475935E+01
 0.2208854828537E+01
 0.1836777878799E+01
 0.1541079234866E+01
 0.1410776274255E+01
 0.2731662802484E+01
 0.2681609164188E+01
 0.2492255186312E+01
 0.2239861506257E+01
 0.2016993679030E+01
 0.1766946311842E+01
 0.2731662795452E+01
 0.2681609147224E+01
 0.2492255171724E+01
 0.2239861494749E+01
 0.2016993668615E+01
 0.1766946308291E+01
 0.2848358357271E+01
 0.2666846459026E+01
 0.2208854811143E+01
 0.1836777865931E+01
 0.1541079225554E+01
 0.1410776269772E+01
 0.2957589392782E+01
 0.2556420166091E+01
 0.1874866385507E+01
 0.1406573256465E+01
 0.1094637911489E+01
 0.9176369290678E+00
 0.3061350574605E+01
 0.2396393937304E+01
 0.1468227882783E+01
 0.9568911160261E+00
 0.6308039500573E+00
 0.4505570055055E+00
 0.3286808032121E+01
 0.2123352475727E+01
 0.9818213683531E+00
 0.5383405360491E+00
 0.1750918353885E+00
 0.5542153157249E-01
 0.4137164707244E+01
 0.1150104541794E+01
 0.8205451853563E+00
 0.3220882553711E-02
-0.1547667954142E+00
-0.2512157729324E+00
 0.2171454393840E+01
 0.1413710412149E+01
 0.8496612375959E+00
 0.3875375104732E+00
 0.6619827535378E-01
-0.1137143947252E+00
 0.2478655270514E+01
 0.1959728568108E+01
 0.1324127075893E+01
 0.7271303091026E+00
 0.2415484084526E+00
-0.8543350948491E-01
 0.2881191437635E+01
 0.2565388271030E+01
 0.2088126833084E+01
 0.1483578175821E+01
 0.7710832588098E+00
 0.1301515891132E+00
 0.3308730026548E+01
 0.3224196883711E+01
 0.3030265492756E+01
 0.2737690345474E+01
 0.2317316191037E+01
 0.1586448782848E+01
 0.3719518100840E+01
 0.3811576840052E+01
 0.3889245871938E+01
 0.3956968787531E+01
 0.4015055369328E+01
 0.3927537214662E+01
 0.3945774543282E+01
 0.4095670684444E+01
 0.4272913956239E+01
 0.4478979774443E+01
 0.4754972035651E+01
 0.5275377677520E+01
 0.3945774542823E+01
 0.4095670683409E+01
 0.4272913955098E+01
 0.4478979773962E+01
 0.4754972037816E+01
 0.5275377698342E+01
 0.3719518102684E+01
 0.3811576843663E+01
 0.3889245880873E+01
 0.3956968804703E+01
 0.4015055399427E+01
 0.3927537276508E+01
 0.3308730025578E+01
 0.3224196888920E+01
 0.3030265509419E+01
 0.2737690379312E+01
 0.2317316249146E+01
 0.1586448855240E+01
 0.2881191434405E+01
 0.2565388276135E+01
 0.2088126849073E+01
 0.1483578202321E+01
 0.7710832892125E+00
 0.1301516154964E+00
 0.2478655267235E+01
 0.1959728573284E+01
 0.1324127086311E+01
 0.7271303203850E+00
 0.2415484154960E+00
-0.8543351155685E-01
 0.2171454394241E+01
 0.1413710413396E+01
 0.8496612386775E+00
 0.3875375111996E+00
 0.6619827679388E-01
-0.1137143896759E+00
</DataArray>
<DataArray type="Float64" Name="CK" NumberOfComponents="1" ComponentName0="CK" format="ascii">
 0.0000000000000E+00
 0.0000000000000E+00
 0.0000000000000E+00
 0.0000000000000E+00
 0.0000000000000E+00
 0.0000000000000E+00
 0.0000000000000E+00
 0.0000000000000E+00
 0.0000000000000E+00
 0.0000000000000E+00
 0.0000000000000E+00
 0.0000000000000E+00
 0.0000000000000E+00
 0.0000000000000E+00
 0.0000000000000E+00
 0.0000000000000E+00
 0.0000000000000E+00
 0.0000000000000E+00
 0.0000000000000E+00
 0.0000000000000E+00
 0.0000000000000E+00
 0.0000000000000E+00
 0.0000000000000E+00
 0.0000000000000E+00
 0.0000000000000E+00
 0.0000000000000E+00
 0.0000000000000E+00
 0.0000000000000E+00
 0.0000000000000E+00
 0.0000000000000E+00
 0.0000000000000E+00
 0.0000000000000E+00
 0.0000000000000E+00
 0.0000000000000E+00
 0.0000000000000E+00
 0.0000000000000E+00
 0.0000000000000E+00
 0.0000000000000E+00
 0.0000000000000E+00
 0.0000000000000E+00
 0.0000000000000E+00
 0.0000000000000E+00
 0.0000000000000E+00
 0.0000000000000E+00
 0.0000000000000E+00
 0.0000000000000E+00
 0.0000000000000E+00
 0.0000000000000E+00
 0.0000000000000E+00
 0.0000000000000E+00
 0.0000000000000E+00
 0.0000000000000E+00
 0.0000000000000E+00
 0.0000000000000E+00
 0.0000000000000E+00
 0.0000000000000E+00
 0.0000000000000E+00
 0.0000000000000E+00
 0.0000000000000E+00
 0.0000000000000E+00
 0.0000000000000E+00
 0.0000000000000E+00
 0.0000000000000E+00
 0.0000000000000E+00
 0.0000000000000E+00
 0.0000000000000E+00
 0.0000000000000E+00
 0.0000000000000E+00
 0.0000000000000E+00
 0.0000000000000E+00
 0.0000000000000E+00
 0.0000000000000E+00
 0.0000000000000E+00
 0.0000000000000E+00
 0.0000000000000E+00
 0.0000000000000E+00
 0.0000000000000E+00
 0.0000000000000E+00
 0.0000000000000E+00
 0.0000000000000E+00
 0.0000000000000E+00
 0.0000000000000E+00
 0.0000000000000E+00
 0.0000000000000E+00
 0.0000000000000E+00
 0.0000000000000E+00
 0.0000000000000E+00
 0.0000000000000E+00
 0.0000000000000E+00
 0.0000000000000E+00
 0.0000000000000E+00
 0.0000000000000E+00
 0.0000000000000E+00
 0.0000000000000E+00
 0.0000000000000E+00
 0.0000000000000E+00
 0.0000000000000E+00
 0.0000000000000E+00
 0.0000000000000E+00
 0.0000000000000E+00
 0.0000000000000E+00
 0.0000000000000E+00
 0.0000000000000E+00
 0.0000000000000E+00
 0.0000000000000E+00
 0.0000000000000E+00
 0.0000000000000E+00
 0.0000000000000E+00
 0.0000000000000E+00
 0.0000000000000E+00
 0.0000000000000E+00
 0.0000000000000E+00
 0.0000000000000E+00
 0.0000000000000E+00
 0.0000000000000E+00
 0.0000000000000E+00
 0.0000000000000E+00
 0.0000000000000E+00
 0.0000000000000E+00
 0.0000000000000E+00
 0.0000000000000E+00
 0.0000000000000E+00
 0.0000000000000E+00
 0.0000000000000E+00
 0.0000000000000E+00
 0.0000000000000E+00
 0.0000000000000E+00
 0.0000000000000E+00
 0.0000000000000E+00
 0.0000000000000E+00
 0.0000000000000E+00
 0.0000000000000E+00
 0.0000000000000E+00
 0.0000000000000E+00
 0.0000000000000E+00
 0.0000000000000E+00
 0.0000000000000E+00
 0.0000000000000E+00
 0.0000000000000E+00
 0.0000000000000E+00
 0.0000000000000E+00
 0.0000000000000E+00
 0.0000000000000E+00
 0.0000000000000E+00
 0.0000000000000E+00
 0.0000000000000E+00
 0.0000000000000E+00
 0.0000000000000E+00
 0.0000000000000E+00
 0.0000000000000E+00
 0.0000000000000E+00
 0.0000000000000E+00
 0.0000000000000E+00
 0.0000000000000E+00
 0.0000000000000E+00
 0.0000000000000E+00
 0.0000000000000E+00
 0.0000000000000E+00
 0.0000000000000E+00
 0.0000000000000E+00
 0.0000000000000E+00
 0.0000000000000E+00
 0.0000000000000E+00
 0.0000000000000E+00
 0.0000000000000E+00
 0.0000000000000E+00
 0.0000000000000E+00
 0.0000000000000E+00
 0.0000000000000E+00
 0.0000000000000E+00
 0.0000000000000E+00
 0.0000000000000E+00
 0.0000000000000E+00
 0.0000000000000E+00
 0.0000000000000E+00
 0.0000000000000E+00
 0.0000000000000E+00
 0.0000000000000E+00
 0.0000000000000E+00
 0.0000000000000E+00
 0.0000000000000E+00
 0.0000000000000E+00
 0.0000000000000E+00
 0.0000000000000E+00
 0.0000000000000E+00
 0.0000000000000E+00
 0.0000000000000E+00
 0.0000000000000E+00
 0.0000000000000E+00
 0.0000000000000E+00
 0.0000000000000E+00
 0.0000000000000E+00
 0.0000000000000E+00
 0.0000000000000E+00
 0.0000000000000E+00
 0.0000000000000E+00
 0.0000000000000E+00
 0.0000000000000E+00
 0.0000000000000E+00
 0.0000000000000E+00
 0.0000000000000E+00
 0.0000000000000E+00
 0.0000000000000E+00
 0.0000000000000E+00
 0.0000000000000E+00
 0.0000000000000E+00
 0.0000000000000E+00
 0.0000000000000E+00
 0.0000000000000E+00
 0.0000000000000E+00
 0.0000000000000E+00
 0.0000000000000E+00
 0.0000000000000E+00
 0.0000000000000E+00
 0.0000000000000E+00
 0.0000000000000E+00
 0.0000000000000E+00
 0.0000000000000E+00
 0.0000000000000E+00
 0.0000000000000E+00
 0.0000000000000E+00
 0.0000000000000E+00
 0.0000000000000E+00
 0.0000000000000E+00
 0.0000000000000E+00
 0.0000000000000E+00
 0.0000000000000E+00
 0.0000000000000E+00
 0.0000000000000E+00
 0.0000000000000E+00
 0.0000000000000E+00
 0.0000000000000E+00
 0.0000000000000E+00
 0.0000000000000E+00
 0.0000000000000E+00
 0.0000000000000E+00
 0.0000000000000E+00
 0.0000000000000E+00
 0.0000000000000E+00
 0.0000000000000E+00
 0.0000000000000E+00
 0.0000000000000E+00
 0.0000000000000E+00
 0.0000000000000E+00
 0.0000000000000E+00
 0.0000000000000E+00
 0.0000000000000E+00
 0.0000000000000E+00
 0.0000000000000E+00
 0.0000000000000E+00
 0.0000000000000E+00
 0.0000000000000E+00
 0.0000000000000E+00
 0.0000000000000E+00
 0.0000000000000E+00
 0.0000000000000E+00
 0.0000000000000E+00
 0.0000000000000E+00
 0.0000000000000E+00
 0.0000000000000E+00
 0.0000000000000E+00
 0.0000000000000E+00
 0.0000000000000E+00
 0.0000000000000E+00
 0.0000000000000E+00
 0.0000000000000E+00
 0.0000000000000E+00
 0.0000000000000E+00
 0.0000000000000E+00
 0.0000000000000E+00
 0.0000000000000E+00
 0.0000000000000E+00
 0.0000000000000E+00
 0.0000000000000E+00
 0.0000000000000E+00
 0.0000000000000E+00
 0.0000000000000E+00
 0.0000000000000E+00
 0.0000000000000E+00
 0.0000000000000E+00
 0.0000000000000E+00
 0.0000000000000E+00
 0.0000000000000E+00
 0.0000000000000E+00
 0.0000000000000E+00
 0.0000000000000E+00
 0.0000000000000E+00
 0.0000000000000E+00
 0.0000000000000E+00
 0.0000000000000E+00
 0.0000000000000E+00
 0.0000000000000E+00
 0.0000000000000E+00
 0.0000000000000E+00
 0.0000000000000E+00
 0.0000000000000E+00
 0.0000000000000E+00
 0.0000000000000E+00
 0.0000000000000E+00
 0.0000000000000E+00
 0.0000000000000E+00
 0.0000000000000E+00
 0.0000000000000E+00
 0.0000000000000E+00
 0.0000000000000E+00
 0.0000000000000E+00
 0.0000000000000E+00
 0.0000000000000E+00
 0.0000000000000E+00
 0.0000000000000E+00
 0.0000000000000E+00
 0.0000000000000E+00
 0.0000000000000E+00
 0.0000000000000E+00
 0.0000000000000E+00
 0.0000000000000E+00
 0.0000000000000E+00
 0.0000000000000E+00
 0.0000000000000E+00
 0.0000000000000E+00
 0.0000000000000E+00
 0.0000000000000E+00
 0.0000000000000E+00
 0.0000000000000E+00
 0.0000000000000E+00
 0.0000000000000E+00
 0.0000000000000E+00
 0.0000000000000E+00
 0.0000000000000E+00
 0.0000000000000E+00
 0.0000000000000E+00
 0.0000000000000E+00
 0.0000000000000E+00
 0.0000000000000E+00
 0.0000000000000E+00
 0.0000000000000E+00
 0.0000000000000E+00
 0.0000000000000E+00
 0.0000000000000E+00
 0.0000000000000E+00
 0.0000000000000E+00
 0.0000000000000E+00
 0.0000000000000E+00
 0.0000000000000E+00
 0.0000000000000E+00
 0.0000000000000E+00
 0.0000000000000E+00
 0.0000000000000E+00
 0.0000000000000E+00
 0.0000000000000E+00
 0.0000000000000E+00
 0.0000000000000E+00
 0.0000000000000E+00
 0.0000000000000E+00
 0.0000000000000E+00
 0.0000000000000E+00
 0.0000000000000E+00
 0.0000000000000E+00
 0.0000000000000E+00
 0.0000000000000E+00
 0.0000000000000E+00
 0.0000000000000E+00
 0.0000000000000E+00
 0.0000000000000E+00
 0.0000000000000E+00
 0.0000000000000E+00
 0.0000000000000E+00
 0.0000000000000E+00
 0.0000000000000E+00
 0.0000000000000E+00
 0.0000000000000E+00
 0.0000000000000E+00
 0.0000000000000E+00
 0.0000000000000E+00
 0.0000000000000E+00
 0.0000000000000E+00
 0.0000000000000E+00
 0.0000000000000E+00
 0.0000000000000E+00
 0.0000000000000E+00
 0.0000000000000E+00
 0.0000000000000E+00
 0.0000000000000E+00
 0.0000000000000E+00
 0.0000000000000E+00
 0.0000000000000E+00
 0.0000000000000E+00
 0.0000000000000E+00
 0.0000000000000E+00
 0.0000000000000E+00
 0.0000000000000E+00
 0.0000000000000E+00
 0.0000000000000E+00
 0.0000000000000E+00
 0.0000000000000E+00
 0.0000000000000E+00
 0.0000000000000E+00
 0.0000000000000E+00
 0.0000000000000E+00
 0.0000000000000E+00
 0.0000000000000E+00
 0.0000000000000E+00
 0.0000000000000E+00
 0.0000000000000E+00
 0.0000000000000E+00
 0.0000000000000E+00
 0.0000000000000E+00
 0.0000000000000E+00
 0.0000000000000E+00
 0.0000000000000E+00
 0.0000000000000E+00
 0.0000000000000E+00
 0.0000000000000E+00
 0.0000000000000E+00
 0.0000000000000E+00
 0.0000000000000E+00
 0.0000000000000E+00
 0.0000000000000E+00
 0.0000000000000E+00
 0.0000000000000E+00
 0.0000000000000E+00
 0.0000000000000E+00
 0.0000000000000E+00
 0.0000000000000E+00
 0.0000000000000E+00
 0.0000000000000E+00
 0.0000000000000E+00
 0.0000000000000E+00
 0.0000000000000E+00
 0.0000000000000E+00
 0.0000000000000E+00
 0.0000000000000E+00
 0.0000000000000E+00
 0.0000000000000E+00
 0.0000000000000E+00
 0.0000000000000E+00
 0.0000000000000E+00
 0.0000000000000E+00
 0.0000000000000E+00
 0.0000000000000E+00
 0.0000000000000E+00
 0.0000000000000E+00
 0.0000000000000E+00
 0.0000000000000E+00
 0.0000000000000E+00
 0.0000000000000E+00
 0.0000000000000E+00
 0.0000000000000E+00
 0.0000000000000E+00
 0.0000000000000E+00
 0.0000000000000E+00
 0.0000000000000E+00
 0.0000000000000E+00
 0.0000000000000E+00
 0.0000000000000E+00
 0.0000000000000E+00
 0.0000000000000E+00
 0.0000000000000E+00
 0.0000000000000E+00
 0.0000000000000E+00
 0.0000000000000E+00
 0.0000000000000E+00
 0.0000000000000E+00
 0.0000000000000E+00
 0.0000000000000E+00
 0.0000000000000E+00
 0.0000000000000E+00
 0.0000000000000E+00
 0.0000000000000E+00
 0.0000000000000E+00
 0.0000000000000E+00
 0.0000000000000E+00
 0.0000000000000E+00
 0.0000000000000E+00
 0.0000000000000E+00
 0.0000000000000E+00
 0.0000000000000E+00
 0.0000000000000E+00
 0.0000000000000E+00
 0.0000000000000E+00
 0.0000000000000E+00
 0.0000000000000E+00
 0.0000000000000E+00
 0.0000000000000E+00
 0.0000000000000E+00
 0.0000000000000E+00
 0.0000000000000E+00
 0.0000000000000E+00
 0.0000000000000E+00
 0.0000000000000E+00
 0.0000000000000E+00
 0.0000000000000E+00
 0.0000000000000E+00
 0.0000000000000E+00
 0.0000000000000E+00
 0.0000000000000E+00
 0.0000000000000E+00
 0.0000000000000E+00
 0.0000000000000E+00
 0.0000000000000E+00
 0.0000000000000E+00
 0.0000000000000E+00
 0.0000000000000E+00
 0.0000000000000E+00
 0.0000000000000E+00
 0.0000000000000E+00
 0.0000000000000E+00
 0.0000000000000E+00
 0.0000000000000E+00
 0.0000000000000E+00
 0.0000000000000E+00
 0.0000000000000E+00
 0.0000000000000E+00
 0.0000000000000E+00
 0.0000000000000E+00
 0.0000000000000E+00
 0.0000000000000E+00
 0.0000000000000E+00
 0.0000000000000E+00
 0.0000000000000E+00
 0.0000000000000E+00
 0.0000000000000E+00
 0.0000000000000E+00
 0.0000000000000E+00
 0.0000000000000E+00
 0.0000000000000E+00
 0.0000000000000E+00
 0.0000000000000E+00
</DataArray>
<DataArray type="Int32" Name="Region" format="ascii">
           1
           1
           1
           1
           1
           1
           1
           1
           1
           1
           1
           1
           1
           1
           1
           1
           1
           1
           1
           1
           1
           1
           1
           1
           1
           1
           1
           1
           1
           1
           1
           1
           1
           1
           1
           1
           1
           1
           1
           1
           1
           1
           1
           1
           1
           1
           1
           1
           1
           1
           1
           1
           1
           1
           1
           1
           1
           1
           1
           1
           1
           1
           1
           1
           1
           1
           1
           1
           1
           1
           1
           1
           1
           1
           1
           1
           1
           1
           1
           1
           1
           1
           1
           1
           1
           1
           1
           1
           1
           1
           1
           1
           1
           1
           1
           1
           1
           1
           1
           1
           1
           1
           1
           1
           1
           1
           1
           1
           1
           1
           1
           1
           1
           1
           1
           1
           1
           1
           1
           1
           1
           1
           1
           1
           1
           1
           1
           1
           1
           1
           1
           1
           1
           1
           1
           1
           1
           1
           1
           1
           1
           1
           1
           1
           1
           1
           1
           1
           1
           1
           1
           1
           1
           1
           1
           1
           1
           1
           1
           1
           1
           1
           1
           1
           1
           1
           1
           1
           1
           1
           1
           1
           1
           1
           1
           1
           1
           1
           1
           1
           1
           1
           1
           1
           1
           1
           1
           1
           1
           1
           1
           1
           1
           1
           1
           1
           1
           1
           1
           1
           1
           1
           1
           1
           1
           1
           1
           1
           1
           1
           1
           1
           1
           1
           1
           1
           1
           1
           1
           1
           1
           1
           1
           1
           1
           1
           1
           1
           1
           1
           1
           1
           1
           1
           1
           1
           1
           1
           1
           1
           1
           1
           1
           1
           1
           1
           1
           1
           1
           1
           1
           1
           1
           1
           1
           1
           1
           1
           1
           1
           1
           1
           1
           1
           1
           1
           1
           1
           1
           1
           1
           1
           1
           1
           1
           1
           1
           1
           1
           1
           1
           1
           1
           1
           1
           1
           1
           1
           1
           1
           1
           1
           1
           1
           1
           1
           1
           1
           1
           1
           1
           1
           1
           1
           1
           1
           1
           1
           1
           1
           1
           1
           2
           2
           2
           2
           2
           2
           2
           2
           2
           2
           2
           2
           2
           2
           2
           2
           2
           2
           2
           2
           2
           2
           2
           2
           2
           2
           2
           2
           2
           2
           2
           2
           2
           2
           2
           2
           2
           2
           2
           2
           2
           2
           2
           2
           2
           2
           2
           2
           2
           2
           2
           2
           2
           2
           2
           2
           2
           2
           2
           2
           2
           2
           2
           2
           2
           2
           2
           2
           2
           2
           2
           2
           2
           2
           2
           2
           2
           2
           2
           2
           2
           2
           2
           2
           2
           2
           2
           2
           2
           2
           2
           2
           2
           2
           2
           2
           2
           2
           2
           2
           2
           2
           2
           2
           2
           2
           2
           2
           2
           2
           2
           2
           2
           2
           2
           2
           2
           2
           2
           2
           2
           2
           2
           2
           2
           2
           2
           2
           2
           2
           2
           2
           2
           2
           2
           2
           2
           2
           2
           2
           2
           2
           2
           2
           2
           2
           2
           2
           2
           2
           2
           2
           2
           2
           2
           2
           2
           2
           2
           2
           2
           2
           2
           2
           2
           2
           2
           2
           2
           2
           2
           2
           2
           2
           2
           2
           2
           2
           2
           2
           2
           2
           2
           2
           2
           2
           2
           2
           2
           2
           2
           2
           2
           2
           2
           2
           2
           2
           2
           2
           2
           2
           2
           2
           2
           2
           2
           2
           2
           2
           2
           2
           2
           2
           2
           2
</DataArray>
</CellData>
</Piece>
</UnstructuredGrid>
</VTKFile>
