<VTKFile type="UnstructuredGrid" version="1,0" byte_order="LittleEndian">
<UnstructuredGrid>
<Piece NumberOfPoints="5802" NumberOfCells="5680">
<Points>
<DataArray type="Float64" NumberOfComponents="3" format="ascii">
-0.1100000000000E+01 -0.5395955351400E+01  0.0000000000000E+00
 0.0000000000000E+00 -0.5395955351400E+01  0.0000000000000E+00
 0.1100000000000E+01 -0.5395955351400E+01  0.0000000000000E+00
-0.1147096914462E+01 -0.2549637197335E+01  0.0000000000000E+00
-0.5735484517343E+00 -0.2434375812148E+01  0.0000000000000E+00
 0.5735484627289E+00 -0.2434375813621E+01  0.0000000000000E+00
 0.1147096914462E+01 -0.2549637197335E+01  0.0000000000000E+00
-0.1849553131613E+01  0.3526358745087E+00  0.0000000000000E+00
 0.1849553119580E+01  0.3526358820960E+00  0.0000000000000E+00
-0.7500000000000E+00 -0.7469172457236E+00  0.0000000000000E+00
 0.7500000000000E+00 -0.7469172457236E+00  0.0000000000000E+00
-0.1072500000000E+01 -0.5395955351400E+01  0.0000000000000E+00
-0.1045000000000E+01 -0.5395955351400E+01  0.0000000000000E+00
-0.1017500000000E+01 -0.5395955351400E+01  0.0000000000000E+00
-0.9900000000000E+00 -0.5395955351400E+01  0.0000000000000E+00
-0.9625000000000E+00 -0.5395955351400E+01  0.0000000000000E+00
-0.9350000000000E+00 -0.5395955351400E+01  0.0000000000000E+00
-0.9075000000000E+00 -0.5395955351400E+01  0.0000000000000E+00
-0.8800000000000E+00 -0.5395955351400E+01  0.0000000000000E+00
-0.8525000000000E+00 -0.5395955351400E+01  0.0000000000000E+00
-0.8250000000000E+00 -0.5395955351400E+01  0.0000000000000E+00
-0.7975000000000E+00 -0.5395955351400E+01  0.0000000000000E+00
-0.7700000000000E+00 -0.5395955351400E+01  0.0000000000000E+00
-0.7425000000000E+00 -0.5395955351400E+01  0.0000000000000E+00
-0.7150000000000E+00 -0.5395955351400E+01  0.0000000000000E+00
-0.6875000000000E+00 -0.5395955351400E+01  0.0000000000000E+00
-0.6600000000000E+00 -0.5395955351400E+01  0.0000000000000E+00
-0.6325000000000E+00 -0.5395955351400E+01  0.0000000000000E+00
-0.6050000000000E+00 -0.5395955351400E+01  0.0000000000000E+00
-0.5775000000000E+00 -0.5395955351400E+01  0.0000000000000E+00
-0.5500000000000E+00 -0.5395955351400E+01  0.0000000000000E+00
-0.5225000000000E+00 -0.5395955351400E+01  0.0000000000000E+00
-0.4950000000000E+00 -0.5395955351400E+01  0.0000000000000E+00
-0.4675000000000E+00 -0.5395955351400E+01  0.0000000000000E+00
-0.4400000000000E+00 -0.5395955351400E+01  0.0000000000000E+00
-0.4125000000000E+00 -0.5395955351400E+01  0.0000000000000E+00
-0.3850000000000E+00 -0.5395955351400E+01  0.0000000000000E+00
-0.3575000000000E+00 -0.5395955351400E+01  0.0000000000000E+00
-0.3300000000000E+00 -0.5395955351400E+01  0.0000000000000E+00
-0.3025000000000E+00 -0.5395955351400E+01  0.0000000000000E+00
-0.2750000000000E+00 -0.5395955351400E+01  0.0000000000000E+00
-0.2475000000000E+00 -0.5395955351400E+01  0.0000000000000E+00
-0.2200000000000E+00 -0.5395955351400E+01  0.0000000000000E+00
-0.1925000000000E+00 -0.5395955351400E+01  0.0000000000000E+00
-0.1650000000000E+00 -0.5395955351400E+01  0.0000000000000E+00
-0.1375000000000E+00 -0.5395955351400E+01  0.0000000000000E+00
-0.1100000000000E+00 -0.5395955351400E+01  0.0000000000000E+00
-0.8250000000000E-01 -0.5395955351400E+01  0.0000000000000E+00
-0.5500000000000E-01 -0.5395955351400E+01  0.0000000000000E+00
-0.2750000000000E-01 -0.5395955351400E+01  0.0000000000000E+00
 0.2750000000000E-01 -0.5395955351400E+01  0.0000000000000E+00
 0.5500000000000E-01 -0.5395955351400E+01  0.0000000000000E+00
 0.8250000000000E-01 -0.5395955351400E+01  0.0000000000000E+00
 0.1100000000000E+00 -0.5395955351400E+01  0.0000000000000E+00
 0.1375000000000E+00 -0.5395955351400E+01  0.0000000000000E+00
 0.1650000000000E+00 -0.5395955351400E+01  0.0000000000000E+00
 0.1925000000000E+00 -0.5395955351400E+01  0.0000000000000E+00
 0.2200000000000E+00 -0.5395955351400E+01  0.0000000000000E+00
 0.2475000000000E+00 -0.5395955351400E+01  0.0000000000000E+00
 0.2750000000000E+00 -0.5395955351400E+01  0.0000000000000E+00
 0.3025000000000E+00 -0.5395955351400E+01  0.0000000000000E+00
 0.3300000000000E+00 -0.5395955351400E+01  0.0000000000000E+00
 0.3575000000000E+00 -0.5395955351400E+01  0.0000000000000E+00
 0.3850000000000E+00 -0.5395955351400E+01  0.0000000000000E+00
 0.4125000000000E+00 -0.5395955351400E+01  0.0000000000000E+00
 0.4400000000000E+00 -0.5395955351400E+01  0.0000000000000E+00
 0.4675000000000E+00 -0.5395955351400E+01  0.0000000000000E+00
 0.4950000000000E+00 -0.5395955351400E+01  0.0000000000000E+00
 0.5225000000000E+00 -0.5395955351400E+01  0.0000000000000E+00
 0.5500000000000E+00 -0.5395955351400E+01  0.0000000000000E+00
 0.5775000000000E+00 -0.5395955351400E+01  0.0000000000000E+00
 0.6050000000000E+00 -0.5395955351400E+01  0.0000000000000E+00
 0.6325000000000E+00 -0.5395955351400E+01  0.0000000000000E+00
 0.6600000000000E+00 -0.5395955351400E+01  0.0000000000000E+00
 0.6875000000000E+00 -0.5395955351400E+01  0.0000000000000E+00
 0.7150000000000E+00 -0.5395955351400E+01  0.0000000000000E+00
 0.7425000000000E+00 -0.5395955351400E+01  0.0000000000000E+00
 0.7700000000000E+00 -0.5395955351400E+01  0.0000000000000E+00
 0.7975000000000E+00 -0.5395955351400E+01  0.0000000000000E+00
 0.8250000000000E+00 -0.5395955351400E+01  0.0000000000000E+00
 0.8525000000000E+00 -0.5395955351400E+01  0.0000000000000E+00
 0.8800000000000E+00 -0.5395955351400E+01  0.0000000000000E+00
 0.9075000000000E+00 -0.5395955351400E+01  0.0000000000000E+00
 0.9350000000000E+00 -0.5395955351400E+01  0.0000000000000E+00
 0.9625000000000E+00 -0.5395955351400E+01  0.0000000000000E+00
 0.9900000000000E+00 -0.5395955351400E+01  0.0000000000000E+00
 0.1017500000000E+01 -0.5395955351400E+01  0.0000000000000E+00
 0.1045000000000E+01 -0.5395955351400E+01  0.0000000000000E+00
 0.1072500000000E+01 -0.5395955351400E+01  0.0000000000000E+00
-0.1118800094603E+01 -0.2542148605822E+01  0.0000000000000E+00
-0.1090457485425E+01 -0.2534835387692E+01  0.0000000000000E+00
-0.1062069939100E+01 -0.2527698663807E+01  0.0000000000000E+00
-0.1033638287274E+01 -0.2520739528902E+01  0.0000000000000E+00
-0.1005163517388E+01 -0.2513959093579E+01  0.0000000000000E+00
-0.9766465596125E+00 -0.2507358430428E+01  0.0000000000000E+00
-0.9480883223854E+00 -0.2500938583705E+01  0.0000000000000E+00
-0.9194898086732E+00 -0.2494700594942E+01  0.0000000000000E+00
-0.8908520313295E+00 -0.2488645482083E+01  0.0000000000000E+00
-0.8621760033544E+00 -0.2482774237100E+01  0.0000000000000E+00
-0.8334627553039E+00 -0.2477087829284E+01  0.0000000000000E+00
-0.8047133091664E+00 -0.2471587199656E+01  0.0000000000000E+00
-0.7759287757051E+00 -0.2466273278811E+01  0.0000000000000E+00
-0.7471102453220E+00 -0.2461146964797E+01  0.0000000000000E+00
-0.7182588268443E+00 -0.2456209130220E+01  0.0000000000000E+00
-0.6893756470636E+00 -0.2451460621464E+01  0.0000000000000E+00
-0.6604618502518E+00 -0.2446902257924E+01  0.0000000000000E+00
-0.6315185976533E+00 -0.2442534831257E+01  0.0000000000000E+00
-0.6025470669550E+00 -0.2438359104659E+01  0.0000000000000E+00
-0.5450278669081E+00 -0.2430649781759E+01  0.0000000000000E+00
-0.5164834701774E+00 -0.2427110885343E+01  0.0000000000000E+00
-0.4879164328896E+00 -0.2423759732709E+01  0.0000000000000E+00
-0.4593279369588E+00 -0.2420596903906E+01  0.0000000000000E+00
-0.4307191566174E+00 -0.2417622946975E+01  0.0000000000000E+00
-0.4020913288847E+00 -0.2414838384764E+01  0.0000000000000E+00
-0.3734456725253E+00 -0.2412243705709E+01  0.0000000000000E+00
-0.3447834166166E+00 -0.2409839366687E+01  0.0000000000000E+00
-0.3161057919591E+00 -0.2407625791989E+01  0.0000000000000E+00
-0.2874140476292E+00 -0.2405603374330E+01  0.0000000000000E+00
-0.2587094494941E+00 -0.2403772474101E+01  0.0000000000000E+00
-0.2299932608336E+00 -0.2402133417728E+01  0.0000000000000E+00
-0.2012667517491E+00 -0.2400686498163E+01  0.0000000000000E+00
-0.1725311980367E+00 -0.2399431974579E+01  0.0000000000000E+00
-0.1437878753826E+00 -0.2398370071952E+01  0.0000000000000E+00
-0.1150380789454E+00 -0.2397500981571E+01  0.0000000000000E+00
-0.8628309859780E-01 -0.2396824859859E+01  0.0000000000000E+00
-0.5752422729595E-01 -0.2396341828649E+01  0.0000000000000E+00
-0.2876276031036E-01 -0.2396051975057E+01  0.0000000000000E+00
 0.5546389486577E-08 -0.2395955351400E+01  0.0000000000000E+00
 0.2876277140288E-01 -0.2396051975132E+01  0.0000000000000E+00
 0.5752423838773E-01 -0.2396341828798E+01  0.0000000000000E+00
 0.8628310968833E-01 -0.2396824860083E+01  0.0000000000000E+00
 0.1150380900341E+00 -0.2397500981869E+01  0.0000000000000E+00
 0.1437878864691E+00 -0.2398370072324E+01  0.0000000000000E+00
 0.1725312091205E+00 -0.2399431975026E+01  0.0000000000000E+00
 0.2012667628296E+00 -0.2400686498684E+01  0.0000000000000E+00
 0.2299932719104E+00 -0.2402133418324E+01  0.0000000000000E+00
 0.2587094605666E+00 -0.2403772474771E+01  0.0000000000000E+00
 0.2874140586971E+00 -0.2405603375073E+01  0.0000000000000E+00
 0.3161058030217E+00 -0.2407625792806E+01  0.0000000000000E+00
 0.3447834276736E+00 -0.2409839367578E+01  0.0000000000000E+00
 0.3734456835761E+00 -0.2412243706673E+01  0.0000000000000E+00
 0.4020913399289E+00 -0.2414838385802E+01  0.0000000000000E+00
 0.4307191676545E+00 -0.2417622948085E+01  0.0000000000000E+00
 0.4593279479883E+00 -0.2420596905089E+01  0.0000000000000E+00
 0.4879164439111E+00 -0.2423759733965E+01  0.0000000000000E+00
 0.5164834811903E+00 -0.2427110886672E+01  0.0000000000000E+00
 0.5450278779121E+00 -0.2430649783160E+01  0.0000000000000E+00
 0.6025470773903E+00 -0.2438359106128E+01  0.0000000000000E+00
 0.6315186075299E+00 -0.2442534832714E+01  0.0000000000000E+00
 0.6604618595705E+00 -0.2446902259361E+01  0.0000000000000E+00
 0.6893756558250E+00 -0.2451460622875E+01  0.0000000000000E+00
 0.7182588350492E+00 -0.2456209131597E+01  0.0000000000000E+00
 0.7471102529713E+00 -0.2461146966132E+01  0.0000000000000E+00
 0.7759287827998E+00 -0.2466273280097E+01  0.0000000000000E+00
 0.8047133157075E+00 -0.2471587200886E+01  0.0000000000000E+00
 0.8334627612925E+00 -0.2477087830450E+01  0.0000000000000E+00
 0.8621760087916E+00 -0.2482774238195E+01  0.0000000000000E+00
 0.8908520362166E+00 -0.2488645483100E+01  0.0000000000000E+00
 0.9194898130114E+00 -0.2494700595873E+01  0.0000000000000E+00
 0.9480883261760E+00 -0.2500938584544E+01  0.0000000000000E+00
 0.9766465628570E+00 -0.2507358431168E+01  0.0000000000000E+00
 0.1005163520088E+01 -0.2513959094213E+01  0.0000000000000E+00
 0.1033638289431E+01 -0.2520739529423E+01  0.0000000000000E+00
 0.1062069940715E+01 -0.2527698664208E+01  0.0000000000000E+00
 0.1090457486500E+01 -0.2534835387966E+01  0.0000000000000E+00
 0.1118800095139E+01 -0.2542148605962E+01  0.0000000000000E+00
-0.1170397242424E+01 -0.2395040494004E+01  0.0000000000000E+00
-0.1198647869898E+01 -0.2241266161706E+01  0.0000000000000E+00
-0.1231242381539E+01 -0.2088353899802E+01  0.0000000000000E+00
-0.1268648723815E+01 -0.1936549534840E+01  0.0000000000000E+00
-0.1312281622290E+01 -0.1786424606125E+01  0.0000000000000E+00
-0.1365030818765E+01 -0.1639273481360E+01  0.0000000000000E+00
-0.1429503950610E+01 -0.1496893680543E+01  0.0000000000000E+00
-0.1508189012765E+01 -0.1361870542919E+01  0.0000000000000E+00
-0.1596311882773E+01 -0.1232721892393E+01  0.0000000000000E+00
-0.1680144970038E+01 -0.1100774774047E+01  0.0000000000000E+00
-0.1755269393988E+01 -0.9636820164390E+00  0.0000000000000E+00
-0.1821952164099E+01 -0.8222867895427E+00  0.0000000000000E+00
-0.1880021929304E+01 -0.6771448755251E+00  0.0000000000000E+00
-0.1928187353851E+01 -0.5284288672625E+00  0.0000000000000E+00
-0.1965692922404E+01 -0.3766767816867E+00  0.0000000000000E+00
-0.1990672926479E+01 -0.2223886077276E+00  0.0000000000000E+00
-0.1999843780615E+01 -0.6637777569960E-01  0.0000000000000E+00
-0.1996515583144E+01  0.8987643251194E-01  0.0000000000000E+00
-0.1954893378882E+01  0.2395020488213E+00  0.0000000000000E+00
-0.1761699074939E+01  0.3880473183471E+00  0.0000000000000E+00
-0.1668845971660E+01  0.4076601120269E+00  0.0000000000000E+00
-0.1574255694230E+01  0.4155791976656E+00  0.0000000000000E+00
-0.1479374895747E+01  0.4126893222261E+00  0.0000000000000E+00
-0.1385290205996E+01  0.3999539494595E+00  0.0000000000000E+00
-0.1292461349724E+01  0.3799608398268E+00  0.0000000000000E+00
-0.1200951857017E+01  0.3545779057386E+00  0.0000000000000E+00
-0.1110608534610E+01  0.3252966483736E+00  0.0000000000000E+00
-0.1021060724537E+01  0.2936551255457E+00  0.0000000000000E+00
-0.9317783393447E+00  0.2612690433592E+00  0.0000000000000E+00
-0.8419632298960E+00  0.2304024413499E+00  0.0000000000000E+00
-0.7510710236004E+00  0.2028788600987E+00  0.0000000000000E+00
-0.6591260081762E+00  0.1791070339869E+00  0.0000000000000E+00
-0.5663198949570E+00  0.1589527346874E+00  0.0000000000000E+00
-0.4728438209386E+00  0.1421733035201E+00  0.0000000000000E+00
-0.3788543841658E+00  0.1285572405255E+00  0.0000000000000E+00
-0.2844760878461E+00  0.1179612262228E+00  0.0000000000000E+00
-0.1898129862087E+00  0.1103187294206E+00  0.0000000000000E+00
-0.9495710660805E-01  0.1056443934182E+00  0.0000000000000E+00
-0.6960505408160E-08  0.1040446485997E+00  0.0000000000000E+00
 0.9495709269553E-01  0.1056443929545E+00  0.0000000000000E+00
 0.1898129723154E+00  0.1103187285161E+00  0.0000000000000E+00
 0.2844760739867E+00  0.1179612248854E+00  0.0000000000000E+00
 0.3788543703536E+00  0.1285572387505E+00  0.0000000000000E+00
 0.4728438072056E+00  0.1421733012935E+00  0.0000000000000E+00
 0.5663198813106E+00  0.1589527319805E+00  0.0000000000000E+00
 0.6591259946254E+00  0.1791070307606E+00  0.0000000000000E+00
 0.7510710102062E+00  0.2028788563284E+00  0.0000000000000E+00
 0.8419632166682E+00  0.2304024370407E+00  0.0000000000000E+00
 0.9317783262470E+00  0.2612690386552E+00  0.0000000000000E+00
 0.1021060711441E+01  0.2936551208113E+00  0.0000000000000E+00
 0.1110608521435E+01  0.3252966438709E+00  0.0000000000000E+00
 0.1200951843689E+01  0.3545779017170E+00  0.0000000000000E+00
 0.1292461336198E+01  0.3799608365176E+00  0.0000000000000E+00
 0.1385290192268E+01  0.3999539470946E+00  0.0000000000000E+00
 0.1479374881852E+01  0.4126893211027E+00  0.0000000000000E+00
 0.1574255680290E+01  0.4155791981036E+00  0.0000000000000E+00
 0.1668845957876E+01  0.4076601142919E+00  0.0000000000000E+00
 0.1761699061641E+01  0.3880473228827E+00  0.0000000000000E+00
 0.1954893372584E+01  0.2395020607516E+00  0.0000000000000E+00
 0.1996515582083E+01  0.8987644530927E-01  0.0000000000000E+00
 0.1999843780711E+01 -0.6637776356142E-01  0.0000000000000E+00
 0.1990672927530E+01 -0.2223885963474E+00  0.0000000000000E+00
 0.1965692924252E+01 -0.3766767711560E+00  0.0000000000000E+00
 0.1928187356267E+01 -0.5284288576002E+00  0.0000000000000E+00
 0.1880021932182E+01 -0.6771448667553E+00  0.0000000000000E+00
 0.1821952167306E+01 -0.8222867816656E+00  0.0000000000000E+00
 0.1755269397412E+01 -0.9636820094423E+00  0.0000000000000E+00
 0.1680144973598E+01 -0.1100774767938E+01  0.0000000000000E+00
 0.1596311886340E+01 -0.1232721887126E+01  0.0000000000000E+00
 0.1508189015860E+01 -0.1361870538185E+01  0.0000000000000E+00
 0.1429503952869E+01 -0.1496893676141E+01  0.0000000000000E+00
 0.1365030820349E+01 -0.1639273477422E+01  0.0000000000000E+00
 0.1312281623369E+01 -0.1786424602758E+01  0.0000000000000E+00
 0.1268648724541E+01 -0.1936549532107E+01  0.0000000000000E+00
 0.1231242382009E+01 -0.2088353897734E+01  0.0000000000000E+00
 0.1198647870165E+01 -0.2241266160318E+01  0.0000000000000E+00
 0.1170397242527E+01 -0.2395040493305E+01  0.0000000000000E+00
-0.1100000000000E+01 -0.5326487660284E+01  0.0000000000000E+00
-0.1100000000000E+01 -0.5257018884583E+01  0.0000000000000E+00
-0.1100000000000E+01 -0.5187550566016E+01  0.0000000000000E+00
-0.1100000000000E+01 -0.5118082283895E+01  0.0000000000000E+00
-0.1100000000000E+01 -0.5048613933957E+01  0.0000000000000E+00
-0.1100000000000E+01 -0.4979145576260E+01  0.0000000000000E+00
-0.1100000000000E+01 -0.4909677295731E+01  0.0000000000000E+00
-0.1100000000000E+01 -0.4840208960868E+01  0.0000000000000E+00
-0.1100000000000E+01 -0.4770740641923E+01  0.0000000000000E+00
-0.1100000000000E+01 -0.4701272327089E+01  0.0000000000000E+00
-0.1100000000000E+01 -0.4631804004130E+01  0.0000000000000E+00
-0.1100000000000E+01 -0.4562335675758E+01  0.0000000000000E+00
-0.1100000000000E+01 -0.4492867365964E+01  0.0000000000000E+00
-0.1100000000000E+01 -0.4423399041915E+01  0.0000000000000E+00
-0.1100000000000E+01 -0.4353930706199E+01  0.0000000000000E+00
-0.1100000000000E+01 -0.4284462463365E+01  0.0000000000000E+00
-0.1100000000000E+01 -0.4214994115881E+01  0.0000000000000E+00
-0.1100000000000E+01 -0.4145525771565E+01  0.0000000000000E+00
-0.1100000000000E+01 -0.4076057165506E+01  0.0000000000000E+00
-0.1100000000000E+01 -0.4006588200969E+01  0.0000000000000E+00
-0.1100000000000E+01 -0.3937120876712E+01  0.0000000000000E+00
-0.1100000000000E+01 -0.3867652497521E+01  0.0000000000000E+00
-0.1100000000000E+01 -0.3798184417380E+01  0.0000000000000E+00
-0.1100000000000E+01 -0.3728716052563E+01  0.0000000000000E+00
-0.1100000000000E+01 -0.3659247802108E+01  0.0000000000000E+00
-0.1100000000000E+01 -0.3589779540675E+01  0.0000000000000E+00
-0.1100000000000E+01 -0.3520311301354E+01  0.0000000000000E+00
-0.1100010349930E+01 -0.3450843014254E+01  0.0000000000000E+00
-0.1100132214756E+01 -0.3381374895253E+01  0.0000000000000E+00
-0.1100516417775E+01 -0.3311907769621E+01  0.0000000000000E+00
-0.1101304016021E+01 -0.3242444099745E+01  0.0000000000000E+00
-0.1102612166482E+01 -0.3172988339580E+01  0.0000000000000E+00
-0.1104529893774E+01 -0.3103546767149E+01  0.0000000000000E+00
-0.1107121061592E+01 -0.3034127316666E+01  0.0000000000000E+00
-0.1110430770950E+01 -0.2964738083625E+01  0.0000000000000E+00
-0.1114492182607E+01 -0.2895388916681E+01  0.0000000000000E+00
-0.1119332673470E+01 -0.2826090114014E+01  0.0000000000000E+00
-0.1124978989390E+01 -0.2756851797957E+01  0.0000000000000E+00
-0.1131461313487E+01 -0.2687687069236E+01  0.0000000000000E+00
-0.1138817445645E+01 -0.2618609801361E+01  0.0000000000000E+00
 0.1138817445672E+01 -0.2618609801365E+01  0.0000000000000E+00
 0.1131461313531E+01 -0.2687687069241E+01  0.0000000000000E+00
 0.1124978989443E+01 -0.2756851797962E+01  0.0000000000000E+00
 0.1119332673524E+01 -0.2826090114020E+01  0.0000000000000E+00
 0.1114492182658E+01 -0.2895388916687E+01  0.0000000000000E+00
 0.1110430770994E+01 -0.2964738083629E+01  0.0000000000000E+00
 0.1107121061629E+01 -0.3034127316671E+01  0.0000000000000E+00
 0.1104529893802E+01 -0.3103546767153E+01  0.0000000000000E+00
 0.1102612166501E+01 -0.3172988339584E+01  0.0000000000000E+00
 0.1101304016033E+01 -0.3242444099749E+01  0.0000000000000E+00
 0.1100516417781E+01 -0.3311907769624E+01  0.0000000000000E+00
 0.1100132214759E+01 -0.3381374895256E+01  0.0000000000000E+00
 0.1100010349931E+01 -0.3450843014257E+01  0.0000000000000E+00
 0.1100000000000E+01 -0.3520311301357E+01  0.0000000000000E+00
 0.1100000000000E+01 -0.3589779540678E+01  0.0000000000000E+00
 0.1100000000000E+01 -0.3659247802111E+01  0.0000000000000E+00
 0.1100000000000E+01 -0.3728716052565E+01  0.0000000000000E+00
 0.1100000000000E+01 -0.3798184417382E+01  0.0000000000000E+00
 0.1100000000000E+01 -0.3867652497523E+01  0.0000000000000E+00
 0.1100000000000E+01 -0.3937120876715E+01  0.0000000000000E+00
 0.1100000000000E+01 -0.4006588200971E+01  0.0000000000000E+00
 0.1100000000000E+01 -0.4076057165507E+01  0.0000000000000E+00
 0.1100000000000E+01 -0.4145525771567E+01  0.0000000000000E+00
 0.1100000000000E+01 -0.4214994115883E+01  0.0000000000000E+00
 0.1100000000000E+01 -0.4284462463366E+01  0.0000000000000E+00
 0.1100000000000E+01 -0.4353930706200E+01  0.0000000000000E+00
 0.1100000000000E+01 -0.4423399041916E+01  0.0000000000000E+00
 0.1100000000000E+01 -0.4492867365965E+01  0.0000000000000E+00
 0.1100000000000E+01 -0.4562335675759E+01  0.0000000000000E+00
 0.1100000000000E+01 -0.4631804004131E+01  0.0000000000000E+00
 0.1100000000000E+01 -0.4701272327090E+01  0.0000000000000E+00
 0.1100000000000E+01 -0.4770740641924E+01  0.0000000000000E+00
 0.1100000000000E+01 -0.4840208960869E+01  0.0000000000000E+00
 0.1100000000000E+01 -0.4909677295731E+01  0.0000000000000E+00
 0.1100000000000E+01 -0.4979145576261E+01  0.0000000000000E+00
 0.1100000000000E+01 -0.5048613933958E+01  0.0000000000000E+00
 0.1100000000000E+01 -0.5118082283896E+01  0.0000000000000E+00
 0.1100000000000E+01 -0.5187550566016E+01  0.0000000000000E+00
 0.1100000000000E+01 -0.5257018884583E+01  0.0000000000000E+00
 0.1100000000000E+01 -0.5326487660284E+01  0.0000000000000E+00
-0.7132895388975E+00 -0.7373214432245E+00  0.0000000000000E+00
-0.6764636662017E+00 -0.7281792178104E+00  0.0000000000000E+00
-0.6395267434147E+00 -0.7194961212763E+00  0.0000000000000E+00
-0.6024837198703E+00 -0.7112776152937E+00  0.0000000000000E+00
-0.5653396500946E+00 -0.7035289332283E+00  0.0000000000000E+00
-0.5280996171512E+00 -0.6962550568471E+00  0.0000000000000E+00
-0.4907691319434E+00 -0.6894607826481E+00  0.0000000000000E+00
-0.4533537451325E+00 -0.6831506287115E+00  0.0000000000000E+00
-0.4158592885785E+00 -0.6773288661812E+00  0.0000000000000E+00
-0.3782916751723E+00 -0.6719994717132E+00  0.0000000000000E+00
-0.3406570303206E+00 -0.6671661364430E+00  0.0000000000000E+00
-0.3029616164712E+00 -0.6628322420235E+00  0.0000000000000E+00
-0.2652118192254E+00 -0.6590008486683E+00  0.0000000000000E+00
-0.2274141490083E+00 -0.6556746856822E+00  0.0000000000000E+00
-0.1895752452634E+00 -0.6528561421403E+00  0.0000000000000E+00
-0.1517018295911E+00 -0.6505472545819E+00  0.0000000000000E+00
-0.1138007051193E+00 -0.6487497005230E+00  0.0000000000000E+00
-0.7587874076697E-01 -0.6474647917591E+00  0.0000000000000E+00
-0.3794285511805E-01 -0.6466934690970E+00  0.0000000000000E+00
-0.3330669073875E-15 -0.6464362985620E+00  0.0000000000000E+00
 0.3794285511805E-01 -0.6466934690970E+00  0.0000000000000E+00
 0.7587874076697E-01 -0.6474647917591E+00  0.0000000000000E+00
 0.1138007051193E+00 -0.6487497005230E+00  0.0000000000000E+00
 0.1517018295911E+00 -0.6505472545819E+00  0.0000000000000E+00
 0.1895752452634E+00 -0.6528561421403E+00  0.0000000000000E+00
 0.2274141490083E+00 -0.6556746856822E+00  0.0000000000000E+00
 0.2652118192254E+00 -0.6590008486683E+00  0.0000000000000E+00
 0.3029616164712E+00 -0.6628322420235E+00  0.0000000000000E+00
 0.3406570303206E+00 -0.6671661364430E+00  0.0000000000000E+00
 0.3782916751723E+00 -0.6719994717132E+00  0.0000000000000E+00
 0.4158592885785E+00 -0.6773288661812E+00  0.0000000000000E+00
 0.4533537451325E+00 -0.6831506287115E+00  0.0000000000000E+00
 0.4907691319434E+00 -0.6894607826481E+00  0.0000000000000E+00
 0.5280996171512E+00 -0.6962550568471E+00  0.0000000000000E+00
 0.5653396500946E+00 -0.7035289332283E+00  0.0000000000000E+00
 0.6024837198703E+00 -0.7112776152937E+00  0.0000000000000E+00
 0.6395267434147E+00 -0.7194961212763E+00  0.0000000000000E+00
 0.6764636662017E+00 -0.7281792178104E+00  0.0000000000000E+00
 0.7132895388975E+00 -0.7373214432245E+00  0.0000000000000E+00
-0.7493748395224E+00 -0.8319394901184E+00  0.0000000000000E+00
-0.7473788500550E+00 -0.9169402675278E+00  0.0000000000000E+00
-0.7438108602705E+00 -0.1001889212048E+01  0.0000000000000E+00
-0.7384459236249E+00 -0.1086743232815E+01  0.0000000000000E+00
-0.7310491623312E+00 -0.1171443809389E+01  0.0000000000000E+00
-0.7214100584976E+00 -0.1255918220388E+01  0.0000000000000E+00
-0.7094105550523E+00 -0.1340089575018E+01  0.0000000000000E+00
-0.6951338833198E+00 -0.1423905296697E+01  0.0000000000000E+00
-0.6789898694898E+00 -0.1507382585125E+01  0.0000000000000E+00
-0.6617742279509E+00 -0.1590646529104E+01  0.0000000000000E+00
-0.6445585863410E+00 -0.1673910473069E+01  0.0000000000000E+00
-0.6284145723057E+00 -0.1757387761457E+01  0.0000000000000E+00
-0.6141379002540E+00 -0.1841203483082E+01  0.0000000000000E+00
-0.6021383964021E+00 -0.1925374837654E+01  0.0000000000000E+00
-0.5924992921003E+00 -0.2009849248600E+01  0.0000000000000E+00
-0.5851025302978E+00 -0.2094549825130E+01  0.0000000000000E+00
-0.5797375931188E+00 -0.2179403845863E+01  0.0000000000000E+00
-0.5761696027871E+00 -0.2264352790361E+01  0.0000000000000E+00
-0.5741736127664E+00 -0.2349353567757E+01  0.0000000000000E+00
 0.7493748395226E+00 -0.8319394901347E+00  0.0000000000000E+00
 0.7473788500581E+00 -0.9169402675605E+00  0.0000000000000E+00
 0.7438108602836E+00 -0.1001889212098E+01  0.0000000000000E+00
 0.7384459236621E+00 -0.1086743232882E+01  0.0000000000000E+00
 0.7310491624163E+00 -0.1171443809477E+01  0.0000000000000E+00
 0.7214100586686E+00 -0.1255918220503E+01  0.0000000000000E+00
 0.7094105553663E+00 -0.1340089575170E+01  0.0000000000000E+00
 0.6951338838577E+00 -0.1423905296904E+01  0.0000000000000E+00
 0.6789898703586E+00 -0.1507382585412E+01  0.0000000000000E+00
 0.6617742292803E+00 -0.1590646529503E+01  0.0000000000000E+00
 0.6445585882731E+00 -0.1673910473610E+01  0.0000000000000E+00
 0.6284145749793E+00 -0.1757387762157E+01  0.0000000000000E+00
 0.6141379037900E+00 -0.1841203483945E+01  0.0000000000000E+00
 0.6021384008943E+00 -0.1925374838670E+01  0.0000000000000E+00
 0.5924992976150E+00 -0.2009849249749E+01  0.0000000000000E+00
 0.5851025368780E+00 -0.2094549826388E+01  0.0000000000000E+00
 0.5797376007901E+00 -0.2179403847207E+01  0.0000000000000E+00
 0.5761696115628E+00 -0.2264352791767E+01  0.0000000000000E+00
 0.5741736226516E+00 -0.2349353569205E+01  0.0000000000000E+00
-0.8049776565806E+00 -0.6919395897120E+00  0.0000000000000E+00
-0.8599553131613E+00 -0.6369619337004E+00  0.0000000000000E+00
-0.9149329697419E+00 -0.5819842776888E+00  0.0000000000000E+00
-0.9699106263225E+00 -0.5270066216772E+00  0.0000000000000E+00
-0.1024888282903E+01 -0.4720289656656E+00  0.0000000000000E+00
-0.1079865939484E+01 -0.4170513096539E+00  0.0000000000000E+00
-0.1134843596064E+01 -0.3620736536423E+00  0.0000000000000E+00
-0.1189821252645E+01 -0.3070959976307E+00  0.0000000000000E+00
-0.1244798909226E+01 -0.2521183416191E+00  0.0000000000000E+00
-0.1299776565806E+01 -0.1971406856075E+00  0.0000000000000E+00
-0.1354754222387E+01 -0.1421630295959E+00  0.0000000000000E+00
-0.1409731878968E+01 -0.8718537358425E-01  0.0000000000000E+00
-0.1464709535548E+01 -0.3220771757264E-01  0.0000000000000E+00
-0.1519687192129E+01  0.2276993843898E-01  0.0000000000000E+00
-0.1574664848709E+01  0.7774759445059E-01  0.0000000000000E+00
-0.1629642505290E+01  0.1327252504622E+00  0.0000000000000E+00
-0.1684620161871E+01  0.1877029064738E+00  0.0000000000000E+00
-0.1739597818451E+01  0.2426805624854E+00  0.0000000000000E+00
-0.1794575475032E+01  0.2976582184971E+00  0.0000000000000E+00
 0.8049776559790E+00 -0.6919395893326E+00  0.0000000000000E+00
 0.8599553119580E+00 -0.6369619329417E+00  0.0000000000000E+00
 0.9149329679371E+00 -0.5819842765507E+00  0.0000000000000E+00
 0.9699106239161E+00 -0.5270066201597E+00  0.0000000000000E+00
 0.1024888279895E+01 -0.4720289637687E+00  0.0000000000000E+00
 0.1079865935874E+01 -0.4170513073777E+00  0.0000000000000E+00
 0.1134843591853E+01 -0.3620736509868E+00  0.0000000000000E+00
 0.1189821247832E+01 -0.3070959945958E+00  0.0000000000000E+00
 0.1244798903811E+01 -0.2521183382048E+00  0.0000000000000E+00
 0.1299776559790E+01 -0.1971406818138E+00  0.0000000000000E+00
 0.1354754215769E+01 -0.1421630254228E+00  0.0000000000000E+00
 0.1409731871748E+01 -0.8718536903186E-01  0.0000000000000E+00
 0.1464709527727E+01 -0.3220771264088E-01  0.0000000000000E+00
 0.1519687183706E+01  0.2276994375010E-01  0.0000000000000E+00
 0.1574664839685E+01  0.7774760014108E-01  0.0000000000000E+00
 0.1629642495664E+01  0.1327252565321E+00  0.0000000000000E+00
 0.1684620151643E+01  0.1877029129230E+00  0.0000000000000E+00
 0.1739597807622E+01  0.2426805693140E+00  0.0000000000000E+00
 0.1794575463601E+01  0.2976582257050E+00  0.0000000000000E+00
-0.1072509412012E+01 -0.5326305013047E+01  0.0000000000000E+00
-0.1072518824171E+01 -0.5256653587256E+01  0.0000000000000E+00
-0.1072528236268E+01 -0.5187002619802E+01  0.0000000000000E+00
-0.1072537648360E+01 -0.5117351688891E+01  0.0000000000000E+00
-0.1072547060461E+01 -0.5047700689983E+01  0.0000000000000E+00
-0.1072556472564E+01 -0.4978049683296E+01  0.0000000000000E+00
-0.1072565884656E+01 -0.4908398753979E+01  0.0000000000000E+00
-0.1072575296755E+01 -0.4838747770187E+01  0.0000000000000E+00
-0.1072584708852E+01 -0.4769096802354E+01  0.0000000000000E+00
-0.1072594120948E+01 -0.4699445838642E+01  0.0000000000000E+00
-0.1072603533046E+01 -0.4629794866785E+01  0.0000000000000E+00
-0.1072612945144E+01 -0.4560143889500E+01  0.0000000000000E+00
-0.1072622357240E+01 -0.4490492930842E+01  0.0000000000000E+00
-0.1072631769338E+01 -0.4420841957891E+01  0.0000000000000E+00
-0.1072641181437E+01 -0.4351190973243E+01  0.0000000000000E+00
-0.1072650593524E+01 -0.4281540081721E+01  0.0000000000000E+00
-0.1072660005625E+01 -0.4211889085274E+01  0.0000000000000E+00
-0.1072669417726E+01 -0.4142238092004E+01  0.0000000000000E+00
-0.1072678829862E+01 -0.4072586836301E+01  0.0000000000000E+00
-0.1072688242046E+01 -0.4002935221179E+01  0.0000000000000E+00
-0.1072697654008E+01 -0.3933285250649E+01  0.0000000000000E+00
-0.1072707066114E+01 -0.3863634222411E+01  0.0000000000000E+00
-0.1072716478178E+01 -0.3793983494010E+01  0.0000000000000E+00
-0.1072725890282E+01 -0.3724332480185E+01  0.0000000000000E+00
-0.1072735302370E+01 -0.3654681581022E+01  0.0000000000000E+00
-0.1072744714459E+01 -0.3585030670852E+01  0.0000000000000E+00
-0.1072754126545E+01 -0.3515379782853E+01  0.0000000000000E+00
-0.1072773628657E+01 -0.3445728846946E+01  0.0000000000000E+00
-0.1072901845253E+01 -0.3376078079302E+01  0.0000000000000E+00
-0.1073285812102E+01 -0.3306428305125E+01  0.0000000000000E+00
-0.1074063043961E+01 -0.3236781986846E+01  0.0000000000000E+00
-0.1075347755727E+01 -0.3167143578426E+01  0.0000000000000E+00
-0.1077226736400E+01 -0.3097519357820E+01  0.0000000000000E+00
-0.1079762245878E+01 -0.3027917259832E+01  0.0000000000000E+00
-0.1082998252657E+01 -0.2958345378423E+01  0.0000000000000E+00
-0.1086967084692E+01 -0.2888813563449E+01  0.0000000000000E+00
-0.1091695431361E+01 -0.2819332113653E+01  0.0000000000000E+00
-0.1097209366978E+01 -0.2749911149124E+01  0.0000000000000E+00
-0.1103538316580E+01 -0.2680563772785E+01  0.0000000000000E+00
-0.1110719130854E+01 -0.2611303857267E+01  0.0000000000000E+00
-0.1045017707199E+01 -0.5326126643178E+01  0.0000000000000E+00
-0.1045035414675E+01 -0.5256296844733E+01  0.0000000000000E+00
-0.1045053122034E+01 -0.5186467505799E+01  0.0000000000000E+00
-0.1045070829383E+01 -0.5116638203501E+01  0.0000000000000E+00
-0.1045088536750E+01 -0.5046808833033E+01  0.0000000000000E+00
-0.1045106244119E+01 -0.4976979454765E+01  0.0000000000000E+00
-0.1045123951469E+01 -0.4907150154066E+01  0.0000000000000E+00
-0.1045141658832E+01 -0.4837320798752E+01  0.0000000000000E+00
-0.1045159366191E+01 -0.4767491459438E+01  0.0000000000000E+00
-0.1045177073549E+01 -0.4697662124255E+01  0.0000000000000E+00
-0.1045194780909E+01 -0.4627832780907E+01  0.0000000000000E+00
-0.1045212488270E+01 -0.4558003432117E+01  0.0000000000000E+00
-0.1045230195627E+01 -0.4488174102001E+01  0.0000000000000E+00
-0.1045247902988E+01 -0.4418344757556E+01  0.0000000000000E+00
-0.1045265610351E+01 -0.4348515401384E+01  0.0000000000000E+00
-0.1045283317691E+01 -0.4278686138576E+01  0.0000000000000E+00
-0.1045301025057E+01 -0.4208856770575E+01  0.0000000000000E+00
-0.1045318732422E+01 -0.4139027405758E+01  0.0000000000000E+00
-0.1045336439855E+01 -0.4069197777837E+01  0.0000000000000E+00
-0.1045354147378E+01 -0.3999367789576E+01  0.0000000000000E+00
-0.1045371854484E+01 -0.3929539450120E+01  0.0000000000000E+00
-0.1045389561858E+01 -0.3859710050246E+01  0.0000000000000E+00
-0.1045407269157E+01 -0.3789880950977E+01  0.0000000000000E+00
-0.1045424976527E+01 -0.3720051565553E+01  0.0000000000000E+00
-0.1045442683869E+01 -0.3650222295085E+01  0.0000000000000E+00
-0.1045460391213E+01 -0.3580393013581E+01  0.0000000000000E+00
-0.1045478098552E+01 -0.3510563754305E+01  0.0000000000000E+00
-0.1045505636011E+01 -0.3440734446997E+01  0.0000000000000E+00
-0.1045639087545E+01 -0.3370905308111E+01  0.0000000000000E+00
-0.1046021701399E+01 -0.3301077162789E+01  0.0000000000000E+00
-0.1046787450053E+01 -0.3231252473502E+01  0.0000000000000E+00
-0.1048047606317E+01 -0.3161435694219E+01  0.0000000000000E+00
-0.1049886723575E+01 -0.3091633102828E+01  0.0000000000000E+00
-0.1052365457930E+01 -0.3021852634710E+01  0.0000000000000E+00
-0.1055526645359E+01 -0.2952102382328E+01  0.0000000000000E+00
-0.1059401781014E+01 -0.2882392196710E+01  0.0000000000000E+00
-0.1064016866751E+01 -0.2812732377151E+01  0.0000000000000E+00
-0.1069397305333E+01 -0.2743133041548E+01  0.0000000000000E+00
-0.1075571763730E+01 -0.2673607294968E+01  0.0000000000000E+00
-0.1082576143423E+01 -0.2604169009183E+01  0.0000000000000E+00
-0.1017524906357E+01 -0.5325952578015E+01  0.0000000000000E+00
-0.1017549813103E+01 -0.5255948711690E+01  0.0000000000000E+00
-0.1017574719685E+01 -0.5185945306021E+01  0.0000000000000E+00
-0.1017599626254E+01 -0.5115941937079E+01  0.0000000000000E+00
-0.1017624532847E+01 -0.5045938499797E+01  0.0000000000000E+00
-0.1017649439444E+01 -0.4975935054696E+01  0.0000000000000E+00
-0.1017674346012E+01 -0.4905931687358E+01  0.0000000000000E+00
-0.1017699252600E+01 -0.4835928265268E+01  0.0000000000000E+00
-0.1017724159182E+01 -0.4765924859218E+01  0.0000000000000E+00
-0.1017749065763E+01 -0.4695921457309E+01  0.0000000000000E+00
-0.1017773972347E+01 -0.4625918047215E+01  0.0000000000000E+00
-0.1017798878932E+01 -0.4555914631665E+01  0.0000000000000E+00
-0.1017823785511E+01 -0.4485911234836E+01  0.0000000000000E+00
-0.1017848692095E+01 -0.4415907823642E+01  0.0000000000000E+00
-0.1017873598683E+01 -0.4345904400692E+01  0.0000000000000E+00
-0.1017898505238E+01 -0.4275901071339E+01  0.0000000000000E+00
-0.1017923411831E+01 -0.4205897636530E+01  0.0000000000000E+00
-0.1017948318422E+01 -0.4135894204914E+01  0.0000000000000E+00
-0.1017973225107E+01 -0.4065890509538E+01  0.0000000000000E+00
-0.1017998131921E+01 -0.3995886452923E+01  0.0000000000000E+00
-0.1018023038146E+01 -0.3925884049223E+01  0.0000000000000E+00
-0.1018047944750E+01 -0.3855880582462E+01  0.0000000000000E+00
-0.1018072851247E+01 -0.3785877417056E+01  0.0000000000000E+00
-0.1018097757845E+01 -0.3715873964781E+01  0.0000000000000E+00
-0.1018122664403E+01 -0.3645870627748E+01  0.0000000000000E+00
-0.1018147570965E+01 -0.3575867279653E+01  0.0000000000000E+00
-0.1018172477518E+01 -0.3505863953840E+01  0.0000000000000E+00
-0.1018206954286E+01 -0.3435860579874E+01  0.0000000000000E+00
-0.1018344544722E+01 -0.3365857374485E+01  0.0000000000000E+00
-0.1018724709547E+01 -0.3295855162755E+01  0.0000000000000E+00
-0.1019477878966E+01 -0.3225856407194E+01  0.0000000000000E+00
-0.1020712383702E+01 -0.3155865561779E+01  0.0000000000000E+00
-0.1022510541526E+01 -0.3085888904331E+01  0.0000000000000E+00
-0.1024931404749E+01 -0.3015934370795E+01  0.0000000000000E+00
-0.1028016676817E+01 -0.2946010052173E+01  0.0000000000000E+00
-0.1031797020091E+01 -0.2876125800636E+01  0.0000000000000E+00
-0.1036297748905E+01 -0.2806291916017E+01  0.0000000000000E+00
-0.1041543594461E+01 -0.2736518514076E+01  0.0000000000000E+00
-0.1047562465671E+01 -0.2666818701971E+01  0.0000000000000E+00
-0.1054389314810E+01 -0.2597206350635E+01  0.0000000000000E+00
-0.9900310298031E+00 -0.5325782844259E+01  0.0000000000000E+00
-0.9900620600908E+00 -0.5255609241528E+01  0.0000000000000E+00
-0.9900930901742E+00 -0.5185436100570E+01  0.0000000000000E+00
-0.9901241202413E+00 -0.5115262996428E+01  0.0000000000000E+00
-0.9901551503387E+00 -0.5045089823780E+01  0.0000000000000E+00
-0.9901861804396E+00 -0.4974916643295E+01  0.0000000000000E+00
-0.9902172105061E+00 -0.4904743540760E+01  0.0000000000000E+00
-0.9902482405968E+00 -0.4834570383341E+01  0.0000000000000E+00
-0.9902792706804E+00 -0.4764397242001E+01  0.0000000000000E+00
-0.9903103007621E+00 -0.4694224104813E+01  0.0000000000000E+00
-0.9903413308475E+00 -0.4624050959418E+01  0.0000000000000E+00
-0.9903723609353E+00 -0.4553877808556E+01  0.0000000000000E+00
-0.9904033910148E+00 -0.4483704676459E+01  0.0000000000000E+00
-0.9904344211007E+00 -0.4413531529963E+01  0.0000000000000E+00
-0.9904654511917E+00 -0.4343358371682E+01  0.0000000000000E+00
-0.9904964812413E+00 -0.4273185307225E+01  0.0000000000000E+00
-0.9905275113377E+00 -0.4203012137056E+01  0.0000000000000E+00
-0.9905585414326E+00 -0.4132838970088E+01  0.0000000000000E+00
-0.9905895716444E+00 -0.4062665538720E+01  0.0000000000000E+00
-0.9906206020164E+00 -0.3992491745238E+01  0.0000000000000E+00
-0.9906516316557E+00 -0.3922319608678E+01  0.0000000000000E+00
-0.9906826617662E+00 -0.3852146406481E+01  0.0000000000000E+00
-0.9907136917431E+00 -0.3781973506368E+01  0.0000000000000E+00
-0.9907447218471E+00 -0.3711800318690E+01  0.0000000000000E+00
-0.9907757519001E+00 -0.3641627246535E+01  0.0000000000000E+00
-0.9908067819580E+00 -0.3571454163290E+01  0.0000000000000E+00
-0.9908378120061E+00 -0.3501281102382E+01  0.0000000000000E+00
-0.9908781523615E+00 -0.3431107993202E+01  0.0000000000000E+00
-0.9910188059766E+00 -0.3360935052751E+01  0.0000000000000E+00
-0.9913954460439E+00 -0.3290763106050E+01  0.0000000000000E+00
-0.9921349604927E+00 -0.3220594615649E+01  0.0000000000000E+00
-0.9933427379555E+00 -0.3150434035532E+01  0.0000000000000E+00
-0.9950988605872E+00 -0.3080287643457E+01  0.0000000000000E+00
-0.9974607769116E+00 -0.3010163375916E+01  0.0000000000000E+00
-0.1000469057831E+01 -0.2940069322488E+01  0.0000000000000E+00
-0.1004153532922E+01 -0.2870015336458E+01  0.0000000000000E+00
-0.1008538829000E+01 -0.2800011718183E+01  0.0000000000000E+00
-0.1013649005691E+01 -0.2730068581340E+01  0.0000000000000E+00
-0.1019511213866E+01 -0.2660199035125E+01  0.0000000000000E+00
-0.1026159456582E+01 -0.2590416949654E+01  0.0000000000000E+00
-0.9625361015833E+00 -0.5325617468997E+01  0.0000000000000E+00
-0.9625722037303E+00 -0.5255278488423E+01  0.0000000000000E+00
-0.9626083056397E+00 -0.5184939970710E+01  0.0000000000000E+00
-0.9626444075301E+00 -0.5114601489899E+01  0.0000000000000E+00
-0.9626805094558E+00 -0.5044262940422E+01  0.0000000000000E+00
-0.9627166113855E+00 -0.4973924383088E+01  0.0000000000000E+00
-0.9627527132752E+00 -0.4903585903889E+01  0.0000000000000E+00
-0.9627888151930E+00 -0.4833247369676E+01  0.0000000000000E+00
-0.9628249171026E+00 -0.4762908851580E+01  0.0000000000000E+00
-0.9628610190101E+00 -0.4692570337645E+01  0.0000000000000E+00
-0.9628971209217E+00 -0.4622231815485E+01  0.0000000000000E+00
-0.9629332228362E+00 -0.4551893287844E+01  0.0000000000000E+00
-0.9629693247411E+00 -0.4481554779013E+01  0.0000000000000E+00
-0.9630054266533E+00 -0.4411216255748E+01  0.0000000000000E+00
-0.9630415285716E+00 -0.4340877720671E+01  0.0000000000000E+00
-0.9630776304416E+00 -0.4270539279639E+01  0.0000000000000E+00
-0.9631137323661E+00 -0.4200200732647E+01  0.0000000000000E+00
-0.9631498342888E+00 -0.4129862188862E+01  0.0000000000000E+00
-0.9631859363476E+00 -0.4059523380055E+01  0.0000000000000E+00
-0.9632220385927E+00 -0.3989184208280E+01  0.0000000000000E+00
-0.9632581399854E+00 -0.3918846697332E+01  0.0000000000000E+00
-0.9632942419263E+00 -0.3848508118234E+01  0.0000000000000E+00
-0.9633303437118E+00 -0.3778169841934E+01  0.0000000000000E+00
-0.9633664456452E+00 -0.3707831277391E+01  0.0000000000000E+00
-0.9634025475192E+00 -0.3637492828643E+01  0.0000000000000E+00
-0.9634386493989E+00 -0.3567154368779E+01  0.0000000000000E+00
-0.9634747512671E+00 -0.3496815931304E+01  0.0000000000000E+00
-0.9635199035352E+00 -0.3426477445442E+01  0.0000000000000E+00
-0.9636625686567E+00 -0.3356139128456E+01  0.0000000000000E+00
-0.9640346322982E+00 -0.3285801805311E+01  0.0000000000000E+00
-0.9647594401134E+00 -0.3215467938592E+01  0.0000000000000E+00
-0.9659394386469E+00 -0.3145141982293E+01  0.0000000000000E+00
-0.9676524744378E+00 -0.3074830214107E+01  0.0000000000000E+00
-0.9699543922259E+00 -0.3004540571062E+01  0.0000000000000E+00
-0.9728846303628E+00 -0.2934281141349E+01  0.0000000000000E+00
-0.9764721856482E+00 -0.2864061779340E+01  0.0000000000000E+00
-0.9807409973825E+00 -0.2793892785901E+01  0.0000000000000E+00
-0.9857144536039E+00 -0.2723784272679E+01  0.0000000000000E+00
-0.9914189471512E+00 -0.2653749350858E+01  0.0000000000000E+00
-0.9978875318631E+00 -0.2583801889758E+01  0.0000000000000E+00
-0.9350401443878E+00 -0.5325456478391E+01  0.0000000000000E+00
-0.9350802894023E+00 -0.5254956504697E+01  0.0000000000000E+00
-0.9351204341527E+00 -0.5184456994923E+01  0.0000000000000E+00
-0.9351605788821E+00 -0.5113957522136E+01  0.0000000000000E+00
-0.9352007236506E+00 -0.5043457980525E+01  0.0000000000000E+00
-0.9352408684236E+00 -0.4972958431040E+01  0.0000000000000E+00
-0.9352810131520E+00 -0.4902458959869E+01  0.0000000000000E+00
-0.9353211579118E+00 -0.4831959433557E+01  0.0000000000000E+00
-0.9353613026624E+00 -0.4761459923400E+01  0.0000000000000E+00
-0.9354014474106E+00 -0.4690960417413E+01  0.0000000000000E+00
-0.9354415921635E+00 -0.4620460903183E+01  0.0000000000000E+00
-0.9354817369196E+00 -0.4549961383458E+01  0.0000000000000E+00
-0.9355218816649E+00 -0.4479461882587E+01  0.0000000000000E+00
-0.9355620264185E+00 -0.4408962367249E+01  0.0000000000000E+00
-0.9356021711788E+00 -0.4338462840072E+01  0.0000000000000E+00
-0.9356423158854E+00 -0.4267963407155E+01  0.0000000000000E+00
-0.9356824606525E+00 -0.4197463868035E+01  0.0000000000000E+00
-0.9357226054177E+00 -0.4126964332130E+01  0.0000000000000E+00
-0.9357627503343E+00 -0.4056464530596E+01  0.0000000000000E+00
-0.9358028954580E+00 -0.3985964365263E+01  0.0000000000000E+00
-0.9358430396337E+00 -0.3915465864559E+01  0.0000000000000E+00
-0.9358831844192E+00 -0.3844966293260E+01  0.0000000000000E+00
-0.9359233290318E+00 -0.3774467025452E+01  0.0000000000000E+00
-0.9359634738089E+00 -0.3703967468741E+01  0.0000000000000E+00
-0.9360036185199E+00 -0.3633468028090E+01  0.0000000000000E+00
-0.9360437632373E+00 -0.3562968576298E+01  0.0000000000000E+00
-0.9360839079419E+00 -0.3492469146947E+01  0.0000000000000E+00
-0.9361328431381E+00 -0.3421969669095E+01  0.0000000000000E+00
-0.9362764907837E+00 -0.3351470360263E+01  0.0000000000000E+00
-0.9366429490197E+00 -0.3280972045360E+01  0.0000000000000E+00
-0.9373520212261E+00 -0.3210477187007E+01  0.0000000000000E+00
-0.9385032118607E+00 -0.3139990239204E+01  0.0000000000000E+00
-0.9401721318471E+00 -0.3069517479585E+01  0.0000000000000E+00
-0.9424130221448E+00 -0.2999066845698E+01  0.0000000000000E+00
-0.9452641885474E+00 -0.2928646424382E+01  0.0000000000000E+00
-0.9487537950833E+00 -0.2858266071067E+01  0.0000000000000E+00
-0.9529050935425E+00 -0.2787936087117E+01  0.0000000000000E+00
-0.9577408003614E+00 -0.2717666582202E+01  0.0000000000000E+00
-0.9632865503616E+00 -0.2647470669439E+01  0.0000000000000E+00
-0.9695744481575E+00 -0.2577362217373E+01  0.0000000000000E+00
-0.9075431803986E+00 -0.5325299897909E+01  0.0000000000000E+00
-0.9075863614713E+00 -0.5254643341288E+01  0.0000000000000E+00
-0.9076295422599E+00 -0.5183987249618E+01  0.0000000000000E+00
-0.9076727230259E+00 -0.5113331195018E+01  0.0000000000000E+00
-0.9077159038340E+00 -0.5042675071440E+01  0.0000000000000E+00
-0.9077590846469E+00 -0.4972018939970E+01  0.0000000000000E+00
-0.9078022654119E+00 -0.4901362886988E+01  0.0000000000000E+00
-0.9078454462106E+00 -0.4830706778744E+01  0.0000000000000E+00
-0.9078886269995E+00 -0.4760050686689E+01  0.0000000000000E+00
-0.9079318077857E+00 -0.4689394598815E+01  0.0000000000000E+00
-0.9079749885771E+00 -0.4618738502678E+01  0.0000000000000E+00
-0.9080181693718E+00 -0.4548082401035E+01  0.0000000000000E+00
-0.9080613501549E+00 -0.4477426318288E+01  0.0000000000000E+00
-0.9081045309469E+00 -0.4406770221041E+01  0.0000000000000E+00
-0.9081477117462E+00 -0.4336114111929E+01  0.0000000000000E+00
-0.9081908924877E+00 -0.4265458097287E+01  0.0000000000000E+00
-0.9082340732943E+00 -0.4194801976205E+01  0.0000000000000E+00
-0.9082772540989E+00 -0.4124145858346E+01  0.0000000000000E+00
-0.9083204350662E+00 -0.4053489474268E+01  0.0000000000000E+00
-0.9083636162563E+00 -0.3982832725583E+01  0.0000000000000E+00
-0.9084067964269E+00 -0.3912177645224E+01  0.0000000000000E+00
-0.9084499772532E+00 -0.3841521491892E+01  0.0000000000000E+00
-0.9084931578936E+00 -0.3770865642725E+01  0.0000000000000E+00
-0.9085363387109E+00 -0.3700209504014E+01  0.0000000000000E+00
-0.9085795194572E+00 -0.3629553481620E+01  0.0000000000000E+00
-0.9086227002103E+00 -0.3558897448061E+01  0.0000000000000E+00
-0.9086658809496E+00 -0.3488241436992E+01  0.0000000000000E+00
-0.9087175922716E+00 -0.3417585377313E+01  0.0000000000000E+00
-0.9088612156382E+00 -0.3346929486794E+01  0.0000000000000E+00
-0.9092210616629E+00 -0.3276274590289E+01  0.0000000000000E+00
-0.9099133914502E+00 -0.3205623150454E+01  0.0000000000000E+00
-0.9110347673696E+00 -0.3134979621297E+01  0.0000000000000E+00
-0.9126585647278E+00 -0.3064350280392E+01  0.0000000000000E+00
-0.9148374207065E+00 -0.2993743065794E+01  0.0000000000000E+00
-0.9176085085321E+00 -0.2923166063027E+01  0.0000000000000E+00
-0.9209991594681E+00 -0.2852629128550E+01  0.0000000000000E+00
-0.9250319377964E+00 -0.2782142564210E+01  0.0000000000000E+00
-0.9297288883394E+00 -0.2711716477756E+01  0.0000000000000E+00
-0.9351148879130E+00 -0.2641363984184E+01  0.0000000000000E+00
-0.9412210919018E+00 -0.2571098951288E+01  0.0000000000000E+00
-0.8800452340645E+00 -0.5325147752955E+01  0.0000000000000E+00
-0.8800904688353E+00 -0.5254339049004E+01  0.0000000000000E+00
-0.8801357033084E+00 -0.5183530811005E+01  0.0000000000000E+00
-0.8801809377578E+00 -0.5112722610156E+01  0.0000000000000E+00
-0.8802261722513E+00 -0.5041914340181E+01  0.0000000000000E+00
-0.8802714067499E+00 -0.4971106062297E+01  0.0000000000000E+00
-0.8803166411982E+00 -0.4900297863070E+01  0.0000000000000E+00
-0.8803618756819E+00 -0.4829489608461E+01  0.0000000000000E+00
-0.8804071101552E+00 -0.4758681370077E+01  0.0000000000000E+00
-0.8804523446259E+00 -0.4687873135883E+01  0.0000000000000E+00
-0.8804975791019E+00 -0.4617064893407E+01  0.0000000000000E+00
-0.8805428135813E+00 -0.4546256645415E+01  0.0000000000000E+00
-0.8805880480487E+00 -0.4475448416357E+01  0.0000000000000E+00
-0.8806332825254E+00 -0.4404640172771E+01  0.0000000000000E+00
-0.8806785170097E+00 -0.4333831917292E+01  0.0000000000000E+00
-0.8807237514334E+00 -0.4263023756487E+01  0.0000000000000E+00
-0.8807689859254E+00 -0.4192215489014E+01  0.0000000000000E+00
-0.8808142204152E+00 -0.4121407224769E+01  0.0000000000000E+00
-0.8808594550755E+00 -0.4050598693733E+01  0.0000000000000E+00
-0.8809046899693E+00 -0.3979789797305E+01  0.0000000000000E+00
-0.8809499237949E+00 -0.3908982572795E+01  0.0000000000000E+00
-0.8809951583075E+00 -0.3838174273002E+01  0.0000000000000E+00
-0.8810403926253E+00 -0.3767366278028E+01  0.0000000000000E+00
-0.8810856271285E+00 -0.3696557992887E+01  0.0000000000000E+00
-0.8811308615573E+00 -0.3625749824314E+01  0.0000000000000E+00
-0.8811760959932E+00 -0.3554941644551E+01  0.0000000000000E+00
-0.8812213304147E+00 -0.3484133487327E+01  0.0000000000000E+00
-0.8812748355091E+00 -0.3413325281387E+01  0.0000000000000E+00
-0.8814174522441E+00 -0.3342517244743E+01  0.0000000000000E+00
-0.8817697037052E+00 -0.3271710202195E+01  0.0000000000000E+00
-0.8824443087215E+00 -0.3200906616433E+01  0.0000000000000E+00
-0.8835348875739E+00 -0.3130110941474E+01  0.0000000000000E+00
-0.8851125799519E+00 -0.3059329454834E+01  0.0000000000000E+00
-0.8872284192626E+00 -0.2988570095058E+01  0.0000000000000E+00
-0.8899184461566E+00 -0.2917840946396E+01  0.0000000000000E+00
-0.8932091591391E+00 -0.2847151866304E+01  0.0000000000000E+00
-0.8971224349869E+00 -0.2776513157100E+01  0.0000000000000E+00
-0.9016796468964E+00 -0.2705934924663E+01  0.0000000000000E+00
-0.9069049136893E+00 -0.2635430285820E+01  0.0000000000000E+00
-0.9128284415160E+00 -0.2565013107630E+01  0.0000000000000E+00
-0.8525463300809E+00 -0.5325000068356E+01  0.0000000000000E+00
-0.8525926608852E+00 -0.5254043677500E+01  0.0000000000000E+00
-0.8526389913846E+00 -0.5183087753568E+01  0.0000000000000E+00
-0.8526853218597E+00 -0.5112131866863E+01  0.0000000000000E+00
-0.8527316523800E+00 -0.5041175910889E+01  0.0000000000000E+00
-0.8527779829055E+00 -0.4970219946989E+01  0.0000000000000E+00
-0.8528243133795E+00 -0.4899264061909E+01  0.0000000000000E+00
-0.8528706438898E+00 -0.4828308121333E+01  0.0000000000000E+00
-0.8529169743894E+00 -0.4757352197015E+01  0.0000000000000E+00
-0.8529633048863E+00 -0.4686396276895E+01  0.0000000000000E+00
-0.8530096353886E+00 -0.4615440348478E+01  0.0000000000000E+00
-0.8530559658946E+00 -0.4544484414531E+01  0.0000000000000E+00
-0.8531022963881E+00 -0.4473528499560E+01  0.0000000000000E+00
-0.8531486268911E+00 -0.4402572570028E+01  0.0000000000000E+00
-0.8531949574020E+00 -0.4331616628580E+01  0.0000000000000E+00
-0.8532412878509E+00 -0.4260660782003E+01  0.0000000000000E+00
-0.8532876183695E+00 -0.4189704828535E+01  0.0000000000000E+00
-0.8533339488861E+00 -0.4118748878303E+01  0.0000000000000E+00
-0.8533802795772E+00 -0.4047792660723E+01  0.0000000000000E+00
-0.8534266105074E+00 -0.3976836076988E+01  0.0000000000000E+00
-0.8534729403437E+00 -0.3905881168659E+01  0.0000000000000E+00
-0.8535192708835E+00 -0.3834925182804E+01  0.0000000000000E+00
-0.8535656012239E+00 -0.3763969502404E+01  0.0000000000000E+00
-0.8536119317541E+00 -0.3693013531232E+01  0.0000000000000E+00
-0.8536582622081E+00 -0.3622057676871E+01  0.0000000000000E+00
-0.8537045926694E+00 -0.3551101811296E+01  0.0000000000000E+00
-0.8537509231159E+00 -0.3480145968308E+01  0.0000000000000E+00
-0.8538052643250E+00 -0.3409190076500E+01  0.0000000000000E+00
-0.8539459167723E+00 -0.3338234354119E+01  0.0000000000000E+00
-0.8542896160157E+00 -0.3267279625916E+01  0.0000000000000E+00
-0.8549455386101E+00 -0.3196328354612E+01  0.0000000000000E+00
-0.8560043627487E+00 -0.3125384994231E+01  0.0000000000000E+00
-0.8575349925038E+00 -0.3054455822234E+01  0.0000000000000E+00
-0.8595868575112E+00 -0.2983548777643E+01  0.0000000000000E+00
-0.8621948658384E+00 -0.2912671943467E+01  0.0000000000000E+00
-0.8653846832384E+00 -0.2841835178134E+01  0.0000000000000E+00
-0.8691774989863E+00 -0.2771048784419E+01  0.0000000000000E+00
-0.8735940146407E+00 -0.2700322866386E+01  0.0000000000000E+00
-0.8786575910410E+00 -0.2629670542636E+01  0.0000000000000E+00
-0.8843974850987E+00 -0.2559105679518E+01  0.0000000000000E+00
-0.8250464931568E+00 -0.5324856868306E+01  0.0000000000000E+00
-0.8250929870396E+00 -0.5253757275165E+01  0.0000000000000E+00
-0.8251394806163E+00 -0.5182658149890E+01  0.0000000000000E+00
-0.8251859741687E+00 -0.5111559061918E+01  0.0000000000000E+00
-0.8252324677665E+00 -0.5040459904535E+01  0.0000000000000E+00
-0.8252789613695E+00 -0.4969360739212E+01  0.0000000000000E+00
-0.8253254549208E+00 -0.4898261652867E+01  0.0000000000000E+00
-0.8253719485085E+00 -0.4827162510915E+01  0.0000000000000E+00
-0.8254184420855E+00 -0.4756063385253E+01  0.0000000000000E+00
-0.8254649356598E+00 -0.4684964263798E+01  0.0000000000000E+00
-0.8255114292395E+00 -0.4613865134029E+01  0.0000000000000E+00
-0.8255579228228E+00 -0.4542765998719E+01  0.0000000000000E+00
-0.8256044163937E+00 -0.4471666882422E+01  0.0000000000000E+00
-0.8256509099742E+00 -0.4400567751537E+01  0.0000000000000E+00
-0.8256974035624E+00 -0.4329468608710E+01  0.0000000000000E+00
-0.8257438970885E+00 -0.4258369560946E+01  0.0000000000000E+00
-0.8257903906847E+00 -0.4187270406076E+01  0.0000000000000E+00
-0.8258368842787E+00 -0.4116171254448E+01  0.0000000000000E+00
-0.8258833780479E+00 -0.4045071834931E+01  0.0000000000000E+00
-0.8259298720570E+00 -0.3973972048522E+01  0.0000000000000E+00
-0.8259763649683E+00 -0.3902873940900E+01  0.0000000000000E+00
-0.8260228585856E+00 -0.3831774753577E+01  0.0000000000000E+00
-0.8260693520028E+00 -0.3760675872326E+01  0.0000000000000E+00
-0.8261158456106E+00 -0.3689576699715E+01  0.0000000000000E+00
-0.8261623391417E+00 -0.3618477644152E+01  0.0000000000000E+00
-0.8262088326803E+00 -0.3547378577352E+01  0.0000000000000E+00
-0.8262553262040E+00 -0.3476279533184E+01  0.0000000000000E+00
-0.8263095705794E+00 -0.3405180440096E+01  0.0000000000000E+00
-0.8264473257918E+00 -0.3334081516563E+01  0.0000000000000E+00
-0.8267815398721E+00 -0.3262983587286E+01  0.0000000000000E+00
-0.8274178471016E+00 -0.3191889115018E+01  0.0000000000000E+00
-0.8284439835864E+00 -0.3120802553790E+01  0.0000000000000E+00
-0.8299266177818E+00 -0.3049730181008E+01  0.0000000000000E+00
-0.8319135755556E+00 -0.2978679936157E+01  0.0000000000000E+00
-0.8344386323843E+00 -0.2907659901046E+01  0.0000000000000E+00
-0.8375266212753E+00 -0.2836679935042E+01  0.0000000000000E+00
-0.8411980440048E+00 -0.2765750341361E+01  0.0000000000000E+00
-0.8454729304822E+00 -0.2694881222311E+01  0.0000000000000E+00
-0.8503738835761E+00 -0.2624085698214E+01  0.0000000000000E+00
-0.8559292109547E+00 -0.2553377634727E+01  0.0000000000000E+00
-0.7975457484305E+00 -0.5324718176447E+01  0.0000000000000E+00
-0.7975914975753E+00 -0.5253479889282E+01  0.0000000000000E+00
-0.7976372464190E+00 -0.5182242070895E+01  0.0000000000000E+00
-0.7976829952387E+00 -0.5111004289884E+01  0.0000000000000E+00
-0.7977287441031E+00 -0.5039766439327E+01  0.0000000000000E+00
-0.7977744929725E+00 -0.4968528580814E+01  0.0000000000000E+00
-0.7978202417912E+00 -0.4897290801434E+01  0.0000000000000E+00
-0.7978659906456E+00 -0.4826052966337E+01  0.0000000000000E+00
-0.7979117394896E+00 -0.4754815147563E+01  0.0000000000000E+00
-0.7979574883308E+00 -0.4683577333004E+01  0.0000000000000E+00
-0.7980032371775E+00 -0.4612339510114E+01  0.0000000000000E+00
-0.7980489860276E+00 -0.4541101681673E+01  0.0000000000000E+00
-0.7980947348656E+00 -0.4469863872282E+01  0.0000000000000E+00
-0.7981404837129E+00 -0.4398626048274E+01  0.0000000000000E+00
-0.7981862325679E+00 -0.4327388212302E+01  0.0000000000000E+00
-0.7982319813617E+00 -0.4256150471577E+01  0.0000000000000E+00
-0.7982777302245E+00 -0.4184912623537E+01  0.0000000000000E+00
-0.7983234790851E+00 -0.4113674778746E+01  0.0000000000000E+00
-0.7983692281182E+00 -0.4042436665544E+01  0.0000000000000E+00
-0.7984149773873E+00 -0.3971198184734E+01  0.0000000000000E+00
-0.7984607255762E+00 -0.3899961385985E+01  0.0000000000000E+00
-0.7985064744598E+00 -0.3828723505429E+01  0.0000000000000E+00
-0.7985522231465E+00 -0.3757485931542E+01  0.0000000000000E+00
-0.7985979720207E+00 -0.3686248065728E+01  0.0000000000000E+00
-0.7986437208196E+00 -0.3615010317188E+01  0.0000000000000E+00
-0.7986894696256E+00 -0.3543772557391E+01  0.0000000000000E+00
-0.7987352184172E+00 -0.3472534820269E+01  0.0000000000000E+00
-0.7987884581487E+00 -0.3401297034132E+01  0.0000000000000E+00
-0.7989224083173E+00 -0.3330059417672E+01  0.0000000000000E+00
-0.7992462294265E+00 -0.3258822795543E+01  0.0000000000000E+00
-0.7998620134845E+00 -0.3187589630531E+01  0.0000000000000E+00
-0.8008545545108E+00 -0.3116364376671E+01  0.0000000000000E+00
-0.8022882853432E+00 -0.3045153311319E+01  0.0000000000000E+00
-0.8042094280847E+00 -0.2973964374405E+01  0.0000000000000E+00
-0.8066506256132E+00 -0.2902805646576E+01  0.0000000000000E+00
-0.8096358781967E+00 -0.2831686988111E+01  0.0000000000000E+00
-0.8131850001152E+00 -0.2760618702654E+01  0.0000000000000E+00
-0.8173173496180E+00 -0.2689610890809E+01  0.0000000000000E+00
-0.8220547716135E+00 -0.2618676674563E+01  0.0000000000000E+00
-0.8274246245229E+00 -0.2547829918908E+01  0.0000000000000E+00
-0.7700441208455E+00 -0.5324584015730E+01  0.0000000000000E+00
-0.7700882423798E+00 -0.5253211565754E+01  0.0000000000000E+00
-0.7701323636238E+00 -0.5181839585439E+01  0.0000000000000E+00
-0.7701764848447E+00 -0.5110467642569E+01  0.0000000000000E+00
-0.7702206061086E+00 -0.5039095630023E+01  0.0000000000000E+00
-0.7702647273774E+00 -0.4967723609506E+01  0.0000000000000E+00
-0.7703088485973E+00 -0.4896351668271E+01  0.0000000000000E+00
-0.7703529698516E+00 -0.4824979671214E+01  0.0000000000000E+00
-0.7703970910958E+00 -0.4753607690510E+01  0.0000000000000E+00
-0.7704412123375E+00 -0.4682235714030E+01  0.0000000000000E+00
-0.7704853335842E+00 -0.4610863729203E+01  0.0000000000000E+00
-0.7705294548345E+00 -0.4539491738814E+01  0.0000000000000E+00
-0.7705735760729E+00 -0.4468119767512E+01  0.0000000000000E+00
-0.7706176973204E+00 -0.4396747781565E+01  0.0000000000000E+00
-0.7706618185752E+00 -0.4325375783631E+01  0.0000000000000E+00
-0.7707059397711E+00 -0.4254003881124E+01  0.0000000000000E+00
-0.7707500610335E+00 -0.4182631871100E+01  0.0000000000000E+00
-0.7707941822939E+00 -0.4111259864330E+01  0.0000000000000E+00
-0.7708383037204E+00 -0.4039887588644E+01  0.0000000000000E+00
-0.7708824253747E+00 -0.3968514944658E+01  0.0000000000000E+00
-0.7709265459872E+00 -0.3897143985901E+01  0.0000000000000E+00
-0.7709706672697E+00 -0.3825771943300E+01  0.0000000000000E+00
-0.7710147883622E+00 -0.3754400207944E+01  0.0000000000000E+00
-0.7710589096356E+00 -0.3683028180112E+01  0.0000000000000E+00
-0.7711030308364E+00 -0.3611656269776E+01  0.0000000000000E+00
-0.7711471520441E+00 -0.3540284348160E+01  0.0000000000000E+00
-0.7711912732377E+00 -0.3468912449263E+01  0.0000000000000E+00
-0.7712426254591E+00 -0.3397540501256E+01  0.0000000000000E+00
-0.7713718877167E+00 -0.3326168723047E+01  0.0000000000000E+00
-0.7716844329847E+00 -0.3254797939242E+01  0.0000000000000E+00
-0.7722788109968E+00 -0.3183430612656E+01  0.0000000000000E+00
-0.7732368736837E+00 -0.3112071197332E+01  0.0000000000000E+00
-0.7746208182648E+00 -0.3040725970573E+01  0.0000000000000E+00
-0.7764752630801E+00 -0.2969402872747E+01  0.0000000000000E+00
-0.7788317184011E+00 -0.2898109983371E+01  0.0000000000000E+00
-0.7817133517614E+00 -0.2826857163606E+01  0.0000000000000E+00
-0.7851392899474E+00 -0.2755654717512E+01  0.0000000000000E+00
-0.7891282195370E+00 -0.2684512744043E+01  0.0000000000000E+00
-0.7937012274889E+00 -0.2613444366801E+01  0.0000000000000E+00
-0.7988847229720E+00 -0.2542463450130E+01  0.0000000000000E+00
-0.7425416374744E+00 -0.5324454408853E+01  0.0000000000000E+00
-0.7425832755988E+00 -0.5252952349975E+01  0.0000000000000E+00
-0.7426249134493E+00 -0.5181450761612E+01  0.0000000000000E+00
-0.7426665512779E+00 -0.5109949210763E+01  0.0000000000000E+00
-0.7427081891471E+00 -0.5038447590110E+01  0.0000000000000E+00
-0.7427498270210E+00 -0.4966945961472E+01  0.0000000000000E+00
-0.7427914648486E+00 -0.4895444412260E+01  0.0000000000000E+00
-0.7428331027089E+00 -0.4823942807124E+01  0.0000000000000E+00
-0.7428747405595E+00 -0.4752441218372E+01  0.0000000000000E+00
-0.7429163784077E+00 -0.4680939633851E+01  0.0000000000000E+00
-0.7429580162608E+00 -0.4609438040968E+01  0.0000000000000E+00
-0.7429996541171E+00 -0.4537936442513E+01  0.0000000000000E+00
-0.7430412919623E+00 -0.4466434863179E+01  0.0000000000000E+00
-0.7430829298161E+00 -0.4394933269173E+01  0.0000000000000E+00
-0.7431245676768E+00 -0.4323431663159E+01  0.0000000000000E+00
-0.7431662054818E+00 -0.4251930152746E+01  0.0000000000000E+00
-0.7432078433496E+00 -0.4180428534620E+01  0.0000000000000E+00
-0.7432494812155E+00 -0.4108926919754E+01  0.0000000000000E+00
-0.7432911192383E+00 -0.4037425035484E+01  0.0000000000000E+00
-0.7433327574759E+00 -0.3965922782245E+01  0.0000000000000E+00
-0.7433743947304E+00 -0.3894422217294E+01  0.0000000000000E+00
-0.7434160326171E+00 -0.3822920566532E+01  0.0000000000000E+00
-0.7434576703247E+00 -0.3751419223574E+01  0.0000000000000E+00
-0.7434993082028E+00 -0.3679917587607E+01  0.0000000000000E+00
-0.7435409460125E+00 -0.3608416069350E+01  0.0000000000000E+00
-0.7435825838287E+00 -0.3536914539793E+01  0.0000000000000E+00
-0.7436242216316E+00 -0.3465413032996E+01  0.0000000000000E+00
-0.7436728305494E+00 -0.3393911476998E+01  0.0000000000000E+00
-0.7437965491038E+00 -0.3322410090914E+01  0.0000000000000E+00
-0.7440969627398E+00 -0.3250909699304E+01  0.0000000000000E+00
-0.7446690789169E+00 -0.3179412765013E+01  0.0000000000000E+00
-0.7455918074782E+00 -0.3107923742090E+01  0.0000000000000E+00
-0.7469251100241E+00 -0.3036448907789E+01  0.0000000000000E+00
-0.7487120011349E+00 -0.2964996202895E+01  0.0000000000000E+00
-0.7509828584683E+00 -0.2893573705839E+01  0.0000000000000E+00
-0.7537600168297E+00 -0.2822191278635E+01  0.0000000000000E+00
-0.7570619155144E+00 -0.2750859225739E+01  0.0000000000000E+00
-0.7609065694185E+00 -0.2679587644518E+01  0.0000000000000E+00
-0.7653143075613E+00 -0.2608389660128E+01  0.0000000000000E+00
-0.7703105898555E+00 -0.2537279136291E+01  0.0000000000000E+00
-0.7150383249132E+00 -0.5324329377718E+01  0.0000000000000E+00
-0.7150766504248E+00 -0.5252702285754E+01  0.0000000000000E+00
-0.7151149756842E+00 -0.5181075665128E+01  0.0000000000000E+00
-0.7151533009234E+00 -0.5109449082080E+01  0.0000000000000E+00
-0.7151916262001E+00 -0.5037822429107E+01  0.0000000000000E+00
-0.7152299514811E+00 -0.4966195768135E+01  0.0000000000000E+00
-0.7152682767194E+00 -0.4894569186727E+01  0.0000000000000E+00
-0.7153066019878E+00 -0.4822942549299E+01  0.0000000000000E+00
-0.7153449272474E+00 -0.4751315928282E+01  0.0000000000000E+00
-0.7153832525047E+00 -0.4679689311504E+01  0.0000000000000E+00
-0.7154215777665E+00 -0.4608062686349E+01  0.0000000000000E+00
-0.7154599030313E+00 -0.4536436055613E+01  0.0000000000000E+00
-0.7154982282858E+00 -0.4464809444031E+01  0.0000000000000E+00
-0.7155365535482E+00 -0.4393182817751E+01  0.0000000000000E+00
-0.7155748788170E+00 -0.4321556179443E+01  0.0000000000000E+00
-0.7156132040346E+00 -0.4249929636902E+01  0.0000000000000E+00
-0.7156515293099E+00 -0.4178302986460E+01  0.0000000000000E+00
-0.7156898545835E+00 -0.4106676339284E+01  0.0000000000000E+00
-0.7157281800015E+00 -0.4035049422233E+01  0.0000000000000E+00
-0.7157665056172E+00 -0.3963422135567E+01  0.0000000000000E+00
-0.7158048303281E+00 -0.3891796540143E+01  0.0000000000000E+00
-0.7158431556209E+00 -0.3820169857008E+01  0.0000000000000E+00
-0.7158814807487E+00 -0.3748543482215E+01  0.0000000000000E+00
-0.7159198060336E+00 -0.3676916813901E+01  0.0000000000000E+00
-0.7159581312554E+00 -0.3605290263502E+01  0.0000000000000E+00
-0.7159964564832E+00 -0.3533663701784E+01  0.0000000000000E+00
-0.7160347816989E+00 -0.3462037162866E+01  0.0000000000000E+00
-0.7160798181159E+00 -0.3390410574660E+01  0.0000000000000E+00
-0.7161971637710E+00 -0.3318784156479E+01  0.0000000000000E+00
-0.7164846165800E+00 -0.3247158732840E+01  0.0000000000000E+00
-0.7170336417289E+00 -0.3175536766617E+01  0.0000000000000E+00
-0.7179202069732E+00 -0.3103922711862E+01  0.0000000000000E+00
-0.7192020382944E+00 -0.3032322845784E+01  0.0000000000000E+00
-0.7209205465158E+00 -0.2960745109573E+01  0.0000000000000E+00
-0.7231049766749E+00 -0.2889197580609E+01  0.0000000000000E+00
-0.7257768308539E+00 -0.2817690121727E+01  0.0000000000000E+00
-0.7289538608599E+00 -0.2746233037771E+01  0.0000000000000E+00
-0.7326534098971E+00 -0.2674836424571E+01  0.0000000000000E+00
-0.7368950490553E+00 -0.2603513408786E+01  0.0000000000000E+00
-0.7417032889873E+00 -0.2532277853536E+01  0.0000000000000E+00
-0.6875342102073E+00 -0.5324208943610E+01  0.0000000000000E+00
-0.6875684209487E+00 -0.5252461415657E+01  0.0000000000000E+00
-0.6876026314649E+00 -0.5180714359834E+01  0.0000000000000E+00
-0.6876368419633E+00 -0.5108967341653E+01  0.0000000000000E+00
-0.6876710524950E+00 -0.5037220253429E+01  0.0000000000000E+00
-0.6877052630305E+00 -0.4965473157192E+01  0.0000000000000E+00
-0.6877394735281E+00 -0.4893726140654E+01  0.0000000000000E+00
-0.6877736840524E+00 -0.4821979068001E+01  0.0000000000000E+00
-0.6878078945688E+00 -0.4750232011788E+01  0.0000000000000E+00
-0.6878421050833E+00 -0.4678484959819E+01  0.0000000000000E+00
-0.6878763156017E+00 -0.4606737899460E+01  0.0000000000000E+00
-0.6879105261228E+00 -0.4534990833511E+01  0.0000000000000E+00
-0.6879447366347E+00 -0.4463243786747E+01  0.0000000000000E+00
-0.6879789471537E+00 -0.4391496725262E+01  0.0000000000000E+00
-0.6880131576784E+00 -0.4319749651727E+01  0.0000000000000E+00
-0.6880473681574E+00 -0.4248002674121E+01  0.0000000000000E+00
-0.6880815786879E+00 -0.4176255588433E+01  0.0000000000000E+00
-0.6881157892169E+00 -0.4104508506016E+01  0.0000000000000E+00
-0.6881499998747E+00 -0.4032761153270E+01  0.0000000000000E+00
-0.6881842107091E+00 -0.3961013430288E+01  0.0000000000000E+00
-0.6882184207357E+00 -0.3889267401391E+01  0.0000000000000E+00
-0.6882526312818E+00 -0.3817520282954E+01  0.0000000000000E+00
-0.6882868416807E+00 -0.3745773473378E+01  0.0000000000000E+00
-0.6883210522198E+00 -0.3674026369788E+01  0.0000000000000E+00
-0.6883552627025E+00 -0.3602279384311E+01  0.0000000000000E+00
-0.6883894731906E+00 -0.3530532387496E+01  0.0000000000000E+00
-0.6884236836679E+00 -0.3458785413518E+01  0.0000000000000E+00
-0.6884643454325E+00 -0.3387038390169E+01  0.0000000000000E+00
-0.6885745160376E+00 -0.3315291536952E+01  0.0000000000000E+00
-0.6888482058696E+00 -0.3243545678343E+01  0.0000000000000E+00
-0.6893733378417E+00 -0.3171803277242E+01  0.0000000000000E+00
-0.6902229376220E+00 -0.3100068787708E+01  0.0000000000000E+00
-0.6914524955731E+00 -0.3028348486903E+01  0.0000000000000E+00
-0.6931018187637E+00 -0.2956650316406E+01  0.0000000000000E+00
-0.6951990196045E+00 -0.2884982352589E+01  0.0000000000000E+00
-0.6977647674599E+00 -0.2813354459075E+01  0.0000000000000E+00
-0.7008161266514E+00 -0.2741776941082E+01  0.0000000000000E+00
-0.7043697686811E+00 -0.2670259892960E+01  0.0000000000000E+00
-0.7084445067196E+00 -0.2598816442815E+01  0.0000000000000E+00
-0.7130639021557E+00 -0.2527460453188E+01  0.0000000000000E+00
-0.6600293208398E+00 -0.5324093127170E+01  0.0000000000000E+00
-0.6600586421374E+00 -0.5252229780970E+01  0.0000000000000E+00
-0.6600879632420E+00 -0.5180366907661E+01  0.0000000000000E+00
-0.6601172843312E+00 -0.5108504072055E+01  0.0000000000000E+00
-0.6601466054491E+00 -0.5036641166294E+01  0.0000000000000E+00
-0.6601759265702E+00 -0.4964778252506E+01  0.0000000000000E+00
-0.6602052476588E+00 -0.4892915418546E+01  0.0000000000000E+00
-0.6602345687703E+00 -0.4821052528380E+01  0.0000000000000E+00
-0.6602638898751E+00 -0.4749189654680E+01  0.0000000000000E+00
-0.6602932109782E+00 -0.4677326785232E+01  0.0000000000000E+00
-0.6603225320846E+00 -0.4605463907381E+01  0.0000000000000E+00
-0.6603518531934E+00 -0.4533601023929E+01  0.0000000000000E+00
-0.6603811742943E+00 -0.4461738159695E+01  0.0000000000000E+00
-0.6604104954013E+00 -0.4389875280715E+01  0.0000000000000E+00
-0.6604398165131E+00 -0.4318012389666E+01  0.0000000000000E+00
-0.6604691375858E+00 -0.4246149594701E+01  0.0000000000000E+00
-0.6604984587026E+00 -0.4174286691479E+01  0.0000000000000E+00
-0.6605277798181E+00 -0.4102423791534E+01  0.0000000000000E+00
-0.6605571010441E+00 -0.4030560620822E+01  0.0000000000000E+00
-0.6605864224214E+00 -0.3958697079278E+01  0.0000000000000E+00
-0.6606157431063E+00 -0.3886835234553E+01  0.0000000000000E+00
-0.6606450642365E+00 -0.3814972298530E+01  0.0000000000000E+00
-0.6606743852405E+00 -0.3743109671865E+01  0.0000000000000E+00
-0.6607037063647E+00 -0.3671246750713E+01  0.0000000000000E+00
-0.6607330274405E+00 -0.3599383947864E+01  0.0000000000000E+00
-0.6607623485211E+00 -0.3527521133658E+01  0.0000000000000E+00
-0.6607916695922E+00 -0.3455658342327E+01  0.0000000000000E+00
-0.6608271820363E+00 -0.3383795501543E+01  0.0000000000000E+00
-0.6609294029239E+00 -0.3311932830995E+01  0.0000000000000E+00
-0.6611885551124E+00 -0.3240071155118E+01  0.0000000000000E+00
-0.6616890192421E+00 -0.3168212936838E+01  0.0000000000000E+00
-0.6625008788941E+00 -0.3096362630219E+01  0.0000000000000E+00
-0.6636773888115E+00 -0.3024526512381E+01  0.0000000000000E+00
-0.6652567523117E+00 -0.2952712525275E+01  0.0000000000000E+00
-0.6672659491715E+00 -0.2880928744301E+01  0.0000000000000E+00
-0.6697248160429E+00 -0.2809185033845E+01  0.0000000000000E+00
-0.6726497297642E+00 -0.2737491699480E+01  0.0000000000000E+00
-0.6760566901262E+00 -0.2665858834137E+01  0.0000000000000E+00
-0.6799637523891E+00 -0.2594299567311E+01  0.0000000000000E+00
-0.6843935286741E+00 -0.2522827760987E+01  0.0000000000000E+00
-0.6325236847202E+00 -0.5323981948385E+01  0.0000000000000E+00
-0.6325473698101E+00 -0.5252007421663E+01  0.0000000000000E+00
-0.6325710547442E+00 -0.5180033368565E+01  0.0000000000000E+00
-0.6325947396659E+00 -0.5108059353228E+01  0.0000000000000E+00
-0.6326184246107E+00 -0.5036085267627E+01  0.0000000000000E+00
-0.6326421095581E+00 -0.4964111173988E+01  0.0000000000000E+00
-0.6326657944793E+00 -0.4892137160299E+01  0.0000000000000E+00
-0.6326894794189E+00 -0.4820163090318E+01  0.0000000000000E+00
-0.6327131643532E+00 -0.4748189036828E+01  0.0000000000000E+00
-0.6327368492860E+00 -0.4676214987597E+01  0.0000000000000E+00
-0.6327605342216E+00 -0.4604240929948E+01  0.0000000000000E+00
-0.6327842191590E+00 -0.4532266866692E+01  0.0000000000000E+00
-0.6328079040901E+00 -0.4460292822682E+01  0.0000000000000E+00
-0.6328315890261E+00 -0.4388318763904E+01  0.0000000000000E+00
-0.6328552739661E+00 -0.4316344693038E+01  0.0000000000000E+00
-0.6328789588743E+00 -0.4244370718405E+01  0.0000000000000E+00
-0.6329026438183E+00 -0.4172396635347E+01  0.0000000000000E+00
-0.6329263287612E+00 -0.4100422555571E+01  0.0000000000000E+00
-0.6329500137933E+00 -0.4028448204610E+01  0.0000000000000E+00
-0.6329736989476E+00 -0.3956473482242E+01  0.0000000000000E+00
-0.6329973835427E+00 -0.3884500459319E+01  0.0000000000000E+00
-0.6330210684975E+00 -0.3812526343410E+01  0.0000000000000E+00
-0.6330447533503E+00 -0.3740552537338E+01  0.0000000000000E+00
-0.6330684383002E+00 -0.3668578436321E+01  0.0000000000000E+00
-0.6330921232111E+00 -0.3596604453792E+01  0.0000000000000E+00
-0.6331158081257E+00 -0.3524630459889E+01  0.0000000000000E+00
-0.6331394930328E+00 -0.3452656488895E+01  0.0000000000000E+00
-0.6331691093977E+00 -0.3380682468371E+01  0.0000000000000E+00
-0.6332626338101E+00 -0.3308708618182E+01  0.0000000000000E+00
-0.6335065015978E+00 -0.3236735762724E+01  0.0000000000000E+00
-0.6339815511287E+00 -0.3164766364949E+01  0.0000000000000E+00
-0.6347549238968E+00 -0.3092804878925E+01  0.0000000000000E+00
-0.6358776390260E+00 -0.3020857581731E+01  0.0000000000000E+00
-0.6373862960841E+00 -0.2948932415677E+01  0.0000000000000E+00
-0.6393067422083E+00 -0.2877037455230E+01  0.0000000000000E+00
-0.6416579813431E+00 -0.2805182565506E+01  0.0000000000000E+00
-0.6444557028455E+00 -0.2733378052422E+01  0.0000000000000E+00
-0.6477152347862E+00 -0.2661634007542E+01  0.0000000000000E+00
-0.6514538745240E+00 -0.2589963561699E+01  0.0000000000000E+00
-0.6556932849090E+00 -0.2518380576342E+01  0.0000000000000E+00
-0.6050173301717E+00 -0.5323875426563E+01  0.0000000000000E+00
-0.6050346606139E+00 -0.5251794376356E+01  0.0000000000000E+00
-0.6050519909421E+00 -0.5179713800473E+01  0.0000000000000E+00
-0.6050693212612E+00 -0.5107633262407E+01  0.0000000000000E+00
-0.6050866515972E+00 -0.5035552653974E+01  0.0000000000000E+00
-0.6051039819352E+00 -0.4963472037490E+01  0.0000000000000E+00
-0.6051213122539E+00 -0.4891391501075E+01  0.0000000000000E+00
-0.6051386425861E+00 -0.4819310908284E+01  0.0000000000000E+00
-0.6051559729144E+00 -0.4747230332009E+01  0.0000000000000E+00
-0.6051733032417E+00 -0.4675149759999E+01  0.0000000000000E+00
-0.6051906335710E+00 -0.4603069179560E+01  0.0000000000000E+00
-0.6052079639016E+00 -0.4530988593503E+01  0.0000000000000E+00
-0.6052252942276E+00 -0.4458908026723E+01  0.0000000000000E+00
-0.6052426245572E+00 -0.4386827445152E+01  0.0000000000000E+00
-0.6052599548896E+00 -0.4314746851475E+01  0.0000000000000E+00
-0.6052772851989E+00 -0.4242666354174E+01  0.0000000000000E+00
-0.6052946155343E+00 -0.4170585748287E+01  0.0000000000000E+00
-0.6053119458689E+00 -0.4098505145687E+01  0.0000000000000E+00
-0.6053292762689E+00 -0.4026424271501E+01  0.0000000000000E+00
-0.6053466067582E+00 -0.3954343025358E+01  0.0000000000000E+00
-0.6053639368383E+00 -0.3882263481175E+01  0.0000000000000E+00
-0.6053812671817E+00 -0.3810182842388E+01  0.0000000000000E+00
-0.6053985974504E+00 -0.3738102513897E+01  0.0000000000000E+00
-0.6054159277901E+00 -0.3666021890026E+01  0.0000000000000E+00
-0.6054332581013E+00 -0.3593941384816E+01  0.0000000000000E+00
-0.6054505884152E+00 -0.3521860868216E+01  0.0000000000000E+00
-0.6054679187237E+00 -0.3449780374559E+01  0.0000000000000E+00
-0.6054909205744E+00 -0.3377699831298E+01  0.0000000000000E+00
-0.6055750300772E+00 -0.3305619458466E+01  0.0000000000000E+00
-0.6058028950302E+00 -0.3233540080424E+01  0.0000000000000E+00
-0.6062518115290E+00 -0.3161464160146E+01  0.0000000000000E+00
-0.6069859789808E+00 -0.3089396151707E+01  0.0000000000000E+00
-0.6080541808896E+00 -0.3017342332143E+01  0.0000000000000E+00
-0.6094914130764E+00 -0.2945310644110E+01  0.0000000000000E+00
-0.6113223900326E+00 -0.2873309161182E+01  0.0000000000000E+00
-0.6135652829999E+00 -0.2801347749173E+01  0.0000000000000E+00
-0.6162350938564E+00 -0.2729436714330E+01  0.0000000000000E+00
-0.6193464789437E+00 -0.2657586146908E+01  0.0000000000000E+00
-0.6229159777278E+00 -0.2585809179021E+01  0.0000000000000E+00
-0.6269643037844E+00 -0.2514119671604E+01  0.0000000000000E+00
-0.5775102859184E+00 -0.5323773580318E+01  0.0000000000000E+00
-0.5775205719974E+00 -0.5251590682275E+01  0.0000000000000E+00
-0.5775308580087E+00 -0.5179408259227E+01  0.0000000000000E+00
-0.5775411440147E+00 -0.5107225874050E+01  0.0000000000000E+00
-0.5775514300306E+00 -0.5035043418406E+01  0.0000000000000E+00
-0.5775617160478E+00 -0.4962860954699E+01  0.0000000000000E+00
-0.5775720020535E+00 -0.4890678571175E+01  0.0000000000000E+00
-0.5775822880672E+00 -0.4818496131195E+01  0.0000000000000E+00
-0.5775925740786E+00 -0.4746313707755E+01  0.0000000000000E+00
-0.5776028600893E+00 -0.4674131288585E+01  0.0000000000000E+00
-0.5776131461013E+00 -0.4601948860974E+01  0.0000000000000E+00
-0.5776234321141E+00 -0.4529766427739E+01  0.0000000000000E+00
-0.5776337181241E+00 -0.4457584013806E+01  0.0000000000000E+00
-0.5776440041362E+00 -0.4385401585062E+01  0.0000000000000E+00
-0.5776542901501E+00 -0.4313219144195E+01  0.0000000000000E+00
-0.5776645761502E+00 -0.4241036799839E+01  0.0000000000000E+00
-0.5776748621658E+00 -0.4168854346745E+01  0.0000000000000E+00
-0.5776851481809E+00 -0.4096671896942E+01  0.0000000000000E+00
-0.5776954342348E+00 -0.4024489175170E+01  0.0000000000000E+00
-0.5777057203418E+00 -0.3952306080915E+01  0.0000000000000E+00
-0.5777160062059E+00 -0.3880124691025E+01  0.0000000000000E+00
-0.5777262922262E+00 -0.3807942204984E+01  0.0000000000000E+00
-0.5777365782022E+00 -0.3735760029677E+01  0.0000000000000E+00
-0.5777468642204E+00 -0.3663577558573E+01  0.0000000000000E+00
-0.5777571502216E+00 -0.3591395206298E+01  0.0000000000000E+00
-0.5777674362245E+00 -0.3519212842616E+01  0.0000000000000E+00
-0.5777777222241E+00 -0.3447030501911E+01  0.0000000000000E+00
-0.5777934198500E+00 -0.3374848111529E+01  0.0000000000000E+00
-0.5778674247331E+00 -0.3302665891669E+01  0.0000000000000E+00
-0.5780785971417E+00 -0.3230484666653E+01  0.0000000000000E+00
-0.5785006908994E+00 -0.3158306899480E+01  0.0000000000000E+00
-0.5791949633263E+00 -0.3086137044228E+01  0.0000000000000E+00
-0.5802079623066E+00 -0.3013981377896E+01  0.0000000000000E+00
-0.5815730799163E+00 -0.2941847843469E+01  0.0000000000000E+00
-0.5833138979957E+00 -0.2869744513665E+01  0.0000000000000E+00
-0.5854477550877E+00 -0.2797681254969E+01  0.0000000000000E+00
-0.5879889655942E+00 -0.2725668373940E+01  0.0000000000000E+00
-0.5909515141187E+00 -0.2653715959586E+01  0.0000000000000E+00
-0.5943511822431E+00 -0.2581837145242E+01  0.0000000000000E+00
-0.5982077342652E+00 -0.2510045791352E+01  0.0000000000000E+00
-0.5500025810721E+00 -0.5323676427552E+01  0.0000000000000E+00
-0.5500051621844E+00 -0.5251396375228E+01  0.0000000000000E+00
-0.5500077432798E+00 -0.5179116798538E+01  0.0000000000000E+00
-0.5500103243739E+00 -0.5106837259769E+01  0.0000000000000E+00
-0.5500129054704E+00 -0.5034557650438E+01  0.0000000000000E+00
-0.5500154865673E+00 -0.4962278033034E+01  0.0000000000000E+00
-0.5500180676612E+00 -0.4889998495920E+01  0.0000000000000E+00
-0.5500206487572E+00 -0.4817718902275E+01  0.0000000000000E+00
-0.5500232298526E+00 -0.4745439325191E+01  0.0000000000000E+00
-0.5500258109479E+00 -0.4673159752384E+01  0.0000000000000E+00
-0.5500283920434E+00 -0.4600880171124E+01  0.0000000000000E+00
-0.5500309731392E+00 -0.4528600584232E+01  0.0000000000000E+00
-0.5500335542343E+00 -0.4456321016669E+01  0.0000000000000E+00
-0.5500361353298E+00 -0.4384041434275E+01  0.0000000000000E+00
-0.5500387164259E+00 -0.4311761839742E+01  0.0000000000000E+00
-0.5500412975184E+00 -0.4239482341849E+01  0.0000000000000E+00
-0.5500438786149E+00 -0.4167202735071E+01  0.0000000000000E+00
-0.5500464597113E+00 -0.4094923131590E+01  0.0000000000000E+00
-0.5500490408173E+00 -0.4022643255773E+01  0.0000000000000E+00
-0.5500516219367E+00 -0.3950363006972E+01  0.0000000000000E+00
-0.5500542029952E+00 -0.3878084464829E+01  0.0000000000000E+00
-0.5500567840928E+00 -0.3805804825061E+01  0.0000000000000E+00
-0.5500593651793E+00 -0.3733525496445E+01  0.0000000000000E+00
-0.5500619462764E+00 -0.3661245871634E+01  0.0000000000000E+00
-0.5500645273693E+00 -0.3588966365812E+01  0.0000000000000E+00
-0.5500671084626E+00 -0.3516686848567E+01  0.0000000000000E+00
-0.5500696895550E+00 -0.3444407354330E+01  0.0000000000000E+00
-0.5500774223573E+00 -0.3372127810348E+01  0.0000000000000E+00
-0.5501406620226E+00 -0.3299848436975E+01  0.0000000000000E+00
-0.5503344812889E+00 -0.3227570058499E+01  0.0000000000000E+00
-0.5507290917080E+00 -0.3155295137940E+01  0.0000000000000E+00
-0.5513828085130E+00 -0.3083028129382E+01  0.0000000000000E+00
-0.5523399439679E+00 -0.3010775309786E+01  0.0000000000000E+00
-0.5536322864063E+00 -0.2938544622451E+01  0.0000000000000E+00
-0.5552822850110E+00 -0.2866344139281E+01  0.0000000000000E+00
-0.5573064456313E+00 -0.2794183727398E+01  0.0000000000000E+00
-0.5597183951942E+00 -0.2722073693662E+01  0.0000000000000E+00
-0.5625314465576E+00 -0.2650024125886E+01  0.0000000000000E+00
-0.5657606234268E+00 -0.2578048158574E+01  0.0000000000000E+00
-0.5694247408186E+00 -0.2506159651703E+01  0.0000000000000E+00
-0.5225062773102E+00 -0.5323585549427E+01  0.0000000000000E+00
-0.5225125547183E+00 -0.5251214617559E+01  0.0000000000000E+00
-0.5225188320852E+00 -0.5178844161923E+01  0.0000000000000E+00
-0.5225251094488E+00 -0.5106473744255E+01  0.0000000000000E+00
-0.5225313868185E+00 -0.5034103255937E+01  0.0000000000000E+00
-0.5225376641889E+00 -0.4961732759536E+01  0.0000000000000E+00
-0.5225439415523E+00 -0.4889362343526E+01  0.0000000000000E+00
-0.5225502189206E+00 -0.4816991870914E+01  0.0000000000000E+00
-0.5225564962875E+00 -0.4744621414884E+01  0.0000000000000E+00
-0.5225627736540E+00 -0.4672250963135E+01  0.0000000000000E+00
-0.5225690510213E+00 -0.4599880502924E+01  0.0000000000000E+00
-0.5225753283891E+00 -0.4527510037073E+01  0.0000000000000E+00
-0.5225816057551E+00 -0.4455139590576E+01  0.0000000000000E+00
-0.5225878831225E+00 -0.4382769129228E+01  0.0000000000000E+00
-0.5225941604909E+00 -0.4310398655726E+01  0.0000000000000E+00
-0.5226004378509E+00 -0.4238028278987E+01  0.0000000000000E+00
-0.5226067152204E+00 -0.4165657793226E+01  0.0000000000000E+00
-0.5226129925896E+00 -0.4093287310765E+01  0.0000000000000E+00
-0.5226192699824E+00 -0.4020916555625E+01  0.0000000000000E+00
-0.5226255474077E+00 -0.3948545427033E+01  0.0000000000000E+00
-0.5226318246847E+00 -0.3876176007246E+01  0.0000000000000E+00
-0.5226381020570E+00 -0.3803805488452E+01  0.0000000000000E+00
-0.5226443794023E+00 -0.3731435281202E+01  0.0000000000000E+00
-0.5226506567734E+00 -0.3659064777384E+01  0.0000000000000E+00
-0.5226569341341E+00 -0.3586694392705E+01  0.0000000000000E+00
-0.5226632114958E+00 -0.3514323996589E+01  0.0000000000000E+00
-0.5226694888555E+00 -0.3441953623510E+01  0.0000000000000E+00
-0.5226806603422E+00 -0.3369583200623E+01  0.0000000000000E+00
-0.5227445633443E+00 -0.3297212948424E+01  0.0000000000000E+00
-0.5229325169635E+00 -0.3224843691173E+01  0.0000000000000E+00
-0.5233112221718E+00 -0.3152477891908E+01  0.0000000000000E+00
-0.5239360784398E+00 -0.3080120004719E+01  0.0000000000000E+00
-0.5248491824190E+00 -0.3007776306531E+01  0.0000000000000E+00
-0.5260807330134E+00 -0.2935454740938E+01  0.0000000000000E+00
-0.5276520569787E+00 -0.2863163379080E+01  0.0000000000000E+00
-0.5295788348463E+00 -0.2790912088678E+01  0.0000000000000E+00
-0.5318740121848E+00 -0.2718711176870E+01  0.0000000000000E+00
-0.5345502362561E+00 -0.2646570730355E+01  0.0000000000000E+00
-0.5376217795341E+00 -0.2574503884729E+01  0.0000000000000E+00
-0.5411065163029E+00 -0.2502524499530E+01  0.0000000000000E+00
-0.4950093927683E+00 -0.5323499235512E+01  0.0000000000000E+00
-0.4950187856832E+00 -0.5251041988381E+01  0.0000000000000E+00
-0.4950281785363E+00 -0.5178585218049E+01  0.0000000000000E+00
-0.4950375713844E+00 -0.5106128485733E+01  0.0000000000000E+00
-0.4950469642418E+00 -0.5033671682681E+01  0.0000000000000E+00
-0.4950563571002E+00 -0.4961214871536E+01  0.0000000000000E+00
-0.4950657499481E+00 -0.4888758140879E+01  0.0000000000000E+00
-0.4950751428034E+00 -0.4816301353551E+01  0.0000000000000E+00
-0.4950845356566E+00 -0.4743844582825E+01  0.0000000000000E+00
-0.4950939285092E+00 -0.4671387816387E+01  0.0000000000000E+00
-0.4951033213628E+00 -0.4598931041475E+01  0.0000000000000E+00
-0.4951127142173E+00 -0.4526474260917E+01  0.0000000000000E+00
-0.4951221070692E+00 -0.4454017499736E+01  0.0000000000000E+00
-0.4951314999230E+00 -0.4381560723686E+01  0.0000000000000E+00
-0.4951408927784E+00 -0.4309103935468E+01  0.0000000000000E+00
-0.4951502856213E+00 -0.4236647244128E+01  0.0000000000000E+00
-0.4951596784783E+00 -0.4164190443636E+01  0.0000000000000E+00
-0.4951690713349E+00 -0.4091733646448E+01  0.0000000000000E+00
-0.4951784642268E+00 -0.4019276576257E+01  0.0000000000000E+00
-0.4951878571673E+00 -0.3946819132167E+01  0.0000000000000E+00
-0.4951972498859E+00 -0.3874363398920E+01  0.0000000000000E+00
-0.4952066427472E+00 -0.3801906565356E+01  0.0000000000000E+00
-0.4952160355681E+00 -0.3729450043708E+01  0.0000000000000E+00
-0.4952254284274E+00 -0.3656993225137E+01  0.0000000000000E+00
-0.4952348212713E+00 -0.3584536525848E+01  0.0000000000000E+00
-0.4952442141167E+00 -0.3512079815108E+01  0.0000000000000E+00
-0.4952536069591E+00 -0.3439623127432E+01  0.0000000000000E+00
-0.4952676363452E+00 -0.3367166389888E+01  0.0000000000000E+00
-0.4953316219005E+00 -0.3294709823110E+01  0.0000000000000E+00
-0.4955131290903E+00 -0.3222254251326E+01  0.0000000000000E+00
-0.4958753483084E+00 -0.3149802137595E+01  0.0000000000000E+00
-0.4964707632630E+00 -0.3077357936009E+01  0.0000000000000E+00
-0.4973392549936E+00 -0.3004927923463E+01  0.0000000000000E+00
-0.4985094329770E+00 -0.2932520043829E+01  0.0000000000000E+00
-0.5000015015369E+00 -0.2860142367521E+01  0.0000000000000E+00
-0.5018303158908E+00 -0.2787804762828E+01  0.0000000000000E+00
-0.5040081402509E+00 -0.2715517537156E+01  0.0000000000000E+00
-0.5065469562761E+00 -0.2643290776143E+01  0.0000000000000E+00
-0.5094602852159E+00 -0.2571137616422E+01  0.0000000000000E+00
-0.5127650606193E+00 -0.2499071917115E+01  0.0000000000000E+00
-0.4675119560170E+00 -0.5323417500680E+01  0.0000000000000E+00
-0.4675239122207E+00 -0.5250878517440E+01  0.0000000000000E+00
-0.4675358683457E+00 -0.5178340011539E+01  0.0000000000000E+00
-0.4675478244644E+00 -0.5105801543694E+01  0.0000000000000E+00
-0.4675597805948E+00 -0.5033263005035E+01  0.0000000000000E+00
-0.4675717367266E+00 -0.4960724458274E+01  0.0000000000000E+00
-0.4675836928450E+00 -0.4888185992091E+01  0.0000000000000E+00
-0.4675956489728E+00 -0.4815647469173E+01  0.0000000000000E+00
-0.4676076050979E+00 -0.4743108962877E+01  0.0000000000000E+00
-0.4676195612222E+00 -0.4670570460872E+01  0.0000000000000E+00
-0.4676315173480E+00 -0.4598031950385E+01  0.0000000000000E+00
-0.4676434734747E+00 -0.4525493434245E+01  0.0000000000000E+00
-0.4676554295982E+00 -0.4452954937504E+01  0.0000000000000E+00
-0.4676673857241E+00 -0.4380416425877E+01  0.0000000000000E+00
-0.4676793418521E+00 -0.4307877902069E+01  0.0000000000000E+00
-0.4676912979641E+00 -0.4235339475247E+01  0.0000000000000E+00
-0.4677032540940E+00 -0.4162800939151E+01  0.0000000000000E+00
-0.4677152102235E+00 -0.4090262406362E+01  0.0000000000000E+00
-0.4677271663979E+00 -0.4017723600262E+01  0.0000000000000E+00
-0.4677391226341E+00 -0.3945184419842E+01  0.0000000000000E+00
-0.4677510785880E+00 -0.3872646952194E+01  0.0000000000000E+00
-0.4677630347234E+00 -0.3800108382989E+01  0.0000000000000E+00
-0.4677749908074E+00 -0.3727570126050E+01  0.0000000000000E+00
-0.4677869469404E+00 -0.3655031571855E+01  0.0000000000000E+00
-0.4677989030536E+00 -0.3582493137075E+01  0.0000000000000E+00
-0.4678108591688E+00 -0.3509954690832E+01  0.0000000000000E+00
-0.4678228152802E+00 -0.3437416267679E+01  0.0000000000000E+00
-0.4678391503517E+00 -0.3364877794601E+01  0.0000000000000E+00
-0.4679026662470E+00 -0.3292339492362E+01  0.0000000000000E+00
-0.4680771747958E+00 -0.3219802185161E+01  0.0000000000000E+00
-0.4684223558139E+00 -0.3147268336075E+01  0.0000000000000E+00
-0.4689877772481E+00 -0.3074742399202E+01  0.0000000000000E+00
-0.4698111045257E+00 -0.3002230651404E+01  0.0000000000000E+00
-0.4709193576986E+00 -0.2929741036818E+01  0.0000000000000E+00
-0.4723316186537E+00 -0.2857281625172E+01  0.0000000000000E+00
-0.4740619172986E+00 -0.2784862285292E+01  0.0000000000000E+00
-0.4761218364910E+00 -0.2712493324837E+01  0.0000000000000E+00
-0.4785226922800E+00 -0.2640184828439E+01  0.0000000000000E+00
-0.4812772546976E+00 -0.2567949933715E+01  0.0000000000000E+00
-0.4844015165550E+00 -0.2495802499394E+01  0.0000000000000E+00
-0.4400139958858E+00 -0.5323340359078E+01  0.0000000000000E+00
-0.4400279919901E+00 -0.5250724233033E+01  0.0000000000000E+00
-0.4400419880023E+00 -0.5178108584833E+01  0.0000000000000E+00
-0.4400559840071E+00 -0.5105492974730E+01  0.0000000000000E+00
-0.4400699800256E+00 -0.5032877293738E+01  0.0000000000000E+00
-0.4400839760457E+00 -0.4960261604635E+01  0.0000000000000E+00
-0.4400979720502E+00 -0.4887645996196E+01  0.0000000000000E+00
-0.4401119680657E+00 -0.4815030330962E+01  0.0000000000000E+00
-0.4401259640780E+00 -0.4742414682367E+01  0.0000000000000E+00
-0.4401399600894E+00 -0.4669799038068E+01  0.0000000000000E+00
-0.4401539561025E+00 -0.4597183385277E+01  0.0000000000000E+00
-0.4401679521167E+00 -0.4524567726828E+01  0.0000000000000E+00
-0.4401819481271E+00 -0.4451952087798E+01  0.0000000000000E+00
-0.4401959441404E+00 -0.4379336433867E+01  0.0000000000000E+00
-0.4402099401560E+00 -0.4306720767741E+01  0.0000000000000E+00
-0.4402239361530E+00 -0.4234105198705E+01  0.0000000000000E+00
-0.4402379321710E+00 -0.4161489520278E+01  0.0000000000000E+00
-0.4402519281884E+00 -0.4088873845163E+01  0.0000000000000E+00
-0.4402659242585E+00 -0.4016257896445E+01  0.0000000000000E+00
-0.4402799204008E+00 -0.3943641573009E+01  0.0000000000000E+00
-0.4402939162127E+00 -0.3871026964168E+01  0.0000000000000E+00
-0.4403079122371E+00 -0.3798411252596E+01  0.0000000000000E+00
-0.4403219082013E+00 -0.3725795853624E+01  0.0000000000000E+00
-0.4403359042228E+00 -0.3653180157079E+01  0.0000000000000E+00
-0.4403499002212E+00 -0.3580564580077E+01  0.0000000000000E+00
-0.4403638962219E+00 -0.3507948991599E+01  0.0000000000000E+00
-0.4403778922181E+00 -0.3435333426236E+01  0.0000000000000E+00
-0.4403960095905E+00 -0.3362717810893E+01  0.0000000000000E+00
-0.4404585324421E+00 -0.3290102366458E+01  0.0000000000000E+00
-0.4406255189670E+00 -0.3217487917104E+01  0.0000000000000E+00
-0.4409531384033E+00 -0.3144876925924E+01  0.0000000000000E+00
-0.4414880429367E+00 -0.3072273847020E+01  0.0000000000000E+00
-0.4422656823826E+00 -0.2999684957224E+01  0.0000000000000E+00
-0.4433114873692E+00 -0.2927118200923E+01  0.0000000000000E+00
-0.4446434173429E+00 -0.2854581647199E+01  0.0000000000000E+00
-0.4462746769046E+00 -0.2782085165382E+01  0.0000000000000E+00
-0.4482161675592E+00 -0.2709639063370E+01  0.0000000000000E+00
-0.4504785397397E+00 -0.2637253424850E+01  0.0000000000000E+00
-0.4530738122668E+00 -0.2564941388364E+01  0.0000000000000E+00
-0.4560170372116E+00 -0.2492716812269E+01  0.0000000000000E+00
-0.4125155410266E+00 -0.5323267824074E+01  0.0000000000000E+00
-0.4125310822958E+00 -0.5250579161892E+01  0.0000000000000E+00
-0.4125466234627E+00 -0.5177890978032E+01  0.0000000000000E+00
-0.4125621646215E+00 -0.5105202832309E+01  0.0000000000000E+00
-0.4125777057955E+00 -0.5032514615624E+01  0.0000000000000E+00
-0.4125932469712E+00 -0.4959826390821E+01  0.0000000000000E+00
-0.4126087881296E+00 -0.4887138246762E+01  0.0000000000000E+00
-0.4126243293002E+00 -0.4814450045851E+01  0.0000000000000E+00
-0.4126398704672E+00 -0.4741761861597E+01  0.0000000000000E+00
-0.4126554116333E+00 -0.4669073681642E+01  0.0000000000000E+00
-0.4126709528013E+00 -0.4596385493188E+01  0.0000000000000E+00
-0.4126864939704E+00 -0.4523697299069E+01  0.0000000000000E+00
-0.4127020351354E+00 -0.4451009124388E+01  0.0000000000000E+00
-0.4127175763036E+00 -0.4378320934792E+01  0.0000000000000E+00
-0.4127331174743E+00 -0.4305632732989E+01  0.0000000000000E+00
-0.4127486586243E+00 -0.4232944628373E+01  0.0000000000000E+00
-0.4127641997977E+00 -0.4160256414256E+01  0.0000000000000E+00
-0.4127797409704E+00 -0.4087568203454E+01  0.0000000000000E+00
-0.4127952822017E+00 -0.4014879718777E+01  0.0000000000000E+00
-0.4128108235132E+00 -0.3942190859007E+01  0.0000000000000E+00
-0.4128263644577E+00 -0.3869503715544E+01  0.0000000000000E+00
-0.4128419056382E+00 -0.3796815468250E+01  0.0000000000000E+00
-0.4128574467518E+00 -0.3724127533868E+01  0.0000000000000E+00
-0.4128729879291E+00 -0.3651439301615E+01  0.0000000000000E+00
-0.4128885290808E+00 -0.3578751189024E+01  0.0000000000000E+00
-0.4129040702349E+00 -0.3506063064947E+01  0.0000000000000E+00
-0.4129196113841E+00 -0.3433374964007E+01  0.0000000000000E+00
-0.4129390163252E+00 -0.3360686813037E+01  0.0000000000000E+00
-0.4130000514001E+00 -0.3287998833039E+01  0.0000000000000E+00
-0.4131590211661E+00 -0.3215311848162E+01  0.0000000000000E+00
-0.4134685842826E+00 -0.3142628321515E+01  0.0000000000000E+00
-0.4139724771730E+00 -0.3069952707202E+01  0.0000000000000E+00
-0.4147039340397E+00 -0.2997291282030E+01  0.0000000000000E+00
-0.4156867960885E+00 -0.2924651990618E+01  0.0000000000000E+00
-0.4169379003205E+00 -0.2852042901440E+01  0.0000000000000E+00
-0.4184696260332E+00 -0.2779473884304E+01  0.0000000000000E+00
-0.4202921933796E+00 -0.2706955247331E+01  0.0000000000000E+00
-0.4224155871704E+00 -0.2634497073317E+01  0.0000000000000E+00
-0.4248510750209E+00 -0.2562112501675E+01  0.0000000000000E+00
-0.4276127682592E+00 -0.2489815390415E+01  0.0000000000000E+00
-0.3850166215965E+00 -0.5323199908419E+01  0.0000000000000E+00
-0.3850332434525E+00 -0.5250443329522E+01  0.0000000000000E+00
-0.3850498651991E+00 -0.5177687229394E+01  0.0000000000000E+00
-0.3850664869370E+00 -0.5104931167438E+01  0.0000000000000E+00
-0.3850831086911E+00 -0.5032175034455E+01  0.0000000000000E+00
-0.3850997304471E+00 -0.4959418893345E+01  0.0000000000000E+00
-0.3851163521846E+00 -0.4886662833056E+01  0.0000000000000E+00
-0.3851329739352E+00 -0.4813906715861E+01  0.0000000000000E+00
-0.3851495956819E+00 -0.4741150615338E+01  0.0000000000000E+00
-0.3851662174276E+00 -0.4668394519119E+01  0.0000000000000E+00
-0.3851828391753E+00 -0.4595638414392E+01  0.0000000000000E+00
-0.3851994609243E+00 -0.4522882303996E+01  0.0000000000000E+00
-0.3852160826688E+00 -0.4450126213056E+01  0.0000000000000E+00
-0.3852327044167E+00 -0.4377370107187E+01  0.0000000000000E+00
-0.3852493261674E+00 -0.4304613989098E+01  0.0000000000000E+00
-0.3852659478959E+00 -0.4231857968288E+01  0.0000000000000E+00
-0.3852825696495E+00 -0.4159101837875E+01  0.0000000000000E+00
-0.3852991914023E+00 -0.4086345710780E+01  0.0000000000000E+00
-0.3853158132177E+00 -0.4013589309554E+01  0.0000000000000E+00
-0.3853324351189E+00 -0.3940832532884E+01  0.0000000000000E+00
-0.3853490566276E+00 -0.3868077474125E+01  0.0000000000000E+00
-0.3853656783887E+00 -0.3795321310504E+01  0.0000000000000E+00
-0.3853823000783E+00 -0.3722565460087E+01  0.0000000000000E+00
-0.3853989218360E+00 -0.3649809311520E+01  0.0000000000000E+00
-0.3854155435663E+00 -0.3577053282728E+01  0.0000000000000E+00
-0.3854321652992E+00 -0.3504297242439E+01  0.0000000000000E+00
-0.3854487870269E+00 -0.3431541225308E+01  0.0000000000000E+00
-0.3854690149617E+00 -0.3358785158100E+01  0.0000000000000E+00
-0.3855280976860E+00 -0.3286029261925E+01  0.0000000000000E+00
-0.3856785861201E+00 -0.3213274360907E+01  0.0000000000000E+00
-0.3859696283455E+00 -0.3140522918172E+01  0.0000000000000E+00
-0.3864420450237E+00 -0.3067779387826E+01  0.0000000000000E+00
-0.3871268547442E+00 -0.2995050046650E+01  0.0000000000000E+00
-0.3880463092921E+00 -0.2922342839484E+01  0.0000000000000E+00
-0.3892161232196E+00 -0.2849665834232E+01  0.0000000000000E+00
-0.3906478505235E+00 -0.2777028901146E+01  0.0000000000000E+00
-0.3923510300071E+00 -0.2704442348559E+01  0.0000000000000E+00
-0.3943349808526E+00 -0.2631916258431E+01  0.0000000000000E+00
-0.3966102194759E+00 -0.2559463770993E+01  0.0000000000000E+00
-0.3991899164598E+00 -0.2487098743927E+01  0.0000000000000E+00
-0.3575172673222E+00 -0.5323136624027E+01  0.0000000000000E+00
-0.3575345349140E+00 -0.5250316759750E+01  0.0000000000000E+00
-0.3575518023922E+00 -0.5177497374659E+01  0.0000000000000E+00
-0.3575690698613E+00 -0.5104678027772E+01  0.0000000000000E+00
-0.3575863373473E+00 -0.5031858609797E+01  0.0000000000000E+00
-0.3576036048352E+00 -0.4959039183688E+01  0.0000000000000E+00
-0.3576208723039E+00 -0.4886219838469E+01  0.0000000000000E+00
-0.3576381397861E+00 -0.4813400436296E+01  0.0000000000000E+00
-0.3576554072644E+00 -0.4740581050809E+01  0.0000000000000E+00
-0.3576726747416E+00 -0.4667761669630E+01  0.0000000000000E+00
-0.3576899422209E+00 -0.4594942279935E+01  0.0000000000000E+00
-0.3577072097015E+00 -0.4522122884566E+01  0.0000000000000E+00
-0.3577244771775E+00 -0.4449303508671E+01  0.0000000000000E+00
-0.3577417446571E+00 -0.4376484117833E+01  0.0000000000000E+00
-0.3577590121395E+00 -0.4303664714765E+01  0.0000000000000E+00
-0.3577762795988E+00 -0.4230845409060E+01  0.0000000000000E+00
-0.3577935470842E+00 -0.4158025993657E+01  0.0000000000000E+00
-0.3578108145688E+00 -0.4085206581575E+01  0.0000000000000E+00
-0.3578280821184E+00 -0.4012386895123E+01  0.0000000000000E+00
-0.3578453497572E+00 -0.3939566832902E+01  0.0000000000000E+00
-0.3578626169882E+00 -0.3866748490085E+01  0.0000000000000E+00
-0.3578798844814E+00 -0.3793929041445E+01  0.0000000000000E+00
-0.3578971519003E+00 -0.3721109906281E+01  0.0000000000000E+00
-0.3579144193900E+00 -0.3648290472709E+01  0.0000000000000E+00
-0.3579316868513E+00 -0.3575471159015E+01  0.0000000000000E+00
-0.3579489543152E+00 -0.3502651833814E+01  0.0000000000000E+00
-0.3579662217737E+00 -0.3429832531792E+01  0.0000000000000E+00
-0.3579868378543E+00 -0.3357013179648E+01  0.0000000000000E+00
-0.3580435333807E+00 -0.3284193998594E+01  0.0000000000000E+00
-0.3581851056367E+00 -0.3211375812731E+01  0.0000000000000E+00
-0.3584571921260E+00 -0.3138561085200E+01  0.0000000000000E+00
-0.3588976977485E+00 -0.3065754270109E+01  0.0000000000000E+00
-0.3595354254811E+00 -0.2992961644217E+01  0.0000000000000E+00
-0.3603910376897E+00 -0.2920191152566E+01  0.0000000000000E+00
-0.3614791264738E+00 -0.2847450862530E+01  0.0000000000000E+00
-0.3628104205330E+00 -0.2774750644777E+01  0.0000000000000E+00
-0.3643937773215E+00 -0.2702100807835E+01  0.0000000000000E+00
-0.3662378503886E+00 -0.2629511432888E+01  0.0000000000000E+00
-0.3683524049554E+00 -0.2556995660926E+01  0.0000000000000E+00
-0.3707496708578E+00 -0.2484567349327E+01  0.0000000000000E+00
-0.3300175081818E+00 -0.5323077982041E+01  0.0000000000000E+00
-0.3300350166370E+00 -0.5250199474862E+01  0.0000000000000E+00
-0.3300525249770E+00 -0.5177321447255E+01  0.0000000000000E+00
-0.3300700333078E+00 -0.5104443457883E+01  0.0000000000000E+00
-0.3300875416556E+00 -0.5031565397365E+01  0.0000000000000E+00
-0.3301050500055E+00 -0.4958687328708E+01  0.0000000000000E+00
-0.3301225583358E+00 -0.4885809341005E+01  0.0000000000000E+00
-0.3301400666799E+00 -0.4812931296303E+01  0.0000000000000E+00
-0.3301575750200E+00 -0.4740053268299E+01  0.0000000000000E+00
-0.3301750833590E+00 -0.4667175244608E+01  0.0000000000000E+00
-0.3301925917001E+00 -0.4594297212393E+01  0.0000000000000E+00
-0.3302101000425E+00 -0.4521419174500E+01  0.0000000000000E+00
-0.3302276083803E+00 -0.4448541156096E+01  0.0000000000000E+00
-0.3302451167216E+00 -0.4375663122738E+01  0.0000000000000E+00
-0.3302626250659E+00 -0.4302785077140E+01  0.0000000000000E+00
-0.3302801333868E+00 -0.4229907128983E+01  0.0000000000000E+00
-0.3302976417340E+00 -0.4157029071040E+01  0.0000000000000E+00
-0.3303151500805E+00 -0.4084151016420E+01  0.0000000000000E+00
-0.3303326584929E+00 -0.4011272687210E+01  0.0000000000000E+00
-0.3303501669957E+00 -0.3938393981927E+01  0.0000000000000E+00
-0.3303676750851E+00 -0.3865516997434E+01  0.0000000000000E+00
-0.3303851834403E+00 -0.3792638906227E+01  0.0000000000000E+00
-0.3304026917202E+00 -0.3719761128748E+01  0.0000000000000E+00
-0.3304202000718E+00 -0.3646883052621E+01  0.0000000000000E+00
-0.3304377083946E+00 -0.3574005096469E+01  0.0000000000000E+00
-0.3304552167202E+00 -0.3501127128800E+01  0.0000000000000E+00
-0.3304727250402E+00 -0.3428249184329E+01  0.0000000000000E+00
-0.3304933243971E+00 -0.3355371189696E+01  0.0000000000000E+00
-0.3305472278566E+00 -0.3282493366204E+01  0.0000000000000E+00
-0.3306794790660E+00 -0.3209616537935E+01  0.0000000000000E+00
-0.3309322049519E+00 -0.3136743168043E+01  0.0000000000000E+00
-0.3313403946528E+00 -0.3063877710640E+01  0.0000000000000E+00
-0.3319306355326E+00 -0.2991026442460E+01  0.0000000000000E+00
-0.3327220005397E+00 -0.2918197308737E+01  0.0000000000000E+00
-0.3337279593177E+00 -0.2845398376352E+01  0.0000000000000E+00
-0.3349584152713E+00 -0.2772639516359E+01  0.0000000000000E+00
-0.3364215445074E+00 -0.2699931037465E+01  0.0000000000000E+00
-0.3381253349371E+00 -0.2627283020136E+01  0.0000000000000E+00
-0.3400788005919E+00 -0.2554708606065E+01  0.0000000000000E+00
-0.3422932305587E+00 -0.2482221652349E+01  0.0000000000000E+00
-0.3025173741994E+00 -0.5323023992809E+01  0.0000000000000E+00
-0.3025347486700E+00 -0.5250091495555E+01  0.0000000000000E+00
-0.3025521230263E+00 -0.5177159478229E+01  0.0000000000000E+00
-0.3025694973735E+00 -0.5104227499166E+01  0.0000000000000E+00
-0.3025868717377E+00 -0.5031295448904E+01  0.0000000000000E+00
-0.3026042461038E+00 -0.4958363390497E+01  0.0000000000000E+00
-0.3026216204506E+00 -0.4885431413104E+01  0.0000000000000E+00
-0.3026389948110E+00 -0.4812499378670E+01  0.0000000000000E+00
-0.3026563691674E+00 -0.4739567360947E+01  0.0000000000000E+00
-0.3026737435228E+00 -0.4666635347538E+01  0.0000000000000E+00
-0.3026911178802E+00 -0.4593703325601E+01  0.0000000000000E+00
-0.3027084922390E+00 -0.4520771297981E+01  0.0000000000000E+00
-0.3027258665931E+00 -0.4447839289864E+01  0.0000000000000E+00
-0.3027432409508E+00 -0.4374907266782E+01  0.0000000000000E+00
-0.3027606153114E+00 -0.4301975231452E+01  0.0000000000000E+00
-0.3027779896487E+00 -0.4229043293634E+01  0.0000000000000E+00
-0.3027953640123E+00 -0.4156111245949E+01  0.0000000000000E+00
-0.3028127383750E+00 -0.4083179201590E+01  0.0000000000000E+00
-0.3028301128032E+00 -0.4010246882436E+01  0.0000000000000E+00
-0.3028474873211E+00 -0.3937314186932E+01  0.0000000000000E+00
-0.3028648614287E+00 -0.3864383213492E+01  0.0000000000000E+00
-0.3028822358002E+00 -0.3791451132519E+01  0.0000000000000E+00
-0.3028996100969E+00 -0.3718519365506E+01  0.0000000000000E+00
-0.3029169844648E+00 -0.3645587299624E+01  0.0000000000000E+00
-0.3029343588041E+00 -0.3572655353805E+01  0.0000000000000E+00
-0.3029517331461E+00 -0.3499723396461E+01  0.0000000000000E+00
-0.3029691074826E+00 -0.3426791462332E+01  0.0000000000000E+00
-0.3029893152705E+00 -0.3353859478003E+01  0.0000000000000E+00
-0.3030400518178E+00 -0.3280927664864E+01  0.0000000000000E+00
-0.3031626071350E+00 -0.3207996846977E+01  0.0000000000000E+00
-0.3033955975712E+00 -0.3135069487508E+01  0.0000000000000E+00
-0.3037710965031E+00 -0.3062150040572E+01  0.0000000000000E+00
-0.3043134756817E+00 -0.2989244782884E+01  0.0000000000000E+00
-0.3050402186385E+00 -0.2916361659850E+01  0.0000000000000E+00
-0.3059636725581E+00 -0.2843508737899E+01  0.0000000000000E+00
-0.3070929155528E+00 -0.2770695888439E+01  0.0000000000000E+00
-0.3084354423833E+00 -0.2697933420346E+01  0.0000000000000E+00
-0.3099985753175E+00 -0.2625231413420E+01  0.0000000000000E+00
-0.3117905772020E+00 -0.2552603010005E+01  0.0000000000000E+00
-0.3138217963728E+00 -0.2480062066937E+01  0.0000000000000E+00
-0.2750168958398E+00 -0.5322974665910E+01  0.0000000000000E+00
-0.2750337919435E+00 -0.5249992840987E+01  0.0000000000000E+00
-0.2750506879359E+00 -0.5177011496316E+01  0.0000000000000E+00
-0.2750675839195E+00 -0.5104030189934E+01  0.0000000000000E+00
-0.2750844799195E+00 -0.5031048812306E+01  0.0000000000000E+00
-0.2751013759215E+00 -0.4958067426526E+01  0.0000000000000E+00
-0.2751182719047E+00 -0.4885086121815E+01  0.0000000000000E+00
-0.2751351679011E+00 -0.4812104760025E+01  0.0000000000000E+00
-0.2751520638936E+00 -0.4739123414957E+01  0.0000000000000E+00
-0.2751689598851E+00 -0.4666142074206E+01  0.0000000000000E+00
-0.2751858558786E+00 -0.4593160724922E+01  0.0000000000000E+00
-0.2752027518735E+00 -0.4520179369950E+01  0.0000000000000E+00
-0.2752196478638E+00 -0.4447198034494E+01  0.0000000000000E+00
-0.2752365438575E+00 -0.4374216684064E+01  0.0000000000000E+00
-0.2752534398541E+00 -0.4301235321377E+01  0.0000000000000E+00
-0.2752703358282E+00 -0.4228254056268E+01  0.0000000000000E+00
-0.2752872318276E+00 -0.4155272681218E+01  0.0000000000000E+00
-0.2753041278263E+00 -0.4082291309496E+01  0.0000000000000E+00
-0.2753210238887E+00 -0.4009309662793E+01  0.0000000000000E+00
-0.2753379200382E+00 -0.3936327639486E+01  0.0000000000000E+00
-0.2753548157888E+00 -0.3863347339407E+01  0.0000000000000E+00
-0.2753717117960E+00 -0.3790365931046E+01  0.0000000000000E+00
-0.2753886077305E+00 -0.3717384836858E+01  0.0000000000000E+00
-0.2754055037342E+00 -0.3644403443598E+01  0.0000000000000E+00
-0.2754223997100E+00 -0.3571422170483E+01  0.0000000000000E+00
-0.2754392956886E+00 -0.3498440885835E+01  0.0000000000000E+00
-0.2754561916617E+00 -0.3425459624418E+01  0.0000000000000E+00
-0.2754756635006E+00 -0.3352478312766E+01  0.0000000000000E+00
-0.2755228887557E+00 -0.3279497172348E+01  0.0000000000000E+00
-0.2756354038003E+00 -0.3206517027209E+01  0.0000000000000E+00
-0.2758483144056E+00 -0.3133540340526E+01  0.0000000000000E+00
-0.2761907781866E+00 -0.3060571566416E+01  0.0000000000000E+00
-0.2766849512805E+00 -0.2987616981575E+01  0.0000000000000E+00
-0.2773467278036E+00 -0.2914684531570E+01  0.0000000000000E+00
-0.2781873324780E+00 -0.2841782282414E+01  0.0000000000000E+00
-0.2792150181259E+00 -0.2768920105842E+01  0.0000000000000E+00
-0.2804365981627E+00 -0.2696108310878E+01  0.0000000000000E+00
-0.2818587292092E+00 -0.2623356976720E+01  0.0000000000000E+00
-0.2834889229307E+00 -0.2550679246303E+01  0.0000000000000E+00
-0.2853365869109E+00 -0.2478088976226E+01  0.0000000000000E+00
-0.2475161039732E+00 -0.5322930010134E+01  0.0000000000000E+00
-0.2475322081979E+00 -0.5249903528737E+01  0.0000000000000E+00
-0.2475483123165E+00 -0.5176877527886E+01  0.0000000000000E+00
-0.2475644164267E+00 -0.5103851565348E+01  0.0000000000000E+00
-0.2475805205527E+00 -0.5030825531519E+01  0.0000000000000E+00
-0.2475966246804E+00 -0.4957799489534E+01  0.0000000000000E+00
-0.2476127287903E+00 -0.4884773528669E+01  0.0000000000000E+00
-0.2476288329127E+00 -0.4811747510688E+01  0.0000000000000E+00
-0.2476449370315E+00 -0.4738721509440E+01  0.0000000000000E+00
-0.2476610411493E+00 -0.4665695512512E+01  0.0000000000000E+00
-0.2476771452690E+00 -0.4592669507045E+01  0.0000000000000E+00
-0.2476932493899E+00 -0.4519643495887E+01  0.0000000000000E+00
-0.2477093535065E+00 -0.4446617504257E+01  0.0000000000000E+00
-0.2477254576265E+00 -0.4373591497643E+01  0.0000000000000E+00
-0.2477415617491E+00 -0.4300565478765E+01  0.0000000000000E+00
-0.2477576658502E+00 -0.4227539557526E+01  0.0000000000000E+00
-0.2477737699756E+00 -0.4154513526277E+01  0.0000000000000E+00
-0.2477898741003E+00 -0.4081487498359E+01  0.0000000000000E+00
-0.2478059782856E+00 -0.4008461195292E+01  0.0000000000000E+00
-0.2478220825540E+00 -0.3935434515389E+01  0.0000000000000E+00
-0.2478381864422E+00 -0.3862409559770E+01  0.0000000000000E+00
-0.2478542905749E+00 -0.3789383495190E+01  0.0000000000000E+00
-0.2478703946383E+00 -0.3716357744975E+01  0.0000000000000E+00
-0.2478864987677E+00 -0.3643331695506E+01  0.0000000000000E+00
-0.2479026028705E+00 -0.3570305766255E+01  0.0000000000000E+00
-0.2479187069760E+00 -0.3497279825464E+01  0.0000000000000E+00
-0.2479348110763E+00 -0.3424253907917E+01  0.0000000000000E+00
-0.2479532334563E+00 -0.3351227940105E+01  0.0000000000000E+00
-0.2479966339099E+00 -0.3278202143567E+01  0.0000000000000E+00
-0.2480987951732E+00 -0.3205177342333E+01  0.0000000000000E+00
-0.2482913124399E+00 -0.3132155999588E+01  0.0000000000000E+00
-0.2486004275633E+00 -0.3059142569453E+01  0.0000000000000E+00
-0.2490460810672E+00 -0.2986143328606E+01  0.0000000000000E+00
-0.2496425776532E+00 -0.2913166222759E+01  0.0000000000000E+00
-0.2504000195790E+00 -0.2840219317550E+01  0.0000000000000E+00
-0.2513258343785E+00 -0.2767312485008E+01  0.0000000000000E+00
-0.2524261541228E+00 -0.2694456034294E+01  0.0000000000000E+00
-0.2537069697818E+00 -0.2621660044058E+01  0.0000000000000E+00
-0.2551750418434E+00 -0.2548937657772E+01  0.0000000000000E+00
-0.2568388371374E+00 -0.2476302731818E+01  0.0000000000000E+00
-0.2200150294116E+00 -0.5322890033441E+01  0.0000000000000E+00
-0.2200300590578E+00 -0.5249823574728E+01  0.0000000000000E+00
-0.2200450886051E+00 -0.5176757596824E+01  0.0000000000000E+00
-0.2200601181446E+00 -0.5103691657254E+01  0.0000000000000E+00
-0.2200751476987E+00 -0.5030625646354E+01  0.0000000000000E+00
-0.2200901772545E+00 -0.4957559627293E+01  0.0000000000000E+00
-0.2201052067936E+00 -0.4884493689396E+01  0.0000000000000E+00
-0.2201202363444E+00 -0.4811427694352E+01  0.0000000000000E+00
-0.2201352658918E+00 -0.4738361716050E+01  0.0000000000000E+00
-0.2201502954384E+00 -0.4665295742072E+01  0.0000000000000E+00
-0.2201653249866E+00 -0.4592229759548E+01  0.0000000000000E+00
-0.2201803545361E+00 -0.4519163771331E+01  0.0000000000000E+00
-0.2201953840815E+00 -0.4446097802654E+01  0.0000000000000E+00
-0.2202104136300E+00 -0.4373031818983E+01  0.0000000000000E+00
-0.2202254431811E+00 -0.4299965823042E+01  0.0000000000000E+00
-0.2202404727120E+00 -0.4226899924793E+01  0.0000000000000E+00
-0.2202555022656E+00 -0.4153833916474E+01  0.0000000000000E+00
-0.2202705318185E+00 -0.4080767911487E+01  0.0000000000000E+00
-0.2202855614280E+00 -0.4007701631202E+01  0.0000000000000E+00
-0.2203005911151E+00 -0.3934634973874E+01  0.0000000000000E+00
-0.2203156204473E+00 -0.3861570041774E+01  0.0000000000000E+00
-0.2203306500077E+00 -0.3788504000105E+01  0.0000000000000E+00
-0.2203456795035E+00 -0.3715438272975E+01  0.0000000000000E+00
-0.2203607090608E+00 -0.3642372246425E+01  0.0000000000000E+00
-0.2203757385934E+00 -0.3569306340160E+01  0.0000000000000E+00
-0.2203907681284E+00 -0.3496240422349E+01  0.0000000000000E+00
-0.2204057976586E+00 -0.3423174527795E+01  0.0000000000000E+00
-0.2204228878823E+00 -0.3350108582947E+01  0.0000000000000E+00
-0.2204621808374E+00 -0.3277042809409E+01  0.0000000000000E+00
-0.2205537056228E+00 -0.3203978031196E+01  0.0000000000000E+00
-0.2207255468550E+00 -0.3130916711504E+01  0.0000000000000E+00
-0.2210010306257E+00 -0.3057863304454E+01  0.0000000000000E+00
-0.2213978818454E+00 -0.2984824086710E+01  0.0000000000000E+00
-0.2219288158020E+00 -0.2911807004111E+01  0.0000000000000E+00
-0.2226028122862E+00 -0.2838820121963E+01  0.0000000000000E+00
-0.2234264735458E+00 -0.2765873312554E+01  0.0000000000000E+00
-0.2244052503084E+00 -0.2692976885172E+01  0.0000000000000E+00
-0.2255444678895E+00 -0.2620140917974E+01  0.0000000000000E+00
-0.2268501356033E+00 -0.2547378554912E+01  0.0000000000000E+00
-0.2283297795241E+00 -0.2474703652177E+01  0.0000000000000E+00
-0.1925137031333E+00 -0.5322854742979E+01  0.0000000000000E+00
-0.1925274064805E+00 -0.5249752993251E+01  0.0000000000000E+00
-0.1925411097375E+00 -0.5176651724565E+01  0.0000000000000E+00
-0.1925548129874E+00 -0.5103550494232E+01  0.0000000000000E+00
-0.1925685162506E+00 -0.5030449192534E+01  0.0000000000000E+00
-0.1925822195154E+00 -0.4957347882672E+01  0.0000000000000E+00
-0.1925959227649E+00 -0.4884246654013E+01  0.0000000000000E+00
-0.1926096260251E+00 -0.4811145368179E+01  0.0000000000000E+00
-0.1926233292823E+00 -0.4738044099095E+01  0.0000000000000E+00
-0.1926370325386E+00 -0.4664942834337E+01  0.0000000000000E+00
-0.1926507357965E+00 -0.4591841561029E+01  0.0000000000000E+00
-0.1926644390554E+00 -0.4518740282026E+01  0.0000000000000E+00
-0.1926781423108E+00 -0.4445639022571E+01  0.0000000000000E+00
-0.1926918455689E+00 -0.4372537748116E+01  0.0000000000000E+00
-0.1927055488293E+00 -0.4299436461384E+01  0.0000000000000E+00
-0.1927192520714E+00 -0.4226335272392E+01  0.0000000000000E+00
-0.1927329553341E+00 -0.4153233973277E+01  0.0000000000000E+00
-0.1927466585963E+00 -0.4080132677496E+01  0.0000000000000E+00
-0.1927603619100E+00 -0.4007031106282E+01  0.0000000000000E+00
-0.1927740652945E+00 -0.3933929157845E+01  0.0000000000000E+00
-0.1927877683554E+00 -0.3860828935468E+01  0.0000000000000E+00
-0.1928014716244E+00 -0.3787727602987E+01  0.0000000000000E+00
-0.1928151748344E+00 -0.3714626585195E+01  0.0000000000000E+00
-0.1928288781005E+00 -0.3641525267841E+01  0.0000000000000E+00
-0.1928425813441E+00 -0.3568424070829E+01  0.0000000000000E+00
-0.1928562845899E+00 -0.3495322862265E+01  0.0000000000000E+00
-0.1928699878313E+00 -0.3422221676969E+01  0.0000000000000E+00
-0.1928854941800E+00 -0.3349120441355E+01  0.0000000000000E+00
-0.1929204279180E+00 -0.3276019377082E+01  0.0000000000000E+00
-0.1930010645074E+00 -0.3202919308154E+01  0.0000000000000E+00
-0.1931519779873E+00 -0.3129822697774E+01  0.0000000000000E+00
-0.1933935786883E+00 -0.3056734000064E+01  0.0000000000000E+00
-0.1937413759072E+00 -0.2983659491676E+01  0.0000000000000E+00
-0.1942064955193E+00 -0.2910607118563E+01  0.0000000000000E+00
-0.1947967948461E+00 -0.2837584945734E+01  0.0000000000000E+00
-0.1955180508510E+00 -0.2764602845709E+01  0.0000000000000E+00
-0.1963750329191E+00 -0.2691671127885E+01  0.0000000000000E+00
-0.1973724007082E+00 -0.2618799869985E+01  0.0000000000000E+00
-0.1985154123617E+00 -0.2546002216387E+01  0.0000000000000E+00
-0.1998106531975E+00 -0.2473292023110E+01  0.0000000000000E+00
-0.1650121562557E+00 -0.5322824145066E+01  0.0000000000000E+00
-0.1650243127012E+00 -0.5249691796949E+01  0.0000000000000E+00
-0.1650364690666E+00 -0.5176559930074E+01  0.0000000000000E+00
-0.1650486254257E+00 -0.5103428101568E+01  0.0000000000000E+00
-0.1650607817967E+00 -0.5030296201668E+01  0.0000000000000E+00
-0.1650729381690E+00 -0.4957164293599E+01  0.0000000000000E+00
-0.1650850945279E+00 -0.4884032466768E+01  0.0000000000000E+00
-0.1650972508962E+00 -0.4810900582739E+01  0.0000000000000E+00
-0.1651094072618E+00 -0.4737768715466E+01  0.0000000000000E+00
-0.1651215636266E+00 -0.4664636852520E+01  0.0000000000000E+00
-0.1651337199928E+00 -0.4591504981022E+01  0.0000000000000E+00
-0.1651458763600E+00 -0.4518373103826E+01  0.0000000000000E+00
-0.1651580327240E+00 -0.4445241246186E+01  0.0000000000000E+00
-0.1651701890904E+00 -0.4372109373540E+01  0.0000000000000E+00
-0.1651823454589E+00 -0.4298977488612E+01  0.0000000000000E+00
-0.1651945018111E+00 -0.4225845701464E+01  0.0000000000000E+00
-0.1652066581817E+00 -0.4152713804148E+01  0.0000000000000E+00
-0.1652188145517E+00 -0.4079581910166E+01  0.0000000000000E+00
-0.1652309709675E+00 -0.4006449740637E+01  0.0000000000000E+00
-0.1652431274460E+00 -0.3933317193727E+01  0.0000000000000E+00
-0.1652552836375E+00 -0.3860186373599E+01  0.0000000000000E+00
-0.1652674400136E+00 -0.3787054442903E+01  0.0000000000000E+00
-0.1652795963373E+00 -0.3713922827028E+01  0.0000000000000E+00
-0.1652917527109E+00 -0.3640790911464E+01  0.0000000000000E+00
-0.1653039090645E+00 -0.3567659116293E+01  0.0000000000000E+00
-0.1653160654199E+00 -0.3494527309565E+01  0.0000000000000E+00
-0.1653282217716E+00 -0.3421395526116E+01  0.0000000000000E+00
-0.1653419236439E+00 -0.3348263692327E+01  0.0000000000000E+00
-0.1653722775640E+00 -0.3275132029906E+01  0.0000000000000E+00
-0.1654418053565E+00 -0.3202001362847E+01  0.0000000000000E+00
-0.1655715704837E+00 -0.3128874154359E+01  0.0000000000000E+00
-0.1657790675147E+00 -0.3055754858566E+01  0.0000000000000E+00
-0.1660775901327E+00 -0.2982649752109E+01  0.0000000000000E+00
-0.1664766748012E+00 -0.2909566781038E+01  0.0000000000000E+00
-0.1669830563706E+00 -0.2836514010107E+01  0.0000000000000E+00
-0.1676016865213E+00 -0.2763501312037E+01  0.0000000000000E+00
-0.1683366532966E+00 -0.2690538996319E+01  0.0000000000000E+00
-0.1691919506939E+00 -0.2617637140300E+01  0.0000000000000E+00
-0.1701720856886E+00 -0.2544808888725E+01  0.0000000000000E+00
-0.1712827028411E+00 -0.2472068097468E+01  0.0000000000000E+00
-0.1375104198963E+00 -0.5322798245192E+01  0.0000000000000E+00
-0.1375208399552E+00 -0.5249639996795E+01  0.0000000000000E+00
-0.1375312599456E+00 -0.5176482229812E+01  0.0000000000000E+00
-0.1375416799305E+00 -0.5103324501211E+01  0.0000000000000E+00
-0.1375520999256E+00 -0.5030166701191E+01  0.0000000000000E+00
-0.1375625199218E+00 -0.4957008892999E+01  0.0000000000000E+00
-0.1375729399065E+00 -0.4883851166073E+01  0.0000000000000E+00
-0.1375833598993E+00 -0.4810693381929E+01  0.0000000000000E+00
-0.1375937798897E+00 -0.4737535614548E+01  0.0000000000000E+00
-0.1376041998796E+00 -0.4664377851495E+01  0.0000000000000E+00
-0.1376146198706E+00 -0.4591220079887E+01  0.0000000000000E+00
-0.1376250398624E+00 -0.4518062302578E+01  0.0000000000000E+00
-0.1376354598515E+00 -0.4444904544833E+01  0.0000000000000E+00
-0.1376458798427E+00 -0.4371746772077E+01  0.0000000000000E+00
-0.1376562998357E+00 -0.4298588987034E+01  0.0000000000000E+00
-0.1376667198147E+00 -0.4225431299806E+01  0.0000000000000E+00
-0.1376771398094E+00 -0.4152273502370E+01  0.0000000000000E+00
-0.1376875598036E+00 -0.4079115708270E+01  0.0000000000000E+00
-0.1376979798371E+00 -0.4005957638526E+01  0.0000000000000E+00
-0.1377083999244E+00 -0.3932799191266E+01  0.0000000000000E+00
-0.1377188197656E+00 -0.3859642471400E+01  0.0000000000000E+00
-0.1377292397651E+00 -0.3786484640573E+01  0.0000000000000E+00
-0.1377396597197E+00 -0.3713327124678E+01  0.0000000000000E+00
-0.1377500797170E+00 -0.3640169308989E+01  0.0000000000000E+00
-0.1377604996972E+00 -0.3567011613735E+01  0.0000000000000E+00
-0.1377709196790E+00 -0.3493853906920E+01  0.0000000000000E+00
-0.1377813396575E+00 -0.3420696223391E+01  0.0000000000000E+00
-0.1377930475701E+00 -0.3347538489505E+01  0.0000000000000E+00
-0.1378186321886E+00 -0.3274380927010E+01  0.0000000000000E+00
-0.1378768616999E+00 -0.3201224359891E+01  0.0000000000000E+00
-0.1379852889892E+00 -0.3128071251363E+01  0.0000000000000E+00
-0.1381584928636E+00 -0.3054926055552E+01  0.0000000000000E+00
-0.1384075513927E+00 -0.2981795049086E+01  0.0000000000000E+00
-0.1387404116283E+00 -0.2908686178104E+01  0.0000000000000E+00
-0.1391626859483E+00 -0.2835607507138E+01  0.0000000000000E+00
-0.1396785007510E+00 -0.2762568909081E+01  0.0000000000000E+00
-0.1402912627383E+00 -0.2689580693503E+01  0.0000000000000E+00
-0.1410043002453E+00 -0.2616652937435E+01  0.0000000000000E+00
-0.1418213690811E+00 -0.2543798785931E+01  0.0000000000000E+00
-0.1427471730477E+00 -0.2471032094742E+01  0.0000000000000E+00
-0.1100085256398E+00 -0.5322777048020E+01  0.0000000000000E+00
-0.1100170514127E+00 -0.5249597602122E+01  0.0000000000000E+00
-0.1100255771294E+00 -0.5176418637776E+01  0.0000000000000E+00
-0.1100341028418E+00 -0.5103239711823E+01  0.0000000000000E+00
-0.1100426285624E+00 -0.5030060714430E+01  0.0000000000000E+00
-0.1100511542840E+00 -0.4956881708864E+01  0.0000000000000E+00
-0.1100596799961E+00 -0.4883702784587E+01  0.0000000000000E+00
-0.1100682057149E+00 -0.4810523803076E+01  0.0000000000000E+00
-0.1100767314317E+00 -0.4737344838331E+01  0.0000000000000E+00
-0.1100852571480E+00 -0.4664165877917E+01  0.0000000000000E+00
-0.1100937828653E+00 -0.4590986908945E+01  0.0000000000000E+00
-0.1101023085833E+00 -0.4517807934270E+01  0.0000000000000E+00
-0.1101108342990E+00 -0.4444628979165E+01  0.0000000000000E+00
-0.1101193600165E+00 -0.4371450009044E+01  0.0000000000000E+00
-0.1101278857354E+00 -0.4298271026633E+01  0.0000000000000E+00
-0.1101364114429E+00 -0.4225092142065E+01  0.0000000000000E+00
-0.1101449371632E+00 -0.4151913147258E+01  0.0000000000000E+00
-0.1101534628831E+00 -0.4078734155788E+01  0.0000000000000E+00
-0.1101619886352E+00 -0.4005554888593E+01  0.0000000000000E+00
-0.1101705144313E+00 -0.3932375243773E+01  0.0000000000000E+00
-0.1101790400260E+00 -0.3859197326848E+01  0.0000000000000E+00
-0.1101875657503E+00 -0.3786018298639E+01  0.0000000000000E+00
-0.1101960914378E+00 -0.3712839585455E+01  0.0000000000000E+00
-0.1102046171602E+00 -0.3639660572388E+01  0.0000000000000E+00
-0.1102131428687E+00 -0.3566481679793E+01  0.0000000000000E+00
-0.1102216685784E+00 -0.3493302775632E+01  0.0000000000000E+00
-0.1102301942855E+00 -0.3420123894765E+01  0.0000000000000E+00
-0.1102397503399E+00 -0.3346944963526E+01  0.0000000000000E+00
-0.1102604077586E+00 -0.3273766203696E+01  0.0000000000000E+00
-0.1103071810910E+00 -0.3200588439254E+01  0.0000000000000E+00
-0.1103941126450E+00 -0.3127414133419E+01  0.0000000000000E+00
-0.1105328654662E+00 -0.3054247740319E+01  0.0000000000000E+00
-0.1107323020103E+00 -0.2981095536573E+01  0.0000000000000E+00
-0.1109987799181E+00 -0.2907965468388E+01  0.0000000000000E+00
-0.1113367890936E+00 -0.2834865600120E+01  0.0000000000000E+00
-0.1117496306543E+00 -0.2761805804799E+01  0.0000000000000E+00
-0.1122400299613E+00 -0.2688796392063E+01  0.0000000000000E+00
-0.1128106496850E+00 -0.2615847438680E+01  0.0000000000000E+00
-0.1134644944706E+00 -0.2542972089961E+01  0.0000000000000E+00
-0.1142053273607E+00 -0.2470184201554E+01  0.0000000000000E+00
-0.8250650494669E-01 -0.5322760557367E+01  0.0000000000000E+00
-0.8251300999494E-01 -0.5249564620559E+01  0.0000000000000E+00
-0.8251951500039E-01 -0.5176369165411E+01  0.0000000000000E+00
-0.8252602000242E-01 -0.5103173748665E+01  0.0000000000000E+00
-0.8253252501080E-01 -0.5029978260463E+01  0.0000000000000E+00
-0.8253903001991E-01 -0.4956782764086E+01  0.0000000000000E+00
-0.8254553502179E-01 -0.4883587349016E+01  0.0000000000000E+00
-0.8255204002877E-01 -0.4810391876699E+01  0.0000000000000E+00
-0.8255854503425E-01 -0.4737196421153E+01  0.0000000000000E+00
-0.8256505003934E-01 -0.4664000969938E+01  0.0000000000000E+00
-0.8257155504520E-01 -0.4590805510163E+01  0.0000000000000E+00
-0.8257806005156E-01 -0.4517610044684E+01  0.0000000000000E+00
-0.8258456505619E-01 -0.4444414598779E+01  0.0000000000000E+00
-0.8259107006214E-01 -0.4371219137855E+01  0.0000000000000E+00
-0.8259757506920E-01 -0.4298023664638E+01  0.0000000000000E+00
-0.8260408006755E-01 -0.4224828289287E+01  0.0000000000000E+00
-0.8261058507570E-01 -0.4151632803671E+01  0.0000000000000E+00
-0.8261709008356E-01 -0.4078437321393E+01  0.0000000000000E+00
-0.8262359511592E-01 -0.4005241563328E+01  0.0000000000000E+00
-0.8263010018186E-01 -0.3932045427552E+01  0.0000000000000E+00
-0.8263660509420E-01 -0.3858851020062E+01  0.0000000000000E+00
-0.8264311010532E-01 -0.3785655501037E+01  0.0000000000000E+00
-0.8264961508844E-01 -0.3712460297107E+01  0.0000000000000E+00
-0.8265612009821E-01 -0.3639264793228E+01  0.0000000000000E+00
-0.8266262509728E-01 -0.3566069409847E+01  0.0000000000000E+00
-0.8266913009737E-01 -0.3492874014898E+01  0.0000000000000E+00
-0.8267563509540E-01 -0.3419678643248E+01  0.0000000000000E+00
-0.8268291285398E-01 -0.3346483221214E+01  0.0000000000000E+00
-0.8269851663539E-01 -0.3273287970605E+01  0.0000000000000E+00
-0.8273370735159E-01 -0.3200093715392E+01  0.0000000000000E+00
-0.8279901673330E-01 -0.3126902918799E+01  0.0000000000000E+00
-0.8290319206475E-01 -0.3053720034954E+01  0.0000000000000E+00
-0.8305288018770E-01 -0.2980551340471E+01  0.0000000000000E+00
-0.8325284933251E-01 -0.2907404781609E+01  0.0000000000000E+00
-0.8350646692816E-01 -0.2834288422586E+01  0.0000000000000E+00
-0.8381620881225E-01 -0.2761212136541E+01  0.0000000000000E+00
-0.8418411900524E-01 -0.2688186233161E+01  0.0000000000000E+00
-0.8461219451154E-01 -0.2615220789015E+01  0.0000000000000E+00
-0.8510268881396E-01 -0.2542328949609E+01  0.0000000000000E+00
-0.8565842419518E-01 -0.2469524570511E+01  0.0000000000000E+00
-0.5500438935264E-01 -0.5322748776205E+01  0.0000000000000E+00
-0.5500877877381E-01 -0.5249541058049E+01  0.0000000000000E+00
-0.5501316816610E-01 -0.5176333821632E+01  0.0000000000000E+00
-0.5501755755609E-01 -0.5103126623623E+01  0.0000000000000E+00
-0.5502194695036E-01 -0.5029919354147E+01  0.0000000000000E+00
-0.5502633634512E-01 -0.4956712076493E+01  0.0000000000000E+00
-0.5503072573500E-01 -0.4883504880161E+01  0.0000000000000E+00
-0.5503511512832E-01 -0.4810297626572E+01  0.0000000000000E+00
-0.5503950452063E-01 -0.4737090389756E+01  0.0000000000000E+00
-0.5504389391268E-01 -0.4663883157272E+01  0.0000000000000E+00
-0.5504828330525E-01 -0.4590675916227E+01  0.0000000000000E+00
-0.5505267269816E-01 -0.4517468669478E+01  0.0000000000000E+00
-0.5505706208989E-01 -0.4444261442305E+01  0.0000000000000E+00
-0.5506145148252E-01 -0.4371054200111E+01  0.0000000000000E+00
-0.5506584087590E-01 -0.4297846945622E+01  0.0000000000000E+00
-0.5507023026340E-01 -0.4224639789014E+01  0.0000000000000E+00
-0.5507461965751E-01 -0.4151432522124E+01  0.0000000000000E+00
-0.5507900905143E-01 -0.4078225258572E+01  0.0000000000000E+00
-0.5508339846188E-01 -0.4005017719189E+01  0.0000000000000E+00
-0.5508778789498E-01 -0.3931809802035E+01  0.0000000000000E+00
-0.5509217722445E-01 -0.3858603613444E+01  0.0000000000000E+00
-0.5509656662057E-01 -0.3785396313139E+01  0.0000000000000E+00
-0.5510095599779E-01 -0.3712189327981E+01  0.0000000000000E+00
-0.5510534539300E-01 -0.3638982042825E+01  0.0000000000000E+00
-0.5510973478098E-01 -0.3565774878186E+01  0.0000000000000E+00
-0.5511412416966E-01 -0.3492567701977E+01  0.0000000000000E+00
-0.5511851355694E-01 -0.3419360549072E+01  0.0000000000000E+00
-0.5512341811789E-01 -0.3346153345774E+01  0.0000000000000E+00
-0.5513387336036E-01 -0.3272946313911E+01  0.0000000000000E+00
-0.5515738655881E-01 -0.3199740277451E+01  0.0000000000000E+00
-0.5520097886694E-01 -0.3126537699620E+01  0.0000000000000E+00
-0.5527048180752E-01 -0.3053343034546E+01  0.0000000000000E+00
-0.5537032660846E-01 -0.2980162558840E+01  0.0000000000000E+00
-0.5550369208991E-01 -0.2907004218798E+01  0.0000000000000E+00
-0.5567282320512E-01 -0.2833876078539E+01  0.0000000000000E+00
-0.5587937051233E-01 -0.2760788011280E+01  0.0000000000000E+00
-0.5612469669183E-01 -0.2687750326744E+01  0.0000000000000E+00
-0.5641013308081E-01 -0.2614773101355E+01  0.0000000000000E+00
-0.5673718200075E-01 -0.2541869480762E+01  0.0000000000000E+00
-0.5710772497400E-01 -0.2469053320475E+01  0.0000000000000E+00
-0.2750221044970E-01 -0.5322741706657E+01  0.0000000000000E+00
-0.2750442093391E-01 -0.5249526918843E+01  0.0000000000000E+00
-0.2750663140358E-01 -0.5176312612814E+01  0.0000000000000E+00
-0.2750884187209E-01 -0.5103098345197E+01  0.0000000000000E+00
-0.2751105234276E-01 -0.5029884006105E+01  0.0000000000000E+00
-0.2751326281367E-01 -0.4956669658836E+01  0.0000000000000E+00
-0.2751547328212E-01 -0.4883455392895E+01  0.0000000000000E+00
-0.2751768375231E-01 -0.4810241069692E+01  0.0000000000000E+00
-0.2751989422199E-01 -0.4737026763265E+01  0.0000000000000E+00
-0.2752210469154E-01 -0.4663812461169E+01  0.0000000000000E+00
-0.2752431516135E-01 -0.4590598150512E+01  0.0000000000000E+00
-0.2752652563132E-01 -0.4517383834150E+01  0.0000000000000E+00
-0.2752873610071E-01 -0.4444169537366E+01  0.0000000000000E+00
-0.2753094657055E-01 -0.4370955225559E+01  0.0000000000000E+00
-0.2753315704077E-01 -0.4297740901456E+01  0.0000000000000E+00
-0.2753536750803E-01 -0.4224526675244E+01  0.0000000000000E+00
-0.2753757797861E-01 -0.4151312338739E+01  0.0000000000000E+00
-0.2753978844910E-01 -0.4078098005573E+01  0.0000000000000E+00
-0.2754199892791E-01 -0.4004883396549E+01  0.0000000000000E+00
-0.2754420941814E-01 -0.3931668409717E+01  0.0000000000000E+00
-0.2754641985617E-01 -0.3858455151615E+01  0.0000000000000E+00
-0.2754863032776E-01 -0.3785240781693E+01  0.0000000000000E+00
-0.2755084078984E-01 -0.3712026726946E+01  0.0000000000000E+00
-0.2755305126098E-01 -0.3638812372174E+01  0.0000000000000E+00
-0.2755526172848E-01 -0.3565598137930E+01  0.0000000000000E+00
-0.2755747219633E-01 -0.3492383892115E+01  0.0000000000000E+00
-0.2755968266348E-01 -0.3419169669606E+01  0.0000000000000E+00
-0.2756215071737E-01 -0.3345955396699E+01  0.0000000000000E+00
-0.2756739411150E-01 -0.3272741295234E+01  0.0000000000000E+00
-0.2757916648287E-01 -0.3199528189175E+01  0.0000000000000E+00
-0.2760097840811E-01 -0.3126318541751E+01  0.0000000000000E+00
-0.2763574564857E-01 -0.3053116807089E+01  0.0000000000000E+00
-0.2768568381826E-01 -0.2979929261799E+01  0.0000000000000E+00
-0.2775238232737E-01 -0.2906763852198E+01  0.0000000000000E+00
-0.2783696365284E-01 -0.2833628642347E+01  0.0000000000000E+00
-0.2794025307398E-01 -0.2760533505510E+01  0.0000000000000E+00
-0.2806293193113E-01 -0.2687488751430E+01  0.0000000000000E+00
-0.2820566589345E-01 -0.2614504456445E+01  0.0000000000000E+00
-0.2836920612185E-01 -0.2541593766289E+01  0.0000000000000E+00
-0.2855449337807E-01 -0.2468770536439E+01  0.0000000000000E+00
 0.1324582976872E-09 -0.5322739349999E+01  0.0000000000000E+00
 0.2649192972303E-09 -0.5249522205491E+01  0.0000000000000E+00
 0.3973788566725E-09 -0.5176305542784E+01  0.0000000000000E+00
 0.5298387233106E-09 -0.5103088918489E+01  0.0000000000000E+00
 0.6622984236402E-09 -0.5029872222718E+01  0.0000000000000E+00
 0.7947582084678E-09 -0.4956655518769E+01  0.0000000000000E+00
 0.9272178985356E-09 -0.4883438896151E+01  0.0000000000000E+00
 0.1059677763797E-08 -0.4810222216269E+01  0.0000000000000E+00
 0.1192137389894E-08 -0.4737005553163E+01  0.0000000000000E+00
 0.1324597216155E-08 -0.4663788894389E+01  0.0000000000000E+00
 0.1457057363546E-08 -0.4590572227053E+01  0.0000000000000E+00
 0.1589516799834E-08 -0.4517355554011E+01  0.0000000000000E+00
 0.1721976588525E-08 -0.4444138900549E+01  0.0000000000000E+00
 0.1854436571506E-08 -0.4370922232064E+01  0.0000000000000E+00
 0.1986895855563E-08 -0.4297705551282E+01  0.0000000000000E+00
 0.2119355569369E-08 -0.4224488968394E+01  0.0000000000000E+00
 0.2251815486964E-08 -0.4151272275209E+01  0.0000000000000E+00
 0.2384275204100E-08 -0.4078055585363E+01  0.0000000000000E+00
 0.2516735708495E-08 -0.4004838619651E+01  0.0000000000000E+00
 0.2649196688920E-08 -0.3931621276119E+01  0.0000000000000E+00
 0.2781654641705E-08 -0.3858405661372E+01  0.0000000000000E+00
 0.2914114426756E-08 -0.3785188934769E+01  0.0000000000000E+00
 0.3046573851501E-08 -0.3711972523352E+01  0.0000000000000E+00
 0.3179033553049E-08 -0.3638755811899E+01  0.0000000000000E+00
 0.3311493142918E-08 -0.3565539220979E+01  0.0000000000000E+00
 0.3443952865188E-08 -0.3492322618488E+01  0.0000000000000E+00
 0.3576412544397E-08 -0.3419106039302E+01  0.0000000000000E+00
 0.3709079208211E-08 -0.3345889409718E+01  0.0000000000000E+00
 0.3842765657712E-08 -0.3272672951577E+01  0.0000000000000E+00
 0.3978057194037E-08 -0.3199457488844E+01  0.0000000000000E+00
 0.4115345029517E-08 -0.3126245484748E+01  0.0000000000000E+00
 0.4254777983189E-08 -0.3053041393416E+01  0.0000000000000E+00
 0.4396264457270E-08 -0.2979851491456E+01  0.0000000000000E+00
 0.4539518187740E-08 -0.2906683725195E+01  0.0000000000000E+00
 0.4684164499210E-08 -0.2833546158672E+01  0.0000000000000E+00
 0.4829618414730E-08 -0.2760448665167E+01  0.0000000000000E+00
 0.4975438147458E-08 -0.2687401554431E+01  0.0000000000000E+00
 0.5120846759015E-08 -0.2614414902773E+01  0.0000000000000E+00
 0.5265140185984E-08 -0.2541501855955E+01  0.0000000000000E+00
 0.5407371393203E-08 -0.2468676269441E+01  0.0000000000000E+00
 0.2750221071461E-01 -0.5322741706658E+01  0.0000000000000E+00
 0.2750442146374E-01 -0.5249526918846E+01  0.0000000000000E+00
 0.2750663219832E-01 -0.5176312612819E+01  0.0000000000000E+00
 0.2750884293174E-01 -0.5103098345204E+01  0.0000000000000E+00
 0.2751105366732E-01 -0.5029884006114E+01  0.0000000000000E+00
 0.2751326440315E-01 -0.4956669658847E+01  0.0000000000000E+00
 0.2751547513652E-01 -0.4883455392908E+01  0.0000000000000E+00
 0.2751768587162E-01 -0.4810241069707E+01  0.0000000000000E+00
 0.2751989660621E-01 -0.4737026763281E+01  0.0000000000000E+00
 0.2752210734067E-01 -0.4663812461188E+01  0.0000000000000E+00
 0.2752431807539E-01 -0.4590598150532E+01  0.0000000000000E+00
 0.2752652881029E-01 -0.4517383834171E+01  0.0000000000000E+00
 0.2752873954459E-01 -0.4444169537390E+01  0.0000000000000E+00
 0.2753095027934E-01 -0.4370955225585E+01  0.0000000000000E+00
 0.2753316101447E-01 -0.4297740901484E+01  0.0000000000000E+00
 0.2753537174664E-01 -0.4224526675273E+01  0.0000000000000E+00
 0.2753758248214E-01 -0.4151312338770E+01  0.0000000000000E+00
 0.2753979321754E-01 -0.4078098005606E+01  0.0000000000000E+00
 0.2754200396127E-01 -0.4004883396583E+01  0.0000000000000E+00
 0.2754421471641E-01 -0.3931668409754E+01  0.0000000000000E+00
 0.2754642541935E-01 -0.3858455151654E+01  0.0000000000000E+00
 0.2754863615586E-01 -0.3785240781733E+01  0.0000000000000E+00
 0.2755084688285E-01 -0.3712026726988E+01  0.0000000000000E+00
 0.2755305761890E-01 -0.3638812372217E+01  0.0000000000000E+00
 0.2755526835131E-01 -0.3565598137975E+01  0.0000000000000E+00
 0.2755747908408E-01 -0.3492383892163E+01  0.0000000000000E+00
 0.2755968981614E-01 -0.3419169669655E+01  0.0000000000000E+00
 0.2756215813535E-01 -0.3345955396750E+01  0.0000000000000E+00
 0.2756740179686E-01 -0.3272741295286E+01  0.0000000000000E+00
 0.2757917443880E-01 -0.3199528189229E+01  0.0000000000000E+00
 0.2760098663861E-01 -0.3126318541807E+01  0.0000000000000E+00
 0.2763575415793E-01 -0.3053116807148E+01  0.0000000000000E+00
 0.2768569261059E-01 -0.2979929261859E+01  0.0000000000000E+00
 0.2775239140620E-01 -0.2906763852260E+01  0.0000000000000E+00
 0.2783697302096E-01 -0.2833628642411E+01  0.0000000000000E+00
 0.2794026273300E-01 -0.2760533505575E+01  0.0000000000000E+00
 0.2806294188178E-01 -0.2687488751497E+01  0.0000000000000E+00
 0.2820567613491E-01 -0.2614504456514E+01  0.0000000000000E+00
 0.2836921665189E-01 -0.2541593766360E+01  0.0000000000000E+00
 0.2855450419256E-01 -0.2468770536511E+01  0.0000000000000E+00
 0.5500438961753E-01 -0.5322748776208E+01  0.0000000000000E+00
 0.5500877930360E-01 -0.5249541058056E+01  0.0000000000000E+00
 0.5501316896079E-01 -0.5176333821643E+01  0.0000000000000E+00
 0.5501755861567E-01 -0.5103126623638E+01  0.0000000000000E+00
 0.5502194827483E-01 -0.5029919354165E+01  0.0000000000000E+00
 0.5502633793449E-01 -0.4956712076515E+01  0.0000000000000E+00
 0.5503072758927E-01 -0.4883504880187E+01  0.0000000000000E+00
 0.5503511724748E-01 -0.4810297626601E+01  0.0000000000000E+00
 0.5503950690469E-01 -0.4737090389789E+01  0.0000000000000E+00
 0.5504389656163E-01 -0.4663883157309E+01  0.0000000000000E+00
 0.5504828621909E-01 -0.4590675916267E+01  0.0000000000000E+00
 0.5505267587690E-01 -0.4517468669521E+01  0.0000000000000E+00
 0.5505706553353E-01 -0.4444261442353E+01  0.0000000000000E+00
 0.5506145519105E-01 -0.4371054200162E+01  0.0000000000000E+00
 0.5506584484932E-01 -0.4297846945677E+01  0.0000000000000E+00
 0.5507023450172E-01 -0.4224639789072E+01  0.0000000000000E+00
 0.5507462416073E-01 -0.4151432522186E+01  0.0000000000000E+00
 0.5507901381954E-01 -0.4078225258638E+01  0.0000000000000E+00
 0.5508340349489E-01 -0.4005017719258E+01  0.0000000000000E+00
 0.5508779319289E-01 -0.3931809802108E+01  0.0000000000000E+00
 0.5509218278724E-01 -0.3858603613520E+01  0.0000000000000E+00
 0.5509657244826E-01 -0.3785396313220E+01  0.0000000000000E+00
 0.5510096209037E-01 -0.3712189328065E+01  0.0000000000000E+00
 0.5510535175048E-01 -0.3638982042912E+01  0.0000000000000E+00
 0.5510974140336E-01 -0.3565774878277E+01  0.0000000000000E+00
 0.5511413105693E-01 -0.3492567702072E+01  0.0000000000000E+00
 0.5511852070911E-01 -0.3419360549170E+01  0.0000000000000E+00
 0.5512342553537E-01 -0.3346153345876E+01  0.0000000000000E+00
 0.5513388104518E-01 -0.3272946314017E+01  0.0000000000000E+00
 0.5515739451420E-01 -0.3199740277560E+01  0.0000000000000E+00
 0.5520098709687E-01 -0.3126537699733E+01  0.0000000000000E+00
 0.5527049031629E-01 -0.3053343034663E+01  0.0000000000000E+00
 0.5537033540018E-01 -0.2980162558960E+01  0.0000000000000E+00
 0.5550370116812E-01 -0.2907004218922E+01  0.0000000000000E+00
 0.5567283257259E-01 -0.2833876078666E+01  0.0000000000000E+00
 0.5587938017068E-01 -0.2760788011411E+01  0.0000000000000E+00
 0.5612470664180E-01 -0.2687750326879E+01  0.0000000000000E+00
 0.5641014332158E-01 -0.2614773101494E+01  0.0000000000000E+00
 0.5673719253008E-01 -0.2541869480904E+01  0.0000000000000E+00
 0.5710773578776E-01 -0.2469053320621E+01  0.0000000000000E+00
 0.8250650521155E-01 -0.5322760557373E+01  0.0000000000000E+00
 0.8251301052467E-01 -0.5249564620570E+01  0.0000000000000E+00
 0.8251951579498E-01 -0.5176369165427E+01  0.0000000000000E+00
 0.8252602106188E-01 -0.5103173748687E+01  0.0000000000000E+00
 0.8253252633512E-01 -0.5029978260490E+01  0.0000000000000E+00
 0.8253903160910E-01 -0.4956782764119E+01  0.0000000000000E+00
 0.8254553687585E-01 -0.4883587349055E+01  0.0000000000000E+00
 0.8255204214768E-01 -0.4810391876743E+01  0.0000000000000E+00
 0.8255854741803E-01 -0.4737196421202E+01  0.0000000000000E+00
 0.8256505268799E-01 -0.4664000969992E+01  0.0000000000000E+00
 0.8257155795871E-01 -0.4590805510223E+01  0.0000000000000E+00
 0.8257806322994E-01 -0.4517610044749E+01  0.0000000000000E+00
 0.8258456849942E-01 -0.4444414598850E+01  0.0000000000000E+00
 0.8259107377025E-01 -0.4371219137932E+01  0.0000000000000E+00
 0.8259757904216E-01 -0.4298023664720E+01  0.0000000000000E+00
 0.8260408430538E-01 -0.4224828289374E+01  0.0000000000000E+00
 0.8261058957840E-01 -0.4151632803763E+01  0.0000000000000E+00
 0.8261709485112E-01 -0.4078437321491E+01  0.0000000000000E+00
 0.8262360014835E-01 -0.4005241563431E+01  0.0000000000000E+00
 0.8263010547915E-01 -0.3932045427662E+01  0.0000000000000E+00
 0.8263661065635E-01 -0.3858851020177E+01  0.0000000000000E+00
 0.8264311593234E-01 -0.3785655501157E+01  0.0000000000000E+00
 0.8264962118032E-01 -0.3712460297233E+01  0.0000000000000E+00
 0.8265612645496E-01 -0.3639264793359E+01  0.0000000000000E+00
 0.8266263171889E-01 -0.3566069409983E+01  0.0000000000000E+00
 0.8266913698385E-01 -0.3492874015040E+01  0.0000000000000E+00
 0.8267564224674E-01 -0.3419678643396E+01  0.0000000000000E+00
 0.8268292027060E-01 -0.3346483221367E+01  0.0000000000000E+00
 0.8269852431933E-01 -0.3273287970764E+01  0.0000000000000E+00
 0.8273371530606E-01 -0.3200093715556E+01  0.0000000000000E+00
 0.8279902496228E-01 -0.3126902918969E+01  0.0000000000000E+00
 0.8290320057255E-01 -0.3053720035129E+01  0.0000000000000E+00
 0.8305288897842E-01 -0.2980551340651E+01  0.0000000000000E+00
 0.8325285840968E-01 -0.2907404781795E+01  0.0000000000000E+00
 0.8350647629457E-01 -0.2834288422777E+01  0.0000000000000E+00
 0.8381621846951E-01 -0.2761212136738E+01  0.0000000000000E+00
 0.8418412895408E-01 -0.2688186233363E+01  0.0000000000000E+00
 0.8461220475115E-01 -0.2615220789222E+01  0.0000000000000E+00
 0.8510269934210E-01 -0.2542328949822E+01  0.0000000000000E+00
 0.8565843500772E-01 -0.2469524570729E+01  0.0000000000000E+00
 0.1100085259046E+00 -0.5322777048028E+01  0.0000000000000E+00
 0.1100170519423E+00 -0.5249597602136E+01  0.0000000000000E+00
 0.1100255779239E+00 -0.5176418637798E+01  0.0000000000000E+00
 0.1100341039010E+00 -0.5103239711852E+01  0.0000000000000E+00
 0.1100426298865E+00 -0.5030060714467E+01  0.0000000000000E+00
 0.1100511558729E+00 -0.4956881708908E+01  0.0000000000000E+00
 0.1100596818498E+00 -0.4883702784638E+01  0.0000000000000E+00
 0.1100682078334E+00 -0.4810523803134E+01  0.0000000000000E+00
 0.1100767338151E+00 -0.4737344838397E+01  0.0000000000000E+00
 0.1100852597962E+00 -0.4664165877990E+01  0.0000000000000E+00
 0.1100937857784E+00 -0.4590986909025E+01  0.0000000000000E+00
 0.1101023117612E+00 -0.4517807934358E+01  0.0000000000000E+00
 0.1101108377417E+00 -0.4444628979260E+01  0.0000000000000E+00
 0.1101193637240E+00 -0.4371450009146E+01  0.0000000000000E+00
 0.1101278897077E+00 -0.4298271026742E+01  0.0000000000000E+00
 0.1101364156800E+00 -0.4225092142182E+01  0.0000000000000E+00
 0.1101449416652E+00 -0.4151913147382E+01  0.0000000000000E+00
 0.1101534676499E+00 -0.4078734155919E+01  0.0000000000000E+00
 0.1101619936668E+00 -0.4005554888731E+01  0.0000000000000E+00
 0.1101705197277E+00 -0.3932375243918E+01  0.0000000000000E+00
 0.1101790455873E+00 -0.3859197327001E+01  0.0000000000000E+00
 0.1101875715763E+00 -0.3786018298799E+01  0.0000000000000E+00
 0.1101960975287E+00 -0.3712839585622E+01  0.0000000000000E+00
 0.1102046235160E+00 -0.3639660572563E+01  0.0000000000000E+00
 0.1102131494892E+00 -0.3566481679974E+01  0.0000000000000E+00
 0.1102216754638E+00 -0.3493302775821E+01  0.0000000000000E+00
 0.1102302014357E+00 -0.3420123894962E+01  0.0000000000000E+00
 0.1102397577553E+00 -0.3346944963729E+01  0.0000000000000E+00
 0.1102604154413E+00 -0.3273766203907E+01  0.0000000000000E+00
 0.1103071890442E+00 -0.3200588439472E+01  0.0000000000000E+00
 0.1103941208726E+00 -0.3127414133645E+01  0.0000000000000E+00
 0.1105328739726E+00 -0.3054247740552E+01  0.0000000000000E+00
 0.1107323107996E+00 -0.2981095536813E+01  0.0000000000000E+00
 0.1109987889938E+00 -0.2907965468636E+01  0.0000000000000E+00
 0.1113367984585E+00 -0.2834865600375E+01  0.0000000000000E+00
 0.1117496403101E+00 -0.2761805805062E+01  0.0000000000000E+00
 0.1122400399086E+00 -0.2688796392332E+01  0.0000000000000E+00
 0.1128106599230E+00 -0.2615847438957E+01  0.0000000000000E+00
 0.1134645049971E+00 -0.2542972090245E+01  0.0000000000000E+00
 0.1142053381716E+00 -0.2470184201845E+01  0.0000000000000E+00
 0.1375104201610E+00 -0.5322798245201E+01  0.0000000000000E+00
 0.1375208404847E+00 -0.5249639996814E+01  0.0000000000000E+00
 0.1375312607399E+00 -0.5176482229839E+01  0.0000000000000E+00
 0.1375416809896E+00 -0.5103324501248E+01  0.0000000000000E+00
 0.1375521012494E+00 -0.5030166701236E+01  0.0000000000000E+00
 0.1375625215104E+00 -0.4957008893054E+01  0.0000000000000E+00
 0.1375729417599E+00 -0.4883851166137E+01  0.0000000000000E+00
 0.1375833620175E+00 -0.4810693382002E+01  0.0000000000000E+00
 0.1375937822727E+00 -0.4737535614630E+01  0.0000000000000E+00
 0.1376042025272E+00 -0.4664377851586E+01  0.0000000000000E+00
 0.1376146227830E+00 -0.4591220079987E+01  0.0000000000000E+00
 0.1376250430397E+00 -0.4518062302688E+01  0.0000000000000E+00
 0.1376354632935E+00 -0.4444904544952E+01  0.0000000000000E+00
 0.1376458835494E+00 -0.4371746772204E+01  0.0000000000000E+00
 0.1376563038072E+00 -0.4298588987170E+01  0.0000000000000E+00
 0.1376667240509E+00 -0.4225431299951E+01  0.0000000000000E+00
 0.1376771443104E+00 -0.4152273502524E+01  0.0000000000000E+00
 0.1376875645694E+00 -0.4079115708434E+01  0.0000000000000E+00
 0.1376979848677E+00 -0.4005957638698E+01  0.0000000000000E+00
 0.1377084052197E+00 -0.3932799191448E+01  0.0000000000000E+00
 0.1377188253257E+00 -0.3859642471591E+01  0.0000000000000E+00
 0.1377292455900E+00 -0.3786484640773E+01  0.0000000000000E+00
 0.1377396658094E+00 -0.3713327124887E+01  0.0000000000000E+00
 0.1377500860714E+00 -0.3640169309207E+01  0.0000000000000E+00
 0.1377605063164E+00 -0.3567011613962E+01  0.0000000000000E+00
 0.1377709265629E+00 -0.3493853907156E+01  0.0000000000000E+00
 0.1377813468062E+00 -0.3420696223637E+01  0.0000000000000E+00
 0.1377930549840E+00 -0.3347538489760E+01  0.0000000000000E+00
 0.1378186398697E+00 -0.3274380927274E+01  0.0000000000000E+00
 0.1378768696515E+00 -0.3201224360164E+01  0.0000000000000E+00
 0.1379852972152E+00 -0.3128071251645E+01  0.0000000000000E+00
 0.1381585013683E+00 -0.3054926055843E+01  0.0000000000000E+00
 0.1384075601802E+00 -0.2981795049387E+01  0.0000000000000E+00
 0.1387404207022E+00 -0.2908686178413E+01  0.0000000000000E+00
 0.1391626953113E+00 -0.2835607507456E+01  0.0000000000000E+00
 0.1396785104047E+00 -0.2762568909408E+01  0.0000000000000E+00
 0.1402912726836E+00 -0.2689580693839E+01  0.0000000000000E+00
 0.1410043104812E+00 -0.2616652937781E+01  0.0000000000000E+00
 0.1418213796054E+00 -0.2543798786286E+01  0.0000000000000E+00
 0.1427471838563E+00 -0.2471032095106E+01  0.0000000000000E+00
 0.1650121565204E+00 -0.5322824145077E+01  0.0000000000000E+00
 0.1650243132306E+00 -0.5249691796971E+01  0.0000000000000E+00
 0.1650364698607E+00 -0.5176559930107E+01  0.0000000000000E+00
 0.1650486264845E+00 -0.5103428101612E+01  0.0000000000000E+00
 0.1650607831202E+00 -0.5030296201722E+01  0.0000000000000E+00
 0.1650729397572E+00 -0.4957164293665E+01  0.0000000000000E+00
 0.1650850963808E+00 -0.4884032466845E+01  0.0000000000000E+00
 0.1650972530138E+00 -0.4810900582826E+01  0.0000000000000E+00
 0.1651094096441E+00 -0.4737768715564E+01  0.0000000000000E+00
 0.1651215662736E+00 -0.4664636852630E+01  0.0000000000000E+00
 0.1651337229045E+00 -0.4591504981143E+01  0.0000000000000E+00
 0.1651458795364E+00 -0.4518373103957E+01  0.0000000000000E+00
 0.1651580361651E+00 -0.4445241246328E+01  0.0000000000000E+00
 0.1651701927962E+00 -0.4372109373693E+01  0.0000000000000E+00
 0.1651823494294E+00 -0.4298977488776E+01  0.0000000000000E+00
 0.1651945060463E+00 -0.4225845701639E+01  0.0000000000000E+00
 0.1652066626816E+00 -0.4152713804333E+01  0.0000000000000E+00
 0.1652188193163E+00 -0.4079581910363E+01  0.0000000000000E+00
 0.1652309759968E+00 -0.4006449740845E+01  0.0000000000000E+00
 0.1652431327400E+00 -0.3933317193945E+01  0.0000000000000E+00
 0.1652552891962E+00 -0.3860186373828E+01  0.0000000000000E+00
 0.1652674458370E+00 -0.3787054443143E+01  0.0000000000000E+00
 0.1652796024254E+00 -0.3713922827279E+01  0.0000000000000E+00
 0.1652917590637E+00 -0.3640790911726E+01  0.0000000000000E+00
 0.1653039156820E+00 -0.3567659116566E+01  0.0000000000000E+00
 0.1653160723021E+00 -0.3494527309849E+01  0.0000000000000E+00
 0.1653282289185E+00 -0.3421395526411E+01  0.0000000000000E+00
 0.1653419310559E+00 -0.3348263692633E+01  0.0000000000000E+00
 0.1653722852432E+00 -0.3275132030223E+01  0.0000000000000E+00
 0.1654418133060E+00 -0.3202001363174E+01  0.0000000000000E+00
 0.1655715787076E+00 -0.3128874154697E+01  0.0000000000000E+00
 0.1657790760172E+00 -0.3055754858915E+01  0.0000000000000E+00
 0.1660775989180E+00 -0.2982649752469E+01  0.0000000000000E+00
 0.1664766838727E+00 -0.2909566781410E+01  0.0000000000000E+00
 0.1669830657313E+00 -0.2836514010489E+01  0.0000000000000E+00
 0.1676016961727E+00 -0.2763501312430E+01  0.0000000000000E+00
 0.1683366632393E+00 -0.2690538996722E+01  0.0000000000000E+00
 0.1691919609273E+00 -0.2617637140715E+01  0.0000000000000E+00
 0.1701720962103E+00 -0.2544808889151E+01  0.0000000000000E+00
 0.1712827136470E+00 -0.2472068097905E+01  0.0000000000000E+00
 0.1925137033979E+00 -0.5322854742991E+01  0.0000000000000E+00
 0.1925274070097E+00 -0.5249752993277E+01  0.0000000000000E+00
 0.1925411105314E+00 -0.5176651724604E+01  0.0000000000000E+00
 0.1925548140459E+00 -0.5103550494283E+01  0.0000000000000E+00
 0.1925685175737E+00 -0.5030449192598E+01  0.0000000000000E+00
 0.1925822211031E+00 -0.4957347882748E+01  0.0000000000000E+00
 0.1925959246172E+00 -0.4884246654102E+01  0.0000000000000E+00
 0.1926096281421E+00 -0.4811145368281E+01  0.0000000000000E+00
 0.1926233316638E+00 -0.4738044099210E+01  0.0000000000000E+00
 0.1926370351848E+00 -0.4664942834464E+01  0.0000000000000E+00
 0.1926507387073E+00 -0.4591841561169E+01  0.0000000000000E+00
 0.1926644422309E+00 -0.4518740282179E+01  0.0000000000000E+00
 0.1926781457508E+00 -0.4445639022736E+01  0.0000000000000E+00
 0.1926918492736E+00 -0.4372537748294E+01  0.0000000000000E+00
 0.1927055527986E+00 -0.4299436461575E+01  0.0000000000000E+00
 0.1927192563053E+00 -0.4226335272595E+01  0.0000000000000E+00
 0.1927329598327E+00 -0.4153233973493E+01  0.0000000000000E+00
 0.1927466633594E+00 -0.4080132677725E+01  0.0000000000000E+00
 0.1927603669378E+00 -0.4007031106524E+01  0.0000000000000E+00
 0.1927740705869E+00 -0.3933929158099E+01  0.0000000000000E+00
 0.1927877739124E+00 -0.3860828935735E+01  0.0000000000000E+00
 0.1928014774460E+00 -0.3787727603267E+01  0.0000000000000E+00
 0.1928151809207E+00 -0.3714626585488E+01  0.0000000000000E+00
 0.1928288844514E+00 -0.3641525268146E+01  0.0000000000000E+00
 0.1928425879597E+00 -0.3568424071147E+01  0.0000000000000E+00
 0.1928562914701E+00 -0.3495322862596E+01  0.0000000000000E+00
 0.1928699949761E+00 -0.3422221677313E+01  0.0000000000000E+00
 0.1928855015898E+00 -0.3349120441712E+01  0.0000000000000E+00
 0.1929204355949E+00 -0.3276019377451E+01  0.0000000000000E+00
 0.1930010724545E+00 -0.3202919308536E+01  0.0000000000000E+00
 0.1931519862088E+00 -0.3129822698168E+01  0.0000000000000E+00
 0.1933935871883E+00 -0.3056734000472E+01  0.0000000000000E+00
 0.1937413846899E+00 -0.2983659492096E+01  0.0000000000000E+00
 0.1942065045882E+00 -0.2910607118996E+01  0.0000000000000E+00
 0.1947968042040E+00 -0.2837584946179E+01  0.0000000000000E+00
 0.1955180604995E+00 -0.2764602846167E+01  0.0000000000000E+00
 0.1963750428589E+00 -0.2691671128356E+01  0.0000000000000E+00
 0.1973724109385E+00 -0.2618799870469E+01  0.0000000000000E+00
 0.1985154228803E+00 -0.2546002216883E+01  0.0000000000000E+00
 0.1998106640003E+00 -0.2473292023619E+01  0.0000000000000E+00
 0.2200150296761E+00 -0.5322890033456E+01  0.0000000000000E+00
 0.2200300595869E+00 -0.5249823574757E+01  0.0000000000000E+00
 0.2200450893987E+00 -0.5176757596868E+01  0.0000000000000E+00
 0.2200601192027E+00 -0.5103691657312E+01  0.0000000000000E+00
 0.2200751490213E+00 -0.5030625646426E+01  0.0000000000000E+00
 0.2200901788417E+00 -0.4957559627380E+01  0.0000000000000E+00
 0.2201052086453E+00 -0.4884493689498E+01  0.0000000000000E+00
 0.2201202384607E+00 -0.4811427694469E+01  0.0000000000000E+00
 0.2201352682726E+00 -0.4738361716181E+01  0.0000000000000E+00
 0.2201502980837E+00 -0.4665295742217E+01  0.0000000000000E+00
 0.2201653278965E+00 -0.4592229759708E+01  0.0000000000000E+00
 0.2201803577104E+00 -0.4519163771506E+01  0.0000000000000E+00
 0.2201953875204E+00 -0.4446097802843E+01  0.0000000000000E+00
 0.2202104173334E+00 -0.4373031819187E+01  0.0000000000000E+00
 0.2202254471490E+00 -0.4299965823260E+01  0.0000000000000E+00
 0.2202404769445E+00 -0.4226899925025E+01  0.0000000000000E+00
 0.2202555067626E+00 -0.4153833916721E+01  0.0000000000000E+00
 0.2202705365800E+00 -0.4080767911749E+01  0.0000000000000E+00
 0.2202855664541E+00 -0.4007701631478E+01  0.0000000000000E+00
 0.2203005964057E+00 -0.3934634974165E+01  0.0000000000000E+00
 0.2203156260024E+00 -0.3861570042079E+01  0.0000000000000E+00
 0.2203306558274E+00 -0.3788504000425E+01  0.0000000000000E+00
 0.2203456855877E+00 -0.3715438273309E+01  0.0000000000000E+00
 0.2203607154095E+00 -0.3642372246774E+01  0.0000000000000E+00
 0.2203757452067E+00 -0.3569306340524E+01  0.0000000000000E+00
 0.2203907750062E+00 -0.3496240422727E+01  0.0000000000000E+00
 0.2204058048009E+00 -0.3423174528187E+01  0.0000000000000E+00
 0.2204228952895E+00 -0.3350108583354E+01  0.0000000000000E+00
 0.2204621885116E+00 -0.3277042809830E+01  0.0000000000000E+00
 0.2205537135673E+00 -0.3203978031632E+01  0.0000000000000E+00
 0.2207255550736E+00 -0.3130916711954E+01  0.0000000000000E+00
 0.2210010391228E+00 -0.3057863304919E+01  0.0000000000000E+00
 0.2213978906251E+00 -0.2984824087189E+01  0.0000000000000E+00
 0.2219288248678E+00 -0.2911807004606E+01  0.0000000000000E+00
 0.2226028216409E+00 -0.2838820122472E+01  0.0000000000000E+00
 0.2234264831910E+00 -0.2765873313078E+01  0.0000000000000E+00
 0.2244052602449E+00 -0.2692976885710E+01  0.0000000000000E+00
 0.2255444781164E+00 -0.2620140918527E+01  0.0000000000000E+00
 0.2268501461184E+00 -0.2547378555479E+01  0.0000000000000E+00
 0.2283297903233E+00 -0.2474703652758E+01  0.0000000000000E+00
 0.2475161042376E+00 -0.5322930010150E+01  0.0000000000000E+00
 0.2475322087267E+00 -0.5249903528770E+01  0.0000000000000E+00
 0.2475483131098E+00 -0.5176877527935E+01  0.0000000000000E+00
 0.2475644174845E+00 -0.5103851565414E+01  0.0000000000000E+00
 0.2475805218748E+00 -0.5030825531601E+01  0.0000000000000E+00
 0.2475966262670E+00 -0.4957799489632E+01  0.0000000000000E+00
 0.2476127306413E+00 -0.4884773528783E+01  0.0000000000000E+00
 0.2476288350281E+00 -0.4811747510819E+01  0.0000000000000E+00
 0.2476449394113E+00 -0.4738721509587E+01  0.0000000000000E+00
 0.2476610437936E+00 -0.4665695512676E+01  0.0000000000000E+00
 0.2476771481777E+00 -0.4592669507224E+01  0.0000000000000E+00
 0.2476932525630E+00 -0.4519643496083E+01  0.0000000000000E+00
 0.2477093569441E+00 -0.4446617504470E+01  0.0000000000000E+00
 0.2477254613285E+00 -0.4373591497872E+01  0.0000000000000E+00
 0.2477415657155E+00 -0.4300565479010E+01  0.0000000000000E+00
 0.2477576700811E+00 -0.4227539557787E+01  0.0000000000000E+00
 0.2477737744709E+00 -0.4154513526555E+01  0.0000000000000E+00
 0.2477898788599E+00 -0.4081487498653E+01  0.0000000000000E+00
 0.2478059833097E+00 -0.4008461195602E+01  0.0000000000000E+00
 0.2478220878425E+00 -0.3935434515716E+01  0.0000000000000E+00
 0.2478381919951E+00 -0.3862409560113E+01  0.0000000000000E+00
 0.2478542963923E+00 -0.3789383495549E+01  0.0000000000000E+00
 0.2478704007201E+00 -0.3716357745351E+01  0.0000000000000E+00
 0.2478865051139E+00 -0.3643331695898E+01  0.0000000000000E+00
 0.2479026094812E+00 -0.3570305766664E+01  0.0000000000000E+00
 0.2479187138511E+00 -0.3497279825889E+01  0.0000000000000E+00
 0.2479348182158E+00 -0.3424253908359E+01  0.0000000000000E+00
 0.2479532408606E+00 -0.3351227940563E+01  0.0000000000000E+00
 0.2479966415812E+00 -0.3278202144041E+01  0.0000000000000E+00
 0.2480988031146E+00 -0.3205177342823E+01  0.0000000000000E+00
 0.2482913206553E+00 -0.3132156000095E+01  0.0000000000000E+00
 0.2486004360571E+00 -0.3059142569976E+01  0.0000000000000E+00
 0.2490460898435E+00 -0.2986143329146E+01  0.0000000000000E+00
 0.2496425867155E+00 -0.2913166223315E+01  0.0000000000000E+00
 0.2504000289301E+00 -0.2840219318123E+01  0.0000000000000E+00
 0.2513258440200E+00 -0.2767312485597E+01  0.0000000000000E+00
 0.2524261640554E+00 -0.2694456034899E+01  0.0000000000000E+00
 0.2537069800047E+00 -0.2621660044679E+01  0.0000000000000E+00
 0.2551750523544E+00 -0.2548937658409E+01  0.0000000000000E+00
 0.2568388479324E+00 -0.2476302732472E+01  0.0000000000000E+00
 0.2750168961041E+00 -0.5322974665928E+01  0.0000000000000E+00
 0.2750337924721E+00 -0.5249992841023E+01  0.0000000000000E+00
 0.2750506887288E+00 -0.5177011496370E+01  0.0000000000000E+00
 0.2750675849767E+00 -0.5104030190007E+01  0.0000000000000E+00
 0.2750844812411E+00 -0.5031048812396E+01  0.0000000000000E+00
 0.2751013775074E+00 -0.4958067426634E+01  0.0000000000000E+00
 0.2751182737549E+00 -0.4885086121942E+01  0.0000000000000E+00
 0.2751351700156E+00 -0.4812104760170E+01  0.0000000000000E+00
 0.2751520662724E+00 -0.4739123415120E+01  0.0000000000000E+00
 0.2751689625282E+00 -0.4666142074388E+01  0.0000000000000E+00
 0.2751858587861E+00 -0.4593160725121E+01  0.0000000000000E+00
 0.2752027550452E+00 -0.4520179370167E+01  0.0000000000000E+00
 0.2752196512998E+00 -0.4447198034730E+01  0.0000000000000E+00
 0.2752365475579E+00 -0.4374216684318E+01  0.0000000000000E+00
 0.2752534438188E+00 -0.4301235321649E+01  0.0000000000000E+00
 0.2752703400571E+00 -0.4228254056558E+01  0.0000000000000E+00
 0.2752872363209E+00 -0.4155272681526E+01  0.0000000000000E+00
 0.2753041325839E+00 -0.4082291309822E+01  0.0000000000000E+00
 0.2753210289106E+00 -0.4009309663138E+01  0.0000000000000E+00
 0.2753379253245E+00 -0.3936327639849E+01  0.0000000000000E+00
 0.2753548213394E+00 -0.3863347339789E+01  0.0000000000000E+00
 0.2753717176109E+00 -0.3790365931445E+01  0.0000000000000E+00
 0.2753886138096E+00 -0.3717384837275E+01  0.0000000000000E+00
 0.2754055100776E+00 -0.3644403444034E+01  0.0000000000000E+00
 0.2754224063178E+00 -0.3571422170937E+01  0.0000000000000E+00
 0.2754393025607E+00 -0.3498440886307E+01  0.0000000000000E+00
 0.2754561987982E+00 -0.3425459624908E+01  0.0000000000000E+00
 0.2754756709017E+00 -0.3352478313274E+01  0.0000000000000E+00
 0.2755228964236E+00 -0.3279497172874E+01  0.0000000000000E+00
 0.2756354117382E+00 -0.3206517027754E+01  0.0000000000000E+00
 0.2758483226174E+00 -0.3133540341089E+01  0.0000000000000E+00
 0.2761907866767E+00 -0.3060571566997E+01  0.0000000000000E+00
 0.2766849600530E+00 -0.2987616982174E+01  0.0000000000000E+00
 0.2773467368619E+00 -0.2914684532187E+01  0.0000000000000E+00
 0.2781873418250E+00 -0.2841782283050E+01  0.0000000000000E+00
 0.2792150277633E+00 -0.2768920106496E+01  0.0000000000000E+00
 0.2804366080911E+00 -0.2696108311550E+01  0.0000000000000E+00
 0.2818587394278E+00 -0.2623356977410E+01  0.0000000000000E+00
 0.2834889334373E+00 -0.2550679247011E+01  0.0000000000000E+00
 0.2853365977013E+00 -0.2478088976952E+01  0.0000000000000E+00
 0.3025173744636E+00 -0.5323023992829E+01  0.0000000000000E+00
 0.3025347491984E+00 -0.5250091495595E+01  0.0000000000000E+00
 0.3025521238189E+00 -0.5177159478289E+01  0.0000000000000E+00
 0.3025694984303E+00 -0.5104227499246E+01  0.0000000000000E+00
 0.3025868730586E+00 -0.5031295449004E+01  0.0000000000000E+00
 0.3026042476889E+00 -0.4958363390616E+01  0.0000000000000E+00
 0.3026216222999E+00 -0.4885431413244E+01  0.0000000000000E+00
 0.3026389969245E+00 -0.4812499378830E+01  0.0000000000000E+00
 0.3026563715451E+00 -0.4739567361126E+01  0.0000000000000E+00
 0.3026737461646E+00 -0.4666635347738E+01  0.0000000000000E+00
 0.3026911207862E+00 -0.4593703325821E+01  0.0000000000000E+00
 0.3027084954092E+00 -0.4520771298221E+01  0.0000000000000E+00
 0.3027258700275E+00 -0.4447839290124E+01  0.0000000000000E+00
 0.3027432446493E+00 -0.4374907267062E+01  0.0000000000000E+00
 0.3027606192741E+00 -0.4301975231751E+01  0.0000000000000E+00
 0.3027779938757E+00 -0.4229043293953E+01  0.0000000000000E+00
 0.3027953685034E+00 -0.4156111246288E+01  0.0000000000000E+00
 0.3028127431304E+00 -0.4083179201949E+01  0.0000000000000E+00
 0.3028301178228E+00 -0.4010246882816E+01  0.0000000000000E+00
 0.3028474926048E+00 -0.3937314187331E+01  0.0000000000000E+00
 0.3028648669766E+00 -0.3864383213911E+01  0.0000000000000E+00
 0.3028822416123E+00 -0.3791451132958E+01  0.0000000000000E+00
 0.3028996161732E+00 -0.3718519365965E+01  0.0000000000000E+00
 0.3029169908052E+00 -0.3645587300102E+01  0.0000000000000E+00
 0.3029343654087E+00 -0.3572655354304E+01  0.0000000000000E+00
 0.3029517400149E+00 -0.3499723396980E+01  0.0000000000000E+00
 0.3029691146156E+00 -0.3426791462871E+01  0.0000000000000E+00
 0.3029893226681E+00 -0.3353859478562E+01  0.0000000000000E+00
 0.3030400594820E+00 -0.3280927665442E+01  0.0000000000000E+00
 0.3031626150691E+00 -0.3207996847576E+01  0.0000000000000E+00
 0.3033956057791E+00 -0.3135069488127E+01  0.0000000000000E+00
 0.3037711049892E+00 -0.3062150041211E+01  0.0000000000000E+00
 0.3043134844499E+00 -0.2989244783542E+01  0.0000000000000E+00
 0.3050402276925E+00 -0.2916361660528E+01  0.0000000000000E+00
 0.3059636819007E+00 -0.2843508738597E+01  0.0000000000000E+00
 0.3070929251856E+00 -0.2770695889158E+01  0.0000000000000E+00
 0.3084354523070E+00 -0.2697933421084E+01  0.0000000000000E+00
 0.3099985855313E+00 -0.2625231414179E+01  0.0000000000000E+00
 0.3117905877036E+00 -0.2552603010784E+01  0.0000000000000E+00
 0.3138218071582E+00 -0.2480062067735E+01  0.0000000000000E+00
 0.3300175084459E+00 -0.5323077982063E+01  0.0000000000000E+00
 0.3300350171651E+00 -0.5250199474906E+01  0.0000000000000E+00
 0.3300525257691E+00 -0.5177321447320E+01  0.0000000000000E+00
 0.3300700343639E+00 -0.5104443457970E+01  0.0000000000000E+00
 0.3300875429759E+00 -0.5031565397474E+01  0.0000000000000E+00
 0.3301050515897E+00 -0.4958687328838E+01  0.0000000000000E+00
 0.3301225601842E+00 -0.4885809341157E+01  0.0000000000000E+00
 0.3301400687923E+00 -0.4812931296477E+01  0.0000000000000E+00
 0.3301575773964E+00 -0.4740053268495E+01  0.0000000000000E+00
 0.3301750859995E+00 -0.4667175244825E+01  0.0000000000000E+00
 0.3301925946046E+00 -0.4594297212633E+01  0.0000000000000E+00
 0.3302101032111E+00 -0.4521419174761E+01  0.0000000000000E+00
 0.3302276118129E+00 -0.4448541156379E+01  0.0000000000000E+00
 0.3302451204183E+00 -0.4375663123042E+01  0.0000000000000E+00
 0.3302626290266E+00 -0.4302785077466E+01  0.0000000000000E+00
 0.3302801376115E+00 -0.4229907129331E+01  0.0000000000000E+00
 0.3302976462228E+00 -0.4157029071410E+01  0.0000000000000E+00
 0.3303151548333E+00 -0.4084151016812E+01  0.0000000000000E+00
 0.3303326635098E+00 -0.4011272687623E+01  0.0000000000000E+00
 0.3303501722766E+00 -0.3938393982362E+01  0.0000000000000E+00
 0.3303676806300E+00 -0.3865516997891E+01  0.0000000000000E+00
 0.3303851892493E+00 -0.3792638906705E+01  0.0000000000000E+00
 0.3304026977933E+00 -0.3719761129248E+01  0.0000000000000E+00
 0.3304202064089E+00 -0.3646883053143E+01  0.0000000000000E+00
 0.3304377149958E+00 -0.3574005097013E+01  0.0000000000000E+00
 0.3304552235854E+00 -0.3501127129366E+01  0.0000000000000E+00
 0.3304727321694E+00 -0.3428249184916E+01  0.0000000000000E+00
 0.3304933317908E+00 -0.3355371190305E+01  0.0000000000000E+00
 0.3305472355168E+00 -0.3282493366834E+01  0.0000000000000E+00
 0.3306794869959E+00 -0.3209616538588E+01  0.0000000000000E+00
 0.3309322131555E+00 -0.3136743168717E+01  0.0000000000000E+00
 0.3313404031344E+00 -0.3063877711336E+01  0.0000000000000E+00
 0.3319306442963E+00 -0.2991026443178E+01  0.0000000000000E+00
 0.3327220095890E+00 -0.2918197309477E+01  0.0000000000000E+00
 0.3337279686554E+00 -0.2845398377113E+01  0.0000000000000E+00
 0.3349584248991E+00 -0.2772639517142E+01  0.0000000000000E+00
 0.3364215544260E+00 -0.2699931038270E+01  0.0000000000000E+00
 0.3381253451457E+00 -0.2627283020963E+01  0.0000000000000E+00
 0.3400788110881E+00 -0.2554708606914E+01  0.0000000000000E+00
 0.3422932413385E+00 -0.2482221653219E+01  0.0000000000000E+00
 0.3575172675861E+00 -0.5323136624051E+01  0.0000000000000E+00
 0.3575345354418E+00 -0.5250316759797E+01  0.0000000000000E+00
 0.3575518031839E+00 -0.5177497374729E+01  0.0000000000000E+00
 0.3575690709169E+00 -0.5104678027866E+01  0.0000000000000E+00
 0.3575863386668E+00 -0.5031858609914E+01  0.0000000000000E+00
 0.3576036064186E+00 -0.4959039183829E+01  0.0000000000000E+00
 0.3576208741512E+00 -0.4886219838634E+01  0.0000000000000E+00
 0.3576381418973E+00 -0.4813400436485E+01  0.0000000000000E+00
 0.3576554096395E+00 -0.4740581051021E+01  0.0000000000000E+00
 0.3576726773806E+00 -0.4667761669865E+01  0.0000000000000E+00
 0.3576899451238E+00 -0.4594942280194E+01  0.0000000000000E+00
 0.3577072128683E+00 -0.4522122884849E+01  0.0000000000000E+00
 0.3577244806082E+00 -0.4449303508977E+01  0.0000000000000E+00
 0.3577417483516E+00 -0.4376484118162E+01  0.0000000000000E+00
 0.3577590160979E+00 -0.4303664715118E+01  0.0000000000000E+00
 0.3577762838212E+00 -0.4230845409437E+01  0.0000000000000E+00
 0.3577935515704E+00 -0.4158025994058E+01  0.0000000000000E+00
 0.3578108193189E+00 -0.4085206581999E+01  0.0000000000000E+00
 0.3578280871324E+00 -0.4012386895571E+01  0.0000000000000E+00
 0.3578453550351E+00 -0.3939566833373E+01  0.0000000000000E+00
 0.3578626225300E+00 -0.3866748490580E+01  0.0000000000000E+00
 0.3578798902871E+00 -0.3793929041963E+01  0.0000000000000E+00
 0.3578971579699E+00 -0.3721109906822E+01  0.0000000000000E+00
 0.3579144257235E+00 -0.3648290473274E+01  0.0000000000000E+00
 0.3579316934486E+00 -0.3575471159604E+01  0.0000000000000E+00
 0.3579489611765E+00 -0.3502651834426E+01  0.0000000000000E+00
 0.3579662288989E+00 -0.3429832532427E+01  0.0000000000000E+00
 0.3579868452438E+00 -0.3357013180307E+01  0.0000000000000E+00
 0.3580435410366E+00 -0.3284193999277E+01  0.0000000000000E+00
 0.3581851135621E+00 -0.3211375813438E+01  0.0000000000000E+00
 0.3584572003250E+00 -0.3138561085930E+01  0.0000000000000E+00
 0.3588977062253E+00 -0.3065754270863E+01  0.0000000000000E+00
 0.3595354342398E+00 -0.2992961644994E+01  0.0000000000000E+00
 0.3603910467339E+00 -0.2920191153367E+01  0.0000000000000E+00
 0.3614791358063E+00 -0.2847450863354E+01  0.0000000000000E+00
 0.3628104301554E+00 -0.2774750645626E+01  0.0000000000000E+00
 0.3643937872345E+00 -0.2702100808707E+01  0.0000000000000E+00
 0.3662378605914E+00 -0.2629511433784E+01  0.0000000000000E+00
 0.3683524154458E+00 -0.2556995661845E+01  0.0000000000000E+00
 0.3707496816316E+00 -0.2484567350268E+01  0.0000000000000E+00
 0.3850166218602E+00 -0.5323199908445E+01  0.0000000000000E+00
 0.3850332439800E+00 -0.5250443329573E+01  0.0000000000000E+00
 0.3850498659903E+00 -0.5177687229470E+01  0.0000000000000E+00
 0.3850664879920E+00 -0.5104931167540E+01  0.0000000000000E+00
 0.3850831100098E+00 -0.5032175034582E+01  0.0000000000000E+00
 0.3850997320295E+00 -0.4959418893497E+01  0.0000000000000E+00
 0.3851163540308E+00 -0.4886662833233E+01  0.0000000000000E+00
 0.3851329760450E+00 -0.4813906716064E+01  0.0000000000000E+00
 0.3851495980555E+00 -0.4741150615566E+01  0.0000000000000E+00
 0.3851662200650E+00 -0.4668394519373E+01  0.0000000000000E+00
 0.3851828420764E+00 -0.4595638414671E+01  0.0000000000000E+00
 0.3851994640891E+00 -0.4522882304300E+01  0.0000000000000E+00
 0.3852160860973E+00 -0.4450126213385E+01  0.0000000000000E+00
 0.3852327081090E+00 -0.4377370107541E+01  0.0000000000000E+00
 0.3852493301234E+00 -0.4304613989479E+01  0.0000000000000E+00
 0.3852659521157E+00 -0.4231857968693E+01  0.0000000000000E+00
 0.3852825741330E+00 -0.4159101838306E+01  0.0000000000000E+00
 0.3852991961495E+00 -0.4086345711236E+01  0.0000000000000E+00
 0.3853158182286E+00 -0.4013589310035E+01  0.0000000000000E+00
 0.3853324403935E+00 -0.3940832533391E+01  0.0000000000000E+00
 0.3853490621660E+00 -0.3868077474658E+01  0.0000000000000E+00
 0.3853656841908E+00 -0.3795321311062E+01  0.0000000000000E+00
 0.3853823061441E+00 -0.3722565460669E+01  0.0000000000000E+00
 0.3853989281656E+00 -0.3649809312128E+01  0.0000000000000E+00
 0.3854155501596E+00 -0.3577053283362E+01  0.0000000000000E+00
 0.3854321721563E+00 -0.3504297243097E+01  0.0000000000000E+00
 0.3854487941477E+00 -0.3431541225992E+01  0.0000000000000E+00
 0.3854690223466E+00 -0.3358785158809E+01  0.0000000000000E+00
 0.3855281053371E+00 -0.3286029262660E+01  0.0000000000000E+00
 0.3856785940406E+00 -0.3213274361667E+01  0.0000000000000E+00
 0.3859696365395E+00 -0.3140522918957E+01  0.0000000000000E+00
 0.3864420534953E+00 -0.3067779388636E+01  0.0000000000000E+00
 0.3871268634976E+00 -0.2995050047487E+01  0.0000000000000E+00
 0.3880463183308E+00 -0.2922342840346E+01  0.0000000000000E+00
 0.3892161325464E+00 -0.2849665835119E+01  0.0000000000000E+00
 0.3906478601401E+00 -0.2777028902059E+01  0.0000000000000E+00
 0.3923510399141E+00 -0.2704442349497E+01  0.0000000000000E+00
 0.3943349910493E+00 -0.2631916259395E+01  0.0000000000000E+00
 0.3966102299599E+00 -0.2559463771981E+01  0.0000000000000E+00
 0.3991899272271E+00 -0.2487098744940E+01  0.0000000000000E+00
 0.4125155412901E+00 -0.5323267824101E+01  0.0000000000000E+00
 0.4125310828229E+00 -0.5250579161946E+01  0.0000000000000E+00
 0.4125466242534E+00 -0.5177890978113E+01  0.0000000000000E+00
 0.4125621656758E+00 -0.5105202832417E+01  0.0000000000000E+00
 0.4125777071133E+00 -0.5032514615759E+01  0.0000000000000E+00
 0.4125932485525E+00 -0.4959826390983E+01  0.0000000000000E+00
 0.4126087899745E+00 -0.4887138246951E+01  0.0000000000000E+00
 0.4126243314087E+00 -0.4814450046068E+01  0.0000000000000E+00
 0.4126398728393E+00 -0.4741761861841E+01  0.0000000000000E+00
 0.4126554142689E+00 -0.4669073681913E+01  0.0000000000000E+00
 0.4126709557004E+00 -0.4596385493486E+01  0.0000000000000E+00
 0.4126864971331E+00 -0.4523697299394E+01  0.0000000000000E+00
 0.4127020385617E+00 -0.4451009124741E+01  0.0000000000000E+00
 0.4127175799934E+00 -0.4378320935172E+01  0.0000000000000E+00
 0.4127331214277E+00 -0.4305632733396E+01  0.0000000000000E+00
 0.4127486628413E+00 -0.4232944628807E+01  0.0000000000000E+00
 0.4127642042783E+00 -0.4160256414717E+01  0.0000000000000E+00
 0.4127797457145E+00 -0.4087568203943E+01  0.0000000000000E+00
 0.4127952872094E+00 -0.4014879719292E+01  0.0000000000000E+00
 0.4128108287844E+00 -0.3942190859550E+01  0.0000000000000E+00
 0.4128263699924E+00 -0.3869503716114E+01  0.0000000000000E+00
 0.4128419114365E+00 -0.3796815468847E+01  0.0000000000000E+00
 0.4128574528137E+00 -0.3724127534492E+01  0.0000000000000E+00
 0.4128729942545E+00 -0.3651439302266E+01  0.0000000000000E+00
 0.4128885356698E+00 -0.3578751189702E+01  0.0000000000000E+00
 0.4129040770875E+00 -0.3506063065652E+01  0.0000000000000E+00
 0.4129196185003E+00 -0.3433374964739E+01  0.0000000000000E+00
 0.4129390237053E+00 -0.3360686813796E+01  0.0000000000000E+00
 0.4130000590462E+00 -0.3287998833826E+01  0.0000000000000E+00
 0.4131590290814E+00 -0.3215311848975E+01  0.0000000000000E+00
 0.4134685924712E+00 -0.3142628322355E+01  0.0000000000000E+00
 0.4139724856390E+00 -0.3069952708070E+01  0.0000000000000E+00
 0.4147039427873E+00 -0.2997291282925E+01  0.0000000000000E+00
 0.4156868051213E+00 -0.2924651991540E+01  0.0000000000000E+00
 0.4169379096413E+00 -0.2852042902390E+01  0.0000000000000E+00
 0.4184696356435E+00 -0.2779473885282E+01  0.0000000000000E+00
 0.4202922032802E+00 -0.2706955248335E+01  0.0000000000000E+00
 0.4224155973605E+00 -0.2634497074348E+01  0.0000000000000E+00
 0.4248510854982E+00 -0.2562112502733E+01  0.0000000000000E+00
 0.4276127790196E+00 -0.2489815391499E+01  0.0000000000000E+00
 0.4400139961492E+00 -0.5323340359107E+01  0.0000000000000E+00
 0.4400279925168E+00 -0.5250724233091E+01  0.0000000000000E+00
 0.4400419887924E+00 -0.5178108584919E+01  0.0000000000000E+00
 0.4400559850606E+00 -0.5105492974846E+01  0.0000000000000E+00
 0.4400699813425E+00 -0.5032877293882E+01  0.0000000000000E+00
 0.4400839776260E+00 -0.4960261604808E+01  0.0000000000000E+00
 0.4400979738939E+00 -0.4887645996398E+01  0.0000000000000E+00
 0.4401119701727E+00 -0.4815030331193E+01  0.0000000000000E+00
 0.4401259664484E+00 -0.4742414682627E+01  0.0000000000000E+00
 0.4401399627232E+00 -0.4669799038357E+01  0.0000000000000E+00
 0.4401539589996E+00 -0.4597183385595E+01  0.0000000000000E+00
 0.4401679552772E+00 -0.4524567727175E+01  0.0000000000000E+00
 0.4401819515510E+00 -0.4451952088174E+01  0.0000000000000E+00
 0.4401959478276E+00 -0.4379336434272E+01  0.0000000000000E+00
 0.4402099441067E+00 -0.4306720768175E+01  0.0000000000000E+00
 0.4402239403670E+00 -0.4234105199168E+01  0.0000000000000E+00
 0.4402379366484E+00 -0.4161489520770E+01  0.0000000000000E+00
 0.4402519329291E+00 -0.4088873845683E+01  0.0000000000000E+00
 0.4402659292626E+00 -0.4016257896994E+01  0.0000000000000E+00
 0.4402799256683E+00 -0.3943641573588E+01  0.0000000000000E+00
 0.4402939217436E+00 -0.3871026964775E+01  0.0000000000000E+00
 0.4403079180314E+00 -0.3798411253232E+01  0.0000000000000E+00
 0.4403219142589E+00 -0.3725795854289E+01  0.0000000000000E+00
 0.4403359105438E+00 -0.3653180157773E+01  0.0000000000000E+00
 0.4403499068056E+00 -0.3580564580800E+01  0.0000000000000E+00
 0.4403639030697E+00 -0.3507948992351E+01  0.0000000000000E+00
 0.4403778993293E+00 -0.3435333427016E+01  0.0000000000000E+00
 0.4403960169655E+00 -0.3362717811702E+01  0.0000000000000E+00
 0.4404585400829E+00 -0.3290102367297E+01  0.0000000000000E+00
 0.4406255268767E+00 -0.3217487917971E+01  0.0000000000000E+00
 0.4409531465861E+00 -0.3144876926821E+01  0.0000000000000E+00
 0.4414880513969E+00 -0.3072273847945E+01  0.0000000000000E+00
 0.4422656911242E+00 -0.2999684958178E+01  0.0000000000000E+00
 0.4433114963957E+00 -0.2927118201906E+01  0.0000000000000E+00
 0.4446434266572E+00 -0.2854581648211E+01  0.0000000000000E+00
 0.4462746865083E+00 -0.2782085166424E+01  0.0000000000000E+00
 0.4482161774530E+00 -0.2709639064440E+01  0.0000000000000E+00
 0.4504785499227E+00 -0.2637253425950E+01  0.0000000000000E+00
 0.4530738227369E+00 -0.2564941389491E+01  0.0000000000000E+00
 0.4560170479646E+00 -0.2492716813425E+01  0.0000000000000E+00
 0.4675119562802E+00 -0.5323417500711E+01  0.0000000000000E+00
 0.4675239127470E+00 -0.5250878517502E+01  0.0000000000000E+00
 0.4675358691352E+00 -0.5178340011631E+01  0.0000000000000E+00
 0.4675478255171E+00 -0.5105801543817E+01  0.0000000000000E+00
 0.4675597819107E+00 -0.5033263005188E+01  0.0000000000000E+00
 0.4675717383056E+00 -0.4960724458458E+01  0.0000000000000E+00
 0.4675836946873E+00 -0.4888185992305E+01  0.0000000000000E+00
 0.4675956510783E+00 -0.4815647469419E+01  0.0000000000000E+00
 0.4676076074665E+00 -0.4743108963153E+01  0.0000000000000E+00
 0.4676195638540E+00 -0.4670570461179E+01  0.0000000000000E+00
 0.4676315202430E+00 -0.4598031950723E+01  0.0000000000000E+00
 0.4676434766328E+00 -0.4525493434613E+01  0.0000000000000E+00
 0.4676554330195E+00 -0.4452954937902E+01  0.0000000000000E+00
 0.4676673894086E+00 -0.4380416426307E+01  0.0000000000000E+00
 0.4676793457998E+00 -0.4307877902529E+01  0.0000000000000E+00
 0.4676913021749E+00 -0.4235339475738E+01  0.0000000000000E+00
 0.4677032585681E+00 -0.4162800939672E+01  0.0000000000000E+00
 0.4677152149607E+00 -0.4090262406914E+01  0.0000000000000E+00
 0.4677271713984E+00 -0.4017723600845E+01  0.0000000000000E+00
 0.4677391278977E+00 -0.3945184420456E+01  0.0000000000000E+00
 0.4677510841148E+00 -0.3872646952839E+01  0.0000000000000E+00
 0.4677630405134E+00 -0.3800108383664E+01  0.0000000000000E+00
 0.4677749968605E+00 -0.3727570126756E+01  0.0000000000000E+00
 0.4677869532567E+00 -0.3655031572591E+01  0.0000000000000E+00
 0.4677989096331E+00 -0.3582493137842E+01  0.0000000000000E+00
 0.4678108660115E+00 -0.3509954691630E+01  0.0000000000000E+00
 0.4678228223860E+00 -0.3437416268508E+01  0.0000000000000E+00
 0.4678391577211E+00 -0.3364877795460E+01  0.0000000000000E+00
 0.4679026738820E+00 -0.3292339493251E+01  0.0000000000000E+00
 0.4680771826997E+00 -0.3219802186081E+01  0.0000000000000E+00
 0.4684223639906E+00 -0.3147268337027E+01  0.0000000000000E+00
 0.4689877857019E+00 -0.3074742400184E+01  0.0000000000000E+00
 0.4698111132608E+00 -0.3002230652417E+01  0.0000000000000E+00
 0.4709193667184E+00 -0.2929741037861E+01  0.0000000000000E+00
 0.4723316279611E+00 -0.2857281626246E+01  0.0000000000000E+00
 0.4740619268952E+00 -0.2784862286398E+01  0.0000000000000E+00
 0.4761218463775E+00 -0.2712493325972E+01  0.0000000000000E+00
 0.4785227024555E+00 -0.2640184829606E+01  0.0000000000000E+00
 0.4812772651600E+00 -0.2567949934912E+01  0.0000000000000E+00
 0.4844015273001E+00 -0.2495802500621E+01  0.0000000000000E+00
 0.4950093930312E+00 -0.5323499235544E+01  0.0000000000000E+00
 0.4950187862091E+00 -0.5251041988446E+01  0.0000000000000E+00
 0.4950281793252E+00 -0.5178585218147E+01  0.0000000000000E+00
 0.4950375724363E+00 -0.5106128485863E+01  0.0000000000000E+00
 0.4950469655566E+00 -0.5033671682843E+01  0.0000000000000E+00
 0.4950563586780E+00 -0.4961214871731E+01  0.0000000000000E+00
 0.4950657517889E+00 -0.4888758141106E+01  0.0000000000000E+00
 0.4950751449072E+00 -0.4816301353810E+01  0.0000000000000E+00
 0.4950845380233E+00 -0.4743844583117E+01  0.0000000000000E+00
 0.4950939311389E+00 -0.4671387816711E+01  0.0000000000000E+00
 0.4951033242555E+00 -0.4598931041832E+01  0.0000000000000E+00
 0.4951127173729E+00 -0.4526474261307E+01  0.0000000000000E+00
 0.4951221104878E+00 -0.4454017500157E+01  0.0000000000000E+00
 0.4951315036046E+00 -0.4381560724141E+01  0.0000000000000E+00
 0.4951408967230E+00 -0.4309103935955E+01  0.0000000000000E+00
 0.4951502898288E+00 -0.4236647244647E+01  0.0000000000000E+00
 0.4951596829488E+00 -0.4164190444188E+01  0.0000000000000E+00
 0.4951690760684E+00 -0.4091733647032E+01  0.0000000000000E+00
 0.4951784692233E+00 -0.4019276576873E+01  0.0000000000000E+00
 0.4951878624267E+00 -0.3946819132816E+01  0.0000000000000E+00
 0.4951972554083E+00 -0.3874363399602E+01  0.0000000000000E+00
 0.4952066485326E+00 -0.3801906566070E+01  0.0000000000000E+00
 0.4952160416164E+00 -0.3729450044454E+01  0.0000000000000E+00
 0.4952254347388E+00 -0.3656993225916E+01  0.0000000000000E+00
 0.4952348278456E+00 -0.3584536526659E+01  0.0000000000000E+00
 0.4952442209540E+00 -0.3512079815952E+01  0.0000000000000E+00
 0.4952536140593E+00 -0.3439623128308E+01  0.0000000000000E+00
 0.4952676437088E+00 -0.3367166390797E+01  0.0000000000000E+00
 0.4953316295295E+00 -0.3294709824051E+01  0.0000000000000E+00
 0.4955131369880E+00 -0.3222254252300E+01  0.0000000000000E+00
 0.4958753564787E+00 -0.3149802138601E+01  0.0000000000000E+00
 0.4964707717102E+00 -0.3077357937048E+01  0.0000000000000E+00
 0.4973392637219E+00 -0.3004927924534E+01  0.0000000000000E+00
 0.4985094419899E+00 -0.2932520044932E+01  0.0000000000000E+00
 0.5000015108371E+00 -0.2860142368657E+01  0.0000000000000E+00
 0.5018303254799E+00 -0.2787804763998E+01  0.0000000000000E+00
 0.5040081501297E+00 -0.2715517538358E+01  0.0000000000000E+00
 0.5065469664438E+00 -0.2643290777377E+01  0.0000000000000E+00
 0.5094602956703E+00 -0.2571137617688E+01  0.0000000000000E+00
 0.5127650713562E+00 -0.2499071918413E+01  0.0000000000000E+00
 0.5225062775729E+00 -0.5323585549462E+01  0.0000000000000E+00
 0.5225125552438E+00 -0.5251214617627E+01  0.0000000000000E+00
 0.5225188328735E+00 -0.5178844162025E+01  0.0000000000000E+00
 0.5225251104998E+00 -0.5106473744392E+01  0.0000000000000E+00
 0.5225313881322E+00 -0.5034103256108E+01  0.0000000000000E+00
 0.5225376657654E+00 -0.4961732759741E+01  0.0000000000000E+00
 0.5225439433916E+00 -0.4889362343766E+01  0.0000000000000E+00
 0.5225502210226E+00 -0.4816991871188E+01  0.0000000000000E+00
 0.5225564986523E+00 -0.4744621415192E+01  0.0000000000000E+00
 0.5225627762816E+00 -0.4672250963478E+01  0.0000000000000E+00
 0.5225690539116E+00 -0.4599880503300E+01  0.0000000000000E+00
 0.5225753315421E+00 -0.4527510037484E+01  0.0000000000000E+00
 0.5225816091709E+00 -0.4455139591020E+01  0.0000000000000E+00
 0.5225878868010E+00 -0.4382769129707E+01  0.0000000000000E+00
 0.5225941644322E+00 -0.4310398656240E+01  0.0000000000000E+00
 0.5226004420550E+00 -0.4238028279534E+01  0.0000000000000E+00
 0.5226067196872E+00 -0.4165657793807E+01  0.0000000000000E+00
 0.5226129973191E+00 -0.4093287311381E+01  0.0000000000000E+00
 0.5226192749747E+00 -0.4020916556275E+01  0.0000000000000E+00
 0.5226255526627E+00 -0.3948545427718E+01  0.0000000000000E+00
 0.5226318302025E+00 -0.3876176007964E+01  0.0000000000000E+00
 0.5226381078376E+00 -0.3803805489205E+01  0.0000000000000E+00
 0.5226443854456E+00 -0.3731435281989E+01  0.0000000000000E+00
 0.5226506630794E+00 -0.3659064778205E+01  0.0000000000000E+00
 0.5226569407029E+00 -0.3586694393560E+01  0.0000000000000E+00
 0.5226632183274E+00 -0.3514323997479E+01  0.0000000000000E+00
 0.5226694959498E+00 -0.3441953624434E+01  0.0000000000000E+00
 0.5226806676997E+00 -0.3369583201581E+01  0.0000000000000E+00
 0.5227445709670E+00 -0.3297212949417E+01  0.0000000000000E+00
 0.5229325248546E+00 -0.3224843692200E+01  0.0000000000000E+00
 0.5233112303354E+00 -0.3152477892969E+01  0.0000000000000E+00
 0.5239360868800E+00 -0.3080120005814E+01  0.0000000000000E+00
 0.5248491911400E+00 -0.3007776307661E+01  0.0000000000000E+00
 0.5260807420188E+00 -0.2935454742102E+01  0.0000000000000E+00
 0.5276520662712E+00 -0.2863163380278E+01  0.0000000000000E+00
 0.5295788444276E+00 -0.2790912089911E+01  0.0000000000000E+00
 0.5318740220555E+00 -0.2718711178137E+01  0.0000000000000E+00
 0.5345502464155E+00 -0.2646570731656E+01  0.0000000000000E+00
 0.5376217899799E+00 -0.2574503886064E+01  0.0000000000000E+00
 0.5411065270310E+00 -0.2502524500898E+01  0.0000000000000E+00
 0.5500025813346E+00 -0.5323676427588E+01  0.0000000000000E+00
 0.5500051627095E+00 -0.5251396375300E+01  0.0000000000000E+00
 0.5500077440674E+00 -0.5179116798646E+01  0.0000000000000E+00
 0.5500103254240E+00 -0.5106837259913E+01  0.0000000000000E+00
 0.5500129067830E+00 -0.5034557650618E+01  0.0000000000000E+00
 0.5500154881424E+00 -0.4962278033250E+01  0.0000000000000E+00
 0.5500180694989E+00 -0.4889998496172E+01  0.0000000000000E+00
 0.5500206508574E+00 -0.4817718902563E+01  0.0000000000000E+00
 0.5500232322154E+00 -0.4745439325515E+01  0.0000000000000E+00
 0.5500258135731E+00 -0.4673159752744E+01  0.0000000000000E+00
 0.5500283949312E+00 -0.4600880171520E+01  0.0000000000000E+00
 0.5500309762895E+00 -0.4528600584664E+01  0.0000000000000E+00
 0.5500335576471E+00 -0.4456321017137E+01  0.0000000000000E+00
 0.5500361390052E+00 -0.4384041434779E+01  0.0000000000000E+00
 0.5500387203637E+00 -0.4311761840281E+01  0.0000000000000E+00
 0.5500413017188E+00 -0.4239482342424E+01  0.0000000000000E+00
 0.5500438830778E+00 -0.4167202735683E+01  0.0000000000000E+00
 0.5500464644367E+00 -0.4094923132238E+01  0.0000000000000E+00
 0.5500490458053E+00 -0.4022643256456E+01  0.0000000000000E+00
 0.5500516271872E+00 -0.3950363007692E+01  0.0000000000000E+00
 0.5500542085082E+00 -0.3878084465585E+01  0.0000000000000E+00
 0.5500567898683E+00 -0.3805804825853E+01  0.0000000000000E+00
 0.5500593712174E+00 -0.3733525497273E+01  0.0000000000000E+00
 0.5500619525770E+00 -0.3661245872497E+01  0.0000000000000E+00
 0.5500645339324E+00 -0.3588966366711E+01  0.0000000000000E+00
 0.5500671152882E+00 -0.3516686849503E+01  0.0000000000000E+00
 0.5500696966431E+00 -0.3444407355301E+01  0.0000000000000E+00
 0.5500774297084E+00 -0.3372127811356E+01  0.0000000000000E+00
 0.5501406696386E+00 -0.3299848438018E+01  0.0000000000000E+00
 0.5503344891731E+00 -0.3227570059578E+01  0.0000000000000E+00
 0.5507290998644E+00 -0.3155295139055E+01  0.0000000000000E+00
 0.5513828169459E+00 -0.3083028130533E+01  0.0000000000000E+00
 0.5523399526814E+00 -0.3010775310973E+01  0.0000000000000E+00
 0.5536322954038E+00 -0.2938544623675E+01  0.0000000000000E+00
 0.5552822942955E+00 -0.2866344140540E+01  0.0000000000000E+00
 0.5573064552043E+00 -0.2794183728694E+01  0.0000000000000E+00
 0.5597184050564E+00 -0.2722073694994E+01  0.0000000000000E+00
 0.5625314567083E+00 -0.2650024127254E+01  0.0000000000000E+00
 0.5657606338637E+00 -0.2578048159977E+01  0.0000000000000E+00
 0.5694247515375E+00 -0.2506159653141E+01  0.0000000000000E+00
 0.5775102861676E+00 -0.5323773580353E+01  0.0000000000000E+00
 0.5775205724958E+00 -0.5251590682347E+01  0.0000000000000E+00
 0.5775308587562E+00 -0.5179408259335E+01  0.0000000000000E+00
 0.5775411450113E+00 -0.5107225874194E+01  0.0000000000000E+00
 0.5775514312765E+00 -0.5035043418585E+01  0.0000000000000E+00
 0.5775617175427E+00 -0.4962860954914E+01  0.0000000000000E+00
 0.5775720037976E+00 -0.4890678571426E+01  0.0000000000000E+00
 0.5775822900605E+00 -0.4818496131482E+01  0.0000000000000E+00
 0.5775925763210E+00 -0.4746313708078E+01  0.0000000000000E+00
 0.5776028625810E+00 -0.4674131288944E+01  0.0000000000000E+00
 0.5776131488421E+00 -0.4601948861369E+01  0.0000000000000E+00
 0.5776234351041E+00 -0.4529766428169E+01  0.0000000000000E+00
 0.5776337213632E+00 -0.4457584014272E+01  0.0000000000000E+00
 0.5776440076245E+00 -0.4385401585564E+01  0.0000000000000E+00
 0.5776542938876E+00 -0.4313219144733E+01  0.0000000000000E+00
 0.5776645801368E+00 -0.4241036800413E+01  0.0000000000000E+00
 0.5776748664016E+00 -0.4168854347355E+01  0.0000000000000E+00
 0.5776851526659E+00 -0.4096671897588E+01  0.0000000000000E+00
 0.5776954389690E+00 -0.4024489175852E+01  0.0000000000000E+00
 0.5777057253251E+00 -0.3952306081633E+01  0.0000000000000E+00
 0.5777160114384E+00 -0.3880124691778E+01  0.0000000000000E+00
 0.5777262977078E+00 -0.3807942205773E+01  0.0000000000000E+00
 0.5777365839330E+00 -0.3735760030502E+01  0.0000000000000E+00
 0.5777468702004E+00 -0.3663577559434E+01  0.0000000000000E+00
 0.5777571564508E+00 -0.3591395207195E+01  0.0000000000000E+00
 0.5777674427028E+00 -0.3519212843549E+01  0.0000000000000E+00
 0.5777777289515E+00 -0.3447030502880E+01  0.0000000000000E+00
 0.5777934268271E+00 -0.3374848112534E+01  0.0000000000000E+00
 0.5778674319617E+00 -0.3302665892709E+01  0.0000000000000E+00
 0.5780786046251E+00 -0.3230484667730E+01  0.0000000000000E+00
 0.5785006986414E+00 -0.3158306900592E+01  0.0000000000000E+00
 0.5791949713311E+00 -0.3086137045376E+01  0.0000000000000E+00
 0.5802079705781E+00 -0.3013981379080E+01  0.0000000000000E+00
 0.5815730884580E+00 -0.2941847844689E+01  0.0000000000000E+00
 0.5833139068100E+00 -0.2869744514921E+01  0.0000000000000E+00
 0.5854477641763E+00 -0.2797681256262E+01  0.0000000000000E+00
 0.5879889749574E+00 -0.2725668375269E+01  0.0000000000000E+00
 0.5909515237556E+00 -0.2653715960950E+01  0.0000000000000E+00
 0.5943511921513E+00 -0.2581837146641E+01  0.0000000000000E+00
 0.5982077444402E+00 -0.2510045792787E+01  0.0000000000000E+00
 0.6050173304075E+00 -0.5323875426598E+01  0.0000000000000E+00
 0.6050346610855E+00 -0.5251794376427E+01  0.0000000000000E+00
 0.6050519916495E+00 -0.5179713800580E+01  0.0000000000000E+00
 0.6050693222045E+00 -0.5107633262550E+01  0.0000000000000E+00
 0.6050866527763E+00 -0.5035552654152E+01  0.0000000000000E+00
 0.6051039833501E+00 -0.4963472037703E+01  0.0000000000000E+00
 0.6051213139046E+00 -0.4891391501324E+01  0.0000000000000E+00
 0.6051386444727E+00 -0.4819310908569E+01  0.0000000000000E+00
 0.6051559750368E+00 -0.4747230332330E+01  0.0000000000000E+00
 0.6051733055999E+00 -0.4675149760355E+01  0.0000000000000E+00
 0.6051906361650E+00 -0.4603069179951E+01  0.0000000000000E+00
 0.6052079667314E+00 -0.4530988593931E+01  0.0000000000000E+00
 0.6052252972933E+00 -0.4458908027186E+01  0.0000000000000E+00
 0.6052426278586E+00 -0.4386827445650E+01  0.0000000000000E+00
 0.6052599584269E+00 -0.4314746852009E+01  0.0000000000000E+00
 0.6052772889721E+00 -0.4242666354743E+01  0.0000000000000E+00
 0.6052946195433E+00 -0.4170585748892E+01  0.0000000000000E+00
 0.6053119501137E+00 -0.4098505146328E+01  0.0000000000000E+00
 0.6053292807495E+00 -0.4026424272177E+01  0.0000000000000E+00
 0.6053466114746E+00 -0.3954343026070E+01  0.0000000000000E+00
 0.6053639417906E+00 -0.3882263481923E+01  0.0000000000000E+00
 0.6053812723697E+00 -0.3810182843171E+01  0.0000000000000E+00
 0.6053986028742E+00 -0.3738102514716E+01  0.0000000000000E+00
 0.6054159334498E+00 -0.3666021890880E+01  0.0000000000000E+00
 0.6054332639968E+00 -0.3593941385706E+01  0.0000000000000E+00
 0.6054505945466E+00 -0.3521860869141E+01  0.0000000000000E+00
 0.6054679250908E+00 -0.3449780375520E+01  0.0000000000000E+00
 0.6054909271778E+00 -0.3377699832294E+01  0.0000000000000E+00
 0.6055750369188E+00 -0.3305619459498E+01  0.0000000000000E+00
 0.6058029021131E+00 -0.3233540081492E+01  0.0000000000000E+00
 0.6062518188570E+00 -0.3161464161250E+01  0.0000000000000E+00
 0.6069859865579E+00 -0.3089396152846E+01  0.0000000000000E+00
 0.6080541887197E+00 -0.3017342333318E+01  0.0000000000000E+00
 0.6094914211626E+00 -0.2945310645321E+01  0.0000000000000E+00
 0.6113223983774E+00 -0.2873309162428E+01  0.0000000000000E+00
 0.6135652916044E+00 -0.2801347750456E+01  0.0000000000000E+00
 0.6162351027211E+00 -0.2729436715648E+01  0.0000000000000E+00
 0.6193464880674E+00 -0.2657586148262E+01  0.0000000000000E+00
 0.6229159871078E+00 -0.2585809180410E+01  0.0000000000000E+00
 0.6269643134161E+00 -0.2514119673027E+01  0.0000000000000E+00
 0.6325236849427E+00 -0.5323981948420E+01  0.0000000000000E+00
 0.6325473702551E+00 -0.5252007421734E+01  0.0000000000000E+00
 0.6325710554117E+00 -0.5180033368671E+01  0.0000000000000E+00
 0.6325947405559E+00 -0.5108059353369E+01  0.0000000000000E+00
 0.6326184257232E+00 -0.5036085267803E+01  0.0000000000000E+00
 0.6326421108931E+00 -0.4964111174198E+01  0.0000000000000E+00
 0.6326657960367E+00 -0.4892137160545E+01  0.0000000000000E+00
 0.6326894811989E+00 -0.4820163090599E+01  0.0000000000000E+00
 0.6327131663556E+00 -0.4748189037144E+01  0.0000000000000E+00
 0.6327368515109E+00 -0.4676214987948E+01  0.0000000000000E+00
 0.6327605366690E+00 -0.4604240930335E+01  0.0000000000000E+00
 0.6327842218289E+00 -0.4532266867113E+01  0.0000000000000E+00
 0.6328079069825E+00 -0.4460292823139E+01  0.0000000000000E+00
 0.6328315921410E+00 -0.4388318764396E+01  0.0000000000000E+00
 0.6328552773035E+00 -0.4316344693565E+01  0.0000000000000E+00
 0.6328789624342E+00 -0.4244370718967E+01  0.0000000000000E+00
 0.6329026476007E+00 -0.4172396635944E+01  0.0000000000000E+00
 0.6329263327660E+00 -0.4100422556203E+01  0.0000000000000E+00
 0.6329500180207E+00 -0.4028448205278E+01  0.0000000000000E+00
 0.6329737033975E+00 -0.3956473482945E+01  0.0000000000000E+00
 0.6329973882151E+00 -0.3884500460057E+01  0.0000000000000E+00
 0.6330210733923E+00 -0.3812526344183E+01  0.0000000000000E+00
 0.6330447584676E+00 -0.3740552538145E+01  0.0000000000000E+00
 0.6330684436400E+00 -0.3668578437164E+01  0.0000000000000E+00
 0.6330921287734E+00 -0.3596604454670E+01  0.0000000000000E+00
 0.6331158139105E+00 -0.3524630460802E+01  0.0000000000000E+00
 0.6331394990401E+00 -0.3452656489843E+01  0.0000000000000E+00
 0.6331691156279E+00 -0.3380682469354E+01  0.0000000000000E+00
 0.6332626402652E+00 -0.3308708619201E+01  0.0000000000000E+00
 0.6335065082807E+00 -0.3236735763778E+01  0.0000000000000E+00
 0.6339815580432E+00 -0.3164766366038E+01  0.0000000000000E+00
 0.6347549310468E+00 -0.3092804880050E+01  0.0000000000000E+00
 0.6358776464151E+00 -0.3020857582890E+01  0.0000000000000E+00
 0.6373863037153E+00 -0.2948932416871E+01  0.0000000000000E+00
 0.6393067500840E+00 -0.2877037456459E+01  0.0000000000000E+00
 0.6416579894643E+00 -0.2805182566772E+01  0.0000000000000E+00
 0.6444557112123E+00 -0.2733378053722E+01  0.0000000000000E+00
 0.6477152433973E+00 -0.2661634008878E+01  0.0000000000000E+00
 0.6514538833764E+00 -0.2589963563070E+01  0.0000000000000E+00
 0.6556932939981E+00 -0.2518380577746E+01  0.0000000000000E+00
 0.6600293210490E+00 -0.5324093127205E+01  0.0000000000000E+00
 0.6600586425557E+00 -0.5252229781039E+01  0.0000000000000E+00
 0.6600879638695E+00 -0.5180366907764E+01  0.0000000000000E+00
 0.6601172851680E+00 -0.5108504072193E+01  0.0000000000000E+00
 0.6601466064950E+00 -0.5036641166466E+01  0.0000000000000E+00
 0.6601759278253E+00 -0.4964778252713E+01  0.0000000000000E+00
 0.6602052491231E+00 -0.4892915418787E+01  0.0000000000000E+00
 0.6602345704438E+00 -0.4821052528656E+01  0.0000000000000E+00
 0.6602638917578E+00 -0.4749189654991E+01  0.0000000000000E+00
 0.6602932130700E+00 -0.4677326785577E+01  0.0000000000000E+00
 0.6603225343856E+00 -0.4605463907760E+01  0.0000000000000E+00
 0.6603518557036E+00 -0.4533601024343E+01  0.0000000000000E+00
 0.6603811770137E+00 -0.4461738160143E+01  0.0000000000000E+00
 0.6604104983298E+00 -0.4389875281198E+01  0.0000000000000E+00
 0.6604398196509E+00 -0.4318012390183E+01  0.0000000000000E+00
 0.6604691409327E+00 -0.4246149595252E+01  0.0000000000000E+00
 0.6604984622587E+00 -0.4174286692065E+01  0.0000000000000E+00
 0.6605277835834E+00 -0.4102423792154E+01  0.0000000000000E+00
 0.6605571050186E+00 -0.4030560621477E+01  0.0000000000000E+00
 0.6605864266050E+00 -0.3958697079967E+01  0.0000000000000E+00
 0.6606157474992E+00 -0.3886835235277E+01  0.0000000000000E+00
 0.6606450688386E+00 -0.3814972299288E+01  0.0000000000000E+00
 0.6606743900517E+00 -0.3743109672658E+01  0.0000000000000E+00
 0.6607037113851E+00 -0.3671246751540E+01  0.0000000000000E+00
 0.6607330326701E+00 -0.3599383948725E+01  0.0000000000000E+00
 0.6607623539598E+00 -0.3527521134554E+01  0.0000000000000E+00
 0.6607916752402E+00 -0.3455658343258E+01  0.0000000000000E+00
 0.6608271878938E+00 -0.3383795502508E+01  0.0000000000000E+00
 0.6609294089930E+00 -0.3311932831995E+01  0.0000000000000E+00
 0.6611885613959E+00 -0.3240071156153E+01  0.0000000000000E+00
 0.6616890257437E+00 -0.3168212937907E+01  0.0000000000000E+00
 0.6625008856175E+00 -0.3096362631322E+01  0.0000000000000E+00
 0.6636773957603E+00 -0.3024526513518E+01  0.0000000000000E+00
 0.6652567594887E+00 -0.2952712526447E+01  0.0000000000000E+00
 0.6672659565788E+00 -0.2880928745508E+01  0.0000000000000E+00
 0.6697248236814E+00 -0.2809185035088E+01  0.0000000000000E+00
 0.6726497376338E+00 -0.2737491700757E+01  0.0000000000000E+00
 0.6760566982254E+00 -0.2665858835448E+01  0.0000000000000E+00
 0.6799637607148E+00 -0.2594299568656E+01  0.0000000000000E+00
 0.6843935372213E+00 -0.2522827762365E+01  0.0000000000000E+00
 0.6875342104032E+00 -0.5324208943643E+01  0.0000000000000E+00
 0.6875684213405E+00 -0.5252461415724E+01  0.0000000000000E+00
 0.6876026320526E+00 -0.5180714359935E+01  0.0000000000000E+00
 0.6876368427468E+00 -0.5108967341787E+01  0.0000000000000E+00
 0.6876710534744E+00 -0.5037220253597E+01  0.0000000000000E+00
 0.6877052642059E+00 -0.4965473157394E+01  0.0000000000000E+00
 0.6877394748993E+00 -0.4893726140890E+01  0.0000000000000E+00
 0.6877736856195E+00 -0.4821979068270E+01  0.0000000000000E+00
 0.6878078963319E+00 -0.4750232012090E+01  0.0000000000000E+00
 0.6878421070422E+00 -0.4678484960155E+01  0.0000000000000E+00
 0.6878763177565E+00 -0.4606737899830E+01  0.0000000000000E+00
 0.6879105284735E+00 -0.4534990833914E+01  0.0000000000000E+00
 0.6879447391813E+00 -0.4463243787185E+01  0.0000000000000E+00
 0.6879789498962E+00 -0.4391496725733E+01  0.0000000000000E+00
 0.6880131606168E+00 -0.4319749652232E+01  0.0000000000000E+00
 0.6880473712917E+00 -0.4248002674660E+01  0.0000000000000E+00
 0.6880815820181E+00 -0.4176255589005E+01  0.0000000000000E+00
 0.6881157927429E+00 -0.4104508506622E+01  0.0000000000000E+00
 0.6881500035967E+00 -0.4032761153909E+01  0.0000000000000E+00
 0.6881842146270E+00 -0.3961013430961E+01  0.0000000000000E+00
 0.6882184248495E+00 -0.3889267402097E+01  0.0000000000000E+00
 0.6882526355915E+00 -0.3817520283695E+01  0.0000000000000E+00
 0.6882868461862E+00 -0.3745773474152E+01  0.0000000000000E+00
 0.6883210569212E+00 -0.3674026370595E+01  0.0000000000000E+00
 0.6883552675998E+00 -0.3602279385152E+01  0.0000000000000E+00
 0.6883894782838E+00 -0.3530532388370E+01  0.0000000000000E+00
 0.6884236889570E+00 -0.3458785414426E+01  0.0000000000000E+00
 0.6884643509179E+00 -0.3387038391111E+01  0.0000000000000E+00
 0.6885745217212E+00 -0.3315291537927E+01  0.0000000000000E+00
 0.6888482117543E+00 -0.3243545679352E+01  0.0000000000000E+00
 0.6893733439310E+00 -0.3171803278285E+01  0.0000000000000E+00
 0.6902229439195E+00 -0.3100068788784E+01  0.0000000000000E+00
 0.6914525020822E+00 -0.3028348488013E+01  0.0000000000000E+00
 0.6931018254871E+00 -0.2956650317551E+01  0.0000000000000E+00
 0.6951990265441E+00 -0.2884982353767E+01  0.0000000000000E+00
 0.6977647746164E+00 -0.2813354460288E+01  0.0000000000000E+00
 0.7008161340245E+00 -0.2741776942327E+01  0.0000000000000E+00
 0.7043697762692E+00 -0.2670259894239E+01  0.0000000000000E+00
 0.7084445145193E+00 -0.2598816444127E+01  0.0000000000000E+00
 0.7130639101617E+00 -0.2527460454533E+01  0.0000000000000E+00
 0.7150383250958E+00 -0.5324329377751E+01  0.0000000000000E+00
 0.7150766507900E+00 -0.5252702285820E+01  0.0000000000000E+00
 0.7151149762320E+00 -0.5181075665226E+01  0.0000000000000E+00
 0.7151533016539E+00 -0.5109449082210E+01  0.0000000000000E+00
 0.7151916271132E+00 -0.5037822429270E+01  0.0000000000000E+00
 0.7152299525768E+00 -0.4966195768330E+01  0.0000000000000E+00
 0.7152682779978E+00 -0.4894569186956E+01  0.0000000000000E+00
 0.7153066034488E+00 -0.4822942549560E+01  0.0000000000000E+00
 0.7153449288910E+00 -0.4751315928576E+01  0.0000000000000E+00
 0.7153832543309E+00 -0.4679689311830E+01  0.0000000000000E+00
 0.7154215797753E+00 -0.4608062686708E+01  0.0000000000000E+00
 0.7154599052228E+00 -0.4536436056004E+01  0.0000000000000E+00
 0.7154982306599E+00 -0.4464809444455E+01  0.0000000000000E+00
 0.7155365561049E+00 -0.4393182818208E+01  0.0000000000000E+00
 0.7155748815564E+00 -0.4321556179932E+01  0.0000000000000E+00
 0.7156132069566E+00 -0.4249929637424E+01  0.0000000000000E+00
 0.7156515324145E+00 -0.4178302987015E+01  0.0000000000000E+00
 0.7156898578707E+00 -0.4106676339872E+01  0.0000000000000E+00
 0.7157281834713E+00 -0.4035049422853E+01  0.0000000000000E+00
 0.7157665092697E+00 -0.3963422136220E+01  0.0000000000000E+00
 0.7158048341632E+00 -0.3891796540828E+01  0.0000000000000E+00
 0.7158431596386E+00 -0.3820169857726E+01  0.0000000000000E+00
 0.7158814849491E+00 -0.3748543482965E+01  0.0000000000000E+00
 0.7159198104166E+00 -0.3676916814684E+01  0.0000000000000E+00
 0.7159581358210E+00 -0.3605290264318E+01  0.0000000000000E+00
 0.7159964612315E+00 -0.3533663702633E+01  0.0000000000000E+00
 0.7160347866297E+00 -0.3462037163747E+01  0.0000000000000E+00
 0.7160798232298E+00 -0.3390410575573E+01  0.0000000000000E+00
 0.7161971690698E+00 -0.3318784157425E+01  0.0000000000000E+00
 0.7164846220665E+00 -0.3247158733819E+01  0.0000000000000E+00
 0.7170336474065E+00 -0.3175536767628E+01  0.0000000000000E+00
 0.7179202128454E+00 -0.3103922712906E+01  0.0000000000000E+00
 0.7192020443645E+00 -0.3032322846861E+01  0.0000000000000E+00
 0.7209205527863E+00 -0.2960745110683E+01  0.0000000000000E+00
 0.7231049831476E+00 -0.2889197581752E+01  0.0000000000000E+00
 0.7257768375292E+00 -0.2817690122903E+01  0.0000000000000E+00
 0.7289538677374E+00 -0.2746233038979E+01  0.0000000000000E+00
 0.7326534169748E+00 -0.2674836425812E+01  0.0000000000000E+00
 0.7368950563297E+00 -0.2603513410059E+01  0.0000000000000E+00
 0.7417032964531E+00 -0.2532277854841E+01  0.0000000000000E+00
 0.7425416376437E+00 -0.5324454408884E+01  0.0000000000000E+00
 0.7425832759376E+00 -0.5252952350038E+01  0.0000000000000E+00
 0.7426249139574E+00 -0.5181450761707E+01  0.0000000000000E+00
 0.7426665519554E+00 -0.5109949210889E+01  0.0000000000000E+00
 0.7427081899940E+00 -0.5038447590268E+01  0.0000000000000E+00
 0.7427498280373E+00 -0.4966945961661E+01  0.0000000000000E+00
 0.7427914660343E+00 -0.4895444412480E+01  0.0000000000000E+00
 0.7428331040639E+00 -0.4823942807376E+01  0.0000000000000E+00
 0.7428747420839E+00 -0.4752441218655E+01  0.0000000000000E+00
 0.7429163801015E+00 -0.4680939634165E+01  0.0000000000000E+00
 0.7429580181240E+00 -0.4609438041313E+01  0.0000000000000E+00
 0.7429996561497E+00 -0.4537936442890E+01  0.0000000000000E+00
 0.7430412941642E+00 -0.4466434863588E+01  0.0000000000000E+00
 0.7430829321874E+00 -0.4394933269613E+01  0.0000000000000E+00
 0.7431245702175E+00 -0.4323431663631E+01  0.0000000000000E+00
 0.7431662081919E+00 -0.4251930153249E+01  0.0000000000000E+00
 0.7432078462290E+00 -0.4180428535154E+01  0.0000000000000E+00
 0.7432494842643E+00 -0.4108926920320E+01  0.0000000000000E+00
 0.7432911224564E+00 -0.4037425036081E+01  0.0000000000000E+00
 0.7433327608635E+00 -0.3965922782874E+01  0.0000000000000E+00
 0.7433743982873E+00 -0.3894422217955E+01  0.0000000000000E+00
 0.7434160363435E+00 -0.3822920567224E+01  0.0000000000000E+00
 0.7434576742204E+00 -0.3751419224297E+01  0.0000000000000E+00
 0.7434993122679E+00 -0.3679917588362E+01  0.0000000000000E+00
 0.7435409502469E+00 -0.3608416070136E+01  0.0000000000000E+00
 0.7435825882325E+00 -0.3536914540610E+01  0.0000000000000E+00
 0.7436242262048E+00 -0.3465413033844E+01  0.0000000000000E+00
 0.7436728352924E+00 -0.3393911477878E+01  0.0000000000000E+00
 0.7437965540184E+00 -0.3322410091825E+01  0.0000000000000E+00
 0.7440969678288E+00 -0.3250909700247E+01  0.0000000000000E+00
 0.7446690841836E+00 -0.3179412765988E+01  0.0000000000000E+00
 0.7455918129260E+00 -0.3107923743096E+01  0.0000000000000E+00
 0.7469251156560E+00 -0.3036448908826E+01  0.0000000000000E+00
 0.7487120069533E+00 -0.2964996203964E+01  0.0000000000000E+00
 0.7509828644748E+00 -0.2893573706940E+01  0.0000000000000E+00
 0.7537600230245E+00 -0.2822191279768E+01  0.0000000000000E+00
 0.7570619218971E+00 -0.2750859226903E+01  0.0000000000000E+00
 0.7609065759867E+00 -0.2679587645714E+01  0.0000000000000E+00
 0.7653143143115E+00 -0.2608389661355E+01  0.0000000000000E+00
 0.7703105967820E+00 -0.2537279137548E+01  0.0000000000000E+00
 0.7700441210016E+00 -0.5324584015760E+01  0.0000000000000E+00
 0.7700882426921E+00 -0.5253211565814E+01  0.0000000000000E+00
 0.7701323640923E+00 -0.5181839585529E+01  0.0000000000000E+00
 0.7701764854693E+00 -0.5110467642689E+01  0.0000000000000E+00
 0.7702206068894E+00 -0.5039095630173E+01  0.0000000000000E+00
 0.7702647283144E+00 -0.4967723609686E+01  0.0000000000000E+00
 0.7703088496904E+00 -0.4896351668481E+01  0.0000000000000E+00
 0.7703529711009E+00 -0.4824979671454E+01  0.0000000000000E+00
 0.7703970925013E+00 -0.4753607690781E+01  0.0000000000000E+00
 0.7704412138990E+00 -0.4682235714330E+01  0.0000000000000E+00
 0.7704853353020E+00 -0.4610863729533E+01  0.0000000000000E+00
 0.7705294567084E+00 -0.4539491739175E+01  0.0000000000000E+00
 0.7705735781029E+00 -0.4468119767903E+01  0.0000000000000E+00
 0.7706176995066E+00 -0.4396747781985E+01  0.0000000000000E+00
 0.7706618209176E+00 -0.4325375784082E+01  0.0000000000000E+00
 0.7707059422697E+00 -0.4254003881605E+01  0.0000000000000E+00
 0.7707500636882E+00 -0.4182631871611E+01  0.0000000000000E+00
 0.7707941851047E+00 -0.4111259864871E+01  0.0000000000000E+00
 0.7708383066874E+00 -0.4039887589215E+01  0.0000000000000E+00
 0.7708824284979E+00 -0.3968514945260E+01  0.0000000000000E+00
 0.7709265492665E+00 -0.3897143986532E+01  0.0000000000000E+00
 0.7709706707052E+00 -0.3825771943961E+01  0.0000000000000E+00
 0.7710147919539E+00 -0.3754400208636E+01  0.0000000000000E+00
 0.7710589133834E+00 -0.3683028180834E+01  0.0000000000000E+00
 0.7711030347403E+00 -0.3611656270527E+01  0.0000000000000E+00
 0.7711471561042E+00 -0.3540284348942E+01  0.0000000000000E+00
 0.7711912774540E+00 -0.3468912450074E+01  0.0000000000000E+00
 0.7712426298319E+00 -0.3397540502098E+01  0.0000000000000E+00
 0.7713718922479E+00 -0.3326168723919E+01  0.0000000000000E+00
 0.7716844376770E+00 -0.3254797940143E+01  0.0000000000000E+00
 0.7722788158533E+00 -0.3183430613588E+01  0.0000000000000E+00
 0.7732368787078E+00 -0.3112071198294E+01  0.0000000000000E+00
 0.7746208234593E+00 -0.3040725971566E+01  0.0000000000000E+00
 0.7764752684473E+00 -0.2969402873770E+01  0.0000000000000E+00
 0.7788317239423E+00 -0.2898109984423E+01  0.0000000000000E+00
 0.7817133574767E+00 -0.2826857164690E+01  0.0000000000000E+00
 0.7851392958362E+00 -0.2755654718625E+01  0.0000000000000E+00
 0.7891282255967E+00 -0.2684512745187E+01  0.0000000000000E+00
 0.7937012337157E+00 -0.2613444367974E+01  0.0000000000000E+00
 0.7988847293601E+00 -0.2542463451332E+01  0.0000000000000E+00
 0.7975457485735E+00 -0.5324718176476E+01  0.0000000000000E+00
 0.7975914978612E+00 -0.5253479889339E+01  0.0000000000000E+00
 0.7976372468479E+00 -0.5182242070981E+01  0.0000000000000E+00
 0.7976829958105E+00 -0.5111004289998E+01  0.0000000000000E+00
 0.7977287448179E+00 -0.5039766439470E+01  0.0000000000000E+00
 0.7977744938303E+00 -0.4968528580985E+01  0.0000000000000E+00
 0.7978202427919E+00 -0.4897290801633E+01  0.0000000000000E+00
 0.7978659917893E+00 -0.4826052966565E+01  0.0000000000000E+00
 0.7979117407763E+00 -0.4754815147820E+01  0.0000000000000E+00
 0.7979574897605E+00 -0.4683577333289E+01  0.0000000000000E+00
 0.7980032387500E+00 -0.4612339510427E+01  0.0000000000000E+00
 0.7980489877432E+00 -0.4541101682015E+01  0.0000000000000E+00
 0.7980947367241E+00 -0.4469863872653E+01  0.0000000000000E+00
 0.7981404857144E+00 -0.4398626048673E+01  0.0000000000000E+00
 0.7981862347123E+00 -0.4327388212729E+01  0.0000000000000E+00
 0.7982319836491E+00 -0.4256150472033E+01  0.0000000000000E+00
 0.7982777326548E+00 -0.4184912624022E+01  0.0000000000000E+00
 0.7983234816585E+00 -0.4113674779259E+01  0.0000000000000E+00
 0.7983692308345E+00 -0.4042436666086E+01  0.0000000000000E+00
 0.7984149802466E+00 -0.3971198185304E+01  0.0000000000000E+00
 0.7984607285784E+00 -0.3899961386584E+01  0.0000000000000E+00
 0.7985064776050E+00 -0.3828723506057E+01  0.0000000000000E+00
 0.7985522264347E+00 -0.3757485932198E+01  0.0000000000000E+00
 0.7985979754518E+00 -0.3686248066412E+01  0.0000000000000E+00
 0.7986437243936E+00 -0.3615010317901E+01  0.0000000000000E+00
 0.7986894733427E+00 -0.3543772558132E+01  0.0000000000000E+00
 0.7987352222772E+00 -0.3472534821039E+01  0.0000000000000E+00
 0.7987884621521E+00 -0.3401297034930E+01  0.0000000000000E+00
 0.7989224124658E+00 -0.3330059418499E+01  0.0000000000000E+00
 0.7992462337227E+00 -0.3258822796399E+01  0.0000000000000E+00
 0.7998620179317E+00 -0.3187589631415E+01  0.0000000000000E+00
 0.8008545591120E+00 -0.3116364377584E+01  0.0000000000000E+00
 0.8022882901011E+00 -0.3045153312260E+01  0.0000000000000E+00
 0.8042094330015E+00 -0.2973964375375E+01  0.0000000000000E+00
 0.8066506306900E+00 -0.2902805647575E+01  0.0000000000000E+00
 0.8096358834335E+00 -0.2831686989140E+01  0.0000000000000E+00
 0.8131850055110E+00 -0.2760618703710E+01  0.0000000000000E+00
 0.8173173551702E+00 -0.2689610891893E+01  0.0000000000000E+00
 0.8220547773181E+00 -0.2618676675675E+01  0.0000000000000E+00
 0.8274246303737E+00 -0.2547829920047E+01  0.0000000000000E+00
 0.8250464932866E+00 -0.5324856868333E+01  0.0000000000000E+00
 0.8250929872992E+00 -0.5253757275219E+01  0.0000000000000E+00
 0.8251394810057E+00 -0.5182658149971E+01  0.0000000000000E+00
 0.8251859746879E+00 -0.5111559062025E+01  0.0000000000000E+00
 0.8252324684155E+00 -0.5040459904669E+01  0.0000000000000E+00
 0.8252789621482E+00 -0.4969360739373E+01  0.0000000000000E+00
 0.8253254558294E+00 -0.4898261653055E+01  0.0000000000000E+00
 0.8253719495468E+00 -0.4827162511129E+01  0.0000000000000E+00
 0.8254184432537E+00 -0.4756063385494E+01  0.0000000000000E+00
 0.8254649369577E+00 -0.4684964264066E+01  0.0000000000000E+00
 0.8255114306673E+00 -0.4613865134323E+01  0.0000000000000E+00
 0.8255579243804E+00 -0.4542765999040E+01  0.0000000000000E+00
 0.8256044180811E+00 -0.4471666882771E+01  0.0000000000000E+00
 0.8256509117913E+00 -0.4400567751912E+01  0.0000000000000E+00
 0.8256974055094E+00 -0.4329468609112E+01  0.0000000000000E+00
 0.8257438991653E+00 -0.4258369561375E+01  0.0000000000000E+00
 0.8257903928912E+00 -0.4187270406531E+01  0.0000000000000E+00
 0.8258368866150E+00 -0.4116171254930E+01  0.0000000000000E+00
 0.8258833805140E+00 -0.4045071835440E+01  0.0000000000000E+00
 0.8259298746529E+00 -0.3973972049059E+01  0.0000000000000E+00
 0.8259763676940E+00 -0.3902873941463E+01  0.0000000000000E+00
 0.8260228614412E+00 -0.3831774754167E+01  0.0000000000000E+00
 0.8260693549882E+00 -0.3760675872942E+01  0.0000000000000E+00
 0.8261158487257E+00 -0.3689576700358E+01  0.0000000000000E+00
 0.8261623423867E+00 -0.3618477644821E+01  0.0000000000000E+00
 0.8262088360550E+00 -0.3547378578048E+01  0.0000000000000E+00
 0.8262553297085E+00 -0.3476279533907E+01  0.0000000000000E+00
 0.8263095742141E+00 -0.3405180440846E+01  0.0000000000000E+00
 0.8264473295584E+00 -0.3334081517340E+01  0.0000000000000E+00
 0.8267815437733E+00 -0.3262983588089E+01  0.0000000000000E+00
 0.8274178511403E+00 -0.3191889115849E+01  0.0000000000000E+00
 0.8284439877657E+00 -0.3120802554647E+01  0.0000000000000E+00
 0.8299266221042E+00 -0.3049730181892E+01  0.0000000000000E+00
 0.8319135800230E+00 -0.2978679937069E+01  0.0000000000000E+00
 0.8344386369977E+00 -0.2907659901984E+01  0.0000000000000E+00
 0.8375266260345E+00 -0.2836679936008E+01  0.0000000000000E+00
 0.8411980489087E+00 -0.2765750342354E+01  0.0000000000000E+00
 0.8454729355280E+00 -0.2694881223331E+01  0.0000000000000E+00
 0.8503738887594E+00 -0.2624085699259E+01  0.0000000000000E+00
 0.8559292162693E+00 -0.2553377635797E+01  0.0000000000000E+00
 0.8525463301976E+00 -0.5325000068380E+01  0.0000000000000E+00
 0.8525926611185E+00 -0.5254043677550E+01  0.0000000000000E+00
 0.8526389917346E+00 -0.5183087753643E+01  0.0000000000000E+00
 0.8526853223263E+00 -0.5112131866963E+01  0.0000000000000E+00
 0.8527316529633E+00 -0.5041175911013E+01  0.0000000000000E+00
 0.8527779836054E+00 -0.4970219947138E+01  0.0000000000000E+00
 0.8528243141961E+00 -0.4899264062083E+01  0.0000000000000E+00
 0.8528706448230E+00 -0.4828308121532E+01  0.0000000000000E+00
 0.8529169754393E+00 -0.4757352197239E+01  0.0000000000000E+00
 0.8529633060529E+00 -0.4686396277144E+01  0.0000000000000E+00
 0.8530096366719E+00 -0.4615440348752E+01  0.0000000000000E+00
 0.8530559672945E+00 -0.4544484414830E+01  0.0000000000000E+00
 0.8531022979047E+00 -0.4473528499883E+01  0.0000000000000E+00
 0.8531486285244E+00 -0.4402572570377E+01  0.0000000000000E+00
 0.8531949591519E+00 -0.4331616628954E+01  0.0000000000000E+00
 0.8532412897174E+00 -0.4260660782401E+01  0.0000000000000E+00
 0.8532876203528E+00 -0.4189704828958E+01  0.0000000000000E+00
 0.8533339509860E+00 -0.4118748878751E+01  0.0000000000000E+00
 0.8533802817938E+00 -0.4047792661195E+01  0.0000000000000E+00
 0.8534266128406E+00 -0.3976836077486E+01  0.0000000000000E+00
 0.8534729427935E+00 -0.3905881169182E+01  0.0000000000000E+00
 0.8535192734500E+00 -0.3834925183352E+01  0.0000000000000E+00
 0.8535656039071E+00 -0.3763969502976E+01  0.0000000000000E+00
 0.8536119345540E+00 -0.3693013531829E+01  0.0000000000000E+00
 0.8536582651246E+00 -0.3622057677493E+01  0.0000000000000E+00
 0.8537045957025E+00 -0.3551101811943E+01  0.0000000000000E+00
 0.8537509262657E+00 -0.3480145968980E+01  0.0000000000000E+00
 0.8538052675919E+00 -0.3409190077197E+01  0.0000000000000E+00
 0.8539459201579E+00 -0.3338234354841E+01  0.0000000000000E+00
 0.8542896195227E+00 -0.3267279626662E+01  0.0000000000000E+00
 0.8549455422413E+00 -0.3196328355384E+01  0.0000000000000E+00
 0.8560043665069E+00 -0.3125384995028E+01  0.0000000000000E+00
 0.8575349963915E+00 -0.3054455823055E+01  0.0000000000000E+00
 0.8595868615302E+00 -0.2983548778489E+01  0.0000000000000E+00
 0.8621948699895E+00 -0.2912671944338E+01  0.0000000000000E+00
 0.8653846875212E+00 -0.2841835179032E+01  0.0000000000000E+00
 0.8691775033995E+00 -0.2771048785341E+01  0.0000000000000E+00
 0.8735940191812E+00 -0.2700322867333E+01  0.0000000000000E+00
 0.8786575957043E+00 -0.2629670543607E+01  0.0000000000000E+00
 0.8843974898783E+00 -0.2559105680512E+01  0.0000000000000E+00
 0.8800452341681E+00 -0.5325147752977E+01  0.0000000000000E+00
 0.8800904690424E+00 -0.5254339049050E+01  0.0000000000000E+00
 0.8801357036191E+00 -0.5183530811074E+01  0.0000000000000E+00
 0.8801809381720E+00 -0.5112722610247E+01  0.0000000000000E+00
 0.8802261727691E+00 -0.5041914340295E+01  0.0000000000000E+00
 0.8802714073712E+00 -0.4971106062434E+01  0.0000000000000E+00
 0.8803166419231E+00 -0.4900297863229E+01  0.0000000000000E+00
 0.8803618765103E+00 -0.4829489608644E+01  0.0000000000000E+00
 0.8804071110872E+00 -0.4758681370282E+01  0.0000000000000E+00
 0.8804523456615E+00 -0.4687873136111E+01  0.0000000000000E+00
 0.8804975802410E+00 -0.4617064893658E+01  0.0000000000000E+00
 0.8805428148240E+00 -0.4546256645688E+01  0.0000000000000E+00
 0.8805880493949E+00 -0.4475448416654E+01  0.0000000000000E+00
 0.8806332839752E+00 -0.4404640173090E+01  0.0000000000000E+00
 0.8806785185630E+00 -0.4333831917634E+01  0.0000000000000E+00
 0.8807237530903E+00 -0.4263023756852E+01  0.0000000000000E+00
 0.8807689876858E+00 -0.4192215489401E+01  0.0000000000000E+00
 0.8808142222792E+00 -0.4121407225180E+01  0.0000000000000E+00
 0.8808594570431E+00 -0.4050598694166E+01  0.0000000000000E+00
 0.8809046920404E+00 -0.3979789797761E+01  0.0000000000000E+00
 0.8809499259696E+00 -0.3908982573274E+01  0.0000000000000E+00
 0.8809951605857E+00 -0.3838174273504E+01  0.0000000000000E+00
 0.8810403950071E+00 -0.3767366278552E+01  0.0000000000000E+00
 0.8810856296139E+00 -0.3696557993435E+01  0.0000000000000E+00
 0.8811308641462E+00 -0.3625749824885E+01  0.0000000000000E+00
 0.8811760986856E+00 -0.3554941645144E+01  0.0000000000000E+00
 0.8812213332107E+00 -0.3484133487943E+01  0.0000000000000E+00
 0.8812748384090E+00 -0.3413325282026E+01  0.0000000000000E+00
 0.8814174552496E+00 -0.3342517245404E+01  0.0000000000000E+00
 0.8817697068188E+00 -0.3271710202879E+01  0.0000000000000E+00
 0.8824443119460E+00 -0.3200906617141E+01  0.0000000000000E+00
 0.8835348909121E+00 -0.3130110942204E+01  0.0000000000000E+00
 0.8851125834061E+00 -0.3059329455587E+01  0.0000000000000E+00
 0.8872284228343E+00 -0.2988570095835E+01  0.0000000000000E+00
 0.8899184498465E+00 -0.2917840947194E+01  0.0000000000000E+00
 0.8932091629465E+00 -0.2847151867127E+01  0.0000000000000E+00
 0.8971224389104E+00 -0.2776513157945E+01  0.0000000000000E+00
 0.9016796509327E+00 -0.2705934925531E+01  0.0000000000000E+00
 0.9069049178338E+00 -0.2635430286710E+01  0.0000000000000E+00
 0.9128284457619E+00 -0.2565013108542E+01  0.0000000000000E+00
 0.9075431804891E+00 -0.5325299897930E+01  0.0000000000000E+00
 0.9075863616523E+00 -0.5254643341329E+01  0.0000000000000E+00
 0.9076295425314E+00 -0.5183987249680E+01  0.0000000000000E+00
 0.9076727233878E+00 -0.5113331195100E+01  0.0000000000000E+00
 0.9077159042864E+00 -0.5042675071542E+01  0.0000000000000E+00
 0.9077590851898E+00 -0.4972018940094E+01  0.0000000000000E+00
 0.9078022660453E+00 -0.4901362887132E+01  0.0000000000000E+00
 0.9078454469345E+00 -0.4830706778908E+01  0.0000000000000E+00
 0.9078886278138E+00 -0.4760050686874E+01  0.0000000000000E+00
 0.9079318086906E+00 -0.4689394599021E+01  0.0000000000000E+00
 0.9079749895724E+00 -0.4618738502904E+01  0.0000000000000E+00
 0.9080181704575E+00 -0.4548082401282E+01  0.0000000000000E+00
 0.9080613513312E+00 -0.4477426318555E+01  0.0000000000000E+00
 0.9081045322137E+00 -0.4406770221329E+01  0.0000000000000E+00
 0.9081477131034E+00 -0.4336114112237E+01  0.0000000000000E+00
 0.9081908939354E+00 -0.4265458097616E+01  0.0000000000000E+00
 0.9082340748325E+00 -0.4194801976555E+01  0.0000000000000E+00
 0.9082772557276E+00 -0.4124145858716E+01  0.0000000000000E+00
 0.9083204367854E+00 -0.4053489474658E+01  0.0000000000000E+00
 0.9083636180660E+00 -0.3982832725994E+01  0.0000000000000E+00
 0.9084067983270E+00 -0.3912177645656E+01  0.0000000000000E+00
 0.9084499792438E+00 -0.3841521492345E+01  0.0000000000000E+00
 0.9084931599747E+00 -0.3770865643198E+01  0.0000000000000E+00
 0.9085363408825E+00 -0.3700209504507E+01  0.0000000000000E+00
 0.9085795217192E+00 -0.3629553482134E+01  0.0000000000000E+00
 0.9086227025628E+00 -0.3558897448595E+01  0.0000000000000E+00
 0.9086658833926E+00 -0.3488241437547E+01  0.0000000000000E+00
 0.9087175948055E+00 -0.3417585377889E+01  0.0000000000000E+00
 0.9088612182646E+00 -0.3346929487390E+01  0.0000000000000E+00
 0.9092210643842E+00 -0.3276274590906E+01  0.0000000000000E+00
 0.9099133942692E+00 -0.3205623151091E+01  0.0000000000000E+00
 0.9110347702888E+00 -0.3134979621955E+01  0.0000000000000E+00
 0.9126585677494E+00 -0.3064350281071E+01  0.0000000000000E+00
 0.9148374238320E+00 -0.2993743066493E+01  0.0000000000000E+00
 0.9176085117619E+00 -0.2923166063747E+01  0.0000000000000E+00
 0.9209991628014E+00 -0.2852629129292E+01  0.0000000000000E+00
 0.9250319412314E+00 -0.2782142564973E+01  0.0000000000000E+00
 0.9297288918728E+00 -0.2711716478538E+01  0.0000000000000E+00
 0.9351148915399E+00 -0.2641363984987E+01  0.0000000000000E+00
 0.9412210956152E+00 -0.2571098952109E+01  0.0000000000000E+00
 0.9350401444652E+00 -0.5325456478409E+01  0.0000000000000E+00
 0.9350802895572E+00 -0.5254956504733E+01  0.0000000000000E+00
 0.9351204343851E+00 -0.5184456994977E+01  0.0000000000000E+00
 0.9351605791918E+00 -0.5113957522209E+01  0.0000000000000E+00
 0.9352007240378E+00 -0.5043457980616E+01  0.0000000000000E+00
 0.9352408688882E+00 -0.4972958431149E+01  0.0000000000000E+00
 0.9352810136941E+00 -0.4902458959996E+01  0.0000000000000E+00
 0.9353211585313E+00 -0.4831959433702E+01  0.0000000000000E+00
 0.9353613033594E+00 -0.4761459923563E+01  0.0000000000000E+00
 0.9354014481850E+00 -0.4690960417595E+01  0.0000000000000E+00
 0.9354415930154E+00 -0.4620460903382E+01  0.0000000000000E+00
 0.9354817378489E+00 -0.4549961383676E+01  0.0000000000000E+00
 0.9355218826717E+00 -0.4479461882823E+01  0.0000000000000E+00
 0.9355620275027E+00 -0.4408962367503E+01  0.0000000000000E+00
 0.9356021723404E+00 -0.4338462840344E+01  0.0000000000000E+00
 0.9356423171245E+00 -0.4267963407445E+01  0.0000000000000E+00
 0.9356824619690E+00 -0.4197463868343E+01  0.0000000000000E+00
 0.9357226068117E+00 -0.4126964332456E+01  0.0000000000000E+00
 0.9357627518057E+00 -0.4056464530940E+01  0.0000000000000E+00
 0.9358028970068E+00 -0.3985964365626E+01  0.0000000000000E+00
 0.9358430412600E+00 -0.3915465864940E+01  0.0000000000000E+00
 0.9358831861229E+00 -0.3844966293660E+01  0.0000000000000E+00
 0.9359233308129E+00 -0.3774467025869E+01  0.0000000000000E+00
 0.9359634756675E+00 -0.3703967469177E+01  0.0000000000000E+00
 0.9360036204560E+00 -0.3633468028544E+01  0.0000000000000E+00
 0.9360437652508E+00 -0.3562968576770E+01  0.0000000000000E+00
 0.9360839100328E+00 -0.3492469147436E+01  0.0000000000000E+00
 0.9361328453069E+00 -0.3421969669603E+01  0.0000000000000E+00
 0.9362764930319E+00 -0.3351470360789E+01  0.0000000000000E+00
 0.9366429513497E+00 -0.3280972045905E+01  0.0000000000000E+00
 0.9373520236406E+00 -0.3210477187569E+01  0.0000000000000E+00
 0.9385032143620E+00 -0.3139990239785E+01  0.0000000000000E+00
 0.9401721344373E+00 -0.3069517480184E+01  0.0000000000000E+00
 0.9424130248251E+00 -0.2999066846316E+01  0.0000000000000E+00
 0.9452641913182E+00 -0.2928646425018E+01  0.0000000000000E+00
 0.9487537979436E+00 -0.2858266071722E+01  0.0000000000000E+00
 0.9529050964903E+00 -0.2787936087790E+01  0.0000000000000E+00
 0.9577408033932E+00 -0.2717666582893E+01  0.0000000000000E+00
 0.9632865534723E+00 -0.2647470670147E+01  0.0000000000000E+00
 0.9695744513398E+00 -0.2577362218098E+01  0.0000000000000E+00
 0.9625361016478E+00 -0.5325617469013E+01  0.0000000000000E+00
 0.9625722038592E+00 -0.5255278488454E+01  0.0000000000000E+00
 0.9626083058330E+00 -0.5184939970756E+01  0.0000000000000E+00
 0.9626444077879E+00 -0.5114601489962E+01  0.0000000000000E+00
 0.9626805097780E+00 -0.5044262940499E+01  0.0000000000000E+00
 0.9627166117722E+00 -0.4973924383181E+01  0.0000000000000E+00
 0.9627527137262E+00 -0.4903585903997E+01  0.0000000000000E+00
 0.9627888157085E+00 -0.4833247369800E+01  0.0000000000000E+00
 0.9628249176826E+00 -0.4762908851719E+01  0.0000000000000E+00
 0.9628610196545E+00 -0.4692570337801E+01  0.0000000000000E+00
 0.9628971216306E+00 -0.4622231815656E+01  0.0000000000000E+00
 0.9629332236095E+00 -0.4551893288030E+01  0.0000000000000E+00
 0.9629693255788E+00 -0.4481554779215E+01  0.0000000000000E+00
 0.9630054275554E+00 -0.4411216255966E+01  0.0000000000000E+00
 0.9630415295382E+00 -0.4340877720904E+01  0.0000000000000E+00
 0.9630776314727E+00 -0.4270539279888E+01  0.0000000000000E+00
 0.9631137334615E+00 -0.4200200732911E+01  0.0000000000000E+00
 0.9631498354487E+00 -0.4129862189142E+01  0.0000000000000E+00
 0.9631859375720E+00 -0.4059523380350E+01  0.0000000000000E+00
 0.9632220398815E+00 -0.3989184208591E+01  0.0000000000000E+00
 0.9632581413386E+00 -0.3918846697659E+01  0.0000000000000E+00
 0.9632942433439E+00 -0.3848508118577E+01  0.0000000000000E+00
 0.9633303451939E+00 -0.3778169842291E+01  0.0000000000000E+00
 0.9633664471917E+00 -0.3707831277764E+01  0.0000000000000E+00
 0.9634025491302E+00 -0.3637492829032E+01  0.0000000000000E+00
 0.9634386510743E+00 -0.3567154369183E+01  0.0000000000000E+00
 0.9634747530070E+00 -0.3496815931724E+01  0.0000000000000E+00
 0.9635199053399E+00 -0.3426477445878E+01  0.0000000000000E+00
 0.9636625705278E+00 -0.3356139128907E+01  0.0000000000000E+00
 0.9640346342380E+00 -0.3285801805778E+01  0.0000000000000E+00
 0.9647594421244E+00 -0.3215467939075E+01  0.0000000000000E+00
 0.9659394407315E+00 -0.3145141982791E+01  0.0000000000000E+00
 0.9676524765979E+00 -0.3074830214621E+01  0.0000000000000E+00
 0.9699543944624E+00 -0.3004540571592E+01  0.0000000000000E+00
 0.9728846326760E+00 -0.2934281141894E+01  0.0000000000000E+00
 0.9764721880368E+00 -0.2864061779902E+01  0.0000000000000E+00
 0.9807409998445E+00 -0.2793892786478E+01  0.0000000000000E+00
 0.9857144561354E+00 -0.2723784273272E+01  0.0000000000000E+00
 0.9914189497470E+00 -0.2653749351465E+01  0.0000000000000E+00
 0.9978875345157E+00 -0.2583801890379E+01  0.0000000000000E+00
 0.9900310298546E+00 -0.5325782844272E+01  0.0000000000000E+00
 0.9900620601937E+00 -0.5255609241554E+01  0.0000000000000E+00
 0.9900930903286E+00 -0.5185436100608E+01  0.0000000000000E+00
 0.9901241204472E+00 -0.5115262996479E+01  0.0000000000000E+00
 0.9901551505961E+00 -0.5045089823844E+01  0.0000000000000E+00
 0.9901861807485E+00 -0.4974916643372E+01  0.0000000000000E+00
 0.9902172108664E+00 -0.4904743540849E+01  0.0000000000000E+00
 0.9902482410085E+00 -0.4834570383443E+01  0.0000000000000E+00
 0.9902792711436E+00 -0.4764397242116E+01  0.0000000000000E+00
 0.9903103012768E+00 -0.4694224104941E+01  0.0000000000000E+00
 0.9903413314137E+00 -0.4624050959559E+01  0.0000000000000E+00
 0.9903723615530E+00 -0.4553877808709E+01  0.0000000000000E+00
 0.9904033916839E+00 -0.4483704676625E+01  0.0000000000000E+00
 0.9904344218213E+00 -0.4413531530142E+01  0.0000000000000E+00
 0.9904654519638E+00 -0.4343358371874E+01  0.0000000000000E+00
 0.9904964820649E+00 -0.4273185307429E+01  0.0000000000000E+00
 0.9905275122127E+00 -0.4203012137274E+01  0.0000000000000E+00
 0.9905585423591E+00 -0.4132838970318E+01  0.0000000000000E+00
 0.9905895726224E+00 -0.4062665538963E+01  0.0000000000000E+00
 0.9906206030458E+00 -0.3992491745495E+01  0.0000000000000E+00
 0.9906516327366E+00 -0.3922319608947E+01  0.0000000000000E+00
 0.9906826628985E+00 -0.3852146406762E+01  0.0000000000000E+00
 0.9907136929269E+00 -0.3781973506662E+01  0.0000000000000E+00
 0.9907447230825E+00 -0.3711800318997E+01  0.0000000000000E+00
 0.9907757531870E+00 -0.3641627246855E+01  0.0000000000000E+00
 0.9908067832963E+00 -0.3571454163623E+01  0.0000000000000E+00
 0.9908378133958E+00 -0.3501281102728E+01  0.0000000000000E+00
 0.9908781538031E+00 -0.3431107993560E+01  0.0000000000000E+00
 0.9910188074716E+00 -0.3360935053122E+01  0.0000000000000E+00
 0.9913954475945E+00 -0.3290763106434E+01  0.0000000000000E+00
 0.9921349621014E+00 -0.3220594616046E+01  0.0000000000000E+00
 0.9933427396245E+00 -0.3150434035942E+01  0.0000000000000E+00
 0.9950988623182E+00 -0.3080287643879E+01  0.0000000000000E+00
 0.9974607787055E+00 -0.3010163376352E+01  0.0000000000000E+00
 0.1000469059687E+01 -0.2940069322936E+01  0.0000000000000E+00
 0.1004153534840E+01 -0.2870015336921E+01  0.0000000000000E+00
 0.1008538830977E+01 -0.2800011718658E+01  0.0000000000000E+00
 0.1013649007724E+01 -0.2730068581828E+01  0.0000000000000E+00
 0.1019511215949E+01 -0.2660199035624E+01  0.0000000000000E+00
 0.1026159458707E+01 -0.2590416950165E+01  0.0000000000000E+00
 0.1017524906396E+01 -0.5325952578025E+01  0.0000000000000E+00
 0.1017549813180E+01 -0.5255948711710E+01  0.0000000000000E+00
 0.1017574719801E+01 -0.5185945306050E+01  0.0000000000000E+00
 0.1017599626408E+01 -0.5115941937118E+01  0.0000000000000E+00
 0.1017624533040E+01 -0.5045938499846E+01  0.0000000000000E+00
 0.1017649439675E+01 -0.4975935054756E+01  0.0000000000000E+00
 0.1017674346282E+01 -0.4905931687427E+01  0.0000000000000E+00
 0.1017699252908E+01 -0.4835928265346E+01  0.0000000000000E+00
 0.1017724159529E+01 -0.4765924859306E+01  0.0000000000000E+00
 0.1017749066148E+01 -0.4695921457408E+01  0.0000000000000E+00
 0.1017773972771E+01 -0.4625918047323E+01  0.0000000000000E+00
 0.1017798879395E+01 -0.4555914631783E+01  0.0000000000000E+00
 0.1017823786012E+01 -0.4485911234964E+01  0.0000000000000E+00
 0.1017848692635E+01 -0.4415907823780E+01  0.0000000000000E+00
 0.1017873599261E+01 -0.4345904400840E+01  0.0000000000000E+00
 0.1017898505855E+01 -0.4275901071497E+01  0.0000000000000E+00
 0.1017923412486E+01 -0.4205897636698E+01  0.0000000000000E+00
 0.1017948319116E+01 -0.4135894205092E+01  0.0000000000000E+00
 0.1017973225839E+01 -0.4065890509725E+01  0.0000000000000E+00
 0.1017998132692E+01 -0.3995886453121E+01  0.0000000000000E+00
 0.1018023038956E+01 -0.3925884049431E+01  0.0000000000000E+00
 0.1018047945598E+01 -0.3855880582680E+01  0.0000000000000E+00
 0.1018072852133E+01 -0.3785877417283E+01  0.0000000000000E+00
 0.1018097758771E+01 -0.3715873965017E+01  0.0000000000000E+00
 0.1018122665367E+01 -0.3645870627995E+01  0.0000000000000E+00
 0.1018147571967E+01 -0.3575867279909E+01  0.0000000000000E+00
 0.1018172478559E+01 -0.3505863954107E+01  0.0000000000000E+00
 0.1018206955366E+01 -0.3435860580151E+01  0.0000000000000E+00
 0.1018344545843E+01 -0.3365857374772E+01  0.0000000000000E+00
 0.1018724710709E+01 -0.3295855163051E+01  0.0000000000000E+00
 0.1019477880173E+01 -0.3225856407500E+01  0.0000000000000E+00
 0.1020712384956E+01 -0.3155865562095E+01  0.0000000000000E+00
 0.1022510542829E+01 -0.3085888904657E+01  0.0000000000000E+00
 0.1024931406102E+01 -0.3015934371131E+01  0.0000000000000E+00
 0.1028016678219E+01 -0.2946010052519E+01  0.0000000000000E+00
 0.1031797021541E+01 -0.2876125800993E+01  0.0000000000000E+00
 0.1036297750399E+01 -0.2806291916383E+01  0.0000000000000E+00
 0.1041543595996E+01 -0.2736518514452E+01  0.0000000000000E+00
 0.1047562467242E+01 -0.2666818702356E+01  0.0000000000000E+00
 0.1054389316408E+01 -0.2597206351028E+01  0.0000000000000E+00
 0.1045017707225E+01 -0.5326126643184E+01  0.0000000000000E+00
 0.1045035414726E+01 -0.5256296844747E+01  0.0000000000000E+00
 0.1045053122111E+01 -0.5186467505819E+01  0.0000000000000E+00
 0.1045070829486E+01 -0.5116638203528E+01  0.0000000000000E+00
 0.1045088536879E+01 -0.5046808833067E+01  0.0000000000000E+00
 0.1045106244273E+01 -0.4976979454806E+01  0.0000000000000E+00
 0.1045123951648E+01 -0.4907150154114E+01  0.0000000000000E+00
 0.1045141659037E+01 -0.4837320798806E+01  0.0000000000000E+00
 0.1045159366422E+01 -0.4767491459499E+01  0.0000000000000E+00
 0.1045177073805E+01 -0.4697662124323E+01  0.0000000000000E+00
 0.1045194781191E+01 -0.4627832780981E+01  0.0000000000000E+00
 0.1045212488578E+01 -0.4558003432198E+01  0.0000000000000E+00
 0.1045230195961E+01 -0.4488174102089E+01  0.0000000000000E+00
 0.1045247903347E+01 -0.4418344757651E+01  0.0000000000000E+00
 0.1045265610736E+01 -0.4348515401485E+01  0.0000000000000E+00
 0.1045283318101E+01 -0.4278686138684E+01  0.0000000000000E+00
 0.1045301025493E+01 -0.4208856770690E+01  0.0000000000000E+00
 0.1045318732884E+01 -0.4139027405880E+01  0.0000000000000E+00
 0.1045336440342E+01 -0.4069197777966E+01  0.0000000000000E+00
 0.1045354147891E+01 -0.3999367789712E+01  0.0000000000000E+00
 0.1045371855023E+01 -0.3929539450262E+01  0.0000000000000E+00
 0.1045389562423E+01 -0.3859710050395E+01  0.0000000000000E+00
 0.1045407269747E+01 -0.3789880951133E+01  0.0000000000000E+00
 0.1045424977143E+01 -0.3720051565715E+01  0.0000000000000E+00
 0.1045442684510E+01 -0.3650222295254E+01  0.0000000000000E+00
 0.1045460391880E+01 -0.3580393013757E+01  0.0000000000000E+00
 0.1045478099245E+01 -0.3510563754488E+01  0.0000000000000E+00
 0.1045505636730E+01 -0.3440734447187E+01  0.0000000000000E+00
 0.1045639088292E+01 -0.3370905308308E+01  0.0000000000000E+00
 0.1046021702175E+01 -0.3301077162992E+01  0.0000000000000E+00
 0.1046787450861E+01 -0.3231252473712E+01  0.0000000000000E+00
 0.1048047607158E+01 -0.3161435694436E+01  0.0000000000000E+00
 0.1049886724452E+01 -0.3091633103052E+01  0.0000000000000E+00
 0.1052365458843E+01 -0.3021852634941E+01  0.0000000000000E+00
 0.1055526646307E+01 -0.2952102382566E+01  0.0000000000000E+00
 0.1059401781996E+01 -0.2882392196956E+01  0.0000000000000E+00
 0.1064016867763E+01 -0.2812732377403E+01  0.0000000000000E+00
 0.1069397306373E+01 -0.2743133041807E+01  0.0000000000000E+00
 0.1075571764790E+01 -0.2673607295234E+01  0.0000000000000E+00
 0.1082576144495E+01 -0.2604169009453E+01  0.0000000000000E+00
 0.1072509412025E+01 -0.5326305013050E+01  0.0000000000000E+00
 0.1072518824197E+01 -0.5256653587263E+01  0.0000000000000E+00
 0.1072528236306E+01 -0.5187002619813E+01  0.0000000000000E+00
 0.1072537648411E+01 -0.5117351688905E+01  0.0000000000000E+00
 0.1072547060525E+01 -0.5047700690000E+01  0.0000000000000E+00
 0.1072556472641E+01 -0.4978049683317E+01  0.0000000000000E+00
 0.1072565884745E+01 -0.4908398754004E+01  0.0000000000000E+00
 0.1072575296857E+01 -0.4838747770215E+01  0.0000000000000E+00
 0.1072584708967E+01 -0.4769096802386E+01  0.0000000000000E+00
 0.1072594121077E+01 -0.4699445838677E+01  0.0000000000000E+00
 0.1072603533187E+01 -0.4629794866824E+01  0.0000000000000E+00
 0.1072612945298E+01 -0.4560143889543E+01  0.0000000000000E+00
 0.1072622357407E+01 -0.4490492930887E+01  0.0000000000000E+00
 0.1072631769517E+01 -0.4420841957940E+01  0.0000000000000E+00
 0.1072641181629E+01 -0.4351190973296E+01  0.0000000000000E+00
 0.1072650593729E+01 -0.4281540081777E+01  0.0000000000000E+00
 0.1072660005843E+01 -0.4211889085334E+01  0.0000000000000E+00
 0.1072669417956E+01 -0.4142238092067E+01  0.0000000000000E+00
 0.1072678830105E+01 -0.4072586836368E+01  0.0000000000000E+00
 0.1072688242302E+01 -0.4002935221250E+01  0.0000000000000E+00
 0.1072697654277E+01 -0.3933285250724E+01  0.0000000000000E+00
 0.1072707066395E+01 -0.3863634222489E+01  0.0000000000000E+00
 0.1072716478473E+01 -0.3793983494091E+01  0.0000000000000E+00
 0.1072725890589E+01 -0.3724332480269E+01  0.0000000000000E+00
 0.1072735302690E+01 -0.3654681581110E+01  0.0000000000000E+00
 0.1072744714792E+01 -0.3585030670944E+01  0.0000000000000E+00
 0.1072754126891E+01 -0.3515379782948E+01  0.0000000000000E+00
 0.1072773629016E+01 -0.3445728847045E+01  0.0000000000000E+00
 0.1072901845627E+01 -0.3376078079404E+01  0.0000000000000E+00
 0.1073285812492E+01 -0.3306428305231E+01  0.0000000000000E+00
 0.1074063044370E+01 -0.3236781986956E+01  0.0000000000000E+00
 0.1075347756157E+01 -0.3167143578539E+01  0.0000000000000E+00
 0.1077226736852E+01 -0.3097519357936E+01  0.0000000000000E+00
 0.1079762246352E+01 -0.3027917259953E+01  0.0000000000000E+00
 0.1082998253153E+01 -0.2958345378547E+01  0.0000000000000E+00
 0.1086967085208E+01 -0.2888813563578E+01  0.0000000000000E+00
 0.1091695431893E+01 -0.2819332113785E+01  0.0000000000000E+00
 0.1097209367523E+01 -0.2749911149260E+01  0.0000000000000E+00
 0.1103538317131E+01 -0.2680563772923E+01  0.0000000000000E+00
 0.1110719131403E+01 -0.2611303857406E+01  0.0000000000000E+00
-0.5456534061835E+00 -0.2345334045502E+01  0.0000000000000E+00
-0.5475812327280E+00 -0.2260039777390E+01  0.0000000000000E+00
-0.5510024592640E+00 -0.2174797343443E+01  0.0000000000000E+00
-0.5561307849682E+00 -0.2089649834607E+01  0.0000000000000E+00
-0.5631893436561E+00 -0.2004655771752E+01  0.0000000000000E+00
-0.5723781273446E+00 -0.1919887875725E+01  0.0000000000000E+00
-0.5838092902796E+00 -0.1835423036750E+01  0.0000000000000E+00
-0.5974037629644E+00 -0.1751313828823E+01  0.0000000000000E+00
-0.6127722107440E+00 -0.1667543050310E+01  0.0000000000000E+00
-0.6291587049866E+00 -0.1583985612652E+01  0.0000000000000E+00
-0.6455451991582E+00 -0.1500428174980E+01  0.0000000000000E+00
-0.6609136467324E+00 -0.1416657396430E+01  0.0000000000000E+00
-0.6745081190980E+00 -0.1332548188452E+01  0.0000000000000E+00
-0.6859392816265E+00 -0.1248083349422E+01  0.0000000000000E+00
-0.6951280648467E+00 -0.1163315453344E+01  0.0000000000000E+00
-0.7021866230258E+00 -0.1078321390447E+01  0.0000000000000E+00
-0.7073149481966E+00 -0.9931738815790E+00  0.0000000000000E+00
-0.7107361741854E+00 -0.9079314476104E+00  0.0000000000000E+00
-0.7126640001767E+00 -0.8226371794860E+00  0.0000000000000E+00
-0.5171048065997E+00 -0.2341514979523E+01  0.0000000000000E+00
-0.5189598887672E+00 -0.2255940542946E+01  0.0000000000000E+00
-0.5222297708298E+00 -0.2170417941744E+01  0.0000000000000E+00
-0.5271169046352E+00 -0.2084990266937E+01  0.0000000000000E+00
-0.5338326800752E+00 -0.1999716039810E+01  0.0000000000000E+00
-0.5425665633265E+00 -0.1914667980697E+01  0.0000000000000E+00
-0.5534248058370E+00 -0.1829922979284E+01  0.0000000000000E+00
-0.5663324999123E+00 -0.1745533607106E+01  0.0000000000000E+00
-0.5809208023756E+00 -0.1661482660693E+01  0.0000000000000E+00
-0.5964735702733E+00 -0.1577645051729E+01  0.0000000000000E+00
-0.6120263381000E+00 -0.1493807442751E+01  0.0000000000000E+00
-0.6266146403580E+00 -0.1409756496303E+01  0.0000000000000E+00
-0.6395223341141E+00 -0.1325367124076E+01  0.0000000000000E+00
-0.6503805762181E+00 -0.1240622122611E+01  0.0000000000000E+00
-0.6591144590011E+00 -0.1155574063450E+01  0.0000000000000E+00
-0.6658302339323E+00 -0.1070299836283E+01  0.0000000000000E+00
-0.6707173672042E+00 -0.9848721614458E+00  0.0000000000000E+00
-0.6739872487197E+00 -0.8993495602229E+00  0.0000000000000E+00
-0.6758423303339E+00 -0.8137751236348E+00  0.0000000000000E+00
-0.4885291464632E+00 -0.2337897226731E+01  0.0000000000000E+00
-0.4903070641866E+00 -0.2252056191043E+01  0.0000000000000E+00
-0.4934211816262E+00 -0.2166266991879E+01  0.0000000000000E+00
-0.4980627032872E+00 -0.2080572720333E+01  0.0000000000000E+00
-0.5044312751290E+00 -0.1995031898082E+01  0.0000000000000E+00
-0.5127058374668E+00 -0.1909717244977E+01  0.0000000000000E+00
-0.5229867389340E+00 -0.1824705650185E+01  0.0000000000000E+00
-0.5352032336052E+00 -0.1740049682904E+01  0.0000000000000E+00
-0.5490069697791E+00 -0.1655732137917E+01  0.0000000000000E+00
-0.5637215902360E+00 -0.1571627927136E+01  0.0000000000000E+00
-0.5784362106217E+00 -0.1487523716343E+01  0.0000000000000E+00
-0.5922399465904E+00 -0.1403206171322E+01  0.0000000000000E+00
-0.6044564409424E+00 -0.1318550203995E+01  0.0000000000000E+00
-0.6147373420030E+00 -0.1233538609154E+01  0.0000000000000E+00
-0.6230119038725E+00 -0.1148223956003E+01  0.0000000000000E+00
-0.6293804752056E+00 -0.1062683133715E+01  0.0000000000000E+00
-0.6340219963331E+00 -0.9769888621404E+00  0.0000000000000E+00
-0.6371361132255E+00 -0.8911996629571E+00  0.0000000000000E+00
-0.6389140303956E+00 -0.8053586272580E+00  0.0000000000000E+00
-0.4599277952607E+00 -0.2334481611260E+01  0.0000000000000E+00
-0.4616243161788E+00 -0.2248387789895E+01  0.0000000000000E+00
-0.4645784367044E+00 -0.2162345806146E+01  0.0000000000000E+00
-0.4689701140085E+00 -0.2076398751174E+01  0.0000000000000E+00
-0.4749872501325E+00 -0.1990605147028E+01  0.0000000000000E+00
-0.4827982595288E+00 -0.1905037713099E+01  0.0000000000000E+00
-0.4924975880122E+00 -0.1819773338068E+01  0.0000000000000E+00
-0.5040186513866E+00 -0.1734864588912E+01  0.0000000000000E+00
-0.5170335893849E+00 -0.1650294258757E+01  0.0000000000000E+00
-0.5309058304983E+00 -0.1565937259735E+01  0.0000000000000E+00
-0.5447780715407E+00 -0.1481580260701E+01  0.0000000000000E+00
-0.5577930093337E+00 -0.1397009930515E+01  0.0000000000000E+00
-0.5693140723889E+00 -0.1312101181315E+01  0.0000000000000E+00
-0.5790134004658E+00 -0.1226836806238E+01  0.0000000000000E+00
-0.5868244093937E+00 -0.1141269372266E+01  0.0000000000000E+00
-0.5928415450090E+00 -0.1055475768085E+01  0.0000000000000E+00
-0.5972332217796E+00 -0.9695287130858E+00  0.0000000000000E+00
-0.6001873417580E+00 -0.8834867293179E+00  0.0000000000000E+00
-0.6018838621229E+00 -0.7973929079430E+00  0.0000000000000E+00
-0.4313021211937E+00 -0.2331268915419E+01  0.0000000000000E+00
-0.4329132069216E+00 -0.2244936356081E+01  0.0000000000000E+00
-0.4357032922266E+00 -0.2158655635389E+01  0.0000000000000E+00
-0.4398410869557E+00 -0.2072469844569E+01  0.0000000000000E+00
-0.4455027492468E+00 -0.1986437506021E+01  0.0000000000000E+00
-0.4528461676908E+00 -0.1900631338702E+01  0.0000000000000E+00
-0.4619598852805E+00 -0.1815128230833E+01  0.0000000000000E+00
-0.4727814795103E+00 -0.1729980747293E+01  0.0000000000000E+00
-0.4850035815051E+00 -0.1645171679645E+01  0.0000000000000E+00
-0.4980294054398E+00 -0.1560575940228E+01  0.0000000000000E+00
-0.5110552293034E+00 -0.1475980200800E+01  0.0000000000000E+00
-0.5232773310929E+00 -0.1391171133122E+01  0.0000000000000E+00
-0.5340989250035E+00 -0.1306023649542E+01  0.0000000000000E+00
-0.5432126421867E+00 -0.1220520541629E+01  0.0000000000000E+00
-0.5505560601624E+00 -0.1134714374270E+01  0.0000000000000E+00
-0.5562177219447E+00 -0.1048682035689E+01  0.0000000000000E+00
-0.5603555161403E+00 -0.9624962448440E+00  0.0000000000000E+00
-0.5631456008981E+00 -0.8762155241342E+00  0.0000000000000E+00
-0.5647566860728E+00 -0.7898829647869E+00  0.0000000000000E+00
-0.4026535542906E+00 -0.2328259885006E+01  0.0000000000000E+00
-0.4041753593340E+00 -0.2241702858346E+01  0.0000000000000E+00
-0.4067975638665E+00 -0.2155197671300E+01  0.0000000000000E+00
-0.4106776304014E+00 -0.2068787415155E+01  0.0000000000000E+00
-0.4159799731680E+00 -0.1982530612643E+01  0.0000000000000E+00
-0.4228519548785E+00 -0.1896499982311E+01  0.0000000000000E+00
-0.4313762156910E+00 -0.1810772411947E+01  0.0000000000000E+00
-0.4414944947602E+00 -0.1725400464460E+01  0.0000000000000E+00
-0.4529199145974E+00 -0.1640366929941E+01  0.0000000000000E+00
-0.4650954751018E+00 -0.1555546720924E+01  0.0000000000000E+00
-0.4772710355351E+00 -0.1470726511896E+01  0.0000000000000E+00
-0.4886964551670E+00 -0.1385692977350E+01  0.0000000000000E+00
-0.4988147339171E+00 -0.1300321029825E+01  0.0000000000000E+00
-0.5073389943230E+00 -0.1214593459420E+01  0.0000000000000E+00
-0.5142109755651E+00 -0.1128562829051E+01  0.0000000000000E+00
-0.5195133178230E+00 -0.1042306026508E+01  0.0000000000000E+00
-0.5233933838244E+00 -0.9558957703396E+00  0.0000000000000E+00
-0.5260155878097E+00 -0.8693905832771E+00  0.0000000000000E+00
-0.5275373922999E+00 -0.7828335566081E+00  0.0000000000000E+00
-0.3739835273389E+00 -0.2325455223861E+01  0.0000000000000E+00
-0.3754124203235E+00 -0.2238688215934E+01  0.0000000000000E+00
-0.3778631127633E+00 -0.2151973048527E+01  0.0000000000000E+00
-0.3814818198441E+00 -0.2065352812985E+01  0.0000000000000E+00
-0.3864212118979E+00 -0.1978886032347E+01  0.0000000000000E+00
-0.3928181257565E+00 -0.1892645424779E+01  0.0000000000000E+00
-0.4007492987391E+00 -0.1806707877663E+01  0.0000000000000E+00
-0.4101606316273E+00 -0.1721125952066E+01  0.0000000000000E+00
-0.4207857382845E+00 -0.1635882436703E+01  0.0000000000000E+00
-0.4321074043181E+00 -0.1550852244288E+01  0.0000000000000E+00
-0.4434290702808E+00 -0.1465822051864E+01  0.0000000000000E+00
-0.4540541767326E+00 -0.1380578536475E+01  0.0000000000000E+00
-0.4634655093016E+00 -0.1294996610844E+01  0.0000000000000E+00
-0.4713966818776E+00 -0.1209059063690E+01  0.0000000000000E+00
-0.4777935952679E+00 -0.1122818456088E+01  0.0000000000000E+00
-0.4827329868130E+00 -0.1036351675421E+01  0.0000000000000E+00
-0.4863516933603E+00 -0.9497314398564E+00  0.0000000000000E+00
-0.4888023852529E+00 -0.8630162724342E+00  0.0000000000000E+00
-0.4902312776842E+00 -0.7762492644991E+00  0.0000000000000E+00
-0.3452934858289E+00 -0.2322855591923E+01  0.0000000000000E+00
-0.3466260517370E+00 -0.2235893291847E+01  0.0000000000000E+00
-0.3489018170558E+00 -0.2148982833133E+01  0.0000000000000E+00
-0.3522557496412E+00 -0.2062167307178E+01  0.0000000000000E+00
-0.3568287759289E+00 -0.1975505237312E+01  0.0000000000000E+00
-0.3627472068609E+00 -0.1889069341343E+01  0.0000000000000E+00
-0.3700818769090E+00 -0.1802936506277E+01  0.0000000000000E+00
-0.3787828484527E+00 -0.1717159291467E+01  0.0000000000000E+00
-0.3886042266920E+00 -0.1631720484347E+01  0.0000000000000E+00
-0.3990685829584E+00 -0.1546494997801E+01  0.0000000000000E+00
-0.4095329391538E+00 -0.1461269511246E+01  0.0000000000000E+00
-0.4193543171877E+00 -0.1375830704101E+01  0.0000000000000E+00
-0.4280552884122E+00 -0.1290053489259E+01  0.0000000000000E+00
-0.4353899580537E+00 -0.1203920654158E+01  0.0000000000000E+00
-0.4413083885174E+00 -0.1117484758157E+01  0.0000000000000E+00
-0.4458814142963E+00 -0.1030822688264E+01  0.0000000000000E+00
-0.4492353463482E+00 -0.9440071622900E+00  0.0000000000000E+00
-0.4515111111199E+00 -0.8570967035617E+00  0.0000000000000E+00
-0.4528436764748E+00 -0.7701344034778E+00  0.0000000000000E+00
-0.3165848903542E+00 -0.2320461605829E+01  0.0000000000000E+00
-0.3178179440045E+00 -0.2233318895065E+01  0.0000000000000E+00
-0.3199155970596E+00 -0.2146228026440E+01  0.0000000000000E+00
-0.3230015700503E+00 -0.2059232091403E+01  0.0000000000000E+00
-0.3272050455241E+00 -0.1972389613546E+01  0.0000000000000E+00
-0.3326418085311E+00 -0.1885773310352E+01  0.0000000000000E+00
-0.3393767906911E+00 -0.1799460068477E+01  0.0000000000000E+00
-0.3473642159527E+00 -0.1713502445690E+01  0.0000000000000E+00
-0.3563786808246E+00 -0.1627883228244E+01  0.0000000000000E+00
-0.3659825423527E+00 -0.1542477329178E+01  0.0000000000000E+00
-0.3755864038097E+00 -0.1457071430104E+01  0.0000000000000E+00
-0.3846008684763E+00 -0.1371452212636E+01  0.0000000000000E+00
-0.3925882934186E+00 -0.1285494589819E+01  0.0000000000000E+00
-0.3993232751721E+00 -0.1199181347913E+01  0.0000000000000E+00
-0.4047600377107E+00 -0.1112565044689E+01  0.0000000000000E+00
-0.4089635126758E+00 -0.1025722566808E+01  0.0000000000000E+00
-0.4120494851329E+00 -0.9387266317524E+00  0.0000000000000E+00
-0.4141471376410E+00 -0.8516357631151E+00  0.0000000000000E+00
-0.4153801907379E+00 -0.7644930523433E+00  0.0000000000000E+00
-0.2878592234144E+00 -0.2318273837493E+01  0.0000000000000E+00
-0.2889898130089E+00 -0.2230965776699E+01  0.0000000000000E+00
-0.2909064019965E+00 -0.2143709558759E+01  0.0000000000000E+00
-0.2937214635802E+00 -0.2056548275164E+01  0.0000000000000E+00
-0.2975524364214E+00 -0.1969540449752E+01  0.0000000000000E+00
-0.3025045796699E+00 -0.1882758799702E+01  0.0000000000000E+00
-0.3086369220869E+00 -0.1796280211354E+01  0.0000000000000E+00
-0.3159078491645E+00 -0.1710157241023E+01  0.0000000000000E+00
-0.3241124487065E+00 -0.1624372673879E+01  0.0000000000000E+00
-0.3328528634846E+00 -0.1538801423106E+01  0.0000000000000E+00
-0.3415932781917E+00 -0.1453230172326E+01  0.0000000000000E+00
-0.3497978775283E+00 -0.1367445605162E+01  0.0000000000000E+00
-0.3570688042868E+00 -0.1281322634805E+01  0.0000000000000E+00
-0.3632011462972E+00 -0.1194844046427E+01  0.0000000000000E+00
-0.3681532890774E+00 -0.1108062396351E+01  0.0000000000000E+00
-0.3719842614098E+00 -0.1021054570916E+01  0.0000000000000E+00
-0.3747993224600E+00 -0.9338932873044E+00  0.0000000000000E+00
-0.3767159109004E+00 -0.8466370693525E+00  0.0000000000000E+00
-0.3778464999417E+00 -0.7593290085524E+00  0.0000000000000E+00
-0.2591179937017E+00 -0.2316292813845E+01  0.0000000000000E+00
-0.2601434102929E+00 -0.2228834630220E+01  0.0000000000000E+00
-0.2618762262876E+00 -0.2141428290096E+01  0.0000000000000E+00
-0.2644176675635E+00 -0.2054116885006E+01  0.0000000000000E+00
-0.2678734289016E+00 -0.1966958939007E+01  0.0000000000000E+00
-0.2723382435477E+00 -0.1880027169008E+01  0.0000000000000E+00
-0.2778652373998E+00 -0.1793398461056E+01  0.0000000000000E+00
-0.2844169574697E+00 -0.1707125370150E+01  0.0000000000000E+00
-0.2918089828352E+00 -0.1621190680476E+01  0.0000000000000E+00
-0.2996832419912E+00 -0.1535469305348E+01  0.0000000000000E+00
-0.3075575010762E+00 -0.1449747930213E+01  0.0000000000000E+00
-0.3149495262363E+00 -0.1363813240522E+01  0.0000000000000E+00
-0.3215012459870E+00 -0.1277540149592E+01  0.0000000000000E+00
-0.3270282394326E+00 -0.1190911441614E+01  0.0000000000000E+00
-0.3314930536104E+00 -0.1103979671590E+01  0.0000000000000E+00
-0.3349488144396E+00 -0.1016821725572E+01  0.0000000000000E+00
-0.3374902551821E+00 -0.9295103204665E+00  0.0000000000000E+00
-0.3392230706296E+00 -0.8421039803322E+00  0.0000000000000E+00
-0.3402484866675E+00 -0.7546457967016E+00  0.0000000000000E+00
-0.2303627144352E+00 -0.2314519014073E+01  0.0000000000000E+00
-0.2312804990172E+00 -0.2226926087577E+01  0.0000000000000E+00
-0.2328270830384E+00 -0.2139385005164E+01  0.0000000000000E+00
-0.2350924450545E+00 -0.2051938858402E+01  0.0000000000000E+00
-0.2381705359713E+00 -0.1964646171547E+01  0.0000000000000E+00
-0.2421455631287E+00 -0.1877579661263E+01  0.0000000000000E+00
-0.2470647495578E+00 -0.1790816213337E+01  0.0000000000000E+00
-0.2528948037672E+00 -0.1704408381585E+01  0.0000000000000E+00
-0.2594717960891E+00 -0.1618338949311E+01  0.0000000000000E+00
-0.2664774407363E+00 -0.1532482829943E+01  0.0000000000000E+00
-0.2734830853124E+00 -0.1446626710570E+01  0.0000000000000E+00
-0.2800600774290E+00 -0.1360557278280E+01  0.0000000000000E+00
-0.2858901313193E+00 -0.1274149446507E+01  0.0000000000000E+00
-0.2908093173417E+00 -0.1187385998558E+01  0.0000000000000E+00
-0.2947843440308E+00 -0.1100319488252E+01  0.0000000000000E+00
-0.2978624344388E+00 -0.1013026801380E+01  0.0000000000000E+00
-0.3001277959214E+00 -0.9255806546044E+00  0.0000000000000E+00
-0.3016743793955E+00 -0.8380395721815E+00  0.0000000000000E+00
-0.3025921634242E+00 -0.7504466456810E+00  0.0000000000000E+00
-0.2015949115532E+00 -0.2312952869494E+01  0.0000000000000E+00
-0.2024028609462E+00 -0.2225240718452E+01  0.0000000000000E+00
-0.2037610098273E+00 -0.2137580412007E+01  0.0000000000000E+00
-0.2057480894310E+00 -0.2050015041759E+01  0.0000000000000E+00
-0.2084463067919E+00 -0.1962603132141E+01  0.0000000000000E+00
-0.2119293433402E+00 -0.1875417399598E+01  0.0000000000000E+00
-0.2162385192362E+00 -0.1788534729688E+01  0.0000000000000E+00
-0.2213447044662E+00 -0.1702007675182E+01  0.0000000000000E+00
-0.2271044606009E+00 -0.1615819018599E+01  0.0000000000000E+00
-0.2332392875711E+00 -0.1529843673475E+01  0.0000000000000E+00
-0.2393741144704E+00 -0.1443868328345E+01  0.0000000000000E+00
-0.2451338703997E+00 -0.1357679671749E+01  0.0000000000000E+00
-0.2502400553105E+00 -0.1271152617224E+01  0.0000000000000E+00
-0.2545492307999E+00 -0.1184269947294E+01  0.0000000000000E+00
-0.2580322668799E+00 -0.1097084214732E+01  0.0000000000000E+00
-0.2607304837320E+00 -0.1009672305099E+01  0.0000000000000E+00
-0.2627175628022E+00 -0.9221069348392E+00  0.0000000000000E+00
-0.2640757111362E+00 -0.8344466283854E+00  0.0000000000000E+00
-0.2648836599759E+00 -0.7467344773392E+00  0.0000000000000E+00
-0.1728161226398E+00 -0.2311594762789E+01  0.0000000000000E+00
-0.1735122954420E+00 -0.2223779029033E+01  0.0000000000000E+00
-0.1746800677829E+00 -0.2136015140320E+01  0.0000000000000E+00
-0.1763869235752E+00 -0.2048346188279E+01  0.0000000000000E+00
-0.1787033259843E+00 -0.1960830697495E+01  0.0000000000000E+00
-0.1816924305262E+00 -0.1873541384225E+01  0.0000000000000E+00
-0.1853896544861E+00 -0.1786555133827E+01  0.0000000000000E+00
-0.1897700293111E+00 -0.1699924498162E+01  0.0000000000000E+00
-0.1947106078000E+00 -0.1613632259072E+01  0.0000000000000E+00
-0.1999726756064E+00 -0.1527553330181E+01  0.0000000000000E+00
-0.2052347433418E+00 -0.1441474401286E+01  0.0000000000000E+00
-0.2101753216253E+00 -0.1355182162184E+01  0.0000000000000E+00
-0.2145556961312E+00 -0.1268551526502E+01  0.0000000000000E+00
-0.2182529196845E+00 -0.1181565276087E+01  0.0000000000000E+00
-0.2212420237581E+00 -0.1094275962801E+01  0.0000000000000E+00
-0.2235584256583E+00 -0.1006760472004E+01  0.0000000000000E+00
-0.2252652809171E+00 -0.9190915199535E+00  0.0000000000000E+00
-0.2264330527109E+00 -0.8313276312331E+00  0.0000000000000E+00
-0.2271292249598E+00 -0.7435118974732E+00  0.0000000000000E+00
-0.1440278915418E+00 -0.2310445027141E+01  0.0000000000000E+00
-0.1446106145161E+00 -0.2222541460709E+01  0.0000000000000E+00
-0.1455863370859E+00 -0.2134689739697E+01  0.0000000000000E+00
-0.1470112958425E+00 -0.2046932955761E+01  0.0000000000000E+00
-0.1489442100843E+00 -0.1959329633613E+01  0.0000000000000E+00
-0.1514377094101E+00 -0.1871952489351E+01  0.0000000000000E+00
-0.1545213082266E+00 -0.1784878408164E+01  0.0000000000000E+00
-0.1581741994272E+00 -0.1698159941141E+01  0.0000000000000E+00
-0.1622939270277E+00 -0.1611779869549E+01  0.0000000000000E+00
-0.1666815624069E+00 -0.1525613107088E+01  0.0000000000000E+00
-0.1710691977150E+00 -0.1439446344624E+01  0.0000000000000E+00
-0.1751889251102E+00 -0.1353066273022E+01  0.0000000000000E+00
-0.1788418159916E+00 -0.1266347805986E+01  0.0000000000000E+00
-0.1819254144015E+00 -0.1179273724784E+01  0.0000000000000E+00
-0.1844189132590E+00 -0.1091896580509E+01  0.0000000000000E+00
-0.1863518269919E+00 -0.1004293258350E+01  0.0000000000000E+00
-0.1877767852150E+00 -0.9165364744054E+00  0.0000000000000E+00
-0.1887525072377E+00 -0.8286847533880E+00  0.0000000000000E+00
-0.1893352296587E+00 -0.7407811869521E+00  0.0000000000000E+00
-0.1152317847050E+00 -0.2309503946102E+01  0.0000000000000E+00
-0.1156996559066E+00 -0.2221528389294E+01  0.0000000000000E+00
-0.1164819267728E+00 -0.2133604678217E+01  0.0000000000000E+00
-0.1176235865750E+00 -0.2045775904544E+01  0.0000000000000E+00
-0.1191716107474E+00 -0.1958100593097E+01  0.0000000000000E+00
-0.1211681029700E+00 -0.1870651459839E+01  0.0000000000000E+00
-0.1236366747688E+00 -0.1783505389822E+01  0.0000000000000E+00
-0.1265606804708E+00 -0.1696714933504E+01  0.0000000000000E+00
-0.1298581552980E+00 -0.1610262871679E+01  0.0000000000000E+00
-0.1333699563521E+00 -0.1524024118110E+01  0.0000000000000E+00
-0.1368817573353E+00 -0.1437785364539E+01  0.0000000000000E+00
-0.1401792319571E+00 -0.1351333302706E+01  0.0000000000000E+00
-0.1431032373399E+00 -0.1264542846376E+01  0.0000000000000E+00
-0.1455718087321E+00 -0.1177396776348E+01  0.0000000000000E+00
-0.1475683004864E+00 -0.1089947643080E+01  0.0000000000000E+00
-0.1491163241500E+00 -0.1002272331623E+01  0.0000000000000E+00
-0.1502579834186E+00 -0.9144435579444E+00  0.0000000000000E+00
-0.1510402537378E+00 -0.8265198468626E+00  0.0000000000000E+00
-0.1515081243860E+00 -0.7385442900514E+00  0.0000000000000E+00
-0.8642936768113E-01 -0.2308771752151E+01  0.0000000000000E+00
-0.8678126084113E-01 -0.2220740123323E+01  0.0000000000000E+00
-0.8736895374362E-01 -0.2132760340467E+01  0.0000000000000E+00
-0.8822618834054E-01 -0.2044875495273E+01  0.0000000000000E+00
-0.8938819620450E-01 -0.1957144112643E+01  0.0000000000000E+00
-0.9088655509497E-01 -0.1869638908441E+01  0.0000000000000E+00
-0.9273897365525E-01 -0.1782436767608E+01  0.0000000000000E+00
-0.9493296763602E-01 -0.1695590240110E+01  0.0000000000000E+00
-0.9740706345720E-01 -0.1609082106376E+01  0.0000000000000E+00
-0.1000419039425E+00 -0.1522787280216E+01  0.0000000000000E+00
-0.1026767443567E+00 -0.1436492454055E+01  0.0000000000000E+00
-0.1051508399725E+00 -0.1349984320315E+01  0.0000000000000E+00
-0.1073448336341E+00 -0.1263137792809E+01  0.0000000000000E+00
-0.1091972517878E+00 -0.1175935651967E+01  0.0000000000000E+00
-0.1106956102100E+00 -0.1088430447757E+01  0.0000000000000E+00
-0.1118576175651E+00 -0.1000699065120E+01  0.0000000000000E+00
-0.1127148516285E+00 -0.9128142199212E+00  0.0000000000000E+00
-0.1133025439839E+00 -0.8248344370622E+00  0.0000000000000E+00
-0.1136544365905E+00 -0.7368028082317E+00  0.0000000000000E+00
-0.5762221223792E-01 -0.2308248626619E+01  0.0000000000000E+00
-0.5785727989612E-01 -0.2220176903625E+01  0.0000000000000E+00
-0.5824954738006E-01 -0.2132157026776E+01  0.0000000000000E+00
-0.5882150932291E-01 -0.2044232087773E+01  0.0000000000000E+00
-0.5959665343708E-01 -0.1956460611577E+01  0.0000000000000E+00
-0.6059603156018E-01 -0.1868915313976E+01  0.0000000000000E+00
-0.6183144945147E-01 -0.1781673079838E+01  0.0000000000000E+00
-0.6329458427761E-01 -0.1694786458776E+01  0.0000000000000E+00
-0.6494445365040E-01 -0.1608238230954E+01  0.0000000000000E+00
-0.6670148611539E-01 -0.1521903310221E+01  0.0000000000000E+00
-0.6845851850933E-01 -0.1435568389486E+01  0.0000000000000E+00
-0.7010838767678E-01 -0.1349020161661E+01  0.0000000000000E+00
-0.7157152218371E-01 -0.1262133540593E+01  0.0000000000000E+00
-0.7280693966841E-01 -0.1174891306449E+01  0.0000000000000E+00
-0.7380631732319E-01 -0.1087346008843E+01  0.0000000000000E+00
-0.7458146092855E-01 -0.9995745326420E+00  0.0000000000000E+00
-0.7515342233789E-01 -0.9116495936354E+00  0.0000000000000E+00
-0.7554568927467E-01 -0.8236297167848E+00  0.0000000000000E+00
-0.7578075637955E-01 -0.7355579937897E+00  0.0000000000000E+00
-0.2881189482310E-01 -0.2307934699307E+01  0.0000000000000E+00
-0.2892957069400E-01 -0.2219838902687E+01  0.0000000000000E+00
-0.2912584647653E-01 -0.2131794952316E+01  0.0000000000000E+00
-0.2941196948525E-01 -0.2043845939901E+01  0.0000000000000E+00
-0.2979968357322E-01 -0.1956050390437E+01  0.0000000000000E+00
-0.3029951465521E-01 -0.1868481019671E+01  0.0000000000000E+00
-0.3091736560534E-01 -0.1781214712422E+01  0.0000000000000E+00
-0.3164907500127E-01 -0.1694304018093E+01  0.0000000000000E+00
-0.3247415164294E-01 -0.1607731716691E+01  0.0000000000000E+00
-0.3335280979814E-01 -0.1521372722085E+01  0.0000000000000E+00
-0.3423146788229E-01 -0.1435013727479E+01  0.0000000000000E+00
-0.3505654431862E-01 -0.1348441426076E+01  0.0000000000000E+00
-0.3578825339534E-01 -0.1261530731744E+01  0.0000000000000E+00
-0.3640610393888E-01 -0.1174264424492E+01  0.0000000000000E+00
-0.3690593455255E-01 -0.1086695053723E+01  0.0000000000000E+00
-0.3729364813170E-01 -0.9988995042571E+00  0.0000000000000E+00
-0.3757977060691E-01 -0.9109504918396E+00  0.0000000000000E+00
-0.3777604584227E-01 -0.8229065414676E+00  0.0000000000000E+00
-0.3789372115985E-01 -0.7348107448474E+00  0.0000000000000E+00
 0.4989274263799E-08 -0.2307830048218E+01  0.0000000000000E+00
 0.4432057587788E-08 -0.2219726224198E+01  0.0000000000000E+00
 0.3877401748818E-08 -0.2131674246460E+01  0.0000000000000E+00
 0.3329408950689E-08 -0.2043717206714E+01  0.0000000000000E+00
 0.2794182976621E-08 -0.1955913629968E+01  0.0000000000000E+00
 0.2280456120929E-08 -0.1868336231953E+01  0.0000000000000E+00
 0.1799903592166E-08 -0.1781061897473E+01  0.0000000000000E+00
 0.1366276425927E-08 -0.1694143175861E+01  0.0000000000000E+00
 0.9930298176054E-09 -0.1607562847072E+01  0.0000000000000E+00
 0.6892481014891E-09 -0.1521195824981E+01  0.0000000000000E+00
 0.4565080856730E-09 -0.1434828802891E+01  0.0000000000000E+00
 0.2886136570570E-09 -0.1348248474102E+01  0.0000000000000E+00
 0.1741943731667E-09 -0.1261329752489E+01  0.0000000000000E+00
 0.1002342985528E-09 -0.1174055418010E+01  0.0000000000000E+00
 0.5482890780269E-10 -0.1086478019995E+01  0.0000000000000E+00
 0.2841614751873E-10 -0.9986744432484E+00  0.0000000000000E+00
 0.1394293206876E-10 -0.9107174035021E+00  0.0000000000000E+00
 0.6454244964144E-11 -0.8226654257645E+00  0.0000000000000E+00
 0.2564314487076E-11 -0.7345616017440E+00  0.0000000000000E+00
 0.2881190480141E-01 -0.2307934699380E+01  0.0000000000000E+00
 0.2892957955789E-01 -0.2219838902758E+01  0.0000000000000E+00
 0.2912585423112E-01 -0.2131794952384E+01  0.0000000000000E+00
 0.2941197614387E-01 -0.2043845939964E+01  0.0000000000000E+00
 0.2979968916140E-01 -0.1956050390495E+01  0.0000000000000E+00
 0.3029951921595E-01 -0.1868481019722E+01  0.0000000000000E+00
 0.3091736920498E-01 -0.1781214712466E+01  0.0000000000000E+00
 0.3164907773367E-01 -0.1694304018128E+01  0.0000000000000E+00
 0.3247415362887E-01 -0.1607731716719E+01  0.0000000000000E+00
 0.3335281117651E-01 -0.1521372722106E+01  0.0000000000000E+00
 0.3423146879520E-01 -0.1435013727494E+01  0.0000000000000E+00
 0.3505654489574E-01 -0.1348441426086E+01  0.0000000000000E+00
 0.3578825374364E-01 -0.1261530731751E+01  0.0000000000000E+00
 0.3640610413927E-01 -0.1174264424498E+01  0.0000000000000E+00
 0.3690593466215E-01 -0.1086695053728E+01  0.0000000000000E+00
 0.3729364818849E-01 -0.9988995042607E+00  0.0000000000000E+00
 0.3757977063476E-01 -0.9109504918422E+00  0.0000000000000E+00
 0.3777604585516E-01 -0.8229065414693E+00  0.0000000000000E+00
 0.3789372116497E-01 -0.7348107448482E+00  0.0000000000000E+00
 0.5762222221552E-01 -0.2308248626765E+01  0.0000000000000E+00
 0.5785728875933E-01 -0.2220176903767E+01  0.0000000000000E+00
 0.5824955513401E-01 -0.2132157026912E+01  0.0000000000000E+00
 0.5882151598093E-01 -0.2044232087900E+01  0.0000000000000E+00
 0.5959665902469E-01 -0.1956460611693E+01  0.0000000000000E+00
 0.6059603612039E-01 -0.1868915314079E+01  0.0000000000000E+00
 0.6183145305063E-01 -0.1781673079926E+01  0.0000000000000E+00
 0.6329458700956E-01 -0.1694786458847E+01  0.0000000000000E+00
 0.6494445563591E-01 -0.1608238231009E+01  0.0000000000000E+00
 0.6670148749338E-01 -0.1521903310262E+01  0.0000000000000E+00
 0.6845851942190E-01 -0.1435568389515E+01  0.0000000000000E+00
 0.7010838825360E-01 -0.1349020161682E+01  0.0000000000000E+00
 0.7157152253175E-01 -0.1262133540608E+01  0.0000000000000E+00
 0.7280693986858E-01 -0.1174891306461E+01  0.0000000000000E+00
 0.7380631743260E-01 -0.1087346008852E+01  0.0000000000000E+00
 0.7458146098518E-01 -0.9995745326491E+00  0.0000000000000E+00
 0.7515342236562E-01 -0.9116495936406E+00  0.0000000000000E+00
 0.7554568928748E-01 -0.8236297167882E+00  0.0000000000000E+00
 0.7578075638462E-01 -0.7355579937914E+00  0.0000000000000E+00
 0.8642937765754E-01 -0.2308771752371E+01  0.0000000000000E+00
 0.8678126970322E-01 -0.2220740123536E+01  0.0000000000000E+00
 0.8736896149651E-01 -0.2132760340671E+01  0.0000000000000E+00
 0.8822619499755E-01 -0.2044875495464E+01  0.0000000000000E+00
 0.8938820179118E-01 -0.1957144112818E+01  0.0000000000000E+00
 0.9088655965430E-01 -0.1869638908595E+01  0.0000000000000E+00
 0.9273897725360E-01 -0.1782436767739E+01  0.0000000000000E+00
 0.9493297036723E-01 -0.1695590240217E+01  0.0000000000000E+00
 0.9740706544203E-01 -0.1609082106458E+01  0.0000000000000E+00
 0.1000419053199E+00 -0.1522787280278E+01  0.0000000000000E+00
 0.1026767452687E+00 -0.1436492454099E+01  0.0000000000000E+00
 0.1051508405489E+00 -0.1349984320347E+01  0.0000000000000E+00
 0.1073448339817E+00 -0.1263137792833E+01  0.0000000000000E+00
 0.1091972519876E+00 -0.1175935651985E+01  0.0000000000000E+00
 0.1106956103191E+00 -0.1088430447771E+01  0.0000000000000E+00
 0.1118576176215E+00 -0.1000699065131E+01  0.0000000000000E+00
 0.1127148516561E+00 -0.9128142199290E+00  0.0000000000000E+00
 0.1133025439965E+00 -0.8248344370673E+00  0.0000000000000E+00
 0.1136544365956E+00 -0.7368028082343E+00  0.0000000000000E+00
 0.1152317946797E+00 -0.2309503946395E+01  0.0000000000000E+00
 0.1156996647671E+00 -0.2221528389578E+01  0.0000000000000E+00
 0.1164819345242E+00 -0.2133604678488E+01  0.0000000000000E+00
 0.1176235932306E+00 -0.2045775904799E+01  0.0000000000000E+00
 0.1191716163328E+00 -0.1958100593329E+01  0.0000000000000E+00
 0.1211681075282E+00 -0.1870651460045E+01  0.0000000000000E+00
 0.1236366783660E+00 -0.1783505389997E+01  0.0000000000000E+00
 0.1265606832009E+00 -0.1696714933646E+01  0.0000000000000E+00
 0.1298581572818E+00 -0.1610262871789E+01  0.0000000000000E+00
 0.1333699577286E+00 -0.1524024118192E+01  0.0000000000000E+00
 0.1368817582465E+00 -0.1437785364598E+01  0.0000000000000E+00
 0.1401792325328E+00 -0.1351333302748E+01  0.0000000000000E+00
 0.1431032376869E+00 -0.1264542846408E+01  0.0000000000000E+00
 0.1455718089313E+00 -0.1177396776372E+01  0.0000000000000E+00
 0.1475683005950E+00 -0.1089947643098E+01  0.0000000000000E+00
 0.1491163242060E+00 -0.1002272331638E+01  0.0000000000000E+00
 0.1502579834459E+00 -0.9144435579548E+00  0.0000000000000E+00
 0.1510402537503E+00 -0.8265198468694E+00  0.0000000000000E+00
 0.1515081243910E+00 -0.7385442900548E+00  0.0000000000000E+00
 0.1440279015144E+00 -0.2310445027507E+01  0.0000000000000E+00
 0.1446106233746E+00 -0.2222541461064E+01  0.0000000000000E+00
 0.1455863448354E+00 -0.2134689740036E+01  0.0000000000000E+00
 0.1470113024963E+00 -0.2046932956079E+01  0.0000000000000E+00
 0.1489442156679E+00 -0.1959329633904E+01  0.0000000000000E+00
 0.1514377139666E+00 -0.1871952489608E+01  0.0000000000000E+00
 0.1545213118223E+00 -0.1784878408382E+01  0.0000000000000E+00
 0.1581742021560E+00 -0.1698159941318E+01  0.0000000000000E+00
 0.1622939290103E+00 -0.1611779869686E+01  0.0000000000000E+00
 0.1666815637822E+00 -0.1525613107190E+01  0.0000000000000E+00
 0.1710691986252E+00 -0.1439446344698E+01  0.0000000000000E+00
 0.1751889256849E+00 -0.1353066273076E+01  0.0000000000000E+00
 0.1788418163378E+00 -0.1266347806025E+01  0.0000000000000E+00
 0.1819254146001E+00 -0.1179273724814E+01  0.0000000000000E+00
 0.1844189133671E+00 -0.1091896580532E+01  0.0000000000000E+00
 0.1863518270475E+00 -0.1004293258368E+01  0.0000000000000E+00
 0.1877767852420E+00 -0.9165364744183E+00  0.0000000000000E+00
 0.1887525072500E+00 -0.8286847533966E+00  0.0000000000000E+00
 0.1893352296635E+00 -0.7407811869563E+00  0.0000000000000E+00
 0.1728161326098E+00 -0.2311594763228E+01  0.0000000000000E+00
 0.1735123042980E+00 -0.2223779029459E+01  0.0000000000000E+00
 0.1746800755301E+00 -0.2136015140727E+01  0.0000000000000E+00
 0.1763869302269E+00 -0.2048346188660E+01  0.0000000000000E+00
 0.1787033315659E+00 -0.1960830697844E+01  0.0000000000000E+00
 0.1816924350808E+00 -0.1873541384533E+01  0.0000000000000E+00
 0.1853896580800E+00 -0.1786555134089E+01  0.0000000000000E+00
 0.1897700320383E+00 -0.1699924498375E+01  0.0000000000000E+00
 0.1947106097811E+00 -0.1613632259237E+01  0.0000000000000E+00
 0.1999726769804E+00 -0.1527553330303E+01  0.0000000000000E+00
 0.2052347442508E+00 -0.1441474401374E+01  0.0000000000000E+00
 0.2101753221989E+00 -0.1355182162248E+01  0.0000000000000E+00
 0.2145556964764E+00 -0.1268551526549E+01  0.0000000000000E+00
 0.2182529198822E+00 -0.1181565276123E+01  0.0000000000000E+00
 0.2212420238655E+00 -0.1094275962829E+01  0.0000000000000E+00
 0.2235584257133E+00 -0.1006760472026E+01  0.0000000000000E+00
 0.2252652809436E+00 -0.9190915199691E+00  0.0000000000000E+00
 0.2264330527229E+00 -0.8313276312434E+00  0.0000000000000E+00
 0.2271292249645E+00 -0.7435118974784E+00  0.0000000000000E+00
 0.2015949215201E+00 -0.2312952870006E+01  0.0000000000000E+00
 0.2024028697993E+00 -0.2225240718949E+01  0.0000000000000E+00
 0.2037610175717E+00 -0.2137580412481E+01  0.0000000000000E+00
 0.2057480960801E+00 -0.2050015042204E+01  0.0000000000000E+00
 0.2084463123711E+00 -0.1962603132547E+01  0.0000000000000E+00
 0.2119293478926E+00 -0.1875417399957E+01  0.0000000000000E+00
 0.2162385228281E+00 -0.1788534729994E+01  0.0000000000000E+00
 0.2213447071914E+00 -0.1702007675430E+01  0.0000000000000E+00
 0.2271044625802E+00 -0.1615819018791E+01  0.0000000000000E+00
 0.2332392889435E+00 -0.1529843673617E+01  0.0000000000000E+00
 0.2393741153779E+00 -0.1443868328448E+01  0.0000000000000E+00
 0.2451338709721E+00 -0.1357679671823E+01  0.0000000000000E+00
 0.2502400556546E+00 -0.1271152617278E+01  0.0000000000000E+00
 0.2545492309967E+00 -0.1184269947335E+01  0.0000000000000E+00
 0.2580322669865E+00 -0.1097084214764E+01  0.0000000000000E+00
 0.2607304837864E+00 -0.1009672305123E+01  0.0000000000000E+00
 0.2627175628282E+00 -0.9221069348574E+00  0.0000000000000E+00
 0.2640757111479E+00 -0.8344466283974E+00  0.0000000000000E+00
 0.2648836599804E+00 -0.7467344773452E+00  0.0000000000000E+00
 0.2303627243986E+00 -0.2314519014658E+01  0.0000000000000E+00
 0.2312805078669E+00 -0.2226926088145E+01  0.0000000000000E+00
 0.2328270907796E+00 -0.2139385005706E+01  0.0000000000000E+00
 0.2350924517006E+00 -0.2051938858910E+01  0.0000000000000E+00
 0.2381705415477E+00 -0.1964646172011E+01  0.0000000000000E+00
 0.2421455676784E+00 -0.1877579661673E+01  0.0000000000000E+00
 0.2470647531472E+00 -0.1790816213686E+01  0.0000000000000E+00
 0.2528948064902E+00 -0.1704408381869E+01  0.0000000000000E+00
 0.2594717980664E+00 -0.1618338949530E+01  0.0000000000000E+00
 0.2664774421068E+00 -0.1532482830106E+01  0.0000000000000E+00
 0.2734830862183E+00 -0.1446626710688E+01  0.0000000000000E+00
 0.2800600779998E+00 -0.1360557278365E+01  0.0000000000000E+00
 0.2858901316621E+00 -0.1274149446569E+01  0.0000000000000E+00
 0.2908093175374E+00 -0.1187385998605E+01  0.0000000000000E+00
 0.2947843441365E+00 -0.1100319488288E+01  0.0000000000000E+00
 0.2978624344924E+00 -0.1013026801408E+01  0.0000000000000E+00
 0.3001277959469E+00 -0.9255806546250E+00  0.0000000000000E+00
 0.3016743794068E+00 -0.8380395721952E+00  0.0000000000000E+00
 0.3025921634285E+00 -0.7504466456878E+00  0.0000000000000E+00
 0.2591180036611E+00 -0.2316292814502E+01  0.0000000000000E+00
 0.2601434191389E+00 -0.2228834630858E+01  0.0000000000000E+00
 0.2618762340252E+00 -0.2141428290706E+01  0.0000000000000E+00
 0.2644176742062E+00 -0.2054116885577E+01  0.0000000000000E+00
 0.2678734344748E+00 -0.1966958939529E+01  0.0000000000000E+00
 0.2723382480944E+00 -0.1880027169469E+01  0.0000000000000E+00
 0.2778652409865E+00 -0.1793398461448E+01  0.0000000000000E+00
 0.2844169601902E+00 -0.1707125370469E+01  0.0000000000000E+00
 0.2918089848101E+00 -0.1621190680723E+01  0.0000000000000E+00
 0.2996832433596E+00 -0.1535469305531E+01  0.0000000000000E+00
 0.3075575019802E+00 -0.1449747930345E+01  0.0000000000000E+00
 0.3149495268055E+00 -0.1363813240617E+01  0.0000000000000E+00
 0.3215012463283E+00 -0.1277540149662E+01  0.0000000000000E+00
 0.3270282396270E+00 -0.1190911441667E+01  0.0000000000000E+00
 0.3314930537150E+00 -0.1103979671631E+01  0.0000000000000E+00
 0.3349488144924E+00 -0.1016821725603E+01  0.0000000000000E+00
 0.3374902552070E+00 -0.9295103204898E+00  0.0000000000000E+00
 0.3392230706405E+00 -0.8421039803475E+00  0.0000000000000E+00
 0.3402484866716E+00 -0.7546457967093E+00  0.0000000000000E+00
 0.2878592333692E+00 -0.2318273838224E+01  0.0000000000000E+00
 0.2889898218506E+00 -0.2230965777408E+01  0.0000000000000E+00
 0.2909064097301E+00 -0.2143709559436E+01  0.0000000000000E+00
 0.2937214702191E+00 -0.2056548275798E+01  0.0000000000000E+00
 0.2975524419911E+00 -0.1969540450331E+01  0.0000000000000E+00
 0.3025045842134E+00 -0.1882758800215E+01  0.0000000000000E+00
 0.3086369256705E+00 -0.1796280211789E+01  0.0000000000000E+00
 0.3159078518821E+00 -0.1710157241377E+01  0.0000000000000E+00
 0.3241124506788E+00 -0.1624372674153E+01  0.0000000000000E+00
 0.3328528648507E+00 -0.1538801423309E+01  0.0000000000000E+00
 0.3415932790935E+00 -0.1453230172472E+01  0.0000000000000E+00
 0.3497978780956E+00 -0.1367445605268E+01  0.0000000000000E+00
 0.3570688046264E+00 -0.1281322634882E+01  0.0000000000000E+00
 0.3632011464902E+00 -0.1194844046486E+01  0.0000000000000E+00
 0.3681532891808E+00 -0.1108062396396E+01  0.0000000000000E+00
 0.3719842614617E+00 -0.1021054570951E+01  0.0000000000000E+00
 0.3747993224842E+00 -0.9338932873302E+00  0.0000000000000E+00
 0.3767159109109E+00 -0.8466370693695E+00  0.0000000000000E+00
 0.3778464999456E+00 -0.7593290085609E+00  0.0000000000000E+00
 0.3165849003041E+00 -0.2320461606633E+01  0.0000000000000E+00
 0.3178179528415E+00 -0.2233318895844E+01  0.0000000000000E+00
 0.3199156047888E+00 -0.2146228027185E+01  0.0000000000000E+00
 0.3230015766850E+00 -0.2059232092100E+01  0.0000000000000E+00
 0.3272050510899E+00 -0.1972389614183E+01  0.0000000000000E+00
 0.3326418130709E+00 -0.1885773310915E+01  0.0000000000000E+00
 0.3393767942714E+00 -0.1799460068956E+01  0.0000000000000E+00
 0.3473642186671E+00 -0.1713502446079E+01  0.0000000000000E+00
 0.3563786827941E+00 -0.1627883228545E+01  0.0000000000000E+00
 0.3659825437161E+00 -0.1542477329401E+01  0.0000000000000E+00
 0.3755864047091E+00 -0.1457071430265E+01  0.0000000000000E+00
 0.3846008690414E+00 -0.1371452212752E+01  0.0000000000000E+00
 0.3925882937564E+00 -0.1285494589905E+01  0.0000000000000E+00
 0.3993232753635E+00 -0.1199181347978E+01  0.0000000000000E+00
 0.4047600378129E+00 -0.1112565044739E+01  0.0000000000000E+00
 0.4089635127266E+00 -0.1025722566847E+01  0.0000000000000E+00
 0.4120494851563E+00 -0.9387266317806E+00  0.0000000000000E+00
 0.4141471376509E+00 -0.8516357631337E+00  0.0000000000000E+00
 0.4153801907416E+00 -0.7644930523526E+00  0.0000000000000E+00
 0.3452934957734E+00 -0.2322855592799E+01  0.0000000000000E+00
 0.3466260605689E+00 -0.2235893292697E+01  0.0000000000000E+00
 0.3489018247802E+00 -0.2148982833944E+01  0.0000000000000E+00
 0.3522557562714E+00 -0.2062167307939E+01  0.0000000000000E+00
 0.3568287814904E+00 -0.1975505238006E+01  0.0000000000000E+00
 0.3627472113967E+00 -0.1889069341957E+01  0.0000000000000E+00
 0.3700818804855E+00 -0.1802936506800E+01  0.0000000000000E+00
 0.3787828511638E+00 -0.1717159291891E+01  0.0000000000000E+00
 0.3886042286583E+00 -0.1631720484675E+01  0.0000000000000E+00
 0.3990685843190E+00 -0.1546494998043E+01  0.0000000000000E+00
 0.4095329400507E+00 -0.1461269511421E+01  0.0000000000000E+00
 0.4193543177506E+00 -0.1375830704228E+01  0.0000000000000E+00
 0.4280552887481E+00 -0.1290053489352E+01  0.0000000000000E+00
 0.4353899582435E+00 -0.1203920654229E+01  0.0000000000000E+00
 0.4413083886181E+00 -0.1117484758212E+01  0.0000000000000E+00
 0.4458814143460E+00 -0.1030822688306E+01  0.0000000000000E+00
 0.4492353463707E+00 -0.9440071623207E+00  0.0000000000000E+00
 0.4515111111292E+00 -0.8570967035820E+00  0.0000000000000E+00
 0.4528436764781E+00 -0.7701344034879E+00  0.0000000000000E+00
 0.3739835372776E+00 -0.2325455224809E+01  0.0000000000000E+00
 0.3754124291499E+00 -0.2238688216854E+01  0.0000000000000E+00
 0.3778631204824E+00 -0.2151973049406E+01  0.0000000000000E+00
 0.3814818264693E+00 -0.2065352813808E+01  0.0000000000000E+00
 0.3864212174548E+00 -0.1978886033098E+01  0.0000000000000E+00
 0.3928181302880E+00 -0.1892645425444E+01  0.0000000000000E+00
 0.4007493023117E+00 -0.1806707878228E+01  0.0000000000000E+00
 0.4101606343347E+00 -0.1721125952525E+01  0.0000000000000E+00
 0.4207857402474E+00 -0.1635882437058E+01  0.0000000000000E+00
 0.4321074056756E+00 -0.1550852244551E+01  0.0000000000000E+00
 0.4434290711749E+00 -0.1465822052054E+01  0.0000000000000E+00
 0.4540541772930E+00 -0.1380578536612E+01  0.0000000000000E+00
 0.4634655096353E+00 -0.1294996610944E+01  0.0000000000000E+00
 0.4713966820655E+00 -0.1209059063767E+01  0.0000000000000E+00
 0.4777935953671E+00 -0.1122818456147E+01  0.0000000000000E+00
 0.4827329868614E+00 -0.1036351675466E+01  0.0000000000000E+00
 0.4863516933819E+00 -0.9497314398896E+00  0.0000000000000E+00
 0.4888023852616E+00 -0.8630162724561E+00  0.0000000000000E+00
 0.4902312776873E+00 -0.7762492645101E+00  0.0000000000000E+00
 0.4026535642230E+00 -0.2328259886026E+01  0.0000000000000E+00
 0.4041753681544E+00 -0.2241702859336E+01  0.0000000000000E+00
 0.4067975715800E+00 -0.2155197672246E+01  0.0000000000000E+00
 0.4106776370213E+00 -0.2068787416041E+01  0.0000000000000E+00
 0.4159799787200E+00 -0.1982530613452E+01  0.0000000000000E+00
 0.4228519594054E+00 -0.1896499983027E+01  0.0000000000000E+00
 0.4313762192592E+00 -0.1810772412555E+01  0.0000000000000E+00
 0.4414944974636E+00 -0.1725400464953E+01  0.0000000000000E+00
 0.4529199165567E+00 -0.1640366930323E+01  0.0000000000000E+00
 0.4650954764560E+00 -0.1555546721206E+01  0.0000000000000E+00
 0.4772710364263E+00 -0.1470726512100E+01  0.0000000000000E+00
 0.4886964557248E+00 -0.1385692977497E+01  0.0000000000000E+00
 0.4988147342484E+00 -0.1300321029934E+01  0.0000000000000E+00
 0.5073389945088E+00 -0.1214593459502E+01  0.0000000000000E+00
 0.5142109756626E+00 -0.1128562829114E+01  0.0000000000000E+00
 0.5195133178701E+00 -0.1042306026556E+01  0.0000000000000E+00
 0.5233933838450E+00 -0.9558957703751E+00  0.0000000000000E+00
 0.5260155878178E+00 -0.8693905833006E+00  0.0000000000000E+00
 0.5275373923026E+00 -0.7828335566198E+00  0.0000000000000E+00
 0.4313021311193E+00 -0.2331268916511E+01  0.0000000000000E+00
 0.4329132157356E+00 -0.2244936357141E+01  0.0000000000000E+00
 0.4357032999341E+00 -0.2158655636401E+01  0.0000000000000E+00
 0.4398410935699E+00 -0.2072469845517E+01  0.0000000000000E+00
 0.4455027547934E+00 -0.1986437506887E+01  0.0000000000000E+00
 0.4528461722127E+00 -0.1900631339468E+01  0.0000000000000E+00
 0.4619598888441E+00 -0.1815128231484E+01  0.0000000000000E+00
 0.4727814822094E+00 -0.1729980747821E+01  0.0000000000000E+00
 0.4850035834606E+00 -0.1645171680054E+01  0.0000000000000E+00
 0.4980294067904E+00 -0.1560575940530E+01  0.0000000000000E+00
 0.5110552301914E+00 -0.1475980201018E+01  0.0000000000000E+00
 0.5232773316479E+00 -0.1391171133279E+01  0.0000000000000E+00
 0.5340989253324E+00 -0.1306023649658E+01  0.0000000000000E+00
 0.5432126423705E+00 -0.1220520541717E+01  0.0000000000000E+00
 0.5505560602581E+00 -0.1134714374338E+01  0.0000000000000E+00
 0.5562177219904E+00 -0.1048682035741E+01  0.0000000000000E+00
 0.5603555161598E+00 -0.9624962448819E+00  0.0000000000000E+00
 0.5631456009055E+00 -0.8762155241593E+00  0.0000000000000E+00
 0.5647566860751E+00 -0.7898829647994E+00  0.0000000000000E+00
 0.4599278051791E+00 -0.2334481612423E+01  0.0000000000000E+00
 0.4616243249860E+00 -0.2248387791025E+01  0.0000000000000E+00
 0.4645784444054E+00 -0.2162345807225E+01  0.0000000000000E+00
 0.4689701206167E+00 -0.2076398752184E+01  0.0000000000000E+00
 0.4749872556734E+00 -0.1990605147951E+01  0.0000000000000E+00
 0.4827982640454E+00 -0.1905037713915E+01  0.0000000000000E+00
 0.4924975915709E+00 -0.1819773338762E+01  0.0000000000000E+00
 0.5040186540811E+00 -0.1734864589475E+01  0.0000000000000E+00
 0.5170335913361E+00 -0.1650294259192E+01  0.0000000000000E+00
 0.5309058318452E+00 -0.1565937260056E+01  0.0000000000000E+00
 0.5447780724253E+00 -0.1481580260933E+01  0.0000000000000E+00
 0.5577930098856E+00 -0.1397009930682E+01  0.0000000000000E+00
 0.5693140727151E+00 -0.1312101181438E+01  0.0000000000000E+00
 0.5790134006472E+00 -0.1226836806331E+01  0.0000000000000E+00
 0.5868244094876E+00 -0.1141269372338E+01  0.0000000000000E+00
 0.5928415450531E+00 -0.1055475768140E+01  0.0000000000000E+00
 0.5972332217980E+00 -0.9695287131261E+00  0.0000000000000E+00
 0.6001873417646E+00 -0.8834867293446E+00  0.0000000000000E+00
 0.6018838621248E+00 -0.7973929079563E+00  0.0000000000000E+00
 0.4885291563740E+00 -0.2337897227966E+01  0.0000000000000E+00
 0.4903070729865E+00 -0.2252056192242E+01  0.0000000000000E+00
 0.4934211893203E+00 -0.2166266993024E+01  0.0000000000000E+00
 0.4980627098889E+00 -0.2080572721406E+01  0.0000000000000E+00
 0.5044312806639E+00 -0.1995031899062E+01  0.0000000000000E+00
 0.5127058419778E+00 -0.1909717245843E+01  0.0000000000000E+00
 0.5229867424874E+00 -0.1824705650922E+01  0.0000000000000E+00
 0.5352032362949E+00 -0.1740049683502E+01  0.0000000000000E+00
 0.5490069717259E+00 -0.1655732138378E+01  0.0000000000000E+00
 0.5637215915788E+00 -0.1571627927477E+01  0.0000000000000E+00
 0.5784362115026E+00 -0.1487523716589E+01  0.0000000000000E+00
 0.5922399471390E+00 -0.1403206171499E+01  0.0000000000000E+00
 0.6044564412658E+00 -0.1318550204125E+01  0.0000000000000E+00
 0.6147373421820E+00 -0.1233538609253E+01  0.0000000000000E+00
 0.6230119039643E+00 -0.1148223956079E+01  0.0000000000000E+00
 0.6293804752481E+00 -0.1062683133773E+01  0.0000000000000E+00
 0.6340219963502E+00 -0.9769888621830E+00  0.0000000000000E+00
 0.6371361132313E+00 -0.8911996629853E+00  0.0000000000000E+00
 0.6389140303972E+00 -0.8053586272720E+00  0.0000000000000E+00
 0.5171048165024E+00 -0.2341514980829E+01  0.0000000000000E+00
 0.5189598975595E+00 -0.2255940544214E+01  0.0000000000000E+00
 0.5222297785168E+00 -0.2170417942956E+01  0.0000000000000E+00
 0.5271169112301E+00 -0.2084990268072E+01  0.0000000000000E+00
 0.5338326856036E+00 -0.1999716040846E+01  0.0000000000000E+00
 0.5425665678315E+00 -0.1914667981614E+01  0.0000000000000E+00
 0.5534248093849E+00 -0.1829922980063E+01  0.0000000000000E+00
 0.5663325025970E+00 -0.1745533607737E+01  0.0000000000000E+00
 0.5809208043177E+00 -0.1661482661181E+01  0.0000000000000E+00
 0.5964735716119E+00 -0.1577645052089E+01  0.0000000000000E+00
 0.6120263389771E+00 -0.1493807443011E+01  0.0000000000000E+00
 0.6266146409033E+00 -0.1409756496490E+01  0.0000000000000E+00
 0.6395223344345E+00 -0.1325367124214E+01  0.0000000000000E+00
 0.6503805763946E+00 -0.1240622122714E+01  0.0000000000000E+00
 0.6591144590908E+00 -0.1155574063530E+01  0.0000000000000E+00
 0.6658302339732E+00 -0.1070299836344E+01  0.0000000000000E+00
 0.6707173672201E+00 -0.9848721614908E+00  0.0000000000000E+00
 0.6739872487246E+00 -0.8993495602526E+00  0.0000000000000E+00
 0.6758423303350E+00 -0.8137751236497E+00  0.0000000000000E+00
 0.5456534160776E+00 -0.2345334046879E+01  0.0000000000000E+00
 0.5475812415122E+00 -0.2260039778727E+01  0.0000000000000E+00
 0.5510024669433E+00 -0.2174797344721E+01  0.0000000000000E+00
 0.5561307915560E+00 -0.2089649835803E+01  0.0000000000000E+00
 0.5631893491779E+00 -0.2004655772844E+01  0.0000000000000E+00
 0.5723781318433E+00 -0.1919887876691E+01  0.0000000000000E+00
 0.5838092938217E+00 -0.1835423037571E+01  0.0000000000000E+00
 0.5974037656437E+00 -0.1751313829489E+01  0.0000000000000E+00
 0.6127722126812E+00 -0.1667543050824E+01  0.0000000000000E+00
 0.6291587063207E+00 -0.1583985613032E+01  0.0000000000000E+00
 0.6455452000312E+00 -0.1500428175254E+01  0.0000000000000E+00
 0.6609136472741E+00 -0.1416657396627E+01  0.0000000000000E+00
 0.6745081194153E+00 -0.1332548188596E+01  0.0000000000000E+00
 0.6859392818003E+00 -0.1248083349531E+01  0.0000000000000E+00
 0.6951280649341E+00 -0.1163315453428E+01  0.0000000000000E+00
 0.7021866230649E+00 -0.1078321390512E+01  0.0000000000000E+00
 0.7073149482111E+00 -0.9931738816262E+00  0.0000000000000E+00
 0.7107361741894E+00 -0.9079314476416E+00  0.0000000000000E+00
 0.7126640001774E+00 -0.8226371795016E+00  0.0000000000000E+00
-0.1140947621490E+01 -0.2391116958969E+01  0.0000000000000E+00
-0.1167866473921E+01 -0.2240867639642E+01  0.0000000000000E+00
-0.1198990616327E+01 -0.2091439878595E+01  0.0000000000000E+00
-0.1234775845347E+01 -0.1943069364801E+01  0.0000000000000E+00
-0.1276577894576E+01 -0.1796301984609E+01  0.0000000000000E+00
-0.1327152545297E+01 -0.1652371020100E+01  0.0000000000000E+00
-0.1388982956246E+01 -0.1512987957842E+01  0.0000000000000E+00
-0.1464428560706E+01 -0.1380611500235E+01  0.0000000000000E+00
-0.1548933443842E+01 -0.1253832752988E+01  0.0000000000000E+00
-0.1629416616531E+01 -0.1124406120966E+01  0.0000000000000E+00
-0.1701626559203E+01 -0.9900911318236E+00  0.0000000000000E+00
-0.1765763349280E+01 -0.8516781305950E+00  0.0000000000000E+00
-0.1821624418034E+01 -0.7096888535409E+00  0.0000000000000E+00
-0.1867962505412E+01 -0.5642864029784E+00  0.0000000000000E+00
-0.1904055710001E+01 -0.4159845251297E+00  0.0000000000000E+00
-0.1928137513011E+01 -0.2652620477466E+00  0.0000000000000E+00
-0.1937099033907E+01 -0.1128953670711E+00  0.0000000000000E+00
-0.1934096607844E+01  0.3970726362540E-01  0.0000000000000E+00
-0.1894636353479E+01  0.1860156751584E+00  0.0000000000000E+00
-0.1111454502153E+01 -0.2387360022664E+01  0.0000000000000E+00
-0.1137043870572E+01 -0.2240626941494E+01  0.0000000000000E+00
-0.1166699934818E+01 -0.2094674906529E+01  0.0000000000000E+00
-0.1200866341688E+01 -0.1949729469250E+01  0.0000000000000E+00
-0.1240839832777E+01 -0.1806310863262E+01  0.0000000000000E+00
-0.1289242228811E+01 -0.1665591285384E+01  0.0000000000000E+00
-0.1348432209888E+01 -0.1529196188981E+01  0.0000000000000E+00
-0.1420640647722E+01 -0.1399457639519E+01  0.0000000000000E+00
-0.1501529835888E+01 -0.1275040021137E+01  0.0000000000000E+00
-0.1578665385597E+01 -0.1148125101743E+01  0.0000000000000E+00
-0.1647963138428E+01 -0.1016579107263E+01  0.0000000000000E+00
-0.1709556239791E+01 -0.8811395577321E+00  0.0000000000000E+00
-0.1763210903249E+01 -0.7422941437557E+00  0.0000000000000E+00
-0.1807723944407E+01 -0.6001964771893E+00  0.0000000000000E+00
-0.1842407075794E+01 -0.4553360334211E+00  0.0000000000000E+00
-0.1865592968114E+01 -0.3081704796688E+00  0.0000000000000E+00
-0.1874347445726E+01 -0.1594391779753E+00  0.0000000000000E+00
-0.1871673080920E+01 -0.1047935206100E-01  0.0000000000000E+00
-0.1834377056286E+01  0.1325205915944E+00  0.0000000000000E+00
-0.1081918693989E+01 -0.2383770749961E+01  0.0000000000000E+00
-0.1106180826787E+01 -0.2240545076139E+01  0.0000000000000E+00
-0.1134371061283E+01 -0.2098059936475E+01  0.0000000000000E+00
-0.1166920894411E+01 -0.1956530745043E+01  0.0000000000000E+00
-0.1205068075726E+01 -0.1816452082912E+01  0.0000000000000E+00
-0.1251300465329E+01 -0.1678935061984E+01  0.0000000000000E+00
-0.1307852264656E+01 -0.1545519102634E+01  0.0000000000000E+00
-0.1376825783903E+01 -0.1418409633281E+01  0.0000000000000E+00
-0.1454101525882E+01 -0.1296344313109E+01  0.0000000000000E+00
-0.1527891701149E+01 -0.1171932276441E+01  0.0000000000000E+00
-0.1594279512607E+01 -0.1043146446671E+01  0.0000000000000E+00
-0.1653331173687E+01 -0.9106715187611E+00  0.0000000000000E+00
-0.1704781680186E+01 -0.7749611379062E+00  0.0000000000000E+00
-0.1747471923334E+01 -0.6361594255971E+00  0.0000000000000E+00
-0.1780747229634E+01 -0.4947315862570E+00  0.0000000000000E+00
-0.1803039459101E+01 -0.3511141272143E+00  0.0000000000000E+00
-0.1811589140997E+01 -0.2060093761764E+00  0.0000000000000E+00
-0.1809245085021E+01 -0.6068352635484E-01  0.0000000000000E+00
-0.1774115528235E+01  0.7901674211792E-01  0.0000000000000E+00
-0.1052340987142E+01 -0.2380350181091E+01  0.0000000000000E+00
-0.1075278091104E+01 -0.2240623029274E+01  0.0000000000000E+00
-0.1102004702567E+01 -0.2101595899575E+01  0.0000000000000E+00
-0.1132940168577E+01 -0.1963474068735E+01  0.0000000000000E+00
-0.1169263246571E+01 -0.1826726465484E+01  0.0000000000000E+00
-0.1213327835886E+01 -0.1692403117115E+01  0.0000000000000E+00
-0.1267243659187E+01 -0.1561957411178E+01  0.0000000000000E+00
-0.1332984465130E+01 -0.1437468138849E+01  0.0000000000000E+00
-0.1406648966703E+01 -0.1317746230997E+01  0.0000000000000E+00
-0.1477095973235E+01 -0.1195828192018E+01  0.0000000000000E+00
-0.1540576049220E+01 -0.1069793642024E+01  0.0000000000000E+00
-0.1597088476104E+01 -0.9402744508010E+00  0.0000000000000E+00
-0.1646337031841E+01 -0.8076902183588E+00  0.0000000000000E+00
-0.1687206683285E+01 -0.6721755759150E+00  0.0000000000000E+00
-0.1719076370960E+01 -0.5341714567814E+00  0.0000000000000E+00
-0.1740477144076E+01 -0.3940932090326E+00  0.0000000000000E+00
-0.1748824236911E+01 -0.2526061258815E+00  0.0000000000000E+00
-0.1746812696745E+01 -0.1109053690229E+00  0.0000000000000E+00
-0.1713851806615E+01  0.2550407137527E-01  0.0000000000000E+00
-0.1022722319523E+01 -0.2377099370784E+01  0.0000000000000E+00
-0.1044336552025E+01 -0.2240861799787E+01  0.0000000000000E+00
-0.1069601697859E+01 -0.2105283738901E+01  0.0000000000000E+00
-0.1098924954169E+01 -0.1970560327618E+01  0.0000000000000E+00
-0.1133426086235E+01 -0.1837134842542E+01  0.0000000000000E+00
-0.1175325032585E+01 -0.1705996226716E+01  0.0000000000000E+00
-0.1226607037091E+01 -0.1578511835084E+01  0.0000000000000E+00
-0.1289117286940E+01 -0.1456633821473E+01  0.0000000000000E+00
-0.1359172706062E+01 -0.1339246385005E+01  0.0000000000000E+00
-0.1426278701556E+01 -0.1219813403531E+01  0.0000000000000E+00
-0.1486853199660E+01 -0.1096521193057E+01  0.0000000000000E+00
-0.1540828549868E+01 -0.9699487981208E+00  0.0000000000000E+00
-0.1587877312245E+01 -0.8404817738006E+00  0.0000000000000E+00
-0.1626928529230E+01 -0.7082452611381E+00  0.0000000000000E+00
-0.1657394755396E+01 -0.5736559222040E+00  0.0000000000000E+00
-0.1677906228966E+01 -0.4371079464725E+00  0.0000000000000E+00
-0.1686052889224E+01 -0.2992295925278E+00  0.0000000000000E+00
-0.1684376021309E+01 -0.1611449895834E+00  0.0000000000000E+00
-0.1653585945038E+01 -0.2801747468148E-01  0.0000000000000E+00
-0.9930635747757E+00 -0.2374019337990E+01  0.0000000000000E+00
-0.1013357046652E+01 -0.2241262352986E+01  0.0000000000000E+00
-0.1037162837714E+01 -0.2109124366116E+01  0.0000000000000E+00
-0.1064875995184E+01 -0.1977790379708E+01  0.0000000000000E+00
-0.1097557292149E+01 -0.1847678018454E+01  0.0000000000000E+00
-0.1137292706271E+01 -0.1719715141500E+01  0.0000000000000E+00
-0.1185943002608E+01 -0.1595183071402E+01  0.0000000000000E+00
-0.1245224806932E+01 -0.1475907324523E+01  0.0000000000000E+00
-0.1311673254880E+01 -0.1360845364794E+01  0.0000000000000E+00
-0.1375440350378E+01 -0.1243888446943E+01  0.0000000000000E+00
-0.1433111381561E+01 -0.1123329582050E+01  0.0000000000000E+00
-0.1484551766005E+01 -0.9996949893308E+00  0.0000000000000E+00
-0.1529402845834E+01 -0.8733361791820E+00  0.0000000000000E+00
-0.1566637739043E+01 -0.7443688025684E+00  0.0000000000000E+00
-0.1595702614276E+01 -0.6131852501868E+00  0.0000000000000E+00
-0.1615326898600E+01 -0.4801585535678E+00  0.0000000000000E+00
-0.1623275236306E+01 -0.3458799365290E+00  0.0000000000000E+00
-0.1621935150650E+01 -0.2114024948283E+00  0.0000000000000E+00
-0.1593317989311E+01 -0.8154794942185E-01  0.0000000000000E+00
-0.9633656159684E+00 -0.2371111074923E+01  0.0000000000000E+00
-0.9823403926036E+00 -0.2241825629019E+01  0.0000000000000E+00
-0.1004688894235E+01 -0.2113118669286E+01  0.0000000000000E+00
-0.1030794018139E+01 -0.1985165060966E+01  0.0000000000000E+00
-0.1061657545150E+01 -0.1858356777044E+01  0.0000000000000E+00
-0.1099231491945E+01 -0.1733560593091E+01  0.0000000000000E+00
-0.1145252144690E+01 -0.1611971799460E+01  0.0000000000000E+00
-0.1201307567738E+01 -0.1495289274876E+01  0.0000000000000E+00
-0.1264151109282E+01 -0.1382543744639E+01  0.0000000000000E+00
-0.1324581369441E+01 -0.1268053844007E+01  0.0000000000000E+00
-0.1379350998484E+01 -0.1150219278351E+01  0.0000000000000E+00
-0.1428258482067E+01 -0.1029513441468E+01  0.0000000000000E+00
-0.1470913944307E+01 -0.9062537993085E+00  0.0000000000000E+00
-0.1506334578747E+01 -0.7805465128563E+00  0.0000000000000E+00
-0.1534000168142E+01 -0.6527597012889E+00  0.0000000000000E+00
-0.1552739328279E+01 -0.5232452388440E+00  0.0000000000000E+00
-0.1560491408537E+01 -0.3925573144175E+00  0.0000000000000E+00
-0.1559490170476E+01 -0.2616779892981E+00  0.0000000000000E+00
-0.1533047981497E+01 -0.1350874054580E+00  0.0000000000000E+00
-0.9336293958411E+00 -0.2368375570893E+01  0.0000000000000E+00
-0.9512874924361E+00 -0.2242552564986E+01  0.0000000000000E+00
-0.9721807198281E+00 -0.2117267533309E+01  0.0000000000000E+00
-0.9966798253335E+00 -0.1992685204102E+01  0.0000000000000E+00
-0.1025727597479E+01 -0.1869171898850E+01  0.0000000000000E+00
-0.1061142091883E+01 -0.1747533309902E+01  0.0000000000000E+00
-0.1104535115768E+01 -0.1628878695602E+01  0.0000000000000E+00
-0.1157366172096E+01 -0.1514780296896E+01  0.0000000000000E+00
-0.1216606822391E+01 -0.1404342096984E+01  0.0000000000000E+00
-0.1273702262198E+01 -0.1292310115207E+01  0.0000000000000E+00
-0.1325572504096E+01 -0.1177190750424E+01  0.0000000000000E+00
-0.1371949101844E+01 -0.1059404570922E+01  0.0000000000000E+00
-0.1412410961496E+01 -0.9392349984569E+00  0.0000000000000E+00
-0.1446019352119E+01 -0.8167787041252E+00  0.0000000000000E+00
-0.1472287670613E+01 -0.6923795354470E+00  0.0000000000000E+00
-0.1490143721341E+01 -0.5663682100270E+00  0.0000000000000E+00
-0.1497701558807E+01 -0.4392618816918E+00  0.0000000000000E+00
-0.1497041183092E+01 -0.3119715762599E+00  0.0000000000000E+00
-0.1472775973063E+01 -0.1886358941184E+00  0.0000000000000E+00
-0.9038558765433E+00 -0.2365813792848E+01  0.0000000000000E+00
-0.9201992576211E+00 -0.2243444076841E+01  0.0000000000000E+00
-0.9396391753101E+00 -0.2121571823152E+01  0.0000000000000E+00
-0.9625342269481E+00 -0.2000351623103E+01  0.0000000000000E+00
-0.9897682087198E+00 -0.1880124146899E+01  0.0000000000000E+00
-0.1023025215123E+01 -0.1761634004015E+01  0.0000000000000E+00
-0.1063792574412E+01 -0.1645904421009E+01  0.0000000000000E+00
-0.1113401228206E+01 -0.1534381000921E+01  0.0000000000000E+00
-0.1169040952078E+01 -0.1426240981347E+01  0.0000000000000E+00
-0.1222803536150E+01 -0.1316657769230E+01  0.0000000000000E+00
-0.1271776355468E+01 -0.1204244456078E+01  0.0000000000000E+00
-0.1315624031917E+01 -0.1089368784599E+01  0.0000000000000E+00
-0.1353894253440E+01 -0.9722801325995E+00  0.0000000000000E+00
-0.1385692364602E+01 -0.8530656813927E+00  0.0000000000000E+00
-0.1410565376474E+01 -0.7320450067040E+00  0.0000000000000E+00
-0.1427540281839E+01 -0.6095276701713E+00  0.0000000000000E+00
-0.1434905840334E+01 -0.4859937904099E+00  0.0000000000000E+00
-0.1434588290797E+01 -0.3622833567721E+00  0.0000000000000E+00
-0.1412502015321E+01 -0.2421934657177E+00  0.0000000000000E+00
-0.8740460203980E+00 -0.2363426683141E+01  0.0000000000000E+00
-0.8890765997971E+00 -0.2244501057320E+01  0.0000000000000E+00
-0.9070651216294E+00 -0.2126032381932E+01  0.0000000000000E+00
-0.9283580332381E+00 -0.2008165111468E+01  0.0000000000000E+00
-0.9537801384265E+00 -0.1891214265065E+01  0.0000000000000E+00
-0.9848815705132E+00 -0.1775863369683E+01  0.0000000000000E+00
-0.1023025178750E+01 -0.1663049620309E+01  0.0000000000000E+00
-0.1069413343456E+01 -0.1554091981944E+01  0.0000000000000E+00
-0.1121454054966E+01 -0.1448240943062E+01  0.0000000000000E+00
-0.1171885697169E+01 -0.1341097301756E+01  0.0000000000000E+00
-0.1217963007734E+01 -0.1231380841356E+01  0.0000000000000E+00
-0.1259283676697E+01 -0.1119406478904E+01  0.0000000000000E+00
-0.1295364173839E+01 -0.1005389548516E+01  0.0000000000000E+00
-0.1325353919200E+01 -0.8894077418191E+00  0.0000000000000E+00
-0.1348833538048E+01 -0.7717563626056E+00  0.0000000000000E+00
-0.1364929211437E+01 -0.6527238172164E+00  0.0000000000000E+00
-0.1372104404152E+01 -0.5327531889114E+00  0.0000000000000E+00
-0.1372131594013E+01 -0.4126134295725E+00  0.0000000000000E+00
-0.1352226158348E+01 -0.2957601695828E+00  0.0000000000000E+00
-0.8442008064090E+00 -0.2361215162592E+01  0.0000000000000E+00
-0.8579204464050E+00 -0.2245724378765E+01  0.0000000000000E+00
-0.8744594346568E+00 -0.2130650033513E+01  0.0000000000000E+00
-0.8941520684969E+00 -0.2016126444579E+01  0.0000000000000E+00
-0.9177641593059E+00 -0.1902442980247E+01  0.0000000000000E+00
-0.9467118791575E+00 -0.1790222085320E+01  0.0000000000000E+00
-0.9822335982660E+00 -0.1680314923419E+01  0.0000000000000E+00
-0.1025403135681E+01 -0.1573913821373E+01  0.0000000000000E+00
-0.1073846697203E+01 -0.1470342515001E+01  0.0000000000000E+00
-0.1120949259737E+01 -0.1365629197132E+01  0.0000000000000E+00
-0.1164132923733E+01 -0.1258600342091E+01  0.0000000000000E+00
-0.1202928447398E+01 -0.1149518041170E+01  0.0000000000000E+00
-0.1236821082304E+01 -0.1038563585048E+01  0.0000000000000E+00
-0.1265004323942E+01 -0.9258051757627E+00  0.0000000000000E+00
-0.1287092411803E+01 -0.8115138450361E+00  0.0000000000000E+00
-0.1302310715074E+01 -0.6959568445832E+00  0.0000000000000E+00
-0.1309297403712E+01 -0.5795402221609E+00  0.0000000000000E+00
-0.1309671194729E+01 -0.4629618911679E+00  0.0000000000000E+00
-0.1291948452980E+01 -0.3493360539428E+00  0.0000000000000E+00
-0.8143212054889E+00 -0.2359180125278E+01  0.0000000000000E+00
-0.8267317172241E+00 -0.2247114888298E+01  0.0000000000000E+00
-0.8418229829948E+00 -0.2135425578047E+01  0.0000000000000E+00
-0.8599171501026E+00 -0.2024236375602E+01  0.0000000000000E+00
-0.8817210374471E+00 -0.1913810998606E+01  0.0000000000000E+00
-0.9085168557516E+00 -0.1804710810036E+01  0.0000000000000E+00
-0.9414184961170E+00 -0.1697700942338E+01  0.0000000000000E+00
-0.9813712163174E+00 -0.1593847083987E+01  0.0000000000000E+00
-0.1026219438370E+01 -0.1492546214618E+01  0.0000000000000E+00
-0.1069994731666E+01 -0.1390253925543E+01  0.0000000000000E+00
-0.1110286559648E+01 -0.1285903381279E+01  0.0000000000000E+00
-0.1146558748690E+01 -0.1179703847269E+01  0.0000000000000E+00
-0.1178265332096E+01 -0.1071802570994E+01  0.0000000000000E+00
-0.1204643880804E+01 -0.9622582650061E+00  0.0000000000000E+00
-0.1225342248562E+01 -0.8513176888039E+00  0.0000000000000E+00
-0.1239684992589E+01 -0.7392269401462E+00  0.0000000000000E+00
-0.1246484988089E+01 -0.6263550311275E+00  0.0000000000000E+00
-0.1247207191422E+01 -0.5133288356224E+00  0.0000000000000E+00
-0.1231668947886E+01 -0.4029211660466E+00  0.0000000000000E+00
-0.7844082727623E+00 -0.2357322455079E+01  0.0000000000000E+00
-0.7955114118016E+00 -0.2248673423098E+01  0.0000000000000E+00
-0.8091567106619E+00 -0.2140359806026E+01  0.0000000000000E+00
-0.8256541665984E+00 -0.2032495648361E+01  0.0000000000000E+00
-0.8456516059937E+00 -0.1925319017325E+01  0.0000000000000E+00
-0.8702972781633E+00 -0.1819330194427E+01  0.0000000000000E+00
-0.9005805950644E+00 -0.1715208281154E+01  0.0000000000000E+00
-0.9373182532324E+00 -0.1613892327494E+01  0.0000000000000E+00
-0.9785728915546E+00 -0.1514852553323E+01  0.0000000000000E+00
-0.1019022671179E+01 -0.1414971952052E+01  0.0000000000000E+00
-0.1056424418681E+01 -0.1313290377546E+01  0.0000000000000E+00
-0.1090175028626E+01 -0.1209964269318E+01  0.0000000000000E+00
-0.1119697316005E+01 -0.1105106831908E+01  0.0000000000000E+00
-0.1144272927177E+01 -0.9987672884786E+00  0.0000000000000E+00
-0.1163583330176E+01 -0.8911681261692E+00  0.0000000000000E+00
-0.1177052270115E+01 -0.7825342894600E+00  0.0000000000000E+00
-0.1183667327462E+01 -0.6731977546359E+00  0.0000000000000E+00
-0.1184739698130E+01 -0.5637143550262E+00  0.0000000000000E+00
-0.1171387700546E+01 -0.4565155515519E+00  0.0000000000000E+00
-0.7544630440783E+00 -0.2355643005121E+01  0.0000000000000E+00
-0.7642605114297E+00 -0.2250400791363E+01  0.0000000000000E+00
-0.7764615443902E+00 -0.2145453480723E+01  0.0000000000000E+00
-0.7913639901542E+00 -0.2040904981203E+01  0.0000000000000E+00
-0.8095566825507E+00 -0.1936967709824E+01  0.0000000000000E+00
-0.8320539094299E+00 -0.1834080866987E+01  0.0000000000000E+00
-0.8597206035740E+00 -0.1732837523437E+01  0.0000000000000E+00
-0.8932449003123E+00 -0.1634050090532E+01  0.0000000000000E+00
-0.9309076560406E+00 -0.1537262024809E+01  0.0000000000000E+00
-0.9680336229647E+00 -0.1439783725410E+01  0.0000000000000E+00
-0.1002546990938E+01 -0.1340761734708E+01  0.0000000000000E+00
-0.1033777722734E+01 -0.1240299666199E+01  0.0000000000000E+00
-0.1061117414987E+01 -0.1138476681741E+01  0.0000000000000E+00
-0.1083891789457E+01 -0.1035332515210E+01  0.0000000000000E+00
-0.1101815928489E+01 -0.9310653812403E+00  0.0000000000000E+00
-0.1114412764960E+01 -0.8258790717185E+00  0.0000000000000E+00
-0.1120844584620E+01 -0.7200685269699E+00  0.0000000000000E+00
-0.1122268823130E+01 -0.6141185387515E+00  0.0000000000000E+00
-0.1111104764984E+01 -0.5101192550957E+00  0.0000000000000E+00
-0.7244865727893E+00 -0.2354142604358E+01  0.0000000000000E+00
-0.7329800139812E+00 -0.2252297778396E+01  0.0000000000000E+00
-0.7437384265713E+00 -0.2150707343785E+01  0.0000000000000E+00
-0.7570475076784E+00 -0.2049465072122E+01  0.0000000000000E+00
-0.7734370985420E+00 -0.1948757730441E+01  0.0000000000000E+00
-0.7937875254893E+00 -0.1848963438402E+01  0.0000000000000E+00
-0.8188392420949E+00 -0.1750589236218E+01  0.0000000000000E+00
-0.8491518225125E+00 -0.1654320896481E+01  0.0000000000000E+00
-0.8832243412664E+00 -0.1559775108779E+01  0.0000000000000E+00
-0.9170281409547E+00 -0.1464689681654E+01  0.0000000000000E+00
-0.9486547748484E+00 -0.1368317845139E+01  0.0000000000000E+00
-0.9773672739499E+00 -0.1270710386628E+01  0.0000000000000E+00
-0.1002526016489E+01 -0.1171912425554E+01  0.0000000000000E+00
-0.1023500799613E+01 -0.1071954206607E+01  0.0000000000000E+00
-0.1040040319995E+01 -0.9710096717769E+00  0.0000000000000E+00
-0.1051766698157E+01 -0.8692614610375E+00  0.0000000000000E+00
-0.1058016925151E+01 -0.7669674786061E+00  0.0000000000000E+00
-0.1059794676571E+01 -0.6645414736340E+00  0.0000000000000E+00
-0.1050820196167E+01 -0.5637323200452E+00  0.0000000000000E+00
-0.6944799293121E+00 -0.2352822056831E+01  0.0000000000000E+00
-0.7016709334950E+00 -0.2254365145894E+01  0.0000000000000E+00
-0.7109883148644E+00 -0.2156122114568E+01  0.0000000000000E+00
-0.7227056204493E+00 -0.2058176598128E+01  0.0000000000000E+00
-0.7372936988640E+00 -0.1960689713846E+01  0.0000000000000E+00
-0.7554989148557E+00 -0.1863978500999E+01  0.0000000000000E+00
-0.7779372427588E+00 -0.1768463969484E+01  0.0000000000000E+00
-0.8050396955786E+00 -0.1674705252983E+01  0.0000000000000E+00
-0.8355235665695E+00 -0.1582392270520E+01  0.0000000000000E+00
-0.8660067880868E+00 -0.1489690243719E+01  0.0000000000000E+00
-0.8947482769574E+00 -0.1395959089426E+01  0.0000000000000E+00
-0.9209441324273E+00 -0.1301196768845E+01  0.0000000000000E+00
-0.9439235142826E+00 -0.1205414359242E+01  0.0000000000000E+00
-0.9631002950346E+00 -0.1108632616226E+01  0.0000000000000E+00
-0.9782567857135E+00 -0.1011001208995E+01  0.0000000000000E+00
-0.9891142943660E+00 -0.9126816262996E+00  0.0000000000000E+00
-0.9951845173665E+00 -0.8138947360978E+00  0.0000000000000E+00
-0.9973173704230E+00 -0.7149832438959E+00  0.0000000000000E+00
-0.9905340499757E+00 -0.6173547884597E+00  0.0000000000000E+00
-0.6644442006689E+00 -0.2351682140943E+01  0.0000000000000E+00
-0.6703342997407E+00 -0.2256603631267E+01  0.0000000000000E+00
-0.6782121817851E+00 -0.2161698489486E+01  0.0000000000000E+00
-0.6883392437276E+00 -0.2067040214643E+01  0.0000000000000E+00
-0.7011273415227E+00 -0.1972764274466E+01  0.0000000000000E+00
-0.7171888782809E+00 -0.1879126628213E+01  0.0000000000000E+00
-0.7370153490637E+00 -0.1786462255681E+01  0.0000000000000E+00
-0.7609092057537E+00 -0.1695203651495E+01  0.0000000000000E+00
-0.7878059609171E+00 -0.1605113960483E+01  0.0000000000000E+00
-0.8149701360599E+00 -0.1514785821054E+01  0.0000000000000E+00
-0.8408280116995E+00 -0.1423685836018E+01  0.0000000000000E+00
-0.8645087553408E+00 -0.1331759140303E+01  0.0000000000000E+00
-0.8853103082843E+00 -0.1238982769267E+01  0.0000000000000E+00
-0.9026906183896E+00 -0.1145367989537E+01  0.0000000000000E+00
-0.9164656110654E+00 -0.1051040197374E+01  0.0000000000000E+00
-0.9264557817712E+00 -0.9561397310012E+00  0.0000000000000E+00
-0.9323475322268E+00 -0.8608504219606E+00  0.0000000000000E+00
-0.9348370184231E+00 -0.7654439310703E+00  0.0000000000000E+00
-0.9302463831764E+00 -0.6709867010537E+00  0.0000000000000E+00
-0.6343804900047E+00 -0.2350723608746E+01  0.0000000000000E+00
-0.6389711577613E+00 -0.2259013946960E+01  0.0000000000000E+00
-0.6454110142737E+00 -0.2167437141378E+01  0.0000000000000E+00
-0.6539493063503E+00 -0.2076056554897E+01  0.0000000000000E+00
-0.6649388972521E+00 -0.1984982005927E+01  0.0000000000000E+00
-0.6788582283979E+00 -0.1894408374066E+01  0.0000000000000E+00
-0.6960743155434E+00 -0.1804584609227E+01  0.0000000000000E+00
-0.7167610494724E+00 -0.1715816566834E+01  0.0000000000000E+00
-0.7400721626242E+00 -0.1627940613867E+01  0.0000000000000E+00
-0.7639187650766E+00 -0.1539976809249E+01  0.0000000000000E+00
-0.7868945011683E+00 -0.1451498440898E+01  0.0000000000000E+00
-0.8080616066768E+00 -0.1362397817376E+01  0.0000000000000E+00
-0.8266868043776E+00 -0.1272617932394E+01  0.0000000000000E+00
-0.8422721174622E+00 -0.1182160563700E+01  0.0000000000000E+00
-0.8546670857401E+00 -0.1091126834476E+01  0.0000000000000E+00
-0.8637913919761E+00 -0.9996359331039E+00  0.0000000000000E+00
-0.8695061432582E+00 -0.9078346545611E+00  0.0000000000000E+00
-0.8723537360229E+00 -0.8159236139277E+00  0.0000000000000E+00
-0.8699572533959E+00 -0.7246280971599E+00  0.0000000000000E+00
-0.6042899160840E+00 -0.2349947185252E+01  0.0000000000000E+00
-0.6075825673968E+00 -0.2261596779801E+01  0.0000000000000E+00
-0.6125858132449E+00 -0.2173338718889E+01  0.0000000000000E+00
-0.6195367503071E+00 -0.2085226229353E+01  0.0000000000000E+00
-0.6287292491175E+00 -0.1997343480505E+01  0.0000000000000E+00
-0.6405077893496E+00 -0.1909824272654E+01  0.0000000000000E+00
-0.6551149074221E+00 -0.1822831526041E+01  0.0000000000000E+00
-0.6725959330412E+00 -0.1736544456740E+01  0.0000000000000E+00
-0.6923228190598E+00 -0.1650872650225E+01  0.0000000000000E+00
-0.7128532635754E+00 -0.1565263589670E+01  0.0000000000000E+00
-0.7329482748736E+00 -0.1479397247246E+01  0.0000000000000E+00
-0.7516031570183E+00 -0.1393113105061E+01  0.0000000000000E+00
-0.7680534142213E+00 -0.1306320115439E+01  0.0000000000000E+00
-0.7818451449907E+00 -0.1219010567352E+01  0.0000000000000E+00
-0.7928615035586E+00 -0.1131261310756E+01  0.0000000000000E+00
-0.8011213598924E+00 -0.1043170384889E+01  0.0000000000000E+00
-0.8066605264706E+00 -0.9548475480084E+00  0.0000000000000E+00
-0.8098676403310E+00 -0.8664223684034E+00  0.0000000000000E+00
-0.8096667190918E+00 -0.7782790146936E+00  0.0000000000000E+00
 0.6042899254711E+00 -0.2349947186660E+01  0.0000000000000E+00
 0.6075825757385E+00 -0.2261596781130E+01  0.0000000000000E+00
 0.6125858205481E+00 -0.2173338720121E+01  0.0000000000000E+00
 0.6195367565869E+00 -0.2085226230467E+01  0.0000000000000E+00
 0.6287292544033E+00 -0.1997343481480E+01  0.0000000000000E+00
 0.6405077936897E+00 -0.1909824273470E+01  0.0000000000000E+00
 0.6551149108879E+00 -0.1822831526686E+01  0.0000000000000E+00
 0.6725959357302E+00 -0.1736544457210E+01  0.0000000000000E+00
 0.6923228210683E+00 -0.1650872650513E+01  0.0000000000000E+00
 0.7128532650115E+00 -0.1565263589779E+01  0.0000000000000E+00
 0.7329482758659E+00 -0.1479397247200E+01  0.0000000000000E+00
 0.7516031576859E+00 -0.1393113104891E+01  0.0000000000000E+00
 0.7680534146602E+00 -0.1306320115169E+01  0.0000000000000E+00
 0.7818451452711E+00 -0.1219010566998E+01  0.0000000000000E+00
 0.7928615037295E+00 -0.1131261310330E+01  0.0000000000000E+00
 0.8011213599784E+00 -0.1043170384398E+01  0.0000000000000E+00
 0.8066605264865E+00 -0.9548475474589E+00  0.0000000000000E+00
 0.8098676402799E+00 -0.8664223678015E+00  0.0000000000000E+00
 0.8096667187766E+00 -0.7782790141160E+00  0.0000000000000E+00
 0.6343804988942E+00 -0.2350723610105E+01  0.0000000000000E+00
 0.6389711656695E+00 -0.2259013948205E+01  0.0000000000000E+00
 0.6454110212091E+00 -0.2167437142492E+01  0.0000000000000E+00
 0.6539493123303E+00 -0.2076056555861E+01  0.0000000000000E+00
 0.6649389023094E+00 -0.1984982006722E+01  0.0000000000000E+00
 0.6788582325863E+00 -0.1894408374678E+01  0.0000000000000E+00
 0.6960743189396E+00 -0.1804584609649E+01  0.0000000000000E+00
 0.7167610521771E+00 -0.1715816567069E+01  0.0000000000000E+00
 0.7400721647095E+00 -0.1627940613899E+01  0.0000000000000E+00
 0.7639187666198E+00 -0.1539976809063E+01  0.0000000000000E+00
 0.7868945022842E+00 -0.1451498440516E+01  0.0000000000000E+00
 0.8080616074742E+00 -0.1362397816827E+01  0.0000000000000E+00
 0.8266868049415E+00 -0.1272617931699E+01  0.0000000000000E+00
 0.8422721178521E+00 -0.1182160562876E+01  0.0000000000000E+00
 0.8546670859969E+00 -0.1091126833535E+01  0.0000000000000E+00
 0.8637913921111E+00 -0.9996359320528E+00  0.0000000000000E+00
 0.8695061432768E+00 -0.9078346534115E+00  0.0000000000000E+00
 0.8723537359177E+00 -0.8159236126905E+00  0.0000000000000E+00
 0.8699572527653E+00 -0.7246280959880E+00  0.0000000000000E+00
 0.6644442090614E+00 -0.2351682142245E+01  0.0000000000000E+00
 0.6703343072160E+00 -0.2256603632421E+01  0.0000000000000E+00
 0.6782121883535E+00 -0.2161698490475E+01  0.0000000000000E+00
 0.6883392494082E+00 -0.2067040215450E+01  0.0000000000000E+00
 0.7011273463519E+00 -0.1972764275077E+01  0.0000000000000E+00
 0.7171888823182E+00 -0.1879126628616E+01  0.0000000000000E+00
 0.7370153523906E+00 -0.1786462255875E+01  0.0000000000000E+00
 0.7609092084744E+00 -0.1695203651491E+01  0.0000000000000E+00
 0.7878059630797E+00 -0.1605113960254E+01  0.0000000000000E+00
 0.8149701377105E+00 -0.1514785820570E+01  0.0000000000000E+00
 0.8408280129394E+00 -0.1423685835296E+01  0.0000000000000E+00
 0.8645087562684E+00 -0.1331759139371E+01  0.0000000000000E+00
 0.8853103089735E+00 -0.1238982768145E+01  0.0000000000000E+00
 0.9026906188893E+00 -0.1145367988240E+01  0.0000000000000E+00
 0.9164656114083E+00 -0.1051040195916E+01  0.0000000000000E+00
 0.9264557819552E+00 -0.9561397293886E+00  0.0000000000000E+00
 0.9323475322483E+00 -0.8608504202098E+00  0.0000000000000E+00
 0.9348370182638E+00 -0.7654439291971E+00  0.0000000000000E+00
 0.9302463822304E+00 -0.6709866992872E+00  0.0000000000000E+00
 0.6944799372084E+00 -0.2352822058071E+01  0.0000000000000E+00
 0.7016709405382E+00 -0.2254365146950E+01  0.0000000000000E+00
 0.7109883210664E+00 -0.2156122115427E+01  0.0000000000000E+00
 0.7227056258312E+00 -0.2058176598774E+01  0.0000000000000E+00
 0.7372937034658E+00 -0.1960689714266E+01  0.0000000000000E+00
 0.7554989187423E+00 -0.1863978501187E+01  0.0000000000000E+00
 0.7779372460169E+00 -0.1768463969445E+01  0.0000000000000E+00
 0.8050396983159E+00 -0.1674705252736E+01  0.0000000000000E+00
 0.8355235688097E+00 -0.1582392270027E+01  0.0000000000000E+00
 0.8660067898451E+00 -0.1489690242933E+01  0.0000000000000E+00
 0.8947482783216E+00 -0.1395959088360E+01  0.0000000000000E+00
 0.9209441334854E+00 -0.1301196767527E+01  0.0000000000000E+00
 0.9439235150974E+00 -0.1205414357691E+01  0.0000000000000E+00
 0.9631002956443E+00 -0.1108632614455E+01  0.0000000000000E+00
 0.9782567861428E+00 -0.1011001207017E+01  0.0000000000000E+00
 0.9891142945993E+00 -0.9126816241240E+00  0.0000000000000E+00
 0.9951845173909E+00 -0.8138947337447E+00  0.0000000000000E+00
 0.9973173702098E+00 -0.7149832413858E+00  0.0000000000000E+00
 0.9905340487145E+00 -0.6173547860982E+00  0.0000000000000E+00
 0.7244865801900E+00 -0.2354142605528E+01  0.0000000000000E+00
 0.7329800205928E+00 -0.2252297779348E+01  0.0000000000000E+00
 0.7437384324074E+00 -0.2150707344507E+01  0.0000000000000E+00
 0.7570475127622E+00 -0.2049465072600E+01  0.0000000000000E+00
 0.7734371029169E+00 -0.1948757730665E+01  0.0000000000000E+00
 0.7937875292258E+00 -0.1848963438370E+01  0.0000000000000E+00
 0.8188392452848E+00 -0.1750589235941E+01  0.0000000000000E+00
 0.8491518252669E+00 -0.1654320895985E+01  0.0000000000000E+00
 0.8832243435846E+00 -0.1559775108017E+01  0.0000000000000E+00
 0.9170281428212E+00 -0.1464689680562E+01  0.0000000000000E+00
 0.9486547763373E+00 -0.1368317843728E+01  0.0000000000000E+00
 0.9773672751387E+00 -0.1270710384922E+01  0.0000000000000E+00
 0.1002526017430E+01 -0.1171912423570E+01  0.0000000000000E+00
 0.1023500800333E+01 -0.1071954204359E+01  0.0000000000000E+00
 0.1040040320511E+01 -0.9710096692782E+00  0.0000000000000E+00
 0.1051766698440E+01 -0.8692614582974E+00  0.0000000000000E+00
 0.1058016925178E+01 -0.7669674756495E+00  0.0000000000000E+00
 0.1059794676304E+01 -0.6645414704864E+00  0.0000000000000E+00
 0.1050820194591E+01 -0.5637323170883E+00  0.0000000000000E+00
 0.7544630509845E+00 -0.2355643006214E+01  0.0000000000000E+00
 0.7642605176107E+00 -0.2250400792204E+01  0.0000000000000E+00
 0.7764615498614E+00 -0.2145453481301E+01  0.0000000000000E+00
 0.7913639949406E+00 -0.2040904981507E+01  0.0000000000000E+00
 0.8095566866995E+00 -0.1936967709846E+01  0.0000000000000E+00
 0.8320539130169E+00 -0.1834080866730E+01  0.0000000000000E+00
 0.8597206066962E+00 -0.1732837522918E+01  0.0000000000000E+00
 0.8932449030842E+00 -0.1634050089784E+01  0.0000000000000E+00
 0.9309076584374E+00 -0.1537262023774E+01  0.0000000000000E+00
 0.9680336249398E+00 -0.1439783724009E+01  0.0000000000000E+00
 0.1002546992552E+01 -0.1340761732947E+01  0.0000000000000E+00
 0.1033777724054E+01 -0.1240299664102E+01  0.0000000000000E+00
 0.1061117416053E+01 -0.1138476679322E+01  0.0000000000000E+00
 0.1083891790288E+01 -0.1035332512482E+01  0.0000000000000E+00
 0.1101815929092E+01 -0.9310653782187E+00  0.0000000000000E+00
 0.1114412765293E+01 -0.8258790684124E+00  0.0000000000000E+00
 0.1120844584651E+01 -0.7200685234087E+00  0.0000000000000E+00
 0.1122268822809E+01 -0.6141185349656E+00  0.0000000000000E+00
 0.1111104763092E+01 -0.5101192515431E+00  0.0000000000000E+00
 0.7844082791746E+00 -0.2357322456088E+01  0.0000000000000E+00
 0.7955114175528E+00 -0.2248673423821E+01  0.0000000000000E+00
 0.8091567157688E+00 -0.2140359806454E+01  0.0000000000000E+00
 0.8256541710882E+00 -0.2032495648485E+01  0.0000000000000E+00
 0.8456516099170E+00 -0.1925319017139E+01  0.0000000000000E+00
 0.8702972816015E+00 -0.1819330193939E+01  0.0000000000000E+00
 0.9005805981195E+00 -0.1715208280388E+01  0.0000000000000E+00
 0.9373182560224E+00 -0.1613892326489E+01  0.0000000000000E+00
 0.9785728940305E+00 -0.1514852552011E+01  0.0000000000000E+00
 0.1019022673263E+01 -0.1414971950338E+01  0.0000000000000E+00
 0.1056424420421E+01 -0.1313290375432E+01  0.0000000000000E+00
 0.1090175030078E+01 -0.1209964266826E+01  0.0000000000000E+00
 0.1119697317198E+01 -0.1105106829051E+01  0.0000000000000E+00
 0.1144272928118E+01 -0.9987672852697E+00  0.0000000000000E+00
 0.1163583330865E+01 -0.8911681226227E+00  0.0000000000000E+00
 0.1177052270497E+01 -0.7825342855865E+00  0.0000000000000E+00
 0.1183667327496E+01 -0.6731977504690E+00  0.0000000000000E+00
 0.1184739697756E+01 -0.5637143506012E+00  0.0000000000000E+00
 0.1171387698339E+01 -0.4565155474032E+00  0.0000000000000E+00
 0.8143212114085E+00 -0.2359180126196E+01  0.0000000000000E+00
 0.8267317225463E+00 -0.2247114888898E+01  0.0000000000000E+00
 0.8418229877384E+00 -0.2135425578320E+01  0.0000000000000E+00
 0.8599171542965E+00 -0.2024236375540E+01  0.0000000000000E+00
 0.8817210411457E+00 -0.1913810998208E+01  0.0000000000000E+00
 0.9085168590418E+00 -0.1804710809313E+01  0.0000000000000E+00
 0.9414184991058E+00 -0.1697700941320E+01  0.0000000000000E+00
 0.9813712191262E+00 -0.1593847082721E+01  0.0000000000000E+00
 0.1026219440925E+01 -0.1492546213025E+01  0.0000000000000E+00
 0.1069994733860E+01 -0.1390253923512E+01  0.0000000000000E+00
 0.1110286561514E+01 -0.1285903378808E+01  0.0000000000000E+00
 0.1146558750274E+01 -0.1179703844380E+01  0.0000000000000E+00
 0.1178265333416E+01 -0.1071802567698E+01  0.0000000000000E+00
 0.1204643881856E+01 -0.9622582613135E+00  0.0000000000000E+00
 0.1225342249339E+01 -0.8513176847308E+00  0.0000000000000E+00
 0.1239684993021E+01 -0.7392269357037E+00  0.0000000000000E+00
 0.1246484988127E+01 -0.6263550263538E+00  0.0000000000000E+00
 0.1247207190994E+01 -0.5133288305576E+00  0.0000000000000E+00
 0.1231668945364E+01 -0.4029211613014E+00  0.0000000000000E+00
 0.8442008118368E+00 -0.2361215163412E+01  0.0000000000000E+00
 0.8579204512993E+00 -0.2245724379234E+01  0.0000000000000E+00
 0.8744594390379E+00 -0.2130650033624E+01  0.0000000000000E+00
 0.8941520723959E+00 -0.2016126444325E+01  0.0000000000000E+00
 0.9177641627805E+00 -0.1902442979631E+01  0.0000000000000E+00
 0.9467118823002E+00 -0.1790222084355E+01  0.0000000000000E+00
 0.9822336011890E+00 -0.1680314922144E+01  0.0000000000000E+00
 0.1025403138509E+01 -0.1573913819841E+01  0.0000000000000E+00
 0.1073846699839E+01 -0.1470342513123E+01  0.0000000000000E+00
 0.1120949262041E+01 -0.1365629194781E+01  0.0000000000000E+00
 0.1164132925725E+01 -0.1258600339260E+01  0.0000000000000E+00
 0.1202928449114E+01 -0.1149518037882E+01  0.0000000000000E+00
 0.1236821083751E+01 -0.1038563581309E+01  0.0000000000000E+00
 0.1265004325106E+01 -0.9258051715843E+00  0.0000000000000E+00
 0.1287092412667E+01 -0.8115138404347E+00  0.0000000000000E+00
 0.1302310715556E+01 -0.6959568395703E+00  0.0000000000000E+00
 0.1309297403753E+01 -0.5795402167793E+00  0.0000000000000E+00
 0.1309671194247E+01 -0.4629618854627E+00  0.0000000000000E+00
 0.1291948450143E+01 -0.3493360486008E+00  0.0000000000000E+00
 0.8740460253352E+00 -0.2363426683857E+01  0.0000000000000E+00
 0.8890766042645E+00 -0.2244501057652E+01  0.0000000000000E+00
 0.9070651256490E+00 -0.2126032381875E+01  0.0000000000000E+00
 0.9283580368431E+00 -0.2008165111018E+01  0.0000000000000E+00
 0.9537801416782E+00 -0.1891214264225E+01  0.0000000000000E+00
 0.9848815735094E+00 -0.1775863368473E+01  0.0000000000000E+00
 0.1023025181609E+01 -0.1663049618772E+01  0.0000000000000E+00
 0.1069413346304E+01 -0.1554091980141E+01  0.0000000000000E+00
 0.1121454057682E+01 -0.1448240940896E+01  0.0000000000000E+00
 0.1171885699583E+01 -0.1341097299081E+01  0.0000000000000E+00
 0.1217963009853E+01 -0.1231380838163E+01  0.0000000000000E+00
 0.1259283678545E+01 -0.1119406475212E+01  0.0000000000000E+00
 0.1295364175414E+01 -0.1005389544333E+01  0.0000000000000E+00
 0.1325353920476E+01 -0.8894077371527E+00  0.0000000000000E+00
 0.1348833539000E+01 -0.7717563574739E+00  0.0000000000000E+00
 0.1364929211970E+01 -0.6527238116318E+00  0.0000000000000E+00
 0.1372104404198E+01 -0.5327531829209E+00  0.0000000000000E+00
 0.1372131593478E+01 -0.4126134232261E+00  0.0000000000000E+00
 0.1352226155196E+01 -0.2957601636436E+00  0.0000000000000E+00
 0.9038558809910E+00 -0.2365813793451E+01  0.0000000000000E+00
 0.9201992616627E+00 -0.2243444077029E+01  0.0000000000000E+00
 0.9396391789693E+00 -0.2121571822920E+01  0.0000000000000E+00
 0.9625342302600E+00 -0.2000351622450E+01  0.0000000000000E+00
 0.9897682117493E+00 -0.1880124145830E+01  0.0000000000000E+00
 0.1023025217974E+01 -0.1761634002554E+01  0.0000000000000E+00
 0.1063792577206E+01 -0.1645904419207E+01  0.0000000000000E+00
 0.1113401231075E+01 -0.1534380998845E+01  0.0000000000000E+00
 0.1169040954876E+01 -0.1426240978888E+01  0.0000000000000E+00
 0.1222803538676E+01 -0.1316657766227E+01  0.0000000000000E+00
 0.1271776357715E+01 -0.1204244452519E+01  0.0000000000000E+00
 0.1315624033899E+01 -0.1089368780501E+01  0.0000000000000E+00
 0.1353894255143E+01 -0.9722801279681E+00  0.0000000000000E+00
 0.1385692365989E+01 -0.8530656762362E+00  0.0000000000000E+00
 0.1410565377514E+01 -0.7320450010403E+00  0.0000000000000E+00
 0.1427540282422E+01 -0.6095276640133E+00  0.0000000000000E+00
 0.1434905840383E+01 -0.4859937838093E+00  0.0000000000000E+00
 0.1434588290209E+01 -0.3622833497837E+00  0.0000000000000E+00
 0.1412502011854E+01 -0.2421934591809E+00  0.0000000000000E+00
 0.9336293998004E+00 -0.2368375571379E+01  0.0000000000000E+00
 0.9512874960530E+00 -0.2242552565024E+01  0.0000000000000E+00
 0.9721807231280E+00 -0.2117267532897E+01  0.0000000000000E+00
 0.9966798283533E+00 -0.1992685203239E+01  0.0000000000000E+00
 0.1025727600288E+01 -0.1869171897546E+01  0.0000000000000E+00
 0.1061142094589E+01 -0.1747533308185E+01  0.0000000000000E+00
 0.1104535118498E+01 -0.1628878693529E+01  0.0000000000000E+00
 0.1157366174987E+01 -0.1514780294541E+01  0.0000000000000E+00
 0.1216606825272E+01 -0.1404342094227E+01  0.0000000000000E+00
 0.1273702264836E+01 -0.1292310111873E+01  0.0000000000000E+00
 0.1325572506471E+01 -0.1177190746495E+01  0.0000000000000E+00
 0.1371949103960E+01 -0.1059404566416E+01  0.0000000000000E+00
 0.1412410963327E+01 -0.9392349933755E+00  0.0000000000000E+00
 0.1446019353619E+01 -0.8167786984763E+00  0.0000000000000E+00
 0.1472287671741E+01 -0.6923795292495E+00  0.0000000000000E+00
 0.1490143721975E+01 -0.5663682032943E+00  0.0000000000000E+00
 0.1497701558861E+01 -0.4392618744801E+00  0.0000000000000E+00
 0.1497041182451E+01 -0.3119715686288E+00  0.0000000000000E+00
 0.1472775969281E+01 -0.1886358869837E+00  0.0000000000000E+00
 0.9633656194407E+00 -0.2371111075284E+01  0.0000000000000E+00
 0.9823403957971E+00 -0.2241825628900E+01  0.0000000000000E+00
 0.1004688897176E+01 -0.2113118668688E+01  0.0000000000000E+00
 0.1030794020868E+01 -0.1985165059890E+01  0.0000000000000E+00
 0.1061657547738E+01 -0.1858356775500E+01  0.0000000000000E+00
 0.1099231494507E+01 -0.1733560591114E+01  0.0000000000000E+00
 0.1145252147358E+01 -0.1611971797112E+01  0.0000000000000E+00
 0.1201307570651E+01 -0.1495289272238E+01  0.0000000000000E+00
 0.1264151112245E+01 -0.1382543741583E+01  0.0000000000000E+00
 0.1324581372192E+01 -0.1268053840338E+01  0.0000000000000E+00
 0.1379351000987E+01 -0.1150219274050E+01  0.0000000000000E+00
 0.1428258484317E+01 -0.1029513436549E+01  0.0000000000000E+00
 0.1470913946268E+01 -0.9062537937745E+00  0.0000000000000E+00
 0.1506334580360E+01 -0.7805465067130E+00  0.0000000000000E+00
 0.1534000169359E+01 -0.6527596945557E+00  0.0000000000000E+00
 0.1552739328964E+01 -0.5232452315353E+00  0.0000000000000E+00
 0.1560491408595E+01 -0.3925573065936E+00  0.0000000000000E+00
 0.1559490169782E+01 -0.2616779810237E+00  0.0000000000000E+00
 0.1533047977400E+01 -0.1350873977250E+00  0.0000000000000E+00
 0.9930635777623E+00 -0.2374019338219E+01  0.0000000000000E+00
 0.1013357049423E+01 -0.2241262352704E+01  0.0000000000000E+00
 0.1037162840299E+01 -0.2109124365325E+01  0.0000000000000E+00
 0.1064875997623E+01 -0.1977790378411E+01  0.0000000000000E+00
 0.1097557294518E+01 -0.1847678016666E+01  0.0000000000000E+00
 0.1137292708690E+01 -0.1719715139257E+01  0.0000000000000E+00
 0.1185943005214E+01 -0.1595183068773E+01  0.0000000000000E+00
 0.1245224809869E+01 -0.1475907321598E+01  0.0000000000000E+00
 0.1311673257927E+01 -0.1360845361433E+01  0.0000000000000E+00
 0.1375440353241E+01 -0.1243888442936E+01  0.0000000000000E+00
 0.1433111384193E+01 -0.1123329577373E+01  0.0000000000000E+00
 0.1484551768390E+01 -0.9996949839981E+00  0.0000000000000E+00
 0.1529402847924E+01 -0.8733361731929E+00  0.0000000000000E+00
 0.1566637740769E+01 -0.7443687959286E+00  0.0000000000000E+00
 0.1595702615583E+01 -0.6131852429163E+00  0.0000000000000E+00
 0.1615326899337E+01 -0.4801585456815E+00  0.0000000000000E+00
 0.1623275236369E+01 -0.3458799280919E+00  0.0000000000000E+00
 0.1621935149903E+01 -0.2114024859098E+00  0.0000000000000E+00
 0.1593317984899E+01 -0.8154794109031E-01  0.0000000000000E+00
 0.1022722322026E+01 -0.2377099370874E+01  0.0000000000000E+00
 0.1044336554375E+01 -0.2240861799336E+01  0.0000000000000E+00
 0.1069601700088E+01 -0.2105283737912E+01  0.0000000000000E+00
 0.1098924956319E+01 -0.1970560326096E+01  0.0000000000000E+00
 0.1133426088386E+01 -0.1837134840504E+01  0.0000000000000E+00
 0.1175325034862E+01 -0.1705996224203E+01  0.0000000000000E+00
 0.1226607039637E+01 -0.1578511832171E+01  0.0000000000000E+00
 0.1289117289901E+01 -0.1456633818256E+01  0.0000000000000E+00
 0.1359172709193E+01 -0.1339246381336E+01  0.0000000000000E+00
 0.1426278704534E+01 -0.1219813399182E+01  0.0000000000000E+00
 0.1486853202423E+01 -0.1096521188001E+01  0.0000000000000E+00
 0.1540828552388E+01 -0.9699487923709E+00  0.0000000000000E+00
 0.1587877314464E+01 -0.8404817673540E+00  0.0000000000000E+00
 0.1626928531070E+01 -0.7082452539996E+00  0.0000000000000E+00
 0.1657394756791E+01 -0.5736559143944E+00  0.0000000000000E+00
 0.1677906229754E+01 -0.4371079380074E+00  0.0000000000000E+00
 0.1686052889291E+01 -0.2992295834764E+00  0.0000000000000E+00
 0.1684376020508E+01 -0.1611449800201E+00  0.0000000000000E+00
 0.1653585940312E+01 -0.2801746575100E-01  0.0000000000000E+00
 0.1052340989162E+01 -0.2380350181036E+01  0.0000000000000E+00
 0.1075278093035E+01 -0.2240623028648E+01  0.0000000000000E+00
 0.1102004704441E+01 -0.2101595898382E+01  0.0000000000000E+00
 0.1132940170440E+01 -0.1963474066982E+01  0.0000000000000E+00
 0.1169263248505E+01 -0.1826726463189E+01  0.0000000000000E+00
 0.1213327838023E+01 -0.1692403114326E+01  0.0000000000000E+00
 0.1267243661673E+01 -0.1561957407976E+01  0.0000000000000E+00
 0.1332984468115E+01 -0.1437468135337E+01  0.0000000000000E+00
 0.1406648969920E+01 -0.1317746227015E+01  0.0000000000000E+00
 0.1477095976328E+01 -0.1195828187324E+01  0.0000000000000E+00
 0.1540576052114E+01 -0.1069793636586E+01  0.0000000000000E+00
 0.1597088478760E+01 -0.9402744446311E+00  0.0000000000000E+00
 0.1646337034192E+01 -0.8076902114523E+00  0.0000000000000E+00
 0.1687206685239E+01 -0.6721755682758E+00  0.0000000000000E+00
 0.1719076372445E+01 -0.5341714484310E+00  0.0000000000000E+00
 0.1740477144916E+01 -0.3940931999872E+00  0.0000000000000E+00
 0.1748824236984E+01 -0.2526061162148E+00  0.0000000000000E+00
 0.1746812695893E+01 -0.1109053588142E+00  0.0000000000000E+00
 0.1713851801574E+01  0.2550408090503E-01  0.0000000000000E+00
 0.1081918695527E+01 -0.2383770749755E+01  0.0000000000000E+00
 0.1106180828300E+01 -0.2240545075331E+01  0.0000000000000E+00
 0.1134371062805E+01 -0.2098059935071E+01  0.0000000000000E+00
 0.1166920895988E+01 -0.1956530743052E+01  0.0000000000000E+00
 0.1205068077444E+01 -0.1816452080357E+01  0.0000000000000E+00
 0.1251300467326E+01 -0.1678935058915E+01  0.0000000000000E+00
 0.1307852267084E+01 -0.1545519099139E+01  0.0000000000000E+00
 0.1376825786914E+01 -0.1418409629469E+01  0.0000000000000E+00
 0.1454101529185E+01 -0.1296344308811E+01  0.0000000000000E+00
 0.1527891704357E+01 -0.1171932271399E+01  0.0000000000000E+00
 0.1594279515632E+01 -0.1043146440848E+01  0.0000000000000E+00
 0.1653331176480E+01 -0.9106715121685E+00  0.0000000000000E+00
 0.1704781682667E+01 -0.7749611305374E+00  0.0000000000000E+00
 0.1747471925403E+01 -0.6361594174552E+00  0.0000000000000E+00
 0.1780747231210E+01 -0.4947315773640E+00  0.0000000000000E+00
 0.1803039459994E+01 -0.3511141175871E+00  0.0000000000000E+00
 0.1811589141075E+01 -0.2060093658933E+00  0.0000000000000E+00
 0.1809245084116E+01 -0.6068351549999E-01  0.0000000000000E+00
 0.1774115522879E+01  0.7901675224731E-01  0.0000000000000E+00
 0.1111454503211E+01 -0.2387360022300E+01  0.0000000000000E+00
 0.1137043871668E+01 -0.2240626940499E+01  0.0000000000000E+00
 0.1166699935987E+01 -0.2094674904910E+01  0.0000000000000E+00
 0.1200866342980E+01 -0.1949729467018E+01  0.0000000000000E+00
 0.1240839834281E+01 -0.1806310860442E+01  0.0000000000000E+00
 0.1289242230669E+01 -0.1665591282030E+01  0.0000000000000E+00
 0.1348432212258E+01 -0.1529196185188E+01  0.0000000000000E+00
 0.1420640650760E+01 -0.1399457635404E+01  0.0000000000000E+00
 0.1501529839278E+01 -0.1275040016520E+01  0.0000000000000E+00
 0.1578665388921E+01 -0.1148125096349E+01  0.0000000000000E+00
 0.1647963141585E+01 -0.1016579101051E+01  0.0000000000000E+00
 0.1709556242721E+01 -0.8811395507140E+00  0.0000000000000E+00
 0.1763210905862E+01 -0.7422941359222E+00  0.0000000000000E+00
 0.1807723946591E+01 -0.6001964685426E+00  0.0000000000000E+00
 0.1842407077460E+01 -0.4553360239839E+00  0.0000000000000E+00
 0.1865592969059E+01 -0.3081704694587E+00  0.0000000000000E+00
 0.1874347445809E+01 -0.1594391670749E+00  0.0000000000000E+00
 0.1871673079963E+01 -0.1047934055933E-01  0.0000000000000E+00
 0.1834377050616E+01  0.1325206023238E+00  0.0000000000000E+00
 0.1140947622069E+01 -0.2391116958441E+01  0.0000000000000E+00
 0.1167866474602E+01 -0.2240867638453E+01  0.0000000000000E+00
 0.1198990617146E+01 -0.2091439876754E+01  0.0000000000000E+00
 0.1234775846355E+01 -0.1943069362321E+01  0.0000000000000E+00
 0.1276577895867E+01 -0.1796301981517E+01  0.0000000000000E+00
 0.1327152547017E+01 -0.1652371016457E+01  0.0000000000000E+00
 0.1388982958559E+01 -0.1512987953747E+01  0.0000000000000E+00
 0.1464428563772E+01 -0.1380611495812E+01  0.0000000000000E+00
 0.1548933447321E+01 -0.1253832748048E+01  0.0000000000000E+00
 0.1629416619972E+01 -0.1124406115217E+01  0.0000000000000E+00
 0.1701626562493E+01 -0.9900911252210E+00  0.0000000000000E+00
 0.1765763352348E+01 -0.8516781231487E+00  0.0000000000000E+00
 0.1821624420779E+01 -0.7096888452404E+00  0.0000000000000E+00
 0.1867962507712E+01 -0.5642863938248E+00  0.0000000000000E+00
 0.1904055711758E+01 -0.4159845151466E+00  0.0000000000000E+00
 0.1928137514010E+01 -0.2652620369521E+00  0.0000000000000E+00
 0.1937099033996E+01 -0.1128953555523E+00  0.0000000000000E+00
 0.1934096606835E+01  0.3970727577457E-01  0.0000000000000E+00
 0.1894636347495E+01  0.1860156864881E+00  0.0000000000000E+00
-0.7657100156996E+00 -0.6810530051459E+00  0.0000000000000E+00
-0.8181304925017E+00 -0.6247845670673E+00  0.0000000000000E+00
-0.8705509693038E+00 -0.5685161289887E+00  0.0000000000000E+00
-0.9229714461058E+00 -0.5122476909102E+00  0.0000000000000E+00
-0.9753919229079E+00 -0.4559792528316E+00  0.0000000000000E+00
-0.1027812399710E+01 -0.3997108147530E+00  0.0000000000000E+00
-0.1080232876512E+01 -0.3434423766744E+00  0.0000000000000E+00
-0.1132653353314E+01 -0.2871739385959E+00  0.0000000000000E+00
-0.1185073830116E+01 -0.2309055005173E+00  0.0000000000000E+00
-0.1237494306918E+01 -0.1746370624387E+00  0.0000000000000E+00
-0.1289914783720E+01 -0.1183686243601E+00  0.0000000000000E+00
-0.1342335260522E+01 -0.6210018628156E-01  0.0000000000000E+00
-0.1394755737325E+01 -0.5831748202979E-02  0.0000000000000E+00
-0.1447176214127E+01  0.5043668987560E-01  0.0000000000000E+00
-0.1499596690929E+01  0.1067051279542E+00  0.0000000000000E+00
-0.1552017167731E+01  0.1629735660328E+00  0.0000000000000E+00
-0.1604437644533E+01  0.2192420041113E+00  0.0000000000000E+00
-0.1656858121335E+01  0.2755104421899E+00  0.0000000000000E+00
-0.1709278598137E+01  0.3317788802685E+00  0.0000000000000E+00
-0.7260827814746E+00 -0.6713872513185E+00  0.0000000000000E+00
-0.7757018967476E+00 -0.6145952848266E+00  0.0000000000000E+00
-0.8253210120205E+00 -0.5578033183348E+00  0.0000000000000E+00
-0.8749401272934E+00 -0.5010113518429E+00  0.0000000000000E+00
-0.9245592425663E+00 -0.4442193853511E+00  0.0000000000000E+00
-0.9741783578392E+00 -0.3874274188592E+00  0.0000000000000E+00
-0.1023797473112E+01 -0.3306354523673E+00  0.0000000000000E+00
-0.1073416588385E+01 -0.2738434858755E+00  0.0000000000000E+00
-0.1123035703658E+01 -0.2170515193836E+00  0.0000000000000E+00
-0.1172654818931E+01 -0.1602595528918E+00  0.0000000000000E+00
-0.1222273934204E+01 -0.1034675863999E+00  0.0000000000000E+00
-0.1271893049477E+01 -0.4667561990803E-01  0.0000000000000E+00
-0.1321512164750E+01  0.1011634658383E-01  0.0000000000000E+00
-0.1371131280023E+01  0.6690831307570E-01  0.0000000000000E+00
-0.1420750395295E+01  0.1237002795676E+00  0.0000000000000E+00
-0.1470369510568E+01  0.1804922460594E+00  0.0000000000000E+00
-0.1519988625841E+01  0.2372842125513E+00  0.0000000000000E+00
-0.1569607741114E+01  0.2940761790431E+00  0.0000000000000E+00
-0.1619226856387E+01  0.3508681455350E+00  0.0000000000000E+00
-0.6862631909555E+00 -0.6627423553292E+00  0.0000000000000E+00
-0.7329996384962E+00 -0.6059885893821E+00  0.0000000000000E+00
-0.7797360860370E+00 -0.5492348234350E+00  0.0000000000000E+00
-0.8264725335778E+00 -0.4924810574879E+00  0.0000000000000E+00
-0.8732089811185E+00 -0.4357272915408E+00  0.0000000000000E+00
-0.9199454286593E+00 -0.3789735255937E+00  0.0000000000000E+00
-0.9666818762001E+00 -0.3222197596466E+00  0.0000000000000E+00
-0.1013418323741E+01 -0.2654659936995E+00  0.0000000000000E+00
-0.1060154771282E+01 -0.2087122277524E+00  0.0000000000000E+00
-0.1106891218822E+01 -0.1519584618053E+00  0.0000000000000E+00
-0.1153627666363E+01 -0.9520469585825E-01  0.0000000000000E+00
-0.1200364113904E+01 -0.3845092991116E-01  0.0000000000000E+00
-0.1247100561445E+01  0.1830283603593E-01  0.0000000000000E+00
-0.1293837008985E+01  0.7505660198302E-01  0.0000000000000E+00
-0.1340573456526E+01  0.1318103679301E+00  0.0000000000000E+00
-0.1387309904067E+01  0.1885641338772E+00  0.0000000000000E+00
-0.1434046351608E+01  0.2453178998243E+00  0.0000000000000E+00
-0.1480782799148E+01  0.3020716657714E+00  0.0000000000000E+00
-0.1527519246689E+01  0.3588254317185E+00  0.0000000000000E+00
-0.6463282786641E+00 -0.6550792684177E+00  0.0000000000000E+00
-0.6901728374579E+00 -0.5988809215417E+00  0.0000000000000E+00
-0.7340173962517E+00 -0.5426825746657E+00  0.0000000000000E+00
-0.7778619550456E+00 -0.4864842277897E+00  0.0000000000000E+00
-0.8217065138394E+00 -0.4302858809137E+00  0.0000000000000E+00
-0.8655510726332E+00 -0.3740875340377E+00  0.0000000000000E+00
-0.9093956314270E+00 -0.3178891871618E+00  0.0000000000000E+00
-0.9532401902209E+00 -0.2616908402858E+00  0.0000000000000E+00
-0.9970847490147E+00 -0.2054924934098E+00  0.0000000000000E+00
-0.1040929307809E+01 -0.1492941465338E+00  0.0000000000000E+00
-0.1084773866602E+01 -0.9309579965779E-01  0.0000000000000E+00
-0.1128618425396E+01 -0.3689745278180E-01  0.0000000000000E+00
-0.1172462984190E+01  0.1930089409419E-01  0.0000000000000E+00
-0.1216307542984E+01  0.7549924097018E-01  0.0000000000000E+00
-0.1260152101778E+01  0.1316975878462E+00  0.0000000000000E+00
-0.1303996660571E+01  0.1878959347222E+00  0.0000000000000E+00
-0.1347841219365E+01  0.2440942815982E+00  0.0000000000000E+00
-0.1391685778159E+01  0.3002926284741E+00  0.0000000000000E+00
-0.1435530336953E+01  0.3564909753501E+00  0.0000000000000E+00
-0.6063371778896E+00 -0.6483547890939E+00  0.0000000000000E+00
-0.6473347056847E+00 -0.5931806449595E+00  0.0000000000000E+00
-0.6883322334798E+00 -0.5380065008251E+00  0.0000000000000E+00
-0.7293297612749E+00 -0.4828323566907E+00  0.0000000000000E+00
-0.7703272890699E+00 -0.4276582125563E+00  0.0000000000000E+00
-0.8113248168650E+00 -0.3724840684220E+00  0.0000000000000E+00
-0.8523223446601E+00 -0.3173099242876E+00  0.0000000000000E+00
-0.8933198724551E+00 -0.2621357801532E+00  0.0000000000000E+00
-0.9343174002502E+00 -0.2069616360188E+00  0.0000000000000E+00
-0.9753149280453E+00 -0.1517874918844E+00  0.0000000000000E+00
-0.1016312455840E+01 -0.9661334775002E-01  0.0000000000000E+00
-0.1057309983635E+01 -0.4143920361563E-01  0.0000000000000E+00
-0.1098307511430E+01  0.1373494051876E-01  0.0000000000000E+00
-0.1139305039226E+01  0.6890908465315E-01  0.0000000000000E+00
-0.1180302567021E+01  0.1240832287875E+00  0.0000000000000E+00
-0.1221300094816E+01  0.1792573729219E+00  0.0000000000000E+00
-0.1262297622611E+01  0.2344315170563E+00  0.0000000000000E+00
-0.1303295150406E+01  0.2896056611907E+00  0.0000000000000E+00
-0.1344292678201E+01  0.3447798053251E+00  0.0000000000000E+00
-0.5663177037799E+00 -0.6424442620134E+00  0.0000000000000E+00
-0.6045357904085E+00 -0.5886334671797E+00  0.0000000000000E+00
-0.6427538770372E+00 -0.5348226723460E+00  0.0000000000000E+00
-0.6809719636658E+00 -0.4810118775123E+00  0.0000000000000E+00
-0.7191900502945E+00 -0.4272010826786E+00  0.0000000000000E+00
-0.7574081369231E+00 -0.3733902878449E+00  0.0000000000000E+00
-0.7956262235518E+00 -0.3195794930113E+00  0.0000000000000E+00
-0.8338443101805E+00 -0.2657686981776E+00  0.0000000000000E+00
-0.8720623968091E+00 -0.2119579033439E+00  0.0000000000000E+00
-0.9102804834378E+00 -0.1581471085102E+00  0.0000000000000E+00
-0.9484985700664E+00 -0.1043363136765E+00  0.0000000000000E+00
-0.9867166566951E+00 -0.5052551884278E-01  0.0000000000000E+00
-0.1024934743324E+01  0.3285275990910E-02  0.0000000000000E+00
-0.1063152829952E+01  0.5709607082460E-01  0.0000000000000E+00
-0.1101370916581E+01  0.1109068656583E+00  0.0000000000000E+00
-0.1139589003210E+01  0.1647176604920E+00  0.0000000000000E+00
-0.1177807089838E+01  0.2185284553257E+00  0.0000000000000E+00
-0.1216025176467E+01  0.2723392501594E+00  0.0000000000000E+00
-0.1254243263096E+01  0.3261500449931E+00  0.0000000000000E+00
-0.5262782681970E+00 -0.6372588482288E+00  0.0000000000000E+00
-0.5617874044507E+00 -0.5850569138094E+00  0.0000000000000E+00
-0.5972965407044E+00 -0.5328549793901E+00  0.0000000000000E+00
-0.6328056769581E+00 -0.4806530449708E+00  0.0000000000000E+00
-0.6683148132118E+00 -0.4284511105514E+00  0.0000000000000E+00
-0.7038239494655E+00 -0.3762491761321E+00  0.0000000000000E+00
-0.7393330857192E+00 -0.3240472417128E+00  0.0000000000000E+00
-0.7748422219729E+00 -0.2718453072934E+00  0.0000000000000E+00
-0.8103513582266E+00 -0.2196433728741E+00  0.0000000000000E+00
-0.8458604944802E+00 -0.1674414384548E+00  0.0000000000000E+00
-0.8813696307339E+00 -0.1152395040354E+00  0.0000000000000E+00
-0.9168787669876E+00 -0.6303756961610E-01  0.0000000000000E+00
-0.9523879032413E+00 -0.1083563519676E-01  0.0000000000000E+00
-0.9878970394950E+00  0.4136629922257E-01  0.0000000000000E+00
-0.1023406175749E+01  0.9356823364191E-01  0.0000000000000E+00
-0.1058915312002E+01  0.1457701680612E+00  0.0000000000000E+00
-0.1094424448256E+01  0.1979721024806E+00  0.0000000000000E+00
-0.1129933584510E+01  0.2501740368999E+00  0.0000000000000E+00
-0.1165442720763E+01  0.3023759713192E+00  0.0000000000000E+00
-0.4862164846064E+00 -0.6327282648572E+00  0.0000000000000E+00
-0.5190792240803E+00 -0.5823059010029E+00  0.0000000000000E+00
-0.5519419635541E+00 -0.5318835371487E+00  0.0000000000000E+00
-0.5848047030280E+00 -0.4814611732944E+00  0.0000000000000E+00
-0.6176674425019E+00 -0.4310388094402E+00  0.0000000000000E+00
-0.6505301819758E+00 -0.3806164455859E+00  0.0000000000000E+00
-0.6833929214496E+00 -0.3301940817317E+00  0.0000000000000E+00
-0.7162556609235E+00 -0.2797717178774E+00  0.0000000000000E+00
-0.7491184003974E+00 -0.2293493540232E+00  0.0000000000000E+00
-0.7819811398712E+00 -0.1789269901689E+00  0.0000000000000E+00
-0.8148438793451E+00 -0.1285046263147E+00  0.0000000000000E+00
-0.8477066188190E+00 -0.7808226246041E-01  0.0000000000000E+00
-0.8805693582929E+00 -0.2765989860616E-01  0.0000000000000E+00
-0.9134320977667E+00  0.2276246524809E-01  0.0000000000000E+00
-0.9462948372406E+00  0.7318482910235E-01  0.0000000000000E+00
-0.9791575767145E+00  0.1236071929566E+00  0.0000000000000E+00
-0.1012020316188E+01  0.1740295568109E+00  0.0000000000000E+00
-0.1044883055662E+01  0.2244519206651E+00  0.0000000000000E+00
-0.1077745795136E+01  0.2748742845194E+00  0.0000000000000E+00
-0.4461193603764E+00 -0.6287796665949E+00  0.0000000000000E+00
-0.4763794321744E+00 -0.5802304670085E+00  0.0000000000000E+00
-0.5066395039723E+00 -0.5316812674222E+00  0.0000000000000E+00
-0.5368995757702E+00 -0.4831320678358E+00  0.0000000000000E+00
-0.5671596475681E+00 -0.4345828682495E+00  0.0000000000000E+00
-0.5974197193660E+00 -0.3860336686632E+00  0.0000000000000E+00
-0.6276797911639E+00 -0.3374844690768E+00  0.0000000000000E+00
-0.6579398629618E+00 -0.2889352694905E+00  0.0000000000000E+00
-0.6881999347598E+00 -0.2403860699041E+00  0.0000000000000E+00
-0.7184600065577E+00 -0.1918368703178E+00  0.0000000000000E+00
-0.7487200783556E+00 -0.1432876707314E+00  0.0000000000000E+00
-0.7789801501535E+00 -0.9473847114509E-01  0.0000000000000E+00
-0.8092402219514E+00 -0.4618927155874E-01  0.0000000000000E+00
-0.8395002937493E+00  0.2359928027603E-02  0.0000000000000E+00
-0.8697603655472E+00  0.5090912761395E-01  0.0000000000000E+00
-0.9000204373452E+00  0.9945832720029E-01  0.0000000000000E+00
-0.9302805091431E+00  0.1480075267866E+00  0.0000000000000E+00
-0.9605405809410E+00  0.1965567263730E+00  0.0000000000000E+00
-0.9908006527389E+00  0.2451059259593E+00  0.0000000000000E+00
-0.4059660083810E+00 -0.6253360459596E+00  0.0000000000000E+00
-0.4336403415896E+00 -0.5786726202060E+00  0.0000000000000E+00
-0.4613146747982E+00 -0.5320091944523E+00  0.0000000000000E+00
-0.4889890080068E+00 -0.4853457686987E+00  0.0000000000000E+00
-0.5166633412154E+00 -0.4386823429451E+00  0.0000000000000E+00
-0.5443376744240E+00 -0.3920189171915E+00  0.0000000000000E+00
-0.5720120076327E+00 -0.3453554914379E+00  0.0000000000000E+00
-0.5996863408413E+00 -0.2986920656842E+00  0.0000000000000E+00
-0.6273606740499E+00 -0.2520286399306E+00  0.0000000000000E+00
-0.6550350072585E+00 -0.2053652141770E+00  0.0000000000000E+00
-0.6827093404671E+00 -0.1587017884234E+00  0.0000000000000E+00
-0.7103836736757E+00 -0.1120383626698E+00  0.0000000000000E+00
-0.7380580068843E+00 -0.6537493691613E-01  0.0000000000000E+00
-0.7657323400930E+00 -0.1871151116251E-01  0.0000000000000E+00
-0.7934066733016E+00  0.2795191459111E-01  0.0000000000000E+00
-0.8210810065102E+00  0.7461534034473E-01  0.0000000000000E+00
-0.8487553397188E+00  0.1212787660984E+00  0.0000000000000E+00
-0.8764296729274E+00  0.1679421918520E+00  0.0000000000000E+00
-0.9041040061360E+00  0.2146056176056E+00  0.0000000000000E+00
-0.3657223402994E+00 -0.6222877075533E+00  0.0000000000000E+00
-0.3907876502782E+00 -0.5774092786637E+00  0.0000000000000E+00
-0.4158529602570E+00 -0.5325308497740E+00  0.0000000000000E+00
-0.4409182702357E+00 -0.4876524208844E+00  0.0000000000000E+00
-0.4659835802145E+00 -0.4427739919948E+00  0.0000000000000E+00
-0.4910488901933E+00 -0.3978955631051E+00  0.0000000000000E+00
-0.5161142001720E+00 -0.3530171342155E+00  0.0000000000000E+00
-0.5411795101508E+00 -0.3081387053258E+00  0.0000000000000E+00
-0.5662448201296E+00 -0.2632602764362E+00  0.0000000000000E+00
-0.5913101301083E+00 -0.2183818475466E+00  0.0000000000000E+00
-0.6163754400871E+00 -0.1735034186569E+00  0.0000000000000E+00
-0.6414407500659E+00 -0.1286249897673E+00  0.0000000000000E+00
-0.6665060600446E+00 -0.8374656087763E-01  0.0000000000000E+00
-0.6915713700234E+00 -0.3886813198799E-01  0.0000000000000E+00
-0.7166366800022E+00  0.6010296901650E-02  0.0000000000000E+00
-0.7417019899809E+00  0.5088872579129E-01  0.0000000000000E+00
-0.7667672999597E+00  0.9576715468093E-01  0.0000000000000E+00
-0.7918326099385E+00  0.1406455835706E+00  0.0000000000000E+00
-0.8168979199173E+00  0.1855240124602E+00  0.0000000000000E+00
-0.3253670868277E+00 -0.6195466869174E+00  0.0000000000000E+00
-0.3477725571842E+00 -0.5762611318113E+00  0.0000000000000E+00
-0.3701780275406E+00 -0.5329755767052E+00  0.0000000000000E+00
-0.3925834978971E+00 -0.4896900215991E+00  0.0000000000000E+00
-0.4149889682535E+00 -0.4464044664930E+00  0.0000000000000E+00
-0.4373944386100E+00 -0.4031189113868E+00  0.0000000000000E+00
-0.4597999089664E+00 -0.3598333562807E+00  0.0000000000000E+00
-0.4822053793229E+00 -0.3165478011746E+00  0.0000000000000E+00
-0.5046108496794E+00 -0.2732622460685E+00  0.0000000000000E+00
-0.5270163200358E+00 -0.2299766909624E+00  0.0000000000000E+00
-0.5494217903923E+00 -0.1866911358563E+00  0.0000000000000E+00
-0.5718272607487E+00 -0.1434055807502E+00  0.0000000000000E+00
-0.5942327311052E+00 -0.1001200256441E+00  0.0000000000000E+00
-0.6166382014617E+00 -0.5683447053795E-01  0.0000000000000E+00
-0.6390436718181E+00 -0.1354891543184E-01  0.0000000000000E+00
-0.6614491421746E+00  0.2973663967428E-01  0.0000000000000E+00
-0.6838546125310E+00  0.7302219478039E-01  0.0000000000000E+00
-0.7062600828875E+00  0.1163077498865E+00  0.0000000000000E+00
-0.7286655532440E+00  0.1595933049926E+00  0.0000000000000E+00
-0.2849075286730E+00 -0.6170954545356E+00  0.0000000000000E+00
-0.3046032381205E+00 -0.5751900604028E+00  0.0000000000000E+00
-0.3242989475680E+00 -0.5332846662700E+00  0.0000000000000E+00
-0.3439946570156E+00 -0.4913792721373E+00  0.0000000000000E+00
-0.3636903664631E+00 -0.4494738780045E+00  0.0000000000000E+00
-0.3833860759107E+00 -0.4075684838718E+00  0.0000000000000E+00
-0.4030817853582E+00 -0.3656630897390E+00  0.0000000000000E+00
-0.4227774948057E+00 -0.3237576956062E+00  0.0000000000000E+00
-0.4424732042533E+00 -0.2818523014735E+00  0.0000000000000E+00
-0.4621689137008E+00 -0.2399469073407E+00  0.0000000000000E+00
-0.4818646231484E+00 -0.1980415132079E+00  0.0000000000000E+00
-0.5015603325959E+00 -0.1561361190752E+00  0.0000000000000E+00
-0.5212560420434E+00 -0.1142307249424E+00  0.0000000000000E+00
-0.5409517514910E+00 -0.7232533080966E-01  0.0000000000000E+00
-0.5606474609385E+00 -0.3041993667690E-01  0.0000000000000E+00
-0.5803431703861E+00  0.1148545745586E-01  0.0000000000000E+00
-0.6000388798336E+00  0.5339085158862E-01  0.0000000000000E+00
-0.6197345892811E+00  0.9529624572139E-01  0.0000000000000E+00
-0.6394302987287E+00  0.1372016398541E+00  0.0000000000000E+00
-0.2443594363058E+00 -0.6149433146637E+00  0.0000000000000E+00
-0.2613047236032E+00 -0.5742119436453E+00  0.0000000000000E+00
-0.2782500109006E+00 -0.5334805726268E+00  0.0000000000000E+00
-0.2951952981981E+00 -0.4927492016083E+00  0.0000000000000E+00
-0.3121405854955E+00 -0.4520178305898E+00  0.0000000000000E+00
-0.3290858727930E+00 -0.4112864595713E+00  0.0000000000000E+00
-0.3460311600904E+00 -0.3705550885528E+00  0.0000000000000E+00
-0.3629764473878E+00 -0.3298237175344E+00  0.0000000000000E+00
-0.3799217346853E+00 -0.2890923465159E+00  0.0000000000000E+00
-0.3968670219827E+00 -0.2483609754974E+00  0.0000000000000E+00
-0.4138123092801E+00 -0.2076296044789E+00  0.0000000000000E+00
-0.4307575965776E+00 -0.1668982334604E+00  0.0000000000000E+00
-0.4477028838750E+00 -0.1261668624420E+00  0.0000000000000E+00
-0.4646481711724E+00 -0.8543549142347E-01  0.0000000000000E+00
-0.4815934584699E+00 -0.4470412040499E-01  0.0000000000000E+00
-0.4985387457673E+00 -0.3972749386506E-02  0.0000000000000E+00
-0.5154840330647E+00  0.3675862163198E-01  0.0000000000000E+00
-0.5324293203622E+00  0.7748999265046E-01  0.0000000000000E+00
-0.5493746076596E+00  0.1182213636689E+00  0.0000000000000E+00
-0.2037386740471E+00 -0.6131046698573E+00  0.0000000000000E+00
-0.2179021028309E+00 -0.5733531975743E+00  0.0000000000000E+00
-0.2320655316147E+00 -0.5336017252913E+00  0.0000000000000E+00
-0.2462289603984E+00 -0.4938502530082E+00  0.0000000000000E+00
-0.2603923891822E+00 -0.4540987807252E+00  0.0000000000000E+00
-0.2745558179660E+00 -0.4143473084422E+00  0.0000000000000E+00
-0.2887192467497E+00 -0.3745958361592E+00  0.0000000000000E+00
-0.3028826755335E+00 -0.3348443638762E+00  0.0000000000000E+00
-0.3170461043172E+00 -0.2950928915931E+00  0.0000000000000E+00
-0.3312095331010E+00 -0.2553414193101E+00  0.0000000000000E+00
-0.3453729618848E+00 -0.2155899470271E+00  0.0000000000000E+00
-0.3595363906685E+00 -0.1758384747441E+00  0.0000000000000E+00
-0.3736998194523E+00 -0.1360870024611E+00  0.0000000000000E+00
-0.3878632482360E+00 -0.9633553017803E-01  0.0000000000000E+00
-0.4020266770198E+00 -0.5658405789501E-01  0.0000000000000E+00
-0.4161901058036E+00 -0.1683258561199E-01  0.0000000000000E+00
-0.4303535345873E+00  0.2291888667103E-01  0.0000000000000E+00
-0.4445169633711E+00  0.6267035895405E-01  0.0000000000000E+00
-0.4586803921548E+00  0.1024218312371E+00  0.0000000000000E+00
-0.1630594573198E+00 -0.6115920298266E+00  0.0000000000000E+00
-0.1744170850486E+00 -0.5726368050712E+00  0.0000000000000E+00
-0.1857747127773E+00 -0.5336815803158E+00  0.0000000000000E+00
-0.1971323405060E+00 -0.4947263555604E+00  0.0000000000000E+00
-0.2084899682348E+00 -0.4557711308051E+00  0.0000000000000E+00
-0.2198475959635E+00 -0.4168159060497E+00  0.0000000000000E+00
-0.2312052236922E+00 -0.3778606812943E+00  0.0000000000000E+00
-0.2425628514210E+00 -0.3389054565390E+00  0.0000000000000E+00
-0.2539204791497E+00 -0.2999502317836E+00  0.0000000000000E+00
-0.2652781068784E+00 -0.2609950070282E+00  0.0000000000000E+00
-0.2766357346072E+00 -0.2220397822728E+00  0.0000000000000E+00
-0.2879933623359E+00 -0.1830845575175E+00  0.0000000000000E+00
-0.2993509900646E+00 -0.1441293327621E+00  0.0000000000000E+00
-0.3107086177934E+00 -0.1051741080067E+00  0.0000000000000E+00
-0.3220662455221E+00 -0.6621888325136E-01  0.0000000000000E+00
-0.3334238732508E+00 -0.2726365849599E-01  0.0000000000000E+00
-0.3447815009796E+00  0.1169156625939E-01  0.0000000000000E+00
-0.3561391287083E+00  0.5064679101476E-01  0.0000000000000E+00
-0.3674967564370E+00  0.8960201577013E-01  0.0000000000000E+00
-0.1223344742557E+00 -0.6104141541858E+00  0.0000000000000E+00
-0.1308682433920E+00 -0.5720786078485E+00  0.0000000000000E+00
-0.1394020125283E+00 -0.5337430615112E+00  0.0000000000000E+00
-0.1479357816647E+00 -0.4954075151739E+00  0.0000000000000E+00
-0.1564695508010E+00 -0.4570719688366E+00  0.0000000000000E+00
-0.1650033199373E+00 -0.4187364224993E+00  0.0000000000000E+00
-0.1735370890737E+00 -0.3804008761620E+00  0.0000000000000E+00
-0.1820708582100E+00 -0.3420653298247E+00  0.0000000000000E+00
-0.1906046273464E+00 -0.3037297834874E+00  0.0000000000000E+00
-0.1991383964827E+00 -0.2653942371501E+00  0.0000000000000E+00
-0.2076721656190E+00 -0.2270586908128E+00  0.0000000000000E+00
-0.2162059347554E+00 -0.1887231444756E+00  0.0000000000000E+00
-0.2247397038917E+00 -0.1503875981383E+00  0.0000000000000E+00
-0.2332734730280E+00 -0.1120520518010E+00  0.0000000000000E+00
-0.2418072421644E+00 -0.7371650546368E-01  0.0000000000000E+00
-0.2503410113007E+00 -0.3538095912639E-01  0.0000000000000E+00
-0.2588747804371E+00  0.2954587210898E-02  0.0000000000000E+00
-0.2674085495734E+00  0.4129013354819E-01  0.0000000000000E+00
-0.2759423187097E+00  0.7962567988548E-01  0.0000000000000E+00
-0.8157545303905E-01 -0.6095756157001E+00  0.0000000000000E+00
-0.8727216531114E-01 -0.5716864396411E+00  0.0000000000000E+00
-0.9296887758322E-01 -0.5337972635821E+00  0.0000000000000E+00
-0.9866558985531E-01 -0.4959080875231E+00  0.0000000000000E+00
-0.1043623021274E+00 -0.4580189114642E+00  0.0000000000000E+00
-0.1100590143995E+00 -0.4201297354052E+00  0.0000000000000E+00
-0.1157557266716E+00 -0.3822405593462E+00  0.0000000000000E+00
-0.1214524389436E+00 -0.3443513832872E+00  0.0000000000000E+00
-0.1271491512157E+00 -0.3064622072282E+00  0.0000000000000E+00
-0.1328458634878E+00 -0.2685730311692E+00  0.0000000000000E+00
-0.1385425757599E+00 -0.2306838551102E+00  0.0000000000000E+00
-0.1442392880320E+00 -0.1927946790513E+00  0.0000000000000E+00
-0.1499360003041E+00 -0.1549055029923E+00  0.0000000000000E+00
-0.1556327125762E+00 -0.1170163269333E+00  0.0000000000000E+00
-0.1613294248482E+00 -0.7912715087431E-01  0.0000000000000E+00
-0.1670261371203E+00 -0.4123797481532E-01  0.0000000000000E+00
-0.1727228493924E+00 -0.3348798756337E-02  0.0000000000000E+00
-0.1784195616645E+00  0.3454037730265E-01  0.0000000000000E+00
-0.1841162739366E+00  0.7242955336163E-01  0.0000000000000E+00
-0.4079356769255E-01 -0.6090765759712E+00  0.0000000000000E+00
-0.4364428026705E-01 -0.5714596828455E+00  0.0000000000000E+00
-0.4649499284155E-01 -0.5338427897197E+00  0.0000000000000E+00
-0.4934570541605E-01 -0.4962258965940E+00  0.0000000000000E+00
-0.5219641799055E-01 -0.4586090034682E+00  0.0000000000000E+00
-0.5504713056505E-01 -0.4209921103424E+00  0.0000000000000E+00
-0.5789784313955E-01 -0.3833752172167E+00  0.0000000000000E+00
-0.6074855571405E-01 -0.3457583240909E+00  0.0000000000000E+00
-0.6359926828855E-01 -0.3081414309652E+00  0.0000000000000E+00
-0.6644998086305E-01 -0.2705245378394E+00  0.0000000000000E+00
-0.6930069343755E-01 -0.2329076447136E+00  0.0000000000000E+00
-0.7215140601205E-01 -0.1952907515879E+00  0.0000000000000E+00
-0.7500211858655E-01 -0.1576738584621E+00  0.0000000000000E+00
-0.7785283116105E-01 -0.1200569653364E+00  0.0000000000000E+00
-0.8070354373555E-01 -0.8244007221059E-01  0.0000000000000E+00
-0.8355425631005E-01 -0.4482317908483E-01  0.0000000000000E+00
-0.8640496888455E-01 -0.7206285959073E-02  0.0000000000000E+00
-0.8925568145905E-01  0.3041060716669E-01  0.0000000000000E+00
-0.9210639403355E-01  0.6802750029245E-01  0.0000000000000E+00
-0.3480256614906E-09 -0.6089122512039E+00  0.0000000000000E+00
-0.6960508916530E-09 -0.5713882038458E+00  0.0000000000000E+00
-0.1044076170388E-08 -0.5338641564877E+00  0.0000000000000E+00
-0.1392101310344E-08 -0.4963401091296E+00  0.0000000000000E+00
-0.1740126672346E-08 -0.4588160617715E+00  0.0000000000000E+00
-0.2088151978836E-08 -0.4212920144135E+00  0.0000000000000E+00
-0.2436177229815E-08 -0.3837679670554E+00  0.0000000000000E+00
-0.2784202369772E-08 -0.3462439196973E+00  0.0000000000000E+00
-0.3132227620751E-08 -0.3087198723392E+00  0.0000000000000E+00
-0.3480252760708E-08 -0.2711958249811E+00  0.0000000000000E+00
-0.3828278122709E-08 -0.2336717776230E+00  0.0000000000000E+00
-0.4176303373688E-08 -0.1961477302650E+00  0.0000000000000E+00
-0.4524328402623E-08 -0.1586236829069E+00  0.0000000000000E+00
-0.4872353986669E-08 -0.1210996355488E+00  0.0000000000000E+00
-0.5220379015603E-08 -0.8357558819070E-01  0.0000000000000E+00
-0.5568404377605E-08 -0.4605154083262E-01  0.0000000000000E+00
-0.5916429628584E-08 -0.8527493474537E-02  0.0000000000000E+00
-0.6264454990585E-08  0.2899655388355E-01  0.0000000000000E+00
-0.6612479908497E-08  0.6652060124163E-01  0.0000000000000E+00
 0.4079356699692E-01 -0.6090765759944E+00  0.0000000000000E+00
 0.4364427887579E-01 -0.5714596828919E+00  0.0000000000000E+00
 0.4649499075467E-01 -0.5338427897893E+00  0.0000000000000E+00
 0.4934570263354E-01 -0.4962258966867E+00  0.0000000000000E+00
 0.5219641451242E-01 -0.4586090035841E+00  0.0000000000000E+00
 0.5504712639129E-01 -0.4209921104815E+00  0.0000000000000E+00
 0.5789783827017E-01 -0.3833752173790E+00  0.0000000000000E+00
 0.6074855014904E-01 -0.3457583242764E+00  0.0000000000000E+00
 0.6359926202791E-01 -0.3081414311738E+00  0.0000000000000E+00
 0.6644997390679E-01 -0.2705245380712E+00  0.0000000000000E+00
 0.6930068578566E-01 -0.2329076449687E+00  0.0000000000000E+00
 0.7215139766454E-01 -0.1952907518661E+00  0.0000000000000E+00
 0.7500210954341E-01 -0.1576738587635E+00  0.0000000000000E+00
 0.7785282142229E-01 -0.1200569656609E+00  0.0000000000000E+00
 0.8070353330116E-01 -0.8244007255835E-01  0.0000000000000E+00
 0.8355424518003E-01 -0.4482317945578E-01  0.0000000000000E+00
 0.8640495705891E-01 -0.7206286353199E-02  0.0000000000000E+00
 0.8925566893778E-01  0.3041060674938E-01  0.0000000000000E+00
 0.9210638081666E-01  0.6802749985195E-01  0.0000000000000E+00
 0.8157545234439E-01 -0.6095756157453E+00  0.0000000000000E+00
 0.8727216392181E-01 -0.5716864397316E+00  0.0000000000000E+00
 0.9296887549923E-01 -0.5337972637178E+00  0.0000000000000E+00
 0.9866558707665E-01 -0.4959080877040E+00  0.0000000000000E+00
 0.1043622986541E+00 -0.4580189116903E+00  0.0000000000000E+00
 0.1100590102315E+00 -0.4201297356765E+00  0.0000000000000E+00
 0.1157557218089E+00 -0.3822405596628E+00  0.0000000000000E+00
 0.1214524333863E+00 -0.3443513836490E+00  0.0000000000000E+00
 0.1271491449638E+00 -0.3064622076353E+00  0.0000000000000E+00
 0.1328458565412E+00 -0.2685730316215E+00  0.0000000000000E+00
 0.1385425681186E+00 -0.2306838556077E+00  0.0000000000000E+00
 0.1442392796960E+00 -0.1927946795940E+00  0.0000000000000E+00
 0.1499359912734E+00 -0.1549055035802E+00  0.0000000000000E+00
 0.1556327028509E+00 -0.1170163275665E+00  0.0000000000000E+00
 0.1613294144283E+00 -0.7912715155269E-01  0.0000000000000E+00
 0.1670261260057E+00 -0.4123797553893E-01  0.0000000000000E+00
 0.1727228375831E+00 -0.3348799525175E-02  0.0000000000000E+00
 0.1784195491605E+00  0.3454037648858E-01  0.0000000000000E+00
 0.1841162607380E+00  0.7242955250234E-01  0.0000000000000E+00
 0.1223344735627E+00 -0.6104141542526E+00  0.0000000000000E+00
 0.1308682420061E+00 -0.5720786079822E+00  0.0000000000000E+00
 0.1394020104494E+00 -0.5337430617118E+00  0.0000000000000E+00
 0.1479357788928E+00 -0.4954075154414E+00  0.0000000000000E+00
 0.1564695473362E+00 -0.4570719691709E+00  0.0000000000000E+00
 0.1650033157795E+00 -0.4187364229005E+00  0.0000000000000E+00
 0.1735370842229E+00 -0.3804008766301E+00  0.0000000000000E+00
 0.1820708526663E+00 -0.3420653303597E+00  0.0000000000000E+00
 0.1906046211096E+00 -0.3037297840892E+00  0.0000000000000E+00
 0.1991383895530E+00 -0.2653942378188E+00  0.0000000000000E+00
 0.2076721579964E+00 -0.2270586915484E+00  0.0000000000000E+00
 0.2162059264397E+00 -0.1887231452780E+00  0.0000000000000E+00
 0.2247396948831E+00 -0.1503875990075E+00  0.0000000000000E+00
 0.2332734633265E+00 -0.1120520527371E+00  0.0000000000000E+00
 0.2418072317698E+00 -0.7371650646669E-01  0.0000000000000E+00
 0.2503410002132E+00 -0.3538096019627E-01  0.0000000000000E+00
 0.2588747686566E+00  0.2954586074152E-02  0.0000000000000E+00
 0.2674085370999E+00  0.4129013234458E-01  0.0000000000000E+00
 0.2759423055433E+00  0.7962567861500E-01  0.0000000000000E+00
 0.1630594566292E+00 -0.6115920299153E+00  0.0000000000000E+00
 0.1744170836673E+00 -0.5726368052487E+00  0.0000000000000E+00
 0.1857747107055E+00 -0.5336815805821E+00  0.0000000000000E+00
 0.1971323377436E+00 -0.4947263559154E+00  0.0000000000000E+00
 0.2084899647817E+00 -0.4557711312488E+00  0.0000000000000E+00
 0.2198475918199E+00 -0.4168159065822E+00  0.0000000000000E+00
 0.2312052188580E+00 -0.3778606819156E+00  0.0000000000000E+00
 0.2425628458961E+00 -0.3389054572490E+00  0.0000000000000E+00
 0.2539204729342E+00 -0.2999502325823E+00  0.0000000000000E+00
 0.2652780999724E+00 -0.2609950079157E+00  0.0000000000000E+00
 0.2766357270105E+00 -0.2220397832491E+00  0.0000000000000E+00
 0.2879933540486E+00 -0.1830845585825E+00  0.0000000000000E+00
 0.2993509810868E+00 -0.1441293339158E+00  0.0000000000000E+00
 0.3107086081249E+00 -0.1051741092492E+00  0.0000000000000E+00
 0.3220662351630E+00 -0.6621888458260E-01  0.0000000000000E+00
 0.3334238622011E+00 -0.2726365991598E-01  0.0000000000000E+00
 0.3447814892393E+00  0.1169156475064E-01  0.0000000000000E+00
 0.3561391162774E+00  0.5064678941726E-01  0.0000000000000E+00
 0.3674967433155E+00  0.8960201408388E-01  0.0000000000000E+00
 0.2037386733605E+00 -0.6131046699686E+00  0.0000000000000E+00
 0.2179021014576E+00 -0.5733531977969E+00  0.0000000000000E+00
 0.2320655295547E+00 -0.5336017256253E+00  0.0000000000000E+00
 0.2462289576518E+00 -0.4938502534536E+00  0.0000000000000E+00
 0.2603923857489E+00 -0.4540987812819E+00  0.0000000000000E+00
 0.2745558138461E+00 -0.4143473091102E+00  0.0000000000000E+00
 0.2887192419432E+00 -0.3745958369385E+00  0.0000000000000E+00
 0.3028826700403E+00 -0.3348443647668E+00  0.0000000000000E+00
 0.3170460981374E+00 -0.2950928925951E+00  0.0000000000000E+00
 0.3312095262345E+00 -0.2553414204234E+00  0.0000000000000E+00
 0.3453729543316E+00 -0.2155899482517E+00  0.0000000000000E+00
 0.3595363824287E+00 -0.1758384760800E+00  0.0000000000000E+00
 0.3736998105258E+00 -0.1360870039083E+00  0.0000000000000E+00
 0.3878632386229E+00 -0.9633553173665E-01  0.0000000000000E+00
 0.4020266667201E+00 -0.5658405956495E-01  0.0000000000000E+00
 0.4161900948172E+00 -0.1683258739326E-01  0.0000000000000E+00
 0.4303535229143E+00  0.2291888477843E-01  0.0000000000000E+00
 0.4445169510114E+00  0.6267035695012E-01  0.0000000000000E+00
 0.4586803791085E+00  0.1024218291218E+00  0.0000000000000E+00
 0.2443594356235E+00 -0.6149433147991E+00  0.0000000000000E+00
 0.2613047222386E+00 -0.5742119439159E+00  0.0000000000000E+00
 0.2782500088537E+00 -0.5334805730328E+00  0.0000000000000E+00
 0.2951952954688E+00 -0.4927492021497E+00  0.0000000000000E+00
 0.3121405820839E+00 -0.4520178312665E+00  0.0000000000000E+00
 0.3290858686990E+00 -0.4112864603834E+00  0.0000000000000E+00
 0.3460311553141E+00 -0.3705550895003E+00  0.0000000000000E+00
 0.3629764419293E+00 -0.3298237186171E+00  0.0000000000000E+00
 0.3799217285444E+00 -0.2890923477340E+00  0.0000000000000E+00
 0.3968670151595E+00 -0.2483609768509E+00  0.0000000000000E+00
 0.4138123017746E+00 -0.2076296059677E+00  0.0000000000000E+00
 0.4307575883897E+00 -0.1668982350846E+00  0.0000000000000E+00
 0.4477028750048E+00 -0.1261668642015E+00  0.0000000000000E+00
 0.4646481616199E+00 -0.8543549331833E-01  0.0000000000000E+00
 0.4815934482351E+00 -0.4470412243520E-01  0.0000000000000E+00
 0.4985387348502E+00 -0.3972751552064E-02  0.0000000000000E+00
 0.5154840214653E+00  0.3675861933107E-01  0.0000000000000E+00
 0.5324293080804E+00  0.7748999021421E-01  0.0000000000000E+00
 0.5493745946955E+00  0.1182213610973E+00  0.0000000000000E+00
 0.2849075279954E+00 -0.6170954546969E+00  0.0000000000000E+00
 0.3046032367654E+00 -0.5751900607254E+00  0.0000000000000E+00
 0.3242989455354E+00 -0.5332846667540E+00  0.0000000000000E+00
 0.3439946543054E+00 -0.4913792727825E+00  0.0000000000000E+00
 0.3636903630754E+00 -0.4494738788111E+00  0.0000000000000E+00
 0.3833860718454E+00 -0.4075684848397E+00  0.0000000000000E+00
 0.4030817806154E+00 -0.3656630908682E+00  0.0000000000000E+00
 0.4227774893854E+00 -0.3237576968968E+00  0.0000000000000E+00
 0.4424731981554E+00 -0.2818523029253E+00  0.0000000000000E+00
 0.4621689069254E+00 -0.2399469089539E+00  0.0000000000000E+00
 0.4818646156954E+00 -0.1980415149824E+00  0.0000000000000E+00
 0.5015603244654E+00 -0.1561361210110E+00  0.0000000000000E+00
 0.5212560332354E+00 -0.1142307270395E+00  0.0000000000000E+00
 0.5409517420054E+00 -0.7232533306809E-01  0.0000000000000E+00
 0.5606474507754E+00 -0.3041993909664E-01  0.0000000000000E+00
 0.5803431595454E+00  0.1148545487481E-01  0.0000000000000E+00
 0.6000388683154E+00  0.5339084884625E-01  0.0000000000000E+00
 0.6197345770854E+00  0.9529624281770E-01  0.0000000000000E+00
 0.6394302858554E+00  0.1372016367891E+00  0.0000000000000E+00
 0.3253670861580E+00 -0.6195466871059E+00  0.0000000000000E+00
 0.3477725558447E+00 -0.5762611321883E+00  0.0000000000000E+00
 0.3701780255315E+00 -0.5329755772707E+00  0.0000000000000E+00
 0.3925834952182E+00 -0.4896900223531E+00  0.0000000000000E+00
 0.4149889649050E+00 -0.4464044674355E+00  0.0000000000000E+00
 0.4373944345917E+00 -0.4031189125179E+00  0.0000000000000E+00
 0.4597999042785E+00 -0.3598333576004E+00  0.0000000000000E+00
 0.4822053739652E+00 -0.3165478026828E+00  0.0000000000000E+00
 0.5046108436520E+00 -0.2732622477652E+00  0.0000000000000E+00
 0.5270163133387E+00 -0.2299766928476E+00  0.0000000000000E+00
 0.5494217830255E+00 -0.1866911379300E+00  0.0000000000000E+00
 0.5718272527122E+00 -0.1434055830124E+00  0.0000000000000E+00
 0.5942327223990E+00 -0.1001200280948E+00  0.0000000000000E+00
 0.6166381920857E+00 -0.5683447317718E-01  0.0000000000000E+00
 0.6390436617725E+00 -0.1354891825959E-01  0.0000000000000E+00
 0.6614491314592E+00  0.2973663665801E-01  0.0000000000000E+00
 0.6838546011460E+00  0.7302219157560E-01  0.0000000000000E+00
 0.7062600708327E+00  0.1163077464932E+00  0.0000000000000E+00
 0.7286655405195E+00  0.1595933014108E+00  0.0000000000000E+00
 0.3657223396380E+00 -0.6222877077688E+00  0.0000000000000E+00
 0.3907876489554E+00 -0.5774092790946E+00  0.0000000000000E+00
 0.4158529582728E+00 -0.5325308504204E+00  0.0000000000000E+00
 0.4409182675902E+00 -0.4876524217462E+00  0.0000000000000E+00
 0.4659835769075E+00 -0.4427739930720E+00  0.0000000000000E+00
 0.4910488862249E+00 -0.3978955643979E+00  0.0000000000000E+00
 0.5161141955423E+00 -0.3530171357237E+00  0.0000000000000E+00
 0.5411795048597E+00 -0.3081387070495E+00  0.0000000000000E+00
 0.5662448141770E+00 -0.2632602783753E+00  0.0000000000000E+00
 0.5913101234944E+00 -0.2183818497011E+00  0.0000000000000E+00
 0.6163754328118E+00 -0.1735034210269E+00  0.0000000000000E+00
 0.6414407421292E+00 -0.1286249923528E+00  0.0000000000000E+00
 0.6665060514466E+00 -0.8374656367857E-01  0.0000000000000E+00
 0.6915713607639E+00 -0.3886813500439E-01  0.0000000000000E+00
 0.7166366700813E+00  0.6010293669799E-02  0.0000000000000E+00
 0.7417019793987E+00  0.5088872234398E-01  0.0000000000000E+00
 0.7667672887161E+00  0.9576715101817E-01  0.0000000000000E+00
 0.7918325980334E+00  0.1406455796924E+00  0.0000000000000E+00
 0.8168979073508E+00  0.1855240083665E+00  0.0000000000000E+00
 0.4059660077261E+00 -0.6253360461948E+00  0.0000000000000E+00
 0.4336403402798E+00 -0.5786726206764E+00  0.0000000000000E+00
 0.4613146728335E+00 -0.5320091951579E+00  0.0000000000000E+00
 0.4889890053873E+00 -0.4853457696395E+00  0.0000000000000E+00
 0.5166633379410E+00 -0.4386823441211E+00  0.0000000000000E+00
 0.5443376704947E+00 -0.3920189186027E+00  0.0000000000000E+00
 0.5720120030485E+00 -0.3453554930843E+00  0.0000000000000E+00
 0.5996863356022E+00 -0.2986920675659E+00  0.0000000000000E+00
 0.6273606681559E+00 -0.2520286420474E+00  0.0000000000000E+00
 0.6550350007097E+00 -0.2053652165290E+00  0.0000000000000E+00
 0.6827093332634E+00 -0.1587017910106E+00  0.0000000000000E+00
 0.7103836658171E+00 -0.1120383654922E+00  0.0000000000000E+00
 0.7380579983708E+00 -0.6537493997376E-01  0.0000000000000E+00
 0.7657323309246E+00 -0.1871151445534E-01  0.0000000000000E+00
 0.7934066634783E+00  0.2795191106308E-01  0.0000000000000E+00
 0.8210809960320E+00  0.7461533658150E-01  0.0000000000000E+00
 0.8487553285858E+00  0.1212787620999E+00  0.0000000000000E+00
 0.8764296611395E+00  0.1679421876183E+00  0.0000000000000E+00
 0.9041039936932E+00  0.2146056131368E+00  0.0000000000000E+00
 0.4461193597216E+00 -0.6287796668316E+00  0.0000000000000E+00
 0.4763794308648E+00 -0.5802304674820E+00  0.0000000000000E+00
 0.5066395020079E+00 -0.5316812681323E+00  0.0000000000000E+00
 0.5368995731510E+00 -0.4831320687827E+00  0.0000000000000E+00
 0.5671596442941E+00 -0.4345828694331E+00  0.0000000000000E+00
 0.5974197154372E+00 -0.3860336700835E+00  0.0000000000000E+00
 0.6276797865803E+00 -0.3374844707338E+00  0.0000000000000E+00
 0.6579398577234E+00 -0.2889352713842E+00  0.0000000000000E+00
 0.6881999288665E+00 -0.2403860720346E+00  0.0000000000000E+00
 0.7184600000096E+00 -0.1918368726850E+00  0.0000000000000E+00
 0.7487200711528E+00 -0.1432876733353E+00  0.0000000000000E+00
 0.7789801422959E+00 -0.9473847398570E-01  0.0000000000000E+00
 0.8092402134390E+00 -0.4618927463608E-01  0.0000000000000E+00
 0.8395002845821E+00  0.2359924713548E-02  0.0000000000000E+00
 0.8697603557252E+00  0.5090912406318E-01  0.0000000000000E+00
 0.9000204268683E+00  0.9945832341280E-01  0.0000000000000E+00
 0.9302804980114E+00  0.1480075227624E+00  0.0000000000000E+00
 0.9605405691545E+00  0.1965567221121E+00  0.0000000000000E+00
 0.9908006402976E+00  0.2451059214617E+00  0.0000000000000E+00
 0.4862164839476E+00 -0.6327282650823E+00  0.0000000000000E+00
 0.5190792227627E+00 -0.5823059014532E+00  0.0000000000000E+00
 0.5519419615778E+00 -0.5318835378241E+00  0.0000000000000E+00
 0.5848047003929E+00 -0.4814611741950E+00  0.0000000000000E+00
 0.6176674392080E+00 -0.4310388105659E+00  0.0000000000000E+00
 0.6505301780231E+00 -0.3806164469367E+00  0.0000000000000E+00
 0.6833929168382E+00 -0.3301940833076E+00  0.0000000000000E+00
 0.7162556556533E+00 -0.2797717196785E+00  0.0000000000000E+00
 0.7491183944684E+00 -0.2293493560494E+00  0.0000000000000E+00
 0.7819811332836E+00 -0.1789269924203E+00  0.0000000000000E+00
 0.8148438720987E+00 -0.1285046287912E+00  0.0000000000000E+00
 0.8477066109138E+00 -0.7808226516204E-01  0.0000000000000E+00
 0.8805693497289E+00 -0.2765990153292E-01  0.0000000000000E+00
 0.9134320885440E+00  0.2276246209620E-01  0.0000000000000E+00
 0.9462948273591E+00  0.7318482572531E-01  0.0000000000000E+00
 0.9791575661742E+00  0.1236071893544E+00  0.0000000000000E+00
 0.1012020304989E+01  0.1740295529835E+00  0.0000000000000E+00
 0.1044883043804E+01  0.2244519166127E+00  0.0000000000000E+00
 0.1077745782619E+01  0.2748742802418E+00  0.0000000000000E+00
 0.5262782675306E+00 -0.6372588484299E+00  0.0000000000000E+00
 0.5617874031179E+00 -0.5850569142116E+00  0.0000000000000E+00
 0.5972965387051E+00 -0.5328549799933E+00  0.0000000000000E+00
 0.6328056742924E+00 -0.4806530457751E+00  0.0000000000000E+00
 0.6683148098797E+00 -0.4284511115568E+00  0.0000000000000E+00
 0.7038239454669E+00 -0.3762491773386E+00  0.0000000000000E+00
 0.7393330810542E+00 -0.3240472431203E+00  0.0000000000000E+00
 0.7748422166414E+00 -0.2718453089021E+00  0.0000000000000E+00
 0.8103513522287E+00 -0.2196433746838E+00  0.0000000000000E+00
 0.8458604878159E+00 -0.1674414404656E+00  0.0000000000000E+00
 0.8813696234032E+00 -0.1152395062473E+00  0.0000000000000E+00
 0.9168787589905E+00 -0.6303757202906E-01  0.0000000000000E+00
 0.9523878945777E+00 -0.1083563781081E-01  0.0000000000000E+00
 0.9878970301650E+00  0.4136629640744E-01  0.0000000000000E+00
 0.1023406165752E+01  0.9356823062570E-01  0.0000000000000E+00
 0.1058915301339E+01  0.1457701648440E+00  0.0000000000000E+00
 0.1094424436927E+01  0.1979720990622E+00  0.0000000000000E+00
 0.1129933572514E+01  0.2501740332805E+00  0.0000000000000E+00
 0.1165442708101E+01  0.3023759674987E+00  0.0000000000000E+00
 0.5663177031036E+00 -0.6424442621789E+00  0.0000000000000E+00
 0.6045357890559E+00 -0.5886334675106E+00  0.0000000000000E+00
 0.6427538750083E+00 -0.5348226728424E+00  0.0000000000000E+00
 0.6809719609606E+00 -0.4810118781742E+00  0.0000000000000E+00
 0.7191900469130E+00 -0.4272010835059E+00  0.0000000000000E+00
 0.7574081328653E+00 -0.3733902888377E+00  0.0000000000000E+00
 0.7956262188177E+00 -0.3195794941695E+00  0.0000000000000E+00
 0.8338443047700E+00 -0.2657686995012E+00  0.0000000000000E+00
 0.8720623907224E+00 -0.2119579048330E+00  0.0000000000000E+00
 0.9102804766747E+00 -0.1581471101648E+00  0.0000000000000E+00
 0.9484985626271E+00 -0.1043363154965E+00  0.0000000000000E+00
 0.9867166485794E+00 -0.5052552082830E-01  0.0000000000000E+00
 0.1024934734532E+01  0.3285273839934E-02  0.0000000000000E+00
 0.1063152820484E+01  0.5709606850817E-01  0.0000000000000E+00
 0.1101370906436E+01  0.1109068631764E+00  0.0000000000000E+00
 0.1139588992389E+01  0.1647176578446E+00  0.0000000000000E+00
 0.1177807078341E+01  0.2185284525129E+00  0.0000000000000E+00
 0.1216025164294E+01  0.2723392471811E+00  0.0000000000000E+00
 0.1254243250246E+01  0.3261500418493E+00  0.0000000000000E+00
 0.6063371772032E+00 -0.6483547892121E+00  0.0000000000000E+00
 0.6473347043119E+00 -0.5931806451960E+00  0.0000000000000E+00
 0.6883322314206E+00 -0.5380065011798E+00  0.0000000000000E+00
 0.7293297585293E+00 -0.4828323571637E+00  0.0000000000000E+00
 0.7703272856379E+00 -0.4276582131476E+00  0.0000000000000E+00
 0.8113248127466E+00 -0.3724840691314E+00  0.0000000000000E+00
 0.8523223398553E+00 -0.3173099251153E+00  0.0000000000000E+00
 0.8933198669640E+00 -0.2621357810991E+00  0.0000000000000E+00
 0.9343173940726E+00 -0.2069616370830E+00  0.0000000000000E+00
 0.9753149211813E+00 -0.1517874930668E+00  0.0000000000000E+00
 0.1016312448290E+01 -0.9661334905068E-01  0.0000000000000E+00
 0.1057309975399E+01 -0.4143920503453E-01  0.0000000000000E+00
 0.1098307502507E+01  0.1373493898162E-01  0.0000000000000E+00
 0.1139305029616E+01  0.6890908299776E-01  0.0000000000000E+00
 0.1180302556725E+01  0.1240832270139E+00  0.0000000000000E+00
 0.1221300083833E+01  0.1792573710301E+00  0.0000000000000E+00
 0.1262297610942E+01  0.2344315150462E+00  0.0000000000000E+00
 0.1303295138051E+01  0.2896056590623E+00  0.0000000000000E+00
 0.1344292665159E+01  0.3447798030785E+00  0.0000000000000E+00
 0.6463282779693E+00 -0.6550792684739E+00  0.0000000000000E+00
 0.6901728360684E+00 -0.5988809216540E+00  0.0000000000000E+00
 0.7340173941675E+00 -0.5426825748342E+00  0.0000000000000E+00
 0.7778619522666E+00 -0.4864842280144E+00  0.0000000000000E+00
 0.8217065103657E+00 -0.4302858811946E+00  0.0000000000000E+00
 0.8655510684647E+00 -0.3740875343748E+00  0.0000000000000E+00
 0.9093956265638E+00 -0.3178891875549E+00  0.0000000000000E+00
 0.9532401846629E+00 -0.2616908407351E+00  0.0000000000000E+00
 0.9970847427620E+00 -0.2054924939153E+00  0.0000000000000E+00
 0.1040929300861E+01 -0.1492941470955E+00  0.0000000000000E+00
 0.1084773858960E+01 -0.9309580027567E-01  0.0000000000000E+00
 0.1128618417059E+01 -0.3689745345585E-01  0.0000000000000E+00
 0.1172462975158E+01  0.1930089336397E-01  0.0000000000000E+00
 0.1216307533257E+01  0.7549924018379E-01  0.0000000000000E+00
 0.1260152091356E+01  0.1316975870036E+00  0.0000000000000E+00
 0.1303996649456E+01  0.1878959338234E+00  0.0000000000000E+00
 0.1347841207555E+01  0.2440942806433E+00  0.0000000000000E+00
 0.1391685765654E+01  0.3002926274631E+00  0.0000000000000E+00
 0.1435530323753E+01  0.3564909742829E+00  0.0000000000000E+00
 0.6862631902585E+00 -0.6627423553073E+00  0.0000000000000E+00
 0.7329996371022E+00 -0.6059885893383E+00  0.0000000000000E+00
 0.7797360839460E+00 -0.5492348233693E+00  0.0000000000000E+00
 0.8264725307898E+00 -0.4924810574003E+00  0.0000000000000E+00
 0.8732089776335E+00 -0.4357272914313E+00  0.0000000000000E+00
 0.9199454244773E+00 -0.3789735254623E+00  0.0000000000000E+00
 0.9666818713211E+00 -0.3222197594933E+00  0.0000000000000E+00
 0.1013418318165E+01 -0.2654659935243E+00  0.0000000000000E+00
 0.1060154765009E+01 -0.2087122275553E+00  0.0000000000000E+00
 0.1106891211852E+01 -0.1519584615863E+00  0.0000000000000E+00
 0.1153627658696E+01 -0.9520469561733E-01  0.0000000000000E+00
 0.1200364105540E+01 -0.3845092964834E-01  0.0000000000000E+00
 0.1247100552384E+01  0.1830283632066E-01  0.0000000000000E+00
 0.1293836999227E+01  0.7505660228965E-01  0.0000000000000E+00
 0.1340573446071E+01  0.1318103682586E+00  0.0000000000000E+00
 0.1387309892915E+01  0.1885641342276E+00  0.0000000000000E+00
 0.1434046339759E+01  0.2453179001966E+00  0.0000000000000E+00
 0.1480782786602E+01  0.3020716661656E+00  0.0000000000000E+00
 0.1527519233446E+01  0.3588254321346E+00  0.0000000000000E+00
 0.7260827807855E+00 -0.6713872512053E+00  0.0000000000000E+00
 0.7757018953692E+00 -0.6145952846001E+00  0.0000000000000E+00
 0.8253210099529E+00 -0.5578033179950E+00  0.0000000000000E+00
 0.8749401245367E+00 -0.5010113513899E+00  0.0000000000000E+00
 0.9245592391204E+00 -0.4442193847848E+00  0.0000000000000E+00
 0.9741783537041E+00 -0.3874274181797E+00  0.0000000000000E+00
 0.1023797468288E+01 -0.3306354515746E+00  0.0000000000000E+00
 0.1073416582872E+01 -0.2738434849695E+00  0.0000000000000E+00
 0.1123035697455E+01 -0.2170515183643E+00  0.0000000000000E+00
 0.1172654812039E+01 -0.1602595517592E+00  0.0000000000000E+00
 0.1222273926623E+01 -0.1034675851541E+00  0.0000000000000E+00
 0.1271893041207E+01 -0.4667561854900E-01  0.0000000000000E+00
 0.1321512155790E+01  0.1011634805611E-01  0.0000000000000E+00
 0.1371131270374E+01  0.6690831466122E-01  0.0000000000000E+00
 0.1420750384958E+01  0.1237002812663E+00  0.0000000000000E+00
 0.1470369499542E+01  0.1804922478715E+00  0.0000000000000E+00
 0.1519988614125E+01  0.2372842144766E+00  0.0000000000000E+00
 0.1569607728709E+01  0.2940761810817E+00  0.0000000000000E+00
 0.1619226843293E+01  0.3508681476868E+00  0.0000000000000E+00
 0.7657100150347E+00 -0.6810530049191E+00  0.0000000000000E+00
 0.8181304911719E+00 -0.6247845666138E+00  0.0000000000000E+00
 0.8705509673091E+00 -0.5685161283084E+00  0.0000000000000E+00
 0.9229714434463E+00 -0.5122476900030E+00  0.0000000000000E+00
 0.9753919195835E+00 -0.4559792516977E+00  0.0000000000000E+00
 0.1027812395721E+01 -0.3997108133923E+00  0.0000000000000E+00
 0.1080232871858E+01 -0.3434423750870E+00  0.0000000000000E+00
 0.1132653347995E+01 -0.2871739367816E+00  0.0000000000000E+00
 0.1185073824132E+01 -0.2309054984762E+00  0.0000000000000E+00
 0.1237494300269E+01 -0.1746370601709E+00  0.0000000000000E+00
 0.1289914776407E+01 -0.1183686218655E+00  0.0000000000000E+00
 0.1342335252544E+01 -0.6210018356017E-01  0.0000000000000E+00
 0.1394755728681E+01 -0.5831745254811E-02  0.0000000000000E+00
 0.1447176204818E+01  0.5043669305055E-01  0.0000000000000E+00
 0.1499596680955E+01  0.1067051313559E+00  0.0000000000000E+00
 0.1552017157093E+01  0.1629735696613E+00  0.0000000000000E+00
 0.1604437633230E+01  0.2192420079666E+00  0.0000000000000E+00
 0.1656858109367E+01  0.2755104462720E+00  0.0000000000000E+00
 0.1709278585504E+01  0.3317788845773E+00  0.0000000000000E+00
</DataArray>
</Points>
<Cells>
<DataArray type="Int64" Name="connectivity" format="ascii">
0 11 438 243
243 438 439 244
244 439 440 245
245 440 441 246
246 441 442 247
247 442 443 248
248 443 444 249
249 444 445 250
250 445 446 251
251 446 447 252
252 447 448 253
253 448 449 254
254 449 450 255
255 450 451 256
256 451 452 257
257 452 453 258
258 453 454 259
259 454 455 260
260 455 456 261
261 456 457 262
262 457 458 263
263 458 459 264
264 459 460 265
265 460 461 266
266 461 462 267
267 462 463 268
268 463 464 269
269 464 465 270
270 465 466 271
271 466 467 272
272 467 468 273
273 468 469 274
274 469 470 275
275 470 471 276
276 471 472 277
277 472 473 278
278 473 474 279
279 474 475 280
280 475 476 281
281 476 477 282
282 477 89 3
11 12 478 438
438 478 479 439
439 479 480 440
440 480 481 441
441 481 482 442
442 482 483 443
443 483 484 444
444 484 485 445
445 485 486 446
446 486 487 447
447 487 488 448
448 488 489 449
449 489 490 450
450 490 491 451
451 491 492 452
452 492 493 453
453 493 494 454
454 494 495 455
455 495 496 456
456 496 497 457
457 497 498 458
458 498 499 459
459 499 500 460
460 500 501 461
461 501 502 462
462 502 503 463
463 503 504 464
464 504 505 465
465 505 506 466
466 506 507 467
467 507 508 468
468 508 509 469
469 509 510 470
470 510 511 471
471 511 512 472
472 512 513 473
473 513 514 474
474 514 515 475
475 515 516 476
476 516 517 477
477 517 90 89
12 13 518 478
478 518 519 479
479 519 520 480
480 520 521 481
481 521 522 482
482 522 523 483
483 523 524 484
484 524 525 485
485 525 526 486
486 526 527 487
487 527 528 488
488 528 529 489
489 529 530 490
490 530 531 491
491 531 532 492
492 532 533 493
493 533 534 494
494 534 535 495
495 535 536 496
496 536 537 497
497 537 538 498
498 538 539 499
499 539 540 500
500 540 541 501
501 541 542 502
502 542 543 503
503 543 544 504
504 544 545 505
505 545 546 506
506 546 547 507
507 547 548 508
508 548 549 509
509 549 550 510
510 550 551 511
511 551 552 512
512 552 553 513
513 553 554 514
514 554 555 515
515 555 556 516
516 556 557 517
517 557 91 90
13 14 558 518
518 558 559 519
519 559 560 520
520 560 561 521
521 561 562 522
522 562 563 523
523 563 564 524
524 564 565 525
525 565 566 526
526 566 567 527
527 567 568 528
528 568 569 529
529 569 570 530
530 570 571 531
531 571 572 532
532 572 573 533
533 573 574 534
534 574 575 535
535 575 576 536
536 576 577 537
537 577 578 538
538 578 579 539
539 579 580 540
540 580 581 541
541 581 582 542
542 582 583 543
543 583 584 544
544 584 585 545
545 585 586 546
546 586 587 547
547 587 588 548
548 588 589 549
549 589 590 550
550 590 591 551
551 591 592 552
552 592 593 553
553 593 594 554
554 594 595 555
555 595 596 556
556 596 597 557
557 597 92 91
14 15 598 558
558 598 599 559
559 599 600 560
560 600 601 561
561 601 602 562
562 602 603 563
563 603 604 564
564 604 605 565
565 605 606 566
566 606 607 567
567 607 608 568
568 608 609 569
569 609 610 570
570 610 611 571
571 611 612 572
572 612 613 573
573 613 614 574
574 614 615 575
575 615 616 576
576 616 617 577
577 617 618 578
578 618 619 579
579 619 620 580
580 620 621 581
581 621 622 582
582 622 623 583
583 623 624 584
584 624 625 585
585 625 626 586
586 626 627 587
587 627 628 588
588 628 629 589
589 629 630 590
590 630 631 591
591 631 632 592
592 632 633 593
593 633 634 594
594 634 635 595
595 635 636 596
596 636 637 597
597 637 93 92
15 16 638 598
598 638 639 599
599 639 640 600
600 640 641 601
601 641 642 602
602 642 643 603
603 643 644 604
604 644 645 605
605 645 646 606
606 646 647 607
607 647 648 608
608 648 649 609
609 649 650 610
610 650 651 611
611 651 652 612
612 652 653 613
613 653 654 614
614 654 655 615
615 655 656 616
616 656 657 617
617 657 658 618
618 658 659 619
619 659 660 620
620 660 661 621
621 661 662 622
622 662 663 623
623 663 664 624
624 664 665 625
625 665 666 626
626 666 667 627
627 667 668 628
628 668 669 629
629 669 670 630
630 670 671 631
631 671 672 632
632 672 673 633
633 673 674 634
634 674 675 635
635 675 676 636
636 676 677 637
637 677 94 93
16 17 678 638
638 678 679 639
639 679 680 640
640 680 681 641
641 681 682 642
642 682 683 643
643 683 684 644
644 684 685 645
645 685 686 646
646 686 687 647
647 687 688 648
648 688 689 649
649 689 690 650
650 690 691 651
651 691 692 652
652 692 693 653
653 693 694 654
654 694 695 655
655 695 696 656
656 696 697 657
657 697 698 658
658 698 699 659
659 699 700 660
660 700 701 661
661 701 702 662
662 702 703 663
663 703 704 664
664 704 705 665
665 705 706 666
666 706 707 667
667 707 708 668
668 708 709 669
669 709 710 670
670 710 711 671
671 711 712 672
672 712 713 673
673 713 714 674
674 714 715 675
675 715 716 676
676 716 717 677
677 717 95 94
17 18 718 678
678 718 719 679
679 719 720 680
680 720 721 681
681 721 722 682
682 722 723 683
683 723 724 684
684 724 725 685
685 725 726 686
686 726 727 687
687 727 728 688
688 728 729 689
689 729 730 690
690 730 731 691
691 731 732 692
692 732 733 693
693 733 734 694
694 734 735 695
695 735 736 696
696 736 737 697
697 737 738 698
698 738 739 699
699 739 740 700
700 740 741 701
701 741 742 702
702 742 743 703
703 743 744 704
704 744 745 705
705 745 746 706
706 746 747 707
707 747 748 708
708 748 749 709
709 749 750 710
710 750 751 711
711 751 752 712
712 752 753 713
713 753 754 714
714 754 755 715
715 755 756 716
716 756 757 717
717 757 96 95
18 19 758 718
718 758 759 719
719 759 760 720
720 760 761 721
721 761 762 722
722 762 763 723
723 763 764 724
724 764 765 725
725 765 766 726
726 766 767 727
727 767 768 728
728 768 769 729
729 769 770 730
730 770 771 731
731 771 772 732
732 772 773 733
733 773 774 734
734 774 775 735
735 775 776 736
736 776 777 737
737 777 778 738
738 778 779 739
739 779 780 740
740 780 781 741
741 781 782 742
742 782 783 743
743 783 784 744
744 784 785 745
745 785 786 746
746 786 787 747
747 787 788 748
748 788 789 749
749 789 790 750
750 790 791 751
751 791 792 752
752 792 793 753
753 793 794 754
754 794 795 755
755 795 796 756
756 796 797 757
757 797 97 96
19 20 798 758
758 798 799 759
759 799 800 760
760 800 801 761
761 801 802 762
762 802 803 763
763 803 804 764
764 804 805 765
765 805 806 766
766 806 807 767
767 807 808 768
768 808 809 769
769 809 810 770
770 810 811 771
771 811 812 772
772 812 813 773
773 813 814 774
774 814 815 775
775 815 816 776
776 816 817 777
777 817 818 778
778 818 819 779
779 819 820 780
780 820 821 781
781 821 822 782
782 822 823 783
783 823 824 784
784 824 825 785
785 825 826 786
786 826 827 787
787 827 828 788
788 828 829 789
789 829 830 790
790 830 831 791
791 831 832 792
792 832 833 793
793 833 834 794
794 834 835 795
795 835 836 796
796 836 837 797
797 837 98 97
20 21 838 798
798 838 839 799
799 839 840 800
800 840 841 801
801 841 842 802
802 842 843 803
803 843 844 804
804 844 845 805
805 845 846 806
806 846 847 807
807 847 848 808
808 848 849 809
809 849 850 810
810 850 851 811
811 851 852 812
812 852 853 813
813 853 854 814
814 854 855 815
815 855 856 816
816 856 857 817
817 857 858 818
818 858 859 819
819 859 860 820
820 860 861 821
821 861 862 822
822 862 863 823
823 863 864 824
824 864 865 825
825 865 866 826
826 866 867 827
827 867 868 828
828 868 869 829
829 869 870 830
830 870 871 831
831 871 872 832
832 872 873 833
833 873 874 834
834 874 875 835
835 875 876 836
836 876 877 837
837 877 99 98
21 22 878 838
838 878 879 839
839 879 880 840
840 880 881 841
841 881 882 842
842 882 883 843
843 883 884 844
844 884 885 845
845 885 886 846
846 886 887 847
847 887 888 848
848 888 889 849
849 889 890 850
850 890 891 851
851 891 892 852
852 892 893 853
853 893 894 854
854 894 895 855
855 895 896 856
856 896 897 857
857 897 898 858
858 898 899 859
859 899 900 860
860 900 901 861
861 901 902 862
862 902 903 863
863 903 904 864
864 904 905 865
865 905 906 866
866 906 907 867
867 907 908 868
868 908 909 869
869 909 910 870
870 910 911 871
871 911 912 872
872 912 913 873
873 913 914 874
874 914 915 875
875 915 916 876
876 916 917 877
877 917 100 99
22 23 918 878
878 918 919 879
879 919 920 880
880 920 921 881
881 921 922 882
882 922 923 883
883 923 924 884
884 924 925 885
885 925 926 886
886 926 927 887
887 927 928 888
888 928 929 889
889 929 930 890
890 930 931 891
891 931 932 892
892 932 933 893
893 933 934 894
894 934 935 895
895 935 936 896
896 936 937 897
897 937 938 898
898 938 939 899
899 939 940 900
900 940 941 901
901 941 942 902
902 942 943 903
903 943 944 904
904 944 945 905
905 945 946 906
906 946 947 907
907 947 948 908
908 948 949 909
909 949 950 910
910 950 951 911
911 951 952 912
912 952 953 913
913 953 954 914
914 954 955 915
915 955 956 916
916 956 957 917
917 957 101 100
23 24 958 918
918 958 959 919
919 959 960 920
920 960 961 921
921 961 962 922
922 962 963 923
923 963 964 924
924 964 965 925
925 965 966 926
926 966 967 927
927 967 968 928
928 968 969 929
929 969 970 930
930 970 971 931
931 971 972 932
932 972 973 933
933 973 974 934
934 974 975 935
935 975 976 936
936 976 977 937
937 977 978 938
938 978 979 939
939 979 980 940
940 980 981 941
941 981 982 942
942 982 983 943
943 983 984 944
944 984 985 945
945 985 986 946
946 986 987 947
947 987 988 948
948 988 989 949
949 989 990 950
950 990 991 951
951 991 992 952
952 992 993 953
953 993 994 954
954 994 995 955
955 995 996 956
956 996 997 957
957 997 102 101
24 25 998 958
958 998 999 959
959 999 1000 960
960 1000 1001 961
961 1001 1002 962
962 1002 1003 963
963 1003 1004 964
964 1004 1005 965
965 1005 1006 966
966 1006 1007 967
967 1007 1008 968
968 1008 1009 969
969 1009 1010 970
970 1010 1011 971
971 1011 1012 972
972 1012 1013 973
973 1013 1014 974
974 1014 1015 975
975 1015 1016 976
976 1016 1017 977
977 1017 1018 978
978 1018 1019 979
979 1019 1020 980
980 1020 1021 981
981 1021 1022 982
982 1022 1023 983
983 1023 1024 984
984 1024 1025 985
985 1025 1026 986
986 1026 1027 987
987 1027 1028 988
988 1028 1029 989
989 1029 1030 990
990 1030 1031 991
991 1031 1032 992
992 1032 1033 993
993 1033 1034 994
994 1034 1035 995
995 1035 1036 996
996 1036 1037 997
997 1037 103 102
25 26 1038 998
998 1038 1039 999
999 1039 1040 1000
1000 1040 1041 1001
1001 1041 1042 1002
1002 1042 1043 1003
1003 1043 1044 1004
1004 1044 1045 1005
1005 1045 1046 1006
1006 1046 1047 1007
1007 1047 1048 1008
1008 1048 1049 1009
1009 1049 1050 1010
1010 1050 1051 1011
1011 1051 1052 1012
1012 1052 1053 1013
1013 1053 1054 1014
1014 1054 1055 1015
1015 1055 1056 1016
1016 1056 1057 1017
1017 1057 1058 1018
1018 1058 1059 1019
1019 1059 1060 1020
1020 1060 1061 1021
1021 1061 1062 1022
1022 1062 1063 1023
1023 1063 1064 1024
1024 1064 1065 1025
1025 1065 1066 1026
1026 1066 1067 1027
1027 1067 1068 1028
1028 1068 1069 1029
1029 1069 1070 1030
1030 1070 1071 1031
1031 1071 1072 1032
1032 1072 1073 1033
1033 1073 1074 1034
1034 1074 1075 1035
1035 1075 1076 1036
1036 1076 1077 1037
1037 1077 104 103
26 27 1078 1038
1038 1078 1079 1039
1039 1079 1080 1040
1040 1080 1081 1041
1041 1081 1082 1042
1042 1082 1083 1043
1043 1083 1084 1044
1044 1084 1085 1045
1045 1085 1086 1046
1046 1086 1087 1047
1047 1087 1088 1048
1048 1088 1089 1049
1049 1089 1090 1050
1050 1090 1091 1051
1051 1091 1092 1052
1052 1092 1093 1053
1053 1093 1094 1054
1054 1094 1095 1055
1055 1095 1096 1056
1056 1096 1097 1057
1057 1097 1098 1058
1058 1098 1099 1059
1059 1099 1100 1060
1060 1100 1101 1061
1061 1101 1102 1062
1062 1102 1103 1063
1063 1103 1104 1064
1064 1104 1105 1065
1065 1105 1106 1066
1066 1106 1107 1067
1067 1107 1108 1068
1068 1108 1109 1069
1069 1109 1110 1070
1070 1110 1111 1071
1071 1111 1112 1072
1072 1112 1113 1073
1073 1113 1114 1074
1074 1114 1115 1075
1075 1115 1116 1076
1076 1116 1117 1077
1077 1117 105 104
27 28 1118 1078
1078 1118 1119 1079
1079 1119 1120 1080
1080 1120 1121 1081
1081 1121 1122 1082
1082 1122 1123 1083
1083 1123 1124 1084
1084 1124 1125 1085
1085 1125 1126 1086
1086 1126 1127 1087
1087 1127 1128 1088
1088 1128 1129 1089
1089 1129 1130 1090
1090 1130 1131 1091
1091 1131 1132 1092
1092 1132 1133 1093
1093 1133 1134 1094
1094 1134 1135 1095
1095 1135 1136 1096
1096 1136 1137 1097
1097 1137 1138 1098
1098 1138 1139 1099
1099 1139 1140 1100
1100 1140 1141 1101
1101 1141 1142 1102
1102 1142 1143 1103
1103 1143 1144 1104
1104 1144 1145 1105
1105 1145 1146 1106
1106 1146 1147 1107
1107 1147 1148 1108
1108 1148 1149 1109
1109 1149 1150 1110
1110 1150 1151 1111
1111 1151 1152 1112
1112 1152 1153 1113
1113 1153 1154 1114
1114 1154 1155 1115
1115 1155 1156 1116
1116 1156 1157 1117
1117 1157 106 105
28 29 1158 1118
1118 1158 1159 1119
1119 1159 1160 1120
1120 1160 1161 1121
1121 1161 1162 1122
1122 1162 1163 1123
1123 1163 1164 1124
1124 1164 1165 1125
1125 1165 1166 1126
1126 1166 1167 1127
1127 1167 1168 1128
1128 1168 1169 1129
1129 1169 1170 1130
1130 1170 1171 1131
1131 1171 1172 1132
1132 1172 1173 1133
1133 1173 1174 1134
1134 1174 1175 1135
1135 1175 1176 1136
1136 1176 1177 1137
1137 1177 1178 1138
1138 1178 1179 1139
1139 1179 1180 1140
1140 1180 1181 1141
1141 1181 1182 1142
1142 1182 1183 1143
1143 1183 1184 1144
1144 1184 1185 1145
1145 1185 1186 1146
1146 1186 1187 1147
1147 1187 1188 1148
1148 1188 1189 1149
1149 1189 1190 1150
1150 1190 1191 1151
1151 1191 1192 1152
1152 1192 1193 1153
1153 1193 1194 1154
1154 1194 1195 1155
1155 1195 1196 1156
1156 1196 1197 1157
1157 1197 107 106
29 30 1198 1158
1158 1198 1199 1159
1159 1199 1200 1160
1160 1200 1201 1161
1161 1201 1202 1162
1162 1202 1203 1163
1163 1203 1204 1164
1164 1204 1205 1165
1165 1205 1206 1166
1166 1206 1207 1167
1167 1207 1208 1168
1168 1208 1209 1169
1169 1209 1210 1170
1170 1210 1211 1171
1171 1211 1212 1172
1172 1212 1213 1173
1173 1213 1214 1174
1174 1214 1215 1175
1175 1215 1216 1176
1176 1216 1217 1177
1177 1217 1218 1178
1178 1218 1219 1179
1179 1219 1220 1180
1180 1220 1221 1181
1181 1221 1222 1182
1182 1222 1223 1183
1183 1223 1224 1184
1184 1224 1225 1185
1185 1225 1226 1186
1186 1226 1227 1187
1187 1227 1228 1188
1188 1228 1229 1189
1189 1229 1230 1190
1190 1230 1231 1191
1191 1231 1232 1192
1192 1232 1233 1193
1193 1233 1234 1194
1194 1234 1235 1195
1195 1235 1236 1196
1196 1236 1237 1197
1197 1237 4 107
30 31 1238 1198
1198 1238 1239 1199
1199 1239 1240 1200
1200 1240 1241 1201
1201 1241 1242 1202
1202 1242 1243 1203
1203 1243 1244 1204
1204 1244 1245 1205
1205 1245 1246 1206
1206 1246 1247 1207
1207 1247 1248 1208
1208 1248 1249 1209
1209 1249 1250 1210
1210 1250 1251 1211
1211 1251 1252 1212
1212 1252 1253 1213
1213 1253 1254 1214
1214 1254 1255 1215
1215 1255 1256 1216
1216 1256 1257 1217
1217 1257 1258 1218
1218 1258 1259 1219
1219 1259 1260 1220
1220 1260 1261 1221
1221 1261 1262 1222
1222 1262 1263 1223
1223 1263 1264 1224
1224 1264 1265 1225
1225 1265 1266 1226
1226 1266 1267 1227
1227 1267 1268 1228
1228 1268 1269 1229
1229 1269 1270 1230
1230 1270 1271 1231
1231 1271 1272 1232
1232 1272 1273 1233
1233 1273 1274 1234
1234 1274 1275 1235
1235 1275 1276 1236
1236 1276 1277 1237
1237 1277 108 4
31 32 1278 1238
1238 1278 1279 1239
1239 1279 1280 1240
1240 1280 1281 1241
1241 1281 1282 1242
1242 1282 1283 1243
1243 1283 1284 1244
1244 1284 1285 1245
1245 1285 1286 1246
1246 1286 1287 1247
1247 1287 1288 1248
1248 1288 1289 1249
1249 1289 1290 1250
1250 1290 1291 1251
1251 1291 1292 1252
1252 1292 1293 1253
1253 1293 1294 1254
1254 1294 1295 1255
1255 1295 1296 1256
1256 1296 1297 1257
1257 1297 1298 1258
1258 1298 1299 1259
1259 1299 1300 1260
1260 1300 1301 1261
1261 1301 1302 1262
1262 1302 1303 1263
1263 1303 1304 1264
1264 1304 1305 1265
1265 1305 1306 1266
1266 1306 1307 1267
1267 1307 1308 1268
1268 1308 1309 1269
1269 1309 1310 1270
1270 1310 1311 1271
1271 1311 1312 1272
1272 1312 1313 1273
1273 1313 1314 1274
1274 1314 1315 1275
1275 1315 1316 1276
1276 1316 1317 1277
1277 1317 109 108
32 33 1318 1278
1278 1318 1319 1279
1279 1319 1320 1280
1280 1320 1321 1281
1281 1321 1322 1282
1282 1322 1323 1283
1283 1323 1324 1284
1284 1324 1325 1285
1285 1325 1326 1286
1286 1326 1327 1287
1287 1327 1328 1288
1288 1328 1329 1289
1289 1329 1330 1290
1290 1330 1331 1291
1291 1331 1332 1292
1292 1332 1333 1293
1293 1333 1334 1294
1294 1334 1335 1295
1295 1335 1336 1296
1296 1336 1337 1297
1297 1337 1338 1298
1298 1338 1339 1299
1299 1339 1340 1300
1300 1340 1341 1301
1301 1341 1342 1302
1302 1342 1343 1303
1303 1343 1344 1304
1304 1344 1345 1305
1305 1345 1346 1306
1306 1346 1347 1307
1307 1347 1348 1308
1308 1348 1349 1309
1309 1349 1350 1310
1310 1350 1351 1311
1311 1351 1352 1312
1312 1352 1353 1313
1313 1353 1354 1314
1314 1354 1355 1315
1315 1355 1356 1316
1316 1356 1357 1317
1317 1357 110 109
33 34 1358 1318
1318 1358 1359 1319
1319 1359 1360 1320
1320 1360 1361 1321
1321 1361 1362 1322
1322 1362 1363 1323
1323 1363 1364 1324
1324 1364 1365 1325
1325 1365 1366 1326
1326 1366 1367 1327
1327 1367 1368 1328
1328 1368 1369 1329
1329 1369 1370 1330
1330 1370 1371 1331
1331 1371 1372 1332
1332 1372 1373 1333
1333 1373 1374 1334
1334 1374 1375 1335
1335 1375 1376 1336
1336 1376 1377 1337
1337 1377 1378 1338
1338 1378 1379 1339
1339 1379 1380 1340
1340 1380 1381 1341
1341 1381 1382 1342
1342 1382 1383 1343
1343 1383 1384 1344
1344 1384 1385 1345
1345 1385 1386 1346
1346 1386 1387 1347
1347 1387 1388 1348
1348 1388 1389 1349
1349 1389 1390 1350
1350 1390 1391 1351
1351 1391 1392 1352
1352 1392 1393 1353
1353 1393 1394 1354
1354 1394 1395 1355
1355 1395 1396 1356
1356 1396 1397 1357
1357 1397 111 110
34 35 1398 1358
1358 1398 1399 1359
1359 1399 1400 1360
1360 1400 1401 1361
1361 1401 1402 1362
1362 1402 1403 1363
1363 1403 1404 1364
1364 1404 1405 1365
1365 1405 1406 1366
1366 1406 1407 1367
1367 1407 1408 1368
1368 1408 1409 1369
1369 1409 1410 1370
1370 1410 1411 1371
1371 1411 1412 1372
1372 1412 1413 1373
1373 1413 1414 1374
1374 1414 1415 1375
1375 1415 1416 1376
1376 1416 1417 1377
1377 1417 1418 1378
1378 1418 1419 1379
1379 1419 1420 1380
1380 1420 1421 1381
1381 1421 1422 1382
1382 1422 1423 1383
1383 1423 1424 1384
1384 1424 1425 1385
1385 1425 1426 1386
1386 1426 1427 1387
1387 1427 1428 1388
1388 1428 1429 1389
1389 1429 1430 1390
1390 1430 1431 1391
1391 1431 1432 1392
1392 1432 1433 1393
1393 1433 1434 1394
1394 1434 1435 1395
1395 1435 1436 1396
1396 1436 1437 1397
1397 1437 112 111
35 36 1438 1398
1398 1438 1439 1399
1399 1439 1440 1400
1400 1440 1441 1401
1401 1441 1442 1402
1402 1442 1443 1403
1403 1443 1444 1404
1404 1444 1445 1405
1405 1445 1446 1406
1406 1446 1447 1407
1407 1447 1448 1408
1408 1448 1449 1409
1409 1449 1450 1410
1410 1450 1451 1411
1411 1451 1452 1412
1412 1452 1453 1413
1413 1453 1454 1414
1414 1454 1455 1415
1415 1455 1456 1416
1416 1456 1457 1417
1417 1457 1458 1418
1418 1458 1459 1419
1419 1459 1460 1420
1420 1460 1461 1421
1421 1461 1462 1422
1422 1462 1463 1423
1423 1463 1464 1424
1424 1464 1465 1425
1425 1465 1466 1426
1426 1466 1467 1427
1427 1467 1468 1428
1428 1468 1469 1429
1429 1469 1470 1430
1430 1470 1471 1431
1431 1471 1472 1432
1432 1472 1473 1433
1433 1473 1474 1434
1434 1474 1475 1435
1435 1475 1476 1436
1436 1476 1477 1437
1437 1477 113 112
36 37 1478 1438
1438 1478 1479 1439
1439 1479 1480 1440
1440 1480 1481 1441
1441 1481 1482 1442
1442 1482 1483 1443
1443 1483 1484 1444
1444 1484 1485 1445
1445 1485 1486 1446
1446 1486 1487 1447
1447 1487 1488 1448
1448 1488 1489 1449
1449 1489 1490 1450
1450 1490 1491 1451
1451 1491 1492 1452
1452 1492 1493 1453
1453 1493 1494 1454
1454 1494 1495 1455
1455 1495 1496 1456
1456 1496 1497 1457
1457 1497 1498 1458
1458 1498 1499 1459
1459 1499 1500 1460
1460 1500 1501 1461
1461 1501 1502 1462
1462 1502 1503 1463
1463 1503 1504 1464
1464 1504 1505 1465
1465 1505 1506 1466
1466 1506 1507 1467
1467 1507 1508 1468
1468 1508 1509 1469
1469 1509 1510 1470
1470 1510 1511 1471
1471 1511 1512 1472
1472 1512 1513 1473
1473 1513 1514 1474
1474 1514 1515 1475
1475 1515 1516 1476
1476 1516 1517 1477
1477 1517 114 113
37 38 1518 1478
1478 1518 1519 1479
1479 1519 1520 1480
1480 1520 1521 1481
1481 1521 1522 1482
1482 1522 1523 1483
1483 1523 1524 1484
1484 1524 1525 1485
1485 1525 1526 1486
1486 1526 1527 1487
1487 1527 1528 1488
1488 1528 1529 1489
1489 1529 1530 1490
1490 1530 1531 1491
1491 1531 1532 1492
1492 1532 1533 1493
1493 1533 1534 1494
1494 1534 1535 1495
1495 1535 1536 1496
1496 1536 1537 1497
1497 1537 1538 1498
1498 1538 1539 1499
1499 1539 1540 1500
1500 1540 1541 1501
1501 1541 1542 1502
1502 1542 1543 1503
1503 1543 1544 1504
1504 1544 1545 1505
1505 1545 1546 1506
1506 1546 1547 1507
1507 1547 1548 1508
1508 1548 1549 1509
1509 1549 1550 1510
1510 1550 1551 1511
1511 1551 1552 1512
1512 1552 1553 1513
1513 1553 1554 1514
1514 1554 1555 1515
1515 1555 1556 1516
1516 1556 1557 1517
1517 1557 115 114
38 39 1558 1518
1518 1558 1559 1519
1519 1559 1560 1520
1520 1560 1561 1521
1521 1561 1562 1522
1522 1562 1563 1523
1523 1563 1564 1524
1524 1564 1565 1525
1525 1565 1566 1526
1526 1566 1567 1527
1527 1567 1568 1528
1528 1568 1569 1529
1529 1569 1570 1530
1530 1570 1571 1531
1531 1571 1572 1532
1532 1572 1573 1533
1533 1573 1574 1534
1534 1574 1575 1535
1535 1575 1576 1536
1536 1576 1577 1537
1537 1577 1578 1538
1538 1578 1579 1539
1539 1579 1580 1540
1540 1580 1581 1541
1541 1581 1582 1542
1542 1582 1583 1543
1543 1583 1584 1544
1544 1584 1585 1545
1545 1585 1586 1546
1546 1586 1587 1547
1547 1587 1588 1548
1548 1588 1589 1549
1549 1589 1590 1550
1550 1590 1591 1551
1551 1591 1592 1552
1552 1592 1593 1553
1553 1593 1594 1554
1554 1594 1595 1555
1555 1595 1596 1556
1556 1596 1597 1557
1557 1597 116 115
39 40 1598 1558
1558 1598 1599 1559
1559 1599 1600 1560
1560 1600 1601 1561
1561 1601 1602 1562
1562 1602 1603 1563
1563 1603 1604 1564
1564 1604 1605 1565
1565 1605 1606 1566
1566 1606 1607 1567
1567 1607 1608 1568
1568 1608 1609 1569
1569 1609 1610 1570
1570 1610 1611 1571
1571 1611 1612 1572
1572 1612 1613 1573
1573 1613 1614 1574
1574 1614 1615 1575
1575 1615 1616 1576
1576 1616 1617 1577
1577 1617 1618 1578
1578 1618 1619 1579
1579 1619 1620 1580
1580 1620 1621 1581
1581 1621 1622 1582
1582 1622 1623 1583
1583 1623 1624 1584
1584 1624 1625 1585
1585 1625 1626 1586
1586 1626 1627 1587
1587 1627 1628 1588
1588 1628 1629 1589
1589 1629 1630 1590
1590 1630 1631 1591
1591 1631 1632 1592
1592 1632 1633 1593
1593 1633 1634 1594
1594 1634 1635 1595
1595 1635 1636 1596
1596 1636 1637 1597
1597 1637 117 116
40 41 1638 1598
1598 1638 1639 1599
1599 1639 1640 1600
1600 1640 1641 1601
1601 1641 1642 1602
1602 1642 1643 1603
1603 1643 1644 1604
1604 1644 1645 1605
1605 1645 1646 1606
1606 1646 1647 1607
1607 1647 1648 1608
1608 1648 1649 1609
1609 1649 1650 1610
1610 1650 1651 1611
1611 1651 1652 1612
1612 1652 1653 1613
1613 1653 1654 1614
1614 1654 1655 1615
1615 1655 1656 1616
1616 1656 1657 1617
1617 1657 1658 1618
1618 1658 1659 1619
1619 1659 1660 1620
1620 1660 1661 1621
1621 1661 1662 1622
1622 1662 1663 1623
1623 1663 1664 1624
1624 1664 1665 1625
1625 1665 1666 1626
1626 1666 1667 1627
1627 1667 1668 1628
1628 1668 1669 1629
1629 1669 1670 1630
1630 1670 1671 1631
1631 1671 1672 1632
1632 1672 1673 1633
1633 1673 1674 1634
1634 1674 1675 1635
1635 1675 1676 1636
1636 1676 1677 1637
1637 1677 118 117
41 42 1678 1638
1638 1678 1679 1639
1639 1679 1680 1640
1640 1680 1681 1641
1641 1681 1682 1642
1642 1682 1683 1643
1643 1683 1684 1644
1644 1684 1685 1645
1645 1685 1686 1646
1646 1686 1687 1647
1647 1687 1688 1648
1648 1688 1689 1649
1649 1689 1690 1650
1650 1690 1691 1651
1651 1691 1692 1652
1652 1692 1693 1653
1653 1693 1694 1654
1654 1694 1695 1655
1655 1695 1696 1656
1656 1696 1697 1657
1657 1697 1698 1658
1658 1698 1699 1659
1659 1699 1700 1660
1660 1700 1701 1661
1661 1701 1702 1662
1662 1702 1703 1663
1663 1703 1704 1664
1664 1704 1705 1665
1665 1705 1706 1666
1666 1706 1707 1667
1667 1707 1708 1668
1668 1708 1709 1669
1669 1709 1710 1670
1670 1710 1711 1671
1671 1711 1712 1672
1672 1712 1713 1673
1673 1713 1714 1674
1674 1714 1715 1675
1675 1715 1716 1676
1676 1716 1717 1677
1677 1717 119 118
42 43 1718 1678
1678 1718 1719 1679
1679 1719 1720 1680
1680 1720 1721 1681
1681 1721 1722 1682
1682 1722 1723 1683
1683 1723 1724 1684
1684 1724 1725 1685
1685 1725 1726 1686
1686 1726 1727 1687
1687 1727 1728 1688
1688 1728 1729 1689
1689 1729 1730 1690
1690 1730 1731 1691
1691 1731 1732 1692
1692 1732 1733 1693
1693 1733 1734 1694
1694 1734 1735 1695
1695 1735 1736 1696
1696 1736 1737 1697
1697 1737 1738 1698
1698 1738 1739 1699
1699 1739 1740 1700
1700 1740 1741 1701
1701 1741 1742 1702
1702 1742 1743 1703
1703 1743 1744 1704
1704 1744 1745 1705
1705 1745 1746 1706
1706 1746 1747 1707
1707 1747 1748 1708
1708 1748 1749 1709
1709 1749 1750 1710
1710 1750 1751 1711
1711 1751 1752 1712
1712 1752 1753 1713
1713 1753 1754 1714
1714 1754 1755 1715
1715 1755 1756 1716
1716 1756 1757 1717
1717 1757 120 119
43 44 1758 1718
1718 1758 1759 1719
1719 1759 1760 1720
1720 1760 1761 1721
1721 1761 1762 1722
1722 1762 1763 1723
1723 1763 1764 1724
1724 1764 1765 1725
1725 1765 1766 1726
1726 1766 1767 1727
1727 1767 1768 1728
1728 1768 1769 1729
1729 1769 1770 1730
1730 1770 1771 1731
1731 1771 1772 1732
1732 1772 1773 1733
1733 1773 1774 1734
1734 1774 1775 1735
1735 1775 1776 1736
1736 1776 1777 1737
1737 1777 1778 1738
1738 1778 1779 1739
1739 1779 1780 1740
1740 1780 1781 1741
1741 1781 1782 1742
1742 1782 1783 1743
1743 1783 1784 1744
1744 1784 1785 1745
1745 1785 1786 1746
1746 1786 1787 1747
1747 1787 1788 1748
1748 1788 1789 1749
1749 1789 1790 1750
1750 1790 1791 1751
1751 1791 1792 1752
1752 1792 1793 1753
1753 1793 1794 1754
1754 1794 1795 1755
1755 1795 1796 1756
1756 1796 1797 1757
1757 1797 121 120
44 45 1798 1758
1758 1798 1799 1759
1759 1799 1800 1760
1760 1800 1801 1761
1761 1801 1802 1762
1762 1802 1803 1763
1763 1803 1804 1764
1764 1804 1805 1765
1765 1805 1806 1766
1766 1806 1807 1767
1767 1807 1808 1768
1768 1808 1809 1769
1769 1809 1810 1770
1770 1810 1811 1771
1771 1811 1812 1772
1772 1812 1813 1773
1773 1813 1814 1774
1774 1814 1815 1775
1775 1815 1816 1776
1776 1816 1817 1777
1777 1817 1818 1778
1778 1818 1819 1779
1779 1819 1820 1780
1780 1820 1821 1781
1781 1821 1822 1782
1782 1822 1823 1783
1783 1823 1824 1784
1784 1824 1825 1785
1785 1825 1826 1786
1786 1826 1827 1787
1787 1827 1828 1788
1788 1828 1829 1789
1789 1829 1830 1790
1790 1830 1831 1791
1791 1831 1832 1792
1792 1832 1833 1793
1793 1833 1834 1794
1794 1834 1835 1795
1795 1835 1836 1796
1796 1836 1837 1797
1797 1837 122 121
45 46 1838 1798
1798 1838 1839 1799
1799 1839 1840 1800
1800 1840 1841 1801
1801 1841 1842 1802
1802 1842 1843 1803
1803 1843 1844 1804
1804 1844 1845 1805
1805 1845 1846 1806
1806 1846 1847 1807
1807 1847 1848 1808
1808 1848 1849 1809
1809 1849 1850 1810
1810 1850 1851 1811
1811 1851 1852 1812
1812 1852 1853 1813
1813 1853 1854 1814
1814 1854 1855 1815
1815 1855 1856 1816
1816 1856 1857 1817
1817 1857 1858 1818
1818 1858 1859 1819
1819 1859 1860 1820
1820 1860 1861 1821
1821 1861 1862 1822
1822 1862 1863 1823
1823 1863 1864 1824
1824 1864 1865 1825
1825 1865 1866 1826
1826 1866 1867 1827
1827 1867 1868 1828
1828 1868 1869 1829
1829 1869 1870 1830
1830 1870 1871 1831
1831 1871 1872 1832
1832 1872 1873 1833
1833 1873 1874 1834
1834 1874 1875 1835
1835 1875 1876 1836
1836 1876 1877 1837
1837 1877 123 122
46 47 1878 1838
1838 1878 1879 1839
1839 1879 1880 1840
1840 1880 1881 1841
1841 1881 1882 1842
1842 1882 1883 1843
1843 1883 1884 1844
1844 1884 1885 1845
1845 1885 1886 1846
1846 1886 1887 1847
1847 1887 1888 1848
1848 1888 1889 1849
1849 1889 1890 1850
1850 1890 1891 1851
1851 1891 1892 1852
1852 1892 1893 1853
1853 1893 1894 1854
1854 1894 1895 1855
1855 1895 1896 1856
1856 1896 1897 1857
1857 1897 1898 1858
1858 1898 1899 1859
1859 1899 1900 1860
1860 1900 1901 1861
1861 1901 1902 1862
1862 1902 1903 1863
1863 1903 1904 1864
1864 1904 1905 1865
1865 1905 1906 1866
1866 1906 1907 1867
1867 1907 1908 1868
1868 1908 1909 1869
1869 1909 1910 1870
1870 1910 1911 1871
1871 1911 1912 1872
1872 1912 1913 1873
1873 1913 1914 1874
1874 1914 1915 1875
1875 1915 1916 1876
1876 1916 1917 1877
1877 1917 124 123
47 48 1918 1878
1878 1918 1919 1879
1879 1919 1920 1880
1880 1920 1921 1881
1881 1921 1922 1882
1882 1922 1923 1883
1883 1923 1924 1884
1884 1924 1925 1885
1885 1925 1926 1886
1886 1926 1927 1887
1887 1927 1928 1888
1888 1928 1929 1889
1889 1929 1930 1890
1890 1930 1931 1891
1891 1931 1932 1892
1892 1932 1933 1893
1893 1933 1934 1894
1894 1934 1935 1895
1895 1935 1936 1896
1896 1936 1937 1897
1897 1937 1938 1898
1898 1938 1939 1899
1899 1939 1940 1900
1900 1940 1941 1901
1901 1941 1942 1902
1902 1942 1943 1903
1903 1943 1944 1904
1904 1944 1945 1905
1905 1945 1946 1906
1906 1946 1947 1907
1907 1947 1948 1908
1908 1948 1949 1909
1909 1949 1950 1910
1910 1950 1951 1911
1911 1951 1952 1912
1912 1952 1953 1913
1913 1953 1954 1914
1914 1954 1955 1915
1915 1955 1956 1916
1916 1956 1957 1917
1917 1957 125 124
48 49 1958 1918
1918 1958 1959 1919
1919 1959 1960 1920
1920 1960 1961 1921
1921 1961 1962 1922
1922 1962 1963 1923
1923 1963 1964 1924
1924 1964 1965 1925
1925 1965 1966 1926
1926 1966 1967 1927
1927 1967 1968 1928
1928 1968 1969 1929
1929 1969 1970 1930
1930 1970 1971 1931
1931 1971 1972 1932
1932 1972 1973 1933
1933 1973 1974 1934
1934 1974 1975 1935
1935 1975 1976 1936
1936 1976 1977 1937
1937 1977 1978 1938
1938 1978 1979 1939
1939 1979 1980 1940
1940 1980 1981 1941
1941 1981 1982 1942
1942 1982 1983 1943
1943 1983 1984 1944
1944 1984 1985 1945
1945 1985 1986 1946
1946 1986 1987 1947
1947 1987 1988 1948
1948 1988 1989 1949
1949 1989 1990 1950
1950 1990 1991 1951
1951 1991 1992 1952
1952 1992 1993 1953
1953 1993 1994 1954
1954 1994 1995 1955
1955 1995 1996 1956
1956 1996 1997 1957
1957 1997 126 125
49 1 1998 1958
1958 1998 1999 1959
1959 1999 2000 1960
1960 2000 2001 1961
1961 2001 2002 1962
1962 2002 2003 1963
1963 2003 2004 1964
1964 2004 2005 1965
1965 2005 2006 1966
1966 2006 2007 1967
1967 2007 2008 1968
1968 2008 2009 1969
1969 2009 2010 1970
1970 2010 2011 1971
1971 2011 2012 1972
1972 2012 2013 1973
1973 2013 2014 1974
1974 2014 2015 1975
1975 2015 2016 1976
1976 2016 2017 1977
1977 2017 2018 1978
1978 2018 2019 1979
1979 2019 2020 1980
1980 2020 2021 1981
1981 2021 2022 1982
1982 2022 2023 1983
1983 2023 2024 1984
1984 2024 2025 1985
1985 2025 2026 1986
1986 2026 2027 1987
1987 2027 2028 1988
1988 2028 2029 1989
1989 2029 2030 1990
1990 2030 2031 1991
1991 2031 2032 1992
1992 2032 2033 1993
1993 2033 2034 1994
1994 2034 2035 1995
1995 2035 2036 1996
1996 2036 2037 1997
1997 2037 127 126
1 50 2038 1998
1998 2038 2039 1999
1999 2039 2040 2000
2000 2040 2041 2001
2001 2041 2042 2002
2002 2042 2043 2003
2003 2043 2044 2004
2004 2044 2045 2005
2005 2045 2046 2006
2006 2046 2047 2007
2007 2047 2048 2008
2008 2048 2049 2009
2009 2049 2050 2010
2010 2050 2051 2011
2011 2051 2052 2012
2012 2052 2053 2013
2013 2053 2054 2014
2014 2054 2055 2015
2015 2055 2056 2016
2016 2056 2057 2017
2017 2057 2058 2018
2018 2058 2059 2019
2019 2059 2060 2020
2020 2060 2061 2021
2021 2061 2062 2022
2022 2062 2063 2023
2023 2063 2064 2024
2024 2064 2065 2025
2025 2065 2066 2026
2026 2066 2067 2027
2027 2067 2068 2028
2028 2068 2069 2029
2029 2069 2070 2030
2030 2070 2071 2031
2031 2071 2072 2032
2032 2072 2073 2033
2033 2073 2074 2034
2034 2074 2075 2035
2035 2075 2076 2036
2036 2076 2077 2037
2037 2077 128 127
50 51 2078 2038
2038 2078 2079 2039
2039 2079 2080 2040
2040 2080 2081 2041
2041 2081 2082 2042
2042 2082 2083 2043
2043 2083 2084 2044
2044 2084 2085 2045
2045 2085 2086 2046
2046 2086 2087 2047
2047 2087 2088 2048
2048 2088 2089 2049
2049 2089 2090 2050
2050 2090 2091 2051
2051 2091 2092 2052
2052 2092 2093 2053
2053 2093 2094 2054
2054 2094 2095 2055
2055 2095 2096 2056
2056 2096 2097 2057
2057 2097 2098 2058
2058 2098 2099 2059
2059 2099 2100 2060
2060 2100 2101 2061
2061 2101 2102 2062
2062 2102 2103 2063
2063 2103 2104 2064
2064 2104 2105 2065
2065 2105 2106 2066
2066 2106 2107 2067
2067 2107 2108 2068
2068 2108 2109 2069
2069 2109 2110 2070
2070 2110 2111 2071
2071 2111 2112 2072
2072 2112 2113 2073
2073 2113 2114 2074
2074 2114 2115 2075
2075 2115 2116 2076
2076 2116 2117 2077
2077 2117 129 128
51 52 2118 2078
2078 2118 2119 2079
2079 2119 2120 2080
2080 2120 2121 2081
2081 2121 2122 2082
2082 2122 2123 2083
2083 2123 2124 2084
2084 2124 2125 2085
2085 2125 2126 2086
2086 2126 2127 2087
2087 2127 2128 2088
2088 2128 2129 2089
2089 2129 2130 2090
2090 2130 2131 2091
2091 2131 2132 2092
2092 2132 2133 2093
2093 2133 2134 2094
2094 2134 2135 2095
2095 2135 2136 2096
2096 2136 2137 2097
2097 2137 2138 2098
2098 2138 2139 2099
2099 2139 2140 2100
2100 2140 2141 2101
2101 2141 2142 2102
2102 2142 2143 2103
2103 2143 2144 2104
2104 2144 2145 2105
2105 2145 2146 2106
2106 2146 2147 2107
2107 2147 2148 2108
2108 2148 2149 2109
2109 2149 2150 2110
2110 2150 2151 2111
2111 2151 2152 2112
2112 2152 2153 2113
2113 2153 2154 2114
2114 2154 2155 2115
2115 2155 2156 2116
2116 2156 2157 2117
2117 2157 130 129
52 53 2158 2118
2118 2158 2159 2119
2119 2159 2160 2120
2120 2160 2161 2121
2121 2161 2162 2122
2122 2162 2163 2123
2123 2163 2164 2124
2124 2164 2165 2125
2125 2165 2166 2126
2126 2166 2167 2127
2127 2167 2168 2128
2128 2168 2169 2129
2129 2169 2170 2130
2130 2170 2171 2131
2131 2171 2172 2132
2132 2172 2173 2133
2133 2173 2174 2134
2134 2174 2175 2135
2135 2175 2176 2136
2136 2176 2177 2137
2137 2177 2178 2138
2138 2178 2179 2139
2139 2179 2180 2140
2140 2180 2181 2141
2141 2181 2182 2142
2142 2182 2183 2143
2143 2183 2184 2144
2144 2184 2185 2145
2145 2185 2186 2146
2146 2186 2187 2147
2147 2187 2188 2148
2148 2188 2189 2149
2149 2189 2190 2150
2150 2190 2191 2151
2151 2191 2192 2152
2152 2192 2193 2153
2153 2193 2194 2154
2154 2194 2195 2155
2155 2195 2196 2156
2156 2196 2197 2157
2157 2197 131 130
53 54 2198 2158
2158 2198 2199 2159
2159 2199 2200 2160
2160 2200 2201 2161
2161 2201 2202 2162
2162 2202 2203 2163
2163 2203 2204 2164
2164 2204 2205 2165
2165 2205 2206 2166
2166 2206 2207 2167
2167 2207 2208 2168
2168 2208 2209 2169
2169 2209 2210 2170
2170 2210 2211 2171
2171 2211 2212 2172
2172 2212 2213 2173
2173 2213 2214 2174
2174 2214 2215 2175
2175 2215 2216 2176
2176 2216 2217 2177
2177 2217 2218 2178
2178 2218 2219 2179
2179 2219 2220 2180
2180 2220 2221 2181
2181 2221 2222 2182
2182 2222 2223 2183
2183 2223 2224 2184
2184 2224 2225 2185
2185 2225 2226 2186
2186 2226 2227 2187
2187 2227 2228 2188
2188 2228 2229 2189
2189 2229 2230 2190
2190 2230 2231 2191
2191 2231 2232 2192
2192 2232 2233 2193
2193 2233 2234 2194
2194 2234 2235 2195
2195 2235 2236 2196
2196 2236 2237 2197
2197 2237 132 131
54 55 2238 2198
2198 2238 2239 2199
2199 2239 2240 2200
2200 2240 2241 2201
2201 2241 2242 2202
2202 2242 2243 2203
2203 2243 2244 2204
2204 2244 2245 2205
2205 2245 2246 2206
2206 2246 2247 2207
2207 2247 2248 2208
2208 2248 2249 2209
2209 2249 2250 2210
2210 2250 2251 2211
2211 2251 2252 2212
2212 2252 2253 2213
2213 2253 2254 2214
2214 2254 2255 2215
2215 2255 2256 2216
2216 2256 2257 2217
2217 2257 2258 2218
2218 2258 2259 2219
2219 2259 2260 2220
2220 2260 2261 2221
2221 2261 2262 2222
2222 2262 2263 2223
2223 2263 2264 2224
2224 2264 2265 2225
2225 2265 2266 2226
2226 2266 2267 2227
2227 2267 2268 2228
2228 2268 2269 2229
2229 2269 2270 2230
2230 2270 2271 2231
2231 2271 2272 2232
2232 2272 2273 2233
2233 2273 2274 2234
2234 2274 2275 2235
2235 2275 2276 2236
2236 2276 2277 2237
2237 2277 133 132
55 56 2278 2238
2238 2278 2279 2239
2239 2279 2280 2240
2240 2280 2281 2241
2241 2281 2282 2242
2242 2282 2283 2243
2243 2283 2284 2244
2244 2284 2285 2245
2245 2285 2286 2246
2246 2286 2287 2247
2247 2287 2288 2248
2248 2288 2289 2249
2249 2289 2290 2250
2250 2290 2291 2251
2251 2291 2292 2252
2252 2292 2293 2253
2253 2293 2294 2254
2254 2294 2295 2255
2255 2295 2296 2256
2256 2296 2297 2257
2257 2297 2298 2258
2258 2298 2299 2259
2259 2299 2300 2260
2260 2300 2301 2261
2261 2301 2302 2262
2262 2302 2303 2263
2263 2303 2304 2264
2264 2304 2305 2265
2265 2305 2306 2266
2266 2306 2307 2267
2267 2307 2308 2268
2268 2308 2309 2269
2269 2309 2310 2270
2270 2310 2311 2271
2271 2311 2312 2272
2272 2312 2313 2273
2273 2313 2314 2274
2274 2314 2315 2275
2275 2315 2316 2276
2276 2316 2317 2277
2277 2317 134 133
56 57 2318 2278
2278 2318 2319 2279
2279 2319 2320 2280
2280 2320 2321 2281
2281 2321 2322 2282
2282 2322 2323 2283
2283 2323 2324 2284
2284 2324 2325 2285
2285 2325 2326 2286
2286 2326 2327 2287
2287 2327 2328 2288
2288 2328 2329 2289
2289 2329 2330 2290
2290 2330 2331 2291
2291 2331 2332 2292
2292 2332 2333 2293
2293 2333 2334 2294
2294 2334 2335 2295
2295 2335 2336 2296
2296 2336 2337 2297
2297 2337 2338 2298
2298 2338 2339 2299
2299 2339 2340 2300
2300 2340 2341 2301
2301 2341 2342 2302
2302 2342 2343 2303
2303 2343 2344 2304
2304 2344 2345 2305
2305 2345 2346 2306
2306 2346 2347 2307
2307 2347 2348 2308
2308 2348 2349 2309
2309 2349 2350 2310
2310 2350 2351 2311
2311 2351 2352 2312
2312 2352 2353 2313
2313 2353 2354 2314
2314 2354 2355 2315
2315 2355 2356 2316
2316 2356 2357 2317
2317 2357 135 134
57 58 2358 2318
2318 2358 2359 2319
2319 2359 2360 2320
2320 2360 2361 2321
2321 2361 2362 2322
2322 2362 2363 2323
2323 2363 2364 2324
2324 2364 2365 2325
2325 2365 2366 2326
2326 2366 2367 2327
2327 2367 2368 2328
2328 2368 2369 2329
2329 2369 2370 2330
2330 2370 2371 2331
2331 2371 2372 2332
2332 2372 2373 2333
2333 2373 2374 2334
2334 2374 2375 2335
2335 2375 2376 2336
2336 2376 2377 2337
2337 2377 2378 2338
2338 2378 2379 2339
2339 2379 2380 2340
2340 2380 2381 2341
2341 2381 2382 2342
2342 2382 2383 2343
2343 2383 2384 2344
2344 2384 2385 2345
2345 2385 2386 2346
2346 2386 2387 2347
2347 2387 2388 2348
2348 2388 2389 2349
2349 2389 2390 2350
2350 2390 2391 2351
2351 2391 2392 2352
2352 2392 2393 2353
2353 2393 2394 2354
2354 2394 2395 2355
2355 2395 2396 2356
2356 2396 2397 2357
2357 2397 136 135
58 59 2398 2358
2358 2398 2399 2359
2359 2399 2400 2360
2360 2400 2401 2361
2361 2401 2402 2362
2362 2402 2403 2363
2363 2403 2404 2364
2364 2404 2405 2365
2365 2405 2406 2366
2366 2406 2407 2367
2367 2407 2408 2368
2368 2408 2409 2369
2369 2409 2410 2370
2370 2410 2411 2371
2371 2411 2412 2372
2372 2412 2413 2373
2373 2413 2414 2374
2374 2414 2415 2375
2375 2415 2416 2376
2376 2416 2417 2377
2377 2417 2418 2378
2378 2418 2419 2379
2379 2419 2420 2380
2380 2420 2421 2381
2381 2421 2422 2382
2382 2422 2423 2383
2383 2423 2424 2384
2384 2424 2425 2385
2385 2425 2426 2386
2386 2426 2427 2387
2387 2427 2428 2388
2388 2428 2429 2389
2389 2429 2430 2390
2390 2430 2431 2391
2391 2431 2432 2392
2392 2432 2433 2393
2393 2433 2434 2394
2394 2434 2435 2395
2395 2435 2436 2396
2396 2436 2437 2397
2397 2437 137 136
59 60 2438 2398
2398 2438 2439 2399
2399 2439 2440 2400
2400 2440 2441 2401
2401 2441 2442 2402
2402 2442 2443 2403
2403 2443 2444 2404
2404 2444 2445 2405
2405 2445 2446 2406
2406 2446 2447 2407
2407 2447 2448 2408
2408 2448 2449 2409
2409 2449 2450 2410
2410 2450 2451 2411
2411 2451 2452 2412
2412 2452 2453 2413
2413 2453 2454 2414
2414 2454 2455 2415
2415 2455 2456 2416
2416 2456 2457 2417
2417 2457 2458 2418
2418 2458 2459 2419
2419 2459 2460 2420
2420 2460 2461 2421
2421 2461 2462 2422
2422 2462 2463 2423
2423 2463 2464 2424
2424 2464 2465 2425
2425 2465 2466 2426
2426 2466 2467 2427
2427 2467 2468 2428
2428 2468 2469 2429
2429 2469 2470 2430
2430 2470 2471 2431
2431 2471 2472 2432
2432 2472 2473 2433
2433 2473 2474 2434
2434 2474 2475 2435
2435 2475 2476 2436
2436 2476 2477 2437
2437 2477 138 137
60 61 2478 2438
2438 2478 2479 2439
2439 2479 2480 2440
2440 2480 2481 2441
2441 2481 2482 2442
2442 2482 2483 2443
2443 2483 2484 2444
2444 2484 2485 2445
2445 2485 2486 2446
2446 2486 2487 2447
2447 2487 2488 2448
2448 2488 2489 2449
2449 2489 2490 2450
2450 2490 2491 2451
2451 2491 2492 2452
2452 2492 2493 2453
2453 2493 2494 2454
2454 2494 2495 2455
2455 2495 2496 2456
2456 2496 2497 2457
2457 2497 2498 2458
2458 2498 2499 2459
2459 2499 2500 2460
2460 2500 2501 2461
2461 2501 2502 2462
2462 2502 2503 2463
2463 2503 2504 2464
2464 2504 2505 2465
2465 2505 2506 2466
2466 2506 2507 2467
2467 2507 2508 2468
2468 2508 2509 2469
2469 2509 2510 2470
2470 2510 2511 2471
2471 2511 2512 2472
2472 2512 2513 2473
2473 2513 2514 2474
2474 2514 2515 2475
2475 2515 2516 2476
2476 2516 2517 2477
2477 2517 139 138
61 62 2518 2478
2478 2518 2519 2479
2479 2519 2520 2480
2480 2520 2521 2481
2481 2521 2522 2482
2482 2522 2523 2483
2483 2523 2524 2484
2484 2524 2525 2485
2485 2525 2526 2486
2486 2526 2527 2487
2487 2527 2528 2488
2488 2528 2529 2489
2489 2529 2530 2490
2490 2530 2531 2491
2491 2531 2532 2492
2492 2532 2533 2493
2493 2533 2534 2494
2494 2534 2535 2495
2495 2535 2536 2496
2496 2536 2537 2497
2497 2537 2538 2498
2498 2538 2539 2499
2499 2539 2540 2500
2500 2540 2541 2501
2501 2541 2542 2502
2502 2542 2543 2503
2503 2543 2544 2504
2504 2544 2545 2505
2505 2545 2546 2506
2506 2546 2547 2507
2507 2547 2548 2508
2508 2548 2549 2509
2509 2549 2550 2510
2510 2550 2551 2511
2511 2551 2552 2512
2512 2552 2553 2513
2513 2553 2554 2514
2514 2554 2555 2515
2515 2555 2556 2516
2516 2556 2557 2517
2517 2557 140 139
62 63 2558 2518
2518 2558 2559 2519
2519 2559 2560 2520
2520 2560 2561 2521
2521 2561 2562 2522
2522 2562 2563 2523
2523 2563 2564 2524
2524 2564 2565 2525
2525 2565 2566 2526
2526 2566 2567 2527
2527 2567 2568 2528
2528 2568 2569 2529
2529 2569 2570 2530
2530 2570 2571 2531
2531 2571 2572 2532
2532 2572 2573 2533
2533 2573 2574 2534
2534 2574 2575 2535
2535 2575 2576 2536
2536 2576 2577 2537
2537 2577 2578 2538
2538 2578 2579 2539
2539 2579 2580 2540
2540 2580 2581 2541
2541 2581 2582 2542
2542 2582 2583 2543
2543 2583 2584 2544
2544 2584 2585 2545
2545 2585 2586 2546
2546 2586 2587 2547
2547 2587 2588 2548
2548 2588 2589 2549
2549 2589 2590 2550
2550 2590 2591 2551
2551 2591 2592 2552
2552 2592 2593 2553
2553 2593 2594 2554
2554 2594 2595 2555
2555 2595 2596 2556
2556 2596 2597 2557
2557 2597 141 140
63 64 2598 2558
2558 2598 2599 2559
2559 2599 2600 2560
2560 2600 2601 2561
2561 2601 2602 2562
2562 2602 2603 2563
2563 2603 2604 2564
2564 2604 2605 2565
2565 2605 2606 2566
2566 2606 2607 2567
2567 2607 2608 2568
2568 2608 2609 2569
2569 2609 2610 2570
2570 2610 2611 2571
2571 2611 2612 2572
2572 2612 2613 2573
2573 2613 2614 2574
2574 2614 2615 2575
2575 2615 2616 2576
2576 2616 2617 2577
2577 2617 2618 2578
2578 2618 2619 2579
2579 2619 2620 2580
2580 2620 2621 2581
2581 2621 2622 2582
2582 2622 2623 2583
2583 2623 2624 2584
2584 2624 2625 2585
2585 2625 2626 2586
2586 2626 2627 2587
2587 2627 2628 2588
2588 2628 2629 2589
2589 2629 2630 2590
2590 2630 2631 2591
2591 2631 2632 2592
2592 2632 2633 2593
2593 2633 2634 2594
2594 2634 2635 2595
2595 2635 2636 2596
2596 2636 2637 2597
2597 2637 142 141
64 65 2638 2598
2598 2638 2639 2599
2599 2639 2640 2600
2600 2640 2641 2601
2601 2641 2642 2602
2602 2642 2643 2603
2603 2643 2644 2604
2604 2644 2645 2605
2605 2645 2646 2606
2606 2646 2647 2607
2607 2647 2648 2608
2608 2648 2649 2609
2609 2649 2650 2610
2610 2650 2651 2611
2611 2651 2652 2612
2612 2652 2653 2613
2613 2653 2654 2614
2614 2654 2655 2615
2615 2655 2656 2616
2616 2656 2657 2617
2617 2657 2658 2618
2618 2658 2659 2619
2619 2659 2660 2620
2620 2660 2661 2621
2621 2661 2662 2622
2622 2662 2663 2623
2623 2663 2664 2624
2624 2664 2665 2625
2625 2665 2666 2626
2626 2666 2667 2627
2627 2667 2668 2628
2628 2668 2669 2629
2629 2669 2670 2630
2630 2670 2671 2631
2631 2671 2672 2632
2632 2672 2673 2633
2633 2673 2674 2634
2634 2674 2675 2635
2635 2675 2676 2636
2636 2676 2677 2637
2637 2677 143 142
65 66 2678 2638
2638 2678 2679 2639
2639 2679 2680 2640
2640 2680 2681 2641
2641 2681 2682 2642
2642 2682 2683 2643
2643 2683 2684 2644
2644 2684 2685 2645
2645 2685 2686 2646
2646 2686 2687 2647
2647 2687 2688 2648
2648 2688 2689 2649
2649 2689 2690 2650
2650 2690 2691 2651
2651 2691 2692 2652
2652 2692 2693 2653
2653 2693 2694 2654
2654 2694 2695 2655
2655 2695 2696 2656
2656 2696 2697 2657
2657 2697 2698 2658
2658 2698 2699 2659
2659 2699 2700 2660
2660 2700 2701 2661
2661 2701 2702 2662
2662 2702 2703 2663
2663 2703 2704 2664
2664 2704 2705 2665
2665 2705 2706 2666
2666 2706 2707 2667
2667 2707 2708 2668
2668 2708 2709 2669
2669 2709 2710 2670
2670 2710 2711 2671
2671 2711 2712 2672
2672 2712 2713 2673
2673 2713 2714 2674
2674 2714 2715 2675
2675 2715 2716 2676
2676 2716 2717 2677
2677 2717 144 143
66 67 2718 2678
2678 2718 2719 2679
2679 2719 2720 2680
2680 2720 2721 2681
2681 2721 2722 2682
2682 2722 2723 2683
2683 2723 2724 2684
2684 2724 2725 2685
2685 2725 2726 2686
2686 2726 2727 2687
2687 2727 2728 2688
2688 2728 2729 2689
2689 2729 2730 2690
2690 2730 2731 2691
2691 2731 2732 2692
2692 2732 2733 2693
2693 2733 2734 2694
2694 2734 2735 2695
2695 2735 2736 2696
2696 2736 2737 2697
2697 2737 2738 2698
2698 2738 2739 2699
2699 2739 2740 2700
2700 2740 2741 2701
2701 2741 2742 2702
2702 2742 2743 2703
2703 2743 2744 2704
2704 2744 2745 2705
2705 2745 2746 2706
2706 2746 2747 2707
2707 2747 2748 2708
2708 2748 2749 2709
2709 2749 2750 2710
2710 2750 2751 2711
2711 2751 2752 2712
2712 2752 2753 2713
2713 2753 2754 2714
2714 2754 2755 2715
2715 2755 2756 2716
2716 2756 2757 2717
2717 2757 145 144
67 68 2758 2718
2718 2758 2759 2719
2719 2759 2760 2720
2720 2760 2761 2721
2721 2761 2762 2722
2722 2762 2763 2723
2723 2763 2764 2724
2724 2764 2765 2725
2725 2765 2766 2726
2726 2766 2767 2727
2727 2767 2768 2728
2728 2768 2769 2729
2729 2769 2770 2730
2730 2770 2771 2731
2731 2771 2772 2732
2732 2772 2773 2733
2733 2773 2774 2734
2734 2774 2775 2735
2735 2775 2776 2736
2736 2776 2777 2737
2737 2777 2778 2738
2738 2778 2779 2739
2739 2779 2780 2740
2740 2780 2781 2741
2741 2781 2782 2742
2742 2782 2783 2743
2743 2783 2784 2744
2744 2784 2785 2745
2745 2785 2786 2746
2746 2786 2787 2747
2747 2787 2788 2748
2748 2788 2789 2749
2749 2789 2790 2750
2750 2790 2791 2751
2751 2791 2792 2752
2752 2792 2793 2753
2753 2793 2794 2754
2754 2794 2795 2755
2755 2795 2796 2756
2756 2796 2797 2757
2757 2797 146 145
68 69 2798 2758
2758 2798 2799 2759
2759 2799 2800 2760
2760 2800 2801 2761
2761 2801 2802 2762
2762 2802 2803 2763
2763 2803 2804 2764
2764 2804 2805 2765
2765 2805 2806 2766
2766 2806 2807 2767
2767 2807 2808 2768
2768 2808 2809 2769
2769 2809 2810 2770
2770 2810 2811 2771
2771 2811 2812 2772
2772 2812 2813 2773
2773 2813 2814 2774
2774 2814 2815 2775
2775 2815 2816 2776
2776 2816 2817 2777
2777 2817 2818 2778
2778 2818 2819 2779
2779 2819 2820 2780
2780 2820 2821 2781
2781 2821 2822 2782
2782 2822 2823 2783
2783 2823 2824 2784
2784 2824 2825 2785
2785 2825 2826 2786
2786 2826 2827 2787
2787 2827 2828 2788
2788 2828 2829 2789
2789 2829 2830 2790
2790 2830 2831 2791
2791 2831 2832 2792
2792 2832 2833 2793
2793 2833 2834 2794
2794 2834 2835 2795
2795 2835 2836 2796
2796 2836 2837 2797
2797 2837 5 146
69 70 2838 2798
2798 2838 2839 2799
2799 2839 2840 2800
2800 2840 2841 2801
2801 2841 2842 2802
2802 2842 2843 2803
2803 2843 2844 2804
2804 2844 2845 2805
2805 2845 2846 2806
2806 2846 2847 2807
2807 2847 2848 2808
2808 2848 2849 2809
2809 2849 2850 2810
2810 2850 2851 2811
2811 2851 2852 2812
2812 2852 2853 2813
2813 2853 2854 2814
2814 2854 2855 2815
2815 2855 2856 2816
2816 2856 2857 2817
2817 2857 2858 2818
2818 2858 2859 2819
2819 2859 2860 2820
2820 2860 2861 2821
2821 2861 2862 2822
2822 2862 2863 2823
2823 2863 2864 2824
2824 2864 2865 2825
2825 2865 2866 2826
2826 2866 2867 2827
2827 2867 2868 2828
2828 2868 2869 2829
2829 2869 2870 2830
2830 2870 2871 2831
2831 2871 2872 2832
2832 2872 2873 2833
2833 2873 2874 2834
2834 2874 2875 2835
2835 2875 2876 2836
2836 2876 2877 2837
2837 2877 147 5
70 71 2878 2838
2838 2878 2879 2839
2839 2879 2880 2840
2840 2880 2881 2841
2841 2881 2882 2842
2842 2882 2883 2843
2843 2883 2884 2844
2844 2884 2885 2845
2845 2885 2886 2846
2846 2886 2887 2847
2847 2887 2888 2848
2848 2888 2889 2849
2849 2889 2890 2850
2850 2890 2891 2851
2851 2891 2892 2852
2852 2892 2893 2853
2853 2893 2894 2854
2854 2894 2895 2855
2855 2895 2896 2856
2856 2896 2897 2857
2857 2897 2898 2858
2858 2898 2899 2859
2859 2899 2900 2860
2860 2900 2901 2861
2861 2901 2902 2862
2862 2902 2903 2863
2863 2903 2904 2864
2864 2904 2905 2865
2865 2905 2906 2866
2866 2906 2907 2867
2867 2907 2908 2868
2868 2908 2909 2869
2869 2909 2910 2870
2870 2910 2911 2871
2871 2911 2912 2872
2872 2912 2913 2873
2873 2913 2914 2874
2874 2914 2915 2875
2875 2915 2916 2876
2876 2916 2917 2877
2877 2917 148 147
71 72 2918 2878
2878 2918 2919 2879
2879 2919 2920 2880
2880 2920 2921 2881
2881 2921 2922 2882
2882 2922 2923 2883
2883 2923 2924 2884
2884 2924 2925 2885
2885 2925 2926 2886
2886 2926 2927 2887
2887 2927 2928 2888
2888 2928 2929 2889
2889 2929 2930 2890
2890 2930 2931 2891
2891 2931 2932 2892
2892 2932 2933 2893
2893 2933 2934 2894
2894 2934 2935 2895
2895 2935 2936 2896
2896 2936 2937 2897
2897 2937 2938 2898
2898 2938 2939 2899
2899 2939 2940 2900
2900 2940 2941 2901
2901 2941 2942 2902
2902 2942 2943 2903
2903 2943 2944 2904
2904 2944 2945 2905
2905 2945 2946 2906
2906 2946 2947 2907
2907 2947 2948 2908
2908 2948 2949 2909
2909 2949 2950 2910
2910 2950 2951 2911
2911 2951 2952 2912
2912 2952 2953 2913
2913 2953 2954 2914
2914 2954 2955 2915
2915 2955 2956 2916
2916 2956 2957 2917
2917 2957 149 148
72 73 2958 2918
2918 2958 2959 2919
2919 2959 2960 2920
2920 2960 2961 2921
2921 2961 2962 2922
2922 2962 2963 2923
2923 2963 2964 2924
2924 2964 2965 2925
2925 2965 2966 2926
2926 2966 2967 2927
2927 2967 2968 2928
2928 2968 2969 2929
2929 2969 2970 2930
2930 2970 2971 2931
2931 2971 2972 2932
2932 2972 2973 2933
2933 2973 2974 2934
2934 2974 2975 2935
2935 2975 2976 2936
2936 2976 2977 2937
2937 2977 2978 2938
2938 2978 2979 2939
2939 2979 2980 2940
2940 2980 2981 2941
2941 2981 2982 2942
2942 2982 2983 2943
2943 2983 2984 2944
2944 2984 2985 2945
2945 2985 2986 2946
2946 2986 2987 2947
2947 2987 2988 2948
2948 2988 2989 2949
2949 2989 2990 2950
2950 2990 2991 2951
2951 2991 2992 2952
2952 2992 2993 2953
2953 2993 2994 2954
2954 2994 2995 2955
2955 2995 2996 2956
2956 2996 2997 2957
2957 2997 150 149
73 74 2998 2958
2958 2998 2999 2959
2959 2999 3000 2960
2960 3000 3001 2961
2961 3001 3002 2962
2962 3002 3003 2963
2963 3003 3004 2964
2964 3004 3005 2965
2965 3005 3006 2966
2966 3006 3007 2967
2967 3007 3008 2968
2968 3008 3009 2969
2969 3009 3010 2970
2970 3010 3011 2971
2971 3011 3012 2972
2972 3012 3013 2973
2973 3013 3014 2974
2974 3014 3015 2975
2975 3015 3016 2976
2976 3016 3017 2977
2977 3017 3018 2978
2978 3018 3019 2979
2979 3019 3020 2980
2980 3020 3021 2981
2981 3021 3022 2982
2982 3022 3023 2983
2983 3023 3024 2984
2984 3024 3025 2985
2985 3025 3026 2986
2986 3026 3027 2987
2987 3027 3028 2988
2988 3028 3029 2989
2989 3029 3030 2990
2990 3030 3031 2991
2991 3031 3032 2992
2992 3032 3033 2993
2993 3033 3034 2994
2994 3034 3035 2995
2995 3035 3036 2996
2996 3036 3037 2997
2997 3037 151 150
74 75 3038 2998
2998 3038 3039 2999
2999 3039 3040 3000
3000 3040 3041 3001
3001 3041 3042 3002
3002 3042 3043 3003
3003 3043 3044 3004
3004 3044 3045 3005
3005 3045 3046 3006
3006 3046 3047 3007
3007 3047 3048 3008
3008 3048 3049 3009
3009 3049 3050 3010
3010 3050 3051 3011
3011 3051 3052 3012
3012 3052 3053 3013
3013 3053 3054 3014
3014 3054 3055 3015
3015 3055 3056 3016
3016 3056 3057 3017
3017 3057 3058 3018
3018 3058 3059 3019
3019 3059 3060 3020
3020 3060 3061 3021
3021 3061 3062 3022
3022 3062 3063 3023
3023 3063 3064 3024
3024 3064 3065 3025
3025 3065 3066 3026
3026 3066 3067 3027
3027 3067 3068 3028
3028 3068 3069 3029
3029 3069 3070 3030
3030 3070 3071 3031
3031 3071 3072 3032
3032 3072 3073 3033
3033 3073 3074 3034
3034 3074 3075 3035
3035 3075 3076 3036
3036 3076 3077 3037
3037 3077 152 151
75 76 3078 3038
3038 3078 3079 3039
3039 3079 3080 3040
3040 3080 3081 3041
3041 3081 3082 3042
3042 3082 3083 3043
3043 3083 3084 3044
3044 3084 3085 3045
3045 3085 3086 3046
3046 3086 3087 3047
3047 3087 3088 3048
3048 3088 3089 3049
3049 3089 3090 3050
3050 3090 3091 3051
3051 3091 3092 3052
3052 3092 3093 3053
3053 3093 3094 3054
3054 3094 3095 3055
3055 3095 3096 3056
3056 3096 3097 3057
3057 3097 3098 3058
3058 3098 3099 3059
3059 3099 3100 3060
3060 3100 3101 3061
3061 3101 3102 3062
3062 3102 3103 3063
3063 3103 3104 3064
3064 3104 3105 3065
3065 3105 3106 3066
3066 3106 3107 3067
3067 3107 3108 3068
3068 3108 3109 3069
3069 3109 3110 3070
3070 3110 3111 3071
3071 3111 3112 3072
3072 3112 3113 3073
3073 3113 3114 3074
3074 3114 3115 3075
3075 3115 3116 3076
3076 3116 3117 3077
3077 3117 153 152
76 77 3118 3078
3078 3118 3119 3079
3079 3119 3120 3080
3080 3120 3121 3081
3081 3121 3122 3082
3082 3122 3123 3083
3083 3123 3124 3084
3084 3124 3125 3085
3085 3125 3126 3086
3086 3126 3127 3087
3087 3127 3128 3088
3088 3128 3129 3089
3089 3129 3130 3090
3090 3130 3131 3091
3091 3131 3132 3092
3092 3132 3133 3093
3093 3133 3134 3094
3094 3134 3135 3095
3095 3135 3136 3096
3096 3136 3137 3097
3097 3137 3138 3098
3098 3138 3139 3099
3099 3139 3140 3100
3100 3140 3141 3101
3101 3141 3142 3102
3102 3142 3143 3103
3103 3143 3144 3104
3104 3144 3145 3105
3105 3145 3146 3106
3106 3146 3147 3107
3107 3147 3148 3108
3108 3148 3149 3109
3109 3149 3150 3110
3110 3150 3151 3111
3111 3151 3152 3112
3112 3152 3153 3113
3113 3153 3154 3114
3114 3154 3155 3115
3115 3155 3156 3116
3116 3156 3157 3117
3117 3157 154 153
77 78 3158 3118
3118 3158 3159 3119
3119 3159 3160 3120
3120 3160 3161 3121
3121 3161 3162 3122
3122 3162 3163 3123
3123 3163 3164 3124
3124 3164 3165 3125
3125 3165 3166 3126
3126 3166 3167 3127
3127 3167 3168 3128
3128 3168 3169 3129
3129 3169 3170 3130
3130 3170 3171 3131
3131 3171 3172 3132
3132 3172 3173 3133
3133 3173 3174 3134
3134 3174 3175 3135
3135 3175 3176 3136
3136 3176 3177 3137
3137 3177 3178 3138
3138 3178 3179 3139
3139 3179 3180 3140
3140 3180 3181 3141
3141 3181 3182 3142
3142 3182 3183 3143
3143 3183 3184 3144
3144 3184 3185 3145
3145 3185 3186 3146
3146 3186 3187 3147
3147 3187 3188 3148
3148 3188 3189 3149
3149 3189 3190 3150
3150 3190 3191 3151
3151 3191 3192 3152
3152 3192 3193 3153
3153 3193 3194 3154
3154 3194 3195 3155
3155 3195 3196 3156
3156 3196 3197 3157
3157 3197 155 154
78 79 3198 3158
3158 3198 3199 3159
3159 3199 3200 3160
3160 3200 3201 3161
3161 3201 3202 3162
3162 3202 3203 3163
3163 3203 3204 3164
3164 3204 3205 3165
3165 3205 3206 3166
3166 3206 3207 3167
3167 3207 3208 3168
3168 3208 3209 3169
3169 3209 3210 3170
3170 3210 3211 3171
3171 3211 3212 3172
3172 3212 3213 3173
3173 3213 3214 3174
3174 3214 3215 3175
3175 3215 3216 3176
3176 3216 3217 3177
3177 3217 3218 3178
3178 3218 3219 3179
3179 3219 3220 3180
3180 3220 3221 3181
3181 3221 3222 3182
3182 3222 3223 3183
3183 3223 3224 3184
3184 3224 3225 3185
3185 3225 3226 3186
3186 3226 3227 3187
3187 3227 3228 3188
3188 3228 3229 3189
3189 3229 3230 3190
3190 3230 3231 3191
3191 3231 3232 3192
3192 3232 3233 3193
3193 3233 3234 3194
3194 3234 3235 3195
3195 3235 3236 3196
3196 3236 3237 3197
3197 3237 156 155
79 80 3238 3198
3198 3238 3239 3199
3199 3239 3240 3200
3200 3240 3241 3201
3201 3241 3242 3202
3202 3242 3243 3203
3203 3243 3244 3204
3204 3244 3245 3205
3205 3245 3246 3206
3206 3246 3247 3207
3207 3247 3248 3208
3208 3248 3249 3209
3209 3249 3250 3210
3210 3250 3251 3211
3211 3251 3252 3212
3212 3252 3253 3213
3213 3253 3254 3214
3214 3254 3255 3215
3215 3255 3256 3216
3216 3256 3257 3217
3217 3257 3258 3218
3218 3258 3259 3219
3219 3259 3260 3220
3220 3260 3261 3221
3221 3261 3262 3222
3222 3262 3263 3223
3223 3263 3264 3224
3224 3264 3265 3225
3225 3265 3266 3226
3226 3266 3267 3227
3227 3267 3268 3228
3228 3268 3269 3229
3229 3269 3270 3230
3230 3270 3271 3231
3231 3271 3272 3232
3232 3272 3273 3233
3233 3273 3274 3234
3234 3274 3275 3235
3235 3275 3276 3236
3236 3276 3277 3237
3237 3277 157 156
80 81 3278 3238
3238 3278 3279 3239
3239 3279 3280 3240
3240 3280 3281 3241
3241 3281 3282 3242
3242 3282 3283 3243
3243 3283 3284 3244
3244 3284 3285 3245
3245 3285 3286 3246
3246 3286 3287 3247
3247 3287 3288 3248
3248 3288 3289 3249
3249 3289 3290 3250
3250 3290 3291 3251
3251 3291 3292 3252
3252 3292 3293 3253
3253 3293 3294 3254
3254 3294 3295 3255
3255 3295 3296 3256
3256 3296 3297 3257
3257 3297 3298 3258
3258 3298 3299 3259
3259 3299 3300 3260
3260 3300 3301 3261
3261 3301 3302 3262
3262 3302 3303 3263
3263 3303 3304 3264
3264 3304 3305 3265
3265 3305 3306 3266
3266 3306 3307 3267
3267 3307 3308 3268
3268 3308 3309 3269
3269 3309 3310 3270
3270 3310 3311 3271
3271 3311 3312 3272
3272 3312 3313 3273
3273 3313 3314 3274
3274 3314 3315 3275
3275 3315 3316 3276
3276 3316 3317 3277
3277 3317 158 157
81 82 3318 3278
3278 3318 3319 3279
3279 3319 3320 3280
3280 3320 3321 3281
3281 3321 3322 3282
3282 3322 3323 3283
3283 3323 3324 3284
3284 3324 3325 3285
3285 3325 3326 3286
3286 3326 3327 3287
3287 3327 3328 3288
3288 3328 3329 3289
3289 3329 3330 3290
3290 3330 3331 3291
3291 3331 3332 3292
3292 3332 3333 3293
3293 3333 3334 3294
3294 3334 3335 3295
3295 3335 3336 3296
3296 3336 3337 3297
3297 3337 3338 3298
3298 3338 3339 3299
3299 3339 3340 3300
3300 3340 3341 3301
3301 3341 3342 3302
3302 3342 3343 3303
3303 3343 3344 3304
3304 3344 3345 3305
3305 3345 3346 3306
3306 3346 3347 3307
3307 3347 3348 3308
3308 3348 3349 3309
3309 3349 3350 3310
3310 3350 3351 3311
3311 3351 3352 3312
3312 3352 3353 3313
3313 3353 3354 3314
3314 3354 3355 3315
3315 3355 3356 3316
3316 3356 3357 3317
3317 3357 159 158
82 83 3358 3318
3318 3358 3359 3319
3319 3359 3360 3320
3320 3360 3361 3321
3321 3361 3362 3322
3322 3362 3363 3323
3323 3363 3364 3324
3324 3364 3365 3325
3325 3365 3366 3326
3326 3366 3367 3327
3327 3367 3368 3328
3328 3368 3369 3329
3329 3369 3370 3330
3330 3370 3371 3331
3331 3371 3372 3332
3332 3372 3373 3333
3333 3373 3374 3334
3334 3374 3375 3335
3335 3375 3376 3336
3336 3376 3377 3337
3337 3377 3378 3338
3338 3378 3379 3339
3339 3379 3380 3340
3340 3380 3381 3341
3341 3381 3382 3342
3342 3382 3383 3343
3343 3383 3384 3344
3344 3384 3385 3345
3345 3385 3386 3346
3346 3386 3387 3347
3347 3387 3388 3348
3348 3388 3389 3349
3349 3389 3390 3350
3350 3390 3391 3351
3351 3391 3392 3352
3352 3392 3393 3353
3353 3393 3394 3354
3354 3394 3395 3355
3355 3395 3396 3356
3356 3396 3397 3357
3357 3397 160 159
83 84 3398 3358
3358 3398 3399 3359
3359 3399 3400 3360
3360 3400 3401 3361
3361 3401 3402 3362
3362 3402 3403 3363
3363 3403 3404 3364
3364 3404 3405 3365
3365 3405 3406 3366
3366 3406 3407 3367
3367 3407 3408 3368
3368 3408 3409 3369
3369 3409 3410 3370
3370 3410 3411 3371
3371 3411 3412 3372
3372 3412 3413 3373
3373 3413 3414 3374
3374 3414 3415 3375
3375 3415 3416 3376
3376 3416 3417 3377
3377 3417 3418 3378
3378 3418 3419 3379
3379 3419 3420 3380
3380 3420 3421 3381
3381 3421 3422 3382
3382 3422 3423 3383
3383 3423 3424 3384
3384 3424 3425 3385
3385 3425 3426 3386
3386 3426 3427 3387
3387 3427 3428 3388
3388 3428 3429 3389
3389 3429 3430 3390
3390 3430 3431 3391
3391 3431 3432 3392
3392 3432 3433 3393
3393 3433 3434 3394
3394 3434 3435 3395
3395 3435 3436 3396
3396 3436 3437 3397
3397 3437 161 160
84 85 3438 3398
3398 3438 3439 3399
3399 3439 3440 3400
3400 3440 3441 3401
3401 3441 3442 3402
3402 3442 3443 3403
3403 3443 3444 3404
3404 3444 3445 3405
3405 3445 3446 3406
3406 3446 3447 3407
3407 3447 3448 3408
3408 3448 3449 3409
3409 3449 3450 3410
3410 3450 3451 3411
3411 3451 3452 3412
3412 3452 3453 3413
3413 3453 3454 3414
3414 3454 3455 3415
3415 3455 3456 3416
3416 3456 3457 3417
3417 3457 3458 3418
3418 3458 3459 3419
3419 3459 3460 3420
3420 3460 3461 3421
3421 3461 3462 3422
3422 3462 3463 3423
3423 3463 3464 3424
3424 3464 3465 3425
3425 3465 3466 3426
3426 3466 3467 3427
3427 3467 3468 3428
3428 3468 3469 3429
3429 3469 3470 3430
3430 3470 3471 3431
3431 3471 3472 3432
3432 3472 3473 3433
3433 3473 3474 3434
3434 3474 3475 3435
3435 3475 3476 3436
3436 3476 3477 3437
3437 3477 162 161
85 86 3478 3438
3438 3478 3479 3439
3439 3479 3480 3440
3440 3480 3481 3441
3441 3481 3482 3442
3442 3482 3483 3443
3443 3483 3484 3444
3444 3484 3485 3445
3445 3485 3486 3446
3446 3486 3487 3447
3447 3487 3488 3448
3448 3488 3489 3449
3449 3489 3490 3450
3450 3490 3491 3451
3451 3491 3492 3452
3452 3492 3493 3453
3453 3493 3494 3454
3454 3494 3495 3455
3455 3495 3496 3456
3456 3496 3497 3457
3457 3497 3498 3458
3458 3498 3499 3459
3459 3499 3500 3460
3460 3500 3501 3461
3461 3501 3502 3462
3462 3502 3503 3463
3463 3503 3504 3464
3464 3504 3505 3465
3465 3505 3506 3466
3466 3506 3507 3467
3467 3507 3508 3468
3468 3508 3509 3469
3469 3509 3510 3470
3470 3510 3511 3471
3471 3511 3512 3472
3472 3512 3513 3473
3473 3513 3514 3474
3474 3514 3515 3475
3475 3515 3516 3476
3476 3516 3517 3477
3477 3517 163 162
86 87 3518 3478
3478 3518 3519 3479
3479 3519 3520 3480
3480 3520 3521 3481
3481 3521 3522 3482
3482 3522 3523 3483
3483 3523 3524 3484
3484 3524 3525 3485
3485 3525 3526 3486
3486 3526 3527 3487
3487 3527 3528 3488
3488 3528 3529 3489
3489 3529 3530 3490
3490 3530 3531 3491
3491 3531 3532 3492
3492 3532 3533 3493
3493 3533 3534 3494
3494 3534 3535 3495
3495 3535 3536 3496
3496 3536 3537 3497
3497 3537 3538 3498
3498 3538 3539 3499
3499 3539 3540 3500
3500 3540 3541 3501
3501 3541 3542 3502
3502 3542 3543 3503
3503 3543 3544 3504
3504 3544 3545 3505
3505 3545 3546 3506
3506 3546 3547 3507
3507 3547 3548 3508
3508 3548 3549 3509
3509 3549 3550 3510
3510 3550 3551 3511
3511 3551 3552 3512
3512 3552 3553 3513
3513 3553 3554 3514
3514 3554 3555 3515
3515 3555 3556 3516
3516 3556 3557 3517
3517 3557 164 163
87 88 3558 3518
3518 3558 3559 3519
3519 3559 3560 3520
3520 3560 3561 3521
3521 3561 3562 3522
3522 3562 3563 3523
3523 3563 3564 3524
3524 3564 3565 3525
3525 3565 3566 3526
3526 3566 3567 3527
3527 3567 3568 3528
3528 3568 3569 3529
3529 3569 3570 3530
3530 3570 3571 3531
3531 3571 3572 3532
3532 3572 3573 3533
3533 3573 3574 3534
3534 3574 3575 3535
3535 3575 3576 3536
3536 3576 3577 3537
3537 3577 3578 3538
3538 3578 3579 3539
3539 3579 3580 3540
3540 3580 3581 3541
3541 3581 3582 3542
3542 3582 3583 3543
3543 3583 3584 3544
3544 3584 3585 3545
3545 3585 3586 3546
3546 3586 3587 3547
3547 3587 3588 3548
3548 3588 3589 3549
3549 3589 3590 3550
3550 3590 3591 3551
3551 3591 3592 3552
3552 3592 3593 3553
3553 3593 3594 3554
3554 3594 3595 3555
3555 3595 3596 3556
3556 3596 3597 3557
3557 3597 165 164
88 2 322 3558
3558 322 321 3559
3559 321 320 3560
3560 320 319 3561
3561 319 318 3562
3562 318 317 3563
3563 317 316 3564
3564 316 315 3565
3565 315 314 3566
3566 314 313 3567
3567 313 312 3568
3568 312 311 3569
3569 311 310 3570
3570 310 309 3571
3571 309 308 3572
3572 308 307 3573
3573 307 306 3574
3574 306 305 3575
3575 305 304 3576
3576 304 303 3577
3577 303 302 3578
3578 302 301 3579
3579 301 300 3580
3580 300 299 3581
3581 299 298 3582
3582 298 297 3583
3583 297 296 3584
3584 296 295 3585
3585 295 294 3586
3586 294 293 3587
3587 293 292 3588
3588 292 291 3589
3589 291 290 3590
3590 290 289 3591
3591 289 288 3592
3592 288 287 3593
3593 287 286 3594
3594 286 285 3595
3595 285 284 3596
3596 284 283 3597
3597 283 6 165
4 108 3598 380
380 3598 3599 379
379 3599 3600 378
378 3600 3601 377
377 3601 3602 376
376 3602 3603 375
375 3603 3604 374
374 3604 3605 373
373 3605 3606 372
372 3606 3607 371
371 3607 3608 370
370 3608 3609 369
369 3609 3610 368
368 3610 3611 367
367 3611 3612 366
366 3612 3613 365
365 3613 3614 364
364 3614 3615 363
363 3615 3616 362
362 3616 323 9
108 109 3617 3598
3598 3617 3618 3599
3599 3618 3619 3600
3600 3619 3620 3601
3601 3620 3621 3602
3602 3621 3622 3603
3603 3622 3623 3604
3604 3623 3624 3605
3605 3624 3625 3606
3606 3625 3626 3607
3607 3626 3627 3608
3608 3627 3628 3609
3609 3628 3629 3610
3610 3629 3630 3611
3611 3630 3631 3612
3612 3631 3632 3613
3613 3632 3633 3614
3614 3633 3634 3615
3615 3634 3635 3616
3616 3635 324 323
109 110 3636 3617
3617 3636 3637 3618
3618 3637 3638 3619
3619 3638 3639 3620
3620 3639 3640 3621
3621 3640 3641 3622
3622 3641 3642 3623
3623 3642 3643 3624
3624 3643 3644 3625
3625 3644 3645 3626
3626 3645 3646 3627
3627 3646 3647 3628
3628 3647 3648 3629
3629 3648 3649 3630
3630 3649 3650 3631
3631 3650 3651 3632
3632 3651 3652 3633
3633 3652 3653 3634
3634 3653 3654 3635
3635 3654 325 324
110 111 3655 3636
3636 3655 3656 3637
3637 3656 3657 3638
3638 3657 3658 3639
3639 3658 3659 3640
3640 3659 3660 3641
3641 3660 3661 3642
3642 3661 3662 3643
3643 3662 3663 3644
3644 3663 3664 3645
3645 3664 3665 3646
3646 3665 3666 3647
3647 3666 3667 3648
3648 3667 3668 3649
3649 3668 3669 3650
3650 3669 3670 3651
3651 3670 3671 3652
3652 3671 3672 3653
3653 3672 3673 3654
3654 3673 326 325
111 112 3674 3655
3655 3674 3675 3656
3656 3675 3676 3657
3657 3676 3677 3658
3658 3677 3678 3659
3659 3678 3679 3660
3660 3679 3680 3661
3661 3680 3681 3662
3662 3681 3682 3663
3663 3682 3683 3664
3664 3683 3684 3665
3665 3684 3685 3666
3666 3685 3686 3667
3667 3686 3687 3668
3668 3687 3688 3669
3669 3688 3689 3670
3670 3689 3690 3671
3671 3690 3691 3672
3672 3691 3692 3673
3673 3692 327 326
112 113 3693 3674
3674 3693 3694 3675
3675 3694 3695 3676
3676 3695 3696 3677
3677 3696 3697 3678
3678 3697 3698 3679
3679 3698 3699 3680
3680 3699 3700 3681
3681 3700 3701 3682
3682 3701 3702 3683
3683 3702 3703 3684
3684 3703 3704 3685
3685 3704 3705 3686
3686 3705 3706 3687
3687 3706 3707 3688
3688 3707 3708 3689
3689 3708 3709 3690
3690 3709 3710 3691
3691 3710 3711 3692
3692 3711 328 327
113 114 3712 3693
3693 3712 3713 3694
3694 3713 3714 3695
3695 3714 3715 3696
3696 3715 3716 3697
3697 3716 3717 3698
3698 3717 3718 3699
3699 3718 3719 3700
3700 3719 3720 3701
3701 3720 3721 3702
3702 3721 3722 3703
3703 3722 3723 3704
3704 3723 3724 3705
3705 3724 3725 3706
3706 3725 3726 3707
3707 3726 3727 3708
3708 3727 3728 3709
3709 3728 3729 3710
3710 3729 3730 3711
3711 3730 329 328
114 115 3731 3712
3712 3731 3732 3713
3713 3732 3733 3714
3714 3733 3734 3715
3715 3734 3735 3716
3716 3735 3736 3717
3717 3736 3737 3718
3718 3737 3738 3719
3719 3738 3739 3720
3720 3739 3740 3721
3721 3740 3741 3722
3722 3741 3742 3723
3723 3742 3743 3724
3724 3743 3744 3725
3725 3744 3745 3726
3726 3745 3746 3727
3727 3746 3747 3728
3728 3747 3748 3729
3729 3748 3749 3730
3730 3749 330 329
115 116 3750 3731
3731 3750 3751 3732
3732 3751 3752 3733
3733 3752 3753 3734
3734 3753 3754 3735
3735 3754 3755 3736
3736 3755 3756 3737
3737 3756 3757 3738
3738 3757 3758 3739
3739 3758 3759 3740
3740 3759 3760 3741
3741 3760 3761 3742
3742 3761 3762 3743
3743 3762 3763 3744
3744 3763 3764 3745
3745 3764 3765 3746
3746 3765 3766 3747
3747 3766 3767 3748
3748 3767 3768 3749
3749 3768 331 330
116 117 3769 3750
3750 3769 3770 3751
3751 3770 3771 3752
3752 3771 3772 3753
3753 3772 3773 3754
3754 3773 3774 3755
3755 3774 3775 3756
3756 3775 3776 3757
3757 3776 3777 3758
3758 3777 3778 3759
3759 3778 3779 3760
3760 3779 3780 3761
3761 3780 3781 3762
3762 3781 3782 3763
3763 3782 3783 3764
3764 3783 3784 3765
3765 3784 3785 3766
3766 3785 3786 3767
3767 3786 3787 3768
3768 3787 332 331
117 118 3788 3769
3769 3788 3789 3770
3770 3789 3790 3771
3771 3790 3791 3772
3772 3791 3792 3773
3773 3792 3793 3774
3774 3793 3794 3775
3775 3794 3795 3776
3776 3795 3796 3777
3777 3796 3797 3778
3778 3797 3798 3779
3779 3798 3799 3780
3780 3799 3800 3781
3781 3800 3801 3782
3782 3801 3802 3783
3783 3802 3803 3784
3784 3803 3804 3785
3785 3804 3805 3786
3786 3805 3806 3787
3787 3806 333 332
118 119 3807 3788
3788 3807 3808 3789
3789 3808 3809 3790
3790 3809 3810 3791
3791 3810 3811 3792
3792 3811 3812 3793
3793 3812 3813 3794
3794 3813 3814 3795
3795 3814 3815 3796
3796 3815 3816 3797
3797 3816 3817 3798
3798 3817 3818 3799
3799 3818 3819 3800
3800 3819 3820 3801
3801 3820 3821 3802
3802 3821 3822 3803
3803 3822 3823 3804
3804 3823 3824 3805
3805 3824 3825 3806
3806 3825 334 333
119 120 3826 3807
3807 3826 3827 3808
3808 3827 3828 3809
3809 3828 3829 3810
3810 3829 3830 3811
3811 3830 3831 3812
3812 3831 3832 3813
3813 3832 3833 3814
3814 3833 3834 3815
3815 3834 3835 3816
3816 3835 3836 3817
3817 3836 3837 3818
3818 3837 3838 3819
3819 3838 3839 3820
3820 3839 3840 3821
3821 3840 3841 3822
3822 3841 3842 3823
3823 3842 3843 3824
3824 3843 3844 3825
3825 3844 335 334
120 121 3845 3826
3826 3845 3846 3827
3827 3846 3847 3828
3828 3847 3848 3829
3829 3848 3849 3830
3830 3849 3850 3831
3831 3850 3851 3832
3832 3851 3852 3833
3833 3852 3853 3834
3834 3853 3854 3835
3835 3854 3855 3836
3836 3855 3856 3837
3837 3856 3857 3838
3838 3857 3858 3839
3839 3858 3859 3840
3840 3859 3860 3841
3841 3860 3861 3842
3842 3861 3862 3843
3843 3862 3863 3844
3844 3863 336 335
121 122 3864 3845
3845 3864 3865 3846
3846 3865 3866 3847
3847 3866 3867 3848
3848 3867 3868 3849
3849 3868 3869 3850
3850 3869 3870 3851
3851 3870 3871 3852
3852 3871 3872 3853
3853 3872 3873 3854
3854 3873 3874 3855
3855 3874 3875 3856
3856 3875 3876 3857
3857 3876 3877 3858
3858 3877 3878 3859
3859 3878 3879 3860
3860 3879 3880 3861
3861 3880 3881 3862
3862 3881 3882 3863
3863 3882 337 336
122 123 3883 3864
3864 3883 3884 3865
3865 3884 3885 3866
3866 3885 3886 3867
3867 3886 3887 3868
3868 3887 3888 3869
3869 3888 3889 3870
3870 3889 3890 3871
3871 3890 3891 3872
3872 3891 3892 3873
3873 3892 3893 3874
3874 3893 3894 3875
3875 3894 3895 3876
3876 3895 3896 3877
3877 3896 3897 3878
3878 3897 3898 3879
3879 3898 3899 3880
3880 3899 3900 3881
3881 3900 3901 3882
3882 3901 338 337
123 124 3902 3883
3883 3902 3903 3884
3884 3903 3904 3885
3885 3904 3905 3886
3886 3905 3906 3887
3887 3906 3907 3888
3888 3907 3908 3889
3889 3908 3909 3890
3890 3909 3910 3891
3891 3910 3911 3892
3892 3911 3912 3893
3893 3912 3913 3894
3894 3913 3914 3895
3895 3914 3915 3896
3896 3915 3916 3897
3897 3916 3917 3898
3898 3917 3918 3899
3899 3918 3919 3900
3900 3919 3920 3901
3901 3920 339 338
124 125 3921 3902
3902 3921 3922 3903
3903 3922 3923 3904
3904 3923 3924 3905
3905 3924 3925 3906
3906 3925 3926 3907
3907 3926 3927 3908
3908 3927 3928 3909
3909 3928 3929 3910
3910 3929 3930 3911
3911 3930 3931 3912
3912 3931 3932 3913
3913 3932 3933 3914
3914 3933 3934 3915
3915 3934 3935 3916
3916 3935 3936 3917
3917 3936 3937 3918
3918 3937 3938 3919
3919 3938 3939 3920
3920 3939 340 339
125 126 3940 3921
3921 3940 3941 3922
3922 3941 3942 3923
3923 3942 3943 3924
3924 3943 3944 3925
3925 3944 3945 3926
3926 3945 3946 3927
3927 3946 3947 3928
3928 3947 3948 3929
3929 3948 3949 3930
3930 3949 3950 3931
3931 3950 3951 3932
3932 3951 3952 3933
3933 3952 3953 3934
3934 3953 3954 3935
3935 3954 3955 3936
3936 3955 3956 3937
3937 3956 3957 3938
3938 3957 3958 3939
3939 3958 341 340
126 127 3959 3940
3940 3959 3960 3941
3941 3960 3961 3942
3942 3961 3962 3943
3943 3962 3963 3944
3944 3963 3964 3945
3945 3964 3965 3946
3946 3965 3966 3947
3947 3966 3967 3948
3948 3967 3968 3949
3949 3968 3969 3950
3950 3969 3970 3951
3951 3970 3971 3952
3952 3971 3972 3953
3953 3972 3973 3954
3954 3973 3974 3955
3955 3974 3975 3956
3956 3975 3976 3957
3957 3976 3977 3958
3958 3977 342 341
127 128 3978 3959
3959 3978 3979 3960
3960 3979 3980 3961
3961 3980 3981 3962
3962 3981 3982 3963
3963 3982 3983 3964
3964 3983 3984 3965
3965 3984 3985 3966
3966 3985 3986 3967
3967 3986 3987 3968
3968 3987 3988 3969
3969 3988 3989 3970
3970 3989 3990 3971
3971 3990 3991 3972
3972 3991 3992 3973
3973 3992 3993 3974
3974 3993 3994 3975
3975 3994 3995 3976
3976 3995 3996 3977
3977 3996 343 342
128 129 3997 3978
3978 3997 3998 3979
3979 3998 3999 3980
3980 3999 4000 3981
3981 4000 4001 3982
3982 4001 4002 3983
3983 4002 4003 3984
3984 4003 4004 3985
3985 4004 4005 3986
3986 4005 4006 3987
3987 4006 4007 3988
3988 4007 4008 3989
3989 4008 4009 3990
3990 4009 4010 3991
3991 4010 4011 3992
3992 4011 4012 3993
3993 4012 4013 3994
3994 4013 4014 3995
3995 4014 4015 3996
3996 4015 344 343
129 130 4016 3997
3997 4016 4017 3998
3998 4017 4018 3999
3999 4018 4019 4000
4000 4019 4020 4001
4001 4020 4021 4002
4002 4021 4022 4003
4003 4022 4023 4004
4004 4023 4024 4005
4005 4024 4025 4006
4006 4025 4026 4007
4007 4026 4027 4008
4008 4027 4028 4009
4009 4028 4029 4010
4010 4029 4030 4011
4011 4030 4031 4012
4012 4031 4032 4013
4013 4032 4033 4014
4014 4033 4034 4015
4015 4034 345 344
130 131 4035 4016
4016 4035 4036 4017
4017 4036 4037 4018
4018 4037 4038 4019
4019 4038 4039 4020
4020 4039 4040 4021
4021 4040 4041 4022
4022 4041 4042 4023
4023 4042 4043 4024
4024 4043 4044 4025
4025 4044 4045 4026
4026 4045 4046 4027
4027 4046 4047 4028
4028 4047 4048 4029
4029 4048 4049 4030
4030 4049 4050 4031
4031 4050 4051 4032
4032 4051 4052 4033
4033 4052 4053 4034
4034 4053 346 345
131 132 4054 4035
4035 4054 4055 4036
4036 4055 4056 4037
4037 4056 4057 4038
4038 4057 4058 4039
4039 4058 4059 4040
4040 4059 4060 4041
4041 4060 4061 4042
4042 4061 4062 4043
4043 4062 4063 4044
4044 4063 4064 4045
4045 4064 4065 4046
4046 4065 4066 4047
4047 4066 4067 4048
4048 4067 4068 4049
4049 4068 4069 4050
4050 4069 4070 4051
4051 4070 4071 4052
4052 4071 4072 4053
4053 4072 347 346
132 133 4073 4054
4054 4073 4074 4055
4055 4074 4075 4056
4056 4075 4076 4057
4057 4076 4077 4058
4058 4077 4078 4059
4059 4078 4079 4060
4060 4079 4080 4061
4061 4080 4081 4062
4062 4081 4082 4063
4063 4082 4083 4064
4064 4083 4084 4065
4065 4084 4085 4066
4066 4085 4086 4067
4067 4086 4087 4068
4068 4087 4088 4069
4069 4088 4089 4070
4070 4089 4090 4071
4071 4090 4091 4072
4072 4091 348 347
133 134 4092 4073
4073 4092 4093 4074
4074 4093 4094 4075
4075 4094 4095 4076
4076 4095 4096 4077
4077 4096 4097 4078
4078 4097 4098 4079
4079 4098 4099 4080
4080 4099 4100 4081
4081 4100 4101 4082
4082 4101 4102 4083
4083 4102 4103 4084
4084 4103 4104 4085
4085 4104 4105 4086
4086 4105 4106 4087
4087 4106 4107 4088
4088 4107 4108 4089
4089 4108 4109 4090
4090 4109 4110 4091
4091 4110 349 348
134 135 4111 4092
4092 4111 4112 4093
4093 4112 4113 4094
4094 4113 4114 4095
4095 4114 4115 4096
4096 4115 4116 4097
4097 4116 4117 4098
4098 4117 4118 4099
4099 4118 4119 4100
4100 4119 4120 4101
4101 4120 4121 4102
4102 4121 4122 4103
4103 4122 4123 4104
4104 4123 4124 4105
4105 4124 4125 4106
4106 4125 4126 4107
4107 4126 4127 4108
4108 4127 4128 4109
4109 4128 4129 4110
4110 4129 350 349
135 136 4130 4111
4111 4130 4131 4112
4112 4131 4132 4113
4113 4132 4133 4114
4114 4133 4134 4115
4115 4134 4135 4116
4116 4135 4136 4117
4117 4136 4137 4118
4118 4137 4138 4119
4119 4138 4139 4120
4120 4139 4140 4121
4121 4140 4141 4122
4122 4141 4142 4123
4123 4142 4143 4124
4124 4143 4144 4125
4125 4144 4145 4126
4126 4145 4146 4127
4127 4146 4147 4128
4128 4147 4148 4129
4129 4148 351 350
136 137 4149 4130
4130 4149 4150 4131
4131 4150 4151 4132
4132 4151 4152 4133
4133 4152 4153 4134
4134 4153 4154 4135
4135 4154 4155 4136
4136 4155 4156 4137
4137 4156 4157 4138
4138 4157 4158 4139
4139 4158 4159 4140
4140 4159 4160 4141
4141 4160 4161 4142
4142 4161 4162 4143
4143 4162 4163 4144
4144 4163 4164 4145
4145 4164 4165 4146
4146 4165 4166 4147
4147 4166 4167 4148
4148 4167 352 351
137 138 4168 4149
4149 4168 4169 4150
4150 4169 4170 4151
4151 4170 4171 4152
4152 4171 4172 4153
4153 4172 4173 4154
4154 4173 4174 4155
4155 4174 4175 4156
4156 4175 4176 4157
4157 4176 4177 4158
4158 4177 4178 4159
4159 4178 4179 4160
4160 4179 4180 4161
4161 4180 4181 4162
4162 4181 4182 4163
4163 4182 4183 4164
4164 4183 4184 4165
4165 4184 4185 4166
4166 4185 4186 4167
4167 4186 353 352
138 139 4187 4168
4168 4187 4188 4169
4169 4188 4189 4170
4170 4189 4190 4171
4171 4190 4191 4172
4172 4191 4192 4173
4173 4192 4193 4174
4174 4193 4194 4175
4175 4194 4195 4176
4176 4195 4196 4177
4177 4196 4197 4178
4178 4197 4198 4179
4179 4198 4199 4180
4180 4199 4200 4181
4181 4200 4201 4182
4182 4201 4202 4183
4183 4202 4203 4184
4184 4203 4204 4185
4185 4204 4205 4186
4186 4205 354 353
139 140 4206 4187
4187 4206 4207 4188
4188 4207 4208 4189
4189 4208 4209 4190
4190 4209 4210 4191
4191 4210 4211 4192
4192 4211 4212 4193
4193 4212 4213 4194
4194 4213 4214 4195
4195 4214 4215 4196
4196 4215 4216 4197
4197 4216 4217 4198
4198 4217 4218 4199
4199 4218 4219 4200
4200 4219 4220 4201
4201 4220 4221 4202
4202 4221 4222 4203
4203 4222 4223 4204
4204 4223 4224 4205
4205 4224 355 354
140 141 4225 4206
4206 4225 4226 4207
4207 4226 4227 4208
4208 4227 4228 4209
4209 4228 4229 4210
4210 4229 4230 4211
4211 4230 4231 4212
4212 4231 4232 4213
4213 4232 4233 4214
4214 4233 4234 4215
4215 4234 4235 4216
4216 4235 4236 4217
4217 4236 4237 4218
4218 4237 4238 4219
4219 4238 4239 4220
4220 4239 4240 4221
4221 4240 4241 4222
4222 4241 4242 4223
4223 4242 4243 4224
4224 4243 356 355
141 142 4244 4225
4225 4244 4245 4226
4226 4245 4246 4227
4227 4246 4247 4228
4228 4247 4248 4229
4229 4248 4249 4230
4230 4249 4250 4231
4231 4250 4251 4232
4232 4251 4252 4233
4233 4252 4253 4234
4234 4253 4254 4235
4235 4254 4255 4236
4236 4255 4256 4237
4237 4256 4257 4238
4238 4257 4258 4239
4239 4258 4259 4240
4240 4259 4260 4241
4241 4260 4261 4242
4242 4261 4262 4243
4243 4262 357 356
142 143 4263 4244
4244 4263 4264 4245
4245 4264 4265 4246
4246 4265 4266 4247
4247 4266 4267 4248
4248 4267 4268 4249
4249 4268 4269 4250
4250 4269 4270 4251
4251 4270 4271 4252
4252 4271 4272 4253
4253 4272 4273 4254
4254 4273 4274 4255
4255 4274 4275 4256
4256 4275 4276 4257
4257 4276 4277 4258
4258 4277 4278 4259
4259 4278 4279 4260
4260 4279 4280 4261
4261 4280 4281 4262
4262 4281 358 357
143 144 4282 4263
4263 4282 4283 4264
4264 4283 4284 4265
4265 4284 4285 4266
4266 4285 4286 4267
4267 4286 4287 4268
4268 4287 4288 4269
4269 4288 4289 4270
4270 4289 4290 4271
4271 4290 4291 4272
4272 4291 4292 4273
4273 4292 4293 4274
4274 4293 4294 4275
4275 4294 4295 4276
4276 4295 4296 4277
4277 4296 4297 4278
4278 4297 4298 4279
4279 4298 4299 4280
4280 4299 4300 4281
4281 4300 359 358
144 145 4301 4282
4282 4301 4302 4283
4283 4302 4303 4284
4284 4303 4304 4285
4285 4304 4305 4286
4286 4305 4306 4287
4287 4306 4307 4288
4288 4307 4308 4289
4289 4308 4309 4290
4290 4309 4310 4291
4291 4310 4311 4292
4292 4311 4312 4293
4293 4312 4313 4294
4294 4313 4314 4295
4295 4314 4315 4296
4296 4315 4316 4297
4297 4316 4317 4298
4298 4317 4318 4299
4299 4318 4319 4300
4300 4319 360 359
145 146 4320 4301
4301 4320 4321 4302
4302 4321 4322 4303
4303 4322 4323 4304
4304 4323 4324 4305
4305 4324 4325 4306
4306 4325 4326 4307
4307 4326 4327 4308
4308 4327 4328 4309
4309 4328 4329 4310
4310 4329 4330 4311
4311 4330 4331 4312
4312 4331 4332 4313
4313 4332 4333 4314
4314 4333 4334 4315
4315 4334 4335 4316
4316 4335 4336 4317
4317 4336 4337 4318
4318 4337 4338 4319
4319 4338 361 360
146 5 399 4320
4320 399 398 4321
4321 398 397 4322
4322 397 396 4323
4323 396 395 4324
4324 395 394 4325
4325 394 393 4326
4326 393 392 4327
4327 392 391 4328
4328 391 390 4329
4329 390 389 4330
4330 389 388 4331
4331 388 387 4332
4332 387 386 4333
4333 386 385 4334
4334 385 384 4335
4335 384 383 4336
4336 383 382 4337
4337 382 381 4338
4338 381 10 361
3 89 4339 166
166 4339 4340 167
167 4340 4341 168
168 4341 4342 169
169 4342 4343 170
170 4343 4344 171
171 4344 4345 172
172 4345 4346 173
173 4346 4347 174
174 4347 4348 175
175 4348 4349 176
176 4349 4350 177
177 4350 4351 178
178 4351 4352 179
179 4352 4353 180
180 4353 4354 181
181 4354 4355 182
182 4355 4356 183
183 4356 4357 184
184 4357 418 7
89 90 4358 4339
4339 4358 4359 4340
4340 4359 4360 4341
4341 4360 4361 4342
4342 4361 4362 4343
4343 4362 4363 4344
4344 4363 4364 4345
4345 4364 4365 4346
4346 4365 4366 4347
4347 4366 4367 4348
4348 4367 4368 4349
4349 4368 4369 4350
4350 4369 4370 4351
4351 4370 4371 4352
4352 4371 4372 4353
4353 4372 4373 4354
4354 4373 4374 4355
4355 4374 4375 4356
4356 4375 4376 4357
4357 4376 417 418
90 91 4377 4358
4358 4377 4378 4359
4359 4378 4379 4360
4360 4379 4380 4361
4361 4380 4381 4362
4362 4381 4382 4363
4363 4382 4383 4364
4364 4383 4384 4365
4365 4384 4385 4366
4366 4385 4386 4367
4367 4386 4387 4368
4368 4387 4388 4369
4369 4388 4389 4370
4370 4389 4390 4371
4371 4390 4391 4372
4372 4391 4392 4373
4373 4392 4393 4374
4374 4393 4394 4375
4375 4394 4395 4376
4376 4395 416 417
91 92 4396 4377
4377 4396 4397 4378
4378 4397 4398 4379
4379 4398 4399 4380
4380 4399 4400 4381
4381 4400 4401 4382
4382 4401 4402 4383
4383 4402 4403 4384
4384 4403 4404 4385
4385 4404 4405 4386
4386 4405 4406 4387
4387 4406 4407 4388
4388 4407 4408 4389
4389 4408 4409 4390
4390 4409 4410 4391
4391 4410 4411 4392
4392 4411 4412 4393
4393 4412 4413 4394
4394 4413 4414 4395
4395 4414 415 416
92 93 4415 4396
4396 4415 4416 4397
4397 4416 4417 4398
4398 4417 4418 4399
4399 4418 4419 4400
4400 4419 4420 4401
4401 4420 4421 4402
4402 4421 4422 4403
4403 4422 4423 4404
4404 4423 4424 4405
4405 4424 4425 4406
4406 4425 4426 4407
4407 4426 4427 4408
4408 4427 4428 4409
4409 4428 4429 4410
4410 4429 4430 4411
4411 4430 4431 4412
4412 4431 4432 4413
4413 4432 4433 4414
4414 4433 414 415
93 94 4434 4415
4415 4434 4435 4416
4416 4435 4436 4417
4417 4436 4437 4418
4418 4437 4438 4419
4419 4438 4439 4420
4420 4439 4440 4421
4421 4440 4441 4422
4422 4441 4442 4423
4423 4442 4443 4424
4424 4443 4444 4425
4425 4444 4445 4426
4426 4445 4446 4427
4427 4446 4447 4428
4428 4447 4448 4429
4429 4448 4449 4430
4430 4449 4450 4431
4431 4450 4451 4432
4432 4451 4452 4433
4433 4452 413 414
94 95 4453 4434
4434 4453 4454 4435
4435 4454 4455 4436
4436 4455 4456 4437
4437 4456 4457 4438
4438 4457 4458 4439
4439 4458 4459 4440
4440 4459 4460 4441
4441 4460 4461 4442
4442 4461 4462 4443
4443 4462 4463 4444
4444 4463 4464 4445
4445 4464 4465 4446
4446 4465 4466 4447
4447 4466 4467 4448
4448 4467 4468 4449
4449 4468 4469 4450
4450 4469 4470 4451
4451 4470 4471 4452
4452 4471 412 413
95 96 4472 4453
4453 4472 4473 4454
4454 4473 4474 4455
4455 4474 4475 4456
4456 4475 4476 4457
4457 4476 4477 4458
4458 4477 4478 4459
4459 4478 4479 4460
4460 4479 4480 4461
4461 4480 4481 4462
4462 4481 4482 4463
4463 4482 4483 4464
4464 4483 4484 4465
4465 4484 4485 4466
4466 4485 4486 4467
4467 4486 4487 4468
4468 4487 4488 4469
4469 4488 4489 4470
4470 4489 4490 4471
4471 4490 411 412
96 97 4491 4472
4472 4491 4492 4473
4473 4492 4493 4474
4474 4493 4494 4475
4475 4494 4495 4476
4476 4495 4496 4477
4477 4496 4497 4478
4478 4497 4498 4479
4479 4498 4499 4480
4480 4499 4500 4481
4481 4500 4501 4482
4482 4501 4502 4483
4483 4502 4503 4484
4484 4503 4504 4485
4485 4504 4505 4486
4486 4505 4506 4487
4487 4506 4507 4488
4488 4507 4508 4489
4489 4508 4509 4490
4490 4509 410 411
97 98 4510 4491
4491 4510 4511 4492
4492 4511 4512 4493
4493 4512 4513 4494
4494 4513 4514 4495
4495 4514 4515 4496
4496 4515 4516 4497
4497 4516 4517 4498
4498 4517 4518 4499
4499 4518 4519 4500
4500 4519 4520 4501
4501 4520 4521 4502
4502 4521 4522 4503
4503 4522 4523 4504
4504 4523 4524 4505
4505 4524 4525 4506
4506 4525 4526 4507
4507 4526 4527 4508
4508 4527 4528 4509
4509 4528 409 410
98 99 4529 4510
4510 4529 4530 4511
4511 4530 4531 4512
4512 4531 4532 4513
4513 4532 4533 4514
4514 4533 4534 4515
4515 4534 4535 4516
4516 4535 4536 4517
4517 4536 4537 4518
4518 4537 4538 4519
4519 4538 4539 4520
4520 4539 4540 4521
4521 4540 4541 4522
4522 4541 4542 4523
4523 4542 4543 4524
4524 4543 4544 4525
4525 4544 4545 4526
4526 4545 4546 4527
4527 4546 4547 4528
4528 4547 408 409
99 100 4548 4529
4529 4548 4549 4530
4530 4549 4550 4531
4531 4550 4551 4532
4532 4551 4552 4533
4533 4552 4553 4534
4534 4553 4554 4535
4535 4554 4555 4536
4536 4555 4556 4537
4537 4556 4557 4538
4538 4557 4558 4539
4539 4558 4559 4540
4540 4559 4560 4541
4541 4560 4561 4542
4542 4561 4562 4543
4543 4562 4563 4544
4544 4563 4564 4545
4545 4564 4565 4546
4546 4565 4566 4547
4547 4566 407 408
100 101 4567 4548
4548 4567 4568 4549
4549 4568 4569 4550
4550 4569 4570 4551
4551 4570 4571 4552
4552 4571 4572 4553
4553 4572 4573 4554
4554 4573 4574 4555
4555 4574 4575 4556
4556 4575 4576 4557
4557 4576 4577 4558
4558 4577 4578 4559
4559 4578 4579 4560
4560 4579 4580 4561
4561 4580 4581 4562
4562 4581 4582 4563
4563 4582 4583 4564
4564 4583 4584 4565
4565 4584 4585 4566
4566 4585 406 407
101 102 4586 4567
4567 4586 4587 4568
4568 4587 4588 4569
4569 4588 4589 4570
4570 4589 4590 4571
4571 4590 4591 4572
4572 4591 4592 4573
4573 4592 4593 4574
4574 4593 4594 4575
4575 4594 4595 4576
4576 4595 4596 4577
4577 4596 4597 4578
4578 4597 4598 4579
4579 4598 4599 4580
4580 4599 4600 4581
4581 4600 4601 4582
4582 4601 4602 4583
4583 4602 4603 4584
4584 4603 4604 4585
4585 4604 405 406
102 103 4605 4586
4586 4605 4606 4587
4587 4606 4607 4588
4588 4607 4608 4589
4589 4608 4609 4590
4590 4609 4610 4591
4591 4610 4611 4592
4592 4611 4612 4593
4593 4612 4613 4594
4594 4613 4614 4595
4595 4614 4615 4596
4596 4615 4616 4597
4597 4616 4617 4598
4598 4617 4618 4599
4599 4618 4619 4600
4600 4619 4620 4601
4601 4620 4621 4602
4602 4621 4622 4603
4603 4622 4623 4604
4604 4623 404 405
103 104 4624 4605
4605 4624 4625 4606
4606 4625 4626 4607
4607 4626 4627 4608
4608 4627 4628 4609
4609 4628 4629 4610
4610 4629 4630 4611
4611 4630 4631 4612
4612 4631 4632 4613
4613 4632 4633 4614
4614 4633 4634 4615
4615 4634 4635 4616
4616 4635 4636 4617
4617 4636 4637 4618
4618 4637 4638 4619
4619 4638 4639 4620
4620 4639 4640 4621
4621 4640 4641 4622
4622 4641 4642 4623
4623 4642 403 404
104 105 4643 4624
4624 4643 4644 4625
4625 4644 4645 4626
4626 4645 4646 4627
4627 4646 4647 4628
4628 4647 4648 4629
4629 4648 4649 4630
4630 4649 4650 4631
4631 4650 4651 4632
4632 4651 4652 4633
4633 4652 4653 4634
4634 4653 4654 4635
4635 4654 4655 4636
4636 4655 4656 4637
4637 4656 4657 4638
4638 4657 4658 4639
4639 4658 4659 4640
4640 4659 4660 4641
4641 4660 4661 4642
4642 4661 402 403
105 106 4662 4643
4643 4662 4663 4644
4644 4663 4664 4645
4645 4664 4665 4646
4646 4665 4666 4647
4647 4666 4667 4648
4648 4667 4668 4649
4649 4668 4669 4650
4650 4669 4670 4651
4651 4670 4671 4652
4652 4671 4672 4653
4653 4672 4673 4654
4654 4673 4674 4655
4655 4674 4675 4656
4656 4675 4676 4657
4657 4676 4677 4658
4658 4677 4678 4659
4659 4678 4679 4660
4660 4679 4680 4661
4661 4680 401 402
106 107 4681 4662
4662 4681 4682 4663
4663 4682 4683 4664
4664 4683 4684 4665
4665 4684 4685 4666
4666 4685 4686 4667
4667 4686 4687 4668
4668 4687 4688 4669
4669 4688 4689 4670
4670 4689 4690 4671
4671 4690 4691 4672
4672 4691 4692 4673
4673 4692 4693 4674
4674 4693 4694 4675
4675 4694 4695 4676
4676 4695 4696 4677
4677 4696 4697 4678
4678 4697 4698 4679
4679 4698 4699 4680
4680 4699 400 401
107 4 380 4681
4681 380 379 4682
4682 379 378 4683
4683 378 377 4684
4684 377 376 4685
4685 376 375 4686
4686 375 374 4687
4687 374 373 4688
4688 373 372 4689
4689 372 371 4690
4690 371 370 4691
4691 370 369 4692
4692 369 368 4693
4693 368 367 4694
4694 367 366 4695
4695 366 365 4696
4696 365 364 4697
4697 364 363 4698
4698 363 362 4699
4699 362 9 400
5 147 4700 399
399 4700 4701 398
398 4701 4702 397
397 4702 4703 396
396 4703 4704 395
395 4704 4705 394
394 4705 4706 393
393 4706 4707 392
392 4707 4708 391
391 4708 4709 390
390 4709 4710 389
389 4710 4711 388
388 4711 4712 387
387 4712 4713 386
386 4713 4714 385
385 4714 4715 384
384 4715 4716 383
383 4716 4717 382
382 4717 4718 381
381 4718 419 10
147 148 4719 4700
4700 4719 4720 4701
4701 4720 4721 4702
4702 4721 4722 4703
4703 4722 4723 4704
4704 4723 4724 4705
4705 4724 4725 4706
4706 4725 4726 4707
4707 4726 4727 4708
4708 4727 4728 4709
4709 4728 4729 4710
4710 4729 4730 4711
4711 4730 4731 4712
4712 4731 4732 4713
4713 4732 4733 4714
4714 4733 4734 4715
4715 4734 4735 4716
4716 4735 4736 4717
4717 4736 4737 4718
4718 4737 420 419
148 149 4738 4719
4719 4738 4739 4720
4720 4739 4740 4721
4721 4740 4741 4722
4722 4741 4742 4723
4723 4742 4743 4724
4724 4743 4744 4725
4725 4744 4745 4726
4726 4745 4746 4727
4727 4746 4747 4728
4728 4747 4748 4729
4729 4748 4749 4730
4730 4749 4750 4731
4731 4750 4751 4732
4732 4751 4752 4733
4733 4752 4753 4734
4734 4753 4754 4735
4735 4754 4755 4736
4736 4755 4756 4737
4737 4756 421 420
149 150 4757 4738
4738 4757 4758 4739
4739 4758 4759 4740
4740 4759 4760 4741
4741 4760 4761 4742
4742 4761 4762 4743
4743 4762 4763 4744
4744 4763 4764 4745
4745 4764 4765 4746
4746 4765 4766 4747
4747 4766 4767 4748
4748 4767 4768 4749
4749 4768 4769 4750
4750 4769 4770 4751
4751 4770 4771 4752
4752 4771 4772 4753
4753 4772 4773 4754
4754 4773 4774 4755
4755 4774 4775 4756
4756 4775 422 421
150 151 4776 4757
4757 4776 4777 4758
4758 4777 4778 4759
4759 4778 4779 4760
4760 4779 4780 4761
4761 4780 4781 4762
4762 4781 4782 4763
4763 4782 4783 4764
4764 4783 4784 4765
4765 4784 4785 4766
4766 4785 4786 4767
4767 4786 4787 4768
4768 4787 4788 4769
4769 4788 4789 4770
4770 4789 4790 4771
4771 4790 4791 4772
4772 4791 4792 4773
4773 4792 4793 4774
4774 4793 4794 4775
4775 4794 423 422
151 152 4795 4776
4776 4795 4796 4777
4777 4796 4797 4778
4778 4797 4798 4779
4779 4798 4799 4780
4780 4799 4800 4781
4781 4800 4801 4782
4782 4801 4802 4783
4783 4802 4803 4784
4784 4803 4804 4785
4785 4804 4805 4786
4786 4805 4806 4787
4787 4806 4807 4788
4788 4807 4808 4789
4789 4808 4809 4790
4790 4809 4810 4791
4791 4810 4811 4792
4792 4811 4812 4793
4793 4812 4813 4794
4794 4813 424 423
152 153 4814 4795
4795 4814 4815 4796
4796 4815 4816 4797
4797 4816 4817 4798
4798 4817 4818 4799
4799 4818 4819 4800
4800 4819 4820 4801
4801 4820 4821 4802
4802 4821 4822 4803
4803 4822 4823 4804
4804 4823 4824 4805
4805 4824 4825 4806
4806 4825 4826 4807
4807 4826 4827 4808
4808 4827 4828 4809
4809 4828 4829 4810
4810 4829 4830 4811
4811 4830 4831 4812
4812 4831 4832 4813
4813 4832 425 424
153 154 4833 4814
4814 4833 4834 4815
4815 4834 4835 4816
4816 4835 4836 4817
4817 4836 4837 4818
4818 4837 4838 4819
4819 4838 4839 4820
4820 4839 4840 4821
4821 4840 4841 4822
4822 4841 4842 4823
4823 4842 4843 4824
4824 4843 4844 4825
4825 4844 4845 4826
4826 4845 4846 4827
4827 4846 4847 4828
4828 4847 4848 4829
4829 4848 4849 4830
4830 4849 4850 4831
4831 4850 4851 4832
4832 4851 426 425
154 155 4852 4833
4833 4852 4853 4834
4834 4853 4854 4835
4835 4854 4855 4836
4836 4855 4856 4837
4837 4856 4857 4838
4838 4857 4858 4839
4839 4858 4859 4840
4840 4859 4860 4841
4841 4860 4861 4842
4842 4861 4862 4843
4843 4862 4863 4844
4844 4863 4864 4845
4845 4864 4865 4846
4846 4865 4866 4847
4847 4866 4867 4848
4848 4867 4868 4849
4849 4868 4869 4850
4850 4869 4870 4851
4851 4870 427 426
155 156 4871 4852
4852 4871 4872 4853
4853 4872 4873 4854
4854 4873 4874 4855
4855 4874 4875 4856
4856 4875 4876 4857
4857 4876 4877 4858
4858 4877 4878 4859
4859 4878 4879 4860
4860 4879 4880 4861
4861 4880 4881 4862
4862 4881 4882 4863
4863 4882 4883 4864
4864 4883 4884 4865
4865 4884 4885 4866
4866 4885 4886 4867
4867 4886 4887 4868
4868 4887 4888 4869
4869 4888 4889 4870
4870 4889 428 427
156 157 4890 4871
4871 4890 4891 4872
4872 4891 4892 4873
4873 4892 4893 4874
4874 4893 4894 4875
4875 4894 4895 4876
4876 4895 4896 4877
4877 4896 4897 4878
4878 4897 4898 4879
4879 4898 4899 4880
4880 4899 4900 4881
4881 4900 4901 4882
4882 4901 4902 4883
4883 4902 4903 4884
4884 4903 4904 4885
4885 4904 4905 4886
4886 4905 4906 4887
4887 4906 4907 4888
4888 4907 4908 4889
4889 4908 429 428
157 158 4909 4890
4890 4909 4910 4891
4891 4910 4911 4892
4892 4911 4912 4893
4893 4912 4913 4894
4894 4913 4914 4895
4895 4914 4915 4896
4896 4915 4916 4897
4897 4916 4917 4898
4898 4917 4918 4899
4899 4918 4919 4900
4900 4919 4920 4901
4901 4920 4921 4902
4902 4921 4922 4903
4903 4922 4923 4904
4904 4923 4924 4905
4905 4924 4925 4906
4906 4925 4926 4907
4907 4926 4927 4908
4908 4927 430 429
158 159 4928 4909
4909 4928 4929 4910
4910 4929 4930 4911
4911 4930 4931 4912
4912 4931 4932 4913
4913 4932 4933 4914
4914 4933 4934 4915
4915 4934 4935 4916
4916 4935 4936 4917
4917 4936 4937 4918
4918 4937 4938 4919
4919 4938 4939 4920
4920 4939 4940 4921
4921 4940 4941 4922
4922 4941 4942 4923
4923 4942 4943 4924
4924 4943 4944 4925
4925 4944 4945 4926
4926 4945 4946 4927
4927 4946 431 430
159 160 4947 4928
4928 4947 4948 4929
4929 4948 4949 4930
4930 4949 4950 4931
4931 4950 4951 4932
4932 4951 4952 4933
4933 4952 4953 4934
4934 4953 4954 4935
4935 4954 4955 4936
4936 4955 4956 4937
4937 4956 4957 4938
4938 4957 4958 4939
4939 4958 4959 4940
4940 4959 4960 4941
4941 4960 4961 4942
4942 4961 4962 4943
4943 4962 4963 4944
4944 4963 4964 4945
4945 4964 4965 4946
4946 4965 432 431
160 161 4966 4947
4947 4966 4967 4948
4948 4967 4968 4949
4949 4968 4969 4950
4950 4969 4970 4951
4951 4970 4971 4952
4952 4971 4972 4953
4953 4972 4973 4954
4954 4973 4974 4955
4955 4974 4975 4956
4956 4975 4976 4957
4957 4976 4977 4958
4958 4977 4978 4959
4959 4978 4979 4960
4960 4979 4980 4961
4961 4980 4981 4962
4962 4981 4982 4963
4963 4982 4983 4964
4964 4983 4984 4965
4965 4984 433 432
161 162 4985 4966
4966 4985 4986 4967
4967 4986 4987 4968
4968 4987 4988 4969
4969 4988 4989 4970
4970 4989 4990 4971
4971 4990 4991 4972
4972 4991 4992 4973
4973 4992 4993 4974
4974 4993 4994 4975
4975 4994 4995 4976
4976 4995 4996 4977
4977 4996 4997 4978
4978 4997 4998 4979
4979 4998 4999 4980
4980 4999 5000 4981
4981 5000 5001 4982
4982 5001 5002 4983
4983 5002 5003 4984
4984 5003 434 433
162 163 5004 4985
4985 5004 5005 4986
4986 5005 5006 4987
4987 5006 5007 4988
4988 5007 5008 4989
4989 5008 5009 4990
4990 5009 5010 4991
4991 5010 5011 4992
4992 5011 5012 4993
4993 5012 5013 4994
4994 5013 5014 4995
4995 5014 5015 4996
4996 5015 5016 4997
4997 5016 5017 4998
4998 5017 5018 4999
4999 5018 5019 5000
5000 5019 5020 5001
5001 5020 5021 5002
5002 5021 5022 5003
5003 5022 435 434
163 164 5023 5004
5004 5023 5024 5005
5005 5024 5025 5006
5006 5025 5026 5007
5007 5026 5027 5008
5008 5027 5028 5009
5009 5028 5029 5010
5010 5029 5030 5011
5011 5030 5031 5012
5012 5031 5032 5013
5013 5032 5033 5014
5014 5033 5034 5015
5015 5034 5035 5016
5016 5035 5036 5017
5017 5036 5037 5018
5018 5037 5038 5019
5019 5038 5039 5020
5020 5039 5040 5021
5021 5040 5041 5022
5022 5041 436 435
164 165 5042 5023
5023 5042 5043 5024
5024 5043 5044 5025
5025 5044 5045 5026
5026 5045 5046 5027
5027 5046 5047 5028
5028 5047 5048 5029
5029 5048 5049 5030
5030 5049 5050 5031
5031 5050 5051 5032
5032 5051 5052 5033
5033 5052 5053 5034
5034 5053 5054 5035
5035 5054 5055 5036
5036 5055 5056 5037
5037 5056 5057 5038
5038 5057 5058 5039
5039 5058 5059 5040
5040 5059 5060 5041
5041 5060 437 436
165 6 242 5042
5042 242 241 5043
5043 241 240 5044
5044 240 239 5045
5045 239 238 5046
5046 238 237 5047
5047 237 236 5048
5048 236 235 5049
5049 235 234 5050
5050 234 233 5051
5051 233 232 5052
5052 232 231 5053
5053 231 230 5054
5054 230 229 5055
5055 229 228 5056
5056 228 227 5057
5057 227 226 5058
5058 226 225 5059
5059 225 224 5060
5060 224 8 437
9 323 5061 400
400 5061 5062 401
401 5062 5063 402
402 5063 5064 403
403 5064 5065 404
404 5065 5066 405
405 5066 5067 406
406 5067 5068 407
407 5068 5069 408
408 5069 5070 409
409 5070 5071 410
410 5071 5072 411
411 5072 5073 412
412 5073 5074 413
413 5074 5075 414
414 5075 5076 415
415 5076 5077 416
416 5077 5078 417
417 5078 5079 418
418 5079 185 7
323 324 5080 5061
5061 5080 5081 5062
5062 5081 5082 5063
5063 5082 5083 5064
5064 5083 5084 5065
5065 5084 5085 5066
5066 5085 5086 5067
5067 5086 5087 5068
5068 5087 5088 5069
5069 5088 5089 5070
5070 5089 5090 5071
5071 5090 5091 5072
5072 5091 5092 5073
5073 5092 5093 5074
5074 5093 5094 5075
5075 5094 5095 5076
5076 5095 5096 5077
5077 5096 5097 5078
5078 5097 5098 5079
5079 5098 186 185
324 325 5099 5080
5080 5099 5100 5081
5081 5100 5101 5082
5082 5101 5102 5083
5083 5102 5103 5084
5084 5103 5104 5085
5085 5104 5105 5086
5086 5105 5106 5087
5087 5106 5107 5088
5088 5107 5108 5089
5089 5108 5109 5090
5090 5109 5110 5091
5091 5110 5111 5092
5092 5111 5112 5093
5093 5112 5113 5094
5094 5113 5114 5095
5095 5114 5115 5096
5096 5115 5116 5097
5097 5116 5117 5098
5098 5117 187 186
325 326 5118 5099
5099 5118 5119 5100
5100 5119 5120 5101
5101 5120 5121 5102
5102 5121 5122 5103
5103 5122 5123 5104
5104 5123 5124 5105
5105 5124 5125 5106
5106 5125 5126 5107
5107 5126 5127 5108
5108 5127 5128 5109
5109 5128 5129 5110
5110 5129 5130 5111
5111 5130 5131 5112
5112 5131 5132 5113
5113 5132 5133 5114
5114 5133 5134 5115
5115 5134 5135 5116
5116 5135 5136 5117
5117 5136 188 187
326 327 5137 5118
5118 5137 5138 5119
5119 5138 5139 5120
5120 5139 5140 5121
5121 5140 5141 5122
5122 5141 5142 5123
5123 5142 5143 5124
5124 5143 5144 5125
5125 5144 5145 5126
5126 5145 5146 5127
5127 5146 5147 5128
5128 5147 5148 5129
5129 5148 5149 5130
5130 5149 5150 5131
5131 5150 5151 5132
5132 5151 5152 5133
5133 5152 5153 5134
5134 5153 5154 5135
5135 5154 5155 5136
5136 5155 189 188
327 328 5156 5137
5137 5156 5157 5138
5138 5157 5158 5139
5139 5158 5159 5140
5140 5159 5160 5141
5141 5160 5161 5142
5142 5161 5162 5143
5143 5162 5163 5144
5144 5163 5164 5145
5145 5164 5165 5146
5146 5165 5166 5147
5147 5166 5167 5148
5148 5167 5168 5149
5149 5168 5169 5150
5150 5169 5170 5151
5151 5170 5171 5152
5152 5171 5172 5153
5153 5172 5173 5154
5154 5173 5174 5155
5155 5174 190 189
328 329 5175 5156
5156 5175 5176 5157
5157 5176 5177 5158
5158 5177 5178 5159
5159 5178 5179 5160
5160 5179 5180 5161
5161 5180 5181 5162
5162 5181 5182 5163
5163 5182 5183 5164
5164 5183 5184 5165
5165 5184 5185 5166
5166 5185 5186 5167
5167 5186 5187 5168
5168 5187 5188 5169
5169 5188 5189 5170
5170 5189 5190 5171
5171 5190 5191 5172
5172 5191 5192 5173
5173 5192 5193 5174
5174 5193 191 190
329 330 5194 5175
5175 5194 5195 5176
5176 5195 5196 5177
5177 5196 5197 5178
5178 5197 5198 5179
5179 5198 5199 5180
5180 5199 5200 5181
5181 5200 5201 5182
5182 5201 5202 5183
5183 5202 5203 5184
5184 5203 5204 5185
5185 5204 5205 5186
5186 5205 5206 5187
5187 5206 5207 5188
5188 5207 5208 5189
5189 5208 5209 5190
5190 5209 5210 5191
5191 5210 5211 5192
5192 5211 5212 5193
5193 5212 192 191
330 331 5213 5194
5194 5213 5214 5195
5195 5214 5215 5196
5196 5215 5216 5197
5197 5216 5217 5198
5198 5217 5218 5199
5199 5218 5219 5200
5200 5219 5220 5201
5201 5220 5221 5202
5202 5221 5222 5203
5203 5222 5223 5204
5204 5223 5224 5205
5205 5224 5225 5206
5206 5225 5226 5207
5207 5226 5227 5208
5208 5227 5228 5209
5209 5228 5229 5210
5210 5229 5230 5211
5211 5230 5231 5212
5212 5231 193 192
331 332 5232 5213
5213 5232 5233 5214
5214 5233 5234 5215
5215 5234 5235 5216
5216 5235 5236 5217
5217 5236 5237 5218
5218 5237 5238 5219
5219 5238 5239 5220
5220 5239 5240 5221
5221 5240 5241 5222
5222 5241 5242 5223
5223 5242 5243 5224
5224 5243 5244 5225
5225 5244 5245 5226
5226 5245 5246 5227
5227 5246 5247 5228
5228 5247 5248 5229
5229 5248 5249 5230
5230 5249 5250 5231
5231 5250 194 193
332 333 5251 5232
5232 5251 5252 5233
5233 5252 5253 5234
5234 5253 5254 5235
5235 5254 5255 5236
5236 5255 5256 5237
5237 5256 5257 5238
5238 5257 5258 5239
5239 5258 5259 5240
5240 5259 5260 5241
5241 5260 5261 5242
5242 5261 5262 5243
5243 5262 5263 5244
5244 5263 5264 5245
5245 5264 5265 5246
5246 5265 5266 5247
5247 5266 5267 5248
5248 5267 5268 5249
5249 5268 5269 5250
5250 5269 195 194
333 334 5270 5251
5251 5270 5271 5252
5252 5271 5272 5253
5253 5272 5273 5254
5254 5273 5274 5255
5255 5274 5275 5256
5256 5275 5276 5257
5257 5276 5277 5258
5258 5277 5278 5259
5259 5278 5279 5260
5260 5279 5280 5261
5261 5280 5281 5262
5262 5281 5282 5263
5263 5282 5283 5264
5264 5283 5284 5265
5265 5284 5285 5266
5266 5285 5286 5267
5267 5286 5287 5268
5268 5287 5288 5269
5269 5288 196 195
334 335 5289 5270
5270 5289 5290 5271
5271 5290 5291 5272
5272 5291 5292 5273
5273 5292 5293 5274
5274 5293 5294 5275
5275 5294 5295 5276
5276 5295 5296 5277
5277 5296 5297 5278
5278 5297 5298 5279
5279 5298 5299 5280
5280 5299 5300 5281
5281 5300 5301 5282
5282 5301 5302 5283
5283 5302 5303 5284
5284 5303 5304 5285
5285 5304 5305 5286
5286 5305 5306 5287
5287 5306 5307 5288
5288 5307 197 196
335 336 5308 5289
5289 5308 5309 5290
5290 5309 5310 5291
5291 5310 5311 5292
5292 5311 5312 5293
5293 5312 5313 5294
5294 5313 5314 5295
5295 5314 5315 5296
5296 5315 5316 5297
5297 5316 5317 5298
5298 5317 5318 5299
5299 5318 5319 5300
5300 5319 5320 5301
5301 5320 5321 5302
5302 5321 5322 5303
5303 5322 5323 5304
5304 5323 5324 5305
5305 5324 5325 5306
5306 5325 5326 5307
5307 5326 198 197
336 337 5327 5308
5308 5327 5328 5309
5309 5328 5329 5310
5310 5329 5330 5311
5311 5330 5331 5312
5312 5331 5332 5313
5313 5332 5333 5314
5314 5333 5334 5315
5315 5334 5335 5316
5316 5335 5336 5317
5317 5336 5337 5318
5318 5337 5338 5319
5319 5338 5339 5320
5320 5339 5340 5321
5321 5340 5341 5322
5322 5341 5342 5323
5323 5342 5343 5324
5324 5343 5344 5325
5325 5344 5345 5326
5326 5345 199 198
337 338 5346 5327
5327 5346 5347 5328
5328 5347 5348 5329
5329 5348 5349 5330
5330 5349 5350 5331
5331 5350 5351 5332
5332 5351 5352 5333
5333 5352 5353 5334
5334 5353 5354 5335
5335 5354 5355 5336
5336 5355 5356 5337
5337 5356 5357 5338
5338 5357 5358 5339
5339 5358 5359 5340
5340 5359 5360 5341
5341 5360 5361 5342
5342 5361 5362 5343
5343 5362 5363 5344
5344 5363 5364 5345
5345 5364 200 199
338 339 5365 5346
5346 5365 5366 5347
5347 5366 5367 5348
5348 5367 5368 5349
5349 5368 5369 5350
5350 5369 5370 5351
5351 5370 5371 5352
5352 5371 5372 5353
5353 5372 5373 5354
5354 5373 5374 5355
5355 5374 5375 5356
5356 5375 5376 5357
5357 5376 5377 5358
5358 5377 5378 5359
5359 5378 5379 5360
5360 5379 5380 5361
5361 5380 5381 5362
5362 5381 5382 5363
5363 5382 5383 5364
5364 5383 201 200
339 340 5384 5365
5365 5384 5385 5366
5366 5385 5386 5367
5367 5386 5387 5368
5368 5387 5388 5369
5369 5388 5389 5370
5370 5389 5390 5371
5371 5390 5391 5372
5372 5391 5392 5373
5373 5392 5393 5374
5374 5393 5394 5375
5375 5394 5395 5376
5376 5395 5396 5377
5377 5396 5397 5378
5378 5397 5398 5379
5379 5398 5399 5380
5380 5399 5400 5381
5381 5400 5401 5382
5382 5401 5402 5383
5383 5402 202 201
340 341 5403 5384
5384 5403 5404 5385
5385 5404 5405 5386
5386 5405 5406 5387
5387 5406 5407 5388
5388 5407 5408 5389
5389 5408 5409 5390
5390 5409 5410 5391
5391 5410 5411 5392
5392 5411 5412 5393
5393 5412 5413 5394
5394 5413 5414 5395
5395 5414 5415 5396
5396 5415 5416 5397
5397 5416 5417 5398
5398 5417 5418 5399
5399 5418 5419 5400
5400 5419 5420 5401
5401 5420 5421 5402
5402 5421 203 202
341 342 5422 5403
5403 5422 5423 5404
5404 5423 5424 5405
5405 5424 5425 5406
5406 5425 5426 5407
5407 5426 5427 5408
5408 5427 5428 5409
5409 5428 5429 5410
5410 5429 5430 5411
5411 5430 5431 5412
5412 5431 5432 5413
5413 5432 5433 5414
5414 5433 5434 5415
5415 5434 5435 5416
5416 5435 5436 5417
5417 5436 5437 5418
5418 5437 5438 5419
5419 5438 5439 5420
5420 5439 5440 5421
5421 5440 204 203
342 343 5441 5422
5422 5441 5442 5423
5423 5442 5443 5424
5424 5443 5444 5425
5425 5444 5445 5426
5426 5445 5446 5427
5427 5446 5447 5428
5428 5447 5448 5429
5429 5448 5449 5430
5430 5449 5450 5431
5431 5450 5451 5432
5432 5451 5452 5433
5433 5452 5453 5434
5434 5453 5454 5435
5435 5454 5455 5436
5436 5455 5456 5437
5437 5456 5457 5438
5438 5457 5458 5439
5439 5458 5459 5440
5440 5459 205 204
343 344 5460 5441
5441 5460 5461 5442
5442 5461 5462 5443
5443 5462 5463 5444
5444 5463 5464 5445
5445 5464 5465 5446
5446 5465 5466 5447
5447 5466 5467 5448
5448 5467 5468 5449
5449 5468 5469 5450
5450 5469 5470 5451
5451 5470 5471 5452
5452 5471 5472 5453
5453 5472 5473 5454
5454 5473 5474 5455
5455 5474 5475 5456
5456 5475 5476 5457
5457 5476 5477 5458
5458 5477 5478 5459
5459 5478 206 205
344 345 5479 5460
5460 5479 5480 5461
5461 5480 5481 5462
5462 5481 5482 5463
5463 5482 5483 5464
5464 5483 5484 5465
5465 5484 5485 5466
5466 5485 5486 5467
5467 5486 5487 5468
5468 5487 5488 5469
5469 5488 5489 5470
5470 5489 5490 5471
5471 5490 5491 5472
5472 5491 5492 5473
5473 5492 5493 5474
5474 5493 5494 5475
5475 5494 5495 5476
5476 5495 5496 5477
5477 5496 5497 5478
5478 5497 207 206
345 346 5498 5479
5479 5498 5499 5480
5480 5499 5500 5481
5481 5500 5501 5482
5482 5501 5502 5483
5483 5502 5503 5484
5484 5503 5504 5485
5485 5504 5505 5486
5486 5505 5506 5487
5487 5506 5507 5488
5488 5507 5508 5489
5489 5508 5509 5490
5490 5509 5510 5491
5491 5510 5511 5492
5492 5511 5512 5493
5493 5512 5513 5494
5494 5513 5514 5495
5495 5514 5515 5496
5496 5515 5516 5497
5497 5516 208 207
346 347 5517 5498
5498 5517 5518 5499
5499 5518 5519 5500
5500 5519 5520 5501
5501 5520 5521 5502
5502 5521 5522 5503
5503 5522 5523 5504
5504 5523 5524 5505
5505 5524 5525 5506
5506 5525 5526 5507
5507 5526 5527 5508
5508 5527 5528 5509
5509 5528 5529 5510
5510 5529 5530 5511
5511 5530 5531 5512
5512 5531 5532 5513
5513 5532 5533 5514
5514 5533 5534 5515
5515 5534 5535 5516
5516 5535 209 208
347 348 5536 5517
5517 5536 5537 5518
5518 5537 5538 5519
5519 5538 5539 5520
5520 5539 5540 5521
5521 5540 5541 5522
5522 5541 5542 5523
5523 5542 5543 5524
5524 5543 5544 5525
5525 5544 5545 5526
5526 5545 5546 5527
5527 5546 5547 5528
5528 5547 5548 5529
5529 5548 5549 5530
5530 5549 5550 5531
5531 5550 5551 5532
5532 5551 5552 5533
5533 5552 5553 5534
5534 5553 5554 5535
5535 5554 210 209
348 349 5555 5536
5536 5555 5556 5537
5537 5556 5557 5538
5538 5557 5558 5539
5539 5558 5559 5540
5540 5559 5560 5541
5541 5560 5561 5542
5542 5561 5562 5543
5543 5562 5563 5544
5544 5563 5564 5545
5545 5564 5565 5546
5546 5565 5566 5547
5547 5566 5567 5548
5548 5567 5568 5549
5549 5568 5569 5550
5550 5569 5570 5551
5551 5570 5571 5552
5552 5571 5572 5553
5553 5572 5573 5554
5554 5573 211 210
349 350 5574 5555
5555 5574 5575 5556
5556 5575 5576 5557
5557 5576 5577 5558
5558 5577 5578 5559
5559 5578 5579 5560
5560 5579 5580 5561
5561 5580 5581 5562
5562 5581 5582 5563
5563 5582 5583 5564
5564 5583 5584 5565
5565 5584 5585 5566
5566 5585 5586 5567
5567 5586 5587 5568
5568 5587 5588 5569
5569 5588 5589 5570
5570 5589 5590 5571
5571 5590 5591 5572
5572 5591 5592 5573
5573 5592 212 211
350 351 5593 5574
5574 5593 5594 5575
5575 5594 5595 5576
5576 5595 5596 5577
5577 5596 5597 5578
5578 5597 5598 5579
5579 5598 5599 5580
5580 5599 5600 5581
5581 5600 5601 5582
5582 5601 5602 5583
5583 5602 5603 5584
5584 5603 5604 5585
5585 5604 5605 5586
5586 5605 5606 5587
5587 5606 5607 5588
5588 5607 5608 5589
5589 5608 5609 5590
5590 5609 5610 5591
5591 5610 5611 5592
5592 5611 213 212
351 352 5612 5593
5593 5612 5613 5594
5594 5613 5614 5595
5595 5614 5615 5596
5596 5615 5616 5597
5597 5616 5617 5598
5598 5617 5618 5599
5599 5618 5619 5600
5600 5619 5620 5601
5601 5620 5621 5602
5602 5621 5622 5603
5603 5622 5623 5604
5604 5623 5624 5605
5605 5624 5625 5606
5606 5625 5626 5607
5607 5626 5627 5608
5608 5627 5628 5609
5609 5628 5629 5610
5610 5629 5630 5611
5611 5630 214 213
352 353 5631 5612
5612 5631 5632 5613
5613 5632 5633 5614
5614 5633 5634 5615
5615 5634 5635 5616
5616 5635 5636 5617
5617 5636 5637 5618
5618 5637 5638 5619
5619 5638 5639 5620
5620 5639 5640 5621
5621 5640 5641 5622
5622 5641 5642 5623
5623 5642 5643 5624
5624 5643 5644 5625
5625 5644 5645 5626
5626 5645 5646 5627
5627 5646 5647 5628
5628 5647 5648 5629
5629 5648 5649 5630
5630 5649 215 214
353 354 5650 5631
5631 5650 5651 5632
5632 5651 5652 5633
5633 5652 5653 5634
5634 5653 5654 5635
5635 5654 5655 5636
5636 5655 5656 5637
5637 5656 5657 5638
5638 5657 5658 5639
5639 5658 5659 5640
5640 5659 5660 5641
5641 5660 5661 5642
5642 5661 5662 5643
5643 5662 5663 5644
5644 5663 5664 5645
5645 5664 5665 5646
5646 5665 5666 5647
5647 5666 5667 5648
5648 5667 5668 5649
5649 5668 216 215
354 355 5669 5650
5650 5669 5670 5651
5651 5670 5671 5652
5652 5671 5672 5653
5653 5672 5673 5654
5654 5673 5674 5655
5655 5674 5675 5656
5656 5675 5676 5657
5657 5676 5677 5658
5658 5677 5678 5659
5659 5678 5679 5660
5660 5679 5680 5661
5661 5680 5681 5662
5662 5681 5682 5663
5663 5682 5683 5664
5664 5683 5684 5665
5665 5684 5685 5666
5666 5685 5686 5667
5667 5686 5687 5668
5668 5687 217 216
355 356 5688 5669
5669 5688 5689 5670
5670 5689 5690 5671
5671 5690 5691 5672
5672 5691 5692 5673
5673 5692 5693 5674
5674 5693 5694 5675
5675 5694 5695 5676
5676 5695 5696 5677
5677 5696 5697 5678
5678 5697 5698 5679
5679 5698 5699 5680
5680 5699 5700 5681
5681 5700 5701 5682
5682 5701 5702 5683
5683 5702 5703 5684
5684 5703 5704 5685
5685 5704 5705 5686
5686 5705 5706 5687
5687 5706 218 217
356 357 5707 5688
5688 5707 5708 5689
5689 5708 5709 5690
5690 5709 5710 5691
5691 5710 5711 5692
5692 5711 5712 5693
5693 5712 5713 5694
5694 5713 5714 5695
5695 5714 5715 5696
5696 5715 5716 5697
5697 5716 5717 5698
5698 5717 5718 5699
5699 5718 5719 5700
5700 5719 5720 5701
5701 5720 5721 5702
5702 5721 5722 5703
5703 5722 5723 5704
5704 5723 5724 5705
5705 5724 5725 5706
5706 5725 219 218
357 358 5726 5707
5707 5726 5727 5708
5708 5727 5728 5709
5709 5728 5729 5710
5710 5729 5730 5711
5711 5730 5731 5712
5712 5731 5732 5713
5713 5732 5733 5714
5714 5733 5734 5715
5715 5734 5735 5716
5716 5735 5736 5717
5717 5736 5737 5718
5718 5737 5738 5719
5719 5738 5739 5720
5720 5739 5740 5721
5721 5740 5741 5722
5722 5741 5742 5723
5723 5742 5743 5724
5724 5743 5744 5725
5725 5744 220 219
358 359 5745 5726
5726 5745 5746 5727
5727 5746 5747 5728
5728 5747 5748 5729
5729 5748 5749 5730
5730 5749 5750 5731
5731 5750 5751 5732
5732 5751 5752 5733
5733 5752 5753 5734
5734 5753 5754 5735
5735 5754 5755 5736
5736 5755 5756 5737
5737 5756 5757 5738
5738 5757 5758 5739
5739 5758 5759 5740
5740 5759 5760 5741
5741 5760 5761 5742
5742 5761 5762 5743
5743 5762 5763 5744
5744 5763 221 220
359 360 5764 5745
5745 5764 5765 5746
5746 5765 5766 5747
5747 5766 5767 5748
5748 5767 5768 5749
5749 5768 5769 5750
5750 5769 5770 5751
5751 5770 5771 5752
5752 5771 5772 5753
5753 5772 5773 5754
5754 5773 5774 5755
5755 5774 5775 5756
5756 5775 5776 5757
5757 5776 5777 5758
5758 5777 5778 5759
5759 5778 5779 5760
5760 5779 5780 5761
5761 5780 5781 5762
5762 5781 5782 5763
5763 5782 222 221
360 361 5783 5764
5764 5783 5784 5765
5765 5784 5785 5766
5766 5785 5786 5767
5767 5786 5787 5768
5768 5787 5788 5769
5769 5788 5789 5770
5770 5789 5790 5771
5771 5790 5791 5772
5772 5791 5792 5773
5773 5792 5793 5774
5774 5793 5794 5775
5775 5794 5795 5776
5776 5795 5796 5777
5777 5796 5797 5778
5778 5797 5798 5779
5779 5798 5799 5780
5780 5799 5800 5781
5781 5800 5801 5782
5782 5801 223 222
361 10 419 5783
5783 419 420 5784
5784 420 421 5785
5785 421 422 5786
5786 422 423 5787
5787 423 424 5788
5788 424 425 5789
5789 425 426 5790
5790 426 427 5791
5791 427 428 5792
5792 428 429 5793
5793 429 430 5794
5794 430 431 5795
5795 431 432 5796
5796 432 433 5797
5797 433 434 5798
5798 434 435 5799
5799 435 436 5800
5800 436 437 5801
5801 437 8 223
</DataArray>
<DataArray type="Int64" Name="offsets" format="ascii">
4
8
12
16
20
24
28
32
36
40
44
48
52
56
60
64
68
72
76
80
84
88
92
96
100
104
108
112
116
120
124
128
132
136
140
144
148
152
156
160
164
168
172
176
180
184
188
192
196
200
204
208
212
216
220
224
228
232
236
240
244
248
252
256
260
264
268
272
276
280
284
288
292
296
300
304
308
312
316
320
324
328
332
336
340
344
348
352
356
360
364
368
372
376
380
384
388
392
396
400
404
408
412
416
420
424
428
432
436
440
444
448
452
456
460
464
468
472
476
480
484
488
492
496
500
504
508
512
516
520
524
528
532
536
540
544
548
552
556
560
564
568
572
576
580
584
588
592
596
600
604
608
612
616
620
624
628
632
636
640
644
648
652
656
660
664
668
672
676
680
684
688
692
696
700
704
708
712
716
720
724
728
732
736
740
744
748
752
756
760
764
768
772
776
780
784
788
792
796
800
804
808
812
816
820
824
828
832
836
840
844
848
852
856
860
864
868
872
876
880
884
888
892
896
900
904
908
912
916
920
924
928
932
936
940
944
948
952
956
960
964
968
972
976
980
984
988
992
996
1000
1004
1008
1012
1016
1020
1024
1028
1032
1036
1040
1044
1048
1052
1056
1060
1064
1068
1072
1076
1080
1084
1088
1092
1096
1100
1104
1108
1112
1116
1120
1124
1128
1132
1136
1140
1144
1148
1152
1156
1160
1164
1168
1172
1176
1180
1184
1188
1192
1196
1200
1204
1208
1212
1216
1220
1224
1228
1232
1236
1240
1244
1248
1252
1256
1260
1264
1268
1272
1276
1280
1284
1288
1292
1296
1300
1304
1308
1312
1316
1320
1324
1328
1332
1336
1340
1344
1348
1352
1356
1360
1364
1368
1372
1376
1380
1384
1388
1392
1396
1400
1404
1408
1412
1416
1420
1424
1428
1432
1436
1440
1444
1448
1452
1456
1460
1464
1468
1472
1476
1480
1484
1488
1492
1496
1500
1504
1508
1512
1516
1520
1524
1528
1532
1536
1540
1544
1548
1552
1556
1560
1564
1568
1572
1576
1580
1584
1588
1592
1596
1600
1604
1608
1612
1616
1620
1624
1628
1632
1636
1640
1644
1648
1652
1656
1660
1664
1668
1672
1676
1680
1684
1688
1692
1696
1700
1704
1708
1712
1716
1720
1724
1728
1732
1736
1740
1744
1748
1752
1756
1760
1764
1768
1772
1776
1780
1784
1788
1792
1796
1800
1804
1808
1812
1816
1820
1824
1828
1832
1836
1840
1844
1848
1852
1856
1860
1864
1868
1872
1876
1880
1884
1888
1892
1896
1900
1904
1908
1912
1916
1920
1924
1928
1932
1936
1940
1944
1948
1952
1956
1960
1964
1968
1972
1976
1980
1984
1988
1992
1996
2000
2004
2008
2012
2016
2020
2024
2028
2032
2036
2040
2044
2048
2052
2056
2060
2064
2068
2072
2076
2080
2084
2088
2092
2096
2100
2104
2108
2112
2116
2120
2124
2128
2132
2136
2140
2144
2148
2152
2156
2160
2164
2168
2172
2176
2180
2184
2188
2192
2196
2200
2204
2208
2212
2216
2220
2224
2228
2232
2236
2240
2244
2248
2252
2256
2260
2264
2268
2272
2276
2280
2284
2288
2292
2296
2300
2304
2308
2312
2316
2320
2324
2328
2332
2336
2340
2344
2348
2352
2356
2360
2364
2368
2372
2376
2380
2384
2388
2392
2396
2400
2404
2408
2412
2416
2420
2424
2428
2432
2436
2440
2444
2448
2452
2456
2460
2464
2468
2472
2476
2480
2484
2488
2492
2496
2500
2504
2508
2512
2516
2520
2524
2528
2532
2536
2540
2544
2548
2552
2556
2560
2564
2568
2572
2576
2580
2584
2588
2592
2596
2600
2604
2608
2612
2616
2620
2624
2628
2632
2636
2640
2644
2648
2652
2656
2660
2664
2668
2672
2676
2680
2684
2688
2692
2696
2700
2704
2708
2712
2716
2720
2724
2728
2732
2736
2740
2744
2748
2752
2756
2760
2764
2768
2772
2776
2780
2784
2788
2792
2796
2800
2804
2808
2812
2816
2820
2824
2828
2832
2836
2840
2844
2848
2852
2856
2860
2864
2868
2872
2876
2880
2884
2888
2892
2896
2900
2904
2908
2912
2916
2920
2924
2928
2932
2936
2940
2944
2948
2952
2956
2960
2964
2968
2972
2976
2980
2984
2988
2992
2996
3000
3004
3008
3012
3016
3020
3024
3028
3032
3036
3040
3044
3048
3052
3056
3060
3064
3068
3072
3076
3080
3084
3088
3092
3096
3100
3104
3108
3112
3116
3120
3124
3128
3132
3136
3140
3144
3148
3152
3156
3160
3164
3168
3172
3176
3180
3184
3188
3192
3196
3200
3204
3208
3212
3216
3220
3224
3228
3232
3236
3240
3244
3248
3252
3256
3260
3264
3268
3272
3276
3280
3284
3288
3292
3296
3300
3304
3308
3312
3316
3320
3324
3328
3332
3336
3340
3344
3348
3352
3356
3360
3364
3368
3372
3376
3380
3384
3388
3392
3396
3400
3404
3408
3412
3416
3420
3424
3428
3432
3436
3440
3444
3448
3452
3456
3460
3464
3468
3472
3476
3480
3484
3488
3492
3496
3500
3504
3508
3512
3516
3520
3524
3528
3532
3536
3540
3544
3548
3552
3556
3560
3564
3568
3572
3576
3580
3584
3588
3592
3596
3600
3604
3608
3612
3616
3620
3624
3628
3632
3636
3640
3644
3648
3652
3656
3660
3664
3668
3672
3676
3680
3684
3688
3692
3696
3700
3704
3708
3712
3716
3720
3724
3728
3732
3736
3740
3744
3748
3752
3756
3760
3764
3768
3772
3776
3780
3784
3788
3792
3796
3800
3804
3808
3812
3816
3820
3824
3828
3832
3836
3840
3844
3848
3852
3856
3860
3864
3868
3872
3876
3880
3884
3888
3892
3896
3900
3904
3908
3912
3916
3920
3924
3928
3932
3936
3940
3944
3948
3952
3956
3960
3964
3968
3972
3976
3980
3984
3988
3992
3996
4000
4004
4008
4012
4016
4020
4024
4028
4032
4036
4040
4044
4048
4052
4056
4060
4064
4068
4072
4076
4080
4084
4088
4092
4096
4100
4104
4108
4112
4116
4120
4124
4128
4132
4136
4140
4144
4148
4152
4156
4160
4164
4168
4172
4176
4180
4184
4188
4192
4196
4200
4204
4208
4212
4216
4220
4224
4228
4232
4236
4240
4244
4248
4252
4256
4260
4264
4268
4272
4276
4280
4284
4288
4292
4296
4300
4304
4308
4312
4316
4320
4324
4328
4332
4336
4340
4344
4348
4352
4356
4360
4364
4368
4372
4376
4380
4384
4388
4392
4396
4400
4404
4408
4412
4416
4420
4424
4428
4432
4436
4440
4444
4448
4452
4456
4460
4464
4468
4472
4476
4480
4484
4488
4492
4496
4500
4504
4508
4512
4516
4520
4524
4528
4532
4536
4540
4544
4548
4552
4556
4560
4564
4568
4572
4576
4580
4584
4588
4592
4596
4600
4604
4608
4612
4616
4620
4624
4628
4632
4636
4640
4644
4648
4652
4656
4660
4664
4668
4672
4676
4680
4684
4688
4692
4696
4700
4704
4708
4712
4716
4720
4724
4728
4732
4736
4740
4744
4748
4752
4756
4760
4764
4768
4772
4776
4780
4784
4788
4792
4796
4800
4804
4808
4812
4816
4820
4824
4828
4832
4836
4840
4844
4848
4852
4856
4860
4864
4868
4872
4876
4880
4884
4888
4892
4896
4900
4904
4908
4912
4916
4920
4924
4928
4932
4936
4940
4944
4948
4952
4956
4960
4964
4968
4972
4976
4980
4984
4988
4992
4996
5000
5004
5008
5012
5016
5020
5024
5028
5032
5036
5040
5044
5048
5052
5056
5060
5064
5068
5072
5076
5080
5084
5088
5092
5096
5100
5104
5108
5112
5116
5120
5124
5128
5132
5136
5140
5144
5148
5152
5156
5160
5164
5168
5172
5176
5180
5184
5188
5192
5196
5200
5204
5208
5212
5216
5220
5224
5228
5232
5236
5240
5244
5248
5252
5256
5260
5264
5268
5272
5276
5280
5284
5288
5292
5296
5300
5304
5308
5312
5316
5320
5324
5328
5332
5336
5340
5344
5348
5352
5356
5360
5364
5368
5372
5376
5380
5384
5388
5392
5396
5400
5404
5408
5412
5416
5420
5424
5428
5432
5436
5440
5444
5448
5452
5456
5460
5464
5468
5472
5476
5480
5484
5488
5492
5496
5500
5504
5508
5512
5516
5520
5524
5528
5532
5536
5540
5544
5548
5552
5556
5560
5564
5568
5572
5576
5580
5584
5588
5592
5596
5600
5604
5608
5612
5616
5620
5624
5628
5632
5636
5640
5644
5648
5652
5656
5660
5664
5668
5672
5676
5680
5684
5688
5692
5696
5700
5704
5708
5712
5716
5720
5724
5728
5732
5736
5740
5744
5748
5752
5756
5760
5764
5768
5772
5776
5780
5784
5788
5792
5796
5800
5804
5808
5812
5816
5820
5824
5828
5832
5836
5840
5844
5848
5852
5856
5860
5864
5868
5872
5876
5880
5884
5888
5892
5896
5900
5904
5908
5912
5916
5920
5924
5928
5932
5936
5940
5944
5948
5952
5956
5960
5964
5968
5972
5976
5980
5984
5988
5992
5996
6000
6004
6008
6012
6016
6020
6024
6028
6032
6036
6040
6044
6048
6052
6056
6060
6064
6068
6072
6076
6080
6084
6088
6092
6096
6100
6104
6108
6112
6116
6120
6124
6128
6132
6136
6140
6144
6148
6152
6156
6160
6164
6168
6172
6176
6180
6184
6188
6192
6196
6200
6204
6208
6212
6216
6220
6224
6228
6232
6236
6240
6244
6248
6252
6256
6260
6264
6268
6272
6276
6280
6284
6288
6292
6296
6300
6304
6308
6312
6316
6320
6324
6328
6332
6336
6340
6344
6348
6352
6356
6360
6364
6368
6372
6376
6380
6384
6388
6392
6396
6400
6404
6408
6412
6416
6420
6424
6428
6432
6436
6440
6444
6448
6452
6456
6460
6464
6468
6472
6476
6480
6484
6488
6492
6496
6500
6504
6508
6512
6516
6520
6524
6528
6532
6536
6540
6544
6548
6552
6556
6560
6564
6568
6572
6576
6580
6584
6588
6592
6596
6600
6604
6608
6612
6616
6620
6624
6628
6632
6636
6640
6644
6648
6652
6656
6660
6664
6668
6672
6676
6680
6684
6688
6692
6696
6700
6704
6708
6712
6716
6720
6724
6728
6732
6736
6740
6744
6748
6752
6756
6760
6764
6768
6772
6776
6780
6784
6788
6792
6796
6800
6804
6808
6812
6816
6820
6824
6828
6832
6836
6840
6844
6848
6852
6856
6860
6864
6868
6872
6876
6880
6884
6888
6892
6896
6900
6904
6908
6912
6916
6920
6924
6928
6932
6936
6940
6944
6948
6952
6956
6960
6964
6968
6972
6976
6980
6984
6988
6992
6996
7000
7004
7008
7012
7016
7020
7024
7028
7032
7036
7040
7044
7048
7052
7056
7060
7064
7068
7072
7076
7080
7084
7088
7092
7096
7100
7104
7108
7112
7116
7120
7124
7128
7132
7136
7140
7144
7148
7152
7156
7160
7164
7168
7172
7176
7180
7184
7188
7192
7196
7200
7204
7208
7212
7216
7220
7224
7228
7232
7236
7240
7244
7248
7252
7256
7260
7264
7268
7272
7276
7280
7284
7288
7292
7296
7300
7304
7308
7312
7316
7320
7324
7328
7332
7336
7340
7344
7348
7352
7356
7360
7364
7368
7372
7376
7380
7384
7388
7392
7396
7400
7404
7408
7412
7416
7420
7424
7428
7432
7436
7440
7444
7448
7452
7456
7460
7464
7468
7472
7476
7480
7484
7488
7492
7496
7500
7504
7508
7512
7516
7520
7524
7528
7532
7536
7540
7544
7548
7552
7556
7560
7564
7568
7572
7576
7580
7584
7588
7592
7596
7600
7604
7608
7612
7616
7620
7624
7628
7632
7636
7640
7644
7648
7652
7656
7660
7664
7668
7672
7676
7680
7684
7688
7692
7696
7700
7704
7708
7712
7716
7720
7724
7728
7732
7736
7740
7744
7748
7752
7756
7760
7764
7768
7772
7776
7780
7784
7788
7792
7796
7800
7804
7808
7812
7816
7820
7824
7828
7832
7836
7840
7844
7848
7852
7856
7860
7864
7868
7872
7876
7880
7884
7888
7892
7896
7900
7904
7908
7912
7916
7920
7924
7928
7932
7936
7940
7944
7948
7952
7956
7960
7964
7968
7972
7976
7980
7984
7988
7992
7996
8000
8004
8008
8012
8016
8020
8024
8028
8032
8036
8040
8044
8048
8052
8056
8060
8064
8068
8072
8076
8080
8084
8088
8092
8096
8100
8104
8108
8112
8116
8120
8124
8128
8132
8136
8140
8144
8148
8152
8156
8160
8164
8168
8172
8176
8180
8184
8188
8192
8196
8200
8204
8208
8212
8216
8220
8224
8228
8232
8236
8240
8244
8248
8252
8256
8260
8264
8268
8272
8276
8280
8284
8288
8292
8296
8300
8304
8308
8312
8316
8320
8324
8328
8332
8336
8340
8344
8348
8352
8356
8360
8364
8368
8372
8376
8380
8384
8388
8392
8396
8400
8404
8408
8412
8416
8420
8424
8428
8432
8436
8440
8444
8448
8452
8456
8460
8464
8468
8472
8476
8480
8484
8488
8492
8496
8500
8504
8508
8512
8516
8520
8524
8528
8532
8536
8540
8544
8548
8552
8556
8560
8564
8568
8572
8576
8580
8584
8588
8592
8596
8600
8604
8608
8612
8616
8620
8624
8628
8632
8636
8640
8644
8648
8652
8656
8660
8664
8668
8672
8676
8680
8684
8688
8692
8696
8700
8704
8708
8712
8716
8720
8724
8728
8732
8736
8740
8744
8748
8752
8756
8760
8764
8768
8772
8776
8780
8784
8788
8792
8796
8800
8804
8808
8812
8816
8820
8824
8828
8832
8836
8840
8844
8848
8852
8856
8860
8864
8868
8872
8876
8880
8884
8888
8892
8896
8900
8904
8908
8912
8916
8920
8924
8928
8932
8936
8940
8944
8948
8952
8956
8960
8964
8968
8972
8976
8980
8984
8988
8992
8996
9000
9004
9008
9012
9016
9020
9024
9028
9032
9036
9040
9044
9048
9052
9056
9060
9064
9068
9072
9076
9080
9084
9088
9092
9096
9100
9104
9108
9112
9116
9120
9124
9128
9132
9136
9140
9144
9148
9152
9156
9160
9164
9168
9172
9176
9180
9184
9188
9192
9196
9200
9204
9208
9212
9216
9220
9224
9228
9232
9236
9240
9244
9248
9252
9256
9260
9264
9268
9272
9276
9280
9284
9288
9292
9296
9300
9304
9308
9312
9316
9320
9324
9328
9332
9336
9340
9344
9348
9352
9356
9360
9364
9368
9372
9376
9380
9384
9388
9392
9396
9400
9404
9408
9412
9416
9420
9424
9428
9432
9436
9440
9444
9448
9452
9456
9460
9464
9468
9472
9476
9480
9484
9488
9492
9496
9500
9504
9508
9512
9516
9520
9524
9528
9532
9536
9540
9544
9548
9552
9556
9560
9564
9568
9572
9576
9580
9584
9588
9592
9596
9600
9604
9608
9612
9616
9620
9624
9628
9632
9636
9640
9644
9648
9652
9656
9660
9664
9668
9672
9676
9680
9684
9688
9692
9696
9700
9704
9708
9712
9716
9720
9724
9728
9732
9736
9740
9744
9748
9752
9756
9760
9764
9768
9772
9776
9780
9784
9788
9792
9796
9800
9804
9808
9812
9816
9820
9824
9828
9832
9836
9840
9844
9848
9852
9856
9860
9864
9868
9872
9876
9880
9884
9888
9892
9896
9900
9904
9908
9912
9916
9920
9924
9928
9932
9936
9940
9944
9948
9952
9956
9960
9964
9968
9972
9976
9980
9984
9988
9992
9996
10000
10004
10008
10012
10016
10020
10024
10028
10032
10036
10040
10044
10048
10052
10056
10060
10064
10068
10072
10076
10080
10084
10088
10092
10096
10100
10104
10108
10112
10116
10120
10124
10128
10132
10136
10140
10144
10148
10152
10156
10160
10164
10168
10172
10176
10180
10184
10188
10192
10196
10200
10204
10208
10212
10216
10220
10224
10228
10232
10236
10240
10244
10248
10252
10256
10260
10264
10268
10272
10276
10280
10284
10288
10292
10296
10300
10304
10308
10312
10316
10320
10324
10328
10332
10336
10340
10344
10348
10352
10356
10360
10364
10368
10372
10376
10380
10384
10388
10392
10396
10400
10404
10408
10412
10416
10420
10424
10428
10432
10436
10440
10444
10448
10452
10456
10460
10464
10468
10472
10476
10480
10484
10488
10492
10496
10500
10504
10508
10512
10516
10520
10524
10528
10532
10536
10540
10544
10548
10552
10556
10560
10564
10568
10572
10576
10580
10584
10588
10592
10596
10600
10604
10608
10612
10616
10620
10624
10628
10632
10636
10640
10644
10648
10652
10656
10660
10664
10668
10672
10676
10680
10684
10688
10692
10696
10700
10704
10708
10712
10716
10720
10724
10728
10732
10736
10740
10744
10748
10752
10756
10760
10764
10768
10772
10776
10780
10784
10788
10792
10796
10800
10804
10808
10812
10816
10820
10824
10828
10832
10836
10840
10844
10848
10852
10856
10860
10864
10868
10872
10876
10880
10884
10888
10892
10896
10900
10904
10908
10912
10916
10920
10924
10928
10932
10936
10940
10944
10948
10952
10956
10960
10964
10968
10972
10976
10980
10984
10988
10992
10996
11000
11004
11008
11012
11016
11020
11024
11028
11032
11036
11040
11044
11048
11052
11056
11060
11064
11068
11072
11076
11080
11084
11088
11092
11096
11100
11104
11108
11112
11116
11120
11124
11128
11132
11136
11140
11144
11148
11152
11156
11160
11164
11168
11172
11176
11180
11184
11188
11192
11196
11200
11204
11208
11212
11216
11220
11224
11228
11232
11236
11240
11244
11248
11252
11256
11260
11264
11268
11272
11276
11280
11284
11288
11292
11296
11300
11304
11308
11312
11316
11320
11324
11328
11332
11336
11340
11344
11348
11352
11356
11360
11364
11368
11372
11376
11380
11384
11388
11392
11396
11400
11404
11408
11412
11416
11420
11424
11428
11432
11436
11440
11444
11448
11452
11456
11460
11464
11468
11472
11476
11480
11484
11488
11492
11496
11500
11504
11508
11512
11516
11520
11524
11528
11532
11536
11540
11544
11548
11552
11556
11560
11564
11568
11572
11576
11580
11584
11588
11592
11596
11600
11604
11608
11612
11616
11620
11624
11628
11632
11636
11640
11644
11648
11652
11656
11660
11664
11668
11672
11676
11680
11684
11688
11692
11696
11700
11704
11708
11712
11716
11720
11724
11728
11732
11736
11740
11744
11748
11752
11756
11760
11764
11768
11772
11776
11780
11784
11788
11792
11796
11800
11804
11808
11812
11816
11820
11824
11828
11832
11836
11840
11844
11848
11852
11856
11860
11864
11868
11872
11876
11880
11884
11888
11892
11896
11900
11904
11908
11912
11916
11920
11924
11928
11932
11936
11940
11944
11948
11952
11956
11960
11964
11968
11972
11976
11980
11984
11988
11992
11996
12000
12004
12008
12012
12016
12020
12024
12028
12032
12036
12040
12044
12048
12052
12056
12060
12064
12068
12072
12076
12080
12084
12088
12092
12096
12100
12104
12108
12112
12116
12120
12124
12128
12132
12136
12140
12144
12148
12152
12156
12160
12164
12168
12172
12176
12180
12184
12188
12192
12196
12200
12204
12208
12212
12216
12220
12224
12228
12232
12236
12240
12244
12248
12252
12256
12260
12264
12268
12272
12276
12280
12284
12288
12292
12296
12300
12304
12308
12312
12316
12320
12324
12328
12332
12336
12340
12344
12348
12352
12356
12360
12364
12368
12372
12376
12380
12384
12388
12392
12396
12400
12404
12408
12412
12416
12420
12424
12428
12432
12436
12440
12444
12448
12452
12456
12460
12464
12468
12472
12476
12480
12484
12488
12492
12496
12500
12504
12508
12512
12516
12520
12524
12528
12532
12536
12540
12544
12548
12552
12556
12560
12564
12568
12572
12576
12580
12584
12588
12592
12596
12600
12604
12608
12612
12616
12620
12624
12628
12632
12636
12640
12644
12648
12652
12656
12660
12664
12668
12672
12676
12680
12684
12688
12692
12696
12700
12704
12708
12712
12716
12720
12724
12728
12732
12736
12740
12744
12748
12752
12756
12760
12764
12768
12772
12776
12780
12784
12788
12792
12796
12800
12804
12808
12812
12816
12820
12824
12828
12832
12836
12840
12844
12848
12852
12856
12860
12864
12868
12872
12876
12880
12884
12888
12892
12896
12900
12904
12908
12912
12916
12920
12924
12928
12932
12936
12940
12944
12948
12952
12956
12960
12964
12968
12972
12976
12980
12984
12988
12992
12996
13000
13004
13008
13012
13016
13020
13024
13028
13032
13036
13040
13044
13048
13052
13056
13060
13064
13068
13072
13076
13080
13084
13088
13092
13096
13100
13104
13108
13112
13116
13120
13124
13128
13132
13136
13140
13144
13148
13152
13156
13160
13164
13168
13172
13176
13180
13184
13188
13192
13196
13200
13204
13208
13212
13216
13220
13224
13228
13232
13236
13240
13244
13248
13252
13256
13260
13264
13268
13272
13276
13280
13284
13288
13292
13296
13300
13304
13308
13312
13316
13320
13324
13328
13332
13336
13340
13344
13348
13352
13356
13360
13364
13368
13372
13376
13380
13384
13388
13392
13396
13400
13404
13408
13412
13416
13420
13424
13428
13432
13436
13440
13444
13448
13452
13456
13460
13464
13468
13472
13476
13480
13484
13488
13492
13496
13500
13504
13508
13512
13516
13520
13524
13528
13532
13536
13540
13544
13548
13552
13556
13560
13564
13568
13572
13576
13580
13584
13588
13592
13596
13600
13604
13608
13612
13616
13620
13624
13628
13632
13636
13640
13644
13648
13652
13656
13660
13664
13668
13672
13676
13680
13684
13688
13692
13696
13700
13704
13708
13712
13716
13720
13724
13728
13732
13736
13740
13744
13748
13752
13756
13760
13764
13768
13772
13776
13780
13784
13788
13792
13796
13800
13804
13808
13812
13816
13820
13824
13828
13832
13836
13840
13844
13848
13852
13856
13860
13864
13868
13872
13876
13880
13884
13888
13892
13896
13900
13904
13908
13912
13916
13920
13924
13928
13932
13936
13940
13944
13948
13952
13956
13960
13964
13968
13972
13976
13980
13984
13988
13992
13996
14000
14004
14008
14012
14016
14020
14024
14028
14032
14036
14040
14044
14048
14052
14056
14060
14064
14068
14072
14076
14080
14084
14088
14092
14096
14100
14104
14108
14112
14116
14120
14124
14128
14132
14136
14140
14144
14148
14152
14156
14160
14164
14168
14172
14176
14180
14184
14188
14192
14196
14200
14204
14208
14212
14216
14220
14224
14228
14232
14236
14240
14244
14248
14252
14256
14260
14264
14268
14272
14276
14280
14284
14288
14292
14296
14300
14304
14308
14312
14316
14320
14324
14328
14332
14336
14340
14344
14348
14352
14356
14360
14364
14368
14372
14376
14380
14384
14388
14392
14396
14400
14404
14408
14412
14416
14420
14424
14428
14432
14436
14440
14444
14448
14452
14456
14460
14464
14468
14472
14476
14480
14484
14488
14492
14496
14500
14504
14508
14512
14516
14520
14524
14528
14532
14536
14540
14544
14548
14552
14556
14560
14564
14568
14572
14576
14580
14584
14588
14592
14596
14600
14604
14608
14612
14616
14620
14624
14628
14632
14636
14640
14644
14648
14652
14656
14660
14664
14668
14672
14676
14680
14684
14688
14692
14696
14700
14704
14708
14712
14716
14720
14724
14728
14732
14736
14740
14744
14748
14752
14756
14760
14764
14768
14772
14776
14780
14784
14788
14792
14796
14800
14804
14808
14812
14816
14820
14824
14828
14832
14836
14840
14844
14848
14852
14856
14860
14864
14868
14872
14876
14880
14884
14888
14892
14896
14900
14904
14908
14912
14916
14920
14924
14928
14932
14936
14940
14944
14948
14952
14956
14960
14964
14968
14972
14976
14980
14984
14988
14992
14996
15000
15004
15008
15012
15016
15020
15024
15028
15032
15036
15040
15044
15048
15052
15056
15060
15064
15068
15072
15076
15080
15084
15088
15092
15096
15100
15104
15108
15112
15116
15120
15124
15128
15132
15136
15140
15144
15148
15152
15156
15160
15164
15168
15172
15176
15180
15184
15188
15192
15196
15200
15204
15208
15212
15216
15220
15224
15228
15232
15236
15240
15244
15248
15252
15256
15260
15264
15268
15272
15276
15280
15284
15288
15292
15296
15300
15304
15308
15312
15316
15320
15324
15328
15332
15336
15340
15344
15348
15352
15356
15360
15364
15368
15372
15376
15380
15384
15388
15392
15396
15400
15404
15408
15412
15416
15420
15424
15428
15432
15436
15440
15444
15448
15452
15456
15460
15464
15468
15472
15476
15480
15484
15488
15492
15496
15500
15504
15508
15512
15516
15520
15524
15528
15532
15536
15540
15544
15548
15552
15556
15560
15564
15568
15572
15576
15580
15584
15588
15592
15596
15600
15604
15608
15612
15616
15620
15624
15628
15632
15636
15640
15644
15648
15652
15656
15660
15664
15668
15672
15676
15680
15684
15688
15692
15696
15700
15704
15708
15712
15716
15720
15724
15728
15732
15736
15740
15744
15748
15752
15756
15760
15764
15768
15772
15776
15780
15784
15788
15792
15796
15800
15804
15808
15812
15816
15820
15824
15828
15832
15836
15840
15844
15848
15852
15856
15860
15864
15868
15872
15876
15880
15884
15888
15892
15896
15900
15904
15908
15912
15916
15920
15924
15928
15932
15936
15940
15944
15948
15952
15956
15960
15964
15968
15972
15976
15980
15984
15988
15992
15996
16000
16004
16008
16012
16016
16020
16024
16028
16032
16036
16040
16044
16048
16052
16056
16060
16064
16068
16072
16076
16080
16084
16088
16092
16096
16100
16104
16108
16112
16116
16120
16124
16128
16132
16136
16140
16144
16148
16152
16156
16160
16164
16168
16172
16176
16180
16184
16188
16192
16196
16200
16204
16208
16212
16216
16220
16224
16228
16232
16236
16240
16244
16248
16252
16256
16260
16264
16268
16272
16276
16280
16284
16288
16292
16296
16300
16304
16308
16312
16316
16320
16324
16328
16332
16336
16340
16344
16348
16352
16356
16360
16364
16368
16372
16376
16380
16384
16388
16392
16396
16400
16404
16408
16412
16416
16420
16424
16428
16432
16436
16440
16444
16448
16452
16456
16460
16464
16468
16472
16476
16480
16484
16488
16492
16496
16500
16504
16508
16512
16516
16520
16524
16528
16532
16536
16540
16544
16548
16552
16556
16560
16564
16568
16572
16576
16580
16584
16588
16592
16596
16600
16604
16608
16612
16616
16620
16624
16628
16632
16636
16640
16644
16648
16652
16656
16660
16664
16668
16672
16676
16680
16684
16688
16692
16696
16700
16704
16708
16712
16716
16720
16724
16728
16732
16736
16740
16744
16748
16752
16756
16760
16764
16768
16772
16776
16780
16784
16788
16792
16796
16800
16804
16808
16812
16816
16820
16824
16828
16832
16836
16840
16844
16848
16852
16856
16860
16864
16868
16872
16876
16880
16884
16888
16892
16896
16900
16904
16908
16912
16916
16920
16924
16928
16932
16936
16940
16944
16948
16952
16956
16960
16964
16968
16972
16976
16980
16984
16988
16992
16996
17000
17004
17008
17012
17016
17020
17024
17028
17032
17036
17040
17044
17048
17052
17056
17060
17064
17068
17072
17076
17080
17084
17088
17092
17096
17100
17104
17108
17112
17116
17120
17124
17128
17132
17136
17140
17144
17148
17152
17156
17160
17164
17168
17172
17176
17180
17184
17188
17192
17196
17200
17204
17208
17212
17216
17220
17224
17228
17232
17236
17240
17244
17248
17252
17256
17260
17264
17268
17272
17276
17280
17284
17288
17292
17296
17300
17304
17308
17312
17316
17320
17324
17328
17332
17336
17340
17344
17348
17352
17356
17360
17364
17368
17372
17376
17380
17384
17388
17392
17396
17400
17404
17408
17412
17416
17420
17424
17428
17432
17436
17440
17444
17448
17452
17456
17460
17464
17468
17472
17476
17480
17484
17488
17492
17496
17500
17504
17508
17512
17516
17520
17524
17528
17532
17536
17540
17544
17548
17552
17556
17560
17564
17568
17572
17576
17580
17584
17588
17592
17596
17600
17604
17608
17612
17616
17620
17624
17628
17632
17636
17640
17644
17648
17652
17656
17660
17664
17668
17672
17676
17680
17684
17688
17692
17696
17700
17704
17708
17712
17716
17720
17724
17728
17732
17736
17740
17744
17748
17752
17756
17760
17764
17768
17772
17776
17780
17784
17788
17792
17796
17800
17804
17808
17812
17816
17820
17824
17828
17832
17836
17840
17844
17848
17852
17856
17860
17864
17868
17872
17876
17880
17884
17888
17892
17896
17900
17904
17908
17912
17916
17920
17924
17928
17932
17936
17940
17944
17948
17952
17956
17960
17964
17968
17972
17976
17980
17984
17988
17992
17996
18000
18004
18008
18012
18016
18020
18024
18028
18032
18036
18040
18044
18048
18052
18056
18060
18064
18068
18072
18076
18080
18084
18088
18092
18096
18100
18104
18108
18112
18116
18120
18124
18128
18132
18136
18140
18144
18148
18152
18156
18160
18164
18168
18172
18176
18180
18184
18188
18192
18196
18200
18204
18208
18212
18216
18220
18224
18228
18232
18236
18240
18244
18248
18252
18256
18260
18264
18268
18272
18276
18280
18284
18288
18292
18296
18300
18304
18308
18312
18316
18320
18324
18328
18332
18336
18340
18344
18348
18352
18356
18360
18364
18368
18372
18376
18380
18384
18388
18392
18396
18400
18404
18408
18412
18416
18420
18424
18428
18432
18436
18440
18444
18448
18452
18456
18460
18464
18468
18472
18476
18480
18484
18488
18492
18496
18500
18504
18508
18512
18516
18520
18524
18528
18532
18536
18540
18544
18548
18552
18556
18560
18564
18568
18572
18576
18580
18584
18588
18592
18596
18600
18604
18608
18612
18616
18620
18624
18628
18632
18636
18640
18644
18648
18652
18656
18660
18664
18668
18672
18676
18680
18684
18688
18692
18696
18700
18704
18708
18712
18716
18720
18724
18728
18732
18736
18740
18744
18748
18752
18756
18760
18764
18768
18772
18776
18780
18784
18788
18792
18796
18800
18804
18808
18812
18816
18820
18824
18828
18832
18836
18840
18844
18848
18852
18856
18860
18864
18868
18872
18876
18880
18884
18888
18892
18896
18900
18904
18908
18912
18916
18920
18924
18928
18932
18936
18940
18944
18948
18952
18956
18960
18964
18968
18972
18976
18980
18984
18988
18992
18996
19000
19004
19008
19012
19016
19020
19024
19028
19032
19036
19040
19044
19048
19052
19056
19060
19064
19068
19072
19076
19080
19084
19088
19092
19096
19100
19104
19108
19112
19116
19120
19124
19128
19132
19136
19140
19144
19148
19152
19156
19160
19164
19168
19172
19176
19180
19184
19188
19192
19196
19200
19204
19208
19212
19216
19220
19224
19228
19232
19236
19240
19244
19248
19252
19256
19260
19264
19268
19272
19276
19280
19284
19288
19292
19296
19300
19304
19308
19312
19316
19320
19324
19328
19332
19336
19340
19344
19348
19352
19356
19360
19364
19368
19372
19376
19380
19384
19388
19392
19396
19400
19404
19408
19412
19416
19420
19424
19428
19432
19436
19440
19444
19448
19452
19456
19460
19464
19468
19472
19476
19480
19484
19488
19492
19496
19500
19504
19508
19512
19516
19520
19524
19528
19532
19536
19540
19544
19548
19552
19556
19560
19564
19568
19572
19576
19580
19584
19588
19592
19596
19600
19604
19608
19612
19616
19620
19624
19628
19632
19636
19640
19644
19648
19652
19656
19660
19664
19668
19672
19676
19680
19684
19688
19692
19696
19700
19704
19708
19712
19716
19720
19724
19728
19732
19736
19740
19744
19748
19752
19756
19760
19764
19768
19772
19776
19780
19784
19788
19792
19796
19800
19804
19808
19812
19816
19820
19824
19828
19832
19836
19840
19844
19848
19852
19856
19860
19864
19868
19872
19876
19880
19884
19888
19892
19896
19900
19904
19908
19912
19916
19920
19924
19928
19932
19936
19940
19944
19948
19952
19956
19960
19964
19968
19972
19976
19980
19984
19988
19992
19996
20000
20004
20008
20012
20016
20020
20024
20028
20032
20036
20040
20044
20048
20052
20056
20060
20064
20068
20072
20076
20080
20084
20088
20092
20096
20100
20104
20108
20112
20116
20120
20124
20128
20132
20136
20140
20144
20148
20152
20156
20160
20164
20168
20172
20176
20180
20184
20188
20192
20196
20200
20204
20208
20212
20216
20220
20224
20228
20232
20236
20240
20244
20248
20252
20256
20260
20264
20268
20272
20276
20280
20284
20288
20292
20296
20300
20304
20308
20312
20316
20320
20324
20328
20332
20336
20340
20344
20348
20352
20356
20360
20364
20368
20372
20376
20380
20384
20388
20392
20396
20400
20404
20408
20412
20416
20420
20424
20428
20432
20436
20440
20444
20448
20452
20456
20460
20464
20468
20472
20476
20480
20484
20488
20492
20496
20500
20504
20508
20512
20516
20520
20524
20528
20532
20536
20540
20544
20548
20552
20556
20560
20564
20568
20572
20576
20580
20584
20588
20592
20596
20600
20604
20608
20612
20616
20620
20624
20628
20632
20636
20640
20644
20648
20652
20656
20660
20664
20668
20672
20676
20680
20684
20688
20692
20696
20700
20704
20708
20712
20716
20720
20724
20728
20732
20736
20740
20744
20748
20752
20756
20760
20764
20768
20772
20776
20780
20784
20788
20792
20796
20800
20804
20808
20812
20816
20820
20824
20828
20832
20836
20840
20844
20848
20852
20856
20860
20864
20868
20872
20876
20880
20884
20888
20892
20896
20900
20904
20908
20912
20916
20920
20924
20928
20932
20936
20940
20944
20948
20952
20956
20960
20964
20968
20972
20976
20980
20984
20988
20992
20996
21000
21004
21008
21012
21016
21020
21024
21028
21032
21036
21040
21044
21048
21052
21056
21060
21064
21068
21072
21076
21080
21084
21088
21092
21096
21100
21104
21108
21112
21116
21120
21124
21128
21132
21136
21140
21144
21148
21152
21156
21160
21164
21168
21172
21176
21180
21184
21188
21192
21196
21200
21204
21208
21212
21216
21220
21224
21228
21232
21236
21240
21244
21248
21252
21256
21260
21264
21268
21272
21276
21280
21284
21288
21292
21296
21300
21304
21308
21312
21316
21320
21324
21328
21332
21336
21340
21344
21348
21352
21356
21360
21364
21368
21372
21376
21380
21384
21388
21392
21396
21400
21404
21408
21412
21416
21420
21424
21428
21432
21436
21440
21444
21448
21452
21456
21460
21464
21468
21472
21476
21480
21484
21488
21492
21496
21500
21504
21508
21512
21516
21520
21524
21528
21532
21536
21540
21544
21548
21552
21556
21560
21564
21568
21572
21576
21580
21584
21588
21592
21596
21600
21604
21608
21612
21616
21620
21624
21628
21632
21636
21640
21644
21648
21652
21656
21660
21664
21668
21672
21676
21680
21684
21688
21692
21696
21700
21704
21708
21712
21716
21720
21724
21728
21732
21736
21740
21744
21748
21752
21756
21760
21764
21768
21772
21776
21780
21784
21788
21792
21796
21800
21804
21808
21812
21816
21820
21824
21828
21832
21836
21840
21844
21848
21852
21856
21860
21864
21868
21872
21876
21880
21884
21888
21892
21896
21900
21904
21908
21912
21916
21920
21924
21928
21932
21936
21940
21944
21948
21952
21956
21960
21964
21968
21972
21976
21980
21984
21988
21992
21996
22000
22004
22008
22012
22016
22020
22024
22028
22032
22036
22040
22044
22048
22052
22056
22060
22064
22068
22072
22076
22080
22084
22088
22092
22096
22100
22104
22108
22112
22116
22120
22124
22128
22132
22136
22140
22144
22148
22152
22156
22160
22164
22168
22172
22176
22180
22184
22188
22192
22196
22200
22204
22208
22212
22216
22220
22224
22228
22232
22236
22240
22244
22248
22252
22256
22260
22264
22268
22272
22276
22280
22284
22288
22292
22296
22300
22304
22308
22312
22316
22320
22324
22328
22332
22336
22340
22344
22348
22352
22356
22360
22364
22368
22372
22376
22380
22384
22388
22392
22396
22400
22404
22408
22412
22416
22420
22424
22428
22432
22436
22440
22444
22448
22452
22456
22460
22464
22468
22472
22476
22480
22484
22488
22492
22496
22500
22504
22508
22512
22516
22520
22524
22528
22532
22536
22540
22544
22548
22552
22556
22560
22564
22568
22572
22576
22580
22584
22588
22592
22596
22600
22604
22608
22612
22616
22620
22624
22628
22632
22636
22640
22644
22648
22652
22656
22660
22664
22668
22672
22676
22680
22684
22688
22692
22696
22700
22704
22708
22712
22716
22720
</DataArray>
<DataArray type="Int64" Name="types" format="ascii">
9
9
9
9
9
9
9
9
9
9
9
9
9
9
9
9
9
9
9
9
9
9
9
9
9
9
9
9
9
9
9
9
9
9
9
9
9
9
9
9
9
9
9
9
9
9
9
9
9
9
9
9
9
9
9
9
9
9
9
9
9
9
9
9
9
9
9
9
9
9
9
9
9
9
9
9
9
9
9
9
9
9
9
9
9
9
9
9
9
9
9
9
9
9
9
9
9
9
9
9
9
9
9
9
9
9
9
9
9
9
9
9
9
9
9
9
9
9
9
9
9
9
9
9
9
9
9
9
9
9
9
9
9
9
9
9
9
9
9
9
9
9
9
9
9
9
9
9
9
9
9
9
9
9
9
9
9
9
9
9
9
9
9
9
9
9
9
9
9
9
9
9
9
9
9
9
9
9
9
9
9
9
9
9
9
9
9
9
9
9
9
9
9
9
9
9
9
9
9
9
9
9
9
9
9
9
9
9
9
9
9
9
9
9
9
9
9
9
9
9
9
9
9
9
9
9
9
9
9
9
9
9
9
9
9
9
9
9
9
9
9
9
9
9
9
9
9
9
9
9
9
9
9
9
9
9
9
9
9
9
9
9
9
9
9
9
9
9
9
9
9
9
9
9
9
9
9
9
9
9
9
9
9
9
9
9
9
9
9
9
9
9
9
9
9
9
9
9
9
9
9
9
9
9
9
9
9
9
9
9
9
9
9
9
9
9
9
9
9
9
9
9
9
9
9
9
9
9
9
9
9
9
9
9
9
9
9
9
9
9
9
9
9
9
9
9
9
9
9
9
9
9
9
9
9
9
9
9
9
9
9
9
9
9
9
9
9
9
9
9
9
9
9
9
9
9
9
9
9
9
9
9
9
9
9
9
9
9
9
9
9
9
9
9
9
9
9
9
9
9
9
9
9
9
9
9
9
9
9
9
9
9
9
9
9
9
9
9
9
9
9
9
9
9
9
9
9
9
9
9
9
9
9
9
9
9
9
9
9
9
9
9
9
9
9
9
9
9
9
9
9
9
9
9
9
9
9
9
9
9
9
9
9
9
9
9
9
9
9
9
9
9
9
9
9
9
9
9
9
9
9
9
9
9
9
9
9
9
9
9
9
9
9
9
9
9
9
9
9
9
9
9
9
9
9
9
9
9
9
9
9
9
9
9
9
9
9
9
9
9
9
9
9
9
9
9
9
9
9
9
9
9
9
9
9
9
9
9
9
9
9
9
9
9
9
9
9
9
9
9
9
9
9
9
9
9
9
9
9
9
9
9
9
9
9
9
9
9
9
9
9
9
9
9
9
9
9
9
9
9
9
9
9
9
9
9
9
9
9
9
9
9
9
9
9
9
9
9
9
9
9
9
9
9
9
9
9
9
9
9
9
9
9
9
9
9
9
9
9
9
9
9
9
9
9
9
9
9
9
9
9
9
9
9
9
9
9
9
9
9
9
9
9
9
9
9
9
9
9
9
9
9
9
9
9
9
9
9
9
9
9
9
9
9
9
9
9
9
9
9
9
9
9
9
9
9
9
9
9
9
9
9
9
9
9
9
9
9
9
9
9
9
9
9
9
9
9
9
9
9
9
9
9
9
9
9
9
9
9
9
9
9
9
9
9
9
9
9
9
9
9
9
9
9
9
9
9
9
9
9
9
9
9
9
9
9
9
9
9
9
9
9
9
9
9
9
9
9
9
9
9
9
9
9
9
9
9
9
9
9
9
9
9
9
9
9
9
9
9
9
9
9
9
9
9
9
9
9
9
9
9
9
9
9
9
9
9
9
9
9
9
9
9
9
9
9
9
9
9
9
9
9
9
9
9
9
9
9
9
9
9
9
9
9
9
9
9
9
9
9
9
9
9
9
9
9
9
9
9
9
9
9
9
9
9
9
9
9
9
9
9
9
9
9
9
9
9
9
9
9
9
9
9
9
9
9
9
9
9
9
9
9
9
9
9
9
9
9
9
9
9
9
9
9
9
9
9
9
9
9
9
9
9
9
9
9
9
9
9
9
9
9
9
9
9
9
9
9
9
9
9
9
9
9
9
9
9
9
9
9
9
9
9
9
9
9
9
9
9
9
9
9
9
9
9
9
9
9
9
9
9
9
9
9
9
9
9
9
9
9
9
9
9
9
9
9
9
9
9
9
9
9
9
9
9
9
9
9
9
9
9
9
9
9
9
9
9
9
9
9
9
9
9
9
9
9
9
9
9
9
9
9
9
9
9
9
9
9
9
9
9
9
9
9
9
9
9
9
9
9
9
9
9
9
9
9
9
9
9
9
9
9
9
9
9
9
9
9
9
9
9
9
9
9
9
9
9
9
9
9
9
9
9
9
9
9
9
9
9
9
9
9
9
9
9
9
9
9
9
9
9
9
9
9
9
9
9
9
9
9
9
9
9
9
9
9
9
9
9
9
9
9
9
9
9
9
9
9
9
9
9
9
9
9
9
9
9
9
9
9
9
9
9
9
9
9
9
9
9
9
9
9
9
9
9
9
9
9
9
9
9
9
9
9
9
9
9
9
9
9
9
9
9
9
9
9
9
9
9
9
9
9
9
9
9
9
9
9
9
9
9
9
9
9
9
9
9
9
9
9
9
9
9
9
9
9
9
9
9
9
9
9
9
9
9
9
9
9
9
9
9
9
9
9
9
9
9
9
9
9
9
9
9
9
9
9
9
9
9
9
9
9
9
9
9
9
9
9
9
9
9
9
9
9
9
9
9
9
9
9
9
9
9
9
9
9
9
9
9
9
9
9
9
9
9
9
9
9
9
9
9
9
9
9
9
9
9
9
9
9
9
9
9
9
9
9
9
9
9
9
9
9
9
9
9
9
9
9
9
9
9
9
9
9
9
9
9
9
9
9
9
9
9
9
9
9
9
9
9
9
9
9
9
9
9
9
9
9
9
9
9
9
9
9
9
9
9
9
9
9
9
9
9
9
9
9
9
9
9
9
9
9
9
9
9
9
9
9
9
9
9
9
9
9
9
9
9
9
9
9
9
9
9
9
9
9
9
9
9
9
9
9
9
9
9
9
9
9
9
9
9
9
9
9
9
9
9
9
9
9
9
9
9
9
9
9
9
9
9
9
9
9
9
9
9
9
9
9
9
9
9
9
9
9
9
9
9
9
9
9
9
9
9
9
9
9
9
9
9
9
9
9
9
9
9
9
9
9
9
9
9
9
9
9
9
9
9
9
9
9
9
9
9
9
9
9
9
9
9
9
9
9
9
9
9
9
9
9
9
9
9
9
9
9
9
9
9
9
9
9
9
9
9
9
9
9
9
9
9
9
9
9
9
9
9
9
9
9
9
9
9
9
9
9
9
9
9
9
9
9
9
9
9
9
9
9
9
9
9
9
9
9
9
9
9
9
9
9
9
9
9
9
9
9
9
9
9
9
9
9
9
9
9
9
9
9
9
9
9
9
9
9
9
9
9
9
9
9
9
9
9
9
9
9
9
9
9
9
9
9
9
9
9
9
9
9
9
9
9
9
9
9
9
9
9
9
9
9
9
9
9
9
9
9
9
9
9
9
9
9
9
9
9
9
9
9
9
9
9
9
9
9
9
9
9
9
9
9
9
9
9
9
9
9
9
9
9
9
9
9
9
9
9
9
9
9
9
9
9
9
9
9
9
9
9
9
9
9
9
9
9
9
9
9
9
9
9
9
9
9
9
9
9
9
9
9
9
9
9
9
9
9
9
9
9
9
9
9
9
9
9
9
9
9
9
9
9
9
9
9
9
9
9
9
9
9
9
9
9
9
9
9
9
9
9
9
9
9
9
9
9
9
9
9
9
9
9
9
9
9
9
9
9
9
9
9
9
9
9
9
9
9
9
9
9
9
9
9
9
9
9
9
9
9
9
9
9
9
9
9
9
9
9
9
9
9
9
9
9
9
9
9
9
9
9
9
9
9
9
9
9
9
9
9
9
9
9
9
9
9
9
9
9
9
9
9
9
9
9
9
9
9
9
9
9
9
9
9
9
9
9
9
9
9
9
9
9
9
9
9
9
9
9
9
9
9
9
9
9
9
9
9
9
9
9
9
9
9
9
9
9
9
9
9
9
9
9
9
9
9
9
9
9
9
9
9
9
9
9
9
9
9
9
9
9
9
9
9
9
9
9
9
9
9
9
9
9
9
9
9
9
9
9
9
9
9
9
9
9
9
9
9
9
9
9
9
9
9
9
9
9
9
9
9
9
9
9
9
9
9
9
9
9
9
9
9
9
9
9
9
9
9
9
9
9
9
9
9
9
9
9
9
9
9
9
9
9
9
9
9
9
9
9
9
9
9
9
9
9
9
9
9
9
9
9
9
9
9
9
9
9
9
9
9
9
9
9
9
9
9
9
9
9
9
9
9
9
9
9
9
9
9
9
9
9
9
9
9
9
9
9
9
9
9
9
9
9
9
9
9
9
9
9
9
9
9
9
9
9
9
9
9
9
9
9
9
9
9
9
9
9
9
9
9
9
9
9
9
9
9
9
9
9
9
9
9
9
9
9
9
9
9
9
9
9
9
9
9
9
9
9
9
9
9
9
9
9
9
9
9
9
9
9
9
9
9
9
9
9
9
9
9
9
9
9
9
9
9
9
9
9
9
9
9
9
9
9
9
9
9
9
9
9
9
9
9
9
9
9
9
9
9
9
9
9
9
9
9
9
9
9
9
9
9
9
9
9
9
9
9
9
9
9
9
9
9
9
9
9
9
9
9
9
9
9
9
9
9
9
9
9
9
9
9
9
9
9
9
9
9
9
9
9
9
9
9
9
9
9
9
9
9
9
9
9
9
9
9
9
9
9
9
9
9
9
9
9
9
9
9
9
9
9
9
9
9
9
9
9
9
9
9
9
9
9
9
9
9
9
9
9
9
9
9
9
9
9
9
9
9
9
9
9
9
9
9
9
9
9
9
9
9
9
9
9
9
9
9
9
9
9
9
9
9
9
9
9
9
9
9
9
9
9
9
9
9
9
9
9
9
9
9
9
9
9
9
9
9
9
9
9
9
9
9
9
9
9
9
9
9
9
9
9
9
9
9
9
9
9
9
9
9
9
9
9
9
9
9
9
9
9
9
9
9
9
9
9
9
9
9
9
9
9
9
9
9
9
9
9
9
9
9
9
9
9
9
9
9
9
9
9
9
9
9
9
9
9
9
9
9
9
9
9
9
9
9
9
9
9
9
9
9
9
9
9
9
9
9
9
9
9
9
9
9
9
9
9
9
9
9
9
9
9
9
9
9
9
9
9
9
9
9
9
9
9
9
9
9
9
9
9
9
9
9
9
9
9
9
9
9
9
9
9
9
9
9
9
9
9
9
9
9
9
9
9
9
9
9
9
9
9
9
9
9
9
9
9
9
9
9
9
9
9
9
9
9
9
9
9
9
9
9
9
9
9
9
9
9
9
9
9
9
9
9
9
9
9
9
9
9
9
9
9
9
9
9
9
9
9
9
9
9
9
9
9
9
9
9
9
9
9
9
9
9
9
9
9
9
9
9
9
9
9
9
9
9
9
9
9
9
9
9
9
9
9
9
9
9
9
9
9
9
9
9
9
9
9
9
9
9
9
9
9
9
9
9
9
9
9
9
9
9
9
9
9
9
9
9
9
9
9
9
9
9
9
9
9
9
9
9
9
9
9
9
9
9
9
9
9
9
9
9
9
9
9
9
9
9
9
9
9
9
9
9
9
9
9
9
9
9
9
9
9
9
9
9
9
9
9
9
9
9
9
9
9
9
9
9
9
9
9
9
9
9
9
9
9
9
9
9
9
9
9
9
9
9
9
9
9
9
9
9
9
9
9
9
9
9
9
9
9
9
9
9
9
9
9
9
9
9
9
9
9
9
9
9
9
9
9
9
9
9
9
9
9
9
9
9
9
9
9
9
9
9
9
9
9
9
9
9
9
9
9
9
9
9
9
9
9
9
9
9
9
9
9
9
9
9
9
9
9
9
9
9
9
9
9
9
9
9
9
9
9
9
9
9
9
9
9
9
9
9
9
9
9
9
9
9
9
9
9
9
9
9
9
9
9
9
9
9
9
9
9
9
9
9
9
9
9
9
9
9
9
9
9
9
9
9
9
9
9
9
9
9
9
9
9
9
9
9
9
9
9
9
9
9
9
9
9
9
9
9
9
9
9
9
9
9
9
9
9
9
9
9
9
9
9
9
9
9
9
9
9
9
9
9
9
9
9
9
9
9
9
9
9
9
9
9
9
9
9
9
9
9
9
9
9
9
9
9
9
9
9
9
9
9
9
9
9
9
9
9
9
9
9
9
9
9
9
9
9
9
9
9
9
9
9
9
9
9
9
9
9
9
9
9
9
9
9
9
9
9
9
9
9
9
9
9
9
9
9
9
9
9
9
9
9
9
9
9
9
9
9
9
9
9
9
9
9
9
9
9
9
9
9
9
9
9
9
9
9
9
9
9
9
9
9
9
9
9
9
9
9
9
9
9
9
9
9
9
9
9
9
9
9
9
9
9
9
9
9
9
9
9
9
9
9
9
9
9
9
9
9
9
9
9
9
9
9
9
9
9
9
9
9
9
9
9
9
9
9
9
9
9
9
9
9
9
9
9
9
9
9
9
9
9
9
9
9
9
9
9
9
9
9
9
9
9
9
9
9
9
9
9
9
9
9
9
9
9
9
9
9
9
9
9
9
9
9
9
9
9
9
9
9
9
9
9
9
9
9
9
9
9
9
9
9
9
9
9
9
9
9
9
9
9
9
9
9
9
9
9
9
9
9
9
9
9
9
9
9
9
9
9
9
9
9
9
9
9
9
9
9
9
9
9
9
9
9
9
9
9
9
9
9
9
9
9
9
9
9
9
9
9
9
9
9
9
9
9
9
9
9
9
9
9
9
9
9
9
9
9
9
9
9
9
9
9
9
9
9
9
9
9
9
9
9
9
9
9
9
9
9
9
9
9
9
9
9
9
9
9
9
9
9
9
9
9
9
9
9
9
9
9
9
9
9
9
9
9
9
9
9
9
9
9
9
9
9
9
9
9
9
9
9
9
9
9
9
9
9
9
9
9
9
9
9
9
9
9
9
9
9
9
9
9
9
9
9
9
9
9
9
9
9
9
9
9
9
9
9
9
9
9
9
9
9
9
9
9
9
9
9
9
9
9
9
9
9
9
9
9
9
9
9
9
9
9
9
9
9
9
9
9
9
9
9
9
9
9
9
9
9
9
9
9
9
9
9
9
9
9
9
9
9
9
9
9
9
9
9
9
9
9
9
9
9
9
9
9
9
9
9
9
9
9
9
9
9
9
9
9
9
9
9
9
9
9
9
9
9
9
9
9
9
9
9
9
9
9
9
9
9
9
9
9
9
9
9
9
9
9
9
9
9
9
9
9
9
9
9
9
9
9
9
9
9
9
9
9
9
9
9
9
9
9
9
9
9
9
9
9
9
9
9
9
9
9
9
9
9
9
9
9
9
9
9
9
9
9
9
9
9
9
9
9
9
9
9
9
9
9
9
9
9
9
9
9
9
9
9
9
9
9
9
9
9
9
9
9
9
9
9
9
9
9
9
9
9
9
9
9
9
9
9
9
9
9
9
9
9
9
9
9
9
9
9
9
9
9
9
9
9
9
9
9
9
9
9
9
9
9
9
9
9
9
9
9
9
9
9
9
9
9
9
9
9
9
9
9
9
9
9
9
9
9
9
9
9
9
9
9
9
9
9
9
9
9
9
9
9
9
9
9
9
9
9
9
9
9
9
9
9
9
9
9
9
9
9
9
9
9
9
9
9
9
9
9
9
9
9
9
9
9
9
9
9
9
9
9
9
9
9
9
9
9
9
9
9
9
9
9
9
9
9
9
9
9
9
9
9
9
9
9
9
9
9
9
9
9
9
9
9
9
9
9
9
9
9
9
9
9
9
9
9
9
9
9
9
9
9
9
9
9
9
9
9
9
9
9
9
9
9
9
9
9
9
9
9
9
9
9
9
9
9
9
9
9
9
9
9
9
9
9
9
9
9
9
9
9
9
9
9
9
9
9
9
9
9
9
9
9
9
9
9
9
9
9
9
9
9
9
9
9
9
9
9
9
9
9
9
9
9
9
9
9
9
9
9
9
9
9
9
9
9
9
9
9
9
9
9
9
9
9
9
9
9
9
9
9
9
9
9
9
9
9
9
9
9
9
9
9
9
9
9
9
9
9
9
9
9
9
9
9
9
9
9
9
9
9
9
9
9
9
9
9
9
9
9
9
9
9
9
9
9
9
9
9
9
9
9
9
9
9
9
9
9
9
9
9
9
9
9
9
9
9
9
9
9
9
9
9
9
9
9
9
9
9
9
9
9
9
9
9
9
9
9
9
9
9
9
9
9
9
9
9
9
9
9
9
9
9
9
9
9
9
9
9
9
9
9
9
9
9
9
9
9
9
9
9
9
9
9
9
9
9
9
9
9
9
9
9
9
9
9
9
9
9
9
9
9
9
9
9
9
9
9
9
9
9
9
9
9
9
9
9
9
9
9
9
9
9
9
9
9
9
9
9
9
9
9
9
9
9
9
9
9
9
9
9
9
9
9
9
9
9
9
9
9
9
9
9
9
9
9
9
9
9
9
9
9
9
9
9
9
9
9
9
9
9
9
9
9
9
9
9
9
9
9
9
9
9
9
9
9
9
9
9
9
9
9
9
9
9
9
9
9
9
9
9
9
9
9
9
9
9
9
9
9
9
9
9
9
9
9
9
9
9
9
9
9
9
9
9
9
9
9
9
9
9
9
9
9
9
9
9
9
9
9
9
9
9
9
9
9
9
9
9
9
9
9
9
9
9
9
9
9
9
9
9
9
9
9
9
9
9
9
9
9
9
9
9
9
9
9
9
9
9
9
9
9
9
9
9
9
9
9
9
9
9
9
9
9
9
9
9
9
9
9
9
9
9
9
9
9
9
9
9
9
9
9
9
9
9
9
9
9
9
9
9
9
9
9
9
9
9
9
9
9
9
9
9
9
9
9
9
9
9
9
9
9
9
9
9
9
9
9
9
9
9
9
9
9
9
9
9
9
9
9
9
9
9
9
9
9
9
9
9
9
9
9
9
9
9
9
9
9
9
9
9
9
9
9
9
9
9
9
9
9
9
9
9
9
9
9
9
9
9
9
9
9
9
9
9
9
9
9
9
9
9
9
9
9
9
9
9
9
9
9
9
9
9
9
9
9
9
9
9
9
9
9
9
9
9
9
9
9
9
9
9
9
9
9
9
9
9
9
9
9
9
9
9
9
9
9
9
9
9
9
9
9
9
9
9
9
9
9
9
9
9
9
9
9
9
9
9
9
9
9
9
9
9
9
9
9
9
9
9
9
9
9
9
9
9
9
9
9
9
9
9
9
9
9
9
9
9
9
9
9
9
9
9
9
9
9
9
9
9
9
9
9
9
9
9
9
9
9
9
9
9
9
9
9
9
9
9
9
9
9
9
9
9
9
9
9
9
9
9
9
9
9
9
9
9
9
9
9
9
9
9
9
9
9
9
9
9
9
9
9
9
9
9
9
9
9
9
9
9
9
9
9
9
9
9
9
9
9
9
9
9
9
9
9
9
9
9
9
9
9
9
9
9
9
9
9
9
9
9
9
9
9
9
9
9
9
9
9
9
9
9
9
9
9
9
9
9
9
9
9
9
9
9
9
9
9
9
9
9
9
9
9
9
9
9
9
9
9
9
9
9
9
9
9
9
9
9
9
9
9
9
9
9
9
9
9
9
9
9
9
9
9
9
9
9
9
9
9
9
9
9
9
9
9
9
9
9
9
9
9
9
9
9
9
9
9
9
9
9
9
9
9
9
9
9
9
9
9
9
9
9
9
9
9
9
9
9
9
9
9
9
9
9
9
9
9
9
9
9
9
9
9
9
9
9
9
9
9
9
9
9
9
9
9
9
9
9
9
9
9
9
9
9
9
9
9
9
9
9
9
9
9
9
9
9
9
9
9
9
9
9
9
9
9
9
9
9
9
9
9
9
9
9
9
9
9
9
9
9
9
9
9
9
9
9
9
9
9
9
9
9
9
9
9
9
9
9
9
9
9
9
9
9
9
9
9
9
9
9
9
9
9
9
9
9
9
9
9
9
9
9
9
9
9
9
9
9
9
9
9
9
9
9
9
9
9
9
9
9
9
9
9
9
9
9
9
9
9
9
9
9
9
9
9
9
9
9
9
9
9
9
9
9
9
9
9
9
9
9
9
9
9
9
9
9
9
9
9
9
9
9
9
9
9
9
9
9
9
9
9
9
9
9
9
9
9
9
9
9
9
9
9
9
9
9
9
9
9
9
9
9
9
9
9
9
9
9
9
9
9
9
9
9
9
9
9
9
9
9
9
9
9
9
9
9
9
9
9
9
9
9
9
9
9
9
9
9
9
9
9
9
9
9
9
9
9
9
9
9
9
9
9
9
9
9
9
9
9
9
9
9
9
9
9
9
9
9
9
9
9
9
9
9
9
9
9
9
9
9
9
9
9
9
9
9
9
9
9
9
9
9
9
9
9
9
9
9
9
9
9
9
9
9
9
9
9
9
9
9
9
9
9
9
9
9
9
9
9
9
9
9
9
9
9
9
9
9
9
9
9
9
9
9
9
9
9
9
9
9
9
9
9
9
9
9
9
9
9
9
9
9
9
9
9
9
9
9
9
9
9
9
9
9
9
9
9
9
9
9
9
9
9
9
9
9
9
9
9
9
9
9
9
9
9
9
9
9
9
9
9
9
9
9
9
9
9
9
9
9
9
9
9
9
9
9
9
9
9
9
9
9
9
9
9
9
9
9
9
9
9
9
9
9
9
9
9
9
9
9
9
9
9
9
9
9
9
9
9
9
9
9
9
9
9
9
9
9
9
9
9
9
9
9
9
9
9
9
9
9
9
9
9
9
9
9
9
9
9
9
9
9
9
9
9
9
9
9
9
9
9
9
9
9
9
9
9
9
9
9
9
9
9
9
9
9
9
9
9
9
9
9
9
9
9
9
9
9
9
9
9
9
9
9
9
9
9
9
9
9
9
9
9
9
9
9
9
9
9
9
9
9
9
9
9
9
9
9
9
9
9
9
9
9
9
9
9
9
9
9
9
9
9
9
9
9
9
9
9
9
9
9
9
9
9
9
9
9
9
9
9
9
9
9
9
9
9
9
9
9
9
9
9
9
9
9
9
9
9
9
9
9
9
9
9
9
9
9
9
9
9
9
9
9
9
9
9
9
9
9
9
9
9
9
9
9
9
9
9
9
9
9
9
9
9
9
9
9
9
9
9
9
9
9
9
9
9
9
9
9
9
9
9
9
9
9
9
9
9
9
9
9
9
9
9
9
9
9
9
9
9
9
9
9
9
9
9
9
9
9
9
9
9
9
9
9
9
9
9
9
9
9
9
9
9
9
9
9
9
9
9
9
9
9
9
9
9
9
9
9
9
9
9
9
9
9
9
9
9
9
9
9
9
9
9
9
9
9
9
9
9
9
9
9
9
9
9
9
9
9
9
9
9
9
9
9
9
9
9
9
9
9
9
9
9
9
9
9
9
9
9
9
9
9
9
9
9
9
9
9
9
9
9
9
9
9
9
9
9
9
9
9
9
9
9
9
9
9
9
9
9
9
9
9
9
9
9
9
9
9
9
9
9
9
9
9
9
9
9
9
9
9
9
9
9
9
9
9
9
9
9
9
9
9
9
9
9
9
9
9
9
9
9
9
9
9
9
9
9
9
9
9
9
9
9
9
9
9
9
9
9
9
9
9
9
9
9
9
9
9
9
9
9
9
9
9
9
9
9
9
9
9
9
9
9
9
9
9
9
9
9
9
9
9
9
9
9
9
9
9
9
9
9
9
9
9
9
9
9
9
9
9
9
9
9
9
9
9
9
9
9
9
9
9
9
9
9
9
9
9
9
9
9
9
9
9
9
9
9
9
9
9
9
9
9
9
9
9
9
9
9
9
9
9
9
9
9
9
9
9
9
9
9
9
9
9
9
9
9
9
9
9
9
9
9
9
9
9
9
9
9
9
9
9
9
9
9
9
9
9
9
9
9
9
9
9
9
9
9
9
9
9
9
9
9
9
9
9
9
9
9
9
9
9
9
9
9
9
9
9
9
9
9
9
9
9
9
9
9
9
9
9
9
9
9
9
9
9
9
9
9
9
9
9
9
9
9
9
9
9
9
9
9
9
9
9
9
9
9
9
9
9
9
9
9
9
9
9
9
9
9
9
9
9
9
9
9
9
9
9
9
9
9
9
9
9
9
9
9
9
9
9
9
9
9
9
9
9
9
9
9
9
9
9
9
9
9
9
9
9
9
9
9
9
9
9
9
9
9
9
9
9
9
9
9
9
9
9
9
9
9
9
9
9
9
9
9
9
9
9
9
9
9
9
9
9
9
9
9
9
9
9
9
9
9
9
9
9
9
9
9
9
9
9
9
9
9
9
9
9
9
9
9
9
9
9
9
9
9
9
9
9
9
9
9
9
9
9
9
9
9
9
9
9
9
9
9
9
9
9
9
9
9
9
9
9
9
9
9
9
9
9
9
9
9
9
9
9
9
9
9
9
9
9
9
9
9
9
9
9
9
9
9
9
9
9
9
9
9
9
9
9
9
9
9
9
9
9
9
9
9
9
9
9
9
9
9
9
9
9
9
9
9
9
9
9
9
9
9
9
9
9
9
9
9
9
9
9
9
9
9
9
9
9
9
9
9
9
9
9
9
9
9
9
9
9
9
9
9
9
9
9
9
9
9
9
9
9
9
9
9
9
9
9
9
9
9
9
9
9
9
9
9
9
9
9
9
9
9
9
9
9
</DataArray>
</Cells>
<PointData Vectors="'U'">
<DataArray type="Float64" Name="U" NumberOfComponents="2" ComponentName0="U1" ComponentName1="U2" format="ascii">
 0.1295206408803E-49  0.3306492420079E-49
-0.2807157664900E-37 -0.4334476379605E-37
 0.1443946072910E-49 -0.3681580251176E-49
-0.9573732257046E-02 -0.2744356514142E-01
-0.4253149715232E-02 -0.1815099432993E-01
 0.4253149819721E-02 -0.1815099437697E-01
 0.9573732288214E-02 -0.2744356516401E-01
-0.1758483415110E+00 -0.3559919311799E+00
 0.1758483398926E+00 -0.3559919352883E+00
-0.3645948036404E+00 -0.6141880452118E+00
 0.3645948039177E+00 -0.6141880454161E+00
-0.3767222517578E-37 -0.8617573406196E-37
-0.3723129113644E-37 -0.7972578645200E-37
-0.3666531116570E-37 -0.7517933532673E-37
-0.3608273197153E-37 -0.7177786334376E-37
-0.3553078605323E-37 -0.6911026902285E-37
-0.3502482660896E-37 -0.6693847183487E-37
-0.3456653813644E-37 -0.6511649981089E-37
-0.3415235536032E-37 -0.6355043927235E-37
-0.3377710586776E-37 -0.6217734630795E-37
-0.3343551292850E-37 -0.6095353662206E-37
-0.3312276074981E-37 -0.5984777333618E-37
-0.3283465707957E-37 -0.5883713715405E-37
-0.3256763051116E-37 -0.5790443593808E-37
-0.3231866620168E-37 -0.5703651757929E-37
-0.3208522591640E-37 -0.5622314804913E-37
-0.3186517033677E-37 -0.5545624202765E-37
-0.3165669036259E-37 -0.5472932381546E-37
-0.3145824883704E-37 -0.5403714164069E-37
-0.3126853146377E-37 -0.5337538567670E-37
-0.3108656875246E-37 -0.5274058266515E-37
-0.3091185616246E-37 -0.5214875976090E-37
-0.3074278418349E-37 -0.5157827545794E-37
-0.3057861037006E-37 -0.5102696086819E-37
-0.3041867651083E-37 -0.5049294207939E-37
-0.3026239408382E-37 -0.4997458292302E-37
-0.3010923236796E-37 -0.4947044273266E-37
-0.2995870847744E-37 -0.4897923734918E-37
-0.2981037915679E-37 -0.4849981124847E-37
-0.2966383391271E-37 -0.4803111374195E-37
-0.2951868928408E-37 -0.4757218047376E-37
-0.2937458402747E-37 -0.4712211771304E-37
-0.2923117508373E-37 -0.4668008878539E-37
-0.2908813420785E-37 -0.4624530388444E-37
-0.2894514513786E-37 -0.4581701136306E-37
-0.2880190123075E-37 -0.4539449040451E-37
-0.2865810348080E-37 -0.4497704594126E-37
-0.2851345887174E-37 -0.4456400298025E-37
-0.2836767901626E-37 -0.4415470309292E-37
-0.2822047903585E-37 -0.4374850133043E-37
-0.2792069143710E-37 -0.4294286582895E-37
-0.2776754426444E-37 -0.4254219057604E-37
-0.2761185683130E-37 -0.4214212798603E-37
-0.2745335133883E-37 -0.4174207427139E-37
-0.2729175025056E-37 -0.4134143165070E-37
-0.2712677613729E-37 -0.4093960839058E-37
-0.2695815157459E-37 -0.4053601946542E-37
-0.2678559912920E-37 -0.4013008623212E-37
-0.2660884135214E-37 -0.3972123804433E-37
-0.2642760081832E-37 -0.3930891317908E-37
-0.2624160018257E-37 -0.3889256024174E-37
-0.2605056221708E-37 -0.3847164030992E-37
-0.2585420986746E-37 -0.3804562840129E-37
-0.2565226625928E-37 -0.3761401613638E-37
-0.2544445460092E-37 -0.3717631574193E-37
-0.2523049801423E-37 -0.3673206397997E-37
-0.2501011911653E-37 -0.3628082866224E-37
-0.2478303969172E-37 -0.3582221280495E-37
-0.2454898069539E-37 -0.3535586796088E-37
-0.2430749747876E-37 -0.3488140648633E-37
-0.2405958653064E-37 -0.3437957408755E-37
-0.2380397463492E-37 -0.3386938333475E-37
-0.2354036554467E-37 -0.3335083728140E-37
-0.2326844377753E-37 -0.3282410883832E-37
-0.2298786255402E-37 -0.3228960437748E-37
-0.2269822438600E-37 -0.3174805731286E-37
-0.2239904971926E-37 -0.3120066895520E-37
-0.2208972569161E-37 -0.3064932598913E-37
-0.2176942155689E-37 -0.3009694614261E-37
-0.2143694791284E-37 -0.2954804791796E-37
-0.2109052391791E-37 -0.2900971852143E-37
-0.2072739744927E-37 -0.2849336214443E-37
-0.2034326718343E-37 -0.2801801757631E-37
-0.1993158098051E-37 -0.2761714492045E-37
-0.1948354213066E-37 -0.2735382750407E-37
-0.1899345365456E-37 -0.2735908936924E-37
-0.1849375677515E-37 -0.2794494806197E-37
-0.1826213420396E-37 -0.3001893878942E-37
-0.2023451211310E-37 -0.3714697921296E-37
-0.8806460922094E-02 -0.2523678254260E-01
-0.8328995059298E-02 -0.2394953298842E-01
-0.7968714376950E-02 -0.2304762254067E-01
-0.7671726806509E-02 -0.2235012896240E-01
-0.7411235516088E-02 -0.2177974999882E-01
-0.7172424128464E-02 -0.2129716068646E-01
-0.6946756752298E-02 -0.2087980523480E-01
-0.6729190308280E-02 -0.2051350113076E-01
-0.6516673412558E-02 -0.2018866010628E-01
-0.6307313409787E-02 -0.1989842039050E-01
-0.6099907131702E-02 -0.1963764882713E-01
-0.5893673033497E-02 -0.1940236993276E-01
-0.5688097556886E-02 -0.1918942025284E-01
-0.5482844922980E-02 -0.1899622557603E-01
-0.5277706424015E-02 -0.1882065212308E-01
-0.5072573831630E-02 -0.1866090059625E-01
-0.4867430297328E-02 -0.1851542454509E-01
-0.4662353836199E-02 -0.1838285484880E-01
-0.4457534287591E-02 -0.1826190970722E-01
-0.4052362503519E-02 -0.1805186929322E-01
-0.3848458095251E-02 -0.1796158152684E-01
-0.3642519053429E-02 -0.1787928236568E-01
-0.3434991831808E-02 -0.1780445638034E-01
-0.3226139268332E-02 -0.1773657726372E-01
-0.3016126675658E-02 -0.1767515227638E-01
-0.2805068916000E-02 -0.1761973105699E-01
-0.2593054480334E-02 -0.1756990681309E-01
-0.2380158480033E-02 -0.1752531411793E-01
-0.2166449996836E-02 -0.1748562606596E-01
-0.1951996093282E-02 -0.1745055152053E-01
-0.1736863892530E-02 -0.1741983271010E-01
-0.1521121828979E-02 -0.1739324326924E-01
-0.1304840204441E-02 -0.1737058662342E-01
-0.1088091335664E-02 -0.1735169467757E-01
-0.8709496660137E-03 -0.1733642678244E-01
-0.6534913931381E-03 -0.1732466888966E-01
-0.4357942553603E-03 -0.1731633291889E-01
-0.2179371886794E-03 -0.1731135628204E-01
 0.5412885662933E-10 -0.1730970155478E-01
 0.2179372969255E-03 -0.1731135628365E-01
 0.4357943635718E-03 -0.1731633292210E-01
 0.6534915012921E-03 -0.1732466889450E-01
 0.8709497740880E-03 -0.1733642678894E-01
 0.1088091443637E-02 -0.1735169468577E-01
 0.1304840312292E-02 -0.1737058663337E-01
 0.1521121936688E-02 -0.1739324328101E-01
 0.1736864000079E-02 -0.1741983272375E-01
 0.1951996200654E-02 -0.1745055153615E-01
 0.2166450104015E-02 -0.1748562608364E-01
 0.2380158587006E-02 -0.1752531413778E-01
 0.2593054587089E-02 -0.1756990683523E-01
 0.2805069022526E-02 -0.1761973108156E-01
 0.3016126781946E-02 -0.1767515230352E-01
 0.3226139374372E-02 -0.1773657729360E-01
 0.3434991937593E-02 -0.1780445641317E-01
 0.3642519158946E-02 -0.1787928240165E-01
 0.3848458200480E-02 -0.1796158156620E-01
 0.4052362608422E-02 -0.1805186933623E-01
 0.4457534387841E-02 -0.1826190975640E-01
 0.4662353932202E-02 -0.1838285490003E-01
 0.4867430389113E-02 -0.1851542459830E-01
 0.5072573919239E-02 -0.1866090065133E-01
 0.5277706507497E-02 -0.1882065217993E-01
 0.5482845002388E-02 -0.1899622563453E-01
 0.5688097632280E-02 -0.1918942031284E-01
 0.5893673104942E-02 -0.1940236999411E-01
 0.6099907199271E-02 -0.1963764888963E-01
 0.6307313473568E-02 -0.1989842045393E-01
 0.6516673472657E-02 -0.2018866017038E-01
 0.6729190364833E-02 -0.2051350119522E-01
 0.6946756805482E-02 -0.2087980529927E-01
 0.7172424178514E-02 -0.2129716075053E-01
 0.7411235563306E-02 -0.2177975006201E-01
 0.7671726851261E-02 -0.2235012902413E-01
 0.7968714419607E-02 -0.2304762260021E-01
 0.8328995100068E-02 -0.2394953304451E-01
 0.8806460960703E-02 -0.2523678259156E-01
-0.1711598908374E+00 -0.1364728504181E+00
-0.2580285839161E+00 -0.2138358036797E+00
-0.3223691036990E+00 -0.2714947307026E+00
-0.3715123595909E+00 -0.3192970968125E+00
-0.4097387987657E+00 -0.3591804391509E+00
-0.4396812454379E+00 -0.3912607025043E+00
-0.4632738489643E+00 -0.4143861764259E+00
-0.4816183851342E+00 -0.4279244087150E+00
-0.4936578173265E+00 -0.4316579805046E+00
-0.4979592204386E+00 -0.4258507866154E+00
-0.4938424343602E+00 -0.4129039326145E+00
-0.4812140263995E+00 -0.3955008987097E+00
-0.4602962820560E+00 -0.3759640295068E+00
-0.4315996613838E+00 -0.3564273411856E+00
-0.3959503758608E+00 -0.3387184605262E+00
-0.3544031950128E+00 -0.3247040380129E+00
-0.3084155469658E+00 -0.3163467408216E+00
-0.2595128939430E+00 -0.3136270066800E+00
-0.2116165978420E+00 -0.3247207716221E+00
-0.1643927310937E+00 -0.3816683071619E+00
-0.1570554101656E+00 -0.4087857076704E+00
-0.1525060572523E+00 -0.4366215523527E+00
-0.1504504839741E+00 -0.4650701262166E+00
-0.1505748505235E+00 -0.4942716458083E+00
-0.1521224977033E+00 -0.5247564948250E+00
-0.1546648683313E+00 -0.5573188180543E+00
-0.1579799479402E+00 -0.5930608557142E+00
-0.1619001886950E+00 -0.6335483251924E+00
-0.1662579141278E+00 -0.6811033261098E+00
-0.1700814140172E+00 -0.7399257985266E+00
-0.1699502469827E+00 -0.8168631948476E+00
-0.1638976193422E+00 -0.9106852503634E+00
-0.1526777699834E+00 -0.1010553723481E+01
-0.1367363952664E+00 -0.1107286729332E+01
-0.1162905810986E+00 -0.1194089620029E+01
-0.9166277410332E-01 -0.1266001764956E+01
-0.6342743636953E-01 -0.1319555500521E+01
-0.3246868575644E-01 -0.1352499185239E+01
-0.2036282145011E-08 -0.1363597463330E+01
 0.3246868179704E-01 -0.1352499188588E+01
 0.6342743271757E-01 -0.1319555507101E+01
 0.9166277090330E-01 -0.1266001774502E+01
 0.1162905784449E+00 -0.1194089632102E+01
 0.1367363932145E+00 -0.1107286743273E+01
 0.1526777685613E+00 -0.1010553738397E+01
 0.1638976185987E+00 -0.9106852650662E+00
 0.1699502470715E+00 -0.8168632076770E+00
 0.1700814149228E+00 -0.7399258085278E+00
 0.1662579154110E+00 -0.6811033339267E+00
 0.1619001899829E+00 -0.6335483317836E+00
 0.1579799491968E+00 -0.5930608615107E+00
 0.1546648695162E+00 -0.5573188233358E+00
 0.1521224987743E+00 -0.5247564997824E+00
 0.1505748514287E+00 -0.4942716505730E+00
 0.1504504846296E+00 -0.4650701308797E+00
 0.1525060575566E+00 -0.4366215569566E+00
 0.1570554100257E+00 -0.4087857122121E+00
 0.1643927303543E+00 -0.3816683115886E+00
 0.2116165947842E+00 -0.3247207740662E+00
 0.2595128905685E+00 -0.3136270073858E+00
 0.3084155439191E+00 -0.3163467410161E+00
 0.3544031923836E+00 -0.3247040378246E+00
 0.3959503737203E+00 -0.3387184600760E+00
 0.4315996597593E+00 -0.3564273406114E+00
 0.4602962809471E+00 -0.3759640289152E+00
 0.4812140257809E+00 -0.3955008982043E+00
 0.4938424341845E+00 -0.4129039322866E+00
 0.4979592206416E+00 -0.4258507865455E+00
 0.4936578178282E+00 -0.4316579807535E+00
 0.4816183858327E+00 -0.4279244092708E+00
 0.4632738497512E+00 -0.4143861772175E+00
 0.4396812462889E+00 -0.3912607034578E+00
 0.4097387996755E+00 -0.3591804401568E+00
 0.3715123605272E+00 -0.3192970977745E+00
 0.3223691046092E+00 -0.2714947315468E+00
 0.2580285847363E+00 -0.2138358043479E+00
 0.1711598914734E+00 -0.1364728508574E+00
-0.3894928670309E-03 -0.6825536929701E-03
-0.6341637889512E-03 -0.1172236175516E-02
-0.8248413837007E-03 -0.1628572711297E-02
-0.9767694251494E-03 -0.2065583473819E-02
-0.1100534840346E-02 -0.2492328673085E-02
-0.1201584653357E-02 -0.2913525521957E-02
-0.1283963476395E-02 -0.3332026591878E-02
-0.1350565151369E-02 -0.3749736978590E-02
-0.1403649587884E-02 -0.4167998283136E-02
-0.1445021264220E-02 -0.4587815315570E-02
-0.1476167230816E-02 -0.5009982219892E-02
-0.1498340124415E-02 -0.5435164248259E-02
-0.1512618552724E-02 -0.5863953164332E-02
-0.1519951958109E-02 -0.6296908129419E-02
-0.1521196713778E-02 -0.6734586288180E-02
-0.1517147004662E-02 -0.7177567727157E-02
-0.1508562793697E-02 -0.7626479839998E-02
-0.1496196606460E-02 -0.8082013002725E-02
-0.1480820046442E-02 -0.8544943396589E-02
-0.1463251236436E-02 -0.9016147690912E-02
-0.1444384267896E-02 -0.9496608389713E-02
-0.1425218064751E-02 -0.9987481818188E-02
-0.1406892577563E-02 -0.1049006302008E-01
-0.1390724017100E-02 -0.1100586039387E-01
-0.1378246797598E-02 -0.1153662319024E-01
-0.1371259371930E-02 -0.1208443304989E-01
-0.1371873922334E-02 -0.1265188433792E-01
-0.1382796287849E-02 -0.1324256529919E-01
-0.1407873806484E-02 -0.1386070821748E-01
-0.1452095049544E-02 -0.1451022922321E-01
-0.1521398925555E-02 -0.1519470946869E-01
-0.1622750703220E-02 -0.1591786619099E-01
-0.1764447834820E-02 -0.1668405333021E-01
-0.1956636887004E-02 -0.1749889659513E-01
-0.2212404645840E-02 -0.1837034994134E-01
-0.2548937285393E-02 -0.1930998925791E-01
-0.2993350112693E-02 -0.2033759056967E-01
-0.3579501442117E-02 -0.2148345728762E-01
-0.4421530853074E-02 -0.2282551029352E-01
-0.5489988030890E-02 -0.2453612896476E-01
 0.5489988051964E-02 -0.2453612898054E-01
 0.4421530875388E-02 -0.2282551030885E-01
 0.3579501463175E-02 -0.2148345730297E-01
 0.2993350132789E-02 -0.2033759058476E-01
 0.2548937304464E-02 -0.1930998927270E-01
 0.2212404663915E-02 -0.1837034995580E-01
 0.1956636904091E-02 -0.1749889660919E-01
 0.1764447850953E-02 -0.1668405334385E-01
 0.1622750718437E-02 -0.1591786620418E-01
 0.1521398939897E-02 -0.1519470948141E-01
 0.1452095063055E-02 -0.1451022923546E-01
 0.1407873819206E-02 -0.1386070822927E-01
 0.1382796299821E-02 -0.1324256531054E-01
 0.1371873933587E-02 -0.1265188434885E-01
 0.1371259382487E-02 -0.1208443306043E-01
 0.1378246807480E-02 -0.1153662320040E-01
 0.1390724026326E-02 -0.1100586040365E-01
 0.1406892586154E-02 -0.1049006302949E-01
 0.1425218072730E-02 -0.9987481827213E-02
 0.1444384275283E-02 -0.9496608398362E-02
 0.1463251243254E-02 -0.9016147699181E-02
 0.1480820052714E-02 -0.8544943404483E-02
 0.1496196612209E-02 -0.8082013010235E-02
 0.1508562798946E-02 -0.7626479847123E-02
 0.1517147009435E-02 -0.7177567733895E-02
 0.1521196718098E-02 -0.6734586294527E-02
 0.1519951962001E-02 -0.6296908135373E-02
 0.1512618556212E-02 -0.5863953169891E-02
 0.1498340127523E-02 -0.5435164253420E-02
 0.1476167233569E-02 -0.5009982224652E-02
 0.1445021266641E-02 -0.4587815319927E-02
 0.1403649589997E-02 -0.4167998287087E-02
 0.1350565153197E-02 -0.3749736982134E-02
 0.1283963477961E-02 -0.3332026595012E-02
 0.1201584654681E-02 -0.2913525524678E-02
 0.1100534841448E-02 -0.2492328675391E-02
 0.9767694260458E-03 -0.2065583475707E-02
 0.8248413844028E-03 -0.1628572712762E-02
 0.6341637894633E-03 -0.1172236176548E-02
 0.3894928673326E-03 -0.6825536935548E-03
-0.3533176592411E+00 -0.6289685685355E+00
-0.3415235033146E+00 -0.6441709822720E+00
-0.3290511914281E+00 -0.6596708980423E+00
-0.3158290045950E+00 -0.6753656318980E+00
-0.3018069201708E+00 -0.6911404368267E+00
-0.2869488493894E+00 -0.7068692344063E+00
-0.2712305062953E+00 -0.7224160582654E+00
-0.2546394407411E+00 -0.7376363966010E+00
-0.2371757899935E+00 -0.7523796507486E+00
-0.2188527225651E+00 -0.7664925820203E+00
-0.1996965805604E+00 -0.7798226171029E+00
-0.1797466421210E+00 -0.7922207241858E+00
-0.1590546607390E+00 -0.8035437932442E+00
-0.1376841522302E+00 -0.8136574288394E+00
-0.1157095905756E+00 -0.8224388596499E+00
-0.9321536343342E-01 -0.8297796093003E+00
-0.7029451162792E-01 -0.8355878064702E+00
-0.4704724198179E-01 -0.8397900866801E+00
-0.2357926372039E-01 -0.8423330623382E+00
 0.1028935644929E-09 -0.8431843365171E+00
 0.2357926392664E-01 -0.8423330623527E+00
 0.4704724218943E-01 -0.8397900867092E+00
 0.7029451183785E-01 -0.8355878065141E+00
 0.9321536364654E-01 -0.8297796093593E+00
 0.1157095907928E+00 -0.8224388597240E+00
 0.1376841524521E+00 -0.8136574289288E+00
 0.1590546609665E+00 -0.8035437933491E+00
 0.1797466423546E+00 -0.7922207243061E+00
 0.1996965808007E+00 -0.7798226172384E+00
 0.2188527228126E+00 -0.7664925821706E+00
 0.2371757902483E+00 -0.7523796509131E+00
 0.2546394410033E+00 -0.7376363967787E+00
 0.2712305065644E+00 -0.7224160584549E+00
 0.2869488496647E+00 -0.7068692346057E+00
 0.3018069204511E+00 -0.6911404370340E+00
 0.3158290048787E+00 -0.6753656321108E+00
 0.3290511917133E+00 -0.6596708982581E+00
 0.3415235035991E+00 -0.6441709824877E+00
 0.3533176595227E+00 -0.6289685687479E+00
-0.3641329369901E+00 -0.5852914329074E+00
-0.3620858092703E+00 -0.5557769012824E+00
-0.3582529382872E+00 -0.5253941677542E+00
-0.3525726099990E+00 -0.4942209076650E+00
-0.3450134551670E+00 -0.4623391750590E+00
-0.3354880685249E+00 -0.4298138458970E+00
-0.3239202483817E+00 -0.3966911738624E+00
-0.3102879260887E+00 -0.3630124120502E+00
-0.2946658879843E+00 -0.3288400809616E+00
-0.2772417293898E+00 -0.2942957116669E+00
-0.2582653699533E+00 -0.2596052389446E+00
-0.2379520869375E+00 -0.2251287752409E+00
-0.2163951847014E+00 -0.1913441017343E+00
-0.1935067450338E+00 -0.1587857723071E+00
-0.1690096455118E+00 -0.1279904858943E+00
-0.1424741366506E+00 -0.9947827079281E-01
-0.1133628469718E+00 -0.7375436718710E-01
-0.8106932391119E-01 -0.5131528876751E-01
-0.4494863799273E-01 -0.3263587202822E-01
 0.3641329372082E+00 -0.5852914330974E+00
 0.3620858094607E+00 -0.5557769014584E+00
 0.3582529384689E+00 -0.5253941679164E+00
 0.3525726101754E+00 -0.4942209078130E+00
 0.3450134553459E+00 -0.4623391751910E+00
 0.3354880687199E+00 -0.4298138460107E+00
 0.3239202486122E+00 -0.3966911739555E+00
 0.3102879263809E+00 -0.3630124121210E+00
 0.2946658883706E+00 -0.3288400810099E+00
 0.2772417299053E+00 -0.2942957116961E+00
 0.2582653706295E+00 -0.2596052389638E+00
 0.2379520877936E+00 -0.2251287752659E+00
 0.2163951857365E+00 -0.1913441017854E+00
 0.1935067462227E+00 -0.1587857724030E+00
 0.1690096468029E+00 -0.1279904860457E+00
 0.1424741379655E+00 -0.9947827099698E-01
 0.1133628482055E+00 -0.7375436742475E-01
 0.8106932493289E-01 -0.5131528900147E-01
 0.4494863864763E-01 -0.3263587220297E-01
-0.3802880270388E+00 -0.6149802770650E+00
-0.3925927689923E+00 -0.6121077525354E+00
-0.4011220276957E+00 -0.6059327869034E+00
-0.4057419460699E+00 -0.5968722639583E+00
-0.4064417170904E+00 -0.5853691746001E+00
-0.4033259233242E+00 -0.5719053260497E+00
-0.3966147738410E+00 -0.5569806018437E+00
-0.3866389634746E+00 -0.5410873783528E+00
-0.3738256511359E+00 -0.5246821682627E+00
-0.3586752554349E+00 -0.5081581210037E+00
-0.3417299854423E+00 -0.4918209868794E+00
-0.3235362132471E+00 -0.4758713748109E+00
-0.3046043484610E+00 -0.4603963379334E+00
-0.2853717033866E+00 -0.4453731682938E+00
-0.2661753118300E+00 -0.4306870632913E+00
-0.2472415107264E+00 -0.4161614658583E+00
-0.2286960751970E+00 -0.4015957814010E+00
-0.2105934528872E+00 -0.3868018033254E+00
-0.1929606184293E+00 -0.3716325424907E+00
 0.3802880271960E+00 -0.6149802775664E+00
 0.3925927690542E+00 -0.6121077533211E+00
 0.4011220276812E+00 -0.6059327879533E+00
 0.4057419459898E+00 -0.5968722652474E+00
 0.4064417169472E+00 -0.5853691761005E+00
 0.4033259231117E+00 -0.5719053277330E+00
 0.3966147735460E+00 -0.5569806036835E+00
 0.3866389630787E+00 -0.5410873803271E+00
 0.3738256506185E+00 -0.5246821703559E+00
 0.3586752547769E+00 -0.5081581232078E+00
 0.3417299846295E+00 -0.4918209891951E+00
 0.3235362122732E+00 -0.4758713772472E+00
 0.3046043473298E+00 -0.4603963405061E+00
 0.2853717021114E+00 -0.4453731710241E+00
 0.2661753104328E+00 -0.4306870662025E+00
 0.2472415092336E+00 -0.4161614689733E+00
 0.2286960736367E+00 -0.4015957847406E+00
 0.2105934512857E+00 -0.3868018069070E+00
 0.1929606168097E+00 -0.3716325463287E+00
-0.3268540046138E-03 -0.5708613885152E-03
-0.5903296889886E-03 -0.1098220760688E-02
-0.7813576226312E-03 -0.1568436430074E-02
-0.9353171838203E-03 -0.2018012312895E-02
-0.1059805297851E-02 -0.2454906594370E-02
-0.1161297632544E-02 -0.2884747645985E-02
-0.1243806641225E-02 -0.3310747425144E-02
-0.1310348077832E-02 -0.3735071174053E-02
-0.1363223269873E-02 -0.4159237433691E-02
-0.1404272161127E-02 -0.4584379337420E-02
-0.1435003336369E-02 -0.5011386553621E-02
-0.1456684309224E-02 -0.5440996877937E-02
-0.1470403304252E-02 -0.5873857536045E-02
-0.1477115776066E-02 -0.6310569737601E-02
-0.1477681457342E-02 -0.6751721513547E-02
-0.1472895996460E-02 -0.7197914015869E-02
-0.1463519518944E-02 -0.7649786603306E-02
-0.1450303920893E-02 -0.8108032764021E-02
-0.1434019834395E-02 -0.8573422876304E-02
-0.1415484495513E-02 -0.9046818497105E-02
-0.1395591521595E-02 -0.9529177105023E-02
-0.1375340052393E-02 -0.1002161932920E-01
-0.1355871042192E-02 -0.1052539250151E-01
-0.1338502207976E-02 -0.1104194385755E-01
-0.1324769171192E-02 -0.1157294524543E-01
-0.1316466258276E-02 -0.1212038162531E-01
-0.1315703323734E-02 -0.1268668175573E-01
-0.1325219032075E-02 -0.1327478997172E-01
-0.1348955468427E-02 -0.1388795571368E-01
-0.1392041282981E-02 -0.1452938729357E-01
-0.1460565160000E-02 -0.1520217703728E-01
-0.1561652330948E-02 -0.1590953753442E-01
-0.1703768163163E-02 -0.1665515327164E-01
-0.1897312336441E-02 -0.1744363872290E-01
-0.2155508198332E-02 -0.1828120068952E-01
-0.2496721947791E-02 -0.1917663740751E-01
-0.2945663986112E-02 -0.2014358802398E-01
-0.3554010638830E-02 -0.2120010592055E-01
-0.4359659015810E-02 -0.2240614404972E-01
-0.5806091461496E-02 -0.2366196440988E-01
-0.2844646306159E-03 -0.5180006990534E-03
-0.5428296683364E-03 -0.1033944288025E-02
-0.7382986579725E-03 -0.1516285217041E-02
-0.8931125118549E-03 -0.1974535028432E-02
-0.1018540306195E-02 -0.2419927682350E-02
-0.1120453679374E-02 -0.2857282924079E-02
-0.1203145693038E-02 -0.3290032546551E-02
-0.1269666950407E-02 -0.3720425396627E-02
-0.1322374891231E-02 -0.4150081334187E-02
-0.1363139718894E-02 -0.4580212895927E-02
-0.1393492481695E-02 -0.5011774911165E-02
-0.1414715601696E-02 -0.5445556804663E-02
-0.1427907397274E-02 -0.5882246089617E-02
-0.1434029801357E-02 -0.6322474271951E-02
-0.1433946423640E-02 -0.6766850622354E-02
-0.1428454921501E-02 -0.7215988973073E-02
-0.1418316165955E-02 -0.7670532967469E-02
-0.1404282060326E-02 -0.8131171793704E-02
-0.1387122979718E-02 -0.8598662510488E-02
-0.1367656078869E-02 -0.9073843563012E-02
-0.1346775487808E-02 -0.9557638363810E-02
-0.1325481758208E-02 -0.1005112103057E-01
-0.1304918463801E-02 -0.1055547730733E-01
-0.1286407267340E-02 -0.1107207374555E-01
-0.1271488880384E-02 -0.1160247494730E-01
-0.1261964608776E-02 -0.1214850997530E-01
-0.1259993429265E-02 -0.1271230303324E-01
-0.1268416993578E-02 -0.1329621968160E-01
-0.1291274592721E-02 -0.1390278184789E-01
-0.1333791884178E-02 -0.1453454786041E-01
-0.1402190668983E-02 -0.1519404536539E-01
-0.1503764504650E-02 -0.1588386771074E-01
-0.1647206940121E-02 -0.1660686061342E-01
-0.1843195497697E-02 -0.1736636196994E-01
-0.2105578861916E-02 -0.1816644080540E-01
-0.2452926398899E-02 -0.1901244520515E-01
-0.2914621988349E-02 -0.1990933547818E-01
-0.3533480696845E-02 -0.2086971026217E-01
-0.4411227807603E-02 -0.2186071773271E-01
-0.5980115427408E-02 -0.2282146960119E-01
-0.2542265049373E-03 -0.4877681879866E-03
-0.4993001278102E-03 -0.9870057907995E-03
-0.6953641973144E-03 -0.1471173134423E-02
-0.8510663064663E-03 -0.1935839021863E-02
-0.9770205826679E-03 -0.2387691004555E-02
-0.1079305246418E-02 -0.2831422919164E-02
-0.1162141111301E-02 -0.3270110554686E-02
-0.1228644550836E-02 -0.3705990738237E-02
-0.1281199055632E-02 -0.4140689716359E-02
-0.1321701759191E-02 -0.4575451577231E-02
-0.1351701917007E-02 -0.5011263659670E-02
-0.1372495410481E-02 -0.5448945172167E-02
-0.1385189849987E-02 -0.5889207988374E-02
-0.1390753410136E-02 -0.6332701704825E-02
-0.1390053629571E-02 -0.6780046908029E-02
-0.1383890435252E-02 -0.7231861592543E-02
-0.1373025863110E-02 -0.7688785974037E-02
-0.1358212395423E-02 -0.8151497587715E-02
-0.1340220887551E-02 -0.8620732792782E-02
-0.1319869363330E-02 -0.9097299105671E-02
-0.1298053732418E-02 -0.9582077118704E-02
-0.1275777697031E-02 -0.1007608395520E-01
-0.1254190048963E-02 -0.1058043032748E-01
-0.1234620653713E-02 -0.1109638345174E-01
-0.1218623037929E-02 -0.1162537176010E-01
-0.1208029182116E-02 -0.1216901519736E-01
-0.1205082642030E-02 -0.1272909182889E-01
-0.1212750804548E-02 -0.1330745340112E-01
-0.1235174257308E-02 -0.1390602195138E-01
-0.1277668509989E-02 -0.1452675916083E-01
-0.1346585243759E-02 -0.1517159483564E-01
-0.1449409650614E-02 -0.1584242666210E-01
-0.1595102351580E-02 -0.1654115597354E-01
-0.1794782569957E-02 -0.1726967676056E-01
-0.2062868112834E-02 -0.1802984559723E-01
-0.2419598721354E-02 -0.1882262030933E-01
-0.2895462204560E-02 -0.1964789893852E-01
-0.3541576835997E-02 -0.2049558110378E-01
-0.4496629402165E-02 -0.2131475773091E-01
-0.6045199538727E-02 -0.2211868380375E-01
-0.2313140376835E-03 -0.4686074649324E-03
-0.4611284263721E-03 -0.9530953425979E-03
-0.6539734458092E-03 -0.1433947156288E-02
-0.8095597190480E-03 -0.1901808447110E-02
-0.9356473232280E-03 -0.2358454050170E-02
-0.1038077139725E-02 -0.2807352289550E-02
-0.1120965136122E-02 -0.3251163118510E-02
-0.1187406305832E-02 -0.3691924651784E-02
-0.1239794700629E-02 -0.4131201426597E-02
-0.1280039291394E-02 -0.4570217394836E-02
-0.1309701603087E-02 -0.5009960941887E-02
-0.1330087253172E-02 -0.5451258829186E-02
-0.1342311258128E-02 -0.5894831236430E-02
-0.1347347032067E-02 -0.6341333501704E-02
-0.1346065623371E-02 -0.6791387546517E-02
-0.1339269185011E-02 -0.7245607025096E-02
-0.1327721158190E-02 -0.7704621103145E-02
-0.1312175092614E-02 -0.8169088477097E-02
-0.1293403070695E-02 -0.8639717672894E-02
-0.1272225053626E-02 -0.9117277805108E-02
-0.1249540254704E-02 -0.9602598370104E-02
-0.1226357758956E-02 -0.1009662968777E-01
-0.1203835067884E-02 -0.1060039507204E-01
-0.1183315976309E-02 -0.1111504568175E-01
-0.1166378600655E-02 -0.1164184858125E-01
-0.1154908095092E-02 -0.1218218491262E-01
-0.1151252549783E-02 -0.1273748373669E-01
-0.1158511767341E-02 -0.1330913641014E-01
-0.1180932491156E-02 -0.1389854296502E-01
-0.1223925809157E-02 -0.1450711236359E-01
-0.1293982241232E-02 -0.1513617168431E-01
-0.1398799611309E-02 -0.1578689164592E-01
-0.1547667715505E-02 -0.1646018198566E-01
-0.1752197492433E-02 -0.1715650370933E-01
-0.2027696860538E-02 -0.1787537677098E-01
-0.2395819245041E-02 -0.1861441517060E-01
-0.2889586251116E-02 -0.1936687736035E-01
-0.3570629756151E-02 -0.2011082629294E-01
-0.4571932877263E-02 -0.2081482149957E-01
-0.6037595312253E-02 -0.2153165811837E-01
-0.2130400885535E-03 -0.4556602544521E-03
-0.4278961645967E-03 -0.9282593337617E-03
-0.6149891457477E-03 -0.1403899131620E-02
-0.7690707037414E-03 -0.1872414872921E-02
-0.8947309640421E-03 -0.2332245677081E-02
-0.9970026645450E-03 -0.2785195626238E-02
-0.1079782636218E-02 -0.3233316205821E-02
-0.1146079182069E-02 -0.3678353151235E-02
-0.1198261721310E-02 -0.4121733760460E-02
-0.1238234926979E-02 -0.4564618600055E-02
-0.1267562906904E-02 -0.5007966315998E-02
-0.1287555819258E-02 -0.5452589971978E-02
-0.1299333035456E-02 -0.5899202285772E-02
-0.1303871509488E-02 -0.6348452193249E-02
-0.1302044906968E-02 -0.6800953120037E-02
-0.1294657258160E-02 -0.7257306044520E-02
-0.1282473459401E-02 -0.7718121669314E-02
-0.1266248517219E-02 -0.8184032940257E-02
-0.1246756474321E-02 -0.8655713778519E-02
-0.1224820378898E-02 -0.9133887913425E-02
-0.1201344473881E-02 -0.9619326151082E-02
-0.1177345856026E-02 -0.1011290320605E-01
-0.1153994858492E-02 -0.1061554428531E-01
-0.1132656184368E-02 -0.1112827057860E-01
-0.1114945154825E-02 -0.1165217063412E-01
-0.1102817196340E-02 -0.1218837560948E-01
-0.1098734824361E-02 -0.1273797876117E-01
-0.1105931100755E-02 -0.1330195603503E-01
-0.1128763602060E-02 -0.1388124185695E-01
-0.1172749099183E-02 -0.1447673331433E-01
-0.1244528793935E-02 -0.1508917322714E-01
-0.1352036530521E-02 -0.1571901346829E-01
-0.1504923659711E-02 -0.1636620919161E-01
-0.1715371659769E-02 -0.1702985629177E-01
-0.1999610409964E-02 -0.1770752539366E-01
-0.2380691834016E-02 -0.1839401399704E-01
-0.2894724609437E-02 -0.1907803545436E-01
-0.3606517434825E-02 -0.1973870704027E-01
-0.4620880441607E-02 -0.2036901500320E-01
-0.5983737919114E-02 -0.2103217669375E-01
-0.1978588257722E-03 -0.4465209368813E-03
-0.3987963260540E-03 -0.9097541665513E-03
-0.5787072796746E-03 -0.1379829389950E-02
-0.7299876508342E-03 -0.1847381467503E-02
-0.8545422341860E-03 -0.2309007812897E-02
-0.9562898470330E-03 -0.2764992111269E-02
-0.1038751817174E-02 -0.3216651489115E-02
-0.1104785917376E-02 -0.3665370151592E-02
-0.1156698902347E-02 -0.4112383484091E-02
-0.1196370939908E-02 -0.4558749758088E-02
-0.1225357280948E-02 -0.5005370788099E-02
-0.1244965883760E-02 -0.5453026044785E-02
-0.1256316503232E-02 -0.5902405877975E-02
-0.1260387277967E-02 -0.6354141160616E-02
-0.1258053161657E-02 -0.6808827348321E-02
-0.1250119414860E-02 -0.7267044718028E-02
-0.1237352243738E-02 -0.7729378419639E-02
-0.1220508385858E-02 -0.8196429113526E-02
-0.1200364534862E-02 -0.8668829816831E-02
-0.1177748007965E-02 -0.9147252515162E-02
-0.1153569926853E-02 -0.9632402599849E-02
-0.1128858261115E-02 -0.1012507168567E-01
-0.1104800671168E-02 -0.1062607823742E-01
-0.1082790120987E-02 -0.1113630351354E-01
-0.1064490316512E-02 -0.1165664885431E-01
-0.1051938387822E-02 -0.1218799651979E-01
-0.1047715026498E-02 -0.1273112440163E-01
-0.1055184888224E-02 -0.1328663331183E-01
-0.1078820036812E-02 -0.1385503964320E-01
-0.1124252217335E-02 -0.1443677185370E-01
-0.1198284228744E-02 -0.1503202650734E-01
-0.1309098525965E-02 -0.1564058676888E-01
-0.1466725744159E-02 -0.1626154309541E-01
-0.1683925601647E-02 -0.1689284334871E-01
-0.1977770246918E-02 -0.1753058113549E-01
-0.2372579131801E-02 -0.1816768764256E-01
-0.2906032084606E-02 -0.1879204971443E-01
-0.3638250892572E-02 -0.1939029890713E-01
-0.4640631843315E-02 -0.1997317478676E-01
-0.5900060390693E-02 -0.2059963690036E-01
-0.1848388733628E-03 -0.4398647375024E-03
-0.3730502502236E-03 -0.8957421535972E-03
-0.5450942639876E-03 -0.1360562352685E-02
-0.6925445212598E-03 -0.1826252263511E-02
-0.8153017631732E-03 -0.2288594942298E-02
-0.9161179572054E-03 -0.2746718895772E-02
-0.9980171678023E-03 -0.3201207097005E-02
-0.1063642529724E-02 -0.3653040994041E-02
-0.1115201450909E-02 -0.4103227595181E-02
-0.1154527759384E-02 -0.4552692305492E-02
-0.1183155072076E-02 -0.5002256931127E-02
-0.1202381398916E-02 -0.5452649685098E-02
-0.1213322137977E-02 -0.5904524846727E-02
-0.1216953715431E-02 -0.6358484331647E-02
-0.1214150652040E-02 -0.6815096685960E-02
-0.1205718513580E-02 -0.7274913903178E-02
-0.1192424475126E-02 -0.7738488919708E-02
-0.1175027148460E-02 -0.8206384047877E-02
-0.1154306492261E-02 -0.8679185673408E-02
-0.1131095248346E-02 -0.9157508423702E-02
-0.1106313285234E-02 -0.9641986583406E-02
-0.1081002356049E-02 -0.1013332270015E-01
-0.1056371950241E-02 -0.1063222230318E-01
-0.1033850107477E-02 -0.1113942113232E-01
-0.1015157607261E-02 -0.1165563183798E-01
-0.1002419894200E-02 -0.1218149677294E-01
-0.9983356840679E-03 -0.1271750264315E-01
-0.1006397961185E-02 -0.1326391339793E-01
-0.1031194806689E-02 -0.1382087250198E-01
-0.1078478824486E-02 -0.1438838803394E-01
-0.1155219036545E-02 -0.1496616689580E-01
-0.1269846263897E-02 -0.1555340562280E-01
-0.1432757656663E-02 -0.1614847756803E-01
-0.1657228593737E-02 -0.1674847749372E-01
-0.1961000959582E-02 -0.1734857995158E-01
-0.2369097831043E-02 -0.1794117883931E-01
-0.2918371590098E-02 -0.1851627035514E-01
-0.3659323769112E-02 -0.1906919997462E-01
-0.4633493578407E-02 -0.1962058142739E-01
-0.5796358455395E-02 -0.2021984469609E-01
-0.1733928786912E-03 -0.4349046884853E-03
-0.3500091213399E-03 -0.8849827863446E-03
-0.5139604946452E-03 -0.1345101216375E-02
-0.6568386240387E-03 -0.1808508054510E-02
-0.7771683085644E-03 -0.2270791637829E-02
-0.8766350482684E-03 -0.2730304519324E-02
-0.9577057763684E-03 -0.3186984466893E-02
-0.1022755659681E-02 -0.3641405151206E-02
-0.1073859202366E-02 -0.4094325010053E-02
-0.1112782587072E-02 -0.4546515261156E-02
-0.1141024503998E-02 -0.4998699203380E-02
-0.1159864688234E-02 -0.5451538753638E-02
-0.1170408915167E-02 -0.5905639966709E-02
-0.1173628578631E-02 -0.6361565886006E-02
-0.1170395718266E-02 -0.6819849902752E-02
-0.1161515029188E-02 -0.7281008705123E-02
-0.1147754123010E-02 -0.7745556878412E-02
-0.1129873482205E-02 -0.8214012880852E-02
-0.1108656830976E-02 -0.8686911396791E-02
-0.1084943397768E-02 -0.9164804923313E-02
-0.1059663569306E-02 -0.9648252099890E-02
-0.1033875640228E-02 -0.1013786212077E-01
-0.1008815039233E-02 -0.1063422400999E-01
-0.9859505040097E-03 -0.1113792658680E-01
-0.9670657877013E-03 -0.1164949799078E-01
-0.9543773762559E-03 -0.1216935482896E-01
-0.9506991039706E-03 -0.1269771910851E-01
-0.9596473764763E-03 -0.1323455588004E-01
-0.9859248095534E-03 -0.1377968132059E-01
-0.1035405302421E-02 -0.1433273755947E-01
-0.1115219755593E-02 -0.1489301351179E-01
-0.1234030248297E-02 -0.1545922753830E-01
-0.1402552281828E-02 -0.1602922259660E-01
-0.1634454858672E-02 -0.1659957293302E-01
-0.1947849915961E-02 -0.1716515767864E-01
-0.2367587298314E-02 -0.1771907297308E-01
-0.2927523522142E-02 -0.1825490016279E-01
-0.3666651451850E-02 -0.1877530945490E-01
-0.4603191216902E-02 -0.1930488674285E-01
-0.5678486148627E-02 -0.1988287440797E-01
-0.1631345985811E-03 -0.4311455325995E-03
-0.3291587157041E-03 -0.8766230628644E-03
-0.4850591124931E-03 -0.1332645749063E-02
-0.6228699952806E-03 -0.1793641088774E-02
-0.7402396764569E-03 -0.2255342735049E-02
-0.8379560749744E-03 -0.2715640759867E-02
-0.9179254959827E-03 -0.3173955643213E-02
-0.9822206051938E-03 -0.3630479797640E-02
-0.1032755106631E-02 -0.4085718486904E-02
-0.1071208190274E-02 -0.4540276264020E-02
-0.1099030705282E-02 -0.4994764451932E-02
-0.1117475643935E-02 -0.5449766523935E-02
-0.1127633618700E-02 -0.5905829926804E-02
-0.1130467385067E-02 -0.6363470067656E-02
-0.1126844198881E-02 -0.6823177758291E-02
-0.1117566492065E-02 -0.7285428018104E-02
-0.1103401596280E-02 -0.7750691546497E-02
-0.1085111699666E-02 -0.8219438068391E-02
-0.1063484640146E-02 -0.8692146222464E-02
-0.1039367030575E-02 -0.9169302517430E-02
-0.1013701331124E-02 -0.9651386638419E-02
-0.9875647782039E-03 -0.1013891189249E-01
-0.9622221168457E-03 -0.1063234982111E-01
-0.9391868387179E-03 -0.1113214459873E-01
-0.9203088524928E-03 -0.1163864831978E-01
-0.9078952745445E-03 -0.1215206948548E-01
-0.9048699170441E-03 -0.1267239354622E-01
-0.9149657413500E-03 -0.1319932516551E-01
-0.9429946521172E-03 -0.1373240063996E-01
-0.9949456622729E-03 -0.1427095622971E-01
-0.1078096581886E-02 -0.1481394596770E-01
-0.1201304849531E-02 -0.1535973625027E-01
-0.1375523522010E-02 -0.1590584478282E-01
-0.1614638955934E-02 -0.1644866827693E-01
-0.1936729390524E-02 -0.1698338004176E-01
-0.2365544914023E-02 -0.1750463180462E-01
-0.2930501954005E-02 -0.1800987649607E-01
-0.3659294009826E-02 -0.1850695607769E-01
-0.4553411388272E-02 -0.1902077213998E-01
-0.5550036425699E-02 -0.1958155417241E-01
-0.1538003271898E-03 -0.4282609637297E-03
-0.3100983254743E-03 -0.8700641474124E-03
-0.4581363975989E-03 -0.1322567442616E-02
-0.5905777169852E-03 -0.1781191153886E-02
-0.7045619150075E-03 -0.2241980582704E-02
-0.8001635349270E-03 -0.2702595141540E-02
-0.8787642615840E-03 -0.3162070184178E-02
-0.9421201906054E-03 -0.3620263720474E-02
-0.9919641203068E-03 -0.4077436751862E-02
-0.1029871957700E-02 -0.4534022749456E-02
-0.1057234912565E-02 -0.4990512512298E-02
-0.1075271052761E-02 -0.5447401919207E-02
-0.1085050256917E-02 -0.5905171319151E-02
-0.1087522891341E-02 -0.6364280985614E-02
-0.1083548948600E-02 -0.6825172642499E-02
-0.1073927026247E-02 -0.7288274012459E-02
-0.1059423285400E-02 -0.7754007040555E-02
-0.1040801279853E-02 -0.8222788520458E-02
-0.1018853118924E-02 -0.8695037475172E-02
-0.9944334636747E-03 -0.9171171523753E-02
-0.9684980715226E-03 -0.9651589346293E-02
-0.9421449792848E-03 -0.1013670756339E-01
-0.9166706450392E-03 -0.1062688165688E-01
-0.8936356433059E-03 -0.1112241649694E-01
-0.8749567157687E-03 -0.1162349978047E-01
-0.8630285900811E-03 -0.1213015192769E-01
-0.8608778829392E-03 -0.1264215121301E-01
-0.8723449463873E-03 -0.1315898122153E-01
-0.9023414892041E-03 -0.1367994760120E-01
-0.9569583244324E-03 -0.1420414500551E-01
-0.1043594045632E-02 -0.1473028275060E-01
-0.1171247739254E-02 -0.1525650929034E-01
-0.1351001885370E-02 -0.1578022325754E-01
-0.1596742835397E-02 -0.1629796387969E-01
-0.1926074337174E-02 -0.1680566197349E-01
-0.2360873013998E-02 -0.1729993972280E-01
-0.2925440169425E-02 -0.1778170718230E-01
-0.3637505690978E-02 -0.1826195156164E-01
-0.4487336832088E-02 -0.1876392860165E-01
-0.5413307412658E-02 -0.1931051922466E-01
-0.1452039291998E-03 -0.4260277919055E-03
-0.2925165010109E-03 -0.8648770081404E-03
-0.4329549818852E-03 -0.1314376297058E-02
-0.5598669746360E-03 -0.1770758098966E-02
-0.6701412046601E-03 -0.2230444135704E-02
-0.7633104906137E-03 -0.2691022562907E-02
-0.8402904519995E-03 -0.3151261700694E-02
-0.9025243135241E-03 -0.3610741191715E-02
-0.9515525055111E-03 -0.4069496733813E-02
-0.9888351984517E-03 -0.4527793213312E-02
-0.1015693835557E-02 -0.4985996880048E-02
-0.1033304035179E-02 -0.5444509797425E-02
-0.1042709566401E-02 -0.5903738655330E-02
-0.1044844646459E-02 -0.6364082424380E-02
-0.1040559426444E-02 -0.6825928210669E-02
-0.1030646959423E-02 -0.7289651602531E-02
-0.1015871183189E-02 -0.7755621634633E-02
-0.9969964906125E-03 -0.8224198690139E-02
-0.9748191938931E-03 -0.8695739408628E-02
-0.9502023674168E-03 -0.9170590588300E-02
-0.9241158554775E-03 -0.9649069094709E-02
-0.8976796662293E-03 -0.1013149570152E-01
-0.8722232358552E-03 -0.1061811336772E-01
-0.8493548013987E-03 -0.1110909545641E-01
-0.8310563589437E-03 -0.1160447922873E-01
-0.8198049848356E-03 -0.1210411866307E-01
-0.8187209633435E-03 -0.1260761508951E-01
-0.8317403359567E-03 -0.1311427092148E-01
-0.8638607247613E-03 -0.1362321155970E-01
-0.9212543663921E-03 -0.1413335643442E-01
-0.1011404063078E-02 -0.1464326254035E-01
-0.1143381965991E-02 -0.1515099296181E-01
-0.1328272292692E-02 -0.1565401886402E-01
-0.1579725866710E-02 -0.1614928799804E-01
-0.1914463586916E-02 -0.1663378475616E-01
-0.2351960992727E-02 -0.1710616312705E-01
-0.2911338923008E-02 -0.1757007564365E-01
-0.3602132420508E-02 -0.1803806763187E-01
-0.4407574932795E-02 -0.1853087686268E-01
-0.5269842653334E-02 -0.1906562877422E-01
-0.1372101032381E-03 -0.4242885475631E-03
-0.2761701004536E-03 -0.8607483892156E-03
-0.4093027661046E-03 -0.1307690422519E-02
-0.5306272568221E-03 -0.1762002152595E-02
-0.6369551844605E-03 -0.2220490276093E-02
-0.7274249533202E-03 -0.2680774733120E-02
-0.8025541377884E-03 -0.3141453794396E-02
-0.8634900342924E-03 -0.3601885631553E-02
-0.9115774778515E-03 -0.4061905790598E-02
-0.9481526530695E-03 -0.4521618520407E-02
-0.9744591541188E-03 -0.4981265433752E-02
-0.9916235691717E-03 -0.5441151282787E-02
-0.1000658572023E-02 -0.5901604419224E-02
-0.1002478585441E-02 -0.6362957681306E-02
-0.9979213163369E-03 -0.6825539036345E-02
-0.9877724636170E-03 -0.7289667923831E-02
-0.9727925400033E-03 -0.7755657052493E-02
-0.9537460552341E-03 -0.8223807654336E-02
-0.9314331984983E-03 -0.8694412027127E-02
-0.9067254680392E-03 -0.9167745172038E-02
-0.8806070672073E-03 -0.9644042512483E-02
-0.8542203570928E-03 -0.1012353130033E-01
-0.8289278151380E-03 -0.1060634729287E-01
-0.8063842315302E-03 -0.1109254204185E-01
-0.7886332625230E-03 -0.1158201795683E-01
-0.7782270887766E-03 -0.1207448522430E-01
-0.7783686060961E-03 -0.1256939887894E-01
-0.7930752308900E-03 -0.1306592016407E-01
-0.8274123403947E-03 -0.1356304473935E-01
-0.8876067818060E-03 -0.1405958294880E-01
-0.9811802580673E-03 -0.1455402941562E-01
-0.1117198799990E-02 -0.1504448500389E-01
-0.1306611292841E-02 -0.1552865743137E-01
-0.1562604983171E-02 -0.1600409631657E-01
-0.1900689749592E-02 -0.1646897435152E-01
-0.2337666559506E-02 -0.1692380872656E-01
-0.2887813429245E-02 -0.1737423076827E-01
-0.3554261919751E-02 -0.1783322881220E-01
-0.4316220773450E-02 -0.1831878340748E-01
-0.5120732102104E-02 -0.1884359987161E-01
-0.1297179087318E-03 -0.4229292044436E-03
-0.2608677930312E-03 -0.8574455818904E-03
-0.3869947250936E-03 -0.1302211214750E-02
-0.5027437949043E-03 -0.1754638729379E-02
-0.6049623942444E-03 -0.2211899359628E-02
-0.6925146890719E-03 -0.2671707014613E-02
-0.7655889731398E-03 -0.3132565093686E-02
-0.8250621397276E-03 -0.3593662917400E-02
-0.8720871988879E-03 -0.4054663804596E-02
-0.9078722546545E-03 -0.4515523173304E-02
-0.9335772043740E-03 -0.4976361144828E-02
-0.9502741679056E-03 -0.5437384087974E-02
-0.9589402820946E-03 -0.5898839105588E-02
-0.9604667502038E-03 -0.6360989381639E-02
-0.9556762747575E-03 -0.6824100233488E-02
-0.9453453286028E-03 -0.7288431771709E-02
-0.9302296626584E-03 -0.7754237714819E-02
-0.9110929796541E-03 -0.8221758144545E-02
-0.8887387373922E-03 -0.8691219855343E-02
-0.8640464697302E-03 -0.9162825989707E-02
-0.8380144337935E-03 -0.9636731990137E-02
-0.8118068777659E-03 -0.1011307520817E-01
-0.7868181733781E-03 -0.1059189096697E-01
-0.7647469716029E-03 -0.1107312010467E-01
-0.7476932012107E-03 -0.1155654681818E-01
-0.7382751302170E-03 -0.1204176064470E-01
-0.7397653701687E-03 -0.1252810090268E-01
-0.7562458796656E-03 -0.1301462707891E-01
-0.7928277894892E-03 -0.1350025444560E-01
-0.8557604024064E-03 -0.1398374778270E-01
-0.9525526895874E-03 -0.1446362276013E-01
-0.1092179900790E-02 -0.1493812544116E-01
-0.1285320129428E-02 -0.1540532802650E-01
-0.1544497740313E-02 -0.1586349890871E-01
-0.1883784868767E-02 -0.1631200464181E-01
-0.2317249610157E-02 -0.1675293726336E-01
-0.2854886856329E-02 -0.1719322271809E-01
-0.3495034049926E-02 -0.1764557407665E-01
-0.4214951636247E-02 -0.1812531104136E-01
-0.4966782533971E-02 -0.1864177131634E-01
-0.1226502797903E-03 -0.4218653711541E-03
-0.2464575379869E-03 -0.8547930164799E-03
-0.3658714172243E-03 -0.1297704028604E-02
-0.4761042893987E-03 -0.1748431317381E-02
-0.5741095225747E-03 -0.2204477013104E-02
-0.6585717515914E-03 -0.2663682933456E-02
-0.7294143605765E-03 -0.3124513282176E-02
-0.7872739790672E-03 -0.3586034288112E-02
-0.8331209582313E-03 -0.4047765129990E-02
-0.8680350025471E-03 -0.4509526552266E-02
-0.8930887166658E-03 -0.4971322811313E-02
-0.9092955657276E-03 -0.5433262883155E-02
-0.9175933613515E-03 -0.5895511315264E-02
-0.9188469671060E-03 -0.6358259354282E-02
-0.9138616207869E-03 -0.6821707140799E-02
-0.9034026690134E-03 -0.7286053102322E-02
-0.8882196435492E-03 -0.7751490048099E-02
-0.8690743120256E-03 -0.8218195638585E-02
-0.8467724922455E-03 -0.8686330769580E-02
-0.8222009361332E-03 -0.9156027515161E-02
-0.7963710362476E-03 -0.9627363768659E-02
-0.7704675951768E-03 -0.1010039169071E-01
-0.7459145589208E-03 -0.1057505405593E-01
-0.7244502953407E-03 -0.1105119305072E-01
-0.7082240321535E-03 -0.1152849187055E-01
-0.6999095285436E-03 -0.1200644256671E-01
-0.7028345186716E-03 -0.1248429872923E-01
-0.7211264100896E-03 -0.1296105615218E-01
-0.7599169066927E-03 -0.1343559664412E-01
-0.8254416985087E-03 -0.1390669820352E-01
-0.9251418684388E-03 -0.1437297120046E-01
-0.1067817123906E-02 -0.1483289436391E-01
-0.1263750759970E-02 -0.1528499305224E-01
-0.1524647124086E-02 -0.1572830251273E-01
-0.1863015535866E-02 -0.1616329962871E-01
-0.2290292147656E-02 -0.1659332282849E-01
-0.2812837613454E-02 -0.1702603725615E-01
-0.3425545273015E-02 -0.1747345955522E-01
-0.4105114986839E-02 -0.1794850329898E-01
-0.4808614813847E-02 -0.1845794373587E-01
-0.1159471469850E-03 -0.4210334243516E-03
-0.2328172181579E-03 -0.8526563934748E-03
-0.3457961868437E-03 -0.1293983417169E-02
-0.4506025640387E-03 -0.1743184171185E-02
-0.5443367092913E-03 -0.2198053672363E-02
-0.6255764668744E-03 -0.2656576794583E-02
-0.6940377076600E-03 -0.3117218088878E-02
-0.7501485388291E-03 -0.3578958744125E-02
-0.7947095899800E-03 -0.4041200292447E-02
-0.8286750389151E-03 -0.4503644029626E-02
-0.8530287270979E-03 -0.4966185721825E-02
-0.8687225574889E-03 -0.5428839617931E-02
-0.8766519461765E-03 -0.5891687810666E-02
-0.8776526630287E-03 -0.6354848468227E-02
-0.8725101668804E-03 -0.6818454964524E-02
-0.8619767792995E-03 -0.7282642489761E-02
-0.8467942493607E-03 -0.7747541748978E-02
-0.8277210785014E-03 -0.8213267410577E-02
-0.8055642259977E-03 -0.8679914796253E-02
-0.7812163988056E-03 -0.9147546474220E-02
-0.7557005811845E-03 -0.9616166056656E-02
-0.7302199433304E-03 -0.1008574609678E-01
-0.7062245814453E-03 -0.1055614551647E-01
-0.6854871303210E-03 -0.1102712049080E-01
-0.6701977565989E-03 -0.1149827057786E-01
-0.6630737343487E-03 -0.1196901308982E-01
-0.6674818419594E-03 -0.1243854476051E-01
-0.6875739762736E-03 -0.1290583365025E-01
-0.7284748942509E-03 -0.1336977143681E-01
-0.7963683049901E-03 -0.1382920166707E-01
-0.8985716156502E-03 -0.1428289108562E-01
-0.1043629081990E-02 -0.1472961665058E-01
-0.1241323947691E-02 -0.1516840785577E-01
-0.1502430981246E-02 -0.1559905986534E-01
-0.1837860543315E-02 -0.1602302415104E-01
-0.2256621869430E-02 -0.1644456652767E-01
-0.2762093148642E-02 -0.1687166994821E-01
-0.3346806439070E-02 -0.1731543988369E-01
-0.3987800826955E-02 -0.1778669815800E-01
-0.4646721289172E-02 -0.1829026847803E-01
-0.1095608021942E-03 -0.4203846427688E-03
-0.2198476551694E-03 -0.8509317275677E-03
-0.3266520329585E-03 -0.1290901951700E-02
-0.4261402741357E-03 -0.1738735600867E-02
-0.5155812472609E-03 -0.2192482910691E-02
-0.5935007231970E-03 -0.2650274919885E-02
-0.6594565618068E-03 -0.3110603373190E-02
-0.7136996013543E-03 -0.3572394961486E-02
-0.7568760105479E-03 -0.4034957445259E-02
-0.7898198339125E-03 -0.4497887968651E-02
-0.8134265746167E-03 -0.4960982270570E-02
-0.8285849024640E-03 -0.5424163828221E-02
-0.8361455087909E-03 -0.5887433573309E-02
-0.8369127202124E-03 -0.6350836479881E-02
-0.8316500829277E-03 -0.6814438437274E-02
-0.8210950207429E-03 -0.7278310603170E-02
-0.8059798446314E-03 -0.7742521073300E-02
-0.7870582608306E-03 -0.8207121612921E-02
-0.7651368403132E-03 -0.8672142955109E-02
-0.7411125344526E-03 -0.9137580405154E-02
-0.7160177586519E-03 -0.9603367255768E-02
-0.6910710482546E-03 -0.1006940270002E-01
-0.6677442128271E-03 -0.1053547102989E-01
-0.6478375520148E-03 -0.1100125528877E-01
-0.6335726225825E-03 -0.1146628854494E-01
-0.6276970727754E-03 -0.1192993529950E-01
-0.6335994370987E-03 -0.1239136269111E-01
-0.6554337702884E-03 -0.1284954421839E-01
-0.6982889612830E-03 -0.1330342021914E-01
-0.7682577217698E-03 -0.1375194445862E-01
-0.8724800670518E-03 -0.1419408861095E-01
-0.1019173736520E-02 -0.1462897167200E-01
-0.1217539671901E-02 -0.1505614538976E-01
-0.1477360113938E-02 -0.1547611846973E-01
-0.1807980686163E-02 -0.1589115800932E-01
-0.2216246794641E-02 -0.1630617394836E-01
-0.2703159198359E-02 -0.1672916435858E-01
-0.3259729449356E-02 -0.1717024311530E-01
-0.3863898000150E-02 -0.1763846210046E-01
-0.4481498687613E-02 -0.1813716523609E-01
-0.1034526975324E-03 -0.4198812209466E-03
-0.2074673877771E-03 -0.8495376468608E-03
-0.3083386028221E-03 -0.1288341759960E-02
-0.4026274373007E-03 -0.1734952130407E-02
-0.4877800632500E-03 -0.2187639208561E-02
-0.5623105837908E-03 -0.2644675935697E-02
-0.6256605295445E-03 -0.3104598457327E-02
-0.6779329113477E-03 -0.3566302744247E-02
-0.7196358373618E-03 -0.4029023569196E-02
-0.7514904629669E-03 -0.4492268586314E-02
-0.7743059820273E-03 -0.4955742503070E-02
-0.7889073003936E-03 -0.5419282910120E-02
-0.7960987836676E-03 -0.5882811847858E-02
-0.7966513868485E-03 -0.6346301877793E-02
-0.7913048131973E-03 -0.6809751481128E-02
-0.7807797619092E-03 -0.7273167693943E-02
-0.7657973726239E-03 -0.7736556142115E-02
-0.7471048384030E-03 -0.8199906385518E-02
-0.7255065077099E-03 -0.8663186146431E-02
-0.7019014291365E-03 -0.9126326290918E-02
-0.6773286983296E-03 -0.9589194302909E-02
-0.6530184559920E-03 -0.1005162272577E-01
-0.6304588820747E-03 -0.1051333071514E-01
-0.6114703462827E-03 -0.1097394100351E-01
-0.5982952574956E-03 -0.1143293677606E-01
-0.5936975674126E-03 -0.1188965047190E-01
-0.6010693931091E-03 -0.1234324484564E-01
-0.6245437984101E-03 -0.1279272865800E-01
-0.6691444444490E-03 -0.1323712446932E-01
-0.7408349369027E-03 -0.1367553260464E-01
-0.8465285367019E-03 -0.1410716496991E-01
-0.9940569894339E-03 -0.1453150643879E-01
-0.1191981086723E-02 -0.1494862281145E-01
-0.1449069081601E-02 -0.1535966500688E-01
-0.1773186930324E-02 -0.1576755388634E-01
-0.2169302759249E-02 -0.1617760657223E-01
-0.2636574270738E-02 -0.1659763002864E-01
-0.3165129037065E-02 -0.1703674713227E-01
-0.3734138305974E-02 -0.1750253965988E-01
-0.4313264573134E-02 -0.1799725610003E-01
-0.9759118544464E-04 -0.4194934950453E-03
-0.1956087459568E-03 -0.8484098886773E-03
-0.2907694984618E-03 -0.1286208103576E-02
-0.3799822824737E-03 -0.1731723560620E-02
-0.4608713022571E-03 -0.2183415556274E-02
-0.5319682957340E-03 -0.2639690444675E-02
-0.5926329348767E-03 -0.3099138869898E-02
-0.6428472899666E-03 -0.3560644068081E-02
-0.6829980446402E-03 -0.4023385424689E-02
-0.7137019488218E-03 -0.4486794675266E-02
-0.7356852045230E-03 -0.4950494585467E-02
-0.7497094298710E-03 -0.5414242354831E-02
-0.7565317501524E-03 -0.5877884169021E-02
-0.7568882393726E-03 -0.6341321723459E-02
-0.7514930429070E-03 -0.6804486875937E-02
-0.7410483692347E-03 -0.7267323096151E-02
-0.7262623893669E-03 -0.7729774270210E-02
-0.7078738888513E-03 -0.8191769000465E-02
-0.6866828694298E-03 -0.8653214093366E-02
-0.6635879157347E-03 -0.9113979276997E-02
-0.6396315036514E-03 -0.9573871144298E-02
-0.6160509353938E-03 -0.1003266257564E-01
-0.5943446291296E-03 -0.1049001712565E-01
-0.5763445999216E-03 -0.1094550971831E-01
-0.5643027839405E-03 -0.1139858944085E-01
-0.5609846851243E-03 -0.1184857593047E-01
-0.5697672979728E-03 -0.1229465035837E-01
-0.5947393019478E-03 -0.1273588281160E-01
-0.6408302491751E-03 -0.1317140600702E-01
-0.7138387913665E-03 -0.1360049468764E-01
-0.8204081430674E-03 -0.1402262374329E-01
-0.9679376202306E-03 -0.1443765064550E-01
-0.1164313561830E-02 -0.1484612765354E-01
-0.1417303003256E-02 -0.1524976361799E-01
-0.1733410443817E-02 -0.1565198111723E-01
-0.2116012976882E-02 -0.1605831514729E-01
-0.2562881184709E-02 -0.1647624902036E-01
-0.3063731513760E-02 -0.1691396121233E-01
-0.3599133699148E-02 -0.1737781741860E-01
-0.4142261355230E-02 -0.1786930681472E-01
-0.9194989147716E-04 -0.4191979695369E-03
-0.1842148768670E-03 -0.8474973041107E-03
-0.2738699505274E-03 -0.1284424477971E-02
-0.3581307304187E-03 -0.1728958865168E-02
-0.4347952735314E-03 -0.2179721109940E-02
-0.5024337918109E-03 -0.2635240326674E-02
-0.5603522095025E-03 -0.3094166649446E-02
-0.6084356587354E-03 -0.3555383778551E-02
-0.6469656220645E-03 -0.4018030275872E-02
-0.6764636444561E-03 -0.4481474187458E-02
-0.6975772303358E-03 -0.4945265194598E-02
-0.7110060393320E-03 -0.5409085941277E-02
-0.7174596649555E-03 -0.5872710369021E-02
-0.7176381919539E-03 -0.6335971487525E-02
-0.7122287106494E-03 -0.6798735933950E-02
-0.7019132438658E-03 -0.7260884743150E-02
-0.6873851460902E-03 -0.7722301322040E-02
-0.6693727406154E-03 -0.8182855049160E-02
-0.6486692894662E-03 -0.8642394348321E-02
-0.6261699706475E-03 -0.9100731485139E-02
-0.6029168441125E-03 -0.9557617351054E-02
-0.5801493297356E-03 -0.1001277225574E-01
-0.5593692859704E-03 -0.1046581352846E-01
-0.5424112828981E-03 -0.1091628024611E-01
-0.5315248761044E-03 -0.1136360212501E-01
-0.5294619474130E-03 -0.1180710351918E-01
-0.5395654947481E-03 -0.1224600413785E-01
-0.5658567285238E-03 -0.1267945744930E-01
-0.6131435052080E-03 -0.1310672851037E-01
-0.6870270105068E-03 -0.1352728614685E-01
-0.7938442923304E-03 -0.1394087974531E-01
-0.9405291458592E-03 -0.1434773232538E-01
-0.1134280327643E-02 -0.1474884209566E-01
-0.1381902720645E-02 -0.1514638760589E-01
-0.1688676254584E-02 -0.1554415811638E-01
-0.2056657559141E-02 -0.1594776035577E-01
-0.2482610449775E-02 -0.1636427750822E-01
-0.2956183551471E-02 -0.1680100886158E-01
-0.3459413119725E-02 -0.1726331466833E-01
-0.3968650484203E-02 -0.1775216378876E-01
-0.8650652134764E-04 -0.4189758792885E-03
-0.1732374719643E-03 -0.8467589230149E-03
-0.2575748519974E-03 -0.1282928845027E-02
-0.3370056977340E-03 -0.1726582812186E-02
-0.4094949546262E-03 -0.2176479013662E-02
-0.4736657832206E-03 -0.2631257839497E-02
-0.5287930305678E-03 -0.3089630332815E-02
-0.5746859537419E-03 -0.3550490008754E-02
-0.6115362116067E-03 -0.4012946412680E-02
-0.6397796370830E-03 -0.4476314687396E-02
-0.6599900196524E-03 -0.4940079829728E-02
-0.6728070813106E-03 -0.5403855885225E-02
-0.6788931380993E-03 -0.5867348564566E-02
-0.6789115483958E-03 -0.6330324881337E-02
-0.6735210625342E-03 -0.6792588181956E-02
-0.6633819004507E-03 -0.7253958703008E-02
-0.6491707148119E-03 -0.7714261099191E-02
-0.6316031704317E-03 -0.8173307677372E-02
-0.6114631548917E-03 -0.8630891370136E-02
-0.5896391559744E-03 -0.9086770929907E-02
-0.5671685871849E-03 -0.9540646881598E-02
-0.5452874335721E-03 -0.9992194009278E-02
-0.5254936569555E-03 -0.1044099245866E-01
-0.5096147899732E-03 -0.1088655669347E-01
-0.4998857187040E-03 -0.1132831053687E-01
-0.4990293615364E-03 -0.1176559864664E-01
-0.5103360288853E-03 -0.1219769654097E-01
-0.5377371888916E-03 -0.1262385902461E-01
-0.5858933842695E-03 -0.1304350005263E-01
-0.6601799217025E-03 -0.1345629464211E-01
-0.7665992425069E-03 -0.1386226862645E-01
-0.9115992832275E-03 -0.1426199317640E-01
-0.1101695992638E-02 -0.1465686450771E-01
-0.1342790015500E-02 -0.1504944509237E-01
-0.1639080750706E-02 -0.1544377545435E-01
-0.1991551911864E-02 -0.1584542656848E-01
-0.2396268732423E-02 -0.1626104002159E-01
-0.2843065829036E-02 -0.1669712569904E-01
-0.3315434915506E-02 -0.1715815148645E-01
-0.3792563293730E-02 -0.1764485261053E-01
-0.8124202643039E-04 -0.4188033314245E-03
-0.1626404715557E-03 -0.8461444721141E-03
-0.2418424189204E-03 -0.1281645906442E-02
-0.3165756457155E-03 -0.1724501830706E-02
-0.3849627367902E-03 -0.2173587608015E-02
-0.4456886341926E-03 -0.2627643274269E-02
-0.4980143569274E-03 -0.3085439573577E-02
-0.5416908134874E-03 -0.3545885967489E-02
-0.5768335503763E-03 -0.4008072264399E-02
-0.6038017271495E-03 -0.4471270058420E-02
-0.6231005218869E-03 -0.4934907596533E-02
-0.6353120336507E-03 -0.5398536493324E-02
-0.6410518264202E-03 -0.5861798869905E-02
-0.6409459706141E-03 -0.6324399304640E-02
-0.6356236561262E-03 -0.6786080795052E-02
-0.6257216415094E-03 -0.7246605512374E-02
-0.6118978544953E-03 -0.7705742234999E-02
-0.5948528776834E-03 -0.8163249527723E-02
-0.5753582772725E-03 -0.8618868901355E-02
-0.5542921772922E-03 -0.9072310679606E-02
-0.5326826639932E-03 -0.9523231378590E-02
-0.5117562630856E-03 -0.9971268118047E-02
-0.4929992804413E-03 -0.1041597336889E-01
-0.4782223584406E-03 -0.1085684816534E-01
-0.4696334843492E-03 -0.1129332312919E-01
-0.4699118677367E-03 -0.1172477701283E-01
-0.4822778968024E-03 -0.1215055524266E-01
-0.5105538744644E-03 -0.1257002693799E-01
-0.5592324962097E-03 -0.1298276448823E-01
-0.6334433121051E-03 -0.1338865183474E-01
-0.7388392736480E-03 -0.1378798165685E-01
-0.8813820258338E-03 -0.1418164379310E-01
-0.1066935339002E-02 -0.1457137589882E-01
-0.1300580396204E-02 -0.1496003970378E-01
-0.1585596802506E-02 -0.1535182872909E-01
-0.1922130593319E-02 -0.1575220154853E-01
-0.2305812345473E-02 -0.1616735495089E-01
-0.2726820587948E-02 -0.1660308686522E-01
-0.3170110506434E-02 -0.1706318349604E-01
-0.3617126869801E-02 -0.1754782964590E-01
-0.7614001262958E-04 -0.4186780151460E-03
-0.1523826094100E-03 -0.8456462529060E-03
-0.2266067436228E-03 -0.1280561754524E-02
-0.2967551881593E-03 -0.1722698796765E-02
-0.3610994097344E-03 -0.2171032567194E-02
-0.4183925433010E-03 -0.2624391802992E-02
-0.4678961947931E-03 -0.3081604465138E-02
-0.5093185629814E-03 -0.3541600020983E-02
-0.5427120680800E-03 -0.4003455903243E-02
-0.5683683222697E-03 -0.4466408143727E-02
-0.5867294737964E-03 -0.4929835345620E-02
-0.5983228887856E-03 -0.5393232397021E-02
-0.6037184268613E-03 -0.5856182190850E-02
-0.6035047228079E-03 -0.6318330199072E-02
-0.5982804836626E-03 -0.6779361741992E-02
-0.5886575412405E-03 -0.7238983298669E-02
-0.5752731784371E-03 -0.7696910165679E-02
-0.5588104992743E-03 -0.8152849867852E-02
-0.5400257656366E-03 -0.8606495766215E-02
-0.5197829791479E-03 -0.9057513844508E-02
-0.4990961038882E-03 -0.9505521740196E-02
-0.4791760659868E-03 -0.9950125271823E-02
-0.4614896788583E-03 -0.1039085694231E-01
-0.4478208421816E-03 -0.1082721341006E-01
-0.4403385251466E-03 -0.1125864232377E-01
-0.4416637206816E-03 -0.1168456753017E-01
-0.4549300507386E-03 -0.1210441536231E-01
-0.4838318441715E-03 -0.1251767887386E-01
-0.5326743383199E-03 -0.1292409498877E-01
-0.6063228887576E-03 -0.1332375615461E-01
-0.7100680589127E-03 -0.1371721035933E-01
-0.8493864644387E-03 -0.1410563779803E-01
-0.1029518936420E-02 -0.1449106815467E-01
-0.1254801840877E-02 -0.1487659375967E-01
-0.1527727914058E-02 -0.1526648737567E-01
-0.1847791266592E-02 -0.1566604534589E-01
-0.2210376247990E-02 -0.1608102639348E-01
-0.2606136051739E-02 -0.1651659629578E-01
-0.3021346762688E-02 -0.1697595858015E-01
-0.3439961950067E-02 -0.1745881331249E-01
-0.7118581748399E-04 -0.4185900622554E-03
-0.1424322068115E-03 -0.8452426190976E-03
-0.2118229288350E-03 -0.1279642804309E-02
-0.2774938822618E-03 -0.1721131315849E-02
-0.3378566539266E-03 -0.2168768369182E-02
-0.3917364703576E-03 -0.2621461171988E-02
-0.4384068810533E-03 -0.3078091433689E-02
-0.4775466822680E-03 -0.3537610916437E-02
-0.5091568751662E-03 -0.3999090317411E-02
-0.5334702123547E-03 -0.4461736849011E-02
-0.5508714453836E-03 -0.4924885881814E-02
-0.5618363549370E-03 -0.5387981027074E-02
-0.5668904363166E-03 -0.5850550346036E-02
-0.5665849856552E-03 -0.6312183731226E-02
-0.5614874714253E-03 -0.6772511769202E-02
-0.5521834169244E-03 -0.7231187907276E-02
-0.5392875452155E-03 -0.7687876618571E-02
-0.5234630189421E-03 -0.8142237300211E-02
-0.5054476836796E-03 -0.8593918561997E-02
-0.4860874806039E-03 -0.9042546143205E-02
-0.4663772473427E-03 -0.9487703772995E-02
-0.4475059630523E-03 -0.9928971949779E-02
-0.4309129575819E-03 -0.1036587024042E-01
-0.4183455000049E-03 -0.1079789893902E-01
-0.4119215925665E-03 -0.1122453145373E-01
-0.4141899949518E-03 -0.1164524567936E-01
-0.4281817040565E-03 -0.1205955714915E-01
-0.4574460152115E-03 -0.1246708903353E-01
-0.5060839617440E-03 -0.1286774484281E-01
-0.5786826944483E-03 -0.1326182070575E-01
-0.6801637951963E-03 -0.1365010435960E-01
-0.8155278839284E-03 -0.1403403602118E-01
-0.9894293586459E-03 -0.1441589041628E-01
-0.1205536596008E-02 -0.1479893111549E-01
-0.1465679448392E-02 -0.1518745274777E-01
-0.1768858064836E-02 -0.1558655872919E-01
-0.2110364898070E-02 -0.1600158776399E-01
-0.2481387009519E-02 -0.1643715818234E-01
-0.2869515369930E-02 -0.1689593545962E-01
-0.3260710080656E-02 -0.1737756868492E-01
-0.6636638472822E-04 -0.4185314677166E-03
-0.1327611199128E-03 -0.8449159388108E-03
-0.1974506419204E-03 -0.1278861557736E-02
-0.2587454070830E-03 -0.1719764328445E-02
-0.3151887194481E-03 -0.2166756911901E-02
-0.3656799974660E-03 -0.2618815591104E-02
-0.4095136236456E-03 -0.3074871807701E-02
-0.4463502396724E-03 -0.3533900591085E-02
-0.4761498711517E-03 -0.3994970127386E-02
-0.4990945488045E-03 -0.4457264440621E-02
-0.5155171744440E-03 -0.4920081393067E-02
-0.5258452339171E-03 -0.5382818458706E-02
-0.5305614125332E-03 -0.5844953222401E-02
-0.5301799641822E-03 -0.6306023646052E-02
-0.5252365095604E-03 -0.6765608728673E-02
-0.5162889633719E-03 -0.7223311771348E-02
-0.5039275911570E-03 -0.7678749287549E-02
-0.4887931101146E-03 -0.8131535610457E-02
-0.4716017469585E-03 -0.8581278061626E-02
-0.4531773187373E-03 -0.9027566170871E-02
-0.4344903942665E-03 -0.9469954498037E-02
-0.4167015416316E-03 -0.9908003748205E-02
-0.4012145710609E-03 -0.1034122684375E-01
-0.3897303253459E-03 -0.1076913463508E-01
-0.3843042057254E-03 -0.1119123351088E-01
-0.3873993729823E-03 -0.1160706236386E-01
-0.4019294916141E-03 -0.1201623166226E-01
-0.4312836517625E-03 -0.1241849776121E-01
-0.4793448258805E-03 -0.1281392935027E-01
-0.5504121170319E-03 -0.1320301797063E-01
-0.6490370166715E-03 -0.1358677291835E-01
-0.7797592815963E-03 -0.1396686372932E-01
-0.9466879705023E-03 -0.1434576697776E-01
-0.1152899593583E-02 -0.1472686745188E-01
-0.1399673743996E-02 -0.1511443865192E-01
-0.1685651482799E-02 -0.1551337429923E-01
-0.2006148648138E-02 -0.1592862333834E-01
-0.2352935440467E-02 -0.1636431844655E-01
-0.2714826332269E-02 -0.1682272687161E-01
-0.3079378130737E-02 -0.1730355360635E-01
-0.6166994908102E-04 -0.4184957184604E-03
-0.1233440792841E-03 -0.8446518358691E-03
-0.1834533399534E-03 -0.1278195482326E-02
-0.2404669903925E-03 -0.1718568868483E-02
-0.2930522065533E-03 -0.2164966398439E-02
-0.3401834395190E-03 -0.2616424913109E-02
-0.3811828185973E-03 -0.3071921324128E-02
-0.4157022870985E-03 -0.3530453942833E-02
-0.4436701306391E-03 -0.3991091521964E-02
-0.4652251799622E-03 -0.4452999554243E-02
-0.4806538430511E-03 -0.4915443463097E-02
-0.4903386479556E-03 -0.5377779384436E-02
-0.4947211677947E-03 -0.5839438683585E-02
-0.4942790665413E-03 -0.6299911098911E-02
-0.4895156338238E-03 -0.6758727329649E-02
-0.4809599548888E-03 -0.7215443584332E-02
-0.4691759696418E-03 -0.7669631431800E-02
-0.4547794301483E-03 -0.8120863302606E-02
-0.4384616903807E-03 -0.8568708701776E-02
-0.4210203079815E-03 -0.9012724866137E-02
-0.4033963726799E-03 -0.9452441635136E-02
-0.3867155475265E-03 -0.9887404937886E-02
-0.3723381446281E-03 -0.1031712655939E-01
-0.3619089927693E-03 -0.1074113371409E-01
-0.3574096981754E-03 -0.1115897149704E-01
-0.3612052362143E-03 -0.1157024482610E-01
-0.3760784971461E-03 -0.1197466246987E-01
-0.4052451380482E-03 -0.1237211428170E-01
-0.4523590120802E-03 -0.1276282985889E-01
-0.5214251088064E-03 -0.1314748533154E-01
-0.6166283080002E-03 -0.1352729189828E-01
-0.7420671405946E-03 -0.1390411857266E-01
-0.9013488331470E-03 -0.1428060512668E-01
-0.1097031147250E-02 -0.1466021650562E-01
-0.1329944432513E-02 -0.1504717390506E-01
-0.1598482894722E-02 -0.1544615662417E-01
-0.1898075445634E-02 -0.1586175546970E-01
-0.2221096958230E-02 -0.1629768872741E-01
-0.2557470685058E-02 -0.1675593483452E-01
-0.2896068278096E-02 -0.1723626338248E-01
-0.5708578722907E-04 -0.4184775079420E-03
-0.1141581605827E-03 -0.8444385793266E-03
-0.1697976322198E-03 -0.1277626112347E-02
-0.2226189053456E-03 -0.1717521033200E-02
-0.2714058391686E-03 -0.2163370375290E-02
-0.3152078976202E-03 -0.2614263882528E-02
-0.3533802997006E-03 -0.3069219634060E-02
-0.3855742044518E-03 -0.3527258558616E-02
-0.4116942654304E-03 -0.3987452137035E-02
-0.4318429888271E-03 -0.4448951148787E-02
-0.4462653769994E-03 -0.4910993040077E-02
-0.4553023041540E-03 -0.5372897056485E-02
-0.4593560099437E-03 -0.5834052461462E-02
-0.4588681361528E-03 -0.6293904483665E-02
-0.4543092639635E-03 -0.6751938899002E-02
-0.4461785048476E-03 -0.7207667994325E-02
-0.4350116466888E-03 -0.7660621511005E-02
-0.4213969668248E-03 -0.8110333187512E-02
-0.4059976805119E-03 -0.8556338144286E-02
-0.3895809324484E-03 -0.8998165074706E-02
-0.3730531230217E-03 -0.9435323210713E-02
-0.3574985685357E-03 -0.9867348174415E-02
-0.3442262562848E-03 -0.1029375531196E-01
-0.3348157239044E-03 -0.1071409289833E-01
-0.3311641335436E-03 -0.1112794900961E-01
-0.3355265640266E-03 -0.1153499780547E-01
-0.3505430194190E-03 -0.1193504756905E-01
-0.3792444237276E-03 -0.1232811958534E-01
-0.4250470704095E-03 -0.1271459779363E-01
-0.4916590752155E-03 -0.1309533031937E-01
-0.5829058583599E-03 -0.1347171007929E-01
-0.7024674427448E-03 -0.1384577743093E-01
-0.8534933525979E-03 -0.1422030157115E-01
-0.1038091325435E-02 -0.1459879466494E-01
-0.1256731576358E-02 -0.1498540448385E-01
-0.1507654487585E-02 -0.1538459897112E-01
-0.1786469323131E-02 -0.1580064578398E-01
-0.2086156183463E-02 -0.1623691658951E-01
-0.2397638195264E-02 -0.1669517432301E-01
-0.2710918461352E-02 -0.1717523414604E-01
-0.5260401966915E-04 -0.4184725129053E-03
-0.1051823559783E-03 -0.8442665994479E-03
-0.1564527474947E-03 -0.1277138328298E-02
-0.2051640212919E-03 -0.1716601138368E-02
-0.2502102244939E-03 -0.2161946916933E-02
-0.2907152470979E-03 -0.2612311470696E-02
-0.3260714995800E-03 -0.3066749838666E-02
-0.3559359548466E-03 -0.3524304436434E-02
-0.3801967076224E-03 -0.3984050912090E-02
-0.3989261635427E-03 -0.4445128437026E-02
-0.4123326867721E-03 -0.4906750389271E-02
-0.4207187049871E-03 -0.5368203223471E-02
-0.4244489302266E-03 -0.5828838052678E-02
-0.4239296286250E-03 -0.6288059275750E-02
-0.4195983827751E-03 -0.6745311165621E-02
-0.4119232601807E-03 -0.7200065330789E-02
-0.4014101240921E-03 -0.7651812860953E-02
-0.3886173030891E-03 -0.8100052019901E-02
-0.3741766342488E-03 -0.8544286894443E-02
-0.3588207293444E-03 -0.8984021178171E-02
-0.3434161539393E-03 -0.9418747238496E-02
-0.3289995645743E-03 -0.9847994287110E-02
-0.3168210339535E-03 -0.1027128511493E-01
-0.3083859306737E-03 -0.1068819266488E-01
-0.3054969526121E-03 -0.1109835088442E-01
-0.3102885111587E-03 -0.1150150471546E-01
-0.3252469608774E-03 -0.1189756125298E-01
-0.3532090439962E-03 -0.1228666913788E-01
-0.3973474252580E-03 -0.1266935831607E-01
-0.4610733749136E-03 -0.1304663521300E-01
-0.5478627993205E-03 -0.1342005446981E-01
-0.6610017645328E-03 -0.1379180190730E-01
-0.8032254828012E-03 -0.1416474723527E-01
-0.9762550617547E-03 -0.1454242416015E-01
-0.1180278309679E-02 -0.1492889389719E-01
-0.1413458148180E-02 -0.1532842188272E-01
-0.1671632966065E-02 -0.1574498870960E-01
-0.1948376514800E-02 -0.1618167752912E-01
-0.2235519279245E-02 -0.1664008313766E-01
-0.2524074692257E-02 -0.1712004558166E-01
-0.4821545203444E-04 -0.4184772134674E-03
-0.9639722780568E-04 -0.8441280957047E-03
-0.1433900941305E-03 -0.1276719766928E-02
-0.1880674182344E-03 -0.1715793011918E-02
-0.2294276309456E-03 -0.2160677921711E-02
-0.2666681086474E-03 -0.2610550275545E-02
-0.2992215802002E-03 -0.3064498043501E-02
-0.3267563146241E-03 -0.3521583692385E-02
-0.3491499835165E-03 -0.3980887914511E-02
-0.3664504775757E-03 -0.4441540779881E-02
-0.3788339353414E-03 -0.4902735013375E-02
-0.3865673992523E-03 -0.5363728042990E-02
-0.3899798415039E-03 -0.5823836600956E-02
-0.3894428456776E-03 -0.6282427871554E-02
-0.3853607759774E-03 -0.6738908052147E-02
-0.3781696579218E-03 -0.7192711350488E-02
-0.3683437231874E-03 -0.7643293401538E-02
-0.3564089380244E-03 -0.8090120182731E-02
-0.3429625858130E-03 -0.8532667983677E-02
-0.3286987085728E-03 -0.8970418806455E-02
-0.3144390172058E-03 -0.9402851504755E-02
-0.3011663943183E-03 -0.9829492193956E-02
-0.2900647206825E-03 -0.1024987418811E-01
-0.2825567918520E-03 -0.1066359765610E-01
-0.2803415137498E-03 -0.1107034400696E-01
-0.2854228356696E-03 -0.1146992897812E-01
-0.3001240276465E-03 -0.1186235609583E-01
-0.3270799291323E-03 -0.1224789562452E-01
-0.3692155889023E-03 -0.1262721387732E-01
-0.4296477205934E-03 -0.1300146132929E-01
-0.5115146404913E-03 -0.1337233506897E-01
-0.6177337955835E-03 -0.1374214304593E-01
-0.7506677121197E-03 -0.1411383121867E-01
-0.9117084575518E-03 -0.1449093543574E-01
-0.1100828562307E-02 -0.1487742353808E-01
-0.1316175519916E-02 -0.1527737127958E-01
-0.1553851342127E-02 -0.1569450698979E-01
-0.1808006310374E-02 -0.1613167288836E-01
-0.2071303129404E-02 -0.1659032708474E-01
-0.2335680760799E-02 -0.1707031956995E-01
-0.4391144710700E-04 -0.4184887484441E-03
-0.8778462607226E-04 -0.8440167203547E-03
-0.1305828926037E-03 -0.1276360340180E-02
-0.1712960507876E-03 -0.1715083407603E-02
-0.2090217768028E-03 -0.2159548511822E-02
-0.2430297957555E-03 -0.2608965992114E-02
-0.2727955204411E-03 -0.3062452947386E-02
-0.2980030564757E-03 -0.3519090274183E-02
-0.3185249463864E-03 -0.3977964154297E-02
-0.3343895381896E-03 -0.4438197565823E-02
-0.3457447833180E-03 -0.4898965559946E-02
-0.3528252171343E-03 -0.5359499987312E-02
-0.3559258045719E-03 -0.5819086780320E-02
-0.3553841585784E-03 -0.6277059437073E-02
-0.3515712607044E-03 -0.6732789484440E-02
-0.3448901673374E-03 -0.7185677009629E-02
-0.3357818490097E-03 -0.7635145379608E-02
-0.3247375805705E-03 -0.8080631415326E-02
-0.3123170159364E-03 -0.8521586705102E-02
-0.2991717205316E-03 -0.8957474611973E-02
-0.2860737128441E-03 -0.9387763423099E-02
-0.2739462496581E-03 -0.9811978891575E-02
-0.2639001206933E-03 -0.1022966715109E-01
-0.2572676792292E-03 -0.1064045715897E-01
-0.2556354486705E-03 -0.1104407817298E-01
-0.2608681081210E-03 -0.1144041536872E-01
-0.2751176837566E-03 -0.1182956487940E-01
-0.3008109610440E-03 -0.1221191152806E-01
-0.3406231543442E-03 -0.1258824745120E-01
-0.3973804542539E-03 -0.1295985279875E-01
-0.4738967577915E-03 -0.1332854890416E-01
-0.5727461589098E-03 -0.1369674516519E-01
-0.6959576294817E-03 -0.1406744381772E-01
-0.8446458312528E-03 -0.1444416877820E-01
-0.1018625463615E-02 -0.1483079259848E-01
-0.1216078572749E-02 -0.1523121655688E-01
-0.1433394797940E-02 -0.1564894887168E-01
-0.1665282243065E-02 -0.1608662935619E-01
-0.1905175494884E-02 -0.1654560178202E-01
-0.2145874756873E-02 -0.1702571747813E-01
-0.3968382105587E-04 -0.4185047975773E-03
-0.7932745755215E-04 -0.8439273202891E-03
-0.1180058693784E-03 -0.1276051839393E-02
-0.1548184590903E-03 -0.1714461514766E-02
-0.1889576377046E-03 -0.2158546519623E-02
-0.2197642543782E-03 -0.2607546944677E-02
-0.2467581802771E-03 -0.3060605464080E-02
-0.2696431058100E-03 -0.3516819683487E-02
-0.2882909877975E-03 -0.3975281392536E-02
-0.3027150227321E-03 -0.4435108077767E-02
-0.3130386315272E-03 -0.4895459716703E-02
-0.3194665106808E-03 -0.5355545741377E-02
-0.3222612655032E-03 -0.5814624677209E-02
-0.3217272457242E-03 -0.6271999763078E-02
-0.3182019288918E-03 -0.6727011215679E-02
-0.3120545453953E-03 -0.7179028259130E-02
-0.3036912638353E-03 -0.7627445143810E-02
-0.2935664460351E-03 -0.8071672582724E-02
-0.2821991742446E-03 -0.8511140399726E-02
-0.2701948040894E-03 -0.8945296103695E-02
-0.2582710576438E-03 -0.9373599957377E-02
-0.2472860328373E-03 -0.9795579519062E-02
-0.2382709636808E-03 -0.1021079529187E-01
-0.2324604747015E-03 -0.1061890565336E-01
-0.2313208808802E-03 -0.1101968699952E-01
-0.2365697583511E-03 -0.1141309137418E-01
-0.2501809284939E-03 -0.1179930247172E-01
-0.2743683613368E-03 -0.1217881156511E-01
-0.3115566675338E-03 -0.1255252549755E-01
-0.3642868069022E-03 -0.1292183991851E-01
-0.4350620368206E-03 -0.1328868349751E-01
-0.5261376080332E-03 -0.1365554902309E-01
-0.6392450861297E-03 -0.1402547889942E-01
-0.7752674771754E-03 -0.1440197547815E-01
-0.9339104067237E-03 -0.1478881781220E-01
-0.1113430521995E-02 -0.1518974907996E-01
-0.1310521601777E-02 -0.1560808643698E-01
-0.1520431336741E-02 -0.1604629874911E-01
-0.1737317399652E-02 -0.1650563270968E-01
-0.1954788784836E-02 -0.1698593718688E-01
-0.3552475884170E-04 -0.4185234855719E-03
-0.7100949578464E-04 -0.8438557262481E-03
-0.1056350001628E-03 -0.1275787609681E-02
-0.1386045185904E-03 -0.1713918549404E-02
-0.1692012703525E-03 -0.2157662050299E-02
-0.1968359955467E-03 -0.2606283677674E-02
-0.2210743421185E-03 -0.3058948380384E-02
-0.2416426681371E-03 -0.3514768714725E-02
-0.2584162212858E-03 -0.3972841952843E-02
-0.2713968925777E-03 -0.4432281356436E-02
-0.2806868474677E-03 -0.4892234102438E-02
-0.2864633834509E-03 -0.5351890099359E-02
-0.2889582856497E-03 -0.5810483676255E-02
-0.2884433243201E-03 -0.6267291130088E-02
-0.2852223841313E-03 -0.6721624666841E-02
-0.2796300830028E-03 -0.7172825862963E-02
-0.2720363466374E-03 -0.7620262949136E-02
-0.2628565312913E-03 -0.8063323481145E-02
-0.2525663704277E-03 -0.8501418284627E-02
-0.2417214904785E-03 -0.8933981527877E-02
-0.2309809935335E-03 -0.9360467593832E-02
-0.2211326542099E-03 -0.9780407470148E-02
-0.2131221677420E-03 -0.1019337687717E-01
-0.2080797623574E-03 -0.1059906338701E-01
-0.2073444961443E-03 -0.1099728883550E-01
-0.2124799562216E-03 -0.1138806850689E-01
-0.2252759017754E-03 -0.1177166759441E-01
-0.2477299241330E-03 -0.1214867491886E-01
-0.2820163966537E-03 -0.1252010060615E-01
-0.3303971542384E-03 -0.1288744205865E-01
-0.3950786584928E-03 -0.1325271977442E-01
-0.4780205393470E-03 -0.1361849437059E-01
-0.5806898192220E-03 -0.1398783571216E-01
-0.7037779336484E-03 -0.1436421859860E-01
-0.8469225061756E-03 -0.1475133309612E-01
-0.1008486759995E-02 -0.1515278101438E-01
-0.1185479857696E-02 -0.1557171448397E-01
-0.1373672231968E-02 -0.1601045760796E-01
-0.1567904584628E-02 -0.1647017433179E-01
-0.1762549712665E-02 -0.1695071028623E-01
-0.3142674490789E-04 -0.4185433035691E-03
-0.6281522394824E-04 -0.8437985800677E-03
-0.9344729382139E-04 -0.1275562281361E-02
-0.1226252234426E-03 -0.1713447412702E-02
-0.1497196524154E-03 -0.2156887110071E-02
-0.1742100250813E-03 -0.2605168599724E-02
-0.1957087352658E-03 -0.3057476049942E-02
-0.2139673330567E-03 -0.3512935213116E-02
-0.2288676424877E-03 -0.3970648539984E-02
-0.2404035871108E-03 -0.4429726064398E-02
-0.2486589766397E-03 -0.4889304156973E-02
-0.2537859093809E-03 -0.5348555862087E-02
-0.2559867638176E-03 -0.5806694350892E-02
-0.2555013754202E-03 -0.6262972183288E-02
-0.2525999711949E-03 -0.6716676782741E-02
-0.2475818412854E-03 -0.7167125237791E-02
-0.2407793379034E-03 -0.7613662788358E-02
-0.2325668684252E-03 -0.8055656675460E-02
-0.2233742344830E-03 -0.8492501317365E-02
-0.2137040641949E-03 -0.8923619787735E-02
-0.2041528381234E-03 -0.9348462352416E-02
-0.1954332547203E-03 -0.9766564540863E-02
-0.1884000075888E-03 -0.1017751748895E-01
-0.1840729057711E-03 -0.1058103695908E-01
-0.1836574799832E-03 -0.1097698765163E-01
-0.1885573474326E-03 -0.1136544355337E-01
-0.2003733455273E-03 -0.1174674446228E-01
-0.2208841277131E-03 -0.1212156726212E-01
-0.2520150345661E-03 -0.1249101383417E-01
-0.2957552975115E-03 -0.1285667016406E-01
-0.3540280352166E-03 -0.1322063449266E-01
-0.4285187905529E-03 -0.1358552200665E-01
-0.5204594612591E-03 -0.1395442026577E-01
-0.6303846434278E-03 -0.1433077347647E-01
-0.7578983027051E-03 -0.1471818918203E-01
-0.9014956962590E-03 -0.1512014442435E-01
-0.1058508936017E-02 -0.1553964968091E-01
-0.1225216067119E-02 -0.1597890659287E-01
-0.1397107438260E-02 -0.1643900884454E-01
-0.1569280111782E-02 -0.1691979963649E-01
-0.2738250623097E-04 -0.4185630443990E-03
-0.5472970481502E-04 -0.8437531921460E-03
-0.8142061109683E-04 -0.1275371547204E-02
-0.1068525011535E-03 -0.1713042404820E-02
-0.1304805416406E-03 -0.2156215289521E-02
-0.1518517784489E-03 -0.2604195673927E-02
-0.1706260549481E-03 -0.3056184119812E-02
-0.1865821681250E-03 -0.3511317851823E-02
-0.1996112797858E-03 -0.3968704067069E-02
-0.2097022122656E-03 -0.4427450352502E-02
-0.2169229537837E-03 -0.4886684031435E-02
-0.2214023566580E-03 -0.5345563735919E-02
-0.2233146673505E-03 -0.5803284358680E-02
-0.2228683801114E-03 -0.6259077816710E-02
-0.2203000170674E-03 -0.6712209902551E-02
-0.2158728977498E-03 -0.7161976312516E-02
-0.2098805906032E-03 -0.7607702248689E-02
-0.2026547785314E-03 -0.8048737366755E-02
-0.1945769686681E-03 -0.8484462094429E-02
-0.1860938046347E-03 -0.8914290399487E-02
-0.1777355025273E-03 -0.9337669834270E-02
-0.1701353800920E-03 -0.9754141109340E-02
-0.1640522176439E-03 -0.1016331038350E-01
-0.1603900437429E-03 -0.1056491990893E-01
-0.1602153603725E-03 -0.1095887390815E-01
-0.1647666889059E-03 -0.1134529976066E-01
-0.1754519728725E-03 -0.1172460430585E-01
-0.1938291837843E-03 -0.1209754259501E-01
-0.2215763974844E-03 -0.1246529678251E-01
-0.2604168308742E-03 -0.1282952892492E-01
-0.3120029484705E-03 -0.1319240229629E-01
-0.3777657574074E-03 -0.1355657546608E-01
-0.4587279482835E-03 -0.1392514642308E-01
-0.5552970107951E-03 -0.1430152808923E-01
-0.6670717396356E-03 -0.1468925331916E-01
-0.7926996288479E-03 -0.1509169060500E-01
-0.9298407426707E-03 -0.1551172989639E-01
-0.1075267382055E-02 -0.1595146979787E-01
-0.1225091443518E-02 -0.1641194489855E-01
-0.1375099349978E-02 -0.1689299737185E-01
-0.2338496525615E-04 -0.4185817495271E-03
-0.4673847218669E-04 -0.8437174245311E-03
-0.6953351097481E-04 -0.1275211978879E-02
-0.9125905199194E-04 -0.1712698986844E-02
-0.1114523495972E-03 -0.2155641496600E-02
-0.1297270577281E-03 -0.2603360152115E-02
-0.1457909730881E-03 -0.3055069290830E-02
-0.1594517984757E-03 -0.3509915931913E-02
-0.1706123291149E-03 -0.3967011496513E-02
-0.1792587146648E-03 -0.4425461734260E-02
-0.1854453025500E-03 -0.4884386484056E-02
-0.1892794029024E-03 -0.5342932237476E-02
-0.1909082565720E-03 -0.5800278344733E-02
-0.1905095498087E-03 -0.6255639068878E-02
-0.1882860653052E-03 -0.6708261645619E-02
-0.1844645833173E-03 -0.7157423406975E-02
-0.1792988077776E-03 -0.7602432390970E-02
-0.1730761059570E-03 -0.8042623284870E-02
-0.1661275716871E-03 -0.8477364775610E-02
-0.1588411896549E-03 -0.8906063473045E-02
-0.1516776588310E-03 -0.9328165289393E-02
-0.1451870908353E-03 -0.9743216326946E-02
-0.1400280164896E-03 -0.1015083684701E-01
-0.1369839939246E-03 -0.1055079327910E-01
-0.1369777485306E-03 -0.1094302536488E-01
-0.1410783801023E-03 -0.1132770792205E-01
-0.1504977440327E-03 -0.1170530673916E-01
-0.1665720230492E-03 -0.1207664486514E-01
-0.1907341128438E-03 -0.1244297338983E-01
-0.2244475739138E-03 -0.1280601861072E-01
-0.2691058413066E-03 -0.1316799740718E-01
-0.3259027472323E-03 -0.1353160236558E-01
-0.3956742059737E-03 -0.1389993672852E-01
-0.4787257009468E-03 -0.1427638329172E-01
-0.5746742474979E-03 -0.1466440900171E-01
-0.6823355250883E-03 -0.1506728953278E-01
-0.7997007743093E-03 -0.1548781359200E-01
-0.9240249330316E-03 -0.1592799401077E-01
-0.1052017747029E-02 -0.1638881638530E-01
-0.1180124458897E-02 -0.1687012325716E-01
-0.1942720079187E-04 -0.4185986656785E-03
-0.3882743972207E-04 -0.8436895952696E-03
-0.5776511983821E-04 -0.1275080876182E-02
-0.7581820956694E-04 -0.1712413583714E-02
-0.9260402900767E-04 -0.2155161732977E-02
-0.1078019722502E-03 -0.2602658348822E-02
-0.1211681441341E-03 -0.3054129110027E-02
-0.1325404762354E-03 -0.3508729205456E-02
-0.1418352768505E-03 -0.3965573696340E-02
-0.1490380447601E-03 -0.4423766970273E-02
-0.1541913264137E-03 -0.4882422783441E-02
-0.1573823440153E-03 -0.5340677605655E-02
-0.1587323046884E-03 -0.5797697854001E-02
-0.1583885526994E-03 -0.6252683029974E-02
-0.1565201058694E-03 -0.6704864811952E-02
-0.1533167126366E-03 -0.7153505128353E-02
-0.1489912695777E-03 -0.7597897649100E-02
-0.1437854364198E-03 -0.8037364602620E-02
-0.1379780393489E-03 -0.8471265029816E-02
-0.1318960663856E-03 -0.8898999711497E-02
-0.1259278639573E-03 -0.9320013697102E-02
-0.1205370166524E-03 -0.9733858311777E-02
-0.1162780635329E-03 -0.1014016653751E-01
-0.1138100779396E-03 -0.1053872614144E-01
-0.1139079944943E-03 -0.1092950782305E-01
-0.1174679100436E-03 -0.1131272735447E-01
-0.1255030709611E-03 -0.1168890097111E-01
-0.1391272391688E-03 -0.1205890937864E-01
-0.1595303145374E-03 -0.1242406146729E-01
-0.1879220778434E-03 -0.1278613660848E-01
-0.2254472583022E-03 -0.1314739501200E-01
-0.2730775417513E-03 -0.1351055547702E-01
-0.3314810682649E-03 -0.1387872304188E-01
-0.4008821305949E-03 -0.1425525297244E-01
-0.4809349071739E-03 -0.1464355573100E-01
-0.5706357388086E-03 -0.1504682940739E-01
-0.6683090430685E-03 -0.1546777927164E-01
-0.7716824651861E-03 -0.1590834799386E-01
-0.8780437674715E-03 -0.1636948136529E-01
-0.9844707885724E-03 -0.1685102336143E-01
-0.1550241536036E-04 -0.4186132095189E-03
-0.3098282411901E-04 -0.8436684005087E-03
-0.4609502004404E-04 -0.1274976143891E-02
-0.6050382061581E-04 -0.1712183422194E-02
-0.7390497538167E-04 -0.2154772908278E-02
-0.8604288659149E-04 -0.2602087451027E-02
-0.9672221210458E-04 -0.3053361793077E-02
-0.1058121475619E-03 -0.3507757721466E-02
-0.1132440196088E-03 -0.3964393312683E-02
-0.1190043183890E-03 -0.4422371963986E-02
-0.1231253006868E-03 -0.4880802620577E-02
-0.1256753069885E-03 -0.5338813721883E-02
-0.1267503239638E-03 -0.5795561252920E-02
-0.1264677477509E-03 -0.6250232760499E-02
-0.1249628125154E-03 -0.6702047296783E-02
-0.1223878204856E-03 -0.7150254284201E-02
-0.1189140633420E-03 -0.7594135747963E-02
-0.1147363134511E-03 -0.8033003869268E-02
-0.1100795571396E-03 -0.8466209999103E-02
-0.1052078059182E-03 -0.8893150425222E-02
-0.1004346580003E-03 -0.9313269854192E-02
-0.9613437510438E-04 -0.9726124338577E-02
-0.9275436994892E-04 -0.1013135780652E-01
-0.9082589269294E-04 -0.1052877608006E-01
-0.9097278515762E-04 -0.1091837579409E-01
-0.9391525075168E-04 -0.1130040676622E-01
-0.1004659839115E-03 -0.1167542686538E-01
-0.1115160252988E-03 -0.1204436401677E-01
-0.1280143780347E-03 -0.1240857400166E-01
-0.1509222327965E-03 -0.1276987870755E-01
-0.1811444524525E-03 -0.1313057240000E-01
-0.2194431807995E-03 -0.1349339359054E-01
-0.2663344379280E-03 -0.1386144703601E-01
-0.3219781717363E-03 -0.1423806417003E-01
-0.3860807500214E-03 -0.1462660882539E-01
-0.4578287811073E-03 -0.1503021628083E-01
-0.5358810357062E-03 -0.1545152500446E-01
-0.6184295928923E-03 -0.1589242184347E-01
-0.7033239524588E-03 -0.1635382117626E-01
-0.7882526631962E-03 -0.1683556901491E-01
-0.1160390752293E-04 -0.4186249396069E-03
-0.2319107890994E-04 -0.8436528525609E-03
-0.3450315223668E-04 -0.1274896193534E-02
-0.4529013718350E-04 -0.1712006400881E-02
-0.5532493558030E-04 -0.2154472689824E-02
-0.6441636794026E-04 -0.2601645362665E-02
-0.7241780967210E-04 -0.3052766077455E-02
-0.7923050614780E-04 -0.3507001696834E-02
-0.8480196716156E-04 -0.3963472661621E-02
-0.8912095996208E-04 -0.4421281672360E-02
-0.9221064579983E-04 -0.4879534033069E-02
-0.9412144399508E-04 -0.5337352041644E-02
-0.9492477297599E-04 -0.5793883662688E-02
-0.9470839899508E-04 -0.6248307222766E-02
-0.9357375882248E-04 -0.6699832019405E-02
-0.9163537419869E-04 -0.7147697810843E-02
-0.8902228601516E-04 -0.7591177636955E-02
-0.8588142234730E-04 -0.8029575958264E-02
-0.8238265428282E-04 -0.8462238273431E-02
-0.7872541231823E-04 -0.8888557550269E-02
-0.7514660877591E-04 -0.9307978457084E-02
-0.7192892788198E-04 -0.9720061007754E-02
-0.6941013893248E-04 -0.1012445797954E-01
-0.6799100432320E-04 -0.1052098960678E-01
-0.6814166184023E-04 -0.1090967306853E-01
-0.7040417313820E-04 -0.1129078498722E-01
-0.7538923210899E-04 -0.1166491582239E-01
-0.8376506717622E-04 -0.1203303023576E-01
-0.9624164524631E-04 -0.1239652021088E-01
-0.1135359048959E-03 -0.1275724012252E-01
-0.1363200594343E-03 -0.1311750984940E-01
-0.1651568340219E-03 -0.1348008216604E-01
-0.2004225221385E-03 -0.1384806054980E-01
-0.2422258728166E-03 -0.1422475712495E-01
-0.2903369800254E-03 -0.1461349923274E-01
-0.3441399138062E-03 -0.1501737372014E-01
-0.4026284389973E-03 -0.1543896798314E-01
-0.4644524379735E-03 -0.1588012640811E-01
-0.5280102462274E-03 -0.1634173967643E-01
-0.5915836024382E-03 -0.1682365596227E-01
-0.7725048261873E-05 -0.4186335343148E-03
-0.1543883743107E-04 -0.8436422311778E-03
-0.2296973052209E-04 -0.1274839865992E-02
-0.3015172236371E-04 -0.1711880987332E-02
-0.3683392776741E-04 -0.2154259382890E-02
-0.4288914120359E-04 -0.2601330579544E-02
-0.4821956156396E-04 -0.3052341102963E-02
-0.5275904902124E-04 -0.3506461409958E-02
-0.5647214739590E-04 -0.3962813638831E-02
-0.5935084891595E-04 -0.4420500030373E-02
-0.6141010592563E-04 -0.4878623340674E-02
-0.6268313409186E-04 -0.5336301536286E-02
-0.6321727340415E-04 -0.5792676903127E-02
-0.6307090054245E-04 -0.6246921224116E-02
-0.6231164518673E-04 -0.6698236865227E-02
-0.6101599618024E-04 -0.7145856716267E-02
-0.5927025456552E-04 -0.7589047438488E-02
-0.5717277877584E-04 -0.8027108029068E-02
-0.5483735786534E-04 -0.8459379876580E-02
-0.5239762597568E-04 -0.8885253672184E-02
-0.5001234411807E-04 -0.9304174180265E-02
-0.4787091790520E-04 -0.9715704397323E-02
-0.4619958042952E-04 -0.1011950360127E-01
-0.4526661223436E-04 -0.1051540251816E-01
-0.4538650739793E-04 -0.1090343319866E-01
-0.4692153815427E-04 -0.1128389158156E-01
-0.5027937417667E-04 -0.1165739151147E-01
-0.5590545110947E-04 -0.1202492388829E-01
-0.6427220014650E-04 -0.1238790640257E-01
-0.7585566749386E-04 -0.1274821631678E-01
-0.9110090972192E-04 -0.1310819133415E-01
-0.1103788433916E-03 -0.1347059384915E-01
-0.1339352495065E-03 -0.1383852586920E-01
-0.1618373439201E-03 -0.1421528532835E-01
-0.1939273230440E-03 -0.1460417339579E-01
-0.2297918398037E-03 -0.1500824255196E-01
-0.2687599674695E-03 -0.1543004417653E-01
-0.3099344057281E-03 -0.1587139282979E-01
-0.3522527041831E-03 -0.1633316266784E-01
-0.3945766517156E-03 -0.1681520373305E-01
-0.3859260363000E-05 -0.4186387753192E-03
-0.7712862333436E-05 -0.8436360470966E-03
-0.1147516647678E-04 -0.1274806373485E-02
-0.1506336474226E-04 -0.1711806140684E-02
-0.1840216755602E-04 -0.2154131840148E-02
-0.2142804645925E-04 -0.2601142094113E-02
-0.2409208642587E-04 -0.3052086320024E-02
-0.2636112785814E-04 -0.3506137118398E-02
-0.2821730513443E-04 -0.3962417649049E-02
-0.2965645953273E-04 -0.4420029891657E-02
-0.3068592121153E-04 -0.4878075094428E-02
-0.3132217903074E-04 -0.5335668647173E-02
-0.3158882128148E-04 -0.5791949448703E-02
-0.3151499598056E-04 -0.6246085372804E-02
-0.3113451949424E-04 -0.6697274641162E-02
-0.3048567865328E-04 -0.7144746036635E-02
-0.2961170638263E-04 -0.7587762409402E-02
-0.2856190425254E-04 -0.8025619499531E-02
-0.2739332987306E-04 -0.8457656257938E-02
-0.2617300513457E-04 -0.8883262048021E-02
-0.2498055706124E-04 -0.9301881741467E-02
-0.2391097385120E-04 -0.9713080185801E-02
-0.2307768836017E-04 -0.1011652063130E-01
-0.2261517223281E-04 -0.1051204017769E-01
-0.2268099202064E-04 -0.1089967987685E-01
-0.2345655088086E-04 -0.1127974732427E-01
-0.2514584209702E-04 -0.1165287043629E-01
-0.2797156343949E-04 -0.1202005585271E-01
-0.3216966051187E-04 -0.1238273662526E-01
-0.3797757665528E-04 -0.1274280362036E-01
-0.4561691018059E-04 -0.1310260504716E-01
-0.5527184869200E-04 -0.1346490884638E-01
-0.6706376323966E-04 -0.1383281592449E-01
-0.8102468779714E-04 -0.1420961554690E-01
-0.9707437604018E-04 -0.1459859314052E-01
-0.1150053512009E-03 -0.1500278065734E-01
-0.1344821279420E-03 -0.1542470804991E-01
-0.1550568907710E-03 -0.1586617218180E-01
-0.1762000101316E-03 -0.1632803745645E-01
-0.1973445687472E-03 -0.1681015517018E-01
 0.2406239308929E-13 -0.4186405361276E-03
 0.1059830460418E-12 -0.8436340167017E-03
 0.2436788713933E-12 -0.1274795259201E-02
 0.4334638121144E-12 -0.1711781257663E-02
 0.6702584200403E-12 -0.2154089398230E-02
 0.9479168007760E-12 -0.2601079328392E-02
 0.1259624545381E-11 -0.3052001424723E-02
 0.1598302536581E-11 -0.3506029000143E-02
 0.1956969365131E-11 -0.3962285555432E-02
 0.2329032609136E-11 -0.4419872985649E-02
 0.2708498611836E-11 -0.4877892039819E-02
 0.3090103376138E-11 -0.5335457252506E-02
 0.3469408704896E-11 -0.5791706396839E-02
 0.3842851669530E-11 -0.6245806046417E-02
 0.4207813258812E-11 -0.6696953043962E-02
 0.4562713368701E-11 -0.7144374805728E-02
 0.4907151242419E-11 -0.7587332914250E-02
 0.5242119941074E-11 -0.8025122027410E-02
 0.5570296659220E-11 -0.8457080288340E-02
 0.5896438804130E-11 -0.8882596624251E-02
 0.6227871049689E-11 -0.9301115950908E-02
 0.6575110593430E-11 -0.9712203743102E-02
 0.6952501024518E-11 -0.1011552458724E-01
 0.7378985241585E-11 -0.1051091772066E-01
 0.7878799117010E-11 -0.1089842720865E-01
 0.8482106807189E-11 -0.1127836454329E-01
 0.9225363715424E-11 -0.1165136233811E-01
 0.1015148298794E-10 -0.1201843247879E-01
 0.1130972414385E-10 -0.1238101312678E-01
 0.1275363632446E-10 -0.1274099966150E-01
 0.1453849687314E-10 -0.1310074376257E-01
 0.1671715598284E-10 -0.1346301518198E-01
 0.1933443265199E-10 -0.1383091442308E-01
 0.2242038039462E-10 -0.1420772783644E-01
 0.2598345884769E-10 -0.1459673559535E-01
 0.3000370816369E-10 -0.1500096282429E-01
 0.3443004618097E-10 -0.1542293236362E-01
 0.3917788191396E-10 -0.1586443521094E-01
 0.4413454865055E-10 -0.1632633254608E-01
 0.4916611767047E-10 -0.1680847610585E-01
 0.3859260411122E-05 -0.4186387753188E-03
 0.7712862545465E-05 -0.8436360470963E-03
 0.1147516696433E-04 -0.1274806373486E-02
 0.1506336560958E-04 -0.1711806140687E-02
 0.1840216889715E-04 -0.2154131840155E-02
 0.2142804835595E-04 -0.2601142094125E-02
 0.2409208894626E-04 -0.3052086320043E-02
 0.2636113105614E-04 -0.3506137118425E-02
 0.2821730905002E-04 -0.3962417649086E-02
 0.2965646419269E-04 -0.4420029891706E-02
 0.3068592663066E-04 -0.4878075094491E-02
 0.3132218521334E-04 -0.5335668647253E-02
 0.3158882822298E-04 -0.5791949448801E-02
 0.3151500366926E-04 -0.6246085372923E-02
 0.3113452791321E-04 -0.6697274641307E-02
 0.3048568778243E-04 -0.7144746036810E-02
 0.2961171620104E-04 -0.7587762409612E-02
 0.2856191474128E-04 -0.8025619499783E-02
 0.2739334101851E-04 -0.8457656258238E-02
 0.2617301693257E-04 -0.8883262048377E-02
 0.2498056952222E-04 -0.9301881741888E-02
 0.2391098700653E-04 -0.9713080186295E-02
 0.2307770226983E-04 -0.1011652063188E-01
 0.2261518699453E-04 -0.1051204017835E-01
 0.2268100778051E-04 -0.1089967987761E-01
 0.2345656784516E-04 -0.1127974732513E-01
 0.2514586054487E-04 -0.1165287043725E-01
 0.2797158373576E-04 -0.1202005585377E-01
 0.3216968311997E-04 -0.1238273662642E-01
 0.3797760214586E-04 -0.1274280362161E-01
 0.4561693923510E-04 -0.1310260504848E-01
 0.5527188209801E-04 -0.1346490884777E-01
 0.6706380187493E-04 -0.1383281592593E-01
 0.8102473260019E-04 -0.1420961554837E-01
 0.9707442796710E-04 -0.1459859314202E-01
 0.1150054111684E-03 -0.1500278065885E-01
 0.1344821967647E-03 -0.1542470805143E-01
 0.1550569690942E-03 -0.1586617218334E-01
 0.1762000983749E-03 -0.1632803745800E-01
 0.1973446670609E-03 -0.1681015517175E-01
 0.7725048309986E-05 -0.4186335343139E-03
 0.1543883764328E-04 -0.8436422311772E-03
 0.2296973101023E-04 -0.1274839865993E-02
 0.3015172323218E-04 -0.1711880987338E-02
 0.3683392911040E-04 -0.2154259382903E-02
 0.4288914310291E-04 -0.2601330579568E-02
 0.4821956408775E-04 -0.3052341103000E-02
 0.5275905222341E-04 -0.3506461410013E-02
 0.5647215131641E-04 -0.3962813638906E-02
 0.5935085358156E-04 -0.4420500030472E-02
 0.6141011135115E-04 -0.4878623340800E-02
 0.6268314028164E-04 -0.5336301536444E-02
 0.6321728035366E-04 -0.5792676903322E-02
 0.6307090824010E-04 -0.6246921224355E-02
 0.6231165361570E-04 -0.6698236865516E-02
 0.6101600532052E-04 -0.7145856716616E-02
 0.5927026439625E-04 -0.7589047438907E-02
 0.5717278927808E-04 -0.8027108029571E-02
 0.5483736902535E-04 -0.8459379877179E-02
 0.5239763778904E-04 -0.8885253672895E-02
 0.5001235659476E-04 -0.9304174181104E-02
 0.4787093107590E-04 -0.9715704398308E-02
 0.4619959435319E-04 -0.1011950360242E-01
 0.4526662700740E-04 -0.1051540251948E-01
 0.4538652316470E-04 -0.1090343320017E-01
 0.4692155511897E-04 -0.1128389158327E-01
 0.5027939261602E-04 -0.1165739151339E-01
 0.5590547138581E-04 -0.1202492389042E-01
 0.6427222272075E-04 -0.1238790640489E-01
 0.7585569293454E-04 -0.1274821631928E-01
 0.9110093870913E-04 -0.1310819133680E-01
 0.1103788767128E-03 -0.1347059385193E-01
 0.1339352880411E-03 -0.1383852587208E-01
 0.1618373886100E-03 -0.1421528533130E-01
 0.1939273748508E-03 -0.1460417339878E-01
 0.2297918996511E-03 -0.1500824255498E-01
 0.2687600361798E-03 -0.1543004417957E-01
 0.3099344839537E-03 -0.1587139283286E-01
 0.3522527923486E-03 -0.1633316267095E-01
 0.3945767499738E-03 -0.1681520373621E-01
 0.1160390757103E-04 -0.4186249396056E-03
 0.2319107912247E-04 -0.8436528525601E-03
 0.3450315272580E-04 -0.1274896193536E-02
 0.4529013805390E-04 -0.1712006400891E-02
 0.5532493692637E-04 -0.2154472689844E-02
 0.6441636984394E-04 -0.2601645362701E-02
 0.7241781220155E-04 -0.3052766077512E-02
 0.7923050935692E-04 -0.3507001696916E-02
 0.8480197109025E-04 -0.3963472661734E-02
 0.8912096463709E-04 -0.4421281672508E-02
 0.9221065123598E-04 -0.4879534033258E-02
 0.9412145019678E-04 -0.5337352041880E-02
 0.9492477993883E-04 -0.5793883662980E-02
 0.9470840670761E-04 -0.6248307223122E-02
 0.9357376726805E-04 -0.6699832019837E-02
 0.9163538335746E-04 -0.7147697811365E-02
 0.8902229586636E-04 -0.7591177637581E-02
 0.8588143287197E-04 -0.8029575959014E-02
 0.8238266546705E-04 -0.8462238274325E-02
 0.7872542415719E-04 -0.8888557551331E-02
 0.7514662127881E-04 -0.9307978458337E-02
 0.7192894107835E-04 -0.9720061009224E-02
 0.6941015287962E-04 -0.1012445798125E-01
 0.6799101911528E-04 -0.1052098960876E-01
 0.6814167761875E-04 -0.1090967307080E-01
 0.7040419010391E-04 -0.1129078498978E-01
 0.7538925053465E-04 -0.1166491582527E-01
 0.8376508741989E-04 -0.1203303023894E-01
 0.9624166776474E-04 -0.1239652021436E-01
 0.1135359302540E-03 -0.1275724012627E-01
 0.1363200883099E-03 -0.1311750985338E-01
 0.1651568672022E-03 -0.1348008217022E-01
 0.2004225605054E-03 -0.1384806055413E-01
 0.2422259173179E-03 -0.1422475712938E-01
 0.2903370316318E-03 -0.1461349923724E-01
 0.3441399734529E-03 -0.1501737372468E-01
 0.4026285075196E-03 -0.1543896798773E-01
 0.4644525160357E-03 -0.1588012641273E-01
 0.5280103342631E-03 -0.1634173968112E-01
 0.5915837006040E-03 -0.1682365596703E-01
 0.1550241540844E-04 -0.4186132095172E-03
 0.3098282433198E-04 -0.8436684005076E-03
 0.4609502053453E-04 -0.1274976143894E-02
 0.6050382148893E-04 -0.1712183422207E-02
 0.7390497673209E-04 -0.2154772908305E-02
 0.8604288850129E-04 -0.2602087451076E-02
 0.9672221464196E-04 -0.3053361793152E-02
 0.1058121507807E-03 -0.3507757721575E-02
 0.1132440235490E-03 -0.3964393312833E-02
 0.1190043230771E-03 -0.4422371964182E-02
 0.1231253061378E-03 -0.4880802620828E-02
 0.1256753132068E-03 -0.5338813722197E-02
 0.1267503309452E-03 -0.5795561253307E-02
 0.1264677554842E-03 -0.6250232760972E-02
 0.1249628209842E-03 -0.6702047297356E-02
 0.1223878296701E-03 -0.7150254284892E-02
 0.1189140732218E-03 -0.7594135748793E-02
 0.1147363240071E-03 -0.8033003870261E-02
 0.1100795683576E-03 -0.8466210000288E-02
 0.1052078177929E-03 -0.8893150426629E-02
 0.1004346705400E-03 -0.9313269855853E-02
 0.9613438833680E-04 -0.9726124340527E-02
 0.9275438392917E-04 -0.1013135780879E-01
 0.9082590751207E-04 -0.1052877608269E-01
 0.9097280095317E-04 -0.1091837579710E-01
 0.9391526771959E-04 -0.1130040676963E-01
 0.1004660023189E-03 -0.1167542686921E-01
 0.1115160454978E-03 -0.1204436402101E-01
 0.1280144004762E-03 -0.1240857400629E-01
 0.1509222580403E-03 -0.1276987871254E-01
 0.1811444811730E-03 -0.1313057240532E-01
 0.2194432137835E-03 -0.1349339359612E-01
 0.2663344760608E-03 -0.1386144704180E-01
 0.3219782159737E-03 -0.1423806417597E-01
 0.3860808013468E-03 -0.1462660883142E-01
 0.4578288404722E-03 -0.1503021628692E-01
 0.5358811039643E-03 -0.1545152501060E-01
 0.6184296707248E-03 -0.1589242184967E-01
 0.7033240403121E-03 -0.1635382118254E-01
 0.7882527612324E-03 -0.1683556902130E-01
 0.1942720083992E-04 -0.4185986656764E-03
 0.3882743993560E-04 -0.8436895952683E-03
 0.5776512033048E-04 -0.1275080876186E-02
 0.7581821044355E-04 -0.1712413583729E-02
 0.9260403036367E-04 -0.2155161733011E-02
 0.1078019741679E-03 -0.2602658348882E-02
 0.1211681466817E-03 -0.3054129110121E-02
 0.1325404794667E-03 -0.3508729205593E-02
 0.1418352808053E-03 -0.3965573696527E-02
 0.1490380494650E-03 -0.4423766970518E-02
 0.1541913318836E-03 -0.4882422783754E-02
 0.1573823502548E-03 -0.5340677606045E-02
 0.1587323116935E-03 -0.5797697854481E-02
 0.1583885604591E-03 -0.6252683030559E-02
 0.1565201143677E-03 -0.6704864812662E-02
 0.1533167218541E-03 -0.7153505129208E-02
 0.1489912794940E-03 -0.7597897650128E-02
 0.1437854470159E-03 -0.8037364603850E-02
 0.1379780506104E-03 -0.8471265031284E-02
 0.1318960783063E-03 -0.8898999713240E-02
 0.1259278765442E-03 -0.9320013699162E-02
 0.1205370299314E-03 -0.9733858314197E-02
 0.1162780775561E-03 -0.1014016654033E-01
 0.1138100927942E-03 -0.1053872614471E-01
 0.1139080103127E-03 -0.1092950782680E-01
 0.1174679270156E-03 -0.1131272735872E-01
 0.1255030893469E-03 -0.1168890097588E-01
 0.1391272593125E-03 -0.1205890938393E-01
 0.1595303368822E-03 -0.1242406147308E-01
 0.1879221029425E-03 -0.1278613661473E-01
 0.2254472868254E-03 -0.1314739501866E-01
 0.2730775744844E-03 -0.1351055548402E-01
 0.3314811060974E-03 -0.1387872304915E-01
 0.4008821744928E-03 -0.1425525297989E-01
 0.4809349581369E-03 -0.1464355573857E-01
 0.5706357978095E-03 -0.1504682941505E-01
 0.6683091109848E-03 -0.1546777927937E-01
 0.7716825427214E-03 -0.1590834800167E-01
 0.8780438550890E-03 -0.1636948137321E-01
 0.9844708864421E-03 -0.1685102336949E-01
 0.2338496530417E-04 -0.4185817495246E-03
 0.4673847240092E-04 -0.8437174245296E-03
 0.6953351146926E-04 -0.1275211978884E-02
 0.9125905287285E-04 -0.1712698986863E-02
 0.1114523509601E-03 -0.2155641496641E-02
 0.1297270596554E-03 -0.2603360152187E-02
 0.1457909756481E-03 -0.3055069290944E-02
 0.1594518017222E-03 -0.3509915932076E-02
 0.1706123330875E-03 -0.3967011496736E-02
 0.1792587193902E-03 -0.4425461734552E-02
 0.1854453080429E-03 -0.4884386484428E-02
 0.1892794091676E-03 -0.5342932237941E-02
 0.1909082636059E-03 -0.5800278345304E-02
 0.1905095576005E-03 -0.6255639069574E-02
 0.1882860738393E-03 -0.6708261646461E-02
 0.1844645925747E-03 -0.7157423407991E-02
 0.1792988177381E-03 -0.7602432392190E-02
 0.1730761166018E-03 -0.8042623286330E-02
 0.1661275830014E-03 -0.8477364777352E-02
 0.1588412016317E-03 -0.8906063475115E-02
 0.1516776714757E-03 -0.9328165291841E-02
 0.1451871041715E-03 -0.9743216329825E-02
 0.1400280305659E-03 -0.1015083685037E-01
 0.1369840088234E-03 -0.1055079328300E-01
 0.1369777643784E-03 -0.1094302536935E-01
 0.1410783970814E-03 -0.1132770792713E-01
 0.1504977623943E-03 -0.1170530674486E-01
 0.1665720431283E-03 -0.1207664487147E-01
 0.1907341350738E-03 -0.1244297339677E-01
 0.2244475988394E-03 -0.1280601861823E-01
 0.2691058695918E-03 -0.1316799741519E-01
 0.3259027796614E-03 -0.1353160237400E-01
 0.3956742434407E-03 -0.1389993673728E-01
 0.4787257444298E-03 -0.1427638330071E-01
 0.5746742980167E-03 -0.1466440901087E-01
 0.6823355836418E-03 -0.1506728954204E-01
 0.7997008418047E-03 -0.1548781360135E-01
 0.9240250102008E-03 -0.1592799402023E-01
 0.1052017834357E-02 -0.1638881639489E-01
 0.1180124556563E-02 -0.1687012326693E-01
 0.2738250627894E-04 -0.4185630443961E-03
 0.5472970503008E-04 -0.8437531921443E-03
 0.8142061159387E-04 -0.1275371547210E-02
 0.1068525020395E-03 -0.1713042404843E-02
 0.1304805430116E-03 -0.2156215289570E-02
 0.1518517803877E-03 -0.2604195674011E-02
 0.1706260575229E-03 -0.3056184119945E-02
 0.1865821713894E-03 -0.3511317852013E-02
 0.1996112837794E-03 -0.3968704067328E-02
 0.2097022170149E-03 -0.4427450352841E-02
 0.2169229593036E-03 -0.4886684031866E-02
 0.2214023629534E-03 -0.5345563736456E-02
 0.2233146744179E-03 -0.5803284359340E-02
 0.2228683879407E-03 -0.6259077817513E-02
 0.2203000256434E-03 -0.6712209903522E-02
 0.2158729070540E-03 -0.7161976313686E-02
 0.2098806006157E-03 -0.7607702250094E-02
 0.2026547892334E-03 -0.8048737368438E-02
 0.1945769800444E-03 -0.8484462096437E-02
 0.1860938166775E-03 -0.8914290401874E-02
 0.1777355152404E-03 -0.9337669837094E-02
 0.1701353934961E-03 -0.9754141112663E-02
 0.1640522317837E-03 -0.1016331038738E-01
 0.1603900586954E-03 -0.1056491991343E-01
 0.1602153762570E-03 -0.1095887391332E-01
 0.1647667058960E-03 -0.1134529976655E-01
 0.1754519912092E-03 -0.1172460431248E-01
 0.1938292037912E-03 -0.1209754260238E-01
 0.2215764195835E-03 -0.1246529679060E-01
 0.2604168555998E-03 -0.1282952893368E-01
 0.3120029764790E-03 -0.1319240230565E-01
 0.3777657894807E-03 -0.1355657547595E-01
 0.4587279853206E-03 -0.1392514643336E-01
 0.5552970537880E-03 -0.1430152809979E-01
 0.6670717896274E-03 -0.1468925332993E-01
 0.7926996868690E-03 -0.1509169061590E-01
 0.9298408096643E-03 -0.1551172990740E-01
 0.1075267458787E-02 -0.1595146980901E-01
 0.1225091530501E-02 -0.1641194490986E-01
 0.1375099447403E-02 -0.1689299738339E-01
 0.3142674495581E-04 -0.4185433035658E-03
 0.6281522416427E-04 -0.8437985800658E-03
 0.9344729432145E-04 -0.1275562281368E-02
 0.1226252243346E-03 -0.1713447412728E-02
 0.1497196537958E-03 -0.2156887110127E-02
 0.1742100270332E-03 -0.2605168599822E-02
 0.1957087378576E-03 -0.3057476050094E-02
 0.2139673363418E-03 -0.3512935213333E-02
 0.2288676465053E-03 -0.3970648540279E-02
 0.2404035918875E-03 -0.4429726064784E-02
 0.2486589821903E-03 -0.4889304157462E-02
 0.2537859157106E-03 -0.5348555862694E-02
 0.2559867709233E-03 -0.5806694351636E-02
 0.2555013832923E-03 -0.6262972184193E-02
 0.2525999798187E-03 -0.6716676783835E-02
 0.2475818506429E-03 -0.7167125239108E-02
 0.2407793479752E-03 -0.7613662789939E-02
 0.2325668791925E-03 -0.8055656677354E-02
 0.2233742459305E-03 -0.8492501319625E-02
 0.2137040763137E-03 -0.8923619790424E-02
 0.2041528509154E-03 -0.9348462355600E-02
 0.1954332682033E-03 -0.9766564544612E-02
 0.1884000218030E-03 -0.1017751749334E-01
 0.1840729207874E-03 -0.1058103696417E-01
 0.1836574959128E-03 -0.1097698765749E-01
 0.1885573644391E-03 -0.1136544356005E-01
 0.2003733638400E-03 -0.1174674446981E-01
 0.2208841476424E-03 -0.1212156727051E-01
 0.2520150565205E-03 -0.1249101384340E-01
 0.2957553220130E-03 -0.1285667017408E-01
 0.3540280629123E-03 -0.1322063450339E-01
 0.4285188222209E-03 -0.1358552201798E-01
 0.5204594978033E-03 -0.1395442027759E-01
 0.6303846858554E-03 -0.1433077348864E-01
 0.7578983520865E-03 -0.1471818919444E-01
 0.9014957536610E-03 -0.1512014443693E-01
 0.1058509002426E-02 -0.1553964969363E-01
 0.1225216143341E-02 -0.1597890660575E-01
 0.1397107524840E-02 -0.1643900885764E-01
 0.1569280208929E-02 -0.1691979964986E-01
 0.3552475888956E-04 -0.4185234855682E-03
 0.7100949600177E-04 -0.8438557262462E-03
 0.1056350006663E-03 -0.1275787609689E-02
 0.1386045194891E-03 -0.1713918549433E-02
 0.1692012717437E-03 -0.2157662050363E-02
 0.1968359975136E-03 -0.2606283677785E-02
 0.2210743447295E-03 -0.3058948380555E-02
 0.2416426714455E-03 -0.3514768714970E-02
 0.2584162253305E-03 -0.3972841953174E-02
 0.2713968973852E-03 -0.4432281356866E-02
 0.2806868530528E-03 -0.4892234102982E-02
 0.2864633898191E-03 -0.5351890100034E-02
 0.2889582927982E-03 -0.5810483677081E-02
 0.2884433322399E-03 -0.6267291131091E-02
 0.2852223928085E-03 -0.6721624668052E-02
 0.2796300924200E-03 -0.7172825864420E-02
 0.2720363567757E-03 -0.7620262950884E-02
 0.2628565421321E-03 -0.8063323483239E-02
 0.2525663819553E-03 -0.8501418287127E-02
 0.2417215026832E-03 -0.8933981530852E-02
 0.2309810064150E-03 -0.9360467597359E-02
 0.2211326677829E-03 -0.9780407474306E-02
 0.2131221820418E-03 -0.1019337688204E-01
 0.2080797774481E-03 -0.1059906339267E-01
 0.2073445121283E-03 -0.1099728884203E-01
 0.2124799732513E-03 -0.1138806851434E-01
 0.2252759200670E-03 -0.1177166760283E-01
 0.2477299439817E-03 -0.1214867492826E-01
 0.2820164184526E-03 -0.1252010061651E-01
 0.3303971784947E-03 -0.1288744206992E-01
 0.3950786858422E-03 -0.1325271978652E-01
 0.4780205705626E-03 -0.1361849438340E-01
 0.5806898552117E-03 -0.1398783572555E-01
 0.7037779754362E-03 -0.1436421861241E-01
 0.8469225548620E-03 -0.1475133311024E-01
 0.1008486816689E-02 -0.1515278102870E-01
 0.1185479923433E-02 -0.1557171449846E-01
 0.1373672307604E-02 -0.1601045762265E-01
 0.1567904670747E-02 -0.1647017434673E-01
 0.1762549809494E-02 -0.1695071030149E-01
 0.3968382110367E-04 -0.4185047975733E-03
 0.7932745777053E-04 -0.8439273202872E-03
 0.1180058698858E-03 -0.1276051839402E-02
 0.1548184599967E-03 -0.1714461514799E-02
 0.1889576391080E-03 -0.2158546519694E-02
 0.2197642563621E-03 -0.2607546944801E-02
 0.2467581829097E-03 -0.3060605464271E-02
 0.2696431091443E-03 -0.3516819683758E-02
 0.2882909918723E-03 -0.3975281392902E-02
 0.3027150275736E-03 -0.4435108078242E-02
 0.3130386371504E-03 -0.4895459717301E-02
 0.3194665170912E-03 -0.5355545742118E-02
 0.3222612726988E-03 -0.5814624678113E-02
 0.3217272536965E-03 -0.6271999764173E-02
 0.3182019376277E-03 -0.6727011217000E-02
 0.3120545548782E-03 -0.7179028260718E-02
 0.3036912740468E-03 -0.7627445145715E-02
 0.2935664569570E-03 -0.8071672585005E-02
 0.2821991858610E-03 -0.8511140402451E-02
 0.2701948163895E-03 -0.8945296106939E-02
 0.2582710706253E-03 -0.9373599961227E-02
 0.2472860465115E-03 -0.9795579523606E-02
 0.2382709780777E-03 -0.1021079529720E-01
 0.2324604898780E-03 -0.1061890565957E-01
 0.2313208969292E-03 -0.1101968700669E-01
 0.2365697754126E-03 -0.1141309138239E-01
 0.2501809467693E-03 -0.1179930248100E-01
 0.2743683811047E-03 -0.1217881157550E-01
 0.3115566891695E-03 -0.1255252550903E-01
 0.3642868308958E-03 -0.1292183993104E-01
 0.4350620637939E-03 -0.1328868351099E-01
 0.5261376387520E-03 -0.1365554903740E-01
 0.6392451215055E-03 -0.1402547891441E-01
 0.7752675182495E-03 -0.1440197549365E-01
 0.9339104546300E-03 -0.1478881782806E-01
 0.1113430577890E-02 -0.1518974909608E-01
 0.1310521666754E-02 -0.1560808645331E-01
 0.1520431411713E-02 -0.1604629876567E-01
 0.1737317485248E-02 -0.1650563272655E-01
 0.1954788881310E-02 -0.1698593720413E-01
 0.4391144715473E-04 -0.4184887484397E-03
 0.8778462629204E-04 -0.8440167203527E-03
 0.1305828931155E-03 -0.1276360340191E-02
 0.1712960517027E-03 -0.1715083407641E-02
 0.2090217782197E-03 -0.2159548511901E-02
 0.2430297977581E-03 -0.2608965992252E-02
 0.2727955230975E-03 -0.3062452947597E-02
 0.2980030598386E-03 -0.3519090274482E-02
 0.3185249504942E-03 -0.3977964154698E-02
 0.3343895430682E-03 -0.4438197566341E-02
 0.3457447889825E-03 -0.4898965560597E-02
 0.3528252235906E-03 -0.5359499988114E-02
 0.3559258118185E-03 -0.5819086781298E-02
 0.3553841666077E-03 -0.6277059438255E-02
 0.3515712695040E-03 -0.6732789485863E-02
 0.3448901768916E-03 -0.7185677011338E-02
 0.3357818593009E-03 -0.7635145381658E-02
 0.3247375915809E-03 -0.8080631417780E-02
 0.3123170276499E-03 -0.8521586708035E-02
 0.2991717329364E-03 -0.8957474615468E-02
 0.2860737259361E-03 -0.9387763427250E-02
 0.2739462634447E-03 -0.9811978896481E-02
 0.2639001351993E-03 -0.1022966715686E-01
 0.2572676945037E-03 -0.1064045716570E-01
 0.2556354647961E-03 -0.1104407818077E-01
 0.2608681252245E-03 -0.1144041537765E-01
 0.2751177020231E-03 -0.1182956488953E-01
 0.3008109807338E-03 -0.1221191153942E-01
 0.3406231758125E-03 -0.1258824746379E-01
 0.3973804779711E-03 -0.1295985281253E-01
 0.4738967843627E-03 -0.1332854891903E-01
 0.5727461890913E-03 -0.1369674518102E-01
 0.6959576641867E-03 -0.1406744383435E-01
 0.8446458715402E-03 -0.1444416879542E-01
 0.1018625510655E-02 -0.1483079261615E-01
 0.1216078627751E-02 -0.1523121657486E-01
 0.1433394862063E-02 -0.1564894888992E-01
 0.1665282317289E-02 -0.1608662937472E-01
 0.1905175579893E-02 -0.1654560180091E-01
 0.2145874852952E-02 -0.1702571749747E-01
 0.4821545208208E-04 -0.4184772134628E-03
 0.9639722802703E-04 -0.8441280957029E-03
 0.1433900946472E-03 -0.1276719766940E-02
 0.1880674191590E-03 -0.1715793011960E-02
 0.2294276323775E-03 -0.2160677921799E-02
 0.2666681106707E-03 -0.2610550275697E-02
 0.2992215828826E-03 -0.3064498043732E-02
 0.3267563180181E-03 -0.3521583692711E-02
 0.3491499876600E-03 -0.3980887914947E-02
 0.3664504824944E-03 -0.4441540780441E-02
 0.3788339410504E-03 -0.4902735014076E-02
 0.3865674057580E-03 -0.5363728043851E-02
 0.3899798488053E-03 -0.5823836602003E-02
 0.3894428537679E-03 -0.6282427872817E-02
 0.3853607848453E-03 -0.6738908053664E-02
 0.3781696675526E-03 -0.7192711352308E-02
 0.3683437335644E-03 -0.7643293403719E-02
 0.3564089491304E-03 -0.8090120185342E-02
 0.3429625976317E-03 -0.8532667986800E-02
 0.3286987210916E-03 -0.8970418810179E-02
 0.3144390304185E-03 -0.9402851509183E-02
 0.3011664082287E-03 -0.9829492199197E-02
 0.2900647353099E-03 -0.1024987419428E-01
 0.2825568072374E-03 -0.1066359766331E-01
 0.2803415299648E-03 -0.1107034401532E-01
 0.2854228528271E-03 -0.1146992898773E-01
 0.3001240459142E-03 -0.1186235610677E-01
 0.3270799487501E-03 -0.1224789563684E-01
 0.3692156102031E-03 -0.1262721389101E-01
 0.4296477440251E-03 -0.1300146134431E-01
 0.5115146666394E-03 -0.1337233508524E-01
 0.6177338251914E-03 -0.1374214306331E-01
 0.7506677461001E-03 -0.1411383123697E-01
 0.9117084969809E-03 -0.1449093545475E-01
 0.1100828608393E-02 -0.1487742355762E-01
 0.1316175573929E-02 -0.1527737129949E-01
 0.1553851405300E-02 -0.1569450701003E-01
 0.1808006383764E-02 -0.1613167290893E-01
 0.2071303213758E-02 -0.1659032710574E-01
 0.2335680856441E-02 -0.1707031959148E-01
 0.5260401971670E-04 -0.4184725129004E-03
 0.1051823562014E-03 -0.8442665994463E-03
 0.1564527480169E-03 -0.1277138328313E-02
 0.2051640222271E-03 -0.1716601138414E-02
 0.2502102259423E-03 -0.2161946917030E-02
 0.2907152491438E-03 -0.2612311470862E-02
 0.3260715022908E-03 -0.3066749838918E-02
 0.3559359582742E-03 -0.3524304436788E-02
 0.3801967118043E-03 -0.3984050912560E-02
 0.3989261685043E-03 -0.4445128437627E-02
 0.4123326925286E-03 -0.4906750390021E-02
 0.4207187115452E-03 -0.5368203224388E-02
 0.4244489375861E-03 -0.5828838053788E-02
 0.4239296367801E-03 -0.6288059277086E-02
 0.4195983917156E-03 -0.6745311167223E-02
 0.4119232698930E-03 -0.7200065332709E-02
 0.4014101345606E-03 -0.7651812863252E-02
 0.3886173142970E-03 -0.8100052022654E-02
 0.3741766461803E-03 -0.8544286897736E-02
 0.3588207419859E-03 -0.8984021182101E-02
 0.3434161672827E-03 -0.9418747243175E-02
 0.3289995786199E-03 -0.9847994292657E-02
 0.3168210487148E-03 -0.1027128512148E-01
 0.3083859461835E-03 -0.1068819267255E-01
 0.3054969689307E-03 -0.1109835089334E-01
 0.3102885283841E-03 -0.1150150472573E-01
 0.3252469791588E-03 -0.1189756126470E-01
 0.3532090635515E-03 -0.1228666915111E-01
 0.3973474463955E-03 -0.1266935833083E-01
 0.4610733980556E-03 -0.1304663522926E-01
 0.5478628250294E-03 -0.1342005448748E-01
 0.6610017935356E-03 -0.1379180192623E-01
 0.8032255160073E-03 -0.1416474725527E-01
 0.9762551002560E-03 -0.1454242418099E-01
 0.1180278354725E-02 -0.1492889391867E-01
 0.1413458201105E-02 -0.1532842190466E-01
 0.1671633028187E-02 -0.1574498873192E-01
 0.1948376587263E-02 -0.1618167755185E-01
 0.2235519362873E-02 -0.1664008316088E-01
 0.2524074787420E-02 -0.1712004560551E-01
 0.5708578727653E-04 -0.4184775079368E-03
 0.1141581608077E-03 -0.8444385793253E-03
 0.1697976327480E-03 -0.1277626112363E-02
 0.2226189062924E-03 -0.1717521033252E-02
 0.2714058406351E-03 -0.2163370375397E-02
 0.3152078996906E-03 -0.2614263882710E-02
 0.3533803024421E-03 -0.3069219634334E-02
 0.3855742079155E-03 -0.3527258558998E-02
 0.4116942696532E-03 -0.3987452137540E-02
 0.4318429938342E-03 -0.4448951149429E-02
 0.4462653828061E-03 -0.4910993040872E-02
 0.4553023107674E-03 -0.5372897057454E-02
 0.4593560173644E-03 -0.5834052462631E-02
 0.4588681443761E-03 -0.6293904485067E-02
 0.4543092729805E-03 -0.6751938900680E-02
 0.4461785146459E-03 -0.7207667996333E-02
 0.4350116572539E-03 -0.7660621513407E-02
 0.4213969781409E-03 -0.8110333190388E-02
 0.4059976925633E-03 -0.8556338147728E-02
 0.3895809452211E-03 -0.8998165078817E-02
 0.3730531365056E-03 -0.9435323215614E-02
 0.3574985827276E-03 -0.9867348180236E-02
 0.3442262711928E-03 -0.1029375531884E-01
 0.3348157395529E-03 -0.1071409290641E-01
 0.3311641499810E-03 -0.1112794901903E-01
 0.3355265813357E-03 -0.1153499781636E-01
 0.3505430377294E-03 -0.1193504758152E-01
 0.3792444432336E-03 -0.1232811959945E-01
 0.4250470913925E-03 -0.1271459780943E-01
 0.4916590980693E-03 -0.1309533033685E-01
 0.5829058836198E-03 -0.1347171009835E-01
 0.7024674711171E-03 -0.1384577745144E-01
 0.8534933849846E-03 -0.1422030159289E-01
 0.1038091362942E-02 -0.1459879468768E-01
 0.1256731620276E-02 -0.1498540450734E-01
 0.1507654539320E-02 -0.1538459899517E-01
 0.1786469384094E-02 -0.1580064580850E-01
 0.2086156254901E-02 -0.1623691661450E-01
 0.2397638278089E-02 -0.1669517434858E-01
 0.2710918555988E-02 -0.1717523417234E-01
 0.6166994912837E-04 -0.4184957184551E-03
 0.1233440795112E-03 -0.8446518358684E-03
 0.1834533404883E-03 -0.1278195482345E-02
 0.2404669913521E-03 -0.1718568868541E-02
 0.2930522080395E-03 -0.2164966398557E-02
 0.3401834416161E-03 -0.2616424913308E-02
 0.3811828213717E-03 -0.3071921324425E-02
 0.4157022906006E-03 -0.3530453943245E-02
 0.4436701349053E-03 -0.3991091522504E-02
 0.4652251850173E-03 -0.4452999554925E-02
 0.4806538489104E-03 -0.4915443463937E-02
 0.4903386546267E-03 -0.5377779385454E-02
 0.4947211752793E-03 -0.5839438684808E-02
 0.4942790748357E-03 -0.6299911100372E-02
 0.4895156429205E-03 -0.6758727331393E-02
 0.4809599647770E-03 -0.7215443586415E-02
 0.4691759803081E-03 -0.7669631434290E-02
 0.4547794415780E-03 -0.8120863305586E-02
 0.4384617025586E-03 -0.8568708705344E-02
 0.4210203208932E-03 -0.9012724870403E-02
 0.4033963863137E-03 -0.9452441640229E-02
 0.3867155618760E-03 -0.9887404943945E-02
 0.3723381596957E-03 -0.1031712656656E-01
 0.3619090085710E-03 -0.1074113372254E-01
 0.3574097147481E-03 -0.1115897150692E-01
 0.3612052536246E-03 -0.1157024483755E-01
 0.3760785155034E-03 -0.1197466248303E-01
 0.4052451575218E-03 -0.1237211429666E-01
 0.4523590329225E-03 -0.1276282987571E-01
 0.5214251313794E-03 -0.1314748535021E-01
 0.6166283328079E-03 -0.1352729191873E-01
 0.7420671683178E-03 -0.1390411859476E-01
 0.9013488646751E-03 -0.1428060515021E-01
 0.1097031183699E-02 -0.1466021653032E-01
 0.1329944475216E-02 -0.1504717393065E-01
 0.1598482945161E-02 -0.1544615665043E-01
 0.1898075505326E-02 -0.1586175549652E-01
 0.2221097028540E-02 -0.1629768875479E-01
 0.2557470766998E-02 -0.1675593486258E-01
 0.2896068372157E-02 -0.1723626341139E-01
 0.6636638477545E-04 -0.4185314677112E-03
 0.1327611201423E-03 -0.8449159388108E-03
 0.1974506424625E-03 -0.1278861557758E-02
 0.2587454080567E-03 -0.1719764328510E-02
 0.3151887209558E-03 -0.2166756912031E-02
 0.3656799995918E-03 -0.2618815591321E-02
 0.4095136264553E-03 -0.3074871808022E-02
 0.4463502432154E-03 -0.3533900591526E-02
 0.4761498754637E-03 -0.3994970127961E-02
 0.4990945539098E-03 -0.4457264441341E-02
 0.5155171803581E-03 -0.4920081393949E-02
 0.5258452406483E-03 -0.5382818459769E-02
 0.5305614200839E-03 -0.5844953223671E-02
 0.5301799725503E-03 -0.6306023647564E-02
 0.5252365187397E-03 -0.6765608730473E-02
 0.5162889733533E-03 -0.7223311773493E-02
 0.5039276019286E-03 -0.7678749290110E-02
 0.4887931216630E-03 -0.8131535613521E-02
 0.4716017592689E-03 -0.8581278065296E-02
 0.4531773317954E-03 -0.9027566175264E-02
 0.4344904080592E-03 -0.9469954503289E-02
 0.4167015561493E-03 -0.9908003754465E-02
 0.4012145863009E-03 -0.1034122685118E-01
 0.3897303413161E-03 -0.1076913464385E-01
 0.3843042224507E-03 -0.1119123352117E-01
 0.3873993905132E-03 -0.1160706237583E-01
 0.4019295100391E-03 -0.1201623167606E-01
 0.4312836712247E-03 -0.1241849777697E-01
 0.4793448466011E-03 -0.1281392936805E-01
 0.5504121393380E-03 -0.1320301799047E-01
 0.6490370410314E-03 -0.1358677294018E-01
 0.7797593086595E-03 -0.1396686375302E-01
 0.9466880011398E-03 -0.1434576700310E-01
 0.1152899628916E-02 -0.1472686747859E-01
 0.1399673785398E-02 -0.1511443867969E-01
 0.1685651531833E-02 -0.1551337432781E-01
 0.2006148706442E-02 -0.1592862336759E-01
 0.2352935509537E-02 -0.1636431847646E-01
 0.2714826413236E-02 -0.1682272690231E-01
 0.3079378224168E-02 -0.1730355363803E-01
 0.7118581753110E-04 -0.4185900622498E-03
 0.1424322070436E-03 -0.8452426190985E-03
 0.2118229293853E-03 -0.1279642804335E-02
 0.2774938832509E-03 -0.1721131315922E-02
 0.3378566554577E-03 -0.2168768369326E-02
 0.3917364725143E-03 -0.2621461172225E-02
 0.4384068839006E-03 -0.3078091434036E-02
 0.4775466858541E-03 -0.3537610916909E-02
 0.5091568795259E-03 -0.3999090318020E-02
 0.5334702175121E-03 -0.4461736849769E-02
 0.5508714513543E-03 -0.4924885882735E-02
 0.5618363617299E-03 -0.5387981028178E-02
 0.5668904439353E-03 -0.5850550347348E-02
 0.5665849940989E-03 -0.6312183732781E-02
 0.5614874806896E-03 -0.6772511771046E-02
 0.5521834270018E-03 -0.7231187909469E-02
 0.5392875560959E-03 -0.7687876621186E-02
 0.5234630306133E-03 -0.8142237303338E-02
 0.5054476961280E-03 -0.8593918565744E-02
 0.4860874938151E-03 -0.9042546147694E-02
 0.4663772613026E-03 -0.9487703778370E-02
 0.4475059777488E-03 -0.9928971956201E-02
 0.4309129730070E-03 -0.1036587024807E-01
 0.4183455161587E-03 -0.1079789894806E-01
 0.4119216094624E-03 -0.1122453146437E-01
 0.4141900126243E-03 -0.1164524569179E-01
 0.4281817225726E-03 -0.1205955716354E-01
 0.4574460346871E-03 -0.1246708905002E-01
 0.5060839823673E-03 -0.1286774486151E-01
 0.5786827165085E-03 -0.1326182072671E-01
 0.6801638191212E-03 -0.1365010438279E-01
 0.8155279103298E-03 -0.1403403604649E-01
 0.9894293883691E-03 -0.1441589044347E-01
 0.1205536630173E-02 -0.1479893114428E-01
 0.1465679488409E-02 -0.1518745277782E-01
 0.1768858112354E-02 -0.1558655876021E-01
 0.2110364954858E-02 -0.1600158779580E-01
 0.2481387077228E-02 -0.1643715821493E-01
 0.2869515449829E-02 -0.1689593549314E-01
 0.3260710173398E-02 -0.1737756871958E-01
 0.7614001267655E-04 -0.4186780151403E-03
 0.1523826096451E-03 -0.8456462529081E-03
 0.2266067441820E-03 -0.1280561754554E-02
 0.2967551891652E-03 -0.1722698796847E-02
 0.3610994112908E-03 -0.2171032567353E-02
 0.4183925454909E-03 -0.2624391803250E-02
 0.4678961976802E-03 -0.3081604465513E-02
 0.5093185666128E-03 -0.3541600021488E-02
 0.5427120724894E-03 -0.4003455903888E-02
 0.5683683274809E-03 -0.4466408144523E-02
 0.5867294798252E-03 -0.4929835346580E-02
 0.5983228956416E-03 -0.5393232398162E-02
 0.6037184345493E-03 -0.5856182192197E-02
 0.6035047313287E-03 -0.6318330200661E-02
 0.5982804930136E-03 -0.6779361743870E-02
 0.5886575514161E-03 -0.7238983300896E-02
 0.5752731894290E-03 -0.7696910168331E-02
 0.5588105110719E-03 -0.8152849871021E-02
 0.5400257782276E-03 -0.8606495770012E-02
 0.5197829925183E-03 -0.9057513849062E-02
 0.4990961180231E-03 -0.9505521745659E-02
 0.4791760808717E-03 -0.9950125278364E-02
 0.4614896944809E-03 -0.1039085695011E-01
 0.4478208585345E-03 -0.1082721341933E-01
 0.4403385422320E-03 -0.1125864233471E-01
 0.4416637385180E-03 -0.1168456754300E-01
 0.4549300693717E-03 -0.1210441537722E-01
 0.4838318636892E-03 -0.1251767889103E-01
 0.5326743588758E-03 -0.1292409500834E-01
 0.6063229106001E-03 -0.1332375617666E-01
 0.7100680824244E-03 -0.1371721038385E-01
 0.8493864901869E-03 -0.1410563782493E-01
 0.1029518965216E-02 -0.1449106818374E-01
 0.1254801873830E-02 -0.1487659379060E-01
 0.1527727952610E-02 -0.1526648740810E-01
 0.1847791312480E-02 -0.1566604537947E-01
 0.2210376303129E-02 -0.1608102642801E-01
 0.2606136117959E-02 -0.1651659633122E-01
 0.3021346841418E-02 -0.1697595861667E-01
 0.3439962042055E-02 -0.1745881335034E-01
 0.8124202647721E-04 -0.4188033314189E-03
 0.1626404717941E-03 -0.8461444721177E-03
 0.2418424194894E-03 -0.1281645906477E-02
 0.3165756467398E-03 -0.1724501830798E-02
 0.3849627383740E-03 -0.2173587608191E-02
 0.4456886364180E-03 -0.2627643274550E-02
 0.4980143598566E-03 -0.3085439573981E-02
 0.5416908171660E-03 -0.3545885968027E-02
 0.5768335548372E-03 -0.4008072265081E-02
 0.6038017324160E-03 -0.4471270059253E-02
 0.6231005279749E-03 -0.4934907597529E-02
 0.6353120405708E-03 -0.5398536494498E-02
 0.6410518341784E-03 -0.5861798871283E-02
 0.6409459792130E-03 -0.6324399306255E-02
 0.6356236655651E-03 -0.6786080796952E-02
 0.6257216517846E-03 -0.7246605514620E-02
 0.6118978656007E-03 -0.7705742237668E-02
 0.5948528896103E-03 -0.8163249530910E-02
 0.5753582900098E-03 -0.8618868905175E-02
 0.5542921908268E-03 -0.9072310684193E-02
 0.5326826783100E-03 -0.9523231384102E-02
 0.5117562781682E-03 -0.9971268124662E-02
 0.4929992962733E-03 -0.1041597337681E-01
 0.4782223750078E-03 -0.1085684817477E-01
 0.4696335016432E-03 -0.1129332314037E-01
 0.4699118857605E-03 -0.1172477702599E-01
 0.4822779155804E-03 -0.1215055525802E-01
 0.5105538940564E-03 -0.1257002695576E-01
 0.5592325167337E-03 -0.1298276450859E-01
 0.6334433337659E-03 -0.1338865185781E-01
 0.7388392967781E-03 -0.1378798168266E-01
 0.8813820509489E-03 -0.1418164382159E-01
 0.1066935366869E-02 -0.1457137592979E-01
 0.1300580427911E-02 -0.1496003973691E-01
 0.1585596839519E-02 -0.1535182876400E-01
 0.1922130637463E-02 -0.1575220158482E-01
 0.2305812398821E-02 -0.1616735498829E-01
 0.2726820652535E-02 -0.1660308690369E-01
 0.3170110583889E-02 -0.1706318353577E-01
 0.3617126960971E-02 -0.1754782968719E-01
 0.8650652139428E-04 -0.4189758792830E-03
 0.1732374722063E-03 -0.8467589230205E-03
 0.2575748525775E-03 -0.1282928845068E-02
 0.3370056987786E-03 -0.1726582812290E-02
 0.4094949562397E-03 -0.2176479013857E-02
 0.4736657854839E-03 -0.2631257839805E-02
 0.5287930335413E-03 -0.3089630333251E-02
 0.5746859574697E-03 -0.3550490009329E-02
 0.6115362161206E-03 -0.4012946413399E-02
 0.6397796424057E-03 -0.4476314688266E-02
 0.6599900258004E-03 -0.4940079830757E-02
 0.6728070882953E-03 -0.5403855886428E-02
 0.6788931459281E-03 -0.5867348565967E-02
 0.6789115570731E-03 -0.6330324882968E-02
 0.6735210720614E-03 -0.6792588183866E-02
 0.6633819108265E-03 -0.7253958705257E-02
 0.6491707260322E-03 -0.7714261101858E-02
 0.6316031824898E-03 -0.8173307680554E-02
 0.6114631677784E-03 -0.8630891373952E-02
 0.5896391696776E-03 -0.9086770934493E-02
 0.5671686016895E-03 -0.9540646887119E-02
 0.5452874488606E-03 -0.9992194015920E-02
 0.5254936730081E-03 -0.1044099246663E-01
 0.5096148067696E-03 -0.1088655670301E-01
 0.4998857362257E-03 -0.1132831054822E-01
 0.4990293797719E-03 -0.1176559866004E-01
 0.5103360478381E-03 -0.1219769655670E-01
 0.5377372085936E-03 -0.1262385904291E-01
 0.5858934048022E-03 -0.1304350007370E-01
 0.6601799432250E-03 -0.1345629466613E-01
 0.7665992652976E-03 -0.1386226865350E-01
 0.9115993077424E-03 -0.1426199320645E-01
 0.1101696019588E-02 -0.1465686454058E-01
 0.1342790045939E-02 -0.1504944512776E-01
 0.1639080786113E-02 -0.1544377549184E-01
 0.1991551954147E-02 -0.1584542660762E-01
 0.2396268783830E-02 -0.1626104006206E-01
 0.2843065891836E-02 -0.1669712574074E-01
 0.3315434991561E-02 -0.1715815152960E-01
 0.3792563384039E-02 -0.1764485265549E-01
 0.9194989152382E-04 -0.4191979695421E-03
 0.1842148771075E-03 -0.8474973041391E-03
 0.2738699511027E-03 -0.1284424478048E-02
 0.3581307314526E-03 -0.1728958865323E-02
 0.4347952751243E-03 -0.2179721110201E-02
 0.5024337940399E-03 -0.2635240327060E-02
 0.5603522124244E-03 -0.3094166649971E-02
 0.6084356623917E-03 -0.3555383779221E-02
 0.6469656264857E-03 -0.4018030276691E-02
 0.6764636496651E-03 -0.4481474188428E-02
 0.6975772363498E-03 -0.4945265195727E-02
 0.7110060461643E-03 -0.5409085942576E-02
 0.7174596726161E-03 -0.5872710370511E-02
 0.7176382004499E-03 -0.6335971489236E-02
 0.7122287199856E-03 -0.6798735935926E-02
 0.7019132540446E-03 -0.7260884745450E-02
 0.6873851571113E-03 -0.7722301324739E-02
 0.6693727524760E-03 -0.8182855052351E-02
 0.6486693021606E-03 -0.8642394352119E-02
 0.6261699841671E-03 -0.9100731489676E-02
 0.6029168584447E-03 -0.9557617356493E-02
 0.5801493448645E-03 -0.1001277226227E-01
 0.5593693018759E-03 -0.1046581353628E-01
 0.5424112995571E-03 -0.1091628025546E-01
 0.5315248934921E-03 -0.1136360213614E-01
 0.5294619655068E-03 -0.1180710353235E-01
 0.5395655135335E-03 -0.1224600415334E-01
 0.5658567480062E-03 -0.1267945746738E-01
 0.6131435254309E-03 -0.1310672853128E-01
 0.6870270315776E-03 -0.1352728617080E-01
 0.7938443144588E-03 -0.1394087977244E-01
 0.9405291694151E-03 -0.1434773235570E-01
 0.1134280353238E-02 -0.1474884212905E-01
 0.1381902749231E-02 -0.1514638764207E-01
 0.1688676287564E-02 -0.1554415815493E-01
 0.2056657598403E-02 -0.1594776039620E-01
 0.2482610497633E-02 -0.1636427755017E-01
 0.2956183610346E-02 -0.1680100890491E-01
 0.3459413191661E-02 -0.1726331471324E-01
 0.3968650570327E-02 -0.1775216383566E-01
 0.9759118549172E-04 -0.4194934950624E-03
 0.1956087461965E-03 -0.8484098887311E-03
 0.2907694990335E-03 -0.1286208103694E-02
 0.3799822834979E-03 -0.1731723560831E-02
 0.4608713038302E-03 -0.2183415556606E-02
 0.5319682979285E-03 -0.2639690445146E-02
 0.5926329377459E-03 -0.3099138870518E-02
 0.6428472935494E-03 -0.3560644068854E-02
 0.6829980489659E-03 -0.4023385425615E-02
 0.7137019539133E-03 -0.4486794676345E-02
 0.7356852103985E-03 -0.4950494586702E-02
 0.7497094365455E-03 -0.5414242356232E-02
 0.7565317576383E-03 -0.5877884170606E-02
 0.7568882476799E-03 -0.6341321725255E-02
 0.7514930520437E-03 -0.6804486877985E-02
 0.7410483792066E-03 -0.7267323098506E-02
 0.7262624001776E-03 -0.7729774272942E-02
 0.7078739005017E-03 -0.8191769003664E-02
 0.6866828819179E-03 -0.8653214097141E-02
 0.6635879290553E-03 -0.9113979281477E-02
 0.6396315177950E-03 -0.9573871149640E-02
 0.6160509503464E-03 -0.1003266258202E-01
 0.5943446448720E-03 -0.1049001713328E-01
 0.5763446164295E-03 -0.1094550972742E-01
 0.5643028011846E-03 -0.1139858945170E-01
 0.5609847030731E-03 -0.1184857594333E-01
 0.5697673165974E-03 -0.1229465037353E-01
 0.5947393212306E-03 -0.1273588282935E-01
 0.6408302691261E-03 -0.1317140602764E-01
 0.7138388120454E-03 -0.1360049471138E-01
 0.8204081646184E-03 -0.1402262377033E-01
 0.9679376429378E-03 -0.1443765067591E-01
 0.1164313586200E-02 -0.1484612768727E-01
 0.1417303030129E-02 -0.1524976365479E-01
 0.1733410474498E-02 -0.1565198115669E-01
 0.2116013013219E-02 -0.1605831518890E-01
 0.2562881229070E-02 -0.1647624906369E-01
 0.3063731568726E-02 -0.1691396125720E-01
 0.3599133766971E-02 -0.1737781746521E-01
 0.4142261437192E-02 -0.1786930686349E-01
 0.1034526975803E-03 -0.4198812209767E-03
 0.2074673880171E-03 -0.8495376469424E-03
 0.3083386033914E-03 -0.1288341760122E-02
 0.4026274383164E-03 -0.1734952130680E-02
 0.4877800648038E-03 -0.2187639208971E-02
 0.5623105859505E-03 -0.2644675936259E-02
 0.6256605323596E-03 -0.3104598458050E-02
 0.6779329148547E-03 -0.3566302745130E-02
 0.7196358415888E-03 -0.4029023570237E-02
 0.7514904679368E-03 -0.4492268587509E-02
 0.7743059877593E-03 -0.4955742504420E-02
 0.7889073069045E-03 -0.5419282911631E-02
 0.7960987909721E-03 -0.5882811849545E-02
 0.7966513949594E-03 -0.6346301879682E-02
 0.7913048221256E-03 -0.6809751483254E-02
 0.7807797716641E-03 -0.7273167696359E-02
 0.7657973832124E-03 -0.7736556144886E-02
 0.7471048498297E-03 -0.8199906388728E-02
 0.7255065199765E-03 -0.8663186150185E-02
 0.7019014422413E-03 -0.9126326295338E-02
 0.6773287122666E-03 -0.9589194308146E-02
 0.6530184707497E-03 -0.1005162273200E-01
 0.6304588976357E-03 -0.1051333072257E-01
 0.6114703626225E-03 -0.1097394101236E-01
 0.5982952745825E-03 -0.1143293678659E-01
 0.5936975852090E-03 -0.1188965048439E-01
 0.6010694115745E-03 -0.1234324486039E-01
 0.6245438175083E-03 -0.1279272867532E-01
 0.6691444641613E-03 -0.1323712448951E-01
 0.7408349572462E-03 -0.1367553262800E-01
 0.8465285577600E-03 -0.1410716499668E-01
 0.9940570114070E-03 -0.1453150646910E-01
 0.1191981110010E-02 -0.1494862284532E-01
 0.1449069106917E-02 -0.1535966504412E-01
 0.1773186958857E-02 -0.1576755392656E-01
 0.2169302792779E-02 -0.1617760661490E-01
 0.2636574311673E-02 -0.1659763007326E-01
 0.3165129088146E-02 -0.1703674717860E-01
 0.3734138369692E-02 -0.1750253970809E-01
 0.4313264650947E-02 -0.1799725615058E-01
 0.1095608022435E-03 -0.4203846428132E-03
 0.2198476554107E-03 -0.8509317276797E-03
 0.3266520335268E-03 -0.1290901951910E-02
 0.4261402751442E-03 -0.1738735601207E-02
 0.5155812487959E-03 -0.2192482911185E-02
 0.5935007253215E-03 -0.2650274920546E-02
 0.6594565645662E-03 -0.3110603374023E-02
 0.7136996047828E-03 -0.3572394962487E-02
 0.7568760146727E-03 -0.4034957446422E-02
 0.7898198387565E-03 -0.4497887969969E-02
 0.8134265802002E-03 -0.4960982272042E-02
 0.8285849088055E-03 -0.5424163829850E-02
 0.8361455159072E-03 -0.5887433575108E-02
 0.8369127281189E-03 -0.6350836481870E-02
 0.8316500916383E-03 -0.6814438439489E-02
 0.8210950302699E-03 -0.7278310605656E-02
 0.8059798549853E-03 -0.7742521076118E-02
 0.7870582720194E-03 -0.8207121616150E-02
 0.7651368523422E-03 -0.8672142958847E-02
 0.7411125473239E-03 -0.9137580409516E-02
 0.7160177723627E-03 -0.9603367260899E-02
 0.6910710627969E-03 -0.1006940270609E-01
 0.6677442281856E-03 -0.1053547103710E-01
 0.6478375681665E-03 -0.1100125529733E-01
 0.6335726394949E-03 -0.1146628855511E-01
 0.6276970904071E-03 -0.1192993531157E-01
 0.6335994554012E-03 -0.1239136270538E-01
 0.6554337892111E-03 -0.1284954423519E-01
 0.6982889807836E-03 -0.1330342023879E-01
 0.7682577418291E-03 -0.1375194448146E-01
 0.8724800876983E-03 -0.1419408863727E-01
 0.1019173757875E-02 -0.1462897170202E-01
 0.1217539694255E-02 -0.1505614542356E-01
 0.1477360137872E-02 -0.1547611850719E-01
 0.1807980712725E-02 -0.1589115805011E-01
 0.2216246825514E-02 -0.1630617399193E-01
 0.2703159235959E-02 -0.1672916440438E-01
 0.3259729496588E-02 -0.1717024316299E-01
 0.3863898059771E-02 -0.1763846215018E-01
 0.4481498761292E-02 -0.1813716528830E-01
 0.1159471470364E-03 -0.4210334244115E-03
 0.2328172184018E-03 -0.8526563936200E-03
 0.3457961874125E-03 -0.1293983417432E-02
 0.4506025650410E-03 -0.1743184171598E-02
 0.5443367108080E-03 -0.2198053672948E-02
 0.6255764689628E-03 -0.2656576795351E-02
 0.6940377103619E-03 -0.3117218089829E-02
 0.7501485421763E-03 -0.3578958745251E-02
 0.7947095939988E-03 -0.4041200293740E-02
 0.8286750436287E-03 -0.4503644031076E-02
 0.8530287325277E-03 -0.4966185723428E-02
 0.8687225636550E-03 -0.5428839619687E-02
 0.8766519530977E-03 -0.5891687812585E-02
 0.8776526707228E-03 -0.6354848470328E-02
 0.8725101753641E-03 -0.6818454966836E-02
 0.8619767885879E-03 -0.7282642492327E-02
 0.8467942594673E-03 -0.7747541751853E-02
 0.8277210894377E-03 -0.8213267413835E-02
 0.8055642377725E-03 -0.8679914799984E-02
 0.7812164114245E-03 -0.9147546478531E-02
 0.7557005946484E-03 -0.9616166061685E-02
 0.7302199576346E-03 -0.1008574610269E-01
 0.7062245965779E-03 -0.1055614552344E-01
 0.6854871462614E-03 -0.1102712049905E-01
 0.6701977733153E-03 -0.1149827058765E-01
 0.6630737517986E-03 -0.1196901310142E-01
 0.6674818600893E-03 -0.1243854477423E-01
 0.6875739950228E-03 -0.1290583366643E-01
 0.7284749135593E-03 -0.1336977145581E-01
 0.7963683248087E-03 -0.1382920168925E-01
 0.8985716359604E-03 -0.1428289111133E-01
 0.1043629102841E-02 -0.1472961668010E-01
 0.1241323969268E-02 -0.1516840788926E-01
 0.1502431003988E-02 -0.1559905990279E-01
 0.1837860568110E-02 -0.1602302419217E-01
 0.2256621897825E-02 -0.1644456657196E-01
 0.2762093183028E-02 -0.1687166999503E-01
 0.3346806482503E-02 -0.1731543993262E-01
 0.3987800882491E-02 -0.1778669820909E-01
 0.4646721358736E-02 -0.1829026853180E-01
 0.1226502798444E-03 -0.4218653712307E-03
 0.2464575382348E-03 -0.8547930166610E-03
 0.3658714177954E-03 -0.1297704028924E-02
 0.4761042903963E-03 -0.1748431317872E-02
 0.5741095240732E-03 -0.2204477013786E-02
 0.6585717536428E-03 -0.2663682934337E-02
 0.7294143632186E-03 -0.3124513283251E-02
 0.7872739823299E-03 -0.3586034289371E-02
 0.8331209621402E-03 -0.4047765131419E-02
 0.8680350071258E-03 -0.4509526553855E-02
 0.8930887219367E-03 -0.4971322813055E-02
 0.9092955717124E-03 -0.5433262885048E-02
 0.9175933680709E-03 -0.5895511317315E-02
 0.9188469745799E-03 -0.6358259356506E-02
 0.9138616290344E-03 -0.6821707143222E-02
 0.9034026780523E-03 -0.7286053104983E-02
 0.8882196533959E-03 -0.7751490051046E-02
 0.8690743226947E-03 -0.8218195641886E-02
 0.8467725037490E-03 -0.8686330773318E-02
 0.8222009484802E-03 -0.9156027519436E-02
 0.7963710494427E-03 -0.9627363773597E-02
 0.7704676092192E-03 -0.1010039169646E-01
 0.7459145738021E-03 -0.1057505406267E-01
 0.7244503110436E-03 -0.1105119305866E-01
 0.7082240486489E-03 -0.1152849187993E-01
 0.6999095457896E-03 -0.1200644257781E-01
 0.7028345366130E-03 -0.1248429874236E-01
 0.7211264286598E-03 -0.1296105616768E-01
 0.7599169258194E-03 -0.1343559666236E-01
 0.8254417181205E-03 -0.1390669822490E-01
 0.9251418884785E-03 -0.1437297122537E-01
 0.1067817144359E-02 -0.1483289439271E-01
 0.1263750780924E-02 -0.1528499308519E-01
 0.1524647145837E-02 -0.1572830254992E-01
 0.1863015559122E-02 -0.1616329966994E-01
 0.2290292173788E-02 -0.1659332287328E-01
 0.2812837644777E-02 -0.1702603730383E-01
 0.3425545312716E-02 -0.1747345960524E-01
 0.4105115038305E-02 -0.1794850335133E-01
 0.4808614879320E-02 -0.1845794379106E-01
 0.1297179087894E-03 -0.4229292045382E-03
 0.2608677932846E-03 -0.8574455821104E-03
 0.3869947256686E-03 -0.1302211215132E-02
 0.5027437958983E-03 -0.1754638729955E-02
 0.6049623957248E-03 -0.2211899360415E-02
 0.6925146910850E-03 -0.2671707015614E-02
 0.7655889757198E-03 -0.3132565094892E-02
 0.8250621429025E-03 -0.3593662918798E-02
 0.8720872026829E-03 -0.4054663806169E-02
 0.9078722590937E-03 -0.4515523175039E-02
 0.9335772094809E-03 -0.4976361146717E-02
 0.9502741737032E-03 -0.5437384090014E-02
 0.9589402886053E-03 -0.5898839107782E-02
 0.9604667574496E-03 -0.6360989383999E-02
 0.9556762827596E-03 -0.6824100236037E-02
 0.9453453373815E-03 -0.7288431774480E-02
 0.9302296722326E-03 -0.7754237717856E-02
 0.9110929900410E-03 -0.8221758147908E-02
 0.8887387486071E-03 -0.8691219859108E-02
 0.8640464817855E-03 -0.9162825993963E-02
 0.8380144466973E-03 -0.9636731995002E-02
 0.8118068915213E-03 -0.1011307521378E-01
 0.7868181879807E-03 -0.1059189097350E-01
 0.7647469870395E-03 -0.1107312011230E-01
 0.7476932174561E-03 -0.1155654682715E-01
 0.7382751472320E-03 -0.1204176065528E-01
 0.7397653878992E-03 -0.1252810091518E-01
 0.7562458980430E-03 -0.1301462709367E-01
 0.7928278084346E-03 -0.1350025446300E-01
 0.8557604218335E-03 -0.1398374780316E-01
 0.9525527094104E-03 -0.1446362278409E-01
 0.1092179920943E-02 -0.1493812546903E-01
 0.1285320149909E-02 -0.1540532805864E-01
 0.1544497761281E-02 -0.1586349894533E-01
 0.1883784890735E-02 -0.1631200468285E-01
 0.2317249634278E-02 -0.1675293730839E-01
 0.2854886884784E-02 -0.1719322276641E-01
 0.3495034085987E-02 -0.1764557412760E-01
 0.4214951683662E-02 -0.1812531109480E-01
 0.4966782595379E-02 -0.1864177137280E-01
 0.1372101033002E-03 -0.4242885476770E-03
 0.2761701007142E-03 -0.8607483894774E-03
 0.4093027666856E-03 -0.1307690422968E-02
 0.5306272578135E-03 -0.1762002153261E-02
 0.6369551859224E-03 -0.2220490276990E-02
 0.7274249552933E-03 -0.2680774734246E-02
 0.8025541403035E-03 -0.3141453795739E-02
 0.8634900373760E-03 -0.3601885633096E-02
 0.9115774815287E-03 -0.4061905792322E-02
 0.9481526573649E-03 -0.4521618522297E-02
 0.9744591590568E-03 -0.4981265435799E-02
 0.9916235747766E-03 -0.5441151284983E-02
 0.1000658578319E-02 -0.5901604421573E-02
 0.1002478592451E-02 -0.6362957683817E-02
 0.9979213240850E-03 -0.6825539039036E-02
 0.9877724721250E-03 -0.7289667926731E-02
 0.9727925492925E-03 -0.7755657055640E-02
 0.9537460653243E-03 -0.8223807657784E-02
 0.9314332094074E-03 -0.8694412030942E-02
 0.9067254797827E-03 -0.9167745176300E-02
 0.8806070797967E-03 -0.9644042517300E-02
 0.8542203705351E-03 -0.1012353130582E-01
 0.8289278294333E-03 -0.1060634729921E-01
 0.8063842466698E-03 -0.1109254204920E-01
 0.7886332784863E-03 -0.1158201796541E-01
 0.7782271055291E-03 -0.1207448523437E-01
 0.7783686235870E-03 -0.1256939889080E-01
 0.7930752490526E-03 -0.1306592017805E-01
 0.8274123591485E-03 -0.1356304475584E-01
 0.8876068010573E-03 -0.1405958296824E-01
 0.9811802777116E-03 -0.1455402943847E-01
 0.1117198819922E-02 -0.1504448503064E-01
 0.1306611312987E-02 -0.1552865746246E-01
 0.1562605003561E-02 -0.1600409635233E-01
 0.1900689770539E-02 -0.1646897439204E-01
 0.2337666581910E-02 -0.1692380877153E-01
 0.2887813455072E-02 -0.1737423081700E-01
 0.3554261952297E-02 -0.1783322886388E-01
 0.4316220816844E-02 -0.1831878346185E-01
 0.5120732159477E-02 -0.1884359992917E-01
 0.1452039292674E-03 -0.4260277920402E-03
 0.2925165012808E-03 -0.8648770084473E-03
 0.4329549824742E-03 -0.1314376297578E-02
 0.5598669756258E-03 -0.1770758099728E-02
 0.6701412061028E-03 -0.2230444136717E-02
 0.7633104925447E-03 -0.2691022564165E-02
 0.8402904544466E-03 -0.3151261702181E-02
 0.9025243165129E-03 -0.3610741193409E-02
 0.9515525090665E-03 -0.4069496735694E-02
 0.9888352025990E-03 -0.4527793215365E-02
 0.1015693840322E-02 -0.4985996882261E-02
 0.1033304040586E-02 -0.5444509799791E-02
 0.1042709572476E-02 -0.5903738657848E-02
 0.1044844653227E-02 -0.6364082427058E-02
 0.1040559433930E-02 -0.6825928213521E-02
 0.1030646967650E-02 -0.7289651605582E-02
 0.1015871192181E-02 -0.7755621637914E-02
 0.9969965003916E-03 -0.8224198693697E-02
 0.9748192044794E-03 -0.8695739412523E-02
 0.9502023788286E-03 -0.9170590592600E-02
 0.9241158677295E-03 -0.9649069099510E-02
 0.8976796793322E-03 -0.1013149570693E-01
 0.8722232498133E-03 -0.1061811337389E-01
 0.8493548162084E-03 -0.1110909546350E-01
 0.8310563745899E-03 -0.1160447923694E-01
 0.8198050012895E-03 -0.1210411867264E-01
 0.8187209805600E-03 -0.1260761510073E-01
 0.8317403538740E-03 -0.1311427093467E-01
 0.8638607433021E-03 -0.1362321157524E-01
 0.9212543854620E-03 -0.1413335645276E-01
 0.1011404082564E-02 -0.1464326256197E-01
 0.1143381985764E-02 -0.1515099298725E-01
 0.1328272312622E-02 -0.1565401889379E-01
 0.1579725886718E-02 -0.1614928803261E-01
 0.1914463607123E-02 -0.1663378479578E-01
 0.2351961013745E-02 -0.1710616317159E-01
 0.2911338946506E-02 -0.1757007569247E-01
 0.3602132449709E-02 -0.1803806768404E-01
 0.4407574972205E-02 -0.1853087691775E-01
 0.5269842706703E-02 -0.1906562883268E-01
 0.1538003272641E-03 -0.4282609638867E-03
 0.3100983257557E-03 -0.8700641477679E-03
 0.4581363981979E-03 -0.1322567443213E-02
 0.5905777179740E-03 -0.1781191154750E-02
 0.7045619164300E-03 -0.2241980583839E-02
 0.8001635368135E-03 -0.2702595142934E-02
 0.8787642639601E-03 -0.3162070185811E-02
 0.9421201934959E-03 -0.3620263722323E-02
 0.9919641237368E-03 -0.4077436753907E-02
 0.1029871961695E-02 -0.4534022751679E-02
 0.1057234917152E-02 -0.4990512514686E-02
 0.1075271057965E-02 -0.5447401921753E-02
 0.1085050262766E-02 -0.5905171321853E-02
 0.1087522897860E-02 -0.6364280988476E-02
 0.1083548955816E-02 -0.6825172645533E-02
 0.1073927034184E-02 -0.7288274015683E-02
 0.1059423294084E-02 -0.7754007043997E-02
 0.1040801289308E-02 -0.8222788524158E-02
 0.1018853129171E-02 -0.8695037479179E-02
 0.9944334747355E-03 -0.9171171528127E-02
 0.9684980834143E-03 -0.9651589351120E-02
 0.9421449920217E-03 -0.1013670756876E-01
 0.9166706586300E-03 -0.1062688166294E-01
 0.8936356577518E-03 -0.1112241650382E-01
 0.8749567310607E-03 -0.1162349978836E-01
 0.8630286061971E-03 -0.1213015193680E-01
 0.8608778998412E-03 -0.1264215122361E-01
 0.8723449640209E-03 -0.1315898123394E-01
 0.9023415074994E-03 -0.1367994761579E-01
 0.9569583433006E-03 -0.1420414502270E-01
 0.1043594064961E-02 -0.1473028277089E-01
 0.1171247758903E-02 -0.1525650931430E-01
 0.1351001905176E-02 -0.1578022328576E-01
 0.1596742855197E-02 -0.1629796391274E-01
 0.1926074356916E-02 -0.1680566201181E-01
 0.2360873033992E-02 -0.1729993976648E-01
 0.2925440190961E-02 -0.1778170723083E-01
 0.3637505717065E-02 -0.1826195161403E-01
 0.4487336867572E-02 -0.1876392865719E-01
 0.5413307462053E-02 -0.1931051928377E-01
 0.1631345986637E-03 -0.4311455327805E-03
 0.3291587159996E-03 -0.8766230632723E-03
 0.4850591131041E-03 -0.1332645749741E-02
 0.6228699962685E-03 -0.1793641089745E-02
 0.7402396778575E-03 -0.2255342736310E-02
 0.8379560768135E-03 -0.2715640761401E-02
 0.9179254982844E-03 -0.3173955644997E-02
 0.9822206079826E-03 -0.3630479799649E-02
 0.1032755109932E-02 -0.4085718489118E-02
 0.1071208194114E-02 -0.4540276266421E-02
 0.1099030709688E-02 -0.4994764454506E-02
 0.1117475648933E-02 -0.5449766526674E-02
 0.1127633624318E-02 -0.5905829929705E-02
 0.1130467391332E-02 -0.6363470070720E-02
 0.1126844205820E-02 -0.6823177761528E-02
 0.1117566499704E-02 -0.7285428021529E-02
 0.1103401604645E-02 -0.7750691550130E-02
 0.1085111708783E-02 -0.8219438072266E-02
 0.1063484650039E-02 -0.8692146226622E-02
 0.1039367041266E-02 -0.9169302521921E-02
 0.1013701342634E-02 -0.9651386643316E-02
 0.9875647905490E-03 -0.1013891189788E-01
 0.9622221300389E-03 -0.1063234982710E-01
 0.9391868527656E-03 -0.1113214460545E-01
 0.9203088673921E-03 -0.1163864832740E-01
 0.9078952902803E-03 -0.1215206949418E-01
 0.9048699335869E-03 -0.1267239355626E-01
 0.9149657586546E-03 -0.1319932517717E-01
 0.9429946701241E-03 -0.1373240065360E-01
 0.9949456809041E-03 -0.1427095624574E-01
 0.1078096601038E-02 -0.1481394598662E-01
 0.1201304869066E-02 -0.1535973627264E-01
 0.1375523541750E-02 -0.1590584480927E-01
 0.1614638975664E-02 -0.1644866830814E-01
 0.1936729410054E-02 -0.1698338007835E-01
 0.2365544933376E-02 -0.1750463184693E-01
 0.2930501974014E-02 -0.1800987654385E-01
 0.3659294033112E-02 -0.1850695612992E-01
 0.4553411419914E-02 -0.1902077219569E-01
 0.5550036471149E-02 -0.1958155423190E-01
 0.1733928787837E-03 -0.4349046886920E-03
 0.3500091216523E-03 -0.8849827868090E-03
 0.5139604952699E-03 -0.1345101217141E-02
 0.6568386250253E-03 -0.1808508055593E-02
 0.7771683099408E-03 -0.2270791639220E-02
 0.8766350500572E-03 -0.2730304521000E-02
 0.9577057785926E-03 -0.3186984468830E-02
 0.1022755662365E-02 -0.3641405153379E-02
 0.1073859205535E-02 -0.4094325012441E-02
 0.1112782590754E-02 -0.4546515263742E-02
 0.1141024508219E-02 -0.4998699206150E-02
 0.1159864693022E-02 -0.5451538756584E-02
 0.1170408920551E-02 -0.5905639969826E-02
 0.1173628584637E-02 -0.6361565889294E-02
 0.1170395724922E-02 -0.6819849906216E-02
 0.1161515036521E-02 -0.7281008708775E-02
 0.1147754131047E-02 -0.7745556882269E-02
 0.1129873490974E-02 -0.8214012884939E-02
 0.1108656840500E-02 -0.8686911401143E-02
 0.1084943408072E-02 -0.9164804927970E-02
 0.1059663580412E-02 -0.9648252104913E-02
 0.1033875652156E-02 -0.1013786212623E-01
 0.1008815052000E-02 -0.1063422401598E-01
 0.9859505176250E-03 -0.1113792659343E-01
 0.9670658021686E-03 -0.1164949799819E-01
 0.9543773915676E-03 -0.1216935483732E-01
 0.9506991201059E-03 -0.1269771911805E-01
 0.9596473934008E-03 -0.1323455589102E-01
 0.9859248272199E-03 -0.1377968133333E-01
 0.1035405320767E-02 -0.1433273757437E-01
 0.1115219774529E-02 -0.1489301352931E-01
 0.1234030267699E-02 -0.1545922755900E-01
 0.1402552301523E-02 -0.1602922262113E-01
 0.1634454878423E-02 -0.1659957296210E-01
 0.1947849935493E-02 -0.1716515771306E-01
 0.2367587317405E-02 -0.1771907301346E-01
 0.2927523541129E-02 -0.1825490020922E-01
 0.3666651472761E-02 -0.1877530950651E-01
 0.4603191244838E-02 -0.1930488679838E-01
 0.5678486190150E-02 -0.1988287446750E-01
 0.1848388734672E-03 -0.4398647377371E-03
 0.3730502505560E-03 -0.8957421541226E-03
 0.5450942646274E-03 -0.1360562353543E-02
 0.6925445222438E-03 -0.1826252264710E-02
 0.8153017645227E-03 -0.2288594943820E-02
 0.9161179589406E-03 -0.2746718897592E-02
 0.9980171699459E-03 -0.3201207099097E-02
 0.1063642532301E-02 -0.3653040996380E-02
 0.1115201453944E-02 -0.4103227597748E-02
 0.1154527762905E-02 -0.4552692308270E-02
 0.1183155076110E-02 -0.5002256934104E-02
 0.1202381403492E-02 -0.5452649688264E-02
 0.1213322143123E-02 -0.5904524850077E-02
 0.1216953721173E-02 -0.6358484335179E-02
 0.1214150658408E-02 -0.6815096689679E-02
 0.1205718520602E-02 -0.7274913907090E-02
 0.1192424482828E-02 -0.7738488923825E-02
 0.1175027156869E-02 -0.8206384052219E-02
 0.1154306501403E-02 -0.8679185678002E-02
 0.1131095258247E-02 -0.9157508428578E-02
 0.1106313295917E-02 -0.9641986588615E-02
 0.1081002367537E-02 -0.1013332270575E-01
 0.1056371962552E-02 -0.1063222230925E-01
 0.1033850120627E-02 -0.1113942113894E-01
 0.1015157621257E-02 -0.1165563184528E-01
 0.1002419909043E-02 -0.1218149678107E-01
 0.9983356997454E-03 -0.1271750265229E-01
 0.1006397977673E-02 -0.1326391340832E-01
 0.1031194823955E-02 -0.1382087251391E-01
 0.1078478842484E-02 -0.1438838804776E-01
 0.1155219055206E-02 -0.1496616691195E-01
 0.1269846283119E-02 -0.1555340564181E-01
 0.1432757676292E-02 -0.1614847759053E-01
 0.1657228613547E-02 -0.1674847752046E-01
 0.1961000979262E-02 -0.1734857998343E-01
 0.2369097850210E-02 -0.1794117887716E-01
 0.2918371608616E-02 -0.1851627039953E-01
 0.3659323788209E-02 -0.1906920002500E-01
 0.4633493602857E-02 -0.1962058148228E-01
 0.5796358492995E-02 -0.2021984475525E-01
 0.1978588258911E-03 -0.4465209371464E-03
 0.3987963264095E-03 -0.9097541671426E-03
 0.5787072803301E-03 -0.1379829390905E-02
 0.7299876518135E-03 -0.1847381468819E-02
 0.8545422355054E-03 -0.2309007814550E-02
 0.9562898487118E-03 -0.2764992113231E-02
 0.1038751819235E-02 -0.3216651491361E-02
 0.1104785919843E-02 -0.3665370154100E-02
 0.1156698905247E-02 -0.4112383486842E-02
 0.1196370943267E-02 -0.4558749761066E-02
 0.1225357284794E-02 -0.5005370791293E-02
 0.1244965888122E-02 -0.5453026048185E-02
 0.1256316508138E-02 -0.5902405881577E-02
 0.1260387283444E-02 -0.6354141164416E-02
 0.1258053167734E-02 -0.6808827352321E-02
 0.1250119421564E-02 -0.7267044722231E-02
 0.1237352251096E-02 -0.7729378424053E-02
 0.1220508393898E-02 -0.8196429118167E-02
 0.1200364543612E-02 -0.8668829821717E-02
 0.1177748017449E-02 -0.9147252520316E-02
 0.1153569937096E-02 -0.9632402605309E-02
 0.1128858272141E-02 -0.1012507169148E-01
 0.1104800682998E-02 -0.1062607824364E-01
 0.1082790133640E-02 -0.1113630352025E-01
 0.1064490330000E-02 -0.1165664886160E-01
 0.1051938402153E-02 -0.1218799652778E-01
 0.1047715041666E-02 -0.1273112441049E-01
 0.1055184904219E-02 -0.1328663332175E-01
 0.1078820053614E-02 -0.1385503965444E-01
 0.1124252234916E-02 -0.1443677186657E-01
 0.1198284247057E-02 -0.1503202652222E-01
 0.1309098544934E-02 -0.1564058678626E-01
 0.1466725763663E-02 -0.1626154311587E-01
 0.1683925621489E-02 -0.1689284337298E-01
 0.1977770266806E-02 -0.1753058116445E-01
 0.2372579151291E-02 -0.1816768767727E-01
 0.2906032103207E-02 -0.1879204975591E-01
 0.3638250910578E-02 -0.1939029895544E-01
 0.4640631864648E-02 -0.1997317484042E-01
 0.5900060424348E-02 -0.2059963695863E-01
 0.2130400886900E-03 -0.4556602547509E-03
 0.4278961649785E-03 -0.9282593344244E-03
 0.6149891464183E-03 -0.1403899132675E-02
 0.7690707047129E-03 -0.1872414874353E-02
 0.8947309653281E-03 -0.2332245678862E-02
 0.9970026661646E-03 -0.2785195628339E-02
 0.1079782638194E-02 -0.3233316208220E-02
 0.1146079184426E-02 -0.3678353153912E-02
 0.1198261724073E-02 -0.4121733763398E-02
 0.1238234930177E-02 -0.4564618603241E-02
 0.1267562910563E-02 -0.5007966319421E-02
 0.1287555823406E-02 -0.5452589975629E-02
 0.1299333040121E-02 -0.5899202289645E-02
 0.1303871514698E-02 -0.6348452197341E-02
 0.1302044912750E-02 -0.6800953124347E-02
 0.1294657264542E-02 -0.7257306049050E-02
 0.1282473466412E-02 -0.7718121674067E-02
 0.1266248524885E-02 -0.8184032945244E-02
 0.1246756482668E-02 -0.8655713783753E-02
 0.1224820387953E-02 -0.9133887918920E-02
 0.1201344483669E-02 -0.9619326156868E-02
 0.1177345866572E-02 -0.1011290321216E-01
 0.1153994869818E-02 -0.1061554429179E-01
 0.1132656196496E-02 -0.1112827058550E-01
 0.1114945167771E-02 -0.1165217064152E-01
 0.1102817210116E-02 -0.1218837561747E-01
 0.1098734838971E-02 -0.1273797876989E-01
 0.1105931116198E-02 -0.1330195604464E-01
 0.1128763618330E-02 -0.1388124186766E-01
 0.1172749116269E-02 -0.1447673332641E-01
 0.1244528811813E-02 -0.1508917324092E-01
 0.1352036549144E-02 -0.1571901348416E-01
 0.1504923678995E-02 -0.1636620921011E-01
 0.1715371679563E-02 -0.1702985631354E-01
 0.1999610430026E-02 -0.1770752541955E-01
 0.2380691853940E-02 -0.1839401402811E-01
 0.2894724628585E-02 -0.1907803549202E-01
 0.3606517452605E-02 -0.1973870708542E-01
 0.4620880460439E-02 -0.2036901505478E-01
 0.5983737948783E-02 -0.2103217675048E-01
 0.2313140378415E-03 -0.4686074652690E-03
 0.4611284267829E-03 -0.9530953433376E-03
 0.6539734464927E-03 -0.1433947157444E-02
 0.8095597200080E-03 -0.1901808448655E-02
 0.9356473244777E-03 -0.2358454052073E-02
 0.1038077141283E-02 -0.2807352291788E-02
 0.1120965138012E-02 -0.3251163121061E-02
 0.1187406308078E-02 -0.3691924654632E-02
 0.1239794703256E-02 -0.4131201429727E-02
 0.1280039294431E-02 -0.4570217398237E-02
 0.1309701606559E-02 -0.5009960945551E-02
 0.1330087257106E-02 -0.5451258833103E-02
 0.1342311262552E-02 -0.5894831240596E-02
 0.1347347037008E-02 -0.6341333506113E-02
 0.1346065628857E-02 -0.6791387551168E-02
 0.1339269191070E-02 -0.7245607029989E-02
 0.1327721164849E-02 -0.7704621108280E-02
 0.1312175099898E-02 -0.8169088482481E-02
 0.1293403078632E-02 -0.8639717678533E-02
 0.1272225062243E-02 -0.9117277811011E-02
 0.1249540264025E-02 -0.9602598376292E-02
 0.1226357769006E-02 -0.1009662969427E-01
 0.1203835078686E-02 -0.1060039507888E-01
 0.1183315987886E-02 -0.1111504568897E-01
 0.1166378613027E-02 -0.1164184858889E-01
 0.1154908108275E-02 -0.1218218492077E-01
 0.1151252563789E-02 -0.1273748374545E-01
 0.1158511782176E-02 -0.1330913641962E-01
 0.1180932506826E-02 -0.1389854297540E-01
 0.1223925825668E-02 -0.1450711237508E-01
 0.1293982258581E-02 -0.1513617169719E-01
 0.1398799629478E-02 -0.1578689166050E-01
 0.1547667734444E-02 -0.1646018200238E-01
 0.1752197512046E-02 -0.1715650372872E-01
 0.2027696880651E-02 -0.1787537679376E-01
 0.2395819265342E-02 -0.1861441519774E-01
 0.2889586271056E-02 -0.1936687739331E-01
 0.3570629774612E-02 -0.2011082633354E-01
 0.4571932894586E-02 -0.2081482154783E-01
 0.6037595337928E-02 -0.2153165817262E-01
 0.2542265051219E-03 -0.4877681883667E-03
 0.4993001282512E-03 -0.9870057916212E-03
 0.6953641980070E-03 -0.1471173135677E-02
 0.8510663074113E-03 -0.1935839023512E-02
 0.9770205838793E-03 -0.2387691006574E-02
 0.1079305247915E-02 -0.2831422921531E-02
 0.1162141113106E-02 -0.3270110557386E-02
 0.1228644552973E-02 -0.3705990741257E-02
 0.1281199058125E-02 -0.4140689719686E-02
 0.1321701762067E-02 -0.4575451580856E-02
 0.1351701920293E-02 -0.5011263663587E-02
 0.1372495414203E-02 -0.5448945176368E-02
 0.1385189854172E-02 -0.5889207992853E-02
 0.1390753414811E-02 -0.6332701709578E-02
 0.1390053634762E-02 -0.6780046913053E-02
 0.1383890440987E-02 -0.7231861597836E-02
 0.1373025869414E-02 -0.7688785979598E-02
 0.1358212402324E-02 -0.8151497593547E-02
 0.1340220895074E-02 -0.8620732798889E-02
 0.1319869371500E-02 -0.9097299112053E-02
 0.1298053741262E-02 -0.9582077125377E-02
 0.1275777706571E-02 -0.1007608396218E-01
 0.1254190059225E-02 -0.1058043033478E-01
 0.1234620664720E-02 -0.1109638345939E-01
 0.1218623049701E-02 -0.1162537176813E-01
 0.1208029194674E-02 -0.1216901520583E-01
 0.1205082655389E-02 -0.1272909183786E-01
 0.1212750818723E-02 -0.1330745341069E-01
 0.1235174272315E-02 -0.1390602196167E-01
 0.1277668525847E-02 -0.1452675917201E-01
 0.1346585260484E-02 -0.1517159484790E-01
 0.1449409668211E-02 -0.1584242667570E-01
 0.1595102370034E-02 -0.1654115598878E-01
 0.1794782589219E-02 -0.1726967677784E-01
 0.2062868132805E-02 -0.1802984561711E-01
 0.2419598741823E-02 -0.1882262033255E-01
 0.2895462225201E-02 -0.1964789896626E-01
 0.3541576855818E-02 -0.2049558113824E-01
 0.4496629419448E-02 -0.2131475777395E-01
 0.6045199560598E-02 -0.2211868385409E-01
 0.2844646308331E-03 -0.5180006994855E-03
 0.5428296688060E-03 -0.1033944288931E-02
 0.7382986586695E-03 -0.1516285218381E-02
 0.8931125127828E-03 -0.1974535030174E-02
 0.1018540307367E-02 -0.2419927684474E-02
 0.1120453680810E-02 -0.2857282926570E-02
 0.1203145694759E-02 -0.3290032549397E-02
 0.1269666952436E-02 -0.3720425399819E-02
 0.1322374893593E-02 -0.4150081337716E-02
 0.1363139721615E-02 -0.4580212899786E-02
 0.1393492484799E-02 -0.5011774915348E-02
 0.1414715605209E-02 -0.5445556809164E-02
 0.1427907401223E-02 -0.5882246094432E-02
 0.1434029805767E-02 -0.6322474277075E-02
 0.1433946428537E-02 -0.6766850627785E-02
 0.1428454926912E-02 -0.7215988978807E-02
 0.1418316171906E-02 -0.7670532973503E-02
 0.1404282066841E-02 -0.8131171800039E-02
 0.1387122986823E-02 -0.8598662517124E-02
 0.1367656086589E-02 -0.9073843569947E-02
 0.1346775496168E-02 -0.9557638371052E-02
 0.1325481767231E-02 -0.1005112103812E-01
 0.1304918473512E-02 -0.1055547731521E-01
 0.1286407277761E-02 -0.1107207375377E-01
 0.1271488891537E-02 -0.1160247495588E-01
 0.1261964620682E-02 -0.1214850998427E-01
 0.1259993441943E-02 -0.1271230304264E-01
 0.1268417007048E-02 -0.1329621969149E-01
 0.1291274607008E-02 -0.1390278185836E-01
 0.1333791899311E-02 -0.1453454787158E-01
 0.1402190684992E-02 -0.1519404537738E-01
 0.1503764521558E-02 -0.1588386772372E-01
 0.1647206957941E-02 -0.1660686062757E-01
 0.1843195516418E-02 -0.1736636198553E-01
 0.2105578881504E-02 -0.1816644082277E-01
 0.2452926419246E-02 -0.1901244522478E-01
 0.2914622009273E-02 -0.1990933550083E-01
 0.3533480718023E-02 -0.2086971028933E-01
 0.4411227826601E-02 -0.2186071776779E-01
 0.5980115446301E-02 -0.2282146964495E-01
 0.3268540048705E-03 -0.5708613890138E-03
 0.5903296894815E-03 -0.1098220761670E-02
 0.7813576233299E-03 -0.1568436431485E-02
 0.9353171847311E-03 -0.2018012314717E-02
 0.1059805298986E-02 -0.2454906596590E-02
 0.1161297633921E-02 -0.2884747648594E-02
 0.1243806642866E-02 -0.3310747428135E-02
 0.1310348079758E-02 -0.3735071177419E-02
 0.1363223272108E-02 -0.4159237437428E-02
 0.1404272163695E-02 -0.4584379341522E-02
 0.1435003339294E-02 -0.5011386558085E-02
 0.1456684312532E-02 -0.5440996882758E-02
 0.1470403307968E-02 -0.5873857541220E-02
 0.1477115780215E-02 -0.6310569743126E-02
 0.1477681461949E-02 -0.6751721519418E-02
 0.1472896001550E-02 -0.7197914022084E-02
 0.1463519524542E-02 -0.7649786609861E-02
 0.1450303927024E-02 -0.8108032770915E-02
 0.1434019841083E-02 -0.8573422883536E-02
 0.1415484502782E-02 -0.9046818504669E-02
 0.1395591529469E-02 -0.9529177112923E-02
 0.1375340060894E-02 -0.1002161933744E-01
 0.1355871051343E-02 -0.1052539251009E-01
 0.1338502217801E-02 -0.1104194386648E-01
 0.1324769181712E-02 -0.1157294525472E-01
 0.1316466269511E-02 -0.1212038163497E-01
 0.1315703335706E-02 -0.1268668176577E-01
 0.1325219044807E-02 -0.1327478998220E-01
 0.1348955481948E-02 -0.1388795572465E-01
 0.1392041297327E-02 -0.1452938730507E-01
 0.1460565175209E-02 -0.1520217704940E-01
 0.1561652347058E-02 -0.1590953754724E-01
 0.1703768180204E-02 -0.1665515328523E-01
 0.1897312354432E-02 -0.1744363873737E-01
 0.2155508217281E-02 -0.1828120070502E-01
 0.2496721967672E-02 -0.1917663742421E-01
 0.2945664006851E-02 -0.2014358804227E-01
 0.3554010660387E-02 -0.2120010594084E-01
 0.4359659037491E-02 -0.2240614407421E-01
 0.5806091479566E-02 -0.2366196444202E-01
-0.4309669744383E-01 -0.3220717568955E-01
-0.7768853269572E-01 -0.5064112677026E-01
-0.1085979995178E+00 -0.7294527067669E-01
-0.1364662456767E+00 -0.9863748290272E-01
-0.1618873292882E+00 -0.1272172737620E+00
-0.1853830899171E+00 -0.1581772310799E+00
-0.2073710326596E+00 -0.1910005101699E+00
-0.2281227607039E+00 -0.2251597236737E+00
-0.2477283350499E+00 -0.2601357288900E+00
-0.2660998013315E+00 -0.2954669383154E+00
-0.2830256068012E+00 -0.3308043957833E+00
-0.2982585792174E+00 -0.3659258413102E+00
-0.3116128357928E+00 -0.4007051971742E+00
-0.3230134321586E+00 -0.4350700394475E+00
-0.3324816359762E+00 -0.4689675976436E+00
-0.3400929547024E+00 -0.5023441119785E+00
-0.3459282911896E+00 -0.5351378577899E+00
-0.3500277167532E+00 -0.5672571687610E+00
-0.3524324834577E+00 -0.5985931816189E+00
-0.4119896658307E-01 -0.3178488848633E-01
-0.7423427742664E-01 -0.5001463635024E-01
-0.1037282463999E+00 -0.7221538080078E-01
-0.1303223746234E+00 -0.9790457821608E-01
-0.1545962553652E+00 -0.1265768130373E+00
-0.1770554705746E+00 -0.1577228250026E+00
-0.1981044407892E+00 -0.1908278671158E+00
-0.2180090314561E+00 -0.2253724662683E+00
-0.2368620158024E+00 -0.2608516022042E+00
-0.2545822549201E+00 -0.2968212017689E+00
-0.2709638037521E+00 -0.3329468872531E+00
-0.2857636956590E+00 -0.3690131224356E+00
-0.2987984004230E+00 -0.4048917994711E+00
-0.3099929051422E+00 -0.4405021585684E+00
-0.3193672263181E+00 -0.4757815276866E+00
-0.3269938194071E+00 -0.5106686580147E+00
-0.3329525246516E+00 -0.5450909436946E+00
-0.3372924174441E+00 -0.5789406412171E+00
-0.3400859465768E+00 -0.6120407490721E+00
-0.3925500842130E-01 -0.3138554826280E-01
-0.7070065794760E-01 -0.4943255402523E-01
-0.9874995772441E-01 -0.7155853690104E-01
-0.1240400321238E+00 -0.9726886623409E-01
-0.1471357811351E+00 -0.1260539575246E+00
-0.1685254845187E+00 -0.1574022854567E+00
-0.1885998409513E+00 -0.1908009079036E+00
-0.2076184681386E+00 -0.2257376472418E+00
-0.2256766046148E+00 -0.2617213018654E+00
-0.2427005194983E+00 -0.2983258594558E+00
-0.2584915952185E+00 -0.3352332304140E+00
-0.2728127446213E+00 -0.3722369071059E+00
-0.2854837734693E+00 -0.4092088366677E+00
-0.2964299647676E+00 -0.4460616224474E+00
-0.3056697111654E+00 -0.4827234320596E+00
-0.3132737984645E+00 -0.5191224944191E+00
-0.3193239889246E+00 -0.5551724742756E+00
-0.3238885552980E+00 -0.5907429545689E+00
-0.3270686053525E+00 -0.6256452284115E+00
-0.3726428044427E-01 -0.3101062713352E-01
-0.6708533863804E-01 -0.4889542493059E-01
-0.9366072586270E-01 -0.7096864706899E-01
-0.1176184427947E+00 -0.9672039564702E-01
-0.1395069196221E+00 -0.1256343603094E+00
-0.1597963505041E+00 -0.1571967677964E+00
-0.1788629353652E+00 -0.1908963791753E+00
-0.1969592911548E+00 -0.2262282561802E+00
-0.2141824430530E+00 -0.2627149256467E+00
-0.2304662284056E+00 -0.2999486161393E+00
-0.2456207597859E+00 -0.3376284029287E+00
-0.2594165084489E+00 -0.3755583165740E+00
-0.2716778118222E+00 -0.4136120649119E+00
-0.2823308571931E+00 -0.4516970147325E+00
-0.2913930389991E+00 -0.4897323723803E+00
-0.2989348696490E+00 -0.5276354629027E+00
-0.3050437555845E+00 -0.5653064717500E+00
-0.3098063477524E+00 -0.6026065562542E+00
-0.3133419452375E+00 -0.6393551861652E+00
-0.3522623854515E-01 -0.3066040843079E-01
-0.6338741779205E-01 -0.4840189550916E-01
-0.8845994768101E-01 -0.7044073140311E-01
-0.1110582919930E+00 -0.9624979858691E-01
-0.1317121978345E+00 -0.1253046480255E+00
-0.1508726621457E+00 -0.1570887753878E+00
-0.1689005270883E+00 -0.1910927923731E+00
-0.1860404515620E+00 -0.2268191228826E+00
-0.2023903493920E+00 -0.2638039911868E+00
-0.2178915211255E+00 -0.3016578035026E+00
-0.2323639302920E+00 -0.3400971556053E+00
-0.2455871815823E+00 -0.3789375587687E+00
-0.2573914387201E+00 -0.4180557736541E+00
-0.2677047272319E+00 -0.4573550988499E+00
-0.2765442592482E+00 -0.4967466755714E+00
-0.2839815970315E+00 -0.5361381777412E+00
-0.2901103904422E+00 -0.5754217191566E+00
-0.2950314329886E+00 -0.6144594179342E+00
-0.2988742844541E+00 -0.6530865708551E+00
-0.3314071853941E-01 -0.3033460345010E-01
-0.5960705273778E-01 -0.4795016315060E-01
-0.8314848577779E-01 -0.6996993839966E-01
-0.1043617362341E+00 -0.9584850194799E-01
-0.1237555106476E+00 -0.1250523992551E+00
-0.1417602686153E+00 -0.1570621053786E+00
-0.1587204719319E+00 -0.1913702045006E+00
-0.1748717409192E+00 -0.2274866620721E+00
-0.1903118620008E+00 -0.2649613262142E+00
-0.2049893271586E+00 -0.3034225353439E+00
-0.2187348305737E+00 -0.3426044058199E+00
-0.2313385382988E+00 -0.3823344533301E+00
-0.2426377670890E+00 -0.4224934642843E+00
-0.2525633916205E+00 -0.4629818917973E+00
-0.2611332020581E+00 -0.5037043159894E+00
-0.2684201837238E+00 -0.5445616016379E+00
-0.2745231056729E+00 -0.5854429152694E+00
-0.2795523267310E+00 -0.6262171899764E+00
-0.2836419122259E+00 -0.6667386788794E+00
-0.3100803695121E-01 -0.3003278144283E-01
-0.5574534549674E-01 -0.4753826578366E-01
-0.7772845810681E-01 -0.6955163348455E-01
-0.9753226670979E-01 -0.9550855904882E-01
-0.1156420311929E+00 -0.1248661542706E+00
-0.1324661929874E+00 -0.1571017596586E+00
-0.1483316778759E+00 -0.1917100718827E+00
-0.1634639007305E+00 -0.2282087214557E+00
-0.1779594507313E+00 -0.2661610221710E+00
-0.1917736293172E+00 -0.3052128408671E+00
-0.2047485364431E+00 -0.3451155539137E+00
-0.2166861629294E+00 -0.3857088997353E+00
-0.2274322329637E+00 -0.4268784731760E+00
-0.2369214063208E+00 -0.4685231839616E+00
-0.2451724823381E+00 -0.5105430327204E+00
-0.2522595049687E+00 -0.5528351411611E+00
-0.2582844937843E+00 -0.5952898496539E+00
-0.2633631969143E+00 -0.6377864773779E+00
-0.2676299681632E+00 -0.6801995963394E+00
-0.2882903313088E-01 -0.2975450018013E-01
-0.5180427942536E-01 -0.4716427147477E-01
-0.7220309847062E-01 -0.6918145019426E-01
-0.9057456882521E-01 -0.9522262475168E-01
-0.1073780928803E+00 -0.1247353564279E+00
-0.1229985363039E+00 -0.1571938859725E+00
-0.1377440480176E+00 -0.1920951604453E+00
-0.1518286231492E+00 -0.2289645155522E+00
-0.1653465665608E+00 -0.2673784572150E+00
-0.1782595339221E+00 -0.3069998322953E+00
-0.1904215309875E+00 -0.3475968139565E+00
-0.2016474548686E+00 -0.3890213625266E+00
-0.2117925476240E+00 -0.4311645286098E+00
-0.2207960010039E+00 -0.4739250171351E+00
-0.2286777196899E+00 -0.5172003090058E+00
-0.2355119835637E+00 -0.5608865655313E+00
-0.2414019484992E+00 -0.6048783822077E+00
-0.2464651311375E+00 -0.6490676288929E+00
-0.2508329213838E+00 -0.6933496931055E+00
-0.2660507076930E-01 -0.2949936244777E-01
-0.4778666655820E-01 -0.4682636574180E-01
-0.6657665601976E-01 -0.6885533672334E-01
-0.8349441622014E-01 -0.9498394036673E-01
-0.9897110713180E-01 -0.1246503078282E+00
-0.1133664318956E+00 -0.1573257181670E+00
-0.1269684816961E+00 -0.1925094861061E+00
-0.1399786054257E+00 -0.2297345929148E+00
-0.1524877446203E+00 -0.2685903365630E+00
-0.1644634050596E+00 -0.3087558569460E+00
-0.1757718449793E+00 -0.3500154951893E+00
-0.1862417592826E+00 -0.3922332607254E+00
-0.1957388302487E+00 -0.4353061826790E+00
-0.2042073102106E+00 -0.4791340204609E+00
-0.2116680368585E+00 -0.5236136322117E+00
-0.2181944560243E+00 -0.5686425248382E+00
-0.2238887436580E+00 -0.6141217535978E+00
-0.2288670926314E+00 -0.6599569605830E+00
-0.2332553724650E+00 -0.7060642019023E+00
-0.2433802103318E-01 -0.2926703655339E-01
-0.4369609341489E-01 -0.4652289451610E-01
-0.6085430486705E-01 -0.6856958250510E-01
-0.7629856682898E-01 -0.9478632718687E-01
-0.9042946759958E-01 -0.1246021377970E+00
-0.1035799701939E+00 -0.1574855367530E+00
-0.1160168256974E+00 -0.1929382849292E+00
-0.1279275282069E+00 -0.2305008417238E+00
-0.1393986045000E+00 -0.2697747660509E+00
-0.1504028754142E+00 -0.3104546698891E+00
-0.1608190640337E+00 -0.3523402877318E+00
-0.1704903664425E+00 -0.3953073536686E+00
-0.1792936286998E+00 -0.4392592521969E+00
-0.1871784876518E+00 -0.4840978849024E+00
-0.1941663505821E+00 -0.5297210915332E+00
-0.2003286509107E+00 -0.5760295135154E+00
-0.2057645807830E+00 -0.6229321485638E+00
-0.2105864008378E+00 -0.6703489428163E+00
-0.2149124559966E+00 -0.7182159776294E+00
-0.2203023348701E-01 -0.2905725990269E-01
-0.3953686532123E-01 -0.4625238085975E-01
-0.5504206613986E-01 -0.6832082922626E-01
-0.6899467879997E-01 -0.9462417878370E-01
-0.8176247698230E-01 -0.1245827791486E+00
-0.9365014780726E-01 -0.1576626412704E+00
-0.1049018503890E+00 -0.1933679986042E+00
-0.1156900583178E+00 -0.2312465095530E+00
-0.1260958755624E+00 -0.2709113312052E+00
-0.1360968871127E+00 -0.3120715953666E+00
-0.1455843778394E+00 -0.3545415183194E+00
-0.1544165729553E+00 -0.3982080854531E+00
-0.1624820181481E+00 -0.4429812421236E+00
-0.1697358860548E+00 -0.4887658889247E+00
-0.1761996667262E+00 -0.5354621033930E+00
-0.1819415827952E+00 -0.5829749485979E+00
-0.1870560052739E+00 -0.6312222444782E+00
-0.1916490808477E+00 -0.6801382509591E+00
-0.1958300951212E+00 -0.7296780901570E+00
-0.1968449863335E-01 -0.2886983442877E-01
-0.3531394381925E-01 -0.4601352754831E-01
-0.4914672599720E-01 -0.6810607211148E-01
-0.6159122036020E-01 -0.9449245312508E-01
-0.7298026053462E-01 -0.1245849524061E+00
-0.8358879264913E-01 -0.1578473361762E+00
-0.9363718916792E-01 -0.1937862767052E+00
-0.1032818009548E+00 -0.2319562402731E+00
-0.1125973581222E+00 -0.2719811894228E+00
-0.1215656573295E+00 -0.3135836940376E+00
-0.1300905471525E+00 -0.3565914061830E+00
-0.1380456550510E+00 -0.4009019369013E+00
-0.1453315977400E+00 -0.4464318076845E+00
-0.1519090996793E+00 -0.4930895146063E+00
-0.1577991782674E+00 -0.5407782673584E+00
-0.1630656841856E+00 -0.5894083713114E+00
-0.1677965186604E+00 -0.6389068366124E+00
-0.1720898979135E+00 -0.6892218263732E+00
-0.1760448901347E+00 -0.7403262948892E+00
-0.1730400878465E-01 -0.2870461828894E-01
-0.3103288631418E-01 -0.4580521211786E-01
-0.4317576157970E-01 -0.6792265544841E-01
-0.5409739098875E-01 -0.9438666438270E-01
-0.6409369088646E-01 -0.1246021551204E+00
-0.7340849778582E-01 -0.1580309251630E+00
-0.8223728255456E-01 -0.1941819881034E+00
-0.9071925191186E-01 -0.2326161177199E+00
-0.9892188036715E-01 -0.2729671631436E+00
-0.1068306365116E+00 -0.3149699232478E+00
-0.1143618612960E+00 -0.3584643063171E+00
-0.1214048278948E+00 -0.4033577682371E+00
-0.1278724596609E+00 -0.4495732230328E+00
-0.1337309505588E+00 -0.4970230908486E+00
-0.1390002649859E+00 -0.5456142562933E+00
-0.1437387956742E+00 -0.5952626641036E+00
-0.1480265208178E+00 -0.6459044397114E+00
-0.1519522210693E+00 -0.6975008718568E+00
-0.1556038793074E+00 -0.7500412914026E+00
-0.1489231585406E-01 -0.2856151592648E-01
-0.2669978301187E-01 -0.4562647781565E-01
-0.3713726624386E-01 -0.6776826474942E-01
-0.4652304273508E-01 -0.9430287472164E-01
-0.5511431169317E-01 -0.1246286548884E+00
-0.6312255089073E-01 -0.1582057115370E+00
-0.7071731354503E-01 -0.1945452386176E+00
-0.7801973634801E-01 -0.2332137132933E+00
-0.8508923718270E-01 -0.2738538323055E+00
-0.9191444402286E-01 -0.3162112909595E+00
-0.9842406788334E-01 -0.3601369429417E+00
-0.1045231683562E+00 -0.4055471541020E+00
-0.1101371051705E+00 -0.4523708498891E+00
-0.1152373950493E+00 -0.5005244432501E+00
-0.1198423788853E+00 -0.5499187091072E+00
-0.1240040066536E+00 -0.6004752506187E+00
-0.1277930773132E+00 -0.6521388472121E+00
-0.1312877017868E+00 -0.7048828002130E+00
-0.1345641502153E+00 -0.7587110996639E+00
-0.1245328740628E-01 -0.2844046794217E-01
-0.2232119206898E-01 -0.4547652293762E-01
-0.3103987401769E-01 -0.6764091758076E-01
-0.3887860103231E-01 -0.9423768669253E-01
-0.4605425947820E-01 -0.1246594852231E+00
-0.5274485907828E-01 -0.1583650026933E+00
-0.5909313455111E-01 -0.1948673922419E+00
-0.6520133487505E-01 -0.2337381346050E+00
-0.7112011168589E-01 -0.2746276235759E+00
-0.7684078120198E-01 -0.3172910014957E+00
-0.8230427294206E-01 -0.3615886309906E+00
-0.8743149732592E-01 -0.4074447053393E+00
-0.9216030304837E-01 -0.4547935929513E+00
-0.9646734841361E-01 -0.5035555274131E+00
-0.1003688178646E+00 -0.5536450948650E+00
-0.1039093535916E+00 -0.6049892453649E+00
-0.1071495153406E+00 -0.6575406179283E+00
-0.1101557534572E+00 -0.7112831199378E+00
-0.1129921754595E+00 -0.7662334703486E+00
-0.9991063831530E-02 -0.2834144161747E-01
-0.1790407661520E-01 -0.4535469017638E-01
-0.2489268672289E-01 -0.6753895446644E-01
-0.3117498792430E-01 -0.9418823670596E-01
-0.3692618605527E-01 -0.1246904436607E+00
-0.4228987094808E-01 -0.1585031171866E+00
-0.4738118702727E-01 -0.1951410939043E+00
-0.5228279698400E-01 -0.2341800729632E+00
-0.5703597787786E-01 -0.2752768942841E+00
-0.6163431796746E-01 -0.3181945910195E+00
-0.6603080474537E-01 -0.3628014824115E+00
-0.7016221217644E-01 -0.4090283709363E+00
-0.7397887947714E-01 -0.4568143295981E+00
-0.7746241666084E-01 -0.5060830263477E+00
-0.8062637833079E-01 -0.5567525235836E+00
-0.8350736664513E-01 -0.6087545257985E+00
-0.8615483567235E-01 -0.6620484595058E+00
-0.8862279962223E-01 -0.7166271951293E+00
-0.9096287859752E-01 -0.7725180784194E+00
-0.7510011567345E-02 -0.2826442228408E-01
-0.1345573557088E-01 -0.4526045646888E-01
-0.1870519391925E-01 -0.6746103017661E-01
-0.2342353751872E-01 -0.9415218925048E-01
-0.2774317237526E-01 -0.1247180909380E+00
-0.3177248888372E-01 -0.1586153924722E+00
-0.3559840989482E-01 -0.1953602912459E+00
-0.3928344154886E-01 -0.2345318467260E+00
-0.4285898810051E-01 -0.2757920075429E+00
-0.4632056079105E-01 -0.3189100481338E+00
-0.4963305357048E-01 -0.3637605902440E+00
-0.5274908663563E-01 -0.4102797087147E+00
-0.5563146284925E-01 -0.4584102961829E+00
-0.5826656673007E-01 -0.5080788870113E+00
-0.6066492623027E-01 -0.5592064716987E+00
-0.6285451248867E-01 -0.6117286873181E+00
-0.6487299491175E-01 -0.6656104555774E+00
-0.6676136531195E-01 -0.7208517858448E+00
-0.6855852267906E-01 -0.7774884129387E+00
-0.5014678683637E-02 -0.2820940618881E-01
-0.8983738163519E-02 -0.4519342439751E-01
-0.1248719760942E-01 -0.6740610640763E-01
-0.1563591656234E-01 -0.9412773239974E-01
-0.1851864691595E-01 -0.1247397511549E+00
-0.2120798436470E-01 -0.1586981926540E+00
-0.2376214862169E-01 -0.1955202543417E+00
-0.2622305483393E-01 -0.2347874391828E+00
-0.2861185381165E-01 -0.2761653969413E+00
-0.3092570829061E-01 -0.3194279173520E+00
-0.3314129125837E-01 -0.3644541868121E+00
-0.3522703982659E-01 -0.4111841186284E+00
-0.3715818375552E-01 -0.4595634214495E+00
-0.3892573450518E-01 -0.5095207830018E+00
-0.4053688579208E-01 -0.5609794059782E+00
-0.4201053266336E-01 -0.6138778612220E+00
-0.4337206049331E-01 -0.6681851083597E+00
-0.4464901988826E-01 -0.7239063407788E+00
-0.4586742677594E-01 -0.7810833450335E+00
-0.2509749575533E-02 -0.2817639478630E-01
-0.4495856753675E-02 -0.4515331520985E-01
-0.6248734736946E-02 -0.6737344584801E-01
-0.7824042229702E-02 -0.9411357434299E-01
-0.9266300394033E-02 -0.1247535123030E+00
-0.1061190831044E-01 -0.1587489152977E+00
-0.1189005763888E-01 -0.1956175921845E+00
-0.1312177965553E-01 -0.2349425295596E+00
-0.1431771456617E-01 -0.2763916190216E+00
-0.1547649088199E-01 -0.3197413828259E+00
-0.1658646900904E-01 -0.3648737718254E+00
-0.1763187554948E-01 -0.4117310319330E+00
-0.1860033469943E-01 -0.4602605969736E+00
-0.1948737955170E-01 -0.5103924894270E+00
-0.2029666001289E-01 -0.5620512876899E+00
-0.2103769790721E-01 -0.6151773724543E+00
-0.2172326696537E-01 -0.6697421702865E+00
-0.2236720796558E-01 -0.7257540171542E+00
-0.2298255270301E-01 -0.7832583505767E+00
 0.4366716182275E-09 -0.2816539061332E-01
 0.6849466534441E-09 -0.4513996372159E-01
 0.8251783425711E-09 -0.6736260785893E-01
 0.8786044784278E-09 -0.9410894095259E-01
 0.8635646599015E-09 -0.1247582268714E+00
 0.7970547727506E-09 -0.1587659967138E+00
 0.6957959164037E-09 -0.1956502650538E+00
 0.5765028235950E-09 -0.2349945159763E+00
 0.4551192679652E-09 -0.2764673919175E+00
 0.3448010594094E-09 -0.3198463299089E+00
 0.2539559203749E-09 -0.3650142066180E+00
 0.1856278340819E-09 -0.4119140504678E+00
 0.1385922158029E-09 -0.4604938763188E+00
 0.1092740630442E-09 -0.5106841587263E+00
 0.9348875775251E-10 -0.5624099427277E+00
 0.8741350358079E-10 -0.6156122205265E+00
 0.8790389528594E-10 -0.6702632482680E+00
 0.9235193330410E-10 -0.7263724146050E+00
 0.9829461823888E-10 -0.7839863765434E+00
 0.2509750448068E-02 -0.2817639479438E-01
 0.4495858122364E-02 -0.4515331521854E-01
 0.6248736385935E-02 -0.6737344585415E-01
 0.7824043985516E-02 -0.9411357434516E-01
 0.9266302119827E-02 -0.1247535123010E+00
 0.1061190990333E-01 -0.1587489152922E+00
 0.1189005902941E-01 -0.1956175921768E+00
 0.1312178080765E-01 -0.2349425295513E+00
 0.1431771547571E-01 -0.2763916190140E+00
 0.1547649157106E-01 -0.3197413828203E+00
 0.1658646951657E-01 -0.3648737718222E+00
 0.1763187592047E-01 -0.4117310319324E+00
 0.1860033497644E-01 -0.4602605969755E+00
 0.1948737977013E-01 -0.5103924894312E+00
 0.2029666019979E-01 -0.5620512876960E+00
 0.2103769808198E-01 -0.6151773724620E+00
 0.2172326714116E-01 -0.6697421702956E+00
 0.2236720815034E-01 -0.7257540171647E+00
 0.2298255289980E-01 -0.7832583505889E+00
 0.5014679553755E-02 -0.2820940620495E-01
 0.8983739528606E-02 -0.4519342441492E-01
 0.1248719925431E-01 -0.6740610641998E-01
 0.1563591831398E-01 -0.9412773240421E-01
 0.1851864863775E-01 -0.1247397511511E+00
 0.2120798595395E-01 -0.1586981926432E+00
 0.2376215000904E-01 -0.1955202543265E+00
 0.2622305598339E-01 -0.2347874391662E+00
 0.2861185471908E-01 -0.2761653969263E+00
 0.3092570897807E-01 -0.3194279173408E+00
 0.3314129176475E-01 -0.3644541868059E+00
 0.3522704019678E-01 -0.4111841186274E+00
 0.3715818403199E-01 -0.4595634214535E+00
 0.3892573472325E-01 -0.5095207830102E+00
 0.4053688597873E-01 -0.5609794059905E+00
 0.4201053283796E-01 -0.6138778612374E+00
 0.4337206066905E-01 -0.6681851083780E+00
 0.4464902007318E-01 -0.7239063407999E+00
 0.4586742697333E-01 -0.7810833450578E+00
 0.7510012433461E-02 -0.2826442230830E-01
 0.1345573693000E-01 -0.4526045649507E-01
 0.1870519555735E-01 -0.6746103019534E-01
 0.2342353926343E-01 -0.9415218925749E-01
 0.2774317409042E-01 -0.1247180909326E+00
 0.3177249046691E-01 -0.1586153924564E+00
 0.3559841127688E-01 -0.1953602912234E+00
 0.3928344269392E-01 -0.2345318467015E+00
 0.4285898900443E-01 -0.2757920075208E+00
 0.4632056147587E-01 -0.3189100481173E+00
 0.4963305407495E-01 -0.3637605902348E+00
 0.5274908700451E-01 -0.4102797087134E+00
 0.5563146312485E-01 -0.4584102961890E+00
 0.5826656694756E-01 -0.5080788870241E+00
 0.6066492641653E-01 -0.5592064717172E+00
 0.6285451266302E-01 -0.6117286873414E+00
 0.6487299508739E-01 -0.6656104556050E+00
 0.6676136549715E-01 -0.7208517858765E+00
 0.6855852287745E-01 -0.7774884129754E+00
 0.9991064692098E-02 -0.2834144164977E-01
 0.1790407796603E-01 -0.4535469021148E-01
 0.2489268835156E-01 -0.6753895449178E-01
 0.3117498965936E-01 -0.9418823671587E-01
 0.3692618776119E-01 -0.1246904436542E+00
 0.4228987252284E-01 -0.1585031171662E+00
 0.4738118840198E-01 -0.1951410938751E+00
 0.5228279812293E-01 -0.2341800729312E+00
 0.5703597877691E-01 -0.2752768942552E+00
 0.6163431864860E-01 -0.3181945909980E+00
 0.6603080524720E-01 -0.3628014823997E+00
 0.7016221254352E-01 -0.4090283709349E+00
 0.7397887975155E-01 -0.4568143296065E+00
 0.7746241687755E-01 -0.5060830263650E+00
 0.8062637851652E-01 -0.5567525236085E+00
 0.8350736681913E-01 -0.6087545258298E+00
 0.8615483584790E-01 -0.6620484595429E+00
 0.8862279980782E-01 -0.7166271951719E+00
 0.9096287879732E-01 -0.7725180784687E+00
 0.1245328825981E-01 -0.2844046798255E-01
 0.2232119340929E-01 -0.4547652298175E-01
 0.3103987563433E-01 -0.6764091761304E-01
 0.3887860275509E-01 -0.9423768670580E-01
 0.4605426117234E-01 -0.1246594852161E+00
 0.5274486064227E-01 -0.1583650026691E+00
 0.5909313591642E-01 -0.1948673922066E+00
 0.6520133600615E-01 -0.2337381345662E+00
 0.7112011257873E-01 -0.2746276235408E+00
 0.7684078187843E-01 -0.3172910014697E+00
 0.8230427344053E-01 -0.3615886309767E+00
 0.8743149769072E-01 -0.4074447053381E+00
 0.9216030332130E-01 -0.4547935929624E+00
 0.9646734862937E-01 -0.5035555274351E+00
 0.1003688180497E+00 -0.5536450948965E+00
 0.1039093537652E+00 -0.6049892454045E+00
 0.1071495155160E+00 -0.6575406179750E+00
 0.1101557536433E+00 -0.7112831199915E+00
 0.1129921756611E+00 -0.7662334704107E+00
 0.1489231669913E-01 -0.2856151597495E-01
 0.2669978433949E-01 -0.4562647786901E-01
 0.3713726784601E-01 -0.6776826478905E-01
 0.4652304444301E-01 -0.9430287473888E-01
 0.5511431337304E-01 -0.1246286548816E+00
 0.6312255244169E-01 -0.1582057115097E+00
 0.7071731489896E-01 -0.1945452385770E+00
 0.7801973746963E-01 -0.2332137132484E+00
 0.8508923806802E-01 -0.2738538322649E+00
 0.9191444469366E-01 -0.3162112909296E+00
 0.9842406837779E-01 -0.3601369429259E+00
 0.1045231687183E+00 -0.4055471541014E+00
 0.1101371054417E+00 -0.4523708499031E+00
 0.1152373952639E+00 -0.5005244432772E+00
 0.1198423790697E+00 -0.5499187091456E+00
 0.1240040068268E+00 -0.6004752506669E+00
 0.1277930774886E+00 -0.6521388472688E+00
 0.1312877019735E+00 -0.7048828002781E+00
 0.1345641504190E+00 -0.7587110997390E+00
 0.1730400961994E-01 -0.2870461834552E-01
 0.3103288762708E-01 -0.4580521218067E-01
 0.4317576316497E-01 -0.6792265549588E-01
 0.5409739267935E-01 -0.9438666440462E-01
 0.6409369254966E-01 -0.1246021551147E+00
 0.7340849932153E-01 -0.1580309251335E+00
 0.8223728389518E-01 -0.1941819880585E+00
 0.9071925302240E-01 -0.2326161176697E+00
 0.9892188124370E-01 -0.2729671630982E+00
 0.1068306371758E+00 -0.3149699232146E+00
 0.1143618617858E+00 -0.3584643063001E+00
 0.1214048282537E+00 -0.4033577682375E+00
 0.1278724599301E+00 -0.4495732230499E+00
 0.1337309507723E+00 -0.4970230908809E+00
 0.1390002651696E+00 -0.5456142563389E+00
 0.1437387958470E+00 -0.5952626641605E+00
 0.1480265209931E+00 -0.6459044397782E+00
 0.1519522212568E+00 -0.6975008719334E+00
 0.1556038795136E+00 -0.7500412914909E+00
 0.1968449945762E-01 -0.2886983449348E-01
 0.3531394511553E-01 -0.4601352762086E-01
 0.4914672756336E-01 -0.6810607216737E-01
 0.6159122203112E-01 -0.9449245315253E-01
 0.7298026217886E-01 -0.1245849524025E+00
 0.8358879416746E-01 -0.1578473361457E+00
 0.9363719049337E-01 -0.1937862766570E+00
 0.1032818020527E+00 -0.2319562402187E+00
 0.1125973589887E+00 -0.2719811893736E+00
 0.1215656579862E+00 -0.3135836940019E+00
 0.1300905476370E+00 -0.3565914061655E+00
 0.1380456554065E+00 -0.4009019369032E+00
 0.1453315980070E+00 -0.4464318077052E+00
 0.1519090998915E+00 -0.4930895146441E+00
 0.1577991784503E+00 -0.5407782674113E+00
 0.1630656843580E+00 -0.5894083713772E+00
 0.1677965188357E+00 -0.6389068366896E+00
 0.1720898981018E+00 -0.6892218264615E+00
 0.1760448903436E+00 -0.7403262949906E+00
 0.2203023429916E-01 -0.2905725997558E-01
 0.3953686659912E-01 -0.4625238094237E-01
 0.5504206768481E-01 -0.6832082929125E-01
 0.6899468044899E-01 -0.9462417881764E-01
 0.8176247860537E-01 -0.1245827791482E+00
 0.9365014930619E-01 -0.1576626412401E+00
 0.1049018516974E+00 -0.1933679985541E+00
 0.1156900594016E+00 -0.2312465094957E+00
 0.1260958764178E+00 -0.2709113311531E+00
 0.1360968877611E+00 -0.3120715953292E+00
 0.1455843783180E+00 -0.3545415183018E+00
 0.1544165733070E+00 -0.3982080854571E+00
 0.1624820184128E+00 -0.4429812421483E+00
 0.1697358862658E+00 -0.4887658889684E+00
 0.1761996669085E+00 -0.5354621034534E+00
 0.1819415829673E+00 -0.5829749486729E+00
 0.1870560054493E+00 -0.6312222445659E+00
 0.1916490810370E+00 -0.6801382510591E+00
 0.1958300953330E+00 -0.7296780902716E+00
 0.2433802183224E-01 -0.2926703663454E-01
 0.4369609467282E-01 -0.4652289460917E-01
 0.6085430638885E-01 -0.6856958257996E-01
 0.7629856845402E-01 -0.9478632722839E-01
 0.9042946919942E-01 -0.1246021378011E+00
 0.1035799716714E+00 -0.1574855367243E+00
 0.1160168269873E+00 -0.1929382848785E+00
 0.1279275292752E+00 -0.2305008416648E+00
 0.1393986053432E+00 -0.2697747659972E+00
 0.1504028760536E+00 -0.3104546698510E+00
 0.1608190645061E+00 -0.3523402877151E+00
 0.1704903667901E+00 -0.3953073536750E+00
 0.1792936289621E+00 -0.4392592522260E+00
 0.1871784878614E+00 -0.4840978849522E+00
 0.1941663507638E+00 -0.5297210916015E+00
 0.2003286510826E+00 -0.5760295135996E+00
 0.2057645809586E+00 -0.6229321486621E+00
 0.2105864010280E+00 -0.6703489429281E+00
 0.2149124562114E+00 -0.7182159777570E+00
 0.2660507155445E-01 -0.2949936253727E-01
 0.4778666779478E-01 -0.4682636584578E-01
 0.6657665751667E-01 -0.6885533680893E-01
 0.8349441781928E-01 -0.9498394041704E-01
 0.9897110870648E-01 -0.1246503078384E+00
 0.1133664333500E+00 -0.1573257181415E+00
 0.1269684829657E+00 -0.1925094860563E+00
 0.1399786064772E+00 -0.2297345928555E+00
 0.1524877454502E+00 -0.2685903365089E+00
 0.1644634056891E+00 -0.3087558569082E+00
 0.1757718454449E+00 -0.3500154951742E+00
 0.1862417596258E+00 -0.3922332607349E+00
 0.1957388305085E+00 -0.4353061827127E+00
 0.2042073104190E+00 -0.4791340205170E+00
 0.2116680370398E+00 -0.5236136322877E+00
 0.2181944561961E+00 -0.5686425249317E+00
 0.2238887438338E+00 -0.6141217537066E+00
 0.2288670928225E+00 -0.6599569607063E+00
 0.2332553726827E+00 -0.7060642020424E+00
 0.2882903390146E-01 -0.2975450027810E-01
 0.5180428063940E-01 -0.4716427159017E-01
 0.7220309994111E-01 -0.6918145029156E-01
 0.9057457039671E-01 -0.9522262481214E-01
 0.1073780944281E+00 -0.1247353564456E+00
 0.1229985377335E+00 -0.1571938859518E+00
 0.1377440492654E+00 -0.1920951603981E+00
 0.1518286241825E+00 -0.2289645154942E+00
 0.1653465673765E+00 -0.2673784571619E+00
 0.1782595345411E+00 -0.3069998322590E+00
 0.1904215314458E+00 -0.3475968139438E+00
 0.2016474552072E+00 -0.3890213625399E+00
 0.2117925478812E+00 -0.4311645286486E+00
 0.2207960012111E+00 -0.4739250171976E+00
 0.2286777198708E+00 -0.5172003090897E+00
 0.2355119837357E+00 -0.5608865656340E+00
 0.2414019486753E+00 -0.6048783823269E+00
 0.2464651313295E+00 -0.6490676290274E+00
 0.2508329216044E+00 -0.6933496932576E+00
 0.3100803770676E-01 -0.3003278154943E-01
 0.5574534668729E-01 -0.4753826591107E-01
 0.7772845954956E-01 -0.6955163359463E-01
 0.9753226825212E-01 -0.9550855912089E-01
 0.1156420327120E+00 -0.1248661542977E+00
 0.1324661943905E+00 -0.1571017596446E+00
 0.1483316791005E+00 -0.1917100718400E+00
 0.1634639017446E+00 -0.2282087214007E+00
 0.1779594515319E+00 -0.2661610221203E+00
 0.1917736299250E+00 -0.3052128408335E+00
 0.2047485368937E+00 -0.3451155539044E+00
 0.2166861632632E+00 -0.3857088997529E+00
 0.2274322332183E+00 -0.4268784732203E+00
 0.2369214065269E+00 -0.4685231840307E+00
 0.2451724825190E+00 -0.5105430328121E+00
 0.2522595051410E+00 -0.5528351412728E+00
 0.2582844939608E+00 -0.5952898497830E+00
 0.2633631971070E+00 -0.6377864775230E+00
 0.2676299683862E+00 -0.6801995965026E+00
 0.3314071927965E-01 -0.3033460356555E-01
 0.5960705390414E-01 -0.4795016329069E-01
 0.8314848719172E-01 -0.6996993852370E-01
 0.1043617377460E+00 -0.9584850203326E-01
 0.1237555121368E+00 -0.1250523992933E+00
 0.1417602699906E+00 -0.1570621053733E+00
 0.1587204731320E+00 -0.1913702044642E+00
 0.1748717419130E+00 -0.2274866620218E+00
 0.1903118627854E+00 -0.2649613261676E+00
 0.2049893277547E+00 -0.3034225353142E+00
 0.2187348310163E+00 -0.3426044058150E+00
 0.2313385386277E+00 -0.3823344533527E+00
 0.2426377673409E+00 -0.4224934643343E+00
 0.2525633918256E+00 -0.4629818918730E+00
 0.2611332022390E+00 -0.5037043160885E+00
 0.2684201838966E+00 -0.5445616017580E+00
 0.2745231058499E+00 -0.5854429154079E+00
 0.2795523269241E+00 -0.6262171901315E+00
 0.2836419124509E+00 -0.6667386790525E+00
 0.3522623927003E-01 -0.3066040855534E-01
 0.6338741893377E-01 -0.4840189566268E-01
 0.8845994906530E-01 -0.7044073154239E-01
 0.1110582934733E+00 -0.9624979868710E-01
 0.1317121992924E+00 -0.1253046480769E+00
 0.1508726634919E+00 -0.1570887753932E+00
 0.1689005282629E+00 -0.1910927923452E+00
 0.1860404525345E+00 -0.2268191228391E+00
 0.2023903501600E+00 -0.2638039911459E+00
 0.2178915217093E+00 -0.3016578034784E+00
 0.2323639307262E+00 -0.3400971556059E+00
 0.2455871819059E+00 -0.3789375587970E+00
 0.2573914389692E+00 -0.4180557737102E+00
 0.2677047274360E+00 -0.4573550989321E+00
 0.2765442594292E+00 -0.4967466756777E+00
 0.2839815972050E+00 -0.5361381778691E+00
 0.2901103906198E+00 -0.5754217193037E+00
 0.2950314331820E+00 -0.6144594180981E+00
 0.2988742846803E+00 -0.6530865710369E+00
 0.3726428115395E-01 -0.3101062726747E-01
 0.6708533975495E-01 -0.4889542509836E-01
 0.9366072721679E-01 -0.7096864722489E-01
 0.1176184442425E+00 -0.9672039576396E-01
 0.1395069210478E+00 -0.1256343603761E+00
 0.1597963518201E+00 -0.1571967678149E+00
 0.1788629365132E+00 -0.1908963791582E+00
 0.1969592921052E+00 -0.2262282561456E+00
 0.2141824438036E+00 -0.2627149256134E+00
 0.2304662289766E+00 -0.2999486161220E+00
 0.2456207602113E+00 -0.3376284029359E+00
 0.2594165087670E+00 -0.3755583166089E+00
 0.2716778120684E+00 -0.4136120649744E+00
 0.2823308573961E+00 -0.4516970148211E+00
 0.2913930391803E+00 -0.4897323724931E+00
 0.2989348698233E+00 -0.5276354630376E+00
 0.3050437557630E+00 -0.5653064719044E+00
 0.3098063479458E+00 -0.6026065564255E+00
 0.3133419454640E+00 -0.6393551863537E+00
 0.3925500911619E-01 -0.3138554840651E-01
 0.7070065903980E-01 -0.4943255420815E-01
 0.9874995904804E-01 -0.7155853707502E-01
 0.1240400335386E+00 -0.9726886636973E-01
 0.1471357825276E+00 -0.1260539576089E+00
 0.1685254858038E+00 -0.1574022854907E+00
 0.1885998420719E+00 -0.1908009078996E+00
 0.2076184690661E+00 -0.2257376472183E+00
 0.2256766053475E+00 -0.2617213018418E+00
 0.2427005200560E+00 -0.2983258594472E+00
 0.2584915956347E+00 -0.3352332304291E+00
 0.2728127449336E+00 -0.3722369071482E+00
 0.2854837737122E+00 -0.4092088367370E+00
 0.2964299649693E+00 -0.4460616225423E+00
 0.3056697113467E+00 -0.4827234321783E+00
 0.3132737986398E+00 -0.5191224945597E+00
 0.3193239891039E+00 -0.5551724744358E+00
 0.3238885554910E+00 -0.5907429547458E+00
 0.3270686055784E+00 -0.6256452286047E+00
 0.4119896726378E-01 -0.3178488864018E-01
 0.7423427849454E-01 -0.5001463654922E-01
 0.1037282476931E+00 -0.7221538099439E-01
 0.1303223760048E+00 -0.9790457837244E-01
 0.1545962567241E+00 -0.1265768131414E+00
 0.1770554718279E+00 -0.1577228250545E+00
 0.1981044418817E+00 -0.1908278671274E+00
 0.2180090323602E+00 -0.2253724662583E+00
 0.2368620165166E+00 -0.2608516021923E+00
 0.2545822554642E+00 -0.2968212017707E+00
 0.2709638041588E+00 -0.3329468872776E+00
 0.2857636959651E+00 -0.3690131224863E+00
 0.2987984006623E+00 -0.4048917995478E+00
 0.3099929053423E+00 -0.4405021586696E+00
 0.3193672264993E+00 -0.4757815278104E+00
 0.3269938195833E+00 -0.5106686581595E+00
 0.3329525248318E+00 -0.5450909438587E+00
 0.3372924176365E+00 -0.5789406413971E+00
 0.3400859468012E+00 -0.6120407492675E+00
 0.4309669811121E-01 -0.3220717585393E-01
 0.7768853373999E-01 -0.5064112698623E-01
 0.1085980007809E+00 -0.7294527089153E-01
 0.1364662470247E+00 -0.9863748308191E-01
 0.1618873306132E+00 -0.1272172738885E+00
 0.1853830911383E+00 -0.1581772311524E+00
 0.2073710337235E+00 -0.1910005101999E+00
 0.2281227615842E+00 -0.2251597236798E+00
 0.2477283357452E+00 -0.2601357288923E+00
 0.2660998018614E+00 -0.2954669383298E+00
 0.2830256071979E+00 -0.3308043958188E+00
 0.2982585795168E+00 -0.3659258413703E+00
 0.3116128360280E+00 -0.4007051972588E+00
 0.3230134323565E+00 -0.4350700395549E+00
 0.3324816361567E+00 -0.4689675977717E+00
 0.3400929548791E+00 -0.5023441121256E+00
 0.3459282913707E+00 -0.5351378579551E+00
 0.3500277169445E+00 -0.5672571689411E+00
 0.3524324836796E+00 -0.5985931818128E+00
-0.1602902485413E+00 -0.1115498528866E+00
-0.2498412212866E+00 -0.1937143772104E+00
-0.3146207535644E+00 -0.2541411126916E+00
-0.3643612321072E+00 -0.3036328947425E+00
-0.4034408036693E+00 -0.3452843044215E+00
-0.4345734362675E+00 -0.3795999957806E+00
-0.4594019909133E+00 -0.4058563609643E+00
-0.4788185591183E+00 -0.4231741340772E+00
-0.4922847435023E+00 -0.4307610481460E+00
-0.4984333689956E+00 -0.4291723595440E+00
-0.4964140912065E+00 -0.4203736837239E+00
-0.4860658964723E+00 -0.4066270862760E+00
-0.4675507908079E+00 -0.3901380376186E+00
-0.4412688026516E+00 -0.3730306571345E+00
-0.4079257728015E+00 -0.3570951675064E+00
-0.3684759802594E+00 -0.3441641241585E+00
-0.3242133492156E+00 -0.3362545548874E+00
-0.2765948686695E+00 -0.3333371088006E+00
-0.2293597850262E+00 -0.3429948978599E+00
-0.1495615305733E+00 -0.9712440404203E-01
-0.2402346299341E+00 -0.1741889138932E+00
-0.3060864476453E+00 -0.2369362876641E+00
-0.3564254855904E+00 -0.2880464172276E+00
-0.3963060967898E+00 -0.3313343973891E+00
-0.4284717741852E+00 -0.3677235278029E+00
-0.4544764717873E+00 -0.3967111545520E+00
-0.4750971889420E+00 -0.4173674598656E+00
-0.4899732870945E+00 -0.4286799233706E+00
-0.4979595073204E+00 -0.4310295825632E+00
-0.4980826030742E+00 -0.4262288949698E+00
-0.4900743193148E+00 -0.4161903151418E+00
-0.4740371529144E+00 -0.4028821743384E+00
-0.4502828523644E+00 -0.3883292175028E+00
-0.4193985598838E+00 -0.3742944018906E+00
-0.3822130977867E+00 -0.3625775297483E+00
-0.3398800542663E+00 -0.3551440787447E+00
-0.2937615789535E+00 -0.3521129691937E+00
-0.2473734405413E+00 -0.3605402698240E+00
-0.1397555881481E+00 -0.8689157248641E-01
-0.2298856168079E+00 -0.1577136968732E+00
-0.2966504300233E+00 -0.2200485890054E+00
-0.3477113928296E+00 -0.2725669062742E+00
-0.3883241775381E+00 -0.3173466922383E+00
-0.4214132667998E+00 -0.3556059543972E+00
-0.4485158119831E+00 -0.3870135224510E+00
-0.4703669545378E+00 -0.4106479714645E+00
-0.4866797301096E+00 -0.4254178983735E+00
-0.4964547694461E+00 -0.4315256046034E+00
-0.4987194231507E+00 -0.4305635819152E+00
-0.4930967985355E+00 -0.4242066571446E+00
-0.4796117224251E+00 -0.4141721953985E+00
-0.4584932074314E+00 -0.4023179224397E+00
-0.4302179163797E+00 -0.3903383058341E+00
-0.3954880270736E+00 -0.3799790501565E+00
-0.3553101643149E+00 -0.3731534142291E+00
-0.3109296285488E+00 -0.3701132485845E+00
-0.2656106996349E+00 -0.3774890610097E+00
-0.1308307511264E+00 -0.7898236064702E-01
-0.2193277799255E+00 -0.1438023997149E+00
-0.2864431196181E+00 -0.2042420006510E+00
-0.3381920166034E+00 -0.2572824829078E+00
-0.3795013793602E+00 -0.3033410055459E+00
-0.4134168924940E+00 -0.3432556481464E+00
-0.4415325693998E+00 -0.3768083344018E+00
-0.4645860922979E+00 -0.4031089146814E+00
-0.4823327291343E+00 -0.4210527374516E+00
-0.4938492725705E+00 -0.4307178725045E+00
-0.4982186309098E+00 -0.4334559874130E+00
-0.4949956459767E+00 -0.4307227604787E+00
-0.4841195566106E+00 -0.4240131582897E+00
-0.4657343351110E+00 -0.4149911026167E+00
-0.4402139467897E+00 -0.4052378899130E+00
-0.4081356473259E+00 -0.3964177730228E+00
-0.3703559241893E+00 -0.3903776036475E+00
-0.3279858675317E+00 -0.3874804565289E+00
-0.2840064330004E+00 -0.3939858548782E+00
-0.1226677184103E+00 -0.7256217035628E-01
-0.2088245194776E+00 -0.1319108085427E+00
-0.2756824735395E+00 -0.1897334362564E+00
-0.3279015512813E+00 -0.2424624188853E+00
-0.3698402412772E+00 -0.2893722383196E+00
-0.4044980567434E+00 -0.3306974552189E+00
-0.4335358040219E+00 -0.3661361707099E+00
-0.4577305182282E+00 -0.3948209368262E+00
-0.4768724041098E+00 -0.4156657663997E+00
-0.4900716145137E+00 -0.4286740146461E+00
-0.4964871348423E+00 -0.4349672913440E+00
-0.4956443799706E+00 -0.4357882719182E+00
-0.4874054240339E+00 -0.4324268986972E+00
-0.4718299629586E+00 -0.4263512124392E+00
-0.4491957816353E+00 -0.4190007732183E+00
-0.4199598809048E+00 -0.4119292931233E+00
-0.3848289829500E+00 -0.4068963296995E+00
-0.3447714505714E+00 -0.4043414047285E+00
-0.3024548557134E+00 -0.4101915434025E+00
-0.1151522708540E+00 -0.6718471081820E-01
-0.1985048274207E+00 -0.1216172500053E+00
-0.2645592347332E+00 -0.1765136922808E+00
-0.3169318812866E+00 -0.2282959751979E+00
-0.3593622934473E+00 -0.2755613195190E+00
-0.3946697262294E+00 -0.3179789953140E+00
-0.4245340708321E+00 -0.3550400039528E+00
-0.4497853992873E+00 -0.3858435795161E+00
-0.4702524146100E+00 -0.4093305357042E+00
-0.4850571362343E+00 -0.4254635206663E+00
-0.4934397603369E+00 -0.4351562258676E+00
-0.4949271022601E+00 -0.4394483171148E+00
-0.4893197549370E+00 -0.4394387432252E+00
-0.4765998830999E+00 -0.4364047071936E+00
-0.4569575443719E+00 -0.4316297240263E+00
-0.4307371388546E+00 -0.4265345114415E+00
-0.3985006146753E+00 -0.4227680287909E+00
-0.3610740807983E+00 -0.4208071235403E+00
-0.3207857963201E+00 -0.4262691373330E+00
-0.1081877539587E+00 -0.6258165829264E-01
-0.1884302175499E+00 -0.1126088061691E+00
-0.2532211239027E+00 -0.1644906277299E+00
-0.3053964290912E+00 -0.2148810933314E+00
-0.3481180077769E+00 -0.2620319776946E+00
-0.3839519281934E+00 -0.3051781981635E+00
-0.4145368547174E+00 -0.3435730056754E+00
-0.4407424049886E+00 -0.3762330404959E+00
-0.4624380674731E+00 -0.4021129990860E+00
-0.4787509558761E+00 -0.4211522448791E+00
-0.4890007505788E+00 -0.4340792074777E+00
-0.4927384360423E+00 -0.4417445016168E+00
-0.4897215457880E+00 -0.4450710874736E+00
-0.4798659038738E+00 -0.4451549151920E+00
-0.4632851450301E+00 -0.4431185093223E+00
-0.4402223467345E+00 -0.4402353205242E+00
-0.4111045314119E+00 -0.4380234019812E+00
-0.3766241554887E+00 -0.4369597434349E+00
-0.3387499777075E+00 -0.4423592383658E+00
-0.1016944778055E+00 -0.5857806139995E-01
-0.1786273600316E+00 -0.1046512398603E+00
-0.2417786351719E+00 -0.1535481348902E+00
-0.2934092327025E+00 -0.2022510328401E+00
-0.3361799494280E+00 -0.2488829591691E+00
-0.3723799745763E+00 -0.2923859625439E+00
-0.4035591279849E+00 -0.3318034498932E+00
-0.4305991214786E+00 -0.3660492092345E+00
-0.4534047272432E+00 -0.3940753432949E+00
-0.4711086523771E+00 -0.4158013795820E+00
-0.4831051850980E+00 -0.4317887740241E+00
-0.4889849448429E+00 -0.4427142548267E+00
-0.4884810075569E+00 -0.4493410599725E+00
-0.4814568799767E+00 -0.4525972948491E+00
-0.4679633735319E+00 -0.4534468793233E+00
-0.4481568091547E+00 -0.4530093778263E+00
-0.4223436745997E+00 -0.4526570517095E+00
-0.3910979140913E+00 -0.4528363298203E+00
-0.3560153799473E+00 -0.4585512023193E+00
-0.9560693260687E-01 -0.5505280972932E-01
-0.1691045420996E+00 -0.9756577344540E-01
-0.2303138423885E+00 -0.1435695779016E+00
-0.2810756757788E+00 -0.1903989539240E+00
-0.3236331990107E+00 -0.2361823937387E+00
-0.3600059338069E+00 -0.2796903759433E+00
-0.3916266921241E+00 -0.3198103602322E+00
-0.4193608938261E+00 -0.3553602696494E+00
-0.4431373112742E+00 -0.3852810165659E+00
-0.4620964057988E+00 -0.4094695155097E+00
-0.4756998245689E+00 -0.4283335609336E+00
-0.4835866293170E+00 -0.4423902205252E+00
-0.4854823624770E+00 -0.4522592962868E+00
-0.4812135708435E+00 -0.4587170359867E+00
-0.4707831654237E+00 -0.4625771019267E+00
-0.4542775878698E+00 -0.4648055054709E+00
-0.4319008032186E+00 -0.4666199319697E+00
-0.4041279055938E+00 -0.4684139789940E+00
-0.3721763336625E+00 -0.4748575966639E+00
-0.8987110634798E-01 -0.5191815113220E-01
-0.1598603687575E+00 -0.9121315337570E-01
-0.2188879802459E+00 -0.1344466190609E+00
-0.2684894283866E+00 -0.1792949477199E+00
-0.3105677274584E+00 -0.2239710828819E+00
-0.3468960664901E+00 -0.2671677946226E+00
-0.3787792144242E+00 -0.3076760323761E+00
-0.4070440782648E+00 -0.3442424716969E+00
-0.4316313522756E+00 -0.3757986918555E+00
-0.4516915510780E+00 -0.4022161616503E+00
-0.4667438358000E+00 -0.4237601853521E+00
-0.4764782269573E+00 -0.4408009331269E+00
-0.4806264865391E+00 -0.4538298857672E+00
-0.4789933882884E+00 -0.4634883891756E+00
-0.4715490506646E+00 -0.4704525896251E+00
-0.4583279943039E+00 -0.4755412603559E+00
-0.4394520879672E+00 -0.4798146515501E+00
-0.4153196587126E+00 -0.4835997783439E+00
-0.3867737613603E+00 -0.4911973446449E+00
-0.8444229911023E-01 -0.4910821527457E-01
-0.1508885400341E+00 -0.8548288424767E-01
-0.2075472102297E+00 -0.1260819599533E+00
-0.2557322888780E+00 -0.1688968772674E+00
-0.2970733556003E+00 -0.2122682198966E+00
-0.3331269062409E+00 -0.2548793895177E+00
-0.3650706333323E+00 -0.2954794134126E+00
-0.3936788530449E+00 -0.3327766505933E+00
-0.4188952489679E+00 -0.3657033304029E+00
-0.4398839859529E+00 -0.3941048855426E+00
-0.4562098535160E+00 -0.4181162372490E+00
-0.4676104769613E+00 -0.4379730127141E+00
-0.4738332988670E+00 -0.4540518802902E+00
-0.4746748644061E+00 -0.4668757899966E+00
-0.4700865511954E+00 -0.4769987709603E+00
-0.4600686757511E+00 -0.4851033811927E+00
-0.4446825912207E+00 -0.4920949005494E+00
-0.4242724965873E+00 -0.4982276063896E+00
-0.3993229527487E+00 -0.5073899505019E+00
-0.7928341210061E-01 -0.4657217213914E-01
-0.1421805468438E+00 -0.8028588005458E-01
-0.1963268323580E+00 -0.1183895746205E+00
-0.2428752275366E+00 -0.1591570456772E+00
-0.2832367837028E+00 -0.2010769933010E+00
-0.3187814291073E+00 -0.2428709534759E+00
-0.3505677517731E+00 -0.2832916298533E+00
-0.3793106232989E+00 -0.3210437113282E+00
-0.4049526464254E+00 -0.3550745389707E+00
-0.4266782575729E+00 -0.3852046611981E+00
-0.4440855622787E+00 -0.4114531037539E+00
-0.4569515417246E+00 -0.4339343045489E+00
-0.4650439320262E+00 -0.4529223389970E+00
-0.4681616935244E+00 -0.4688369089218E+00
-0.4662492056340E+00 -0.4821263603842E+00
-0.4592886845079E+00 -0.4933513724136E+00
-0.4473024204329E+00 -0.5032693689324E+00
-0.4306021703740E+00 -0.5120621248346E+00
-0.4093446388168E+00 -0.5231605268521E+00
-0.7436363198136E-01 -0.4426994973888E-01
-0.1337272461179E+00 -0.7554937352054E-01
-0.1852543596317E+00 -0.1112939928712E+00
-0.2299798579185E+00 -0.1500262463909E+00
-0.2691400806513E+00 -0.1903893047518E+00
-0.3039459150926E+00 -0.2311743746487E+00
-0.3353479586615E+00 -0.2711736408319E+00
-0.3639999680932E+00 -0.3091205688013E+00
-0.3898441158463E+00 -0.3439933961138E+00
-0.4120957600355E+00 -0.3755891430508E+00
-0.4303756415087E+00 -0.4038275473706E+00
-0.4444886144601E+00 -0.4287169786622E+00
-0.4542226912713E+00 -0.4504403646029E+00
-0.4593862102317E+00 -0.4693274738622E+00
-0.4599248933916E+00 -0.4857370581782E+00
-0.4558159507243E+00 -0.5001242536873E+00
-0.4470624924463E+00 -0.5131099191971E+00
-0.4339632606047E+00 -0.5248091276876E+00
-0.4163955958841E+00 -0.5381537262651E+00
-0.6965738366977E-01 -0.4216942284021E-01
-0.1255197569110E+00 -0.7121329916447E-01
-0.1743517210383E+00 -0.1047292632768E+00
-0.2170999088933E+00 -0.1414561669648E+00
-0.2548600544322E+00 -0.1801894626466E+00
-0.2887075599228E+00 -0.2198097737248E+00
-0.3194966786689E+00 -0.2591755174478E+00
-0.3478214347950E+00 -0.2970772027421E+00
-0.3736277343902E+00 -0.3325389261314E+00
-0.3961764438184E+00 -0.3653343795907E+00
-0.4151036594941E+00 -0.3953015794519E+00
-0.4302294866310E+00 -0.4223596443726E+00
-0.4413586182099E+00 -0.4466112802006E+00
-0.4483120179560E+00 -0.4683073791852E+00
-0.4510410260662E+00 -0.4877315727429E+00
-0.4495265958786E+00 -0.5052504183802E+00
-0.4437691320630E+00 -0.5213635762219E+00
-0.4340699223857E+00 -0.5361308273760E+00
-0.4200960141134E+00 -0.5519540610368E+00
-0.6514350890005E-01 -0.4024451217344E-01
-0.1175499978372E+00 -0.6722770020922E-01
-0.1636368977239E+00 -0.9863791955125E-01
-0.2042826145381E+00 -0.1334008240279E+00
-0.2404682103018E+00 -0.1704570203432E+00
-0.2731528237902E+00 -0.2087878117764E+00
-0.3031049857818E+00 -0.2473368609953E+00
-0.3308616767431E+00 -0.2849750128019E+00
-0.3563786468313E+00 -0.3207850931603E+00
-0.3789797798729E+00 -0.3545157941320E+00
-0.3983136248251E+00 -0.3859407210787E+00
-0.4142038513526E+00 -0.4149077727605E+00
-0.4264663818575E+00 -0.4414498634840E+00
-0.4349353087268E+00 -0.4657472492458E+00
-0.4395679402086E+00 -0.4880195646631E+00
-0.4403524108402E+00 -0.5085606719152E+00
-0.4372970192407E+00 -0.5277679182105E+00
-0.4307144231644E+00 -0.5456645979705E+00
-0.4201521010951E+00 -0.5641098614466E+00
-0.6080458992831E-01 -0.3847385609637E-01
-0.1098109850155E+00 -0.6355083149918E-01
-0.1531251288761E+00 -0.9297004145314E-01
-0.1915699368197E+00 -0.1258173968189E+00
-0.2260310278490E+00 -0.1611689169573E+00
-0.2573663517696E+00 -0.1981118763210E+00
-0.2862675288317E+00 -0.2356878967885E+00
-0.3132172785545E+00 -0.2728663454668E+00
-0.3381878074773E+00 -0.3087988246621E+00
-0.3605849220357E+00 -0.3432053002623E+00
-0.3800710815918E+00 -0.3758111767835E+00
-0.3964642777019E+00 -0.4064120472027E+00
-0.4095863339518E+00 -0.4349813718367E+00
-0.4192841803172E+00 -0.4616339455839E+00
-0.4255193358597E+00 -0.4865310664175E+00
-0.4282851942215E+00 -0.5099045729907E+00
-0.4275999709077E+00 -0.5320708379756E+00
-0.4237839978103E+00 -0.5530438506243E+00
-0.4163740202929E+00 -0.5741583877766E+00
-0.5662636969297E-01 -0.3683987005403E-01
-0.1022969823493E+00 -0.6014778077260E-01
-0.1428298172814E+00 -0.8768243785289E-01
-0.1789996201173E+00 -0.1186667127365E+00
-0.2116104187922E+00 -0.1523011001992E+00
-0.2414303442710E+00 -0.1877800351847E+00
-0.2690808382586E+00 -0.2242508782300E+00
-0.2949925248625E+00 -0.2607949095600E+00
-0.3191601388085E+00 -0.2966392767312E+00
-0.3410901428474E+00 -0.3314693848260E+00
-0.3604638308549E+00 -0.3649769094388E+00
-0.3770872123491E+00 -0.3969248728598E+00
-0.3907841656002E+00 -0.4272389230790E+00
-0.4014158512027E+00 -0.4559721259744E+00
-0.4089475922625E+00 -0.4832266970559E+00
-0.4133752877996E+00 -0.5091721224997E+00
-0.4147177229496E+00 -0.5340559381442E+00
-0.4132777545126E+00 -0.5579239722211E+00
-0.4086922115527E+00 -0.5816477198948E+00
-0.5259721392413E-01 -0.3532818951591E-01
-0.9500357015770E-01 -0.5698945317236E-01
-0.1327632257129E+00 -0.8273798620803E-01
-0.1666060899155E+00 -0.1119134553327E+00
-0.1972642534642E+00 -0.1438298504801E+00
-0.2254242922301E+00 -0.1777867440428E+00
-0.2516420354343E+00 -0.2130415206237E+00
-0.2762972756417E+00 -0.2487966524365E+00
-0.2994122672072E+00 -0.2843581889240E+00
-0.3206115323488E+00 -0.3193687880626E+00
-0.3396022765811E+00 -0.3534981138139E+00
-0.3561745268475E+00 -0.3864966531656E+00
-0.3701517757821E+00 -0.4182570079225E+00
-0.3814133695545E+00 -0.4487773675644E+00
-0.3899339831414E+00 -0.4780986328878E+00
-0.3957156043421E+00 -0.5063151098010E+00
-0.3987728947208E+00 -0.5335906553031E+00
-0.3993249089519E+00 -0.5600140404775E+00
-0.3971811297549E+00 -0.5861624467619E+00
-0.4870746931961E-01 -0.3392724389098E-01
-0.8792772841814E-01 -0.5405256143744E-01
-0.1229371692150E+00 -0.7810439393169E-01
-0.1544210548376E+00 -0.1055264438996E+00
-0.1830469188377E+00 -0.1357328793961E+00
-0.2094249899246E+00 -0.1681245057390E+00
-0.2340480113172E+00 -0.2020703150555E+00
-0.2572451054386E+00 -0.2369005573887E+00
-0.2790699473248E+00 -0.2720006914501E+00
-0.2992807796968E+00 -0.3069597500705E+00
-0.3176189088540E+00 -0.3414325968203E+00
-0.3338555680876E+00 -0.3751752731735E+00
-0.3478110815937E+00 -0.4080651508369E+00
-0.3593874975522E+00 -0.4400599995768E+00
-0.3685790463906E+00 -0.4711477680938E+00
-0.3754136803354E+00 -0.5013395731446E+00
-0.3799165197134E+00 -0.5306795597391E+00
-0.3821966897369E+00 -0.5592132395991E+00
-0.3821230196926E+00 -0.5873163948990E+00
 0.4870746997828E-01 -0.3392724408297E-01
 0.8792772944271E-01 -0.5405256170920E-01
 0.1229371704501E+00 -0.7810439422718E-01
 0.1544210561542E+00 -0.1055264441802E+00
 0.1830469201347E+00 -0.1357328796405E+00
 0.2094249911289E+00 -0.1681245059425E+00
 0.2340480123826E+00 -0.2020703152256E+00
 0.2572451063440E+00 -0.2369005575402E+00
 0.2790699480661E+00 -0.2720006916030E+00
 0.2992807802872E+00 -0.3069597502426E+00
 0.3176189093214E+00 -0.3414325970199E+00
 0.3338555684631E+00 -0.3751752734030E+00
 0.3478110819048E+00 -0.4080651510964E+00
 0.3593874978204E+00 -0.4400599998649E+00
 0.3685790466314E+00 -0.4711477684087E+00
 0.3754136805570E+00 -0.5013395734866E+00
 0.3799165199209E+00 -0.5306795601105E+00
 0.3821966899342E+00 -0.5592132400077E+00
 0.3821230198555E+00 -0.5873163953718E+00
 0.5259721458812E-01 -0.3532818972722E-01
 0.9500357118666E-01 -0.5698945348491E-01
 0.1327632269502E+00 -0.8273798656568E-01
 0.1666060912338E+00 -0.1119134556947E+00
 0.1972642547666E+00 -0.1438298508227E+00
 0.2254242934485E+00 -0.1777867443583E+00
 0.2516420365273E+00 -0.2130415209158E+00
 0.2762972765920E+00 -0.2487966527151E+00
 0.2994122680075E+00 -0.2843581892077E+00
 0.3206115330060E+00 -0.3193687883699E+00
 0.3396022771197E+00 -0.3534981141519E+00
 0.3561745272942E+00 -0.3864966535356E+00
 0.3701517761599E+00 -0.4182570083247E+00
 0.3814133698801E+00 -0.4487773679980E+00
 0.3899339834268E+00 -0.4780986333526E+00
 0.3957156045917E+00 -0.5063151103007E+00
 0.3987728949392E+00 -0.5335906558431E+00
 0.3993249091446E+00 -0.5600140410673E+00
 0.3971811298644E+00 -0.5861624474682E+00
 0.5662637036412E-01 -0.3683987028600E-01
 0.1022969833842E+00 -0.6014778112917E-01
 0.1428298185215E+00 -0.8768243827695E-01
 0.1789996214371E+00 -0.1186667131846E+00
 0.2116104200986E+00 -0.1523011006442E+00
 0.2414303455011E+00 -0.1877800356152E+00
 0.2690808393755E+00 -0.2242508786452E+00
 0.2949925258519E+00 -0.2607949099644E+00
 0.3191601396596E+00 -0.2966392771407E+00
 0.3410901435615E+00 -0.3314693852587E+00
 0.3604638314527E+00 -0.3649769099002E+00
 0.3770872128532E+00 -0.3969248733502E+00
 0.3907841660289E+00 -0.4272389235988E+00
 0.4014158515683E+00 -0.4559721265240E+00
 0.4089475925736E+00 -0.4832266976361E+00
 0.4133752880579E+00 -0.5091721231172E+00
 0.4147177231591E+00 -0.5340559388056E+00
 0.4132777546785E+00 -0.5579239729360E+00
 0.4086922115990E+00 -0.5816477207870E+00
 0.6080459060878E-01 -0.3847385635029E-01
 0.1098109860579E+00 -0.6355083190293E-01
 0.1531251301196E+00 -0.9297004194777E-01
 0.1915699381403E+00 -0.1258173973573E+00
 0.2260310291576E+00 -0.1611689175080E+00
 0.2573663530081E+00 -0.1981118768682E+00
 0.2862675299672E+00 -0.2356878973262E+00
 0.3132172795756E+00 -0.2728663459936E+00
 0.3381878083697E+00 -0.3087988251901E+00
 0.3605849227954E+00 -0.3432053008083E+00
 0.3800710822357E+00 -0.3758111773511E+00
 0.3964642782484E+00 -0.4064120477917E+00
 0.4095863344144E+00 -0.4349813724478E+00
 0.4192841807037E+00 -0.4616339462184E+00
 0.4255193361757E+00 -0.4865310670773E+00
 0.4282851944656E+00 -0.5099045736843E+00
 0.4275999710825E+00 -0.5320708387107E+00
 0.4237839979190E+00 -0.5530438514120E+00
 0.4163740202578E+00 -0.5741583888092E+00
 0.6514350959217E-01 -0.4024451245065E-01
 0.1175499988886E+00 -0.6722770066324E-01
 0.1636368989709E+00 -0.9863792012031E-01
 0.2042826158581E+00 -0.1334008246600E+00
 0.2404682116099E+00 -0.1704570210016E+00
 0.2731528250327E+00 -0.2087878124403E+00
 0.3031049869299E+00 -0.2473368616528E+00
 0.3308616777874E+00 -0.2849750134454E+00
 0.3563786477544E+00 -0.3207850937973E+00
 0.3789797806659E+00 -0.3545157947769E+00
 0.3983136255013E+00 -0.3859407217338E+00
 0.4142038519259E+00 -0.4149077734248E+00
 0.4264663823361E+00 -0.4414498641589E+00
 0.4349353091141E+00 -0.4657472499336E+00
 0.4395679405065E+00 -0.4880195653664E+00
 0.4403524110438E+00 -0.5085606726447E+00
 0.4372970193503E+00 -0.5277679189754E+00
 0.4307144231802E+00 -0.5456645987846E+00
 0.4201521009539E+00 -0.5641098625775E+00
 0.6965738437598E-01 -0.4216942314208E-01
 0.1255197579726E+00 -0.7121329967179E-01
 0.1743517222885E+00 -0.1047292639237E+00
 0.2170999102109E+00 -0.1414561676931E+00
 0.2548600557362E+00 -0.1801894634134E+00
 0.2887075611643E+00 -0.2198097745033E+00
 0.3194966798225E+00 -0.2591755182202E+00
 0.3478214358533E+00 -0.2970772034943E+00
 0.3736277353329E+00 -0.3325389268655E+00
 0.3961764446324E+00 -0.3653343803182E+00
 0.4151036601887E+00 -0.3953015801738E+00
 0.4302294872149E+00 -0.4223596450880E+00
 0.4413586186861E+00 -0.4466112809116E+00
 0.4483120183227E+00 -0.4683073798954E+00
 0.4510410263213E+00 -0.4877315734558E+00
 0.4495265960130E+00 -0.5052504191091E+00
 0.4437691320741E+00 -0.5213635769787E+00
 0.4340699222705E+00 -0.5361308281787E+00
 0.4200960138371E+00 -0.5519540622306E+00
 0.7436363270407E-01 -0.4426995006681E-01
 0.1337272471907E+00 -0.7554937408404E-01
 0.1852543608841E+00 -0.1112939935988E+00
 0.2299798592309E+00 -0.1500262472168E+00
 0.2691400819469E+00 -0.1903893056257E+00
 0.3039459163272E+00 -0.2311743755377E+00
 0.3353479598129E+00 -0.2711736417117E+00
 0.3639999691558E+00 -0.3091205696518E+00
 0.3898441167974E+00 -0.3439933969308E+00
 0.4120957608581E+00 -0.3755891438426E+00
 0.4303756422078E+00 -0.4038275481376E+00
 0.4444886150386E+00 -0.4287169794041E+00
 0.4542226917262E+00 -0.4504403653229E+00
 0.4593862105560E+00 -0.4693274745654E+00
 0.4599248935783E+00 -0.4857370588701E+00
 0.4558159507602E+00 -0.5001242543845E+00
 0.4470624923252E+00 -0.5131099199156E+00
 0.4339632603208E+00 -0.5248091284507E+00
 0.4163955954418E+00 -0.5381537274942E+00
 0.7928341284207E-01 -0.4657217249455E-01
 0.1421805479284E+00 -0.8028588067691E-01
 0.1963268336110E+00 -0.1183895754309E+00
 0.2428752288404E+00 -0.1591570466004E+00
 0.2832367849850E+00 -0.2010769942787E+00
 0.3187814303286E+00 -0.2428709544685E+00
 0.3505677529145E+00 -0.2832916308306E+00
 0.3793106243563E+00 -0.3210437122640E+00
 0.4049526473741E+00 -0.3550745398543E+00
 0.4266782583925E+00 -0.3852046620345E+00
 0.4440855629688E+00 -0.4114531045437E+00
 0.4569515422818E+00 -0.4339343052930E+00
 0.4650439324411E+00 -0.4529223397002E+00
 0.4681616937843E+00 -0.4688369095916E+00
 0.4662492057268E+00 -0.4821263610288E+00
 0.4592886844160E+00 -0.4933513730545E+00
 0.4473024201471E+00 -0.5032693695908E+00
 0.4306021698866E+00 -0.5120621255403E+00
 0.4093446381786E+00 -0.5231605280986E+00
 0.8444229987240E-01 -0.4910821565885E-01
 0.1508885411302E+00 -0.8548288493114E-01
 0.2075472114807E+00 -0.1260819608474E+00
 0.2557322901688E+00 -0.1688968782859E+00
 0.2970733568636E+00 -0.2122682209721E+00
 0.3331269074422E+00 -0.2548793906045E+00
 0.3650706344561E+00 -0.2954794144748E+00
 0.3936788540881E+00 -0.3327766515993E+00
 0.4188952499042E+00 -0.3657033313352E+00
 0.4398839867584E+00 -0.3941048864031E+00
 0.4562098541842E+00 -0.4181162380393E+00
 0.4676104774817E+00 -0.4379730134368E+00
 0.4738332992237E+00 -0.4540518809528E+00
 0.4746748645803E+00 -0.4668757906099E+00
 0.4700865511699E+00 -0.4769987715365E+00
 0.4600686755045E+00 -0.4851033817593E+00
 0.4446825907413E+00 -0.4920949011344E+00
 0.4242724958666E+00 -0.4982276070302E+00
 0.3993229518887E+00 -0.5073899517582E+00
 0.8987110713231E-01 -0.5191815154672E-01
 0.1598603698639E+00 -0.9121315412210E-01
 0.2188879814913E+00 -0.1344466200381E+00
 0.2684894296592E+00 -0.1792949488290E+00
 0.3105677286969E+00 -0.2239710840463E+00
 0.3468960676651E+00 -0.2671677957911E+00
 0.3787792155233E+00 -0.3076760335082E+00
 0.4070440792859E+00 -0.3442424727561E+00
 0.4316313531906E+00 -0.3757986928174E+00
 0.4516915518594E+00 -0.4022161625141E+00
 0.4667438364343E+00 -0.4237601861210E+00
 0.4764782274263E+00 -0.4408009338064E+00
 0.4806264868199E+00 -0.4538298863680E+00
 0.4789933883567E+00 -0.4634883897132E+00
 0.4715490504984E+00 -0.4704525901170E+00
 0.4583279938784E+00 -0.4755412608369E+00
 0.4394520872697E+00 -0.4798146520565E+00
 0.4153196577356E+00 -0.4835997789212E+00
 0.3867737602587E+00 -0.4911973459132E+00
 0.9560693341407E-01 -0.5505281017533E-01
 0.1691045432140E+00 -0.9756577425582E-01
 0.2303138436236E+00 -0.1435695789596E+00
 0.2810756770274E+00 -0.1903989551162E+00
 0.3236332002184E+00 -0.2361823949800E+00
 0.3600059349499E+00 -0.2796903771782E+00
 0.3916266931927E+00 -0.3198103614171E+00
 0.4193608948184E+00 -0.3553602707434E+00
 0.4431373121604E+00 -0.3852810175377E+00
 0.4620964065473E+00 -0.4094695163560E+00
 0.4756998251580E+00 -0.4283335616604E+00
 0.4835866297206E+00 -0.4423902211414E+00
 0.4854823626656E+00 -0.4522592968076E+00
 0.4812135707875E+00 -0.4587170364333E+00
 0.4707831650969E+00 -0.4625771023233E+00
 0.4542775872455E+00 -0.4648055058613E+00
 0.4319008022844E+00 -0.4666199323992E+00
 0.4041279043455E+00 -0.4684139795177E+00
 0.3721763323078E+00 -0.4748575979556E+00
 0.1016944786353E+00 -0.5857806187856E-01
 0.1786273611503E+00 -0.1046512407348E+00
 0.2417786363905E+00 -0.1535481360240E+00
 0.2934092339209E+00 -0.2022510341042E+00
 0.3361799505996E+00 -0.2488829604714E+00
 0.3723799756827E+00 -0.2923859638274E+00
 0.4035591290187E+00 -0.3318034511121E+00
 0.4305991224369E+00 -0.3660492103442E+00
 0.4534047280944E+00 -0.3940753442567E+00
 0.4711086530849E+00 -0.4158013803907E+00
 0.4831051856317E+00 -0.4317887746892E+00
 0.4889849451683E+00 -0.4427142553616E+00
 0.4884810076383E+00 -0.4493410603979E+00
 0.4814568797799E+00 -0.4525972951932E+00
 0.4679633730278E+00 -0.4534468796183E+00
 0.4481568083160E+00 -0.4530093781262E+00
 0.4223436734165E+00 -0.4526570520694E+00
 0.3910979125650E+00 -0.4528363303054E+00
 0.3560153783376E+00 -0.4585512036528E+00
 0.1081877548094E+00 -0.6258165880474E-01
 0.1884302186671E+00 -0.1126088071061E+00
 0.2532211250976E+00 -0.1644906289309E+00
 0.3053964302730E+00 -0.2148810946518E+00
 0.3481180089081E+00 -0.2620319790384E+00
 0.3839519292605E+00 -0.3051781994753E+00
 0.4145368557135E+00 -0.3435730069088E+00
 0.4407424059093E+00 -0.3762330416020E+00
 0.4624380682845E+00 -0.4021130000181E+00
 0.4787509565364E+00 -0.4211522456309E+00
 0.4890007510477E+00 -0.4340792080631E+00
 0.4927384362777E+00 -0.4417445020547E+00
 0.4897215457490E+00 -0.4450710877911E+00
 0.4798659035224E+00 -0.4451549154256E+00
 0.4632851443355E+00 -0.4431185095133E+00
 0.4402223456708E+00 -0.4402353207377E+00
 0.4111045299736E+00 -0.4380234022827E+00
 0.3766241536856E+00 -0.4369597438992E+00
 0.3387499758497E+00 -0.4423592397641E+00
 0.1151522717218E+00 -0.6718471136436E-01
 0.1985048285286E+00 -0.1216172510010E+00
 0.2645592358960E+00 -0.1765136935357E+00
 0.3169318824261E+00 -0.2282959765535E+00
 0.3593622945357E+00 -0.2755613208814E+00
 0.3946697272563E+00 -0.3179789966329E+00
 0.4245340717895E+00 -0.3550400051812E+00
 0.4497854001682E+00 -0.3858435805995E+00
 0.4702524153781E+00 -0.4093305365877E+00
 0.4850571368414E+00 -0.4254635213430E+00
 0.4934397607325E+00 -0.4351562263570E+00
 0.4949271023951E+00 -0.4394483174421E+00
 0.4893197547660E+00 -0.4394387434251E+00
 0.4765998825825E+00 -0.4364047073120E+00
 0.4569575434771E+00 -0.4316297241140E+00
 0.4307371375597E+00 -0.4265345115754E+00
 0.3985006129816E+00 -0.4227680290467E+00
 0.3610740787265E+00 -0.4208071240023E+00
 0.3207857942291E+00 -0.4262691388208E+00
 0.1226677192891E+00 -0.7256217093653E-01
 0.2088245205656E+00 -0.1319108095895E+00
 0.2756824746612E+00 -0.1897334375448E+00
 0.3279015523748E+00 -0.2424624202492E+00
 0.3698402423231E+00 -0.2893722396755E+00
 0.4044980577314E+00 -0.3306974565237E+00
 0.4335358049411E+00 -0.3661361719143E+00
 0.4577305190687E+00 -0.3948209378682E+00
 0.4768724048324E+00 -0.4156657672159E+00
 0.4900716150628E+00 -0.4286740152307E+00
 0.4964871351571E+00 -0.4349672917230E+00
 0.4956443799961E+00 -0.4357882721237E+00
 0.4874054237212E+00 -0.4324268987723E+00
 0.4718299622663E+00 -0.4263512124398E+00
 0.4491957805340E+00 -0.4190007732056E+00
 0.4199598793768E+00 -0.4119292931860E+00
 0.3848289810054E+00 -0.4068963299231E+00
 0.3447714482438E+00 -0.4043414052050E+00
 0.3024548534092E+00 -0.4101915450032E+00
 0.1308307520059E+00 -0.7898236126043E-01
 0.2193277809799E+00 -0.1438024007989E+00
 0.2864431206903E+00 -0.2042420019430E+00
 0.3381920176503E+00 -0.2572824842475E+00
 0.3795013803668E+00 -0.3033410068698E+00
 0.4134168934459E+00 -0.3432556494175E+00
 0.4415325702824E+00 -0.3768083355639E+00
 0.4645860930989E+00 -0.4031089156634E+00
 0.4823327298109E+00 -0.4210527381823E+00
 0.4938492730577E+00 -0.4307178729814E+00
 0.4982186311370E+00 -0.4334559876690E+00
 0.4949956458846E+00 -0.4307227605534E+00
 0.4841195561483E+00 -0.4240131582350E+00
 0.4657343342375E+00 -0.4149911024992E+00
 0.4402139454786E+00 -0.4052378898042E+00
 0.4081356455664E+00 -0.3964177730231E+00
 0.3703559220020E+00 -0.3903776038509E+00
 0.3279858649640E+00 -0.3874804570336E+00
 0.2840064305054E+00 -0.3939858566127E+00
 0.1397555890125E+00 -0.8689157312998E-01
 0.2298856178124E+00 -0.1577136979688E+00
 0.2966504310410E+00 -0.2200485902580E+00
 0.3477113938342E+00 -0.2725669075543E+00
 0.3883241785109E+00 -0.3173466935080E+00
 0.4214132677196E+00 -0.3556059556164E+00
 0.4485158128320E+00 -0.3870135235522E+00
 0.4703669553022E+00 -0.4106479723674E+00
 0.4866797307410E+00 -0.4254178990016E+00
 0.4964547698678E+00 -0.4315256049592E+00
 0.4987194232843E+00 -0.4305635820380E+00
 0.4930967983190E+00 -0.4242066570810E+00
 0.4796117218070E+00 -0.4141721952106E+00
 0.4584932063724E+00 -0.4023179222050E+00
 0.4302179148582E+00 -0.3903383056341E+00
 0.3954880250868E+00 -0.3799790501026E+00
 0.3553101618952E+00 -0.3731534144226E+00
 0.3109296257573E+00 -0.3701132491281E+00
 0.2656106969709E+00 -0.3774890628954E+00
 0.1495615313983E+00 -0.9712440470705E-01
 0.2402346308717E+00 -0.1741889149513E+00
 0.3060864486115E+00 -0.2369362888201E+00
 0.3564254865617E+00 -0.2880464184189E+00
 0.3963060977352E+00 -0.3313343985867E+00
 0.4284717750771E+00 -0.3677235289524E+00
 0.4544764726069E+00 -0.3967111555731E+00
 0.4750971896751E+00 -0.4173674606704E+00
 0.4899732876825E+00 -0.4286799238808E+00
 0.4979595076729E+00 -0.4310295827872E+00
 0.4980826031087E+00 -0.4262288949505E+00
 0.4900743189684E+00 -0.4161903149340E+00
 0.4740371521359E+00 -0.4028821740155E+00
 0.4502828511176E+00 -0.3883292171531E+00
 0.4193985581532E+00 -0.3742944016039E+00
 0.3822130955786E+00 -0.3625775296465E+00
 0.3398800516256E+00 -0.3551440789360E+00
 0.2937615759537E+00 -0.3521129697841E+00
 0.2473734377281E+00 -0.3605402718763E+00
 0.1602902492877E+00 -0.1115498535459E+00
 0.2498412221516E+00 -0.1937143781271E+00
 0.3146207544937E+00 -0.2541411137016E+00
 0.3643612330559E+00 -0.3036328958266E+00
 0.4034408045939E+00 -0.3452843055310E+00
 0.4345734371366E+00 -0.3795999968419E+00
 0.4594019917106E+00 -0.4058563618839E+00
 0.4788185598286E+00 -0.4231741347649E+00
 0.4922847440483E+00 -0.4307610485274E+00
 0.4984333692746E+00 -0.4291723596276E+00
 0.4964140911375E+00 -0.4203736835536E+00
 0.4860658959918E+00 -0.4066270859199E+00
 0.4675507898656E+00 -0.3901380371607E+00
 0.4412688012159E+00 -0.3730306566720E+00
 0.4079257708643E+00 -0.3570951671365E+00
 0.3684759778373E+00 -0.3441641240129E+00
 0.3242133463658E+00 -0.3362545550811E+00
 0.2765948654753E+00 -0.3333371094446E+00
 0.2293597820816E+00 -0.3429949000953E+00
-0.3697469751573E+00 -0.6307995724255E+00
-0.3828023313481E+00 -0.6294376349349E+00
-0.3920871353852E+00 -0.6245943743200E+00
-0.3974709483611E+00 -0.6165735256006E+00
-0.3988585571976E+00 -0.6058066431163E+00
-0.3962780497762E+00 -0.5927898559670E+00
-0.3898850623854E+00 -0.5780560279870E+00
-0.3799676989201E+00 -0.5621472968489E+00
-0.3669383448853E+00 -0.5455842079726E+00
-0.3513143762531E+00 -0.5288337057641E+00
-0.3336869957849E+00 -0.5122789984554E+00
-0.3146792740858E+00 -0.4961946349065E+00
-0.2948962948186E+00 -0.4807305077228E+00
-0.2748732624521E+00 -0.4659086866911E+00
-0.2550309000562E+00 -0.4516362757606E+00
-0.2356497859242E+00 -0.4377349392941E+00
-0.2168733072230E+00 -0.4239830005819E+00
-0.1987409895437E+00 -0.4101611270253E+00
-0.1812418832485E+00 -0.3960910900133E+00
-0.3582523549025E+00 -0.6475172182215E+00
-0.3720262809324E+00 -0.6475634428003E+00
-0.3822139304433E+00 -0.6441731151305E+00
-0.3885768965209E+00 -0.6374426939638E+00
-0.3909644502914E+00 -0.6277164667595E+00
-0.3893241271653E+00 -0.6154564706038E+00
-0.3837314204673E+00 -0.6011949101106E+00
-0.3744037962756E+00 -0.5854988346406E+00
-0.3617036028173E+00 -0.5689359175736E+00
-0.3461273743686E+00 -0.5520385385302E+00
-0.3282807198199E+00 -0.5352680148099E+00
-0.3088381287738E+00 -0.5189821362503E+00
-0.2884888600086E+00 -0.5034100709060E+00
-0.2678733259963E+00 -0.4886394511382E+00
-0.2475194463381E+00 -0.4746205873709E+00
-0.2277940863290E+00 -0.4611910740625E+00
-0.2088868780598E+00 -0.4481192415466E+00
-0.1908356982484E+00 -0.4351575819059E+00
-0.1735866889481E+00 -0.4220926744792E+00
-0.3459794618188E+00 -0.6647278390570E+00
-0.3603201808960E+00 -0.6663961822631E+00
-0.3714126567129E+00 -0.6645871366460E+00
-0.3788831705521E+00 -0.6593553215059E+00
-0.3824929290322E+00 -0.6509378129837E+00
-0.3821067083952E+00 -0.6397260886435E+00
-0.3777089091257E+00 -0.6262157974614E+00
-0.3694258992144E+00 -0.6109690769968E+00
-0.3575392661461E+00 -0.5945777914865E+00
-0.3424870187202E+00 -0.5776248635101E+00
-0.3248495284307E+00 -0.5606438813144E+00
-0.3053178171275E+00 -0.5440795226885E+00
-0.2846427645366E+00 -0.5282527878670E+00
-0.2635665147616E+00 -0.5133363992059E+00
-0.2427427087591E+00 -0.4993468488460E+00
-0.2226606747283E+00 -0.4861593206073E+00
-0.2035973821537E+00 -0.4735478335836E+00
-0.1856206246575E+00 -0.4612439552772E+00
-0.1686444964626E+00 -0.4489976324344E+00
-0.3328728858807E+00 -0.6822222396310E+00
-0.3476798401524E+00 -0.6856677680747E+00
-0.3596151898474E+00 -0.6856251918594E+00
-0.3682366821514E+00 -0.6821062127448E+00
-0.3732210652079E+00 -0.6752686245295E+00
-0.3743463372195E+00 -0.6654159307071E+00
-0.3715010286613E+00 -0.6529768709227E+00
-0.3647062427390E+00 -0.6384751335791E+00
-0.3541369476214E+00 -0.6224960072328E+00
-0.3401350370755E+00 -0.6056484490845E+00
-0.3232095225655E+00 -0.5885228206181E+00
-0.3040194261621E+00 -0.5716461204095E+00
-0.2833352862564E+00 -0.5554382803396E+00
-0.2619764373717E+00 -0.5401749189656E+00
-0.2407250590103E+00 -0.5259640103293E+00
-0.2202266396697E+00 -0.5127455035871E+00
-0.2009012025132E+00 -0.5003213927752E+00
-0.1829028807370E+00 -0.4884150548424E+00
-0.1661563928237E+00 -0.4767427691778E+00
-0.3188820503945E+00 -0.6998037980976E+00
-0.3340522607862E+00 -0.7051213042814E+00
-0.3467425564810E+00 -0.7070005723916E+00
-0.3564888324691E+00 -0.7054082578962E+00
-0.3629146210581E+00 -0.7004243740777E+00
-0.3657252025742E+00 -0.6922600658575E+00
-0.3647189672759E+00 -0.6812547524779E+00
-0.3598091266837E+00 -0.6678613603674E+00
-0.3510489557851E+00 -0.6526224592882E+00
-0.3386542642780E+00 -0.6361386468388E+00
-0.3230176494609E+00 -0.6190293431869E+00
-0.3047092177978E+00 -0.6018871524266E+00
-0.2844578741894E+00 -0.5852284092023E+00
-0.2631068571398E+00 -0.5694445279851E+00
-0.2415381109965E+00 -0.5547614830116E+00
-0.2205650378141E+00 -0.5412181469563E+00
-0.2008073590329E+00 -0.5286766015418E+00
-0.1825885736089E+00 -0.5168727876305E+00
-0.1659163840576E+00 -0.5054973090806E+00
-0.3039588144279E+00 -0.7173153674489E+00
-0.3193745063234E+00 -0.7245637006347E+00
-0.3326955246825E+00 -0.7284954221157E+00
-0.3434715575028E+00 -0.7290299563627E+00
-0.3513047324314E+00 -0.7261724116157E+00
-0.3558530501117E+00 -0.7200385973076E+00
-0.3568430788450E+00 -0.7108650041858E+00
-0.3540910732586E+00 -0.6990074743682E+00
-0.3475292675890E+00 -0.6849302249174E+00
-0.3372335925963E+00 -0.6691852795668E+00
-0.3234486161369E+00 -0.6523820568453E+00
-0.3066048655686E+00 -0.6351471074803E+00
-0.2873225386502E+00 -0.6180750555669E+00
-0.2663938792408E+00 -0.6016735312566E+00
-0.2447345918124E+00 -0.5863076368233E+00
-0.2232940221280E+00 -0.5721538505506E+00
-0.2029191247874E+00 -0.5591795370133E+00
-0.1841918282485E+00 -0.5471685786385E+00
-0.1673118421236E+00 -0.5358009481290E+00
-0.2880613952110E+00 -0.7345913574304E+00
-0.3035847876000E+00 -0.7437897839374E+00
-0.3173795743427E+00 -0.7498657057845E+00
-0.3290330774504E+00 -0.7526957088910E+00
-0.3381543353592E+00 -0.7522169317909E+00
-0.3443821728998E+00 -0.7484536052161E+00
-0.3473976942799E+00 -0.7415340144921E+00
-0.3469430134813E+00 -0.7316994406706E+00
-0.3428456096070E+00 -0.7193052642832E+00
-0.3350466853604E+00 -0.7048135192975E+00
-0.3236312230590E+00 -0.6887756283917E+00
-0.3088565919158E+00 -0.6718040143703E+00
-0.2911752690995E+00 -0.6545316899077E+00
-0.2712451596501E+00 -0.6375599485913E+00
-0.2499177385156E+00 -0.6213962419885E+00
-0.2281895757359E+00 -0.6063880884328E+00
-0.2070975330225E+00 -0.5926661042589E+00
-0.1875394678950E+00 -0.5801224477786E+00
-0.1700491346284E+00 -0.5684606880910E+00
-0.2711591762417E+00 -0.7514603123912E+00
-0.2866319909796E+00 -0.7625870537606E+00
-0.3007140741611E+00 -0.7708512118010E+00
-0.3130445078850E+00 -0.7760967320138E+00
-0.3232609518331E+00 -0.7782058816248E+00
-0.3310089276053E+00 -0.7771232249460E+00
-0.3359525719162E+00 -0.7728747049532E+00
-0.3377896171707E+00 -0.7655822394233E+00
-0.3362713745564E+00 -0.7554735834771E+00
-0.3312276350812E+00 -0.7428864569425E+00
-0.3225958497374E+00 -0.7282653300120E+00
-0.3104533765755E+00 -0.7121488001084E+00
-0.2950507248796E+00 -0.6951452373171E+00
-0.2768422429738E+00 -0.6778943797786E+00
-0.2565080186185E+00 -0.6610130386758E+00
-0.2349557557995E+00 -0.6450246220654E+00
-0.2132822500038E+00 -0.6302764190520E+00
-0.1926564298242E+00 -0.6168601372362E+00
-0.1740668447580E+00 -0.6045828866230E+00
-0.2532341857603E+00 -0.7677566597369E+00
-0.2684780358525E+00 -0.7807583124694E+00
-0.2826345756832E+00 -0.7912100140070E+00
-0.2954005945595E+00 -0.7989368232224E+00
-0.3064563801394E+00 -0.8037838079773E+00
-0.3154741628763E+00 -0.8056352110266E+00
-0.3221264302723E+00 -0.8044318701358E+00
-0.3260967288114E+00 -0.8001869464557E+00
-0.3270942508826E+00 -0.7929997601809E+00
-0.3248728951402E+00 -0.7830670556081E+00
-0.3192551811460E+00 -0.7706904726310E+00
-0.3101611815494E+00 -0.7562784284180E+00
-0.2976423670064E+00 -0.7403399884744E+00
-0.2819197640610E+00 -0.7234676013796E+00
-0.2634247628799E+00 -0.7063047525184E+00
-0.2428385785723E+00 -0.6894936779997E+00
-0.2211206008379E+00 -0.6735976851239E+00
-0.1995025613267E+00 -0.6589937974209E+00
-0.1793767446394E+00 -0.6457453130975E+00
-0.2342821040348E+00 -0.7833253463068E+00
-0.2490998786454E+00 -0.7981296579480E+00
-0.2630956850814E+00 -0.8107326718273E+00
-0.2760236347309E+00 -0.8209548930157E+00
-0.2876131826832E+00 -0.8286233553852E+00
-0.2975758155939E+00 -0.8335853357319E+00
-0.3056108877574E+00 -0.8357220406280E+00
-0.3114126584840E+00 -0.8349622130182E+00
-0.3146798015973E+00 -0.8312956285211E+00
-0.3151282800491E+00 -0.8247862415680E+00
-0.3125083336943E+00 -0.8155844251885E+00
-0.3066263240684E+00 -0.8039373466340E+00
-0.2973722734299E+00 -0.7901960082715E+00
-0.2847541051665E+00 -0.7748167841665E+00
-0.2689398253234E+00 -0.7583542511028E+00
-0.2503090758789E+00 -0.7414404768951E+00
-0.2295155966169E+00 -0.7247430308137E+00
-0.2075597803895E+00 -0.7088888810483E+00
-0.1858685960887E+00 -0.6943279529291E+00
-0.2143091746605E+00 -0.7980441283574E+00
-0.2284837187207E+00 -0.8145931438658E+00
-0.2420622440261E+00 -0.8293075928473E+00
-0.2548512497134E+00 -0.8420156545952E+00
-0.2666295302549E+00 -0.8525434083958E+00
-0.2771528526714E+00 -0.8607237157578E+00
-0.2861575814333E+00 -0.8664058024123E+00
-0.2933646854070E+00 -0.8694654359033E+00
-0.2984851462696E+00 -0.8698157366712E+00
-0.3012275712035E+00 -0.8674186335098E+00
-0.3013087503398E+00 -0.8622968567906E+00
-0.2984679613708E+00 -0.8545461843806E+00
-0.2924860144571E+00 -0.8443474079455E+00
-0.2832103969294E+00 -0.8319771304153E+00
-0.2705885265393E+00 -0.8178159471315E+00
-0.2547123397361E+00 -0.8023515919076E+00
-0.2358796988033E+00 -0.7861728234491E+00
-0.2146841792369E+00 -0.7699455414696E+00
-0.1921551508724E+00 -0.7543536986714E+00
-0.1933421918073E+00 -0.8117892909000E+00
-0.2066443425588E+00 -0.8300369190150E+00
-0.2195372461115E+00 -0.8468189313103E+00
-0.2318724959200E+00 -0.8619802009342E+00
-0.2434742184426E+00 -0.8753589177385E+00
-0.2541418570133E+00 -0.8867918188034E+00
-0.2636519158846E+00 -0.8961203523634E+00
-0.2717595992775E+00 -0.9031976394236E+00
-0.2782010632579E+00 -0.9078962704915E+00
-0.2826968825290E+00 -0.9101170322651E+00
-0.2849573036316E+00 -0.9097986544336E+00
-0.2846899061633E+00 -0.9069286297195E+00
-0.2816104352724E+00 -0.9015551042601E+00
-0.2754578386370E+00 -0.8937997633659E+00
-0.2660150285198E+00 -0.8838715436842E+00
-0.2531377555601E+00 -0.8720808840801E+00
-0.2367957475819E+00 -0.8588540451996E+00
-0.2171333512590E+00 -0.8447471214701E+00
-0.1945682575963E+00 -0.8304588374009E+00
-0.1714368901804E+00 -0.8244004591230E+00
-0.1836415961385E+00 -0.8442722633131E+00
-0.1955857913881E+00 -0.8630362841742E+00
-0.2071583663167E+00 -0.8805599171965E+00
-0.2182229220993E+00 -0.8967021670601E+00
-0.2286189545434E+00 -0.9113163585152E+00
-0.2381620806603E+00 -0.9242538058757E+00
-0.2466438582592E+00 -0.9353683005888E+00
-0.2538316404026E+00 -0.9445214471761E+00
-0.2594688384036E+00 -0.9515889680336E+00
-0.2632759369631E+00 -0.9564681489352E+00
-0.2649526095009E+00 -0.9590866361392E+00
-0.2641813201983E+00 -0.9594128441501E+00
-0.2606328760987E+00 -0.9574683141110E+00
-0.2539745126511E+00 -0.9533425147187E+00
-0.2438812751122E+00 -0.9472108700471E+00
-0.2300515709818E+00 -0.9393574320253E+00
-0.2122277663726E+00 -0.9302049248298E+00
-0.1902185813562E+00 -0.9203594703650E+00
-0.1486699065521E+00 -0.8357100549886E+00
-0.1595658777038E+00 -0.8570887766213E+00
-0.1703141237922E+00 -0.8776945754594E+00
-0.1808334676455E+00 -0.8974202386080E+00
-0.1910206600546E+00 -0.9161501779832E+00
-0.2007503584793E+00 -0.9337614718005E+00
-0.2098742446058E+00 -0.9501257655519E+00
-0.2182195581275E+00 -0.9651119049668E+00
-0.2255872696709E+00 -0.9785893167586E+00
-0.2317500687918E+00 -0.9904322440457E+00
-0.2364503044622E+00 -0.1000525008646E+01
-0.2393979803029E+00 -0.1008768531517E+01
-0.2402688648423E+00 -0.1015088412584E+01
-0.2387027097500E+00 -0.1019444971928E+01
-0.2343014428446E+00 -0.1021845813791E+01
-0.2266269331828E+00 -0.1022361741313E+01
-0.2151973667038E+00 -0.1021147278215E+01
-0.1994797995887E+00 -0.1018467793752E+01
-0.1788731051433E+00 -0.1014735600494E+01
-0.1251339481534E+00 -0.8455608352900E+00
-0.1345297015463E+00 -0.8682863296307E+00
-0.1438575873616E+00 -0.8905403257026E+00
-0.1530598630230E+00 -0.9122413342067E+00
-0.1620603919315E+00 -0.9333003813888E+00
-0.1707638460935E+00 -0.9536209623872E+00
-0.1790541429609E+00 -0.9730996853328E+00
-0.1867922200906E+00 -0.9916274915104E+00
-0.1938132200747E+00 -0.1009091445164E+01
-0.1999231214474E+00 -0.1025377160726E+01
-0.2048948103566E+00 -0.1040371990046E+01
-0.2084635378689E+00 -0.1053969138224E+01
-0.2103216381838E+00 -0.1066072921961E+01
-0.2101122754247E+00 -0.1076605435196E+01
-0.2074218087204E+00 -0.1085514947815E+01
-0.2017700715830E+00 -0.1092786430233E+01
-0.1925973727484E+00 -0.1098454648278E+01
-0.1792463967851E+00 -0.1102620143920E+01
-0.1609375524334E+00 -0.1105467698593E+01
-0.1009352621363E+00 -0.8538138072313E+00
-0.1086637694413E+00 -0.8776882278662E+00
-0.1163752493251E+00 -0.9013501186201E+00
-0.1240299558486E+00 -0.9247419218185E+00
-0.1315735519000E+00 -0.9477998018016E+00
-0.1389359445537E+00 -0.9704528882031E+00
-0.1460294565872E+00 -0.9926230164598E+00
-0.1527463429980E+00 -0.1014224854589E+01
-0.1589556386311E+00 -0.1035166381699E+01
-0.1644992939302E+00 -0.1055349736558E+01
-0.1691875214448E+00 -0.1074672490972E+01
-0.1727932340825E+00 -0.1093029426996E+01
-0.1750454025870E+00 -0.1110314910190E+01
-0.1756210871070E+00 -0.1126425950392E+01
-0.1741357980447E+00 -0.1141266017793E+01
-0.1701317090199E+00 -0.1154749618015E+01
-0.1630631082753E+00 -0.1166807489474E+01
-0.1522784665490E+00 -0.1177392048124E+01
-0.1369985571891E+00 -0.1186482606414E+01
-0.7619165106505E-01 -0.8603524128896E+00
-0.8211420057063E-01 -0.8851473314097E+00
-0.8804626090584E-01 -0.9099387748687E+00
-0.9396176406925E-01 -0.9346895918876E+00
-0.9982381675341E-01 -0.9593575313928E+00
-0.1055835178566E+00 -0.9838940177122E+00
-0.1111782350179E+00 -0.1008243240700E+01
-0.1165293099543E+00 -0.1032341443033E+01
-0.1215391434428E+00 -0.1056116340183E+01
-0.1260875893095E+00 -0.1079486643653E+01
-0.1300275639207E+00 -0.1102361679071E+01
-0.1331797545492E+00 -0.1124641099560E+01
-0.1353262884321E+00 -0.1146214690559E+01
-0.1362032081412E+00 -0.1166962240854E+01
-0.1354915957596E+00 -0.1186753408247E+01
-0.1328072147848E+00 -0.1205447425650E+01
-0.1276886184981E+00 -0.1222892367579E+01
-0.1195837720370E+00 -0.1238923548025E+01
-0.1078350897247E+00 -0.1253360443643E+01
-0.5103051633019E-01 -0.8650852381024E+00
-0.5503996212484E-01 -0.8905496210467E+00
-0.5906656298147E-01 -0.9161638760186E+00
-0.6309471850399E-01 -0.9419063874606E+00
-0.6710168055433E-01 -0.9677513910500E+00
-0.7105661984664E-01 -0.9936674449354E+00
-0.7491930506013E-01 -0.1019616071108E+01
-0.7863836005119E-01 -0.1045550435742E+01
-0.8214904968375E-01 -0.1071413977243E+01
-0.8537053102588E-01 -0.1097138914448E+01
-0.8820249477908E-01 -0.1122644579628E+01
-0.9052111452959E-01 -0.1147835524211E+01
-0.9217422356566E-01 -0.1172599340395E+01
-0.9297565838839E-01 -0.1196804128608E+01
-0.9269875648180E-01 -0.1220295518012E+01
-0.9106908869169E-01 -0.1242893114591E+01
-0.8775665439143E-01 -0.1264386209258E+01
-0.8236796946605E-01 -0.1284528511019E+01
-0.7443884690785E-01 -0.1303031500808E+01
-0.2558664834934E-01 -0.8679480228145E+00
-0.2760992715151E-01 -0.8938167766580E+00
-0.2964507239946E-01 -0.9199289691574E+00
-0.3168481882062E-01 -0.9462726938275E+00
-0.3371835081486E-01 -0.9728325072151E+00
-0.3573079300490E-01 -0.9995877256739E+00
-0.3770249775767E-01 -0.1026510800213E+01
-0.3960810870728E-01 -0.1053565625817E+01
-0.4141537101959E-01 -0.1080705675338E+01
-0.4308365248113E-01 -0.1107871866066E+01
-0.4456213505049E-01 -0.1134990075831E+01
-0.4578763630795E-01 -0.1161968229183E+01
-0.4668202794983E-01 -0.1188692876346E+01
-0.4714923968264E-01 -0.1215025191959E+01
-0.4707187896432E-01 -0.1240796331777E+01
-0.4630756836648E-01 -0.1265802109451E+01
-0.4468521646175E-01 -0.1289796998070E+01
-0.4200164234717E-01 -0.1312487525484E+01
-0.3801935047467E-01 -0.1333525241439E+01
-0.1091949916196E-09 -0.8689052174394E+00
-0.3241960862524E-09 -0.8949082639722E+00
-0.5419055371870E-09 -0.9211861809723E+00
-0.7619212697286E-09 -0.9477303661663E+00
-0.9835877149102E-09 -0.9745288921294E+00
-0.1205937078492E-08 -0.1001564745972E+01
-0.1427618610803E-08 -0.1028814115512E+01
-0.1646808335865E-08 -0.1056244573371E+01
-0.1861102858531E-08 -0.1083813042294E+01
-0.2067382884880E-08 -0.1111463441382E+01
-0.2261642879899E-08 -0.1139123920868E+01
-0.2438787152459E-08 -0.1166703597684E+01
-0.2592379957448E-08 -0.1194088709923E+01
-0.2714354829924E-08 -0.1221138120869E+01
-0.2794679593398E-08 -0.1247678129230E+01
-0.2820978397888E-08 -0.1273496589594E+01
-0.2778147209401E-08 -0.1298336427221E+01
-0.2647985661143E-08 -0.1321888770199E+01
-0.2408942843280E-08 -0.1343786164891E+01
 0.2558664813294E-01 -0.8679480228446E+00
 0.2760992650706E-01 -0.8938167767127E+00
 0.2964507132204E-01 -0.9199289692468E+00
 0.3168481730624E-01 -0.9462726939631E+00
 0.3371834886091E-01 -0.9728325074100E+00
 0.3573079061085E-01 -0.9995877259427E+00
 0.3770249492580E-01 -0.1026510800572E+01
 0.3960810544361E-01 -0.1053565626284E+01
 0.4141536733501E-01 -0.1080705675932E+01
 0.4308364839280E-01 -0.1107871866808E+01
 0.4456213058354E-01 -0.1134990076742E+01
 0.4578763149751E-01 -0.1161968230288E+01
 0.4668202284363E-01 -0.1188692877668E+01
 0.4714923434407E-01 -0.1215025193521E+01
 0.4707187347614E-01 -0.1240796333602E+01
 0.4630756283532E-01 -0.1265802111559E+01
 0.4468521102331E-01 -0.1289797000477E+01
 0.4200163717234E-01 -0.1312487528203E+01
 0.3801934577634E-01 -0.1333525244474E+01
 0.5103051611956E-01 -0.8650852381633E+00
 0.5503996149179E-01 -0.8905496211571E+00
 0.5906656192256E-01 -0.9161638761988E+00
 0.6309471701701E-01 -0.9419063877336E+00
 0.6710167863879E-01 -0.9677513914415E+00
 0.7105661750447E-01 -0.9936674454740E+00
 0.7491930229639E-01 -0.1019616071826E+01
 0.7863835687498E-01 -0.1045550436674E+01
 0.8214904610923E-01 -0.1071413978426E+01
 0.8537052707351E-01 -0.1097138915924E+01
 0.8820249047711E-01 -0.1122644581440E+01
 0.9052110991582E-01 -0.1147835526403E+01
 0.9217421868955E-01 -0.1172599343014E+01
 0.9297565331361E-01 -0.1196804131700E+01
 0.9269875128930E-01 -0.1220295521620E+01
 0.9106908348343E-01 -0.1242893118753E+01
 0.8775664929483E-01 -0.1264386214007E+01
 0.8236796463949E-01 -0.1284528516377E+01
 0.7443884254738E-01 -0.1303031506783E+01
 0.7619165086399E-01 -0.8603524129813E+00
 0.8211419995643E-01 -0.8851473315757E+00
 0.8804625987751E-01 -0.9099387751389E+00
 0.9396176262750E-01 -0.9346895922958E+00
 0.9982381490122E-01 -0.9593575319768E+00
 0.1055835155999E+00 -0.9838940185139E+00
 0.1111782323663E+00 -0.1008243241766E+01
 0.1165293069219E+00 -0.1032341444414E+01
 0.1215391400491E+00 -0.1056116341933E+01
 0.1260875855803E+00 -0.1079486645832E+01
 0.1300275598893E+00 -0.1102361681742E+01
 0.1331797502576E+00 -0.1124641102786E+01
 0.1353262839324E+00 -0.1146214694406E+01
 0.1362032034974E+00 -0.1166962245388E+01
 0.1354915910491E+00 -0.1186753413529E+01
 0.1328072101012E+00 -0.1205447431734E+01
 0.1276886139536E+00 -0.1222892374510E+01
 0.1195837677664E+00 -0.1238923555832E+01
 0.1078350858908E+00 -0.1253360452331E+01
 0.1009352619483E+00 -0.8538138073534E+00
 0.1086637688529E+00 -0.8776882280861E+00
 0.1163752483387E+00 -0.9013501189769E+00
 0.1240299544687E+00 -0.9247419223561E+00
 0.1315735501344E+00 -0.9477998025688E+00
 0.1389359424138E+00 -0.9704528892540E+00
 0.1460294540889E+00 -0.9926230178537E+00
 0.1527463401622E+00 -0.1014224856391E+01
 0.1589556354844E+00 -0.1035166383978E+01
 0.1644992905055E+00 -0.1055349739388E+01
 0.1691875177823E+00 -0.1074672494431E+01
 0.1727932302297E+00 -0.1093029431164E+01
 0.1750453985996E+00 -0.1110314915147E+01
 0.1756210830489E+00 -0.1126425956219E+01
 0.1741357939881E+00 -0.1141266024564E+01
 0.1701317050457E+00 -0.1154749625796E+01
 0.1630631044729E+00 -0.1166807498316E+01
 0.1522784630167E+00 -0.1177392058058E+01
 0.1369985540355E+00 -0.1186482617438E+01
 0.1251339479825E+00 -0.8455608354411E+00
 0.1345297009913E+00 -0.8682863299010E+00
 0.1438575864289E+00 -0.8905403261397E+00
 0.1530598617224E+00 -0.9122413348634E+00
 0.1620603902765E+00 -0.9333003823236E+00
 0.1707638441023E+00 -0.9536209636645E+00
 0.1790541406571E+00 -0.9730996870225E+00
 0.1867922175033E+00 -0.9916274936881E+00
 0.1938132172394E+00 -0.1009091447910E+01
 0.1999231184057E+00 -0.1025377164126E+01
 0.2048948071568E+00 -0.1040371994187E+01
 0.2084635345650E+00 -0.1053969143195E+01
 0.2103216348352E+00 -0.1066072927853E+01
 0.2101122720949E+00 -0.1076605442093E+01
 0.2074218054747E+00 -0.1085514955797E+01
 0.2017700684852E+00 -0.1092786439367E+01
 0.1925973698573E+00 -0.1098454658615E+01
 0.1792463941489E+00 -0.1102620155485E+01
 0.1609375500842E+00 -0.1105467711376E+01
 0.1486699064011E+00 -0.8357100551669E+00
 0.1595658771876E+00 -0.8570887769378E+00
 0.1703141229220E+00 -0.8776945759690E+00
 0.1808334664368E+00 -0.8974202393713E+00
 0.1910206585280E+00 -0.9161501790668E+00
 0.2007503566609E+00 -0.9337614732768E+00
 0.2098742425279E+00 -0.9501257674987E+00
 0.2182195558291E+00 -0.9651119074671E+00
 0.2255872671971E+00 -0.9785893198994E+00
 0.2317500661942E+00 -0.9904322479166E+00
 0.2364503017978E+00 -0.1000525013338E+01
 0.2393979776329E+00 -0.1008768537121E+01
 0.2402688622299E+00 -0.1015088419186E+01
 0.2387027072573E+00 -0.1019444979608E+01
 0.2343014405280E+00 -0.1021845822620E+01
 0.2266269310863E+00 -0.1022361751347E+01
 0.2151973648499E+00 -0.1021147289491E+01
 0.1994797979655E+00 -0.1018467806281E+01
 0.1788731036875E+00 -0.1014735614252E+01
 0.1714368900516E+00 -0.8244004593264E+00
 0.1836415956656E+00 -0.8442722636705E+00
 0.1955857905876E+00 -0.8630362847469E+00
 0.2071583652107E+00 -0.8805599180514E+00
 0.2182229207161E+00 -0.8967021682699E+00
 0.2286189529181E+00 -0.9113163601577E+00
 0.2381620788349E+00 -0.9242538080333E+00
 0.2466438562831E+00 -0.9353683033469E+00
 0.2538316383314E+00 -0.9445214506221E+00
 0.2594688362989E+00 -0.9515889722546E+00
 0.2632759348907E+00 -0.9564681540158E+00
 0.2649526075285E+00 -0.9590866421587E+00
 0.2641813183919E+00 -0.9594128511792E+00
 0.2606328745174E+00 -0.9574683222086E+00
 0.2539745113404E+00 -0.9533425239284E+00
 0.2438812740941E+00 -0.9472108803936E+00
 0.2300515702408E+00 -0.9393574435121E+00
 0.2122277658362E+00 -0.9302049374374E+00
 0.1902185808640E+00 -0.9203594840519E+00
 0.1933421917044E+00 -0.8117892911254E+00
 0.2066443421360E+00 -0.8300369194064E+00
 0.2195372453910E+00 -0.8468189319336E+00
 0.2318724949309E+00 -0.8619802018609E+00
 0.2434742172216E+00 -0.8753589190447E+00
 0.2541418556048E+00 -0.8867918205688E+00
 0.2636519143407E+00 -0.8961203546702E+00
 0.2717595976576E+00 -0.9031976423538E+00
 0.2782010616279E+00 -0.9078962741253E+00
 0.2826968809594E+00 -0.9101170366772E+00
 0.2849573021954E+00 -0.9097986596900E+00
 0.2846899049320E+00 -0.9069286358738E+00
 0.2816104343117E+00 -0.9015551113492E+00
 0.2754578379996E+00 -0.8937997714063E+00
 0.2660150282373E+00 -0.8838715526684E+00
 0.2531377556310E+00 -0.8720808939747E+00
 0.2367957479561E+00 -0.8588540559450E+00
 0.2171333518163E+00 -0.8447471329862E+00
 0.1945682581143E+00 -0.8304588496011E+00
 0.2143091745850E+00 -0.7980441286033E+00
 0.2284837183506E+00 -0.8145931442869E+00
 0.2420622433897E+00 -0.8293075935130E+00
 0.2548512488474E+00 -0.8420156555794E+00
 0.2666295292043E+00 -0.8525434097753E+00
 0.2771528514900E+00 -0.8607237176106E+00
 0.2861575801827E+00 -0.8664058048155E+00
 0.2933646841560E+00 -0.8694654389296E+00
 0.2984851450922E+00 -0.8698157403858E+00
 0.3012275701765E+00 -0.8674186379658E+00
 0.3013087495392E+00 -0.8622968620250E+00
 0.2984679608669E+00 -0.8545461904095E+00
 0.2924860143084E+00 -0.8443474147600E+00
 0.2832103971746E+00 -0.8319771379781E+00
 0.2705885271875E+00 -0.8178159553749E+00
 0.2547123407553E+00 -0.8023516007346E+00
 0.2358797001071E+00 -0.7861728327389E+00
 0.2146841806701E+00 -0.7699455510906E+00
 0.1921551521982E+00 -0.7543537085072E+00
 0.2342821039867E+00 -0.7833253465756E+00
 0.2490998783279E+00 -0.7981296584027E+00
 0.2630956845291E+00 -0.8107326725391E+00
 0.2760236339879E+00 -0.8209548940583E+00
 0.2876131818029E+00 -0.8286233568330E+00
 0.2975758146385E+00 -0.8335853376574E+00
 0.3056108867966E+00 -0.8357220430984E+00
 0.3114126575932E+00 -0.8349622160912E+00
 0.3146798008550E+00 -0.8312956322410E+00
 0.3151282795330E+00 -0.8247862459607E+00
 0.3125083334763E+00 -0.8155844302575E+00
 0.3066263242087E+00 -0.8039373523565E+00
 0.2973722739688E+00 -0.7901960145964E+00
 0.2847541061160E+00 -0.7748167910143E+00
 0.2689398266578E+00 -0.7583542583688E+00
 0.2503090775251E+00 -0.7414404844577E+00
 0.2295155984480E+00 -0.7247430385485E+00
 0.2075597822259E+00 -0.7088888888496E+00
 0.1858685977213E+00 -0.6943279607377E+00
 0.2532341857375E+00 -0.7677566600372E+00
 0.2684780355833E+00 -0.7807583129738E+00
 0.2826345752086E+00 -0.7912100147857E+00
 0.2954005939308E+00 -0.7989368243463E+00
 0.3064563794172E+00 -0.8037838095149E+00
 0.3154741621293E+00 -0.8056352130406E+00
 0.3221264295751E+00 -0.8044318726789E+00
 0.3260967282419E+00 -0.8001869495667E+00
 0.3270942505177E+00 -0.7929997638799E+00
 0.3248728950509E+00 -0.7830670598929E+00
 0.3192551813913E+00 -0.7706904774747E+00
 0.3101611821688E+00 -0.7562784337677E+00
 0.2976423680122E+00 -0.7403399942533E+00
 0.2819197654306E+00 -0.7234676074921E+00
 0.2634247645491E+00 -0.7063047588591E+00
 0.2428385804332E+00 -0.6894936844673E+00
 0.2211206027445E+00 -0.6735976916387E+00
 0.1995025631170E+00 -0.6589938039429E+00
 0.1793767461869E+00 -0.6457453196353E+00
 0.2711591762427E+00 -0.7514603127260E+00
 0.2866319907558E+00 -0.7625870543195E+00
 0.3007140737597E+00 -0.7708512126510E+00
 0.3130445073635E+00 -0.7760967332197E+00
 0.3232609512577E+00 -0.7782058832459E+00
 0.3310089270484E+00 -0.7771232270320E+00
 0.3359525714537E+00 -0.7728747075403E+00
 0.3377896168775E+00 -0.7655822425298E+00
 0.3362713745018E+00 -0.7554735871003E+00
 0.3312276353230E+00 -0.7428864610572E+00
 0.3225958503148E+00 -0.7282653345703E+00
 0.3104533775024E+00 -0.7121488050422E+00
 0.2950507261387E+00 -0.6951452425440E+00
 0.2768422445118E+00 -0.6778943852104E+00
 0.2565080203466E+00 -0.6610130442300E+00
 0.2349557576006E+00 -0.6450246276783E+00
 0.2132822517508E+00 -0.6302764246901E+00
 0.1926564314141E+00 -0.6168601429013E+00
 0.1740668461555E+00 -0.6045828923409E+00
 0.2880613952339E+00 -0.7345913578007E+00
 0.3035847874181E+00 -0.7437897845517E+00
 0.3173795740089E+00 -0.7498657067039E+00
 0.3290330770271E+00 -0.7526957101720E+00
 0.3381543349155E+00 -0.7522169334812E+00
 0.3443821725086E+00 -0.7484536073509E+00
 0.3473976940137E+00 -0.7415340170904E+00
 0.3469430134075E+00 -0.7316994437322E+00
 0.3428456097822E+00 -0.7193052677876E+00
 0.3350466858246E+00 -0.7048135232043E+00
 0.3236312238291E+00 -0.6887756326435E+00
 0.3088565929815E+00 -0.6718040188976E+00
 0.2911752704197E+00 -0.6545316946368E+00
 0.2712451611542E+00 -0.6375599534535E+00
 0.2499177401108E+00 -0.6213962469297E+00
 0.2281895773215E+00 -0.6063880934223E+00
 0.2070975345136E+00 -0.5926661092920E+00
 0.1875394692500E+00 -0.5801224528721E+00
 0.1700491358659E+00 -0.5684606932692E+00
 0.3039588144708E+00 -0.7173153678531E+00
 0.3193745061803E+00 -0.7245637013006E+00
 0.3326955244108E+00 -0.7284954230966E+00
 0.3434715571674E+00 -0.7290299577044E+00
 0.3513047321017E+00 -0.7261724133535E+00
 0.3558530498571E+00 -0.7200385994620E+00
 0.3568430787309E+00 -0.7108650067606E+00
 0.3540910733406E+00 -0.6990074773488E+00
 0.3475292679082E+00 -0.6849302282716E+00
 0.3372335931738E+00 -0.6691852832476E+00
 0.3234486169695E+00 -0.6523820607950E+00
 0.3066048666273E+00 -0.6351471116372E+00
 0.2873225398812E+00 -0.6180750598728E+00
 0.2663938805715E+00 -0.6016735356646E+00
 0.2447345931630E+00 -0.5863076413038E+00
 0.2232940234282E+00 -0.5721538550947E+00
 0.2029191259953E+00 -0.5591795416306E+00
 0.1841918293648E+00 -0.5471685833497E+00
 0.1673118431881E+00 -0.5358009529555E+00
 0.3188820504557E+00 -0.6998037985321E+00
 0.3340522606789E+00 -0.7051213049918E+00
 0.3467425562655E+00 -0.7070005734214E+00
 0.3564888322104E+00 -0.7054082592801E+00
 0.3629146208222E+00 -0.7004243758381E+00
 0.3657252024237E+00 -0.6922600680019E+00
 0.3647189672654E+00 -0.6812547549978E+00
 0.3598091268550E+00 -0.6678613632384E+00
 0.3510489561630E+00 -0.6526224624728E+00
 0.3386542648665E+00 -0.6361386502897E+00
 0.3230176502417E+00 -0.6190293468528E+00
 0.3047092187319E+00 -0.6018871562582E+00
 0.2844578752214E+00 -0.5852284131581E+00
 0.2631068582071E+00 -0.5694445320371E+00
 0.2415381120413E+00 -0.5547614871482E+00
 0.2205650387977E+00 -0.5412181511819E+00
 0.2008073599465E+00 -0.5286766058727E+00
 0.1825885744751E+00 -0.5168727920880E+00
 0.1659163849197E+00 -0.5054973136844E+00
 0.3328728859585E+00 -0.6822222400918E+00
 0.3476798400783E+00 -0.6856677688222E+00
 0.3596151896818E+00 -0.6856251929263E+00
 0.3682366819560E+00 -0.6821062141539E+00
 0.3732210650418E+00 -0.6752686262912E+00
 0.3743463371351E+00 -0.6654159328177E+00
 0.3715010287001E+00 -0.6529768733645E+00
 0.3647062429281E+00 -0.6384751363227E+00
 0.3541369479702E+00 -0.6224960102399E+00
 0.3401350375750E+00 -0.6056484523126E+00
 0.3232095231887E+00 -0.5885228240255E+00
 0.3040194268683E+00 -0.5716461239601E+00
 0.2833352869973E+00 -0.5554382840076E+00
 0.2619764381016E+00 -0.5401749227383E+00
 0.2407250596957E+00 -0.5259640142076E+00
 0.2202266402982E+00 -0.5127455075836E+00
 0.2009012030968E+00 -0.5003213969095E+00
 0.1829028813068E+00 -0.4884150591359E+00
 0.1661563934186E+00 -0.4767427736491E+00
 0.3459794619127E+00 -0.6647278395383E+00
 0.3603201808537E+00 -0.6663961830374E+00
 0.3714126565916E+00 -0.6645871377344E+00
 0.3788831704064E+00 -0.6593553229197E+00
 0.3824929289104E+00 -0.6509378147222E+00
 0.3821067083370E+00 -0.6397260906939E+00
 0.3777089091585E+00 -0.6262157998002E+00
 0.3694258993512E+00 -0.6109690795931E+00
 0.3575392663841E+00 -0.5945777943050E+00
 0.3424870190419E+00 -0.5776248665158E+00
 0.3248495288070E+00 -0.5606438844765E+00
 0.3053178175226E+00 -0.5440795259839E+00
 0.2846427649151E+00 -0.5282527912833E+00
 0.2635665150963E+00 -0.5133364027423E+00
 0.2427427090379E+00 -0.4993468525122E+00
 0.2226606749573E+00 -0.4861593244214E+00
 0.2035973823555E+00 -0.4735478375670E+00
 0.1856206248640E+00 -0.4612439594511E+00
 0.1686444967055E+00 -0.4489976368167E+00
 0.3582523550124E+00 -0.6475172187154E+00
 0.3720262809215E+00 -0.6475634435880E+00
 0.3822139303612E+00 -0.6441731162220E+00
 0.3885768964110E+00 -0.6374426953592E+00
 0.3909644501896E+00 -0.6277164684482E+00
 0.3893241270972E+00 -0.6154564725662E+00
 0.3837314204466E+00 -0.6011949123206E+00
 0.3744037963033E+00 -0.5854988370684E+00
 0.3617036028822E+00 -0.5689359201894E+00
 0.3461273744496E+00 -0.5520385413078E+00
 0.3282807198904E+00 -0.5352680177291E+00
 0.3088381288068E+00 -0.5189821393001E+00
 0.2884888599829E+00 -0.5034100740849E+00
 0.2678733259012E+00 -0.4886394544546E+00
 0.2475194461772E+00 -0.4746205908411E+00
 0.2277940861196E+00 -0.4611910777075E+00
 0.2088868778288E+00 -0.4481192453889E+00
 0.1908356980254E+00 -0.4351575859659E+00
 0.1735866887584E+00 -0.4220926787742E+00
 0.3697469752856E+00 -0.6307995729252E+00
 0.3828023313702E+00 -0.6294376357266E+00
 0.3920871353372E+00 -0.6245943754011E+00
 0.3974709482722E+00 -0.6165735269589E+00
 0.3988585570888E+00 -0.6058066447324E+00
 0.3962780496584E+00 -0.5927898578163E+00
 0.3898850622592E+00 -0.5780560300425E+00
 0.3799676987761E+00 -0.5621472990841E+00
 0.3669383447068E+00 -0.5455842103645E+00
 0.3513143760187E+00 -0.5288337082953E+00
 0.3336869954736E+00 -0.5122790011165E+00
 0.3146792736809E+00 -0.4961946376968E+00
 0.2948962943121E+00 -0.4807305106504E+00
 0.2748732618470E+00 -0.4659086897715E+00
 0.2550308993671E+00 -0.4516362790145E+00
 0.2356497851747E+00 -0.4377349427444E+00
 0.2168733064412E+00 -0.4239830042506E+00
 0.1987409887572E+00 -0.4101611309319E+00
 0.1812418824800E+00 -0.3960910941741E+00
</DataArray>
</PointData>
   <DataArray type="Float64" Name="Load" NumberOfComponents="1"    ComponentName0="Load" format="ascii">
 0.3934620575018E-01
 0.3457588247072E-01
 0.3106141396221E-01
 0.2981048220270E-01
 0.2902283265739E-01
 0.2860415328673E-01
 0.2838403182966E-01
 0.2830162517116E-01
 0.2831500519900E-01
 0.2840024064175E-01
 0.2854200769781E-01
 0.2873090645742E-01
 0.2896143317950E-01
 0.2923092617104E-01
 0.2953889039447E-01
 0.2988658196373E-01
 0.3027674402201E-01
 0.3071344232340E-01
 0.3120197697707E-01
 0.3174885612112E-01
 0.3236182966477E-01
 0.3305004060140E-01
 0.3382428724863E-01
 0.3469752499965E-01
 0.3568584695675E-01
 0.3681068759839E-01
 0.3810354278224E-01
 0.3961196124137E-01
 0.4136254056427E-01
 0.4333406565708E-01
 0.4549505186983E-01
 0.4783046437233E-01
 0.5034849004857E-01
 0.5308545380221E-01
 0.5612921972141E-01
 0.5959158259702E-01
 0.6389723203842E-01
 0.6874314751736E-01
 0.7942308013888E-01
 0.7586390402341E-01
 0.1628623789474E+00
 0.3358003017114E-01
 0.3445006608972E-01
 0.3189387977138E-01
 0.3036690918979E-01
 0.2955261507137E-01
 0.2905347568461E-01
 0.2877719080510E-01
 0.2864529743944E-01
 0.2861757202647E-01
 0.2866763074436E-01
 0.2877902328150E-01
 0.2894125966369E-01
 0.2914799224347E-01
 0.2939583196411E-01
 0.2968364106327E-01
 0.3001207728634E-01
 0.3038330206052E-01
 0.3080079353760E-01
 0.3126923702335E-01
 0.3179447976044E-01
 0.3238354251302E-01
 0.3304473785468E-01
 0.3378788982442E-01
 0.3462473980859E-01
 0.3556974171372E-01
 0.3664150302560E-01
 0.3786217511769E-01
 0.3925160289810E-01
 0.4081699233414E-01
 0.4254773927129E-01
 0.4442386298267E-01
 0.4642904596949E-01
 0.4855744497694E-01
 0.5081871806599E-01
 0.5322897875874E-01
 0.5585375201401E-01
 0.5857170548931E-01
 0.6196242345350E-01
 0.6293901226369E-01
 0.5662470543420E-01
 0.1044736708964E+00
 0.3056900266130E-01
 0.3280114921068E-01
 0.3202492543278E-01
 0.3071627339545E-01
 0.2991804811457E-01
 0.2941148685733E-01
 0.2910541210893E-01
 0.2894301966529E-01
 0.2888515611391E-01
 0.2890719050236E-01
 0.2899268067455E-01
 0.2913095602730E-01
 0.2931529739759E-01
 0.2954189306683E-01
 0.2980914845902E-01
 0.3011723918973E-01
 0.3046781352455E-01
 0.3086379465730E-01
 0.3130925542653E-01
 0.3180935204491E-01
 0.3237030330246E-01
 0.3299945901319E-01
 0.3370542952440E-01
 0.3449830957523E-01
 0.3539007155031E-01
 0.3639424531348E-01
 0.3752207071739E-01
 0.3877789007394E-01
 0.4015909954823E-01
 0.4165615325562E-01
 0.4325208034412E-01
 0.4492595908058E-01
 0.4665657298892E-01
 0.4841814807806E-01
 0.5017718839687E-01
 0.5183318350986E-01
 0.5322654360342E-01
 0.5380849973226E-01
 0.4944566714684E-01
 0.4833764442971E-01
 0.8436489667748E-01
 0.2875899641488E-01
 0.3123551988826E-01
 0.3158063906547E-01
 0.3082209772098E-01
 0.3013934054228E-01
 0.2967190596292E-01
 0.2936792499745E-01
 0.2919258491311E-01
 0.2911619502032E-01
 0.2911755735122E-01
 0.2918190397057E-01
 0.2929915128510E-01
 0.2946272029373E-01
 0.2966868172809E-01
 0.2991518021562E-01
 0.3020203249880E-01
 0.3053044882136E-01
 0.3090283660712E-01
 0.3132266489703E-01
 0.3179437551839E-01
 0.3232332291324E-01
 0.3291577438853E-01
 0.3357891235215E-01
 0.3432081754364E-01
 0.3515021763057E-01
 0.3607471237875E-01
 0.3709662896254E-01
 0.3821102360766E-01
 0.3940896845737E-01
 0.4067848680317E-01
 0.4200072595757E-01
 0.4334806973527E-01
 0.4468233339760E-01
 0.4594816477338E-01
 0.4705051433415E-01
 0.4780823254358E-01
 0.4790073159483E-01
 0.4609393644546E-01
 0.4139756263316E-01
 0.4602534180339E-01
 0.7466233601312E-01
 0.2757222294435E-01
 0.2996503083497E-01
 0.3091907237303E-01
 0.3069994497380E-01
 0.3022952040526E-01
 0.2983990316898E-01
 0.2956500920774E-01
 0.2939386094427E-01
 0.2931000683431E-01
 0.2929805335710E-01
 0.2934606832717E-01
 0.2944534280487E-01
 0.2958989974896E-01
 0.2977599382116E-01
 0.3000170171117E-01
 0.3026660677695E-01
 0.3057156010979E-01
 0.3091849793165E-01
 0.3131030106079E-01
 0.3175068345037E-01
 0.3224408757037E-01
 0.3279560249076E-01
 0.3341081903879E-01
 0.3409552261122E-01
 0.3485481085615E-01
 0.3569069335463E-01
 0.3659881001643E-01
 0.3756821275058E-01
 0.3858524874056E-01
 0.3963421450772E-01
 0.4069220191605E-01
 0.4172391399983E-01
 0.4267653060631E-01
 0.4346863455364E-01
 0.4396450160017E-01
 0.4394032737559E-01
 0.4293798634080E-01
 0.4015736931391E-01
 0.3740245137140E-01
 0.4579798949310E-01
 0.6886631355994E-01
 0.2674568432411E-01
 0.2896573785152E-01
 0.3022364234090E-01
 0.3042868873440E-01
 0.3020355374125E-01
 0.2992470317729E-01
 0.2969983836083E-01
 0.2954800676849E-01
 0.2946690134730E-01
 0.2944860948417E-01
 0.2948499509671E-01
 0.2956935621524E-01
 0.2969673451373E-01
 0.2986384149855E-01
 0.3006886884591E-01
 0.3031128851326E-01
 0.3059167249736E-01
 0.3091153467765E-01
 0.3127319075259E-01
 0.3167962541897E-01
 0.3213434087278E-01
 0.3264118685192E-01
 0.3320406147811E-01
 0.3382631754447E-01
 0.3450946244802E-01
 0.3525074855059E-01
 0.3604092945497E-01
 0.3686494118373E-01
 0.3770538493255E-01
 0.3854266449060E-01
 0.3934930716130E-01
 0.4008319803597E-01
 0.4068042784638E-01
 0.4104290557548E-01
 0.4101954570723E-01
 0.4037322608603E-01
 0.3873393598131E-01
 0.3614574935265E-01
 0.3583054703917E-01
 0.4607529401915E-01
 0.6493899507477E-01
 0.2614366064666E-01
 0.2818027719851E-01
 0.2957105864277E-01
 0.3007933338879E-01
 0.3008713037331E-01
 0.2993690826100E-01
 0.2977779012065E-01
 0.2965741413771E-01
 0.2958801044757E-01
 0.2956973408417E-01
 0.2959891642103E-01
 0.2967132911584E-01
 0.2978337014030E-01
 0.2993244303760E-01
 0.3011701853801E-01
 0.3033657149495E-01
 0.3059147350824E-01
 0.3088286832932E-01
 0.3121253754904E-01
 0.3158274905116E-01
 0.3199605979758E-01
 0.3245505975998E-01
 0.3296192797118E-01
 0.3351761574562E-01
 0.3412037098982E-01
 0.3476363226574E-01
 0.3543464345899E-01
 0.3611545854308E-01
 0.3678576366909E-01
 0.3742257609756E-01
 0.3799456469350E-01
 0.3845490654672E-01
 0.3873381909736E-01
 0.3872914359329E-01
 0.3829618530388E-01
 0.3724289129727E-01
 0.3545391638354E-01
 0.3370535179056E-01
 0.3554416526822E-01
 0.4635700981987E-01
 0.6206816806549E-01
 0.2568972423804E-01
 0.2755725650350E-01
 0.2898740548442E-01
 0.2970035171377E-01
 0.2990785959027E-01
 0.2988905909018E-01
 0.2980537632184E-01
 0.2972550672405E-01
 0.2967515066137E-01
 0.2966243925997E-01
 0.2968843708874E-01
 0.2975168571151E-01
 0.2985018212306E-01
 0.2998220945956E-01
 0.3014665699684E-01
 0.3034310528481E-01
 0.3057180079449E-01
 0.3083357180244E-01
 0.3112970483002E-01
 0.3146177839059E-01
 0.3183142492522E-01
 0.3223999802639E-01
 0.3268801160623E-01
 0.3317419132778E-01
 0.3369401045917E-01
 0.3423799327390E-01
 0.3479094460564E-01
 0.3533297645085E-01
 0.3584171111420E-01
 0.3629174571679E-01
 0.3664939272944E-01
 0.3686611769807E-01
 0.3687268639263E-01
 0.3657510545633E-01
 0.3585802458133E-01
 0.3462899496142E-01
 0.3306679271204E-01
 0.3240027315941E-01
 0.3586592032375E-01
 0.4652928557455E-01
 0.5986574928370E-01
 0.2533790136941E-01
 0.2705696996461E-01
 0.2847654008248E-01
 0.2932102393513E-01
 0.2968952822682E-01
 0.2979433314603E-01
 0.2978979000094E-01
 0.2975637835780E-01
 0.2973068897723E-01
 0.2972815539336E-01
 0.2975448752779E-01
 0.2981110719299E-01
 0.2989775553672E-01
 0.3001372898183E-01
 0.3015844631178E-01
 0.3033168232866E-01
 0.3053362851140E-01
 0.3076485389484E-01
 0.3102619682236E-01
 0.3131858928488E-01
 0.3164278619159E-01
 0.3199897219195E-01
 0.3238612406932E-01
 0.3280102010026E-01
 0.3323690469255E-01
 0.3368219860777E-01
 0.3412014093311E-01
 0.3452971929347E-01
 0.3488741361868E-01
 0.3516666842639E-01
 0.3533341412194E-01
 0.3534092888878E-01
 0.3512701223754E-01
 0.3461700475404E-01
 0.3374528325819E-01
 0.3254549365899E-01
 0.3144438301437E-01
 0.3185869282269E-01
 0.3643072564623E-01
 0.4659571113603E-01
 0.5811957183316E-01
 0.2505904833841E-01
 0.2664996976924E-01
 0.2803334191047E-01
 0.2895748000273E-01
 0.2945037490039E-01
 0.2966507799553E-01
 0.2973843191182E-01
 0.2975449994271E-01
 0.2975738214753E-01
 0.2976864531741E-01
 0.2979827102556E-01
 0.2985049878989E-01
 0.2992686220975E-01
 0.3002774964984E-01
 0.3015318965319E-01
 0.3030322386993E-01
 0.3047805252366E-01
 0.3067804240573E-01
 0.3090363793898E-01
 0.3115518241308E-01
 0.3143262548990E-01
 0.3173509089100E-01
 0.3206020577617E-01
 0.3240314096325E-01
 0.3275546518805E-01
 0.3310421653292E-01
 0.3343181878920E-01
 0.3371690550148E-01
 0.3393579783709E-01
 0.3406221761642E-01
 0.3406390428726E-01
 0.3389952776263E-01
 0.3351975217121E-01
 0.3287843021636E-01
 0.3197209172747E-01
 0.3095810953335E-01
 0.3043165352112E-01
 0.3180254276091E-01
 0.3705753382856E-01
 0.4658605287913E-01
 0.5670183967353E-01
 0.2483388031567E-01
 0.2631460740698E-01
 0.2764970473396E-01
 0.2861761624446E-01
 0.2920340223284E-01
 0.2951194412607E-01
 0.2965843877981E-01
 0.2972447132313E-01
 0.2975822383139E-01
 0.2978591622179E-01
 0.2982120966375E-01
 0.2987095456599E-01
 0.2993843621098E-01
 0.3002516056720E-01
 0.3013181533941E-01
 0.3025876488582E-01
 0.3040627468407E-01
 0.3057456627494E-01
 0.3076375097581E-01
 0.3097365496062E-01
 0.3120351772205E-01
 0.3145154408248E-01
 0.3171424127974E-01
 0.3198554228242E-01
 0.3225587325078E-01
 0.3251153214982E-01
 0.3273479895545E-01
 0.3290470037267E-01
 0.3299840787738E-01
 0.3299139203902E-01
 0.3285537385639E-01
 0.3255765561074E-01
 0.3206645333707E-01
 0.3137012549298E-01
 0.3053009084015E-01
 0.2980634409678E-01
 0.2988200406403E-01
 0.3203843178740E-01
 0.3766445996853E-01
 0.4652904137856E-01
 0.5553003177418E-01
 0.2464917268669E-01
 0.2603491278557E-01
 0.2731714741033E-01
 0.2830444830551E-01
 0.2895738341255E-01
 0.2934359766759E-01
 0.2955633221250E-01
 0.2967080908022E-01
 0.2973631048001E-01
 0.2978213530883E-01
 0.2982489089736E-01
 0.2987372172082E-01
 0.2993354849114E-01
 0.3000697232705E-01
 0.3009536018398E-01
 0.3019943838179E-01
 0.3031958650770E-01
 0.3045593711506E-01
 0.3060833469077E-01
 0.3077617175463E-01
 0.3095809173058E-01
 0.3115154829339E-01
 0.3135218415590E-01
 0.3155307107391E-01
 0.3174399274443E-01
 0.3191108336685E-01
 0.3203709320114E-01
 0.3210216359047E-01
 0.3208530385072E-01
 0.3196513829357E-01
 0.3171932743522E-01
 0.3132643289584E-01
 0.3077538885854E-01
 0.3009129139864E-01
 0.2939511567162E-01
 0.2902029572180E-01
 0.2967103644933E-01
 0.3243846878413E-01
 0.3821976576002E-01
 0.4644642821605E-01
 0.5454802694096E-01
 0.2449558102788E-01
 0.2579900363401E-01
 0.2702786513276E-01
 0.2801823744070E-01
 0.2871793719069E-01
 0.2916679569983E-01
 0.2943782464359E-01
 0.2959778204842E-01
 0.2969472857898E-01
 0.2975955384491E-01
 0.2981101683181E-01
 0.2986016566355E-01
 0.2991338149189E-01
 0.2997429716085E-01
 0.3004495251912E-01
 0.3012645939720E-01
 0.3021935262552E-01
 0.3032373062580E-01
 0.3043924145771E-01
 0.3056493690119E-01
 0.3069899283782E-01
 0.3083829657040E-01
 0.3097789335476E-01
 0.3111036219280E-01
 0.3122530582936E-01
 0.3130921323543E-01
 0.3134586861079E-01
 0.3131720810730E-01
 0.3120499711794E-01
 0.3099226172487E-01
 0.3066420404737E-01
 0.3021248511915E-01
 0.2964822351431E-01
 0.2903200349127E-01
 0.2853391712455E-01
 0.2853098691149E-01
 0.2969950950620E-01
 0.3292132192986E-01
 0.3871566897813E-01
 0.4635333733225E-01
 0.5371606427465E-01
 0.2436633380747E-01
 0.2559794557303E-01
 0.2677507257596E-01
 0.2775778654683E-01
 0.2848844301873E-01
 0.2898663455964E-01
 0.2930775851472E-01
 0.2950930173439E-01
 0.2963646528524E-01
 0.2972044195675E-01
 0.2978135797510E-01
 0.2983173688083E-01
 0.2987920439600E-01
 0.2992832923391E-01
 0.2998179518250E-01
 0.3004110893267E-01
 0.3010699420117E-01
 0.3017956809919E-01
 0.3025835529390E-01
 0.3034216641953E-01
 0.3042884783316E-01
 0.3051491406608E-01
 0.3059508049327E-01
 0.3066178368229E-01
 0.3070486588884E-01
 0.3071163585548E-01
 0.3066742329329E-01
 0.3055657806018E-01
 0.3036442839184E-01
 0.3007942621441E-01
 0.2969547552760E-01
 0.2921831718356E-01
 0.2868109362886E-01
 0.2817598883066E-01
 0.2790948463010E-01
 0.2827576157408E-01
 0.2989142695665E-01
 0.3343696096824E-01
 0.3915499475065E-01
 0.4625998893030E-01
 0.5300499668328E-01
 0.2425641801826E-01
 0.2542494628495E-01
 0.2655303714390E-01
 0.2752120778293E-01
 0.2827074712435E-01
 0.2880685127884E-01
 0.2917013603469E-01
 0.2940886422865E-01
 0.2956434329288E-01
 0.2966703522631E-01
 0.2973771261587E-01
 0.2978994040740E-01
 0.2983234957346E-01
 0.2987032548673E-01
 0.2990714877763E-01
 0.2994471807981E-01
 0.2998397261262E-01
 0.3002509839108E-01
 0.3006757077228E-01
 0.3011006259828E-01
 0.3015023335101E-01
 0.3018442000408E-01
 0.3020726759723E-01
 0.3021139593925E-01
 0.3018726491484E-01
 0.3012341559576E-01
 0.3000717692763E-01
 0.2982585087333E-01
 0.2956899155118E-01
 0.2923123585753E-01
 0.2881587405272E-01
 0.2834287386779E-01
 0.2786589071124E-01
 0.2750318900063E-01
 0.2748470665336E-01
 0.2820054560816E-01
 0.3019028391583E-01
 0.3395556271208E-01
 0.3954457057294E-01
 0.4617334289045E-01
 0.5239282956127E-01
 0.2416205472863E-01
 0.2527478607824E-01
 0.2635698786202E-01
 0.2730636450648E-01
 0.2806567883629E-01
 0.2863011489756E-01
 0.2902820023947E-01
 0.2929953351025E-01
 0.2948097864676E-01
 0.2960149328830E-01
 0.2968187242689E-01
 0.2973630847560E-01
 0.2977419067037E-01
 0.2980158737716E-01
 0.2982231551613E-01
 0.2983865266333E-01
 0.2985177375687E-01
 0.2986198081356E-01
 0.2986877342104E-01
 0.2987079085981E-01
 0.2986564852456E-01
 0.2984969661760E-01
 0.2981775499916E-01
 0.2976292347417E-01
 0.2967661437620E-01
 0.2954896043116E-01
 0.2936967891121E-01
 0.2912946646540E-01
 0.2882260229133E-01
 0.2845038673862E-01
 0.2802571683286E-01
 0.2758220842873E-01
 0.2719154735899E-01
 0.2699183467092E-01
 0.2722462581964E-01
 0.2826028715375E-01
 0.3055499339431E-01
 0.3445992031696E-01
 0.3989198178129E-01
 0.4609832252037E-01
 0.5186256078886E-01
 0.2408035125280E-01
 0.2514341303796E-01
 0.2618298475360E-01
 0.2711111632880E-01
 0.2787341549393E-01
 0.2845827997117E-01
 0.2888453838132E-01
 0.2918395403160E-01
 0.2938875832939E-01
 0.2952586984382E-01
 0.2961559443813E-01
 0.2967237667857E-01
 0.2970612266179E-01
 0.2972344378800E-01
 0.2972862385533E-01
 0.2972429857222E-01
 0.2971189313685E-01
 0.2969186910651E-01
 0.2966382177638E-01
 0.2962645927475E-01
 0.2957749188124E-01
 0.2951346451308E-01
 0.2942959798561E-01
 0.2931973712377E-01
 0.2917653744560E-01
 0.2899202795131E-01
 0.2875863294860E-01
 0.2847078081927E-01
 0.2812780354662E-01
 0.2773786954396E-01
 0.2732328811388E-01
 0.2693017617309E-01
 0.2664518377879E-01
 0.2661997200330E-01
 0.2709766092002E-01
 0.2841841704836E-01
 0.3095621139111E-01
 0.3494047910470E-01
 0.4020389778013E-01
 0.4603852712077E-01
 0.5140078302430E-01
 0.2400906434847E-01
 0.2502765255225E-01
 0.2602778598361E-01
 0.2693344708711E-01
 0.2769373412824E-01
 0.2829259442071E-01
 0.2874118912996E-01
 0.2906438158022E-01
 0.2928983350217E-01
 0.2944209287269E-01
 0.2954057914823E-01
 0.2959966374957E-01
 0.2962954405956E-01
 0.2963723529826E-01
 0.2962741412251E-01
 0.2960304797418E-01
 0.2956582194221E-01
 0.2951639673230E-01
 0.2945453136542E-01
 0.2937910099311E-01
 0.2928804259928E-01
 0.2917826420522E-01
 0.2904559141898E-01
 0.2888484560551E-01
 0.2869017160697E-01
 0.2845574340443E-01
 0.2817693716347E-01
 0.2785214095502E-01
 0.2748589952481E-01
 0.2709320490017E-01
 0.2670524259270E-01
 0.2637908983199E-01
 0.2621304907706E-01
 0.2636650024635E-01
 0.2707612787821E-01
 0.2864585099741E-01
 0.3137331462295E-01
 0.3539228894662E-01
 0.4048512308519E-01
 0.4599622003522E-01
 0.5099666553922E-01
 0.2394643515453E-01
 0.2492499674854E-01
 0.2588872758589E-01
 0.2677152435711E-01
 0.2752618156864E-01
 0.2813386354904E-01
 0.2859974309575E-01
 0.2894272373798E-01
 0.2918612417103E-01
 0.2935195343932E-01
 0.2945845427301E-01
 0.2951965488660E-01
 0.2954584136006E-01
 0.2954429995021E-01
 0.2952002526912E-01
 0.2947628656032E-01
 0.2941503427782E-01
 0.2933716365413E-01
 0.2924266076957E-01
 0.2913065967325E-01
 0.2899944601438E-01
 0.2884644336456E-01
 0.2866826146490E-01
 0.2846089527879E-01
 0.2822018046808E-01
 0.2794262848191E-01
 0.2762673758460E-01
 0.2727497672347E-01
 0.2689710880922E-01
 0.2651469338618E-01
 0.2616699944644E-01
 0.2592029626866E-01
 0.2588124459538E-01
 0.2621181767096E-01
 0.2713631281381E-01
 0.2891983744349E-01
 0.3179206529871E-01
 0.3581322514547E-01
 0.4073856358289E-01
 0.4597083876717E-01
 0.5064051292337E-01
 0.2389107148052E-01
 0.2483345067354E-01
 0.2576361988746E-01
 0.2662372002800E-01
 0.2737018711423E-01
 0.2798257606035E-01
 0.2846143163711E-01
 0.2882058374838E-01
 0.2907933148556E-01
 0.2925710134425E-01
 0.2937076344815E-01
 0.2943378841431E-01
 0.2945637572426E-01
 0.2944596058219E-01
 0.2940778285310E-01
 0.2934538192858E-01
 0.2926097565126E-01
 0.2915572470193E-01
 0.2902989983813E-01
 0.2888297788324E-01
 0.2871370315562E-01
 0.2852014925964E-01
 0.2829986358488E-01
 0.2805017703878E-01
 0.2776877353685E-01
 0.2745463920875E-01
 0.2710949225560E-01
 0.2673990425299E-01
 0.2636072711601E-01
 0.2599966445294E-01
 0.2570310475665E-01
 0.2554465561546E-01
 0.2563624784684E-01
 0.2613817298643E-01
 0.2725827541455E-01
 0.2922283277027E-01
 0.3220283860932E-01
 0.3620308924901E-01
 0.4096583439407E-01
 0.4595934930200E-01
 0.5031505980737E-01
 0.2384183891574E-01
 0.2475141173746E-01
 0.2565067703550E-01
 0.2648865867200E-01
 0.2722522134763E-01
 0.2783911819260E-01
 0.2832734730639E-01
 0.2869946696826E-01
 0.2897113099010E-01
 0.2915923469017E-01
 0.2927916384823E-01
 0.2934367407416E-01
 0.2936273588991E-01
 0.2934382816496E-01
 0.2929237066206E-01
 0.2921214338671E-01
 0.2910563269833E-01
 0.2897429251813E-01
 0.2881873027885E-01
 0.2863884026006E-01
 0.2843392092833E-01
 0.2820280843707E-01
 0.2794410989933E-01
 0.2765661203074E-01
 0.2733994946653E-01
 0.2699564999009E-01
 0.2662865858735E-01
 0.2624955268004E-01
 0.2587799574396E-01
 0.2554724561139E-01
 0.2530970332196E-01
 0.2524444318268E-01
 0.2546588141593E-01
 0.2612928417065E-01
 0.2742371535291E-01
 0.2953870958497E-01
 0.3259586615814E-01
 0.3656005520454E-01
 0.4116785343747E-01
 0.4594880508100E-01
 0.5007601206976E-01
 0.2379790238156E-01
 0.2467761811695E-01
 0.2554844951251E-01
 0.2636513224791E-01
 0.2709069027047E-01
 0.2770362090295E-01
 0.2819822939988E-01
 0.2858050799699E-01
 0.2886285332032E-01
 0.2905974258941E-01
 0.2918502936272E-01
 0.2925064407406E-01
 0.2926621484790E-01
 0.2923917402742E-01
 0.2917506209217E-01
 0.2907787090498E-01
 0.2895035385794E-01
 0.2879428072385E-01
 0.2861063980650E-01
 0.2839980640761E-01
 0.2816171309244E-01
 0.2789604995143E-01
 0.2760257830519E-01
 0.2728162613478E-01
 0.2693483983597E-01
 0.2656630633292E-01
 0.2618414438601E-01
 0.2580276874124E-01
 0.2544629823132E-01
 0.2515288815234E-01
 0.2497983539837E-01
 0.2500994550731E-01
 0.2535776675515E-01
 0.2617108228333E-01
 0.2761920581171E-01
 0.2985792275925E-01
 0.3296849133707E-01
 0.3688557390801E-01
 0.4135477216622E-01
 0.4591488447760E-01
 0.5006564166705E-01
 0.2375851876952E-01
 0.2461100135394E-01
 0.2545565527949E-01
 0.2625198394870E-01
 0.2696587348112E-01
 0.2757593357222E-01
 0.2807444635978E-01
 0.2846444626751E-01
 0.2875544959126E-01
 0.2895966366894E-01
 0.2908940719001E-01
 0.2915571205087E-01
 0.2916777428634E-01
 0.2913290200912E-01
 0.2905670177637E-01
 0.2894334791382E-01
 0.2879585529274E-01
 0.2861632548615E-01
 0.2840616276682E-01
 0.2816627520221E-01
 0.2789729438370E-01
 0.2759983715143E-01
 0.2727489148913E-01
 0.2692438728501E-01
 0.2655201701888E-01
 0.2616441619101E-01
 0.2577279533695E-01
 0.2539521050179E-01
 0.2505986256984E-01
 0.2480916179974E-01
 0.2470427070576E-01
 0.2483021872236E-01
 0.2529979294970E-01
 0.2625159824520E-01
 0.2783506490293E-01
 0.3017564519450E-01
 0.3332125565295E-01
 0.3718678303943E-01
 0.4152163909480E-01
 0.4592052957821E-01
 0.5004013962938E-01
 0.2372310617167E-01
 0.2455071786968E-01
 0.2537128797520E-01
 0.2614831112525E-01
 0.2685023280187E-01
 0.2745600946885E-01
 0.2795641989074E-01
 0.2835205870242E-01
 0.2864991862026E-01
 0.2886010894964E-01
 0.2899344902597E-01
 0.2906003379538E-01
 0.2906856279714E-01
 0.2902615772889E-01
 0.2893844445000E-01
 0.2880975275599E-01
 0.2864335191970E-01
 0.2844168659470E-01
 0.2820660445379E-01
 0.2793958709516E-01
 0.2764201521683E-01
 0.2731548596368E-01
 0.2696226246990E-01
 0.2658590851028E-01
 0.2619216376225E-01
 0.2579016404266E-01
 0.2539408798634E-01
 0.2502539438472E-01
 0.2471595884254E-01
 0.2451179891301E-01
 0.2447697427789E-01
 0.2469742125152E-01
 0.2528267426516E-01
 0.2636110595129E-01
 0.2806287698629E-01
 0.3048659575375E-01
 0.3365353545809E-01
 0.3746451168520E-01
 0.4167918559735E-01
 0.4595297936341E-01
 0.5000871443560E-01
 0.2369119271924E-01
 0.2449607970763E-01
 0.2529451677309E-01
 0.2605334593780E-01
 0.2674328099386E-01
 0.2734376469664E-01
 0.2784447274242E-01
 0.2824399635564E-01
 0.2854713370583E-01
 0.2876207894823E-01
 0.2889821529916E-01
 0.2896469107090E-01
 0.2896966743249E-01
 0.2892003227199E-01
 0.2882139199264E-01
 0.2867820763516E-01
 0.2849399454167E-01
 0.2827154714065E-01
 0.2801317620821E-01
 0.2772096659402E-01
 0.2739708347724E-01
 0.2704413920018E-01
 0.2666569786570E-01
 0.2626696269786E-01
 0.2585569201192E-01
 0.2544344150281E-01
 0.2504720127650E-01
 0.2469156527674E-01
 0.2441166185019E-01
 0.2425648773544E-01
 0.2429211870865E-01
 0.2460428698113E-01
 0.2529815929773E-01
 0.2649136860206E-01
 0.2829589213905E-01
 0.3078704777535E-01
 0.3396492051101E-01
 0.3772143971533E-01
 0.4183174027014E-01
 0.4599999389844E-01
 0.4997887632130E-01
 0.2366239477212E-01
 0.2444652522690E-01
 0.2522465507909E-01
 0.2596643788129E-01
 0.2664458409277E-01
 0.2723909625746E-01
 0.2773885293255E-01
 0.2814080646175E-01
 0.2844785833222E-01
 0.2866647246938E-01
 0.2880467835846E-01
 0.2887069097017E-01
 0.2887211077505E-01
 0.2881555810818E-01
 0.2870658898109E-01
 0.2854977437564E-01
 0.2834886630500E-01
 0.2810701119790E-01
 0.2782699497995E-01
 0.2751152457074E-01
 0.2716357069500E-01
 0.2678677798770E-01
 0.2638601622471E-01
 0.2596810970781E-01
 0.2554278090919E-01
 0.2512389841189E-01
 0.2473108263807E-01
 0.2439177823437E-01
 0.2414394585619E-01
 0.2403897151385E-01
 0.2414416982473E-01
 0.2454416591509E-01
 0.2533898725129E-01
 0.2663545109472E-01
 0.2852875846142E-01
 0.3107429067346E-01
 0.3425552857093E-01
 0.3795997380091E-01
 0.4197944133847E-01
 0.4605443788373E-01
 0.4995391687921E-01
 0.2363640003382E-01
 0.2440159540390E-01
 0.2516113544505E-01
 0.2588703775151E-01
 0.2655376057269E-01
 0.2714189431019E-01
 0.2763975234349E-01
 0.2804295066369E-01
 0.2835276008106E-01
 0.2857409510216E-01
 0.2871372619952E-01
 0.2877896615929E-01
 0.2877684897815E-01
 0.2871370595825E-01
 0.2859501915591E-01
 0.2842545109081E-01
 0.2820898010399E-01
 0.2794910252803E-01
 0.2764908401009E-01
 0.2731226177146E-01
 0.2694241943950E-01
 0.2654423431329E-01
 0.2612386717112E-01
 0.2568972370865E-01
 0.2525341396597E-01
 0.2483099135858E-01
 0.2444450872599E-01
 0.2412397064910E-01
 0.2390976409614E-01
 0.2385512589166E-01
 0.2402794458690E-01
 0.2451103671005E-01
 0.2539881893457E-01
 0.2678755162626E-01
 0.2875723588937E-01
 0.3134638314478E-01
 0.3452574639046E-01
 0.3818154184184E-01
 0.4212120096774E-01
 0.4611209713533E-01
 0.4993506995976E-01
 0.2361295420253E-01
 0.2436091487977E-01
 0.2510348908012E-01
 0.2581468338625E-01
 0.2647047857216E-01
 0.2705205021288E-01
 0.2754732083798E-01
 0.2795081990546E-01
 0.2826242274488E-01
 0.2848566718443E-01
 0.2862616645257E-01
 0.2869037577660E-01
 0.2868477060779E-01
 0.2861538249309E-01
 0.2848760271786E-01
 0.2830616968744E-01
 0.2807527685137E-01
 0.2779876420185E-01
 0.2748037448256E-01
 0.2712407331834E-01
 0.2673445165367E-01
 0.2631720432541E-01
 0.2587975092144E-01
 0.2543202020184E-01
 0.2498741480851E-01
 0.2456402900786E-01
 0.2418614031612E-01
 0.2388602488052E-01
 0.2370611418360E-01
 0.2370101741085E-01
 0.2393864702970E-01
 0.2449949748071E-01
 0.2547215817058E-01
 0.2694283744396E-01
 0.2897796905640E-01
 0.3160194878128E-01
 0.3477595286580E-01
 0.3838685035420E-01
 0.4225577276429E-01
 0.4617043330142E-01
 0.4992250899664E-01
 0.2359185031625E-01
 0.2432417676158E-01
 0.2505132905359E-01
 0.2574898716482E-01
 0.2639445209351E-01
 0.2696946156433E-01
 0.2746167689073E-01
 0.2786474652074E-01
 0.2817735677463E-01
 0.2840183114610E-01
 0.2854273047359E-01
 0.2860570684473E-01
 0.2859669619009E-01
 0.2852142881425E-01
 0.2838519443724E-01
 0.2819279420981E-01
 0.2794862462607E-01
 0.2765685914398E-01
 0.2732170813563E-01
 0.2694775416946E-01
 0.2654037786387E-01
 0.2610626229520E-01
 0.2565403804611E-01
 0.2519508258909E-01
 0.2474448135175E-01
 0.2432221418257E-01
 0.2395457156879E-01
 0.2367582214418E-01
 0.2353009120321E-01
 0.2357294649751E-01
 0.2387188712274E-01
 0.2450474239093E-01
 0.2555426838030E-01
 0.2709729578248E-01
 0.2918830476323E-01
 0.3183999432254E-01
 0.3500642862655E-01
 0.3857619311919E-01
 0.4238210283430E-01
 0.4622784866216E-01
 0.4991581226865E-01
 0.2357292017301E-01
 0.2429113036332E-01
 0.2500433647666E-01
 0.2568962513154E-01
 0.2632543672339E-01
 0.2689403510137E-01
 0.2738291548244E-01
 0.2778501393869E-01
 0.2809800816194E-01
 0.2832315812666E-01
 0.2846407734650E-01
 0.2852567598816E-01
 0.2851337827095E-01
 0.2843261953863E-01
 0.2828858240266E-01
 0.2808611983671E-01
 0.2782981848008E-01
 0.2752417133312E-01
 0.2717384050036E-01
 0.2678400512453E-01
 0.2636080676512E-01
 0.2591187464664E-01
 0.2544698879983E-01
 0.2497888754047E-01
 0.2452421764533E-01
 0.2410468202717E-01
 0.2374837326915E-01
 0.2349128784062E-01
 0.2337892964168E-01
 0.2346747734226E-01
 0.2382368651321E-01
 0.2452252894242E-01
 0.2564108956227E-01
 0.2724760364810E-01
 0.2938614085028E-01
 0.3205978279550E-01
 0.3521735715983E-01
 0.3874966509948E-01
 0.4249939502025E-01
 0.4628326174317E-01
 0.4991422376062E-01
 0.2355602738149E-01
 0.2426157127023E-01
 0.2496224911343E-01
 0.2563632760176E-01
 0.2626322524684E-01
 0.2682568811141E-01
 0.2731111388894E-01
 0.2771186442191E-01
 0.2802476592466E-01
 0.2825015385852E-01
 0.2839079769834E-01
 0.2845093133289E-01
 0.2843550187077E-01
 0.2834966238510E-01
 0.2819848731784E-01
 0.2798687244144E-01
 0.2771958080448E-01
 0.2740140753699E-01
 0.2703744461497E-01
 0.2663343918948E-01
 0.2619625495724E-01
 0.2573441379814E-01
 0.2525877174359E-01
 0.2478332889535E-01
 0.2432616318895E-01
 0.2391053421976E-01
 0.2356613034607E-01
 0.2333042919377E-01
 0.2325003583329E-01
 0.2338145734140E-01
 0.2379047478444E-01
 0.2454914007188E-01
 0.2572915964891E-01
 0.2739101538862E-01
 0.2956980581565E-01
 0.3226075372437E-01
 0.3540885386993E-01
 0.3890728401275E-01
 0.4260707633571E-01
 0.4633587057852E-01
 0.4991681530613E-01
 0.2354106170400E-01
 0.2423533325242E-01
 0.2492485197846E-01
 0.2558887109325E-01
 0.2620764338128E-01
 0.2676434883246E-01
 0.2724633585437E-01
 0.2764550518044E-01
 0.2795796835029E-01
 0.2818326381891E-01
 0.2832341724160E-01
 0.2838205446588E-01
 0.2836368520461E-01
 0.2827319813570E-01
 0.2811556221923E-01
 0.2789570857921E-01
 0.2761856210018E-01
 0.2728919939867E-01
 0.2691311499448E-01
 0.2649658803669E-01
 0.2604715652604E-01
 0.2557417147485E-01
 0.2508948130061E-01
 0.2460823975617E-01
 0.2414981945726E-01
 0.2373886915599E-01
 0.2340647392716E-01
 0.2319136597437E-01
 0.2314101238466E-01
 0.2331202834472E-01
 0.2376907913973E-01
 0.2458134428263E-01
 0.2581554234702E-01
 0.2752526751109E-01
 0.2973796625905E-01
 0.3244247448770E-01
 0.3558099518630E-01
 0.3904904970858E-01
 0.4270473956741E-01
 0.4638502712890E-01
 0.4992259106687E-01
 0.2352793443526E-01
 0.2421228166607E-01
 0.2489196957165E-01
 0.2554707143769E-01
 0.2615854577694E-01
 0.2670995619769E-01
 0.2718863455053E-01
 0.2758611317549E-01
 0.2789790817175E-01
 0.2812287770198E-01
 0.2826240001704E-01
 0.2831956239085E-01
 0.2829848059511E-01
 0.2820380090208E-01
 0.2804039254991E-01
 0.2781321583820E-01
 0.2752734208478E-01
 0.2718810579442E-01
 0.2680137175985E-01
 0.2637390844848E-01
 0.2591387234445E-01
 0.2543137136355E-01
 0.2493915413542E-01
 0.2445341271701E-01
 0.2399467368687E-01
 0.2358880835588E-01
 0.2326810849505E-01
 0.2307235531144E-01
 0.2304967611217E-01
 0.2325663177295E-01
 0.2375670994965E-01
 0.2461635611859E-01
 0.2589776251822E-01
 0.2764849955176E-01
 0.2988955678271E-01
 0.3260460967252E-01
 0.3573383894769E-01
 0.3917496770809E-01
 0.4279209157483E-01
 0.4643017466128E-01
 0.4993055705858E-01
 0.2351657462638E-01
 0.2419230806580E-01
 0.2486345947534E-01
 0.2551077793939E-01
 0.2611581236959E-01
 0.2666245918195E-01
 0.2713805463228E-01
 0.2753383886865E-01
 0.2784483682697E-01
 0.2806933326077E-01
 0.2820815131439E-01
 0.2826390941856E-01
 0.2824037549976E-01
 0.2814197861314E-01
 0.2797349650265E-01
 0.2773991346152E-01
 0.2744643103105E-01
 0.2709861534188E-01
 0.2670266478560E-01
 0.2626578858204E-01
 0.2579669891550E-01
 0.2530618092839E-01
 0.2480778419282E-01
 0.2431861811909E-01
 0.2386021993044E-01
 0.2345951929032E-01
 0.2314983462971E-01
 0.2297181145696E-01
 0.2297407079054E-01
 0.2321300930663E-01
 0.2375094408446E-01
 0.2465179861861E-01
 0.2597374959311E-01
 0.2775918930761E-01
 0.3002372701176E-01
 0.3274690030049E-01
 0.3586743577913E-01
 0.3928505471323E-01
 0.4286891491104E-01
 0.4647081973568E-01
 0.4993976766537E-01
 0.2350692600310E-01
 0.2417532581291E-01
 0.2483920709092E-01
 0.2547986845847E-01
 0.2607934512656E-01
 0.2662181592940E-01
 0.2709463362210E-01
 0.2748880911870E-01
 0.2779896792678E-01
 0.2802291956083E-01
 0.2816102024866E-01
 0.2821548892919E-01
 0.2818979356911E-01
 0.2808817362996E-01
 0.2791532553025E-01
 0.2767625312735E-01
 0.2737627120981E-01
 0.2702114891172E-01
 0.2661737769631E-01
 0.2617255386474E-01
 0.2569587655063E-01
 0.2519872217803E-01
 0.2469533620785E-01
 0.2420362020206E-01
 0.2374597735726E-01
 0.2335023478726E-01
 0.2305056775422E-01
 0.2288832124381E-01
 0.2291247580052E-01
 0.2317920052970E-01
 0.2374970750920E-01
 0.2468566886520E-01
 0.2604178904273E-01
 0.2785610048546E-01
 0.3013980136879E-01
 0.3286914854419E-01
 0.3598183388263E-01
 0.3937933647847E-01
 0.4293504238613E-01
 0.4650652237229E-01
 0.4994935665096E-01
 0.2349894446265E-01
 0.2416126651372E-01
 0.2481912134124E-01
 0.2545424531636E-01
 0.2604906520851E-01
 0.2658799279870E-01
 0.2705840281327E-01
 0.2745112940252E-01
 0.2776048005368E-01
 0.2798387970407E-01
 0.2812130199785E-01
 0.2817463497848E-01
 0.2814709568941E-01
 0.2804276343299E-01
 0.2786626496374E-01
 0.2762261982376E-01
 0.2731723836701E-01
 0.2695606206455E-01
 0.2654583162528E-01
 0.2609447242676E-01
 0.2561159679084E-01
 0.2510908130644E-01
 0.2460175764552E-01
 0.2410819117873E-01
 0.2365150594156E-01
 0.2326026932457E-01
 0.2296935340929E-01
 0.2282065601528E-01
 0.2286341170148E-01
 0.2315353872199E-01
 0.2375125829005E-01
 0.2471630731270E-01
 0.2610048152170E-01
 0.2793824074849E-01
 0.3023724822012E-01
 0.3297120563389E-01
 0.3607707971261E-01
 0.3945784333168E-01
 0.4299034162629E-01
 0.4653689517492E-01
 0.4995855763350E-01
 0.2349259606455E-01
 0.2415007716188E-01
 0.2480313120304E-01
 0.2543383193729E-01
 0.2602491055341E-01
 0.2656096342003E-01
 0.2702938783210E-01
 0.2742088549537E-01
 0.2772951898624E-01
 0.2795241306578E-01
 0.2808923969892E-01
 0.2814162371115E-01
 0.2811258095237E-01
 0.2800606131165E-01
 0.2782663465908E-01
 0.2757933272929E-01
 0.2726964313491E-01
 0.2690364729939E-01
 0.2648828860787E-01
 0.2603175993270E-01
 0.2554400892923E-01
 0.2503731707579E-01
 0.2452698897057E-01
 0.2403212319629E-01
 0.2357641960386E-01
 0.2318903242335E-01
 0.2290537946035E-01
 0.2276778064539E-01
 0.2282564355166E-01
 0.2313464574819E-01
 0.2375417088785E-01
 0.2474237134010E-01
 0.2614870922942E-01
 0.2800482853886E-01
 0.3031565619209E-01
 0.3305296206837E-01
 0.3615321662781E-01
 0.3952060585708E-01
 0.4303470664967E-01
 0.4656160629673E-01
 0.4996671802819E-01
 0.2348785544209E-01
 0.2414171788405E-01
 0.2479118295895E-01
 0.2541857015094E-01
 0.2600683387751E-01
 0.2654070782968E-01
 0.2700760896575E-01
 0.2739814471916E-01
 0.2770619943116E-01
 0.2792867708784E-01
 0.2806502600878E-01
 0.2811667456170E-01
 0.2808648751508E-01
 0.2797831700932E-01
 0.2779668961914E-01
 0.2754664604020E-01
 0.2723373231189E-01
 0.2686413604130E-01
 0.2644495453090E-01
 0.2598458373045E-01
 0.2549322555681E-01
 0.2498346787959E-01
 0.2447097221975E-01
 0.2397523821628E-01
 0.2352039692867E-01
 0.2313603938769E-01
 0.2285798563299E-01
 0.2272886020356E-01
 0.2279818266317E-01
 0.2312142677895E-01
 0.2375732233911E-01
 0.2476281318900E-01
 0.2618560887800E-01
 0.2805526723842E-01
 0.3037471604342E-01
 0.3311433965443E-01
 0.3621028275578E-01
 0.3956765154611E-01
 0.4306805382790E-01
 0.4658038372744E-01
 0.4997330790157E-01
 0.2348470458769E-01
 0.2413616021683E-01
 0.2478323809008E-01
 0.2540841810235E-01
 0.2599480109132E-01
 0.2652721173481E-01
 0.2699308134273E-01
 0.2738295685085E-01
 0.2769060633647E-01
 0.2791278867305E-01
 0.2804880434653E-01
 0.2809995123644E-01
 0.2806899332966E-01
 0.2795971729484E-01
 0.2777662055689E-01
 0.2752474970688E-01
 0.2720968996977E-01
 0.2683770032397E-01
 0.2641598159182E-01
 0.2595306627277E-01
 0.2545932709566E-01
 0.2494755746960E-01
 0.2443365789584E-01
 0.2393739588881E-01
 0.2348318961441E-01
 0.2310091965121E-01
 0.2282667075741E-01
 0.2270326476622E-01
 0.2278028738758E-01
 0.2311306545365E-01
 0.2375988078574E-01
 0.2477686235765E-01
 0.2621055073176E-01
 0.2808912558980E-01
 0.3041420704703E-01
 0.3315528519243E-01
 0.3624830881032E-01
 0.3959900250457E-01
 0.4309032039915E-01
 0.4659301943230E-01
 0.4997792578618E-01
 0.2348313197233E-01
 0.2413338585881E-01
 0.2477927174564E-01
 0.2540334872173E-01
 0.2598879011979E-01
 0.2652046593706E-01
 0.2698581502020E-01
 0.2737535474958E-01
 0.2768279583134E-01
 0.2790482520290E-01
 0.2804066981593E-01
 0.2809156245655E-01
 0.2806021670826E-01
 0.2795038641643E-01
 0.2776655434816E-01
 0.2751377002044E-01
 0.2719763832222E-01
 0.2682445409257E-01
 0.2640147018599E-01
 0.2593728772517E-01
 0.2544236523405E-01
 0.2492959927129E-01
 0.2441501013193E-01
 0.2391849941108E-01
 0.2346462870700E-01
 0.2308342286298E-01
 0.2281109795008E-01
 0.2269057270029E-01
 0.2277146333239E-01
 0.2310901989622E-01
 0.2376129664917E-01
 0.2478401245156E-01
 0.2622312329440E-01
 0.2810612363729E-01
 0.3043398726272E-01
 0.3317576579602E-01
 0.3626731630199E-01
 0.3961467406987E-01
 0.4310146426827E-01
 0.4659937274957E-01
 0.4998030231291E-01
 0.2348313197261E-01
 0.2413338585910E-01
 0.2477927174597E-01
 0.2540334872210E-01
 0.2598879012021E-01
 0.2652046593753E-01
 0.2698581502073E-01
 0.2737535475016E-01
 0.2768279583198E-01
 0.2790482520359E-01
 0.2804066981667E-01
 0.2809156245735E-01
 0.2806021670913E-01
 0.2795038641738E-01
 0.2776655434921E-01
 0.2751377002161E-01
 0.2719763832353E-01
 0.2682445409404E-01
 0.2640147018763E-01
 0.2593728772699E-01
 0.2544236523606E-01
 0.2492959927347E-01
 0.2441501013426E-01
 0.2391849941351E-01
 0.2346462870945E-01
 0.2308342286536E-01
 0.2281109795225E-01
 0.2269057270212E-01
 0.2277146333370E-01
 0.2310901989684E-01
 0.2376129664896E-01
 0.2478401245042E-01
 0.2622312329234E-01
 0.2810612363443E-01
 0.3043398725932E-01
 0.3317576579246E-01
 0.3626731629870E-01
 0.3961467406726E-01
 0.4310146426662E-01
 0.4659937274898E-01
 0.4998030231320E-01
 0.2348470458852E-01
 0.2413616021772E-01
 0.2478323809106E-01
 0.2540841810346E-01
 0.2599480109257E-01
 0.2652721173623E-01
 0.2699308134431E-01
 0.2738295685260E-01
 0.2769060633837E-01
 0.2791278867510E-01
 0.2804880434875E-01
 0.2809995123883E-01
 0.2806899333226E-01
 0.2795971729770E-01
 0.2777662056004E-01
 0.2752474971040E-01
 0.2720968997370E-01
 0.2683770032837E-01
 0.2641598159674E-01
 0.2595306627825E-01
 0.2545932710169E-01
 0.2494755747614E-01
 0.2443365790282E-01
 0.2393739589609E-01
 0.2348318962176E-01
 0.2310091965835E-01
 0.2282667076396E-01
 0.2270326477173E-01
 0.2278028739154E-01
 0.2311306545556E-01
 0.2375988078514E-01
 0.2477686235427E-01
 0.2621055072560E-01
 0.2808912558123E-01
 0.3041420703684E-01
 0.3315528518174E-01
 0.3624830880044E-01
 0.3959900249672E-01
 0.4309032039420E-01
 0.4659301943052E-01
 0.4997792578707E-01
 0.2348785544347E-01
 0.2414171788553E-01
 0.2479118296058E-01
 0.2541857015279E-01
 0.2600683387960E-01
 0.2654070783205E-01
 0.2700760896839E-01
 0.2739814472207E-01
 0.2770619943432E-01
 0.2792867709126E-01
 0.2806502601247E-01
 0.2811667456568E-01
 0.2808648751941E-01
 0.2797831701406E-01
 0.2779668962438E-01
 0.2754664604604E-01
 0.2723373231842E-01
 0.2686413604862E-01
 0.2644495453909E-01
 0.2598458373956E-01
 0.2549322556684E-01
 0.2498346789050E-01
 0.2447097223139E-01
 0.2397523822842E-01
 0.2352039694096E-01
 0.2313603939964E-01
 0.2285798564399E-01
 0.2272886021285E-01
 0.2279818266990E-01
 0.2312142678227E-01
 0.2375732233826E-01
 0.2476281318350E-01
 0.2618560886784E-01
 0.2805526722422E-01
 0.3037471602647E-01
 0.3311433963661E-01
 0.3621028273928E-01
 0.3956765153301E-01
 0.4306805381966E-01
 0.4658038372452E-01
 0.4997330790316E-01
 0.2349259606649E-01
 0.2415007716396E-01
 0.2480313120533E-01
 0.2543383193987E-01
 0.2602491055635E-01
 0.2656096342334E-01
 0.2702938783579E-01
 0.2742088549943E-01
 0.2772951899066E-01
 0.2795241307055E-01
 0.2808923970406E-01
 0.2814162371670E-01
 0.2811258095840E-01
 0.2800606131826E-01
 0.2782663466639E-01
 0.2757933273743E-01
 0.2726964314402E-01
 0.2690364730960E-01
 0.2648828861930E-01
 0.2603175994542E-01
 0.2554400894326E-01
 0.2503731709105E-01
 0.2452698898689E-01
 0.2403212321333E-01
 0.2357641962114E-01
 0.2318903244020E-01
 0.2290537947590E-01
 0.2276778065860E-01
 0.2282564356134E-01
 0.2313464575312E-01
 0.2375417088697E-01
 0.2474237133270E-01
 0.2614870921544E-01
 0.2800482851914E-01
 0.3031565616844E-01
 0.3305296204343E-01
 0.3615321660467E-01
 0.3952060583869E-01
 0.4303470663814E-01
 0.4656160629274E-01
 0.4996671803062E-01
 0.2349894446515E-01
 0.2416126651639E-01
 0.2481912134419E-01
 0.2545424531969E-01
 0.2604906521229E-01
 0.2658799280296E-01
 0.2705840281802E-01
 0.2745112940774E-01
 0.2776048005935E-01
 0.2798387971019E-01
 0.2812130200444E-01
 0.2817463498559E-01
 0.2814709569713E-01
 0.2804276344144E-01
 0.2786626497308E-01
 0.2762261983416E-01
 0.2731723837866E-01
 0.2695606207762E-01
 0.2654583163992E-01
 0.2609447244307E-01
 0.2561159680884E-01
 0.2510908132605E-01
 0.2460175766652E-01
 0.2410819120071E-01
 0.2365150596391E-01
 0.2326026934644E-01
 0.2296935342957E-01
 0.2282065603262E-01
 0.2286341171437E-01
 0.2315353872884E-01
 0.2375125828944E-01
 0.2471630730369E-01
 0.2610048150416E-01
 0.2793824072343E-01
 0.3023724818985E-01
 0.3297120560182E-01
 0.3607707968278E-01
 0.3945784330795E-01
 0.4299034161148E-01
 0.4653689516997E-01
 0.4995855763698E-01
 0.2350692600615E-01
 0.2417532581617E-01
 0.2483920709453E-01
 0.2547986846255E-01
 0.2607934513119E-01
 0.2662181593462E-01
 0.2709463362791E-01
 0.2748880912507E-01
 0.2779896793370E-01
 0.2802291956827E-01
 0.2816102025666E-01
 0.2821548893782E-01
 0.2818979357847E-01
 0.2808817364021E-01
 0.2791532554158E-01
 0.2767625313997E-01
 0.2737627122395E-01
 0.2702114892760E-01
 0.2661737771412E-01
 0.2617255388460E-01
 0.2569587657258E-01
 0.2519872220199E-01
 0.2469533623354E-01
 0.2420362022902E-01
 0.2374597738477E-01
 0.2335023481427E-01
 0.2305056777942E-01
 0.2288832126555E-01
 0.2291247581693E-01
 0.2317920053883E-01
 0.2374970750927E-01
 0.2468566885497E-01
 0.2604178902196E-01
 0.2785610045531E-01
 0.3013980133203E-01
 0.3286914850501E-01
 0.3598183384603E-01
 0.3937933644933E-01
 0.4293504236803E-01
 0.4650652236649E-01
 0.4994935665576E-01
 0.2351657462998E-01
 0.2419230806966E-01
 0.2486345947961E-01
 0.2551077794421E-01
 0.2611581237507E-01
 0.2666245918811E-01
 0.2713805463914E-01
 0.2753383887617E-01
 0.2784483683511E-01
 0.2806933326953E-01
 0.2820815132379E-01
 0.2826390942868E-01
 0.2824037551073E-01
 0.2814197862514E-01
 0.2797349651591E-01
 0.2773991347630E-01
 0.2744643104763E-01
 0.2709861536051E-01
 0.2670266480651E-01
 0.2626578860540E-01
 0.2579669894136E-01
 0.2530618095667E-01
 0.2480778422323E-01
 0.2431861815109E-01
 0.2386021996320E-01
 0.2345951932266E-01
 0.2314983466007E-01
 0.2297181148342E-01
 0.2297407081089E-01
 0.2321300931852E-01
 0.2375094408571E-01
 0.2465179860765E-01
 0.2597374956953E-01
 0.2775918927266E-01
 0.3002372696866E-01
 0.3274690025420E-01
 0.3586743573570E-01
 0.3928505467859E-01
 0.4286891488964E-01
 0.4647081972918E-01
 0.4993976767181E-01
 0.2352793443942E-01
 0.2421228167053E-01
 0.2489196957659E-01
 0.2554707144327E-01
 0.2615854578327E-01
 0.2670995620482E-01
 0.2718863455844E-01
 0.2758611318414E-01
 0.2789790818110E-01
 0.2812287771202E-01
 0.2826240002779E-01
 0.2831956240241E-01
 0.2829848060763E-01
 0.2820380091577E-01
 0.2804039256504E-01
 0.2781321585508E-01
 0.2752734210372E-01
 0.2718810581573E-01
 0.2680137178381E-01
 0.2637390847528E-01
 0.2591387237418E-01
 0.2543137139613E-01
 0.2493915417055E-01
 0.2445341275410E-01
 0.2399467372501E-01
 0.2358880839373E-01
 0.2326810853085E-01
 0.2307235534299E-01
 0.2304967613691E-01
 0.2325663178814E-01
 0.2375670995269E-01
 0.2461635610750E-01
 0.2589776249237E-01
 0.2764849951242E-01
 0.2988955673347E-01
 0.3260460961915E-01
 0.3573383889733E-01
 0.3917496766784E-01
 0.4279209155011E-01
 0.4643017465424E-01
 0.4993055706706E-01
 0.2354106170872E-01
 0.2423533325748E-01
 0.2492485198406E-01
 0.2558887109959E-01
 0.2620764338847E-01
 0.2676434884054E-01
 0.2724633586333E-01
 0.2764550519023E-01
 0.2795796836084E-01
 0.2818326383021E-01
 0.2832341725368E-01
 0.2838205447884E-01
 0.2836368521864E-01
 0.2827319815103E-01
 0.2811556223618E-01
 0.2789570859811E-01
 0.2761856212141E-01
 0.2728919942258E-01
 0.2691311502139E-01
 0.2649658806686E-01
 0.2604715655958E-01
 0.2557417151170E-01
 0.2508948134046E-01
 0.2460823979842E-01
 0.2414981950090E-01
 0.2373886919957E-01
 0.2340647396871E-01
 0.2319136601144E-01
 0.2314101241434E-01
 0.2331202836385E-01
 0.2376907914525E-01
 0.2458134427214E-01
 0.2581554231953E-01
 0.2752526746782E-01
 0.2973796620395E-01
 0.3244247442732E-01
 0.3558099512892E-01
 0.3904904966259E-01
 0.4270473953934E-01
 0.4638502712150E-01
 0.4992259107783E-01
 0.2355602738677E-01
 0.2426157127589E-01
 0.2496224911972E-01
 0.2563632760886E-01
 0.2626322525489E-01
 0.2682568812046E-01
 0.2731111389895E-01
 0.2771186443281E-01
 0.2802476593639E-01
 0.2825015387104E-01
 0.2839079771170E-01
 0.2845093134720E-01
 0.2843550188623E-01
 0.2834966240199E-01
 0.2819848733651E-01
 0.2798687246228E-01
 0.2771958082790E-01
 0.2740140756340E-01
 0.2703744464476E-01
 0.2663343922293E-01
 0.2619625499452E-01
 0.2573441383921E-01
 0.2525877178817E-01
 0.2478332894280E-01
 0.2432616323822E-01
 0.2391053426928E-01
 0.2356613039371E-01
 0.2333042923682E-01
 0.2325003586851E-01
 0.2338145736521E-01
 0.2379047479327E-01
 0.2454914006281E-01
 0.2572915962056E-01
 0.2739101534204E-01
 0.2956980575504E-01
 0.3226075365706E-01
 0.3540885380544E-01
 0.3890728396088E-01
 0.4260707630422E-01
 0.4633587057094E-01
 0.4991681532005E-01
 0.2357292017885E-01
 0.2429113036959E-01
 0.2500433648363E-01
 0.2568962513941E-01
 0.2632543673232E-01
 0.2689403511139E-01
 0.2738291549350E-01
 0.2778501395070E-01
 0.2809800817482E-01
 0.2832315814038E-01
 0.2846407736109E-01
 0.2852567600375E-01
 0.2851337828777E-01
 0.2843261955700E-01
 0.2828858242296E-01
 0.2808611985938E-01
 0.2782981850559E-01
 0.2752417136194E-01
 0.2717384053290E-01
 0.2678400516116E-01
 0.2636080680605E-01
 0.2591187469188E-01
 0.2544698884912E-01
 0.2497888759317E-01
 0.2452421770035E-01
 0.2410468208286E-01
 0.2374837332324E-01
 0.2349128789017E-01
 0.2337892968311E-01
 0.2346747737156E-01
 0.2382368652628E-01
 0.2452252893576E-01
 0.2564108953396E-01
 0.2724760359892E-01
 0.2938614078460E-01
 0.3205978272141E-01
 0.3521735708813E-01
 0.3874966504155E-01
 0.4249939498529E-01
 0.4628326173557E-01
 0.4991422377805E-01
 0.2359185032266E-01
 0.2432417676846E-01
 0.2505132906124E-01
 0.2574898717348E-01
 0.2639445210333E-01
 0.2696946157533E-01
 0.2746167690284E-01
 0.2786474653385E-01
 0.2817735678863E-01
 0.2840183116097E-01
 0.2854273048936E-01
 0.2860570686154E-01
 0.2859669620821E-01
 0.2852142883400E-01
 0.2838519445907E-01
 0.2819279423421E-01
 0.2794862465354E-01
 0.2765685917506E-01
 0.2732170817081E-01
 0.2694775420915E-01
 0.2654037790835E-01
 0.2610626234454E-01
 0.2565403810007E-01
 0.2519508264707E-01
 0.2474448141264E-01
 0.2432221424467E-01
 0.2395457162971E-01
 0.2367582220076E-01
 0.2353009125157E-01
 0.2357294653320E-01
 0.2387188714110E-01
 0.2450474238780E-01
 0.2555426835312E-01
 0.2709729573159E-01
 0.2918830469305E-01
 0.3183999424186E-01
 0.3500642854756E-01
 0.3857619305501E-01
 0.4238210279574E-01
 0.4622784865473E-01
 0.4991581229019E-01
 0.2361295420950E-01
 0.2436091488727E-01
 0.2510348908847E-01
 0.2581468339571E-01
 0.2647047858287E-01
 0.2705205022486E-01
 0.2754732085113E-01
 0.2795081991965E-01
 0.2826242275998E-01
 0.2848566720040E-01
 0.2862616646945E-01
 0.2869037579456E-01
 0.2868477062710E-01
 0.2861538251413E-01
 0.2848760274111E-01
 0.2830616971344E-01
 0.2807527688069E-01
 0.2779876423507E-01
 0.2748037452025E-01
 0.2712407336097E-01
 0.2673445170159E-01
 0.2631720437875E-01
 0.2587975098003E-01
 0.2543202026512E-01
 0.2498741487539E-01
 0.2456402907660E-01
 0.2418614038425E-01
 0.2388602494471E-01
 0.2370611423968E-01
 0.2370101745393E-01
 0.2393864705452E-01
 0.2449949748239E-01
 0.2547215814578E-01
 0.2694283739243E-01
 0.2897796898243E-01
 0.3160194869430E-01
 0.3477595277946E-01
 0.3838685028356E-01
 0.4225577272204E-01
 0.4617043329431E-01
 0.4992250902290E-01
 0.2363640004137E-01
 0.2440159541201E-01
 0.2516113545410E-01
 0.2588703776178E-01
 0.2655376058431E-01
 0.2714189432317E-01
 0.2763975235769E-01
 0.2804295067894E-01
 0.2835276009723E-01
 0.2857409511918E-01
 0.2871372621745E-01
 0.2877896617830E-01
 0.2877684899857E-01
 0.2871370598048E-01
 0.2859501918047E-01
 0.2842545111828E-01
 0.2820898013501E-01
 0.2794910256325E-01
 0.2764908405013E-01
 0.2731226181687E-01
 0.2694241949071E-01
 0.2654423437051E-01
 0.2612386723426E-01
 0.2568972377721E-01
 0.2525341403890E-01
 0.2483099143417E-01
 0.2444450880170E-01
 0.2412397072147E-01
 0.2390976416074E-01
 0.2385512594317E-01
 0.2402794461948E-01
 0.2451103671799E-01
 0.2539881891362E-01
 0.2678755157536E-01
 0.2875723581249E-01
 0.3134638305190E-01
 0.3452574629674E-01
 0.3818154176453E-01
 0.4212120092166E-01
 0.4611209712867E-01
 0.4993506999137E-01
 0.2366239478024E-01
 0.2444652523564E-01
 0.2522465508886E-01
 0.2596643789239E-01
 0.2664458410533E-01
 0.2723909627144E-01
 0.2773885294779E-01
 0.2814080647804E-01
 0.2844785834941E-01
 0.2866647248740E-01
 0.2880467837736E-01
 0.2887069099016E-01
 0.2887211079646E-01
 0.2881555813147E-01
 0.2870658900682E-01
 0.2854977440444E-01
 0.2834886633757E-01
 0.2810701123494E-01
 0.2782699502217E-01
 0.2751152461877E-01
 0.2716357074934E-01
 0.2678677804867E-01
 0.2638601629230E-01
 0.2596810978162E-01
 0.2554278098825E-01
 0.2512389849452E-01
 0.2473108272173E-01
 0.2439177831551E-01
 0.2414394593016E-01
 0.2403897157494E-01
 0.2414416986648E-01
 0.2454416593092E-01
 0.2533898723589E-01
 0.2663545104599E-01
 0.2852875838275E-01
 0.3107429057521E-01
 0.3425552846984E-01
 0.3795997371673E-01
 0.4197944128845E-01
 0.4605443787765E-01
 0.4995391691677E-01
 0.2369119272794E-01
 0.2449607971701E-01
 0.2529451678359E-01
 0.2605334594974E-01
 0.2674328100736E-01
 0.2734376471163E-01
 0.2784447275870E-01
 0.2824399637296E-01
 0.2854713372400E-01
 0.2876207896718E-01
 0.2889821531895E-01
 0.2896469109176E-01
 0.2896966745478E-01
 0.2892003229621E-01
 0.2882139201940E-01
 0.2867820766515E-01
 0.2849399457563E-01
 0.2827154717935E-01
 0.2801317625243E-01
 0.2772096664446E-01
 0.2739708353452E-01
 0.2704413926471E-01
 0.2666569793760E-01
 0.2626696277684E-01
 0.2585569209711E-01
 0.2544344159263E-01
 0.2504720136845E-01
 0.2469156536722E-01
 0.2441166193438E-01
 0.2425648780731E-01
 0.2429211876110E-01
 0.2460428700667E-01
 0.2529815928983E-01
 0.2649136855732E-01
 0.2829589205998E-01
 0.3078704767244E-01
 0.3396492040263E-01
 0.3772143962406E-01
 0.4183174021610E-01
 0.4599999389312E-01
 0.4997887636537E-01
 0.2372310618094E-01
 0.2455071787971E-01
 0.2537128798646E-01
 0.2614831113806E-01
 0.2685023281634E-01
 0.2745600948488E-01
 0.2795641990805E-01
 0.2835205872074E-01
 0.2864991863936E-01
 0.2886010896944E-01
 0.2899344904656E-01
 0.2906003381700E-01
 0.2906856282020E-01
 0.2902615775392E-01
 0.2893844447764E-01
 0.2880975278699E-01
 0.2864335195486E-01
 0.2844168663486E-01
 0.2820660449979E-01
 0.2793958714781E-01
 0.2764201527684E-01
 0.2731548603158E-01
 0.2696226254595E-01
 0.2658590859432E-01
 0.2619216385356E-01
 0.2579016413978E-01
 0.2539408808687E-01
 0.2502539448508E-01
 0.2471595893782E-01
 0.2451179899688E-01
 0.2447697434266E-01
 0.2469742128876E-01
 0.2528267426698E-01
 0.2636110591273E-01
 0.2806287690856E-01
 0.3048659564715E-01
 0.3365353534258E-01
 0.3746451158659E-01
 0.4167918553930E-01
 0.4595297935914E-01
 0.5000871448659E-01
 0.2375851877938E-01
 0.2461100136463E-01
 0.2545565529152E-01
 0.2625198396241E-01
 0.2696587349659E-01
 0.2757593358929E-01
 0.2807444637812E-01
 0.2846444628679E-01
 0.2875544961123E-01
 0.2895966368953E-01
 0.2908940721130E-01
 0.2915571207315E-01
 0.2916777431003E-01
 0.2913290203480E-01
 0.2905670180474E-01
 0.2894334794566E-01
 0.2879585532891E-01
 0.2861632552756E-01
 0.2840616281439E-01
 0.2816627525684E-01
 0.2789729444620E-01
 0.2759983722246E-01
 0.2727489156910E-01
 0.2692438737393E-01
 0.2655201711622E-01
 0.2616441629548E-01
 0.2577279544629E-01
 0.2539521061253E-01
 0.2505986267705E-01
 0.2480916189686E-01
 0.2470427078459E-01
 0.2483021877349E-01
 0.2529979296377E-01
 0.2625159821537E-01
 0.2783506482867E-01
 0.3017564508548E-01
 0.3332125553056E-01
 0.3718678293316E-01
 0.4152163903279E-01
 0.4592052957566E-01
 0.5004013968748E-01
 0.2379790239201E-01
 0.2467761812831E-01
 0.2554844952533E-01
 0.2636513226255E-01
 0.2709069028698E-01
 0.2770362092108E-01
 0.2819822941924E-01
 0.2858050801719E-01
 0.2886285334109E-01
 0.2905974261068E-01
 0.2918502938460E-01
 0.2925064409686E-01
 0.2926621487210E-01
 0.2923917405362E-01
 0.2917506212110E-01
 0.2907787093748E-01
 0.2895035389492E-01
 0.2879428076629E-01
 0.2861063985539E-01
 0.2839980646395E-01
 0.2816171315715E-01
 0.2789605002532E-01
 0.2760257838883E-01
 0.2728162622837E-01
 0.2693483993920E-01
 0.2656630644472E-01
 0.2618414450434E-01
 0.2580276886279E-01
 0.2544629835123E-01
 0.2515288826395E-01
 0.2497983549304E-01
 0.2500994557469E-01
 0.2535776678430E-01
 0.2617108226524E-01
 0.2761920574357E-01
 0.2985792264950E-01
 0.3296849120828E-01
 0.3688557379365E-01
 0.4135477210013E-01
 0.4591488447825E-01
 0.5006564173214E-01
 0.2384183892679E-01
 0.2475141174950E-01
 0.2565067704915E-01
 0.2648865868761E-01
 0.2722522136520E-01
 0.2783911821180E-01
 0.2832734732674E-01
 0.2869946698933E-01
 0.2897113101161E-01
 0.2915923471203E-01
 0.2927916387060E-01
 0.2934367409736E-01
 0.2936273591446E-01
 0.2934382819151E-01
 0.2929237069138E-01
 0.2921214341969E-01
 0.2910563273592E-01
 0.2897429256137E-01
 0.2881873032880E-01
 0.2863884031782E-01
 0.2843392099495E-01
 0.2820280851351E-01
 0.2794410998633E-01
 0.2765661212873E-01
 0.2733994957543E-01
 0.2699565010911E-01
 0.2662865871473E-01
 0.2624955281273E-01
 0.2587799587730E-01
 0.2554724573870E-01
 0.2530970343429E-01
 0.2524444326882E-01
 0.2546588146332E-01
 0.2612928416780E-01
 0.2742371529414E-01
 0.2953870947673E-01
 0.3259586602367E-01
 0.3656005508170E-01
 0.4116785336645E-01
 0.4594880508712E-01
 0.5007601214337E-01
 0.2389107149214E-01
 0.2483345068626E-01
 0.2576361990191E-01
 0.2662372004452E-01
 0.2737018713275E-01
 0.2798257608045E-01
 0.2846143165824E-01
 0.2882058377006E-01
 0.2907933150751E-01
 0.2925710136639E-01
 0.2937076347066E-01
 0.2943378843754E-01
 0.2945637574875E-01
 0.2944596060861E-01
 0.2940778288224E-01
 0.2934538196134E-01
 0.2926097568862E-01
 0.2915572474495E-01
 0.2902989988794E-01
 0.2888297794098E-01
 0.2871370322243E-01
 0.2852014933660E-01
 0.2829986367291E-01
 0.2805017713853E-01
 0.2776877364850E-01
 0.2745463933186E-01
 0.2710949238877E-01
 0.2673990439360E-01
 0.2636072725979E-01
 0.2599966459354E-01
 0.2570310488519E-01
 0.2554465572031E-01
 0.2563624791416E-01
 0.2613817300239E-01
 0.2725827537018E-01
 0.2922283266892E-01
 0.3220283847359E-01
 0.3620308912025E-01
 0.4096583431934E-01
 0.4595934931218E-01
 0.5031505989649E-01
 0.2394643516675E-01
 0.2492499676196E-01
 0.2588872760115E-01
 0.2677152437450E-01
 0.2752618158801E-01
 0.2813386356988E-01
 0.2859974311745E-01
 0.2894272376003E-01
 0.2918612419314E-01
 0.2935195346144E-01
 0.2945845429534E-01
 0.2951965490952E-01
 0.2954584138410E-01
 0.2954429997605E-01
 0.2952002529754E-01
 0.2947628659220E-01
 0.2941503431414E-01
 0.2933716369594E-01
 0.2924266081799E-01
 0.2913065972946E-01
 0.2899944607958E-01
 0.2884644343992E-01
 0.2866826155147E-01
 0.2846089537742E-01
 0.2822018057926E-01
 0.2794262860554E-01
 0.2762673771976E-01
 0.2727497686808E-01
 0.2689710895965E-01
 0.2651469353672E-01
 0.2616699958872E-01
 0.2592029639115E-01
 0.2588124468355E-01
 0.2621181770898E-01
 0.2713631278920E-01
 0.2891983735548E-01
 0.3179206516757E-01
 0.3581322501466E-01
 0.4073856350598E-01
 0.4597083878149E-01
 0.5064051302146E-01
 0.2400906436131E-01
 0.2502765256639E-01
 0.2602778599969E-01
 0.2693344710540E-01
 0.2769373414847E-01
 0.2829259444227E-01
 0.2874118915217E-01
 0.2906438160256E-01
 0.2928983352436E-01
 0.2944209289471E-01
 0.2954057917031E-01
 0.2959966377210E-01
 0.2962954408307E-01
 0.2963723532343E-01
 0.2962741415010E-01
 0.2960304800506E-01
 0.2956582197732E-01
 0.2951639677269E-01
 0.2945453141221E-01
 0.2937910104748E-01
 0.2928804266247E-01
 0.2917826427846E-01
 0.2904559150347E-01
 0.2888484570230E-01
 0.2869017171680E-01
 0.2845574352758E-01
 0.2817693729951E-01
 0.2785214110245E-01
 0.2748589968072E-01
 0.2709320505963E-01
 0.2670524274806E-01
 0.2637908997216E-01
 0.2621304918716E-01
 0.2636650030878E-01
 0.2707612787687E-01
 0.2864585092657E-01
 0.3137331449916E-01
 0.3539228881462E-01
 0.4048512300556E-01
 0.4599622005246E-01
 0.5099666564723E-01
 0.2408035126628E-01
 0.2514341305284E-01
 0.2618298477055E-01
 0.2711111634801E-01
 0.2787341551501E-01
 0.2845827999341E-01
 0.2888453840398E-01
 0.2918395405414E-01
 0.2938875835158E-01
 0.2952586986568E-01
 0.2961559445989E-01
 0.2967237670064E-01
 0.2970612268472E-01
 0.2972344381243E-01
 0.2972862388202E-01
 0.2972429860199E-01
 0.2971189317064E-01
 0.2969186914532E-01
 0.2966382182131E-01
 0.2962645932699E-01
 0.2957749194204E-01
 0.2951346458375E-01
 0.2942959806744E-01
 0.2931973721798E-01
 0.2917653755321E-01
 0.2899202807295E-01
 0.2875863308430E-01
 0.2847078096819E-01
 0.2812780370660E-01
 0.2773786971098E-01
 0.2732328828126E-01
 0.2693017633049E-01
 0.2664518391140E-01
 0.2661997209220E-01
 0.2709766094553E-01
 0.2841841699900E-01
 0.3095621127810E-01
 0.3494047897268E-01
 0.4020389769702E-01
 0.4603852713994E-01
 0.5140078314303E-01
 0.2416205474275E-01
 0.2527478609389E-01
 0.2635698787987E-01
 0.2730636452663E-01
 0.2806567885822E-01
 0.2863011492043E-01
 0.2902820026250E-01
 0.2929953353293E-01
 0.2948097866888E-01
 0.2960149330993E-01
 0.2968187244828E-01
 0.2973630849718E-01
 0.2977419069267E-01
 0.2980158740083E-01
 0.2982231554187E-01
 0.2983865269194E-01
 0.2985177378924E-01
 0.2986198085066E-01
 0.2986877346394E-01
 0.2987079090968E-01
 0.2986564858266E-01
 0.2984969668526E-01
 0.2981775507779E-01
 0.2976292356512E-01
 0.2967661448072E-01
 0.2954896055022E-01
 0.2936967904533E-01
 0.2912946661434E-01
 0.2882260245376E-01
 0.2845038691153E-01
 0.2802571701072E-01
 0.2758220860231E-01
 0.2719154751408E-01
 0.2699183478784E-01
 0.2722462587545E-01
 0.2826028713067E-01
 0.3055499329633E-01
 0.3445992018664E-01
 0.3989198169394E-01
 0.4609832254075E-01
 0.5186256091915E-01
 0.2425641803304E-01
 0.2542494630141E-01
 0.2655303716268E-01
 0.2752120780404E-01
 0.2827074714711E-01
 0.2880685130229E-01
 0.2917013605802E-01
 0.2940886425139E-01
 0.2956434331487E-01
 0.2966703524765E-01
 0.2973771263687E-01
 0.2978994042847E-01
 0.2983234959514E-01
 0.2987032550962E-01
 0.2990714880240E-01
 0.2994471810722E-01
 0.2998397264351E-01
 0.3002509842638E-01
 0.3006757081301E-01
 0.3011006264558E-01
 0.3015023340612E-01
 0.3018442006838E-01
 0.3020726767215E-01
 0.3021139602627E-01
 0.3018726501542E-01
 0.3012341571119E-01
 0.3000717705885E-01
 0.2982585102072E-01
 0.2956899171424E-01
 0.2923123603433E-01
 0.2881587423904E-01
 0.2834287405584E-01
 0.2786589088799E-01
 0.2750318914640E-01
 0.2748470674260E-01
 0.2820054561650E-01
 0.3019028383811E-01
 0.3395556258598E-01
 0.3954457048079E-01
 0.4617334291142E-01
 0.5239282970394E-01
 0.2436633382293E-01
 0.2559794559033E-01
 0.2677507259574E-01
 0.2775778656892E-01
 0.2848844304228E-01
 0.2898663458359E-01
 0.2930775853827E-01
 0.2950930175711E-01
 0.2963646530703E-01
 0.2972044197779E-01
 0.2978135799569E-01
 0.2983173690140E-01
 0.2987920441706E-01
 0.2992832925603E-01
 0.2998179520632E-01
 0.3004110895888E-01
 0.3010699423057E-01
 0.3017956813265E-01
 0.3025835533239E-01
 0.3034216646413E-01
 0.3042884788508E-01
 0.3051491412669E-01
 0.3059508056403E-01
 0.3066178376479E-01
 0.3070486598470E-01
 0.3071163596624E-01
 0.3066742342030E-01
 0.3055657820440E-01
 0.3036442855355E-01
 0.3007942639280E-01
 0.2969547571989E-01
 0.2921831738369E-01
 0.2868109382554E-01
 0.2817598900512E-01
 0.2790948475519E-01
 0.2827576161915E-01
 0.2989142690552E-01
 0.3343696085006E-01
 0.3915499465347E-01
 0.4625998895112E-01
 0.5300499683918E-01
 0.2449558104404E-01
 0.2579900365220E-01
 0.2702786515356E-01
 0.2801823746379E-01
 0.2871793721499E-01
 0.2916679572420E-01
 0.2943782466726E-01
 0.2959778207105E-01
 0.2969472860055E-01
 0.2975955386562E-01
 0.2981101685201E-01
 0.2986016568365E-01
 0.2991338151237E-01
 0.2997429718225E-01
 0.3004495254202E-01
 0.3012645942225E-01
 0.3021935265345E-01
 0.3032373065741E-01
 0.3043924149390E-01
 0.3056493694300E-01
 0.3069899288640E-01
 0.3083829662708E-01
 0.3097789342101E-01
 0.3111036227026E-01
 0.3122530591977E-01
 0.3130921334056E-01
 0.3134586873232E-01
 0.3131720824670E-01
 0.3120499727625E-01
 0.3099226190234E-01
 0.3066420424272E-01
 0.3021248532826E-01
 0.2964822372817E-01
 0.2903200369304E-01
 0.2853391728687E-01
 0.2853098699838E-01
 0.2969950948911E-01
 0.3292132182489E-01
 0.3871566887626E-01
 0.4635333735202E-01
 0.5371606444474E-01
 0.2464917270358E-01
 0.2603491280469E-01
 0.2731714743221E-01
 0.2830444832958E-01
 0.2895738343754E-01
 0.2934359769229E-01
 0.2955633223621E-01
 0.2967080910271E-01
 0.2973631050134E-01
 0.2978213532925E-01
 0.2982489091721E-01
 0.2987372174051E-01
 0.2993354851111E-01
 0.3000697234780E-01
 0.3009536020605E-01
 0.3019943840575E-01
 0.3031958653422E-01
 0.3045593714487E-01
 0.3060833472470E-01
 0.3077617179363E-01
 0.3095809177575E-01
 0.3115154834599E-01
 0.3135218421738E-01
 0.3155307114592E-01
 0.3174399282878E-01
 0.3191108346546E-01
 0.3203709331599E-01
 0.3210216372344E-01
 0.3208530400353E-01
 0.3196513846746E-01
 0.3171932763036E-01
 0.3132643311016E-01
 0.3077538908574E-01
 0.3009129162480E-01
 0.2939511587095E-01
 0.2902029585480E-01
 0.2967103647471E-01
 0.3243846869980E-01
 0.3821976565470E-01
 0.4644642823357E-01
 0.5454802712642E-01
 0.2483388033332E-01
 0.2631460742711E-01
 0.2764970475697E-01
 0.2861761626949E-01
 0.2920340225841E-01
 0.2951194415098E-01
 0.2965843880348E-01
 0.2972447134543E-01
 0.2975822385248E-01
 0.2978591624194E-01
 0.2982120968331E-01
 0.2987095458535E-01
 0.2993843623054E-01
 0.3002516058741E-01
 0.3013181536074E-01
 0.3025876490880E-01
 0.3040627470929E-01
 0.3057456630304E-01
 0.3076375100755E-01
 0.3097365499686E-01
 0.3120351776380E-01
 0.3145154413093E-01
 0.3171424133628E-01
 0.3198554234866E-01
 0.3225587332857E-01
 0.3251153224118E-01
 0.3273479906254E-01
 0.3290470049772E-01
 0.3299840802265E-01
 0.3299139220662E-01
 0.3285537404783E-01
 0.3255765582596E-01
 0.3206645357268E-01
 0.3137012573890E-01
 0.3053009107412E-01
 0.2980634427859E-01
 0.2988200414078E-01
 0.3203843173375E-01
 0.3766445986254E-01
 0.4652904139230E-01
 0.5553003197659E-01
 0.2505904835686E-01
 0.2664996979044E-01
 0.2803334193465E-01
 0.2895748002868E-01
 0.2945037492643E-01
 0.2966507802053E-01
 0.2973843193536E-01
 0.2975449996481E-01
 0.2975738216841E-01
 0.2976864533736E-01
 0.2979827104493E-01
 0.2985049880903E-01
 0.2992686222903E-01
 0.3002774966965E-01
 0.3015318967393E-01
 0.3030322389207E-01
 0.3047805254771E-01
 0.3067804243225E-01
 0.3090363796865E-01
 0.3115518244667E-01
 0.3143262552831E-01
 0.3173509093533E-01
 0.3206020582771E-01
 0.3240314102355E-01
 0.3275546525893E-01
 0.3310421661644E-01
 0.3343181888763E-01
 0.3371690561728E-01
 0.3393579797293E-01
 0.3406221777510E-01
 0.3406390447142E-01
 0.3389952797404E-01
 0.3351975240939E-01
 0.3287843047560E-01
 0.3197209199098E-01
 0.3095810976395E-01
 0.3043165365762E-01
 0.3180254275096E-01
 0.3705753372728E-01
 0.4658605288729E-01
 0.5670183989507E-01
 0.2533790138872E-01
 0.2705696998696E-01
 0.2847654010786E-01
 0.2932102396190E-01
 0.2968952825317E-01
 0.2979433317101E-01
 0.2978979002432E-01
 0.2975637837972E-01
 0.2973068899797E-01
 0.2972815541323E-01
 0.2975448754709E-01
 0.2981110721205E-01
 0.2989775555586E-01
 0.3001372900139E-01
 0.3015844633210E-01
 0.3033168235013E-01
 0.3053362853446E-01
 0.3076485391998E-01
 0.3102619685016E-01
 0.3131858931600E-01
 0.3164278622684E-01
 0.3199897223229E-01
 0.3238612411595E-01
 0.3280102015461E-01
 0.3323690475634E-01
 0.3368219868305E-01
 0.3412014102218E-01
 0.3452971939892E-01
 0.3488741374342E-01
 0.3516666857372E-01
 0.3533341429534E-01
 0.3534092909155E-01
 0.3512701247180E-01
 0.3461700501852E-01
 0.3374528354299E-01
 0.3254549393433E-01
 0.3144438321676E-01
 0.3185869287228E-01
 0.3643072555923E-01
 0.4659571113670E-01
 0.5811957207700E-01
 0.2568972425827E-01
 0.2755725652710E-01
 0.2898740551100E-01
 0.2970035174122E-01
 0.2990785961676E-01
 0.2988905911502E-01
 0.2980537634504E-01
 0.2972550674585E-01
 0.2967515068208E-01
 0.2966243927987E-01
 0.2968843710814E-01
 0.2975168573067E-01
 0.2985018214224E-01
 0.2998220947905E-01
 0.3014665701693E-01
 0.3034310530583E-01
 0.3057180081678E-01
 0.3083357182641E-01
 0.3112970485617E-01
 0.3146177841948E-01
 0.3183142495754E-01
 0.3223999806299E-01
 0.3268801164814E-01
 0.3317419137629E-01
 0.3369401051589E-01
 0.3423799334078E-01
 0.3479094468492E-01
 0.3533297654515E-01
 0.3584171122652E-01
 0.3629174585068E-01
 0.3664939288892E-01
 0.3686611788751E-01
 0.3687268661622E-01
 0.3657510571673E-01
 0.3585802487602E-01
 0.3462899527197E-01
 0.3306679298164E-01
 0.3240027328586E-01
 0.3586592026701E-01
 0.4652928556645E-01
 0.5986574955456E-01
 0.2614366066791E-01
 0.2818027722348E-01
 0.2957105867051E-01
 0.3007933341670E-01
 0.3008713039974E-01
 0.2993690828564E-01
 0.2977779014371E-01
 0.2965741415950E-01
 0.2958801046839E-01
 0.2956973410430E-01
 0.2959891644069E-01
 0.2967132913528E-01
 0.2978337015973E-01
 0.2993244305724E-01
 0.3011701855809E-01
 0.3033657151573E-01
 0.3059147353001E-01
 0.3088286835240E-01
 0.3121253757384E-01
 0.3158274907814E-01
 0.3199605982730E-01
 0.3245505979316E-01
 0.3296192800871E-01
 0.3351761578861E-01
 0.3412037103970E-01
 0.3476363232430E-01
 0.3543464352836E-01
 0.3611545862577E-01
 0.3678576376807E-01
 0.3742257621640E-01
 0.3799456483641E-01
 0.3845490671860E-01
 0.3873381930377E-01
 0.3872914383988E-01
 0.3829618559452E-01
 0.3724289162703E-01
 0.3545391671320E-01
 0.3370535200920E-01
 0.3554416526655E-01
 0.4635700980413E-01
 0.6206816837071E-01
 0.2674568434649E-01
 0.2896573787796E-01
 0.3022364236966E-01
 0.3042868876250E-01
 0.3020355376747E-01
 0.2992470320174E-01
 0.2969983838386E-01
 0.2954800679043E-01
 0.2946690136842E-01
 0.2944860950470E-01
 0.2948499511685E-01
 0.2956935623518E-01
 0.2969673453362E-01
 0.2986384151857E-01
 0.3006886886623E-01
 0.3031128853407E-01
 0.3059167251889E-01
 0.3091153470015E-01
 0.3127319077637E-01
 0.3167962544440E-01
 0.3213434090031E-01
 0.3264118688213E-01
 0.3320406151172E-01
 0.3382631758241E-01
 0.3450946249151E-01
 0.3525074860119E-01
 0.3604092951463E-01
 0.3686494125478E-01
 0.3770538501778E-01
 0.3854266459339E-01
 0.3934930728570E-01
 0.4008319818688E-01
 0.4068042802987E-01
 0.4104290579895E-01
 0.4101954597896E-01
 0.4037322641298E-01
 0.3873393635110E-01
 0.3614574967015E-01
 0.3583054712682E-01
 0.4607529400333E-01
 0.6493899542633E-01
 0.2757222296804E-01
 0.2996503086297E-01
 0.3091907240255E-01
 0.3069994500176E-01
 0.3022952043119E-01
 0.2983990319335E-01
 0.2956500923093E-01
 0.2939386096658E-01
 0.2931000685597E-01
 0.2929805337828E-01
 0.2934606834804E-01
 0.2944534282553E-01
 0.2958989976956E-01
 0.2977599384180E-01
 0.3000170173198E-01
 0.3026660679808E-01
 0.3057156013139E-01
 0.3091849795391E-01
 0.3131030108394E-01
 0.3175068347468E-01
 0.3224408759620E-01
 0.3279560251854E-01
 0.3341081906908E-01
 0.3409552264475E-01
 0.3485481089390E-01
 0.3569069339792E-01
 0.3659881006695E-01
 0.3756821281039E-01
 0.3858524881218E-01
 0.3963421459414E-01
 0.4069220202085E-01
 0.4172391412743E-01
 0.4267653076242E-01
 0.4346863474604E-01
 0.4396450183927E-01
 0.4394032767499E-01
 0.4293798671525E-01
 0.4015736971690E-01
 0.3740245158636E-01
 0.4579798949886E-01
 0.6886631397887E-01
 0.2875899644015E-01
 0.3123551991786E-01
 0.3158063909531E-01
 0.3082209774853E-01
 0.3013934056802E-01
 0.2967190598742E-01
 0.2936792502105E-01
 0.2919258493604E-01
 0.2911619504276E-01
 0.2911755737330E-01
 0.2918190399239E-01
 0.2929915130675E-01
 0.2946272031528E-01
 0.2966868174961E-01
 0.2991518023720E-01
 0.3020203252054E-01
 0.3053044884336E-01
 0.3090283662950E-01
 0.3132266491996E-01
 0.3179437554207E-01
 0.3232332293790E-01
 0.3291577441450E-01
 0.3357891237984E-01
 0.3432081757358E-01
 0.3515021766350E-01
 0.3607471241568E-01
 0.3709662900486E-01
 0.3821102365715E-01
 0.3940896851615E-01
 0.4067848687372E-01
 0.4200072604271E-01
 0.4334806983848E-01
 0.4468233352358E-01
 0.4594816492892E-01
 0.4705051452965E-01
 0.4780823279387E-01
 0.4790073192730E-01
 0.4609393688490E-01
 0.4139756299752E-01
 0.4602534187691E-01
 0.7466233653938E-01
 0.3056900268855E-01
 0.3280114924170E-01
 0.3202492546232E-01
 0.3071627342259E-01
 0.2991804814042E-01
 0.2941148688229E-01
 0.2910541213326E-01
 0.2894301968916E-01
 0.2888515613743E-01
 0.2890719052561E-01
 0.2899268069759E-01
 0.2913095605017E-01
 0.2931529742035E-01
 0.2954189308951E-01
 0.2980914848166E-01
 0.3011723921239E-01
 0.3046781354729E-01
 0.3086379468020E-01
 0.3130925544970E-01
 0.3180935206846E-01
 0.3237030332656E-01
 0.3299945903806E-01
 0.3370542955030E-01
 0.3449830960253E-01
 0.3539007157950E-01
 0.3639424534530E-01
 0.3752207075289E-01
 0.3877789011453E-01
 0.4015909959563E-01
 0.4165615331162E-01
 0.4325208041059E-01
 0.4492595915977E-01
 0.4665657308402E-01
 0.4841814819392E-01
 0.5017718854158E-01
 0.5183318369704E-01
 0.5322654385413E-01
 0.5380850011584E-01
 0.4944566762533E-01
 0.4833764463625E-01
 0.8436489739164E-01
 0.3358003020104E-01
 0.3445006612150E-01
 0.3189387980019E-01
 0.3036690921697E-01
 0.2955261509777E-01
 0.2905347571043E-01
 0.2877719083054E-01
 0.2864529746458E-01
 0.2861757205137E-01
 0.2866763076905E-01
 0.2877902330602E-01
 0.2894125968805E-01
 0.2914799226769E-01
 0.2939583198820E-01
 0.2968364108725E-01
 0.3001207731025E-01
 0.3038330208437E-01
 0.3080079356144E-01
 0.3126923704724E-01
 0.3179447978444E-01
 0.3238354253722E-01
 0.3304473787921E-01
 0.3378788984944E-01
 0.3462473983433E-01
 0.3556974174048E-01
 0.3664150305383E-01
 0.3786217514811E-01
 0.3925160293180E-01
 0.4081699237232E-01
 0.4254773931494E-01
 0.4442386303256E-01
 0.4642904602649E-01
 0.4855744504244E-01
 0.5081871814255E-01
 0.5322897885079E-01
 0.5585375213088E-01
 0.5857170564422E-01
 0.6196242368731E-01
 0.6293901270789E-01
 0.5662470576465E-01
 0.1044736719353E+00
 0.3934620578385E-01
 0.3457588250212E-01
 0.3106141399080E-01
 0.2981048223068E-01
 0.2902283268485E-01
 0.2860415331390E-01
 0.2838403185659E-01
 0.2830162519790E-01
 0.2831500522557E-01
 0.2840024066816E-01
 0.2854200772406E-01
 0.2873090648351E-01
 0.2896143320544E-01
 0.2923092619682E-01
 0.2953889042008E-01
 0.2988658198920E-01
 0.3027674404733E-01
 0.3071344234859E-01
 0.3120197700216E-01
 0.3174885614613E-01
 0.3236182968974E-01
 0.3305004062640E-01
 0.3382428727375E-01
 0.3469752502499E-01
 0.3568584698249E-01
 0.3681068762477E-01
 0.3810354280974E-01
 0.3961196127081E-01
 0.4136254059621E-01
 0.4333406569146E-01
 0.4549505190625E-01
 0.4783046441030E-01
 0.5034849008778E-01
 0.5308545384280E-01
 0.5612921976467E-01
 0.5959158264492E-01
 0.6389723210116E-01
 0.6874314758803E-01
 0.7942308035106E-01
 0.7586390422635E-01
 0.1628623799368E+00
 0.9553198916883E+00
 0.1309200770040E+01
 0.1626584484872E+01
 0.1902300875051E+01
 0.2136165872136E+01
 0.2329782233688E+01
 0.2485127424330E+01
 0.2604037981390E+01
 0.2688565477161E+01
 0.2742109751754E+01
 0.2769822910957E+01
 0.2777197249941E+01
 0.2768629604700E+01
 0.2746880981428E+01
 0.2713072004411E+01
 0.2667045294399E+01
 0.2608161111341E+01
 0.2534355767878E+01
 0.2445494989373E+01
 0.2350040699394E+01
 0.9221733172249E+00
 0.1284777416579E+01
 0.1611025219847E+01
 0.1896156569063E+01
 0.2139656449375E+01
 0.2343215712931E+01
 0.2508885249700E+01
 0.2638518047432E+01
 0.2734036916722E+01
 0.2798489073366E+01
 0.2836612564512E+01
 0.2853709217663E+01
 0.2854221659919E+01
 0.2841092307927E+01
 0.2815690839335E+01
 0.2778250918123E+01
 0.2728110871654E+01
 0.2662695926496E+01
 0.2577865082925E+01
 0.2469953425221E+01
 0.8903343289191E+00
 0.1263149652699E+01
 0.1598235970718E+01
 0.1892235271154E+01
 0.2144785177146E+01
 0.2357592373091E+01
 0.2532779299833E+01
 0.2672251725557E+01
 0.2777935992864E+01
 0.2852732574245E+01
 0.2901066962996E+01
 0.2927992217836E+01
 0.2937900450659E+01
 0.2933830834506E+01
 0.2917352673782E+01
 0.2888790884832E+01
 0.2847205219593E+01
 0.2789255646658E+01
 0.2709812396528E+01
 0.2606889387006E+01
 0.8602646317903E+00
 0.1243629783635E+01
 0.1587756647327E+01
 0.1890223737510E+01
 0.2151235285771E+01
 0.2372622427487E+01
 0.2556592603886E+01
 0.2705151129879E+01
 0.2820311592772E+01
 0.2904931103248E+01
 0.2963203010618E+01
 0.2999934823380E+01
 0.3019409539689E+01
 0.3024695059036E+01
 0.3017442433922E+01
 0.2997954347361E+01
 0.2965025650014E+01
 0.2915276516828E+01
 0.2844715721216E+01
 0.2752484226672E+01
 0.8320351789877E+00
 0.1226074024080E+01
 0.1579187335395E+01
 0.1889794783139E+01
 0.2158717819500E+01
 0.2388050405644E+01
 0.2580134320404E+01
 0.2737114412331E+01
 0.2861140214371E+01
 0.2955085845231E+01
 0.3022974336018E+01
 0.3069388577365E+01
 0.3098474257240E+01
 0.3113267806249E+01
 0.3115438564295E+01
 0.3105266259618E+01
 0.3081544242444E+01
 0.3041460844875E+01
 0.2982194333794E+01
 0.2903510231922E+01
 0.8056547783264E+00
 0.1210337633710E+01
 0.1572253791092E+01
 0.1890640850613E+01
 0.2166962594105E+01
 0.2403645714387E+01
 0.2603226483147E+01
 0.2768023886492E+01
 0.2900351618920E+01
 0.3003137720995E+01
 0.3080282826681E+01
 0.3136172202051E+01
 0.3174803515696E+01
 0.3199151355397E+01
 0.3210889573276E+01
 0.3210355603674E+01
 0.3196580656591E+01
 0.3167459964110E+01
 0.3121140404093E+01
 0.3057766958530E+01
 0.7811096027548E+00
 0.1196283998694E+01
 0.1566724922877E+01
 0.1892497047941E+01
 0.2175719638396E+01
 0.2419195155292E+01
 0.2625697789416E+01
 0.2797749158493E+01
 0.2937843366659E+01
 0.3048985510558E+01
 0.3134991520951E+01
 0.3200077563646E+01
 0.3248098118918E+01
 0.3281961940859E+01
 0.3303368953222E+01
 0.3312800422621E+01
 0.3309640859664E+01
 0.3292479727267E+01
 0.3260241628390E+01
 0.3213360956450E+01
 0.7583797930941E+00
 0.1183781898829E+01
 0.1562397093750E+01
 0.1895129718472E+01
 0.2184762663560E+01
 0.2434499667787E+01
 0.2647381453167E+01
 0.2826150865116E+01
 0.2973491083544E+01
 0.3092498863823E+01
 0.3186935589658E+01
 0.3260877474769E+01
 0.3318052084033E+01
 0.3361316444289E+01
 0.3392428789581E+01
 0.3412070791619E+01
 0.3420022224008E+01
 0.3415504516618E+01
 0.3398078861555E+01
 0.3368438263060E+01
 0.7374455982012E+00
 0.1172707784076E+01
 0.1559086573408E+01
 0.1898330170446E+01
 0.2193886473636E+01
 0.2449373694838E+01
 0.2668115135835E+01
 0.2853084348004E+01
 0.3007156192320E+01
 0.3133528066142E+01
 0.3235931427202E+01
 0.3318331421333E+01
 0.3384351806097E+01
 0.3436819854904E+01
 0.3477580288483E+01
 0.3507544965461E+01
 0.3526890559518E+01
 0.3535397950155E+01
 0.3533156668469E+01
 0.3521100187206E+01
 0.7182898869878E+00
 0.1162947207481E+01
 0.1556626538866E+01
 0.1901910429812E+01
 0.2202904557998E+01
 0.2463644520337E+01
 0.2687742057478E+01
 0.2878403144859E+01
 0.3038692070783E+01
 0.3171911707885E+01
 0.3281783823581E+01
 0.3372190004668E+01
 0.3446675619881E+01
 0.3508060820762E+01
 0.3558296852972E+01
 0.3598536051310E+01
 0.3629333280351E+01
 0.3650957476323E+01
 0.3663936940338E+01
 0.3669421194210E+01
 0.7008988996058E+00
 0.1154395666013E+01
 0.1554865596593E+01
 0.1905700681204E+01
 0.2211647239567E+01
 0.2477151926505E+01
 0.2706112343766E+01
 0.2901962243611E+01
 0.3067949132774E+01
 0.3207482858717E+01
 0.3324291843728E+01
 0.3422199067975E+01
 0.3504695885571E+01
 0.3574614996028E+01
 0.3634025890191E+01
 0.3684318677577E+01
 0.3726397680874E+01
 0.3760953901700E+01
 0.3788878104103E+01
 0.3811501463058E+01
 0.6852622090202E+00
 0.1146958965772E+01
 0.1553667018944E+01
 0.1909547754244E+01
 0.2219960520633E+01
 0.2489748162030E+01
 0.2723084434650E+01
 0.2923621000130E+01
 0.3094779103514E+01
 0.3240074176810E+01
 0.3363253912906E+01
 0.3468104152959E+01
 0.3558083577672E+01
 0.3636052651735E+01
 0.3704203613977E+01
 0.3764153084373E+01
 0.3817121506358E+01
 0.3864162916736E+01
 0.3906467880920E+01
 0.3945504212055E+01
 0.6713723097198E+00
 0.1140553273911E+01
 0.1552908304858E+01
 0.1913314262458E+01
 0.2227705465854E+01
 0.2501298173740E+01
 0.2738526469932E+01
 0.2943245730017E+01
 0.3119038682223E+01
 0.3269522315135E+01
 0.3398472546830E+01
 0.3509655534888E+01
 0.3606514627244E+01
 0.3691948462191E+01
 0.3768270578229E+01
 0.3837307128465E+01
 0.3900559412846E+01
 0.3959391826131E+01
 0.4015243521313E+01
 0.4069673581561E+01
 0.6592240734628E+00
 0.1135104987620E+01
 0.1552480910595E+01
 0.1916878147546E+01
 0.2234757959007E+01
 0.2511680010864E+01
 0.2752317594599E+01
 0.2960711969079E+01
 0.3140592679999E+01
 0.3295671781551E+01
 0.3429758823150E+01
 0.3546613566800E+01
 0.3649677074148E+01
 0.3741891944872E+01
 0.3825686744006E+01
 0.3903076267409E+01
 0.3975806589059E+01
 0.4045504412972E+01
 0.4113812843352E+01
 0.4182353761956E+01
 0.6488141910936E+00
 0.1130550501721E+01
 0.1552290075806E+01
 0.1920132477273E+01
 0.2241008707799E+01
 0.2520785337105E+01
 0.2764349174381E+01
 0.2975906453595E+01
 0.3159316750435E+01
 0.3318378400045E+01
 0.3456936647607E+01
 0.3578754114280E+01
 0.3687278447376E+01
 0.3785497812987E+01
 0.3875945644378E+01
 0.3960801724497E+01
 0.4042020494733E+01
 0.4121446050296E+01
 0.4200886628359E+01
 0.4282014517893E+01
 0.6401406755642E+00
 0.1126835940481E+01
 0.1552254712053E+01
 0.1922985398835E+01
 0.2246363398192E+01
 0.2528519988287E+01
 0.2774525904684E+01
 0.2988728848232E+01
 0.3175099774392E+01
 0.3337512422880E+01
 0.3479846762961E+01
 0.3605873835157E+01
 0.3719052935268E+01
 0.3822415765814E+01
 0.3918587367531E+01
 0.4009886904642E+01
 0.4098440816769E+01
 0.4186268551972E+01
 0.4275309867835E+01
 0.4367282664255E+01
 0.6332024333890E+00
 0.1123916882876E+01
 0.1552307323507E+01
 0.1925360174043E+01
 0.2250742919076E+01
 0.2534804520295E+01
 0.2782766792035E+01
 0.2999093231116E+01
 0.3187845919762E+01
 0.3352961284109E+01
 0.3498350400659E+01
 0.3627795071108E+01
 0.3744768003356E+01
 0.3852339364385E+01
 0.3953210116771E+01
 0.4049811889598E+01
 0.4144407221253E+01
 0.4239151708076E+01
 0.4336086730660E+01
 0.4436971982457E+01
 0.6279989350566E+00
 0.1121758113843E+01
 0.1552393957718E+01
 0.1927195259683E+01
 0.2254083611413E+01
 0.2539574714083E+01
 0.2789005996757E+01
 0.3006929342080E+01
 0.3197476381111E+01
 0.3364631966301E+01
 0.3512332477189E+01
 0.3644370165883E+01
 0.3764230211386E+01
 0.3875013742389E+01
 0.3979480133764E+01
 0.4080145774146E+01
 0.4179374180719E+01
 0.4279420453332E+01
 0.4382400120192E+01
 0.4490108300921E+01
 0.6245299727304E+00
 0.1120333414124E+01
 0.1552474172771E+01
 0.1928444397624E+01
 0.2256337500016E+01
 0.2542782005387E+01
 0.2793193520907E+01
 0.3012183590007E+01
 0.3203930791984E+01
 0.3372452947695E+01
 0.3521704255521E+01
 0.3655485077896E+01
 0.3777290064062E+01
 0.3890241986146E+01
 0.3997139834167E+01
 0.4100556641307E+01
 0.4202922638655E+01
 0.4306557921688E+01
 0.4413626330461E+01
 0.4525948580647E+01
 0.6227954928716E+00
 0.1119625396971E+01
 0.1552521016909E+01
 0.1929076697327E+01
 0.2257472486553E+01
 0.2544393823325E+01
 0.2795295735171E+01
 0.3014819817924E+01
 0.3207168301622E+01
 0.3376375699013E+01
 0.3526405405058E+01
 0.3661062182306E+01
 0.3783845763332E+01
 0.3897890041600E+01
 0.4006014010981E+01
 0.4110819056465E+01
 0.4214768566906E+01
 0.4320214707652E+01
 0.4429345048906E+01
 0.4543993570440E+01
 0.6227954931958E+00
 0.1119625397096E+01
 0.1552521016911E+01
 0.1929076697255E+01
 0.2257472486441E+01
 0.2544393823196E+01
 0.2795295735041E+01
 0.3014819817805E+01
 0.3207168301523E+01
 0.3376375698936E+01
 0.3526405405004E+01
 0.3661062182272E+01
 0.3783845763314E+01
 0.3897890041593E+01
 0.4006014010981E+01
 0.4110819056469E+01
 0.4214768566915E+01
 0.4320214707669E+01
 0.4429345048940E+01
 0.4543993570508E+01
 0.6245299737031E+00
 0.1120333414501E+01
 0.1552474172777E+01
 0.1928444397411E+01
 0.2256337499682E+01
 0.2542782005001E+01
 0.2793193520520E+01
 0.3012183589653E+01
 0.3203930791686E+01
 0.3372452947465E+01
 0.3521704255360E+01
 0.3655485077795E+01
 0.3777290064008E+01
 0.3890241986125E+01
 0.3997139834167E+01
 0.4100556641319E+01
 0.4202922638681E+01
 0.4306557921739E+01
 0.4413626330565E+01
 0.4525948580850E+01
 0.6279989366779E+00
 0.1121758114476E+01
 0.1552393957735E+01
 0.1927195259334E+01
 0.2254083610862E+01
 0.2539574713445E+01
 0.2789005996114E+01
 0.3006929341493E+01
 0.3197476380618E+01
 0.3364631965921E+01
 0.3512332476922E+01
 0.3644370165716E+01
 0.3764230211298E+01
 0.3875013742356E+01
 0.3979480133766E+01
 0.4080145774169E+01
 0.4179374180764E+01
 0.4279420453419E+01
 0.4382400120368E+01
 0.4490108301260E+01
 0.6332024356591E+00
 0.1123916883774E+01
 0.1552307323545E+01
 0.1925360173568E+01
 0.2250742918317E+01
 0.2534804519411E+01
 0.2782766791143E+01
 0.2999093230300E+01
 0.3187845919077E+01
 0.3352961283581E+01
 0.3498350400289E+01
 0.3627795070878E+01
 0.3744768003236E+01
 0.3852339364343E+01
 0.3953210116778E+01
 0.4049811889634E+01
 0.4144407221321E+01
 0.4239151708202E+01
 0.4336086730909E+01
 0.4436971982936E+01
 0.6401406784836E+00
 0.1126835941652E+01
 0.1552254712126E+01
 0.1922985398247E+01
 0.2246363397235E+01
 0.2528519987167E+01
 0.2774525903550E+01
 0.2988728847194E+01
 0.3175099773521E+01
 0.3337512422209E+01
 0.3479846762493E+01
 0.3605873834869E+01
 0.3719052935122E+01
 0.3822415765767E+01
 0.3918587367546E+01
 0.4009886904697E+01
 0.4098440816863E+01
 0.4186268552140E+01
 0.4275309868162E+01
 0.4367282664874E+01
 0.6488141946631E+00
 0.1130550503180E+01
 0.1552290075930E+01
 0.1920132476589E+01
 0.2241008706660E+01
 0.2520785335760E+01
 0.2764349173015E+01
 0.2975906452342E+01
 0.3159316749383E+01
 0.3318378399237E+01
 0.3456936647045E+01
 0.3578754113937E+01
 0.3687278447207E+01
 0.3785497812940E+01
 0.3875945644408E+01
 0.3960801724574E+01
 0.4042020494857E+01
 0.4121446050509E+01
 0.4200886628764E+01
 0.4282014518651E+01
 0.6592240776834E+00
 0.1135104989383E+01
 0.1552480910793E+01
 0.1916878146787E+01
 0.2234757957702E+01
 0.2511680009309E+01
 0.2752317593013E+01
 0.2960711967621E+01
 0.3140592678775E+01
 0.3295671780611E+01
 0.3429758822501E+01
 0.3546613566409E+01
 0.3649677073962E+01
 0.3741891944831E+01
 0.3825686744056E+01
 0.3903076267514E+01
 0.3975806589217E+01
 0.4045504413231E+01
 0.4113812843835E+01
 0.4182353762856E+01
 0.6713723145933E+00
 0.1140553275999E+01
 0.1552908305155E+01
 0.1913314261648E+01
 0.2227705464406E+01
 0.2501298171992E+01
 0.2738526468139E+01
 0.2943245728365E+01
 0.3119038680834E+01
 0.3269522314072E+01
 0.3398472546099E+01
 0.3509655534454E+01
 0.3606514627047E+01
 0.3691948462161E+01
 0.3768270578305E+01
 0.3837307128604E+01
 0.3900559413043E+01
 0.3959391826439E+01
 0.4015243521873E+01
 0.4069673582601E+01
 0.6852622145491E+00
 0.1146958968207E+01
 0.1553667019369E+01
 0.1909547753412E+01
 0.2219960519064E+01
 0.2489748160108E+01
 0.2723084432665E+01
 0.2923620998296E+01
 0.3094779101971E+01
 0.3240074175632E+01
 0.3363253912101E+01
 0.3468104152488E+01
 0.3558083577469E+01
 0.3636052651722E+01
 0.3704203614084E+01
 0.3764153084551E+01
 0.3817121506596E+01
 0.3864162917091E+01
 0.3906467881551E+01
 0.3945504213229E+01
 0.7008989057936E+00
 0.1154395668823E+01
 0.1554865597180E+01
 0.1905700680381E+01
 0.2211647237906E+01
 0.2477151924431E+01
 0.2706112341607E+01
 0.2901962241609E+01
 0.3067949131088E+01
 0.3207482857431E+01
 0.3324291842855E+01
 0.3422199067472E+01
 0.3504695885366E+01
 0.3574614996037E+01
 0.3634025890335E+01
 0.3684318677799E+01
 0.3726397681158E+01
 0.3760953902100E+01
 0.3788878104798E+01
 0.3811501464357E+01
 0.7182898938396E+00
 0.1162947210695E+01
 0.1556626539653E+01
 0.1901910429034E+01
 0.2202904556274E+01
 0.2463644518136E+01
 0.2687742055163E+01
 0.2878403142703E+01
 0.3038692068966E+01
 0.3171911706501E+01
 0.3281783822645E+01
 0.3372190004138E+01
 0.3446675619677E+01
 0.3508060820796E+01
 0.3558296853157E+01
 0.3598536051581E+01
 0.3629333280682E+01
 0.3650957476766E+01
 0.3663936941089E+01
 0.3669421195620E+01
 0.7374456057236E+00
 0.1172707787730E+01
 0.1559086574436E+01
 0.1898330169751E+01
 0.2193886471880E+01
 0.2449373692535E+01
 0.2668115133385E+01
 0.2853084345710E+01
 0.3007156190383E+01
 0.3133528064667E+01
 0.3235931426210E+01
 0.3318331420779E+01
 0.3384351805897E+01
 0.3436819854964E+01
 0.3477580288711E+01
 0.3507544965784E+01
 0.3526890559898E+01
 0.3535397950636E+01
 0.3533156669261E+01
 0.3521100188706E+01
 0.7583798012960E+00
 0.1183781902961E+01
 0.1562397095063E+01
 0.1895129717901E+01
 0.2184762661809E+01
 0.2434499665411E+01
 0.2647381450605E+01
 0.2826150862703E+01
 0.2973491081500E+01
 0.3092498862267E+01
 0.3186935588614E+01
 0.3260877474192E+01
 0.3318052083837E+01
 0.3361316444374E+01
 0.3392428789852E+01
 0.3412070791994E+01
 0.3420022224437E+01
 0.3415504517130E+01
 0.3398078862370E+01
 0.3368438264614E+01
 0.7811096116478E+00
 0.1196284003345E+01
 0.1566724924524E+01
 0.1892497047540E+01
 0.2175719636689E+01
 0.2419195152874E+01
 0.2625697786767E+01
 0.2797749155978E+01
 0.2937843364522E+01
 0.3048985508929E+01
 0.3134991519860E+01
 0.3200077563046E+01
 0.3248098118721E+01
 0.3281961940964E+01
 0.3303368953531E+01
 0.3312800423048E+01
 0.3309640860142E+01
 0.3292479727801E+01
 0.3260241629204E+01
 0.3213360958011E+01
 0.8056547879250E+00
 0.1210337638926E+01
 0.1572253793125E+01
 0.1890640850431E+01
 0.2166962592483E+01
 0.2403645711961E+01
 0.2603226480437E+01
 0.2768023883896E+01
 0.2900351616704E+01
 0.3003137719302E+01
 0.3080282825545E+01
 0.3136172201425E+01
 0.3174803515491E+01
 0.3199151355512E+01
 0.3210889573615E+01
 0.3210355604147E+01
 0.3196580657114E+01
 0.3167459964657E+01
 0.3121140404883E+01
 0.3057766960048E+01
 0.8320351893097E+00
 0.1226074029911E+01
 0.1579187337868E+01
 0.1889794783227E+01
 0.2158717818007E+01
 0.2388050403247E+01
 0.2580134317663E+01
 0.2737114409676E+01
 0.2861140212091E+01
 0.2955085843480E+01
 0.3022974334836E+01
 0.3069388576706E+01
 0.3098474257015E+01
 0.3113267806358E+01
 0.3115438564649E+01
 0.3105266260125E+01
 0.3081544243005E+01
 0.3041460845424E+01
 0.2982194334536E+01
 0.2903510233345E+01
 0.8602646428564E+00
 0.1243629790132E+01
 0.1587756650300E+01
 0.1890223737924E+01
 0.2151235284457E+01
 0.2372622425160E+01
 0.2556592601147E+01
 0.2705151127191E+01
 0.2820311590444E+01
 0.2904931101448E+01
 0.2963203009390E+01
 0.2999934822681E+01
 0.3019409539426E+01
 0.3024695059117E+01
 0.3017442434265E+01
 0.2997954347883E+01
 0.2965025650602E+01
 0.2915276517367E+01
 0.2844715721890E+01
 0.2752484227952E+01
 0.8903343407521E+00
 0.1263149659916E+01
 0.1598235974251E+01
 0.1892235271954E+01
 0.2144785176063E+01
 0.2357592370879E+01
 0.2532779297132E+01
 0.2672251722863E+01
 0.2777935990507E+01
 0.2852732572401E+01
 0.2901066961719E+01
 0.2927992217082E+01
 0.2937900450339E+01
 0.2933830834530E+01
 0.2917352674078E+01
 0.2888790885335E+01
 0.2847205220187E+01
 0.2789255647170E+01
 0.2709812397120E+01
 0.2606889388110E+01
 0.9221733298461E+00
 0.1284777424564E+01
 0.1611025224005E+01
 0.1896156570313E+01
 0.2139656448581E+01
 0.2343215710885E+01
 0.2508885247081E+01
 0.2638518044766E+01
 0.2734036914354E+01
 0.2798489071483E+01
 0.2836612563176E+01
 0.2853709216836E+01
 0.2854221659517E+01
 0.2841092307862E+01
 0.2815690839537E+01
 0.2778250918548E+01
 0.2728110872218E+01
 0.2662695926960E+01
 0.2577865083418E+01
 0.2469953426141E+01
 0.9553199050804E+00
 0.1309200778847E+01
 0.1626584489732E+01
 0.1902300876821E+01
 0.2136165871696E+01
 0.2329782231864E+01
 0.2485127421842E+01
 0.2604037978794E+01
 0.2688565474809E+01
 0.2742109749835E+01
 0.2769822909545E+01
 0.2777197249016E+01
 0.2768629604188E+01
 0.2746880981242E+01
 0.2713072004473E+01
 0.2667045294658E+01
 0.2608161111767E+01
 0.2534355768297E+01
 0.2445494989798E+01
 0.2350040700096E+01
 0.3358037020866E+01
 0.2607469802247E+01
 0.1784116832116E+01
 0.1392973042324E+01
 0.1078990528725E+01
 0.7732482070208E+00
 0.4688352223627E+00
 0.2107351713200E+00
 0.2330612984548E-01
 0.1086948580481E+00
 0.2029052445344E+00
 0.2695833205073E+00
 0.3122052761406E+00
 0.3305692493962E+00
 0.3231400946566E+00
 0.2904248611993E+00
 0.2359026777883E+00
 0.1603022775731E+00
 0.7752457013651E-01
 0.5624865437459E-02
 0.3023169581630E+01
 0.2846522653645E+01
 0.2013216986004E+01
 0.1550237233390E+01
 0.1230772661418E+01
 0.9379456833903E+00
 0.6528489337059E+00
 0.3882391226418E+00
 0.1735441075947E+00
 0.2356923198400E-01
 0.9487922731929E-01
 0.1848120371936E+00
 0.2474867749238E+00
 0.2838458784815E+00
 0.2937950376001E+00
 0.2760369691654E+00
 0.2318433554717E+00
 0.1655822237499E+00
 0.8473934000175E-01
 0.3672281373715E-02
 0.2736071807629E+01
 0.2820998270170E+01
 0.2204924923672E+01
 0.1714779932613E+01
 0.1382482147559E+01
 0.1099572435549E+01
 0.8278795609819E+00
 0.5652023182313E+00
 0.3341207159105E+00
 0.1617424625207E+00
 0.2812589390031E-01
 0.8269353981505E-01
 0.1662978300826E+00
 0.2227967751935E+00
 0.2518526316491E+00
 0.2519123708962E+00
 0.2228741932724E+00
 0.1682807226781E+00
 0.9147977496686E-01
 0.3920085432383E-02
 0.2500891670482E+01
 0.2721623217162E+01
 0.2309288275840E+01
 0.1872258783563E+01
 0.1534579222065E+01
 0.1257715716277E+01
 0.9972106470559E+00
 0.7398200184306E+00
 0.5006700235911E+00
 0.3105088378226E+00
 0.1607690493025E+00
 0.3495573252030E-01
 0.6861567675179E-01
 0.1456900328126E+00
 0.1954449620935E+00
 0.2158065971517E+00
 0.2052704149365E+00
 0.1662233754846E+00
 0.9746284610301E-01
 0.5169793849793E-02
 0.2304637427732E+01
 0.2600813073815E+01
 0.2352595821819E+01
 0.2000392574993E+01
 0.1682784385242E+01
 0.1412683644932E+01
 0.1161972182809E+01
 0.9118098602505E+00
 0.6703999767467E+00
 0.4680204417841E+00
 0.3047904484367E+00
 0.1648567705270E+00
 0.4496165635820E-01
 0.5194458303161E-01
 0.1228846207818E+00
 0.1652313548818E+00
 0.1761027366922E+00
 0.1565687481032E+00
 0.1010908937948E+00
 0.1142864522866E-01
 0.2137562631159E+01
 0.2476980514217E+01
 0.2356853212116E+01
 0.2095853719669E+01
 0.1818158161260E+01
 0.1563114339853E+01
 0.1322657144715E+01
 0.1081054741454E+01
 0.8416336961883E+00
 0.6322558559131E+00
 0.4586239810169E+00
 0.3071832487401E+00
 0.1729161929839E+00
 0.5843001702505E-01
 0.3305259030284E-01
 0.9801085981110E-01
 0.1323732975573E+00
 0.1359669346134E+00
 0.9930831221304E-01
 0.2032009614063E-01
 0.1992898902763E+01
 0.2357146868324E+01
 0.2336552411094E+01
 0.2162079814438E+01
 0.1935471281780E+01
 0.1705311280762E+01
 0.1478754499711E+01
 0.1247372859785E+01
 0.1013231058837E+01
 0.8013985833372E+00
 0.6208041193346E+00
 0.4605575584735E+00
 0.3147230029960E+00
 0.1850346719322E+00
 0.7479364454897E-01
 0.1287934025309E-01
 0.7123243358221E-01
 0.1005750690967E+00
 0.8771832824534E-01
 0.2660139966975E-01
 0.1865884476021E+01
 0.2243934005571E+01
 0.2300903520573E+01
 0.2204102012463E+01
 0.2032983838121E+01
 0.1835741127800E+01
 0.1628455184686E+01
 0.1410138462091E+01
 0.1184253495424E+01
 0.9738946419311E+00
 0.7898006478554E+00
 0.6236641714100E+00
 0.4692407013941E+00
 0.3272929476123E+00
 0.2007299670441E+00
 0.9342525966281E-01
 0.1241232470069E-01
 0.4660909712893E-01
 0.6108379891943E-01
 0.2388412154168E-01
 0.1753071126326E+01
 0.2138112287581E+01
 0.2255777873768E+01
 0.2226731547357E+01
 0.2111081650664E+01
 0.1952014849463E+01
 0.1769445368466E+01
 0.1568027755516E+01
 0.1353631243738E+01
 0.1148326277171E+01
 0.9640926700158E+00
 0.7950746167591E+00
 0.6351928852717E+00
 0.4842861984307E+00
 0.3445938708771E+00
 0.2195231573767E+00
 0.1145181830157E+00
 0.3266105910044E-01
 0.1605461118321E-01
 0.9024600917146E-02
 0.1651886874709E+01
 0.2039639920263E+01
 0.2204958484009E+01
 0.2234045442551E+01
 0.2171217358260E+01
 0.2052949039828E+01
 0.1899591853502E+01
 0.1719229671975E+01
 0.1519928226786E+01
 0.1323211784527E+01
 0.1142126788801E+01
 0.9732548170974E+00
 0.8111066066122E+00
 0.6547674070555E+00
 0.5056570271936E+00
 0.3664485640363E+00
 0.2420434416382E+00
 0.1348831538784E+00
 0.6224077032965E-01
 0.4234472687461E-01
 0.1560361729361E+01
 0.1948120127048E+01
 0.2150905940472E+01
 0.2229333399419E+01
 0.2215266116182E+01
 0.2138305387831E+01
 0.2017280168718E+01
 0.1861805411631E+01
 0.1681352491189E+01
 0.1496843483276E+01
 0.1322218588957E+01
 0.1156531164608E+01
 0.9953001116377E+00
 0.8371449156958E+00
 0.6826667947777E+00
 0.5336211681259E+00
 0.3940298248479E+00
 0.2659881042570E+00
 0.1658349126191E+00
 0.1160603282256E+00
 0.1476952267103E+01
 0.1863012335449E+01
 0.2095227580470E+01
 0.2215190264087E+01
 0.2245172573589E+01
 0.2208485732408E+01
 0.2121493993701E+01
 0.1993983297069E+01
 0.1835929186287E+01
 0.1667260682765E+01
 0.1502474812453E+01
 0.1343039689268E+01
 0.1185860195717E+01
 0.1029471358313E+01
 0.8738156402773E+00
 0.7196880055029E+00
 0.5699595162034E+00
 0.4261104084042E+00
 0.3026535056973E+00
 0.2250738661335E+00
 0.1400426774985E+01
 0.1783732759040E+01
 0.2038969249186E+01
 0.2193638980884E+01
 0.2262773014274E+01
 0.2264277220433E+01
 0.2211757694368E+01
 0.2114328653638E+01
 0.1981709560371E+01
 0.1832341920641E+01
 0.1680791747673E+01
 0.1530702827316E+01
 0.1380629816232E+01
 0.1229443325415E+01
 0.1076731541310E+01
 0.9224594810244E+00
 0.7682128143426E+00
 0.6145638336400E+00
 0.4731997067824E+00
 0.3713895336394E+00
 0.1329788106945E+01
 0.1709703011303E+01
 0.1982800400131E+01
 0.2166245030951E+01
 0.2269715997549E+01
 0.2306665624873E+01
 0.2288026088787E+01
 0.2221804676851E+01
 0.2116937711310E+01
 0.1989948810981E+01
 0.1854927740449E+01
 0.1717261993397E+01
 0.1577236727949E+01
 0.1434437093884E+01
 0.1288503945918E+01
 0.1138894307253E+01
 0.9859822127037E+00
 0.8291815915535E+00
 0.6763399326871E+00
 0.5549286364490E+00
 0.1264220719484E+01
 0.1640373925237E+01
 0.1927134150288E+01
 0.2134211731333E+01
 0.2267435696648E+01
 0.2336708279159E+01
 0.2350567296446E+01
 0.2315761531464E+01
 0.2240149525721E+01
 0.2138060168693E+01
 0.2022609590511E+01
 0.1900357521724E+01
 0.1773178358019E+01
 0.1641613049806E+01
 0.1505780796856E+01
 0.1365141451821E+01
 0.1219233063230E+01
 0.1066251947362E+01
 0.9091427255847E+00
 0.7733774373116E+00
 0.1203054114258E+01
 0.1575237920098E+01
 0.1872207117505E+01
 0.2098456001465E+01
 0.2257151912637E+01
 0.2355451638867E+01
 0.2399858925626E+01
 0.2395888079662E+01
 0.2350211280272E+01
 0.2274864941812E+01
 0.2181626886660E+01
 0.2077615254521E+01
 0.1965940729822E+01
 0.1848107304450E+01
 0.1725001114225E+01
 0.1596694964941E+01
 0.1462700681206E+01
 0.1320418558005E+01
 0.1166968347301E+01
 0.1022450702481E+01
 0.1145737987576E+01
 0.1513836810994E+01
 0.1818132747966E+01
 0.2059667618457E+01
 0.2239882616408E+01
 0.2363879489680E+01
 0.2436502804053E+01
 0.2462150292791E+01
 0.2446320017623E+01
 0.2398814138897E+01
 0.2329889362449E+01
 0.2246686903055E+01
 0.2153078520923E+01
 0.2051260472902E+01
 0.1942837016193E+01
 0.1828854413617E+01
 0.1709977547454E+01
 0.1584433273275E+01
 0.1443368138006E+01
 0.1296412622963E+01
 0.1091829749162E+01
 0.1455765977201E+01
 0.1764936163979E+01
 0.2018353105975E+01
 0.2216465556919E+01
 0.2362880125179E+01
 0.2461153836825E+01
 0.2514727077781E+01
 0.2527987361038E+01
 0.2508655150313E+01
 0.2465460686574E+01
 0.2405222334810E+01
 0.2332144600301E+01
 0.2248698757595E+01
 0.2156711846726E+01
 0.2057869085612E+01
 0.1954374253834E+01
 0.1848407375630E+01
 0.1729406909955E+01
 0.1588547410498E+01
 0.1040996555569E+01
 0.1400695283061E+01
 0.1712536641805E+01
 0.1974885703064E+01
 0.2187589232807E+01
 0.2353226653751E+01
 0.2474452951373E+01
 0.2553937997437E+01
 0.2595016879751E+01
 0.2603477688394E+01
 0.2586625018218E+01
 0.2550833985839E+01
 0.2500446482594E+01
 0.2437940504815E+01
 0.2364814607921E+01
 0.2282218610299E+01
 0.2192557355199E+01
 0.2101141777754E+01
 0.2008516930099E+01
 0.1891308437487E+01
 0.9932208306211E+00
 0.1348072658264E+01
 0.1660780382105E+01
 0.1929565254736E+01
 0.2153831597336E+01
 0.2335583300335E+01
 0.2476957569539E+01
 0.2580130353534E+01
 0.2647455636930E+01
 0.2682793647755E+01
 0.2692050196263E+01
 0.2681216518529E+01
 0.2654849467875E+01
 0.2615584261921E+01
 0.2564550351120E+01
 0.2501820950582E+01
 0.2427592915515E+01
 0.2344924748278E+01
 0.2258176681767E+01
 0.2180526035586E+01
 0.9932208445345E+00
 0.1348072668028E+01
 0.1660780387810E+01
 0.1929565257185E+01
 0.2153831597373E+01
 0.2335583298790E+01
 0.2476957567142E+01
 0.2580130350867E+01
 0.2647455634375E+01
 0.2682793645548E+01
 0.2692050194521E+01
 0.2681216517249E+01
 0.2654849466981E+01
 0.2615584261316E+01
 0.2564550350732E+01
 0.2501820950371E+01
 0.2427592915542E+01
 0.2344924748772E+01
 0.2258176682370E+01
 0.2180526036252E+01
 0.1040996569697E+01
 0.1400695293446E+01
 0.1712536648183E+01
 0.1974885706092E+01
 0.2187589233269E+01
 0.2353226652450E+01
 0.2474452949022E+01
 0.2553937994609E+01
 0.2595016876857E+01
 0.2603477685724E+01
 0.2586625015930E+01
 0.2550833983957E+01
 0.2500446481059E+01
 0.2437940503547E+01
 0.2364814606880E+01
 0.2282218609502E+01
 0.2192557354801E+01
 0.2101141777963E+01
 0.2008516930104E+01
 0.1891308437873E+01
 0.1091829763530E+01
 0.1455765988189E+01
 0.1764936170980E+01
 0.2018353109496E+01
 0.2216465557683E+01
 0.2362880123969E+01
 0.2461153834343E+01
 0.2514727074601E+01
 0.2527987357610E+01
 0.2508655147002E+01
 0.2465460683591E+01
 0.2405222332205E+01
 0.2332144598033E+01
 0.2248698755601E+01
 0.2156711844989E+01
 0.2057869084162E+01
 0.1954374252760E+01
 0.1848407374892E+01
 0.1729406908810E+01
 0.1588547410688E+01
 0.1145738002197E+01
 0.1513836822591E+01
 0.1818132755530E+01
 0.2059667622369E+01
 0.2239882617334E+01
 0.2363879488393E+01
 0.2436502801260E+01
 0.2462150289075E+01
 0.2446320013489E+01
 0.2398814134803E+01
 0.2329889358669E+01
 0.2246686899663E+01
 0.2153078517882E+01
 0.2051260470153E+01
 0.1942837013703E+01
 0.1828854411366E+01
 0.1709977545411E+01
 0.1584433271262E+01
 0.1443368135729E+01
 0.1296412622932E+01
 0.1203054129137E+01
 0.1575237932300E+01
 0.1872207125564E+01
 0.2098456005643E+01
 0.2257151913567E+01
 0.2355451637328E+01
 0.2399858922345E+01
 0.2395888075246E+01
 0.2350211275294E+01
 0.2274864936841E+01
 0.2181626882036E+01
 0.2077615250325E+01
 0.1965940726006E+01
 0.1848107300932E+01
 0.1725001110929E+01
 0.1596694961780E+01
 0.1462700678076E+01
 0.1320418554699E+01
 0.1166968344063E+01
 0.1022450702204E+01
 0.1264220734624E+01
 0.1640373938024E+01
 0.1927134158749E+01
 0.2134211735630E+01
 0.2267435697405E+01
 0.2336708277189E+01
 0.2350567292513E+01
 0.2315761526211E+01
 0.2240149519801E+01
 0.2138060162799E+01
 0.2022609585042E+01
 0.1900357516749E+01
 0.1773178353457E+01
 0.1641613045535E+01
 0.1505780792751E+01
 0.1365141447752E+01
 0.1219233059066E+01
 0.1066251942935E+01
 0.9091427216627E+00
 0.7733774368356E+00
 0.1329788122342E+01
 0.1709703024634E+01
 0.1982800408880E+01
 0.2166245035197E+01
 0.2269715997942E+01
 0.2306665622292E+01
 0.2288026084056E+01
 0.2221804670661E+01
 0.2116937704401E+01
 0.1989948804173E+01
 0.1854927734184E+01
 0.1717261987707E+01
 0.1577236722702E+01
 0.1434437088920E+01
 0.1288503941073E+01
 0.1138894302384E+01
 0.9859822076980E+00
 0.8291815863076E+00
 0.6763399284451E+00
 0.5549286359246E+00
 0.1400426790628E+01
 0.1783732772853E+01
 0.2038969258074E+01
 0.2193638984882E+01
 0.2262773014104E+01
 0.2264277217076E+01
 0.2211757688731E+01
 0.2114328646461E+01
 0.1981709552480E+01
 0.1832341912979E+01
 0.1680791740704E+01
 0.1530702821009E+01
 0.1380629810400E+01
 0.1229443319864E+01
 0.1076731535863E+01
 0.9224594755543E+00
 0.7682128087839E+00
 0.6145638279675E+00
 0.4731997026485E+00
 0.3713895333252E+00
 0.1476952282971E+01
 0.1863012349655E+01
 0.2095227589315E+01
 0.2215190267611E+01
 0.2245172572649E+01
 0.2208485728132E+01
 0.2121493987093E+01
 0.1993983288911E+01
 0.1835929177478E+01
 0.1667260674359E+01
 0.1502474804906E+01
 0.1343039682471E+01
 0.1185860189429E+01
 0.1029471352325E+01
 0.8738156344200E+00
 0.7196879996946E+00
 0.5699595104438E+00
 0.4261104027506E+00
 0.3026535021307E+00
 0.2250738663689E+00
 0.1560361745418E+01
 0.1948120141524E+01
 0.2150905949051E+01
 0.2229333402221E+01
 0.2215266114275E+01
 0.2138305382535E+01
 0.2017280161135E+01
 0.1861805402561E+01
 0.1681352481580E+01
 0.1496843474274E+01
 0.1322218580986E+01
 0.1156531157469E+01
 0.9953001050501E+00
 0.8371449094547E+00
 0.6826667887430E+00
 0.5336211622804E+00
 0.3940298192684E+00
 0.2659880990840E+00
 0.1658349100657E+00
 0.1160603293770E+00
 0.1651886890901E+01
 0.2039639934843E+01
 0.2204958492052E+01
 0.2234045444359E+01
 0.2171217355213E+01
 0.2052949033471E+01
 0.1899591845014E+01
 0.1719229662122E+01
 0.1519928216538E+01
 0.1323211775103E+01
 0.1142126780576E+01
 0.9732548097808E+00
 0.8111065998976E+00
 0.6547674007639E+00
 0.5056570212335E+00
 0.3664485584663E+00
 0.2420434366153E+00
 0.1348831496253E+00
 0.6224076917384E-01
 0.4234472920644E-01
 0.1753071142572E+01
 0.2138112302046E+01
 0.2255777880946E+01
 0.2226731547890E+01
 0.2111081646352E+01
 0.1952014842085E+01
 0.1769445359218E+01
 0.1568027745060E+01
 0.1353631233039E+01
 0.1148326267517E+01
 0.9640926617162E+00
 0.7950746094351E+00
 0.6351928786121E+00
 0.4842861922997E+00
 0.3445938652448E+00
 0.2195231523813E+00
 0.1145181788928E+00
 0.3266105624342E-01
 0.1605461076692E-01
 0.9024599368359E-02
 0.1865884492204E+01
 0.2243934019633E+01
 0.2300903526500E+01
 0.2204102011449E+01
 0.2032983832504E+01
 0.1835741119548E+01
 0.1628455174893E+01
 0.1410138451238E+01
 0.1184253484474E+01
 0.9738946322474E+00
 0.7898006396653E+00
 0.6236641642508E+00
 0.4692406949710E+00
 0.3272929418475E+00
 0.2007299619756E+00
 0.9342525550782E-01
 0.1241232223509E-01
 0.4660909858533E-01
 0.6108379667983E-01
 0.2388411605768E-01
 0.1992898918718E+01
 0.2357146881598E+01
 0.2336552415318E+01
 0.2162079811657E+01
 0.1935471274947E+01
 0.1705311271891E+01
 0.1478754489633E+01
 0.1247372848741E+01
 0.1013231047837E+01
 0.8013985738344E+00
 0.6208041114398E+00
 0.4605575516453E+00
 0.3147229969804E+00
 0.1850346667202E+00
 0.7479364024853E-01
 0.1287934325125E-01
 0.7123243521728E-01
 0.1005750689212E+00
 0.8771832430340E-01
 0.2660139258029E-01
 0.2137562646647E+01
 0.2476980526183E+01
 0.2356853214130E+01
 0.2095853715020E+01
 0.1818158153483E+01
 0.1563114330715E+01
 0.1322657134605E+01
 0.1081054730404E+01
 0.8416336853497E+00
 0.6322558468192E+00
 0.4586239735963E+00
 0.3071832423918E+00
 0.1729161875253E+00
 0.5843001252236E-01
 0.3305259368541E-01
 0.9801086176445E-01
 0.1323732977726E+00
 0.1359669328114E+00
 0.9930830681474E-01
 0.2032008786528E-01
 0.2304637442396E+01
 0.2600813083762E+01
 0.2352595821114E+01
 0.2000392568624E+01
 0.1682784377010E+01
 0.1412683635902E+01
 0.1161972172866E+01
 0.9118098493650E+00
 0.6703999663173E+00
 0.4680204333426E+00
 0.3047904416452E+00
 0.1648567647782E+00
 0.4496165158462E-01
 0.5194458669793E-01
 0.1228846231348E+00
 0.1652313555972E+00
 0.1761027355045E+00
 0.1565687448244E+00
 0.1010908873220E+00
 0.1142863652972E-01
 0.2500891683766E+01
 0.2721623224101E+01
 0.2309288272054E+01
 0.1872258776056E+01
 0.1534579214028E+01
 0.1257715707623E+01
 0.9972106374052E+00
 0.7398200079089E+00
 0.5006700138742E+00
 0.3105088302736E+00
 0.1607690432441E+00
 0.3495572749767E-01
 0.6861568074746E-01
 0.1456900355660E+00
 0.1954449633689E+00
 0.2158065966397E+00
 0.2052704124486E+00
 0.1662233709676E+00
 0.9746283901301E-01
 0.5169787554726E-02
 0.2736071818584E+01
 0.2820998272751E+01
 0.2204924917033E+01
 0.1714779925176E+01
 0.1382482140243E+01
 0.1099572427354E+01
 0.8278795517360E+00
 0.5652023083480E+00
 0.3341207072729E+00
 0.1617424560467E+00
 0.2812588871860E-01
 0.8269354412356E-01
 0.1662978332360E+00
 0.2227967769963E+00
 0.2518526318605E+00
 0.2519123692327E+00
 0.2228741896433E+00
 0.1682807171909E+00
 0.9147976771436E-01
 0.3920084861944E-02
 0.3023169588414E+01
 0.2846522650351E+01
 0.2013216978599E+01
 0.1550237227318E+01
 0.1230772654932E+01
 0.9379456756409E+00
 0.6528489250062E+00
 0.3882391138171E+00
 0.1735441004335E+00
 0.2356922673425E-01
 0.9487923187747E-01
 0.1848120406637E+00
 0.2474867771983E+00
 0.2838458793579E+00
 0.2937950368184E+00
 0.2760369664802E+00
 0.2318433508879E+00
 0.1655822175174E+00
 0.8473933295161E-01
 0.3672278855812E-02
 0.3358037020215E+01
 0.2607469796431E+01
 0.1784116827453E+01
 0.1392973037883E+01
 0.1078990523022E+01
 0.7732481996143E+00
 0.4688352143985E+00
 0.2107351643185E+00
 0.2330612432355E-01
 0.1086948626498E+00
 0.2029052481258E+00
 0.2695833230909E+00
 0.3122052775985E+00
 0.3305692494240E+00
 0.3231400929676E+00
 0.2904248576963E+00
 0.2359026724818E+00
 0.1603022706424E+00
 0.7752456338890E-01
 0.5624859972220E-02
 0.2181822371191E+01
 0.1865195607339E+01
 0.1566522871824E+01
 0.1278825386757E+01
 0.1006261883577E+01
 0.7579507645723E+00
 0.5415312604748E+00
 0.3625985263223E+00
 0.2241385848009E+00
 0.1262377137913E+00
 0.6594150400839E-01
 0.3733862663691E-01
 0.3256634653279E-01
 0.4309059365164E-01
 0.5953757265277E-01
 0.7381428504782E-01
 0.8064905399874E-01
 0.7808277201103E-01
 0.6734712335527E-01
 0.5238569525910E-01
 0.2313498193832E+01
 0.2033364658754E+01
 0.1723271200383E+01
 0.1420053530166E+01
 0.1131428904384E+01
 0.8649514274049E+00
 0.6288464146233E+00
 0.4301527038053E+00
 0.2736910301059E+00
 0.1613161715735E+00
 0.9144173105707E-01
 0.5891375639475E-01
 0.5586781305797E-01
 0.7254869337113E-01
 0.9765568912736E-01
 0.1207743936510E+00
 0.1344835494075E+00
 0.1355261977182E+00
 0.1249241437061E+00
 0.1079550824159E+00
 0.2448499500426E+01
 0.2187160094504E+01
 0.1890950276766E+01
 0.1583346295803E+01
 0.1282546427165E+01
 0.9991418728835E+00
 0.7426119753966E+00
 0.5215664052341E+00
 0.3428315118001E+00
 0.2104827082917E+00
 0.1250199750004E+00
 0.8287765798072E-01
 0.7685756703463E-01
 0.9676451705490E-01
 0.1297136575734E+00
 0.1626870077125E+00
 0.1854058086185E+00
 0.1923794135477E+00
 0.1836015575590E+00
 0.1635774966208E+00
 0.2595470489404E+01
 0.2347348194887E+01
 0.2065295862768E+01
 0.1763486316801E+01
 0.1457712704302E+01
 0.1161318419750E+01
 0.8856558740650E+00
 0.6411015726190E+00
 0.4366431930815E+00
 0.2789359171207E+00
 0.1712432127641E+00
 0.1125284341220E+00
 0.9727680100079E-01
 0.1158724086937E+00
 0.1545617268134E+00
 0.1976960534264E+00
 0.2313563428007E+00
 0.2466231952074E+00
 0.2412618467961E+00
 0.2186921869863E+00
 0.2752103364032E+01
 0.2517358201512E+01
 0.2250615805025E+01
 0.1959504342204E+01
 0.1656116361610E+01
 0.1352923676549E+01
 0.1062086239344E+01
 0.7952893217430E+00
 0.5634260651106E+00
 0.3757550998264E+00
 0.2387443105723E+00
 0.1548219374947E+00
 0.1214981104887E+00
 0.1312218185924E+00
 0.1708836589142E+00
 0.2229595291445E+00
 0.2694145224387E+00
 0.2963719084193E+00
 0.2977808625124E+00
 0.2754126031229E+00
 0.2916237440570E+01
 0.2696691893853E+01
 0.2447232565088E+01
 0.2171070699984E+01
 0.1876446375542E+01
 0.1573644495140E+01
 0.1273945166636E+01
 0.9891921877412E+00
 0.7313227630627E+00
 0.5116219053356E+00
 0.3396135140888E+00
 0.2216632367511E+00
 0.1595466961148E+00
 0.1495161210244E+00
 0.1813542880489E+00
 0.2377967157483E+00
 0.2973558498024E+00
 0.3398965562153E+00
 0.3531088839924E+00
 0.3357471449293E+00
 0.3085582425157E+01
 0.2883711310993E+01
 0.2654038626083E+01
 0.2396853634293E+01
 0.2117040637438E+01
 0.1822147416299E+01
 0.1521524101720E+01
 0.1225898877700E+01
 0.9470025267007E+00
 0.6969953341168E+00
 0.4875712507565E+00
 0.3286792024659E+00
 0.2269087251474E+00
 0.1838513925302E+00
 0.1945853031137E+00
 0.2456342312191E+00
 0.3148779441877E+00
 0.3759652524379E+00
 0.4070844642920E+00
 0.4000427487785E+00
 0.3257605177025E+01
 0.3075904815210E+01
 0.2868630921149E+01
 0.2634257988647E+01
 0.2374992571603E+01
 0.2095674611675E+01
 0.1803201887806E+01
 0.1506261770407E+01
 0.1215135082756E+01
 0.9413952871347E+00
 0.6973633372062E+00
 0.4952060877368E+00
 0.3455916921958E+00
 0.2559196819565E+00
 0.2283088482897E+00
 0.2569312939285E+00
 0.3247489382627E+00
 0.4032670337551E+00
 0.4593123594598E+00
 0.4704492003638E+00
 0.3429604585758E+01
 0.3270205990522E+01
 0.3087645253096E+01
 0.2879405886605E+01
 0.2645764426903E+01
 0.2389243754086E+01
 0.2114287257700E+01
 0.1827134968578E+01
 0.1535788900529E+01
 0.1249954716623E+01
 0.9808553499839E+00
 0.7408088390172E+00
 0.5424503136921E+00
 0.3974728582950E+00
 0.3148144357603E+00
 0.2981222257808E+00
 0.3416045219672E+00
 0.4245806648243E+00
 0.5089504842035E+00
 0.5508104390884E+00
 0.3598834010851E+01
 0.3463312397484E+01
 0.3307203734645E+01
 0.3127600666063E+01
 0.2923561999806E+01
 0.2695882206640E+01
 0.2446937310190E+01
 0.2180653123555E+01
 0.1902556273899E+01
 0.1619851914659E+01
 0.1341468003262E+01
 0.1077998725413E+01
 0.8414619890946E+00
 0.6447562783693E+00
 0.5006666905432E+00
 0.4202148861360E+00
 0.4097544957792E+00
 0.4653177268010E+00
 0.5626030003302E+00
 0.6464967639254E+00
 0.3762653915391E+01
 0.3651998871257E+01
 0.3523375515528E+01
 0.3373913178011E+01
 0.3202045204880E+01
 0.3007449419708E+01
 0.2791006597073E+01
 0.2554822261852E+01
 0.2302310139552E+01
 0.2038316268128E+01
 0.1769256517324E+01
 0.1503235300073E+01
 0.1250104190957E+01
 0.1021401369413E+01
 0.8300819235452E+00
 0.6898925019126E+00
 0.6140903403836E+00
 0.6125513339687E+00
 0.6848907989104E+00
 0.7990950088261E+00
 0.3918544231984E+01
 0.3833135462718E+01
 0.3732323712895E+01
 0.3613547321132E+01
 0.3475030078820E+01
 0.3315831560280E+01
 0.3135879003145E+01
 0.2936026658150E+01
 0.2718156862538E+01
 0.2485321589022E+01
 0.2241917071048E+01
 0.1993881984566E+01
 0.1748908325380E+01
 0.1516652070007E+01
 0.1308927114898E+01
 0.1139862071187E+01
 0.1025984184451E+01
 0.9861462492546E+00
 0.1040803995530E+01
 0.1210760576037E+01
 0.4064027185919E+01
 0.4003491328619E+01
 0.3930038969310E+01
 0.3841536940078E+01
 0.3736248855674E+01
 0.3612951647408E+01
 0.3471011669651E+01
 0.3310467960825E+01
 0.3132143963819E+01
 0.2937796929442E+01
 0.2730309666206E+01
 0.2513929205222E+01
 0.2294560187930E+01
 0.2080127849056E+01
 0.1881039446035E+01
 0.1710801222934E+01
 0.1586913934892E+01
 0.1532315806880E+01
 0.1578147168441E+01
 0.1770769277933E+01
 0.4196777087155E+01
 0.4159935831991E+01
 0.4112542809270E+01
 0.4052909345204E+01
 0.3979466241202E+01
 0.3890905291514E+01
 0.3786273460009E+01
 0.3665061744673E+01
 0.3527311137256E+01
 0.3373748595001E+01
 0.3205962266358E+01
 0.3026625306854E+01
 0.2839780926377E+01
 0.2651208538226E+01
 0.2468904284201E+01
 0.2303734374426E+01
 0.2170366009756E+01
 0.2088673895535E+01
 0.2085981095880E+01
 0.2199914684272E+01
 0.4314684722947E+01
 0.4299611638119E+01
 0.4276172618487E+01
 0.4243083240300E+01
 0.4198989466680E+01
 0.4142604662362E+01
 0.4072801430030E+01
 0.3988690805205E+01
 0.3889708286460E+01
 0.3775719070211E+01
 0.3647151486709E+01
 0.3505166715121E+01
 0.3351873778646E+01
 0.3190601452541E+01
 0.3026243275138E+01
 0.2865698086177E+01
 0.2718434306358E+01
 0.2597195096120E+01
 0.2518727006268E+01
 0.2504230168362E+01
 0.4415888903034E+01
 0.4419997431295E+01
 0.4417684096506E+01
 0.4408002174547E+01
 0.4389810147040E+01
 0.4361888378768E+01
 0.4323015524931E+01
 0.4272027795711E+01
 0.4207876131814E+01
 0.4129691116523E+01
 0.4036862276724E+01
 0.3929136469422E+01
 0.3806738605542E+01
 0.3670516324607E+01
 0.3522107359982E+01
 0.3364122342148E+01
 0.3200322494370E+01
 0.3035742125614E+01
 0.2876684286209E+01
 0.2730542979869E+01
 0.4498802346071E+01
 0.4518945579849E+01
 0.4534307170042E+01
 0.4544204483200E+01
 0.4547677553856E+01
 0.4543581251443E+01
 0.4530640568350E+01
 0.4507485408268E+01
 0.4472675847161E+01
 0.4424724901733E+01
 0.4362122996423E+01
 0.4283366012017E+01
 0.4186986410967E+01
 0.4071583751810E+01
 0.3935846041432E+01
 0.3778545754667E+01
 0.3598483428153E+01
 0.3394343560155E+01
 0.3164440858167E+01
 0.2906364571883E+01
 0.4562132848266E+01
 0.4594708712978E+01
 0.4623784005166E+01
 0.4648869260137E+01
 0.4669142950222E+01
 0.4683522452234E+01
 0.4690698864063E+01
 0.4689148270063E+01
 0.4677127624003E+01
 0.4652660194073E+01
 0.4613513134338E+01
 0.4557167815257E+01
 0.4480781657791E+01
 0.4381137995810E+01
 0.4254577638401E+01
 0.4096902286255E+01
 0.3903236601115E+01
 0.3667833203821E+01
 0.3383792899557E+01
 0.3042706924072E+01
 0.4604900451107E+01
 0.4645960620664E+01
 0.4684398278613E+01
 0.4719851399826E+01
 0.4751590708995E+01
 0.4778576592509E+01
 0.4799478475332E+01
 0.4812667942060E+01
 0.4816192357997E+01
 0.4807732748109E+01
 0.4784547772802E+01
 0.4743404402776E+01
 0.4680495150408E+01
 0.4591341416799E+01
 0.4470682786858E+01
 0.4312353313836E+01
 0.4109148267887E+01
 0.3852687288546E+01
 0.3533282781972E+01
 0.3139740940198E+01
 0.4626448740579E+01
 0.4671810567320E+01
 0.4714995702820E+01
 0.4755706496993E+01
 0.4793259743706E+01
 0.4826637530676E+01
 0.4854498451045E+01
 0.4875160920423E+01
 0.4886564832142E+01
 0.4886214831392E+01
 0.4871106847824E+01
 0.4837638799437E+01
 0.4781506491691E+01
 0.4697586815500E+01
 0.4579812683719E+01
 0.4421048145946E+01
 0.4212978517393E+01
 0.3946041630945E+01
 0.3609449253993E+01
 0.3191441327506E+01
 0.4626448740797E+01
 0.4671810567782E+01
 0.4714995703568E+01
 0.4755706498077E+01
 0.4793259745180E+01
 0.4826637532599E+01
 0.4854498453477E+01
 0.4875160923423E+01
 0.4886564835765E+01
 0.4886214835682E+01
 0.4871106852808E+01
 0.4837638805112E+01
 0.4781506498019E+01
 0.4697586822387E+01
 0.4579812691006E+01
 0.4421048153388E+01
 0.4212978524645E+01
 0.3946041637555E+01
 0.3609449259406E+01
 0.3191441331111E+01
 0.4604900451761E+01
 0.4645960622040E+01
 0.4684398280842E+01
 0.4719851403054E+01
 0.4751590713385E+01
 0.4778576598233E+01
 0.4799478482571E+01
 0.4812667950989E+01
 0.4816192368778E+01
 0.4807732760871E+01
 0.4784547787624E+01
 0.4743404419656E+01
 0.4680495169229E+01
 0.4591341437290E+01
 0.4470682808545E+01
 0.4312353335991E+01
 0.4109148289476E+01
 0.3852687308190E+01
 0.3533282797927E+01
 0.3139740950408E+01
 0.4562132849349E+01
 0.4594708715245E+01
 0.4623784008832E+01
 0.4648869265442E+01
 0.4669142957430E+01
 0.4683522461628E+01
 0.4690698875936E+01
 0.4689148284701E+01
 0.4677127641669E+01
 0.4652660214978E+01
 0.4613513158609E+01
 0.4557167842893E+01
 0.4480781688609E+01
 0.4381138029378E+01
 0.4254577673956E+01
 0.4096902322612E+01
 0.3903236636561E+01
 0.3667833236013E+01
 0.3383792925423E+01
 0.3042706939721E+01
 0.4498802347571E+01
 0.4518945582969E+01
 0.4534307175072E+01
 0.4544204490468E+01
 0.4547677563722E+01
 0.4543581264292E+01
 0.4530640584578E+01
 0.4507485428261E+01
 0.4472675871268E+01
 0.4424724930238E+01
 0.4362123029495E+01
 0.4283366049657E+01
 0.4186986452939E+01
 0.4071583797548E+01
 0.3935846089932E+01
 0.3778545804348E+01
 0.3598483476687E+01
 0.3394343604268E+01
 0.3164440893412E+01
 0.2906364592386E+01
 0.4415888904931E+01
 0.4419997435211E+01
 0.4417684102800E+01
 0.4408002183624E+01
 0.4389810159345E+01
 0.4361888394776E+01
 0.4323015545123E+01
 0.4272027820553E+01
 0.4207876161724E+01
 0.4129691151832E+01
 0.4036862317626E+01
 0.3929136515912E+01
 0.3806738657337E+01
 0.3670516381042E+01
 0.3522107419881E+01
 0.3364122403656E+01
 0.3200322554723E+01
 0.3035742180834E+01
 0.2876684330718E+01
 0.2730543006028E+01
 0.4314684725212E+01
 0.4299611642752E+01
 0.4276172625905E+01
 0.4243083250977E+01
 0.4198989481133E+01
 0.4142604681133E+01
 0.4072801453663E+01
 0.3988690834215E+01
 0.3889708321296E+01
 0.3775719111216E+01
 0.3647151534067E+01
 0.3505166768794E+01
 0.3351873838295E+01
 0.3190601517433E+01
 0.3026243344018E+01
 0.2865698157107E+01
 0.2718434376487E+01
 0.2597195161336E+01
 0.2518727060650E+01
 0.2504230203401E+01
 0.4196777089755E+01
 0.4159935837255E+01
 0.4112542817664E+01
 0.4052909357256E+01
 0.3979466257484E+01
 0.3890905312610E+01
 0.3786273486489E+01
 0.3665061777055E+01
 0.3527311175969E+01
 0.3373748640340E+01
 0.3205962318435E+01
 0.3026625365540E+01
 0.2839780991240E+01
 0.2651208608462E+01
 0.2468904358556E+01
 0.2303734451101E+01
 0.2170366086290E+01
 0.2088673968624E+01
 0.2085981160995E+01
 0.2199914734606E+01
 0.4064027188822E+01
 0.4003491334427E+01
 0.3930038978525E+01
 0.3841536953267E+01
 0.3736248873436E+01
 0.3612951670335E+01
 0.3471011698289E+01
 0.3310467995637E+01
 0.3132144005139E+01
 0.2937796977432E+01
 0.2730309720814E+01
 0.2513929266138E+01
 0.2294560254550E+01
 0.2080127920464E+01
 0.1881039521010E+01
 0.1710801299999E+01
 0.1586914012448E+01
 0.1532315883472E+01
 0.1578147243282E+01
 0.1770769351676E+01
 0.3918544235128E+01
 0.3833135468928E+01
 0.3732323722703E+01
 0.3613547335122E+01
 0.3475030097586E+01
 0.3315831584371E+01
 0.3135879033020E+01
 0.2936026694128E+01
 0.2718156904751E+01
 0.2485321637365E+01
 0.2241917125141E+01
 0.1993882043718E+01
 0.1748908388583E+01
 0.1516652135958E+01
 0.1308927182091E+01
 0.1139862138118E+01
 0.1025984250005E+01
 0.9861463134824E+00
 0.1040804061272E+01
 0.1210760653354E+01
 0.3762653918716E+01
 0.3651998877744E+01
 0.3523375525729E+01
 0.3373913192510E+01
 0.3202045224225E+01
 0.3007449444347E+01
 0.2791006627298E+01
 0.2554822297738E+01
 0.2302310180902E+01
 0.2038316314420E+01
 0.1769256567670E+01
 0.1503235353198E+01
 0.1250104245214E+01
 0.1021401422856E+01
 0.8300819740934E+00
 0.6898925476674E+00
 0.6140903801769E+00
 0.6125513683590E+00
 0.6848908320164E+00
 0.7990950511336E+00
 0.3598834014293E+01
 0.3463312404138E+01
 0.3307203745078E+01
 0.3127600680827E+01
 0.2923562019357E+01
 0.2695882231261E+01
 0.2446937339924E+01
 0.2180653158143E+01
 0.1902556312729E+01
 0.1619851956720E+01
 0.1341468047133E+01
 0.1077998769290E+01
 0.8414620308808E+00
 0.6447563158643E+00
 0.5006667217576E+00
 0.4202149097653E+00
 0.4097545119020E+00
 0.4653177378288E+00
 0.5626030115824E+00
 0.6464967807887E+00
 0.3429604589255E+01
 0.3270205997251E+01
 0.3087645263612E+01
 0.2879405901387E+01
 0.2645764446253E+01
 0.2389243778055E+01
 0.2114287286022E+01
 0.1827135000625E+01
 0.1535788935280E+01
 0.1249954752669E+01
 0.9808553855774E+00
 0.7408088721948E+00
 0.5424503424846E+00
 0.3974728810472E+00
 0.3148144515479E+00
 0.2981222349138E+00
 0.3416045265587E+00
 0.4245806689229E+00
 0.5089504924368E+00
 0.5508104533260E+00
 0.3257605180484E+01
 0.3075904821882E+01
 0.2868630931552E+01
 0.2634258003144E+01
 0.2374992590296E+01
 0.2095674634345E+01
 0.1803201913875E+01
 0.1506261798924E+01
 0.1215135112419E+01
 0.9413953163632E+00
 0.6973633642672E+00
 0.4952061109556E+00
 0.3455917102405E+00
 0.2559196941718E+00
 0.2283088550183E+00
 0.2569312968046E+00
 0.3247489401859E+00
 0.4032670380237E+00
 0.4593123680056E+00
 0.4704492123211E+00
 0.3085582428478E+01
 0.2883711317475E+01
 0.2654038636181E+01
 0.2396853648213E+01
 0.2117040655054E+01
 0.1822147437124E+01
 0.1521524124917E+01
 0.1225898902118E+01
 0.9470025509524E+00
 0.6969953567080E+00
 0.4875712702703E+00
 0.3286792177984E+00
 0.2269087357658E+00
 0.1838513986835E+00
 0.1945853059595E+00
 0.2456342327937E+00
 0.3148779468787E+00
 0.3759652580040E+00
 0.4070844729341E+00
 0.4000427591790E+00
 0.2916237443651E+01
 0.2696691900020E+01
 0.2447232574707E+01
 0.2171070713071E+01
 0.1876446391733E+01
 0.1573644513726E+01
 0.1273945186620E+01
 0.9891922079269E+00
 0.7313227821694E+00
 0.5116219221550E+00
 0.3396135276722E+00
 0.2216632466063E+00
 0.1595467023624E+00
 0.1495161244469E+00
 0.1813542900550E+00
 0.2377967180889E+00
 0.2973558539779E+00
 0.3398965628573E+00
 0.3531088926235E+00
 0.3357471543885E+00
 0.2752103366791E+01
 0.2517358207276E+01
 0.2250615814034E+01
 0.1959504354252E+01
 0.1656116376114E+01
 0.1352923692651E+01
 0.1062086256014E+01
 0.7952893378851E+00
 0.5634260796901E+00
 0.3757551120147E+00
 0.2387443198953E+00
 0.1548219439538E+00
 0.1214981145999E+00
 0.1312218213226E+00
 0.1708836615354E+00
 0.2229595328808E+00
 0.2694145280387E+00
 0.2963719158803E+00
 0.2977808711504E+00
 0.2754126119597E+00
 0.2595470491788E+01
 0.2347348200194E+01
 0.2065295871052E+01
 0.1763486327611E+01
 0.1457712716879E+01
 0.1161318433198E+01
 0.8856558874520E+00
 0.6411015850652E+00
 0.4366432038701E+00
 0.2789359258077E+00
 0.1712432192666E+00
 0.1125284387591E+00
 0.9727680444771E-01
 0.1158724118566E+00
 0.1545617306425E+00
 0.1976960586298E+00
 0.2313563496056E+00
 0.2466232032926E+00
 0.2412618554485E+00
 0.2186921953780E+00
 0.2448499502417E+01
 0.2187160099330E+01
 0.1890950284219E+01
 0.1583346305160E+01
 0.1282546437609E+01
 0.9991418836213E+00
 0.7426119856912E+00
 0.5215664144759E+00
 0.3428315195887E+00
 0.2104827145008E+00
 0.1250199798074E+00
 0.8287766185060E-01
 0.7685757063315E-01
 0.9676452109655E-01
 0.1297136626589E+00
 0.1626870141489E+00
 0.1854058163167E+00
 0.1923794220593E+00
 0.1836015662207E+00
 0.1635775047180E+00
 0.2313498195528E+01
 0.2033364663195E+01
 0.1723271206843E+01
 0.1420053537789E+01
 0.1131428912508E+01
 0.8649514354256E+00
 0.6288464220355E+00
 0.4301527102681E+00
 0.2736910354946E+00
 0.1613161759989E+00
 0.9144173484636E-01
 0.5891376004524E-01
 0.5586781714764E-01
 0.7254869838055E-01
 0.9765569533858E-01
 0.1207744010659E+00
 0.1344835577327E+00
 0.1355262064505E+00
 0.1249241522696E+00
 0.1079550901531E+00
 0.2181822372961E+01
 0.1865195611156E+01
 0.1566522876644E+01
 0.1278825392092E+01
 0.1006261888951E+01
 0.7579507695863E+00
 0.5415312648784E+00
 0.3625985300511E+00
 0.2241385879850E+00
 0.1262377167275E+00
 0.6594150709777E-01
 0.3733863032167E-01
 0.3256635127451E-01
 0.4309059966988E-01
 0.5953757990421E-01
 0.7381429326432E-01
 0.8064906272071E-01
 0.7808278070183E-01
 0.6734713152933E-01
 0.5238570252128E-01
</DataArray>
<CellData Tensors="'E_Centroid','S_Centroid'">
<DataArray type="Float64" Name="E_Centroid" NumberOfComponents="4" ComponentName0="E11" ComponentName1="E22" ComponentName2="E33" ComponentName3="E12" format="ascii">
 0.1156185776940E-02 -0.9009584794406E-02  0.0000000000000E+00 -0.3088082605373E-02
 0.1973272983776E-02 -0.7310292548883E-02  0.0000000000000E+00 -0.2013334227882E-03
 0.1634552272257E-02 -0.6659955014357E-02  0.0000000000000E+00 -0.1917277594546E-03
 0.1597314329934E-02 -0.6372712841469E-02  0.0000000000000E+00 -0.8965155017264E-04
 0.1549932301305E-02 -0.6207786132218E-02  0.0000000000000E+00 -0.5081981156131E-04
 0.1529086250943E-02 -0.6117224923699E-02  0.0000000000000E+00 -0.2599630665551E-04
 0.1517154381566E-02 -0.6070260121884E-02  0.0000000000000E+00 -0.1032018295181E-04
 0.1512895665832E-02 -0.6052539156177E-02  0.0000000000000E+00  0.5595983902651E-06
 0.1513639961581E-02 -0.6055381220229E-02  0.0000000000000E+00  0.8493019762218E-05
 0.1518228158728E-02 -0.6073588306646E-02  0.0000000000000E+00  0.1461580785782E-04
 0.1525821575247E-02 -0.6103896312535E-02  0.0000000000000E+00  0.1961064741302E-04
 0.1535927336685E-02 -0.6144288583194E-02  0.0000000000000E+00  0.2393579498611E-04
 0.1548251525115E-02 -0.6193587903716E-02  0.0000000000000E+00  0.2791511490054E-04
 0.1562653107995E-02 -0.6251224214620E-02  0.0000000000000E+00  0.3179311357489E-04
 0.1579105839654E-02 -0.6317091503225E-02  0.0000000000000E+00  0.3576471339936E-04
 0.1597676826585E-02 -0.6391458426990E-02  0.0000000000000E+00  0.3999355214793E-04
 0.1618512291931E-02 -0.6474911906449E-02  0.0000000000000E+00  0.4462384454032E-04
 0.1641828936597E-02 -0.6568321862802E-02  0.0000000000000E+00  0.4978832807995E-04
 0.1667909181126E-02 -0.6672822370522E-02  0.0000000000000E+00  0.5561514346716E-04
 0.1697099512814E-02 -0.6789806191001E-02  0.0000000000000E+00  0.6223436168862E-04
 0.1729812961649E-02 -0.6920931540470E-02  0.0000000000000E+00  0.6978453064221E-04
 0.1766535854405E-02 -0.7068155339180E-02  0.0000000000000E+00  0.7842717708983E-04
 0.1807842340752E-02 -0.7233788955090E-02  0.0000000000000E+00  0.8836138541798E-04
 0.1854420862197E-02 -0.7420605742697E-02  0.0000000000000E+00  0.9986177115026E-04
 0.1907121393526E-02 -0.7632054212247E-02  0.0000000000000E+00  0.1133508468400E-03
 0.1967089665258E-02 -0.7872718354665E-02  0.0000000000000E+00  0.1295654435058E-03
 0.2035774209909E-02 -0.8149490539578E-02  0.0000000000000E+00  0.1506367432428E-03
 0.2114787539043E-02 -0.8473158750592E-02  0.0000000000000E+00  0.1856970833649E-03
 0.2205135671589E-02 -0.8849687673000E-02  0.0000000000000E+00  0.2527453887483E-03
 0.2306199253451E-02 -0.9274196502475E-02  0.0000000000000E+00  0.3681654465414E-03
 0.2416371513242E-02 -0.9739900432499E-02  0.0000000000000E+00  0.5397923607981E-03
 0.2534350251676E-02 -0.1024391495107E-01  0.0000000000000E+00  0.7702703665223E-03
 0.2659917957900E-02 -0.1078842493205E-01  0.0000000000000E+00  0.1061234545439E-02
 0.2793496022747E-02 -0.1138220581656E-01  0.0000000000000E+00  0.1416187690611E-02
 0.2940034476290E-02 -0.1204387445091E-01  0.0000000000000E+00  0.1845715040003E-02
 0.3094677717926E-02 -0.1280450455119E-01  0.0000000000000E+00  0.2368891482726E-02
 0.3311791524849E-02 -0.1373395397072E-01  0.0000000000000E+00  0.3045188499840E-02
 0.3383252969480E-02 -0.1489362479018E-01  0.0000000000000E+00  0.3955370629096E-02
 0.4468252710914E-02 -0.1683588356719E-01  0.0000000000000E+00  0.5387046086309E-02
 0.1404928032764E-03 -0.1851601184600E-01  0.0000000000000E+00  0.9694434853965E-02
 0.2080795836438E-01 -0.2519635823161E-01  0.0000000000000E+00  0.1241931442036E-01
 0.7850478358976E-03 -0.7806443758525E-02  0.0000000000000E+00 -0.3396148895141E-02
 0.1671506033627E-02 -0.7479452577527E-02  0.0000000000000E+00 -0.1537438696006E-02
 0.1692731184917E-02 -0.6828893383835E-02  0.0000000000000E+00 -0.5413667628416E-03
 0.1602188363415E-02 -0.6508266152132E-02  0.0000000000000E+00 -0.3249885637297E-03
 0.1572053324867E-02 -0.6325213991466E-02  0.0000000000000E+00 -0.1781715702224E-03
 0.1547470684940E-02 -0.6217070793594E-02  0.0000000000000E+00 -0.9862598742415E-04
 0.1534839180624E-02 -0.6156561007796E-02  0.0000000000000E+00 -0.4631876201754E-04
 0.1528799499479E-02 -0.6127680982382E-02  0.0000000000000E+00 -0.1054512723432E-04
 0.1527990331839E-02 -0.6121303231136E-02  0.0000000000000E+00  0.1554901399153E-04
 0.1531072973060E-02 -0.6131737659057E-02  0.0000000000000E+00  0.3557948751394E-04
 0.1537280110210E-02 -0.6155391578548E-02  0.0000000000000E+00  0.5181786614528E-04
 0.1546095467136E-02 -0.6189991988632E-02  0.0000000000000E+00  0.6574827564078E-04
 0.1557210154473E-02 -0.6234161113571E-02  0.0000000000000E+00  0.7841459528445E-04
 0.1570460323090E-02 -0.6287162634769E-02  0.0000000000000E+00  0.9059340409019E-04
 0.1585796061465E-02 -0.6348745961278E-02  0.0000000000000E+00  0.1028956314245E-03
 0.1603259104292E-02 -0.6419047374945E-02  0.0000000000000E+00  0.1158269328258E-03
 0.1622968706638E-02 -0.6498526638814E-02  0.0000000000000E+00  0.1298263818209E-03
 0.1645112354662E-02 -0.6587926545153E-02  0.0000000000000E+00  0.1452931503504E-03
 0.1669940094662E-02 -0.6688249358691E-02  0.0000000000000E+00  0.1626079155269E-03
 0.1697761954454E-02 -0.6800747254087E-02  0.0000000000000E+00  0.1821527948930E-03
 0.1728948125919E-02 -0.6926925084216E-02  0.0000000000000E+00  0.2043351415728E-03
 0.1763933308954E-02 -0.7068566995646E-02  0.0000000000000E+00  0.2296233404796E-03
 0.1803225811361E-02 -0.7227785163650E-02  0.0000000000000E+00  0.2586007543747E-03
 0.1847421986030E-02 -0.7407111429056E-02  0.0000000000000E+00  0.2920717007642E-03
 0.1897232660955E-02 -0.7609678059800E-02  0.0000000000000E+00  0.3312669455152E-03
 0.1953495137961E-02 -0.7839569246536E-02  0.0000000000000E+00  0.3784447922313E-03
 0.2016528891370E-02 -0.8102098077775E-02  0.0000000000000E+00  0.4387060391907E-03
 0.2085779531158E-02 -0.8402583214798E-02  0.0000000000000E+00  0.5207744924783E-03
 0.2160947641537E-02 -0.8743017993846E-02  0.0000000000000E+00  0.6352504624958E-03
 0.2242188680425E-02 -0.9120649027976E-02  0.0000000000000E+00  0.7923593838073E-03
 0.2329044221375E-02 -0.9530793587758E-02  0.0000000000000E+00  0.9999045712270E-03
 0.2420425747602E-02 -0.9970101271437E-02  0.0000000000000E+00  0.1263175637102E-02
 0.2514950111324E-02 -0.1043802591057E-01  0.0000000000000E+00  0.1587460525368E-02
 0.2611668483957E-02 -0.1093759177782E-01  0.0000000000000E+00  0.1981353529524E-02
 0.2706553503577E-02 -0.1147544921713E-01  0.0000000000000E+00  0.2461787861288E-02
 0.2804485869787E-02 -0.1206466584691E-01  0.0000000000000E+00  0.3057532442111E-02
 0.2852133750438E-02 -0.1270982527756E-01  0.0000000000000E+00  0.3855028787867E-02
 0.3000853459525E-02 -0.1345626600786E-01  0.0000000000000E+00  0.4827273071263E-02
 0.2375671042109E-02 -0.1409435441331E-01  0.0000000000000E+00  0.7264329269141E-02
 0.1403194028114E-02 -0.1311813090482E-01  0.0000000000000E+00  0.6398115052498E-02
 0.1481508901955E-01 -0.1474065172241E-01  0.0000000000000E+00  0.4520961228140E-02
 0.5620493850345E-03 -0.7192546902582E-02  0.0000000000000E+00 -0.3279739639953E-02
 0.1375949416086E-02 -0.7259471023794E-02  0.0000000000000E+00 -0.2127235970035E-02
 0.1617431524297E-02 -0.6911344294799E-02  0.0000000000000E+00 -0.1015335586419E-02
 0.1595749952576E-02 -0.6599634123482E-02  0.0000000000000E+00 -0.5486161296401E-03
 0.1572425243745E-02 -0.6416103849851E-02  0.0000000000000E+00 -0.3230781721616E-03
 0.1556119401394E-02 -0.6300614521569E-02  0.0000000000000E+00 -0.1823388574717E-03
 0.1545004182380E-02 -0.6231668132650E-02  0.0000000000000E+00 -0.9264046595923E-04
 0.1539561610498E-02 -0.6194783663260E-02  0.0000000000000E+00 -0.3028640960269E-04
 0.1538412506824E-02 -0.6181114505280E-02  0.0000000000000E+00  0.1516669538949E-04
 0.1540820189331E-02 -0.6185007596895E-02  0.0000000000000E+00  0.5010548063471E-04
 0.1546150080135E-02 -0.6202784139803E-02  0.0000000000000E+00  0.7837713615862E-04
 0.1553984441188E-02 -0.6232060534683E-02  0.0000000000000E+00  0.1025378820234E-03
 0.1564050110546E-02 -0.6271342565649E-02  0.0000000000000E+00  0.1243746841869E-03
 0.1576196866363E-02 -0.6319779409278E-02  0.0000000000000E+00  0.1452139207753E-03
 0.1590372742347E-02 -0.6377007885099E-02  0.0000000000000E+00  0.1660927272661E-03
 0.1606608104734E-02 -0.6443051568594E-02  0.0000000000000E+00  0.1878635633281E-03
 0.1625003754292E-02 -0.6518254492317E-02  0.0000000000000E+00  0.2112606945670E-03
 0.1645722506937E-02 -0.6603237430026E-02  0.0000000000000E+00  0.2369461731427E-03
 0.1668983238879E-02 -0.6698870609337E-02  0.0000000000000E+00  0.2655459351071E-03
 0.1695056971292E-02 -0.6806259786903E-02  0.0000000000000E+00  0.2976835979747E-03
 0.1724264033063E-02 -0.6926742948776E-02  0.0000000000000E+00  0.3340196072024E-03
 0.1756973444507E-02 -0.7061907792735E-02  0.0000000000000E+00  0.3753079033764E-03
 0.1793601525465E-02 -0.7213624956108E-02  0.0000000000000E+00  0.4224846286956E-03
 0.1834604619451E-02 -0.7384108688696E-02  0.0000000000000E+00  0.4768278880147E-03
 0.1880457470932E-02 -0.7576029308080E-02  0.0000000000000E+00  0.5402816774886E-03
 0.1931417566508E-02 -0.7792590063063E-02  0.0000000000000E+00  0.6162640760558E-03
 0.1986804752094E-02 -0.8037046132074E-02  0.0000000000000E+00  0.7104917779303E-03
 0.2045077225365E-02 -0.8311502473088E-02  0.0000000000000E+00  0.8298758665588E-03
 0.2105370242793E-02 -0.8615876174318E-02  0.0000000000000E+00  0.9809895765783E-03
 0.2167845088664E-02 -0.8947668699066E-02  0.0000000000000E+00  0.1170448173050E-02
 0.2232312799291E-02 -0.9302763913015E-02  0.0000000000000E+00  0.1404843532789E-02
 0.2297442449306E-02 -0.9676817336899E-02  0.0000000000000E+00  0.1690172435564E-02
 0.2360900638687E-02 -0.1006606826242E-01  0.0000000000000E+00  0.2032966361421E-02
 0.2418373169860E-02 -0.1046691015729E-01  0.0000000000000E+00  0.2443134199773E-02
 0.2464595708209E-02 -0.1087440623401E-01  0.0000000000000E+00  0.2935223857525E-02
 0.2480130044248E-02 -0.1127610923208E-01  0.0000000000000E+00  0.3543342011375E-02
 0.2455597052138E-02 -0.1163813539261E-01  0.0000000000000E+00  0.4269096868278E-02
 0.2290212840323E-02 -0.1188792301784E-01  0.0000000000000E+00  0.5327723945286E-02
 0.1454222280970E-02 -0.1132143607459E-01  0.0000000000000E+00  0.6149901477972E-02
 0.2741501662254E-02 -0.1023154255486E-01  0.0000000000000E+00  0.2577985075157E-02
 0.1253655713363E-01 -0.1132007368134E-01  0.0000000000000E+00  0.1818909981870E-02
 0.4273269183663E-03 -0.6822565165796E-02  0.0000000000000E+00 -0.3094166687180E-02
 0.1142363351963E-02 -0.7017303553828E-02  0.0000000000000E+00 -0.2357064453676E-02
 0.1490221100779E-02 -0.6883753719552E-02  0.0000000000000E+00 -0.1373440054580E-02
 0.1556396697593E-02 -0.6651947982724E-02  0.0000000000000E+00 -0.7796721324916E-03
 0.1558390620247E-02 -0.6480561187286E-02  0.0000000000000E+00 -0.4657593978454E-03
 0.1553300698886E-02 -0.6367422260950E-02  0.0000000000000E+00 -0.2729465064920E-03
 0.1547902677886E-02 -0.6295211339174E-02  0.0000000000000E+00 -0.1454284595835E-03
 0.1544895040763E-02 -0.6253483058172E-02  0.0000000000000E+00 -0.5657476222408E-04
 0.1544760972070E-02 -0.6234519521982E-02  0.0000000000000E+00  0.8747596400446E-05
 0.1547319423826E-02 -0.6233156720693E-02  0.0000000000000E+00  0.5908720358014E-04
 0.1552314576643E-02 -0.6245882325650E-02  0.0000000000000E+00  0.9985877333397E-04
 0.1559500360925E-02 -0.6270345275380E-02  0.0000000000000E+00  0.1346411472460E-03
 0.1568701182861E-02 -0.6305021522710E-02  0.0000000000000E+00  0.1659563323632E-03
 0.1579814677529E-02 -0.6348999124017E-02  0.0000000000000E+00  0.1956749365249E-03
 0.1592809807947E-02 -0.6401835928128E-02  0.0000000000000E+00  0.2252572303225E-03
 0.1607720124925E-02 -0.6463463866785E-02  0.0000000000000E+00  0.2558983001214E-03
 0.1624637213332E-02 -0.6534123829334E-02  0.0000000000000E+00  0.2886215298528E-03
 0.1643704475582E-02 -0.6614320833920E-02  0.0000000000000E+00  0.3243430577087E-03
 0.1665111514225E-02 -0.6704793952328E-02  0.0000000000000E+00  0.3639219558626E-03
 0.1689088726646E-02 -0.6806497748002E-02  0.0000000000000E+00  0.4082067011868E-03
 0.1715900737794E-02 -0.6920591632844E-02  0.0000000000000E+00  0.4580874289835E-03
 0.1745838675424E-02 -0.7048445059311E-02  0.0000000000000E+00  0.5145699851260E-03
 0.1779204194001E-02 -0.7191648684661E-02  0.0000000000000E+00  0.5788893366144E-03
 0.1816275330528E-02 -0.7352032848566E-02  0.0000000000000E+00  0.6527033565568E-03
 0.1857201621143E-02 -0.7531674481487E-02  0.0000000000000E+00  0.7384759204900E-03
 0.1901641197518E-02 -0.7732695254934E-02  0.0000000000000E+00  0.8400626474495E-03
 0.1948232358589E-02 -0.7956577513122E-02  0.0000000000000E+00  0.9626463323794E-03
 0.1994994538448E-02 -0.8203396120035E-02  0.0000000000000E+00  0.1111244515212E-02
 0.2040758918899E-02 -0.8471686260850E-02  0.0000000000000E+00  0.1289837238952E-02
 0.2085429415239E-02 -0.8758507864769E-02  0.0000000000000E+00  0.1502513884607E-02
 0.2128626263321E-02 -0.9059395331922E-02  0.0000000000000E+00  0.1754136172958E-02
 0.2168636279949E-02 -0.9368578486279E-02  0.0000000000000E+00  0.2049756109893E-02
 0.2201866046518E-02 -0.9678881784013E-02  0.0000000000000E+00  0.2394878882914E-02
 0.2222436298519E-02 -0.9980327923446E-02  0.0000000000000E+00  0.2795848147406E-02
 0.2219136177100E-02 -0.1025647668039E-01  0.0000000000000E+00  0.3262232632414E-02
 0.2173830743673E-02 -0.1047382039789E-01  0.0000000000000E+00  0.3794392523052E-02
 0.2056816093552E-02 -0.1057130306641E-01  0.0000000000000E+00  0.4391399781737E-02
 0.1727044700075E-02 -0.1033000981589E-01  0.0000000000000E+00  0.4954836921006E-02
 0.1381764783818E-02 -0.9380680547102E-02  0.0000000000000E+00  0.4105323260085E-02
 0.3860116724021E-02 -0.8839227025007E-02  0.0000000000000E+00  0.1684340973331E-03
 0.1127963734294E-01 -0.9825774198038E-02  0.0000000000000E+00  0.7222000602747E-03
 0.3417935117028E-03 -0.6577809584555E-02  0.0000000000000E+00 -0.2907060000991E-02
 0.9652860453955E-03 -0.6811039112628E-02  0.0000000000000E+00 -0.2415555920594E-02
 0.1354295082723E-02 -0.6806678721461E-02  0.0000000000000E+00 -0.1602581393815E-02
 0.1492304349047E-02 -0.6663471989128E-02  0.0000000000000E+00 -0.9813494687304E-03
 0.1529832583965E-02 -0.6521851786686E-02  0.0000000000000E+00 -0.6024965845860E-03
 0.1540465791681E-02 -0.6417790032759E-02  0.0000000000000E+00 -0.3633492951512E-03
 0.1543490182287E-02 -0.6347276397401E-02  0.0000000000000E+00 -0.2016793880964E-03
 0.1544885984777E-02 -0.6303681591007E-02  0.0000000000000E+00 -0.8719347875895E-04
 0.1546976311595E-02 -0.6281383577174E-02  0.0000000000000E+00 -0.2338513885466E-05
 0.1550514214559E-02 -0.6276050890676E-02  0.0000000000000E+00  0.6344038120440E-04
 0.1555712546354E-02 -0.6284569105104E-02  0.0000000000000E+00  0.1168502553934E-03
 0.1562593119720E-02 -0.6304752800379E-02  0.0000000000000E+00  0.1624154393813E-03
 0.1571126867601E-02 -0.6335131009708E-02  0.0000000000000E+00  0.2033418550213E-03
 0.1581293872479E-02 -0.6374782987646E-02  0.0000000000000E+00  0.2420193792453E-03
 0.1593105911343E-02 -0.6423221213443E-02  0.0000000000000E+00  0.2803146937601E-03
 0.1606614407225E-02 -0.6480307520166E-02  0.0000000000000E+00  0.3197526331420E-03
 0.1621911264047E-02 -0.6546192976551E-02  0.0000000000000E+00  0.3616332616979E-03
 0.1639126295785E-02 -0.6621274065667E-02  0.0000000000000E+00  0.4071129131081E-03
 0.1658422531631E-02 -0.6706160759160E-02  0.0000000000000E+00  0.4572667899965E-03
 0.1679989352364E-02 -0.6801653277850E-02  0.0000000000000E+00  0.5131459689842E-03
 0.1704031714714E-02 -0.6908723151318E-02  0.0000000000000E+00  0.5758395042692E-03
 0.1730753799410E-02 -0.7028503629974E-02  0.0000000000000E+00  0.6465599257051E-03
 0.1760327074815E-02 -0.7162274727419E-02  0.0000000000000E+00  0.7267680950932E-03
 0.1792822872544E-02 -0.7311431273920E-02  0.0000000000000E+00  0.8183763967098E-03
 0.1828040929304E-02 -0.7477376415823E-02  0.0000000000000E+00  0.9240758778537E-03
 0.1865141327092E-02 -0.7661166418790E-02  0.0000000000000E+00  0.1047573387366E-02
 0.1902351622431E-02 -0.7862884219666E-02  0.0000000000000E+00  0.1193030072665E-02
 0.1937516040755E-02 -0.8081216814695E-02  0.0000000000000E+00  0.1363723558802E-02
 0.1969277867534E-02 -0.8313638555537E-02  0.0000000000000E+00  0.1561663357332E-02
 0.1997215304207E-02 -0.8556489292675E-02  0.0000000000000E+00  0.1788817326656E-02
 0.2020622273814E-02 -0.8804500547936E-02  0.0000000000000E+00  0.2047887736930E-02
 0.2037323219779E-02 -0.9050281118448E-02  0.0000000000000E+00  0.2341701478897E-02
 0.2043011107826E-02 -0.9283458649911E-02  0.0000000000000E+00  0.2672284910726E-02
 0.2030272434235E-02 -0.9488532895831E-02  0.0000000000000E+00  0.3039961373631E-02
 0.1986913433541E-02 -0.9639515456983E-02  0.0000000000000E+00  0.3438343072850E-02
 0.1895799171273E-02 -0.9691549184310E-02  0.0000000000000E+00  0.3841505524991E-02
 0.1721432075122E-02 -0.9552920970469E-02  0.0000000000000E+00  0.4174322024103E-02
 0.1453873847942E-02 -0.9030719664385E-02  0.0000000000000E+00  0.4028855649144E-02
 0.1727921346264E-02 -0.8176630655175E-02  0.0000000000000E+00  0.2192652534485E-02
 0.4677447298295E-02 -0.8125066389428E-02  0.0000000000000E+00 -0.1149339075724E-02
 0.1045846715480E-01 -0.9005866050203E-02  0.0000000000000E+00  0.1412103678684E-03
 0.2845834066686E-03 -0.6405764519861E-02  0.0000000000000E+00 -0.2732467137110E-02
 0.8312151348039E-03 -0.6644394171690E-02  0.0000000000000E+00 -0.2390715102370E-02
 0.1227337995951E-02 -0.6714439978950E-02  0.0000000000000E+00 -0.1732513756638E-02
 0.1415409581101E-02 -0.6645860011738E-02  0.0000000000000E+00 -0.1137925881654E-02
 0.1489072359168E-02 -0.6542101145985E-02  0.0000000000000E+00 -0.7251067078037E-03
 0.1518781670645E-02 -0.6453211710856E-02  0.0000000000000E+00 -0.4493528667329E-03
 0.1532326941045E-02 -0.6388265684822E-02  0.0000000000000E+00 -0.2581518872212E-03
 0.1539717290098E-02 -0.6345537503936E-02  0.0000000000000E+00 -0.1201958951862E-03
 0.1545142676137E-02 -0.6321722463314E-02  0.0000000000000E+00 -0.1674116945052E-04
 0.1550420735402E-02 -0.6313658597480E-02  0.0000000000000E+00  0.6405597146569E-04
 0.1556340707141E-02 -0.6318799632067E-02  0.0000000000000E+00  0.1299408761757E-03
 0.1563253874144E-02 -0.6335243602950E-02  0.0000000000000E+00  0.1862267067380E-03
 0.1571323551006E-02 -0.6361646568992E-02  0.0000000000000E+00  0.2367281440479E-03
 0.1580641729096E-02 -0.6397127692619E-02  0.0000000000000E+00  0.2843086805619E-03
 0.1591283511809E-02 -0.6441186170127E-02  0.0000000000000E+00  0.3312128389094E-03
 0.1603332139891E-02 -0.6493634922626E-02  0.0000000000000E+00  0.3792739763451E-03
 0.1616889375215E-02 -0.6554548819997E-02  0.0000000000000E+00  0.4300504387380E-03
 0.1632077691913E-02 -0.6624223813904E-02  0.0000000000000E+00  0.4849200427522E-03
 0.1649037125689E-02 -0.6703144110319E-02  0.0000000000000E+00  0.5451525843157E-03
 0.1667917149785E-02 -0.6791954436278E-02  0.0000000000000E+00  0.6119744566416E-03
 0.1688861537998E-02 -0.6891432287271E-02  0.0000000000000E+00  0.6866364035096E-03
 0.1711983093864E-02 -0.7002462266500E-02  0.0000000000000E+00  0.7705028546718E-03
 0.1737315466586E-02 -0.7125993346533E-02  0.0000000000000E+00  0.8651744662530E-03
 0.1764715901356E-02 -0.7262955079019E-02  0.0000000000000E+00  0.9726650429689E-03
 0.1793664121117E-02 -0.7414066160904E-02  0.0000000000000E+00  0.1095601168065E-02
 0.1822956680020E-02 -0.7579434655159E-02  0.0000000000000E+00  0.1237155215187E-02
 0.1850607099763E-02 -0.7758061552159E-02  0.0000000000000E+00  0.1400282761990E-02
 0.1874423513862E-02 -0.7947624272734E-02  0.0000000000000E+00  0.1586663677946E-02
 0.1892937967480E-02 -0.8144729780147E-02  0.0000000000000E+00  0.1796582555058E-02
 0.1905449006095E-02 -0.8344926041614E-02  0.0000000000000E+00  0.2029960341711E-02
 0.1910950375683E-02 -0.8541997588644E-02  0.0000000000000E+00  0.2286955474379E-02
 0.1907015732728E-02 -0.8727008685087E-02  0.0000000000000E+00  0.2567056186770E-02
 0.1889074594244E-02 -0.8886981044374E-02  0.0000000000000E+00  0.2867231677755E-02
 0.1849729312622E-02 -0.9002229328821E-02  0.0000000000000E+00  0.3178372803856E-02
 0.1778787263636E-02 -0.9041627956264E-02  0.0000000000000E+00  0.3476252804307E-02
 0.1663815913816E-02 -0.8954019718276E-02  0.0000000000000E+00  0.3702096966195E-02
 0.1500657764918E-02 -0.8650075121922E-02  0.0000000000000E+00  0.3686200041468E-02
 0.1432633880346E-02 -0.8052049200644E-02  0.0000000000000E+00  0.2922692725500E-02
 0.2220552644313E-02 -0.7454981481056E-02  0.0000000000000E+00  0.7087181382659E-03
 0.5243632491074E-02 -0.7712944282844E-02  0.0000000000000E+00 -0.1831896693693E-02
 0.9872170529176E-02 -0.8481626853671E-02  0.0000000000000E+00 -0.2438844027122E-03
 0.2444580562304E-03 -0.6279468167890E-02  0.0000000000000E+00 -0.2572149720823E-02
 0.7284996343316E-03 -0.6511032052819E-02  0.0000000000000E+00 -0.2324964021668E-02
 0.1115047164069E-02 -0.6622742019557E-02  0.0000000000000E+00 -0.1793185221620E-02
 0.1334605234823E-02 -0.6610933338826E-02  0.0000000000000E+00 -0.1248976206240E-02
 0.1439832690587E-02 -0.6545200109294E-02  0.0000000000000E+00 -0.8277268808112E-03
 0.1489678296097E-02 -0.6475351844311E-02  0.0000000000000E+00 -0.5274404761725E-03
 0.1515176844468E-02 -0.6418995328776E-02  0.0000000000000E+00 -0.3122764645802E-03
 0.1529750909474E-02 -0.6379396269636E-02  0.0000000000000E+00 -0.1537779996642E-03
 0.1539438773504E-02 -0.6355693176094E-02  0.0000000000000E+00 -0.3322953653055E-04
 0.1547130243198E-02 -0.6346041655872E-02  0.0000000000000E+00  0.6178547800281E-04
 0.1554246836445E-02 -0.6348596978538E-02  0.0000000000000E+00  0.1397015300781E-03
 0.1561513276269E-02 -0.6361829252168E-02  0.0000000000000E+00  0.2064397110079E-03
 0.1569318611117E-02 -0.6384584292330E-02  0.0000000000000E+00  0.2663199767282E-03
 0.1577891369643E-02 -0.6416063799544E-02  0.0000000000000E+00  0.3226189316655E-03
 0.1587387626893E-02 -0.6455783036559E-02  0.0000000000000E+00  0.3779194702233E-03
 0.1597935219509E-02 -0.6503526085485E-02  0.0000000000000E+00  0.4343349713494E-03
 0.1609654961508E-02 -0.6559305137502E-02  0.0000000000000E+00  0.4936582592741E-03
 0.1622668546357E-02 -0.6623324243200E-02  0.0000000000000E+00  0.5574655996832E-03
 0.1637097518277E-02 -0.6695946524263E-02  0.0000000000000E+00  0.6271958814688E-03
 0.1653054257007E-02 -0.6777662356656E-02  0.0000000000000E+00  0.7042193482994E-03
 0.1670622818560E-02 -0.6869052860331E-02  0.0000000000000E+00  0.7899061141520E-03
 0.1689825394599E-02 -0.6970748190678E-02  0.0000000000000E+00  0.8857113815260E-03
 0.1710560040985E-02 -0.7083357911274E-02  0.0000000000000E+00  0.9932807817570E-03
 0.1732484815978E-02 -0.7207343657212E-02  0.0000000000000E+00  0.1114571283988E-02
 0.1754820252986E-02 -0.7342781014331E-02  0.0000000000000E+00  0.1251904926243E-02
 0.1776129383871E-02 -0.7488977970035E-02  0.0000000000000E+00  0.1407689432737E-02
 0.1794351899909E-02 -0.7644103445860E-02  0.0000000000000E+00  0.1583619880287E-02
 0.1807347697368E-02 -0.7805075179213E-02  0.0000000000000E+00  0.1779868811812E-02
 0.1813616430702E-02 -0.7967788728456E-02  0.0000000000000E+00  0.1995061499121E-02
 0.1812286542131E-02 -0.8127055301623E-02  0.0000000000000E+00  0.2227012626359E-02
 0.1802217057024E-02 -0.8275781833047E-02  0.0000000000000E+00  0.2472985144007E-02
 0.1781051347104E-02 -0.8403808720108E-02  0.0000000000000E+00  0.2728385998793E-02
 0.1744692479111E-02 -0.8496381974325E-02  0.0000000000000E+00  0.2983855138752E-02
 0.1687429002130E-02 -0.8531717755336E-02  0.0000000000000E+00  0.3219483151238E-02
 0.1603597635153E-02 -0.8477419330702E-02  0.0000000000000E+00  0.3392866773634E-02
 0.1493996427515E-02 -0.8285312341165E-02  0.0000000000000E+00  0.3410020266408E-02
 0.1403921161516E-02 -0.7898736469466E-02  0.0000000000000E+00  0.3045165678720E-02
 0.1579914962329E-02 -0.7353711664979E-02  0.0000000000000E+00  0.1862180765284E-02
 0.2724403942856E-02 -0.7020402822793E-02  0.0000000000000E+00 -0.3537650021694E-03
 0.5628471876128E-02 -0.7444043358682E-02  0.0000000000000E+00 -0.2173206599636E-02
 0.9430488358195E-02 -0.8112194288967E-02  0.0000000000000E+00 -0.5326870926536E-03
 0.2151217800864E-03 -0.6183663704476E-02  0.0000000000000E+00 -0.2424907533125E-02
 0.6485099865658E-03 -0.6403872853125E-02  0.0000000000000E+00 -0.2239524512145E-02
 0.1018030878256E-02 -0.6537962437466E-02  0.0000000000000E+00 -0.1807216198236E-02
 0.1255320629319E-02 -0.6567256910424E-02  0.0000000000000E+00 -0.1320431159459E-02
 0.1385759250272E-02 -0.6535600117738E-02  0.0000000000000E+00 -0.9081901174430E-03
 0.1454857730047E-02 -0.6486185127497E-02  0.0000000000000E+00 -0.5950277461443E-03
 0.1492925437246E-02 -0.6440484943753E-02  0.0000000000000E+00 -0.3620577507728E-03
 0.1515471300771E-02 -0.6405779212881E-02  0.0000000000000E+00 -0.1864147277547E-03
 0.1530129314874E-02 -0.6383565811436E-02  0.0000000000000E+00 -0.5070238252815E-04
 0.1540795765346E-02 -0.6373345952723E-02  0.0000000000000E+00  0.5741041249976E-04
 0.1549525542912E-02 -0.6374045579077E-02  0.0000000000000E+00  0.1466722589773E-03
 0.1557437790997E-02 -0.6384568609275E-02  0.0000000000000E+00  0.2234081680495E-03
 0.1565168257049E-02 -0.6403998122201E-02  0.0000000000000E+00  0.2923242232572E-03
 0.1573099997877E-02 -0.6431653632452E-02  0.0000000000000E+00  0.3570371732847E-03
 0.1581484335368E-02 -0.6467091991418E-02  0.0000000000000E+00  0.4204203973764E-03
 0.1590504791150E-02 -0.6510086801373E-02  0.0000000000000E+00  0.4848326093652E-03
 0.1600309838560E-02 -0.6560600641097E-02  0.0000000000000E+00  0.5522727308622E-03
 0.1611027139633E-02 -0.6618754771309E-02  0.0000000000000E+00  0.6244887786003E-03
 0.1622765179069E-02 -0.6684797285009E-02  0.0000000000000E+00  0.7030600195855E-03
 0.1635603901456E-02 -0.6759067849233E-02  0.0000000000000E+00  0.7894659380083E-03
 0.1649572333039E-02 -0.6841953107452E-02  0.0000000000000E+00  0.8851504434222E-03
 0.1664608378576E-02 -0.6933830178003E-02  0.0000000000000E+00  0.9915951785088E-03
 0.1680487058742E-02 -0.7034974007483E-02  0.0000000000000E+00  0.1110394503504E-02
 0.1696699439353E-02 -0.7145400316993E-02  0.0000000000000E+00  0.1243304647256E-02
 0.1712280574094E-02 -0.7264613005263E-02  0.0000000000000E+00  0.1392165536643E-02
 0.1725673860547E-02 -0.7391268369836E-02  0.0000000000000E+00  0.1558492905126E-02
 0.1734849218905E-02 -0.7522901574884E-02  0.0000000000000E+00  0.1742718456600E-02
 0.1737789298674E-02 -0.7655859320033E-02  0.0000000000000E+00  0.1943556466521E-02
 0.1733052852604E-02 -0.7785479520272E-02  0.0000000000000E+00  0.2157965086179E-02
 0.1719754138283E-02 -0.7905977708255E-02  0.0000000000000E+00  0.2381557590904E-02
 0.1696858846341E-02 -0.8009604288528E-02  0.0000000000000E+00  0.2608464006432E-02
 0.1662501058842E-02 -0.8085457578706E-02  0.0000000000000E+00  0.2829564038964E-02
 0.1613903253812E-02 -0.8118079308565E-02  0.0000000000000E+00  0.3028632153037E-02
 0.1548512318713E-02 -0.8085728378218E-02  0.0000000000000E+00  0.3175084157068E-02
 0.1468026902261E-02 -0.7958724513480E-02  0.0000000000000E+00  0.3209673889395E-02
 0.1392767710870E-02 -0.7701542393481E-02  0.0000000000000E+00  0.3013109005454E-02
 0.1414194160500E-02 -0.7301157616778E-02  0.0000000000000E+00  0.2355825816179E-02
 0.1821585236993E-02 -0.6868942396854E-02  0.0000000000000E+00  0.9462274354321E-03
 0.3183146493838E-02 -0.6751969007139E-02  0.0000000000000E+00 -0.1083773570227E-02
 0.5889208579111E-02 -0.7250517389899E-02  0.0000000000000E+00 -0.2335451867801E-02
 0.9084935620957E-02 -0.7835820944785E-02  0.0000000000000E+00 -0.7597996382075E-03
 0.1928919640473E-03 -0.6109091826833E-02  0.0000000000000E+00 -0.2288997281361E-02
 0.5851143716622E-03 -0.6317004848797E-02  0.0000000000000E+00 -0.2145334115782E-02
 0.9349550358967E-03 -0.6462130497527E-02  0.0000000000000E+00 -0.1790355766221E-02
 0.1180457754703E-02 -0.6520307625219E-02  0.0000000000000E+00 -0.1359794094264E-02
 0.1329779836283E-02 -0.6517302370588E-02  0.0000000000000E+00 -0.9670373812083E-03
 0.1416051059069E-02 -0.6487836431536E-02  0.0000000000000E+00 -0.6507109687495E-03
 0.1466532794417E-02 -0.6453877838154E-02  0.0000000000000E+00 -0.4060460412686E-03
 0.1497436899088E-02 -0.6425326523803E-02  0.0000000000000E+00 -0.2168909554720E-03
 0.1517545213805E-02 -0.6405703805465E-02  0.0000000000000E+00 -0.6821703803311E-04
 0.1531621375929E-02 -0.6395787558006E-02  0.0000000000000E+00  0.5162759447813E-04
 0.1542311595820E-02 -0.6395284122073E-02  0.0000000000000E+00  0.1513498158769E-03
 0.1551125837008E-02 -0.6403563125482E-02  0.0000000000000E+00  0.2374672677220E-03
 0.1558954795550E-02 -0.6419976680259E-02  0.0000000000000E+00  0.3149446730451E-03
 0.1566346876259E-02 -0.6443988822350E-02  0.0000000000000E+00  0.3876581795462E-03
 0.1573659045458E-02 -0.6475219033981E-02  0.0000000000000E+00  0.4587175451072E-03
 0.1581139605884E-02 -0.6513446599494E-02  0.0000000000000E+00  0.5306874013539E-03
 0.1588972497651E-02 -0.6558596816621E-02  0.0000000000000E+00  0.6057407466747E-03
 0.1597298183728E-02 -0.6610717608490E-02  0.0000000000000E+00  0.6857677903704E-03
 0.1606218420830E-02 -0.6669949451624E-02  0.0000000000000E+00  0.7724571200378E-03
 0.1615787248873E-02 -0.6736487537286E-02  0.0000000000000E+00  0.8673609220186E-03
 0.1625986602002E-02 -0.6810530320235E-02  0.0000000000000E+00  0.9719500133490E-03
 0.1636681916017E-02 -0.6892210634798E-02  0.0000000000000E+00  0.1087668369286E-02
 0.1647546757890E-02 -0.6981486111953E-02  0.0000000000000E+00  0.1215968809305E-02
 0.1657948313818E-02 -0.7077966995749E-02  0.0000000000000E+00  0.1358287619431E-02
 0.1666811975116E-02 -0.7180671045266E-02  0.0000000000000E+00  0.1515861318543E-02
 0.1672558416089E-02 -0.7287740960834E-02  0.0000000000000E+00  0.1689251013754E-02
 0.1673270808051E-02 -0.7396241932626E-02  0.0000000000000E+00  0.1877643616698E-02
 0.1667122948177E-02 -0.7502110317301E-02  0.0000000000000E+00  0.2078324067490E-02
 0.1652838271276E-02 -0.7600289609034E-02  0.0000000000000E+00  0.2286560644712E-02
 0.1629699417630E-02 -0.7684600350633E-02  0.0000000000000E+00  0.2495702704634E-02
 0.1597060886349E-02 -0.7746951863785E-02  0.0000000000000E+00  0.2696651346886E-02
 0.1554012383902E-02 -0.7776290479373E-02  0.0000000000000E+00  0.2875661124636E-02
 0.1499885158920E-02 -0.7757584992135E-02  0.0000000000000E+00  0.3009855309164E-02
 0.1436559550008E-02 -0.7671142255649E-02  0.0000000000000E+00  0.3059209391047E-02
 0.1375291487257E-02 -0.7493707880796E-02  0.0000000000000E+00  0.2951895589489E-02
 0.1357038791084E-02 -0.7208042844686E-02  0.0000000000000E+00  0.2559942834063E-02
 0.1504987295202E-02 -0.6840327438848E-02  0.0000000000000E+00  0.1689009781083E-02
 0.2105353088800E-02 -0.6536761457755E-02  0.0000000000000E+00  0.2000009579401E-03
 0.3579618235557E-02 -0.6580065204855E-02  0.0000000000000E+00 -0.1572538574427E-02
 0.6066499262506E-02 -0.7101940885321E-02  0.0000000000000E+00 -0.2403444863290E-02
 0.8806576472335E-02 -0.7621298369935E-02  0.0000000000000E+00 -0.9403648345805E-03
 0.1755231996303E-03 -0.6049823171085E-02  0.0000000000000E+00 -0.2162778180796E-02
 0.5339914903259E-03 -0.6245849152461E-02  0.0000000000000E+00 -0.2048142862173E-02
 0.8639156208087E-03 -0.6395338841765E-02  0.0000000000000E+00 -0.1753260739776E-02
 0.1111319348333E-02 -0.6473339490526E-02  0.0000000000000E+00 -0.1374125912470E-02
 0.1273996750297E-02 -0.6493489492532E-02  0.0000000000000E+00 -0.1006299325545E-02
 0.1374818331215E-02 -0.6482347977231E-02  0.0000000000000E+00 -0.6941486914900E-03
 0.1436965808150E-02 -0.6460369111561E-02  0.0000000000000E+00 -0.4433340158600E-03
 0.1476243700167E-02 -0.6438749172193E-02  0.0000000000000E+00 -0.2442978974069E-03
 0.1502061425411E-02 -0.6422539088097E-02  0.0000000000000E+00 -0.8500392981561E-04
 0.1519850740100E-02 -0.6413639242051E-02  0.0000000000000E+00  0.4503835496311E-04
 0.1532772883503E-02 -0.6412497263696E-02  0.0000000000000E+00  0.1541793569007E-03
 0.1542703369195E-02 -0.6418951697267E-02  0.0000000000000E+00  0.2489275758591E-03
 0.1550783619390E-02 -0.6432639679881E-02  0.0000000000000E+00  0.3343778932833E-03
 0.1557731048688E-02 -0.6453187577695E-02  0.0000000000000E+00  0.4145816987367E-03
 0.1564014581896E-02 -0.6480293648667E-02  0.0000000000000E+00  0.4928272901051E-03
 0.1569954217673E-02 -0.6513756518643E-02  0.0000000000000E+00  0.5718425794518E-03
 0.1575776224907E-02 -0.6553475582188E-02  0.0000000000000E+00  0.6539400404860E-03
 0.1581640680224E-02 -0.6599435086935E-02  0.0000000000000E+00  0.7411205426021E-03
 0.1587649771136E-02 -0.6651676594918E-02  0.0000000000000E+00  0.8351495519139E-03
 0.1593839951601E-02 -0.6710259605297E-02  0.0000000000000E+00  0.9376147706646E-03
 0.1600157069464E-02 -0.6775204956643E-02  0.0000000000000E+00  0.1049967670243E-02
 0.1606410801918E-02 -0.6846416863118E-02  0.0000000000000E+00  0.1173554032829E-02
 0.1612201602723E-02 -0.6923563394359E-02  0.0000000000000E+00  0.1309606260113E-02
 0.1616821364840E-02 -0.7005901715437E-02  0.0000000000000E+00  0.1459149293608E-02
 0.1619158297843E-02 -0.7092053454441E-02  0.0000000000000E+00  0.1622740424212E-02
 0.1617692915015E-02 -0.7179773485189E-02  0.0000000000000E+00  0.1799964561540E-02
 0.1610692846808E-02 -0.7265798726503E-02  0.0000000000000E+00  0.1988794365482E-02
 0.1596593657486E-02 -0.7345803505751E-02  0.0000000000000E+00  0.2185113209768E-02
 0.1574398510966E-02 -0.7414510654423E-02  0.0000000000000E+00  0.2382497687249E-02
 0.1543751042151E-02 -0.7465582250805E-02  0.0000000000000E+00  0.2572039283264E-02
 0.1504685830262E-02 -0.7490952765060E-02  0.0000000000000E+00  0.2741478088740E-02
 0.1457688392073E-02 -0.7480039212505E-02  0.0000000000000E+00  0.2872701217891E-02
 0.1404851111325E-02 -0.7419292950791E-02  0.0000000000000E+00  0.2937009994621E-02
 0.1353402938231E-02 -0.7292785374712E-02  0.0000000000000E+00  0.2887216130132E-02
 0.1324905857364E-02 -0.7086218098266E-02  0.0000000000000E+00  0.2645353626286E-02
 0.1377740587848E-02 -0.6801430502494E-02  0.0000000000000E+00  0.2090874217684E-02
 0.1650225129680E-02 -0.6492390565751E-02  0.0000000000000E+00  0.1084221949553E-02
 0.2398532632643E-02 -0.6310372124664E-02  0.0000000000000E+00 -0.3862073332956E-03
 0.3914048011598E-02 -0.6465573660587E-02  0.0000000000000E+00 -0.1892332438478E-02
 0.6187711223361E-02 -0.6983547240330E-02  0.0000000000000E+00 -0.2420767417786E-02
 0.8577005732157E-02 -0.7450855051212E-02  0.0000000000000E+00 -0.1083377524909E-02
 0.1615929610490E-03 -0.6001894578412E-02  0.0000000000000E+00 -0.2044856280763E-02
 0.4920817364363E-03 -0.6186937984272E-02  0.0000000000000E+00 -0.1950996441688E-02
 0.8030062818779E-03 -0.6336884548283E-02  0.0000000000000E+00 -0.1703077576274E-02
 0.1048273278006E-02 -0.6428157523419E-02  0.0000000000000E+00 -0.1369382046869E-02
 0.1219798994207E-02 -0.6466519858490E-02  0.0000000000000E+00 -0.1028616929136E-02
 0.1332451668640E-02 -0.6471525495772E-02  0.0000000000000E+00 -0.7257754757701E-03
 0.1405134185916E-02 -0.6461130867300E-02  0.0000000000000E+00 -0.4735067373919E-03
 0.1452493125157E-02 -0.6446788926130E-02  0.0000000000000E+00 -0.2680175436204E-03
 0.1484076937239E-02 -0.6434547674273E-02  0.0000000000000E+00 -0.1004670835987E-03
 0.1505755333825E-02 -0.6427216621216E-02  0.0000000000000E+00  0.3814306583363E-04
 0.1521103265183E-02 -0.6425907092308E-02  0.0000000000000E+00  0.1555493029348E-03
 0.1532319217378E-02 -0.6430905127106E-02  0.0000000000000E+00  0.2580707232311E-03
 0.1540779987210E-02 -0.6442134064439E-02  0.0000000000000E+00  0.3508099981368E-03
 0.1547368899977E-02 -0.6459391721143E-02  0.0000000000000E+00  0.4379101714830E-03
 0.1552669136729E-02 -0.6482466283716E-02  0.0000000000000E+00  0.5227789617508E-03
 0.1557077064952E-02 -0.6511186717941E-02  0.0000000000000E+00  0.6082632485665E-03
 0.1560867110801E-02 -0.6545436791877E-02  0.0000000000000E+00  0.6967788976906E-03
 0.1564225661935E-02 -0.6585146824801E-02  0.0000000000000E+00  0.7904048642241E-03
 0.1567263207699E-02 -0.6630269338557E-02  0.0000000000000E+00  0.8909506528647E-03
 0.1570008538076E-02 -0.6680739308964E-02  0.0000000000000E+00  0.1000002910183E-02
 0.1572385102282E-02 -0.6736414470320E-02  0.0000000000000E+00  0.1118949975635E-02
 0.1574167425269E-02 -0.6796992051022E-02  0.0000000000000E+00  0.1248985263406E-02
 0.1574915505646E-02 -0.6861886120152E-02  0.0000000000000E+00  0.1391056283501E-02
 0.1573896065203E-02 -0.6930059817650E-02  0.0000000000000E+00  0.1545712029407E-02
 0.1570026960179E-02 -0.6999827821597E-02  0.0000000000000E+00  0.1712790084130E-02
 0.1561919755173E-02 -0.7068671538321E-02  0.0000000000000E+00  0.1890905243693E-02
 0.1548090798039E-02 -0.7133126920878E-02  0.0000000000000E+00  0.2076857494020E-02
 0.1527310062785E-02 -0.7188748338574E-02  0.0000000000000E+00  0.2265169694237E-02
 0.1498977980632E-02 -0.7230217550639E-02  0.0000000000000E+00  0.2447765861190E-02
 0.1463286864920E-02 -0.7251289699056E-02  0.0000000000000E+00  0.2613571508571E-02
 0.1421220943255E-02 -0.7244301258695E-02  0.0000000000000E+00  0.2747402661018E-02
 0.1375026425092E-02 -0.7199725410904E-02  0.0000000000000E+00  0.2827344907216E-02
 0.1330008619572E-02 -0.7106382954836E-02  0.0000000000000E+00  0.2820189790122E-02
 0.1299117892967E-02 -0.6953329192323E-02  0.0000000000000E+00  0.2674624484000E-02
 0.1313448158429E-02 -0.6736152858419E-02  0.0000000000000E+00  0.2313435589433E-02
 0.1443351390367E-02 -0.6473103796336E-02  0.0000000000000E+00  0.1635044141900E-02
 0.1828326141327E-02 -0.6233654149149E-02  0.0000000000000E+00  0.5585961507135E-03
 0.2682533792402E-02 -0.6156488604682E-02  0.0000000000000E+00 -0.8350532931053E-03
 0.4193291930514E-02 -0.6386536518987E-02  0.0000000000000E+00 -0.2095244612227E-02
 0.6270946130314E-02 -0.6887383377084E-02  0.0000000000000E+00 -0.2409851233524E-02
 0.8383990878722E-02 -0.7313380610571E-02  0.0000000000000E+00 -0.1195480102017E-02
 0.1501682425688E-03 -0.5962562731202E-02  0.0000000000000E+00 -0.1934084584153E-02
 0.4571966021086E-03 -0.6137654513002E-02  0.0000000000000E+00 -0.1855492580242E-02
 0.7505275851570E-03 -0.6285800647867E-02  0.0000000000000E+00 -0.1644594792658E-02
 0.9911777210782E-03 -0.6385669107415E-02  0.0000000000000E+00 -0.1350329632613E-02
 0.1168030507421E-02 -0.6438060297560E-02  0.0000000000000E+00 -0.1036718398623E-02
 0.1289956889111E-02 -0.6456876104146E-02  0.0000000000000E+00 -0.7465084332874E-03
 0.1371847248951E-02 -0.6457252993448E-02  0.0000000000000E+00 -0.4965501698266E-03
 0.1426764583739E-02 -0.6450183909977E-02  0.0000000000000E+00 -0.2876942129900E-03
 0.1463997474921E-02 -0.6442228008811E-02  0.0000000000000E+00 -0.1141755449691E-03
 0.1489623373158E-02 -0.6436864723384E-02  0.0000000000000E+00  0.3134125040724E-04
 0.1507515539507E-02 -0.6435764662155E-02  0.0000000000000E+00  0.1557890895144E-03
 0.1520140399198E-02 -0.6439620475942E-02  0.0000000000000E+00  0.2651468251549E-03
 0.1529085707711E-02 -0.6448630000255E-02  0.0000000000000E+00  0.3644143730231E-03
 0.1535391619372E-02 -0.6462763593786E-02  0.0000000000000E+00  0.4577469540728E-03
 0.1539754131809E-02 -0.6481905711732E-02  0.0000000000000E+00  0.5486135560358E-03
 0.1542648472626E-02 -0.6505923982205E-02  0.0000000000000E+00  0.6399355344486E-03
 0.1544401985129E-02 -0.6534695638309E-02  0.0000000000000E+00  0.7341956716180E-03
 0.1545233860845E-02 -0.6568106785433E-02  0.0000000000000E+00  0.8335183228686E-03
 0.1545271322102E-02 -0.6606031787220E-02  0.0000000000000E+00  0.9397247569895E-03
 0.1544546747468E-02 -0.6648294374059E-02  0.0000000000000E+00  0.1054365782795E-02
 0.1542977008355E-02 -0.6694607072883E-02  0.0000000000000E+00  0.1178726857505E-02
 0.1540324802769E-02 -0.6744486476976E-02  0.0000000000000E+00  0.1313803125036E-02
 0.1536144467434E-02 -0.6797133394578E-02  0.0000000000000E+00  0.1460208192293E-02
 0.1529726616342E-02 -0.6851278754483E-02  0.0000000000000E+00  0.1617974507830E-02
 0.1520079186568E-02 -0.6905015918473E-02  0.0000000000000E+00  0.1786206833922E-02
 0.1506006969728E-02 -0.6955657208482E-02  0.0000000000000E+00  0.1962576387454E-02
 0.1486334256891E-02 -0.6999654559275E-02  0.0000000000000E+00  0.2142765000275E-02
 0.1460237447646E-02 -0.7032579138479E-02  0.0000000000000E+00  0.2319998644982E-02
 0.1427626770062E-02 -0.7049249890101E-02  0.0000000000000E+00  0.2484637829845E-02
 0.1389412154771E-02 -0.7043762674080E-02  0.0000000000000E+00  0.2623623388647E-02
 0.1347750509744E-02 -0.7009208324819E-02  0.0000000000000E+00  0.2719236090389E-02
 0.1306904219875E-02 -0.6937612277462E-02  0.0000000000000E+00  0.2746563027950E-02
 0.1275592613615E-02 -0.6820809413482E-02  0.0000000000000E+00  0.2669521094753E-02
 0.1272268790285E-02 -0.6653432486481E-02  0.0000000000000E+00  0.2435970724316E-02
 0.1335685015843E-02 -0.6440457605000E-02  0.0000000000000E+00  0.1975321573682E-02
 0.1542305675162E-02 -0.6212233029547E-02  0.0000000000000E+00  0.1211073329986E-02
 0.2023065081524E-02 -0.6043581863391E-02  0.0000000000000E+00  0.1154477991104E-03
 0.2947892888881E-02 -0.6052274879486E-02  0.0000000000000E+00 -0.1171429211766E-02
 0.4425909779539E-02 -0.6330465995037E-02  0.0000000000000E+00 -0.2217299336322E-02
 0.6328186114857E-02 -0.6808655750241E-02  0.0000000000000E+00 -0.2382422673703E-02
 0.8219105175488E-02 -0.7201431204829E-02  0.0000000000000E+00 -0.1282037332474E-02
 0.1406177936151E-03 -0.5929872784438E-02  0.0000000000000E+00 -0.1829526476438E-02
 0.4277509057954E-03 -0.6096015742449E-02  0.0000000000000E+00 -0.1762437742976E-02
 0.7050410531134E-03 -0.6241096090331E-02  0.0000000000000E+00 -0.1581029024670E-02
 0.9396379774076E-03 -0.6346245392690E-02  0.0000000000000E+00 -0.1320680613821E-02
 0.1119147342685E-02 -0.6409245805888E-02  0.0000000000000E+00 -0.1033148599034E-02
 0.1248078443071E-02 -0.6439607923032E-02  0.0000000000000E+00 -0.7575125537364E-03
 0.1337793578325E-02 -0.6449707503755E-02  0.0000000000000E+00 -0.5127453298079E-03
 0.1399595068735E-02 -0.6449641120616E-02  0.0000000000000E+00 -0.3031949047661E-03
 0.1442221163675E-02 -0.6446082545996E-02  0.0000000000000E+00 -0.1258483377480E-03
 0.1471750015302E-02 -0.6442945744976E-02  0.0000000000000E+00  0.2493621680111E-04
 0.1492234840308E-02 -0.6442341891613E-02  0.0000000000000E+00  0.1551695777686E-03
 0.1506347571617E-02 -0.6445315506378E-02  0.0000000000000E+00  0.2703734643211E-03
 0.1515855844094E-02 -0.6452316844360E-02  0.0000000000000E+00  0.3753503056813E-03
 0.1521942641940E-02 -0.6463482902392E-02  0.0000000000000E+00  0.4741950195473E-03
 0.1525412050055E-02 -0.6478796329458E-02  0.0000000000000E+00  0.5703826412272E-03
 0.1526818625394E-02 -0.6498169172827E-02  0.0000000000000E+00  0.6668657045059E-03
 0.1526546331669E-02 -0.6521480010567E-02  0.0000000000000E+00  0.7661580740846E-03
 0.1524853369936E-02 -0.6548580305187E-02  0.0000000000000E+00  0.8703975966546E-03
 0.1521892505424E-02 -0.6579277948100E-02  0.0000000000000E+00  0.9813864906548E-03
 0.1517711948869E-02 -0.6613300445555E-02  0.0000000000000E+00  0.1100607760070E-02
 0.1512239304726E-02 -0.6650235699181E-02  0.0000000000000E+00  0.1229209470791E-02
 0.1505250309499E-02 -0.6689449372190E-02  0.0000000000000E+00  0.1367951943658E-02
 0.1496328802843E-02 -0.6729972628226E-02  0.0000000000000E+00  0.1517081092822E-02
 0.1484835681169E-02 -0.6770366048353E-02  0.0000000000000E+00  0.1676092965632E-02
 0.1469922926354E-02 -0.6808582391289E-02  0.0000000000000E+00  0.1843367918342E-02
 0.1450643119735E-02 -0.6841860384589E-02  0.0000000000000E+00  0.2015676756819E-02
 0.1426182791337E-02 -0.6866676068386E-02  0.0000000000000E+00  0.2187652644420E-02
 0.1396192562013E-02 -0.6878747082400E-02  0.0000000000000E+00  0.2351315424832E-02
 0.1361192867350E-02 -0.6873198638168E-02  0.0000000000000E+00  0.2495602243826E-02
 0.1322950007231E-02 -0.6844694637107E-02  0.0000000000000E+00  0.2605731886046E-02
 0.1284953048319E-02 -0.6787381056877E-02  0.0000000000000E+00  0.2661957839394E-02
 0.1253606485751E-02 -0.6695206615427E-02  0.0000000000000E+00  0.2637325004276E-02
 0.1240979549187E-02 -0.6563379809488E-02  0.0000000000000E+00  0.2494635779906E-02
 0.1270311745218E-02 -0.6392093666590E-02  0.0000000000000E+00  0.2183970771679E-02
 0.1385604041587E-02 -0.6194250779849E-02  0.0000000000000E+00  0.1645466183100E-02
 0.1664290661088E-02 -0.6007736665919E-02  0.0000000000000E+00  0.8292333669795E-03
 0.2223019662430E-02 -0.5905565136425E-02  0.0000000000000E+00 -0.2494594849269E-03
 0.3190668558364E-02 -0.5982305670400E-02  0.0000000000000E+00 -0.1417949626036E-02
 0.4620115931012E-02 -0.6290090325603E-02  0.0000000000000E+00 -0.2282974021517E-02
 0.6367454585339E-02 -0.6744176327181E-02  0.0000000000000E+00 -0.2344779758287E-02
 0.8076347735574E-02 -0.7109764259918E-02  0.0000000000000E+00 -0.1347495013884E-02
 0.1325025746927E-03 -0.5902397525356E-02  0.0000000000000E+00 -0.1730415220648E-02
 0.4025810789497E-03 -0.6060507667125E-02  0.0000000000000E+00 -0.1672200010013E-02
 0.6653598633447E-03 -0.6201856432054E-02  0.0000000000000E+00 -0.1514548148261E-02
 0.8931552783276E-03 -0.6309948868088E-02  0.0000000000000E+00 -0.1283281726489E-02
 0.1073343336580E-02 -0.6380822349335E-02  0.0000000000000E+00 -0.1020152919089E-02
 0.1207342125009E-02 -0.6420661528931E-02  0.0000000000000E+00 -0.7600362585342E-03
 0.1303538318771E-02 -0.6439334214264E-02  0.0000000000000E+00 -0.5225691271505E-03
 0.1371466577256E-02 -0.6445817235200E-02  0.0000000000000E+00 -0.3145639895433E-03
 0.1419127455809E-02 -0.6446602873438E-02  0.0000000000000E+00 -0.1353348945472E-03
 0.1452429080992E-02 -0.6445828414378E-02  0.0000000000000E+00  0.1914303312134E-04
 0.1475492685505E-02 -0.6445924112092E-02  0.0000000000000E+00  0.1539057063797E-03
 0.1491130746860E-02 -0.6448223381781E-02  0.0000000000000E+00  0.2739360600297E-03
 0.1501255516997E-02 -0.6453399198431E-02  0.0000000000000E+00  0.3837624549188E-03
 0.1507175115559E-02 -0.6461743581160E-02  0.0000000000000E+00  0.4873561281172E-03
 0.1509794264409E-02 -0.6473335445844E-02  0.0000000000000E+00  0.5881474751502E-03
 0.1509745532121E-02 -0.6488134660491E-02  0.0000000000000E+00  0.6890793008691E-03
 0.1507472199844E-02 -0.6506027838545E-02  0.0000000000000E+00  0.7926622960708E-03
 0.1503277321159E-02 -0.6526841123638E-02  0.0000000000000E+00  0.9010174759705E-03
 0.1497348191968E-02 -0.6550328192079E-02  0.0000000000000E+00  0.1015899443157E-02
 0.1489761710370E-02 -0.6576136662425E-02  0.0000000000000E+00  0.1138695075695E-02
 0.1480474345692E-02 -0.6603752307030E-02  0.0000000000000E+00  0.1270386589335E-02
 0.1469300208643E-02 -0.6632421600217E-02  0.0000000000000E+00  0.1411472652198E-02
 0.1455886836666E-02 -0.6661050669921E-02  0.0000000000000E+00  0.1561811927583E-02
 0.1439708153651E-02 -0.6688089812234E-02  0.0000000000000E+00  0.1720361813348E-02
 0.1420107804429E-02 -0.6711426236052E-02  0.0000000000000E+00  0.1884803988318E-02
 0.1396433775513E-02 -0.6728312198065E-02  0.0000000000000E+00  0.2051066428063E-02
 0.1368283329875E-02 -0.6735347125078E-02  0.0000000000000E+00  0.2212819062523E-02
 0.1335841222565E-02 -0.6728514783387E-02  0.0000000000000E+00  0.2360994070480E-02
 0.1300320409623E-02 -0.6703399190530E-02  0.0000000000000E+00  0.2483291564726E-02
 0.1264444054747E-02 -0.6655426297334E-02  0.0000000000000E+00  0.2563535762480E-02
 0.1233120076839E-02 -0.6580028229458E-02  0.0000000000000E+00  0.2580538648210E-02
 0.1214886735273E-02 -0.6473304047655E-02  0.0000000000000E+00  0.2506321198221E-02
 0.1224861710894E-02 -0.6333910510699E-02  0.0000000000000E+00  0.2304257417647E-02
 0.1290029287619E-02 -0.6167099292524E-02  0.0000000000000E+00  0.1929090045484E-02
 0.1457173128124E-02 -0.5991779369306E-02  0.0000000000000E+00  0.1333907560215E-02
 0.1800757493464E-02 -0.5849366719599E-02  0.0000000000000E+00  0.4938243298718E-03
 0.2420575263875E-02 -0.5806677047278E-02  0.0000000000000E+00 -0.5438813436555E-03
 0.3410070225564E-02 -0.5936191102887E-02  0.0000000000000E+00 -0.1593512858966E-02
 0.4783065844529E-02 -0.6261030600816E-02  0.0000000000000E+00 -0.2308793212243E-02
 0.6394229560850E-02 -0.6691670051729E-02  0.0000000000000E+00 -0.2300419628926E-02
 0.7951301909640E-02 -0.7034554179592E-02  0.0000000000000E+00 -0.1395579110997E-02
 0.1255096861476E-03 -0.5879073473109E-02  0.0000000000000E+00 -0.1636118658254E-02
 0.3808216224979E-03 -0.6029964216173E-02  0.0000000000000E+00 -0.1584903120208E-02
 0.6305171937879E-03 -0.6167278679489E-02  0.0000000000000E+00 -0.1446616800425E-02
 0.8512094427845E-03 -0.6276673246224E-02  0.0000000000000E+00 -0.1240297883699E-02
 0.1030643089251E-02 -0.6353260592442E-02  0.0000000000000E+00 -0.9996472062046E-03
 0.1168100833351E-02 -0.6400753233781E-02  0.0000000000000E+00 -0.7553068310652E-03
 0.1269531592413E-02 -0.6426841651801E-02  0.0000000000000E+00 -0.5266122382639E-03
 0.1342800530834E-02 -0.6439307490941E-02  0.0000000000000E+00 -0.3219780479801E-03
 0.1395069415063E-02 -0.6444258548759E-02  0.0000000000000E+00 -0.1425930188615E-03
 0.1431946415925E-02 -0.6445879147963E-02  0.0000000000000E+00  0.1409877865656E-04
 0.1457521821392E-02 -0.6446803456750E-02  0.0000000000000E+00  0.1521608681406E-03
 0.1474685380604E-02 -0.6448587747260E-02  0.0000000000000E+00  0.2759893928617E-03
 0.1485456880212E-02 -0.6452093134067E-02  0.0000000000000E+00  0.3897810405258E-03
 0.1491249447915E-02 -0.6457750728058E-02  0.0000000000000E+00  0.4973304066981E-03
 0.1493058907275E-02 -0.6465730604325E-02  0.0000000000000E+00  0.6019782991627E-03
 0.1491593020074E-02 -0.6476041781086E-02  0.0000000000000E+00  0.7066202621212E-03
 0.1487356154991E-02 -0.6488584468523E-02  0.0000000000000E+00  0.8137319420694E-03
 0.1480701630769E-02 -0.6503168472742E-02  0.0000000000000E+00  0.9253894888919E-03
 0.1471860230102E-02 -0.6519505833004E-02  0.0000000000000E+00  0.1043274228686E-02
 0.1460950614127E-02 -0.6537181471733E-02  0.0000000000000E+00  0.1168652852095E-02
 0.1447976428965E-02 -0.6555602665323E-02  0.0000000000000E+00  0.1302319752168E-02
 0.1432815055677E-02 -0.6573929288895E-02  0.0000000000000E+00  0.1444494689457E-02
 0.1415209973138E-02 -0.6590986553296E-02  0.0000000000000E+00  0.1594642388520E-02
 0.1394786655744E-02 -0.6605171463057E-02  0.0000000000000E+00  0.1751194164227E-02
 0.1371121807922E-02 -0.6614374595566E-02  0.0000000000000E+00  0.1911172921951E-02
 0.1343899632709E-02 -0.6615940541381E-02  0.0000000000000E+00  0.2069734124671E-02
 0.1313169560666E-02 -0.6606681707643E-02  0.0000000000000E+00  0.2219685444564E-02
 0.1279699326417E-02 -0.6582954472240E-02  0.0000000000000E+00  0.2351014979823E-02
 0.1245454301735E-02 -0.6540931586083E-02  0.0000000000000E+00  0.2450409121669E-02
 0.1214172417969E-02 -0.6476952866208E-02  0.0000000000000E+00  0.2500668369104E-02
 0.1192192662856E-02 -0.6387888362230E-02  0.0000000000000E+00  0.2479782053855E-02
 0.1190055375631E-02 -0.6272069155815E-02  0.0000000000000E+00  0.2359738859904E-02
 0.1225446741421E-02 -0.6131429268239E-02  0.0000000000000E+00  0.2105938332145E-02
 0.1327912158848E-02 -0.5975465726817E-02  0.0000000000000E+00  0.1679464970047E-02
 0.1544812646847E-02 -0.5827108555065E-02  0.0000000000000E+00  0.1046977997015E-02
 0.1944970810622E-02 -0.5728182064022E-02  0.0000000000000E+00  0.2052083261549E-03
 0.2610930656128E-02 -0.5737067010368E-02  0.0000000000000E+00 -0.7767243213083E-03
 0.3606981027911E-02 -0.5906885919777E-02  0.0000000000000E+00 -0.1713244527465E-02
 0.4920719835815E-02 -0.6240523098058E-02  0.0000000000000E+00 -0.2305883431998E-02
 0.6412355666007E-02 -0.6649441182059E-02  0.0000000000000E+00 -0.2251324010634E-02
 0.7840607123188E-02 -0.6972942076678E-02  0.0000000000000E+00 -0.1429475311637E-02
 0.1194112877979E-03 -0.5859094416337E-02  0.0000000000000E+00 -0.1546110707179E-02
 0.3618204865809E-03 -0.6003479257698E-02  0.0000000000000E+00 -0.1500535174419E-02
 0.5997299468499E-03 -0.6136675930886E-02  0.0000000000000E+00 -0.1378224734004E-02
 0.8133022190895E-03 -0.6246227824986E-02  0.0000000000000E+00 -0.1193367852168E-02
 0.9909675985055E-03 -0.6326841257849E-02  0.0000000000000E+00 -0.9732314827731E-03
 0.1130576256558E-02 -0.6380419094595E-02  0.0000000000000E+00 -0.7444701905096E-03
 0.1236122614148E-02 -0.6412817096148E-02  0.0000000000000E+00 -0.5255165964319E-03
 0.1313957569647E-02 -0.6430641269227E-02  0.0000000000000E+00 -0.3257049785159E-03
 0.1370369120441E-02 -0.6439489514858E-02  0.0000000000000E+00 -0.1476663877151E-03
 0.1410574906453E-02 -0.6443455046608E-02  0.0000000000000E+00  0.9874087368925E-05
 0.1438551938636E-02 -0.6445273187791E-02  0.0000000000000E+00  0.1500524877258E-03
 0.1457208914109E-02 -0.6446658279730E-02  0.0000000000000E+00  0.2766600217358E-03
 0.1468636336175E-02 -0.6448622653702E-02  0.0000000000000E+00  0.3935226162041E-03
 0.1474330988627E-02 -0.6451717665063E-02  0.0000000000000E+00  0.5042162590388E-03
 0.1475368829102E-02 -0.6456196981523E-02  0.0000000000000E+00  0.6119537598144E-03
 0.1472528806971E-02 -0.6462118357945E-02  0.0000000000000E+00  0.7195499997501E-03
 0.1466377320236E-02 -0.6469400121829E-02  0.0000000000000E+00  0.8294167551867E-03
 0.1457322875945E-02 -0.6477844293688E-02  0.0000000000000E+00  0.9435601426467E-03
 0.1445648460970E-02 -0.6487133919654E-02  0.0000000000000E+00  0.1063565962814E-02
 0.1431527417424E-02 -0.6496808810090E-02  0.0000000000000E+00  0.1190561312341E-02
 0.1415028482874E-02 -0.6506221782711E-02  0.0000000000000E+00  0.1325137392361E-02
 0.1396116027439E-02 -0.6514478532316E-02  0.0000000000000E+00  0.1467226871373E-02
 0.1374659066607E-02 -0.6520365839850E-02  0.0000000000000E+00  0.1615905213300E-02
 0.1350468585859E-02 -0.6522280456139E-02  0.0000000000000E+00  0.1769102590977E-02
 0.1323389593052E-02 -0.6518178738210E-02  0.0000000000000E+00  0.1923234710755E-02
 0.1293476370551E-02 -0.6505567837219E-02  0.0000000000000E+00  0.2072765897125E-02
 0.1261263646784E-02 -0.6481551900460E-02  0.0000000000000E+00  0.2209756330939E-02
 0.1228137543056E-02 -0.6442950483827E-02  0.0000000000000E+00  0.2323413828006E-02
 0.1196850911631E-02 -0.6386628133973E-02  0.0000000000000E+00  0.2399659529440E-02
 0.1172171108974E-02 -0.6309943528668E-02  0.0000000000000E+00  0.2420661001046E-02
 0.1161811136235E-02 -0.6211275997670E-02  0.0000000000000E+00  0.2364193647614E-02
 0.1178081774590E-02 -0.6091139144949E-02  0.0000000000000E+00  0.2203104789332E-02
 0.1240650805154E-02 -0.5954390451171E-02  0.0000000000000E+00  0.1905945858373E-02
 0.1380451060776E-02 -0.5813813865573E-02  0.0000000000000E+00  0.1441064371108E-02
 0.1643636838823E-02 -0.5694560024478E-02  0.0000000000000E+00  0.7881240147274E-03
 0.2091829131040E-02 -0.5636658596176E-02  0.0000000000000E+00 -0.3864831177985E-04
 0.2791267385540E-02 -0.5689309303256E-02  0.0000000000000E+00 -0.9567736957911E-03
 0.3783071412573E-02 -0.5889539519111E-02  0.0000000000000E+00 -0.1788982055258E-02
 0.5037923343183E-02 -0.6226694002669E-02  0.0000000000000E+00 -0.2281706740012E-02
 0.6424636798048E-02 -0.6616184958297E-02  0.0000000000000E+00 -0.2198549101793E-02
 0.7741620831005E-02 -0.6922763413711E-02  0.0000000000000E+00 -0.1452010872321E-02
 0.1140383195727E-03 -0.5841840222897E-02  0.0000000000000E+00 -0.1459949000396E-02
 0.3450804992839E-03 -0.5980342612812E-02  0.0000000000000E+00 -0.1419010364844E-02
 0.5723649364985E-03 -0.6109469096549E-02  0.0000000000000E+00 -0.1310038448062E-02
 0.7789778158974E-03 -0.6218387316914E-02  0.0000000000000E+00 -0.1143728783753E-02
 0.9541790350647E-03 -0.6301716973061E-02  0.0000000000000E+00 -0.9422230480200E-03
 0.1094893785620E-02 -0.6360054426494E-02  0.0000000000000E+00 -0.7285608681826E-03
 0.1203575755417E-02 -0.6397741064641E-02  0.0000000000000E+00 -0.5199309277278E-03
 0.1285240947924E-02 -0.6420282593032E-02  0.0000000000000E+00 -0.3260695057138E-03
 0.1345315676506E-02 -0.6432701670203E-02  0.0000000000000E+00 -0.1506632126779E-03
 0.1388571035381E-02 -0.6438898672177E-02  0.0000000000000E+00  0.6485108585794E-05
 0.1418806256988E-02 -0.6441623002428E-02  0.0000000000000E+00  0.1476583236041E-03
 0.1438897799284E-02 -0.6442686770404E-02  0.0000000000000E+00  0.2760493457837E-03
 0.1450972022076E-02 -0.6443216444936E-02  0.0000000000000E+00  0.3950913082573E-03
 0.1456587871432E-02 -0.6443863169678E-02  0.0000000000000E+00  0.5081105619757E-03
 0.1456889665290E-02 -0.6444954900689E-02  0.0000000000000E+00  0.6181604586356E-03
 0.1452722666215E-02 -0.6446596322285E-02  0.0000000000000E+00  0.7279464622399E-03
 0.1444715524057E-02 -0.6448727464930E-02  0.0000000000000E+00  0.8397911958611E-03
 0.1433336317831E-02 -0.6451150608991E-02  0.0000000000000E+00  0.9556088799376E-03
 0.1418928522229E-02 -0.6453532268796E-02  0.0000000000000E+00  0.1076871305106E-02
 0.1401732573774E-02 -0.6455384677860E-02  0.0000000000000E+00  0.1204551414540E-02
 0.1381899323626E-02 -0.6456029976765E-02  0.0000000000000E+00  0.1339028314163E-02
 0.1359502096770E-02 -0.6454551083236E-02  0.0000000000000E+00  0.1479947735744E-02
 0.1334561910921E-02 -0.6449736338747E-02  0.0000000000000E+00  0.1626010401910E-02
 0.1307104466059E-02 -0.6440030691779E-02  0.0000000000000E+00  0.1774680509624E-02
 0.1277272191908E-02 -0.6423511863989E-02  0.0000000000000E+00  0.1921827635992E-02
 0.1245516128355E-02 -0.6397910828912E-02  0.0000000000000E+00  0.2061315475834E-02
 0.1212880152612E-02 -0.6360690317199E-02  0.0000000000000E+00  0.2184582436369E-02
 0.1181389353209E-02 -0.6309205732723E-02  0.0000000000000E+00  0.2280233681147E-02
 0.1154593797776E-02 -0.6241087377929E-02  0.0000000000000E+00  0.2333685833397E-02
 0.1138264333447E-02 -0.6154770336721E-02  0.0000000000000E+00  0.2326861445196E-02
 0.1141372352504E-02 -0.6050140080174E-02  0.0000000000000E+00  0.2237883397855E-02
 0.1177697828462E-02 -0.5929737209397E-02  0.0000000000000E+00  0.2041196397534E-02
 0.1268264737071E-02 -0.5800875531951E-02  0.0000000000000E+00  0.1709269411179E-02
 0.1444334340903E-02 -0.5678654173243E-02  0.0000000000000E+00  0.1217980456099E-02
 0.1749535453628E-02 -0.5588953723962E-02  0.0000000000000E+00  0.5586732286194E-03
 0.2237598845949E-02 -0.5568609594442E-02  0.0000000000000E+00 -0.2410920404586E-03
 0.2960116332190E-02 -0.5657831022734E-02  0.0000000000000E+00 -0.1092088149698E-02
 0.3940287461288E-02 -0.5880738179865E-02  0.0000000000000E+00 -0.1829916164473E-02
 0.5138536603589E-02 -0.6218120037069E-02  0.0000000000000E+00 -0.2241243274241E-02
 0.6433224091815E-02 -0.6590832486428E-02  0.0000000000000E+00 -0.2142422784463E-02
 0.7652201198673E-02 -0.6882370036300E-02  0.0000000000000E+00 -0.1465832249282E-02
 0.1092632467697E-03 -0.5826827999003E-02  0.0000000000000E+00 -0.1377257509635E-02
 0.3302183441589E-03 -0.5959993276473E-02  0.0000000000000E+00 -0.1340204313593E-02
 0.5479098844730E-03 -0.6085173992017E-02  0.0000000000000E+00 -0.1242502574261E-02
 0.7478305654517E-03 -0.6192920459698E-02  0.0000000000000E+00 -0.1092312789189E-02
 0.9201104183476E-03 -0.6277956054117E-02  0.0000000000000E+00 -0.9076957003984E-03
 0.1061110294439E-02 -0.6339946975846E-02  0.0000000000000E+00 -0.7084912829016E-03
 0.1172086297333E-02 -0.6382003122619E-02  0.0000000000000E+00 -0.5104811078800E-03
 0.1256902020233E-02 -0.6408633829433E-02  0.0000000000000E+00 -0.3234256693097E-03
 0.1320165223708E-02 -0.6424264993279E-02  0.0000000000000E+00 -0.1517371293214E-03
 0.1366172790513E-02 -0.6432534435992E-02  0.0000000000000E+00  0.3905164668194E-05
 0.1398498937862E-02 -0.6436135290897E-02  0.0000000000000E+00  0.1450230671261E-03
 0.1419945016420E-02 -0.6436923759428E-02  0.0000000000000E+00  0.2742370659888E-03
 0.1432641591208E-02 -0.6436104958713E-02  0.0000000000000E+00  0.3945803843562E-03
 0.1438189043350E-02 -0.6434408907909E-02  0.0000000000000E+00  0.5091090750191E-03
 0.1437788037918E-02 -0.6432227488568E-02  0.0000000000000E+00  0.6206925945632E-03
 0.1432344712109E-02 -0.6429709460923E-02  0.0000000000000E+00  0.7319031766065E-03
 0.1422549582362E-02 -0.6426819323291E-02  0.0000000000000E+00  0.8449528864076E-03
 0.1408934103368E-02 -0.6423367088130E-02  0.0000000000000E+00  0.9616457898687E-03
 0.1391909912129E-02 -0.6419014784576E-02  0.0000000000000E+00  0.1083325149475E-02
 0.1371796145187E-02 -0.6413264152712E-02  0.0000000000000E+00  0.1210800056092E-02
 0.1348841490319E-02 -0.6405429611261E-02  0.0000000000000E+00  0.1344234753071E-02
 0.1323248008777E-02 -0.6394601008305E-02  0.0000000000000E+00  0.1482995667383E-02
 0.1295211739594E-02 -0.6379605093624E-02  0.0000000000000E+00  0.1625431653968E-02
 0.1264997448642E-02 -0.6358978429193E-02  0.0000000000000E+00  0.1768584393571E-02
 0.1233068007431E-02 -0.6330968599790E-02  0.0000000000000E+00  0.1907845874566E-02
 0.1200290524547E-02 -0.6293582335169E-02  0.0000000000000E+00  0.2036576600078E-02
 0.1168232039250E-02 -0.6244695091865E-02  0.0000000000000E+00  0.2145726288844E-02
 0.1139561985784E-02 -0.6182251867736E-02  0.0000000000000E+00  0.2223481852914E-02
 0.1118613288938E-02 -0.6104693315048E-02  0.0000000000000E+00  0.2255015736711E-02
 0.1112099074989E-02 -0.6011543848602E-02  0.0000000000000E+00  0.2222370442786E-02
 0.1130089145262E-02 -0.5904128640265E-02  0.0000000000000E+00  0.2104502441260E-02
 0.1187493444075E-02 -0.5786784111801E-02  0.0000000000000E+00  0.1878013639691E-02
 0.1306084101193E-02 -0.5668763297085E-02  0.0000000000000E+00  0.1519711225694E-02
 0.1516564785584E-02 -0.5566584669934E-02  0.0000000000000E+00  0.1012766400613E-02
 0.1859157354070E-02 -0.5505713112756E-02  0.0000000000000E+00  0.3584790855906E-03
 0.2379638801849E-02 -0.5519024818537E-02  0.0000000000000E+00 -0.4060659702715E-03
 0.3116901013841E-02 -0.5638451284826E-02  0.0000000000000E+00 -0.1189767800864E-02
 0.4080579469919E-02 -0.5878031789077E-02  0.0000000000000E+00 -0.1843218027108E-02
 0.5225542598626E-02 -0.6213551038762E-02  0.0000000000000E+00 -0.2187883720891E-02
 0.6439847200069E-02 -0.6572333687637E-02  0.0000000000000E+00 -0.2082513278046E-02
 0.7570590897097E-02 -0.6850456775257E-02  0.0000000000000E+00 -0.1473503651983E-02
 0.1049884555445E-03 -0.5813677799935E-02  0.0000000000000E+00 -0.1297713040402E-02
 0.3169354738274E-03 -0.5941984958627E-02  0.0000000000000E+00 -0.1263974320625E-02
 0.5259495296372E-03 -0.6063387652527E-02  0.0000000000000E+00 -0.1175908229667E-02
 0.7195055970028E-03 -0.6169605716623E-02  0.0000000000000E+00 -0.1039820568725E-02
 0.8885847132134E-03 -0.6255572976171E-02  0.0000000000000E+00 -0.8705183514689E-03
 0.1029235480755E-02 -0.6320303641216E-02  0.0000000000000E+00 -0.6850526032977E-03
 0.1141794681533E-02 -0.6365917174565E-02  0.0000000000000E+00 -0.4977518566606E-03
 0.1229146676337E-02 -0.6396041207636E-02  0.0000000000000E+00 -0.3181359138151E-03
 0.1295142351401E-02 -0.6414513581007E-02  0.0000000000000E+00 -0.1510708652402E-03
 0.1343598688660E-02 -0.6424666367161E-02  0.0000000000000E+00  0.2075576295099E-05
 0.1377833246022E-02 -0.6429082278515E-02  0.0000000000000E+00  0.1421648845875E-03
 0.1400538068792E-02 -0.6429615716878E-02  0.0000000000000E+00  0.2712848305785E-03
 0.1413820297459E-02 -0.6427517827209E-02  0.0000000000000E+00  0.3920740288643E-03
 0.1419302496444E-02 -0.6423577090480E-02  0.0000000000000E+00  0.5073069986063E-03
 0.1418229909997E-02 -0.6418238498596E-02  0.0000000000000E+00  0.6196516726052E-03
 0.1411563823510E-02 -0.6411691314680E-02  0.0000000000000E+00  0.7315282692062E-03
 0.1400055734348E-02 -0.6403926563670E-02  0.0000000000000E+00  0.8450209493405E-03
 0.1384303665680E-02 -0.6394768833171E-02  0.0000000000000E+00  0.9618091324404E-03
 0.1364794331368E-02 -0.6383887090420E-02  0.0000000000000E+00  0.1083097064055E-02
 0.1341936112196E-02 -0.6370788860065E-02  0.0000000000000E+00  0.1209525008237E-02
 0.1316089637087E-02 -0.6354802491612E-02  0.0000000000000E+00  0.1341045245459E-02
 0.1287602992744E-02 -0.6335052243266E-02  0.0000000000000E+00  0.1476759074455E-02
 0.1256866622350E-02 -0.6310436508600E-02  0.0000000000000E+00  0.1614693285608E-02
 0.1224403842809E-02 -0.6279621537630E-02  0.0000000000000E+00  0.1751517023621E-02
 0.1191014958299E-02 -0.6241066014242E-02  0.0000000000000E+00  0.1882218740977E-02
 0.1157995056821E-02 -0.6193094802409E-02  0.0000000000000E+00  0.1999757694856E-02
 0.1127438432492E-02 -0.6134037171197E-02  0.0000000000000E+00  0.2094731409466E-02
 0.1102649605091E-02 -0.6062462486982E-02  0.0000000000000E+00  0.2155092673943E-02
 0.1088708561636E-02 -0.5977638462977E-02  0.0000000000000E+00  0.2166018337998E-02
 0.1093181355174E-02 -0.5880152629832E-02  0.0000000000000E+00  0.2109996970197E-02
 0.1127047373030E-02 -0.5772654385676E-02  0.0000000000000E+00  0.1967212039420E-02
 0.1205998041299E-02 -0.5660999590986E-02  0.0000000000000E+00  0.1716799009708E-02
 0.1352002210453E-02 -0.5555864008533E-02  0.0000000000000E+00  0.1340025163074E-02
 0.1594514995812E-02 -0.5474415410313E-02  0.0000000000000E+00  0.8267686946621E-03
 0.1969840312914E-02 -0.5440885219587E-02  0.0000000000000E+00  0.1864247554376E-03
 0.2516154707836E-02 -0.5483884742170E-02  0.0000000000000E+00 -0.5376535615833E-03
 0.3261612851495E-02 -0.5628036770525E-02  0.0000000000000E+00 -0.1255938614456E-02
 0.4205801381086E-02 -0.5879625003353E-02  0.0000000000000E+00 -0.1834502533225E-02
 0.5301128590063E-02 -0.6211876186326E-02  0.0000000000000E+00 -0.2124318987823E-02
 0.6445888786444E-02 -0.6559172058879E-02  0.0000000000000E+00 -0.2017549942734E-02
 0.7495295730448E-02 -0.6825772154907E-02  0.0000000000000E+00 -0.1477396664376E-02
 0.1011382832464E-03 -0.5802088003418E-02  0.0000000000000E+00 -0.1221034594148E-02
 0.3049972492121E-03 -0.5925960584486E-02  0.0000000000000E+00 -0.1190170876156E-02
 0.5061463505634E-03 -0.6043775448351E-02  0.0000000000000E+00 -0.1110439560528E-02
 0.6936959392321E-03 -0.6148239259004E-02  0.0000000000000E+00 -0.9867769838109E-03
 0.8594266946754E-03 -0.6234549256733E-02  0.0000000000000E+00 -0.8313900134065E-03
 0.9992478249417E-03 -0.6301271413201E-02  0.0000000000000E+00 -0.6589220232992E-03
 0.1112798764073E-02 -0.6349735279284E-02  0.0000000000000E+00 -0.4822766707086E-03
 0.1202141941660E-02 -0.6382801133605E-02  0.0000000000000E+00 -0.3105559133343E-03
 0.1270442396640E-02 -0.6403747011186E-02  0.0000000000000E+00 -0.1488628313770E-03
 0.1321047665702E-02 -0.6415576999687E-02  0.0000000000000E+00  0.9153184912791E-06
 0.1357000359082E-02 -0.6420723953727E-02  0.0000000000000E+00  0.1390816281921E-03
 0.1380857420581E-02 -0.6421002742704E-02  0.0000000000000E+00  0.2672398814978E-03
 0.1394679378547E-02 -0.6417681622964E-02  0.0000000000000E+00  0.3876492142166E-03
 0.1400093709481E-02 -0.6411588364733E-02  0.0000000000000E+00  0.5027996212977E-03
 0.1398379103956E-02 -0.6403210316632E-02  0.0000000000000E+00  0.6151462546688E-03
 0.1390546219219E-02 -0.6392773245152E-02  0.0000000000000E+00  0.7269434695081E-03
 0.1377406245710E-02 -0.6380296163248E-02  0.0000000000000E+00  0.8401342693888E-03
 0.1359626335226E-02 -0.6365624402345E-02  0.0000000000000E+00  0.9562627367932E-03
 0.1337774309601E-02 -0.6348444487373E-02  0.0000000000000E+00  0.1076387579600E-02
 0.1312357074726E-02 -0.6328284901285E-02  0.0000000000000E+00  0.1200979727636E-02
 0.1283859448878E-02 -0.6304507890619E-02  0.0000000000000E+00  0.1329787501397E-02
 0.1252790138215E-02 -0.6276296974767E-02  0.0000000000000E+00  0.1461666834496E-02
 0.1219749649097E-02 -0.6242651489701E-02  0.0000000000000E+00  0.1594357832140E-02
 0.1185534528544E-02 -0.6202399925463E-02  0.0000000000000E+00  0.1724211953755E-02
 0.1151293621447E-02 -0.6154245973857E-02  0.0000000000000E+00  0.1845891769847E-02
 0.1118754671048E-02 -0.6096865430844E-02  0.0000000000000E+00  0.1952059231471E-02
 0.1090533784229E-02 -0.6029069529513E-02  0.0000000000000E+00  0.2033095584858E-02
 0.1070548018715E-02 -0.5950068659635E-02  0.0000000000000E+00  0.2076896888589E-02
 0.1064570872986E-02 -0.5859949296816E-02  0.0000000000000E+00  0.2068871908064E-02
 0.1080911856989E-02 -0.5760303932965E-02  0.0000000000000E+00  0.1992231576211E-02
 0.1131257309339E-02 -0.5654956893555E-02  0.0000000000000E+00  0.1828679938830E-02
 0.1231745360983E-02 -0.5550988886853E-02  0.0000000000000E+00  0.1560090886969E-02
 0.1404070692762E-02 -0.5460018026258E-02  0.0000000000000E+00  0.1172076592844E-02
 0.1675938387786E-02 -0.5399237570079E-02  0.0000000000000E+00  0.6604223620383E-03
 0.2079521713746E-02 -0.5391108612765E-02  0.0000000000000E+00  0.4080784600585E-04
 0.2645983204280E-02 -0.5459991983128E-02  0.0000000000000E+00 -0.6398312587250E-03
 0.3394617310928E-02 -0.5624216078120E-02  0.0000000000000E+00 -0.1295754890569E-02
 0.4317616845456E-02 -0.5884277144638E-02  0.0000000000000E+00 -0.1808363929613E-02
 0.5367060140493E-02 -0.6211970440242E-02  0.0000000000000E+00 -0.2052596642955E-02
 0.6451811887745E-02 -0.6550039348752E-02  0.0000000000000E+00 -0.1947736187369E-02
 0.7426297031413E-02 -0.6803371300142E-02  0.0000000000000E+00 -0.1476496842224E-02
 0.9764084136807E-04 -0.5791818029408E-02  0.0000000000000E+00 -0.1146981933769E-02
 0.2942116432239E-03 -0.5911634841360E-02  0.0000000000000E+00 -0.1118670822323E-02
 0.4882213596734E-03 -0.6026065777133E-02  0.0000000000000E+00 -0.1046244325321E-02
 0.6701416755564E-03 -0.6128648379628E-02  0.0000000000000E+00 -0.9336215915797E-03
 0.8324817009993E-03 -0.6214861744523E-02  0.0000000000000E+00 -0.7909207389018E-03
 0.9711262902046E-03 -0.6282970729630E-02  0.0000000000000E+00 -0.6307204674717E-03
 0.1085191080500E-02 -0.6333678707426E-02  0.0000000000000E+00 -0.4645733793107E-03
 0.1176054977338E-02 -0.6369186519721E-02  0.0000000000000E+00 -0.3010547889531E-03
 0.1246271266864E-02 -0.6392252806173E-02  0.0000000000000E+00 -0.1453377137153E-03
 0.1298740159877E-02 -0.6405548068772E-02  0.0000000000000E+00  0.3169114708018E-06
 0.1336222552387E-02 -0.6411329368580E-02  0.0000000000000E+00  0.1357517788048E-03
 0.1361122776444E-02 -0.6411342965406E-02  0.0000000000000E+00  0.2621403873456E-03
 0.1375436592691E-02 -0.6406850078654E-02  0.0000000000000E+00  0.3813851009494E-03
 0.1380781812591E-02 -0.6398700909888E-02  0.0000000000000E+00  0.4956957162208E-03
 0.1378460670004E-02 -0.6387415371167E-02  0.0000000000000E+00  0.6073095832778E-03
 0.1369527768352E-02 -0.6373252003917E-02  0.0000000000000E+00  0.7183065839383E-03
 0.1354852492148E-02 -0.6356259187321E-02  0.0000000000000E+00  0.8304799410824E-03
 0.1335173026805E-02 -0.6336308838301E-02  0.0000000000000E+00  0.9452321778659E-03
 0.1311143205006E-02 -0.6313115038137E-02  0.0000000000000E+00  0.1063474649025E-02
 0.1283375993387E-02 -0.6286241305085E-02  0.0000000000000E+00  0.1185513671422E-02
 0.1252490056546E-02 -0.6255101878523E-02  0.0000000000000E+00  0.1310907455797E-02
 0.1219165614998E-02 -0.6218961370199E-02  0.0000000000000E+00  0.1438292621114E-02
 0.1184223863972E-02 -0.6176944789292E-02  0.0000000000000E+00  0.1565164215244E-02
 0.1148742752323E-02 -0.6128068934099E-02  0.0000000000000E+00  0.1687616366929E-02
 0.1114222662649E-02 -0.6071307629815E-02  0.0000000000000E+00  0.1800067436030E-02
 0.1082818608699E-02 -0.6005708697237E-02  0.0000000000000E+00  0.1894987600430E-02
 0.1057650339628E-02 -0.5930577778250E-02  0.0000000000000E+00  0.1962674913913E-02
 0.1043208796219E-02 -0.5845761892999E-02  0.0000000000000E+00  0.1991134012954E-02
 0.1045888554463E-02 -0.5752130976404E-02  0.0000000000000E+00  0.1966202813484E-02
 0.1074615515911E-02 -0.5652193285215E-02  0.0000000000000E+00  0.1872028869795E-02
 0.1141574817644E-02 -0.5550771597150E-02  0.0000000000000E+00  0.1692019666240E-02
 0.1263045058317E-02 -0.5455873024728E-02  0.0000000000000E+00  0.1410822945331E-02
 0.1460070211597E-02 -0.5379631496253E-02  0.0000000000000E+00  0.1018075286381E-02
 0.1758292400874E-02 -0.5338791065111E-02  0.0000000000000E+00  0.5145293644583E-03
 0.2185784875861E-02 -0.5353747748001E-02  0.0000000000000E+00 -0.7955562111628E-04
 0.2767482762534E-02 -0.5444853978696E-02  0.0000000000000E+00 -0.7157634209190E-03
 0.3515451718489E-02 -0.5625172698197E-02  0.0000000000000E+00 -0.1313609738240E-02
 0.4416916568909E-02 -0.5890912688154E-02  0.0000000000000E+00 -0.1768409121911E-02
 0.5423953735469E-02 -0.6213573177471E-02  0.0000000000000E+00 -0.1976919826055E-02
 0.6457554891751E-02 -0.6541347027975E-02  0.0000000000000E+00 -0.1870194690242E-02
 0.7373250475678E-02 -0.6789323040500E-02  0.0000000000000E+00 -0.1492625124003E-02
 0.9447462566563E-04 -0.5782674682944E-02  0.0000000000000E+00 -0.1075333677680E-02
 0.2844432388899E-03 -0.5898774474690E-02  0.0000000000000E+00 -0.1049323211052E-02
 0.4719648058201E-03 -0.6010028431851E-02  0.0000000000000E+00 -0.9833708490965E-03
 0.6486302887787E-03 -0.6110671178307E-02  0.0000000000000E+00 -0.8806357703587E-03
 0.8076056772211E-03 -0.6196462868156E-02  0.0000000000000E+00 -0.7495496452316E-03
 0.9448256634542E-03 -0.6265472762627E-02  0.0000000000000E+00 -0.6009260106488E-03
 0.1059017616138E-02 -0.6317910285821E-02  0.0000000000000E+00 -0.4450625078496E-03
 0.1150996410999E-02 -0.6355414636565E-02  0.0000000000000E+00 -0.2899467988949E-03
 0.1222776202295E-02 -0.6380271107100E-02  0.0000000000000E+00 -0.1406953079485E-03
 0.1276838999050E-02 -0.6394822406284E-02  0.0000000000000E+00  0.1809804979214E-06
 0.1315665666263E-02 -0.6401134398241E-02  0.0000000000000E+00  0.1321553800795E-03
 0.1341497097387E-02 -0.6400862999079E-02  0.0000000000000E+00  0.2560264045132E-03
 0.1356250439585E-02 -0.6395242523620E-02  0.0000000000000E+00  0.3733672949428E-03
 0.1361521644776E-02 -0.6385130855872E-02  0.0000000000000E+00  0.4861174835160E-03
 0.1358627662469E-02 -0.6371071452364E-02  0.0000000000000E+00  0.5962965012759E-03
 0.1348661862147E-02 -0.6353351904158E-02  0.0000000000000E+00  0.7058054547611E-03
 0.1332550024745E-02 -0.6332050873750E-02  0.0000000000000E+00  0.8162829413123E-03
 0.1311102557957E-02 -0.6307071895601E-02  0.0000000000000E+00  0.9289872091280E-03
 0.1285063081523E-02 -0.6278165424383E-02  0.0000000000000E+00  0.1044683902597E-02
 0.1255156544509E-02 -0.6244942408039E-02  0.0000000000000E+00  0.1163522963690E-02
 0.1222142891420E-02 -0.6206884785805E-02  0.0000000000000E+00  0.1284889837084E-02
 0.1186881800649E-02 -0.6163356758855E-02  0.0000000000000E+00  0.1407231037673E-02
 0.1150422050886E-02 -0.6113629242683E-02  0.0000000000000E+00  0.1527840450754E-02
 0.1114126683461E-02 -0.6056927582929E-02  0.0000000000000E+00  0.1642615922877E-02
 0.1079845426504E-02 -0.5992513535991E-02  0.0000000000000E+00  0.1745811650550E-02
 0.1050149183976E-02 -0.5919818903239E-02  0.0000000000000E+00  0.1829806636833E-02
 0.1028636125374E-02 -0.5838644715440E-02  0.0000000000000E+00  0.1884938556418E-02
 0.1020324399880E-02 -0.5749456050716E-02  0.0000000000000E+00  0.1899466239892E-02
 0.1032149815133E-02 -0.5653854876662E-02  0.0000000000000E+00  0.1859818155354E-02
 0.1073525521426E-02 -0.5555161471821E-02  0.0000000000000E+00  0.1751231980269E-02
 0.1156940750526E-02 -0.5459016392508E-02  0.0000000000000E+00  0.1558908692389E-02
 0.1298553624410E-02 -0.5374077631497E-02  0.0000000000000E+00  0.1270186083012E-02
 0.1518476917586E-02 -0.5312641512431E-02  0.0000000000000E+00  0.8782985755512E-03
 0.1840121456031E-02 -0.5290665540453E-02  0.0000000000000E+00  0.3880249663827E-03
 0.2287648877036E-02 -0.5326360972656E-02  0.0000000000000E+00 -0.1772588656588E-03
 0.2880540499702E-02 -0.5436421200317E-02  0.0000000000000E+00 -0.7692498447958E-03
 0.3625179366010E-02 -0.5629588373266E-02  0.0000000000000E+00 -0.1313414088331E-02
 0.4505025818753E-02 -0.5898885999384E-02  0.0000000000000E+00 -0.1718045019296E-02
 0.5474985316842E-02 -0.6216511368830E-02  0.0000000000000E+00 -0.1896924786534E-02
 0.6456847659827E-02 -0.6532474701176E-02  0.0000000000000E+00 -0.1797608616749E-02
 0.7371665226783E-02 -0.6787976941020E-02  0.0000000000000E+00 -0.1488131947043E-02
 0.9159051171103E-04 -0.5774501378447E-02  0.0000000000000E+00 -0.1005887966423E-02
 0.2755659664708E-03 -0.5887187833450E-02  0.0000000000000E+00 -0.9819616600736E-03
 0.4571788345057E-03 -0.5995465815239E-02  0.0000000000000E+00 -0.9217999633050E-03
 0.6289507979651E-03 -0.6094155071829E-02  0.0000000000000E+00 -0.8279849515928E-03
 0.7846321176526E-03 -0.6179285210594E-02  0.0000000000000E+00 -0.7075821854015E-03
 0.9202548813452E-03 -0.6248805839708E-02  0.0000000000000E+00 -0.5698968719068E-03
 0.1034263224839E-02 -0.6302538566867E-02  0.0000000000000E+00 -0.4240760468534E-03
 0.1127009653923E-02 -0.6341647208039E-02  0.0000000000000E+00 -0.2774915049739E-03
 0.1200037408224E-02 -0.6367990870573E-02  0.0000000000000E+00 -0.1351086986298E-03
 0.1255442892678E-02 -0.6383597338277E-02  0.0000000000000E+00  0.4147503859658E-06
 0.1295434467709E-02 -0.6390333535721E-02  0.0000000000000E+00  0.1282655025284E-03
 0.1322083947826E-02 -0.6389749089961E-02  0.0000000000000E+00  0.2489217379273E-03
 0.1337219597577E-02 -0.6383035058721E-02  0.0000000000000E+00  0.3636581441513E-03
 0.1342405372491E-02 -0.6371043956679E-02  0.0000000000000E+00  0.4741575876288E-03
 0.1338965046752E-02 -0.6354334233765E-02  0.0000000000000E+00  0.5822256052320E-03
 0.1328025763526E-02 -0.6333218493637E-02  0.0000000000000E+00  0.6895835793773E-03
 0.1310567593818E-02 -0.6307805775329E-02  0.0000000000000E+00  0.7977135051258E-03
 0.1287473685671E-02 -0.6278035043279E-02  0.0000000000000E+00  0.9077291474342E-03
 0.1259580234429E-02 -0.6243700332692E-02  0.0000000000000E+00  0.1020254337588E-02
 0.1227728777206E-02 -0.6204470345018E-02  0.0000000000000E+00  0.1135292892938E-02
 0.1192826298389E-02 -0.6159907785907E-02  0.0000000000000E+00  0.1252076462039E-02
 0.1155917847500E-02 -0.6109491627077E-02  0.0000000000000E+00  0.1368891580107E-02
 0.1118284365389E-02 -0.6052654879819E-02  0.0000000000000E+00  0.1482874595989E-02
 0.1081575222391E-02 -0.5988846925659E-02  0.0000000000000E+00  0.1589786118369E-02
 0.1047984864285E-02 -0.5917629840206E-02  0.0000000000000E+00  0.1683791914560E-02
 0.1020486371620E-02 -0.5838825294514E-02  0.0000000000000E+00  0.1757272963489E-02
 0.1003128961952E-02 -0.5752723960372E-02  0.0000000000000E+00  0.1800717159984E-02
 0.1001409908533E-02 -0.5660383387093E-02  0.0000000000000E+00  0.1802762985861E-02
 0.1022727681410E-02 -0.5564080481008E-02  0.0000000000000E+00  0.1750558401826E-02
 0.1076862018480E-02 -0.5467843548249E-02  0.0000000000000E+00  0.1630535866744E-02
 0.1176435187529E-02 -0.5377963528037E-02  0.0000000000000E+00  0.1429714676975E-02
 0.1337273438549E-02 -0.5303513146140E-02  0.0000000000000E+00  0.1137971032241E-02
 0.1578358899185E-02 -0.5256675392774E-02  0.0000000000000E+00  0.7516807275284E-03
 0.1920805461157E-02 -0.5252398012340E-02  0.0000000000000E+00  0.2787883084477E-03
 0.2385107133075E-02 -0.5306697777486E-02  0.0000000000000E+00 -0.2554131159017E-03
 0.2986041533784E-02 -0.5432988544553E-02  0.0000000000000E+00 -0.8038823113736E-03
 0.3725387236577E-02 -0.5636455653626E-02  0.0000000000000E+00 -0.1298372917769E-02
 0.4584488643926E-02 -0.5907928194233E-02  0.0000000000000E+00 -0.1659092939922E-02
 0.5519444154293E-02 -0.6220127260157E-02  0.0000000000000E+00 -0.1813587862444E-02
 0.6463375153151E-02 -0.6527564741238E-02  0.0000000000000E+00 -0.1729897062705E-02
 0.7361196310647E-02 -0.6791418197515E-02  0.0000000000000E+00 -0.1455856210214E-02
 0.8895845867281E-04 -0.5767171175201E-02  0.0000000000000E+00 -0.9384664953717E-03
 0.2674834851301E-03 -0.5876721863312E-02  0.0000000000000E+00 -0.9164506874877E-03
 0.4437118867054E-03 -0.5982220747725E-02  0.0000000000000E+00 -0.8615214483656E-03
 0.6109410729566E-03 -0.6078979877658E-02  0.0000000000000E+00 -0.7758184641642E-03
 0.7634367353606E-03 -0.6163279472596E-02  0.0000000000000E+00 -0.6652932924267E-03
 0.8973555517427E-03 -0.6233002995382E-02  0.0000000000000E+00 -0.5379625521300E-03
 0.1010938865202E-02 -0.6287668706718E-02  0.0000000000000E+00 -0.4019286186812E-03
 0.1104162230738E-02 -0.6328040196564E-02  0.0000000000000E+00 -0.2639435477036E-03
 0.1178160794881E-02 -0.6355596954230E-02  0.0000000000000E+00 -0.1287544624048E-03
 0.1234679788788E-02 -0.6372069975308E-02  0.0000000000000E+00  0.9187487010204E-06
 0.1275667300750E-02 -0.6379126189241E-02  0.0000000000000E+00  0.1240494810332E-03
 0.1303025180032E-02 -0.6378198643425E-02  0.0000000000000E+00  0.2408479916886E-03
 0.1318486173864E-02 -0.6370422678668E-02  0.0000000000000E+00  0.3523226169052E-03
 0.1323574443182E-02 -0.6356634674816E-02  0.0000000000000E+00  0.4599166601773E-03
 0.1319613953746E-02 -0.6337400618312E-02  0.0000000000000E+00  0.5652290279632E-03
 0.1307761082283E-02 -0.6313054365385E-02  0.0000000000000E+00  0.6698038045779E-03
 0.1289047938139E-02 -0.6283735130580E-02  0.0000000000000E+00  0.7749675130330E-03
 0.1264430298984E-02 -0.6249420370771E-02  0.0000000000000E+00  0.8816921229428E-03
 0.1234838644153E-02 -0.6209953711843E-02  0.0000000000000E+00  0.9904663123400E-03
 0.1201234147256E-02 -0.6165070218041E-02  0.0000000000000E+00  0.1101160662169E-02
 0.1164674507658E-02 -0.6114424075978E-02  0.0000000000000E+00  0.1212874386993E-02
 0.1126393407994E-02 -0.6057621086735E-02  0.0000000000000E+00  0.1323766036357E-02
 0.1087905318687E-02 -0.5994268540101E-02  0.0000000000000E+00  0.1430858963207E-02
 0.1051143460961E-02 -0.5924050367803E-02  0.0000000000000E+00  0.1529834979830E-02
 0.1018638229685E-02 -0.5846835336298E-02  0.0000000000000E+00  0.1614844316536E-02
 0.9937466855182E-03 -0.5762833730150E-02  0.0000000000000E+00  0.1678356882282E-02
 0.9809371346139E-03 -0.5672811851882E-02  0.0000000000000E+00  0.1711109869713E-02
 0.9861340574064E-03 -0.5578385295196E-02  0.0000000000000E+00  0.1702226817376E-02
 0.1017119194112E-02 -0.5482441209538E-02  0.0000000000000E+00  0.1639671583232E-02
 0.1083924909795E-02 -0.5389609677068E-02  0.0000000000000E+00  0.1511127984636E-02
 0.1199156998253E-02 -0.5306675060866E-02  0.0000000000000E+00  0.1305396535370E-02
 0.1378143142378E-02 -0.5242921952345E-02  0.0000000000000E+00  0.1014678828948E-02
 0.1638607597599E-02 -0.5210208725125E-02  0.0000000000000E+00  0.6380103979785E-03
 0.1999384807315E-02 -0.5222340416121E-02  0.0000000000000E+00  0.1857095731852E-03
 0.2477609615263E-02 -0.5293214784903E-02  0.0000000000000E+00 -0.3160052200005E-03
 0.3084024886696E-02 -0.5433357075598E-02  0.0000000000000E+00 -0.8221586090036E-03
 0.3816860751961E-02 -0.5645086781018E-02  0.0000000000000E+00 -0.1270917298716E-02
 0.4655986148465E-02 -0.5917721729742E-02  0.0000000000000E+00 -0.1592895615818E-02
 0.5560046278419E-02 -0.6224815205963E-02  0.0000000000000E+00 -0.1729087625829E-02
 0.6472491200278E-02 -0.6527642656953E-02  0.0000000000000E+00 -0.1658024381178E-02
 0.7348179731099E-02 -0.6795771830655E-02  0.0000000000000E+00 -0.1409478277471E-02
 0.8655425155254E-04 -0.5760581059437E-02  0.0000000000000E+00 -0.8729058024329E-03
 0.2601175351157E-03 -0.5867251534697E-02  0.0000000000000E+00 -0.8526601156669E-03
 0.4314389342228E-03 -0.5970163281215E-02  0.0000000000000E+00 -0.8025055035021E-03
 0.5944637056505E-03 -0.6065042832470E-02  0.0000000000000E+00 -0.7242385390636E-03
 0.7439094312104E-03 -0.6148399097230E-02  0.0000000000000E+00 -0.6228962343816E-03
 0.8760706029970E-03 -0.6218086341600E-02  0.0000000000000E+00 -0.5053928292183E-03
 0.9890467759675E-03 -0.6273386367692E-02  0.0000000000000E+00 -0.3788884455632E-03
 0.1082507668817E-02 -0.6314727185964E-02  0.0000000000000E+00 -0.2495278134806E-03
 0.1157237064570E-02 -0.6343253022610E-02  0.0000000000000E+00 -0.1217936491784E-03
 0.1214663635057E-02 -0.6360419379619E-02  0.0000000000000E+00  0.1599539771746E-05
 0.1256490642863E-02 -0.6367697214646E-02  0.0000000000000E+00  0.1194758367621E-03
 0.1284452889709E-02 -0.6366397467426E-02  0.0000000000000E+00  0.2318266184378E-03
 0.1300184141546E-02 -0.6357590842164E-02  0.0000000000000E+00  0.3394264486144E-03
 0.1305163144996E-02 -0.6342089047134E-02  0.0000000000000E+00  0.4434982565556E-03
 0.1300708666994E-02 -0.6320459300666E-02  0.0000000000000E+00  0.5454444941031E-03
 0.1288002261971E-02 -0.6293053302247E-02  0.0000000000000E+00  0.6466372412958E-03
 0.1268125711824E-02 -0.6260039991728E-02  0.0000000000000E+00  0.7482514010856E-03
 0.1242106699438E-02 -0.6221437635545E-02  0.0000000000000E+00  0.8511223793830E-03
 0.1210970619979E-02 -0.6177144235072E-02  0.0000000000000E+00  0.9556127314141E-03
 0.1175799785750E-02 -0.6126968071724E-02  0.0000000000000E+00  0.1061474842118E-02
 0.1137804248344E-02 -0.6070663155833E-02  0.0000000000000E+00  0.1167698635284E-02
 0.1098407050866E-02 -0.6007971095110E-02  0.0000000000000E+00  0.1272347795760E-02
 0.1059354568670E-02 -0.5938681778775E-02  0.0000000000000E+00  0.1372377275991E-02
 0.1022858037641E-02 -0.5862719526014E-02  0.0000000000000E+00  0.1463446969180E-02
 0.9917714439895E-03 -0.5780260670283E-02  0.0000000000000E+00  0.1539760552736E-02
 0.9698140194076E-03 -0.5691896591198E-02  0.0000000000000E+00  0.1593956463813E-02
 0.9618380169176E-03 -0.5598848444852E-02  0.0000000000000E+00  0.1617107685271E-02
 0.9741415762940E-03 -0.5503249046874E-02  0.0000000000000E+00  0.1598907832053E-02
 0.1014812591311E-02 -0.5408527176039E-02  0.0000000000000E+00  0.1528202324349E-02
 0.1094032379340E-02 -0.5319810987794E-02  0.0000000000000E+00  0.1393941102685E-02
 0.1224264716243E-02 -0.5244236524174E-02  0.0000000000000E+00  0.1186620562615E-02
 0.1420215014911E-02 -0.5191132407003E-02  0.0000000000000E+00  0.9005159074011E-03
 0.1698282773420E-02 -0.5171879163740E-02  0.0000000000000E+00  0.5368435854724E-03
 0.2075104596345E-02 -0.5199077971896E-02  0.0000000000000E+00  0.1075882392495E-03
 0.2564784176243E-02 -0.5284637586811E-02  0.0000000000000E+00 -0.3608987546285E-03
 0.3174665972009E-02 -0.5436580216455E-02  0.0000000000000E+00 -0.8262755985046E-03
 0.3900219721068E-02 -0.5654954538295E-02  0.0000000000000E+00 -0.1232917519061E-02
 0.4720589898241E-02 -0.5928071402982E-02  0.0000000000000E+00 -0.1520948557979E-02
 0.5597514089873E-02 -0.6231098657915E-02  0.0000000000000E+00 -0.1642351531683E-02
 0.6482404543193E-02 -0.6531038505684E-02  0.0000000000000E+00 -0.1580749875247E-02
 0.7334503134135E-02 -0.6801250223250E-02  0.0000000000000E+00 -0.1353501979125E-02
 0.8435828356929E-04 -0.5754647236868E-02  0.0000000000000E+00 -0.8090547517394E-03
 0.2534043183089E-03 -0.5858674708149E-02  0.0000000000000E+00 -0.7904648648902E-03
 0.4202566142228E-03 -0.5959185981835E-02  0.0000000000000E+00 -0.7447079519991E-03
 0.5794023987565E-03 -0.6052256685788E-02  0.0000000000000E+00 -0.6733106799084E-03
 0.7259534923605E-03 -0.6134601547334E-02  0.0000000000000E+00 -0.5805538515833E-03
 0.8563459599147E-03 -0.6204070592336E-02  0.0000000000000E+00 -0.4724062846668E-03
 0.9685833801751E-03 -0.6259761875580E-02  0.0000000000000E+00 -0.3551816225824E-03
 0.1062088391158E-02 -0.6301822926704E-02  0.0000000000000E+00 -0.2344400525892E-03
 0.1137343905251E-02 -0.6331103932748E-02  0.0000000000000E+00 -0.1143702117334E-03
 0.1195495701741E-02 -0.6348807793239E-02  0.0000000000000E+00  0.2372102179266E-05
 0.1238019681386E-02 -0.6356217245848E-02  0.0000000000000E+00  0.1145165612688E-03
 0.1266489463855E-02 -0.6354519508092E-02  0.0000000000000E+00  0.2218806679247E-03
 0.1282439063505E-02 -0.6344714861170E-02  0.0000000000000E+00  0.3250372070885E-03
 0.1287298163818E-02 -0.6327583903220E-02  0.0000000000000E+00  0.4250092313992E-03
 0.1282376125691E-02 -0.6303689932210E-02  0.0000000000000E+00  0.5230150420576E-03
 0.1268876112951E-02 -0.6273399471427E-02  0.0000000000000E+00  0.6202623619383E-03
 0.1247927119955E-02 -0.6236910519154E-02  0.0000000000000E+00  0.7177806349974E-03
 0.1220627415490E-02 -0.6194283734066E-02  0.0000000000000E+00  0.8162760967816E-03
 0.1188096885728E-02 -0.6145475046277E-02  0.0000000000000E+00  0.9159961688825E-03
 0.1151538974206E-02 -0.6090371048856E-02  0.0000000000000E+00  0.1016591747148E-02
 0.1112315762124E-02 -0.6028831572040E-02  0.0000000000000E+00  0.1116967806536E-02
 0.1072037994111E-02 -0.5960740017177E-02  0.0000000000000E+00  0.1215126736297E-02
 0.1032679582797E-02 -0.5886073530030E-02  0.0000000000000E+00  0.1307998982233E-02
 0.9967209696927E-03 -0.5804998330681E-02  0.0000000000000E+00  0.1391277023313E-02
 0.9673243657300E-03 -0.5717994282508E-02  0.0000000000000E+00  0.1459282229638E-02
 0.9485466350999E-03 -0.5626021019794E-02  0.0000000000000E+00  0.1504893041140E-02
 0.9455870002312E-03 -0.5530728506758E-02  0.0000000000000E+00  0.1519591713322E-02
 0.9650640313319E-03 -0.5434721845611E-02  0.0000000000000E+00  0.1493707184631E-02
 0.1015299412915E-02 -0.5341902060135E-02  0.0000000000000E+00  0.1417004295638E-02
 0.1106532392500E-02 -0.5257797857662E-02  0.0000000000000E+00  0.1279679156466E-02
 0.1250983899461E-02 -0.5189773235745E-02  0.0000000000000E+00  0.1073803469052E-02
 0.1462652483842E-02 -0.5147067332321E-02  0.0000000000000E+00  0.7954544201024E-03
 0.1756595871353E-02 -0.5140479873041E-02  0.0000000000000E+00  0.4475721277630E-03
 0.2147376608706E-02 -0.5181401763568E-02  0.0000000000000E+00  0.4319399734665E-04
 0.2646404337985E-02 -0.5279915191194E-02  0.0000000000000E+00 -0.3918219546094E-03
 0.3258183331441E-02 -0.5441906409099E-02  0.0000000000000E+00 -0.8181062746845E-03
 0.3976086748626E-02 -0.5665639459258E-02  0.0000000000000E+00 -0.1185981940601E-02
 0.4779120546098E-02 -0.5938921326415E-02  0.0000000000000E+00 -0.1444011260105E-02
 0.5632081446422E-02 -0.6238803862890E-02  0.0000000000000E+00 -0.1552694630486E-02
 0.6492227221108E-02 -0.6536623199281E-02  0.0000000000000E+00 -0.1498212010975E-02
 0.7321222861557E-02 -0.6807711519835E-02  0.0000000000000E+00 -0.1290485764094E-02
 0.8235462128900E-04 -0.5749301483545E-02  0.0000000000000E+00 -0.7467723688150E-03
 0.2472916680811E-03 -0.5850907920421E-02  0.0000000000000E+00 -0.7297445654722E-03
 0.4100793382685E-03 -0.5949200128251E-02  0.0000000000000E+00 -0.6880740262702E-03
 0.5656588492797E-03 -0.6040547792533E-02  0.0000000000000E+00 -0.6230715200123E-03
 0.7094845458152E-03 -0.6121848909771E-02  0.0000000000000E+00 -0.5383876833415E-03
 0.8381315356256E-03 -0.6190965571912E-02  0.0000000000000E+00 -0.4391777383999E-03
 0.9495414409483E-03 -0.6246853470393E-02  0.0000000000000E+00 -0.3309964086040E-03
 0.1042938064246E-02 -0.6289426300961E-02  0.0000000000000E+00 -0.2188481693759E-03
 0.1118547900861E-02 -0.6319277871942E-02  0.0000000000000E+00 -0.1066102970483E-03
 0.1177265828035E-02 -0.6337381849524E-02  0.0000000000000E+00  0.3161446127026E-05
 0.1220358934964E-02 -0.6344843130602E-02  0.0000000000000E+00  0.1091488444428E-03
 0.1249247728641E-02 -0.6342726736771E-02  0.0000000000000E+00  0.2110361767652E-03
 0.1265367932917E-02 -0.6331959448562E-02  0.0000000000000E+00  0.3092251509152E-03
 0.1270098257188E-02 -0.6313286235145E-02  0.0000000000000E+00  0.4045600134864E-03
 0.1264735541469E-02 -0.6287262430167E-02  0.0000000000000E+00  0.4980887202697E-03
 0.1250501459101E-02 -0.6254266761908E-02  0.0000000000000E+00  0.5908641317053E-03
 0.1228569672879E-02 -0.6214525425499E-02  0.0000000000000E+00  0.6837782777105E-03
 0.1200107145238E-02 -0.6168142336602E-02  0.0000000000000E+00  0.7774173801599E-03
 0.1166326805443E-02 -0.6115133689015E-02  0.0000000000000E+00  0.8719262550959E-03
 0.1128551768869E-02 -0.6055467747624E-02  0.0000000000000E+00  0.9668722071672E-03
 0.1088293966403E-02 -0.5989113875389E-02  0.0000000000000E+00  0.1061100257014E-02
 0.1047347971234E-02 -0.5916100396804E-02  0.0000000000000E+00  0.1152584905004E-02
 0.1007908391983E-02 -0.5836592947149E-02  0.0000000000000E+00  0.1238274632599E-02
 0.9727134944279E-03 -0.5750997230599E-02  0.0000000000000E+00  0.1313945985818E-02
 0.9452159237531E-03 -0.5660088307484E-02  0.0000000000000E+00  0.1374096943588E-02
 0.9297837638664E-03 -0.5565176855538E-02  0.0000000000000E+00  0.1411908907509E-02
 0.9319256217182E-03 -0.5468311764702E-02  0.0000000000000E+00  0.1419334019458E-02
 0.9585292278459E-03 -0.5372523406097E-02  0.0000000000000E+00  0.1387383374956E-02
 0.1018084285531E-02 -0.5282117443978E-02  0.0000000000000E+00  0.1306754955332E-02
 0.1120810942390E-02 -0.5202934331190E-02  0.0000000000000E+00  0.1168843639382E-02
 0.1278610516003E-02 -0.5142461528940E-02  0.0000000000000E+00  0.9671523561211E-03
 0.1504724645532E-02 -0.5109747179363E-02  0.0000000000000E+00  0.6992835269565E-03
 0.1812891183262E-02 -0.5114949335176E-02  0.0000000000000E+00  0.3694782409955E-03
 0.2215750461337E-02 -0.5168282198095E-02  0.0000000000000E+00 -0.8695593535835E-05
 0.2722345438242E-02 -0.5278181007814E-02  0.0000000000000E+00 -0.4103494498134E-03
 0.3334829008822E-02 -0.5448728810645E-02  0.0000000000000E+00 -0.7992733055804E-03
 0.4045023983879E-02 -0.5676823449226E-02  0.0000000000000E+00 -0.1131386703757E-02
 0.4832175533133E-02 -0.5950142789148E-02  0.0000000000000E+00 -0.1362559169643E-02
 0.5663831324978E-02 -0.6247558451621E-02  0.0000000000000E+00 -0.1459851915114E-02
 0.6501561504531E-02 -0.6543603443423E-02  0.0000000000000E+00 -0.1411002031730E-02
 0.7308884569914E-02 -0.6814949543188E-02  0.0000000000000E+00 -0.1221895478657E-02
 0.8053027749100E-04 -0.5744488254114E-02  0.0000000000000E+00 -0.6859260536966E-03
 0.2417368266013E-03 -0.5843882986473E-02  0.0000000000000E+00 -0.6703830776168E-03
 0.4008361543750E-03 -0.5940132570096E-02  0.0000000000000E+00 -0.6325411075281E-03
 0.5531500736902E-03 -0.6029854332765E-02  0.0000000000000E+00 -0.5735348504531E-03
 0.6944294125450E-03 -0.6110108047740E-02  0.0000000000000E+00 -0.4964853594902E-03
 0.8213817375933E-03 -0.6178777972437E-02  0.0000000000000E+00 -0.4058446851325E-03
 0.9319116321296E-03 -0.6234709824421E-02  0.0000000000000E+00 -0.3064873619744E-03
 0.1025083477311E-02 -0.6277622774079E-02  0.0000000000000E+00 -0.2028939386262E-03
 0.1100906167524E-02 -0.6307888238003E-02  0.0000000000000E+00 -0.9862219065403E-04
 0.1160053566109E-02 -0.6326273725918E-02  0.0000000000000E+00  0.3903601136807E-05
 0.1203602885985E-02 -0.6333718425842E-02  0.0000000000000E+00  0.1033563099724E-03
 0.1232831167862E-02 -0.6331169151598E-02  0.0000000000000E+00  0.1993232215532E-03
 0.1249079108980E-02 -0.6319478398076E-02  0.0000000000000E+00  0.2920638832838E-03
 0.1253674030599E-02 -0.6299352700927E-02  0.0000000000000E+00  0.3822647762192E-03
 0.1247898118782E-02 -0.6271336418252E-02  0.0000000000000E+00  0.4708182547472E-03
 0.1232988889582E-02 -0.6235818254009E-02  0.0000000000000E+00  0.5586331747175E-03
 0.1210162049524E-02 -0.6193051557538E-02  0.0000000000000E+00  0.6464736558160E-03
 0.1180650814322E-02 -0.6143183670003E-02  0.0000000000000E+00  0.7348164232714E-03
 0.1145758730163E-02 -0.6086292195694E-02  0.0000000000000E+00  0.8237173370665E-03
 0.1106925747496E-02 -0.6022428748588E-02  0.0000000000000E+00  0.9126787424053E-03
 0.1065809730949E-02 -0.5951673748363E-02  0.0000000000000E+00  0.1000510848364E-02
 0.1024383184184E-02 -0.5874200880219E-02  0.0000000000000E+00  0.1085192971370E-02
 0.9850523771937E-03 -0.5790362348030E-02  0.0000000000000E+00  0.1163732276265E-02
 0.9507998481706E-03 -0.5700797410897E-02  0.0000000000000E+00  0.1232037338718E-02
 0.9253490295386E-03 -0.5606564323947E-02  0.0000000000000E+00  0.1284835972898E-02
 0.9133517308104E-03 -0.5509304147621E-02  0.0000000000000E+00  0.1315666934296E-02
 0.9205888199488E-03 -0.5411432287216E-02  0.0000000000000E+00  0.1317000607755E-02
 0.9541691764012E-03 -0.5316357007026E-02  0.0000000000000E+00  0.1280560566291E-02
 0.1022692582167E-02 -0.5228724735410E-02  0.0000000000000E+00  0.1197971560246E-02
 0.1136297508674E-02 -0.5154609148376E-02  0.0000000000000E+00  0.1061759401191E-02
 0.1306511437569E-02 -0.5101535907757E-02  0.0000000000000E+00  0.8667006853652E-03
 0.1545798480344E-02 -0.5078289402872E-02  0.0000000000000E+00  0.6116524482213E-03
 0.1866628176825E-02 -0.5094359237190E-02  0.0000000000000E+00  0.3017752985657E-03
 0.2279886028006E-02 -0.5158844731159E-02  0.0000000000000E+00 -0.4926743571210E-04
 0.2792556886546E-02 -0.5278717738887E-02  0.0000000000000E+00 -0.4179096445085E-03
 0.3404865401749E-02 -0.5456556458401E-02  0.0000000000000E+00 -0.7711721580749E-03
 0.4107514223841E-02 -0.5688238316367E-02  0.0000000000000E+00 -0.1070152843101E-02
 0.4880195850836E-02 -0.5961546074838E-02  0.0000000000000E+00 -0.1276976864250E-02
 0.5692824589557E-02 -0.6256964541162E-02  0.0000000000000E+00 -0.1363853529417E-02
 0.6510250880893E-02 -0.6551418420574E-02  0.0000000000000E+00 -0.1319769023805E-02
 0.7297753601048E-02 -0.6822742700661E-02  0.0000000000000E+00 -0.1148628780592E-02
 0.7887464669945E-04 -0.5740162365060E-02  0.0000000000000E+00 -0.6263901117180E-03
 0.2367046917563E-03 -0.5837544254447E-02  0.0000000000000E+00 -0.6122679895258E-03
 0.3924682108411E-03 -0.5931923121339E-02  0.0000000000000E+00 -0.5780407166962E-03
 0.5418061293922E-03 -0.6020124692988E-02  0.0000000000000E+00 -0.5246962869240E-03
 0.6807249595424E-03 -0.6099350472188E-02  0.0000000000000E+00 -0.4549066053035E-03
 0.8060556481371E-03 -0.6167512560079E-02  0.0000000000000E+00 -0.3725128412575E-03
 0.9156836660231E-03 -0.6223371980310E-02  0.0000000000000E+00 -0.2817792336937E-03
 0.1008546037551E-02 -0.6266486406131E-02  0.0000000000000E+00 -0.1866949731095E-03
 0.1084467745230E-02 -0.6297035273742E-02  0.0000000000000E+00 -0.9049674765838E-04
 0.1143929219765E-02 -0.6315602217564E-02  0.0000000000000E+00  0.4546091969621E-05
 0.1187836608975E-02 -0.6322973924154E-02  0.0000000000000E+00  0.9712982721773E-04
 0.1217334197165E-02 -0.6319984869594E-02  0.0000000000000E+00  0.1867766715787E-03
 0.1233672337953E-02 -0.6307414380871E-02  0.0000000000000E+00  0.2736308218646E-03
 0.1238127811499E-02 -0.6285929253964E-02  0.0000000000000E+00  0.3582415208201E-03
 0.1231966878085E-02 -0.6256060797170E-02  0.0000000000000E+00  0.4413607087008E-03
 0.1216440616765E-02 -0.6218205823347E-02  0.0000000000000E+00  0.5237650031799E-03
 0.1192804070871E-02 -0.6172643620060E-02  0.0000000000000E+00  0.6061011618297E-03
 0.1162353748279E-02 -0.6119564452903E-02  0.0000000000000E+00  0.6887478928824E-03
 0.1126480461525E-02 -0.6059107339974E-02  0.0000000000000E+00  0.7716864646296E-03
 0.1086736869411E-02 -0.5991407311678E-02  0.0000000000000E+00  0.8543731964108E-03
 0.1044921252795E-02 -0.5916655299133E-02  0.0000000000000E+00  0.9356083181553E-03
 0.1003176321002E-02 -0.5835168283972E-02  0.0000000000000E+00  0.1013407498074E-02
 0.9641090594518E-03 -0.5747480253634E-02  0.0000000000000E+00  0.1084874899176E-02
 0.9309309462416E-03 -0.5654455007158E-02  0.0000000000000E+00  0.1146095224394E-02
 0.9076152272536E-03 -0.5557418935540E-02  0.0000000000000E+00  0.1192073511177E-02
 0.8990695663528E-03 -0.5458320229708E-02  0.0000000000000E+00  0.1216751936268E-02
 0.9113113137129E-03 -0.5359907019898E-02  0.0000000000000E+00  0.1213156203423E-02
 0.9516267049025E-03 -0.5265919123631E-02  0.0000000000000E+00  0.1173738416555E-02
 0.1028676198352E-02 -0.5181284966906E-02  0.0000000000000E+00  0.1091027770852E-02
 0.1152468261502E-02 -0.5112243975853E-02  0.0000000000000E+00  0.9585991621570E-03
 0.1334122742114E-02 -0.5066293122139E-02  0.0000000000000E+00  0.7723401067860E-03
 0.1585330040069E-02 -0.5051905326603E-02  0.0000000000000E+00  0.5321056528038E-03
 0.1917364538299E-02 -0.5077901896039E-02  0.0000000000000E+00  0.2436388004267E-03
 0.2339530550562E-02 -0.5152347544939E-02  0.0000000000000E+00 -0.7965772168311E-04
 0.2857039585119E-02 -0.5280930306536E-02  0.0000000000000E+00 -0.4157931708845E-03
 0.3468547869938E-02 -0.5464985797391E-02  0.0000000000000E+00 -0.7350039623830E-03
 0.4163964276567E-02 -0.5699643019092E-02  0.0000000000000E+00 -0.1003124565936E-02
 0.4923521742284E-02 -0.5972915402491E-02  0.0000000000000E+00 -0.1187631371957E-02
 0.5719135074390E-02 -0.6266663065090E-02  0.0000000000000E+00 -0.1264893796834E-02
 0.6518252122068E-02 -0.6559659852741E-02  0.0000000000000E+00 -0.1225092809938E-02
 0.7287926609037E-02 -0.6830872392531E-02  0.0000000000000E+00 -0.1071279305216E-02
 0.7737905970079E-04 -0.5736287124124E-02  0.0000000000000E+00 -0.5680445419425E-03
 0.2321664237877E-03 -0.5831846377365E-02  0.0000000000000E+00 -0.5552901274653E-03
 0.3849266966309E-03 -0.5924522392883E-02  0.0000000000000E+00 -0.5244999643151E-03
 0.5315681781411E-03 -0.6011316016783E-02  0.0000000000000E+00 -0.4765369036255E-03
 0.6683169977871E-03 -0.6089552043226E-02  0.0000000000000E+00 -0.4136881315444E-03
 0.7921169845341E-03 -0.6157172976424E-02  0.0000000000000E+00 -0.3392609058446E-03
 0.9008470787207E-03 -0.6212874827530E-02  0.0000000000000E+00 -0.2569705665211E-03
 0.9933429421844E-03 -0.6256081485945E-02  0.0000000000000E+00 -0.1703468109167E-03
 0.1069274762620E-02 -0.6286807467341E-02  0.0000000000000E+00 -0.8230817299938E-04
 0.1128954765864E-02 -0.6305473713015E-02  0.0000000000000E+00  0.5048006883834E-05
 0.1173136369266E-02 -0.6312728180800E-02  0.0000000000000E+00  0.9046796281183E-04
 0.1202842465051E-02 -0.6309300277769E-02  0.0000000000000E+00  0.1734366722643E-03
 0.1219238831820E-02 -0.6295898830180E-02  0.0000000000000E+00  0.2540074957428E-03
 0.1223553595386E-02 -0.6273150872621E-02  0.0000000000000E+00  0.3326120727584E-03
 0.1217036556967E-02 -0.6241573419643E-02  0.0000000000000E+00  0.4098771302295E-03
 0.1200950414310E-02 -0.6201569851420E-02  0.0000000000000E+00  0.4864593037249E-03
 0.1176586754114E-02 -0.6153444008477E-02  0.0000000000000E+00  0.5628991851036E-03
 0.1145301924398E-02 -0.6097427941471E-02  0.0000000000000E+00  0.6394895235562E-03
 0.1108569789872E-02 -0.6033720998978E-02  0.0000000000000E+00  0.7161516863248E-03
 0.1068050397763E-02 -0.5962540175590E-02  0.0000000000000E+00  0.7923148002018E-03
 0.1025675468828E-02 -0.5884184438152E-02  0.0000000000000E+00  0.8667932272969E-03
 0.9837485682285E-03 -0.5799109705634E-02  0.0000000000000E+00  0.9376689572601E-03
 0.9450648150049E-03 -0.5708024399233E-02  0.0000000000000E+00  0.1002178793899E-02
 0.9130478805486E-03 -0.5612005178220E-02  0.0000000000000E+00  0.1056623590072E-02
 0.8918990004166E-03 -0.5512629032294E-02  0.0000000000000E+00  0.1096327192230E-02
 0.8867540422360E-03 -0.5412126209321E-02  0.0000000000000E+00  0.1115673419479E-02
 0.9038330921991E-03 -0.5313543358606E-02  0.0000000000000E+00  0.1108270325508E-02
 0.9505608060835E-03 -0.5220907611342E-02  0.0000000000000E+00  0.1067302754784E-02
 0.1035617710414E-02 -0.5139376610960E-02  0.0000000000000E+00  0.9861700834940E-03
 0.1168847488856E-02 -0.5075299242763E-02  0.0000000000000E+00  0.8594061022247E-03
 0.1360946581694E-02 -0.5036093847488E-02  0.0000000000000E+00  0.6838478786965E-03
 0.1622855249764E-02 -0.5029895430152E-02  0.0000000000000E+00  0.4601111423926E-03
 0.1964740780390E-02 -0.5064877770966E-02  0.0000000000000E+00  0.1942285784616E-03
 0.2394499613187E-02 -0.5148162218899E-02  0.0000000000000E+00 -0.1009442067055E-03
 0.2915828125696E-02 -0.5284323312997E-02  0.0000000000000E+00 -0.4051648954596E-03
 0.3526114960342E-02 -0.5473679428157E-02  0.0000000000000E+00 -0.6918111083488E-03
 0.4214716289947E-02 -0.5710817231798E-02  0.0000000000000E+00 -0.9310252804908E-03
 0.4962428570029E-02 -0.5984035749595E-02  0.0000000000000E+00 -0.1094890092345E-02
 0.5742851808427E-02 -0.6276350296565E-02  0.0000000000000E+00 -0.1163241830164E-02
 0.6525568457172E-02 -0.6568018881852E-02  0.0000000000000E+00 -0.1127457159420E-02
 0.7279399312414E-02 -0.6839127997622E-02  0.0000000000000E+00 -0.9902821665916E-03
 0.7603643080465E-04 -0.5732832810780E-02  0.0000000000000E+00 -0.5107740347548E-03
 0.2280983321080E-03 -0.5826752496112E-02  0.0000000000000E+00 -0.4993430980293E-03
 0.3781711648382E-03 -0.5917889988406E-02  0.0000000000000E+00 -0.4718426133587E-03
 0.5223868466948E-03 -0.6003392923204E-02  0.0000000000000E+00 -0.4290260848615E-03
 0.6571592578070E-03 -0.6080692578562E-02  0.0000000000000E+00 -0.3728476357824E-03
 0.7795339204699E-03 -0.6147762247940E-02  0.0000000000000E+00 -0.3061446460764E-03
 0.8873917597670E-03 -0.6203248217470E-02  0.0000000000000E+00 -0.2321369880502E-03
 0.9794880887441E-03 -0.6246463849023E-02  0.0000000000000E+00 -0.1539250369501E-03
 0.1055363403670E-02 -0.6277282740409E-02  0.0000000000000E+00 -0.7411504712035E-04
 0.1115184662240E-02 -0.6295983067053E-02  0.0000000000000E+00  0.5379745369571E-05
 0.1159570182122E-02 -0.6303088023872E-02  0.0000000000000E+00  0.8337713143242E-04
 0.1189433166119E-02 -0.6299230223189E-02  0.0000000000000E+00  0.1593488944830E-03
 0.1205861390075E-02 -0.6285051895945E-02  0.0000000000000E+00  0.2332796885508E-03
 0.1210037050995E-02 -0.6261141374788E-02  0.0000000000000E+00  0.3055020021778E-03
 0.1203193577425E-02 -0.6228000856791E-02  0.0000000000000E+00  0.3765321956810E-03
 0.1186603623499E-02 -0.6186039030063E-02  0.0000000000000E+00  0.4469192881668E-03
 0.1161592434157E-02 -0.6135582735918E-02  0.0000000000000E+00  0.5171091789601E-03
 0.1129572286716E-02 -0.6076904068153E-02  0.0000000000000E+00  0.5873209299820E-03
 0.1092095086372E-02 -0.6010260602828E-02  0.0000000000000E+00  0.6574306590926E-03
 0.1050921858566E-02 -0.5935948430993E-02  0.0000000000000E+00  0.7268586648752E-03
 0.1008109475556E-02 -0.5854370301916E-02  0.0000000000000E+00  0.7944564694530E-03
 0.9661115829634E-03 -0.5766114635089E-02  0.0000000000000E+00  0.8584004580969E-03
 0.9278974776639E-03 -0.5672054670689E-02  0.0000000000000E+00  0.9160927975492E-03
 0.8970851976090E-03 -0.5573465987545E-02  0.0000000000000E+00  0.9640863481386E-03
 0.8780817067865E-03 -0.5472156687908E-02  0.0000000000000E+00  0.9980597375704E-03
 0.8762241283147E-03 -0.5370612847503E-02  0.0000000000000E+00  0.1012869458783E-02
 0.8979040647950E-03 -0.5272145786166E-02  0.0000000000000E+00  0.1002724298165E-02
 0.9506508620384E-03 -0.5181028563293E-02  0.0000000000000E+00  0.9615366665952E-03
 0.1043133192962E-02 -0.5102601691845E-02  0.0000000000000E+00  0.8835336548025E-03
 0.1185007691556E-02 -0.5043278064157E-02  0.0000000000000E+00  0.7641142582216E-03
 0.1386547158749E-02 -0.5010362657960E-02  0.0000000000000E+00  0.6009101188395E-03
 0.1657980855376E-02 -0.5011643768655E-02  0.0000000000000E+00  0.3950827078332E-03
 0.2008466612553E-02 -0.5054683718693E-02  0.0000000000000E+00  0.1527042000525E-03
 0.2444661449978E-02 -0.5145757130131E-02  0.0000000000000E+00 -0.1141437658427E-03
 0.2968977485265E-02 -0.5288482821821E-02  0.0000000000000E+00 -0.3870784079464E-03
 0.3577784091194E-02 -0.5482351899233E-02  0.0000000000000E+00 -0.6425090811466E-03
 0.4260059580714E-02 -0.5721561124407E-02  0.0000000000000E+00 -0.8544930164845E-03
 0.4997147570251E-02 -0.5994708059633E-02  0.0000000000000E+00 -0.9991186176495E-03
 0.5764071614745E-02 -0.6285775824719E-02  0.0000000000000E+00 -0.1059189412650E-02
 0.6532216654535E-02 -0.6576252092998E-02  0.0000000000000E+00 -0.1027260428058E-02
 0.7272108921688E-02 -0.6847309651069E-02  0.0000000000000E+00 -0.9059927933498E-03
 0.7484097614651E-04 -0.5729775436288E-02  0.0000000000000E+00 -0.4544671392252E-03
 0.2244809813140E-03 -0.5822232752400E-02  0.0000000000000E+00 -0.4443228699246E-03
 0.3721681643258E-03 -0.5911993001486E-02  0.0000000000000E+00 -0.4199898619103E-03
 0.5142208426155E-03 -0.5996326384280E-02  0.0000000000000E+00 -0.3821237784305E-03
 0.6472124570894E-03 -0.6072755419835E-02  0.0000000000000E+00 -0.3323870918655E-03
 0.7682788246112E-03 -0.6139283086697E-02  0.0000000000000E+00 -0.2732004050081E-03
 0.8753082911099E-03 -0.6194517796308E-02  0.0000000000000E+00 -0.2073342020521E-03
 0.9669927726729E-03 -0.6237681931713E-02  0.0000000000000E+00 -0.1374873795347E-03
 0.1042764700678E-02 -0.6268529445161E-02  0.0000000000000E+00 -0.6596151631461E-04
 0.1102666545435E-02 -0.6287214368804E-02  0.0000000000000E+00  0.5522517893847E-05
 0.1147198322573E-02 -0.6294149033000E-02  0.0000000000000E+00  0.7587149736588E-04
 0.1177175350947E-02 -0.6289878222712E-02  0.0000000000000E+00  0.1445645800507E-03
 0.1193614547444E-02 -0.6274982449723E-02  0.0000000000000E+00  0.2115374416427E-03
 0.1197655567440E-02 -0.6250013298454E-02  0.0000000000000E+00  0.2770404711854E-03
 0.1190516062080E-02 -0.6215458237065E-02  0.0000000000000E+00  0.3414938445248E-03
 0.1173477209670E-02 -0.6171730239577E-02  0.0000000000000E+00  0.4053510995312E-03
 0.1147894931980E-02 -0.6119177431401E-02  0.0000000000000E+00  0.4689748502062E-03
 0.1115233100251E-02 -0.6058109644963E-02  0.0000000000000E+00  0.5325226170318E-03
 0.1077115920750E-02 -0.5988839636391E-02  0.0000000000000E+00  0.5958395433404E-03
 0.1035398003145E-02 -0.5911738424510E-02  0.0000000000000E+00  0.6583546616175E-03
 0.9922519178686E-03 -0.5827306672416E-02  0.0000000000000E+00  0.7189782834784E-03
 0.9502693827910E-03 -0.5736257006828E-02  0.0000000000000E+00  0.7760071017967E-03
 0.9125787855223E-03 -0.5639615899972E-02  0.0000000000000E+00  0.8270382800793E-03
 0.8829739183728E-03 -0.5538842025497E-02  0.0000000000000E+00  0.8689083889351E-03
 0.8660451165489E-03 -0.5435953632312E-02  0.0000000000000E+00  0.8976815035783E-03
 0.8673048754160E-03 -0.5333665792272E-02  0.0000000000000E+00  0.9087114097746E-03
 0.8932879316459E-03 -0.5235521588004E-02  0.0000000000000E+00  0.8968188323752E-03
 0.9515998952173E-03 -0.5146001948705E-02  0.0000000000000E+00  0.8566315793575E-03
 0.1050873963427E-02 -0.5070590434886E-02  0.0000000000000E+00  0.7831571547997E-03
 0.1200568733012E-02 -0.5015728653182E-02  0.0000000000000E+00  0.6725665816231E-03
 0.1410546258887E-02 -0.4988586814021E-02  0.0000000000000E+00  0.5231411621711E-03
 0.1690375890714E-02 -0.4996612057872E-02  0.0000000000000E+00  0.3363970491622E-03
 0.2048309117938E-02 -0.5046802282744E-02  0.0000000000000E+00  0.1182351048624E-03
 0.2489924253571E-02 -0.5144683404135E-02  0.0000000000000E+00 -0.1202137116006E-03
 0.3016553508130E-02 -0.5293062128746E-02  0.0000000000000E+00 -0.3624910833128E-03
 0.3623750346969E-02 -0.5490760444838E-02  0.0000000000000E+00 -0.5879122708371E-03
 0.4300240368320E-02 -0.5731696412812E-02  0.0000000000000E+00 -0.7741019229136E-03
 0.5027877134529E-02 -0.6004755953360E-02  0.0000000000000E+00 -0.9006738729583E-03
 0.5782891075192E-02 -0.6294734700682E-02  0.0000000000000E+00 -0.9530245445681E-03
 0.6538212315839E-02 -0.6584160739827E-02  0.0000000000000E+00 -0.9248359215561E-03
 0.7265961059688E-02 -0.6855230469493E-02  0.0000000000000E+00 -0.8187291850991E-03
 0.7378798676850E-04 -0.5727095728989E-02  0.0000000000000E+00 -0.3990155693665E-03
 0.2212984703265E-03 -0.5818263069255E-02  0.0000000000000E+00 -0.3901274000113E-03
 0.3668901212002E-03 -0.5906804764516E-02  0.0000000000000E+00 -0.3688609268360E-03
 0.5070357894986E-03 -0.5990092750956E-02  0.0000000000000E+00 -0.3357822957997E-03
 0.6384434661769E-03 -0.6065726992089E-02  0.0000000000000E+00 -0.2922954761430E-03
 0.7583279579479E-03 -0.6131738046100E-02  0.0000000000000E+00 -0.2404481268875E-03
 0.8645881487813E-03 -0.6186705621130E-02  0.0000000000000E+00 -0.1826007014362E-03
 0.9558662171627E-03 -0.6229777609691E-02  0.0000000000000E+00 -0.1210757504110E-03
 0.1031505180993E-02 -0.6260607195535E-02  0.0000000000000E+00 -0.5787859065645E-04
 0.1091441828986E-02 -0.6279241610764E-02  0.0000000000000E+00  0.5467655792693E-05
 0.1136073785482E-02 -0.6285995980700E-02  0.0000000000000E+00  0.6797267375268E-04
 0.1166130226483E-02 -0.6281336681676E-02  0.0000000000000E+00  0.1291404166598E-03
 0.1182564739569E-02 -0.6265788128407E-02  0.0000000000000E+00  0.1888749397281E-03
 0.1186478335326E-02 -0.6239867837859E-02  0.0000000000000E+00  0.2473600236435E-03
 0.1179073891705E-02 -0.6204049148395E-02  0.0000000000000E+00  0.3049329180008E-03
 0.1161639860945E-02 -0.6158748491556E-02  0.0000000000000E+00  0.3619632842615E-03
 0.1135559761130E-02 -0.6104333399414E-02  0.0000000000000E+00  0.4187414811853E-03
 0.1102344333826E-02 -0.6041148619881E-02  0.0000000000000E+00  0.4753751962925E-03
 0.1063683691496E-02 -0.5969558179179E-02  0.0000000000000E+00  0.5316921889016E-03
 0.1021517758105E-02 -0.5890002676381E-02  0.0000000000000E+00  0.5871466885154E-03
 0.9781243285440E-03 -0.5803073372332E-02  0.0000000000000E+00  0.6407277581354E-03
 0.9362201341820E-03 -0.5709597171631E-02  0.0000000000000E+00  0.6908759379567E-03
 0.8990766541584E-03 -0.5610740499187E-02  0.0000000000000E+00  0.7354098345979E-03
 0.8706442883520E-03 -0.5508127757834E-02  0.0000000000000E+00  0.7714773669912E-03
 0.8556745573793E-03 -0.5403965300135E-02  0.0000000000000E+00  0.7955538094965E-03
 0.8598307569628E-03 -0.5301170197398E-02  0.0000000000000E+00  0.8035092915396E-03
 0.8897653565069E-03 -0.5203485732698E-02  0.0000000000000E+00  0.7907819780211E-03
 0.9531369982139E-03 -0.5115566201838E-02  0.0000000000000E+00  0.7526981477520E-03
 0.1058527490070E-02 -0.5043004732556E-02  0.0000000000000E+00  0.6849965334421E-03
 0.1215196348659E-02 -0.4992245612246E-02  0.0000000000000E+00  0.5845307580496E-03
 0.1432618649589E-02 -0.4970314316985E-02  0.0000000000000E+00  0.4500994916191E-03
 0.1719763846265E-02 -0.4984333821768E-02  0.0000000000000E+00  0.2834066944932E-03
 0.2084082638317E-02 -0.5040792167557E-02  0.0000000000000E+00  0.9000675294896E-04
 0.2530226048487E-02 -0.5144563234638E-02  0.0000000000000E+00 -0.1200555410354E-03
 0.3058626205961E-02 -0.5297770844011E-02  0.0000000000000E+00 -0.3322783686558E-03
 0.3664186698490E-02 -0.5498698743502E-02  0.0000000000000E+00 -0.5287540709453E-03
 0.4335468953967E-02 -0.5741066895502E-02  0.0000000000000E+00 -0.6903756042530E-03
 0.5054788752690E-02 -0.6014027381618E-02  0.0000000000000E+00 -0.7998984722664E-03
 0.5799400594687E-02 -0.6303059055982E-02  0.0000000000000E+00 -0.8450204166773E-03
 0.6543564508703E-02 -0.6591578421044E-02  0.0000000000000E+00 -0.8204714685369E-03
 0.7260847251152E-02 -0.6862718472986E-02  0.0000000000000E+00 -0.7287944145847E-03
 0.7287364667628E-04 -0.5724778303287E-02  0.0000000000000E+00 -0.3443136238765E-03
 0.2185378508054E-03 -0.5814824150596E-02  0.0000000000000E+00 -0.3366563028820E-03
 0.3623144256705E-03 -0.5902303809316E-02  0.0000000000000E+00 -0.3183734847822E-03
 0.5008032519840E-03 -0.5984672915362E-02  0.0000000000000E+00 -0.2899477663857E-03
 0.6308245750845E-03 -0.6059596379230E-02  0.0000000000000E+00 -0.2525510463886E-03
 0.7496611592671E-03 -0.6125129578375E-02  0.0000000000000E+00 -0.2078939804506E-03
 0.8552238081454E-03 -0.6179830610410E-02  0.0000000000000E+00 -0.1579602291989E-03
 0.9461159714902E-03 -0.6222786860436E-02  0.0000000000000E+00 -0.1047182090664E-03
 0.1021607390678E-02 -0.6253567554316E-02  0.0000000000000E+00 -0.4988550634698E-04
 0.1081546211662E-02 -0.6272129264894E-02  0.0000000000000E+00  0.5215778938306E-05
 0.1126242694890E-02 -0.6278703231839E-02  0.0000000000000E+00  0.5970925999967E-04
 0.1156351439980E-02 -0.6273687111538E-02  0.0000000000000E+00  0.1131382717982E-03
 0.1172770476929E-02 -0.6257555404805E-02  0.0000000000000E+00  0.1653902984604E-03
 0.1176566451027E-02 -0.6230794822838E-02  0.0000000000000E+00  0.2165963294875E-03
 0.1168928792617E-02 -0.6193865590939E-02  0.0000000000000E+00  0.2670228084862E-03
 0.1151152116883E-02 -0.6147186922951E-02  0.0000000000000E+00  0.3169663339012E-03
 0.1124644358323E-02 -0.6091143725570E-02  0.0000000000000E+00  0.3666553842789E-03
 0.1090958055220E-02 -0.6026112368086E-02  0.0000000000000E+00  0.4161588047361E-03
 0.1051842249570E-02 -0.5952503461356E-02  0.0000000000000E+00  0.4652996013892E-03
 0.1009313141133E-02 -0.5870820785583E-02  0.0000000000000E+00  0.5135723046406E-03
 0.9657423947988E-03 -0.5781737605891E-02  0.0000000000000E+00  0.5600627967432E-03
 0.9239578153987E-03 -0.5686183755014E-02  0.0000000000000E+00  0.6033764723022E-03
 0.8873572553311E-03 -0.5585450901000E-02  0.0000000000000E+00  0.6415765964642E-03
 0.8600282456812E-03 -0.5481310574339E-02  0.0000000000000E+00  0.6721461578575E-03
 0.8468616716932E-03 -0.5376134444575E-02  0.0000000000000E+00  0.6919929088452E-03
 0.8536485056545E-03 -0.5273014746452E-02  0.0000000000000E+00  0.6975176688395E-03
 0.8871365259069E-03 -0.5175864988039E-02  0.0000000000000E+00  0.6847772560116E-03
 0.9550190897832E-03 -0.5089481905031E-02  0.0000000000000E+00  0.6497767710604E-03
 0.1065817678617E-02 -0.5019540658572E-02  0.0000000000000E+00  0.5889376293674E-03
 0.1228600275878E-02 -0.4972470412280E-02  0.0000000000000E+00  0.4997129200276E-03
 0.1452487587755E-02 -0.4955151565836E-02  0.0000000000000E+00  0.3813006812460E-03
 0.1745915658551E-02 -0.4974408857725E-02  0.0000000000000E+00  0.2354494983220E-03
 0.2115640256361E-02 -0.5036279944552E-02  0.0000000000000E+00  0.6722378165147E-04
 0.2565526712438E-02 -0.5145080317327E-02  0.0000000000000E+00 -0.1145201028626E-03
 0.3095265062839E-02 -0.5302366539257E-02  0.0000000000000E+00 -0.2972466913800E-03
 0.3699244733628E-02 -0.5505992430398E-02  0.0000000000000E+00 -0.4657024527144E-03
 0.4365924755520E-02 -0.5749538145896E-02  0.0000000000000E+00 -0.6037960722904E-03
 0.5078030216541E-02 -0.6022393721900E-02  0.0000000000000E+00 -0.6971177476549E-03
 0.5813680856596E-02 -0.6310611047511E-02  0.0000000000000E+00 -0.7354326940065E-03
 0.6548274992281E-02 -0.6598363940205E-02  0.0000000000000E+00 -0.7144250759217E-03
 0.7256656315858E-02 -0.6869618189489E-02  0.0000000000000E+00 -0.6364881865995E-03
 0.7209488635629E-04 -0.5722810980303E-02  0.0000000000000E+00 -0.2902576982678E-03
 0.2161886579949E-03 -0.5811900662318E-02  0.0000000000000E+00 -0.2838105597952E-03
 0.3584226880194E-03 -0.5898473007131E-02  0.0000000000000E+00 -0.2684440090693E-03
 0.4954999240577E-03 -0.5980051597191E-02  0.0000000000000E+00 -0.2445613251887E-03
 0.6243328566595E-03 -0.6054354929755E-02  0.0000000000000E+00 -0.2131232636007E-03
 0.7422615374835E-03 -0.6119460027734E-02  0.0000000000000E+00 -0.1755326472223E-03
 0.8472087821567E-03 -0.6173908868159E-02  0.0000000000000E+00 -0.1334240141294E-03
 0.9377482054664E-03 -0.6216740281816E-02  0.0000000000000E+00 -0.8843084144346E-04
 0.1013090313334E-02 -0.6247454595026E-02  0.0000000000000E+00 -0.4199112082748E-04
 0.1073010102835E-02 -0.6265932771355E-02  0.0000000000000E+00  0.4775858672965E-05
 0.1117744660859E-02 -0.6272335097112E-02  0.0000000000000E+00  0.5111625000538E-04
 0.1147885338894E-02 -0.6267000336657E-02  0.0000000000000E+00  0.9662480871356E-04
 0.1164282516249E-02 -0.6250359672461E-02  0.0000000000000E+00  0.1411852667938E-03
 0.1167973031727E-02 -0.6222872727380E-02  0.0000000000000E+00  0.1848878872794E-03
 0.1160134440392E-02 -0.6184987965296E-02  0.0000000000000E+00  0.2279391155466E-03
 0.1142066512156E-02 -0.6137126824464E-02  0.0000000000000E+00  0.2705722852052E-03
 0.1115198321454E-02 -0.6079689408763E-02  0.0000000000000E+00  0.3129634706404E-03
 0.1081118819588E-02 -0.6013079994859E-02  0.0000000000000E+00  0.3551526990314E-03
 0.1041628493882E-02 -0.5937750408314E-02  0.0000000000000E+00  0.3969696522148E-03
 0.9988101184720E-03 -0.5854260290229E-02  0.0000000000000E+00  0.4379626817482E-03
 0.9551171262154E-03 -0.5763355208970E-02  0.0000000000000E+00  0.4773304758533E-03
 0.9134737287362E-03 -0.5666055363408E-02  0.0000000000000E+00  0.5138616398578E-03
 0.8773868801043E-03 -0.5563761767015E-02  0.0000000000000E+00  0.5458840811174E-03
 0.8510615959881E-03 -0.5458373505593E-02  0.0000000000000E+00  0.5712358480122E-03
 0.8395067936915E-03 -0.5352404300465E-02  0.0000000000000E+00  0.5872744385378E-03
 0.8486194834169E-03 -0.5249095095168E-02  0.0000000000000E+00  0.5909418462112E-03
 0.8852231768054E-03 -0.5152501331799E-02  0.0000000000000E+00  0.5789117812240E-03
 0.9570321332702E-03 -0.5067534687256E-02  0.0000000000000E+00  0.5478475930875E-03
 0.1072504725437E-02 -0.4999930219864E-02  0.0000000000000E+00  0.4948075786604E-03
 0.1240532218048E-02 -0.4956091302151E-02  0.0000000000000E+00  0.4177693999462E-03
 0.1469920617021E-02 -0.4942760859023E-02  0.0000000000000E+00  0.3162277544410E-03
 0.1768643584662E-02 -0.4966498175704E-02  0.0000000000000E+00  0.1918553722379E-03
 0.2142866744112E-02 -0.5032952964827E-02  0.0000000000000E+00  0.4911095968912E-04
 0.2595801762542E-02 -0.5145972101720E-02  0.0000000000000E+00 -0.1044134841309E-03
 0.3126535742250E-02 -0.5306648319995E-02  0.0000000000000E+00 -0.2581448627734E-03
 0.3729055477315E-02 -0.5512495646130E-02  0.0000000000000E+00 -0.3993722284433E-03
 0.4391759792773E-02 -0.5756996559625E-02  0.0000000000000E+00 -0.5148104449971E-03
 0.5097727533693E-02 -0.6029747850820E-02  0.0000000000000E+00 -0.5926391462743E-03
 0.5825801189226E-02 -0.6317277502600E-02  0.0000000000000E+00 -0.6245007223400E-03
 0.6552339476652E-02 -0.6604397266783E-02  0.0000000000000E+00 -0.6069362959321E-03
 0.7253281823655E-02 -0.6875791869982E-02  0.0000000000000E+00 -0.5421124066544E-03
 0.7144926478906E-04 -0.5721184235498E-02  0.0000000000000E+00 -0.2367458724696E-03
 0.2142425336279E-03 -0.5809480565775E-02  0.0000000000000E+00 -0.2314922643038E-03
 0.3552001356501E-03 -0.5895298862373E-02  0.0000000000000E+00 -0.2189880336623E-03
 0.4911069592971E-03 -0.5976216743411E-02  0.0000000000000E+00 -0.1995600990406E-03
 0.6189496230612E-03 -0.6049995902473E-02  0.0000000000000E+00 -0.1739744343835E-03
 0.7361151849578E-03 -0.6114731585314E-02  0.0000000000000E+00 -0.1433493380256E-03
 0.8405376168183E-03 -0.6168953913842E-02  0.0000000000000E+00 -0.1089928139640E-03
 0.9307679245242E-03 -0.6211663494817E-02  0.0000000000000E+00 -0.7221955476100E-04
 0.1005969702376E-02 -0.6242305357052E-02  0.0000000000000E+00 -0.3419532115735E-04
 0.1065858974927E-02 -0.6260698948047E-02  0.0000000000000E+00  0.4164204823534E-05
 0.1110613086472E-02 -0.6266946140668E-02  0.0000000000000E+00  0.4223434033300E-04
 0.1140771204464E-02 -0.6261336685445E-02  0.0000000000000E+00  0.7967100922961E-04
 0.1157144024333E-02 -0.6244265337503E-02  0.0000000000000E+00  0.1163648633310E-03
 0.1160743334792E-02 -0.6216168699225E-02  0.0000000000000E+00  0.1523756991827E-03
 0.1152736572670E-02 -0.6177485087508E-02  0.0000000000000E+00  0.1878593188263E-03
 0.1134427727280E-02 -0.6128637694043E-02  0.0000000000000E+00  0.2229943855295E-03
 0.1107263645989E-02 -0.6070039509545E-02  0.0000000000000E+00  0.2579129367870E-03
 0.1072864040781E-02 -0.6002118638297E-02  0.0000000000000E+00  0.2926350252977E-03
 0.1033072926795E-02 -0.5925362160146E-02  0.0000000000000E+00  0.3270070269937E-03
 0.9900293912027E-03 -0.5840377467837E-02  0.0000000000000E+00  0.3606428614449E-03
 0.9462559110404E-03 -0.5747971792190E-02  0.0000000000000E+00  0.3928677767703E-03
 0.9047578508567E-03 -0.5649242122768E-02  0.0000000000000E+00  0.4226692110013E-03
 0.8691335801578E-03 -0.5545681953227E-02  0.0000000000000E+00  0.4486564946190E-03
 0.8436858979031E-03 -0.5439297606940E-02  0.0000000000000E+00  0.4690391974056E-03
 0.8335209673333E-03 -0.5332721313793E-02  0.0000000000000E+00  0.4816382730984E-03
 0.8446216320724E-03 -0.5229316778764E-02  0.0000000000000E+00  0.4839442981847E-03
 0.8838701753277E-03 -0.5133254745627E-02  0.0000000000000E+00  0.4732443179532E-03
 0.9589919391423E-03 -0.5049537477795E-02  0.0000000000000E+00  0.4468399804765E-03
 0.1078384689881E-02 -0.4983942536015E-02  0.0000000000000E+00  0.4023851251826E-03
 0.1250783797806E-02 -0.4942842866110E-02  0.0000000000000E+00  0.3383167853551E-03
 0.1484725760431E-02 -0.4932857938450E-02  0.0000000000000E+00  0.2543394093941E-03
 0.1787795952328E-02 -0.4960319516496E-02  0.0000000000000E+00  0.1519508558306E-03
 0.2165672795185E-02 -0.5030553417103E-02  0.0000000000000E+00  0.3491257884380E-04
 0.2621037532584E-02 -0.5147023574972E-02  0.0000000000000E+00 -0.9050317889719E-04
 0.3152497733260E-02 -0.5310451838812E-02  0.0000000000000E+00 -0.2156741347686E-03
 0.3753730101786E-02 -0.5518088249120E-02  0.0000000000000E+00 -0.3303350475756E-03
 0.4413101097115E-02 -0.5763348055403E-02  0.0000000000000E+00 -0.4238365767247E-03
 0.5113986255902E-02 -0.6036002012808E-02  0.0000000000000E+00 -0.4867533408784E-03
 0.5835819200046E-02 -0.6322966079470E-02  0.0000000000000E+00 -0.5124503067480E-03
 0.6555749614455E-02 -0.6609577294351E-02  0.0000000000000E+00 -0.4982340183228E-03
 0.7250626940297E-02 -0.6881120368966E-02  0.0000000000000E+00 -0.4459736385418E-03
 0.7093487683847E-04 -0.5719890754196E-02  0.0000000000000E+00 -0.1836775590240E-03
 0.2126929263176E-03 -0.5807554581033E-02  0.0000000000000E+00 -0.1796043984345E-03
 0.3526351304692E-03 -0.5892770939640E-02  0.0000000000000E+00 -0.1699203631169E-03
 0.4876094263281E-03 -0.5973159031425E-02  0.0000000000000E+00 -0.1548780370051E-03
 0.6146599712496E-03 -0.6046514157712E-02  0.0000000000000E+00 -0.1350611312575E-03
 0.7312109213750E-03 -0.6110946224337E-02  0.0000000000000E+00 -0.1113215864074E-03
 0.8352058616379E-03 -0.6164976842064E-02  0.0000000000000E+00 -0.8465879254131E-04
 0.9251791240369E-03 -0.6207577452111E-02  0.0000000000000E+00 -0.5608179097527E-04
 0.1000258340675E-02 -0.6238150208480E-02  0.0000000000000E+00 -0.2649043090382E-04
 0.1060113649969E-02 -0.6256466327099E-02  0.0000000000000E+00  0.3403399211122E-05
 0.1104875425606E-02 -0.6262581441014E-02  0.0000000000000E+00  0.3310916025002E-04
 0.1135041454769E-02 -0.6256746160171E-02  0.0000000000000E+00  0.6235161979055E-04
 0.1151390726992E-02 -0.6239325908939E-02  0.0000000000000E+00  0.9103695523952E-04
 0.1154914872196E-02 -0.6210738600167E-02  0.0000000000000E+00  0.1192029185410E-03
 0.1146773100412E-02 -0.6171414219205E-02  0.0000000000000E+00  0.1469624595955E-03
 0.1128272734425E-02 -0.6121777302212E-02  0.0000000000000E+00  0.1744468068793E-03
 0.1100874946299E-02 -0.6062251299407E-02  0.0000000000000E+00  0.2017510434854E-03
 0.1066224330488E-02 -0.5993283753971E-02  0.0000000000000E+00  0.2288827287386E-03
 0.1026200152919E-02 -0.5915390545209E-02  0.0000000000000E+00  0.2557133652548E-03
 0.9829870924716E-03 -0.5829218051897E-02  0.0000000000000E+00  0.2819322573922E-03
 0.9391634429957E-03 -0.5735623751402E-02  0.0000000000000E+00  0.3070026142336E-03
 0.8978000054913E-03 -0.5635767023885E-02  0.0000000000000E+00  0.3301235378618E-03
 0.8625685771514E-03 -0.5531216209935E-02  0.0000000000000E+00  0.3501994068517E-03
 0.8378500597982E-03 -0.5424063995498E-02  0.0000000000000E+00  0.3658244484788E-03
 0.8288276234448E-03 -0.5317037439681E-02  0.0000000000000E+00  0.3752936471439E-03
 0.8415510485540E-03 -0.5213597612016E-02  0.0000000000000E+00  0.3766512005468E-03
 0.8829467229507E-03 -0.5118005455544E-02  0.0000000000000E+00  0.3677931573569E-03
 0.9607446622040E-03 -0.5035332220215E-02  0.0000000000000E+00  0.3466414284307E-03
 0.1083288921008E-02 -0.4971384588771E-02  0.0000000000000E+00  0.3114098846871E-03
 0.1259184633283E-02 -0.4932505387819E-02  0.0000000000000E+00  0.2609404716404E-03
 0.1496748197679E-02 -0.4925209708119E-02  0.0000000000000E+00  0.1950764615615E-03
 0.1803252779657E-02 -0.4955643499367E-02  0.0000000000000E+00  0.1150619892016E-03
 0.2183990401955E-02 -0.5028873444881E-02  0.0000000000000E+00  0.2389073938058E-04
 0.2641227479009E-02 -0.5148062330842E-02  0.0000000000000E+00 -0.7352429256025E-04
 0.3173202668497E-02 -0.5313645416061E-02  0.0000000000000E+00 -0.1704971259063E-03
 0.3773360506186E-02 -0.5522673525401E-02  0.0000000000000E+00 -0.2591278221984E-03
 0.4430052426137E-02 -0.5768516694394E-02  0.0000000000000E+00 -0.3312681102891E-03
 0.5126892556226E-02 -0.6041085884272E-02  0.0000000000000E+00 -0.3797363058246E-03
 0.5843781164741E-02 -0.6327602620436E-02  0.0000000000000E+00 -0.3994967480516E-03
 0.6558495051050E-02 -0.6613820625176E-02  0.0000000000000E+00 -0.3885415035937E-03
 0.7248607698802E-02 -0.6885503773715E-02  0.0000000000000E+00 -0.3483837409847E-03
 0.7055027957875E-04 -0.5718925080352E-02  0.0000000000000E+00 -0.1309531996194E-03
 0.2115348564383E-03 -0.5806115762485E-02  0.0000000000000E+00 -0.1280506349541E-03
 0.3507187881981E-03 -0.5890881407893E-02  0.0000000000000E+00 -0.1211552444857E-03
 0.4849958740119E-03 -0.5970871467387E-02  0.0000000000000E+00 -0.1104466236071E-03
 0.6114524116115E-03 -0.6043905897426E-02  0.0000000000000E+00 -0.9633544140793E-04
 0.7275400733705E-03 -0.6108105629345E-02  0.0000000000000E+00 -0.7942086499459E-04
 0.8312100276512E-03 -0.6161986430907E-02  0.0000000000000E+00 -0.6040726033090E-04
 0.9209848972157E-03 -0.6204498670352E-02  0.0000000000000E+00 -0.4000816814406E-04
 0.9959662391843E-03 -0.6235013129487E-02  0.0000000000000E+00 -0.1886260853821E-04
 0.1055790527102E-02 -0.6253265424700E-02  0.0000000000000E+00  0.2521191870941E-05
 0.1100553393483E-02 -0.6259276805921E-02  0.0000000000000E+00  0.2379044236199E-04
 0.1130721815589E-02 -0.6253268582143E-02  0.0000000000000E+00  0.4474453735358E-04
 0.1147051039023E-02 -0.6235584081678E-02  0.0000000000000E+00  0.6531179181786E-04
 0.1150517514533E-02 -0.6206627049983E-02  0.0000000000000E+00  0.8551447669432E-04
 0.1142274211189E-02 -0.6166821104846E-02  0.0000000000000E+00  0.1054288319279E-03
 0.1123630931098E-02 -0.6116591760321E-02  0.0000000000000E+00  0.1251444038194E-03
 0.1096059653820E-02 -0.6056370400891E-02  0.0000000000000E+00  0.1447249760181E-03
 0.1061223796058E-02 -0.5986619369993E-02  0.0000000000000E+00  0.1641715854411E-03
 0.1021029311139E-02 -0.5907876494736E-02  0.0000000000000E+00  0.1833875659609E-03
 0.9776953850744E-03 -0.5820817850419E-02  0.0000000000000E+00  0.2021453681785E-03
 0.9338425084796E-03 -0.5726339130902E-02  0.0000000000000E+00  0.2200551180932E-03
 0.8925908506305E-03 -0.5625647061166E-02  0.0000000000000E+00  0.2365375867600E-03
 0.8576674373480E-03 -0.5520366607421E-02  0.0000000000000E+00  0.2508027238368E-03
 0.8335116541535E-03 -0.5412655540687E-02  0.0000000000000E+00  0.2618394120894E-03
 0.8253639368243E-03 -0.5305312024813E-02  0.0000000000000E+00  0.2684244777052E-03
 0.8393232255777E-03 -0.5201869621059E-02  0.0000000000000E+00  0.2691590085710E-03
 0.8823472549515E-03 -0.5106655687745E-02  0.0000000000000E+00  0.2625437981580E-03
 0.9621670807123E-03 -0.5024791147460E-02  0.0000000000000E+00  0.2471059388567E-03
 0.1087083437060E-02 -0.4962101667448E-02  0.0000000000000E+00  0.2215907021241E-03
 0.1265600622494E-02 -0.4924904150608E-02  0.0000000000000E+00  0.1852019663931E-03
 0.1505867463142E-02 -0.4919632224870E-02  0.0000000000000E+00  0.1378668640956E-03
 0.1814922214228E-02 -0.4952290420225E-02  0.0000000000000E+00  0.8051589902341E-04
 0.2197769220236E-02 -0.5027751231226E-02  0.0000000000000E+00  0.1532287791789E-04
 0.2656369378610E-02 -0.5148954720415E-02  0.0000000000000E+00 -0.5418566163023E-04
 0.3188693107619E-02 -0.5316127038248E-02  0.0000000000000E+00 -0.1232458635946E-03
 0.3788019755557E-02 -0.5526176318054E-02  0.0000000000000E+00 -0.1862600925517E-03
 0.4442695497729E-02 -0.5772443390855E-02  0.0000000000000E+00 -0.2374792019674E-03
 0.5136514153027E-02 -0.6044944980534E-02  0.0000000000000E+00 -0.2718518664546E-03
 0.5849722756209E-02 -0.6331129374889E-02  0.0000000000000E+00 -0.2858475984819E-03
 0.6560565271145E-02 -0.6617060931654E-02  0.0000000000000E+00 -0.2780794339860E-03
 0.7247155066946E-02 -0.6888861813407E-02  0.0000000000000E+00 -0.2496595163357E-03
 0.7029443694894E-04 -0.5718283347466E-02  0.0000000000000E+00 -0.7847399948688E-04
 0.2107647377027E-03 -0.5805159173639E-02  0.0000000000000E+00 -0.7673516202207E-04
 0.3494446881246E-03 -0.5889624689501E-02  0.0000000000000E+00 -0.7260651423229E-04
 0.4832579965486E-03 -0.5969349073026E-02  0.0000000000000E+00 -0.6619550726879E-04
 0.6093185768770E-03 -0.6042168456398E-02  0.0000000000000E+00 -0.5774608758556E-04
 0.7250962953864E-03 -0.6106211129886E-02  0.0000000000000E+00 -0.4761406675464E-04
 0.8285475443471E-03 -0.6159989213788E-02  0.0000000000000E+00 -0.3621830776904E-04
 0.9181875095957E-03 -0.6202439400926E-02  0.0000000000000E+00 -0.2398406227416E-04
 0.9931007856657E-03 -0.6232911927516E-02  0.0000000000000E+00 -0.1129323487027E-04
 0.1052901758371E-02 -0.6251118950781E-02  0.0000000000000E+00  0.1549372420015E-05
 0.1097663133395E-02 -0.6257058943443E-02  0.0000000000000E+00  0.1433115078896E-04
 0.1127831459249E-02 -0.6250933711159E-02  0.0000000000000E+00  0.2693015243492E-04
 0.1144146173194E-02 -0.6233071809206E-02  0.0000000000000E+00  0.3930150791831E-04
 0.1147573581205E-02 -0.6203867469835E-02  0.0000000000000E+00  0.5145670101794E-04
 0.1139262460225E-02 -0.6163740011320E-02  0.0000000000000E+00  0.6343969188372E-04
 0.1120524256712E-02 -0.6113115586441E-02  0.0000000000000E+00  0.7530251984070E-04
 0.1092838186392E-02 -0.6052430912642E-02  0.0000000000000E+00  0.8708178638980E-04
 0.1057880290729E-02 -0.5982158305941E-02  0.0000000000000E+00  0.9877635239974E-04
 0.1017574433111E-02 -0.5902850391299E-02  0.0000000000000E+00  0.1103262497795E-03
 0.9741629526273E-03 -0.5815203259007E-02  0.0000000000000E+00  0.1215926860751E-03
 0.9302946283386E-03 -0.5720138332558E-02  0.0000000000000E+00  0.1323391471795E-03
 0.8891226769721E-03 -0.5618894160361E-02  0.0000000000000E+00  0.1422152303398E-03
 0.8544110133693E-03 -0.5513133687873E-02  0.0000000000000E+00  0.1507439291848E-03
 0.8306379600130E-03 -0.5405058217724E-02  0.0000000000000E+00  0.1573158010553E-03
 0.8230818866344E-03 -0.5297513297864E-02  0.0000000000000E+00  0.1611948658123E-03
 0.8378739980334E-03 -0.5194080550278E-02  0.0000000000000E+00  0.1615410833752E-03
 0.8819920905140E-03 -0.5099131007319E-02  0.0000000000000E+00  0.1574564720200E-03
 0.9631667331923E-03 -0.5017817710023E-02  0.0000000000000E+00  0.1480619747377E-03
 0.1089668338990E-02 -0.4955977618616E-02  0.0000000000000E+00  0.1326132880272E-03
 0.1269932501920E-02 -0.4919908779603E-02  0.0000000000000E+00  0.1106452195825E-03
 0.1511995187308E-02 -0.4915989034564E-02  0.0000000000000E+00  0.8212964695581E-04
 0.1822737743866E-02 -0.4950127708115E-02  0.0000000000000E+00  0.4764144426003E-04
 0.2206973795159E-02 -0.5027067971647E-02  0.0000000000000E+00  0.8498786649380E-05
 0.2666463246576E-02 -0.5149602932243E-02  0.0000000000000E+00 -0.3317585797435E-04
 0.3199001658706E-02 -0.5317822085507E-02  0.0000000000000E+00 -0.7452918773082E-04
 0.3797762394510E-02 -0.5528541544922E-02  0.0000000000000E+00 -0.1122207123322E-03
 0.4451090877431E-02 -0.5775084817359E-02  0.0000000000000E+00 -0.1428290737120E-03
 0.5142901091056E-02 -0.6047539433703E-02  0.0000000000000E+00 -0.1633544625341E-03
 0.5853669855180E-02 -0.6333503837206E-02  0.0000000000000E+00 -0.1717050188942E-03
 0.6561951091162E-02 -0.6619248630342E-02  0.0000000000000E+00 -0.1670676336196E-03
 0.7246216318979E-02 -0.6891134113442E-02  0.0000000000000E+00 -0.1501219352961E-03
 0.7016667975967E-04 -0.5717963083430E-02  0.0000000000000E+00 -0.2614168985523E-04
 0.2103802484988E-03 -0.5804681651154E-02  0.0000000000000E+00 -0.2556252413814E-04
 0.3488086630991E-03 -0.5888997204698E-02  0.0000000000000E+00 -0.2418772678938E-04
 0.4823903893021E-03 -0.5968588655376E-02  0.0000000000000E+00 -0.2205306607237E-04
 0.6082530069390E-03 -0.6041300145180E-02  0.0000000000000E+00 -0.1923945343759E-04
 0.7238754334212E-03 -0.6105263645287E-02  0.0000000000000E+00 -0.1586488351677E-04
 0.8272167215805E-03 -0.6158989524766E-02  0.0000000000000E+00 -0.1206835491177E-04
 0.9167884476051E-03 -0.6201407749068E-02  0.0000000000000E+00 -0.7991140251198E-05
 0.9916668497065E-03 -0.6231858391544E-02  0.0000000000000E+00 -0.3760288299390E-05
 0.1051455376171E-02 -0.6250041962068E-02  0.0000000000000E+00  0.5226253451118E-06
 0.1096215339865E-02 -0.6255945588908E-02  0.0000000000000E+00  0.4786578121765E-05
 0.1126383109048E-02 -0.6249761336168E-02  0.0000000000000E+00  0.8990658683858E-05
 0.1142690223904E-02 -0.6231810360772E-02  0.0000000000000E+00  0.1311960173941E-04
 0.1146097911080E-02 -0.6202482118542E-02  0.0000000000000E+00  0.1717692200848E-04
 0.1137752842463E-02 -0.6162193762088E-02  0.0000000000000E+00  0.2117697474271E-04
 0.1118967284404E-02 -0.6111371759851E-02  0.0000000000000E+00  0.2513682366834E-04
 0.1091224080205E-02 -0.6050455508955E-02  0.0000000000000E+00  0.2906838961927E-04
 0.1056205606735E-02 -0.5979922343520E-02  0.0000000000000E+00  0.3297099771712E-04
 0.1015844717895E-02 -0.5900332337258E-02  0.0000000000000E+00  0.3682432898533E-04
 0.9723953736249E-03 -0.5812391653085E-02  0.0000000000000E+00  0.4058174082608E-04
 0.9285205440119E-03 -0.5717034654658E-02  0.0000000000000E+00  0.4416396271556E-04
 0.8873900094217E-03 -0.5615515879637E-02  0.0000000000000E+00  0.4745371603176E-04
 0.8527861491266E-03 -0.5509517330794E-02  0.0000000000000E+00  0.5029150360719E-04
 0.8292067368910E-03 -0.5401262117504E-02  0.0000000000000E+00  0.5247371843295E-04
 0.8219490344080E-03 -0.5293619471862E-02  0.0000000000000E+00  0.5375469254679E-04
 0.8371602238076E-03 -0.5190194963307E-02  0.0000000000000E+00  0.5385430434987E-04
 0.8818278792257E-03 -0.5095381277370E-02  0.0000000000000E+00  0.5247349328943E-04
 0.9636819712309E-03 -0.5014347212946E-02  0.0000000000000E+00  0.4932003272090E-04
 0.1090977320955E-02 -0.4952934967285E-02  0.0000000000000E+00  0.4414725391480E-04
 0.1272114730621E-02 -0.4917432689415E-02  0.0000000000000E+00  0.3680217834606E-04
 0.1515073400240E-02 -0.4914189891613E-02  0.0000000000000E+00  0.2727802786939E-04
 0.1826656147058E-02 -0.4949068029097E-02  0.0000000000000E+00  0.1576917267801E-04
 0.2211581564135E-02 -0.5026745664019E-02  0.0000000000000E+00  0.2717290351950E-05
 0.2671509869507E-02 -0.5149942889874E-02  0.0000000000000E+00 -0.1116907424192E-04
 0.3204150374778E-02 -0.5318681694182E-02  0.0000000000000E+00 -0.2493968252493E-04
 0.3802624669257E-02 -0.5529733094759E-02  0.0000000000000E+00 -0.3748405450593E-04
 0.4455278606418E-02 -0.5776412562260E-02  0.0000000000000E+00 -0.4766639761061E-04
 0.5146086366980E-02 -0.6048843123314E-02  0.0000000000000E+00 -0.5449190213053E-04
 0.5855639271350E-02 -0.6334698017347E-02  0.0000000000000E+00 -0.5726767453612E-04
 0.6562645776113E-02 -0.6620350722536E-02  0.0000000000000E+00 -0.5572587046265E-04
 0.7245755893416E-02 -0.6892280353226E-02  0.0000000000000E+00 -0.5009506954867E-04
 0.7016667976051E-04 -0.5717963083497E-02  0.0000000000000E+00  0.2614169007745E-04
 0.2103802485028E-03 -0.5804681651225E-02  0.0000000000000E+00  0.2556252505193E-04
 0.3488086631088E-03 -0.5888997204773E-02  0.0000000000000E+00  0.2418772830622E-04
 0.4823903893197E-03 -0.5968588655457E-02  0.0000000000000E+00  0.2205306806053E-04
 0.6082530069663E-03 -0.6041300145268E-02  0.0000000000000E+00  0.1923945572994E-04
 0.7238754334590E-03 -0.6105263645381E-02  0.0000000000000E+00  0.1586488592180E-04
 0.8272167216290E-03 -0.6158989524868E-02  0.0000000000000E+00  0.1206835722593E-04
 0.9167884476640E-03 -0.6201407749176E-02  0.0000000000000E+00  0.7991142270264E-05
 0.9916668497751E-03 -0.6231858391659E-02  0.0000000000000E+00  0.3760289826932E-05
 0.1051455376248E-02 -0.6250041962190E-02  0.0000000000000E+00 -0.5226244927936E-06
 0.1096215339951E-02 -0.6255945589038E-02  0.0000000000000E+00 -0.4786578114008E-05
 0.1126383109143E-02 -0.6249761336307E-02  0.0000000000000E+00 -0.8990659677355E-05
 0.1142690224008E-02 -0.6231810360923E-02  0.0000000000000E+00 -0.1311960388128E-04
 0.1146097911193E-02 -0.6202482118707E-02  0.0000000000000E+00 -0.1717692544038E-04
 0.1137752842587E-02 -0.6162193762271E-02  0.0000000000000E+00 -0.2117697960406E-04
 0.1118967284539E-02 -0.6111371760057E-02  0.0000000000000E+00 -0.2513683009869E-04
 0.1091224080352E-02 -0.6050455509188E-02  0.0000000000000E+00 -0.2906839775774E-04
 0.1056205606895E-02 -0.5979922343784E-02  0.0000000000000E+00 -0.3297100769911E-04
 0.1015844718068E-02 -0.5900332337558E-02  0.0000000000000E+00 -0.3682434093563E-04
 0.9723953738085E-03 -0.5812391653423E-02  0.0000000000000E+00 -0.4058175484750E-04
 0.9285205442031E-03 -0.5717034655037E-02  0.0000000000000E+00 -0.4416397887255E-04
 0.8873900096150E-03 -0.5615515880058E-02  0.0000000000000E+00 -0.4745373432857E-04
 0.8527861493137E-03 -0.5509517331254E-02  0.0000000000000E+00 -0.5029152396085E-04
 0.8292067370605E-03 -0.5401262117999E-02  0.0000000000000E+00 -0.5247374064174E-04
 0.8219490345448E-03 -0.5293619472383E-02  0.0000000000000E+00 -0.5375471625527E-04
 0.8371602238934E-03 -0.5190194963841E-02  0.0000000000000E+00 -0.5385432901345E-04
 0.8818278792393E-03 -0.5095381277900E-02  0.0000000000000E+00 -0.5247351814441E-04
 0.9636819711493E-03 -0.5014347213450E-02  0.0000000000000E+00 -0.4932005676619E-04
 0.1090977320756E-02 -0.4952934967740E-02  0.0000000000000E+00 -0.4414727591687E-04
 0.1272114730286E-02 -0.4917432689796E-02  0.0000000000000E+00 -0.3680219687288E-04
 0.1515073399757E-02 -0.4914189891898E-02  0.0000000000000E+00 -0.2727804136218E-04
 0.1826656146428E-02 -0.4949068029269E-02  0.0000000000000E+00 -0.1576917957569E-04
 0.2211581563377E-02 -0.5026745664072E-02  0.0000000000000E+00 -0.2717289267873E-05
 0.2671509868658E-02 -0.5149942889816E-02  0.0000000000000E+00  0.1116908429993E-04
 0.3204150373896E-02 -0.5318681694032E-02  0.0000000000000E+00  0.2493970191841E-04
 0.3802624668415E-02 -0.5529733094548E-02  0.0000000000000E+00  0.3748408276039E-04
 0.4455278605696E-02 -0.5776412562027E-02  0.0000000000000E+00  0.4766643329118E-04
 0.5146086366454E-02 -0.6048843123093E-02  0.0000000000000E+00  0.5449194285456E-04
 0.5855639271072E-02 -0.6334698017158E-02  0.0000000000000E+00  0.5726771715064E-04
 0.6562645776103E-02 -0.6620350722376E-02  0.0000000000000E+00  0.5572591138508E-04
 0.7245755893653E-02 -0.6892280353066E-02  0.0000000000000E+00  0.5009510522513E-04
 0.7029443695147E-04 -0.5718283347668E-02  0.0000000000000E+00  0.7847399971120E-04
 0.2107647377146E-03 -0.5805159173851E-02  0.0000000000000E+00  0.7673516293888E-04
 0.3494446881536E-03 -0.5889624689727E-02  0.0000000000000E+00  0.7260651575297E-04
 0.4832579966016E-03 -0.5969349073269E-02  0.0000000000000E+00  0.6619550926125E-04
 0.6093185769588E-03 -0.6042168456660E-02  0.0000000000000E+00  0.5774608988229E-04
 0.7250962954998E-03 -0.6106211130170E-02  0.0000000000000E+00  0.4761406916380E-04
 0.8285475444928E-03 -0.6159989214091E-02  0.0000000000000E+00  0.3621831008706E-04
 0.9181875097724E-03 -0.6202439401250E-02  0.0000000000000E+00  0.2398406429703E-04
 0.9931007858715E-03 -0.6232911927860E-02  0.0000000000000E+00  0.1129323640209E-04
 0.1052901758604E-02 -0.6251118951146E-02  0.0000000000000E+00 -0.1549371562035E-05
 0.1097663133654E-02 -0.6257058943831E-02  0.0000000000000E+00 -0.1433115077319E-04
 0.1127831459532E-02 -0.6250933711575E-02  0.0000000000000E+00 -0.2693015341701E-04
 0.1144146173504E-02 -0.6233071809656E-02  0.0000000000000E+00 -0.3930151004430E-04
 0.1147573581544E-02 -0.6203867470329E-02  0.0000000000000E+00 -0.5145670442855E-04
 0.1139262460595E-02 -0.6163740011870E-02  0.0000000000000E+00 -0.6343969671771E-04
 0.1120524257116E-02 -0.6113115587057E-02  0.0000000000000E+00 -0.7530252623703E-04
 0.1092838186833E-02 -0.6052430913339E-02  0.0000000000000E+00 -0.8708179448733E-04
 0.1057880291209E-02 -0.5982158306732E-02  0.0000000000000E+00 -0.9877636233413E-04
 0.1017574433629E-02 -0.5902850392196E-02  0.0000000000000E+00 -0.1103262616763E-03
 0.9741629531778E-03 -0.5815203260021E-02  0.0000000000000E+00 -0.1215927000387E-03
 0.9302946289123E-03 -0.5720138333695E-02  0.0000000000000E+00 -0.1323391632760E-03
 0.8891226775523E-03 -0.5618894161624E-02  0.0000000000000E+00 -0.1422152485767E-03
 0.8544110139314E-03 -0.5513133689255E-02  0.0000000000000E+00 -0.1507439494835E-03
 0.8306379605227E-03 -0.5405058219210E-02  0.0000000000000E+00 -0.1573158232194E-03
 0.8230818870470E-03 -0.5297513299429E-02  0.0000000000000E+00 -0.1611948894926E-03
 0.8378739982938E-03 -0.5194080551883E-02  0.0000000000000E+00 -0.1615411080344E-03
 0.8819920905585E-03 -0.5099131008911E-02  0.0000000000000E+00 -0.1574564969018E-03
 0.9631667329519E-03 -0.5017817711541E-02  0.0000000000000E+00 -0.1480619988479E-03
 0.1089668338397E-02 -0.4955977619987E-02  0.0000000000000E+00 -0.1326133101371E-03
 0.1269932500918E-02 -0.4919908780752E-02  0.0000000000000E+00 -0.1106452382612E-03
 0.1511995185863E-02 -0.4915989035425E-02  0.0000000000000E+00 -0.8212966064083E-04
 0.1822737741981E-02 -0.4950127708639E-02  0.0000000000000E+00 -0.4764145138073E-04
 0.2206973792887E-02 -0.5027067971814E-02  0.0000000000000E+00 -0.8498785803446E-05
 0.2666463244029E-02 -0.5149602932073E-02  0.0000000000000E+00  0.3317586779894E-04
 0.3199001656058E-02 -0.5317822085059E-02  0.0000000000000E+00  0.7452920691686E-04
 0.3797762391981E-02 -0.5528541544293E-02  0.0000000000000E+00  0.1122207404211E-03
 0.4451090875262E-02 -0.5775084816661E-02  0.0000000000000E+00  0.1428291092762E-03
 0.5142901089472E-02 -0.6047539433040E-02  0.0000000000000E+00  0.1633545031844E-03
 0.5853669854343E-02 -0.6333503836641E-02  0.0000000000000E+00  0.1717050614563E-03
 0.6561951091133E-02 -0.6619248629868E-02  0.0000000000000E+00  0.1670676744770E-03
 0.7246216319695E-02 -0.6891134112968E-02  0.0000000000000E+00  0.1501219708558E-03
 0.7055027958297E-04 -0.5718925080689E-02  0.0000000000000E+00  0.1309531998479E-03
 0.2115348564582E-03 -0.5806115762838E-02  0.0000000000000E+00  0.1280506358770E-03
 0.3507187882465E-03 -0.5890881408268E-02  0.0000000000000E+00  0.1211552460140E-03
 0.4849958741002E-03 -0.5970871467791E-02  0.0000000000000E+00  0.1104466256081E-03
 0.6114524117480E-03 -0.6043905897863E-02  0.0000000000000E+00  0.9633544371334E-04
 0.7275400735598E-03 -0.6108105629817E-02  0.0000000000000E+00  0.7942086741195E-04
 0.8312100278939E-03 -0.6161986431413E-02  0.0000000000000E+00  0.6040726265649E-04
 0.9209848975102E-03 -0.6204498670891E-02  0.0000000000000E+00  0.4000817017437E-04
 0.9959662395270E-03 -0.6235013130059E-02  0.0000000000000E+00  0.1886261007852E-04
 0.1055790527489E-02 -0.6253265425306E-02  0.0000000000000E+00 -0.2521191001775E-05
 0.1100553393912E-02 -0.6259276806566E-02  0.0000000000000E+00 -0.2379044233031E-04
 0.1130721816061E-02 -0.6253268582834E-02  0.0000000000000E+00 -0.4474453831288E-04
 0.1147051039538E-02 -0.6235584082427E-02  0.0000000000000E+00 -0.6531179391218E-04
 0.1150517515096E-02 -0.6206627050804E-02  0.0000000000000E+00 -0.8551448006247E-04
 0.1142274211803E-02 -0.6166821105759E-02  0.0000000000000E+00 -0.1054288367072E-03
 0.1123630931769E-02 -0.6116591761346E-02  0.0000000000000E+00 -0.1251444101477E-03
 0.1096059654553E-02 -0.6056370402050E-02  0.0000000000000E+00 -0.1447249840340E-03
 0.1061223796856E-02 -0.5986619371308E-02  0.0000000000000E+00 -0.1641715952803E-03
 0.1021029312000E-02 -0.5907876496228E-02  0.0000000000000E+00 -0.1833875777507E-03
 0.9776953859911E-03 -0.5820817852106E-02  0.0000000000000E+00 -0.2021453820256E-03
 0.9338425094357E-03 -0.5726339132795E-02  0.0000000000000E+00 -0.2200551340683E-03
 0.8925908515988E-03 -0.5625647063269E-02  0.0000000000000E+00 -0.2365376048766E-03
 0.8576674382876E-03 -0.5520366609724E-02  0.0000000000000E+00 -0.2508027440247E-03
 0.8335116550077E-03 -0.5412655543166E-02  0.0000000000000E+00 -0.2618394341627E-03
 0.8253639375190E-03 -0.5305312027426E-02  0.0000000000000E+00 -0.2684245013276E-03
 0.8393232260214E-03 -0.5201869623741E-02  0.0000000000000E+00 -0.2691590332197E-03
 0.8823472550379E-03 -0.5106655690411E-02  0.0000000000000E+00 -0.2625438230918E-03
 0.9621670803265E-03 -0.5024791150004E-02  0.0000000000000E+00 -0.2471059630947E-03
 0.1087083436089E-02 -0.4962101669751E-02  0.0000000000000E+00 -0.2215907244474E-03
 0.1265600620841E-02 -0.4924904152546E-02  0.0000000000000E+00 -0.1852019853739E-03
 0.1505867460749E-02 -0.4919632226329E-02  0.0000000000000E+00 -0.1378668781644E-03
 0.1814922211098E-02 -0.4952290421123E-02  0.0000000000000E+00 -0.8051590659028E-04
 0.2197769216455E-02 -0.5027751231527E-02  0.0000000000000E+00 -0.1532287754938E-04
 0.2656369374365E-02 -0.5148954720150E-02  0.0000000000000E+00  0.5418567098614E-04
 0.3188693103199E-02 -0.5316127037516E-02  0.0000000000000E+00  0.1232458823626E-03
 0.3788019751330E-02 -0.5526176317015E-02  0.0000000000000E+00  0.1862601203069E-03
 0.4442695494100E-02 -0.5772443389699E-02  0.0000000000000E+00  0.2374792372971E-03
 0.5136514150374E-02 -0.6044944979435E-02  0.0000000000000E+00  0.2718519069562E-03
 0.5849722754807E-02 -0.6331129373954E-02  0.0000000000000E+00  0.2858476409385E-03
 0.6560565271100E-02 -0.6617060930875E-02  0.0000000000000E+00  0.2780794747135E-03
 0.7247155068154E-02 -0.6888861812631E-02  0.0000000000000E+00  0.2496595516625E-03
 0.7093487684438E-04 -0.5719890754668E-02  0.0000000000000E+00  0.1836775592588E-03
 0.2126929263454E-03 -0.5807554581526E-02  0.0000000000000E+00  0.1796043993666E-03
 0.3526351305372E-03 -0.5892770940166E-02  0.0000000000000E+00  0.1699203646567E-03
 0.4876094264521E-03 -0.5973159031991E-02  0.0000000000000E+00  0.1548780390190E-03
 0.6146599714412E-03 -0.6046514158325E-02  0.0000000000000E+00  0.1350611335759E-03
 0.7312109216404E-03 -0.6110946224998E-02  0.0000000000000E+00  0.1113215888370E-03
 0.8352058619780E-03 -0.6164976842772E-02  0.0000000000000E+00  0.8465879487806E-04
 0.9251791244489E-03 -0.6207577452865E-02  0.0000000000000E+00  0.5608179301647E-04
 0.1000258341155E-02 -0.6238150209279E-02  0.0000000000000E+00  0.2649043245651E-04
 0.1060113650510E-02 -0.6256466327946E-02  0.0000000000000E+00 -0.3403398325566E-05
 0.1104875426206E-02 -0.6262581441913E-02  0.0000000000000E+00 -0.3310916019489E-04
 0.1135041455427E-02 -0.6256746161135E-02  0.0000000000000E+00 -0.6235162071599E-04
 0.1151390727711E-02 -0.6239325909982E-02  0.0000000000000E+00 -0.9103695728654E-04
 0.1154914872980E-02 -0.6210738601312E-02  0.0000000000000E+00 -0.1192029218457E-03
 0.1146773101269E-02 -0.6171414220477E-02  0.0000000000000E+00 -0.1469624642928E-03
 0.1128272735362E-02 -0.6121777303640E-02  0.0000000000000E+00 -0.1744468131056E-03
 0.1100874947323E-02 -0.6062251301023E-02  0.0000000000000E+00 -0.2017510513787E-03
 0.1066224331602E-02 -0.5993283755805E-02  0.0000000000000E+00 -0.2288827384352E-03
 0.1026200154122E-02 -0.5915390547291E-02  0.0000000000000E+00 -0.2557133768838E-03
 0.9829870937534E-03 -0.5829218054252E-02  0.0000000000000E+00 -0.2819322710642E-03
 0.9391634443342E-03 -0.5735623754047E-02  0.0000000000000E+00 -0.3070026300256E-03
 0.8978000068493E-03 -0.5635767026826E-02  0.0000000000000E+00 -0.3301235557965E-03
 0.8625685784725E-03 -0.5531216213159E-02  0.0000000000000E+00 -0.3501994268713E-03
 0.8378500610039E-03 -0.5424063998973E-02  0.0000000000000E+00 -0.3658244704132E-03
 0.8288276244321E-03 -0.5317037443348E-02  0.0000000000000E+00 -0.3752936706761E-03
 0.8415510491955E-03 -0.5213597615787E-02  0.0000000000000E+00 -0.3766512251755E-03
 0.8829467230977E-03 -0.5118005459300E-02  0.0000000000000E+00 -0.3677931823634E-03
 0.9607446616949E-03 -0.5035332223809E-02  0.0000000000000E+00 -0.3466414528552E-03
 0.1083288919683E-02 -0.4971384592034E-02  0.0000000000000E+00 -0.3114099073258E-03
 0.1259184631005E-02 -0.4932505390578E-02  0.0000000000000E+00 -0.2609404910704E-03
 0.1496748194361E-02 -0.4925209710212E-02  0.0000000000000E+00 -0.1950764762037E-03
 0.1803252775300E-02 -0.4955643500674E-02  0.0000000000000E+00 -0.1150619974380E-03
 0.2183990396676E-02 -0.5028873445349E-02  0.0000000000000E+00 -0.2389073973105E-04
 0.2641227473066E-02 -0.5148062330509E-02  0.0000000000000E+00  0.7352430120816E-04
 0.3173202662293E-02 -0.5313645415065E-02  0.0000000000000E+00  0.1704971440410E-03
 0.3773360500241E-02 -0.5522673523966E-02  0.0000000000000E+00  0.2591278494469E-03
 0.4430052421025E-02 -0.5768516692788E-02  0.0000000000000E+00  0.3312681452616E-03
 0.5126892552485E-02 -0.6041085882745E-02  0.0000000000000E+00  0.3797363461008E-03
 0.5843781162765E-02 -0.6327602619142E-02  0.0000000000000E+00  0.3994967903499E-03
 0.6558495050994E-02 -0.6613820624107E-02  0.0000000000000E+00  0.3885415441286E-03
 0.7248607700522E-02 -0.6885503772659E-02  0.0000000000000E+00  0.3483837759646E-03
 0.7144926479667E-04 -0.5721184236105E-02  0.0000000000000E+00  0.2367458727128E-03
 0.2142425336637E-03 -0.5809480566410E-02  0.0000000000000E+00  0.2314922652481E-03
 0.3552001357377E-03 -0.5895298863049E-02  0.0000000000000E+00  0.2189880352175E-03
 0.4911069594570E-03 -0.5976216744139E-02  0.0000000000000E+00  0.1995601010716E-03
 0.6189496233082E-03 -0.6049995903261E-02  0.0000000000000E+00  0.1739744367190E-03
 0.7361151852996E-03 -0.6114731586163E-02  0.0000000000000E+00  0.1433493404711E-03
 0.8405376172560E-03 -0.6168953914752E-02  0.0000000000000E+00  0.1089928163152E-03
 0.9307679250539E-03 -0.6211663495785E-02  0.0000000000000E+00  0.7221955681623E-04
 0.1005969702991E-02 -0.6242305358077E-02  0.0000000000000E+00  0.3419532272597E-04
 0.1065858975621E-02 -0.6260698949132E-02  0.0000000000000E+00 -0.4164203916593E-05
 0.1110613087240E-02 -0.6266946141819E-02  0.0000000000000E+00 -0.4223434024700E-04
 0.1140771205306E-02 -0.6261336686677E-02  0.0000000000000E+00 -0.7967101011046E-04
 0.1157144025251E-02 -0.6244265338837E-02  0.0000000000000E+00 -0.1163648653154E-03
 0.1160743335794E-02 -0.6216168700688E-02  0.0000000000000E+00 -0.1523757024032E-03
 0.1152736573764E-02 -0.6177485089133E-02  0.0000000000000E+00 -0.1878593234147E-03
 0.1134427728477E-02 -0.6128637695867E-02  0.0000000000000E+00 -0.2229943916200E-03
 0.1107263647298E-02 -0.6070039511609E-02  0.0000000000000E+00 -0.2579129445167E-03
 0.1072864042208E-02 -0.6002118640643E-02  0.0000000000000E+00 -0.2926350348038E-03
 0.1033072928337E-02 -0.5925362162812E-02  0.0000000000000E+00 -0.3270070384075E-03
 0.9900293928477E-03 -0.5840377470854E-02  0.0000000000000E+00 -0.3606428748823E-03
 0.9462559127613E-03 -0.5747971795582E-02  0.0000000000000E+00 -0.3928677923166E-03
 0.9047578526066E-03 -0.5649242126543E-02  0.0000000000000E+00 -0.4226692286909E-03
 0.8691335818659E-03 -0.5545681957371E-02  0.0000000000000E+00 -0.4486565144104E-03
 0.8436858994698E-03 -0.5439297611414E-02  0.0000000000000E+00 -0.4690392191494E-03
 0.8335209686276E-03 -0.5332721318523E-02  0.0000000000000E+00 -0.4816382965033E-03
 0.8446216329316E-03 -0.5229316783639E-02  0.0000000000000E+00 -0.4839443227783E-03
 0.8838701755609E-03 -0.5133254750497E-02  0.0000000000000E+00 -0.4732443430474E-03
 0.9589919385409E-03 -0.5049537482470E-02  0.0000000000000E+00 -0.4468400051399E-03
 0.1078384688236E-02 -0.4983942540279E-02  0.0000000000000E+00 -0.4023851482327E-03
 0.1250783794938E-02 -0.4942842869736E-02  0.0000000000000E+00 -0.3383168053769E-03
 0.1484725756223E-02 -0.4932857941227E-02  0.0000000000000E+00 -0.2543394247969E-03
 0.1787795946771E-02 -0.4960319518263E-02  0.0000000000000E+00 -0.1519508649602E-03
 0.2165672788423E-02 -0.5030553417786E-02  0.0000000000000E+00 -0.3491258015856E-04
 0.2621037524943E-02 -0.5147023574612E-02  0.0000000000000E+00  0.9050318659132E-04
 0.3152497725258E-02 -0.5310451837583E-02  0.0000000000000E+00  0.2156741520468E-03
 0.3753730094096E-02 -0.5518088247310E-02  0.0000000000000E+00  0.3303350741365E-03
 0.4413101090487E-02 -0.5763348053362E-02  0.0000000000000E+00  0.4238366112119E-03
 0.5113986251044E-02 -0.6036002010864E-02  0.0000000000000E+00  0.4867533808487E-03
 0.5835819197480E-02 -0.6322966077831E-02  0.0000000000000E+00  0.5124503488353E-03
 0.6555749614394E-02 -0.6609577293014E-02  0.0000000000000E+00  0.4982340586040E-03
 0.7250626942558E-02 -0.6881120367658E-02  0.0000000000000E+00  0.4459736730624E-03
 0.7209488636560E-04 -0.5722810981046E-02  0.0000000000000E+00  0.2902576985216E-03
 0.2161886580389E-03 -0.5811900663094E-02  0.0000000000000E+00  0.2838105607548E-03
 0.3584226881269E-03 -0.5898473007958E-02  0.0000000000000E+00  0.2684440106437E-03
 0.4954999242541E-03 -0.5980051598082E-02  0.0000000000000E+00  0.2445613272409E-03
 0.6243328569626E-03 -0.6054354930719E-02  0.0000000000000E+00  0.2131232659575E-03
 0.7422615379024E-03 -0.6119460028773E-02  0.0000000000000E+00  0.1755326496872E-03
 0.8472087826924E-03 -0.6173908869270E-02  0.0000000000000E+00  0.1334240164980E-03
 0.9377482061134E-03 -0.6216740282997E-02  0.0000000000000E+00  0.8843084351536E-04
 0.1013090314084E-02 -0.6247454596275E-02  0.0000000000000E+00  0.4199112241518E-04
 0.1073010103680E-02 -0.6265932772674E-02  0.0000000000000E+00 -0.4775857740252E-05
 0.1117744661793E-02 -0.6272335098510E-02  0.0000000000000E+00 -0.5111624988169E-04
 0.1147885339917E-02 -0.6267000338152E-02  0.0000000000000E+00 -0.9662480953938E-04
 0.1164282517365E-02 -0.6250359674079E-02  0.0000000000000E+00 -0.1411852687007E-03
 0.1167973032943E-02 -0.6222872729153E-02  0.0000000000000E+00 -0.1848878903952E-03
 0.1160134441720E-02 -0.6184987967266E-02  0.0000000000000E+00 -0.2279391199993E-03
 0.1142066513609E-02 -0.6137126826677E-02  0.0000000000000E+00 -0.2705722911265E-03
 0.1115198323044E-02 -0.6079689411269E-02  0.0000000000000E+00 -0.3129634781660E-03
 0.1081118821322E-02 -0.6013079997708E-02  0.0000000000000E+00 -0.3551527082991E-03
 0.1041628495759E-02 -0.5937750411554E-02  0.0000000000000E+00 -0.3969696633591E-03
 0.9988101204776E-03 -0.5854260293900E-02  0.0000000000000E+00 -0.4379626948909E-03
 0.9551171283182E-03 -0.5763355213102E-02  0.0000000000000E+00 -0.4773304910894E-03
 0.9134737308807E-03 -0.5666055368013E-02  0.0000000000000E+00 -0.5138616572366E-03
 0.8773868822060E-03 -0.5563761772079E-02  0.0000000000000E+00 -0.5458841006172E-03
 0.8510615979276E-03 -0.5458373511070E-02  0.0000000000000E+00 -0.5712358695096E-03
 0.8395067953110E-03 -0.5352404306270E-02  0.0000000000000E+00 -0.5872744617728E-03
 0.8486194845191E-03 -0.5249095101168E-02  0.0000000000000E+00 -0.5909418707480E-03
 0.8852231771577E-03 -0.5152501337812E-02  0.0000000000000E+00 -0.5789118064129E-03
 0.9570321326163E-03 -0.5067534693053E-02  0.0000000000000E+00 -0.5478476180335E-03
 0.1072504723519E-02 -0.4999930225179E-02  0.0000000000000E+00 -0.4948076022095E-03
 0.1240532214638E-02 -0.4956091306704E-02  0.0000000000000E+00 -0.4177694206956E-03
 0.1469920611966E-02 -0.4942760862550E-02  0.0000000000000E+00 -0.3162277707876E-03
 0.1768643577940E-02 -0.4966498177998E-02  0.0000000000000E+00 -0.1918553824843E-03
 0.2142866735887E-02 -0.5032952965786E-02  0.0000000000000E+00 -0.4911096221732E-04
 0.2595801753204E-02 -0.5145972101386E-02  0.0000000000000E+00  0.1044134906171E-03
 0.3126535732431E-02 -0.5306648318573E-02  0.0000000000000E+00  0.2581448789610E-03
 0.3729055467846E-02 -0.5512495643973E-02  0.0000000000000E+00  0.3993722541246E-03
 0.4391759784589E-02 -0.5756996557168E-02  0.0000000000000E+00  0.5148104788618E-03
 0.5097727527681E-02 -0.6029747848476E-02  0.0000000000000E+00  0.5926391858539E-03
 0.5825801186050E-02 -0.6317277500637E-02  0.0000000000000E+00  0.6245007641630E-03
 0.6552339476592E-02 -0.6604397265205E-02  0.0000000000000E+00  0.6069363359017E-03
 0.7253281826496E-02 -0.6875791868460E-02  0.0000000000000E+00  0.5421124406065E-03
 0.7287364668731E-04 -0.5724778304165E-02  0.0000000000000E+00  0.3443136241432E-03
 0.2185378508575E-03 -0.5814824151514E-02  0.0000000000000E+00  0.3366563038600E-03
 0.3623144257984E-03 -0.5902303810295E-02  0.0000000000000E+00  0.3183734863797E-03
 0.5008032522173E-03 -0.5984672916416E-02  0.0000000000000E+00  0.2899477684634E-03
 0.6308245754443E-03 -0.6059596380370E-02  0.0000000000000E+00  0.2525510487704E-03
 0.7496611597639E-03 -0.6125129579602E-02  0.0000000000000E+00  0.2078939829382E-03
 0.8552238087794E-03 -0.6179830611722E-02  0.0000000000000E+00  0.1579602315873E-03
 0.9461159722544E-03 -0.6222786861829E-02  0.0000000000000E+00  0.1047182111570E-03
 0.1021607391562E-02 -0.6253567555785E-02  0.0000000000000E+00  0.4988550795620E-04
 0.1081546212656E-02 -0.6272129266444E-02  0.0000000000000E+00 -0.5215777975978E-05
 0.1126242695988E-02 -0.6278703233480E-02  0.0000000000000E+00 -0.5970925983201E-04
 0.1156351441180E-02 -0.6273687113290E-02  0.0000000000000E+00 -0.1131382725592E-03
 0.1172770478236E-02 -0.6257555406699E-02  0.0000000000000E+00 -0.1653903002754E-03
 0.1176566452451E-02 -0.6230794824914E-02  0.0000000000000E+00 -0.2165963324785E-03
 0.1168928794173E-02 -0.6193865593246E-02  0.0000000000000E+00 -0.2670228127769E-03
 0.1151152118586E-02 -0.6147186925542E-02  0.0000000000000E+00 -0.3169663396199E-03
 0.1124644360187E-02 -0.6091143728506E-02  0.0000000000000E+00 -0.3666553915598E-03
 0.1090958057255E-02 -0.6026112371426E-02  0.0000000000000E+00 -0.4161588137174E-03
 0.1051842251777E-02 -0.5952503465158E-02  0.0000000000000E+00 -0.4652996122088E-03
 0.1009313143496E-02 -0.5870820789897E-02  0.0000000000000E+00 -0.5135723174273E-03
 0.9657423972827E-03 -0.5781737610754E-02  0.0000000000000E+00 -0.5600628116034E-03
 0.9239578179406E-03 -0.5686183760443E-02  0.0000000000000E+00 -0.6033764893019E-03
 0.8873572578341E-03 -0.5585450906982E-02  0.0000000000000E+00 -0.6415766156050E-03
 0.8600282480075E-03 -0.5481310580824E-02  0.0000000000000E+00 -0.6721461790468E-03
 0.8468616736594E-03 -0.5376134451467E-02  0.0000000000000E+00 -0.6919929318605E-03
 0.8536485070300E-03 -0.5273014753599E-02  0.0000000000000E+00 -0.6975176932885E-03
 0.8871365264179E-03 -0.5175864995230E-02  0.0000000000000E+00 -0.6847772812918E-03
 0.9550190891253E-03 -0.5089481911998E-02  0.0000000000000E+00 -0.6497767963220E-03
 0.1065817676480E-02 -0.5019540665000E-02  0.0000000000000E+00 -0.5889376534925E-03
 0.1228600271983E-02 -0.4972470417835E-02  0.0000000000000E+00 -0.4997129416315E-03
 0.1452487581908E-02 -0.4955151570194E-02  0.0000000000000E+00 -0.3813006987143E-03
 0.1745915650709E-02 -0.4974408860630E-02  0.0000000000000E+00 -0.2354495099082E-03
 0.2115640246700E-02 -0.5036279945866E-02  0.0000000000000E+00 -0.6722378564766E-04
 0.2565526701407E-02 -0.5145080317086E-02  0.0000000000000E+00  0.1145201078769E-03
 0.3095265051183E-02 -0.5302366537695E-02  0.0000000000000E+00  0.2972467062298E-03
 0.3699244722337E-02 -0.5505992427931E-02  0.0000000000000E+00  0.4657024773104E-03
 0.4365924745726E-02 -0.5749538143047E-02  0.0000000000000E+00  0.6037961053840E-03
 0.5078030209327E-02 -0.6022393719175E-02  0.0000000000000E+00  0.6971177867520E-03
 0.5813680852784E-02 -0.6310611045245E-02  0.0000000000000E+00  0.7354327355107E-03
 0.6548274992229E-02 -0.6598363938421E-02  0.0000000000000E+00  0.7144251155241E-03
 0.7256656319323E-02 -0.6869618187799E-02  0.0000000000000E+00  0.6364882198774E-03
 0.7378798678126E-04 -0.5727095730003E-02  0.0000000000000E+00  0.3990155696482E-03
 0.2212984703870E-03 -0.5818263070316E-02  0.0000000000000E+00  0.3901274010111E-03
 0.3668901213486E-03 -0.5906804765646E-02  0.0000000000000E+00  0.3688609284604E-03
 0.5070357897696E-03 -0.5990092752174E-02  0.0000000000000E+00  0.3357822979068E-03
 0.6384434665945E-03 -0.6065726993406E-02  0.0000000000000E+00  0.2922954785534E-03
 0.7583279585233E-03 -0.6131738047516E-02  0.0000000000000E+00  0.2404481294004E-03
 0.8645881495141E-03 -0.6186705622642E-02  0.0000000000000E+00  0.1826007038463E-03
 0.9558662180439E-03 -0.6229777611293E-02  0.0000000000000E+00  0.1210757525218E-03
 0.1031505182010E-02 -0.6260607197223E-02  0.0000000000000E+00  0.5787859228887E-04
 0.1091441830126E-02 -0.6279241612540E-02  0.0000000000000E+00 -0.5467654797670E-05
 0.1136073786739E-02 -0.6285995982577E-02  0.0000000000000E+00 -0.6797267353548E-04
 0.1166130227855E-02 -0.6281336683678E-02  0.0000000000000E+00 -0.1291404173468E-03
 0.1182564741062E-02 -0.6265788130569E-02  0.0000000000000E+00 -0.1888749414371E-03
 0.1186478336952E-02 -0.6239867840228E-02  0.0000000000000E+00 -0.2473600264903E-03
 0.1179073893482E-02 -0.6204049151026E-02  0.0000000000000E+00 -0.3049329221035E-03
 0.1161639862891E-02 -0.6158748494514E-02  0.0000000000000E+00 -0.3619632897447E-03
 0.1135559763262E-02 -0.6104333402767E-02  0.0000000000000E+00 -0.4187414881811E-03
 0.1102344336156E-02 -0.6041148623699E-02  0.0000000000000E+00 -0.4753752049395E-03
 0.1063683694027E-02 -0.5969558183531E-02  0.0000000000000E+00 -0.5316921993412E-03
 0.1021517760821E-02 -0.5890002681326E-02  0.0000000000000E+00 -0.5871467008838E-03
 0.9781243314075E-03 -0.5803073377916E-02  0.0000000000000E+00 -0.6407277725515E-03
 0.9362201371239E-03 -0.5709597177875E-02  0.0000000000000E+00 -0.6908759545059E-03
 0.8990766570709E-03 -0.5610740506084E-02  0.0000000000000E+00 -0.7354098533081E-03
 0.8706442910805E-03 -0.5508127765332E-02  0.0000000000000E+00 -0.7714773878046E-03
 0.8556745597167E-03 -0.5403965308128E-02  0.0000000000000E+00 -0.7955538322339E-03
 0.8598307586466E-03 -0.5301170205717E-02  0.0000000000000E+00 -0.8035093158599E-03
 0.8897653572227E-03 -0.5203485741108E-02  0.0000000000000E+00 -0.7907820033771E-03
 0.9531369976090E-03 -0.5115566210031E-02  0.0000000000000E+00 -0.7526981733488E-03
 0.1058527487780E-02 -0.5043004740170E-02  0.0000000000000E+00 -0.6849965582073E-03
 0.1215196344349E-02 -0.4992245618889E-02  0.0000000000000E+00 -0.5845307806233E-03
 0.1432618643018E-02 -0.4970314322272E-02  0.0000000000000E+00 -0.4500995103795E-03
 0.1719763837360E-02 -0.4984333825384E-02  0.0000000000000E+00 -0.2834067076409E-03
 0.2084082627256E-02 -0.5040792169323E-02  0.0000000000000E+00 -0.9000675867304E-04
 0.2530226035772E-02 -0.5144563234574E-02  0.0000000000000E+00  0.1200555443018E-03
 0.3058626192443E-02 -0.5297770842373E-02  0.0000000000000E+00  0.3322783819038E-03
 0.3664186685329E-02 -0.5498698740769E-02  0.0000000000000E+00  0.5287540942329E-03
 0.4335468942501E-02 -0.5741066892291E-02  0.0000000000000E+00  0.6903756364127E-03
 0.5054788744216E-02 -0.6014027378536E-02  0.0000000000000E+00  0.7998985107805E-03
 0.5799400590204E-02 -0.6303059053442E-02  0.0000000000000E+00  0.8450204578057E-03
 0.6543564508666E-02 -0.6591578419092E-02  0.0000000000000E+00  0.8204715077206E-03
 0.7260847255297E-02 -0.6862718471183E-02  0.0000000000000E+00  0.7287944470880E-03
 0.7484097616102E-04 -0.5729775437438E-02  0.0000000000000E+00  0.4544671395242E-03
 0.2244809813829E-03 -0.5822232753604E-02  0.0000000000000E+00  0.4443228709494E-03
 0.3721681644953E-03 -0.5911993002770E-02  0.0000000000000E+00  0.4199898635656E-03
 0.5142208429250E-03 -0.5996326385663E-02  0.0000000000000E+00  0.3821237805710E-03
 0.6472124575658E-03 -0.6072755421329E-02  0.0000000000000E+00  0.3323870943078E-03
 0.7682788252664E-03 -0.6139283088302E-02  0.0000000000000E+00  0.2732004075486E-03
 0.8753082919421E-03 -0.6194517798019E-02  0.0000000000000E+00  0.2073342044850E-03
 0.9669927736709E-03 -0.6237681933522E-02  0.0000000000000E+00  0.1374873816663E-03
 0.1042764701826E-02 -0.6268529447063E-02  0.0000000000000E+00  0.6596151797111E-04
 0.1102666546720E-02 -0.6287214370801E-02  0.0000000000000E+00 -0.5522516863893E-05
 0.1147198323986E-02 -0.6294149035107E-02  0.0000000000000E+00 -0.7587149709432E-04
 0.1177175352486E-02 -0.6289878224955E-02  0.0000000000000E+00 -0.1445645806551E-03
 0.1193614549117E-02 -0.6274982452143E-02  0.0000000000000E+00 -0.2115374432326E-03
 0.1197655569261E-02 -0.6250013301104E-02  0.0000000000000E+00 -0.2770404738690E-03
 0.1190516064069E-02 -0.6215458240008E-02  0.0000000000000E+00 -0.3414938484142E-03
 0.1173477211849E-02 -0.6171730242887E-02  0.0000000000000E+00 -0.4053511047462E-03
 0.1147894934370E-02 -0.6119177435155E-02  0.0000000000000E+00 -0.4689748568767E-03
 0.1115233102868E-02 -0.6058109649244E-02  0.0000000000000E+00 -0.5325226252965E-03
 0.1077115923598E-02 -0.5988839641276E-02  0.0000000000000E+00 -0.5958395533440E-03
 0.1035398006209E-02 -0.5911738430070E-02  0.0000000000000E+00 -0.6583546735041E-03
 0.9922519211096E-03 -0.5827306678706E-02  0.0000000000000E+00 -0.7189782973808E-03
 0.9502693861352E-03 -0.5736257013879E-02  0.0000000000000E+00 -0.7760071178204E-03
 0.9125787888528E-03 -0.5639615907779E-02  0.0000000000000E+00 -0.8270382982818E-03
 0.8829739215203E-03 -0.5538842034010E-02  0.0000000000000E+00 -0.8689084092973E-03
 0.8660451192845E-03 -0.5435953641420E-02  0.0000000000000E+00 -0.8976815259701E-03
 0.8673048774471E-03 -0.5333665801792E-02  0.0000000000000E+00 -0.9087114339129E-03
 0.8932879326188E-03 -0.5235521597677E-02  0.0000000000000E+00 -0.8968188577770E-03
 0.9515998947308E-03 -0.5146001958189E-02  0.0000000000000E+00 -0.8566316052930E-03
 0.1050873961060E-02 -0.5070590443770E-02  0.0000000000000E+00 -0.7831571802529E-03
 0.1200568728371E-02 -0.5015728661015E-02  0.0000000000000E+00 -0.6725666052685E-03
 0.1410546251674E-02 -0.4988586820351E-02  0.0000000000000E+00 -0.5231411823842E-03
 0.1690375880814E-02 -0.4996612062320E-02  0.0000000000000E+00 -0.3363970640900E-03
 0.2048309105523E-02 -0.5046802285077E-02  0.0000000000000E+00 -0.1182351125799E-03
 0.2489924239183E-02 -0.5144683404348E-02  0.0000000000000E+00  0.1202137128289E-03
 0.3016553492727E-02 -0.5293062127111E-02  0.0000000000000E+00  0.3624910946758E-03
 0.3623750331882E-02 -0.5490760441895E-02  0.0000000000000E+00  0.5879122925725E-03
 0.4300240355108E-02 -0.5731696409277E-02  0.0000000000000E+00  0.7741019539589E-03
 0.5027877124724E-02 -0.6004755949950E-02  0.0000000000000E+00  0.9006739107780E-03
 0.5782891069995E-02 -0.6294734697899E-02  0.0000000000000E+00  0.9530245852604E-03
 0.6538212315821E-02 -0.6584160737753E-02  0.0000000000000E+00  0.9248359602724E-03
 0.7265961064574E-02 -0.6855230467640E-02  0.0000000000000E+00  0.8187292167325E-03
 0.7603643082093E-04 -0.5732832812066E-02  0.0000000000000E+00  0.5107740350734E-03
 0.2280983321856E-03 -0.5826752497459E-02  0.0000000000000E+00  0.4993430990824E-03
 0.3781711650294E-03 -0.5917889989842E-02  0.0000000000000E+00  0.4718426150489E-03
 0.5223868470439E-03 -0.6003392924753E-02  0.0000000000000E+00  0.4290260870392E-03
 0.6571592583436E-03 -0.6080692580234E-02  0.0000000000000E+00  0.3728476382595E-03
 0.7795339212062E-03 -0.6147762249735E-02  0.0000000000000E+00  0.3061446486461E-03
 0.8873917606994E-03 -0.6203248219380E-02  0.0000000000000E+00  0.2321369905063E-03
 0.9794880898585E-03 -0.6246463851037E-02  0.0000000000000E+00  0.1539250391020E-03
 0.1055363404948E-02 -0.6277282742520E-02  0.0000000000000E+00  0.7411504880080E-04
 0.1115184663666E-02 -0.6295983069266E-02  0.0000000000000E+00 -0.5379744303410E-05
 0.1159570183685E-02 -0.6303088026200E-02  0.0000000000000E+00 -0.8337713110254E-04
 0.1189433167819E-02 -0.6299230225664E-02  0.0000000000000E+00 -0.1593488949970E-03
 0.1205861391920E-02 -0.6285051898612E-02  0.0000000000000E+00 -0.2332796900088E-03
 0.1210037053002E-02 -0.6261141377706E-02  0.0000000000000E+00 -0.3055020046798E-03
 0.1203193579617E-02 -0.6228000860032E-02  0.0000000000000E+00 -0.3765321993321E-03
 0.1186603625902E-02 -0.6186039033709E-02  0.0000000000000E+00 -0.4469192930819E-03
 0.1161592436796E-02 -0.6135582740058E-02  0.0000000000000E+00 -0.5171091852656E-03
 0.1129572289610E-02 -0.6076904072879E-02  0.0000000000000E+00 -0.5873209378164E-03
 0.1092095089528E-02 -0.6010260608229E-02  0.0000000000000E+00 -0.6574306686038E-03
 0.1050921861971E-02 -0.5935948437150E-02  0.0000000000000E+00 -0.7268586762154E-03
 0.1008109479171E-02 -0.5854370308897E-02  0.0000000000000E+00 -0.7944564827690E-03
 0.9661115867114E-03 -0.5766114642933E-02  0.0000000000000E+00 -0.8584004735165E-03
 0.9278974814208E-03 -0.5672054679400E-02  0.0000000000000E+00 -0.9160928151613E-03
 0.8970852011930E-03 -0.5573465997074E-02  0.0000000000000E+00 -0.9640863679665E-03
 0.8780817099493E-03 -0.5472156698143E-02  0.0000000000000E+00 -0.9980597595380E-03
 0.8762241307356E-03 -0.5370612858254E-02  0.0000000000000E+00 -0.1012869482671E-02
 0.8979040660828E-03 -0.5272145797150E-02  0.0000000000000E+00 -0.1002724323566E-02
 0.9506508617435E-03 -0.5181028574136E-02  0.0000000000000E+00 -0.9615366928546E-03
 0.1043133190605E-02 -0.5102601702092E-02  0.0000000000000E+00 -0.8835336809721E-03
 0.1185007686679E-02 -0.5043278073294E-02  0.0000000000000E+00 -0.7641142830224E-03
 0.1386547150988E-02 -0.5010362665466E-02  0.0000000000000E+00 -0.6009101406534E-03
 0.1657980844565E-02 -0.5011643774075E-02  0.0000000000000E+00 -0.3950827247550E-03
 0.2008466598841E-02 -0.5054683721730E-02  0.0000000000000E+00 -0.1527042100340E-03
 0.2444661433937E-02 -0.5145757130744E-02  0.0000000000000E+00  0.1141437647278E-03
 0.2968977467953E-02 -0.5288482820286E-02  0.0000000000000E+00  0.3870784171187E-03
 0.3577784074117E-02 -0.5482351896149E-02  0.0000000000000E+00  0.6425091010611E-03
 0.4260059565669E-02 -0.5721561120593E-02  0.0000000000000E+00  0.8544930462134E-03
 0.4997147559033E-02 -0.5994708055929E-02  0.0000000000000E+00  0.9991186546485E-03
 0.5764071608781E-02 -0.6285775821731E-02  0.0000000000000E+00  0.1059189452839E-02
 0.6532216654537E-02 -0.6576252090852E-02  0.0000000000000E+00  0.1027260466261E-02
 0.7272108927385E-02 -0.6847309649235E-02  0.0000000000000E+00  0.9059928240245E-03
 0.7737905971887E-04 -0.5736287125547E-02  0.0000000000000E+00  0.5680445422832E-03
 0.2321664238742E-03 -0.5831846378856E-02  0.0000000000000E+00  0.5552901285501E-03
 0.3849266968444E-03 -0.5924522394474E-02  0.0000000000000E+00  0.5244999660441E-03
 0.5315681785310E-03 -0.6011316018499E-02  0.0000000000000E+00  0.4765369058441E-03
 0.6683169983855E-03 -0.6089552045077E-02  0.0000000000000E+00  0.4136881340589E-03
 0.7921169853530E-03 -0.6157172978408E-02  0.0000000000000E+00  0.3392609084443E-03
 0.9008470797542E-03 -0.6212874829637E-02  0.0000000000000E+00  0.2569705689996E-03
 0.9933429434150E-03 -0.6256081488161E-02  0.0000000000000E+00  0.1703468130874E-03
 0.1069274764026E-02 -0.6286807469658E-02  0.0000000000000E+00  0.8230817470241E-04
 0.1128954767427E-02 -0.6305473715435E-02  0.0000000000000E+00 -0.5048005781300E-05
 0.1173136370975E-02 -0.6312728183340E-02  0.0000000000000E+00 -0.9046796242067E-04
 0.1202842466905E-02 -0.6309300280464E-02  0.0000000000000E+00 -0.1734366726811E-03
 0.1219238833829E-02 -0.6295898833079E-02  0.0000000000000E+00 -0.2540074970574E-03
 0.1223553597569E-02 -0.6273150875792E-02  0.0000000000000E+00 -0.3326120750614E-03
 0.1217036559352E-02 -0.6241573423165E-02  0.0000000000000E+00 -0.4098771336183E-03
 0.1200950416926E-02 -0.6201569855384E-02  0.0000000000000E+00 -0.4864593083085E-03
 0.1176586756991E-02 -0.6153444012982E-02  0.0000000000000E+00 -0.5628991910047E-03
 0.1145301927557E-02 -0.6097427946620E-02  0.0000000000000E+00 -0.6394895309124E-03
 0.1108569793326E-02 -0.6033721004873E-02  0.0000000000000E+00 -0.7161516952870E-03
 0.1068050401502E-02 -0.5962540182324E-02  0.0000000000000E+00 -0.7923148109300E-03
 0.1025675472813E-02 -0.5884184445805E-02  0.0000000000000E+00 -0.8667932399523E-03
 0.9837485723808E-03 -0.5799109714256E-02  0.0000000000000E+00 -0.9376689719934E-03
 0.9450648191960E-03 -0.5708024408838E-02  0.0000000000000E+00 -0.1002178810833E-02
 0.9130478845866E-03 -0.5612005188766E-02  0.0000000000000E+00 -0.1056623609274E-02
 0.8918990040366E-03 -0.5512629043670E-02  0.0000000000000E+00 -0.1096327213682E-02
 0.8867540450921E-03 -0.5412126221330E-02  0.0000000000000E+00 -0.1115673443036E-02
 0.9038330938645E-03 -0.5313543370951E-02  0.0000000000000E+00 -0.1108270350843E-02
 0.9505608060610E-03 -0.5220907623621E-02  0.0000000000000E+00 -0.1067302781330E-02
 0.1035617708165E-02 -0.5139376622671E-02  0.0000000000000E+00 -0.9861701103858E-03
 0.1168847483851E-02 -0.5075299253333E-02  0.0000000000000E+00 -0.8594061282435E-03
 0.1360946573496E-02 -0.5036093856319E-02  0.0000000000000E+00 -0.6838479022426E-03
 0.1622855238142E-02 -0.5029895436707E-02  0.0000000000000E+00 -0.4601111615143E-03
 0.1964740765455E-02 -0.5064877774869E-02  0.0000000000000E+00 -0.1942285909814E-03
 0.2394499595524E-02 -0.5148162220055E-02  0.0000000000000E+00  0.1009442029262E-03
 0.2915828106454E-02 -0.5284323311678E-02  0.0000000000000E+00  0.4051649021092E-03
 0.3526114941207E-02 -0.5473679425015E-02  0.0000000000000E+00  0.6918111261446E-03
 0.4214716272972E-02 -0.5710817227762E-02  0.0000000000000E+00  0.9310253086754E-03
 0.4962428557299E-02 -0.5984035745639E-02  0.0000000000000E+00  0.1094890128379E-02
 0.5742851801629E-02 -0.6276350293412E-02  0.0000000000000E+00  0.1163241869777E-02
 0.6525568457188E-02 -0.6568018879690E-02  0.0000000000000E+00  0.1127457197063E-02
 0.7279399318996E-02 -0.6839127995887E-02  0.0000000000000E+00  0.9902821962258E-03
 0.7887464671936E-04 -0.5740162366621E-02  0.0000000000000E+00  0.6263901120832E-03
 0.2367046918520E-03 -0.5837544256083E-02  0.0000000000000E+00  0.6122679906458E-03
 0.3924682110779E-03 -0.5931923123086E-02  0.0000000000000E+00  0.5780407184681E-03
 0.5418061298245E-03 -0.6020124694872E-02  0.0000000000000E+00  0.5246962891870E-03
 0.6807249602046E-03 -0.6099350474220E-02  0.0000000000000E+00  0.4549066078574E-03
 0.8060556490404E-03 -0.6167512562253E-02  0.0000000000000E+00  0.3725128438872E-03
 0.9156836671586E-03 -0.6223371982613E-02  0.0000000000000E+00  0.2817792361928E-03
 0.1008546038897E-02 -0.6266486408546E-02  0.0000000000000E+00  0.1866949752961E-03
 0.1084467746762E-02 -0.6297035276258E-02  0.0000000000000E+00  0.9049674938152E-04
 0.1143929221461E-02 -0.6315602220184E-02  0.0000000000000E+00 -0.4546090831586E-05
 0.1187836610823E-02 -0.6322973926897E-02  0.0000000000000E+00 -0.9712982676341E-04
 0.1217334199165E-02 -0.6319984872497E-02  0.0000000000000E+00 -0.1867766718923E-03
 0.1233672340117E-02 -0.6307414383990E-02  0.0000000000000E+00 -0.2736308230246E-03
 0.1238127813849E-02 -0.6285929257373E-02  0.0000000000000E+00 -0.3582415229072E-03
 0.1231966880651E-02 -0.6256060800955E-02  0.0000000000000E+00 -0.4413607118038E-03
 0.1216440619581E-02 -0.6218205827610E-02  0.0000000000000E+00 -0.5237650074012E-03
 0.1192804073971E-02 -0.6172643624909E-02  0.0000000000000E+00 -0.6061011672876E-03
 0.1162353751692E-02 -0.6119564458454E-02  0.0000000000000E+00 -0.6887478997130E-03
 0.1126480465265E-02 -0.6059107346340E-02  0.0000000000000E+00 -0.7716864729860E-03
 0.1086736873473E-02 -0.5991407318966E-02  0.0000000000000E+00 -0.8543732064603E-03
 0.1044921257143E-02 -0.5916655307436E-02  0.0000000000000E+00 -0.9356083300734E-03
 0.1003176325557E-02 -0.5835168293354E-02  0.0000000000000E+00 -0.1013407512035E-02
 0.9641090640836E-03 -0.5747480264120E-02  0.0000000000000E+00 -0.1084874915335E-02
 0.9309309507508E-03 -0.5654455018717E-02  0.0000000000000E+00 -0.1146095242868E-02
 0.9076152313615E-03 -0.5557418948066E-02  0.0000000000000E+00 -0.1192073532012E-02
 0.8990695696916E-03 -0.5458320243005E-02  0.0000000000000E+00 -0.1216751959395E-02
 0.9113113158228E-03 -0.5359907033656E-02  0.0000000000000E+00 -0.1213156228606E-02
 0.9516267052401E-03 -0.5265919137425E-02  0.0000000000000E+00 -0.1173738443327E-02
 0.1028676196317E-02 -0.5181284980193E-02  0.0000000000000E+00 -0.1091027798445E-02
 0.1152468256492E-02 -0.5112243987997E-02  0.0000000000000E+00 -0.9585991894305E-03
 0.1334122733608E-02 -0.5066293132464E-02  0.0000000000000E+00 -0.7723401321747E-03
 0.1585330027754E-02 -0.5051905334478E-02  0.0000000000000E+00 -0.5321056743197E-03
 0.1917364522229E-02 -0.5077901900995E-02  0.0000000000000E+00 -0.2436388157617E-03
 0.2339530531318E-02 -0.5152347546811E-02  0.0000000000000E+00  0.7965771490037E-04
 0.2857039563929E-02 -0.5280930305573E-02  0.0000000000000E+00  0.4157931746501E-03
 0.3468547848670E-02 -0.5464985794293E-02  0.0000000000000E+00  0.7350039777271E-03
 0.4163964257552E-02 -0.5699643014901E-02  0.0000000000000E+00  0.1003124592317E-02
 0.4923521727929E-02 -0.5972915398333E-02  0.0000000000000E+00  0.1187631406861E-02
 0.5719135066679E-02 -0.6266663061823E-02  0.0000000000000E+00  0.1264893835781E-02
 0.6518252122084E-02 -0.6559659850624E-02  0.0000000000000E+00  0.1225092846973E-02
 0.7287926616586E-02 -0.6830872390978E-02  0.0000000000000E+00  0.1071279333734E-02
 0.8053027751278E-04 -0.5744488255812E-02  0.0000000000000E+00  0.6859260540890E-03
 0.2417368267065E-03 -0.5843882988255E-02  0.0000000000000E+00  0.6703830787757E-03
 0.4008361546360E-03 -0.5940132572001E-02  0.0000000000000E+00  0.6325411093469E-03
 0.5531500741668E-03 -0.6029854334819E-02  0.0000000000000E+00  0.5735348527638E-03
 0.6944294132734E-03 -0.6110108049953E-02  0.0000000000000E+00  0.4964853620848E-03
 0.8213817385831E-03 -0.6178777974802E-02  0.0000000000000E+00  0.4058446877911E-03
 0.9319116333682E-03 -0.6234709826919E-02  0.0000000000000E+00  0.3064873644909E-03
 0.1025083478772E-02 -0.6277622776689E-02  0.0000000000000E+00  0.2028939408245E-03
 0.1100906169179E-02 -0.6307888240713E-02  0.0000000000000E+00  0.9862219239330E-04
 0.1160053567934E-02 -0.6326273728729E-02  0.0000000000000E+00 -0.3903599965466E-05
 0.1203602887966E-02 -0.6333718428776E-02  0.0000000000000E+00 -0.1033563094541E-03
 0.1232831170000E-02 -0.6331169154696E-02  0.0000000000000E+00 -0.1993232217586E-03
 0.1249079111288E-02 -0.6319478401399E-02  0.0000000000000E+00 -0.2920638842792E-03
 0.1253674033103E-02 -0.6299352704555E-02  0.0000000000000E+00 -0.3822647780743E-03
 0.1247898121516E-02 -0.6271336422281E-02  0.0000000000000E+00 -0.4708182575421E-03
 0.1232988892585E-02 -0.6235818258549E-02  0.0000000000000E+00 -0.5586331785468E-03
 0.1210162052835E-02 -0.6193051562709E-02  0.0000000000000E+00 -0.6464736607928E-03
 0.1180650817974E-02 -0.6143183675931E-02  0.0000000000000E+00 -0.7348164295295E-03
 0.1145758734176E-02 -0.6086292202505E-02  0.0000000000000E+00 -0.8237173447604E-03
 0.1106925751870E-02 -0.6022428756404E-02  0.0000000000000E+00 -0.9126787517087E-03
 0.1065809735652E-02 -0.5951673757290E-02  0.0000000000000E+00 -0.1000510859466E-02
 0.1024383189140E-02 -0.5874200890338E-02  0.0000000000000E+00 -0.1085192984468E-02
 0.9850523822714E-03 -0.5790362359380E-02  0.0000000000000E+00 -0.1163732291549E-02
 0.9507998531667E-03 -0.5700797423462E-02  0.0000000000000E+00 -0.1232037356356E-02
 0.9253490341645E-03 -0.5606564337631E-02  0.0000000000000E+00 -0.1284835992998E-02
 0.9133517346800E-03 -0.5509304162231E-02  0.0000000000000E+00 -0.1315666956875E-02
 0.9205888225728E-03 -0.5411432302439E-02  0.0000000000000E+00 -0.1317000632676E-02
 0.9541691771924E-03 -0.5316357022417E-02  0.0000000000000E+00 -0.1280560593200E-02
 0.1022692580465E-02 -0.5228724750389E-02  0.0000000000000E+00 -0.1197971588489E-02
 0.1136297503796E-02 -0.5154609162249E-02  0.0000000000000E+00 -0.1061759429726E-02
 0.1306511428902E-02 -0.5101535919764E-02  0.0000000000000E+00 -0.8667007126804E-03
 0.1545798467477E-02 -0.5078289412277E-02  0.0000000000000E+00 -0.6116524723095E-03
 0.1866628159732E-02 -0.5094359243416E-02  0.0000000000000E+00 -0.3017753169915E-03
 0.2279886007241E-02 -0.5158844733948E-02  0.0000000000000E+00  0.4926742557027E-04
 0.2792556863400E-02 -0.5278717738447E-02  0.0000000000000E+00  0.4179096449963E-03
 0.3404865378272E-02 -0.5456556455468E-02  0.0000000000000E+00  0.7711721705949E-03
 0.4107514202662E-02 -0.5688238312105E-02  0.0000000000000E+00  0.1070152867385E-02
 0.4880195834725E-02 -0.5961546070540E-02  0.0000000000000E+00  0.1276976897831E-02
 0.5692824580838E-02 -0.6256964537838E-02  0.0000000000000E+00  0.1363853567596E-02
 0.6510250880887E-02 -0.6551418418570E-02  0.0000000000000E+00  0.1319769060176E-02
 0.7297753609646E-02 -0.6822742699383E-02  0.0000000000000E+00  0.1148628807925E-02
 0.8235462131269E-04 -0.5749301485382E-02  0.0000000000000E+00  0.7467723692372E-03
 0.2472916681963E-03 -0.5850907922350E-02  0.0000000000000E+00  0.7297445666738E-03
 0.4100793385552E-03 -0.5949200130314E-02  0.0000000000000E+00  0.6880740281400E-03
 0.5656588498028E-03 -0.6040547794759E-02  0.0000000000000E+00  0.6230715223736E-03
 0.7094845466124E-03 -0.6121848912168E-02  0.0000000000000E+00  0.5383876859774E-03
 0.8381315367044E-03 -0.6190965574468E-02  0.0000000000000E+00  0.4391777410852E-03
 0.9495414422913E-03 -0.6246853473084E-02  0.0000000000000E+00  0.3309964111333E-03
 0.1042938065822E-02 -0.6289426303762E-02  0.0000000000000E+00  0.2188481715800E-03
 0.1118547902636E-02 -0.6319277874838E-02  0.0000000000000E+00  0.1066102987982E-03
 0.1177265829983E-02 -0.6337381852517E-02  0.0000000000000E+00 -0.3161444925931E-05
 0.1220358937070E-02 -0.6344843133714E-02  0.0000000000000E+00 -0.1091488438606E-03
 0.1249247730907E-02 -0.6342726740048E-02  0.0000000000000E+00 -0.2110361768583E-03
 0.1265367935358E-02 -0.6331959452071E-02  0.0000000000000E+00 -0.3092251517368E-03
 0.1270098259834E-02 -0.6313286238972E-02  0.0000000000000E+00 -0.4045600150948E-03
 0.1264735544357E-02 -0.6287262434419E-02  0.0000000000000E+00 -0.4980887227346E-03
 0.1250501462276E-02 -0.6254266766701E-02  0.0000000000000E+00 -0.5908641351136E-03
 0.1228569676384E-02 -0.6214525430965E-02  0.0000000000000E+00 -0.6837782821691E-03
 0.1200107149114E-02 -0.6168142342878E-02  0.0000000000000E+00 -0.7774173857993E-03
 0.1166326809715E-02 -0.6115133696242E-02  0.0000000000000E+00 -0.8719262620709E-03
 0.1128551773542E-02 -0.6055467755937E-02  0.0000000000000E+00 -0.9668722156569E-03
 0.1088293971450E-02 -0.5989113884911E-02  0.0000000000000E+00 -0.1061100267221E-02
 0.1047347976586E-02 -0.5916100407633E-02  0.0000000000000E+00 -0.1152584917146E-02
 0.1007908397509E-02 -0.5836592959343E-02  0.0000000000000E+00 -0.1238274646903E-02
 0.9727134999248E-03 -0.5750997244158E-02  0.0000000000000E+00 -0.1313946002499E-02
 0.9452159289260E-03 -0.5660088322327E-02  0.0000000000000E+00 -0.1374096962824E-02
 0.9297837683152E-03 -0.5565176871483E-02  0.0000000000000E+00 -0.1411908929403E-02
 0.9319256249281E-03 -0.5468311781439E-02  0.0000000000000E+00 -0.1419334043985E-02
 0.9585292291892E-03 -0.5372523423168E-02  0.0000000000000E+00 -0.1387383401885E-02
 0.1018084284287E-02 -0.5282117460773E-02  0.0000000000000E+00 -0.1306754984140E-02
 0.1120810937795E-02 -0.5202934346957E-02  0.0000000000000E+00 -0.1168843669146E-02
 0.1278610507340E-02 -0.5142461542835E-02  0.0000000000000E+00 -0.9671523854137E-03
 0.1504724632275E-02 -0.5109747190537E-02  0.0000000000000E+00 -0.6992835537723E-03
 0.1812891165282E-02 -0.5114949342922E-02  0.0000000000000E+00 -0.3694782627819E-03
 0.2215750439132E-02 -0.5168282202038E-02  0.0000000000000E+00  0.8695579662821E-05
 0.2722345413141E-02 -0.5278181008096E-02  0.0000000000000E+00  0.4103494465931E-03
 0.3334828983056E-02 -0.5448728808026E-02  0.0000000000000E+00  0.7992733148571E-03
 0.4045023960398E-02 -0.5676823444992E-02  0.0000000000000E+00  0.1131386725604E-02
 0.4832175515118E-02 -0.5950142784783E-02  0.0000000000000E+00  0.1362559201680E-02
 0.5663831315139E-02 -0.6247558448312E-02  0.0000000000000E+00  0.1459851952399E-02
 0.6501561504463E-02 -0.6543603441607E-02  0.0000000000000E+00  0.1411002067366E-02
 0.7308884579640E-02 -0.6814949542281E-02  0.0000000000000E+00  0.1221895504739E-02
 0.8435828359494E-04 -0.5754647238844E-02  0.0000000000000E+00  0.8090547521941E-03
 0.2534043184345E-03 -0.5858674710226E-02  0.0000000000000E+00  0.7904648661385E-03
 0.4202566145365E-03 -0.5959185984060E-02  0.0000000000000E+00  0.7447079539239E-03
 0.5794023993286E-03 -0.6052256688190E-02  0.0000000000000E+00  0.6733106823230E-03
 0.7259534932298E-03 -0.6134601549917E-02  0.0000000000000E+00  0.5805538542601E-03
 0.8563459610853E-03 -0.6204070595083E-02  0.0000000000000E+00  0.4724062873749E-03
 0.9685833816238E-03 -0.6259761878463E-02  0.0000000000000E+00  0.3551816251180E-03
 0.1062088392848E-02 -0.6301822929692E-02  0.0000000000000E+00  0.2344400547916E-03
 0.1137343907143E-02 -0.6331103935822E-02  0.0000000000000E+00  0.1143702134868E-03
 0.1195495703806E-02 -0.6348807796403E-02  0.0000000000000E+00 -0.2372100953427E-05
 0.1238019683609E-02 -0.6356217249125E-02  0.0000000000000E+00 -0.1145165606242E-03
 0.1266489466239E-02 -0.6354519511533E-02  0.0000000000000E+00 -0.2218806679026E-03
 0.1282439066067E-02 -0.6344714864848E-02  0.0000000000000E+00 -0.3250372077280E-03
 0.1287298166591E-02 -0.6327583907228E-02  0.0000000000000E+00 -0.4250092327465E-03
 0.1282376128719E-02 -0.6303689936661E-02  0.0000000000000E+00 -0.5230150441721E-03
 0.1268876116281E-02 -0.6273399476449E-02  0.0000000000000E+00 -0.6202623648978E-03
 0.1247927123639E-02 -0.6236910524887E-02  0.0000000000000E+00 -0.7177806389021E-03
 0.1220627419572E-02 -0.6194283740661E-02  0.0000000000000E+00 -0.8162761017572E-03
 0.1188096890240E-02 -0.6145475053887E-02  0.0000000000000E+00 -0.9159961750828E-03
 0.1151538979161E-02 -0.6090371057634E-02  0.0000000000000E+00 -0.1016591754756E-02
 0.1112315767503E-02 -0.6028831582124E-02  0.0000000000000E+00 -0.1116967815765E-02
 0.1072037999850E-02 -0.5960740028685E-02  0.0000000000000E+00 -0.1215126747386E-02
 0.1032679588771E-02 -0.5886073543040E-02  0.0000000000000E+00 -0.1307998995442E-02
 0.9967209757014E-03 -0.5804998345216E-02  0.0000000000000E+00 -0.1391277038906E-02
 0.9673243714764E-03 -0.5717994298507E-02  0.0000000000000E+00 -0.1459282247865E-02
 0.9485466401747E-03 -0.5626021037092E-02  0.0000000000000E+00 -0.1504893062195E-02
 0.9455870040992E-03 -0.5530728525054E-02  0.0000000000000E+00 -0.1519591737293E-02
 0.9650640333292E-03 -0.5434721864444E-02  0.0000000000000E+00 -0.1493707211426E-02
 0.1015299412264E-02 -0.5341902078870E-02  0.0000000000000E+00 -0.1417004324884E-02
 0.1106532388352E-02 -0.5257797875499E-02  0.0000000000000E+00 -0.1279679187387E-02
 0.1250983890988E-02 -0.5189773251752E-02  0.0000000000000E+00 -0.1073803500332E-02
 0.1462652470387E-02 -0.5147067345528E-02  0.0000000000000E+00 -0.7954544497698E-03
 0.1756595852653E-02 -0.5140479882592E-02  0.0000000000000E+00 -0.4475721531680E-03
 0.2147376585167E-02 -0.5181401768943E-02  0.0000000000000E+00 -0.4319401533637E-04
 0.2646404310949E-02 -0.5279915192438E-02  0.0000000000000E+00  0.3918219472117E-03
 0.3258183303306E-02 -0.5441906406971E-02  0.0000000000000E+00  0.8181062802448E-03
 0.3976086722692E-02 -0.5665639455173E-02  0.0000000000000E+00  0.1185981959625E-02
 0.4779120526009E-02 -0.5938921322075E-02  0.0000000000000E+00  0.1444011290344E-02
 0.5632081435337E-02 -0.6238803859683E-02  0.0000000000000E+00  0.1552694666728E-02
 0.6492227220928E-02 -0.6536623197743E-02  0.0000000000000E+00  0.1498212045777E-02
 0.7321222872484E-02 -0.6807711519400E-02  0.0000000000000E+00  0.1290485788855E-02
 0.8655425158019E-04 -0.5760581061554E-02  0.0000000000000E+00  0.8729058029230E-03
 0.2601175352524E-03 -0.5867251536924E-02  0.0000000000000E+00  0.8526601169660E-03
 0.4314389345654E-03 -0.5970163283603E-02  0.0000000000000E+00  0.8025055054862E-03
 0.5944637062750E-03 -0.6065042835049E-02  0.0000000000000E+00  0.7242385415335E-03
 0.7439094321556E-03 -0.6148399100001E-02  0.0000000000000E+00  0.6228962370979E-03
 0.8760706042625E-03 -0.6218086344539E-02  0.0000000000000E+00  0.5053928319438E-03
 0.9890467775234E-03 -0.6273386370764E-02  0.0000000000000E+00  0.3788884480966E-03
 0.1082507670619E-02 -0.6314727189133E-02  0.0000000000000E+00  0.2495278156716E-03
 0.1157237066575E-02 -0.6343253025854E-02  0.0000000000000E+00  0.1217936509265E-03
 0.1214663637232E-02 -0.6360419382941E-02  0.0000000000000E+00 -0.1599538527436E-05
 0.1256490645193E-02 -0.6367697218073E-02  0.0000000000000E+00 -0.1194758360577E-03
 0.1284452892198E-02 -0.6366397471013E-02  0.0000000000000E+00 -0.2318266182983E-03
 0.1300184144216E-02 -0.6357590845990E-02  0.0000000000000E+00 -0.3394264490645E-03
 0.1305163147882E-02 -0.6342089051299E-02  0.0000000000000E+00 -0.4434982576287E-03
 0.1300708670144E-02 -0.6320459305291E-02  0.0000000000000E+00 -0.5454444958476E-03
 0.1288002265439E-02 -0.6293053307470E-02  0.0000000000000E+00 -0.6466372437799E-03
 0.1268125715666E-02 -0.6260039997700E-02  0.0000000000000E+00 -0.7482514044016E-03
 0.1242106703706E-02 -0.6221437642427E-02  0.0000000000000E+00 -0.8511223836509E-03
 0.1210970624713E-02 -0.6177144243032E-02  0.0000000000000E+00 -0.9556127367850E-03
 0.1175799790970E-02 -0.6126968080929E-02  0.0000000000000E+00 -0.1061474848777E-02
 0.1137804254039E-02 -0.6070663166442E-02  0.0000000000000E+00 -0.1167698643453E-02
 0.1098407056981E-02 -0.6007971107261E-02  0.0000000000000E+00 -0.1272347805698E-02
 0.1059354575089E-02 -0.5938681792570E-02  0.0000000000000E+00 -0.1372377287988E-02
 0.1022858044169E-02 -0.5862719541500E-02  0.0000000000000E+00 -0.1463446983550E-02
 0.9917714503323E-03 -0.5780260687428E-02  0.0000000000000E+00 -0.1539760569796E-02
 0.9698140251522E-03 -0.5691896609859E-02  0.0000000000000E+00 -0.1593956483853E-02
 0.9618380215146E-03 -0.5598848464746E-02  0.0000000000000E+00 -0.1617107708499E-02
 0.9741415790488E-03 -0.5503249067545E-02  0.0000000000000E+00 -0.1598907858527E-02
 0.1014812591393E-02 -0.5408527196842E-02  0.0000000000000E+00 -0.1528202353864E-02
 0.1094032375817E-02 -0.5319811007884E-02  0.0000000000000E+00 -0.1393941134641E-02
 0.1224264708168E-02 -0.5244236542536E-02  0.0000000000000E+00 -0.1186620595843E-02
 0.1420215001476E-02 -0.5191132422538E-02  0.0000000000000E+00 -0.9005159400036E-03
 0.1698282754198E-02 -0.5171879175423E-02  0.0000000000000E+00 -0.5368436147332E-03
 0.2075104571612E-02 -0.5199077979029E-02  0.0000000000000E+00 -0.1075882617507E-03
 0.2564784147313E-02 -0.5284637589301E-02  0.0000000000000E+00  0.3608987425420E-03
 0.3174665941431E-02 -0.5436580215035E-02  0.0000000000000E+00  0.8262755998112E-03
 0.3900219692511E-02 -0.5654954534504E-02  0.0000000000000E+00  0.1232917534812E-02
 0.4720589875888E-02 -0.5928071398774E-02  0.0000000000000E+00  0.1520948586129E-02
 0.5597514077400E-02 -0.6231098654924E-02  0.0000000000000E+00  0.1642351566711E-02
 0.6482404542836E-02 -0.6531038504536E-02  0.0000000000000E+00  0.1580749909075E-02
 0.7334503146313E-02 -0.6801250223391E-02  0.0000000000000E+00  0.1353502002473E-02
 0.8895845870250E-04 -0.5767171177459E-02  0.0000000000000E+00  0.9384664959002E-03
 0.2674834852786E-03 -0.5876721865692E-02  0.0000000000000E+00  0.9164506888421E-03
 0.4437118870793E-03 -0.5982220750280E-02  0.0000000000000E+00  0.8615214504132E-03
 0.6109410736371E-03 -0.6078979880418E-02  0.0000000000000E+00  0.7758184666909E-03
 0.7634367363860E-03 -0.6163279475558E-02  0.0000000000000E+00  0.6652932951794E-03
 0.8973555531067E-03 -0.6233002998515E-02  0.0000000000000E+00  0.5379625548654E-03
 0.1010938866866E-02 -0.6287668709977E-02  0.0000000000000E+00  0.4019286212017E-03
 0.1104162232651E-02 -0.6328040199907E-02  0.0000000000000E+00  0.2639435498713E-03
 0.1178160796995E-02 -0.6355596957635E-02  0.0000000000000E+00  0.1287544641369E-03
 0.1234679791066E-02 -0.6372069978775E-02  0.0000000000000E+00 -0.9187474460798E-06
 0.1275667303178E-02 -0.6379126192802E-02  0.0000000000000E+00 -0.1240494802727E-03
 0.1303025182615E-02 -0.6378198647140E-02  0.0000000000000E+00 -0.2408479914305E-03
 0.1318486176627E-02 -0.6370422682621E-02  0.0000000000000E+00 -0.3523226171595E-03
 0.1323574446166E-02 -0.6356634679115E-02  0.0000000000000E+00 -0.4599166609641E-03
 0.1319613957002E-02 -0.6337400623087E-02  0.0000000000000E+00 -0.5652290293195E-03
 0.1307761085871E-02 -0.6313054370781E-02  0.0000000000000E+00 -0.6698038065614E-03
 0.1289047942121E-02 -0.6283735136758E-02  0.0000000000000E+00 -0.7749675157272E-03
 0.1264430303418E-02 -0.6249420377905E-02  0.0000000000000E+00 -0.8816921264606E-03
 0.1234838649088E-02 -0.6209953720114E-02  0.0000000000000E+00 -0.9904663168284E-03
 0.1201234152720E-02 -0.6165070227633E-02  0.0000000000000E+00 -0.1101160667813E-02
 0.1164674513650E-02 -0.6114424087069E-02  0.0000000000000E+00 -0.1212874394021E-02
 0.1126393414470E-02 -0.6057621099487E-02  0.0000000000000E+00 -0.1323766045043E-02
 0.1087905325542E-02 -0.5994268554642E-02  0.0000000000000E+00 -0.1430858973870E-02
 0.1051143468011E-02 -0.5924050384209E-02  0.0000000000000E+00 -0.1529834992829E-02
 0.1018638236643E-02 -0.5846835354568E-02  0.0000000000000E+00 -0.1614844332258E-02
 0.9937466919724E-03 -0.5762833750173E-02  0.0000000000000E+00 -0.1678356901109E-02
 0.9809371400077E-03 -0.5672811873403E-02  0.0000000000000E+00 -0.1711109891982E-02
 0.9861340610220E-03 -0.5578385317777E-02  0.0000000000000E+00 -0.1702226843301E-02
 0.1017119195071E-02 -0.5482441232533E-02  0.0000000000000E+00 -0.1639671612799E-02
 0.1083924907085E-02 -0.5389609699598E-02  0.0000000000000E+00 -0.1511128017447E-02
 0.1199156990803E-02 -0.5306675081839E-02  0.0000000000000E+00 -0.1305396570447E-02
 0.1378143129213E-02 -0.5242921970529E-02  0.0000000000000E+00 -0.1014678864516E-02
 0.1638607578095E-02 -0.5210208739309E-02  0.0000000000000E+00 -0.6380104313000E-03
 0.1999384781571E-02 -0.5222340425390E-02  0.0000000000000E+00 -0.1857096005948E-03
 0.2477609584512E-02 -0.5293214788980E-02  0.0000000000000E+00  0.3160052026719E-03
 0.3084024853609E-02 -0.5433357075147E-02  0.0000000000000E+00  0.8221586054465E-03
 0.3816860720597E-02 -0.5645086777693E-02  0.0000000000000E+00  0.1270917310668E-02
 0.4655986123625E-02 -0.5917721725789E-02  0.0000000000000E+00  0.1592895641550E-02
 0.5560046264407E-02 -0.6224815203330E-02  0.0000000000000E+00  0.1729087659465E-02
 0.6472491199674E-02 -0.6527642656349E-02  0.0000000000000E+00  0.1658024413835E-02
 0.7348179744542E-02 -0.6795771831477E-02  0.0000000000000E+00  0.1409478299261E-02
 0.9159051174277E-04 -0.5774501380847E-02  0.0000000000000E+00  0.1005887966993E-02
 0.2755659666320E-03 -0.5887187835983E-02  0.0000000000000E+00  0.9819616614881E-03
 0.4571788349135E-03 -0.5995465817964E-02  0.0000000000000E+00  0.9217999654201E-03
 0.6289507987061E-03 -0.6094155074774E-02  0.0000000000000E+00  0.8279849541770E-03
 0.7846321187632E-03 -0.6179285213751E-02  0.0000000000000E+00  0.7075821881860E-03
 0.9202548828117E-03 -0.6248805843035E-02  0.0000000000000E+00  0.5698968746422E-03
 0.1034263226614E-02 -0.6302538570309E-02  0.0000000000000E+00  0.4240760493477E-03
 0.1127009655945E-02 -0.6341647211549E-02  0.0000000000000E+00  0.2774915071041E-03
 0.1200037410441E-02 -0.6367990874125E-02  0.0000000000000E+00  0.1351087003334E-03
 0.1255442895051E-02 -0.6383597341875E-02  0.0000000000000E+00 -0.4147491293321E-06
 0.1295434470223E-02 -0.6390333539399E-02  0.0000000000000E+00 -0.1282655017164E-03
 0.1322083950490E-02 -0.6389749093784E-02  0.0000000000000E+00 -0.2489217375502E-03
 0.1337219600418E-02 -0.6383035062779E-02  0.0000000000000E+00 -0.3636581442039E-03
 0.1342405375555E-02 -0.6371043961088E-02  0.0000000000000E+00 -0.4741575881181E-03
 0.1338965050095E-02 -0.6354334238661E-02  0.0000000000000E+00 -0.5822256061829E-03
 0.1328025767213E-02 -0.6333218499175E-02  0.0000000000000E+00 -0.6895835808367E-03
 0.1310567597917E-02 -0.6307805781679E-02  0.0000000000000E+00 -0.7977135071670E-03
 0.1287473690248E-02 -0.6278035050627E-02  0.0000000000000E+00 -0.9077291501617E-03
 0.1259580239540E-02 -0.6243700341233E-02  0.0000000000000E+00 -0.1020254341142E-02
 0.1227728782890E-02 -0.6204470354952E-02  0.0000000000000E+00 -0.1135292897502E-02
 0.1192826304657E-02 -0.6159907797434E-02  0.0000000000000E+00 -0.1252076467844E-02
 0.1155917854318E-02 -0.6109491640382E-02  0.0000000000000E+00 -0.1368891587438E-02
 0.1118284372668E-02 -0.6052654895058E-02  0.0000000000000E+00 -0.1482874605192E-02
 0.1081575229960E-02 -0.5988846942944E-02  0.0000000000000E+00 -0.1589786129845E-02
 0.1047984871870E-02 -0.5917629859572E-02  0.0000000000000E+00 -0.1683791928760E-02
 0.1020486378818E-02 -0.5838825315890E-02  0.0000000000000E+00 -0.1757272980890E-02
 0.1003128968205E-02 -0.5752723983539E-02  0.0000000000000E+00 -0.1800717181050E-02
 0.1001409913109E-02 -0.5660383411646E-02  0.0000000000000E+00 -0.1802763010973E-02
 0.1022727683392E-02 -0.5564080506310E-02  0.0000000000000E+00 -0.1750558431173E-02
 0.1076862016780E-02 -0.5467843573406E-02  0.0000000000000E+00 -0.1630535900166E-02
 0.1176435180953E-02 -0.5377963551891E-02  0.0000000000000E+00 -0.1429714713731E-02
 0.1337273425938E-02 -0.5303513167325E-02  0.0000000000000E+00 -0.1137971070738E-02
 0.1578358879685E-02 -0.5256675409875E-02  0.0000000000000E+00 -0.7516807650679E-03
 0.1920805434632E-02 -0.5252398024185E-02  0.0000000000000E+00 -0.2787883411540E-03
 0.2385107100616E-02 -0.5306697783558E-02  0.0000000000000E+00  0.2554130927358E-03
 0.2986041498139E-02 -0.5432988545391E-02  0.0000000000000E+00  0.8038823022591E-03
 0.3725387202203E-02 -0.5636455650980E-02  0.0000000000000E+00  0.1298372925300E-02
 0.4584488616336E-02 -0.5907928190670E-02  0.0000000000000E+00  0.1659092962853E-02
 0.5519444138577E-02 -0.6220127258051E-02  0.0000000000000E+00  0.1813587894533E-02
 0.6463375152254E-02 -0.6527564741410E-02  0.0000000000000E+00  0.1729897093938E-02
 0.7361196325297E-02 -0.6791418199130E-02  0.0000000000000E+00  0.1455856230170E-02
 0.9447462569937E-04 -0.5782674685487E-02  0.0000000000000E+00  0.1075333678295E-02
 0.2844432390648E-03 -0.5898774477381E-02  0.0000000000000E+00  0.1049323212532E-02
 0.4719648062653E-03 -0.6010028434751E-02  0.0000000000000E+00  0.9833708512831E-03
 0.6486302895856E-03 -0.6110671181443E-02  0.0000000000000E+00  0.8806357729999E-03
 0.8076056784228E-03 -0.6196462871510E-02  0.0000000000000E+00  0.7495496480413E-03
 0.9448256650275E-03 -0.6265472766148E-02  0.0000000000000E+00  0.6009260133716E-03
 0.1059017618024E-02 -0.6317910289443E-02  0.0000000000000E+00  0.4450625103014E-03
 0.1150996413128E-02 -0.6355414640234E-02  0.0000000000000E+00  0.2899468009711E-03
 0.1222776204608E-02 -0.6380271110789E-02  0.0000000000000E+00  0.1406953096092E-03
 0.1276839001508E-02 -0.6394822409996E-02  0.0000000000000E+00 -0.1809792501417E-06
 0.1315665668852E-02 -0.6401134402016E-02  0.0000000000000E+00 -0.1321553792214E-03
 0.1341497100117E-02 -0.6400863002987E-02  0.0000000000000E+00 -0.2560264040176E-03
 0.1356250442489E-02 -0.6395242527759E-02  0.0000000000000E+00 -0.3733672947890E-03
 0.1361521647902E-02 -0.6385130860364E-02  0.0000000000000E+00 -0.4861174836977E-03
 0.1358627665879E-02 -0.6371071457353E-02  0.0000000000000E+00 -0.5962965018055E-03
 0.1348661865913E-02 -0.6353351909806E-02  0.0000000000000E+00 -0.7058054556743E-03
 0.1332550028940E-02 -0.6332050880237E-02  0.0000000000000E+00 -0.8162829426714E-03
 0.1311102562652E-02 -0.6307071903124E-02  0.0000000000000E+00 -0.9289872110274E-03
 0.1285063086785E-02 -0.6278165433151E-02  0.0000000000000E+00 -0.1044683905169E-02
 0.1255156550387E-02 -0.6244942418269E-02  0.0000000000000E+00 -0.1163522967112E-02
 0.1222142897937E-02 -0.6206884797716E-02  0.0000000000000E+00 -0.1284889841585E-02
 0.1186881807787E-02 -0.6163356772658E-02  0.0000000000000E+00 -0.1407231043549E-02
 0.1150422058570E-02 -0.6113629258568E-02  0.0000000000000E+00 -0.1527840458369E-02
 0.1114126691539E-02 -0.6056927601043E-02  0.0000000000000E+00 -0.1642615932671E-02
 0.1079845434720E-02 -0.5992513556413E-02  0.0000000000000E+00 -0.1745811663033E-02
 0.1050149191943E-02 -0.5919818925944E-02  0.0000000000000E+00 -0.1829806652573E-02
 0.1028636132543E-02 -0.5838644740259E-02  0.0000000000000E+00 -0.1884938576007E-02
 0.1020324405513E-02 -0.5749456077286E-02  0.0000000000000E+00 -0.1899466263883E-02
 0.1032149818284E-02 -0.5653854904378E-02  0.0000000000000E+00 -0.1859818184158E-02
 0.1073525520942E-02 -0.5555161499789E-02  0.0000000000000E+00 -0.1751232013988E-02
 0.1156940745090E-02 -0.5459016419519E-02  0.0000000000000E+00 -0.1558908730570E-02
 0.1298553612670E-02 -0.5374077656060E-02  0.0000000000000E+00 -0.1270186124315E-02
 0.1518476898425E-02 -0.5312641532913E-02  0.0000000000000E+00 -0.8782986173991E-03
 0.1840121429018E-02 -0.5290665555385E-02  0.0000000000000E+00 -0.3880250047487E-03
 0.2287648843039E-02 -0.5326360981210E-02  0.0000000000000E+00  0.1772588360239E-03
 0.2880540461476E-02 -0.5436421202836E-02  0.0000000000000E+00  0.7692498293334E-03
 0.3625179328414E-02 -0.5629588371556E-02  0.0000000000000E+00  0.1313414090703E-02
 0.4505025788088E-02 -0.5898885996364E-02  0.0000000000000E+00  0.1718045038931E-02
 0.5474985299224E-02 -0.6216511367395E-02  0.0000000000000E+00  0.1896924817005E-02
 0.6456847658677E-02 -0.6532474702506E-02  0.0000000000000E+00  0.1797608646322E-02
 0.7371665242467E-02 -0.6787976943575E-02  0.0000000000000E+00  0.1488131964588E-02
 0.9764084140366E-04 -0.5791818032096E-02  0.0000000000000E+00  0.1146981934433E-02
 0.2942116434139E-03 -0.5911634844211E-02  0.0000000000000E+00  0.1118670823875E-02
 0.4882213601601E-03 -0.6026065780213E-02  0.0000000000000E+00  0.1046244327582E-02
 0.6701416764354E-03 -0.6128648382960E-02  0.0000000000000E+00  0.9336215942763E-03
 0.8324817022988E-03 -0.6214861748080E-02  0.0000000000000E+00  0.7909207417273E-03
 0.9711262918894E-03 -0.6282970733345E-02  0.0000000000000E+00  0.6307204701657E-03
 0.1085191082499E-02 -0.6333678711223E-02  0.0000000000000E+00  0.4645733817007E-03
 0.1176054979571E-02 -0.6369186523539E-02  0.0000000000000E+00  0.3010547909559E-03
 0.1246271269266E-02 -0.6392252809983E-02  0.0000000000000E+00  0.1453377153170E-03
 0.1298740162409E-02 -0.6405548072582E-02  0.0000000000000E+00 -0.3169102433115E-06
 0.1336222555036E-02 -0.6411329372432E-02  0.0000000000000E+00 -0.1357517779069E-03
 0.1361122779225E-02 -0.6411342969378E-02  0.0000000000000E+00 -0.2621403867322E-03
 0.1375436595639E-02 -0.6406850082849E-02  0.0000000000000E+00 -0.3813851005849E-03
 0.1380781815761E-02 -0.6398700914436E-02  0.0000000000000E+00 -0.4956957160856E-03
 0.1378460673461E-02 -0.6387415376218E-02  0.0000000000000E+00 -0.6073095833719E-03
 0.1369527772173E-02 -0.6373252009641E-02  0.0000000000000E+00 -0.7183065842853E-03
 0.1354852496413E-02 -0.6356259193909E-02  0.0000000000000E+00 -0.8304799417328E-03
 0.1335173031593E-02 -0.6336308845958E-02  0.0000000000000E+00 -0.9452321789020E-03
 0.1311143210392E-02 -0.6313115047085E-02  0.0000000000000E+00 -0.1063474650568E-02
 0.1283375999430E-02 -0.6286241315558E-02  0.0000000000000E+00 -0.1185513673641E-02
 0.1252490063282E-02 -0.6255101890761E-02  0.0000000000000E+00 -0.1310907458919E-02
 0.1219165622427E-02 -0.6218961384441E-02  0.0000000000000E+00 -0.1438292625435E-02
 0.1184223872038E-02 -0.6176944805760E-02  0.0000000000000E+00 -0.1565164221144E-02
 0.1148742760895E-02 -0.6128068952981E-02  0.0000000000000E+00 -0.1687616374878E-02
 0.1114222671493E-02 -0.6071307651239E-02  0.0000000000000E+00 -0.1800067446593E-02
 0.1082818617451E-02 -0.6005708721233E-02  0.0000000000000E+00 -0.1894987614259E-02
 0.1057650347757E-02 -0.5930577804708E-02  0.0000000000000E+00 -0.1962674931725E-02
 0.1043208802993E-02 -0.5845761921616E-02  0.0000000000000E+00 -0.1991134035476E-02
 0.1045888558922E-02 -0.5752131006624E-02  0.0000000000000E+00 -0.1966202841358E-02
 0.1074615516848E-02 -0.5652193316166E-02  0.0000000000000E+00 -0.1872028903418E-02
 0.1141574813629E-02 -0.5550771627597E-02  0.0000000000000E+00 -0.1692019705497E-02
 0.1263045047800E-02 -0.5455873053068E-02  0.0000000000000E+00 -0.1410822989215E-02
 0.1460070193165E-02 -0.5379631520629E-02  0.0000000000000E+00 -0.1018075332536E-02
 0.1758292373736E-02 -0.5338791083716E-02  0.0000000000000E+00 -0.5145294087996E-03
 0.2185784840565E-02 -0.5353747759620E-02  0.0000000000000E+00  0.7955558435468E-04
 0.2767482721750E-02 -0.5444853983380E-02  0.0000000000000E+00  0.7157633982136E-03
 0.3515451677442E-02 -0.5625172697741E-02  0.0000000000000E+00  0.1313609734564E-02
 0.4416916534816E-02 -0.5890912685860E-02  0.0000000000000E+00  0.1768409137661E-02
 0.5423953715562E-02 -0.6213573176834E-02  0.0000000000000E+00  0.1976919854684E-02
 0.6457554890688E-02 -0.6541347030761E-02  0.0000000000000E+00  0.1870194718666E-02
 0.7373250491979E-02 -0.6789323044866E-02  0.0000000000000E+00  0.1492625137339E-02
 0.1011382832708E-03 -0.5802088006251E-02  0.0000000000000E+00  0.1221034594858E-02
 0.3049972494113E-03 -0.5925960587498E-02  0.0000000000000E+00  0.1190170877758E-02
 0.5061463510819E-03 -0.6043775451608E-02  0.0000000000000E+00  0.1110439562828E-02
 0.6936959401687E-03 -0.6148239262525E-02  0.0000000000000E+00  0.9867769865111E-03
 0.8594266960501E-03 -0.6234549260477E-02  0.0000000000000E+00  0.8313900161860E-03
 0.9992478267060E-03 -0.6301271417087E-02  0.0000000000000E+00  0.6589220259004E-03
 0.1112798766143E-02 -0.6349735283227E-02  0.0000000000000E+00  0.4822766729775E-03
 0.1202141943947E-02 -0.6382801137538E-02  0.0000000000000E+00  0.3105559152152E-03
 0.1270442399076E-02 -0.6403747015080E-02  0.0000000000000E+00  0.1488628328839E-03
 0.1321047668248E-02 -0.6415577003553E-02  0.0000000000000E+00 -0.9153173065046E-06
 0.1357000361727E-02 -0.6420723957613E-02  0.0000000000000E+00 -0.1390816272651E-03
 0.1380857423344E-02 -0.6421002746691E-02  0.0000000000000E+00 -0.2672398807672E-03
 0.1394679381467E-02 -0.6417681627160E-02  0.0000000000000E+00 -0.3876492136335E-03
 0.1400093712614E-02 -0.6411588369269E-02  0.0000000000000E+00 -0.5027996208298E-03
 0.1398379107371E-02 -0.6403210321663E-02  0.0000000000000E+00 -0.6151462543043E-03
 0.1390546222995E-02 -0.6392773250849E-02  0.0000000000000E+00 -0.7269434692575E-03
 0.1377406249931E-02 -0.6380296169803E-02  0.0000000000000E+00 -0.8401342692886E-03
 0.1359626339977E-02 -0.6365624409969E-02  0.0000000000000E+00 -0.9562627369105E-03
 0.1337774314961E-02 -0.6348444496295E-02  0.0000000000000E+00 -0.1076387580040E-02
 0.1312357080765E-02 -0.6328284911747E-02  0.0000000000000E+00 -0.1200979728552E-02
 0.1283859455644E-02 -0.6304507902876E-02  0.0000000000000E+00 -0.1329787503001E-02
 0.1252790145724E-02 -0.6276296989077E-02  0.0000000000000E+00 -0.1461666837075E-02
 0.1219749657317E-02 -0.6242651506316E-02  0.0000000000000E+00 -0.1594357836072E-02
 0.1185534537370E-02 -0.6202399944609E-02  0.0000000000000E+00 -0.1724211959521E-02
 0.1151293630679E-02 -0.6154245995709E-02  0.0000000000000E+00 -0.1845891778043E-02
 0.1118754680358E-02 -0.6096865455493E-02  0.0000000000000E+00 -0.1952059242808E-02
 0.1090533793125E-02 -0.6029069556920E-02  0.0000000000000E+00 -0.2033095600148E-02
 0.1070548026504E-02 -0.5950068689576E-02  0.0000000000000E+00 -0.2076896908711E-02
 0.1064570878731E-02 -0.5859949328818E-02  0.0000000000000E+00 -0.2068871933879E-02
 0.1080911859477E-02 -0.5760303966228E-02  0.0000000000000E+00 -0.1992231608416E-02
 0.1131257307080E-02 -0.5654956926873E-02  0.0000000000000E+00 -0.1828679977694E-02
 0.1231745352274E-02 -0.5550988918582E-02  0.0000000000000E+00 -0.1560090931926E-02
 0.1404070675914E-02 -0.5460018054375E-02  0.0000000000000E+00 -0.1172076641933E-02
 0.1675938361607E-02 -0.5399237592460E-02  0.0000000000000E+00 -0.6604224113478E-03
 0.2079521678345E-02 -0.5391108627763E-02  0.0000000000000E+00 -0.4080788947353E-04
 0.2645983162052E-02 -0.5459991990388E-02  0.0000000000000E+00  0.6398312285139E-03
 0.3394617267275E-02 -0.5624216079292E-02  0.0000000000000E+00  0.1295754880024E-02
 0.4317616808382E-02 -0.5884277143311E-02  0.0000000000000E+00  0.1808363940447E-02
 0.5367060118488E-02 -0.6211970440542E-02  0.0000000000000E+00  0.2052596668850E-02
 0.6451811886350E-02 -0.6550039353011E-02  0.0000000000000E+00  0.1947736214142E-02
 0.7426297049876E-02 -0.6803371306727E-02  0.0000000000000E+00  0.1476496853263E-02
 0.1049884555724E-03 -0.5813677802916E-02  0.0000000000000E+00  0.1297713041155E-02
 0.3169354740447E-03 -0.5941984961801E-02  0.0000000000000E+00  0.1263974322251E-02
 0.5259495301949E-03 -0.6063387655960E-02  0.0000000000000E+00  0.1175908231960E-02
 0.7195055979967E-03 -0.6169605720324E-02  0.0000000000000E+00  0.1039820571368E-02
 0.8885847146515E-03 -0.6255572980086E-02  0.0000000000000E+00  0.8705183541324E-03
 0.1029235482574E-02 -0.6320303645251E-02  0.0000000000000E+00  0.6850526057367E-03
 0.1141794683636E-02 -0.6365917178625E-02  0.0000000000000E+00  0.4977518587477E-03
 0.1229146678631E-02 -0.6396041211651E-02  0.0000000000000E+00  0.3181359155260E-03
 0.1295142353816E-02 -0.6414513584952E-02  0.0000000000000E+00  0.1510708666174E-03
 0.1343598691161E-02 -0.6424666371049E-02  0.0000000000000E+00 -0.2075575177479E-05
 0.1377833248600E-02 -0.6429082282399E-02  0.0000000000000E+00 -0.1421648836483E-03
 0.1400538071469E-02 -0.6429615720840E-02  0.0000000000000E+00 -0.2712848297437E-03
 0.1413820300276E-02 -0.6427517831357E-02  0.0000000000000E+00 -0.3920740280745E-03
 0.1419302499459E-02 -0.6423577094945E-02  0.0000000000000E+00 -0.5073069978194E-03
 0.1418229913279E-02 -0.6418238503529E-02  0.0000000000000E+00 -0.6196516717984E-03
 0.1411563827139E-02 -0.6411691320250E-02  0.0000000000000E+00 -0.7315282683774E-03
 0.1400055738408E-02 -0.6403926570066E-02  0.0000000000000E+00 -0.8450209485112E-03
 0.1384303670257E-02 -0.6394768840600E-02  0.0000000000000E+00 -0.9618091316604E-03
 0.1364794336546E-02 -0.6383887099110E-02  0.0000000000000E+00 -0.1083097063410E-02
 0.1341936118051E-02 -0.6370788870260E-02  0.0000000000000E+00 -0.1209525007856E-02
 0.1316089643678E-02 -0.6354802503573E-02  0.0000000000000E+00 -0.1341045245531E-02
 0.1287603000103E-02 -0.6335052257265E-02  0.0000000000000E+00 -0.1476759075245E-02
 0.1256866630468E-02 -0.6310436524908E-02  0.0000000000000E+00 -0.1614693287474E-02
 0.1224403851614E-02 -0.6279621556504E-02  0.0000000000000E+00 -0.1751517027032E-02
 0.1191014967632E-02 -0.6241066035902E-02  0.0000000000000E+00 -0.1882218746531E-02
 0.1157995066404E-02 -0.6193094827007E-02  0.0000000000000E+00 -0.1999757703290E-02
 0.1127438441894E-02 -0.6134037198773E-02  0.0000000000000E+00 -0.2094731421651E-02
 0.1102649613685E-02 -0.6062462517409E-02  0.0000000000000E+00 -0.2155092690865E-02
 0.1088708568552E-02 -0.5977638495893E-02  0.0000000000000E+00 -0.2166018360698E-02
 0.1093181359251E-02 -0.5880152664554E-02  0.0000000000000E+00 -0.2109996999649E-02
 0.1127047372781E-02 -0.5772654421102E-02  0.0000000000000E+00 -0.1967212076290E-02
 0.1205998034941E-02 -0.5660999625508E-02  0.0000000000000E+00 -0.1716799053942E-02
 0.1352002196070E-02 -0.5555864040045E-02  0.0000000000000E+00 -0.1340025213278E-02
 0.1594514971806E-02 -0.5474415436430E-02  0.0000000000000E+00 -0.8267687473622E-03
 0.1969840278852E-02 -0.5440885238210E-02  0.0000000000000E+00 -0.1864248045861E-03
 0.2516154665629E-02 -0.5483884752428E-02  0.0000000000000E+00  0.5376535241127E-03
 0.3261612806451E-02 -0.5628036773750E-02  0.0000000000000E+00  0.1255938596536E-02
 0.4205801341814E-02 -0.5879625003283E-02  0.0000000000000E+00  0.1834502538184E-02
 0.5301128566242E-02 -0.6211876187703E-02  0.0000000000000E+00  0.2124319010090E-02
 0.6445888784732E-02 -0.6559172064620E-02  0.0000000000000E+00  0.2017549967307E-02
 0.7495295749802E-02 -0.6825772163138E-02  0.0000000000000E+00  0.1477396672689E-02
 0.1092632468020E-03 -0.5826828002133E-02  0.0000000000000E+00  0.1377257510434E-02
 0.3302183443967E-03 -0.5959993279813E-02  0.0000000000000E+00  0.1340204315246E-02
 0.5479098850739E-03 -0.6085173995630E-02  0.0000000000000E+00  0.1242502576545E-02
 0.7478305665066E-03 -0.6192920463583E-02  0.0000000000000E+00  0.1092312791763E-02
 0.9201104198500E-03 -0.6277956058203E-02  0.0000000000000E+00  0.9076957029290E-03
 0.1061110296309E-02 -0.6339946980024E-02  0.0000000000000E+00  0.7084912851592E-03
 0.1172086299461E-02 -0.6382003126786E-02  0.0000000000000E+00  0.5104811097680E-03
 0.1256902022523E-02 -0.6408633833519E-02  0.0000000000000E+00  0.3234256708369E-03
 0.1320165226090E-02 -0.6424264997261E-02  0.0000000000000E+00  0.1517371305583E-03
 0.1366172792954E-02 -0.6432534439890E-02  0.0000000000000E+00 -0.3905163627083E-05
 0.1398498940360E-02 -0.6436135294767E-02  0.0000000000000E+00 -0.1450230661856E-03
 0.1419945018998E-02 -0.6436923763354E-02  0.0000000000000E+00 -0.2742370650653E-03
 0.1432641593908E-02 -0.6436104962804E-02  0.0000000000000E+00 -0.3945803833820E-03
 0.1438189046232E-02 -0.6434408912292E-02  0.0000000000000E+00 -0.5091090739439E-03
 0.1437788041051E-02 -0.6432227493390E-02  0.0000000000000E+00 -0.6206925933548E-03
 0.1432344715571E-02 -0.6429709466348E-02  0.0000000000000E+00 -0.7319031752513E-03
 0.1422549586239E-02 -0.6426819329504E-02  0.0000000000000E+00 -0.8449528849128E-03
 0.1408934107745E-02 -0.6423367095333E-02  0.0000000000000E+00 -0.9616457882667E-03
 0.1391909917093E-02 -0.6419014792992E-02  0.0000000000000E+00 -0.1083325147831E-02
 0.1371796150819E-02 -0.6413264162586E-02  0.0000000000000E+00 -0.1210800054511E-02
 0.1348841496687E-02 -0.6405429622857E-02  0.0000000000000E+00 -0.1344234751715E-02
 0.1323248015929E-02 -0.6394601021904E-02  0.0000000000000E+00 -0.1482995666489E-02
 0.1295211747543E-02 -0.6379605109514E-02  0.0000000000000E+00 -0.1625431653867E-02
 0.1264997457348E-02 -0.6358978447661E-02  0.0000000000000E+00 -0.1768584394711E-02
 0.1233068016776E-02 -0.6330968621098E-02  0.0000000000000E+00 -0.1907845877532E-02
 0.1200290534308E-02 -0.6293582359527E-02  0.0000000000000E+00 -0.2036576605613E-02
 0.1168232049059E-02 -0.6244695119394E-02  0.0000000000000E+00 -0.2145726297855E-02
 0.1139561995091E-02 -0.6182251898411E-02  0.0000000000000E+00 -0.2223481866466E-02
 0.1118613296954E-02 -0.6104693348631E-02  0.0000000000000E+00 -0.2255015755995E-02
 0.1112099080629E-02 -0.6011543884551E-02  0.0000000000000E+00 -0.2222370469024E-02
 0.1130089147084E-02 -0.5904128677614E-02  0.0000000000000E+00 -0.2104502475506E-02
 0.1187493440252E-02 -0.5786784149032E-02  0.0000000000000E+00 -0.1878013682433E-02
 0.1306084089619E-02 -0.5668763332068E-02  0.0000000000000E+00 -0.1519711276198E-02
 0.1516564764256E-02 -0.5566584700055E-02  0.0000000000000E+00 -0.1012766456021E-02
 0.1859157321938E-02 -0.5505713135446E-02  0.0000000000000E+00 -0.3584791400897E-03
 0.2379638760178E-02 -0.5519024832301E-02  0.0000000000000E+00  0.4060659253793E-03
 0.3116900967666E-02 -0.5638451290519E-02  0.0000000000000E+00  0.1189767775007E-02
 0.4080579428381E-02 -0.5878031790486E-02  0.0000000000000E+00  0.1843218025610E-02
 0.5225542572740E-02 -0.6213551041276E-02  0.0000000000000E+00  0.2187883739292E-02
 0.6439847197735E-02 -0.6572333694817E-02  0.0000000000000E+00  0.2082513300559E-02
 0.7570590917699E-02 -0.6850456785042E-02  0.0000000000000E+00  0.1473503656994E-02
 0.1140383196103E-03 -0.5841840226178E-02  0.0000000000000E+00  0.1459949001245E-02
 0.3450804995453E-03 -0.5980342616321E-02  0.0000000000000E+00  0.1419010366527E-02
 0.5723649371474E-03 -0.6109469100347E-02  0.0000000000000E+00  0.1310038450333E-02
 0.7789778170176E-03 -0.6218387320985E-02  0.0000000000000E+00  0.1143728786247E-02
 0.9541790366318E-03 -0.6301716977315E-02  0.0000000000000E+00  0.9422230503986E-03
 0.1094893787535E-02 -0.6360054430807E-02  0.0000000000000E+00  0.7285608702388E-03
 0.1203575757561E-02 -0.6397741068904E-02  0.0000000000000E+00  0.5199309294001E-03
 0.1285240950197E-02 -0.6420282597177E-02  0.0000000000000E+00  0.3260695070458E-03
 0.1345315678841E-02 -0.6432701674213E-02  0.0000000000000E+00  0.1506632137664E-03
 0.1388571037750E-02 -0.6438898676077E-02  0.0000000000000E+00 -0.6485107628434E-05
 0.1418806259392E-02 -0.6441623006277E-02  0.0000000000000E+00 -0.1476583226722E-03
 0.1438897801750E-02 -0.6442686774288E-02  0.0000000000000E+00 -0.2760493447864E-03
 0.1450972024648E-02 -0.6443216448962E-02  0.0000000000000E+00 -0.3950913071212E-03
 0.1456587874168E-02 -0.6443863173971E-02  0.0000000000000E+00 -0.5081105606446E-03
 0.1456889668260E-02 -0.6444954905389E-02  0.0000000000000E+00 -0.6181604570691E-03
 0.1452722669496E-02 -0.6446596327553E-02  0.0000000000000E+00 -0.7279464604143E-03
 0.1444715527731E-02 -0.6448727470941E-02  0.0000000000000E+00 -0.8397911937701E-03
 0.1433336321984E-02 -0.6451150615941E-02  0.0000000000000E+00 -0.9556088775965E-03
 0.1418928526949E-02 -0.6453532276904E-02  0.0000000000000E+00 -0.1076871302558E-02
 0.1401732579145E-02 -0.6455384687367E-02  0.0000000000000E+00 -0.1204551411866E-02
 0.1381899329727E-02 -0.6456029987935E-02  0.0000000000000E+00 -0.1339028311497E-02
 0.1359502103660E-02 -0.6454551096354E-02  0.0000000000000E+00 -0.1479947733291E-02
 0.1334561918635E-02 -0.6449736354118E-02  0.0000000000000E+00 -0.1626010399966E-02
 0.1307104474585E-02 -0.6440030709713E-02  0.0000000000000E+00 -0.1774680508605E-02
 0.1277272201172E-02 -0.6423511884786E-02  0.0000000000000E+00 -0.1921827636459E-02
 0.1245516138186E-02 -0.6397910852840E-02  0.0000000000000E+00 -0.2061315478516E-02
 0.1212880162711E-02 -0.6360690344455E-02  0.0000000000000E+00 -0.2184582442183E-02
 0.1181389363109E-02 -0.6309205763386E-02  0.0000000000000E+00 -0.2280233691207E-02
 0.1154593806784E-02 -0.6241087411896E-02  0.0000000000000E+00 -0.2333685849006E-02
 0.1138264340578E-02 -0.6154770373609E-02  0.0000000000000E+00 -0.2326861467787E-02
 0.1141372356395E-02 -0.6050140119189E-02  0.0000000000000E+00 -0.2237883428840E-02
 0.1177697827298E-02 -0.5929737249169E-02  0.0000000000000E+00 -0.2041196437949E-02
 0.1268264728608E-02 -0.5800875570393E-02  0.0000000000000E+00 -0.1709269461031E-02
 0.1444334322754E-02 -0.5678654207581E-02  0.0000000000000E+00 -0.1217980513329E-02
 0.1749535424074E-02 -0.5588953751158E-02  0.0000000000000E+00 -0.5586732879240E-03
 0.2237598805436E-02 -0.5568609612275E-02  0.0000000000000E+00  0.2410919881165E-03
 0.2960116285243E-02 -0.5657831031389E-02  0.0000000000000E+00  0.1092088115333E-02
 0.3940287417448E-02 -0.5880738183020E-02  0.0000000000000E+00  0.1829916155803E-02
 0.5138536575329E-02 -0.6218120040769E-02  0.0000000000000E+00  0.2241243288421E-02
 0.6433224088631E-02 -0.6590832494990E-02  0.0000000000000E+00  0.2142422804790E-02
 0.7652201220672E-02 -0.6882370047720E-02  0.0000000000000E+00  0.1465832250748E-02
 0.1194112878419E-03 -0.5859094419774E-02  0.0000000000000E+00  0.1546110708082E-02
 0.3618204868694E-03 -0.6003479261382E-02  0.0000000000000E+00  0.1500535176134E-02
 0.5997299475523E-03 -0.6136675934874E-02  0.0000000000000E+00  0.1378224736256E-02
 0.8133022202795E-03 -0.6246227829246E-02  0.0000000000000E+00  0.1193367854566E-02
 0.9909676001373E-03 -0.6326841262270E-02  0.0000000000000E+00  0.9732314849785E-03
 0.1130576258514E-02 -0.6380419099037E-02  0.0000000000000E+00  0.7444701923438E-03
 0.1236122616298E-02 -0.6412817100498E-02  0.0000000000000E+00  0.5255165978735E-03
 0.1313957571890E-02 -0.6430641273421E-02  0.0000000000000E+00  0.3257049796437E-03
 0.1370369122717E-02 -0.6439489518885E-02  0.0000000000000E+00  0.1476663886504E-03
 0.1410574908737E-02 -0.6443455050502E-02  0.0000000000000E+00 -0.9874086500092E-05
 0.1438551940936E-02 -0.6445273191614E-02  0.0000000000000E+00 -0.1500524868103E-03
 0.1457208916454E-02 -0.6446658283569E-02  0.0000000000000E+00 -0.2766600206790E-03
 0.1468636338610E-02 -0.6448622657661E-02  0.0000000000000E+00 -0.3935226149291E-03
 0.1474330991210E-02 -0.6451717669262E-02  0.0000000000000E+00 -0.5042162574852E-03
 0.1475368831899E-02 -0.6456196986098E-02  0.0000000000000E+00 -0.6119537579359E-03
 0.1472528810058E-02 -0.6462118363047E-02  0.0000000000000E+00 -0.7195499975137E-03
 0.1466377323693E-02 -0.6469400127625E-02  0.0000000000000E+00 -0.8294167525737E-03
 0.1457322879857E-02 -0.6477844300367E-02  0.0000000000000E+00 -0.9435601396563E-03
 0.1445648465423E-02 -0.6487133927426E-02  0.0000000000000E+00 -0.1063565959469E-02
 0.1431527422505E-02 -0.6496808819190E-02  0.0000000000000E+00 -0.1190561308697E-02
 0.1415028488667E-02 -0.6506221793401E-02  0.0000000000000E+00 -0.1325137388520E-02
 0.1396116034016E-02 -0.6514478544883E-02  0.0000000000000E+00 -0.1467226867504E-02
 0.1374659074020E-02 -0.6520365854607E-02  0.0000000000000E+00 -0.1615905209661E-02
 0.1350468594127E-02 -0.6522280473416E-02  0.0000000000000E+00 -0.1769102587943E-02
 0.1323389602138E-02 -0.6518178758342E-02  0.0000000000000E+00 -0.1923234708848E-02
 0.1293476380338E-02 -0.6505567860524E-02  0.0000000000000E+00 -0.2072765897043E-02
 0.1261263657044E-02 -0.6481551927209E-02  0.0000000000000E+00 -0.2209756333586E-02
 0.1228137553406E-02 -0.6442950514203E-02  0.0000000000000E+00 -0.2323413834512E-02
 0.1196850921488E-02 -0.6386628168009E-02  0.0000000000000E+00 -0.2399659541175E-02
 0.1172171117473E-02 -0.6309943566156E-02  0.0000000000000E+00 -0.2420661019607E-02
 0.1161811142129E-02 -0.6211276038019E-02  0.0000000000000E+00 -0.2364193674722E-02
 0.1178081776133E-02 -0.6091139186992E-02  0.0000000000000E+00 -0.2203104826551E-02
 0.1240650800036E-02 -0.5954390492955E-02  0.0000000000000E+00 -0.1905945906497E-02
 0.1380451046283E-02 -0.5813813904251E-02  0.0000000000000E+00 -0.1441064429058E-02
 0.1643636812538E-02 -0.5694560056590E-02  0.0000000000000E+00 -0.7881240780278E-03
 0.2091829092424E-02 -0.5636658618690E-02  0.0000000000000E+00  0.3864825215977E-04
 0.2791267338311E-02 -0.5689309315461E-02  0.0000000000000E+00  0.9567736523689E-03
 0.3783071366452E-02 -0.5889539524347E-02  0.0000000000000E+00  0.1788982038558E-02
 0.5037923312220E-02 -0.6226694007612E-02  0.0000000000000E+00  0.2281706749419E-02
 0.6424636793794E-02 -0.6616184968249E-02  0.0000000000000E+00  0.2198549119748E-02
 0.7741620854506E-02 -0.6922763426897E-02  0.0000000000000E+00  0.1452010870129E-02
 0.1255096861992E-03 -0.5879073476704E-02  0.0000000000000E+00  0.1636118659217E-02
 0.3808216228178E-03 -0.6029964220037E-02  0.0000000000000E+00  0.1584903121956E-02
 0.6305171945502E-03 -0.6167278683672E-02  0.0000000000000E+00  0.1446616802651E-02
 0.8512094440488E-03 -0.6276673250675E-02  0.0000000000000E+00  0.1240297885983E-02
 0.1030643090947E-02 -0.6353260597025E-02  0.0000000000000E+00  0.9996472082135E-03
 0.1168100835339E-02 -0.6400753238342E-02  0.0000000000000E+00  0.7553068326574E-03
 0.1269531594557E-02 -0.6426841656225E-02  0.0000000000000E+00  0.5266122394624E-03
 0.1342800533035E-02 -0.6439307495173E-02  0.0000000000000E+00  0.3219780488987E-03
 0.1395069417266E-02 -0.6444258552797E-02  0.0000000000000E+00  0.1425930196422E-03
 0.1431946418115E-02 -0.6445879151846E-02  0.0000000000000E+00 -0.1409877787799E-04
 0.1457521823580E-02 -0.6446803460545E-02  0.0000000000000E+00 -0.1521608672477E-03
 0.1474685382821E-02 -0.6448587751054E-02  0.0000000000000E+00 -0.2759893917588E-03
 0.1485456882504E-02 -0.6452093137961E-02  0.0000000000000E+00 -0.3897810391353E-03
 0.1491249450337E-02 -0.6457750732166E-02  0.0000000000000E+00 -0.4973304049573E-03
 0.1493058909893E-02 -0.6465730608775E-02  0.0000000000000E+00 -0.6019782970205E-03
 0.1491593022958E-02 -0.6476041786019E-02  0.0000000000000E+00 -0.7066202595370E-03
 0.1487356158220E-02 -0.6488584474099E-02  0.0000000000000E+00 -0.8137319390135E-03
 0.1480701634423E-02 -0.6503168479138E-02  0.0000000000000E+00 -0.9253894853482E-03
 0.1471860234267E-02 -0.6519505840421E-02  0.0000000000000E+00 -0.1043274224657E-02
 0.1460950618891E-02 -0.6537181480397E-02  0.0000000000000E+00 -0.1168652847611E-02
 0.1447976434414E-02 -0.6555602675489E-02  0.0000000000000E+00 -0.1302319747300E-02
 0.1432815061893E-02 -0.6573929300849E-02  0.0000000000000E+00 -0.1444494684336E-02
 0.1415209980191E-02 -0.6590986567355E-02  0.0000000000000E+00 -0.1594642383359E-02
 0.1394786663676E-02 -0.6605171479565E-02  0.0000000000000E+00 -0.1751194159353E-02
 0.1371121816734E-02 -0.6614374614886E-02  0.0000000000000E+00 -0.1911172917836E-02
 0.1343899642335E-02 -0.6615940563875E-02  0.0000000000000E+00 -0.2069734121967E-02
 0.1313169570944E-02 -0.6606681733651E-02  0.0000000000000E+00 -0.2219685444135E-02
 0.1279699337055E-02 -0.6582954502041E-02  0.0000000000000E+00 -0.2351014982781E-02
 0.1245454312262E-02 -0.6540931619846E-02  0.0000000000000E+00 -0.2450409129409E-02
 0.1214172427659E-02 -0.6476952903906E-02  0.0000000000000E+00 -0.2500668383326E-02
 0.1192192670614E-02 -0.6387888403502E-02  0.0000000000000E+00 -0.2479782076523E-02
 0.1190055379839E-02 -0.6272069199753E-02  0.0000000000000E+00 -0.2359738893057E-02
 0.1225446739790E-02 -0.6131429313113E-02  0.0000000000000E+00 -0.2105938377371E-02
 0.1327912148429E-02 -0.5975465769834E-02  0.0000000000000E+00 -0.1679465027391E-02
 0.1544812624549E-02 -0.5827108592435E-02  0.0000000000000E+00 -0.1046978063183E-02
 0.1944970774766E-02 -0.5728182091863E-02  0.0000000000000E+00 -0.2052083925959E-03
 0.2610930609273E-02 -0.5737067026824E-02  0.0000000000000E+00  0.7767242683636E-03
 0.3606980979625E-02 -0.5906885927527E-02  0.0000000000000E+00  0.1713244501719E-02
 0.4920719801810E-02 -0.6240523104344E-02  0.0000000000000E+00  0.2305883435872E-02
 0.6412355660438E-02 -0.6649441193457E-02  0.0000000000000E+00  0.2251324026028E-02
 0.7840607148277E-02 -0.6972942091779E-02  0.0000000000000E+00  0.1429475305713E-02
 0.1325025747532E-03 -0.5902397529113E-02  0.0000000000000E+00  0.1730415221676E-02
 0.4025810793059E-03 -0.6060507671175E-02  0.0000000000000E+00  0.1672200011796E-02
 0.6653598641740E-03 -0.6201856436439E-02  0.0000000000000E+00  0.1514548150452E-02
 0.8931552796706E-03 -0.6309948872731E-02  0.0000000000000E+00  0.1283281728637E-02
 0.1073343338336E-02 -0.6380822354074E-02  0.0000000000000E+00  0.1020152920877E-02
 0.1207342127021E-02 -0.6420661533599E-02  0.0000000000000E+00  0.7600362598657E-03
 0.1303538320897E-02 -0.6439334218750E-02  0.0000000000000E+00  0.5225691280975E-03
 0.1371466579402E-02 -0.6445817239459E-02  0.0000000000000E+00  0.3145639902523E-03
 0.1419127457930E-02 -0.6446602877481E-02  0.0000000000000E+00  0.1353348951763E-03
 0.1452429083079E-02 -0.6445828418250E-02  0.0000000000000E+00 -0.1914303243161E-04
 0.1475492687574E-02 -0.6445924115862E-02  0.0000000000000E+00 -0.1539057055135E-03
 0.1491130748944E-02 -0.6448223385535E-02  0.0000000000000E+00 -0.2739360588935E-03
 0.1501255519142E-02 -0.6453399202266E-02  0.0000000000000E+00 -0.3837624534364E-03
 0.1507175117819E-02 -0.6461743585183E-02  0.0000000000000E+00 -0.4873561262253E-03
 0.1509794266844E-02 -0.6473335450174E-02  0.0000000000000E+00 -0.5881474727946E-03
 0.1509745534799E-02 -0.6488134665260E-02  0.0000000000000E+00 -0.6890792980031E-03
 0.1507472202838E-02 -0.6506027843900E-02  0.0000000000000E+00 -0.7926622926550E-03
 0.1503277324547E-02 -0.6526841129746E-02  0.0000000000000E+00 -0.9010174719747E-03
 0.1497348195832E-02 -0.6550328199129E-02  0.0000000000000E+00 -0.1015899438565E-02
 0.1489761714796E-02 -0.6576136670632E-02  0.0000000000000E+00 -0.1138695070513E-02
 0.1480474350768E-02 -0.6603752316638E-02  0.0000000000000E+00 -0.1270386583602E-02
 0.1469300214458E-02 -0.6632421611507E-02  0.0000000000000E+00 -0.1411472646005E-02
 0.1455886843302E-02 -0.6661050683210E-02  0.0000000000000E+00 -0.1561811921098E-02
 0.1439708161174E-02 -0.6688089827873E-02  0.0000000000000E+00 -0.1720361806842E-02
 0.1420107812871E-02 -0.6711426254424E-02  0.0000000000000E+00 -0.1884803982203E-02
 0.1396433784856E-02 -0.6728312219570E-02  0.0000000000000E+00 -0.2051066422928E-02
 0.1368283340023E-02 -0.6735347150113E-02  0.0000000000000E+00 -0.2212819059173E-02
 0.1335841233312E-02 -0.6728514812320E-02  0.0000000000000E+00 -0.2360994069977E-02
 0.1300320420613E-02 -0.6703399223659E-02  0.0000000000000E+00 -0.2483291568443E-02
 0.1264444065405E-02 -0.6655426334815E-02  0.0000000000000E+00 -0.2563535772154E-02
 0.1233120086250E-02 -0.6580028271171E-02  0.0000000000000E+00 -0.2580538665969E-02
 0.1214886742004E-02 -0.6473304092995E-02  0.0000000000000E+00 -0.2506321226489E-02
 0.1224861712775E-02 -0.6333910558256E-02  0.0000000000000E+00 -0.2304257458757E-02
 0.1290029281593E-02 -0.6167099339709E-02  0.0000000000000E+00 -0.1929090100692E-02
 0.1457173110512E-02 -0.5991779412160E-02  0.0000000000000E+00 -0.1333907627756E-02
 0.1800757461350E-02 -0.5849366753416E-02  0.0000000000000E+00 -0.4938244022834E-03
 0.2420575218262E-02 -0.5806677068810E-02  0.0000000000000E+00  0.5438812809050E-03
 0.3410070175383E-02 -0.5936191113730E-02  0.0000000000000E+00  0.1593512823017E-02
 0.4783065807142E-02 -0.6261030608613E-02  0.0000000000000E+00  0.2308793209590E-02
 0.6394229553663E-02 -0.6691670064654E-02  0.0000000000000E+00  0.2300419641555E-02
 0.7951301936401E-02 -0.7034554196767E-02  0.0000000000000E+00  0.1395579101262E-02
 0.1406177936863E-03 -0.5929872788361E-02  0.0000000000000E+00  0.1829526477537E-02
 0.4277509061939E-03 -0.6096015746693E-02  0.0000000000000E+00  0.1762437744795E-02
 0.7050410540177E-03 -0.6241096094924E-02  0.0000000000000E+00  0.1581029026812E-02
 0.9396379788329E-03 -0.6346245397526E-02  0.0000000000000E+00  0.1320680615807E-02
 0.1119147344498E-02 -0.6409245810774E-02  0.0000000000000E+00  0.1033148600574E-02
 0.1248078445094E-02 -0.6439607927794E-02  0.0000000000000E+00  0.7575125547916E-03
 0.1337793580418E-02 -0.6449707508290E-02  0.0000000000000E+00  0.5127453305004E-03
 0.1399595070813E-02 -0.6449641124895E-02  0.0000000000000E+00  0.3031949052710E-03
 0.1442221165703E-02 -0.6446082550040E-02  0.0000000000000E+00  0.1258483382332E-03
 0.1471750017279E-02 -0.6442945748838E-02  0.0000000000000E+00 -0.2493621619559E-04
 0.1492234842255E-02 -0.6442341895364E-02  0.0000000000000E+00 -0.1551695769315E-03
 0.1506347573568E-02 -0.6445315510101E-02  0.0000000000000E+00 -0.2703734631637E-03
 0.1515855846093E-02 -0.6452316848146E-02  0.0000000000000E+00 -0.3753503041308E-03
 0.1521942644038E-02 -0.6463482906341E-02  0.0000000000000E+00 -0.4741950175413E-03
 0.1525412052308E-02 -0.6478796333678E-02  0.0000000000000E+00 -0.5703826387101E-03
 0.1526818627866E-02 -0.6498169177440E-02  0.0000000000000E+00 -0.6668657014262E-03
 0.1526546334427E-02 -0.6521480015709E-02  0.0000000000000E+00 -0.7661580703945E-03
 0.1524853373052E-02 -0.6548580311011E-02  0.0000000000000E+00 -0.8703975923119E-03
 0.1521892508978E-02 -0.6579277954781E-02  0.0000000000000E+00 -0.9813864856265E-03
 0.1517711952942E-02 -0.6613300453295E-02  0.0000000000000E+00 -0.1100607754339E-02
 0.1512239309408E-02 -0.6650235708212E-02  0.0000000000000E+00 -0.1229209464366E-02
 0.1505250314881E-02 -0.6689449382781E-02  0.0000000000000E+00 -0.1367951936592E-02
 0.1496328809016E-02 -0.6729972640687E-02  0.0000000000000E+00 -0.1517081085231E-02
 0.1484835688215E-02 -0.6770366063040E-02  0.0000000000000E+00 -0.1676092957730E-02
 0.1469922934337E-02 -0.6808582408594E-02  0.0000000000000E+00 -0.1843367910474E-02
 0.1450643128678E-02 -0.6841860404940E-02  0.0000000000000E+00 -0.2015676749500E-02
 0.1426182801203E-02 -0.6866676092228E-02  0.0000000000000E+00 -0.2187652638373E-02
 0.1396192572678E-02 -0.6878747110178E-02  0.0000000000000E+00 -0.2351315421042E-02
 0.1361192878572E-02 -0.6873198670295E-02  0.0000000000000E+00 -0.2495602243598E-02
 0.1322950018589E-02 -0.6844694673911E-02  0.0000000000000E+00 -0.2605731891090E-02
 0.1284953059098E-02 -0.6787381098483E-02  0.0000000000000E+00 -0.2661957851907E-02
 0.1253606494752E-02 -0.6695206661563E-02  0.0000000000000E+00 -0.2637325026948E-02
 0.1240979554460E-02 -0.6563379859147E-02  0.0000000000000E+00 -0.2494635815704E-02
 0.1270311743757E-02 -0.6392093717554E-02  0.0000000000000E+00 -0.2183970823064E-02
 0.1385604029291E-02 -0.6194250828220E-02  0.0000000000000E+00 -0.1645466250131E-02
 0.1664290633790E-02 -0.6007736706305E-02  0.0000000000000E+00 -0.8292334439934E-03
 0.2223019619178E-02 -0.5905565163987E-02  0.0000000000000E+00  0.2494594124199E-03
 0.3190668506780E-02 -0.5982305685108E-02  0.0000000000000E+00  0.1417949578631E-02
 0.4620115889920E-02 -0.6290090335178E-02  0.0000000000000E+00  0.2282974011057E-02
 0.6367454576152E-02 -0.6744176341733E-02  0.0000000000000E+00  0.2344779767900E-02
 0.8076347764110E-02 -0.7109764279339E-02  0.0000000000000E+00  0.1347495000239E-02
 0.1501682426529E-03 -0.5962562735298E-02  0.0000000000000E+00  0.1934084585329E-02
 0.4571966025565E-03 -0.6137654517449E-02  0.0000000000000E+00  0.1855492582098E-02
 0.7505275861453E-03 -0.6285800652676E-02  0.0000000000000E+00  0.1644594794734E-02
 0.9911777225881E-03 -0.6385669112439E-02  0.0000000000000E+00  0.1350329634408E-02
 0.1168030509282E-02 -0.6438060302581E-02  0.0000000000000E+00  0.1036718399890E-02
 0.1289956891132E-02 -0.6456876108986E-02  0.0000000000000E+00  0.7465084340556E-03
 0.1371847250996E-02 -0.6457252998020E-02  0.0000000000000E+00  0.4965501702686E-03
 0.1426764585738E-02 -0.6450183914269E-02  0.0000000000000E+00  0.2876942133027E-03
 0.1463997476849E-02 -0.6442228012858E-02  0.0000000000000E+00  0.1141755453230E-03
 0.1489623375023E-02 -0.6436864727243E-02  0.0000000000000E+00 -0.3134124987833E-04
 0.1507515541331E-02 -0.6435764665898E-02  0.0000000000000E+00 -0.1557890887071E-03
 0.1520140401017E-02 -0.6439620479647E-02  0.0000000000000E+00 -0.2651468239878E-03
 0.1529085709567E-02 -0.6448630004007E-02  0.0000000000000E+00 -0.3644143714284E-03
 0.1535391621312E-02 -0.6462763597677E-02  0.0000000000000E+00 -0.4577469519907E-03
 0.1539754133886E-02 -0.6481905715859E-02  0.0000000000000E+00 -0.5486135534102E-03
 0.1542648474896E-02 -0.6505923986679E-02  0.0000000000000E+00 -0.6399355312249E-03
 0.1544401987654E-02 -0.6534695643252E-02  0.0000000000000E+00 -0.7341956677421E-03
 0.1545233863691E-02 -0.6568106790984E-02  0.0000000000000E+00 -0.8335183182878E-03
 0.1545271325343E-02 -0.6606031793539E-02  0.0000000000000E+00 -0.9397247516560E-03
 0.1544546751182E-02 -0.6648294381332E-02  0.0000000000000E+00 -0.1054365776670E-02
 0.1542977012628E-02 -0.6694607081327E-02  0.0000000000000E+00 -0.1178726850571E-02
 0.1540324807692E-02 -0.6744486486846E-02  0.0000000000000E+00 -0.1313803117306E-02
 0.1536144473105E-02 -0.6797133406172E-02  0.0000000000000E+00 -0.1460208183837E-02
 0.1529726622856E-02 -0.6851278768151E-02  0.0000000000000E+00 -0.1617974498799E-02
 0.1520079194012E-02 -0.6905015934611E-02  0.0000000000000E+00 -0.1786206824588E-02
 0.1506006978160E-02 -0.6955657227534E-02  0.0000000000000E+00 -0.1962576378248E-02
 0.1486334266327E-02 -0.6999654581723E-02  0.0000000000000E+00 -0.2142764991827E-02
 0.1460237458037E-02 -0.7032579164826E-02  0.0000000000000E+00 -0.2319998638171E-02
 0.1427626781273E-02 -0.7049249920860E-02  0.0000000000000E+00 -0.2484637825870E-02
 0.1389412166530E-02 -0.7043762709732E-02  0.0000000000000E+00 -0.2623623389126E-02
 0.1347750521544E-02 -0.7009208365724E-02  0.0000000000000E+00 -0.2719236097491E-02
 0.1306904230787E-02 -0.6937612323687E-02  0.0000000000000E+00 -0.2746563044490E-02
 0.1275592621998E-02 -0.6820809464484E-02  0.0000000000000E+00 -0.2669521124154E-02
 0.1272268793363E-02 -0.6653432540578E-02  0.0000000000000E+00 -0.2435970770124E-02
 0.1335685009343E-02 -0.6440457658643E-02  0.0000000000000E+00 -0.1975321637943E-02
 0.1542305653795E-02 -0.6212233076947E-02  0.0000000000000E+00 -0.1211073409587E-02
 0.2023065042033E-02 -0.6043581898037E-02  0.0000000000000E+00 -0.1154478807767E-03
 0.2947892836707E-02 -0.6052274899083E-02  0.0000000000000E+00  0.1171429151662E-02
 0.4425909734473E-02 -0.6330466006797E-02  0.0000000000000E+00  0.2217299316417E-02
 0.6328186103180E-02 -0.6808655766534E-02  0.0000000000000E+00  0.2382422679940E-02
 0.8219105205942E-02 -0.7201431226692E-02  0.0000000000000E+00  0.1282037314791E-02
 0.1615929611485E-03 -0.6001894582686E-02  0.0000000000000E+00  0.2044856282025E-02
 0.4920817369424E-03 -0.6186937988932E-02  0.0000000000000E+00  0.1950996443578E-02
 0.8030062829595E-03 -0.6336884553313E-02  0.0000000000000E+00  0.1703077578262E-02
 0.1048273279601E-02 -0.6428157528627E-02  0.0000000000000E+00  0.1369382048439E-02
 0.1219798996106E-02 -0.6466519863630E-02  0.0000000000000E+00  0.1028616930106E-02
 0.1332451670642E-02 -0.6471525500674E-02  0.0000000000000E+00  0.7257754762481E-03
 0.1405134187898E-02 -0.6461130871898E-02  0.0000000000000E+00  0.4735067375962E-03
 0.1452493127065E-02 -0.6446788930433E-02  0.0000000000000E+00  0.2680175437601E-03
 0.1484076939063E-02 -0.6434547678327E-02  0.0000000000000E+00  0.1004670838385E-03
 0.1505755335576E-02 -0.6427216625083E-02  0.0000000000000E+00 -0.3814306537088E-04
 0.1521103266888E-02 -0.6425907096057E-02  0.0000000000000E+00 -0.1555493021569E-03
 0.1532319219072E-02 -0.6430905130811E-02  0.0000000000000E+00 -0.2580707220656E-03
 0.1540779988930E-02 -0.6442134068178E-02  0.0000000000000E+00 -0.3508099965224E-03
 0.1547368901767E-02 -0.6459391724996E-02  0.0000000000000E+00 -0.4379101693634E-03
 0.1552669138637E-02 -0.6482466287772E-02  0.0000000000000E+00 -0.5227789590709E-03
 0.1557077067028E-02 -0.6511186722298E-02  0.0000000000000E+00 -0.6082632452699E-03
 0.1560867113100E-02 -0.6545436796641E-02  0.0000000000000E+00 -0.6967788937184E-03
 0.1564225664517E-02 -0.6585146830098E-02  0.0000000000000E+00 -0.7904048595156E-03
 0.1567263210630E-02 -0.6630269344531E-02  0.0000000000000E+00 -0.8909506473598E-03
 0.1570008541430E-02 -0.6680739315783E-02  0.0000000000000E+00 -0.1000002903825E-02
 0.1572385106139E-02 -0.6736414478183E-02  0.0000000000000E+00 -0.1118949968380E-02
 0.1574167429719E-02 -0.6796992060165E-02  0.0000000000000E+00 -0.1248985255235E-02
 0.1574915510787E-02 -0.6861886130858E-02  0.0000000000000E+00 -0.1391056274435E-02
 0.1573896071139E-02 -0.6930059830254E-02  0.0000000000000E+00 -0.1545712019537E-02
 0.1570026967014E-02 -0.6999827836492E-02  0.0000000000000E+00 -0.1712790073653E-02
 0.1561919762995E-02 -0.7068671555955E-02  0.0000000000000E+00 -0.1890905232949E-02
 0.1548090806907E-02 -0.7133126941753E-02  0.0000000000000E+00 -0.2076857483535E-02
 0.1527310072713E-02 -0.7188748363238E-02  0.0000000000000E+00 -0.2265169684766E-02
 0.1498977991581E-02 -0.7230217579682E-02  0.0000000000000E+00 -0.2447765853791E-02
 0.1463286876758E-02 -0.7251289733086E-02  0.0000000000000E+00 -0.2613571504716E-02
 0.1421220955678E-02 -0.7244301298279E-02  0.0000000000000E+00 -0.2747402662751E-02
 0.1375026437458E-02 -0.7199725456431E-02  0.0000000000000E+00 -0.2827344917326E-02
 0.1330008630614E-02 -0.7106383006253E-02  0.0000000000000E+00 -0.2820189812265E-02
 0.1299117900313E-02 -0.6953329248614E-02  0.0000000000000E+00 -0.2674624522546E-02
 0.1313448157955E-02 -0.6736152916714E-02  0.0000000000000E+00 -0.2313435648369E-02
 0.1443351375977E-02 -0.6473103850907E-02  0.0000000000000E+00 -0.1635044221321E-02
 0.1828326107277E-02 -0.6233654191966E-02  0.0000000000000E+00 -0.5585962401013E-03
 0.2682533740887E-02 -0.6156488630500E-02  0.0000000000000E+00  0.8350532192782E-03
 0.4193291881335E-02 -0.6386536533563E-02  0.0000000000000E+00  0.2095244580798E-02
 0.6270946115516E-02 -0.6887383395257E-02  0.0000000000000E+00  0.2409851235818E-02
 0.8383990911309E-02 -0.7313380635108E-02  0.0000000000000E+00  0.1195480080155E-02
 0.1755231997485E-03 -0.6049823175546E-02  0.0000000000000E+00  0.2162778182153E-02
 0.5339914909006E-03 -0.6245849157345E-02  0.0000000000000E+00  0.2048142864093E-02
 0.8639156219931E-03 -0.6395338847020E-02  0.0000000000000E+00  0.1753260741646E-02
 0.1111319350008E-02 -0.6473339495906E-02  0.0000000000000E+00  0.1374125913778E-02
 0.1273996752216E-02 -0.6493489497770E-02  0.0000000000000E+00  0.1006299326200E-02
 0.1374818333180E-02 -0.6482347982176E-02  0.0000000000000E+00  0.6941486916856E-03
 0.1436965810056E-02 -0.6460369116177E-02  0.0000000000000E+00  0.4433340158497E-03
 0.1476243701978E-02 -0.6438749176509E-02  0.0000000000000E+00  0.2442978973996E-03
 0.1502061427128E-02 -0.6422539092167E-02  0.0000000000000E+00  0.8500392996265E-04
 0.1519850741741E-02 -0.6413639245940E-02  0.0000000000000E+00 -0.4503835455436E-04
 0.1532772885096E-02 -0.6412497267472E-02  0.0000000000000E+00 -0.1541793561513E-03
 0.1542703370771E-02 -0.6418951700995E-02  0.0000000000000E+00 -0.2489275747069E-03
 0.1550783620985E-02 -0.6432639683630E-02  0.0000000000000E+00 -0.3343778916742E-03
 0.1557731050340E-02 -0.6453187581537E-02  0.0000000000000E+00 -0.4145816966189E-03
 0.1564014583647E-02 -0.6480293652679E-02  0.0000000000000E+00 -0.4928272874256E-03
 0.1569954219566E-02 -0.6513756522909E-02  0.0000000000000E+00 -0.5718425761538E-03
 0.1575776226992E-02 -0.6553475586802E-02  0.0000000000000E+00 -0.6539400365078E-03
 0.1581640682553E-02 -0.6599435092006E-02  0.0000000000000E+00 -0.7411205378772E-03
 0.1587649773769E-02 -0.6651676600573E-02  0.0000000000000E+00 -0.8351495463726E-03
 0.1593839954602E-02 -0.6710259611686E-02  0.0000000000000E+00 -0.9376147642362E-03
 0.1600157072908E-02 -0.6775204963944E-02  0.0000000000000E+00 -0.1049967662862E-02
 0.1606410805890E-02 -0.6846416871546E-02  0.0000000000000E+00 -0.1173554024445E-02
 0.1612201607318E-02 -0.6923563404176E-02  0.0000000000000E+00 -0.1309606250706E-02
 0.1616821370167E-02 -0.7005901726957E-02  0.0000000000000E+00 -0.1459149283210E-02
 0.1619158304015E-02 -0.7092053468043E-02  0.0000000000000E+00 -0.1622740412945E-02
 0.1617692922142E-02 -0.7179773501316E-02  0.0000000000000E+00 -0.1799964549653E-02
 0.1610692854983E-02 -0.7265798745663E-02  0.0000000000000E+00 -0.1988794353388E-02
 0.1596593666776E-02 -0.7345803528518E-02  0.0000000000000E+00 -0.2185113198088E-02
 0.1574398521411E-02 -0.7414510681435E-02  0.0000000000000E+00 -0.2382497676878E-02
 0.1543751053741E-02 -0.7465582282765E-02  0.0000000000000E+00 -0.2572039275480E-02
 0.1504685842881E-02 -0.7490952802701E-02  0.0000000000000E+00 -0.2741478085380E-02
 0.1457688405358E-02 -0.7480039256499E-02  0.0000000000000E+00 -0.2872701221573E-02
 0.1404851124415E-02 -0.7419293001553E-02  0.0000000000000E+00 -0.2937010008979E-02
 0.1353402949298E-02 -0.7292785431966E-02  0.0000000000000E+00 -0.2887216159991E-02
 0.1324905862784E-02 -0.7086218160124E-02  0.0000000000000E+00 -0.2645353677238E-02
 0.1377740581255E-02 -0.6801430563911E-02  0.0000000000000E+00 -0.2090874293382E-02
 0.1650225102971E-02 -0.6492390617696E-02  0.0000000000000E+00 -0.1084222044026E-02
 0.2398532583625E-02 -0.6310372158386E-02  0.0000000000000E+00  0.3862072453065E-03
 0.3914047958434E-02 -0.6465573678952E-02  0.0000000000000E+00  0.1892332392955E-02
 0.6187711204638E-02 -0.6983547260578E-02  0.0000000000000E+00  0.2420767415201E-02
 0.8577005767197E-02 -0.7450855078720E-02  0.0000000000000E+00  0.1083377498732E-02
 0.1928919641887E-03 -0.6109091831491E-02  0.0000000000000E+00  0.2288997282823E-02
 0.5851143723180E-03 -0.6317004853918E-02  0.0000000000000E+00  0.2145334117724E-02
 0.9349550371925E-03 -0.6462130503009E-02  0.0000000000000E+00  0.1790355767935E-02
 0.1180457756451E-02 -0.6520307630754E-02  0.0000000000000E+00  0.1359794095271E-02
 0.1329779838203E-02 -0.6517302375899E-02  0.0000000000000E+00  0.9670373815401E-03
 0.1416051060976E-02 -0.6487836436508E-02  0.0000000000000E+00  0.6507109686839E-03
 0.1466532796233E-02 -0.6453877842784E-02  0.0000000000000E+00  0.4060460410775E-03
 0.1497436900797E-02 -0.6425326528139E-02  0.0000000000000E+00  0.2168909553505E-03
 0.1517545215417E-02 -0.6405703809569E-02  0.0000000000000E+00  0.6821703811175E-04
 0.1531621377466E-02 -0.6395787561940E-02  0.0000000000000E+00 -0.5162759411036E-04
 0.1542311597309E-02 -0.6395284125900E-02  0.0000000000000E+00 -0.1513498151557E-03
 0.1551125838479E-02 -0.6403563129260E-02  0.0000000000000E+00 -0.2374672665957E-03
 0.1558954797033E-02 -0.6419976684048E-02  0.0000000000000E+00 -0.3149446714674E-03
 0.1566346877788E-02 -0.6443988826212E-02  0.0000000000000E+00 -0.3876581774704E-03
 0.1573659047068E-02 -0.6475219037980E-02  0.0000000000000E+00 -0.4587175424832E-03
 0.1581139607612E-02 -0.6513446603702E-02  0.0000000000000E+00 -0.5306873981261E-03
 0.1588972499539E-02 -0.6558596821119E-02  0.0000000000000E+00 -0.6057407427803E-03
 0.1597298185822E-02 -0.6610717613370E-02  0.0000000000000E+00 -0.6857677857397E-03
 0.1606218423181E-02 -0.6669949456996E-02  0.0000000000000E+00 -0.7724571145947E-03
 0.1615787251537E-02 -0.6736487543280E-02  0.0000000000000E+00 -0.8673609156819E-03
 0.1625986605046E-02 -0.6810530327008E-02  0.0000000000000E+00 -0.9719500060371E-03
 0.1636681919517E-02 -0.6892210642541E-02  0.0000000000000E+00 -0.1087668360923E-02
 0.1647546761938E-02 -0.6981486120901E-02  0.0000000000000E+00 -0.1215968799835E-02
 0.1657948318519E-02 -0.7077967006191E-02  0.0000000000000E+00 -0.1358287608833E-02
 0.1666811980588E-02 -0.7180671057557E-02  0.0000000000000E+00 -0.1515861306866E-02
 0.1672558422457E-02 -0.7287740975401E-02  0.0000000000000E+00 -0.1689251001157E-02
 0.1673270815431E-02 -0.7396241949969E-02  0.0000000000000E+00 -0.1877643603484E-02
 0.1667122956675E-02 -0.7502110337997E-02  0.0000000000000E+00 -0.2078324054141E-02
 0.1652838280993E-02 -0.7600289633746E-02  0.0000000000000E+00 -0.2286560631942E-02
 0.1629699428658E-02 -0.7684600380122E-02  0.0000000000000E+00 -0.2495702693502E-02
 0.1597060898728E-02 -0.7746951898896E-02  0.0000000000000E+00 -0.2696651338962E-02
 0.1554012397521E-02 -0.7776290520997E-02  0.0000000000000E+00 -0.2875661122233E-02
 0.1499885173318E-02 -0.7757585041090E-02  0.0000000000000E+00 -0.3009855315658E-02
 0.1436559563971E-02 -0.7671142312378E-02  0.0000000000000E+00 -0.3059209411273E-02
 0.1375291497979E-02 -0.7493707944595E-02  0.0000000000000E+00 -0.2951895630005E-02
 0.1357038792648E-02 -0.7208042911906E-02  0.0000000000000E+00 -0.2559942901868E-02
 0.1504987277775E-02 -0.6840327500462E-02  0.0000000000000E+00 -0.1689009876441E-02
 0.2105353044835E-02 -0.6536761501380E-02  0.0000000000000E+00 -0.2000010593260E-03
 0.3579618179043E-02 -0.6580065228510E-02  0.0000000000000E+00  0.1572538511808E-02
 0.6066499238843E-02 -0.7101940907960E-02  0.0000000000000E+00  0.2403444854251E-02
 0.8806576510316E-02 -0.7621298400823E-02  0.0000000000000E+00  0.9403648039858E-03
 0.2151217802569E-03 -0.6183663709345E-02  0.0000000000000E+00  0.2424907534703E-02
 0.6485099873180E-03 -0.6403872858499E-02  0.0000000000000E+00  0.2239524514093E-02
 0.1018030879669E-02 -0.6537962443169E-02  0.0000000000000E+00  0.1807216199744E-02
 0.1255320631125E-02 -0.6567256916086E-02  0.0000000000000E+00  0.1320431160130E-02
 0.1385759252168E-02 -0.6535600123096E-02  0.0000000000000E+00  0.9081901174604E-03
 0.1454857731877E-02 -0.6486185132483E-02  0.0000000000000E+00  0.5950277458561E-03
 0.1492925438966E-02 -0.6440484948401E-02  0.0000000000000E+00  0.3620577504455E-03
 0.1515471302380E-02 -0.6405779217252E-02  0.0000000000000E+00  0.1864147275562E-03
 0.1530129316389E-02 -0.6383565815595E-02  0.0000000000000E+00  0.5070238256395E-04
 0.1540795766791E-02 -0.6373345956729E-02  0.0000000000000E+00 -0.5741041216062E-04
 0.1549525544312E-02 -0.6374045582984E-02  0.0000000000000E+00 -0.1466722582852E-03
 0.1557437792378E-02 -0.6384568613134E-02  0.0000000000000E+00 -0.2234081669634E-03
 0.1565168258438E-02 -0.6403998126063E-02  0.0000000000000E+00 -0.2923242217382E-03
 0.1573099999301E-02 -0.6431653636367E-02  0.0000000000000E+00 -0.3570371712918E-03
 0.1581484336856E-02 -0.6467091995441E-02  0.0000000000000E+00 -0.4204203948632E-03
 0.1590504792734E-02 -0.6510086805562E-02  0.0000000000000E+00 -0.4848326062783E-03
 0.1600309840273E-02 -0.6560600645518E-02  0.0000000000000E+00 -0.5522727271401E-03
 0.1611027141513E-02 -0.6618754776040E-02  0.0000000000000E+00 -0.6244887741724E-03
 0.1622765181160E-02 -0.6684797290143E-02  0.0000000000000E+00 -0.7030600143728E-03
 0.1635603903805E-02 -0.6759067854879E-02  0.0000000000000E+00 -0.7894659319234E-03
 0.1649572335704E-02 -0.6841953113745E-02  0.0000000000000E+00 -0.8851504363723E-03
 0.1664608381625E-02 -0.6933830185107E-02  0.0000000000000E+00 -0.9915951704007E-03
 0.1680487062255E-02 -0.7034974015605E-02  0.0000000000000E+00 -0.1110394494250E-02
 0.1696699443431E-02 -0.7145400326390E-02  0.0000000000000E+00 -0.1243304636793E-02
 0.1712280578852E-02 -0.7264613016259E-02  0.0000000000000E+00 -0.1392165524955E-02
 0.1725673866115E-02 -0.7391268382830E-02  0.0000000000000E+00 -0.1558492892287E-02
 0.1734849225414E-02 -0.7522901590354E-02  0.0000000000000E+00 -0.1742718442804E-02
 0.1737789306255E-02 -0.7655859338542E-02  0.0000000000000E+00 -0.1943556452114E-02
 0.1733052861402E-02 -0.7785479542481E-02  0.0000000000000E+00 -0.2157965071700E-02
 0.1719754148462E-02 -0.7905977734940E-02  0.0000000000000E+00 -0.2381557577177E-02
 0.1696858858064E-02 -0.8009604320590E-02  0.0000000000000E+00 -0.2608463994721E-02
 0.1662501072203E-02 -0.8085457617170E-02  0.0000000000000E+00 -0.2829564031189E-02
 0.1613903268700E-02 -0.8118079354548E-02  0.0000000000000E+00 -0.3028632152109E-02
 0.1548512334515E-02 -0.8085728432772E-02  0.0000000000000E+00 -0.3175084167405E-02
 0.1468026917180E-02 -0.7958724577097E-02  0.0000000000000E+00 -0.3209673917667E-02
 0.1392767720216E-02 -0.7701542464512E-02  0.0000000000000E+00 -0.3013109061003E-02
 0.1414194153986E-02 -0.7301157687718E-02  0.0000000000000E+00 -0.2355825906414E-02
 0.1821585201420E-02 -0.6868942452498E-02  0.0000000000000E+00 -0.9462275472920E-03
 0.3183146435497E-02 -0.6751969038365E-02  0.0000000000000E+00  0.1083773487433E-02
 0.5889208549278E-02 -0.7250517415521E-02  0.0000000000000E+00  0.2335451849679E-02
 0.9084935662601E-02 -0.7835820979671E-02  0.0000000000000E+00  0.7597996031403E-03
 0.2444580564381E-03 -0.6279468172987E-02  0.0000000000000E+00  0.2572149722532E-02
 0.7284996351978E-03 -0.6511032058460E-02  0.0000000000000E+00  0.2324964023599E-02
 0.1115047165602E-02 -0.6622742025469E-02  0.0000000000000E+00  0.1793185222862E-02
 0.1334605236661E-02 -0.6610933344578E-02  0.0000000000000E+00  0.1248976206550E-02
 0.1439832692430E-02 -0.6545200114670E-02  0.0000000000000E+00  0.8277268805468E-03
 0.1489678297835E-02 -0.6475351849305E-02  0.0000000000000E+00  0.5274404757181E-03
 0.1515176846087E-02 -0.6418995333453E-02  0.0000000000000E+00  0.3122764641694E-03
 0.1529750910989E-02 -0.6379396274065E-02  0.0000000000000E+00  0.1537779994286E-03
 0.1539438774934E-02 -0.6355693180337E-02  0.0000000000000E+00  0.3322953654823E-04
 0.1547130244567E-02 -0.6346041659981E-02  0.0000000000000E+00 -0.6178547768217E-04
 0.1554246837774E-02 -0.6348596982560E-02  0.0000000000000E+00 -0.1397015294186E-03
 0.1561513277580E-02 -0.6361829256146E-02  0.0000000000000E+00 -0.2064397099782E-03
 0.1569318612431E-02 -0.6384584296302E-02  0.0000000000000E+00 -0.2663199752969E-03
 0.1577891370983E-02 -0.6416063803552E-02  0.0000000000000E+00 -0.3226189297971E-03
 0.1587387628281E-02 -0.6455783040645E-02  0.0000000000000E+00 -0.3779194678758E-03
 0.1597935220971E-02 -0.6503526089697E-02  0.0000000000000E+00 -0.4343349684732E-03
 0.1609654963070E-02 -0.6559305141893E-02  0.0000000000000E+00 -0.4936582558103E-03
 0.1622668548051E-02 -0.6623324247832E-02  0.0000000000000E+00 -0.5574655955632E-03
 0.1637097520136E-02 -0.6695946529211E-02  0.0000000000000E+00 -0.6271958766139E-03
 0.1653054259072E-02 -0.6777662362012E-02  0.0000000000000E+00 -0.7042193426208E-03
 0.1670622820877E-02 -0.6869052866205E-02  0.0000000000000E+00 -0.7899061075519E-03
 0.1689825397226E-02 -0.6970748197209E-02  0.0000000000000E+00 -0.8857113739000E-03
 0.1710560043992E-02 -0.7083357918636E-02  0.0000000000000E+00 -0.9932807729983E-03
 0.1732484819453E-02 -0.7207343665628E-02  0.0000000000000E+00 -0.1114571273998E-02
 0.1754820257038E-02 -0.7342781024084E-02  0.0000000000000E+00 -0.1251904914953E-02
 0.1776129388626E-02 -0.7488977981488E-02  0.0000000000000E+00 -0.1407689420143E-02
 0.1794351905504E-02 -0.7644103459456E-02  0.0000000000000E+00 -0.1583619866486E-02
 0.1807347703946E-02 -0.7805075195483E-02  0.0000000000000E+00 -0.1779868797024E-02
 0.1813616438432E-02 -0.7967788748034E-02  0.0000000000000E+00 -0.1995061483719E-02
 0.1812286551223E-02 -0.8127055325261E-02  0.0000000000000E+00 -0.2227012610943E-02
 0.1802217067721E-02 -0.8275781861640E-02  0.0000000000000E+00 -0.2472985129526E-02
 0.1781051359645E-02 -0.8403808754724E-02  0.0000000000000E+00 -0.2728385986725E-02
 0.1744692493658E-02 -0.8496382016244E-02  0.0000000000000E+00 -0.2983855131402E-02
 0.1687429018580E-02 -0.8531717806034E-02  0.0000000000000E+00 -0.3219483152273E-02
 0.1603597652699E-02 -0.8477419391656E-02  0.0000000000000E+00 -0.3392866788988E-02
 0.1493996443284E-02 -0.8285312412939E-02  0.0000000000000E+00 -0.3410020305987E-02
 0.1403921166638E-02 -0.7898736547848E-02  0.0000000000000E+00 -0.3045165756241E-02
 0.1579914939086E-02 -0.7353711734302E-02  0.0000000000000E+00 -0.1862180881261E-02
 0.2724403885670E-02 -0.7020402864901E-02  0.0000000000000E+00  0.3537648970400E-03
 0.5628471838778E-02 -0.7444043388459E-02  0.0000000000000E+00  0.2173206568184E-02
 0.9430488404562E-02 -0.8112194328866E-02  0.0000000000000E+00  0.5326870530261E-03
 0.2845834069249E-03 -0.6405764525211E-02  0.0000000000000E+00  0.2732467138965E-02
 0.8312151358043E-03 -0.6644394177613E-02  0.0000000000000E+00  0.2390715104240E-02
 0.1227337997595E-02 -0.6714439985042E-02  0.0000000000000E+00  0.1732513757543E-02
 0.1415409582935E-02 -0.6645860017534E-02  0.0000000000000E+00  0.1137925881604E-02
 0.1489072360930E-02 -0.6542101151357E-02  0.0000000000000E+00  0.7251067073216E-03
 0.1518781672284E-02 -0.6453211715866E-02  0.0000000000000E+00  0.4493528661846E-03
 0.1532326942571E-02 -0.6388265689553E-02  0.0000000000000E+00  0.2581518867834E-03
 0.1539717291532E-02 -0.6345537508455E-02  0.0000000000000E+00  0.1201958949516E-03
 0.1545142677499E-02 -0.6321722467677E-02  0.0000000000000E+00  0.1674116947112E-04
 0.1550420736713E-02 -0.6313658601730E-02  0.0000000000000E+00 -0.6405597115769E-04
 0.1556340708419E-02 -0.6318799636242E-02  0.0000000000000E+00 -0.1299408755562E-03
 0.1563253875406E-02 -0.6335243607083E-02  0.0000000000000E+00 -0.1862267057844E-03
 0.1571323552268E-02 -0.6361646573115E-02  0.0000000000000E+00 -0.2367281427354E-03
 0.1580641730376E-02 -0.6397127696762E-02  0.0000000000000E+00 -0.2843086788604E-03
 0.1591283513123E-02 -0.6441186174321E-02  0.0000000000000E+00 -0.3312128367821E-03
 0.1603332141258E-02 -0.6493634926908E-02  0.0000000000000E+00 -0.3792739737473E-03
 0.1616889376656E-02 -0.6554548824408E-02  0.0000000000000E+00 -0.4300504356154E-03
 0.1632077693452E-02 -0.6624223818493E-02  0.0000000000000E+00 -0.4849200390406E-03
 0.1649037127352E-02 -0.6703144115145E-02  0.0000000000000E+00 -0.5451525799406E-03
 0.1667917151603E-02 -0.6791954441412E-02  0.0000000000000E+00 -0.6119744515168E-03
 0.1688861540008E-02 -0.6891432292802E-02  0.0000000000000E+00 -0.6866363975381E-03
 0.1711983096113E-02 -0.7002462272540E-02  0.0000000000000E+00 -0.7705028477463E-03
 0.1737315469131E-02 -0.7125993353225E-02  0.0000000000000E+00 -0.8651744582574E-03
 0.1764715904270E-02 -0.7262955086545E-02  0.0000000000000E+00 -0.9726650337827E-03
 0.1793664124496E-02 -0.7414066169506E-02  0.0000000000000E+00 -0.1095601157579E-02
 0.1822956683980E-02 -0.7579434665150E-02  0.0000000000000E+00 -0.1237155203335E-02
 0.1850607104437E-02 -0.7758061563938E-02  0.0000000000000E+00 -0.1400282748785E-02
 0.1874423519394E-02 -0.7947624286786E-02  0.0000000000000E+00 -0.1586663663499E-02
 0.1892937974047E-02 -0.8144729797054E-02  0.0000000000000E+00 -0.1796582539598E-02
 0.1905449013925E-02 -0.8344926062071E-02  0.0000000000000E+00 -0.2029960325639E-02
 0.1910950385056E-02 -0.8541997613479E-02  0.0000000000000E+00 -0.2286955458354E-02
 0.1907015743963E-02 -0.8727008715317E-02  0.0000000000000E+00 -0.2567056171828E-02
 0.1889074607676E-02 -0.8886981081296E-02  0.0000000000000E+00 -0.2867231665531E-02
 0.1849729328519E-02 -0.9002229374110E-02  0.0000000000000E+00 -0.3178372797060E-02
 0.1778787281965E-02 -0.9041628012008E-02  0.0000000000000E+00 -0.3476252807568E-02
 0.1663815933592E-02 -0.8954019786833E-02  0.0000000000000E+00 -0.3702096987949E-02
 0.1500657780671E-02 -0.8650075203621E-02  0.0000000000000E+00 -0.3686200098287E-02
 0.1432633873249E-02 -0.8052049283626E-02  0.0000000000000E+00 -0.2922692834534E-02
 0.2220552593431E-02 -0.7454981538399E-02  0.0000000000000E+00 -0.7087182647347E-03
 0.5243632445078E-02 -0.7712944319111E-02  0.0000000000000E+00  0.1831896642557E-02
 0.9872170581832E-02 -0.8481626900418E-02  0.0000000000000E+00  0.2438843580442E-03
 0.3417935120234E-03 -0.6577809590193E-02  0.0000000000000E+00  0.2907060003009E-02
 0.9652860465508E-03 -0.6811039118842E-02  0.0000000000000E+00  0.2415555922333E-02
 0.1354295084455E-02 -0.6806678727680E-02  0.0000000000000E+00  0.1602581394314E-02
 0.1492304350834E-02 -0.6663471994917E-02  0.0000000000000E+00  0.9813494683666E-03
 0.1529832585627E-02 -0.6521851792050E-02  0.0000000000000E+00  0.6024965839843E-03
 0.1540465793224E-02 -0.6417790037811E-02  0.0000000000000E+00  0.3633492945892E-03
 0.1543490183734E-02 -0.6347276402222E-02  0.0000000000000E+00  0.2016793876861E-03
 0.1544885986150E-02 -0.6303681595657E-02  0.0000000000000E+00  0.8719347855807E-04
 0.1546976312912E-02 -0.6281383581699E-02  0.0000000000000E+00  0.2338513923603E-05
 0.1550514215836E-02 -0.6276050895110E-02  0.0000000000000E+00 -0.6344038090916E-04
 0.1555712547605E-02 -0.6284569109475E-02  0.0000000000000E+00 -0.1168502548265E-03
 0.1562593120956E-02 -0.6304752804711E-02  0.0000000000000E+00 -0.1624154385270E-03
 0.1571126868835E-02 -0.6335131014024E-02  0.0000000000000E+00 -0.2033418538607E-03
 0.1581293873724E-02 -0.6374782991967E-02  0.0000000000000E+00 -0.2420193777540E-03
 0.1593105912610E-02 -0.6423221217792E-02  0.0000000000000E+00 -0.2803146919067E-03
 0.1606614408527E-02 -0.6480307524569E-02  0.0000000000000E+00 -0.3197526308878E-03
 0.1621911265399E-02 -0.6546192981038E-02  0.0000000000000E+00 -0.3616332589952E-03
 0.1639126297204E-02 -0.6621274070275E-02  0.0000000000000E+00 -0.4071129098996E-03
 0.1658422533136E-02 -0.6706160763932E-02  0.0000000000000E+00 -0.4572667862148E-03
 0.1679989353979E-02 -0.6801653282840E-02  0.0000000000000E+00 -0.5131459645504E-03
 0.1704031716466E-02 -0.6908723156594E-02  0.0000000000000E+00 -0.5758394990932E-03
 0.1730753801335E-02 -0.7028503635622E-02  0.0000000000000E+00 -0.6465599196845E-03
 0.1760327076955E-02 -0.7162274733550E-02  0.0000000000000E+00 -0.7267680881128E-03
 0.1792822874957E-02 -0.7311431280679E-02  0.0000000000000E+00 -0.8183763886424E-03
 0.1828040932068E-02 -0.7477376423402E-02  0.0000000000000E+00 -0.9240758685672E-03
 0.1865141330309E-02 -0.7661166427450E-02  0.0000000000000E+00 -0.1047573376749E-02
 0.1902351626220E-02 -0.7862884229749E-02  0.0000000000000E+00 -0.1193030060664E-02
 0.1937516045251E-02 -0.8081216826630E-02  0.0000000000000E+00 -0.1363723545441E-02
 0.1969277872906E-02 -0.8313638569837E-02  0.0000000000000E+00 -0.1561663342729E-02
 0.1997215310678E-02 -0.8556489309943E-02  0.0000000000000E+00 -0.1788817311058E-02
 0.2020622281662E-02 -0.8804500568882E-02  0.0000000000000E+00 -0.2047887720752E-02
 0.2037323229338E-02 -0.9050281143955E-02  0.0000000000000E+00 -0.2341701462780E-02
 0.2043011119495E-02 -0.9283458681146E-02  0.0000000000000E+00 -0.2672284895665E-02
 0.2030272448494E-02 -0.9488532934428E-02  0.0000000000000E+00 -0.3039961361300E-02
 0.1986913450846E-02 -0.9639515505248E-02  0.0000000000000E+00 -0.3438343066367E-02
 0.1895799191920E-02 -0.9691549245449E-02  0.0000000000000E+00 -0.3841505530100E-02
 0.1721432098002E-02 -0.9552921048867E-02  0.0000000000000E+00 -0.4174322054600E-02
 0.1453873858985E-02 -0.9030719757181E-02  0.0000000000000E+00 -0.4028855735411E-02
 0.1727921309493E-02 -0.8176630732212E-02  0.0000000000000E+00 -0.2192652673954E-02
 0.4677447243616E-02 -0.8125066436613E-02  0.0000000000000E+00  0.1149338996883E-02
 0.1045846721614E-01 -0.9005866107384E-02  0.0000000000000E+00 -0.1412104194888E-03
 0.4273269187731E-03 -0.6822565171774E-02  0.0000000000000E+00  0.3094166689375E-02
 0.1142363353291E-02 -0.7017303560326E-02  0.0000000000000E+00  0.2357064455171E-02
 0.1490221102557E-02 -0.6883753725817E-02  0.0000000000000E+00  0.1373440054631E-02
 0.1556396699288E-02 -0.6651947988469E-02  0.0000000000000E+00  0.7796721319311E-03
 0.1558390621806E-02 -0.6480561192668E-02  0.0000000000000E+00  0.4657593972449E-03
 0.1553300700351E-02 -0.6367422266087E-02  0.0000000000000E+00  0.2729465059916E-03
 0.1547902679278E-02 -0.6295211344133E-02  0.0000000000000E+00  0.1454284592465E-03
 0.1544895042100E-02 -0.6253483063002E-02  0.0000000000000E+00  0.5657476207960E-04
 0.1544760973368E-02 -0.6234519526717E-02  0.0000000000000E+00 -0.8747596339606E-05
 0.1547319425094E-02 -0.6233156725357E-02  0.0000000000000E+00 -0.5908720330564E-04
 0.1552314577891E-02 -0.6245882330262E-02  0.0000000000000E+00 -0.9985877283809E-04
 0.1559500362162E-02 -0.6270345279956E-02  0.0000000000000E+00 -0.1346411465187E-03
 0.1568701184093E-02 -0.6305021527265E-02  0.0000000000000E+00 -0.1659563313905E-03
 0.1579814678766E-02 -0.6348999128563E-02  0.0000000000000E+00 -0.1956749352876E-03
 0.1592809809194E-02 -0.6401835932682E-02  0.0000000000000E+00 -0.2252572287958E-03
 0.1607720126193E-02 -0.6463463871364E-02  0.0000000000000E+00 -0.2558982982730E-03
 0.1624637214629E-02 -0.6534123833957E-02  0.0000000000000E+00 -0.2886215276435E-03
 0.1643704476921E-02 -0.6614320838613E-02  0.0000000000000E+00 -0.3243430550904E-03
 0.1665111515617E-02 -0.6704793957122E-02  0.0000000000000E+00 -0.3639219527782E-03
 0.1689088728109E-02 -0.6806497752934E-02  0.0000000000000E+00 -0.4082066975692E-03
 0.1715900739345E-02 -0.6920591637963E-02  0.0000000000000E+00 -0.4580874247546E-03
 0.1745838677088E-02 -0.7048445064681E-02  0.0000000000000E+00 -0.5145699801959E-03
 0.1779204195810E-02 -0.7191648690363E-02  0.0000000000000E+00 -0.5788893308795E-03
 0.1816275332522E-02 -0.7352032854708E-02  0.0000000000000E+00 -0.6527033498979E-03
 0.1857201623379E-02 -0.7531674488210E-02  0.0000000000000E+00 -0.7384759127725E-03
 0.1901641200077E-02 -0.7732695262443E-02  0.0000000000000E+00 -0.8400626385390E-03
 0.1948232361571E-02 -0.7956577521696E-02  0.0000000000000E+00 -0.9626463221775E-03
 0.1994994541971E-02 -0.8203396130037E-02  0.0000000000000E+00 -0.1111244503686E-02
 0.2040758923115E-02 -0.8471686272712E-02  0.0000000000000E+00 -0.1289837226149E-02
 0.2085429420344E-02 -0.8758507878977E-02  0.0000000000000E+00 -0.1502513870675E-02
 0.2128626269557E-02 -0.9059395349023E-02  0.0000000000000E+00 -0.1754136158137E-02
 0.2168636287606E-02 -0.9368578506951E-02  0.0000000000000E+00 -0.2049756094507E-02
 0.2201866055969E-02 -0.9678881809184E-02  0.0000000000000E+00 -0.2394878867424E-02
 0.2222436310270E-02 -0.9980327954480E-02  0.0000000000000E+00 -0.2795848132562E-02
 0.2219136191868E-02 -0.1025647671942E-01  0.0000000000000E+00 -0.3262232619755E-02
 0.2173830762195E-02 -0.1047382044814E-01  0.0000000000000E+00 -0.3794392515908E-02
 0.2056816117619E-02 -0.1057130313359E-01  0.0000000000000E+00 -0.4391399786805E-02
 0.1727044726470E-02 -0.1033000990826E-01  0.0000000000000E+00 -0.4954836967878E-02
 0.1381764770792E-02 -0.9380680644851E-02  0.0000000000000E+00 -0.4105323390914E-02
 0.3860116663447E-02 -0.8839227090438E-02  0.0000000000000E+00 -0.1684342095959E-03
 0.1127963741695E-01 -0.9825774273051E-02  0.0000000000000E+00 -0.7222001245007E-03
 0.5620493855543E-03 -0.7192546908984E-02  0.0000000000000E+00  0.3279739642330E-02
 0.1375949417595E-02 -0.7259471030530E-02  0.0000000000000E+00  0.2127235971114E-02
 0.1617431526054E-02 -0.6911344301000E-02  0.0000000000000E+00  0.1015335586069E-02
 0.1595749954155E-02 -0.6599634129199E-02  0.0000000000000E+00  0.5486161290781E-03
 0.1572425245228E-02 -0.6416103855311E-02  0.0000000000000E+00  0.3230781716710E-03
 0.1556119402812E-02 -0.6300614526850E-02  0.0000000000000E+00  0.1823388570911E-03
 0.1545004183749E-02 -0.6231668137807E-02  0.0000000000000E+00  0.9264046572547E-04
 0.1539561611832E-02 -0.6194783668326E-02  0.0000000000000E+00  0.3028640952206E-04
 0.1538412508132E-02 -0.6181114510277E-02  0.0000000000000E+00 -0.1516669531286E-04
 0.1540820190619E-02 -0.6185007601837E-02  0.0000000000000E+00 -0.5010548039872E-04
 0.1546150081409E-02 -0.6202784144702E-02  0.0000000000000E+00 -0.7837713575980E-04
 0.1553984442452E-02 -0.6232060539547E-02  0.0000000000000E+00 -0.1025378814556E-03
 0.1564050111804E-02 -0.6271342570488E-02  0.0000000000000E+00 -0.1243746834406E-03
 0.1576196867620E-02 -0.6319779414098E-02  0.0000000000000E+00 -0.1452139198368E-03
 0.1590372743606E-02 -0.6377007889908E-02  0.0000000000000E+00 -0.1660927261168E-03
 0.1606608106001E-02 -0.6443051573404E-02  0.0000000000000E+00 -0.1878635619441E-03
 0.1625003755572E-02 -0.6518254497139E-02  0.0000000000000E+00 -0.2112606929186E-03
 0.1645722508237E-02 -0.6603237434875E-02  0.0000000000000E+00 -0.2369461711933E-03
 0.1668983240206E-02 -0.6698870614233E-02  0.0000000000000E+00 -0.2655459328129E-03
 0.1695056972656E-02 -0.6806259791870E-02  0.0000000000000E+00 -0.2976835952839E-03
 0.1724264034476E-02 -0.6926742953848E-02  0.0000000000000E+00 -0.3340196040542E-03
 0.1756973445984E-02 -0.7061907797954E-02  0.0000000000000E+00 -0.3753078997003E-03
 0.1793601527026E-02 -0.7213624961530E-02  0.0000000000000E+00 -0.4224846244087E-03
 0.1834604621123E-02 -0.7384108694393E-02  0.0000000000000E+00 -0.4768278830195E-03
 0.1880457472752E-02 -0.7576029314152E-02  0.0000000000000E+00 -0.5402816716699E-03
 0.1931417568531E-02 -0.7792590069653E-02  0.0000000000000E+00 -0.6162640692835E-03
 0.1986804754396E-02 -0.8037046139396E-02  0.0000000000000E+00 -0.7104917700900E-03
 0.2045077228040E-02 -0.8311502481434E-02  0.0000000000000E+00 -0.8298758575925E-03
 0.2105370245967E-02 -0.8615876184030E-02  0.0000000000000E+00 -0.9809895665133E-03
 0.2167845092493E-02 -0.8947668710490E-02  0.0000000000000E+00 -0.1170448161999E-02
 0.2232312803950E-02 -0.9302763926502E-02  0.0000000000000E+00 -0.1404843520894E-02
 0.2297442455000E-02 -0.9676817352874E-02  0.0000000000000E+00 -0.1690172422936E-02
 0.2360900645696E-02 -0.1006606828149E-01  0.0000000000000E+00 -0.2032966348129E-02
 0.2418373178579E-02 -0.1046691018041E-01  0.0000000000000E+00 -0.2443134185918E-02
 0.2464595719301E-02 -0.1087440626277E-01  0.0000000000000E+00 -0.2935223843298E-02
 0.2480130058689E-02 -0.1127610926924E-01  0.0000000000000E+00 -0.3543341998045E-02
 0.2455597071227E-02 -0.1163813544259E-01  0.0000000000000E+00 -0.4269096857744E-02
 0.2290212871457E-02 -0.1188792309323E-01  0.0000000000000E+00 -0.5327723947292E-02
 0.1454222298313E-02 -0.1132143618222E-01  0.0000000000000E+00 -0.6149901562874E-02
 0.2741501603706E-02 -0.1023154264616E-01  0.0000000000000E+00 -0.2577985210773E-02
 0.1253655722770E-01 -0.1132007378964E-01  0.0000000000000E+00 -0.1818910071409E-02
 0.7850478365501E-03 -0.7806443765502E-02  0.0000000000000E+00  0.3396148897645E-02
 0.1671506035310E-02 -0.7479452584337E-02  0.0000000000000E+00  0.1537438696445E-02
 0.1692731186578E-02 -0.6828893389914E-02  0.0000000000000E+00  0.5413667623378E-03
 0.1602188364907E-02 -0.6508266157918E-02  0.0000000000000E+00  0.3249885633694E-03
 0.1572053326323E-02 -0.6325213997081E-02  0.0000000000000E+00  0.1781715698994E-03
 0.1547470686352E-02 -0.6217070799096E-02  0.0000000000000E+00  0.9862598720065E-04
 0.1534839182010E-02 -0.6156561013218E-02  0.0000000000000E+00  0.4631876189130E-04
 0.1528799500845E-02 -0.6127680987743E-02  0.0000000000000E+00  0.1054512720723E-04
 0.1527990333189E-02 -0.6121303236448E-02  0.0000000000000E+00 -0.1554901392051E-04
 0.1531072974397E-02 -0.6131737664326E-02  0.0000000000000E+00 -0.3557948734492E-04
 0.1537280111537E-02 -0.6155391583780E-02  0.0000000000000E+00 -0.5181786587702E-04
 0.1546095468454E-02 -0.6189991993831E-02  0.0000000000000E+00 -0.6574827527017E-04
 0.1557210155784E-02 -0.6234161118739E-02  0.0000000000000E+00 -0.7841459480586E-04
 0.1570460324396E-02 -0.6287162639910E-02  0.0000000000000E+00 -0.9059340349538E-04
 0.1585796062767E-02 -0.6348745966395E-02  0.0000000000000E+00 -0.1028956307020E-03
 0.1603259105592E-02 -0.6419047380043E-02  0.0000000000000E+00 -0.1158269319605E-03
 0.1622968707938E-02 -0.6498526643898E-02  0.0000000000000E+00 -0.1298263807941E-03
 0.1645112355967E-02 -0.6587926550231E-02  0.0000000000000E+00 -0.1452931491391E-03
 0.1669940095974E-02 -0.6688249363775E-02  0.0000000000000E+00 -0.1626079141032E-03
 0.1697761955779E-02 -0.6800747259190E-02  0.0000000000000E+00 -0.1821527932236E-03
 0.1728948127263E-02 -0.6926925089358E-02  0.0000000000000E+00 -0.2043351396188E-03
 0.1763933310325E-02 -0.7068567000852E-02  0.0000000000000E+00 -0.2296233381951E-03
 0.1803225812770E-02 -0.7227785168953E-02  0.0000000000000E+00 -0.2586007517058E-03
 0.1847421987492E-02 -0.7407111434503E-02  0.0000000000000E+00 -0.2920716976465E-03
 0.1897232662491E-02 -0.7609678065453E-02  0.0000000000000E+00 -0.3312669418711E-03
 0.1953495139603E-02 -0.7839569252485E-02  0.0000000000000E+00 -0.3784447879660E-03
 0.2016528893166E-02 -0.8102098084169E-02  0.0000000000000E+00 -0.4387060342100E-03
 0.2085779533177E-02 -0.8402583221860E-02  0.0000000000000E+00 -0.5207744867435E-03
 0.2160947643870E-02 -0.8743018001817E-02  0.0000000000000E+00 -0.6352504560768E-03
 0.2242188683169E-02 -0.9120649037039E-02  0.0000000000000E+00 -0.7923593768485E-03
 0.2329044224618E-02 -0.9530793598044E-02  0.0000000000000E+00 -0.9999045638395E-03
 0.2420425751445E-02 -0.9970101283100E-02  0.0000000000000E+00 -0.1263175629286E-02
 0.2514950115903E-02 -0.1043802592386E-01  0.0000000000000E+00 -0.1587460516985E-02
 0.2611668489513E-02 -0.1093759179323E-01  0.0000000000000E+00 -0.1981353520271E-02
 0.2706553510456E-02 -0.1147544923553E-01  0.0000000000000E+00 -0.2461787850785E-02
 0.2804485878929E-02 -0.1206466587001E-01  0.0000000000000E+00 -0.3057532429557E-02
 0.2852133762296E-02 -0.1270982530836E-01  0.0000000000000E+00 -0.3855028774519E-02
 0.3000853479378E-02 -0.1345626605309E-01  0.0000000000000E+00 -0.4827273050428E-02
 0.2375671081781E-02 -0.1409435449866E-01  0.0000000000000E+00 -0.7264329276728E-02
 0.1403193982782E-02 -0.1311813101221E-01  0.0000000000000E+00 -0.6398115159701E-02
 0.1481508914791E-01 -0.1474065188798E-01  0.0000000000000E+00 -0.4520961355179E-02
 0.1156185777722E-02 -0.9009584802238E-02  0.0000000000000E+00  0.3088082607902E-02
 0.1973272985672E-02 -0.7310292555451E-02  0.0000000000000E+00  0.2013334223189E-03
 0.1634552273763E-02 -0.6659955020486E-02  0.0000000000000E+00  0.1917277593208E-03
 0.1597314331449E-02 -0.6372712847441E-02  0.0000000000000E+00  0.8965155001664E-04
 0.1549932302779E-02 -0.6207786138087E-02  0.0000000000000E+00  0.5081981144705E-04
 0.1529086252402E-02 -0.6117224929504E-02  0.0000000000000E+00  0.2599630657851E-04
 0.1517154383010E-02 -0.6070260127641E-02  0.0000000000000E+00  0.1032018291122E-04
 0.1512895667266E-02 -0.6052539161894E-02  0.0000000000000E+00 -0.5595983956497E-06
 0.1513639963005E-02 -0.6055381225909E-02  0.0000000000000E+00 -0.8493019733477E-05
 0.1518228160143E-02 -0.6073588312292E-02  0.0000000000000E+00 -0.1461580779551E-04
 0.1525821576653E-02 -0.6103896318147E-02  0.0000000000000E+00 -0.1961064731708E-04
 0.1535927338083E-02 -0.6144288588772E-02  0.0000000000000E+00 -0.2393579485563E-04
 0.1548251526505E-02 -0.6193587909260E-02  0.0000000000000E+00 -0.2791511473373E-04
 0.1562653109377E-02 -0.6251224220130E-02  0.0000000000000E+00 -0.3179311336905E-04
 0.1579105841028E-02 -0.6317091508701E-02  0.0000000000000E+00 -0.3576471315041E-04
 0.1597676827952E-02 -0.6391458432433E-02  0.0000000000000E+00 -0.3999355185086E-04
 0.1618512293291E-02 -0.6474911911860E-02  0.0000000000000E+00 -0.4462384418857E-04
 0.1641828937951E-02 -0.6568321868186E-02  0.0000000000000E+00 -0.4978832766547E-04
 0.1667909182475E-02 -0.6672822375882E-02  0.0000000000000E+00 -0.5561514298030E-04
 0.1697099514161E-02 -0.6789806196343E-02  0.0000000000000E+00 -0.6223436111752E-04
 0.1729812962996E-02 -0.6920931545803E-02  0.0000000000000E+00 -0.6978452997319E-04
 0.1766535855756E-02 -0.7068155344518E-02  0.0000000000000E+00 -0.7842717630666E-04
 0.1807842342112E-02 -0.7233788960450E-02  0.0000000000000E+00 -0.8836138450150E-04
 0.1854420863573E-02 -0.7420605748103E-02  0.0000000000000E+00 -0.9986177007720E-04
 0.1907121394927E-02 -0.7632054217734E-02  0.0000000000000E+00 -0.1133508455831E-03
 0.1967089666700E-02 -0.7872718360287E-02  0.0000000000000E+00 -0.1295654420292E-03
 0.2035774211422E-02 -0.8149490545433E-02  0.0000000000000E+00 -0.1506367415130E-03
 0.2114787540671E-02 -0.8473158756852E-02  0.0000000000000E+00 -0.1856970814408E-03
 0.2205135673373E-02 -0.8849687679780E-02  0.0000000000000E+00 -0.2527453868334E-03
 0.2306199255405E-02 -0.9274196509750E-02  0.0000000000000E+00 -0.3681654448569E-03
 0.2416371515357E-02 -0.9739900440177E-02  0.0000000000000E+00 -0.5397923594644E-03
 0.2534350253937E-02 -0.1024391495904E-01  0.0000000000000E+00 -0.7702703655195E-03
 0.2659917960311E-02 -0.1078842494023E-01  0.0000000000000E+00 -0.1061234544580E-02
 0.2793496025337E-02 -0.1138220582496E-01  0.0000000000000E+00 -0.1416187689524E-02
 0.2940034479225E-02 -0.1204387445974E-01  0.0000000000000E+00 -0.1845715038121E-02
 0.3094677721244E-02 -0.1280450456093E-01  0.0000000000000E+00 -0.2368891479260E-02
 0.3311791530166E-02 -0.1373395398284E-01  0.0000000000000E+00 -0.3045188493371E-02
 0.3383252972706E-02 -0.1489362480566E-01  0.0000000000000E+00 -0.3955370620001E-02
 0.4468252741181E-02 -0.1683588359978E-01  0.0000000000000E+00 -0.5387046057189E-02
 0.1404927749636E-03 -0.1851601191004E-01  0.0000000000000E+00 -0.9694434869250E-02
 0.2080795849195E-01 -0.2519635838358E-01  0.0000000000000E+00 -0.1241931451612E-01
 0.9945469741338E-01 -0.1679020472892E+00  0.0000000000000E+00 -0.4353440749925E+00
 0.1517034651294E+00 -0.2167619949732E+00  0.0000000000000E+00 -0.3608012213925E+00
 0.1986144453175E+00 -0.2601743432055E+00  0.0000000000000E+00 -0.2968495137148E+00
 0.2394606182005E+00 -0.2976536210133E+00  0.0000000000000E+00 -0.2427646136843E+00
 0.2742675599546E+00 -0.3292237409012E+00  0.0000000000000E+00 -0.1981042582856E+00
 0.3032718460904E+00 -0.3551465283506E+00  0.0000000000000E+00 -0.1622309492388E+00
 0.3267604383362E+00 -0.3757177379057E+00  0.0000000000000E+00 -0.1344156737641E+00
 0.3449888192234E+00 -0.3912141940256E+00  0.0000000000000E+00 -0.1139880511333E+00
 0.3582343477262E+00 -0.4019464054368E+00  0.0000000000000E+00 -0.1004899392092E+00
 0.3669573577301E+00 -0.4084205150800E+00  0.0000000000000E+00 -0.9376540501972E-01
 0.3718710622326E+00 -0.4113842076026E+00  0.0000000000000E+00 -0.9368083558394E-01
 0.3737480409047E+00 -0.4116212560193E+00  0.0000000000000E+00 -0.9975665972595E-01
 0.3732117167560E+00 -0.4097539213568E+00  0.0000000000000E+00 -0.1113127544600E+00
 0.3706585362956E+00 -0.4061680932575E+00  0.0000000000000E+00 -0.1276841985748E+00
 0.3662537480028E+00 -0.4010162977597E+00  0.0000000000000E+00 -0.1482850487802E+00
 0.3599804674827E+00 -0.3942712151482E+00  0.0000000000000E+00 -0.1727034231602E+00
 0.3517693589628E+00 -0.3858217065811E+00  0.0000000000000E+00 -0.2007226365966E+00
 0.3412756999019E+00 -0.3754265198463E+00  0.0000000000000E+00 -0.2318016747596E+00
 0.3285272757484E+00 -0.3630205621010E+00  0.0000000000000E+00 -0.2657958707235E+00
 0.3143967744541E+00 -0.3501136920402E+00  0.0000000000000E+00 -0.2979641405508E+00
 0.9432796981251E-01 -0.1634830024780E+00  0.0000000000000E+00 -0.4162492077268E+00
 0.1479795634821E+00 -0.2135114939571E+00  0.0000000000000E+00 -0.3445908756611E+00
 0.1961515327891E+00 -0.2582000435250E+00  0.0000000000000E+00 -0.2842608335544E+00
 0.2383451631237E+00 -0.2970102589289E+00  0.0000000000000E+00 -0.2335199326696E+00
 0.2745125427578E+00 -0.3299528728227E+00  0.0000000000000E+00 -0.1918646028205E+00
 0.3049120935750E+00 -0.3572971489164E+00  0.0000000000000E+00 -0.1585805220339E+00
 0.3298383305833E+00 -0.3793534512877E+00  0.0000000000000E+00 -0.1329185065812E+00
 0.3495509644930E+00 -0.3963998726587E+00  0.0000000000000E+00 -0.1141997780511E+00
 0.3643118500562E+00 -0.4087264681753E+00  0.0000000000000E+00 -0.1019773160147E+00
 0.3745382803663E+00 -0.4167830608370E+00  0.0000000000000E+00 -0.9613588473787E-01
 0.3808888635478E+00 -0.4212549755815E+00  0.0000000000000E+00 -0.9664568335519E-01
 0.3841078028400E+00 -0.4229004596460E+00  0.0000000000000E+00 -0.1031888123019E+00
 0.3848231995800E+00 -0.4223500372432E+00  0.0000000000000E+00 -0.1152294232272E+00
 0.3834543821541E+00 -0.4200179992369E+00  0.0000000000000E+00 -0.1321922773952E+00
 0.3801995742625E+00 -0.4160943318056E+00  0.0000000000000E+00 -0.1535497081789E+00
 0.3750988941784E+00 -0.4106054421216E+00  0.0000000000000E+00 -0.1788963497850E+00
 0.3680510548492E+00 -0.4034650820099E+00  0.0000000000000E+00 -0.2077945225831E+00
 0.3586834328282E+00 -0.3943166059517E+00  0.0000000000000E+00 -0.2395896898695E+00
 0.3463174703095E+00 -0.3826628146023E+00  0.0000000000000E+00 -0.2736151540899E+00
 0.3305196788470E+00 -0.3679008010358E+00  0.0000000000000E+00 -0.3102546872654E+00
 0.8944244849209E-01 -0.1591943629986E+00  0.0000000000000E+00 -0.3970562129530E+00
 0.1446243361512E+00 -0.2106817584098E+00  0.0000000000000E+00 -0.3283349419075E+00
 0.1940925114439E+00 -0.2566081303561E+00  0.0000000000000E+00 -0.2712203022266E+00
 0.2375492152734E+00 -0.2966776169141E+00  0.0000000000000E+00 -0.2237014059803E+00
 0.2749972407327E+00 -0.3309067576394E+00  0.0000000000000E+00 -0.1849080203670E+00
 0.3066937730099E+00 -0.3595738296901E+00  0.0000000000000E+00 -0.1540750131401E+00
 0.3329455481119E+00 -0.3829988627632E+00  0.0000000000000E+00 -0.1304410465661E+00
 0.3540205901214E+00 -0.4014673161259E+00  0.0000000000000E+00 -0.1133501408822E+00
 0.3701845159052E+00 -0.4152669629931E+00  0.0000000000000E+00 -0.1023900588860E+00
 0.3818377636428E+00 -0.4248232575357E+00  0.0000000000000E+00 -0.9747478017981E-01
 0.3895973622769E+00 -0.4307748138608E+00  0.0000000000000E+00 -0.9862561136414E-01
 0.3941725477085E+00 -0.4338444958011E+00  0.0000000000000E+00 -0.1056394593415E+00
 0.3961827557524E+00 -0.4346571843415E+00  0.0000000000000E+00 -0.1181046700698E+00
 0.3960589352212E+00 -0.4336428967425E+00  0.0000000000000E+00 -0.1355361212544E+00
 0.3940259102552E+00 -0.4310214846882E+00  0.0000000000000E+00 -0.1574567672991E+00
 0.3901293097654E+00 -0.4268394660581E+00  0.0000000000000E+00 -0.1834302910271E+00
 0.3842317205677E+00 -0.4209679895033E+00  0.0000000000000E+00 -0.2129811511358E+00
 0.3758331986547E+00 -0.4129605740727E+00  0.0000000000000E+00 -0.2454978881699E+00
 0.3642023387931E+00 -0.4020957690209E+00  0.0000000000000E+00 -0.2812046753101E+00
 0.3491193431239E+00 -0.3880316513046E+00  0.0000000000000E+00 -0.3216266484271E+00
 0.8481553905469E-01 -0.1551436385532E+00  0.0000000000000E+00 -0.3774753752151E+00
 0.1415763844086E+00 -0.2081430954526E+00  0.0000000000000E+00 -0.3118143261861E+00
 0.1923617237235E+00 -0.2553429922104E+00  0.0000000000000E+00 -0.2578239802487E+00
 0.2370318774501E+00 -0.2966081235980E+00  0.0000000000000E+00 -0.2133549965443E+00
 0.2756768328704E+00 -0.3320405078423E+00  0.0000000000000E+00 -0.1772994242951E+00
 0.3085773276424E+00 -0.3619341457128E+00  0.0000000000000E+00 -0.1487948798852E+00
 0.3360525182514E+00 -0.3866221677277E+00  0.0000000000000E+00 -0.1270840927142E+00
 0.3583862873745E+00 -0.4064030960218E+00  0.0000000000000E+00 -0.1115465800202E+00
 0.3758589587327E+00 -0.4215751023323E+00  0.0000000000000E+00 -0.1018115231797E+00
 0.3888676825763E+00 -0.4325549086753E+00  0.0000000000000E+00 -0.9781375285990E-01
 0.3979986218574E+00 -0.4399464316659E+00  0.0000000000000E+00 -0.9960295900160E-01
 0.4039266867345E+00 -0.4444374229560E+00  0.0000000000000E+00 -0.1070577242416E+00
 0.4072549599241E+00 -0.4466382404661E+00  0.0000000000000E+00 -0.1198685517179E+00
 0.4084168310746E+00 -0.4469845670612E+00  0.0000000000000E+00 -0.1376324602852E+00
 0.4076456263746E+00 -0.4457108171710E+00  0.0000000000000E+00 -0.1599189597813E+00
 0.4049822070369E+00 -0.4428619536341E+00  0.0000000000000E+00 -0.1863143468430E+00
 0.4002477290928E+00 -0.4382754832439E+00  0.0000000000000E+00 -0.2164050880546E+00
 0.3929543547882E+00 -0.4314821026496E+00  0.0000000000000E+00 -0.2499399213799E+00
 0.3825421478177E+00 -0.4219115180795E+00  0.0000000000000E+00 -0.2875985183447E+00
 0.3689239073819E+00 -0.4094075035483E+00  0.0000000000000E+00 -0.3309052439152E+00
 0.8045588916794E-01 -0.1513429217593E+00  0.0000000000000E+00 -0.3574715998106E+00
 0.1388145588024E+00 -0.2058760671484E+00  0.0000000000000E+00 -0.2949654068306E+00
 0.1909085241358E+00 -0.2543424728962E+00  0.0000000000000E+00 -0.2440723813288E+00
 0.2367458835712E+00 -0.2967562940071E+00  0.0000000000000E+00 -0.2025401095629E+00
 0.2765117443558E+00 -0.3333119388994E+00  0.0000000000000E+00 -0.1690999553996E+00
 0.3105274453147E+00 -0.3643411111269E+00  0.0000000000000E+00 -0.1428163218344E+00
 0.3391332464870E+00 -0.3901953751565E+00  0.0000000000000E+00 -0.1229347477914E+00
 0.3626341823611E+00 -0.4111922763330E+00  0.0000000000000E+00 -0.1088761593102E+00
 0.3813318222722E+00 -0.4276475883546E+00  0.0000000000000E+00 -0.1003104572824E+00
 0.3956278495660E+00 -0.4399785241811E+00  0.0000000000000E+00 -0.9718881773733E-01
 0.4060858933842E+00 -0.4487634470438E+00  0.0000000000000E+00 -0.9957746318510E-01
 0.4133495355547E+00 -0.4546579201188E+00  0.0000000000000E+00 -0.1074145323348E+00
 0.4180018392662E+00 -0.4582534724188E+00  0.0000000000000E+00 -0.1204733046671E+00
 0.4204701631626E+00 -0.4599828891818E+00  0.0000000000000E+00 -0.1384249342827E+00
 0.4209886545188E+00 -0.4600849077194E+00  0.0000000000000E+00 -0.1608997084792E+00
 0.4195930829227E+00 -0.4586030494447E+00  0.0000000000000E+00 -0.1875496181603E+00
 0.4161073070049E+00 -0.4553717942715E+00  0.0000000000000E+00 -0.2181169911347E+00
 0.4101291871771E+00 -0.4499971162718E+00  0.0000000000000E+00 -0.2526373444330E+00
 0.4012639596308E+00 -0.4420745984711E+00  0.0000000000000E+00 -0.2919390189084E+00
 0.3894976342241E+00 -0.4315512339854E+00  0.0000000000000E+00 -0.3373690933747E+00
 0.7636490909217E-01 -0.1477941697793E+00  0.0000000000000E+00 -0.3370263350576E+00
 0.1363197470493E+00 -0.2038591499047E+00  0.0000000000000E+00 -0.2777723440590E+00
 0.1896956290485E+00 -0.2535662994347E+00  0.0000000000000E+00 -0.2299729905688E+00
 0.2366492681287E+00 -0.2970770697739E+00  0.0000000000000E+00 -0.1912977354539E+00
 0.2774643074152E+00 -0.3346822258905E+00  0.0000000000000E+00 -0.1603700571851E+00
 0.3125124110063E+00 -0.3667611897724E+00  0.0000000000000E+00 -0.1362087066336E+00
 0.3421632572978E+00 -0.3936926059555E+00  0.0000000000000E+00 -0.1180691364762E+00
 0.3667480682009E+00 -0.4158177665197E+00  0.0000000000000E+00 -0.1054127922527E+00
 0.3865932543605E+00 -0.4334743944476E+00  0.0000000000000E+00 -0.9794764361505E-01
 0.4021098208331E+00 -0.4470858228910E+00  0.0000000000000E+00 -0.9563832548849E-01
 0.4138453382289E+00 -0.4572119317896E+00  0.0000000000000E+00 -0.9856127330413E-01
 0.4224158722865E+00 -0.4644799188516E+00  0.0000000000000E+00 -0.1066989402974E+00
 0.4283830933293E+00 -0.4694608286277E+00  0.0000000000000E+00 -0.1198923972470E+00
 0.4321645075190E+00 -0.4725797872662E+00  0.0000000000000E+00 -0.1378833976051E+00
 0.4339935389530E+00 -0.4740775119961E+00  0.0000000000000E+00 -0.1603752823254E+00
 0.4339138727404E+00 -0.4740059490169E+00  0.0000000000000E+00 -0.1871173208355E+00
 0.4317841474622E+00 -0.4722321623944E+00  0.0000000000000E+00 -0.2180061398717E+00
 0.4273034362876E+00 -0.4684610346490E+00  0.0000000000000E+00 -0.2532622622329E+00
 0.4202111519013E+00 -0.4624280842646E+00  0.0000000000000E+00 -0.2937366271146E+00
 0.4105368980970E+00 -0.4541439153379E+00  0.0000000000000E+00 -0.3405914361391E+00
 0.7254222422547E-01 -0.1444950497499E+00  0.0000000000000E+00 -0.3161346833238E+00
 0.1340737577844E+00 -0.2020721553711E+00  0.0000000000000E+00 -0.2602373481738E+00
 0.1886916590634E+00 -0.2529804983825E+00  0.0000000000000E+00 -0.2155412809278E+00
 0.2367056432482E+00 -0.2975318643834E+00  0.0000000000000E+00 -0.1796644437065E+00
 0.2785000363433E+00 -0.3361151024571E+00  0.0000000000000E+00 -0.1511632753825E+00
 0.3145027430224E+00 -0.3691635248080E+00  0.0000000000000E+00 -0.1290354063757E+00
 0.3451189189287E+00 -0.3970890189421E+00  0.0000000000000E+00 -0.1125545942960E+00
 0.3707098719450E+00 -0.4202607419716E+00  0.0000000000000E+00 -0.1012217339205E+00
 0.3916289263912E+00 -0.4390408588446E+00  0.0000000000000E+00 -0.9477911988547E-01
 0.4082993526752E+00 -0.4538624021119E+00  0.0000000000000E+00 -0.9320293516124E-01
 0.4212577822287E+00 -0.4652723037106E+00  0.0000000000000E+00 -0.9657627122473E-01
 0.4310967679103E+00 -0.4738734605888E+00  0.0000000000000E+00 -0.1049153143697E+00
 0.4383574477384E+00 -0.4802169423679E+00  0.0000000000000E+00 -0.1181181341216E+00
 0.4434472088469E+00 -0.4847193603330E+00  0.0000000000000E+00 -0.1359940811455E+00
 0.4466023565404E+00 -0.4876259234617E+00  0.0000000000000E+00 -0.1583262673618E+00
 0.4478865714527E+00 -0.4890092925754E+00  0.0000000000000E+00 -0.1849648346367E+00
 0.4472084310782E+00 -0.4887865933871E+00  0.0000000000000E+00 -0.2159321547309E+00
 0.4443644724513E+00 -0.4867617231633E+00  0.0000000000000E+00 -0.2515600488627E+00
 0.4392008384170E+00 -0.4827835395821E+00  0.0000000000000E+00 -0.2926700476023E+00
 0.4317811340285E+00 -0.4769104503239E+00  0.0000000000000E+00 -0.3402703927476E+00
 0.6898709252910E-01 -0.1414421207574E+00  0.0000000000000E+00 -0.2947998651133E+00
 0.1320592682311E+00 -0.2004955444043E+00  0.0000000000000E+00 -0.2423717695115E+00
 0.1878688826722E+00 -0.2525551977920E+00  0.0000000000000E+00 -0.2007977296631E+00
 0.2368829258613E+00 -0.2980866231366E+00  0.0000000000000E+00 -0.1676751203867E+00
 0.2795877115264E+00 -0.3375777365368E+00  0.0000000000000E+00 -0.1415279107237E+00
 0.3164709284223E+00 -0.3715192915586E+00  0.0000000000000E+00 -0.1213534753616E+00
 0.3479771377338E+00 -0.4003605087324E+00  0.0000000000000E+00 -0.1064517675191E+00
 0.3745002271285E+00 -0.4245011315283E+00  0.0000000000000E+00 -0.9636231042538E-01
 0.3964214536565E+00 -0.4443291691908E+00  0.0000000000000E+00 -0.9085826178331E-01
 0.4141781853458E+00 -0.4602896342755E+00  0.0000000000000E+00 -0.8992583067773E-01
 0.4283002152264E+00 -0.4729209333621E+00  0.0000000000000E+00 -0.9365264387027E-01
 0.4393606936391E+00 -0.4828057975554E+00  0.0000000000000E+00 -0.1020811275984E+00
 0.4478826531708E+00 -0.4904775011507E+00  0.0000000000000E+00 -0.1151578863070E+00
 0.4542656099078E+00 -0.4963458901477E+00  0.0000000000000E+00 -0.1327556334996E+00
 0.4587534521332E+00 -0.5006650895076E+00  0.0000000000000E+00 -0.1547349186652E+00
 0.4614375999756E+00 -0.5035367324359E+00  0.0000000000000E+00 -0.1810363002163E+00
 0.4622817242563E+00 -0.5049347047309E+00  0.0000000000000E+00 -0.2117762883425E+00
 0.4611702150804E+00 -0.5047538840153E+00  0.0000000000000E+00 -0.2473485619262E+00
 0.4580361047464E+00 -0.5029363625470E+00  0.0000000000000E+00 -0.2885236811682E+00
 0.4529737383725E+00 -0.4995829164334E+00  0.0000000000000E+00 -0.3361798812144E+00
 0.6569904534884E-01 -0.1386319131979E+00  0.0000000000000E+00 -0.2730317048811E+00
 0.1302600561153E+00 -0.1991108322087E+00  0.0000000000000E+00 -0.2241920631105E+00
 0.1872022899828E+00 -0.2522634272698E+00  0.0000000000000E+00 -0.1857655931764E+00
 0.2371524413268E+00 -0.2987109433820E+00  0.0000000000000E+00 -0.1553634810317E+00
 0.2806990218644E+00 -0.3390403558170E+00  0.0000000000000E+00 -0.1315081349651E+00
 0.3183912972882E+00 -0.3738016421218E+00  0.0000000000000E+00 -0.1132146112829E+00
 0.3507153980491E+00 -0.4034836486884E+00  0.0000000000000E+00 -0.9981596364360E-01
 0.3780989949864E+00 -0.4285181365029E+00  0.0000000000000E+00 -0.9088976913372E-01
 0.4009514730174E+00 -0.4493194726331E+00  0.0000000000000E+00 -0.8623709844820E-01
 0.4197253841582E+00 -0.4663460884403E+00  0.0000000000000E+00 -0.8585290985296E-01
 0.4349470425323E+00 -0.4801314644117E+00  0.0000000000000E+00 -0.8982789233945E-01
 0.4471742672851E+00 -0.4912422651671E+00  0.0000000000000E+00 -0.9822497003130E-01
 0.4569153449701E+00 -0.5001971500631E+00  0.0000000000000E+00 -0.1110318040872E+00
 0.4645651480048E+00 -0.5074021923785E+00  0.0000000000000E+00 -0.1281778612595E+00
 0.4703791386353E+00 -0.5131244144751E+00  0.0000000000000E+00 -0.1495927927740E+00
 0.4744804426367E+00 -0.5174988760143E+00  0.0000000000000E+00 -0.1752916656316E+00
 0.4768876341184E+00 -0.5205568636870E+00  0.0000000000000E+00 -0.2054572067924E+00
 0.4775623727802E+00 -0.5222742853088E+00  0.0000000000000E+00 -0.2405116541077E+00
 0.4765093493678E+00 -0.5226710592165E+00  0.0000000000000E+00 -0.2811639009382E+00
 0.4738519158931E+00 -0.5218869417309E+00  0.0000000000000E+00 -0.3281766320687E+00
 0.6267811620328E-01 -0.1360613914972E+00  0.0000000000000E+00 -0.2508456791667E+00
 0.1286611713170E+00 -0.1979008213944E+00  0.0000000000000E+00 -0.2057178319870E+00
 0.1866691917957E+00 -0.2520806725407E+00  0.0000000000000E+00 -0.1704694500393E+00
 0.2374883571828E+00 -0.2993774409354E+00  0.0000000000000E+00 -0.1427620182300E+00
 0.2818082210568E+00 -0.3404759099543E+00  0.0000000000000E+00 -0.1211447662351E+00
 0.3202399365882E+00 -0.3759856045401E+00  0.0000000000000E+00 -0.1046661708896E+00
 0.3533119275130E+00 -0.4064358406740E+00  0.0000000000000E+00 -0.9269836047512E-01
 0.3814857664513E+00 -0.4322907173715E+00  0.0000000000000E+00 -0.8485654670239E-01
 0.4051984997199E+00 -0.4539907616149E+00  0.0000000000000E+00 -0.8096722955412E-01
 0.4249183990943E+00 -0.4720086405576E+00  0.0000000000000E+00 -0.8103293935007E-01
 0.4411710623936E+00 -0.4868758647745E+00  0.0000000000000E+00 -0.8514611775357E-01
 0.4545028500436E+00 -0.4991469414186E+00  0.0000000000000E+00 -0.9338528013761E-01
 0.4654109412129E+00 -0.5093294685244E+00  0.0000000000000E+00 -0.1057718054482E+00
 0.4742888109496E+00 -0.5178289042879E+00  0.0000000000000E+00 -0.1222834332717E+00
 0.4814062901877E+00 -0.5249280418169E+00  0.0000000000000E+00 -0.1429074813669E+00
 0.4869195042372E+00 -0.5307969795879E+00  0.0000000000000E+00 -0.1677164740746E+00
 0.4908990740436E+00 -0.5355219601667E+00  0.0000000000000E+00 -0.1969361534726E+00
 0.4933736785010E+00 -0.5391499611853E+00  0.0000000000000E+00 -0.2309942586869E+00
 0.4944071286719E+00 -0.5417659143848E+00  0.0000000000000E+00 -0.2705329835318E+00
 0.4941489646906E+00 -0.5435444719241E+00  0.0000000000000E+00 -0.3162086950454E+00
 0.5992486593561E-01 -0.1337281145960E+00  0.0000000000000E+00 -0.2282622634277E+00
 0.1272490239074E+00 -0.1968497504838E+00  0.0000000000000E+00 -0.1869707532373E+00
 0.1862490166022E+00 -0.2519846620271E+00  0.0000000000000E+00 -0.1549343084978E+00
 0.2378673336879E+00 -0.3000613763614E+00  0.0000000000000E+00 -0.1299018715236E+00
 0.2828918734126E+00 -0.3418598011996E+00  0.0000000000000E+00 -0.1104757995996E+00
 0.3219946445032E+00 -0.3780480318183E+00  0.0000000000000E+00 -0.9575203104736E-01
 0.3557458922962E+00 -0.4091955014891E+00  0.0000000000000E+00 -0.8514698192275E-01
 0.3846403211681E+00 -0.4357980559335E+00  0.0000000000000E+00 -0.7831318056492E-01
 0.4091416352968E+00 -0.4583216037703E+00  0.0000000000000E+00 -0.7510042311020E-01
 0.4297339159897E+00 -0.4772533690301E+00  0.0000000000000E+00 -0.7551760864613E-01
 0.4469442715068E+00 -0.4931252841895E+00  0.0000000000000E+00 -0.7965749655165E-01
 0.4613111042901E+00 -0.5064832560900E+00  0.0000000000000E+00 -0.8760957779265E-01
 0.4733239443754E+00 -0.5178272590888E+00  0.0000000000000E+00 -0.9942152918214E-01
 0.4833776607761E+00 -0.5275649098018E+00  0.0000000000000E+00 -0.1151098451240E+00
 0.4917580762788E+00 -0.5359964632354E+00  0.0000000000000E+00 -0.1347069663818E+00
 0.4986538500851E+00 -0.5433267543950E+00  0.0000000000000E+00 -0.1583265448932E+00
 0.5041834976656E+00 -0.5496929991294E+00  0.0000000000000E+00 -0.1862183114203E+00
 0.5084333373495E+00 -0.5552039454083E+00  0.0000000000000E+00 -0.2187993725966E+00
 0.5115156071800E+00 -0.5599986336544E+00  0.0000000000000E+00 -0.2566443541284E+00
 0.5136018089265E+00 -0.5642811128525E+00  0.0000000000000E+00 -0.3003114370595E+00
 0.5744031999850E-01 -0.1316302517336E+00  0.0000000000000E+00 -0.2053063794136E+00
 0.1260114151612E+00 -0.1959433655175E+00  0.0000000000000E+00 -0.1679739492863E+00
 0.1859232025454E+00 -0.2519552603647E+00  0.0000000000000E+00 -0.1391850813105E+00
 0.2382683182816E+00 -0.3007404331332E+00  0.0000000000000E+00 -0.1168127609719E+00
 0.2839286982082E+00 -0.3431697139736E+00  0.0000000000000E+00 -0.9953681707393E-01
 0.3236349312894E+00 -0.3799675924775E+00  0.0000000000000E+00 -0.8651328770770E-01
 0.3579975990374E+00 -0.4117422599376E+00  0.0000000000000E+00 -0.7720747949696E-01
 0.3875430384569E+00 -0.4390199702416E+00  0.0000000000000E+00 -0.7130899195117E-01
 0.4127601630590E+00 -0.4622907562216E+00  0.0000000000000E+00 -0.6868903124449E-01
 0.4341485634013E+00 -0.4820562933447E+00  0.0000000000000E+00 -0.6936155414917E-01
 0.4522385656424E+00 -0.4988507922110E+00  0.0000000000000E+00 -0.7341794063003E-01
 0.4675636137233E+00 -0.5132146315156E+00  0.0000000000000E+00 -0.8095410665129E-01
 0.4806085992672E+00 -0.5256431884121E+00  0.0000000000000E+00 -0.9203660804936E-01
 0.4917719365803E+00 -0.5365483912172E+00  0.0000000000000E+00 -0.1067108861942E+00
 0.5013560639781E+00 -0.5462486056462E+00  0.0000000000000E+00 -0.1250420368987E+00
 0.5095805592724E+00 -0.5549818290311E+00  0.0000000000000E+00 -0.1471699589358E+00
 0.5166071113639E+00 -0.5629315357742E+00  0.0000000000000E+00 -0.1733527785986E+00
 0.5225713571717E+00 -0.5702598578695E+00  0.0000000000000E+00 -0.2039853645904E+00
 0.5276251990308E+00 -0.5771509713799E+00  0.0000000000000E+00 -0.2395764538292E+00
 0.5319559557058E+00 -0.5838317245040E+00  0.0000000000000E+00 -0.2805952006406E+00
 0.5522585936953E-01 -0.1297665275441E+00  0.0000000000000E+00 -0.1820068985180E+00
 0.1249375289681E+00 -0.1951689427203E+00  0.0000000000000E+00 -0.1487515949172E+00
 0.1856751323769E+00 -0.2519744104243E+00  0.0000000000000E+00 -0.1232462923867E+00
 0.2386724277302E+00 -0.3013945925695E+00  0.0000000000000E+00 -0.1035229897443E+00
 0.2848994877680E+00 -0.3443855226578E+00  0.0000000000000E+00 -0.8836131968564E-01
 0.3251420559469E+00 -0.3817247998098E+00  0.0000000000000E+00 -0.7698880276187E-01
 0.3600486921257E+00 -0.4140571519200E+00  0.0000000000000E+00 -0.6892372853930E-01
 0.3901752611053E+00 -0.4419372843742E+00  0.0000000000000E+00 -0.6389257714040E-01
 0.4160340582849E+00 -0.4658776917820E+00  0.0000000000000E+00 -0.6178625562997E-01
 0.4381395237680E+00 -0.4863940095731E+00  0.0000000000000E+00 -0.6262233314507E-01
 0.4570263968284E+00 -0.5040240592978E+00  0.0000000000000E+00 -0.6648883807865E-01
 0.4732255901916E+00 -0.5193052004926E+00  0.0000000000000E+00 -0.7348359748224E-01
 0.4872197947427E+00 -0.5327306804638E+00  0.0000000000000E+00 -0.8368482044188E-01
 0.4994124444473E+00 -0.5447182088477E+00  0.0000000000000E+00 -0.9715735144306E-01
 0.5101224002791E+00 -0.5556040440726E+00  0.0000000000000E+00 -0.1139872149127E+00
 0.5195977833188E+00 -0.5656569161931E+00  0.0000000000000E+00 -0.1343273746527E+00
 0.5280385225522E+00 -0.5751015119787E+00  0.0000000000000E+00 -0.1584314975288E+00
 0.5356222067990E+00 -0.5841458064549E+00  0.0000000000000E+00 -0.1866634095897E+00
 0.5425332978484E+00 -0.5930117218480E+00  0.0000000000000E+00 -0.2194674556935E+00
 0.5489683973843E+00 -0.6019425887287E+00  0.0000000000000E+00 -0.2572341544525E+00
 0.5328309568431E-01 -0.1281361344547E+00  0.0000000000000E+00 -0.1583961848228E+00
 0.1240179013221E+00 -0.1945152814736E+00  0.0000000000000E+00 -0.1293286697694E+00
 0.1854900921227E+00 -0.2520260996040E+00  0.0000000000000E+00 -0.1071419420439E+00
 0.2390628855581E+00 -0.3020060680780E+00  0.0000000000000E+00 -0.9005951588768E-01
 0.2857870767345E+00 -0.3454892538948E+00  0.0000000000000E+00 -0.7698102334423E-01
 0.3264990863675E+00 -0.3833020664390E+00  0.0000000000000E+00 -0.6721564526642E-01
 0.3618823390713E+00 -0.4161228046725E+00  0.0000000000000E+00 -0.6033828846712E-01
 0.3925196125928E+00 -0.4445321509819E+00  0.0000000000000E+00 -0.5611216485916E-01
 0.4189444259749E+00 -0.4690630491161E+00  0.0000000000000E+00 -0.5444631473196E-01
 0.4416850710776E+00 -0.4902442448932E+00  0.0000000000000E+00 -0.5536036514208E-01
 0.4612813983375E+00 -0.5086179970257E+00  0.0000000000000E+00 -0.5893681661853E-01
 0.4782636261197E+00 -0.5247205661179E+00  0.0000000000000E+00 -0.6527100689636E-01
 0.4931140749760E+00 -0.5390449292215E+00  0.0000000000000E+00 -0.7444597107893E-01
 0.5062420288637E+00 -0.5520153837444E+00  0.0000000000000E+00 -0.8653705669655E-01
 0.5179819203025E+00 -0.5639851564234E+00  0.0000000000000E+00 -0.1016405969751E+00
 0.5286075228210E+00 -0.5752506895778E+00  0.0000000000000E+00 -0.1199111823898E+00
 0.5383519999068E+00 -0.5860726779844E+00  0.0000000000000E+00 -0.1415874003858E+00
 0.5474282332979E+00 -0.5966980024145E+00  0.0000000000000E+00 -0.1669950434008E+00
 0.5560470924201E+00 -0.6073798512697E+00  0.0000000000000E+00 -0.1965151058892E+00
 0.5644107333406E+00 -0.6183737106745E+00  0.0000000000000E+00 -0.2304704190144E+00
 0.5161374509875E-01 -0.1267386329822E+00  0.0000000000000E+00 -0.1345096521549E+00
 0.1232443785052E+00 -0.1939726800280E+00  0.0000000000000E+00 -0.1097307859838E+00
 0.1853552434634E+00 -0.2520963392474E+00  0.0000000000000E+00 -0.9089546465761E-01
 0.2394249942240E+00 -0.3025592763238E+00  0.0000000000000E+00 -0.7644806584555E-01
 0.2865763451500E+00 -0.3464650852058E+00  0.0000000000000E+00 -0.6542612457135E-01
 0.3276909738437E+00 -0.3846837749774E+00  0.0000000000000E+00 -0.5722944760193E-01
 0.3634834028271E+00 -0.4179236086011E+00  0.0000000000000E+00 -0.5149275276995E-01
 0.3945602751197E+00 -0.4467883337120E+00  0.0000000000000E+00 -0.4801586628819E-01
 0.4214738825990E+00 -0.4718290236798E+00  0.0000000000000E+00 -0.4672452880444E-01
 0.4447650546962E+00 -0.4935863531377E+00  0.0000000000000E+00 -0.4763882449418E-01
 0.4649789829931E+00 -0.5126073669318E+00  0.0000000000000E+00 -0.5083346372356E-01
 0.4826464596754E+00 -0.5294285744909E+00  0.0000000000000E+00 -0.5639713059397E-01
 0.4982506791916E+00 -0.5445439473124E+00  0.0000000000000E+00 -0.6441144026602E-01
 0.5122070260486E+00 -0.5583845735797E+00  0.0000000000000E+00 -0.7495423866107E-01
 0.5248641254183E+00 -0.5713191529081E+00  0.0000000000000E+00 -0.8812284785724E-01
 0.5365181510587E+00 -0.5836683990789E+00  0.0000000000000E+00 -0.1040637644513E+00
 0.5474304859499E+00 -0.5957237291915E+00  0.0000000000000E+00 -0.1229918103986E+00
 0.5578431286570E+00 -0.6077643967233E+00  0.0000000000000E+00 -0.1451893066548E+00
 0.5679881431281E+00 -0.6200690877455E+00  0.0000000000000E+00 -0.1709752672061E+00
 0.5780719508916E+00 -0.6329032339326E+00  0.0000000000000E+00 -0.2006137702446E+00
 0.5021951214660E-01 -0.1255738529313E+00  0.0000000000000E+00 -0.1103853418470E+00
 0.1226100727582E+00 -0.1935329037517E+00  0.0000000000000E+00 -0.8998406564579E-01
 0.1852596057834E+00 -0.2521731519703E+00  0.0000000000000E+00 -0.7452974855411E-01
 0.2397461289840E+00 -0.3030408306415E+00  0.0000000000000E+00 -0.6271327765591E-01
 0.2872542420581E+00 -0.3472993653533E+00  0.0000000000000E+00 -0.5372554517106E-01
 0.3287046335671E+00 -0.3858563555463E+00  0.0000000000000E+00 -0.4706469815982E-01
 0.3648385990238E+00 -0.4194458740049E+00  0.0000000000000E+00 -0.4242801430023E-01
 0.3962832326026E+00 -0.4486914532514E+00  0.0000000000000E+00 -0.3965184032049E-01
 0.4236068903468E+00 -0.4741597083146E+00  0.0000000000000E+00 -0.3867733292111E-01
 0.4473613356619E+00 -0.4964017591300E+00  0.0000000000000E+00 -0.3952347043753E-01
 0.4680969063916E+00 -0.5159693516788E+00  0.0000000000000E+00 -0.4225496186044E-01
 0.4863457176401E+00 -0.5334000658026E+00  0.0000000000000E+00 -0.4695004378630E-01
 0.5025925494533E+00 -0.5491895870558E+00  0.0000000000000E+00 -0.5368339756745E-01
 0.5172586353995E+00 -0.5637754712212E+00  0.0000000000000E+00 -0.6252842213172E-01
 0.5307049943054E+00 -0.5775399380706E+00  0.0000000000000E+00 -0.7357550666853E-01
 0.5432466967843E+00 -0.5908242320037E+00  0.0000000000000E+00 -0.8695500903385E-01
 0.5551683648306E+00 -0.6039451836073E+00  0.0000000000000E+00 -0.1028510686603E+00
 0.5667353931448E+00 -0.6172082469666E+00  0.0000000000000E+00 -0.1214985908037E+00
 0.5781966255933E+00 -0.6309125140074E+00  0.0000000000000E+00 -0.1431560899271E+00
 0.5897625915963E+00 -0.6453321721346E+00  0.0000000000000E+00 -0.1680349172312E+00
 0.4910198243613E-01 -0.1246418015792E+00  0.0000000000000E+00 -0.8606350375715E-01
 0.1221093179003E+00 -0.1931891515297E+00  0.0000000000000E+00 -0.7011504008265E-01
 0.1851940423973E+00 -0.2522465636960E+00  0.0000000000000E+00 -0.5806718766865E-01
 0.2400157423280E+00 -0.3034395468923E+00  0.0000000000000E+00 -0.4887885687309E-01
 0.2878098178550E+00 -0.3479806457681E+00  0.0000000000000E+00 -0.4190715603324E-01
 0.3295290227650E+00 -0.3868083628437E+00  0.0000000000000E+00 -0.3675498303033E-01
 0.3659366346499E+00 -0.4206779702246E+00  0.0000000000000E+00 -0.3318446324776E-01
 0.3976764794209E+00 -0.4502291988714E+00  0.0000000000000E+00 -0.3106838904938E-01
 0.4253300460958E+00 -0.4760413871480E+00  0.0000000000000E+00 -0.3036222322615E-01
 0.4494581731812E+00 -0.4986743513463E+00  0.0000000000000E+00 -0.3108240435104E-01
 0.4706157801190E+00 -0.5186840751249E+00  0.0000000000000E+00 -0.3328161647806E-01
 0.4893366030061E+00 -0.5366095708464E+00  0.0000000000000E+00 -0.3702435316176E-01
 0.5061072592936E+00 -0.5529484843021E+00  0.0000000000000E+00 -0.4237370014989E-01
 0.5213541610280E+00 -0.5681440743510E+00  0.0000000000000E+00 -0.4939282924058E-01
 0.5354485946905E+00 -0.5825897694731E+00  0.0000000000000E+00 -0.5815871894287E-01
 0.5487208592088E+00 -0.5966433986754E+00  0.0000000000000E+00 -0.6877916726641E-01
 0.5614739277565E+00 -0.6106419381899E+00  0.0000000000000E+00 -0.8140234708257E-01
 0.5739913035896E+00 -0.6249112403700E+00  0.0000000000000E+00 -0.9621305222361E-01
 0.5865347481098E+00 -0.6397662112443E+00  0.0000000000000E+00 -0.1134106577092E+00
 0.5993188876125E+00 -0.6554887350691E+00  0.0000000000000E+00 -0.1331573281353E+00
 0.4826253364879E-01 -0.1239425836586E+00  0.0000000000000E+00 -0.6158618006327E-01
 0.1217376305269E+00 -0.1929360240822E+00  0.0000000000000E+00 -0.5015056088710E-01
 0.1851512521356E+00 -0.2523085987772E+00  0.0000000000000E+00 -0.4152975238360E-01
 0.2402253752227E+00 -0.3037464552654E+00  0.0000000000000E+00 -0.3496774020882E-01
 0.2882342601971E+00 -0.3484997153240E+00  0.0000000000000E+00 -0.2999798626746E-01
 0.3301552128519E+00 -0.3875305470317E+00  0.0000000000000E+00 -0.2633319185326E-01
 0.3667683274244E+00 -0.4216104448230E+00  0.0000000000000E+00 -0.2380213684341E-01
 0.3987301963330E+00 -0.4513915057928E+00  0.0000000000000E+00 -0.2231400099099E-01
 0.4266323260641E+00 -0.4774627832408E+00  0.0000000000000E+00 -0.2183764807674E-01
 0.4510425574169E+00 -0.5003908188456E+00  0.0000000000000E+00 -0.2238575901209E-01
 0.4725195212731E+00 -0.5207350572563E+00  0.0000000000000E+00 -0.2399728034408E-01
 0.4915985017575E+00 -0.5390359260907E+00  0.0000000000000E+00 -0.2672027717450E-01
 0.5087678292894E+00 -0.5557928887113E+00  0.0000000000000E+00 -0.3060252279976E-01
 0.5244580896298E+00 -0.5714537891670E+00  0.0000000000000E+00 -0.3569241508157E-01
 0.5390484660567E+00 -0.5864206823058E+00  0.0000000000000E+00 -0.4204850182066E-01
 0.5528807223473E+00 -0.6010639078634E+00  0.0000000000000E+00 -0.4975115598991E-01
 0.5662714248422E+00 -0.6157354111648E+00  0.0000000000000E+00 -0.5890875144282E-01
 0.5795172786309E+00 -0.6307759845826E+00  0.0000000000000E+00 -0.6965424340245E-01
 0.5928894488077E+00 -0.6465120936411E+00  0.0000000000000E+00 -0.8212902929179E-01
 0.6066062664558E+00 -0.6632319195126E+00  0.0000000000000E+00 -0.9644792097305E-01
 0.4770226303799E-01 -0.1234763361450E+00  0.0000000000000E+00 -0.3699680436572E-01
 0.1214916774867E+00 -0.1927694969430E+00  0.0000000000000E+00 -0.3011772623231E-01
 0.1851257633700E+00 -0.2523532771582E+00  0.0000000000000E+00 -0.2493907801233E-01
 0.2403686695008E+00 -0.3039548136083E+00  0.0000000000000E+00 -0.2100226696596E-01
 0.2885209270327E+00 -0.3488496330236E+00  0.0000000000000E+00 -0.1802442345889E-01
 0.3305764505618E+00 -0.3880159142969E+00  0.0000000000000E+00 -0.1583169877246E-01
 0.3673267031404E+00 -0.4222361209790E+00  0.0000000000000E+00 -0.1432083365474E-01
 0.3994368924799E+00 -0.4521706982765E+00  0.0000000000000E+00 -0.1343735309844E-01
 0.4275052845737E+00 -0.4784152594888E+00  0.0000000000000E+00 -0.1316285097323E-01
 0.4521044834257E+00 -0.5015409283257E+00  0.0000000000000E+00 -0.1350532325639E-01
 0.4737957267371E+00 -0.5221095929961E+00  0.0000000000000E+00 -0.1448867943862E-01
 0.4931154902136E+00 -0.5406627885086E+00  0.0000000000000E+00 -0.1614257138261E-01
 0.5105534066723E+00 -0.5577013565713E+00  0.0000000000000E+00 -0.1849675729576E-01
 0.5265429816716E+00 -0.5736763441894E+00  0.0000000000000E+00 -0.2158158999402E-01
 0.5414687524984E+00 -0.5889956580962E+00  0.0000000000000E+00 -0.2543361858286E-01
 0.5556801388494E+00 -0.6040380047439E+00  0.0000000000000E+00 -0.3010239821696E-01
 0.5695026766444E+00 -0.6191652299129E+00  0.0000000000000E+00 -0.3565393215754E-01
 0.5832416781880E+00 -0.6347279006461E+00  0.0000000000000E+00 -0.4216832687338E-01
 0.5971744255254E+00 -0.6510600241915E+00  0.0000000000000E+00 -0.4972995410560E-01
 0.6115220368683E+00 -0.6684542233693E+00  0.0000000000000E+00 -0.5840724782699E-01
 0.4742193264955E-01 -0.1232431783597E+00  0.0000000000000E+00 -0.1233980135955E-01
 0.1213692508266E+00 -0.1926868992567E+00  0.0000000000000E+00 -0.1004380861166E-01
 0.1851139301993E+00 -0.2523766127803E+00  0.0000000000000E+00 -0.8316557513412E-02
 0.2404413792377E+00 -0.3040601195577E+00  0.0000000000000E+00 -0.7004349959625E-02
 0.2886653740338E+00 -0.3490257552730E+00  0.0000000000000E+00 -0.6012403486178E-02
 0.3307882060692E+00 -0.3882597746116E+00  0.0000000000000E+00 -0.5282522840467E-02
 0.3676070702379E+00 -0.4225501720631E+00  0.0000000000000E+00 -0.4780200089511E-02
 0.3997915133233E+00 -0.4525615982222E+00  0.0000000000000E+00 -0.4487279793988E-02
 0.4279432057068E+00 -0.4788929716673E+00  0.0000000000000E+00 -0.4397673054518E-02
 0.4526371618382E+00 -0.5021177370023E+00  0.0000000000000E+00 -0.4514110974529E-02
 0.4744359628707E+00 -0.5227990453986E+00  0.0000000000000E+00 -0.4844655217743E-02
 0.4938767284200E+00 -0.5414790350236E+00  0.0000000000000E+00 -0.5399326566881E-02
 0.5114497907926E+00 -0.5586592869672E+00  0.0000000000000E+00 -0.6188227730837E-02
 0.5275901564637E+00 -0.5747924934360E+00  0.0000000000000E+00 -0.7221695698704E-02
 0.5426850657308E+00 -0.5902895165917E+00  0.0000000000000E+00 -0.8512149685064E-02
 0.5570877683897E+00 -0.6055332524090E+00  0.0000000000000E+00 -0.1007632803381E-01
 0.5711282549474E+00 -0.6208904706763E+00  0.0000000000000E+00 -0.1193639130291E-01
 0.5851160795367E+00 -0.6367165664119E+00  0.0000000000000E+00 -0.1411909166465E-01
 0.5993315237479E+00 -0.6533492561907E+00  0.0000000000000E+00 -0.1665246259681E-01
 0.6139971829628E+00 -0.6710834324393E+00  0.0000000000000E+00 -0.1955920200282E-01
 0.4742193270149E-01 -0.1232431784037E+00  0.0000000000000E+00  0.1233981015215E-01
 0.1213692508477E+00 -0.1926868992718E+00  0.0000000000000E+00  0.1004381500870E-01
 0.1851139302020E+00 -0.2523766127783E+00  0.0000000000000E+00  0.8316562170222E-02
 0.2404413792294E+00 -0.3040601195458E+00  0.0000000000000E+00  0.7004353345081E-02
 0.2886653740194E+00 -0.3490257552558E+00  0.0000000000000E+00  0.6012405942508E-02
 0.3307882060521E+00 -0.3882597745923E+00  0.0000000000000E+00  0.5282524619747E-02
 0.3676070702204E+00 -0.4225501720439E+00  0.0000000000000E+00  0.4780201376715E-02
 0.3997915133073E+00 -0.4525615982048E+00  0.0000000000000E+00  0.4487280722642E-02
 0.4279432056933E+00 -0.4788929716528E+00  0.0000000000000E+00  0.4397673719174E-02
 0.4526371618277E+00 -0.5021177369911E+00  0.0000000000000E+00  0.4514111440662E-02
 0.4744359628632E+00 -0.5227990453907E+00  0.0000000000000E+00  0.4844655530729E-02
 0.4938767284153E+00 -0.5414790350187E+00  0.0000000000000E+00  0.5399326759579E-02
 0.5114497907900E+00 -0.5586592869646E+00  0.0000000000000E+00  0.6188227829466E-02
 0.5275901564626E+00 -0.5747924934351E+00  0.0000000000000E+00  0.7221695726225E-02
 0.5426850657306E+00 -0.5902895165917E+00  0.0000000000000E+00  0.8512149662304E-02
 0.5570877683901E+00 -0.6055332524096E+00  0.0000000000000E+00  0.1007632797853E-01
 0.5711282549485E+00 -0.6208904706775E+00  0.0000000000000E+00  0.1193639122704E-01
 0.5851160795390E+00 -0.6367165664143E+00  0.0000000000000E+00  0.1411909156941E-01
 0.5993315237528E+00 -0.6533492561955E+00  0.0000000000000E+00  0.1665246246458E-01
 0.6139971829726E+00 -0.6710834324485E+00  0.0000000000000E+00  0.1955920178568E-01
 0.4770226319374E-01 -0.1234763362768E+00  0.0000000000000E+00  0.3699681314264E-01
 0.1214916775501E+00 -0.1927694969885E+00  0.0000000000000E+00  0.3011773262069E-01
 0.1851257633781E+00 -0.2523532771526E+00  0.0000000000000E+00  0.2493908266319E-01
 0.2403686694761E+00 -0.3039548135730E+00  0.0000000000000E+00  0.2100227034624E-01
 0.2885209269897E+00 -0.3488496329723E+00  0.0000000000000E+00  0.1802442591015E-01
 0.3305764505106E+00 -0.3880159142390E+00  0.0000000000000E+00  0.1583170054668E-01
 0.3673267030883E+00 -0.4222361209215E+00  0.0000000000000E+00  0.1432083493700E-01
 0.3994368924319E+00 -0.4521706982243E+00  0.0000000000000E+00  0.1343735402243E-01
 0.4275052845332E+00 -0.4784152594452E+00  0.0000000000000E+00  0.1316285163364E-01
 0.4521044833943E+00 -0.5015409282922E+00  0.0000000000000E+00  0.1350532371881E-01
 0.4737957267150E+00 -0.5221095929726E+00  0.0000000000000E+00  0.1448867974843E-01
 0.4931154901996E+00 -0.5406627884939E+00  0.0000000000000E+00  0.1614257157259E-01
 0.5105534066647E+00 -0.5577013565635E+00  0.0000000000000E+00  0.1849675739200E-01
 0.5265429816685E+00 -0.5736763441865E+00  0.0000000000000E+00  0.2158159001932E-01
 0.5414687524980E+00 -0.5889956580964E+00  0.0000000000000E+00  0.2543361855799E-01
 0.5556801388509E+00 -0.6040380047459E+00  0.0000000000000E+00  0.3010239815971E-01
 0.5695026766479E+00 -0.6191652299168E+00  0.0000000000000E+00  0.3565393208005E-01
 0.5832416781951E+00 -0.6347279006534E+00  0.0000000000000E+00  0.4216832677728E-01
 0.5971744255405E+00 -0.6510600242059E+00  0.0000000000000E+00  0.4972995397381E-01
 0.6115220368978E+00 -0.6684542233970E+00  0.0000000000000E+00  0.5840724761221E-01
 0.4826253390816E-01 -0.1239425838782E+00  0.0000000000000E+00  0.6158618880897E-01
 0.1217376306333E+00 -0.1929360241588E+00  0.0000000000000E+00  0.5015056725819E-01
 0.1851512521500E+00 -0.2523085987689E+00  0.0000000000000E+00  0.4152975702252E-01
 0.2402253751824E+00 -0.3037464552075E+00  0.0000000000000E+00  0.3496774357870E-01
 0.2882342601262E+00 -0.3484997152392E+00  0.0000000000000E+00  0.2999798870855E-01
 0.3301552127673E+00 -0.3875305469359E+00  0.0000000000000E+00  0.2633319361734E-01
 0.3667683273380E+00 -0.4216104447277E+00  0.0000000000000E+00  0.2380213811578E-01
 0.3987301962534E+00 -0.4513915057064E+00  0.0000000000000E+00  0.2231400190567E-01
 0.4266323259969E+00 -0.4774627831685E+00  0.0000000000000E+00  0.2183764872871E-01
 0.4510425573648E+00 -0.5003908187900E+00  0.0000000000000E+00  0.2238575946711E-01
 0.4725195212365E+00 -0.5207350572174E+00  0.0000000000000E+00  0.2399728064758E-01
 0.4915985017345E+00 -0.5390359260665E+00  0.0000000000000E+00  0.2672027735911E-01
 0.5087678292770E+00 -0.5557928886987E+00  0.0000000000000E+00  0.3060252289127E-01
 0.5244580896249E+00 -0.5714537891624E+00  0.0000000000000E+00  0.3569241510252E-01
 0.5390484660565E+00 -0.5864206823063E+00  0.0000000000000E+00  0.4204850179164E-01
 0.5528807223500E+00 -0.6010639078671E+00  0.0000000000000E+00  0.4975115592880E-01
 0.5662714248482E+00 -0.6157354111716E+00  0.0000000000000E+00  0.5890875136220E-01
 0.5795172786432E+00 -0.6307759845952E+00  0.0000000000000E+00  0.6965424330480E-01
 0.5928894488329E+00 -0.6465120936656E+00  0.0000000000000E+00  0.8212902916122E-01
 0.6066062665053E+00 -0.6632319195592E+00  0.0000000000000E+00  0.9644792076368E-01
 0.4910198279881E-01 -0.1246418018867E+00  0.0000000000000E+00  0.8606351245639E-01
 0.1221093180505E+00 -0.1931891516385E+00  0.0000000000000E+00  0.7011504642786E-01
 0.1851940424192E+00 -0.2522465636864E+00  0.0000000000000E+00  0.5806719228958E-01
 0.2400157422734E+00 -0.3034395468132E+00  0.0000000000000E+00  0.4887886022726E-01
 0.2878098177574E+00 -0.3479806456511E+00  0.0000000000000E+00  0.4190715845898E-01
 0.3295290226478E+00 -0.3868083627110E+00  0.0000000000000E+00  0.3675498477914E-01
 0.3659366345299E+00 -0.4206779700923E+00  0.0000000000000E+00  0.3318446450529E-01
 0.3976764793104E+00 -0.4502291987513E+00  0.0000000000000E+00  0.3106838995010E-01
 0.4253300460025E+00 -0.4760413870476E+00  0.0000000000000E+00  0.3036222386549E-01
 0.4494581731090E+00 -0.4986743512691E+00  0.0000000000000E+00  0.3108240479506E-01
 0.4706157800683E+00 -0.5186840750711E+00  0.0000000000000E+00  0.3328161677222E-01
 0.4893366029744E+00 -0.5366095708131E+00  0.0000000000000E+00  0.3702435333843E-01
 0.5061072592769E+00 -0.5529484842850E+00  0.0000000000000E+00  0.4237370023446E-01
 0.5213541610218E+00 -0.5681440743453E+00  0.0000000000000E+00  0.4939282925519E-01
 0.5354485946908E+00 -0.5825897694746E+00  0.0000000000000E+00  0.5815871890785E-01
 0.5487208592133E+00 -0.5966433986812E+00  0.0000000000000E+00  0.6877916719977E-01
 0.5614739277654E+00 -0.6106419382001E+00  0.0000000000000E+00  0.8140234699756E-01
 0.5739913036072E+00 -0.6249112403881E+00  0.0000000000000E+00  0.9621305212407E-01
 0.5865347481457E+00 -0.6397662112792E+00  0.0000000000000E+00  0.1134106575812E+00
 0.5993188876822E+00 -0.6554887351352E+00  0.0000000000000E+00  0.1331573279349E+00
 0.5021951261218E-01 -0.1255738533265E+00  0.0000000000000E+00  0.1103853504850E+00
 0.1226100729536E+00 -0.1935329038944E+00  0.0000000000000E+00  0.8998407195658E-01
 0.1852596058148E+00 -0.2521731519614E+00  0.0000000000000E+00  0.7452975315091E-01
 0.2397461289169E+00 -0.3030408305431E+00  0.0000000000000E+00  0.6271328098893E-01
 0.2872542419354E+00 -0.3472993652058E+00  0.0000000000000E+00  0.5372554757615E-01
 0.3287046334186E+00 -0.3858563553780E+00  0.0000000000000E+00  0.4706469988816E-01
 0.3648385988714E+00 -0.4194458738368E+00  0.0000000000000E+00  0.4242801553793E-01
 0.3962832324619E+00 -0.4486914530985E+00  0.0000000000000E+00  0.3965184120266E-01
 0.4236068902281E+00 -0.4741597081868E+00  0.0000000000000E+00  0.3867733354372E-01
 0.4473613355702E+00 -0.4964017590319E+00  0.0000000000000E+00  0.3952347086702E-01
 0.4680969063274E+00 -0.5159693516106E+00  0.0000000000000E+00  0.4225496214231E-01
 0.4863457176003E+00 -0.5334000657608E+00  0.0000000000000E+00  0.4695004395263E-01
 0.5025925494328E+00 -0.5491895870348E+00  0.0000000000000E+00  0.5368339764307E-01
 0.5172586353925E+00 -0.5637754712149E+00  0.0000000000000E+00  0.6252842213822E-01
 0.5307049943068E+00 -0.5775399380735E+00  0.0000000000000E+00  0.7357550662591E-01
 0.5432466967911E+00 -0.5908242320124E+00  0.0000000000000E+00  0.8695500896028E-01
 0.5551683648430E+00 -0.6039451836215E+00  0.0000000000000E+00  0.1028510685700E+00
 0.5667353931680E+00 -0.6172082469909E+00  0.0000000000000E+00  0.1214985907023E+00
 0.5781966256398E+00 -0.6309125140532E+00  0.0000000000000E+00  0.1431560898037E+00
 0.5897625916859E+00 -0.6453321722202E+00  0.0000000000000E+00  0.1680349170451E+00
 0.5161374566675E-01 -0.1267386334654E+00  0.0000000000000E+00  0.1345096607175E+00
 0.1232443787475E+00 -0.1939726802065E+00  0.0000000000000E+00  0.1097307922517E+00
 0.1853552435067E+00 -0.2520963392419E+00  0.0000000000000E+00  0.9089546922399E-01
 0.2394249941468E+00 -0.3025592762087E+00  0.0000000000000E+00  0.7644806915178E-01
 0.2865763450041E+00 -0.3464650850298E+00  0.0000000000000E+00  0.6542612695035E-01
 0.3276909736656E+00 -0.3846837747753E+00  0.0000000000000E+00  0.5722944930452E-01
 0.3634834026436E+00 -0.4179236083984E+00  0.0000000000000E+00  0.5149275398281E-01
 0.3945602749500E+00 -0.4467883335275E+00  0.0000000000000E+00  0.4801586714719E-01
 0.4214738824558E+00 -0.4718290235255E+00  0.0000000000000E+00  0.4672452940626E-01
 0.4447650545857E+00 -0.4935863530195E+00  0.0000000000000E+00  0.4763882490572E-01
 0.4649789829161E+00 -0.5126073668499E+00  0.0000000000000E+00  0.5083346399037E-01
 0.4826464596282E+00 -0.5294285744412E+00  0.0000000000000E+00  0.5639713074773E-01
 0.4982506791679E+00 -0.5445439472883E+00  0.0000000000000E+00  0.6441144033092E-01
 0.5122070260415E+00 -0.5583845735735E+00  0.0000000000000E+00  0.7495423865798E-01
 0.5248641254215E+00 -0.5713191529132E+00  0.0000000000000E+00  0.8812284780573E-01
 0.5365181510684E+00 -0.5836683990911E+00  0.0000000000000E+00  0.1040637643697E+00
 0.5474304859661E+00 -0.5957237292103E+00  0.0000000000000E+00  0.1229918103024E+00
 0.5578431286863E+00 -0.6077643967543E+00  0.0000000000000E+00  0.1451893065522E+00
 0.5679881431854E+00 -0.6200690878026E+00  0.0000000000000E+00  0.1709752670895E+00
 0.5780719510008E+00 -0.6329032340379E+00  0.0000000000000E+00  0.2006137700767E+00
 0.5328309635421E-01 -0.1281361350258E+00  0.0000000000000E+00  0.1583961932966E+00
 0.1240179016134E+00 -0.1945152816906E+00  0.0000000000000E+00  0.1293286759861E+00
 0.1854900921807E+00 -0.2520260996051E+00  0.0000000000000E+00  0.1071419465735E+00
 0.2390628854736E+00 -0.3020060679491E+00  0.0000000000000E+00  0.9005951916127E-01
 0.2857870765679E+00 -0.3454892536930E+00  0.0000000000000E+00  0.7698102569150E-01
 0.3264990861618E+00 -0.3833020662050E+00  0.0000000000000E+00  0.6721564693784E-01
 0.3618823388582E+00 -0.4161228044370E+00  0.0000000000000E+00  0.6033828965009E-01
 0.3925196123954E+00 -0.4445321507670E+00  0.0000000000000E+00  0.5611216569045E-01
 0.4189444258083E+00 -0.4690630489363E+00  0.0000000000000E+00  0.5444631530902E-01
 0.4416850709494E+00 -0.4902442447558E+00  0.0000000000000E+00  0.5536036553237E-01
 0.4612813982485E+00 -0.5086179969310E+00  0.0000000000000E+00  0.5893681686768E-01
 0.4782636260659E+00 -0.5247205660612E+00  0.0000000000000E+00  0.6527100703557E-01
 0.4931140749500E+00 -0.5390449291948E+00  0.0000000000000E+00  0.7444597113161E-01
 0.5062420288573E+00 -0.5520153837391E+00  0.0000000000000E+00  0.8653705668273E-01
 0.5179819203083E+00 -0.5639851564316E+00  0.0000000000000E+00  0.1016405969138E+00
 0.5286075228343E+00 -0.5752506895943E+00  0.0000000000000E+00  0.1199111822996E+00
 0.5383519999275E+00 -0.5860726780084E+00  0.0000000000000E+00  0.1415874002835E+00
 0.5474282333333E+00 -0.5966980024526E+00  0.0000000000000E+00  0.1669950432979E+00
 0.5560470924882E+00 -0.6073798513383E+00  0.0000000000000E+00  0.1965151057825E+00
 0.5644107334695E+00 -0.6183737108001E+00  0.0000000000000E+00  0.2304704188695E+00
 0.5522586014081E-01 -0.1297665282034E+00  0.0000000000000E+00  0.1820069068904E+00
 0.1249375293111E+00 -0.1951689429788E+00  0.0000000000000E+00  0.1487516010744E+00
 0.1856751324531E+00 -0.2519744104357E+00  0.0000000000000E+00  0.1232462968727E+00
 0.2386724276418E+00 -0.3013945924305E+00  0.0000000000000E+00  0.1035229929792E+00
 0.2848994875837E+00 -0.3443855224332E+00  0.0000000000000E+00  0.8836132199529E-01
 0.3251420557159E+00 -0.3817247995466E+00  0.0000000000000E+00  0.7698880439655E-01
 0.3600486918850E+00 -0.4140571516536E+00  0.0000000000000E+00  0.6892372968725E-01
 0.3901752608817E+00 -0.4419372841306E+00  0.0000000000000E+00  0.6389257793941E-01
 0.4160340580961E+00 -0.4658776915781E+00  0.0000000000000E+00  0.6178625617837E-01
 0.4381395236229E+00 -0.4863940094176E+00  0.0000000000000E+00  0.6262233351092E-01
 0.4570263967284E+00 -0.5040240591912E+00  0.0000000000000E+00  0.6648883830768E-01
 0.4732255901319E+00 -0.5193052004295E+00  0.0000000000000E+00  0.7348359760512E-01
 0.4872197947152E+00 -0.5327306804355E+00  0.0000000000000E+00  0.8368482048114E-01
 0.4994124444424E+00 -0.5447182088441E+00  0.0000000000000E+00  0.9715735141776E-01
 0.5101224002884E+00 -0.5556040440847E+00  0.0000000000000E+00  0.1139872148412E+00
 0.5195977833365E+00 -0.5656569162147E+00  0.0000000000000E+00  0.1343273745537E+00
 0.5280385225778E+00 -0.5751015120086E+00  0.0000000000000E+00  0.1584314974208E+00
 0.5356222068407E+00 -0.5841458065003E+00  0.0000000000000E+00  0.1866634094878E+00
 0.5425332979267E+00 -0.5930117219280E+00  0.0000000000000E+00  0.2194674556007E+00
 0.5489683975327E+00 -0.6019425888747E+00  0.0000000000000E+00  0.2572341543395E+00
 0.5744032087069E-01 -0.1316302524815E+00  0.0000000000000E+00  0.2053063876732E+00
 0.1260114155588E+00 -0.1959433658210E+00  0.0000000000000E+00  0.1679739553759E+00
 0.1859232026438E+00 -0.2519552603908E+00  0.0000000000000E+00  0.1391850857462E+00
 0.2382683181932E+00 -0.3007404329881E+00  0.0000000000000E+00  0.1168127641615E+00
 0.2839286980093E+00 -0.3431697137296E+00  0.0000000000000E+00  0.9953681933984E-01
 0.3236349310358E+00 -0.3799675921878E+00  0.0000000000000E+00  0.8651328929990E-01
 0.3579975987712E+00 -0.4117422596426E+00  0.0000000000000E+00  0.7720748060469E-01
 0.3875430382088E+00 -0.4390199699710E+00  0.0000000000000E+00  0.7130899271333E-01
 0.4127601628493E+00 -0.4622907559951E+00  0.0000000000000E+00  0.6868903176039E-01
 0.4341485632405E+00 -0.4820562931721E+00  0.0000000000000E+00  0.6936155448751E-01
 0.4522385655322E+00 -0.4988507920933E+00  0.0000000000000E+00  0.7341794083663E-01
 0.4675636136586E+00 -0.5132146314471E+00  0.0000000000000E+00  0.8095410675629E-01
 0.4806085992389E+00 -0.5256431883828E+00  0.0000000000000E+00  0.9203660807434E-01
 0.4917719365777E+00 -0.5365483912161E+00  0.0000000000000E+00  0.1067108861572E+00
 0.5013560639915E+00 -0.5462486056631E+00  0.0000000000000E+00  0.1250420368170E+00
 0.5095805592952E+00 -0.5549818290586E+00  0.0000000000000E+00  0.1471699588283E+00
 0.5166071113949E+00 -0.5629315358106E+00  0.0000000000000E+00  0.1733527784854E+00
 0.5225713572193E+00 -0.5702598579222E+00  0.0000000000000E+00  0.2039853644912E+00
 0.5276251991185E+00 -0.5771509714708E+00  0.0000000000000E+00  0.2395764537541E+00
 0.5319559558722E+00 -0.5838317246695E+00  0.0000000000000E+00  0.2805952005660E+00
 0.5992486690833E-01 -0.1337281154330E+00  0.0000000000000E+00  0.2282622715643E+00
 0.1272490243631E+00 -0.1968497508364E+00  0.0000000000000E+00  0.1869707592513E+00
 0.1862490167274E+00 -0.2519846620728E+00  0.0000000000000E+00  0.1549343128760E+00
 0.2378673336038E+00 -0.3000613762148E+00  0.0000000000000E+00  0.1299018746612E+00
 0.2828918732029E+00 -0.3418598009402E+00  0.0000000000000E+00  0.1104758018154E+00
 0.3219946442301E+00 -0.3780480315052E+00  0.0000000000000E+00  0.9575203259113E-01
 0.3557458920068E+00 -0.4091955011678E+00  0.0000000000000E+00  0.8514698298494E-01
 0.3846403208974E+00 -0.4357980556378E+00  0.0000000000000E+00  0.7831318128564E-01
 0.4091416350678E+00 -0.4583216035226E+00  0.0000000000000E+00  0.7510042358974E-01
 0.4297339158144E+00 -0.4772533688417E+00  0.0000000000000E+00  0.7551760895392E-01
 0.4469442713874E+00 -0.4931252840617E+00  0.0000000000000E+00  0.7965749673363E-01
 0.4613111042211E+00 -0.5064832560168E+00  0.0000000000000E+00  0.8760957787842E-01
 0.4733239443469E+00 -0.5178272590592E+00  0.0000000000000E+00  0.9942152919226E-01
 0.4833776607764E+00 -0.5275649098038E+00  0.0000000000000E+00  0.1151098450753E+00
 0.4917580762972E+00 -0.5359964632577E+00  0.0000000000000E+00  0.1347069662906E+00
 0.4986538501137E+00 -0.5433267544292E+00  0.0000000000000E+00  0.1583265447780E+00
 0.5041834977023E+00 -0.5496929991728E+00  0.0000000000000E+00  0.1862183113031E+00
 0.5084333374028E+00 -0.5552039454684E+00  0.0000000000000E+00  0.2187993725018E+00
 0.5115156072758E+00 -0.5599986337553E+00  0.0000000000000E+00  0.2566443540747E+00
 0.5136018091097E+00 -0.5642811130367E+00  0.0000000000000E+00  0.3003114370306E+00
 0.6267811727634E-01 -0.1360613924240E+00  0.0000000000000E+00  0.2508456871715E+00
 0.1286611718347E+00 -0.1979008218007E+00  0.0000000000000E+00  0.2057178379176E+00
 0.1866691919527E+00 -0.2520806726115E+00  0.0000000000000E+00  0.1704694543526E+00
 0.2374883571077E+00 -0.2993774407924E+00  0.0000000000000E+00  0.1427620213085E+00
 0.2818082208404E+00 -0.3404759096837E+00  0.0000000000000E+00  0.1211447683938E+00
 0.3202399362988E+00 -0.3759856042071E+00  0.0000000000000E+00  0.1046661723788E+00
 0.3533119272032E+00 -0.4064358403293E+00  0.0000000000000E+00  0.9269836148627E-01
 0.3814857661600E+00 -0.4322907170529E+00  0.0000000000000E+00  0.8485654737697E-01
 0.4051984994731E+00 -0.4539907613477E+00  0.0000000000000E+00  0.8096722999341E-01
 0.4249183989057E+00 -0.4720086403545E+00  0.0000000000000E+00  0.8103293962429E-01
 0.4411710622658E+00 -0.4868758646375E+00  0.0000000000000E+00  0.8514611790881E-01
 0.4545028499711E+00 -0.4991469413412E+00  0.0000000000000E+00  0.9338528020294E-01
 0.4654109411848E+00 -0.5093294684951E+00  0.0000000000000E+00  0.1057718054432E+00
 0.4742888109534E+00 -0.5178289042935E+00  0.0000000000000E+00  0.1222834332119E+00
 0.4814062902117E+00 -0.5249280418452E+00  0.0000000000000E+00  0.1429074812674E+00
 0.4869195042722E+00 -0.5307969796294E+00  0.0000000000000E+00  0.1677164739534E+00
 0.4908990740863E+00 -0.5355219602175E+00  0.0000000000000E+00  0.1969361533529E+00
 0.4933736785593E+00 -0.5391499612523E+00  0.0000000000000E+00  0.2309942585987E+00
 0.4944071287742E+00 -0.5417659144947E+00  0.0000000000000E+00  0.2705329835040E+00
 0.4941489648883E+00 -0.5435444721255E+00  0.0000000000000E+00  0.3162086950711E+00
 0.6569904652227E-01 -0.1386319142158E+00  0.0000000000000E+00  0.2730317127469E+00
 0.1302600566996E+00 -0.1991108326740E+00  0.0000000000000E+00  0.2241920689501E+00
 0.1872022901771E+00 -0.2522634273718E+00  0.0000000000000E+00  0.1857655974172E+00
 0.2371524412661E+00 -0.2987109432483E+00  0.0000000000000E+00  0.1553634840435E+00
 0.2806990216459E+00 -0.3390403555401E+00  0.0000000000000E+00  0.1315081370597E+00
 0.3183912969862E+00 -0.3738016417728E+00  0.0000000000000E+00  0.1132146127109E+00
 0.3507153977216E+00 -0.4034836483233E+00  0.0000000000000E+00  0.9981596459807E-01
 0.3780989946768E+00 -0.4285181361638E+00  0.0000000000000E+00  0.9088976975735E-01
 0.4009514727545E+00 -0.4493194723481E+00  0.0000000000000E+00  0.8623709884328E-01
 0.4197253839574E+00 -0.4663460882239E+00  0.0000000000000E+00  0.8585291009050E-01
 0.4349470423970E+00 -0.4801314642663E+00  0.0000000000000E+00  0.8982789246577E-01
 0.4471742672094E+00 -0.4912422650860E+00  0.0000000000000E+00  0.9822497007505E-01
 0.4569153449426E+00 -0.5001971500342E+00  0.0000000000000E+00  0.1110318040671E+00
 0.4645651480123E+00 -0.5074021923879E+00  0.0000000000000E+00  0.1281778611898E+00
 0.4703791386651E+00 -0.5131244145097E+00  0.0000000000000E+00  0.1495927926683E+00
 0.4744804426785E+00 -0.5174988760636E+00  0.0000000000000E+00  0.1752916655067E+00
 0.4768876341673E+00 -0.5205568637455E+00  0.0000000000000E+00  0.2054572066727E+00
 0.4775623728426E+00 -0.5222742853823E+00  0.0000000000000E+00  0.2405116540285E+00
 0.4765093494745E+00 -0.5226710593337E+00  0.0000000000000E+00  0.2811639009414E+00
 0.4738519161018E+00 -0.5218869419467E+00  0.0000000000000E+00  0.3281766321601E+00
 0.6898709380324E-01 -0.1414421218678E+00  0.0000000000000E+00  0.2947998728345E+00
 0.1320592688869E+00 -0.2004955449342E+00  0.0000000000000E+00  0.2423717752527E+00
 0.1878688829100E+00 -0.2525551979317E+00  0.0000000000000E+00  0.2007977338235E+00
 0.2368829258208E+00 -0.2980866230184E+00  0.0000000000000E+00  0.1676751233238E+00
 0.2795877113106E+00 -0.3375777362586E+00  0.0000000000000E+00  0.1415279127467E+00
 0.3164709281116E+00 -0.3715192911977E+00  0.0000000000000E+00  0.1213534767218E+00
 0.3479771373918E+00 -0.4003605083502E+00  0.0000000000000E+00  0.1064517684110E+00
 0.3745002268029E+00 -0.4245011311712E+00  0.0000000000000E+00  0.9636231099306E-01
 0.3964214533794E+00 -0.4443291688899E+00  0.0000000000000E+00  0.9085826213005E-01
 0.4141781851341E+00 -0.4602896340470E+00  0.0000000000000E+00  0.8992583087532E-01
 0.4283002150843E+00 -0.4729209332090E+00  0.0000000000000E+00  0.9365264396538E-01
 0.4393606935605E+00 -0.4828057974708E+00  0.0000000000000E+00  0.1020811276193E+00
 0.4478826531439E+00 -0.4904775011221E+00  0.0000000000000E+00  0.1151578862718E+00
 0.4542656099189E+00 -0.4963458901607E+00  0.0000000000000E+00  0.1327556334214E+00
 0.4587534521689E+00 -0.5006650895485E+00  0.0000000000000E+00  0.1547349185559E+00
 0.4614376000245E+00 -0.5035367324931E+00  0.0000000000000E+00  0.1810363000910E+00
 0.4622817243113E+00 -0.5049347047972E+00  0.0000000000000E+00  0.2117762882257E+00
 0.4611702151459E+00 -0.5047538840944E+00  0.0000000000000E+00  0.2473485618589E+00
 0.4580361048545E+00 -0.5029363626692E+00  0.0000000000000E+00  0.2885236812072E+00
 0.4529737385865E+00 -0.4995829166589E+00  0.0000000000000E+00  0.3361798813821E+00
 0.7254222560103E-01 -0.1444950509547E+00  0.0000000000000E+00  0.3161346908969E+00
 0.1340737585173E+00 -0.2020721559720E+00  0.0000000000000E+00  0.2602373538095E+00
 0.1886916593513E+00 -0.2529804985671E+00  0.0000000000000E+00  0.2155412849995E+00
 0.2367056432340E+00 -0.2975318642871E+00  0.0000000000000E+00  0.1796644465607E+00
 0.2785000361355E+00 -0.3361151021833E+00  0.0000000000000E+00  0.1511632773260E+00
 0.3145027427074E+00 -0.3691635244396E+00  0.0000000000000E+00  0.1290354076608E+00
 0.3451189185756E+00 -0.3970890185462E+00  0.0000000000000E+00  0.1125545951190E+00
 0.3707098716061E+00 -0.4202607415991E+00  0.0000000000000E+00  0.1012217344269E+00
 0.3916289261017E+00 -0.4390408585297E+00  0.0000000000000E+00  0.9477912017941E-01
 0.4082993524538E+00 -0.4538624018724E+00  0.0000000000000E+00  0.9320293531532E-01
 0.4212577820803E+00 -0.4652723035503E+00  0.0000000000000E+00  0.9657627128603E-01
 0.4310967678287E+00 -0.4738734605006E+00  0.0000000000000E+00  0.1049153143664E+00
 0.4383574477116E+00 -0.4802169423389E+00  0.0000000000000E+00  0.1181181340714E+00
 0.4434472088609E+00 -0.4847193603487E+00  0.0000000000000E+00  0.1359940810606E+00
 0.4466023565815E+00 -0.4876259235082E+00  0.0000000000000E+00  0.1583262672522E+00
 0.4478865715085E+00 -0.4890092926403E+00  0.0000000000000E+00  0.1849648345153E+00
 0.4472084311391E+00 -0.4887865934610E+00  0.0000000000000E+00  0.2159321546211E+00
 0.4443644725186E+00 -0.4867617232469E+00  0.0000000000000E+00  0.2515600488105E+00
 0.4392008385231E+00 -0.4827835397062E+00  0.0000000000000E+00  0.2926700476817E+00
 0.4317811342411E+00 -0.4769104505530E+00  0.0000000000000E+00  0.3402703929997E+00
 0.7636491057033E-01 -0.1477941710809E+00  0.0000000000000E+00  0.3370263424811E+00
 0.1363197478653E+00 -0.2038591505833E+00  0.0000000000000E+00  0.2777723495823E+00
 0.1896956293936E+00 -0.2535662996718E+00  0.0000000000000E+00  0.2299729945436E+00
 0.2366492681476E+00 -0.2970770697067E+00  0.0000000000000E+00  0.1912977382166E+00
 0.2774643072210E+00 -0.3346822256270E+00  0.0000000000000E+00  0.1603700590410E+00
 0.3125124106915E+00 -0.3667611894015E+00  0.0000000000000E+00  0.1362087078363E+00
 0.3421632569373E+00 -0.3936926055498E+00  0.0000000000000E+00  0.1180691372240E+00
 0.3667480678516E+00 -0.4158177661349E+00  0.0000000000000E+00  0.1054127926922E+00
 0.3865932540606E+00 -0.4334743941208E+00  0.0000000000000E+00  0.9794764385130E-01
 0.4021098206032E+00 -0.4470858226418E+00  0.0000000000000E+00  0.9563832559503E-01
 0.4138453380745E+00 -0.4572119316225E+00  0.0000000000000E+00  0.9856127332856E-01
 0.4224158722015E+00 -0.4644799187594E+00  0.0000000000000E+00  0.1066989402681E+00
 0.4283830933017E+00 -0.4694608285973E+00  0.0000000000000E+00  0.1198923971816E+00
 0.4321645075346E+00 -0.4725797872832E+00  0.0000000000000E+00  0.1378833975153E+00
 0.4339935389983E+00 -0.4740775120468E+00  0.0000000000000E+00  0.1603752822196E+00
 0.4339138728024E+00 -0.4740059490887E+00  0.0000000000000E+00  0.1871173207237E+00
 0.4317841475288E+00 -0.4722321624755E+00  0.0000000000000E+00  0.2180061397742E+00
 0.4273034363552E+00 -0.4684610347359E+00  0.0000000000000E+00  0.2532622621996E+00
 0.4202111520015E+00 -0.4624280843876E+00  0.0000000000000E+00  0.2937366272384E+00
 0.4105368983004E+00 -0.4541439155639E+00  0.0000000000000E+00  0.3405914364815E+00
 0.8045589075039E-01 -0.1513429231606E+00  0.0000000000000E+00  0.3574716070854E+00
 0.1388145597080E+00 -0.2058760679120E+00  0.0000000000000E+00  0.2949654122352E+00
 0.1909085245455E+00 -0.2543424731939E+00  0.0000000000000E+00  0.2440723851984E+00
 0.2367458836302E+00 -0.2967562939765E+00  0.0000000000000E+00  0.2025401122254E+00
 0.2765117441817E+00 -0.3333119386529E+00  0.0000000000000E+00  0.1690999571593E+00
 0.3105274450054E+00 -0.3643411107589E+00  0.0000000000000E+00  0.1428163229468E+00
 0.3391332461231E+00 -0.3901953747454E+00  0.0000000000000E+00  0.1229347484568E+00
 0.3626341820044E+00 -0.4111922759391E+00  0.0000000000000E+00  0.1088761596766E+00
 0.3813318219640E+00 -0.4276475880181E+00  0.0000000000000E+00  0.1003104574554E+00
 0.3956278493286E+00 -0.4399785239234E+00  0.0000000000000E+00  0.9718881779161E-01
 0.4060858932239E+00 -0.4487634468699E+00  0.0000000000000E+00  0.9957746316901E-01
 0.4133495354657E+00 -0.4546579200216E+00  0.0000000000000E+00  0.1074145322771E+00
 0.4180018392360E+00 -0.4582534723852E+00  0.0000000000000E+00  0.1204733045858E+00
 0.4204701631777E+00 -0.4599828891977E+00  0.0000000000000E+00  0.1384249341899E+00
 0.4209886545663E+00 -0.4600849077720E+00  0.0000000000000E+00  0.1608997083819E+00
 0.4195930829894E+00 -0.4586030495215E+00  0.0000000000000E+00  0.1875496180647E+00
 0.4161073070763E+00 -0.4553717943588E+00  0.0000000000000E+00  0.2181169910568E+00
 0.4101291872435E+00 -0.4499971163606E+00  0.0000000000000E+00  0.2526373444235E+00
 0.4012639597218E+00 -0.4420745985898E+00  0.0000000000000E+00  0.2919390190806E+00
 0.3894976344104E+00 -0.4315512342014E+00  0.0000000000000E+00  0.3373690938108E+00
 0.8481554074362E-01 -0.1551436400575E+00  0.0000000000000E+00  0.3774753823446E+00
 0.1415763854107E+00 -0.2081430963089E+00  0.0000000000000E+00  0.3118143314663E+00
 0.1923617242059E+00 -0.2553429925772E+00  0.0000000000000E+00  0.2578239840051E+00
 0.2370318775569E+00 -0.2966081236121E+00  0.0000000000000E+00  0.2133549990978E+00
 0.2756768327228E+00 -0.3320405076197E+00  0.0000000000000E+00  0.1772994259501E+00
 0.3085773273442E+00 -0.3619341453537E+00  0.0000000000000E+00  0.1487948808994E+00
 0.3360525178887E+00 -0.3866221673160E+00  0.0000000000000E+00  0.1270840932898E+00
 0.3583862870138E+00 -0.4064030956223E+00  0.0000000000000E+00  0.1115465803065E+00
 0.3758589584183E+00 -0.4215751019884E+00  0.0000000000000E+00  0.1018115232830E+00
 0.3888676823324E+00 -0.4325549084101E+00  0.0000000000000E+00  0.9781375285624E-01
 0.3979986216911E+00 -0.4399464314851E+00  0.0000000000000E+00  0.9960295894043E-01
 0.4039266866400E+00 -0.4444374228526E+00  0.0000000000000E+00  0.1070577241523E+00
 0.4072549598891E+00 -0.4466382404269E+00  0.0000000000000E+00  0.1198685516192E+00
 0.4084168310861E+00 -0.4469845670727E+00  0.0000000000000E+00  0.1376324601903E+00
 0.4076456264208E+00 -0.4457108172217E+00  0.0000000000000E+00  0.1599189596968E+00
 0.4049822071057E+00 -0.4428619537129E+00  0.0000000000000E+00  0.1863143467720E+00
 0.4002477291675E+00 -0.4382754833354E+00  0.0000000000000E+00  0.2164050880058E+00
 0.3929543548516E+00 -0.4314821027384E+00  0.0000000000000E+00  0.2499399214014E+00
 0.3825421478962E+00 -0.4219115181912E+00  0.0000000000000E+00  0.2875985185705E+00
 0.3689239075440E+00 -0.4094075037480E+00  0.0000000000000E+00  0.3309052444467E+00
 0.8944245029009E-01 -0.1591943646094E+00  0.0000000000000E+00  0.3970562199435E+00
 0.1446243372568E+00 -0.2106817593666E+00  0.0000000000000E+00  0.3283349470588E+00
 0.1940925120073E+00 -0.2566081308010E+00  0.0000000000000E+00  0.2712203058625E+00
 0.2375492154362E+00 -0.2966776169816E+00  0.0000000000000E+00  0.2237014084164E+00
 0.2749972406192E+00 -0.3309067574485E+00  0.0000000000000E+00  0.1849080219088E+00
 0.3066937727289E+00 -0.3595738293463E+00  0.0000000000000E+00  0.1540750140476E+00
 0.3329455477555E+00 -0.3829988623561E+00  0.0000000000000E+00  0.1304410470438E+00
 0.3540205897606E+00 -0.4014673157249E+00  0.0000000000000E+00  0.1133501410805E+00
 0.3701845155872E+00 -0.4152669626444E+00  0.0000000000000E+00  0.1023900589119E+00
 0.3818377633933E+00 -0.4248232572638E+00  0.0000000000000E+00  0.9747478011115E-01
 0.3895973621040E+00 -0.4307748136724E+00  0.0000000000000E+00  0.9862561125222E-01
 0.3941725476068E+00 -0.4338444956895E+00  0.0000000000000E+00  0.1056394592165E+00
 0.3961827557098E+00 -0.4346571842937E+00  0.0000000000000E+00  0.1181046699515E+00
 0.3960589352251E+00 -0.4336428967455E+00  0.0000000000000E+00  0.1355361211571E+00
 0.3940259102953E+00 -0.4310214847318E+00  0.0000000000000E+00  0.1574567672311E+00
 0.3901293098320E+00 -0.4268394661338E+00  0.0000000000000E+00  0.1834302909897E+00
 0.3842317206431E+00 -0.4209679895959E+00  0.0000000000000E+00  0.2129811511283E+00
 0.3758331987128E+00 -0.4129605741589E+00  0.0000000000000E+00  0.2454978882329E+00
 0.3642023388571E+00 -0.4020957691240E+00  0.0000000000000E+00  0.2812046755973E+00
 0.3491193432563E+00 -0.3880316514836E+00  0.0000000000000E+00  0.3216266490532E+00
 0.9432797172221E-01 -0.1634830041983E+00  0.0000000000000E+00  0.4162492145876E+00
 0.1479795646981E+00 -0.2135114950216E+00  0.0000000000000E+00  0.3445908806817E+00
 0.1961515334422E+00 -0.2582000440574E+00  0.0000000000000E+00  0.2842608370643E+00
 0.2383451633515E+00 -0.2970102590591E+00  0.0000000000000E+00  0.2335199349803E+00
 0.2745125426862E+00 -0.3299528726719E+00  0.0000000000000E+00  0.1918646042408E+00
 0.3049120933183E+00 -0.3572971485953E+00  0.0000000000000E+00  0.1585805228263E+00
 0.3298383302392E+00 -0.3793534508915E+00  0.0000000000000E+00  0.1329185069526E+00
 0.3495509641368E+00 -0.3963998722612E+00  0.0000000000000E+00  0.1141997781523E+00
 0.3643118497372E+00 -0.4087264678248E+00  0.0000000000000E+00  0.1019773159535E+00
 0.3745382801118E+00 -0.4167830605592E+00  0.0000000000000E+00  0.9613588459507E-01
 0.3808888633671E+00 -0.4212549753841E+00  0.0000000000000E+00  0.9664568318533E-01
 0.3841078027286E+00 -0.4229004595235E+00  0.0000000000000E+00  0.1031888121366E+00
 0.3848231995264E+00 -0.4223500371832E+00  0.0000000000000E+00  0.1152294230864E+00
 0.3834543821459E+00 -0.4200179992267E+00  0.0000000000000E+00  0.1321922772938E+00
 0.3801995742899E+00 -0.4160943318352E+00  0.0000000000000E+00  0.1535497081270E+00
 0.3750988942350E+00 -0.4106054421852E+00  0.0000000000000E+00  0.1788963497898E+00
 0.3680510549208E+00 -0.4034650820978E+00  0.0000000000000E+00  0.2077945226351E+00
 0.3586834328781E+00 -0.3943166060326E+00  0.0000000000000E+00  0.2395896899871E+00
 0.3463174703571E+00 -0.3826628146936E+00  0.0000000000000E+00  0.2736151544533E+00
 0.3305196789479E+00 -0.3679008011943E+00  0.0000000000000E+00  0.3102546879914E+00
 0.9945469943388E-01 -0.1679020491151E+00  0.0000000000000E+00  0.4353440817443E+00
 0.1517034664616E+00 -0.2167619961543E+00  0.0000000000000E+00  0.3608012262909E+00
 0.1986144460712E+00 -0.2601743438362E+00  0.0000000000000E+00  0.2968495170929E+00
 0.2394606185027E+00 -0.2976536212164E+00  0.0000000000000E+00  0.2427646158631E+00
 0.2742675599339E+00 -0.3292237407998E+00  0.0000000000000E+00  0.1981042595763E+00
 0.3032718458658E+00 -0.3551465280603E+00  0.0000000000000E+00  0.1622309499078E+00
 0.3267604380111E+00 -0.3757177375275E+00  0.0000000000000E+00  0.1344156740202E+00
 0.3449888188774E+00 -0.3912141936376E+00  0.0000000000000E+00  0.1139880511270E+00
 0.3582343474099E+00 -0.4019464050881E+00  0.0000000000000E+00  0.1004899390484E+00
 0.3669573574710E+00 -0.4084205147966E+00  0.0000000000000E+00  0.9376540479042E-01
 0.3718710620418E+00 -0.4113842073940E+00  0.0000000000000E+00  0.9368083534686E-01
 0.3737480407802E+00 -0.4116212558823E+00  0.0000000000000E+00  0.9975665951509E-01
 0.3732117166874E+00 -0.4097539212807E+00  0.0000000000000E+00  0.1113127542939E+00
 0.3706585362709E+00 -0.4061680932295E+00  0.0000000000000E+00  0.1276841984666E+00
 0.3662537480111E+00 -0.4010162977689E+00  0.0000000000000E+00  0.1482850487400E+00
 0.3599804675168E+00 -0.3942712151875E+00  0.0000000000000E+00  0.1727034232034E+00
 0.3517693590178E+00 -0.3858217066464E+00  0.0000000000000E+00  0.2007226367345E+00
 0.3412756999445E+00 -0.3754265199217E+00  0.0000000000000E+00  0.2318016749708E+00
 0.3285272757798E+00 -0.3630205621888E+00  0.0000000000000E+00  0.2657958711544E+00
 0.3143967745260E+00 -0.3501136921660E+00  0.0000000000000E+00  0.2979641413775E+00
 0.3924217929309E+00 -0.5530357389298E+00  0.0000000000000E+00 -0.3868919596570E+00
 0.3534361716207E+00 -0.3840100596304E+00  0.0000000000000E+00  0.2592701107545E+00
 0.2367335792603E+00 -0.2676796562777E+00  0.0000000000000E+00  0.2059393378277E+00
 0.1839867541132E+00 -0.2098055607796E+00  0.0000000000000E+00  0.1842899516120E+00
 0.1415328960179E+00 -0.1634528267898E+00  0.0000000000000E+00  0.1666832211907E+00
 0.1006498377668E+00 -0.1178771108830E+00  0.0000000000000E+00  0.1364255305062E+00
 0.6067689397420E-01 -0.7180174592709E-01  0.0000000000000E+00  0.8614772532849E-01
 0.2729487018607E-01 -0.3225367082863E-01  0.0000000000000E+00  0.1875418059824E-01
 0.3132437048753E-02 -0.3458221672937E-02  0.0000000000000E+00 -0.3709620231652E-01
-0.1271697015332E-01  0.1788772487171E-01  0.0000000000000E+00 -0.6453236341774E-01
-0.2479679649239E-01  0.3243574858206E-01  0.0000000000000E+00 -0.7869519821985E-01
-0.3393046778462E-01  0.4218600783473E-01  0.0000000000000E+00 -0.8162840103470E-01
-0.4000132308088E-01  0.4819527297327E-01  0.0000000000000E+00 -0.7328402162538E-01
-0.4281247296836E-01  0.5059801851681E-01  0.0000000000000E+00 -0.5710924875478E-01
-0.4217116248821E-01  0.4915668897331E-01  0.0000000000000E+00 -0.3713682944643E-01
-0.3807532862003E-01  0.4401474784064E-01  0.0000000000000E+00 -0.1615088937220E-01
-0.3090429928752E-01  0.3577371168873E-01  0.0000000000000E+00  0.2131201503421E-02
-0.2095322967384E-01  0.2435402191996E-01  0.0000000000000E+00  0.1522469632669E-01
-0.9954576152420E-02  0.1194706125204E-01  0.0000000000000E+00  0.2465311959525E-01
-0.1476766529670E-03  0.1298306474103E-02  0.0000000000000E+00  0.2811002411537E-01
 0.3711838621195E+00 -0.4816926059948E+00  0.0000000000000E+00 -0.5630749911944E+00
 0.3729979515411E+00 -0.4315774244041E+00  0.0000000000000E+00  0.5058809305988E-01
 0.2690788399298E+00 -0.3001803949232E+00  0.0000000000000E+00  0.1808517844597E+00
 0.2051027571079E+00 -0.2331625680500E+00  0.0000000000000E+00  0.1681976993868E+00
 0.1621980081717E+00 -0.1857245430163E+00  0.0000000000000E+00  0.1532394912866E+00
 0.1230852671644E+00 -0.1420354413850E+00  0.0000000000000E+00  0.1262989975593E+00
 0.8547662199631E-01 -0.9904909826934E-01  0.0000000000000E+00  0.8395775108525E-01
 0.5097292876731E-01 -0.5876830177857E-01  0.0000000000000E+00  0.2882441853875E-01
 0.2335156554237E-01 -0.2572521542167E-01  0.0000000000000E+00 -0.2225596486069E-01
 0.4367665839085E-02 -0.2179311684399E-02  0.0000000000000E+00 -0.5117147315645E-01
-0.1076776315640E-01  0.1590908852352E-01  0.0000000000000E+00 -0.6481280606624E-01
-0.2288597784977E-01  0.2926766381024E-01  0.0000000000000E+00 -0.6890561129160E-01
-0.3161422294199E-01  0.3829389729182E-01  0.0000000000000E+00 -0.6317733881473E-01
-0.3686616079155E-01  0.4334707675272E-01  0.0000000000000E+00 -0.4892390744641E-01
-0.3854893597857E-01  0.4449522690101E-01  0.0000000000000E+00 -0.2936958494664E-01
-0.3641833901784E-01  0.4161530581980E-01  0.0000000000000E+00 -0.7704656741475E-02
-0.3063649595509E-01  0.3490603010402E-01  0.0000000000000E+00  0.1299928248385E-01
-0.2177989324200E-01  0.2502608035741E-01  0.0000000000000E+00  0.2968525621423E-01
-0.1083875658388E-01  0.1309860972826E-01  0.0000000000000E+00  0.4149801743172E-01
 0.6737863298203E-03  0.1021718074531E-02  0.0000000000000E+00  0.4640906994520E-01
 0.3401755027199E+00 -0.4320442598516E+00  0.0000000000000E+00 -0.6169940525470E+00
 0.3677548627336E+00 -0.4295132238448E+00  0.0000000000000E+00 -0.9201992186784E-01
 0.2921232942923E+00 -0.3312445053269E+00  0.0000000000000E+00  0.1094560270027E+00
 0.2276074521465E+00 -0.2572055198876E+00  0.0000000000000E+00  0.1478988861802E+00
 0.1827178883709E+00 -0.2081136333125E+00  0.0000000000000E+00  0.1385123319262E+00
 0.1450344754064E+00 -0.1658051272929E+00  0.0000000000000E+00  0.1161196827140E+00
 0.1091235339838E+00 -0.1249075880854E+00  0.0000000000000E+00  0.8061176506662E-01
 0.7473105973698E-01 -0.8505447465078E-01  0.0000000000000E+00  0.3469654812096E-01
 0.4479256539921E-01 -0.4968845665673E-01  0.0000000000000E+00 -0.1032062140662E-01
 0.2264418955633E-01 -0.2311221915493E-01  0.0000000000000E+00 -0.3952244251368E-01
 0.5190218931893E-02 -0.2627911852070E-02  0.0000000000000E+00 -0.5397987386561E-01
-0.9511174971684E-02  0.1375433985492E-01  0.0000000000000E+00 -0.5876005764971E-01
-0.2101379169350E-01  0.2594588032483E-01  0.0000000000000E+00 -0.5482938839429E-01
-0.2897546090868E-01  0.3398764619319E-01  0.0000000000000E+00 -0.4259102581553E-01
-0.3323649645131E-01  0.3796079633861E-01  0.0000000000000E+00 -0.2412803428334E-01
-0.3350650766287E-01  0.3771841321554E-01  0.0000000000000E+00 -0.2179070526940E-02
-0.2973185399716E-01  0.3328621550493E-01  0.0000000000000E+00  0.2025036714405E-01
-0.2237534661473E-01  0.2520353380984E-01  0.0000000000000E+00  0.3973772051261E-01
-0.1181002552991E-01  0.1403777139743E-01  0.0000000000000E+00  0.5443066042697E-01
 0.9214738296941E-03  0.9951270817359E-03  0.0000000000000E+00  0.6145135217660E-01
 0.3118522385181E+00 -0.3940602863243E+00  0.0000000000000E+00 -0.6355327565048E+00
 0.3537607165307E+00 -0.4153688912698E+00  0.0000000000000E+00 -0.1885428909432E+00
 0.3044311350972E+00 -0.3483774045875E+00  0.0000000000000E+00  0.3361992638523E-01
 0.2481567596850E+00 -0.2811653467572E+00  0.0000000000000E+00  0.1129018232694E+00
 0.2033172420300E+00 -0.2305332677817E+00  0.0000000000000E+00  0.1215999053414E+00
 0.1664418949203E+00 -0.1891268032378E+00  0.0000000000000E+00  0.1051749542816E+00
 0.1320168015625E+00 -0.1499065785089E+00  0.0000000000000E+00  0.7598302986946E-01
 0.9823289506884E-01 -0.1109348775664E+00  0.0000000000000E+00  0.3760620299254E-01
 0.6706064917697E-01 -0.7451432873664E-01  0.0000000000000E+00 -0.1630784493996E-02
 0.4234503029675E-01 -0.4547978040319E-01  0.0000000000000E+00 -0.2995771786360E-01
 0.2273866629008E-01 -0.2274316004307E-01  0.0000000000000E+00 -0.4539479168714E-01
 0.5885939363935E-02 -0.3939001699533E-02  0.0000000000000E+00 -0.5123015525349E-01
-0.8181761443460E-02  0.1115373974929E-01  0.0000000000000E+00 -0.4883191679507E-01
-0.1891290873276E-01  0.2225777259485E-01  0.0000000000000E+00 -0.3852044341931E-01
-0.2597654640285E-01  0.2928220394906E-01  0.0000000000000E+00 -0.2154242085446E-01
-0.2899969167232E-01  0.3202731791597E-01  0.0000000000000E+00  0.1974789447923E-04
-0.2771698254340E-01  0.3033468300318E-01  0.0000000000000E+00  0.2346305756077E-01
-0.2241838573955E-01  0.2458976485719E-01  0.0000000000000E+00  0.4529991572097E-01
-0.1283096539573E-01  0.1471985743778E-01  0.0000000000000E+00  0.6302648659833E-01
 0.4036079461296E-03  0.1419219163350E-02  0.0000000000000E+00  0.7272400911108E-01
 0.2870060797711E+00 -0.3634827950949E+00  0.0000000000000E+00 -0.6392976005216E+00
 0.3369984898913E+00 -0.3979341913643E+00  0.0000000000000E+00 -0.2563151511491E+00
 0.3090713295049E+00 -0.3559317472205E+00  0.0000000000000E+00 -0.3465146999804E-01
 0.2646153459841E+00 -0.3009108694422E+00  0.0000000000000E+00  0.7015253265210E-01
 0.2231015698457E+00 -0.2526550064429E+00  0.0000000000000E+00  0.9921646148605E-01
 0.1873834164481E+00 -0.2120140132578E+00  0.0000000000000E+00  0.9269746050832E-01
 0.1542779833381E+00 -0.1742436720014E+00  0.0000000000000E+00  0.6994262729396E-01
 0.1214089832074E+00 -0.1363983046802E+00  0.0000000000000E+00  0.3813617861480E-01
 0.8980155637357E-01 -0.9976837535743E-01  0.0000000000000E+00  0.4148295180924E-02
 0.6328603247337E-01 -0.6907551574403E-01  0.0000000000000E+00 -0.2270364732911E-01
 0.4180588039970E-01 -0.4440675855106E-01  0.0000000000000E+00 -0.3890275584682E-01
 0.2309669980552E-01 -0.2354084465562E-01  0.0000000000000E+00 -0.4603000131877E-01
 0.6777163237921E-02 -0.5933226958075E-02  0.0000000000000E+00 -0.4529366801974E-01
-0.6593369477891E-02  0.8076856818914E-02  0.0000000000000E+00 -0.3698083450643E-01
-0.1653157669127E-01  0.1821902893347E-01  0.0000000000000E+00 -0.2183436578404E-01
-0.2255083210517E-01  0.2418387823965E-01  0.0000000000000E+00 -0.1313592366131E-02
-0.2418097835095E-01  0.2563173174362E-01  0.0000000000000E+00  0.2234710180920E-01
-0.2151875705065E-01  0.2276891607080E-01  0.0000000000000E+00  0.4591446167174E-01
-0.1367399379102E-01  0.1491579678868E-01  0.0000000000000E+00  0.6652527821568E-01
-0.8671672015503E-03  0.2263844255064E-02  0.0000000000000E+00  0.7908554775108E-01
 0.2652228959457E+00 -0.3380341523226E+00  0.0000000000000E+00 -0.6358621592053E+00
 0.3197676718804E+00 -0.3801076555627E+00  0.0000000000000E+00 -0.3051105066904E+00
 0.3087008226648E+00 -0.3574621952911E+00  0.0000000000000E+00 -0.9302527862453E-01
 0.2767053851313E+00 -0.3157855917760E+00  0.0000000000000E+00  0.2551929159688E-01
 0.2409915094481E+00 -0.2730355753113E+00  0.0000000000000E+00  0.7203502673647E-01
 0.2075975830289E+00 -0.2343403842234E+00  0.0000000000000E+00  0.7742662353379E-01
 0.1759629739587E+00 -0.1980024719111E+00  0.0000000000000E+00  0.6220307505851E-01
 0.1442217751555E+00 -0.1614486078475E+00  0.0000000000000E+00  0.3656450611621E-01
 0.1127842344809E+00 -0.1252072570288E+00  0.0000000000000E+00  0.7386734974086E-02
 0.8519634549043E-01 -0.9360398862962E-01  0.0000000000000E+00 -0.1770215891371E-01
 0.6224765872917E-01 -0.6746287102537E-01  0.0000000000000E+00 -0.3443248425186E-01
 0.4198745067172E-01 -0.4489893303110E-01  0.0000000000000E+00 -0.4295121801527E-01
 0.2374873595456E-01 -0.2516272482748E-01  0.0000000000000E+00 -0.4407214267443E-01
 0.7989227339542E-02 -0.8537686595263E-02  0.0000000000000E+00 -0.3798836791477E-01
-0.4737113751719E-02  0.4613244493719E-02  0.0000000000000E+00 -0.2507758054440E-01
-0.1384985760287E-01  0.1387756996568E-01  0.0000000000000E+00 -0.6273046648523E-02
-0.1870085903044E-01  0.1874775308191E-01  0.0000000000000E+00  0.1671975217710E-01
-0.1920366024103E-01  0.1926159290384E-01  0.0000000000000E+00  0.4115189248139E-01
-0.1390921448582E-01  0.1418481848933E-01  0.0000000000000E+00  0.6404051261702E-01
-0.2563775021385E-02  0.3174006823483E-02  0.0000000000000E+00  0.7917329019069E-01
 0.2459792033501E+00 -0.3163493642594E+00  0.0000000000000E+00 -0.6285559010124E+00
 0.3030018904708E+00 -0.3629402815761E+00  0.0000000000000E+00 -0.3406951322512E+00
 0.3051255565254E+00 -0.3552550169975E+00  0.0000000000000E+00 -0.1418792251132E+00
 0.2848994597718E+00 -0.3262894678931E+00  0.0000000000000E+00 -0.1761015853812E-01
 0.2563663476446E+00 -0.2908201889678E+00  0.0000000000000E+00  0.4196874873393E-01
 0.2265954499245E+00 -0.2555501740109E+00  0.0000000000000E+00  0.5911210823834E-01
 0.1969731950571E+00 -0.2211361964309E+00  0.0000000000000E+00  0.5229156294241E-01
 0.1666311528681E+00 -0.1860740776477E+00  0.0000000000000E+00  0.3294508725057E-01
 0.1358426540772E+00 -0.1506741364207E+00  0.0000000000000E+00  0.8360111617588E-02
 0.1078246109810E+00 -0.1188037253371E+00  0.0000000000000E+00 -0.1478740358073E-01
 0.8387037404835E-01 -0.9169796936516E-01  0.0000000000000E+00 -0.3184552161672E-01
 0.6241067986233E-01 -0.6784403659884E-01  0.0000000000000E+00 -0.4178925729521E-01
 0.4261681359562E-01 -0.4639215287730E-01  0.0000000000000E+00 -0.4494146401463E-01
 0.2479925734825E-01 -0.2752371488575E-01  0.0000000000000E+00 -0.4136305374599E-01
 0.9506582077242E-02 -0.1161753304061E-01  0.0000000000000E+00 -0.3114293237305E-01
-0.2637720351918E-02  0.8579757768024E-03  0.0000000000000E+00 -0.1476659882677E-01
-0.1086027397959E-01  0.9270586255972E-02  0.0000000000000E+00  0.6585905473978E-02
-0.1492261917916E-01  0.1351868403928E-01  0.0000000000000E+00  0.3077506428976E-01
-0.1291185307371E-01  0.1189688542452E-01  0.0000000000000E+00  0.5488416496925E-01
-0.4038986426271E-02  0.3479661286538E-02  0.0000000000000E+00  0.7179200916918E-01
 0.2288258853110E+00 -0.2975428395009E+00  0.0000000000000E+00 -0.6190146596254E+00
 0.2870717258963E+00 -0.3468034465307E+00  0.0000000000000E+00 -0.3666653620238E+00
 0.2995215984795E+00 -0.3507358377295E+00  0.0000000000000E+00 -0.1822845665995E+00
 0.2898554783436E+00 -0.3331865189071E+00  0.0000000000000E+00 -0.5750620753633E-01
 0.2690273681725E+00 -0.3057168567972E+00  0.0000000000000E+00  0.1087224328446E-01
 0.2439257577798E+00 -0.2750964950754E+00  0.0000000000000E+00  0.3828167300944E-01
 0.2170562585022E+00 -0.2433855099458E+00  0.0000000000000E+00  0.3999824120429E-01
 0.1885348137888E+00 -0.2101995193725E+00  0.0000000000000E+00  0.2717937136044E-01
 0.1588364133021E+00 -0.1760435072142E+00  0.0000000000000E+00  0.7213494038022E-02
 0.1309505777872E+00 -0.1444554563944E+00  0.0000000000000E+00 -0.1379362922776E-01
 0.1064661185584E+00 -0.1168887283528E+00  0.0000000000000E+00 -0.3096170118347E-01
 0.8419407035207E-01 -0.9218126811665E-01  0.0000000000000E+00 -0.4230511329744E-01
 0.6324259001214E-01 -0.6945786173756E-01  0.0000000000000E+00 -0.4761584666340E-01
 0.4376368178070E-01 -0.4878267317430E-01  0.0000000000000E+00 -0.4679835336434E-01
 0.2624130310070E-01 -0.3049246576368E-01  0.0000000000000E+00 -0.3971638038730E-01
 0.1128425211807E-01 -0.1505604284945E-01  0.0000000000000E+00 -0.2648452376596E-01
-0.2757272885683E-03 -0.3169493694338E-02  0.0000000000000E+00 -0.7794059571121E-02
-0.8093067365099E-02  0.4968757869964E-02  0.0000000000000E+00  0.1486908749935E-01
-0.9919467975262E-02  0.7294662223682E-02  0.0000000000000E+00  0.3878531446068E-01
-0.4381754538777E-02  0.2263503424047E-02  0.0000000000000E+00  0.5624452849745E-01
 0.2134030869182E+00 -0.2810054022708E+00  0.0000000000000E+00 -0.6080979050852E+00
 0.2720995437845E+00 -0.3317932745094E+00  0.0000000000000E+00 -0.3853800171210E+00
 0.2926524363044E+00 -0.3448001972807E+00  0.0000000000000E+00 -0.2153848700973E+00
 0.2922036562693E+00 -0.3372062814823E+00  0.0000000000000E+00 -0.9339422834267E-01
 0.2790381647640E+00 -0.3177714573665E+00  0.0000000000000E+00 -0.1981339758503E-01
 0.2592847960916E+00 -0.2926081475874E+00  0.0000000000000E+00  0.1580177419878E-01
 0.2359031234691E+00 -0.2644053074271E+00  0.0000000000000E+00  0.2547920441151E-01
 0.2097431144008E+00 -0.2336398898309E+00  0.0000000000000E+00  0.1920631786848E-01
 0.1816065690994E+00 -0.2011712881873E+00  0.0000000000000E+00  0.3985249126342E-02
 0.1543703620490E+00 -0.1703617926029E+00  0.0000000000000E+00 -0.1460957016712E-01
 0.1298242990645E+00 -0.1428159322933E+00  0.0000000000000E+00 -0.3160813264408E-01
 0.1071459835752E+00 -0.1176993819824E+00  0.0000000000000E+00 -0.4424226571302E-01
 0.8545841516490E-01 -0.9416831357170E-01  0.0000000000000E+00 -0.5176348826793E-01
 0.6476596799712E-01 -0.7217263607767E-01  0.0000000000000E+00 -0.5389701607549E-01
 0.4544705979856E-01 -0.5196641815873E-01  0.0000000000000E+00 -0.5033646758309E-01
 0.2804215045163E-01 -0.3396702857533E-01  0.0000000000000E+00 -0.4090879437004E-01
 0.1337197562607E-01 -0.1886954809842E-01  0.0000000000000E+00 -0.2587910310978E-01
 0.1839520090549E-02 -0.6922017807396E-02  0.0000000000000E+00 -0.6092147893914E-02
-0.4123265314738E-02 -0.4122423044315E-03  0.0000000000000E+00  0.1601766105961E-01
-0.2537433589393E-02 -0.1513082244248E-02  0.0000000000000E+00  0.3253662614338E-01
 0.1994253269351E+00 -0.2662985211962E+00  0.0000000000000E+00 -0.5962743586347E+00
 0.2580941844095E+00 -0.3178896007569E+00  0.0000000000000E+00 -0.3984534745446E+00
 0.2850169296779E+00 -0.3380184057604E+00  0.0000000000000E+00 -0.2422131886897E+00
 0.2924819646516E+00 -0.3389631413214E+00  0.0000000000000E+00 -0.1250241545648E+00
 0.2865968518100E+00 -0.3271966612409E+00  0.0000000000000E+00 -0.4907406886347E-01
 0.2725230484871E+00 -0.3079003174700E+00  0.0000000000000E+00 -0.7409525450275E-02
 0.2532310979759E+00 -0.2838752208075E+00  0.0000000000000E+00  0.9168878849407E-02
 0.2300066700199E+00 -0.2561322634932E+00  0.0000000000000E+00  0.9122519163874E-02
 0.2039470527158E+00 -0.2258570139928E+00  0.0000000000000E+00 -0.1302105797805E-02
 0.1778706396864E+00 -0.1963166117742E+00  0.0000000000000E+00 -0.1718057917169E-01
 0.1537269596904E+00 -0.1692581239203E+00  0.0000000000000E+00 -0.3365224644201E-01
 0.1310571417406E+00 -0.1441740666018E+00  0.0000000000000E+00 -0.4735971452036E-01
 0.1090670306734E+00 -0.1203046100841E+00  0.0000000000000E+00 -0.5703537723264E-01
 0.8764227830941E-01 -0.9750494739345E-01  0.0000000000000E+00 -0.6220416545309E-01
 0.6703499050887E-01 -0.7592411707995E-01  0.0000000000000E+00 -0.6243280760624E-01
 0.4767434922778E-01 -0.5588608070153E-01  0.0000000000000E+00 -0.5734631042325E-01
 0.3030548696486E-01 -0.3802384327303E-01  0.0000000000000E+00 -0.4686562976070E-01
 0.1533956046803E-01 -0.2258887410035E-01  0.0000000000000E+00 -0.3124606375814E-01
 0.5230391426126E-02 -0.1194550177909E-01  0.0000000000000E+00 -0.1257811778235E-01
 0.2546428384937E-02 -0.8864150228462E-02  0.0000000000000E+00  0.1431185784983E-02
 0.1866646934137E+00 -0.2530948620685E+00  0.0000000000000E+00 -0.5838024141835E+00
 0.2450124486977E+00 -0.3050237465921E+00  0.0000000000000E+00 -0.4070307097923E+00
 0.2769431700495E+00 -0.3307578921148E+00  0.0000000000000E+00 -0.2636528945253E+00
 0.2911277903354E+00 -0.3389496235312E+00  0.0000000000000E+00 -0.1524257166451E+00
 0.2919559628743E+00 -0.3342700897053E+00  0.0000000000000E+00 -0.7624247542342E-01
 0.2836130940429E+00 -0.3209331360743E+00  0.0000000000000E+00 -0.3052342815279E-01
 0.2688259257338E+00 -0.3015530432253E+00  0.0000000000000E+00 -0.8346264891264E-02
 0.2490615924954E+00 -0.2773921612819E+00  0.0000000000000E+00 -0.2794303831254E-02
 0.2256066638642E+00 -0.2498448040726E+00  0.0000000000000E+00 -0.8552601393675E-02
 0.2012080856792E+00 -0.2220798861200E+00  0.0000000000000E+00 -0.2146320725642E-01
 0.1779364237122E+00 -0.1959763410070E+00  0.0000000000000E+00 -0.3700328095709E-01
 0.1556962847821E+00 -0.1713632124258E+00  0.0000000000000E+00 -0.5145637988011E-01
 0.1338398733045E+00 -0.1476197345667E+00  0.0000000000000E+00 -0.6309933698915E-01
 0.1121791587678E+00 -0.1245429042296E+00  0.0000000000000E+00 -0.7124649898940E-01
 0.9084133759084E-01 -0.1021753221693E+00  0.0000000000000E+00 -0.7537038396618E-01
 0.7011751395462E-01 -0.8072061307935E-01  0.0000000000000E+00 -0.7497666055172E-01
 0.5062241763052E-01 -0.6069739415376E-01  0.0000000000000E+00 -0.6973687670882E-01
 0.3272786747999E-01 -0.4231667682111E-01  0.0000000000000E+00 -0.5939612189203E-01
 0.1874932398663E-01 -0.2786923364870E-01  0.0000000000000E+00 -0.4566026699353E-01
 0.1178455203470E-01 -0.2064788199406E-01  0.0000000000000E+00 -0.3562764789787E-01
 0.1749372886461E+00 -0.2411428640554E+00  0.0000000000000E+00 -0.5708214502409E+00
 0.2327884586398E+00 -0.2931089064914E+00  0.0000000000000E+00 -0.4119484003357E+00
 0.2686474207961E+00 -0.3232567620630E+00  0.0000000000000E+00 -0.2804448781443E+00
 0.2884884851104E+00 -0.3375519244418E+00  0.0000000000000E+00 -0.1757721248303E+00
 0.2953774051780E+00 -0.3392796274813E+00  0.0000000000000E+00 -0.1009091622491E+00
 0.2926112639798E+00 -0.3317638976707E+00  0.0000000000000E+00 -0.5285283029347E-01
 0.2825522140537E+00 -0.3172867666205E+00  0.0000000000000E+00 -0.2643190569766E-01
 0.2666671905090E+00 -0.2971591685681E+00  0.0000000000000E+00 -0.1612038958666E-01
 0.2463115923702E+00 -0.2728497266566E+00  0.0000000000000E+00 -0.1754938219479E-01
 0.2241062619754E+00 -0.2473731792900E+00  0.0000000000000E+00 -0.2736652248763E-01
 0.2021857193414E+00 -0.2227017830555E+00  0.0000000000000E+00 -0.4158346346751E-01
 0.1808037828691E+00 -0.1989990836542E+00  0.0000000000000E+00 -0.5637421359034E-01
 0.1595139358360E+00 -0.1758354792373E+00  0.0000000000000E+00 -0.6966631063999E-01
 0.1381116140769E+00 -0.1530006238071E+00  0.0000000000000E+00 -0.8057310594364E-01
 0.1166231970635E+00 -0.1304517126967E+00  0.0000000000000E+00 -0.8850024331806E-01
 0.9519589686226E-01 -0.1082651459882E+00  0.0000000000000E+00 -0.9291126418782E-01
 0.7427379233488E-01 -0.8680625685864E-01  0.0000000000000E+00 -0.9333247735405E-01
 0.5414292129402E-01 -0.6620314530948E-01  0.0000000000000E+00 -0.8910109605724E-01
 0.3682841525311E-01 -0.4852598599225E-01  0.0000000000000E+00 -0.8150864840305E-01
 0.2585018959206E-01 -0.3746921979053E-01  0.0000000000000E+00 -0.7667476247128E-01
 0.1640931528219E+00 -0.2302446609016E+00  0.0000000000000E+00 -0.5574009251729E+00
 0.2213481246996E+00 -0.2820541536892E+00  0.0000000000000E+00 -0.4138334082876E+00
 0.2602714650734E+00 -0.3156688706123E+00  0.0000000000000E+00 -0.2932075148163E+00
 0.2848364268192E+00 -0.3350695638942E+00  0.0000000000000E+00 -0.1953047091052E+00
 0.2971091880859E+00 -0.3424964258692E+00  0.0000000000000E+00 -0.1228486068598E+00
 0.2996249694898E+00 -0.3405077288760E+00  0.0000000000000E+00 -0.7385976321604E-01
 0.2943464080628E+00 -0.3310053889271E+00  0.0000000000000E+00 -0.4447576062493E-01
 0.2826282027248E+00 -0.3152227243652E+00  0.0000000000000E+00 -0.3034220154609E-01
 0.2657928017699E+00 -0.2945894890753E+00  0.0000000000000E+00 -0.2795082352877E-01
 0.2462680912928E+00 -0.2718932599658E+00  0.0000000000000E+00 -0.3470924297080E-01
 0.2261790298196E+00 -0.2491349532279E+00  0.0000000000000E+00 -0.4728633233027E-01
 0.2060891469250E+00 -0.2267843104329E+00  0.0000000000000E+00 -0.6197984389997E-01
 0.1857903140785E+00 -0.2046404613853E+00  0.0000000000000E+00 -0.7650066221185E-01
 0.1651228834813E+00 -0.1825431917718E+00  0.0000000000000E+00 -0.8979038885896E-01
 0.1440567852427E+00 -0.1604060378373E+00  0.0000000000000E+00 -0.1012128604651E+00
 0.1226144612374E+00 -0.1381957351659E+00  0.0000000000000E+00 -0.1102607303595E+00
 0.1010498323165E+00 -0.1161049371155E+00  0.0000000000000E+00 -0.1164295607415E+00
 0.7951807778446E-01 -0.9413801497319E-01  0.0000000000000E+00 -0.1187796697486E+00
 0.5961015633110E-01 -0.7400073884698E-01  0.0000000000000E+00 -0.1181721960970E+00
 0.4511043489408E-01 -0.5962170080988E-01  0.0000000000000E+00 -0.1194236234165E+00
 0.1540089236648E+00 -0.2202417854883E+00  0.0000000000000E+00 -0.5435680372217E+00
 0.2106164179236E+00 -0.2717709388267E+00  0.0000000000000E+00 -0.4131652912993E+00
 0.2519066605347E+00 -0.3080920692302E+00  0.0000000000000E+00 -0.3024579227017E+00
 0.2803834360632E+00 -0.3317332909174E+00  0.0000000000000E+00 -0.2112916603527E+00
 0.2973747244707E+00 -0.3441631605136E+00  0.0000000000000E+00 -0.1419636652827E+00
 0.3047883550399E+00 -0.3473091744099E+00  0.0000000000000E+00 -0.9314298459082E-01
 0.3042026679874E+00 -0.3427018916978E+00  0.0000000000000E+00 -0.6192820071665E-01
 0.2968030645378E+00 -0.3314310712356E+00  0.0000000000000E+00 -0.4491197691983E-01
 0.2838081532126E+00 -0.3148094563369E+00  0.0000000000000E+00 -0.3931579633359E-01
 0.2673952509341E+00 -0.2953333856028E+00  0.0000000000000E+00 -0.4320332111710E-01
 0.2496019689023E+00 -0.2749559130507E+00  0.0000000000000E+00 -0.5393971674472E-01
 0.2312361303492E+00 -0.2543960412763E+00  0.0000000000000E+00 -0.6813328826724E-01
 0.2123385585806E+00 -0.2336939079730E+00  0.0000000000000E+00 -0.8341295766674E-01
 0.1928494535981E+00 -0.2127917718039E+00  0.0000000000000E+00 -0.9858544798814E-01
 0.1727407450148E+00 -0.1916161873080E+00  0.0000000000000E+00 -0.1129901026164E+00
 0.1519565929492E+00 -0.1700687254260E+00  0.0000000000000E+00 -0.1262080370323E+00
 0.1305713333028E+00 -0.1481793296333E+00  0.0000000000000E+00 -0.1378302415875E+00
 0.1085714111460E+00 -0.1257945592269E+00  0.0000000000000E+00 -0.1468155863549E+00
 0.8697117035993E-01 -0.1041104507089E+00  0.0000000000000E+00 -0.1536151555645E+00
 0.6959976812414E-01 -0.8706623241688E-01  0.0000000000000E+00 -0.1614708724575E+00
 0.1445824948673E+00 -0.2110056368390E+00  0.0000000000000E+00 -0.5293238652999E+00
 0.2005211085014E+00 -0.2621761041123E+00  0.0000000000000E+00 -0.4103173983771E+00
 0.2436097381846E+00 -0.3005863355265E+00  0.0000000000000E+00 -0.3086309065800E+00
 0.2752929974238E+00 -0.3277197855412E+00  0.0000000000000E+00 -0.2240058723118E+00
 0.2963690202472E+00 -0.3444902941848E+00  0.0000000000000E+00 -0.1582455835988E+00
 0.3082454674188E+00 -0.3523231063513E+00  0.0000000000000E+00 -0.1104185462157E+00
 0.3121575410567E+00 -0.3524154558340E+00  0.0000000000000E+00 -0.7832197434152E-01
 0.3091026823098E+00 -0.3456894067505E+00  0.0000000000000E+00 -0.5929320883910E-01
 0.3001556919971E+00 -0.3332973406051E+00  0.0000000000000E+00 -0.5114299933553E-01
 0.2872063727061E+00 -0.3174030329510E+00  0.0000000000000E+00 -0.5246212979545E-01
 0.2721364314084E+00 -0.2998395372686E+00  0.0000000000000E+00 -0.6128297930870E-01
 0.2559142888717E+00 -0.2814970216848E+00  0.0000000000000E+00 -0.7465270868556E-01
 0.2388089288060E+00 -0.2626374378015E+00  0.0000000000000E+00 -0.9023630433008E-01
 0.2208956095598E+00 -0.2433386052341E+00  0.0000000000000E+00 -0.1067343137608E+00
 0.2022095602199E+00 -0.2235992438914E+00  0.0000000000000E+00 -0.1234525199951E+00
 0.1826893407452E+00 -0.2033275456097E+00  0.0000000000000E+00 -0.1400897346440E+00
 0.1622842465587E+00 -0.1824423726021E+00  0.0000000000000E+00 -0.1564570461881E+00
 0.1408007294842E+00 -0.1606264327905E+00  0.0000000000000E+00 -0.1716560360893E+00
 0.1185292252676E+00 -0.1384124227282E+00  0.0000000000000E+00 -0.1858407744610E+00
 0.9902884065413E-01 -0.1194432045027E+00  0.0000000000000E+00 -0.2004800344826E+00
 0.1357291708730E+00 -0.2024310484915E+00  0.0000000000000E+00 -0.5146530741861E+00
 0.1909948191906E+00 -0.2531933401232E+00  0.0000000000000E+00 -0.4055849218163E+00
 0.2354134278713E+00 -0.2931857134963E+00  0.0000000000000E+00 -0.3120949400678E+00
 0.2696901093657E+00 -0.3231632171066E+00  0.0000000000000E+00 -0.2337135884008E+00
 0.2942584332915E+00 -0.3436563114617E+00  0.0000000000000E+00 -0.1717458649838E+00
 0.3101391860439E+00 -0.3557024825195E+00  0.0000000000000E+00 -0.1254993265612E+00
 0.3182761756324E+00 -0.3602158973081E+00  0.0000000000000E+00 -0.9327799267960E-01
 0.3194840992101E+00 -0.3579525719357E+00  0.0000000000000E+00 -0.7299333928766E-01
 0.3146788618140E+00 -0.3498889017866E+00  0.0000000000000E+00 -0.6291360718512E-01
 0.3054497031505E+00 -0.3378415196793E+00  0.0000000000000E+00 -0.6202746821545E-01
 0.2934738130777E+00 -0.3234689850991E+00  0.0000000000000E+00 -0.6896271251174E-01
 0.2797916113401E+00 -0.3077474803798E+00  0.0000000000000E+00 -0.8128162358426E-01
 0.2648495602866E+00 -0.2911115619528E+00  0.0000000000000E+00 -0.9678537290758E-01
 0.2488605318664E+00 -0.2737741423802E+00  0.0000000000000E+00 -0.1140844814351E+00
 0.2319651072596E+00 -0.2558457173855E+00  0.0000000000000E+00 -0.1323979578677E+00
 0.2141849908562E+00 -0.2373250081968E+00  0.0000000000000E+00 -0.1514894827941E+00
 0.1954575048368E+00 -0.2181357076786E+00  0.0000000000000E+00 -0.1714764506759E+00
 0.1754707409061E+00 -0.1978542162672E+00  0.0000000000000E+00 -0.1919088087488E+00
 0.1536590388273E+00 -0.1762211230164E+00  0.0000000000000E+00 -0.2129745070602E+00
 0.1328268634984E+00 -0.1561134873550E+00  0.0000000000000E+00 -0.2343200170924E+00
 0.1273789642190E+00 -0.1944320002681E+00  0.0000000000000E+00 -0.4995297183110E+00
 0.1819763397521E+00 -0.2447540895943E+00  0.0000000000000E+00 -0.3992052330098E+00
 0.2273336750239E+00 -0.2859061741778E+00  0.0000000000000E+00 -0.3131655162326E+00
 0.2636690374575E+00 -0.3181642331510E+00  0.0000000000000E+00 -0.2406690623834E+00
 0.2911821654441E+00 -0.3418097634672E+00  0.0000000000000E+00 -0.1825569705414E+00
 0.3106041665935E+00 -0.3575907529087E+00  0.0000000000000E+00 -0.1382763475962E+00
 0.3226409006428E+00 -0.3661909764949E+00  0.0000000000000E+00 -0.1065021479576E+00
 0.3279422495154E+00 -0.3682158810928E+00  0.0000000000000E+00 -0.8558339583019E-01
 0.3272664810527E+00 -0.3644680731841E+00  0.0000000000000E+00 -0.7413000421107E-01
 0.3219100373630E+00 -0.3564257501858E+00  0.0000000000000E+00 -0.7140965485056E-01
 0.3133230206243E+00 -0.3455439154315E+00  0.0000000000000E+00 -0.7655078676316E-01
 0.3025408095738E+00 -0.3328102768969E+00  0.0000000000000E+00 -0.8766847394255E-01
 0.2901190514360E+00 -0.3187657891462E+00  0.0000000000000E+00 -0.1027976238456E+00
 0.2763710249707E+00 -0.3037190652426E+00  0.0000000000000E+00 -0.1204899300754E+00
 0.2615391001841E+00 -0.2878821906033E+00  0.0000000000000E+00 -0.1397928600819E+00
 0.2457804763467E+00 -0.2713940422250E+00  0.0000000000000E+00 -0.1603602915516E+00
 0.2291972836529E+00 -0.2543403059992E+00  0.0000000000000E+00 -0.1824819198060E+00
 0.2115724730421E+00 -0.2364363592492E+00  0.0000000000000E+00 -0.2064973484254E+00
 0.1914852609509E+00 -0.2165886420976E+00  0.0000000000000E+00 -0.2332855630963E+00
 0.1702174248643E+00 -0.1962321478872E+00  0.0000000000000E+00 -0.2610986455074E+00
 0.1194749903734E+00 -0.1869396812621E+00  0.0000000000000E+00 -0.4839220073073E+00
 0.1734116010456E+00 -0.2367977831579E+00  0.0000000000000E+00 -0.3913748182639E+00
 0.2193742839257E+00 -0.2787508163148E+00  0.0000000000000E+00 -0.3121164357569E+00
 0.2572992705402E+00 -0.3127964128378E+00  0.0000000000000E+00 -0.2451118046299E+00
 0.2872548148659E+00 -0.3390728053201E+00  0.0000000000000E+00 -0.1907993505301E+00
 0.3097623954078E+00 -0.3581170216045E+00  0.0000000000000E+00 -0.1487042352925E+00
 0.3253416445214E+00 -0.3704358605163E+00  0.0000000000000E+00 -0.1177767010526E+00
 0.3345013639500E+00 -0.3765055694715E+00  0.0000000000000E+00 -0.9670469210345E-01
 0.3378504366755E+00 -0.3769646841931E+00  0.0000000000000E+00 -0.8434396938175E-01
 0.3364130096202E+00 -0.3729756168244E+00  0.0000000000000E+00 -0.8013331767485E-01
 0.3314147072082E+00 -0.3657857932163E+00  0.0000000000000E+00 -0.8358882680362E-01
 0.3238357897885E+00 -0.3563465955864E+00  0.0000000000000E+00 -0.9337916248420E-01
 0.3142782411427E+00 -0.3452469550936E+00  0.0000000000000E+00 -0.1078788520868E+00
 0.3030967347295E+00 -0.3328321228949E+00  0.0000000000000E+00 -0.1256767201513E+00
 0.2905663713506E+00 -0.3193446572466E+00  0.0000000000000E+00 -0.1456298131731E+00
 0.2769415398313E+00 -0.3050074354984E+00  0.0000000000000E+00 -0.1670440338276E+00
 0.2625408705400E+00 -0.2901253779309E+00  0.0000000000000E+00 -0.1899171572912E+00
 0.2477376971616E+00 -0.2749438015150E+00  0.0000000000000E+00 -0.2149870830541E+00
 0.2307695786182E+00 -0.2582255933180E+00  0.0000000000000E+00 -0.2452466767463E+00
 0.2103141304658E+00 -0.2387877479141E+00  0.0000000000000E+00 -0.2790702632053E+00
 0.1119743209596E+00 -0.1799022948851E+00  0.0000000000000E+00 -0.4677908713525E+00
 0.1652552810437E+00 -0.2292760374087E+00  0.0000000000000E+00 -0.3822736249599E+00
 0.2115266812357E+00 -0.2717052963036E+00  0.0000000000000E+00 -0.3091890588476E+00
 0.2506307574988E+00 -0.3071150599286E+00  0.0000000000000E+00 -0.2472577949922E+00
 0.2825709367772E+00 -0.3355454104591E+00  0.0000000000000E+00 -0.1966168127017E+00
 0.3077201208106E+00 -0.3573935247790E+00  0.0000000000000E+00 -0.1567922139035E+00
 0.3264670417833E+00 -0.3730430592616E+00  0.0000000000000E+00 -0.1269514279087E+00
 0.3392054097027E+00 -0.3828679189731E+00  0.0000000000000E+00 -0.1060629126179E+00
 0.3464026482261E+00 -0.3873510937420E+00  0.0000000000000E+00 -0.9316652983651E-01
 0.3488309315419E+00 -0.3873611381736E+00  0.0000000000000E+00 -0.8777514678044E-01
 0.3475093508912E+00 -0.3839485996921E+00  0.0000000000000E+00 -0.8965418261554E-01
 0.3433455160184E+00 -0.3780119722880E+00  0.0000000000000E+00 -0.9796842215030E-01
 0.3369568611053E+00 -0.3701636749960E+00  0.0000000000000E+00 -0.1115189917963E+00
 0.3286984921505E+00 -0.3607505530983E+00  0.0000000000000E+00 -0.1291035122784E+00
 0.3187998169529E+00 -0.3499680371448E+00  0.0000000000000E+00 -0.1495574411154E+00
 0.3074411740992E+00 -0.3379616919760E+00  0.0000000000000E+00 -0.1718470875987E+00
 0.2949970520135E+00 -0.3250384593410E+00  0.0000000000000E+00 -0.1951905629091E+00
 0.2822693081863E+00 -0.3119008901799E+00  0.0000000000000E+00 -0.2192791708050E+00
 0.2693292878713E+00 -0.2986315250264E+00  0.0000000000000E+00 -0.2477421166895E+00
 0.2521131255684E+00 -0.2826505590890E+00  0.0000000000000E+00 -0.2856716674568E+00
 0.1048527977649E+00 -0.1733352838582E+00  0.0000000000000E+00 -0.4512115337578E+00
 0.1574505244358E+00 -0.2220910027695E+00  0.0000000000000E+00 -0.3721409437634E+00
 0.2037629381063E+00 -0.2647531477422E+00  0.0000000000000E+00 -0.3045399344274E+00
 0.2437064291295E+00 -0.3011619000466E+00  0.0000000000000E+00 -0.2473118245055E+00
 0.2772086728333E+00 -0.3313125940342E+00  0.0000000000000E+00 -0.2001671810629E+00
 0.3045686907952E+00 -0.3555165696690E+00  0.0000000000000E+00 -0.1626061447208E+00
 0.3260946669740E+00 -0.3740925106654E+00  0.0000000000000E+00 -0.1339444313336E+00
 0.3421036710093E+00 -0.3873517765906E+00  0.0000000000000E+00 -0.1134146167389E+00
 0.3529290200896E+00 -0.3956345518217E+00  0.0000000000000E+00 -0.1002479460747E+00
 0.3590933204042E+00 -0.3995145026821E+00  0.0000000000000E+00 -0.9397186423117E-01
 0.3614187822108E+00 -0.3998434331987E+00  0.0000000000000E+00 -0.9442091506829E-01
 0.3607478851875E+00 -0.3974761821824E+00  0.0000000000000E+00 -0.1011068625673E+00
 0.3577223091920E+00 -0.3930617506954E+00  0.0000000000000E+00 -0.1132593200851E+00
 0.3527149511607E+00 -0.3869737026081E+00  0.0000000000000E+00 -0.1300376622529E+00
 0.3458975455745E+00 -0.3793606505819E+00  0.0000000000000E+00 -0.1505505782596E+00
 0.3372981187551E+00 -0.3702159015739E+00  0.0000000000000E+00 -0.1738777636949E+00
 0.3269610537321E+00 -0.3595511394778E+00  0.0000000000000E+00 -0.1989517050411E+00
 0.3154434098114E+00 -0.3476785154267E+00  0.0000000000000E+00 -0.2239691007759E+00
 0.3033145340819E+00 -0.3352610214569E+00  0.0000000000000E+00 -0.2482392166578E+00
 0.2932118853512E+00 -0.3234159584882E+00  0.0000000000000E+00 -0.2793105218293E+00
 0.1048527998303E+00 -0.1733352857803E+00  0.0000000000000E+00  0.4512115401778E+00
 0.1574505258947E+00 -0.2220910040940E+00  0.0000000000000E+00  0.3721409483101E+00
 0.2037629389762E+00 -0.2647531484960E+00  0.0000000000000E+00  0.3045399374663E+00
 0.2437064295301E+00 -0.3011619003436E+00  0.0000000000000E+00  0.2473118263707E+00
 0.2772086728862E+00 -0.3313125939944E+00  0.0000000000000E+00  0.2001671820773E+00
 0.3045686906191E+00 -0.3555165694098E+00  0.0000000000000E+00  0.1626061451608E+00
 0.3260946666725E+00 -0.3740925102902E+00  0.0000000000000E+00  0.1339444314170E+00
 0.3421036706644E+00 -0.3873517761818E+00  0.0000000000000E+00  0.1134146166223E+00
 0.3529290197543E+00 -0.3956345514346E+00  0.0000000000000E+00  0.1002479458620E+00
 0.3590933201111E+00 -0.3995145023511E+00  0.0000000000000E+00  0.9397186400285E-01
 0.3614187819773E+00 -0.3998434329394E+00  0.0000000000000E+00  0.9442091487884E-01
 0.3607478850146E+00 -0.3974761819934E+00  0.0000000000000E+00  0.1011068624384E+00
 0.3577223090698E+00 -0.3930617505646E+00  0.0000000000000E+00  0.1132593200218E+00
 0.3527149510762E+00 -0.3869737025214E+00  0.0000000000000E+00  0.1300376622563E+00
 0.3458975455183E+00 -0.3793606505282E+00  0.0000000000000E+00  0.1505505783255E+00
 0.3372981187220E+00 -0.3702159015471E+00  0.0000000000000E+00  0.1738777638163E+00
 0.3269610537320E+00 -0.3595511394855E+00  0.0000000000000E+00  0.1989517051945E+00
 0.3154434098833E+00 -0.3476785154947E+00  0.0000000000000E+00  0.2239691009293E+00
 0.3033145341556E+00 -0.3352610215536E+00  0.0000000000000E+00  0.2482392170479E+00
 0.2932118854154E+00 -0.3234159586112E+00  0.0000000000000E+00  0.2793105226793E+00
 0.1119743230478E+00 -0.1799022968399E+00  0.0000000000000E+00  0.4677908772895E+00
 0.1652552825837E+00 -0.2292760388262E+00  0.0000000000000E+00  0.3822736289280E+00
 0.2115266821992E+00 -0.2717052971537E+00  0.0000000000000E+00  0.3091890613268E+00
 0.2506307579821E+00 -0.3071150603068E+00  0.0000000000000E+00  0.2472577963383E+00
 0.2825709368929E+00 -0.3355454104769E+00  0.0000000000000E+00  0.1966168132623E+00
 0.3077201206728E+00 -0.3573935245506E+00  0.0000000000000E+00  0.1567922139661E+00
 0.3264670414928E+00 -0.3730430588882E+00  0.0000000000000E+00  0.1269514276931E+00
 0.3392054093404E+00 -0.3828679185363E+00  0.0000000000000E+00  0.1060629122747E+00
 0.3464026478484E+00 -0.3873510933016E+00  0.0000000000000E+00  0.9316652946521E-01
 0.3488309311887E+00 -0.3873611377721E+00  0.0000000000000E+00  0.8777514646104E-01
 0.3475093505856E+00 -0.3839485993508E+00  0.0000000000000E+00  0.8965418239553E-01
 0.3433455157649E+00 -0.3780119720091E+00  0.0000000000000E+00  0.9796842203996E-01
 0.3369568608966E+00 -0.3701636747706E+00  0.0000000000000E+00  0.1115189917912E+00
 0.3286984919760E+00 -0.3607505529142E+00  0.0000000000000E+00  0.1291035123701E+00
 0.3187998168080E+00 -0.3499680369954E+00  0.0000000000000E+00  0.1495574412911E+00
 0.3074411739868E+00 -0.3379616918628E+00  0.0000000000000E+00  0.1718470878497E+00
 0.2949970519577E+00 -0.3250384592844E+00  0.0000000000000E+00  0.1951905632391E+00
 0.2822693082167E+00 -0.3119008902085E+00  0.0000000000000E+00  0.2192791712921E+00
 0.2693292878488E+00 -0.2986315250494E+00  0.0000000000000E+00  0.2477421176178E+00
 0.2521131255822E+00 -0.2826505591828E+00  0.0000000000000E+00  0.2856716687228E+00
 0.1194749924844E+00 -0.1869396832570E+00  0.0000000000000E+00  0.4839220128017E+00
 0.1734116026653E+00 -0.2367977846648E+00  0.0000000000000E+00  0.3913748216693E+00
 0.2193742849749E+00 -0.2787508172552E+00  0.0000000000000E+00  0.3121164376675E+00
 0.2572992710938E+00 -0.3127964132853E+00  0.0000000000000E+00  0.2451118054512E+00
 0.2872548150268E+00 -0.3390728053785E+00  0.0000000000000E+00  0.1907993506361E+00
 0.3097623952865E+00 -0.3581170213854E+00  0.0000000000000E+00  0.1487042349830E+00
 0.3253416442169E+00 -0.3704358601201E+00  0.0000000000000E+00  0.1177767005475E+00
 0.3345013635433E+00 -0.3765055689796E+00  0.0000000000000E+00  0.9670469154558E-01
 0.3378504362280E+00 -0.3769646836716E+00  0.0000000000000E+00  0.8434396886585E-01
 0.3364130091815E+00 -0.3729756163269E+00  0.0000000000000E+00  0.8013331727993E-01
 0.3314147068092E+00 -0.3657857927717E+00  0.0000000000000E+00  0.8358882656740E-01
 0.3238357894373E+00 -0.3563465952009E+00  0.0000000000000E+00  0.9337916240175E-01
 0.3142782408342E+00 -0.3452469547604E+00  0.0000000000000E+00  0.1078788521410E+00
 0.3030967344559E+00 -0.3328321226046E+00  0.0000000000000E+00  0.1256767203266E+00
 0.2905663711103E+00 -0.3193446569956E+00  0.0000000000000E+00  0.1456298134573E+00
 0.2769415396289E+00 -0.3050074352906E+00  0.0000000000000E+00  0.1670440342298E+00
 0.2625408703886E+00 -0.2901253777781E+00  0.0000000000000E+00  0.1899171578510E+00
 0.2477376970563E+00 -0.2749438014116E+00  0.0000000000000E+00  0.2149870838624E+00
 0.2307695784277E+00 -0.2582255931835E+00  0.0000000000000E+00  0.2452466780122E+00
 0.2103141304450E+00 -0.2387877479867E+00  0.0000000000000E+00  0.2790702647736E+00
 0.1273789663533E+00 -0.1944320023064E+00  0.0000000000000E+00  0.4995297233884E+00
 0.1819763414518E+00 -0.2447540911922E+00  0.0000000000000E+00  0.3992052358565E+00
 0.2273336761503E+00 -0.2859061752001E+00  0.0000000000000E+00  0.3131655175702E+00
 0.2636690380665E+00 -0.3181642336535E+00  0.0000000000000E+00  0.2406690626761E+00
 0.2911821656301E+00 -0.3418097635465E+00  0.0000000000000E+00  0.1825569701969E+00
 0.3106041664649E+00 -0.3575907526755E+00  0.0000000000000E+00  0.1382763469262E+00
 0.3226409002988E+00 -0.3661909760504E+00  0.0000000000000E+00  0.1065021471809E+00
 0.3279422490385E+00 -0.3682158805198E+00  0.0000000000000E+00  0.8558339507904E-01
 0.3272664805111E+00 -0.3644680725572E+00  0.0000000000000E+00  0.7413000357489E-01
 0.3219100368187E+00 -0.3564257495726E+00  0.0000000000000E+00  0.7140965440515E-01
 0.3133230201173E+00 -0.3455439148696E+00  0.0000000000000E+00  0.7655078653179E-01
 0.3025408091155E+00 -0.3328102763958E+00  0.0000000000000E+00  0.8766847390168E-01
 0.2901190510220E+00 -0.3187657887001E+00  0.0000000000000E+00  0.1027976239658E+00
 0.2763710245932E+00 -0.3037190648425E+00  0.0000000000000E+00  0.1204899303373E+00
 0.2615390998394E+00 -0.2878821902436E+00  0.0000000000000E+00  0.1397928604778E+00
 0.2457804760319E+00 -0.2713940419026E+00  0.0000000000000E+00  0.1603602921012E+00
 0.2291972833646E+00 -0.2543403057094E+00  0.0000000000000E+00  0.1824819205494E+00
 0.2115724727551E+00 -0.2364363589664E+00  0.0000000000000E+00  0.2064973494164E+00
 0.1914852605977E+00 -0.2165886418050E+00  0.0000000000000E+00  0.2332855645119E+00
 0.1702174248086E+00 -0.1962321479319E+00  0.0000000000000E+00  0.2610986472771E+00
 0.1357291730304E+00 -0.2024310505754E+00  0.0000000000000E+00  0.5146530788701E+00
 0.1909948209691E+00 -0.2531933418121E+00  0.0000000000000E+00  0.4055849241021E+00
 0.2354134290647E+00 -0.2931857145908E+00  0.0000000000000E+00  0.3120949408272E+00
 0.2696901100125E+00 -0.3231632176465E+00  0.0000000000000E+00  0.2337135881648E+00
 0.2942584334801E+00 -0.3436563115393E+00  0.0000000000000E+00  0.1717458641987E+00
 0.3101391858831E+00 -0.3557024822473E+00  0.0000000000000E+00  0.1254993255505E+00
 0.3182761752239E+00 -0.3602158967902E+00  0.0000000000000E+00  0.9327799165843E-01
 0.3194840986397E+00 -0.3579525712582E+00  0.0000000000000E+00  0.7299333837522E-01
 0.3146788611586E+00 -0.3498889010348E+00  0.0000000000000E+00  0.6291360646361E-01
 0.3054497024869E+00 -0.3378415189371E+00  0.0000000000000E+00  0.6202746775300E-01
 0.2934738124555E+00 -0.3234689844134E+00  0.0000000000000E+00  0.6896271231138E-01
 0.2797916107719E+00 -0.3077474797612E+00  0.0000000000000E+00  0.8128162360138E-01
 0.2648495597661E+00 -0.2911115613940E+00  0.0000000000000E+00  0.9678537310078E-01
 0.2488605313825E+00 -0.2737741418690E+00  0.0000000000000E+00  0.1140844817811E+00
 0.2319651068025E+00 -0.2558457169101E+00  0.0000000000000E+00  0.1323979583577E+00
 0.2141849904136E+00 -0.2373250077451E+00  0.0000000000000E+00  0.1514894834431E+00
 0.1954575043948E+00 -0.2181357072347E+00  0.0000000000000E+00  0.1714764515048E+00
 0.1754707404357E+00 -0.1978542158016E+00  0.0000000000000E+00  0.1919088097723E+00
 0.1536590383385E+00 -0.1762211225869E+00  0.0000000000000E+00  0.2129745084622E+00
 0.1328268634066E+00 -0.1561134873657E+00  0.0000000000000E+00  0.2343200189472E+00
 0.1445824970472E+00 -0.2110056389700E+00  0.0000000000000E+00  0.5293238696114E+00
 0.2005211103552E+00 -0.2621761058899E+00  0.0000000000000E+00  0.4103174000960E+00
 0.2436097394320E+00 -0.3005863366806E+00  0.0000000000000E+00  0.3086309067551E+00
 0.2752929980876E+00 -0.3277197860978E+00  0.0000000000000E+00  0.2240058715510E+00
 0.2963690204135E+00 -0.3444902942358E+00  0.0000000000000E+00  0.1582455823903E+00
 0.3082454672003E+00 -0.3523231060145E+00  0.0000000000000E+00  0.1104185448938E+00
 0.3121575405602E+00 -0.3524154552194E+00  0.0000000000000E+00  0.7832197311415E-01
 0.3091026816264E+00 -0.3456894059491E+00  0.0000000000000E+00  0.5929320780854E-01
 0.3001556912138E+00 -0.3332973397147E+00  0.0000000000000E+00  0.5114299857350E-01
 0.2872063719166E+00 -0.3174030320739E+00  0.0000000000000E+00  0.5246212935551E-01
 0.2721364306708E+00 -0.2998395364596E+00  0.0000000000000E+00  0.6128297916731E-01
 0.2559142881967E+00 -0.2814970209528E+00  0.0000000000000E+00  0.7465270877501E-01
 0.2388089281824E+00 -0.2626374371345E+00  0.0000000000000E+00  0.9023630459655E-01
 0.2208956089712E+00 -0.2433386046146E+00  0.0000000000000E+00  0.1067343141742E+00
 0.2022095596495E+00 -0.2235992433004E+00  0.0000000000000E+00  0.1234525205387E+00
 0.1826893401748E+00 -0.2033275450286E+00  0.0000000000000E+00  0.1400897353182E+00
 0.1622842459709E+00 -0.1824423720114E+00  0.0000000000000E+00  0.1564570469902E+00
 0.1408007288556E+00 -0.1606264321655E+00  0.0000000000000E+00  0.1716560370051E+00
 0.1185292246850E+00 -0.1384124221988E+00  0.0000000000000E+00  0.1858407757013E+00
 0.9902884053482E-01 -0.1194432044839E+00  0.0000000000000E+00  0.2004800362932E+00
 0.1540089258658E+00 -0.2202417876671E+00  0.0000000000000E+00  0.5435680411784E+00
 0.2106164198466E+00 -0.2717709406878E+00  0.0000000000000E+00  0.4131652924422E+00
 0.2519066618195E+00 -0.3080920704274E+00  0.0000000000000E+00  0.3024579222867E+00
 0.2803834367199E+00 -0.3317332914663E+00  0.0000000000000E+00  0.2112916590759E+00
 0.2973747245879E+00 -0.3441631605108E+00  0.0000000000000E+00  0.1419636636771E+00
 0.3047883547386E+00 -0.3473091739833E+00  0.0000000000000E+00  0.9314298299866E-01
 0.3042026673825E+00 -0.3427018909662E+00  0.0000000000000E+00  0.6192819933301E-01
 0.2968030637272E+00 -0.3314310702965E+00  0.0000000000000E+00  0.4491197582503E-01
 0.2838081522944E+00 -0.3148094553017E+00  0.0000000000000E+00  0.3931579558345E-01
 0.2673952500192E+00 -0.2953333845926E+00  0.0000000000000E+00  0.4320332074150E-01
 0.2496019680556E+00 -0.2749559121258E+00  0.0000000000000E+00  0.5393971668730E-01
 0.2312361295758E+00 -0.2543960404405E+00  0.0000000000000E+00  0.6813328843640E-01
 0.2123385578623E+00 -0.2336939072072E+00  0.0000000000000E+00  0.8341295799605E-01
 0.1928494529127E+00 -0.2127917710848E+00  0.0000000000000E+00  0.9858544843816E-01
 0.1727407443406E+00 -0.1916161866113E+00  0.0000000000000E+00  0.1129901031585E+00
 0.1519565922663E+00 -0.1700687247309E+00  0.0000000000000E+00  0.1262080376489E+00
 0.1305713325967E+00 -0.1481793289225E+00  0.0000000000000E+00  0.1378302422555E+00
 0.1085714104029E+00 -0.1257945584846E+00  0.0000000000000E+00  0.1468155870422E+00
 0.8697116973687E-01 -0.1041104501290E+00  0.0000000000000E+00  0.1536151565156E+00
 0.6959976800070E-01 -0.8706623238812E-01  0.0000000000000E+00  0.1614708740928E+00
 0.1640931550414E+00 -0.2302446631279E+00  0.0000000000000E+00  0.5574009287883E+00
 0.2213481266825E+00 -0.2820541556254E+00  0.0000000000000E+00  0.4138334088424E+00
 0.2602714663749E+00 -0.3156688718319E+00  0.0000000000000E+00  0.2932075138069E+00
 0.2848364274413E+00 -0.3350695644070E+00  0.0000000000000E+00  0.1953047073285E+00
 0.2971091881259E+00 -0.3424964257839E+00  0.0000000000000E+00  0.1228486048951E+00
 0.2996249690823E+00 -0.3405077283359E+00  0.0000000000000E+00  0.7385976140756E-01
 0.2943464073336E+00 -0.3310053880630E+00  0.0000000000000E+00  0.4447575914682E-01
 0.2826282017794E+00 -0.3152227232817E+00  0.0000000000000E+00  0.3034220044978E-01
 0.2657928007171E+00 -0.2945894878968E+00  0.0000000000000E+00  0.2795082284668E-01
 0.2462680902605E+00 -0.2718932588316E+00  0.0000000000000E+00  0.3470924269881E-01
 0.2261790288760E+00 -0.2491349522005E+00  0.0000000000000E+00  0.4728633237462E-01
 0.2060891460665E+00 -0.2267843095076E+00  0.0000000000000E+00  0.6197984414658E-01
 0.1857903132790E+00 -0.2046404605351E+00  0.0000000000000E+00  0.7650066258299E-01
 0.1651228827140E+00 -0.1825431909688E+00  0.0000000000000E+00  0.8979038930536E-01
 0.1440567844839E+00 -0.1604060370546E+00  0.0000000000000E+00  0.1012128609453E+00
 0.1226144604701E+00 -0.1381957343851E+00  0.0000000000000E+00  0.1102607308394E+00
 0.1010498315330E+00 -0.1161049363253E+00  0.0000000000000E+00  0.1164295611834E+00
 0.7951807698274E-01 -0.9413801416835E-01  0.0000000000000E+00  0.1187796701136E+00
 0.5961015572957E-01 -0.7400073827567E-01  0.0000000000000E+00  0.1181721966599E+00
 0.4511043480512E-01 -0.5962170080575E-01  0.0000000000000E+00  0.1194236247600E+00
 0.1749372908801E+00 -0.2411428663275E+00  0.0000000000000E+00  0.5708214535229E+00
 0.2327884606696E+00 -0.2931089084905E+00  0.0000000000000E+00  0.4119484002877E+00
 0.2686474220886E+00 -0.3232567632789E+00  0.0000000000000E+00  0.2804448765390E+00
 0.2884884856668E+00 -0.3375519248864E+00  0.0000000000000E+00  0.1757721225797E+00
 0.2953774051122E+00 -0.3392796272840E+00  0.0000000000000E+00  0.1009091599775E+00
 0.2926112634459E+00 -0.3317638969970E+00  0.0000000000000E+00  0.5285282833694E-01
 0.2825522131910E+00 -0.3172867656154E+00  0.0000000000000E+00  0.2643190419759E-01
 0.2666671894291E+00 -0.2971591673416E+00  0.0000000000000E+00  0.1612038855696E-01
 0.2463115911912E+00 -0.2728497253447E+00  0.0000000000000E+00  0.1754938163571E-01
 0.2241062608404E+00 -0.2473731780477E+00  0.0000000000000E+00  0.2736652235117E-01
 0.2021857183184E+00 -0.2227017819441E+00  0.0000000000000E+00  0.4158346362120E-01
 0.1808037819430E+00 -0.1989990826577E+00  0.0000000000000E+00  0.5637421390205E-01
 0.1595139349731E+00 -0.1758354783216E+00  0.0000000000000E+00  0.6966631102385E-01
 0.1381116132484E+00 -0.1530006229418E+00  0.0000000000000E+00  0.8057310634186E-01
 0.1166231962471E+00 -0.1304517118557E+00  0.0000000000000E+00  0.8850024367833E-01
 0.9519589604754E-01 -0.1082651451589E+00  0.0000000000000E+00  0.9291126446345E-01
 0.7427379152393E-01 -0.8680625603877E-01  0.0000000000000E+00  0.9333247750084E-01
 0.5414292049680E-01 -0.6620314450487E-01  0.0000000000000E+00  0.8910109603852E-01
 0.3682841473885E-01 -0.4852598549363E-01  0.0000000000000E+00  0.8150864851702E-01
 0.2585018958768E-01 -0.3746921985751E-01  0.0000000000000E+00  0.7667476343604E-01
 0.1866646956557E+00 -0.2530948643829E+00  0.0000000000000E+00  0.5838024171331E+00
 0.2450124507566E+00 -0.3050237486370E+00  0.0000000000000E+00  0.4070307091242E+00
 0.2769431713021E+00 -0.3307578932948E+00  0.0000000000000E+00  0.2636528923274E+00
 0.2911277907915E+00 -0.3389496238714E+00  0.0000000000000E+00  0.1524257139598E+00
 0.2919559626753E+00 -0.3342700893676E+00  0.0000000000000E+00  0.7624247291421E-01
 0.2836130933682E+00 -0.3209331352528E+00  0.0000000000000E+00  0.3052342613131E-01
 0.2688259247363E+00 -0.3015530420794E+00  0.0000000000000E+00  0.8346263449783E-02
 0.2490615912897E+00 -0.2773921599231E+00  0.0000000000000E+00  0.2794302936841E-02
 0.2256066625748E+00 -0.2498448026447E+00  0.0000000000000E+00  0.8552601005858E-02
 0.2012080844621E+00 -0.2220798847912E+00  0.0000000000000E+00  0.2146320727624E-01
 0.1779364226311E+00 -0.1959763398337E+00  0.0000000000000E+00  0.3700328121649E-01
 0.1556962838091E+00 -0.1713632113798E+00  0.0000000000000E+00  0.5145638023607E-01
 0.1338398723997E+00 -0.1476197336080E+00  0.0000000000000E+00  0.6309933735209E-01
 0.1121791579035E+00 -0.1245429033282E+00  0.0000000000000E+00  0.7124649929564E-01
 0.9084133674927E-01 -0.1021753213032E+00  0.0000000000000E+00  0.7537038415630E-01
 0.7011751313482E-01 -0.8072061224444E-01  0.0000000000000E+00  0.7497666057260E-01
 0.5062241684576E-01 -0.6069739335824E-01  0.0000000000000E+00  0.6973687651853E-01
 0.3272786675219E-01 -0.4231667608195E-01  0.0000000000000E+00  0.5939612146544E-01
 0.1874932362267E-01 -0.2786923328564E-01  0.0000000000000E+00  0.4566026664325E-01
 0.1178455216952E-01 -0.2064788218399E-01  0.0000000000000E+00  0.3562764843981E-01
 0.1994253291757E+00 -0.2662985235468E+00  0.0000000000000E+00  0.5962743612441E+00
 0.2580941864739E+00 -0.3178896028245E+00  0.0000000000000E+00  0.3984534732365E+00
 0.2850169308530E+00 -0.3380184068652E+00  0.0000000000000E+00  0.2422131859106E+00
 0.2924819649702E+00 -0.3389631415177E+00  0.0000000000000E+00  0.1250241515023E+00
 0.2865968514537E+00 -0.3271966607378E+00  0.0000000000000E+00  0.4907406620661E-01
 0.2725230476652E+00 -0.3079003164953E+00  0.0000000000000E+00  0.7409523460693E-02
 0.2532310968523E+00 -0.2838752195313E+00  0.0000000000000E+00 -0.9168880148702E-02
 0.2300066687057E+00 -0.2561322620215E+00  0.0000000000000E+00 -0.9122519860221E-02
 0.2039470513380E+00 -0.2258570124726E+00  0.0000000000000E+00  0.1302105617787E-02
 0.1778706384114E+00 -0.1963166103841E+00  0.0000000000000E+00  0.1718057935550E-01
 0.1537269585749E+00 -0.1692581227096E+00  0.0000000000000E+00  0.3365224679319E-01
 0.1310571407432E+00 -0.1441740655298E+00  0.0000000000000E+00  0.4735971489390E-01
 0.1090670297507E+00 -0.1203046091073E+00  0.0000000000000E+00  0.5703537754005E-01
 0.8764227743759E-01 -0.9750494648517E-01  0.0000000000000E+00  0.6220416562820E-01
 0.6703498967736E-01 -0.7592411622475E-01  0.0000000000000E+00  0.6243280758780E-01
 0.4767434844669E-01 -0.5588607990560E-01  0.0000000000000E+00  0.5734631015932E-01
 0.3030548625895E-01 -0.3802384255539E-01  0.0000000000000E+00  0.4686562922097E-01
 0.1533955987035E-01 -0.2258887348844E-01  0.0000000000000E+00  0.3124606293833E-01
 0.5230391265534E-02 -0.1194550160610E-01  0.0000000000000E+00  0.1257811700056E-01
 0.2546428709085E-02 -0.8864150589981E-02  0.0000000000000E+00 -0.1431185659943E-02
 0.2134030891438E+00 -0.2810054046486E+00  0.0000000000000E+00  0.6080979073354E+00
 0.2720995458233E+00 -0.3317932765688E+00  0.0000000000000E+00  0.3853800151511E+00
 0.2926524373574E+00 -0.3448001982627E+00  0.0000000000000E+00  0.2153848667608E+00
 0.2922036564121E+00 -0.3372062814934E+00  0.0000000000000E+00  0.9339422498518E-01
 0.2790381642330E+00 -0.3177714566802E+00  0.0000000000000E+00  0.1981339489358E-01
 0.2592847951274E+00 -0.2926081464664E+00  0.0000000000000E+00 -0.1580177604945E-01
 0.2359031222385E+00 -0.2644053060428E+00  0.0000000000000E+00 -0.2547920548927E-01
 0.2097431130021E+00 -0.2336398882730E+00  0.0000000000000E+00 -0.1920631831632E-01
 0.1816065676593E+00 -0.2011712866018E+00  0.0000000000000E+00 -0.3985249076669E-02
 0.1543703607430E+00 -0.1703617911787E+00  0.0000000000000E+00  0.1460957051012E-01
 0.1298242979397E+00 -0.1428159310708E+00  0.0000000000000E+00  0.3160813306538E-01
 0.1071459825769E+00 -0.1176993809091E+00  0.0000000000000E+00  0.4424226607470E-01
 0.8545841424943E-01 -0.9416831260327E-01  0.0000000000000E+00  0.5176348848708E-01
 0.6476596714707E-01 -0.7217263519304E-01  0.0000000000000E+00  0.5389701608766E-01
 0.4544705901235E-01 -0.5196641735085E-01  0.0000000000000E+00  0.5033646733172E-01
 0.2804214975089E-01 -0.3396702786115E-01  0.0000000000000E+00  0.4090879381287E-01
 0.1337197504605E-01 -0.1886954750705E-01  0.0000000000000E+00  0.2587910223752E-01
 0.1839519673467E-02 -0.6922017375048E-02  0.0000000000000E+00  0.6092146732343E-02
-0.4123265235978E-02 -0.4122423606057E-03  0.0000000000000E+00 -0.1601766219540E-01
-0.2537433040195E-02 -0.1513082813396E-02  0.0000000000000E+00 -0.3253662637900E-01
 0.2288258875023E+00 -0.2975428418922E+00  0.0000000000000E+00  0.6190146614825E+00
 0.2870717278691E+00 -0.3468034485407E+00  0.0000000000000E+00  0.3666653593689E+00
 0.2995215993581E+00 -0.3507358385315E+00  0.0000000000000E+00  0.1822845627495E+00
 0.2898554782740E+00 -0.3331865186931E+00  0.0000000000000E+00  0.5750620399920E-01
 0.2690273674606E+00 -0.3057168559222E+00  0.0000000000000E+00 -0.1087224587337E-01
 0.2439257566921E+00 -0.2750964938302E+00  0.0000000000000E+00 -0.3828167461173E-01
 0.2170562571934E+00 -0.2433855084855E+00  0.0000000000000E+00 -0.3999824199492E-01
 0.1885348123338E+00 -0.2101995177585E+00  0.0000000000000E+00 -0.2717937152658E-01
 0.1588364118277E+00 -0.1760435055919E+00  0.0000000000000E+00 -0.7213493750926E-02
 0.1309505764785E+00 -0.1444554549644E+00  0.0000000000000E+00  0.1379362971537E-01
 0.1064661174499E+00 -0.1168887271450E+00  0.0000000000000E+00  0.3096170164817E-01
 0.8419406937667E-01 -0.9218126706712E-01  0.0000000000000E+00  0.4230511361717E-01
 0.6324258912885E-01 -0.6945786080388E-01  0.0000000000000E+00  0.4761584676524E-01
 0.4376368098083E-01 -0.4878267234306E-01  0.0000000000000E+00  0.4679835319061E-01
 0.2624130239246E-01 -0.3049246503712E-01  0.0000000000000E+00  0.3971637989349E-01
 0.1128425153386E-01 -0.1505604225470E-01  0.0000000000000E+00  0.2648452292801E-01
-0.2757277054419E-03 -0.3169493268396E-02  0.0000000000000E+00  0.7794058409429E-02
-0.8093067566718E-02  0.4968758085371E-02  0.0000000000000E+00 -0.1486908892090E-01
-0.9919467643881E-02  0.7294661920456E-02  0.0000000000000E+00 -0.3878531583811E-01
-0.4381753752209E-02  0.2263502632609E-02  0.0000000000000E+00 -0.5624452899546E-01
 0.2459792054796E+00 -0.3163493666448E+00  0.0000000000000E+00  0.6285559024229E+00
 0.3030018923242E+00 -0.3629402834814E+00  0.0000000000000E+00  0.3406951288892E+00
 0.3051255571691E+00 -0.3552550175521E+00  0.0000000000000E+00  0.1418792208262E+00
 0.2848994594601E+00 -0.3262894674209E+00  0.0000000000000E+00  0.1761015498037E-01
 0.2563663467629E+00 -0.2908201879185E+00  0.0000000000000E+00 -0.4196875106275E-01
 0.2265954487469E+00 -0.2555501726805E+00  0.0000000000000E+00 -0.5911210949378E-01
 0.1969731937050E+00 -0.2211361949330E+00  0.0000000000000E+00 -0.5229156340395E-01
 0.1666311513855E+00 -0.1860740760074E+00  0.0000000000000E+00 -0.3294508711945E-01
 0.1358426525970E+00 -0.1506741347900E+00  0.0000000000000E+00 -0.8360111095294E-02
 0.1078246096994E+00 -0.1188037239313E+00  0.0000000000000E+00  0.1478740419151E-01
 0.8387037298177E-01 -0.9169796819902E-01  0.0000000000000E+00  0.3184552209470E-01
 0.6241067893243E-01 -0.6784403559746E-01  0.0000000000000E+00  0.4178925754337E-01
 0.4261681276791E-01 -0.4639215200333E-01  0.0000000000000E+00  0.4494146397480E-01
 0.2479925662425E-01 -0.2752371413506E-01  0.0000000000000E+00  0.4136305337313E-01
 0.9506581474874E-02 -0.1161753242480E-01  0.0000000000000E+00  0.3114293164197E-01
-0.2637720791538E-02  0.8579762222394E-03  0.0000000000000E+00  0.1476659773902E-01
-0.1086027420897E-01  0.9270586489755E-02  0.0000000000000E+00 -0.6585906861695E-02
-0.1492261914979E-01  0.1351868401912E-01  0.0000000000000E+00 -0.3077506587004E-01
-0.1291185250213E-01  0.1189688488098E-01  0.0000000000000E+00 -0.5488416645722E-01
-0.4038985419610E-02  0.3479660285882E-02  0.0000000000000E+00 -0.7179200980589E-01
 0.2652228979737E+00 -0.3380341546737E+00  0.0000000000000E+00  0.6358621600882E+00
 0.3197676735435E+00 -0.3801076572873E+00  0.0000000000000E+00  0.3051105026064E+00
 0.3087008230076E+00 -0.3574621955215E+00  0.0000000000000E+00  0.9302527403041E-01
 0.2767053845642E+00 -0.3157855910310E+00  0.0000000000000E+00 -0.2551929496157E-01
 0.2409915084315E+00 -0.2730355741297E+00  0.0000000000000E+00 -0.7203502864075E-01
 0.2075975818077E+00 -0.2343403828608E+00  0.0000000000000E+00 -0.7742662437472E-01
 0.1759629725984E+00 -0.1980024704125E+00  0.0000000000000E+00 -0.6220307517826E-01
 0.1442217736716E+00 -0.1614486062065E+00  0.0000000000000E+00 -0.3656450568311E-01
 0.1127842330253E+00 -0.1252072554193E+00  0.0000000000000E+00 -0.7386734223070E-02
 0.8519634426788E-01 -0.9360398728051E-01  0.0000000000000E+00  0.1770215962008E-01
 0.6224765772889E-01 -0.6746286992710E-01  0.0000000000000E+00  0.3443248470932E-01
 0.4198744980742E-01 -0.4489893209988E-01  0.0000000000000E+00  0.4295121816294E-01
 0.2374873520279E-01 -0.2516272403518E-01  0.0000000000000E+00  0.4407214247419E-01
 0.7989226712856E-02 -0.8537685948123E-02  0.0000000000000E+00  0.3798836733975E-01
-0.4737114226806E-02  0.4613244975624E-02  0.0000000000000E+00  0.2507757959462E-01
-0.1384985787969E-01  0.1387757024146E-01  0.0000000000000E+00  0.6273045356520E-02
-0.1870085906241E-01  0.1874775311085E-01  0.0000000000000E+00 -0.1671975371492E-01
-0.1920365998559E-01  0.1926159264949E-01  0.0000000000000E+00 -0.4115189411362E-01
-0.1390921371133E-01  0.1418481773653E-01  0.0000000000000E+00 -0.6404051408615E-01
-0.2563773842707E-02  0.3174005656237E-02  0.0000000000000E+00 -0.7917329083999E-01
 0.2870060816388E+00 -0.3634827973693E+00  0.0000000000000E+00  0.6392976007571E+00
 0.3369984912692E+00 -0.3979341928020E+00  0.0000000000000E+00  0.2563151463503E+00
 0.3090713294821E+00 -0.3559317470472E+00  0.0000000000000E+00  0.3465146531661E-01
 0.2646153451799E+00 -0.3009108684473E+00  0.0000000000000E+00 -0.7015253555030E-01
 0.2231015687568E+00 -0.2526550052044E+00  0.0000000000000E+00 -0.9921646282656E-01
 0.1873834152337E+00 -0.2120140119185E+00  0.0000000000000E+00 -0.9269746091991E-01
 0.1542779819982E+00 -0.1742436705292E+00  0.0000000000000E+00 -0.6994262708190E-01
 0.1214089817471E+00 -0.1363983030624E+00  0.0000000000000E+00 -0.3813617787278E-01
 0.8980155497749E-01 -0.9976837380441E-01  0.0000000000000E+00 -0.4148294209809E-02
 0.6328603134359E-01 -0.6907551448680E-01  0.0000000000000E+00  0.2270364809389E-01
 0.4180587948644E-01 -0.4440675754366E-01  0.0000000000000E+00  0.3890275624497E-01
 0.2309669902269E-01 -0.2354084381225E-01  0.0000000000000E+00  0.4603000133905E-01
 0.6777162578447E-02 -0.5933226265368E-02  0.0000000000000E+00  0.4529366764778E-01
-0.6593369990912E-02  0.8076857344445E-02  0.0000000000000E+00  0.3698083373662E-01
-0.1653157702509E-01  0.1821902926560E-01  0.0000000000000E+00  0.2183436464520E-01
-0.2255083221153E-01  0.2418387833584E-01  0.0000000000000E+00  0.1313590924977E-02
-0.2418097818977E-01  0.2563173156888E-01  0.0000000000000E+00 -0.2234710341720E-01
-0.2151875659232E-01  0.2276891560153E-01  0.0000000000000E+00 -0.4591446325813E-01
-0.1367399287048E-01  0.1491579587735E-01  0.0000000000000E+00 -0.6652527955896E-01
-0.8671659244914E-03  0.2263842989210E-02  0.0000000000000E+00 -0.7908554830868E-01
 0.3118522401338E+00 -0.3940602884550E+00  0.0000000000000E+00  0.6355327559156E+00
 0.3537607174971E+00 -0.4153688922676E+00  0.0000000000000E+00  0.1885428854990E+00
 0.3044311346662E+00 -0.3483774039512E+00  0.0000000000000E+00 -0.3361993078301E-01
 0.2481567587164E+00 -0.2811653456046E+00  0.0000000000000E+00 -0.1129018253901E+00
 0.2033172409526E+00 -0.2305332665864E+00  0.0000000000000E+00 -0.1215999060648E+00
 0.1664418937519E+00 -0.1891268019587E+00  0.0000000000000E+00 -0.1051749543086E+00
 0.1320168002629E+00 -0.1499065770792E+00  0.0000000000000E+00 -0.7598302933340E-01
 0.9823289366045E-01 -0.1109348759996E+00  0.0000000000000E+00 -0.3760620192226E-01
 0.6706064788243E-01 -0.7451432728377E-01  0.0000000000000E+00  0.1630785668626E-02
 0.4234502929253E-01 -0.4547977927281E-01  0.0000000000000E+00  0.2995771863339E-01
 0.2273866547723E-01 -0.2274315914200E-01  0.0000000000000E+00  0.4539479198303E-01
 0.5885938673467E-02 -0.3939000956341E-02  0.0000000000000E+00  0.5123015512575E-01
-0.8181761998197E-02  0.1115374032814E-01  0.0000000000000E+00  0.4883191624956E-01
-0.1891290912130E-01  0.2225777298602E-01  0.0000000000000E+00  0.3852044247043E-01
-0.2597654658946E-01  0.2928220412371E-01  0.0000000000000E+00  0.2154241956336E-01
-0.2899969161085E-01  0.3202731783292E-01  0.0000000000000E+00 -0.1974942470451E-04
-0.2771698220523E-01  0.3033468263768E-01  0.0000000000000E+00 -0.2346305916197E-01
-0.2241838511423E-01  0.2458976420463E-01  0.0000000000000E+00 -0.4529991718446E-01
-0.1283096439668E-01  0.1471985642969E-01  0.0000000000000E+00 -0.6302648774726E-01
 0.4036092334514E-03  0.1419217882321E-02  0.0000000000000E+00 -0.7272400951307E-01
 0.3401755039300E+00 -0.4320442617217E+00  0.0000000000000E+00  0.6169940508741E+00
 0.3677548631292E+00 -0.4295132241818E+00  0.0000000000000E+00  0.9201991602381E-01
 0.2921232934867E+00 -0.3312445042586E+00  0.0000000000000E+00 -0.1094560305042E+00
 0.2276074511591E+00 -0.2572055187724E+00  0.0000000000000E+00 -0.1478988872876E+00
 0.1827178873795E+00 -0.2081136322346E+00  0.0000000000000E+00 -0.1385123321374E+00
 0.1450344742995E+00 -0.1658051260821E+00  0.0000000000000E+00 -0.1161196824149E+00
 0.1091235327421E+00 -0.1249075867123E+00  0.0000000000000E+00 -0.8061176418660E-01
 0.7473105841884E-01 -0.8505447317438E-01  0.0000000000000E+00 -0.3469654669082E-01
 0.4479256425582E-01 -0.4968845535813E-01  0.0000000000000E+00  0.1032062274590E-01
 0.2264418870228E-01 -0.2311221817787E-01  0.0000000000000E+00  0.3952244321222E-01
 0.5190218222367E-02 -0.2627911060732E-02  0.0000000000000E+00  0.5397987402033E-01
-0.9511175561641E-02  0.1375434048797E-01  0.0000000000000E+00  0.5876005736706E-01
-0.2101379213402E-01  0.2594588077761E-01  0.0000000000000E+00  0.5482938768050E-01
-0.2897546116844E-01  0.3398764644422E-01  0.0000000000000E+00  0.4259102470631E-01
-0.3323649649331E-01  0.3796079635697E-01  0.0000000000000E+00  0.2412803288132E-01
-0.3350650744529E-01  0.3771841296292E-01  0.0000000000000E+00  0.2179068970191E-02
-0.2973185350618E-01  0.3328621496952E-01  0.0000000000000E+00 -0.2025036866775E-01
-0.2237534586276E-01  0.2520353300952E-01  0.0000000000000E+00 -0.3973772180259E-01
-0.1181002451960E-01  0.1403777035439E-01  0.0000000000000E+00 -0.5443066135914E-01
 0.9214750385813E-03  0.9951258715940E-03  0.0000000000000E+00 -0.6145135240749E-01
 0.3711838626344E+00 -0.4816926073675E+00  0.0000000000000E+00  0.5630749880741E+00
 0.3729979512378E+00 -0.4315774237824E+00  0.0000000000000E+00 -0.5058809847653E-01
 0.2690788389785E+00 -0.3001803937822E+00  0.0000000000000E+00 -0.1808517862265E+00
 0.2051027562783E+00 -0.2331625671618E+00  0.0000000000000E+00 -0.1681976996361E+00
 0.1621980072900E+00 -0.1857245420632E+00  0.0000000000000E+00 -0.1532394911720E+00
 0.1230852661192E+00 -0.1420354402384E+00  0.0000000000000E+00 -0.1262989969455E+00
 0.8547662083562E-01 -0.9904909697006E-01  0.0000000000000E+00 -0.8395774980754E-01
 0.5097292759597E-01 -0.5876830045491E-01  0.0000000000000E+00 -0.2882441671049E-01
 0.2335156460143E-01 -0.2572521433823E-01  0.0000000000000E+00  0.2225596627573E-01
 0.4367665137986E-02 -0.2179310859095E-02  0.0000000000000E+00  0.5117147368850E-01
-0.1076776376456E-01  0.1590908920793E-01  0.0000000000000E+00  0.6481280607029E-01
-0.2288597832767E-01  0.2926766431540E-01  0.0000000000000E+00  0.6890561086016E-01
-0.3161422326474E-01  0.3829389761355E-01  0.0000000000000E+00  0.6317733793160E-01
-0.3686616092633E-01  0.4334707686670E-01  0.0000000000000E+00  0.4892390619776E-01
-0.3854893588658E-01  0.4449522677252E-01  0.0000000000000E+00  0.2936958347995E-01
-0.3641833866340E-01  0.4161530541515E-01  0.0000000000000E+00  0.7704655222130E-02
-0.3063649533917E-01  0.3490602942365E-01  0.0000000000000E+00 -0.1299928386284E-01
-0.2177989239838E-01  0.2502607943818E-01  0.0000000000000E+00 -0.2968525730097E-01
-0.1083875561759E-01  0.1309860869906E-01  0.0000000000000E+00 -0.4149801816919E-01
 0.6737873832712E-03  0.1021717013449E-02  0.0000000000000E+00 -0.4640907003909E-01
 0.3924217925447E+00 -0.5530357390993E+00  0.0000000000000E+00  0.3868919565479E+00
 0.3534361709887E+00 -0.3840100586220E+00  0.0000000000000E+00 -0.2592701134936E+00
 0.2367335786121E+00 -0.2676796556064E+00  0.0000000000000E+00 -0.2059393378048E+00
 0.1839867535045E+00 -0.2098055601318E+00  0.0000000000000E+00 -0.1842899515146E+00
 0.1415328952399E+00 -0.1634528259546E+00  0.0000000000000E+00 -0.1666832208177E+00
 0.1006498367701E+00 -0.1178771097848E+00  0.0000000000000E+00 -0.1364255295673E+00
 0.6067689293194E-01 -0.7180174471828E-01  0.0000000000000E+00 -0.8614772354379E-01
 0.2729486925370E-01 -0.3225366978115E-01  0.0000000000000E+00 -0.1875417834650E-01
 0.3132436330063E-02 -0.3458220830860E-02  0.0000000000000E+00  0.3709620361336E-01
-0.1271697072691E-01  0.1788772559754E-01  0.0000000000000E+00  0.6453236373225E-01
-0.2479679697496E-01  0.3243574911622E-01  0.0000000000000E+00  0.7869519811613E-01
-0.3393046814623E-01  0.4218600820512E-01  0.0000000000000E+00  0.8162840042834E-01
-0.4000132329444E-01  0.4819527317317E-01  0.0000000000000E+00  0.7328402056505E-01
-0.4281247298845E-01  0.5059801850547E-01  0.0000000000000E+00  0.5710924740196E-01
-0.4217116227669E-01  0.4915668870792E-01  0.0000000000000E+00  0.3713682796589E-01
-0.3807532815737E-01  0.4401474731300E-01  0.0000000000000E+00  0.1615088794146E-01
-0.3090429857864E-01  0.3577371089708E-01  0.0000000000000E+00 -0.2131202656354E-02
-0.2095322875164E-01  0.2435402088248E-01  0.0000000000000E+00 -0.1522469716639E-01
-0.9954575250082E-02  0.1194706024598E-01  0.0000000000000E+00 -0.2465312020712E-01
-0.1476758066106E-03  0.1298305620811E-02  0.0000000000000E+00 -0.2811002418207E-01
 0.2896286725589E+00 -0.3272305390354E+00  0.0000000000000E+00 -0.3236710613251E+00
 0.2475771636558E+00 -0.2797624237607E+00  0.0000000000000E+00 -0.3181640989897E+00
 0.2066592442531E+00 -0.2361846660826E+00  0.0000000000000E+00 -0.3078603054227E+00
 0.1673599909922E+00 -0.1940924331381E+00  0.0000000000000E+00 -0.2884470176418E+00
 0.1302300806000E+00 -0.1541090171278E+00  0.0000000000000E+00 -0.2600277533487E+00
 0.9658249900040E-01 -0.1175025670012E+00  0.0000000000000E+00 -0.2238314463185E+00
 0.6747437055359E-01 -0.8537664580817E-01  0.0000000000000E+00 -0.1816562050566E+00
 0.4367038176458E-01 -0.5854902235109E-01  0.0000000000000E+00 -0.1357783393098E+00
 0.2556022514574E-01 -0.3747472234178E-01  0.0000000000000E+00 -0.8881224603117E-01
 0.1312184178763E-01 -0.2220397043364E-01  0.0000000000000E+00 -0.4352262192603E-01
 0.5910537536203E-02 -0.1236807236975E-01  0.0000000000000E+00 -0.2589634083065E-02
 0.3088988673409E-02 -0.7203582503691E-02  0.0000000000000E+00  0.3165454066119E-01
 0.3507181757806E-02 -0.5624436421879E-02  0.0000000000000E+00  0.5749157221485E-01
 0.5838060081884E-02 -0.6348772639133E-02  0.0000000000000E+00  0.7404114355592E-01
 0.8762246490156E-02 -0.8076374450739E-02  0.0000000000000E+00  0.8137883918263E-01
 0.1117316747713E-01 -0.9691484880869E-02  0.0000000000000E+00  0.8047638473249E-01
 0.1234929851975E-01 -0.1043979990204E-01  0.0000000000000E+00  0.7292835084189E-01
 0.1203675131157E-01 -0.1002235510921E-01  0.0000000000000E+00  0.6051126829951E-01
 0.1043515889605E-01 -0.8587567651519E-02  0.0000000000000E+00  0.4473132028093E-01
 0.8104971659291E-02 -0.6692575659010E-02  0.0000000000000E+00  0.2624951475458E-01
 0.3083104657377E+00 -0.3458234996354E+00  0.0000000000000E+00 -0.3474578119466E+00
 0.2698890427655E+00 -0.3049959323954E+00  0.0000000000000E+00 -0.3445506519493E+00
 0.2276428152805E+00 -0.2595257778095E+00  0.0000000000000E+00 -0.3350237616687E+00
 0.1861463751982E+00 -0.2152378254435E+00  0.0000000000000E+00 -0.3189457330273E+00
 0.1467666192612E+00 -0.1729590432599E+00  0.0000000000000E+00 -0.2934048643461E+00
 0.1105717774532E+00 -0.1337579510397E+00  0.0000000000000E+00 -0.2587938856229E+00
 0.7872343229576E-01 -0.9880022105657E-01  0.0000000000000E+00 -0.2165682682734E+00
 0.5219291087782E-01 -0.6910560199552E-01  0.0000000000000E+00 -0.1689762652304E+00
 0.3163161672085E-01 -0.4538762360907E-01  0.0000000000000E+00 -0.1188067633932E+00
 0.1726843375293E-01 -0.2794960334693E-01  0.0000000000000E+00 -0.6917592185635E-01
 0.8853020909062E-02 -0.1662396379345E-01  0.0000000000000E+00 -0.2325877766659E-01
 0.5645688252092E-02 -0.1075770319134E-01  0.0000000000000E+00  0.1603005181681E-01
 0.6467718153003E-02 -0.9255226113625E-02  0.0000000000000E+00  0.4638697860520E-01
 0.9825866680367E-02 -0.1069218169941E-01  0.0000000000000E+00  0.6645286598143E-01
 0.1411693250591E-01 -0.1350778268662E-01  0.0000000000000E+00  0.7604524755170E-01
 0.1789343902048E-01 -0.1626082977712E-01  0.0000000000000E+00  0.7617670590471E-01
 0.2012944634712E-01 -0.1789427701635E-01  0.0000000000000E+00  0.6877000481283E-01
 0.2039587159200E-01 -0.1791801192652E-01  0.0000000000000E+00  0.5610957855194E-01
 0.1887272213251E-01 -0.1644061559963E-01  0.0000000000000E+00  0.4023228475373E-01
 0.1637003654486E-01 -0.1414356820994E-01  0.0000000000000E+00  0.2259259585607E-01
 0.3267130734700E+00 -0.3656073492516E+00  0.0000000000000E+00 -0.3627913805105E+00
 0.2907587222587E+00 -0.3276262123519E+00  0.0000000000000E+00 -0.3691485292627E+00
 0.2501041914361E+00 -0.2844804296633E+00  0.0000000000000E+00 -0.3643677335963E+00
 0.2079736967586E+00 -0.2395855752458E+00  0.0000000000000E+00 -0.3518194094684E+00
 0.1668459470683E+00 -0.1956083255411E+00  0.0000000000000E+00 -0.3300374028939E+00
 0.1282596080920E+00 -0.1540080668982E+00  0.0000000000000E+00 -0.2983888496905E+00
 0.9354801490318E-01 -0.1161330711379E+00  0.0000000000000E+00 -0.2577022150162E+00
 0.6391240569253E-01 -0.8321799127269E-01  0.0000000000000E+00 -0.2098620489535E+00
 0.4029058488889E-01 -0.5625789231973E-01  0.0000000000000E+00 -0.1575731293050E+00
 0.2322701615955E-01 -0.3586980576724E-01  0.0000000000000E+00 -0.1041190044159E+00
 0.1276480668085E-01 -0.2218305099868E-01  0.0000000000000E+00 -0.5307940206836E-01
 0.8381710238872E-02 -0.1477238008189E-01  0.0000000000000E+00 -0.7974688795300E-02
 0.8988788588694E-02 -0.1265127785783E-01  0.0000000000000E+00  0.2815790675508E-01
 0.1301639394614E-01 -0.1434765367909E-01  0.0000000000000E+00  0.5322046330563E-01
 0.1861059056098E-01 -0.1808435710353E-01  0.0000000000000E+00  0.6645754619356E-01
 0.2394207080522E-01 -0.2206965142120E-01  0.0000000000000E+00  0.6865737684690E-01
 0.2757492547804E-01 -0.2485313545349E-01  0.0000000000000E+00  0.6197298819853E-01
 0.2876540666175E-01 -0.2562890880952E-01  0.0000000000000E+00  0.4929669212897E-01
 0.2756093670040E-01 -0.2434709032763E-01  0.0000000000000E+00  0.3343356466490E-01
 0.2464600150800E-01 -0.2159684212934E-01  0.0000000000000E+00  0.1664342128099E-01
 0.3467172252835E+00 -0.3871739998147E+00  0.0000000000000E+00 -0.3739909917844E+00
 0.3124352386689E+00 -0.3512550697824E+00  0.0000000000000E+00 -0.3890479539728E+00
 0.2735950040795E+00 -0.3102962090858E+00  0.0000000000000E+00 -0.3918379849382E+00
 0.2321210718529E+00 -0.2663798417454E+00  0.0000000000000E+00 -0.3850959329992E+00
 0.1902227000750E+00 -0.2217643292713E+00  0.0000000000000E+00 -0.3684871792528E+00
 0.1497634244669E+00 -0.1783603307882E+00  0.0000000000000E+00 -0.3413999706924E+00
 0.1123460045648E+00 -0.1377769158353E+00  0.0000000000000E+00 -0.3040604782736E+00
 0.7942193877270E-01 -0.1014983277464E+00  0.0000000000000E+00 -0.2578038439226E+00
 0.5223847028151E-01 -0.7082177673143E-01  0.0000000000000E+00 -0.2049756246208E+00
 0.3170657126780E-01 -0.4672690201822E-01  0.0000000000000E+00 -0.1487669645990E+00
 0.1825832703661E-01 -0.2973164580655E-01  0.0000000000000E+00 -0.9296707950825E-01
 0.1172437779065E-01 -0.1976942633734E-01  0.0000000000000E+00 -0.4161754638368E-01
 0.1126181178799E-01 -0.1611494029823E-01  0.0000000000000E+00  0.1445493882064E-02
 0.1536826126577E-01 -0.1739141473339E-01  0.0000000000000E+00  0.3314920059091E-01
 0.2202601206612E-01 -0.2169934593474E-01  0.0000000000000E+00  0.5178108020748E-01
 0.2901304400549E-01 -0.2690221287062E-01  0.0000000000000E+00  0.5747327692741E-01
 0.3436392060509E-01 -0.3105935296386E-01  0.0000000000000E+00  0.5230592652237E-01
 0.3684487340678E-01 -0.3288781643960E-01  0.0000000000000E+00  0.3975874868055E-01
 0.3618911107811E-01 -0.3202183982879E-01  0.0000000000000E+00  0.2359026544220E-01
 0.3293495936508E-01 -0.2888930982533E-01  0.0000000000000E+00  0.6821475368583E-02
 0.3680415869318E+00 -0.4101532299638E+00  0.0000000000000E+00 -0.3814630421652E+00
 0.3354778807439E+00 -0.3762968211730E+00  0.0000000000000E+00 -0.4042783869672E+00
 0.2986121879739E+00 -0.3376908185211E+00  0.0000000000000E+00 -0.4152713683414E+00
 0.2584880947351E+00 -0.2954480247493E+00  0.0000000000000E+00 -0.4160895466208E+00
 0.2167975248155E+00 -0.2512969105605E+00  0.0000000000000E+00 -0.4065103533801E+00
 0.1752947959338E+00 -0.2070112340547E+00  0.0000000000000E+00 -0.3859058893194E+00
 0.1356887168498E+00 -0.1643220916868E+00  0.0000000000000E+00 -0.3540872738754E+00
 0.9961969507869E-01 -0.1248952059327E+00  0.0000000000000E+00 -0.3117557988102E+00
 0.6860794717080E-01 -0.9029371605124E-01  0.0000000000000E+00 -0.2606618219917E+00
 0.4393572563720E-01 -0.6186102545781E-01  0.0000000000000E+00 -0.2035872905176E+00
 0.2648760346417E-01 -0.4056289736782E-01  0.0000000000000E+00 -0.1442113188901E+00
 0.1658009695664E-01 -0.2681856121029E-01  0.0000000000000E+00 -0.8684677697431E-01
 0.1381169820971E-01 -0.2035225501729E-01  0.0000000000000E+00 -0.3602556807488E-01
 0.1697490445254E-01 -0.2010397802378E-01  0.0000000000000E+00  0.4085844409513E-02
 0.2408959433200E-01 -0.2425357893190E-01  0.0000000000000E+00  0.3042848660866E-01
 0.3263486200954E-01 -0.3042788114720E-01  0.0000000000000E+00  0.4185427298467E-01
 0.4003794479316E-01 -0.3614674607322E-01  0.0000000000000E+00  0.3971266655248E-01
 0.4434493145251E-01 -0.3945155300478E-01  0.0000000000000E+00  0.2772003002043E-01
 0.4475207004442E-01 -0.3943466413920E-01  0.0000000000000E+00  0.1073289400050E-01
 0.4157566533002E-01 -0.3627897431908E-01  0.0000000000000E+00 -0.7073792796529E-02
 0.3904160338627E+00 -0.4342048443802E+00  0.0000000000000E+00 -0.3851225533389E+00
 0.3598322620469E+00 -0.4026653579497E+00  0.0000000000000E+00 -0.4144587749267E+00
 0.3252240404849E+00 -0.3666880363950E+00  0.0000000000000E+00 -0.4334132864239E+00
 0.2870311039358E+00 -0.3267403111421E+00  0.0000000000000E+00 -0.4425586537078E+00
 0.2464164711475E+00 -0.2839898468781E+00  0.0000000000000E+00 -0.4414286434914E+00
 0.2048336676525E+00 -0.2398925367687E+00  0.0000000000000E+00 -0.4291796911445E+00
 0.1638760725123E+00 -0.1960461814728E+00  0.0000000000000E+00 -0.4051926324705E+00
 0.1252119615163E+00 -0.1541335105830E+00  0.0000000000000E+00 -0.3695069059291E+00
 0.9051656025157E-01 -0.1158578708063E+00  0.0000000000000E+00 -0.3230979473469E+00
 0.6136512215049E-01 -0.8284146150630E-01  0.0000000000000E+00 -0.2680214761818E+00
 0.3907794444822E-01 -0.5647293121118E-01  0.0000000000000E+00 -0.2074356608878E+00
 0.2452724914017E-01 -0.3771751520877E-01  0.0000000000000E+00 -0.1454917822937E+00
 0.1792647615675E-01 -0.2691051782515E-01  0.0000000000000E+00 -0.8705926033918E-01
 0.1863541489299E-01 -0.2356700157392E-01  0.0000000000000E+00 -0.3723910969558E-01
 0.2503893868108E-01 -0.2626162868881E-01  0.0000000000000E+00 -0.6199934763318E-03
 0.3459705072339E-01 -0.3266679685406E-01  0.0000000000000E+00  0.1973137434138E-01
 0.4420972860836E-01 -0.3987549967926E-01  0.0000000000000E+00  0.2340626498152E-01
 0.5099506651084E-01 -0.4510201186358E-01  0.0000000000000E+00  0.1338374250934E-01
 0.5324603390518E-01 -0.4657476367898E-01  0.0000000000000E+00 -0.4618981046157E-02
 0.5088100586191E-01 -0.4401976848503E-01  0.0000000000000E+00 -0.2457404234799E-01
 0.4135278071216E+00 -0.4589937243879E+00  0.0000000000000E+00 -0.3847877215852E+00
 0.3852804148714E+00 -0.4301154442605E+00  0.0000000000000E+00 -0.4192866710547E+00
 0.3532830589148E+00 -0.3971220716564E+00  0.0000000000000E+00 -0.4453707901367E+00
 0.3175782047753E+00 -0.3600520353662E+00  0.0000000000000E+00 -0.4627978357752E+00
 0.2788647183812E+00 -0.3195878601810E+00  0.0000000000000E+00 -0.4707792057339E+00
 0.2382201090416E+00 -0.2767872335096E+00  0.0000000000000E+00 -0.4682116307673E+00
 0.1969750585648E+00 -0.2329647767049E+00  0.0000000000000E+00 -0.4540573733945E+00
 0.1566512103960E+00 -0.1896343785932E+00  0.0000000000000E+00 -0.4277050733161E+00
 0.1189057480126E+00 -0.1484589217064E+00  0.0000000000000E+00 -0.3892750148182E+00
 0.8544904463845E-01 -0.1111720026156E+00  0.0000000000000E+00 -0.3398610932289E+00
 0.5791779539611E-01 -0.7945527734059E-01  0.0000000000000E+00 -0.2816991937388E+00
 0.3769626314105E-01 -0.5476399818655E-01  0.0000000000000E+00 -0.2182396081196E+00
 0.2568736967125E-01 -0.3810394162182E-01  0.0000000000000E+00 -0.1540839194569E+00
 0.2204654320397E-01 -0.2977363459258E-01  0.0000000000000E+00 -0.9472410066895E-01
 0.2591216485401E-01 -0.2910545322861E-01  0.0000000000000E+00 -0.4599589103786E-01
 0.3521006609435E-01 -0.3427817590724E-01  0.0000000000000E+00 -0.1313669040048E-01
 0.4669676110018E-01 -0.4234732147226E-01  0.0000000000000E+00  0.6391873329297E-03
 0.5654124464845E-01 -0.4974759189155E-01  0.0000000000000E+00 -0.4117836306893E-02
 0.6162590815956E-01 -0.5344198162568E-01  0.0000000000000E+00 -0.2213638054227E-01
 0.6088688984486E-01 -0.5217400414132E-01  0.0000000000000E+00 -0.4520586355573E-01
 0.4370299713016E+00 -0.4841502207515E+00  0.0000000000000E+00 -0.3802475760780E+00
 0.4114793129242E+00 -0.4582795729065E+00  0.0000000000000E+00 -0.4184851082195E+00
 0.3824651971713E+00 -0.4286372325118E+00  0.0000000000000E+00 -0.4504645673609E+00
 0.3497829381470E+00 -0.3949956373430E+00  0.0000000000000E+00 -0.4754344429327E+00
 0.3137602311883E+00 -0.3576510162595E+00  0.0000000000000E+00 -0.4923726688848E+00
 0.2750997923610E+00 -0.3172698474162E+00  0.0000000000000E+00 -0.4999933401331E+00
 0.2347955681025E+00 -0.2748098041174E+00  0.0000000000000E+00 -0.4969529415501E+00
 0.1940925000559E+00 -0.2314842172639E+00  0.0000000000000E+00 -0.4821087067776E+00
 0.1544567664544E+00 -0.1887367281402E+00  0.0000000000000E+00 -0.4547878177666E+00
 0.1175313397103E+00 -0.1482015955878E+00  0.0000000000000E+00 -0.4150532961128E+00
 0.8505762764837E-01 -0.1116301798138E+00  0.0000000000000E+00 -0.3639550869300E+00
 0.5874777250518E-01 -0.8076874539331E-01  0.0000000000000E+00 -0.3037477997913E+00
 0.4009452106286E-01 -0.5717530701773E-01  0.0000000000000E+00 -0.2380422398739E+00
 0.3010853170917E-01 -0.4196711283439E-01  0.0000000000000E+00 -0.1718351759933E+00
 0.2898055093748E-01 -0.3549867017145E-01  0.0000000000000E+00 -0.1113253510234E+00
 0.3568932836575E-01 -0.3699305651040E-01  0.0000000000000E+00 -0.6336409348393E-01
 0.4764110205537E-01 -0.4420953766254E-01  0.0000000000000E+00 -0.3429963557501E-01
 0.6061911641634E-01 -0.5338940045924E-01  0.0000000000000E+00 -0.2787376224957E-01
 0.6976122659366E-01 -0.6005817359953E-01  0.0000000000000E+00 -0.4222493806696E-01
 0.7189590310114E-01 -0.6104748342748E-01  0.0000000000000E+00 -0.6854705714533E-01
 0.4605504524716E+00 -0.5092822577475E+00  0.0000000000000E+00 -0.3713425839879E+00
 0.4380079328818E+00 -0.4867112576096E+00  0.0000000000000E+00 -0.4118819933781E+00
 0.4123118126459E+00 -0.4607404561147E+00  0.0000000000000E+00 -0.4482586731251E+00
 0.3831219032505E+00 -0.4309976203041E+00  0.0000000000000E+00 -0.4794827764499E+00
 0.3504964824988E+00 -0.3975024267658E+00  0.0000000000000E+00 -0.5044427996949E+00
 0.3148150708147E+00 -0.3605890461645E+00  0.0000000000000E+00 -0.5218111368470E+00
 0.2767310567746E+00 -0.3208613582513E+00  0.0000000000000E+00 -0.5301227858321E+00
 0.2371527317365E+00 -0.2791769855082E+00  0.0000000000000E+00 -0.5279281185266E+00
 0.1972368262865E+00 -0.2366442372897E+00  0.0000000000000E+00 -0.5139859748983E+00
 0.1583786514544E+00 -0.1946161149766E+00  0.0000000000000E+00 -0.4874870223320E+00
 0.1221841583868E+00 -0.1546669497381E+00  0.0000000000000E+00 -0.4483036350568E+00
 0.9040894160523E-01 -0.1185369459487E+00  0.0000000000000E+00 -0.3972611401071E+00
 0.6484708970825E-01 -0.8802826333208E-01  0.0000000000000E+00 -0.3364182406303E+00
 0.4714849711438E-01 -0.6483273316141E-01  0.0000000000000E+00 -0.2693301590512E+00
 0.3853706739870E-01 -0.5026661042389E-01  0.0000000000000E+00 -0.2012411157314E+00
 0.3939553655896E-01 -0.4488417491080E-01  0.0000000000000E+00 -0.1390995929458E+00
 0.4868875999784E-01 -0.4795077747617E-01  0.0000000000000E+00 -0.9117563749446E-01
 0.6324416542645E-01 -0.5681299420603E-01  0.0000000000000E+00 -0.6581295193946E-01
 0.7732201696771E-01 -0.6652592395633E-01  0.0000000000000E+00 -0.6819744418047E-01
 0.8443608397478E-01 -0.7120163877514E-01  0.0000000000000E+00 -0.9442393535896E-01
 0.4837093799511E+00 -0.5339926476019E+00  0.0000000000000E+00 -0.3580090761839E+00
 0.4644095205693E+00 -0.5149328956908E+00  0.0000000000000E+00 -0.3994637812668E+00
 0.4422890926454E+00 -0.4928684096913E+00  0.0000000000000E+00 -0.4386195309359E+00
 0.4169531641780E+00 -0.4673712165247E+00  0.0000000000000E+00 -0.4744411275107E+00
 0.3882879624993E+00 -0.4382885527059E+00  0.0000000000000E+00 -0.5058563984660E+00
 0.3564290279550E+00 -0.4057095460422E+00  0.0000000000000E+00 -0.5316304013007E+00
 0.3217392311496E+00 -0.3699436471735E+00  0.0000000000000E+00 -0.5503636436199E+00
 0.2848038063598E+00 -0.3315167162365E+00  0.0000000000000E+00 -0.5605580047830E+00
 0.2464369903430E+00 -0.2911790468984E+00  0.0000000000000E+00 -0.5607261745157E+00
 0.2076923454024E+00 -0.2499174896174E+00  0.0000000000000E+00 -0.5495380374631E+00
 0.1698682992366E+00 -0.2089633551729E+00  0.0000000000000E+00 -0.5260055995497E+00
 0.1344994135892E+00 -0.1697869105433E+00  0.0000000000000E+00 -0.4897116278404E+00
 0.1033213056310E+00 -0.1340669139442E+00  0.0000000000000E+00 -0.4410881613033E+00
 0.7819192070486E-01 -0.1036189650360E+00  0.0000000000000E+00 -0.3817495748195E+00
 0.6094191560655E-01 -0.8025779623648E-01  0.0000000000000E+00 -0.3148791115005E+00
 0.5310891416886E-01 -0.6555325145527E-01  0.0000000000000E+00 -0.2456517700947E+00
 0.5547342541793E-01 -0.6041172222691E-01  0.0000000000000E+00 -0.1816322520657E+00
 0.6725864778779E-01 -0.6436993095278E-01  0.0000000000000E+00 -0.1329492679358E+00
 0.8464939033583E-01 -0.7440191597565E-01  0.0000000000000E+00 -0.1115888326338E+00
 0.9908877024678E-01 -0.8358710854300E-01  0.0000000000000E+00 -0.1263585608691E+00
 0.5061403710129E+00 -0.5579009927457E+00  0.0000000000000E+00 -0.3402765956768E+00
 0.4902364465435E+00 -0.5424796072191E+00  0.0000000000000E+00 -0.3813793989315E+00
 0.4718526631586E+00 -0.5244532801827E+00  0.0000000000000E+00 -0.4217161736832E+00
 0.4505975934911E+00 -0.5034009677485E+00  0.0000000000000E+00 -0.4603163180249E+00
 0.4262668497425E+00 -0.4790835689906E+00  0.0000000000000E+00 -0.4962266060956E+00
 0.3988354506293E+00 -0.4514347556805E+00  0.0000000000000E+00 -0.5283860390187E+00
 0.3684524119022E+00 -0.4205546862424E+00  0.0000000000000E+00 -0.5555844988241E+00
 0.3354440998646E+00 -0.3867129121674E+00  0.0000000000000E+00 -0.5764733863701E+00
 0.3003262979140E+00 -0.3503600978623E+00  0.0000000000000E+00 -0.5896114064947E+00
 0.2638221090101E+00 -0.3121455657173E+00  0.0000000000000E+00 -0.5935399688699E+00
 0.2268819115432E+00 -0.2729368681549E+00  0.0000000000000E+00 -0.5868897518115E+00
 0.1907009093813E+00 -0.2338369498727E+00  0.0000000000000E+00 -0.5685249271521E+00
 0.1567285279076E+00 -0.1961932431591E+00  0.0000000000000E+00 -0.5377360525264E+00
 0.1266611293454E+00 -0.1615904118946E+00  0.0000000000000E+00 -0.4944980432597E+00
 0.1024038072315E+00 -0.1318130714168E+00  0.0000000000000E+00 -0.4398174762689E+00
 0.8597453351680E-01 -0.1087535759084E+00  0.0000000000000E+00 -0.3762062119542E+00
 0.7929795278518E-01 -0.9421558372643E-01  0.0000000000000E+00 -0.3083411548592E+00
 0.8375701415450E-01 -0.8950300082309E-01  0.0000000000000E+00 -0.2440131331124E+00
 0.9921684703304E-01 -0.9452090805655E-01  0.0000000000000E+00 -0.1955702165925E+00
 0.1206308909720E+00 -0.1052601412294E+00  0.0000000000000E+00 -0.1821670785138E+00
 0.5274922048768E+00 -0.5806455063243E+00  0.0000000000000E+00 -0.3182492200937E+00
 0.5150498356190E+00 -0.5689045842299E+00  0.0000000000000E+00 -0.3579051071403E+00
 0.5004624602465E+00 -0.5549492889475E+00  0.0000000000000E+00 -0.3979594118677E+00
 0.4833802367195E+00 -0.5384044641693E+00  0.0000000000000E+00 -0.4375569519896E+00
 0.4635659489688E+00 -0.5190045433867E+00  0.0000000000000E+00 -0.4758914772782E+00
 0.4409031550214E+00 -0.4965996832521E+00  0.0000000000000E+00 -0.5120939661963E+00
 0.4154013599597E+00 -0.4711596542406E+00  0.0000000000000E+00 -0.5451789325571E+00
 0.3872049906106E+00 -0.4427817282501E+00  0.0000000000000E+00 -0.5740280345096E+00
 0.3566083212070E+00 -0.4117044767185E+00  0.0000000000000E+00 -0.5973995742031E+00
 0.3240762990192E+00 -0.3783272259050E+00  0.0000000000000E+00 -0.6139590354655E+00
 0.2902703506529E+00 -0.3432340770432E+00  0.0000000000000E+00 -0.6223306450172E+00
 0.2560779898400E+00 -0.3072211095881E+00  0.0000000000000E+00 -0.6211738367555E+00
 0.2226449249107E+00 -0.2713251755904E+00  0.0000000000000E+00 -0.6092925214804E+00
 0.1914081198067E+00 -0.2368522731879E+00  0.0000000000000E+00 -0.5857905119105E+00
 0.1641275519126E+00 -0.2054024895585E+00  0.0000000000000E+00 -0.5502953613044E+00
 0.1429130317617E+00 -0.1788862763719E+00  0.0000000000000E+00 -0.5032894434700E+00
 0.1302379976317E+00 -0.1595217741372E+00  0.0000000000000E+00 -0.4466210528118E+00
 0.1289308687435E+00 -0.1497914229737E+00  0.0000000000000E+00 -0.3843524114304E+00
 0.1420832859545E+00 -0.1523027416395E+00  0.0000000000000E+00 -0.3243201387679E+00
 0.1731211285037E+00 -0.1693982703829E+00  0.0000000000000E+00 -0.2821273641766E+00
 0.5474206575612E+00 -0.6018694184463E+00  0.0000000000000E+00 -0.2920809273418E+00
 0.5383960858404E+00 -0.5937472095343E+00  0.0000000000000E+00 -0.3293459357255E+00
 0.5275523682653E+00 -0.5837879032545E+00  0.0000000000000E+00 -0.3678147214007E+00
 0.5145977338550E+00 -0.5716795273047E+00  0.0000000000000E+00 -0.4067661100055E+00
 0.4992972240075E+00 -0.5571655122857E+00  0.0000000000000E+00 -0.4455358288322E+00
 0.4814901306161E+00 -0.5400602577208E+00  0.0000000000000E+00 -0.4834244627576E+00
 0.4611014503326E+00 -0.5202592428532E+00  0.0000000000000E+00 -0.5196438702087E+00
 0.4381542654937E+00 -0.4977502501385E+00  0.0000000000000E+00 -0.5532893872453E+00
 0.4127861964368E+00 -0.4726286052448E+00  0.0000000000000E+00 -0.5833301507340E+00
 0.3852713329595E+00 -0.4451176668616E+00  0.0000000000000E+00 -0.6086136761632E+00
 0.3560484214503E+00 -0.4155951608940E+00  0.0000000000000E+00 -0.6278836882600E+00
 0.3257561088861E+00 -0.3846259337396E+00  0.0000000000000E+00 -0.6398125641022E+00
 0.2952765768986E+00 -0.3530021213007E+00  0.0000000000000E+00 -0.6430520477323E+00
 0.2657900067077E+00 -0.3217926253019E+00  0.0000000000000E+00 -0.6363087176896E+00
 0.2388444330225E+00 -0.2924054467145E+00  0.0000000000000E+00 -0.6184548926402E+00
 0.2164495452439E+00 -0.2666696341872E+00  0.0000000000000E+00 -0.5886925600111E+00
 0.2012127162123E+00 -0.2469505289310E+00  0.0000000000000E+00 -0.5468003260363E+00
 0.1965560810080E+00 -0.2363299151370E+00  0.0000000000000E+00 -0.4935110107607E+00
 0.2071466674184E+00 -0.2389363252212E+00  0.0000000000000E+00 -0.4311157685997E+00
 0.2399830516171E+00 -0.2608259133125E+00  0.0000000000000E+00 -0.3639513099205E+00
 0.5656049357015E+00 -0.6212356348511E+00  0.0000000000000E+00 -0.2619962376883E+00
 0.5598404047551E+00 -0.6165565876918E+00  0.0000000000000E+00 -0.2960355776360E+00
 0.5525679408364E+00 -0.6103979509964E+00  0.0000000000000E+00 -0.3317583438226E+00
 0.5435558318513E+00 -0.6025134512546E+00  0.0000000000000E+00 -0.3685782766601E+00
 0.5325893718996E+00 -0.5926735430236E+00  0.0000000000000E+00 -0.4059573296986E+00
 0.5194916505869E+00 -0.5806846813992E+00  0.0000000000000E+00 -0.4433335495585E+00
 0.5041374618781E+00 -0.5664020774312E+00  0.0000000000000E+00 -0.4800720518174E+00
 0.4864663982226E+00 -0.5497417721370E+00  0.0000000000000E+00 -0.5154321524881E+00
 0.4664983835127E+00 -0.5306951277278E+00  0.0000000000000E+00 -0.5485456559511E+00
 0.4443535481463E+00 -0.5093475061890E+00  0.0000000000000E+00 -0.5784031068023E+00
 0.4202778341301E+00 -0.4859023925238E+00  0.0000000000000E+00 -0.6038462115980E+00
 0.3946757550141E+00 -0.4607122290252E+00  0.0000000000000E+00 -0.6235656052017E+00
 0.3681522472986E+00 -0.4343176777333E+00  0.0000000000000E+00 -0.6361037096943E+00
 0.3415666480443E+00 -0.4074980038497E+00  0.0000000000000E+00 -0.6398625698194E+00
 0.3161038240963E+00 -0.3813370648281E+00  0.0000000000000E+00 -0.6331159794897E+00
 0.2933711836500E+00 -0.3573126376651E+00  0.0000000000000E+00 -0.6140231171367E+00
 0.2755366591048E+00 -0.3374229385814E+00  0.0000000000000E+00 -0.5806338725462E+00
 0.2655363646999E+00 -0.3243755715678E+00  0.0000000000000E+00 -0.5308562841568E+00
 0.2673972882933E+00 -0.3218908953848E+00  0.0000000000000E+00 -0.4622576058007E+00
 0.2866036013032E+00 -0.3351250479785E+00  0.0000000000000E+00 -0.3713816010500E+00
 0.5817553612907E+00 -0.6384372244432E+00  0.0000000000000E+00 -0.2283110394640E+00
 0.5789882770578E+00 -0.6369189508092E+00  0.0000000000000E+00 -0.2583895348018E+00
 0.5750020906607E+00 -0.6342503983323E+00  0.0000000000000E+00 -0.2903499479093E+00
 0.5696193501136E+00 -0.6302453855343E+00  0.0000000000000E+00 -0.3237323609487E+00
 0.5626524620351E+00 -0.6247080925681E+00  0.0000000000000E+00 -0.3581096911589E+00
 0.5539236160197E+00 -0.6174519124595E+00  0.0000000000000E+00 -0.3930327582225E+00
 0.5432782124247E+00 -0.6083120117612E+00  0.0000000000000E+00 -0.4279875426150E+00
 0.5305964520251E+00 -0.5971561528122E+00  0.0000000000000E+00 -0.4623611760687E+00
 0.5158058915034E+00 -0.5838964904011E+00  0.0000000000000E+00 -0.4954134481017E+00
 0.4988967569127E+00 -0.5685040594323E+00  0.0000000000000E+00 -0.5262512231472E+00
 0.4799413300357E+00 -0.5510271988618E+00  0.0000000000000E+00 -0.5538036342900E+00
 0.4591185969072E+00 -0.5316150326760E+00  0.0000000000000E+00 -0.5767960574863E+00
 0.4367454885958E+00 -0.5105472648715E+00  0.0000000000000E+00 -0.5937205127553E+00
 0.4133164288219E+00 -0.4882719284289E+00  0.0000000000000E+00 -0.6027990255058E+00
 0.3895535590123E+00 -0.4654533878019E+00  0.0000000000000E+00 -0.6019341143684E+00
 0.3664708236919E+00 -0.4430338500869E+00  0.0000000000000E+00 -0.5886358803005E+00
 0.3454557498695E+00 -0.4223125400519E+00  0.0000000000000E+00 -0.5599065193713E+00
 0.3283697845155E+00 -0.4050461162624E+00  0.0000000000000E+00 -0.5120454377413E+00
 0.3176449555493E+00 -0.3935578307358E+00  0.0000000000000E+00 -0.4403252912829E+00
 0.3163413949102E+00 -0.3908037962931E+00  0.0000000000000E+00 -0.3385705907141E+00
 0.5956169217529E+00 -0.6532027651338E+00  0.0000000000000E+00 -0.1914279334570E+00
 0.5954926441848E+00 -0.6544681653173E+00  0.0000000000000E+00 -0.2169127260147E+00
 0.5944070411342E+00 -0.6548752928714E+00  0.0000000000000E+00 -0.2442441924180E+00
 0.5922276492014E+00 -0.6542884907211E+00  0.0000000000000E+00 -0.2730747488209E+00
 0.5887938333349E+00 -0.6525450640375E+00  0.0000000000000E+00 -0.3030749008366E+00
 0.5839336376466E+00 -0.6494714402273E+00  0.0000000000000E+00 -0.3338918286941E+00
 0.5774748727756E+00 -0.6448936919456E+00  0.0000000000000E+00 -0.3651135318353E+00
 0.5692537348852E+00 -0.6386456729083E+00  0.0000000000000E+00 -0.3962366822780E+00
 0.5591231074196E+00 -0.6305768758942E+00  0.0000000000000E+00 -0.4266360730245E+00
 0.5469619530803E+00 -0.6205613872228E+00  0.0000000000000E+00 -0.4555336277085E+00
 0.5326867488416E+00 -0.6085088700221E+00  0.0000000000000E+00 -0.4819650074436E+00
 0.5162656324164E+00 -0.5943782418694E+00  0.0000000000000E+00 -0.5047417323152E+00
 0.4977357110243E+00 -0.5781945252089E+00  0.0000000000000E+00 -0.5224062904564E+00
 0.4772237280787E+00 -0.5600691471433E+00  0.0000000000000E+00 -0.5331767716202E+00
 0.4549698254123E+00 -0.5402236190908E+00  0.0000000000000E+00 -0.5348759045016E+00
 0.4313532030938E+00 -0.5190157773371E+00  0.0000000000000E+00 -0.5248368335748E+00
 0.4069163647285E+00 -0.4969661174477E+00  0.0000000000000E+00 -0.4997746349659E+00
 0.3823802303161E+00 -0.4747777729923E+00  0.0000000000000E+00 -0.4556124695490E+00
 0.3586410754938E+00 -0.4533389804696E+00  0.0000000000000E+00 -0.3872683418548E+00
 0.3367409164468E+00 -0.4337030098118E+00  0.0000000000000E+00 -0.2884137094687E+00
 0.6069724692399E+00 -0.6653004548496E+00  0.0000000000000E+00 -0.1518251786781E+00
 0.6090584101158E+00 -0.6688918552997E+00  0.0000000000000E+00 -0.1721919691917E+00
 0.6104011078946E+00 -0.6718707612013E+00  0.0000000000000E+00 -0.1941833292166E+00
 0.6109030381195E+00 -0.6741412618855E+00  0.0000000000000E+00 -0.2175482574596E+00
 0.6104265413283E+00 -0.6755690092229E+00  0.0000000000000E+00 -0.2420433011036E+00
 0.6088070649034E+00 -0.6759940434660E+00  0.0000000000000E+00 -0.2674016657067E+00
 0.6058611286281E+00 -0.6752384521586E+00  0.0000000000000E+00 -0.2933045021417E+00
 0.6013913435975E+00 -0.6731111657452E+00  0.0000000000000E+00 -0.3193530528540E+00
 0.5951900447247E+00 -0.6694114319867E+00  0.0000000000000E+00 -0.3450401844447E+00
 0.5870425345867E+00 -0.6639319582283E+00  0.0000000000000E+00 -0.3697198163583E+00
 0.5767305266104E+00 -0.6564623134717E+00  0.0000000000000E+00 -0.3925727675689E+00
 0.5640360370514E+00 -0.6467928641971E+00  0.0000000000000E+00 -0.4125675193959E+00
 0.5487456179383E+00 -0.6347191934226E+00  0.0000000000000E+00 -0.4284143040541E+00
 0.5306543401168E+00 -0.6200465240521E+00  0.0000000000000E+00 -0.4385107761644E+00
 0.5095681966309E+00 -0.6025930098170E+00  0.0000000000000E+00 -0.4408773825963E+00
 0.4853024366529E+00 -0.5821897209712E+00  0.0000000000000E+00 -0.4330806318649E+00
 0.4576717239136E+00 -0.5586735988648E+00  0.0000000000000E+00 -0.4121434973888E+00
 0.4264669828852E+00 -0.5318682236599E+00  0.0000000000000E+00 -0.3744448709908E+00
 0.3914157844685E+00 -0.5015487044292E+00  0.0000000000000E+00 -0.3156072413715E+00
 0.3521271303793E+00 -0.4673906588197E+00  0.0000000000000E+00 -0.2303809751698E+00
 0.6156454481328E+00 -0.6745413660558E+00  0.0000000000000E+00 -0.1100432234015E+00
 0.6194457499506E+00 -0.6799355990862E+00  0.0000000000000E+00 -0.1248820625242E+00
 0.6226734807626E+00 -0.6849089613987E+00  0.0000000000000E+00 -0.1409812615702E+00
 0.6252565390721E+00 -0.6893947435562E+00  0.0000000000000E+00 -0.1581721213505E+00
 0.6270746969388E+00 -0.6932802959520E+00  0.0000000000000E+00 -0.1762878011420E+00
 0.6279697517713E+00 -0.6964169408902E+00  0.0000000000000E+00 -0.1951413136678E+00
 0.6277504971825E+00 -0.6986248261546E+00  0.0000000000000E+00 -0.2145043211016E+00
 0.6261943077051E+00 -0.6996944878258E+00  0.0000000000000E+00 -0.2340855879160E+00
 0.6230464954525E+00 -0.6993862710346E+00  0.0000000000000E+00 -0.2535080268841E+00
 0.6180181356447E+00 -0.6974283033405E+00  0.0000000000000E+00 -0.2722833356983E+00
 0.6107827139520E+00 -0.6935133813656E+00  0.0000000000000E+00 -0.2897833007494E+00
 0.6009716653202E+00 -0.6872948602870E+00  0.0000000000000E+00 -0.3052069855941E+00
 0.5881685913896E+00 -0.6783813705739E+00  0.0000000000000E+00 -0.3175432807851E+00
 0.5719016057933E+00 -0.6663298713383E+00  0.0000000000000E+00 -0.3255287656404E+00
 0.5516328153790E+00 -0.6506361363680E+00  0.0000000000000E+00 -0.3276016750698E+00
 0.5267433925744E+00 -0.6307212320933E+00  0.0000000000000E+00 -0.3218542061278E+00
 0.4965121272779E+00 -0.6059119642429E+00  0.0000000000000E+00 -0.3059875113841E+00
 0.4600846975214E+00 -0.5754127418578E+00  0.0000000000000E+00 -0.2772753727985E+00
 0.4164280288128E+00 -0.5382645768469E+00  0.0000000000000E+00 -0.2325419578158E+00
 0.3642707343243E+00 -0.4932870941683E+00  0.0000000000000E+00 -0.1681341357727E+00
 0.6215021047431E+00 -0.6807820877353E+00  0.0000000000000E+00 -0.6667101584950E-01
 0.6264727400089E+00 -0.6874062028442E+00  0.0000000000000E+00 -0.7568991958860E-01
 0.6309879378717E+00 -0.6937406372567E+00  0.0000000000000E+00 -0.8550504110775E-01
 0.6349923320507E+00 -0.6997379824354E+00  0.0000000000000E+00 -0.9601927023146E-01
 0.6383772625717E+00 -0.7053000945081E+00  0.0000000000000E+00 -0.1071354282075E+00
 0.6409888860647E+00 -0.7102860674746E+00  0.0000000000000E+00 -0.1187427150349E+00
 0.6426309036294E+00 -0.7145149562285E+00  0.0000000000000E+00 -0.1307035954725E+00
 0.6430635085815E+00 -0.7177648349936E+00  0.0000000000000E+00 -0.1428401538393E+00
 0.6419995150117E+00 -0.7197691359176E+00  0.0000000000000E+00 -0.1549192327998E+00
 0.6390981960725E+00 -0.7202107924294E+00  0.0000000000000E+00 -0.1666357807902E+00
 0.6339570840421E+00 -0.7187144397755E+00  0.0000000000000E+00 -0.1775939416662E+00
 0.6261018032739E+00 -0.7148367458142E+00  0.0000000000000E+00 -0.1872856094395E+00
 0.6149738936922E+00 -0.7080548295515E+00  0.0000000000000E+00 -0.1950665140306E+00
 0.5999165272057E+00 -0.6977526619794E+00  0.0000000000000E+00 -0.2001304943269E+00
 0.5801580344671E+00 -0.6832053406186E+00  0.0000000000000E+00 -0.2014835653395E+00
 0.5547932792764E+00 -0.6635612175110E+00  0.0000000000000E+00 -0.1979207889562E+00
 0.5227631213152E+00 -0.6378220514238E+00  0.0000000000000E+00 -0.1880108452819E+00
 0.4828321514500E+00 -0.6048214061486E+00  0.0000000000000E+00 -0.1700959787720E+00
 0.4335644436485E+00 -0.5632009447416E+00  0.0000000000000E+00 -0.1423212093339E+00
 0.3732768371023E+00 -0.5113752931945E+00  0.0000000000000E+00 -0.1027164194290E+00
 0.6244528930173E+00 -0.6839265116019E+00  0.0000000000000E+00 -0.2233171980989E-01
 0.6300171102603E+00 -0.6911739902111E+00  0.0000000000000E+00 -0.2535713928251E-01
 0.6351853912253E+00 -0.6981983691981E+00  0.0000000000000E+00 -0.2865475564224E-01
 0.6399108486897E+00 -0.7049619650268E+00  0.0000000000000E+00 -0.3219284766996E-01
 0.6440905867529E+00 -0.7113738900891E+00  0.0000000000000E+00 -0.3593955468775E-01
 0.6475729532318E+00 -0.7172971677569E+00  0.0000000000000E+00 -0.3985821411398E-01
 0.6501590843320E+00 -0.7225503258445E+00  0.0000000000000E+00 -0.4390290882236E-01
 0.6516004316540E+00 -0.7269050980916E+00  0.0000000000000E+00 -0.4801378758581E-01
 0.6515931596355E+00 -0.7300811025665E+00  0.0000000000000E+00 -0.5211191897451E-01
 0.6497698763935E+00 -0.7317379514351E+00  0.0000000000000E+00 -0.5609348973337E-01
 0.6456889243511E+00 -0.7314650119121E+00  0.0000000000000E+00 -0.5982320964356E-01
 0.6388213512015E+00 -0.7287689268027E+00  0.0000000000000E+00 -0.6312686986903E-01
 0.6285356942063E+00 -0.7230590014575E+00  0.0000000000000E+00 -0.6578315328310E-01
 0.6140808571168E+00 -0.7136306850178E+00  0.0000000000000E+00 -0.6751505000783E-01
 0.5945676716946E+00 -0.6996476477634E+00  0.0000000000000E+00 -0.6798162520787E-01
 0.5689502517426E+00 -0.6801234188486E+00  0.0000000000000E+00 -0.6677144160438E-01
 0.5360090253797E+00 -0.6539042422930E+00  0.0000000000000E+00 -0.6339975083453E-01
 0.4943386237365E+00 -0.6196559001062E+00  0.0000000000000E+00 -0.5731321344658E-01
 0.4423461504277E+00 -0.5758592644866E+00  0.0000000000000E+00 -0.4790902418163E-01
 0.3782785456362E+00 -0.5208265740309E+00  0.0000000000000E+00 -0.3460989284639E-01
 0.6244528930476E+00 -0.6839265116335E+00  0.0000000000000E+00  0.2233171933753E-01
 0.6300171103244E+00 -0.6911739902775E+00  0.0000000000000E+00  0.2535713795754E-01
 0.6351853913291E+00 -0.6981983693058E+00  0.0000000000000E+00  0.2865475335111E-01
 0.6399108488399E+00 -0.7049619651832E+00  0.0000000000000E+00  0.3219284430320E-01
 0.6440905869569E+00 -0.7113738903021E+00  0.0000000000000E+00  0.3593955014148E-01
 0.6475729534974E+00 -0.7172971680351E+00  0.0000000000000E+00  0.3985820829195E-01
 0.6501590846672E+00 -0.7225503261972E+00  0.0000000000000E+00  0.4390290163907E-01
 0.6516004320667E+00 -0.7269050985277E+00  0.0000000000000E+00  0.4801377897093E-01
 0.6515931601326E+00 -0.7300811030944E+00  0.0000000000000E+00  0.5211190887892E-01
 0.6497698769803E+00 -0.7317379520620E+00  0.0000000000000E+00  0.5609347813708E-01
 0.6456889250303E+00 -0.7314650126427E+00  0.0000000000000E+00  0.5982319656632E-01
 0.6388213519715E+00 -0.7287689276381E+00  0.0000000000000E+00  0.6312685538335E-01
 0.6285356950600E+00 -0.7230590023934E+00  0.0000000000000E+00  0.6578313753077E-01
 0.6140808580393E+00 -0.7136306860430E+00  0.0000000000000E+00  0.6751503321968E-01
 0.5945676726611E+00 -0.6996476488572E+00  0.0000000000000E+00  0.6798160772716E-01
 0.5689502527159E+00 -0.6801234199787E+00  0.0000000000000E+00  0.6677142391387E-01
 0.5360090263083E+00 -0.6539042434131E+00  0.0000000000000E+00  0.6339973358552E-01
 0.4943386245533E+00 -0.6196559011548E+00  0.0000000000000E+00  0.5731319748846E-01
 0.4423461510506E+00 -0.5758592653872E+00  0.0000000000000E+00  0.4790901058750E-01
 0.3782785459766E+00 -0.5208265746974E+00  0.0000000000000E+00  0.3460988292279E-01
 0.6215021048339E+00 -0.6807820878297E+00  0.0000000000000E+00  0.6667101538438E-01
 0.6264727402000E+00 -0.6874062030425E+00  0.0000000000000E+00  0.7568991827767E-01
 0.6309879381810E+00 -0.6937406375780E+00  0.0000000000000E+00  0.8550503884262E-01
 0.6349923324982E+00 -0.6997379829013E+00  0.0000000000000E+00  0.9601926690905E-01
 0.6383772631791E+00 -0.7053000951426E+00  0.0000000000000E+00  0.1071354237314E+00
 0.6409888868553E+00 -0.7102860683034E+00  0.0000000000000E+00  0.1187427093174E+00
 0.6426309046269E+00 -0.7145149572787E+00  0.0000000000000E+00  0.1307035884371E+00
 0.6430635098092E+00 -0.7177648362918E+00  0.0000000000000E+00  0.1428401454250E+00
 0.6419995164902E+00 -0.7197691374889E+00  0.0000000000000E+00  0.1549192229663E+00
 0.6390981978175E+00 -0.7202107942949E+00  0.0000000000000E+00  0.1666357695253E+00
 0.6339570860613E+00 -0.7187144419492E+00  0.0000000000000E+00  0.1775939289951E+00
 0.6261018055632E+00 -0.7148367482995E+00  0.0000000000000E+00  0.1872855954363E+00
 0.6149738962304E+00 -0.7080548323364E+00  0.0000000000000E+00  0.1950664988326E+00
 0.5999165299491E+00 -0.6977526650307E+00  0.0000000000000E+00  0.2001304781527E+00
 0.5801580373420E+00 -0.6832053438754E+00  0.0000000000000E+00  0.2014835485101E+00
 0.5547932821724E+00 -0.6635612208772E+00  0.0000000000000E+00  0.1979207719210E+00
 0.5227631240771E+00 -0.6378220547608E+00  0.0000000000000E+00  0.1880108286484E+00
 0.4828321538725E+00 -0.6048214092689E+00  0.0000000000000E+00  0.1700959633402E+00
 0.4335644454742E+00 -0.5632009474060E+00  0.0000000000000E+00  0.1423211961349E+00
 0.3732768380289E+00 -0.5113752951161E+00  0.0000000000000E+00  0.1027164097752E+00
 0.6156454482830E+00 -0.6745413662120E+00  0.0000000000000E+00  0.1100432229513E+00
 0.6194457502654E+00 -0.6799355994129E+00  0.0000000000000E+00  0.1248820612426E+00
 0.6226734812713E+00 -0.6849089619272E+00  0.0000000000000E+00  0.1409812593589E+00
 0.6252565398071E+00 -0.6893947443220E+00  0.0000000000000E+00  0.1581721181192E+00
 0.6270746979358E+00 -0.6932802969941E+00  0.0000000000000E+00  0.1762877968092E+00
 0.6279697530682E+00 -0.6964169422509E+00  0.0000000000000E+00  0.1951413081623E+00
 0.6277504988182E+00 -0.6986248278778E+00  0.0000000000000E+00  0.2145043143648E+00
 0.6261943097171E+00 -0.6996944899550E+00  0.0000000000000E+00  0.2340855799053E+00
 0.6230464978742E+00 -0.6993862736105E+00  0.0000000000000E+00  0.2535080175772E+00
 0.6180181385016E+00 -0.6974283063973E+00  0.0000000000000E+00  0.2722833250990E+00
 0.6107827172568E+00 -0.6935133849264E+00  0.0000000000000E+00  0.2897832888944E+00
 0.6009716690664E+00 -0.6872948643577E+00  0.0000000000000E+00  0.3052069725618E+00
 0.5881685955437E+00 -0.6783813751360E+00  0.0000000000000E+00  0.3175432667064E+00
 0.5719016102851E+00 -0.6663298763392E+00  0.0000000000000E+00  0.3255287507119E+00
 0.5516328200897E+00 -0.6506361417099E+00  0.0000000000000E+00  0.3276016595707E+00
 0.5267433973235E+00 -0.6307212376203E+00  0.0000000000000E+00  0.3218541904413E+00
 0.4965121318078E+00 -0.6059119697258E+00  0.0000000000000E+00  0.3059874960267E+00
 0.4600847014827E+00 -0.5754127469795E+00  0.0000000000000E+00  0.2772753584571E+00
 0.4164280317500E+00 -0.5382645811874E+00  0.0000000000000E+00  0.2325419454000E+00
 0.3642707356608E+00 -0.4932870971908E+00  0.0000000000000E+00  0.1681341264859E+00
 0.6069724694480E+00 -0.6653004550658E+00  0.0000000000000E+00  0.1518251782497E+00
 0.6090584105490E+00 -0.6688918557490E+00  0.0000000000000E+00  0.1721919679544E+00
 0.6104011085925E+00 -0.6718707619265E+00  0.0000000000000E+00  0.1941833270874E+00
 0.6109030391264E+00 -0.6741412629348E+00  0.0000000000000E+00  0.2175482543676E+00
 0.6104265426926E+00 -0.6755690106498E+00  0.0000000000000E+00  0.2420432969896E+00
 0.6088070666768E+00 -0.6759940453278E+00  0.0000000000000E+00  0.2674016605246E+00
 0.6058611308629E+00 -0.6752384545146E+00  0.0000000000000E+00  0.2933044958598E+00
 0.6013913463442E+00 -0.6731111686543E+00  0.0000000000000E+00  0.3193530454580E+00
 0.5951900480279E+00 -0.6694114355034E+00  0.0000000000000E+00  0.3450401759407E+00
 0.5870425384803E+00 -0.6639319623983E+00  0.0000000000000E+00  0.3697198067760E+00
 0.5767305311112E+00 -0.6564623183259E+00  0.0000000000000E+00  0.3925727569664E+00
 0.5640360421510E+00 -0.6467928697441E+00  0.0000000000000E+00  0.4125675078635E+00
 0.5487456235928E+00 -0.6347191996387E+00  0.0000000000000E+00  0.4284142917200E+00
 0.5306543462339E+00 -0.6200465308691E+00  0.0000000000000E+00  0.4385107632003E+00
 0.5095682030534E+00 -0.6025930171070E+00  0.0000000000000E+00  0.4408773692260E+00
 0.4853024431389E+00 -0.5821897285268E+00  0.0000000000000E+00  0.4330806183759E+00
 0.4576717301116E+00 -0.5586736063761E+00  0.0000000000000E+00  0.4121434841517E+00
 0.4264669883053E+00 -0.5318682306856E+00  0.0000000000000E+00  0.3744448584908E+00
 0.3914157884489E+00 -0.5015487103643E+00  0.0000000000000E+00  0.3156072302564E+00
 0.3521271320491E+00 -0.4673906628582E+00  0.0000000000000E+00  0.2303809663171E+00
 0.5956169220163E+00 -0.6532027654072E+00  0.0000000000000E+00  0.1914279330599E+00
 0.5954926447288E+00 -0.6544681658813E+00  0.0000000000000E+00  0.2169127248407E+00
 0.5944070420074E+00 -0.6548752937789E+00  0.0000000000000E+00  0.2442441904054E+00
 0.5922276504587E+00 -0.6542884920318E+00  0.0000000000000E+00  0.2730747459247E+00
 0.5887938350361E+00 -0.6525450658177E+00  0.0000000000000E+00  0.3030748970275E+00
 0.5839336398552E+00 -0.6494714425477E+00  0.0000000000000E+00  0.3338918239595E+00
 0.5774748755552E+00 -0.6448936948785E+00  0.0000000000000E+00  0.3651135261800E+00
 0.5692537382965E+00 -0.6386456765249E+00  0.0000000000000E+00  0.3962366757269E+00
 0.5591231115155E+00 -0.6305768802596E+00  0.0000000000000E+00  0.4266360656236E+00
 0.5469619579003E+00 -0.6205613923912E+00  0.0000000000000E+00  0.4555336195268E+00
 0.5326867544043E+00 -0.6085088760294E+00  0.0000000000000E+00  0.4819649985737E+00
 0.5162656387107E+00 -0.5943782487250E+00  0.0000000000000E+00  0.5047417228729E+00
 0.4977357179973E+00 -0.5781945328849E+00  0.0000000000000E+00  0.5224062805783E+00
 0.4772237356210E+00 -0.5600691555601E+00  0.0000000000000E+00  0.5331767614603E+00
 0.4549698333390E+00 -0.5402236280996E+00  0.0000000000000E+00  0.5348758942255E+00
 0.4313532111192E+00 -0.5190157866962E+00  0.0000000000000E+00  0.5248368233533E+00
 0.4069163724328E+00 -0.4969661267911E+00  0.0000000000000E+00  0.4997746249702E+00
 0.3823802371003E+00 -0.4747777817879E+00  0.0000000000000E+00  0.4556124599542E+00
 0.3586410805238E+00 -0.4533389879638E+00  0.0000000000000E+00  0.3872683328617E+00
 0.3367409185861E+00 -0.4337030149658E+00  0.0000000000000E+00  0.2884137013475E+00
 0.5817553616053E+00 -0.6384372247693E+00  0.0000000000000E+00  0.2283110391014E+00
 0.5789882777016E+00 -0.6369189514763E+00  0.0000000000000E+00  0.2583895337016E+00
 0.5750020916900E+00 -0.6342503994018E+00  0.0000000000000E+00  0.2903499460372E+00
 0.5696193515923E+00 -0.6302453870764E+00  0.0000000000000E+00  0.3237323582922E+00
 0.5626524640326E+00 -0.6247080946596E+00  0.0000000000000E+00  0.3581096877259E+00
 0.5539236186084E+00 -0.6174519151815E+00  0.0000000000000E+00  0.3930327540422E+00
 0.5432782156763E+00 -0.6083120151957E+00  0.0000000000000E+00  0.4279875377390E+00
 0.5305964560062E+00 -0.5971561570379E+00  0.0000000000000E+00  0.4623611705727E+00
 0.5158058962703E+00 -0.5838964954889E+00  0.0000000000000E+00  0.4954134420859E+00
 0.4988967625056E+00 -0.5685040654390E+00  0.0000000000000E+00  0.5262512167365E+00
 0.4799413364704E+00 -0.5510272058233E+00  0.0000000000000E+00  0.5538036276307E+00
 0.4591186041661E+00 -0.5316150405986E+00  0.0000000000000E+00  0.5767960507407E+00
 0.4367454966167E+00 -0.5105472737211E+00  0.0000000000000E+00  0.5937205060920E+00
 0.4133164374834E+00 -0.4882719381181E+00  0.0000000000000E+00  0.6027990190838E+00
 0.3895535681156E+00 -0.4654533981730E+00  0.0000000000000E+00  0.6019341083138E+00
 0.3664708329361E+00 -0.4430338608898E+00  0.0000000000000E+00  0.5886358746736E+00
 0.3454557588173E+00 -0.4223125509129E+00  0.0000000000000E+00  0.5599065141202E+00
 0.3283697925409E+00 -0.4050461266381E+00  0.0000000000000E+00  0.5120454326428E+00
 0.3176449617565E+00 -0.3935578398396E+00  0.0000000000000E+00  0.4403252858838E+00
 0.3163413980241E+00 -0.3908038029845E+00  0.0000000000000E+00  0.3385705843200E+00
 0.5656049360632E+00 -0.6212356352250E+00  0.0000000000000E+00  0.2619962373622E+00
 0.5598404054868E+00 -0.6165565884494E+00  0.0000000000000E+00  0.2960355766198E+00
 0.5525679420011E+00 -0.6103979522066E+00  0.0000000000000E+00  0.3317583421153E+00
 0.5435558335201E+00 -0.6025134529957E+00  0.0000000000000E+00  0.3685782742883E+00
 0.5325893741490E+00 -0.5926735453806E+00  0.0000000000000E+00  0.4059573267146E+00
 0.5194916534946E+00 -0.5806846844598E+00  0.0000000000000E+00  0.4433335460420E+00
 0.5041374655188E+00 -0.5664020812819E+00  0.0000000000000E+00  0.4800720478772E+00
 0.4864664026626E+00 -0.5497417768579E+00  0.0000000000000E+00  0.5154321482638E+00
 0.4664983888046E+00 -0.5306951333875E+00  0.0000000000000E+00  0.5485456516132E+00
 0.4443535543224E+00 -0.5093475128387E+00  0.0000000000000E+00  0.5784031025506E+00
 0.4202778411950E+00 -0.4859024001899E+00  0.0000000000000E+00  0.6038462076554E+00
 0.3946757629364E+00 -0.4607122377022E+00  0.0000000000000E+00  0.6235656018043E+00
 0.3681522560017E+00 -0.4343176873751E+00  0.0000000000000E+00  0.6361037070735E+00
 0.3415666573959E+00 -0.4074980143599E+00  0.0000000000000E+00  0.6398625681751E+00
 0.3161038338962E+00 -0.3813370760497E+00  0.0000000000000E+00  0.6331159789491E+00
 0.2933711936161E+00 -0.3573126493684E+00  0.0000000000000E+00  0.6140231176917E+00
 0.2755366688539E+00 -0.3374229504494E+00  0.0000000000000E+00  0.5806338739588E+00
 0.2655363737190E+00 -0.3243755831737E+00  0.0000000000000E+00  0.5308562858127E+00
 0.2673972958780E+00 -0.3218909061494E+00  0.0000000000000E+00  0.4622576064771E+00
 0.2866036063910E+00 -0.3351250570413E+00  0.0000000000000E+00  0.3713815986251E+00
 0.5474206579654E+00 -0.6018694188636E+00  0.0000000000000E+00  0.2920809270613E+00
 0.5383960866479E+00 -0.5937472103701E+00  0.0000000000000E+00  0.3293459348145E+00
 0.5275523695436E+00 -0.5837879045833E+00  0.0000000000000E+00  0.3678147198981E+00
 0.5145977356804E+00 -0.5716795292109E+00  0.0000000000000E+00  0.4067661079827E+00
 0.4992972264597E+00 -0.5571655148587E+00  0.0000000000000E+00  0.4455358263929E+00
 0.4814901337732E+00 -0.5400602610498E+00  0.0000000000000E+00  0.4834244600402E+00
 0.4611014542655E+00 -0.5202592470222E+00  0.0000000000000E+00  0.5196438673897E+00
 0.4381542702601E+00 -0.4977502552202E+00  0.0000000000000E+00  0.5532893845410E+00
 0.4127862020752E+00 -0.4726286112953E+00  0.0000000000000E+00  0.5833301484008E+00
 0.3852713394826E+00 -0.4451176739140E+00  0.0000000000000E+00  0.6086136744942E+00
 0.3560484288389E+00 -0.4155951689523E+00  0.0000000000000E+00  0.6278836875777E+00
 0.3257561170824E+00 -0.3846259427731E+00  0.0000000000000E+00  0.6398125647436E+00
 0.2952765858014E+00 -0.3530021312390E+00  0.0000000000000E+00  0.6430520500266E+00
 0.2657900161689E+00 -0.3217926360324E+00  0.0000000000000E+00  0.6363087219232E+00
 0.2388444428476E+00 -0.2924054580838E+00  0.0000000000000E+00  0.6184548990037E+00
 0.2164495551988E+00 -0.2666696460088E+00  0.0000000000000E+00  0.5886925685203E+00
 0.2012127260414E+00 -0.2469505410046E+00  0.0000000000000E+00  0.5468003364093E+00
 0.1965560904716E+00 -0.2363299272895E+00  0.0000000000000E+00  0.4935110222182E+00
 0.2071466763675E+00 -0.2389363373864E+00  0.0000000000000E+00  0.4311157795052E+00
 0.2399830600686E+00 -0.2608259256744E+00  0.0000000000000E+00  0.3639513169544E+00
 0.5274922053149E+00 -0.5806455067759E+00  0.0000000000000E+00  0.3182492198594E+00
 0.5150498364825E+00 -0.5689045851237E+00  0.0000000000000E+00  0.3579051063450E+00
 0.5004624616063E+00 -0.5549492903624E+00  0.0000000000000E+00  0.3979594105961E+00
 0.4833802386542E+00 -0.5384044661927E+00  0.0000000000000E+00  0.4375569503629E+00
 0.4635659515569E+00 -0.5190045461077E+00  0.0000000000000E+00  0.4758914754559E+00
 0.4409031583345E+00 -0.4965996867547E+00  0.0000000000000E+00  0.5120939643802E+00
 0.4154013640555E+00 -0.4711596585965E+00  0.0000000000000E+00  0.5451789309951E+00
 0.3872049955262E+00 -0.4427817335125E+00  0.0000000000000E+00  0.5740280334966E+00
 0.3566083269518E+00 -0.4117044829151E+00  0.0000000000000E+00  0.5973995740792E+00
 0.3240763055681E+00 -0.3783272330313E+00  0.0000000000000E+00  0.6139590366084E+00
 0.2902703579402E+00 -0.3432340850565E+00  0.0000000000000E+00  0.6223306478280E+00
 0.2560779977554E+00 -0.3072211184028E+00  0.0000000000000E+00  0.6211738416359E+00
 0.2226449332975E+00 -0.2713251850765E+00  0.0000000000000E+00  0.6092925287980E+00
 0.1914081284659E+00 -0.2368522831741E+00  0.0000000000000E+00  0.5857905219507E+00
 0.1641275606165E+00 -0.2054024998444E+00  0.0000000000000E+00  0.5502953742015E+00
 0.1429130402836E+00 -0.1788862867549E+00  0.0000000000000E+00  0.5032894591160E+00
 0.1302380058055E+00 -0.1595217844675E+00  0.0000000000000E+00  0.4466210707291E+00
 0.1289308765822E+00 -0.1497914332610E+00  0.0000000000000E+00  0.3843524305980E+00
 0.1420832938945E+00 -0.1523027522708E+00  0.0000000000000E+00  0.3243201573728E+00
 0.1731211380943E+00 -0.1693982826757E+00  0.0000000000000E+00  0.2821273791628E+00
 0.5061403714761E+00 -0.5579009932232E+00  0.0000000000000E+00  0.3402765954904E+00
 0.4902364474445E+00 -0.5424796081535E+00  0.0000000000000E+00  0.3813793982701E+00
 0.4718526645711E+00 -0.5244532816564E+00  0.0000000000000E+00  0.4217161726810E+00
 0.4505975954927E+00 -0.5034009698490E+00  0.0000000000000E+00  0.4603163168549E+00
 0.4262668524049E+00 -0.4790835718010E+00  0.0000000000000E+00  0.4962266049726E+00
 0.3988354540096E+00 -0.4514347592708E+00  0.0000000000000E+00  0.5283860382037E+00
 0.3684524160342E+00 -0.4205546906611E+00  0.0000000000000E+00  0.5555844986260E+00
 0.3354441047509E+00 -0.3867129174330E+00  0.0000000000000E+00  0.5764733871422E+00
 0.3003263035179E+00 -0.3503601039555E+00  0.0000000000000E+00  0.5896114086245E+00
 0.2638221152485E+00 -0.3121455725729E+00  0.0000000000000E+00  0.5935399727605E+00
 0.2268819182815E+00 -0.2729368756562E+00  0.0000000000000E+00  0.5868897578516E+00
 0.1907009164305E+00 -0.2338369578472E+00  0.0000000000000E+00  0.5685249356741E+00
 0.1567285350276E+00 -0.1961932513794E+00  0.0000000000000E+00  0.5377360637505E+00
 0.1266611362566E+00 -0.1615904200876E+00  0.0000000000000E+00  0.4944980572212E+00
 0.1024038136406E+00 -0.1318130792843E+00  0.0000000000000E+00  0.4398174927316E+00
 0.8597453916661E-01 -0.1087535831694E+00  0.0000000000000E+00  0.3762062303130E+00
 0.7929795754262E-01 -0.9421559019151E-01  0.0000000000000E+00  0.3083411740489E+00
 0.8375701816559E-01 -0.8950300652417E-01  0.0000000000000E+00  0.2440131515697E+00
 0.9921685100062E-01 -0.9452091346730E-01  0.0000000000000E+00  0.1955702324084E+00
 0.1206308966193E+00 -0.1052601475761E+00  0.0000000000000E+00  0.1821670904721E+00
 0.4837093804300E+00 -0.5339926480968E+00  0.0000000000000E+00  0.3580090760532E+00
 0.4644095214911E+00 -0.5149328966515E+00  0.0000000000000E+00  0.3994637807735E+00
 0.4422890940856E+00 -0.4928684112027E+00  0.0000000000000E+00  0.4386195302635E+00
 0.4169531662094E+00 -0.4673712186702E+00  0.0000000000000E+00  0.4744411268802E+00
 0.3882879651803E+00 -0.4382885555559E+00  0.0000000000000E+00  0.5058563981384E+00
 0.3564290313192E+00 -0.4057095496431E+00  0.0000000000000E+00  0.5316304015788E+00
 0.3217392351962E+00 -0.3699436515380E+00  0.0000000000000E+00  0.5503636448443E+00
 0.2848038110454E+00 -0.3315167213349E+00  0.0000000000000E+00  0.5605580073189E+00
 0.2464369955744E+00 -0.2911790526502E+00  0.0000000000000E+00  0.5607261787296E+00
 0.2076923510310E+00 -0.2499174958850E+00  0.0000000000000E+00  0.5495380436874E+00
 0.1698683050576E+00 -0.2089633617589E+00  0.0000000000000E+00  0.5260056080358E+00
 0.1344994193462E+00 -0.1697869171925E+00  0.0000000000000E+00  0.4897116386996E+00
 0.1033213110303E+00 -0.1340669203556E+00  0.0000000000000E+00  0.4410881744395E+00
 0.7819192544400E-01 -0.1036189708870E+00  0.0000000000000E+00  0.3817495898577E+00
 0.6094191942215E-01 -0.8025780122550E-01  0.0000000000000E+00  0.3148791277260E+00
 0.5310891691133E-01 -0.6555325536886E-01  0.0000000000000E+00  0.2456517864258E+00
 0.5547342715772E-01 -0.6041172503451E-01  0.0000000000000E+00  0.1816322671108E+00
 0.6725864894561E-01 -0.6436993292091E-01  0.0000000000000E+00  0.1329492802342E+00
 0.8464939176788E-01 -0.7440191773613E-01  0.0000000000000E+00  0.1115888413077E+00
 0.9908877278394E-01 -0.8358711077353E-01  0.0000000000000E+00  0.1263585670068E+00
 0.4605504529569E+00 -0.5092822582516E+00  0.0000000000000E+00  0.3713425839274E+00
 0.4380079338110E+00 -0.4867112585843E+00  0.0000000000000E+00  0.4118819930926E+00
 0.4123118140922E+00 -0.4607404576434E+00  0.0000000000000E+00  0.4482586728405E+00
 0.3831219052763E+00 -0.4309976224599E+00  0.0000000000000E+00  0.4794827764213E+00
 0.3504964851413E+00 -0.3975024295972E+00  0.0000000000000E+00  0.5044428002077E+00
 0.3148150740753E+00 -0.3605890496841E+00  0.0000000000000E+00  0.5218111382147E+00
 0.2767310606106E+00 -0.3208613624268E+00  0.0000000000000E+00  0.5301227883828E+00
 0.2371527360543E+00 -0.2791769902550E+00  0.0000000000000E+00  0.5279281225784E+00
 0.1972368309388E+00 -0.2366442424662E+00  0.0000000000000E+00  0.5139859807228E+00
 0.1583786562407E+00 -0.1946161203842E+00  0.0000000000000E+00  0.4874870301081E+00
 0.1221841630622E+00 -0.1546669551273E+00  0.0000000000000E+00  0.4483036448173E+00
 0.9040894589771E-01 -0.1185369510349E+00  0.0000000000000E+00  0.3972611516839E+00
 0.6484709334959E-01 -0.8802826782432E-01  0.0000000000000E+00  0.3364182536071E+00
 0.4714849988681E-01 -0.6483273680637E-01  0.0000000000000E+00  0.2693301727380E+00
 0.3853706919829E-01 -0.5026661306648E-01  0.0000000000000E+00  0.2012411291838E+00
 0.3939553747182E-01 -0.4488417656736E-01  0.0000000000000E+00  0.1390996050630E+00
 0.4868876037065E-01 -0.4795077840371E-01  0.0000000000000E+00  0.9117564724899E-01
 0.6324416587731E-01 -0.5681299491992E-01  0.0000000000000E+00  0.6581295880269E-01
 0.7732201817746E-01 -0.6652592507571E-01  0.0000000000000E+00  0.6819744875033E-01
 0.8443608617069E-01 -0.7120164060145E-01  0.0000000000000E+00  0.9442393959102E-01
 0.4370299717798E+00 -0.4841502212518E+00  0.0000000000000E+00  0.3802475761043E+00
 0.4114793138416E+00 -0.4582795738767E+00  0.0000000000000E+00  0.4184851081757E+00
 0.3824651985960E+00 -0.4286372340301E+00  0.0000000000000E+00  0.4504645675014E+00
 0.3497829401252E+00 -0.3949956394657E+00  0.0000000000000E+00  0.4754344435246E+00
 0.3137602337297E+00 -0.3576510190057E+00  0.0000000000000E+00  0.4923726702094E+00
 0.2750997954307E+00 -0.3172698507588E+00  0.0000000000000E+00  0.4999933424779E+00
 0.2347955716154E+00 -0.2748098079778E+00  0.0000000000000E+00  0.4969529451867E+00
 0.1940925038762E+00 -0.2314842215089E+00  0.0000000000000E+00  0.4821087119278E+00
 0.1544567703987E+00 -0.1887367325851E+00  0.0000000000000E+00  0.4547878245606E+00
 0.1175313435581E+00 -0.1482016000053E+00  0.0000000000000E+00  0.4150533045447E+00
 0.8505763116092E-01 -0.1116301839520E+00  0.0000000000000E+00  0.3639550968158E+00
 0.5874777545537E-01 -0.8076874900422E-01  0.0000000000000E+00  0.3037478107415E+00
 0.4009452327547E-01 -0.5717530989713E-01  0.0000000000000E+00  0.2380422512904E+00
 0.3010853311005E-01 -0.4196711486998E-01  0.0000000000000E+00  0.1718351871071E+00
 0.2898055160392E-01 -0.3549867139306E-01  0.0000000000000E+00  0.1113253609934E+00
 0.3568932856119E-01 -0.3699305712615E-01  0.0000000000000E+00  0.6336410157537E-01
 0.4764110221446E-01 -0.4420953805051E-01  0.0000000000000E+00  0.3429964142779E-01
 0.6061911701987E-01 -0.5338940106414E-01  0.0000000000000E+00  0.2787376619174E-01
 0.6976122790408E-01 -0.6005817470385E-01  0.0000000000000E+00  0.4222494122615E-01
 0.7189590495841E-01 -0.6104748494754E-01  0.0000000000000E+00  0.6854706091820E-01
 0.4135278075784E+00 -0.4589937248704E+00  0.0000000000000E+00  0.3847877217147E+00
 0.3852804157581E+00 -0.4301154452072E+00  0.0000000000000E+00  0.4192866712778E+00
 0.3532830602912E+00 -0.3971220731364E+00  0.0000000000000E+00  0.4453707907135E+00
 0.3175782066663E+00 -0.3600520374127E+00  0.0000000000000E+00  0.4627978369577E+00
 0.2788647207655E+00 -0.3195878627793E+00  0.0000000000000E+00  0.4707792077692E+00
 0.2382201118483E+00 -0.2767872365929E+00  0.0000000000000E+00  0.4682116338850E+00
 0.1969750616748E+00 -0.2329647801555E+00  0.0000000000000E+00  0.4540573777787E+00
 0.1566512136480E+00 -0.1896343822467E+00  0.0000000000000E+00  0.4277050790691E+00
 0.1189057512137E+00 -0.1484589253632E+00  0.0000000000000E+00  0.3892750219232E+00
 0.8544904758348E-01 -0.1111720060582E+00  0.0000000000000E+00  0.3398611015194E+00
 0.5791779789304E-01 -0.7945528035944E-01  0.0000000000000E+00  0.2816992028820E+00
 0.3769626504435E-01 -0.5476400061320E-01  0.0000000000000E+00  0.2182396176243E+00
 0.2568737091841E-01 -0.3810394336535E-01  0.0000000000000E+00  0.1540839287135E+00
 0.2204654384872E-01 -0.2977363567336E-01  0.0000000000000E+00  0.9472410903194E-01
 0.2591216508407E-01 -0.2910545379755E-01  0.0000000000000E+00  0.4599589795591E-01
 0.3521006621454E-01 -0.3427817623345E-01  0.0000000000000E+00  0.1313669558715E-01
 0.4669676145696E-01 -0.4234732187787E-01  0.0000000000000E+00 -0.6391837249931E-03
 0.5654124548782E-01 -0.4974759262568E-01  0.0000000000000E+00  0.4117838992178E-02
 0.6162590949152E-01 -0.5344198273539E-01  0.0000000000000E+00  0.2213638323437E-01
 0.6088689145765E-01 -0.5217400546637E-01  0.0000000000000E+00  0.4520586694156E-01
 0.3904160342837E+00 -0.4342048448307E+00  0.0000000000000E+00  0.3851225535872E+00
 0.3598322628859E+00 -0.4026653588551E+00  0.0000000000000E+00  0.4144587754293E+00
 0.3252240417896E+00 -0.3666880378110E+00  0.0000000000000E+00  0.4334132874178E+00
 0.2870311057056E+00 -0.3267403130738E+00  0.0000000000000E+00  0.4425586554022E+00
 0.2464164733293E+00 -0.2839898492756E+00  0.0000000000000E+00  0.4414286460755E+00
 0.2048336701456E+00 -0.2398925395317E+00  0.0000000000000E+00  0.4291796947715E+00
 0.1638760751776E+00 -0.1960461844590E+00  0.0000000000000E+00  0.4051926372272E+00
 0.1252119641878E+00 -0.1541335136197E+00  0.0000000000000E+00  0.3695069118036E+00
 0.9051656275333E-01 -0.1158578737071E+00  0.0000000000000E+00  0.3230979542042E+00
 0.6136512431877E-01 -0.8284146409303E-01  0.0000000000000E+00  0.2680214837536E+00
 0.3907794615755E-01 -0.5647293334030E-01  0.0000000000000E+00  0.2074356687828E+00
 0.2452725033066E-01 -0.3771751679889E-01  0.0000000000000E+00  0.1454917900336E+00
 0.1792647685697E-01 -0.2691051888046E-01  0.0000000000000E+00  0.8705926742302E-01
 0.1863541523037E-01 -0.2356700219588E-01  0.0000000000000E+00  0.3723911569261E-01
 0.2503893886944E-01 -0.2626162906654E-01  0.0000000000000E+00  0.6199981387045E-03
 0.3459705101667E-01 -0.3266679722375E-01  0.0000000000000E+00 -0.1973137097208E-01
 0.4420972921855E-01 -0.3987550025017E-01  0.0000000000000E+00 -0.2340626252981E-01
 0.5099506751823E-01 -0.4510201273361E-01  0.0000000000000E+00 -0.1338374036741E-01
 0.5324603522654E-01 -0.4657476479665E-01  0.0000000000000E+00  0.4618983446663E-02
 0.5088100731912E-01 -0.4401976970035E-01  0.0000000000000E+00  0.2457404526209E-01
 0.3680415873053E+00 -0.4101532303707E+00  0.0000000000000E+00  0.3814630425484E+00
 0.3354778815230E+00 -0.3762968220242E+00  0.0000000000000E+00  0.4042783877498E+00
 0.2986121891895E+00 -0.3376908198533E+00  0.0000000000000E+00  0.4152713697045E+00
 0.2584880963569E+00 -0.2954480265349E+00  0.0000000000000E+00  0.4160895487094E+00
 0.2167975267608E+00 -0.2512969127168E+00  0.0000000000000E+00  0.4065103563145E+00
 0.1752947980831E+00 -0.2070112364587E+00  0.0000000000000E+00  0.3859058931743E+00
 0.1356887190604E+00 -0.1643220941899E+00  0.0000000000000E+00  0.3540872786496E+00
 0.9961969720021E-01 -0.1248952083754E+00  0.0000000000000E+00  0.3117558044036E+00
 0.6860794906269E-01 -0.9029371828132E-01  0.0000000000000E+00  0.2606618281969E+00
 0.4393572718936E-01 -0.6186102735093E-01  0.0000000000000E+00  0.2035872970301E+00
 0.2648760461753E-01 -0.4056289884837E-01  0.0000000000000E+00  0.1442113253376E+00
 0.1658009771952E-01 -0.2681856226834E-01  0.0000000000000E+00  0.8684678296627E-01
 0.1381169866495E-01 -0.2035225571662E-01  0.0000000000000E+00  0.3602557326875E-01
 0.1697490474919E-01 -0.2010397849551E-01  0.0000000000000E+00 -0.4085840231883E-02
 0.2408959465651E-01 -0.2425357934887E-01  0.0000000000000E+00 -0.3042848347136E-01
 0.3263486253562E-01 -0.3042788167839E-01  0.0000000000000E+00 -0.4185427068481E-01
 0.4003794562229E-01 -0.3614674682776E-01  0.0000000000000E+00 -0.3971266470446E-01
 0.4434493257500E-01 -0.3945155399157E-01  0.0000000000000E+00 -0.2772002819915E-01
 0.4475207135284E-01 -0.3943466527244E-01  0.0000000000000E+00 -0.1073289192506E-01
 0.4157566667771E-01 -0.3627897546878E-01  0.0000000000000E+00  0.7073795176976E-02
 0.3467172256020E+00 -0.3871740001706E+00  0.0000000000000E+00  0.3739909923171E+00
 0.3124352393810E+00 -0.3512550705709E+00  0.0000000000000E+00  0.3890479550157E+00
 0.2735950051916E+00 -0.3102962103164E+00  0.0000000000000E+00  0.3918379865871E+00
 0.2321210733011E+00 -0.2663798433540E+00  0.0000000000000E+00  0.3850959353265E+00
 0.1902227017538E+00 -0.2217643311489E+00  0.0000000000000E+00  0.3684871823159E+00
 0.1497634262523E+00 -0.1783603328054E+00  0.0000000000000E+00  0.3413999745013E+00
 0.1123460063286E+00 -0.1377769178565E+00  0.0000000000000E+00  0.3040604827608E+00
 0.7942194039520E-01 -0.1014983296425E+00  0.0000000000000E+00  0.2578038489340E+00
 0.5223847166701E-01 -0.7082177839558E-01  0.0000000000000E+00  0.2049756299240E+00
 0.3170657235996E-01 -0.4672690338131E-01  0.0000000000000E+00  0.1487669699073E+00
 0.1825832783054E-01 -0.2973164684976E-01  0.0000000000000E+00  0.9296708451757E-01
 0.1172437833797E-01 -0.1976942709791E-01  0.0000000000000E+00  0.4161755082102E-01
 0.1126181219150E-01 -0.1611494086529E-01  0.0000000000000E+00 -0.1445490206303E-02
 0.1536826166093E-01 -0.1739141523147E-01  0.0000000000000E+00 -0.3314919773551E-01
 0.2202601258944E-01 -0.2169934649478E-01  0.0000000000000E+00 -0.5178107807496E-01
 0.2901304475519E-01 -0.2690221359298E-01  0.0000000000000E+00 -0.5747327528192E-01
 0.3436392160805E-01 -0.3105935388545E-01  0.0000000000000E+00 -0.5230592506501E-01
 0.3684487461023E-01 -0.3288781752241E-01  0.0000000000000E+00 -0.3975874716428E-01
 0.3618911237412E-01 -0.3202184097914E-01  0.0000000000000E+00 -0.2359026376058E-01
 0.3293496063107E-01 -0.2888931093158E-01  0.0000000000000E+00 -0.6821473554883E-02
 0.3267130737312E+00 -0.3656073495533E+00  0.0000000000000E+00  0.3627913812003E+00
 0.2907587229020E+00 -0.3276262130732E+00  0.0000000000000E+00  0.3691485305196E+00
 0.2501041924316E+00 -0.2844804307755E+00  0.0000000000000E+00  0.3643677354088E+00
 0.2079736980060E+00 -0.2395855766442E+00  0.0000000000000E+00  0.3518194118543E+00
 0.1668459484545E+00 -0.1956083271077E+00  0.0000000000000E+00  0.3300374058737E+00
 0.1282596095079E+00 -0.1540080685181E+00  0.0000000000000E+00  0.2983888532256E+00
 0.9354801624807E-01 -0.1161330727030E+00  0.0000000000000E+00  0.2577022189953E+00
 0.6391240688460E-01 -0.8321799269267E-01  0.0000000000000E+00  0.2098620532005E+00
 0.4029058587657E-01 -0.5625789353303E-01  0.0000000000000E+00  0.1575731335991E+00
 0.2322701693068E-01 -0.3586980675087E-01  0.0000000000000E+00  0.1041190085204E+00
 0.1276480726644E-01 -0.2218305177245E-01  0.0000000000000E+00  0.5307940576548E-01
 0.8381710709610E-02 -0.1477238070567E-01  0.0000000000000E+00  0.7974691923748E-02
 0.8988789042634E-02 -0.1265127842063E-01  0.0000000000000E+00 -0.2815790426738E-01
 0.1301639448807E-01 -0.1434765428004E-01  0.0000000000000E+00 -0.5322046142183E-01
 0.1861059127612E-01 -0.1808435782717E-01  0.0000000000000E+00 -0.6645754477320E-01
 0.2394207173424E-01 -0.2206965231304E-01  0.0000000000000E+00 -0.6865737568508E-01
 0.2757492660374E-01 -0.2485313650534E-01  0.0000000000000E+00 -0.6197298709495E-01
 0.2876540791559E-01 -0.2562890996304E-01  0.0000000000000E+00 -0.4929669095965E-01
 0.2756093798377E-01 -0.2434709149382E-01  0.0000000000000E+00 -0.3343356341585E-01
 0.2464600271645E-01 -0.2159684321045E-01  0.0000000000000E+00 -0.1664342001543E-01
 0.3083104659563E+00 -0.3458234998962E+00  0.0000000000000E+00  0.3474578128065E+00
 0.2698890433524E+00 -0.3049959330638E+00  0.0000000000000E+00  0.3445506533350E+00
 0.2276428161376E+00 -0.2595257787787E+00  0.0000000000000E+00  0.3350237634845E+00
 0.1861463762074E+00 -0.2152378265896E+00  0.0000000000000E+00  0.3189457353068E+00
 0.1467666203307E+00 -0.1729590444871E+00  0.0000000000000E+00  0.2934048670743E+00
 0.1105717785000E+00 -0.1337579522599E+00  0.0000000000000E+00  0.2587938887177E+00
 0.7872343325177E-01 -0.9880022219506E-01  0.0000000000000E+00  0.2165682715980E+00
 0.5219291169863E-01 -0.6910560300041E-01  0.0000000000000E+00  0.1689762686126E+00
 0.3163161739314E-01 -0.4538762445876E-01  0.0000000000000E+00  0.1188067666476E+00
 0.1726843429726E-01 -0.2794960405338E-01  0.0000000000000E+00  0.6917592481097E-01
 0.8853021377031E-02 -0.1662396439990E-01  0.0000000000000E+00  0.2325878018904E-01
 0.5645688717350E-02 -0.1075770376422E-01  0.0000000000000E+00 -0.1603004979620E-01
 0.6467718696525E-02 -0.9255226728881E-02  0.0000000000000E+00 -0.4638697707893E-01
 0.9825867371887E-02 -0.1069218242500E-01  0.0000000000000E+00 -0.6645286486536E-01
 0.1411693338539E-01 -0.1350778356444E-01  0.0000000000000E+00 -0.7604524670546E-01
 0.1789344008563E-01 -0.1626083080996E-01  0.0000000000000E+00 -0.7617670517165E-01
 0.2012944755315E-01 -0.1789427816578E-01  0.0000000000000E+00 -0.6877000406895E-01
 0.2039587286486E-01 -0.1791801312414E-01  0.0000000000000E+00 -0.5610957774319E-01
 0.1887272338937E-01 -0.1644061676520E-01  0.0000000000000E+00 -0.4023228390898E-01
 0.1637003768958E-01 -0.1414356925357E-01  0.0000000000000E+00 -0.2259259506768E-01
 0.2896286727779E+00 -0.3272305393163E+00  0.0000000000000E+00  0.3236710623092E+00
 0.2475771641527E+00 -0.2797624243428E+00  0.0000000000000E+00  0.3181641002765E+00
 0.2066592448841E+00 -0.2361846668140E+00  0.0000000000000E+00  0.3078603070950E+00
 0.1673599916884E+00 -0.1940924339499E+00  0.0000000000000E+00  0.2884470196825E+00
 0.1302300812951E+00 -0.1541090179512E+00  0.0000000000000E+00  0.2600277556781E+00
 0.9658249964010E-01 -0.1175025677778E+00  0.0000000000000E+00  0.2238314488207E+00
 0.6747437110505E-01 -0.8537664649984E-01  0.0000000000000E+00  0.1816562075916E+00
 0.4367038222164E-01 -0.5854902294595E-01  0.0000000000000E+00  0.1357783417310E+00
 0.2556022553004E-01 -0.3747472285544E-01  0.0000000000000E+00  0.8881224820506E-01
 0.1312184214505E-01 -0.2220397090610E-01  0.0000000000000E+00  0.4352262375019E-01
 0.5910537928846E-02 -0.1236807285785E-01  0.0000000000000E+00  0.2589635502184E-02
 0.3088989167524E-02 -0.7203583069812E-02  0.0000000000000E+00 -0.3165453964609E-01
 0.3507182409340E-02 -0.5624437120139E-02  0.0000000000000E+00 -0.5749157154645E-01
 0.5838060922242E-02 -0.6348773501534E-02  0.0000000000000E+00 -0.7404114313239E-01
 0.8762247516087E-02 -0.8076375476821E-02  0.0000000000000E+00 -0.8137883888101E-01
 0.1117316864899E-01 -0.9691486035007E-02  0.0000000000000E+00 -0.8047638443899E-01
 0.1234929977040E-01 -0.1043980112085E-01  0.0000000000000E+00 -0.7292835047948E-01
 0.1203675256407E-01 -0.1002235631742E-01  0.0000000000000E+00 -0.6051126784294E-01
 0.1043516008229E-01 -0.8587568779484E-02  0.0000000000000E+00 -0.4473131975592E-01
 0.8104972729469E-02 -0.6692576643715E-02  0.0000000000000E+00 -0.2624951426859E-01
</DataArray>
<DataArray type="Float64" Name="S_Centroid" NumberOfComponents="4" ComponentName0="S11" ComponentName1="S22" ComponentName2="S33" ComponentName3="S12" format="ascii">
-0.2463759450063E+00 -0.2878688861138E+00 -0.2510950706264E+00 -0.6302209398721E-02
-0.1625852256172E+00 -0.2004773298322E+00 -0.1706394010612E+00 -0.4108845363025E-03
-0.1540045001668E+00 -0.1878596319489E+00 -0.1606761420944E+00 -0.3912811417441E-03
-0.1461631592262E+00 -0.1786938823748E+00 -0.1526828095525E+00 -0.1829623472911E-03
-0.1425983239763E+00 -0.1742624808478E+00 -0.1489245782673E+00 -0.1037139011455E-03
-0.1404544218462E+00 -0.1716638552121E+00 -0.1466955902174E+00 -0.5305368705205E-04
-0.1393830227929E+00 -0.1703520615825E+00 -0.1455754896564E+00 -0.2106159786085E-04
-0.1389699796267E+00 -0.1698493054308E+00 -0.1451450639770E+00  0.1142037531153E-05
-0.1390340131884E+00 -0.1699279771958E+00 -0.1452121354806E+00  0.1733269339228E-04
-0.1394507197277E+00 -0.1704377257089E+00 -0.1456475693552E+00  0.2982817930167E-04
-0.1401459749667E+00 -0.1712876806311E+00 -0.1463738181310E+00  0.4002172941432E-04
-0.1410730711332E+00 -0.1724208912143E+00 -0.1473421623033E+00  0.4884856119614E-04
-0.1422049664242E+00 -0.1738043110317E+00 -0.1485243604042E+00  0.5696962224599E-04
-0.1435285192948E+00 -0.1754218961218E+00 -0.1499066952458E+00  0.6488390525487E-04
-0.1450412864965E+00 -0.1772706634062E+00 -0.1514866164543E+00  0.7298921101910E-04
-0.1467494382718E+00 -0.1793581535925E+00 -0.1532705681762E+00  0.8161949417944E-04
-0.1486664681161E+00 -0.1817008525993E+00 -0.1552726407363E+00  0.9106907049045E-04
-0.1508123768109E+00 -0.1843231964003E+00 -0.1575137194093E+00  0.1016088328162E-03
-0.1532132413707E+00 -0.1872570436223E+00 -0.1600210339467E+00  0.1135002927901E-03
-0.1559010998625E+00 -0.1905415313067E+00 -0.1628280366495E+00  0.1270089014053E-03
-0.1589140785270E+00 -0.1942232397601E+00 -0.1659745395950E+00  0.1424174094739E-03
-0.1622972113320E+00 -0.1983571753874E+00 -0.1695075617581E+00  0.1600554634486E-03
-0.1661036985234E+00 -0.2030083160574E+00 -0.1734826468530E+00  0.1803293579959E-03
-0.1703973906193E+00 -0.2082546420678E+00 -0.1779664553629E+00  0.2037995329597E-03
-0.1752579007611E+00 -0.2141933113969E+00 -0.1830420697142E+00  0.2313282588571E-03
-0.1807904832725E+00 -0.2209529649865E+00 -0.1888194206817E+00  0.2644192724608E-03
-0.1871632804320E+00 -0.2287357896135E+00 -0.1954725629214E+00  0.3074219249853E-03
-0.1946630759922E+00 -0.2378791832968E+00 -0.2032948618659E+00  0.3789736395201E-03
-0.2034443061475E+00 -0.2485660340846E+00 -0.2124448599091E+00  0.5158069158128E-03
-0.2133732484241E+00 -0.2606401698769E+00 -0.2227863066014E+00  0.7513580541661E-03
-0.2242909048474E+00 -0.2739083413606E+00 -0.2341536457178E+00  0.1101617062853E-02
-0.2361519995658E+00 -0.2883081840668E+00 -0.2464962863073E+00  0.1571980339841E-02
-0.2490342313182E+00 -0.3039254267874E+00 -0.2598910393096E+00  0.2165784786611E-02
-0.2632029824305E+00 -0.3210629899379E+00 -0.2746050070131E+00  0.2890178960431E-02
-0.2790750149314E+00 -0.3402338268792E+00 -0.2910751556510E+00  0.3766765387761E-02
-0.2978189080653E+00 -0.3627135295719E+00 -0.3104502456895E+00  0.4834472413727E-02
-0.3197080855829E+00 -0.3892825569934E+00 -0.3332256020109E+00  0.6214670407836E-02
-0.3542094950721E+00 -0.4288089961319E+00 -0.3680186908659E+00  0.8072184957338E-02
-0.3771898870609E+00 -0.4641455453389E+00 -0.3954276532279E+00  0.1099397160471E-01
-0.5869431552302E+00 -0.6630921537987E+00 -0.5875165952436E+00  0.1978456092646E-01
-0.5537894120654E-01 -0.2431516620065E+00 -0.1403093835101E+00  0.2534553963339E-01
-0.2212893342504E+00 -0.2563566468807E+00 -0.2244936111316E+00 -0.6930916112532E-02
-0.1788737764364E+00 -0.2162246279105E+00 -0.1856962500431E+00 -0.3137629991848E-02
-0.1573083239725E+00 -0.1920904650695E+00 -0.1642174308498E+00 -0.1104830128248E-02
-0.1503214461831E+00 -0.1834253421650E+00 -0.1568609905236E+00 -0.6632419667952E-03
-0.1455552594428E+00 -0.1777890035911E+00 -0.1519718036259E+00 -0.3636154494335E-03
-0.1429839326511E+00 -0.1746759386859E+00 -0.1493001395284E+00 -0.2012775253554E-03
-0.1415046876145E+00 -0.1728981577713E+00 -0.1477693373314E+00 -0.9452808575007E-04
-0.1407990698637E+00 -0.1720500106060E+00 -0.1470390678207E+00 -0.2152066782514E-04
-0.1406243294394E+00 -0.1718459358189E+00 -0.1468610246714E+00  0.3173268161537E-04
-0.1408468043561E+00 -0.1721235824464E+00 -0.1470960817972E+00  0.7261119900804E-04
-0.1413792913950E+00 -0.1727779513491E+00 -0.1476539040897E+00  0.1057507472353E-03
-0.1421677304132E+00 -0.1737435975796E+00 -0.1484783241567E+00  0.1341801543689E-03
-0.1431792069053E+00 -0.1749807222850E+00 -0.1495351667194E+00  0.1600297862948E-03
-0.1443960861975E+00 -0.1764680166378E+00 -0.1508061283326E+00  0.1848844981432E-03
-0.1458121557295E+00 -0.1781980415367E+00 -0.1522847927151E+00  0.2099910845399E-03
-0.1474302680918E+00 -0.1801743761703E+00 -0.1539741828032E+00  0.2363814955629E-03
-0.1492608235187E+00 -0.1824097841123E+00 -0.1558851855866E+00  0.2649517996344E-03
-0.1513208114456E+00 -0.1849250518530E+00 -0.1580355557504E+00  0.2965166333681E-03
-0.1536332617969E+00 -0.1877483207901E+00 -0.1604493438159E+00  0.3318528888304E-03
-0.1562270322150E+00 -0.1909148249029E+00 -0.1631566728454E+00  0.3717403977409E-03
-0.1591368899894E+00 -0.1944669847247E+00 -0.1661938211156E+00  0.4170104930057E-03
-0.1624042064087E+00 -0.1984552280601E+00 -0.1696039342003E+00  0.4686190622033E-03
-0.1660781868635E+00 -0.2029394561493E+00 -0.1734382922160E+00  0.5277566415810E-03
-0.1702182802082E+00 -0.2079918859840E+00 -0.1777587781103E+00  0.5960646954371E-03
-0.1748990052925E+00 -0.2137027225201E+00 -0.1826428120719E+00  0.6760549908474E-03
-0.1802207566499E+00 -0.2201924480151E+00 -0.1881942061925E+00  0.7723363106760E-03
-0.1863418900767E+00 -0.2276424083181E+00 -0.1945726202456E+00  0.8953184473279E-03
-0.1934524462205E+00 -0.2362620900815E+00 -0.2019658320620E+00  0.1062805086690E-02
-0.2016269528635E+00 -0.2461329350487E+00 -0.2104471473187E+00  0.1296429515298E-02
-0.2107717716002E+00 -0.2571507010223E+00 -0.2199235621326E+00  0.1617059966954E-02
-0.2207537108107E+00 -0.2691612120725E+00 -0.2302600137551E+00  0.2040621573933E-02
-0.2315048946494E+00 -0.2820784743190E+00 -0.2413841834152E+00  0.2577909463473E-02
-0.2430577291813E+00 -0.2959270190665E+00 -0.2533228316764E+00  0.3239715357894E-02
-0.2555431183046E+00 -0.3108462214139E+00 -0.2662029896677E+00  0.4043578631681E-02
-0.2693188962691E+00 -0.3272046216598E+00 -0.2803660534266E+00  0.5024056859771E-02
-0.2846269004804E+00 -0.3453173156507E+00 -0.2960737815816E+00  0.6239862126758E-02
-0.3035365301170E+00 -0.3670547302313E+00 -0.3151778923637E+00  0.7867405689525E-02
-0.3220403190576E+00 -0.3892122352510E+00 -0.3342887005250E+00  0.9851577696455E-02
-0.3649823756422E+00 -0.4322069693378E+00 -0.3746789921406E+00  0.1482516177376E-01
-0.3688318836984E+00 -0.4281025977104E+00 -0.3745592062621E+00  0.1305737765816E-01
 0.6284971910385E-01 -0.5778595739396E-01  0.2379968003646E-02  0.9226451485999E-02
-0.2097014197378E+00 -0.2413528331566E+00 -0.2119954988604E+00 -0.6693346203986E-02
-0.1824964755549E+00 -0.2177430895953E+00 -0.1881125956206E+00 -0.4341297898030E-02
-0.1626593952842E+00 -0.1974707251581E+00 -0.1692611566079E+00 -0.2072113441671E-02
-0.1534748682429E+00 -0.1869254154922E+00 -0.1599881333555E+00 -0.1119624754368E-02
-0.1484478523976E+00 -0.1810540935960E+00 -0.1548659146170E+00 -0.6593432084931E-03
-0.1453432341768E+00 -0.1774115359032E+00 -0.1516947419376E+00 -0.3721201172893E-03
-0.1435395786180E+00 -0.1752810982712E+00 -0.1498457181379E+00 -0.1890621754270E-03
-0.1425565080387E+00 -0.1741252642581E+00 -0.1488404329795E+00 -0.6180899918916E-04
-0.1421608972017E+00 -0.1736691707205E+00 -0.1484401319234E+00  0.3095243957039E-04
-0.1421985625983E+00 -0.1737325535625E+00 -0.1484876245956E+00  0.1022560829280E-03
-0.1425747621249E+00 -0.1742030650634E+00 -0.1488855787785E+00  0.1599533390992E-03
-0.1432283467668E+00 -0.1750081221785E+00 -0.1495711404043E+00  0.2092609837213E-03
-0.1441213909705E+00 -0.1761025855672E+00 -0.1505052689727E+00  0.2538258860957E-03
-0.1452321076999E+00 -0.1774605822943E+00 -0.1516655642973E+00  0.2963549403578E-03
-0.1465507586770E+00 -0.1790706796054E+00 -0.1530420759927E+00  0.3389647495227E-03
-0.1480770028388E+00 -0.1809327566075E+00 -0.1546345869397E+00  0.3833950272002E-03
-0.1498182055520E+00 -0.1830559943137E+00 -0.1564508739369E+00  0.4311442746265E-03
-0.1517883444514E+00 -0.1854575686839E+00 -0.1585055791736E+00  0.4835636186585E-03
-0.1540073516859E+00 -0.1881618571888E+00 -0.1608195281711E+00  0.5419304798104E-03
-0.1565008098680E+00 -0.1912000619423E+00 -0.1634194097508E+00  0.6075175468871E-03
-0.1592999488708E+00 -0.1946101814498E+00 -0.1663377612507E+00  0.6816726677600E-03
-0.1624422270066E+00 -0.1984376606280E+00 -0.1696135471882E+00  0.7659344966866E-03
-0.1659724435969E+00 -0.2027366333176E+00 -0.1732932661498E+00  0.8622135279502E-03
-0.1699449411822E+00 -0.2075723424399E+00 -0.1774331233024E+00  0.9731181388055E-03
-0.1744279806261E+00 -0.2130258858466E+00 -0.1821033172422E+00  0.1102615668344E-02
-0.1795146951966E+00 -0.2192045222561E+00 -0.1873980322028E+00  0.1257681787869E-02
-0.1853336845894E+00 -0.2262473616677E+00 -0.1934430917409E+00  0.1449983220266E-02
-0.1920078389733E+00 -0.2342795928446E+00 -0.2003550929544E+00  0.1693624217467E-02
-0.1995656852551E+00 -0.2433258747127E+00 -0.2081590331848E+00  0.2002019544037E-02
-0.2079215232360E+00 -0.2532909672676E+00 -0.2167698705367E+00  0.2388669740918E-02
-0.2169505615981E+00 -0.2640325073627E+00 -0.2260620424116E+00  0.2867027617937E-02
-0.2265618809667E+00 -0.2754364107063E+00 -0.2359391970863E+00  0.3449331501150E-02
-0.2367193703969E+00 -0.2874416924422E+00 -0.2463556995344E+00  0.4148910941675E-02
-0.2474632648911E+00 -0.3000562580631E+00 -0.2573341757885E+00  0.4985988162802E-02
-0.2588255241247E+00 -0.3132704300113E+00 -0.2688850984439E+00  0.5990252770459E-02
-0.2711090078657E+00 -0.3272569232793E+00 -0.2812319876381E+00  0.7231310227295E-02
-0.2835685167954E+00 -0.3410939553454E+00 -0.2935913619061E+00  0.8712442588323E-02
-0.2975177559873E+00 -0.3553876982655E+00 -0.3068655634988E+00  0.1087290601079E-01
-0.3095467446356E+00 -0.3616922889440E+00 -0.3154823457824E+00  0.1255081934280E-01
-0.2282876952236E+00 -0.2812388961098E+00 -0.2394774979267E+00  0.5261194030932E-02
 0.9006398983630E-01 -0.7310013490125E-02  0.3889436888270E-01  0.3712061187491E-02
-0.2027294123259E+00 -0.2323208085877E+00 -0.2044736038294E+00 -0.6314625892203E-02
-0.1831755165822E+00 -0.2164802794630E+00 -0.1878382241413E+00 -0.4810335619746E-02
-0.1663637459032E+00 -0.2005432349658E+00 -0.1724462810084E+00 -0.2802938886898E-02
-0.1565663470854E+00 -0.1900697947602E+00 -0.1629189866675E+00 -0.1591167617330E-02
-0.1510147434894E+00 -0.1838267916834E+00 -0.1573755215312E+00 -0.9505293833579E-03
-0.1475808906284E+00 -0.1799103720971E+00 -0.1539208934810E+00 -0.5570336867185E-03
-0.1454667285804E+00 -0.1774794388541E+00 -0.1517846986942E+00 -0.2967927746602E-03
-0.1442409976691E+00 -0.1760711123587E+00 -0.1505466917131E+00 -0.1154586984165E-03
-0.1436395142948E+00 -0.1753916795767E+00 -0.1499446611196E+00  0.1785223755193E-04
-0.1435036982380E+00 -0.1752607437258E+00 -0.1498192877230E+00  0.1205861297554E-03
-0.1437304739752E+00 -0.1755598490866E+00 -0.1500664518390E+00  0.2037934149673E-03
-0.1442535434108E+00 -0.1762120970283E+00 -0.1506188510064E+00  0.2747778515224E-03
-0.1450305094393E+00 -0.1771681531355E+00 -0.1514333714102E+00  0.3386863925779E-03
-0.1460359053876E+00 -0.1783984107000E+00 -0.1524841285612E+00  0.3993366051528E-03
-0.1472567134700E+00 -0.1798879205560E+00 -0.1537579779922E+00  0.4597086333113E-03
-0.1486895476992E+00 -0.1816331558287E+00 -0.1552516706581E+00  0.5222414288192E-03
-0.1503388079402E+00 -0.1836398734205E+00 -0.1569699802395E+00  0.5890235303119E-03
-0.1522154707404E+00 -0.1859216964935E+00 -0.1589244685999E+00  0.6619246075688E-03
-0.1543363302759E+00 -0.1884992097312E+00 -0.1611327038033E+00  0.7426978691074E-03
-0.1567235997577E+00 -0.1913994629195E+00 -0.1636178394583E+00  0.8330749003813E-03
-0.1594048079188E+00 -0.1946557971867E+00 -0.1664084843996E+00  0.9348723040480E-03
-0.1624132435307E+00 -0.1983082791827E+00 -0.1695391156753E+00  0.1050142826788E-02
-0.1657888883653E+00 -0.2024046144007E+00 -0.1730509463000E+00  0.1181406809417E-02
-0.1695802390236E+00 -0.2070019050607E+00 -0.1769936077196E+00  0.1332047666442E-02
-0.1738483093261E+00 -0.2121702526021E+00 -0.1814287241062E+00  0.1507093715286E-02
-0.1786732608935E+00 -0.2179970831484E+00 -0.1864350616997E+00  0.1714413566223E-02
-0.1841515837493E+00 -0.2245793791441E+00 -0.1921035525599E+00  0.1964584351795E-02
-0.1903570796625E+00 -0.2319831639828E+00 -0.1984999145133E+00  0.2267845949413E-02
-0.1972850554818E+00 -0.2401929949910E+00 -0.2056146837222E+00  0.2632320895821E-02
-0.2048449732221E+00 -0.2491059417119E+00 -0.2133569300190E+00  0.3066354866546E-02
-0.2129077473771E+00 -0.2585731416434E+00 -0.2215960178396E+00  0.3579869740731E-02
-0.2213506571550E+00 -0.2684413296702E+00 -0.2302022338078E+00  0.4183175734476E-02
-0.2300738390362E+00 -0.2785666873240E+00 -0.2390610473893E+00  0.4887507924314E-02
-0.2389702643405E+00 -0.2887774652464E+00 -0.2480414329058E+00  0.5705812545727E-02
-0.2479184942803E+00 -0.2988393630864E+00 -0.2569761929624E+00  0.6657617617172E-02
-0.2565010403306E+00 -0.3081241062145E+00 -0.2653738188762E+00  0.7743658210309E-02
-0.2638367286823E+00 -0.3153800721923E+00 -0.2722318964111E+00  0.8962040370892E-02
-0.2680116273761E+00 -0.3172240947883E+00 -0.2750607894173E+00  0.1011191208369E-01
-0.2501077905928E+00 -0.2940361388823E+00 -0.2557476468533E+00  0.8378210734868E-02
-0.1434404651716E+00 -0.1952745212900E+00 -0.1591960436370E+00  0.3437430557819E-03
 0.9252339582865E-01  0.6378858926688E-02  0.4648405973501E-01  0.1473877674030E-02
-0.1979877512611E+00 -0.2262310292050E+00 -0.1993828268191E+00 -0.5932775512227E-02
-0.1829650869983E+00 -0.2147051896842E+00 -0.1869050300408E+00 -0.4929705960397E-02
-0.1688001772275E+00 -0.2021102743874E+00 -0.1743279122590E+00 -0.3270574273092E-02
-0.1592456142786E+00 -0.1925344972915E+00 -0.1653366524380E+00 -0.2002754017817E-02
-0.1533645626014E+00 -0.1862285804408E+00 -0.1596087772298E+00 -0.1229584866502E-02
-0.1496540439324E+00 -0.1821367207668E+00 -0.1559416594086E+00 -0.7415291737779E-03
-0.1472904836848E+00 -0.1794976942141E+00 -0.1535904436125E+00 -0.4115905879518E-03
-0.1458463112817E+00 -0.1778812809788E+00 -0.1521519683624E+00 -0.1779458750183E-03
-0.1450580160630E+00 -0.1770105054050E+00 -0.1513722050900E+00 -0.4772477317278E-05
-0.1447599581565E+00 -0.1767051218514E+00 -0.1510885876037E+00  0.1294701657233E-03
-0.1448448863831E+00 -0.1768460359808E+00 -0.1511947335110E+00  0.2384699089662E-03
-0.1452421403215E+00 -0.1773537563219E+00 -0.1516200714224E+00  0.3314600803699E-03
-0.1459057370568E+00 -0.1781761773723E+00 -0.1523184997817E+00  0.4149833775945E-03
-0.1468069559034E+00 -0.1792807390059E+00 -0.1532612166074E+00  0.4939171005007E-03
-0.1479297848508E+00 -0.1806494874009E+00 -0.1544322579583E+00  0.5720708035919E-03
-0.1492679522890E+00 -0.1822757968906E+00 -0.1558255621144E+00  0.6525563941673E-03
-0.1508229747642E+00 -0.1841621757463E+00 -0.1574430207399E+00  0.7380270646897E-03
-0.1526028485780E+00 -0.1863187684207E+00 -0.1592931599894E+00  0.8308426798125E-03
-0.1546211983021E+00 -0.1887623545911E+00 -0.1613902698598E+00  0.9331975306051E-03
-0.1568967812134E+00 -0.1915157307245E+00 -0.1637538806108E+00  0.1047236671396E-02
-0.1594532702259E+00 -0.1946073717199E+00 -0.1664085017146E+00  0.1175182661774E-02
-0.1623195368980E+00 -0.1980716080383E+00 -0.1693838381201E+00  0.1319510052459E-02
-0.1655303246418E+00 -0.2019491075081E+00 -0.1727153331105E+00  0.1483200194068E-02
-0.1691276582513E+00 -0.2062878792573E+00 -0.1764453026290E+00  0.1670155911653E-02
-0.1731636206058E+00 -0.2111449158921E+00 -0.1806250121540E+00  0.1885869138477E-02
-0.1777022662226E+00 -0.2165851549813E+00 -0.1853150879659E+00  0.2137904872175E-02
-0.1828101512486E+00 -0.2226682567265E+00 -0.1905748517483E+00  0.2434755250337E-02
-0.1885230204970E+00 -0.2294158076622E+00 -0.1964312492348E+00  0.2783109303677E-02
-0.1948090375041E+00 -0.2367801249452E+00 -0.2028469063511E+00  0.3187068076187E-02
-0.2015663847842E+00 -0.2446427300776E+00 -0.2097182839850E+00  0.3650647605420E-02
-0.2086520715924E+00 -0.2528362463751E+00 -0.2168995094447E+00  0.4179362728429E-02
-0.2159082189924E+00 -0.2611637469035E+00 -0.2242238239711E+00  0.4778982609994E-02
-0.2231584815177E+00 -0.2693889703248E+00 -0.2314973023660E+00  0.5453642674952E-02
-0.2301745626460E+00 -0.2771900946054E+00 -0.2384613889081E+00  0.6204002803329E-02
-0.2365651799323E+00 -0.2840199917304E+00 -0.2446750306815E+00  0.7017026679287E-02
-0.2415139153640E+00 -0.2888092147745E+00 -0.2492518711651E+00  0.7839807193860E-02
-0.2433682895446E+00 -0.2893860570776E+00 -0.2503945429124E+00  0.8519024538985E-02
-0.2363187144797E+00 -0.2791129737137E+00 -0.2422528934509E+00  0.8222154386009E-02
-0.1991304826131E+00 -0.2395572254761E+00 -0.2061832228019E+00  0.4474801090786E-02
-0.9113837652618E-01 -0.1433935344353E+00 -0.1102299981519E+00 -0.2345589950458E-02
 0.8913132982638E-01  0.9685071846779E-02  0.4644370878638E-01  0.2881844242212E-03
-0.1945496679456E+00 -0.2218572105029E+00 -0.1957112328708E+00 -0.5576463545122E-02
-0.1824708326019E+00 -0.2129835236488E+00 -0.1858635474379E+00 -0.4879010413000E-02
-0.1704284117179E+00 -0.2028438320236E+00 -0.1754379545585E+00 -0.3535742360486E-02
-0.1614549066349E+00 -0.1943580478302E+00 -0.1672320885986E+00 -0.2322297717661E-02
-0.1554815774322E+00 -0.1882618774533E+00 -0.1615594237962E+00 -0.1479809607763E-02
-0.1515683822218E+00 -0.1841071307177E+00 -0.1577674910816E+00 -0.9170466668019E-03
-0.1490035097355E+00 -0.1813324592289E+00 -0.1552579054133E+00 -0.5268405861656E-03
-0.1473709158570E+00 -0.1795556293020E+00 -0.1536554762247E+00 -0.2452977452780E-03
-0.1464138734289E+00 -0.1785235270593E+00 -0.1527205782295E+00 -0.3416565193984E-04
-0.1459657517723E+00 -0.1780640347636E+00 -0.1522939996719E+00  0.1307264723790E-03
-0.1459166838290E+00 -0.1780601137850E+00 -0.1522690948786E+00  0.2651854615831E-03
-0.1461931932034E+00 -0.1784319584160E+00 -0.1525738212611E+00  0.3800545035469E-03
-0.1467464221356E+00 -0.1791258920131E+00 -0.1531599876499E+00  0.4831186613223E-03
-0.1475448910959E+00 -0.1801072152662E+00 -0.1539964899902E+00  0.5802217970651E-03
-0.1485698801837E+00 -0.1813554707222E+00 -0.1550649149258E+00  0.6759445692029E-03
-0.1498124067682E+00 -0.1828612519213E+00 -0.1563566195840E+00  0.7740285231533E-03
-0.1512711956826E+00 -0.1846240046427E+00 -0.1578707441529E+00  0.8776539566081E-03
-0.1529512935933E+00 -0.1866504834129E+00 -0.1596128351929E+00  0.9896327403106E-03
-0.1548631330092E+00 -0.1889536686664E+00 -0.1615938967875E+00  0.1112556294522E-02
-0.1570219384806E+00 -0.1915520265870E+00 -0.1638297635818E+00  0.1248927462534E-02
-0.1594473850258E+00 -0.1944689924758E+00 -0.1663406974258E+00  0.1401298782673E-02
-0.1621636888100E+00 -0.1977328535462E+00 -0.1691513749074E+00  0.1572454805453E-02
-0.1651999779306E+00 -0.2013767485964E+00 -0.1722910614677E+00  0.1765662176027E-02
-0.1685911196884E+00 -0.2054387563430E+00 -0.1757940417348E+00  0.1985030699937E-02
-0.1723788511179E+00 -0.2099614236976E+00 -0.1796999291633E+00  0.2235920751154E-02
-0.1766100168377E+00 -0.2149871243282E+00 -0.1840506563480E+00  0.2524806561606E-02
-0.1813242970504E+00 -0.2205433527725E+00 -0.1888777954168E+00  0.2857719922429E-02
-0.1865264589006E+00 -0.2266164498663E+00 -0.1941771671204E+00  0.3238089138665E-02
-0.1921609438030E+00 -0.2331310162423E+00 -0.1998872212213E+00  0.3666495010323E-02
-0.1981106983897E+00 -0.2399489638905E+00 -0.2058880412717E+00  0.4142776207574E-02
-0.2042132767041E+00 -0.2468783704361E+00 -0.2120130741559E+00  0.4667256070161E-02
-0.2102704587514E+00 -0.2536746400486E+00 -0.2180541964360E+00  0.5238890177082E-02
-0.2160320786331E+00 -0.2600159791989E+00 -0.2237425871810E+00  0.5851493219908E-02
-0.2211354591059E+00 -0.2654291678464E+00 -0.2286853746676E+00  0.6486475109911E-02
-0.2249529176678E+00 -0.2691178777490E+00 -0.2322132738459E+00  0.7094393478178E-02
-0.2262970634876E+00 -0.2696351681083E+00 -0.2330881488501E+00  0.7555299931011E-02
-0.2224616797209E+00 -0.2638932425243E+00 -0.2285868134552E+00  0.7522857227487E-02
-0.2057936848788E+00 -0.2445066770462E+00 -0.2116411701048E+00  0.5964679031634E-02
-0.1582958091572E+00 -0.1977877851791E+00 -0.1673592893380E+00  0.1446363547481E-02
-0.5754820358282E-01 -0.1104321904151E+00 -0.7895078517904E-01 -0.3738564681007E-02
 0.8475413328151E-01  0.9840674576011E-02  0.4445955969303E-01 -0.4977232708413E-03
-0.1919583176263E+00 -0.2185865879288E+00 -0.1929561056109E+00 -0.5249285144536E-02
-0.1819102216755E+00 -0.2114593306026E+00 -0.1848836895707E+00 -0.4744824534017E-02
-0.1715451532133E+00 -0.2031279662077E+00 -0.1760963661278E+00 -0.3659561676776E-02
-0.1632515574688E+00 -0.1956823271572E+00 -0.1686989257742E+00 -0.2548931033144E-02
-0.1573559677114E+00 -0.1899479383231E+00 -0.1632328358362E+00 -0.1689238532268E-02
-0.1533255693806E+00 -0.1858358964843E+00 -0.1594058889565E+00 -0.1076409135046E-02
-0.1506043589767E+00 -0.1829887351940E+00 -0.1567887542602E+00 -0.6372989073066E-03
-0.1488128071230E+00 -0.1810950405071E+00 -0.1550566883861E+00 -0.3138326523760E-03
-0.1477056627760E+00 -0.1799306911417E+00 -0.1539890863413E+00 -0.6781538067460E-04
-0.1471197652629E+00 -0.1793367934224E+00 -0.1534345825821E+00  0.1260928122506E-03
-0.1469448814012E+00 -0.1792013867684E+00 -0.1532887460397E+00  0.2851051634247E-03
-0.1471059668093E+00 -0.1794461403947E+00 -0.1534794903859E+00  0.4213055326691E-03
-0.1475520920750E+00 -0.1800170018850E+00 -0.1539574741612E+00  0.5435101565881E-03
-0.1482494938690E+00 -0.1808778823147E+00 -0.1546898668064E+00  0.6584059829909E-03
-0.1491770465938E+00 -0.1820063146079E+00 -0.1556561797648E+00  0.7712642249454E-03
-0.1503232376761E+00 -0.1833904266761E+00 -0.1568454222455E+00  0.8863979007131E-03
-0.1516841010222E+00 -0.1850267953039E+00 -0.1582541212733E+00  0.1007465835253E-02
-0.1532617731112E+00 -0.1869188865380E+00 -0.1598849100351E+00  0.1137684897313E-02
-0.1550634817494E+00 -0.1890759064129E+00 -0.1617455124363E+00  0.1279991594834E-02
-0.1571008538377E+00 -0.1915119420568E+00 -0.1638480140704E+00  0.1437182343468E-02
-0.1593894388108E+00 -0.1942452579083E+00 -0.1662083074580E+00  0.1612053294188E-02
-0.1619485843865E+00 -0.1972978643264E+00 -0.1688458308950E+00  0.1807574248012E-02
-0.1648014555494E+00 -0.2006949982117E+00 -0.1717833332677E+00  0.2027103636239E-02
-0.1679751405729E+00 -0.2044642363818E+00 -0.1750465071687E+00  0.2274635273445E-02
-0.1715001593641E+00 -0.2086332257613E+00 -0.1786626910090E+00  0.2554908012741E-02
-0.1754061954058E+00 -0.2132229601156E+00 -0.1826557030951E+00  0.2872835577015E-02
-0.1797089872519E+00 -0.2182332947856E+00 -0.1870328725576E+00  0.3231877306708E-02
-0.1843871465731E+00 -0.2236215256612E+00 -0.1917640759501E+00  0.3632385330228E-02
-0.1893635370138E+00 -0.2292876397042E+00 -0.1967660530575E+00  0.4071554079839E-02
-0.1945036819342E+00 -0.2350724241537E+00 -0.2019007698613E+00  0.4544923727263E-02
-0.1996219334224E+00 -0.2407566227696E+00 -0.2069779214103E+00  0.5046908457157E-02
-0.2044784275160E+00 -0.2460492849332E+00 -0.2117480248512E+00  0.5568134691414E-02
-0.2087491506125E+00 -0.2505494545041E+00 -0.2158703444048E+00  0.6089500283167E-02
-0.2119435356380E+00 -0.2536543387297E+00 -0.2188310009529E+00  0.6570373778037E-02
-0.2132299550203E+00 -0.2543769630442E+00 -0.2197752514903E+00  0.6924217905376E-02
-0.2110393669228E+00 -0.2509549129174E+00 -0.2171373115249E+00  0.6959225033485E-02
-0.2019270697310E+00 -0.2398971008778E+00 -0.2076573601861E+00  0.6214623834123E-02
-0.1781557518711E+00 -0.2146195340234E+00 -0.1846043843704E+00  0.3800368908743E-02
-0.1262350501360E+00 -0.1660097716285E+00 -0.1373550662293E+00 -0.7219693921825E-03
-0.3507552953963E-01 -0.8843273457968E-01 -0.5804888413608E-01 -0.4435115509460E-02
 0.8064132748496E-01  0.9038541170013E-02  0.4214953826784E-01 -0.1087116515620E-02
-0.1899528841944E+00 -0.2160703759682E+00 -0.1908309322764E+00 -0.4948790883928E-02
-0.1813680236795E+00 -0.2101532597599E+00 -0.1840150032165E+00 -0.4570458188050E-02
-0.1723323796009E+00 -0.2031731686447E+00 -0.1764876076754E+00 -0.3688196322931E-02
-0.1647136608408E+00 -0.1966425487581E+00 -0.1698374185115E+00 -0.2694757468284E-02
-0.1589986158294E+00 -0.1913306948825E+00 -0.1646547760346E+00 -0.1853449219271E-02
-0.1549273750339E+00 -0.1873397948607E+00 -0.1608655698505E+00 -0.1214342339070E-02
-0.1520937035254E+00 -0.1844749703866E+00 -0.1581872767387E+00 -0.7388933689241E-03
-0.1501711864385E+00 -0.1825028211881E+00 -0.1563567835845E+00 -0.3804382199075E-03
-0.1489324758158E+00 -0.1812332722497E+00 -0.1551779015908E+00 -0.1034742500574E-03
-0.1482211457243E+00 -0.1805237649817E+00 -0.1545101080318E+00  0.1171641071424E-03
-0.1479287676478E+00 -0.1802698742682E+00 -0.1542533617005E+00  0.2993311407701E-03
-0.1479799467436E+00 -0.1803962993978E+00 -0.1543368356864E+00  0.4559350368358E-03
-0.1483224449795E+00 -0.1808496546907E+00 -0.1547108868450E+00  0.5965800474636E-03
-0.1489206944475E+00 -0.1815931582447E+00 -0.1553415107653E+00  0.7286472924178E-03
-0.1497514651852E+00 -0.1826027971312E+00 -0.1562065032887E+00  0.8580008109723E-03
-0.1508009018596E+00 -0.1838645410127E+00 -0.1572927581500E+00  0.9894543048269E-03
-0.1520624548897E+00 -0.1853722935822E+00 -0.1585943317818E+00  0.1127087205841E-02
-0.1535353985381E+00 -0.1871263451134E+00 -0.1601110195162E+00  0.1274466895103E-02
-0.1552237536767E+00 -0.1891321718974E+00 -0.1618472850199E+00  0.1434816366501E-02
-0.1571354980523E+00 -0.1913994643816E+00 -0.1638114323439E+00  0.1611154975527E-02
-0.1592819472104E+00 -0.1939412347226E+00 -0.1660148955085E+00  0.1806429476372E-02
-0.1616773974841E+00 -0.1967730650619E+00 -0.1684717173966E+00  0.2023663629610E-02
-0.1643387511826E+00 -0.1999120616570E+00 -0.1711978820346E+00  0.2266111231640E-02
-0.1672848602809E+00 -0.2033750633680E+00 -0.1742101641150E+00  0.2537356422972E-02
-0.1705346536193E+00 -0.2071750355759E+00 -0.1775235539217E+00  0.2841154156413E-02
-0.1741012916825E+00 -0.2113133007861E+00 -0.1811448584603E+00  0.3180597765563E-02
-0.1779791601480E+00 -0.2157658980818E+00 -0.1850601773680E+00  0.3556568278775E-02
-0.1821241872189E+00 -0.2204656101524E+00 -0.1892172047645E+00  0.3966441768410E-02
-0.1864392763706E+00 -0.2252904289130E+00 -0.1935129614833E+00  0.4404010379958E-02
-0.1907714169789E+00 -0.2300601183934E+00 -0.1977908216250E+00  0.4860321614089E-02
-0.1949101242889E+00 -0.2345283411660E+00 -0.2018360787638E+00  0.5323395931495E-02
-0.1985741157011E+00 -0.2383617019768E+00 -0.2053598343086E+00  0.5774620487682E-02
-0.2013692891500E+00 -0.2410916669556E+00 -0.2079566493696E+00  0.6180881944973E-02
-0.2026925720302E+00 -0.2420160034463E+00 -0.2090130304740E+00  0.6479763585854E-02
-0.2015337593971E+00 -0.2400102957879E+00 -0.2075257059369E+00  0.6550354876317E-02
-0.1960243563384E+00 -0.2331439894174E+00 -0.2017091225053E+00  0.6149202051947E-02
-0.1824504200558E+00 -0.2180232844529E+00 -0.1882226411191E+00  0.4807807788120E-02
-0.1539430442799E+00 -0.1894145856426E+00 -0.1613780860636E+00  0.1931076398841E-02
-0.1011127749402E+00 -0.1416642667809E+00 -0.1141052096089E+00 -0.2211782796382E-02
-0.1948725349143E-01 -0.7311878805882E-01 -0.4352483952862E-01 -0.4766228301635E-02
 0.7701905000398E-01  0.7954737490745E-02  0.3993768012252E-01 -0.1550611506546E-02
-0.1883700964399E+00 -0.2140924792598E+00 -0.1891574105789E+00 -0.4671423023185E-02
-0.1808763035343E+00 -0.2090482187198E+00 -0.1832645254594E+00 -0.4378232889351E-02
-0.1729030724362E+00 -0.2030952582869E+00 -0.1767192154399E+00 -0.3653787278002E-02
-0.1659116989021E+00 -0.1973433943303E+00 -0.1707298938192E+00 -0.2775089988294E-02
-0.1604318912208E+00 -0.1924607981876E+00 -0.1658595640220E+00 -0.1973545675935E-02
-0.1563793239126E+00 -0.1886400891804E+00 -0.1621591241537E+00 -0.1327981568877E-02
-0.1534734831899E+00 -0.1858016898535E+00 -0.1594593313304E+00 -0.8286653903441E-03
-0.1514463884130E+00 -0.1837841983023E+00 -0.1575583757562E+00 -0.4426346030041E-03
-0.1500940017178E+00 -0.1824337936332E+00 -0.1562880638150E+00 -0.1392184449655E-03
-0.1492694437429E+00 -0.1816262149018E+00 -0.1555209595630E+00  0.1053624377105E-03
-0.1488679177952E+00 -0.1812662676642E+00 -0.1551630671659E+00  0.3088771752591E-03
-0.1488148282559E+00 -0.1812829464702E+00 -0.1551459541213E+00  0.4846270769837E-03
-0.1490573468082E+00 -0.1816244140564E+00 -0.1554204276063E+00  0.6427442307044E-03
-0.1495585647678E+00 -0.1822538125173E+00 -0.1559518173240E+00  0.7911391419310E-03
-0.1502934457060E+00 -0.1831460092955E+00 -0.1567165438507E+00  0.9361582553208E-03
-0.1512459803159E+00 -0.1842851076848E+00 -0.1576996113603E+00  0.1083035512967E-02
-0.1524071483032E+00 -0.1856625332594E+00 -0.1588927503344E+00  0.1236205605458E-02
-0.1537734175928E+00 -0.1872755228672E+00 -0.1602930020162E+00  0.1399526102797E-02
-0.1553456108315E+00 -0.1891258878619E+00 -0.1619016043859E+00  0.1576443102118E-02
-0.1571280204505E+00 -0.1912189379450E+00 -0.1637230704459E+00  0.1770124330650E-02
-0.1591276429557E+00 -0.1935624059036E+00 -0.1657643229639E+00  0.1983571455814E-02
-0.1613535770657E+00 -0.1961653833956E+00 -0.1680339114168E+00  0.2219731365889E-02
-0.1638162374787E+00 -0.1990367798046E+00 -0.1705409181231E+00  0.2481568998582E-02
-0.1665259783455E+00 -0.2021827755274E+00 -0.1732931143202E+00  0.2772015549859E-02
-0.1694901390792E+00 -0.2056023146726E+00 -0.1762934532633E+00  0.3093594527638E-02
-0.1727062783037E+00 -0.2092789288218E+00 -0.1795330473490E+00  0.3447451048477E-02
-0.1761496721134E+00 -0.2131680914631E+00 -0.1829793488810E+00  0.3831925748363E-02
-0.1797562371835E+00 -0.2171816790834E+00 -0.1865608206455E+00  0.4241477688756E-02
-0.1834103287394E+00 -0.2211781976387E+00 -0.1901566073977E+00  0.4666450295330E-02
-0.1869402362894E+00 -0.2249577863639E+00 -0.1935920706470E+00  0.5093270825783E-02
-0.1901105514431E+00 -0.2282493789947E+00 -0.1966291673058E+00  0.5503370095687E-02
-0.1926006776760E+00 -0.2306835465057E+00 -0.1989435853654E+00  0.5868696172728E-02
-0.1939541368759E+00 -0.2317397293292E+00 -0.2000761171164E+00  0.6142561855437E-02
-0.1934734897041E+00 -0.2306477827884E+00 -0.1993369980715E+00  0.6243284471525E-02
-0.1900094024305E+00 -0.2262093998511E+00 -0.1956228370723E+00  0.6024276713243E-02
-0.1815339848794E+00 -0.2164935017601E+00 -0.1870729187206E+00  0.5224373130742E-02
-0.1644428999865E+00 -0.1985054091050E+00 -0.1705857052730E+00  0.3446958736905E-02
-0.1330912073524E+00 -0.1683651442771E+00 -0.1416844852659E+00  0.4081652202860E-03
-0.8132197152630E-01 -0.1227900672015E+00 -0.9593265820205E-01 -0.3209262396791E-02
-0.8344735168193E-02 -0.6209347046545E-01 -0.3310595664781E-01 -0.4904989516918E-02
 0.7384185690259E-01  0.6789306525979E-02  0.3789664681143E-01 -0.1919111907307E-02
-0.1871013329664E+00 -0.2125109099897E+00 -0.1878177541894E+00 -0.4413833022033E-02
-0.1804444633867E+00 -0.2081172823368E+00 -0.1826240204900E+00 -0.4179883392191E-02
-0.1733288419456E+00 -0.2029584519969E+00 -0.1768550281530E+00 -0.3578083142400E-02
-0.1669027419001E+00 -0.1978605330791E+00 -0.1714387392402E+00 -0.2804338596878E-02
-0.1616817540022E+00 -0.1933857794832E+00 -0.1668817407381E+00 -0.2053672092950E-02
-0.1576904648812E+00 -0.1897605314463E+00 -0.1633019682740E+00 -0.1416629982633E-02
-0.1547470478989E+00 -0.1869810679794E+00 -0.1606122144628E+00 -0.9047632976735E-03
-0.1526396564519E+00 -0.1849457498084E+00 -0.1586651409423E+00 -0.4985671375651E-03
-0.1511905316964E+00 -0.1835358399148E+00 -0.1573213946573E+00 -0.1734774077870E-03
-0.1502645953409E+00 -0.1826461871048E+00 -0.1564680677495E+00  0.9191501012880E-04
-0.1497621826994E+00 -0.1821918567696E+00 -0.1560183985504E+00  0.3146517487768E-03
-0.1496105110233E+00 -0.1821070623150E+00 -0.1559072594690E+00  0.5080154609369E-03
-0.1497568252563E+00 -0.1823422264778E+00 -0.1560865543150E+00  0.6824038638435E-03
-0.1501633133138E+00 -0.1828609403602E+00 -0.1565213992268E+00  0.8460850994626E-03
-0.1508034208482E+00 -0.1836373319934E+00 -0.1571871538355E+00  0.1005769979806E-02
-0.1516591719997E+00 -0.1846539096990E+00 -0.1580671483984E+00  0.1167025672351E-02
-0.1527191921380E+00 -0.1858998117588E+00 -0.1591509318315E+00  0.1334571511196E-02
-0.1539772061456E+00 -0.1873693521340E+00 -0.1604328823914E+00  0.1512490903270E-02
-0.1554308585653E+00 -0.1890607621002E+00 -0.1619110617127E+00  0.1704386840641E-02
-0.1570807374246E+00 -0.1909750213303E+00 -0.1635862066148E+00  0.1913499531969E-02
-0.1589294614154E+00 -0.1931146125424E+00 -0.1654607147602E+00  0.2142791163761E-02
-0.1609808299761E+00 -0.1954821673844E+00 -0.1675376087594E+00  0.2395008230264E-02
-0.1632386357759E+00 -0.1980784929068E+00 -0.1698190504809E+00  0.2672665836966E-02
-0.1657046587000E+00 -0.2008994467828E+00 -0.1723039295769E+00  0.2977855701240E-02
-0.1683749133150E+00 -0.2039308796509E+00 -0.1749837226940E+00  0.3311715151453E-02
-0.1712324008899E+00 -0.2071404270131E+00 -0.1778352291144E+00  0.3673397064368E-02
-0.1742352512006E+00 -0.2104658290508E+00 -0.1808095077181E+00  0.4058764011187E-02
-0.1773015652541E+00 -0.2138011455122E+00 -0.1838182740602E+00  0.4459414713811E-02
-0.1802985576032E+00 -0.2169879827680E+00 -0.1867246739745E+00  0.4862240178060E-02
-0.1830364357509E+00 -0.2198092247017E+00 -0.1893374604127E+00  0.5249059761764E-02
-0.1852560754789E+00 -0.2219729677047E+00 -0.1913976502963E+00  0.5594853242326E-02
-0.1866016042230E+00 -0.2230821250580E+00 -0.1925513527621E+00  0.5862655546717E-02
-0.1865643944129E+00 -0.2225813089521E+00 -0.1922984805816E+00  0.5993897948205E-02
-0.1843745284933E+00 -0.2196650930360E+00 -0.1898986221188E+00  0.5892277816596E-02
-0.1787974422981E+00 -0.2131285604843E+00 -0.1842052213077E+00  0.5398680869971E-02
-0.1677870628988E+00 -0.2011714346961E+00 -0.1734104938696E+00  0.4267090240172E-02
-0.1480819215764E+00 -0.1813170876802E+00 -0.1548175343506E+00  0.2212697856230E-02
-0.1152824900198E+00 -0.1508290400496E+00 -0.1250724191326E+00 -0.7881782312156E-03
-0.6560368532852E-01 -0.1079694880721E+00 -0.8157939149831E-01 -0.3861902935670E-02
-0.1891329641900E-03 -0.5394937159150E-01 -0.2544509714118E-01 -0.4940341668951E-02
 0.7101436489615E-01  0.5594524964029E-02  0.3600617823428E-01 -0.2210974540631E-02
-0.1860711688774E+00 -0.2112282608752E+00 -0.1867307319837E+00 -0.4173176083190E-02
-0.1800719409726E+00 -0.2073332459551E+00 -0.1820804378560E+00 -0.3981625391200E-02
-0.1736559461427E+00 -0.2027983576944E+00 -0.1769335228034E+00 -0.3475668523009E-02
-0.1677312380043E+00 -0.1982472820918E+00 -0.1720099044452E+00 -0.2794657238509E-02
-0.1627735283374E+00 -0.1941462583485E+00 -0.1677522997424E+00 -0.2099218222726E-02
-0.1588719454853E+00 -0.1907249135033E+00 -0.1643105237246E+00 -0.1481174440347E-02
-0.1559190740881E+00 -0.1880262783870E+00 -0.1616543156633E+00 -0.9663402803916E-03
-0.1537530230577E+00 -0.1859949906140E+00 -0.1596815664257E+00 -0.5469745788172E-03
-0.1522229000117E+00 -0.1845438167934E+00 -0.1582803568984E+00 -0.2050348644871E-03
-0.1512069037445E+00 -0.1835863811120E+00 -0.1573528438826E+00  0.7784299149721E-04
-0.1506116736624E+00 -0.1830484506318E+00 -0.1568202584183E+00  0.3174475570098E-03
-0.1503670901040E+00 -0.1828700466121E+00 -0.1566214542566E+00  0.5266749453697E-03
-0.1504210623854E+00 -0.1830043850452E+00 -0.1567099602924E+00  0.7159387717078E-03
-0.1507352783639E+00 -0.1834159339603E+00 -0.1570510697924E+00  0.8936942275164E-03
-0.1512819395156E+00 -0.1840784106195E+00 -0.1576193645635E+00  0.1066895840308E-02
-0.1520412865992E+00 -0.1849729755089E+00 -0.1583967031908E+00  0.1241353568503E-02
-0.1529997090787E+00 -0.1860866637835E+00 -0.1593705952453E+00  0.1421997750389E-02
-0.1541482589681E+00 -0.1874110038119E+00 -0.1605328535066E+00  0.1613071151478E-02
-0.1554814346287E+00 -0.1889407511440E+00 -0.1618784273131E+00  0.1818266638499E-02
-0.1569961190499E+00 -0.1906726408745E+00 -0.1634043171645E+00  0.2040822265680E-02
-0.1586905235946E+00 -0.1926039912379E+00 -0.1651084219713E+00  0.2283571378846E-02
-0.1605630971828E+00 -0.1947310950452E+00 -0.1669882703472E+00  0.2548949517156E-02
-0.1626109699645E+00 -0.1970468949678E+00 -0.1690391965182E+00  0.2838890374492E-02
-0.1648274285536E+00 -0.1995374525652E+00 -0.1712514941258E+00  0.3154514345729E-02
-0.1671976045752E+00 -0.2021766036845E+00 -0.1736058778821E+00  0.3495489967613E-02
-0.1696910308006E+00 -0.2049179340394E+00 -0.1760662134748E+00  0.3858990293250E-02
-0.1722504442076E+00 -0.2076839859175E+00 -0.1785691821588E+00  0.4238484681674E-02
-0.1747780534594E+00 -0.2103538020364E+00 -0.1810119720830E+00  0.4622795294361E-02
-0.1771254366711E+00 -0.2127548061865E+00 -0.1832437141431E+00  0.4995440533041E-02
-0.1790859945680E+00 -0.2146556948291E+00 -0.1850585940166E+00  0.5333819405247E-02
-0.1803792171198E+00 -0.2157486954952E+00 -0.1861801189290E+00  0.5606944206160E-02
-0.1806195195800E+00 -0.2156185066657E+00 -0.1862318723355E+00  0.5770091647380E-02
-0.1792581918639E+00 -0.2136924431881E+00 -0.1846867984744E+00  0.5755489367596E-02
-0.1754783834775E+00 -0.2091618409685E+00 -0.1807809054896E+00  0.5458417314285E-02
-0.1680179809176E+00 -0.2008734952721E+00 -0.1733789938092E+00  0.4721297121291E-02
-0.1549239828152E+00 -0.1872360448018E+00 -0.1608152129800E+00  0.3336824779388E-02
-0.1333880677005E+00 -0.1662941097024E+00 -0.1408506233793E+00  0.1139992144313E-02
-0.1001229070903E+00 -0.1362005495274E+00 -0.1110720246103E+00 -0.1704190394093E-02
-0.5300866943885E-01 -0.9619164270212E-01 -0.7012414670626E-01 -0.4276009412709E-02
 0.5886480397081E-02 -0.4782098698005E-01 -0.1970921809400E-01 -0.4918063741886E-02
 0.6845076726220E-01  0.4379863224270E-02  0.3423039632864E-01 -0.2439755310239E-02
-0.1852255316397E+00 -0.2101754539816E+00 -0.1858384632420E+00 -0.3947111396230E-02
-0.1797539742853E+00 -0.2066717339388E+00 -0.1816200828653E+00 -0.3786719551515E-02
-0.1739147404329E+00 -0.2026344475065E+00 -0.1769781183315E+00 -0.3356315903383E-02
-0.1684313121302E+00 -0.1985408910220E+00 -0.1724769354815E+00 -0.2755774760435E-02
-0.1637300796545E+00 -0.1947753482462E+00 -0.1684975511133E+00 -0.2115751833925E-02
-0.1599356882803E+00 -0.1915554147833E+00 -0.1652008184399E+00 -0.1523486598546E-02
-0.1569952289100E+00 -0.1889507401034E+00 -0.1625946054363E+00 -0.1013367693524E-02
-0.1547891978440E+00 -0.1869400080225E+00 -0.1606127267572E+00 -0.5871310469183E-03
-0.1531924151315E+00 -0.1854627232284E+00 -0.1591679150292E+00 -0.2330113162635E-03
-0.1520970089943E+00 -0.1844500216333E+00 -0.1581771043950E+00  0.6396173552498E-04
-0.1514167452567E+00 -0.1838382971003E+00 -0.1575698699078E+00  0.3179369173762E-03
-0.1510848443618E+00 -0.1835736642603E+00 -0.1572894990524E+00  0.5411159697040E-03
-0.1510503860567E+00 -0.1836124909872E+00 -0.1572915522106E+00  0.7437028020879E-03
-0.1512749204634E+00 -0.1839204519457E+00 -0.1575418250323E+00  0.9341774572913E-03
-0.1517296595003E+00 -0.1844711282495E+00 -0.1580143702424E+00  0.1119619502114E-02
-0.1523932368125E+00 -0.1852445529547E+00 -0.1586897611906E+00  0.1305990886630E-02
-0.1532499250263E+00 -0.1862258336934E+00 -0.1595536065983E+00  0.1498358513506E-02
-0.1542881797895E+00 -0.1874038558967E+00 -0.1605952567725E+00  0.1701057801773E-02
-0.1554993972299E+00 -0.1887700221659E+00 -0.1618066271160E+00  0.1917805626509E-02
-0.1568767741258E+00 -0.1903169419688E+00 -0.1631810465645E+00  0.2151766903663E-02
-0.1584141163147E+00 -0.1920369084831E+00 -0.1647119816550E+00  0.2405565015317E-02
-0.1601045237219E+00 -0.1939200799657E+00 -0.1663915637332E+00  0.2681230867420E-02
-0.1619385120892E+00 -0.1959518911178E+00 -0.1682084895073E+00  0.2980016718966E-02
-0.1639010821732E+00 -0.1981092673602E+00 -0.1701448642807E+00  0.3301988791490E-02
-0.1659670416872E+00 -0.2003551849730E+00 -0.1721714465303E+00  0.3645320069228E-02
-0.1680935506143E+00 -0.2026309554234E+00 -0.1742405178377E+00  0.4005257933580E-02
-0.1702095569189E+00 -0.2048462459644E+00 -0.1762762273551E+00  0.4372989796480E-02
-0.1722031529138E+00 -0.2068677104082E+00 -0.1781633057613E+00  0.4734691112207E-02
-0.1739119224636E+00 -0.2085114190357E+00 -0.1797389705046E+00  0.5070689448664E-02
-0.1751142867203E+00 -0.2095354084708E+00 -0.1807853567398E+00  0.5354333446218E-02
-0.1755115743198E+00 -0.2096216103792E+00 -0.1810125968085E+00  0.5549461408958E-02
-0.1746951383587E+00 -0.2083462261030E+00 -0.1800294412970E+00  0.5605230669286E-02
-0.1720895468789E+00 -0.2051360857650E+00 -0.1772960473427E+00  0.5448002234189E-02
-0.1668578782173E+00 -0.1992076793470E+00 -0.1720508120552E+00  0.4971368825135E-02
-0.1577620419016E+00 -0.1895013995377E+00 -0.1632138174765E+00  0.4031268517719E-02
-0.1430154772824E+00 -0.1746666556690E+00 -0.1493106024871E+00  0.2471578224462E-02
-0.1202897267065E+00 -0.1532148162776E+00 -0.1285471352025E+00  0.2356077532866E-03
-0.8722353484704E-01 -0.1239589134934E+00 -0.9925575072002E-01 -0.2390671860747E-02
-0.4282903636132E-01 -0.8673261095142E-01 -0.6089397423699E-01 -0.4525100686372E-02
 0.1046737675245E-01 -0.4315238596224E-01 -0.1536195432860E-01 -0.4862087089191E-02
 0.6608524331558E-01  0.3144278497960E-02  0.3253787525237E-01 -0.2616402719335E-02
-0.1845246787803E+00 -0.2093021913437E+00 -0.1850986289583E+00 -0.3733727502935E-02
-0.1794843142095E+00 -0.2061119331819E+00 -0.1812302362740E+00 -0.3596811720359E-02
-0.1741254016534E+00 -0.2024769818307E+00 -0.1770031202376E+00 -0.3226589846265E-02
-0.1690290616693E+00 -0.1987673611391E+00 -0.1728643187199E+00 -0.2695266558818E-02
-0.1645712542275E+00 -0.1952993895278E+00 -0.1691392025650E+00 -0.2108466528641E-02
-0.1608934795236E+00 -0.1922717912220E+00 -0.1659876772504E+00 -0.1545943987217E-02
-0.1579817639627E+00 -0.1897674826651E+00 -0.1634421459151E+00 -0.1046419040424E-02
-0.1557514245075E+00 -0.1877891232395E+00 -0.1614640574411E+00 -0.6187651117676E-03
-0.1541007877463E+00 -0.1862979457449E+00 -0.1599874047409E+00 -0.2568333423429E-03
-0.1529358497979E+00 -0.1852407304521E+00 -0.1589429927175E+00  0.5089023836961E-04
-0.1521779744010E+00 -0.1845640018782E+00 -0.1582687288512E+00  0.3166726076910E-03
-0.1517642227919E+00 -0.1842199904572E+00 -0.1579125802270E+00  0.5517825802472E-03
-0.1516452598285E+00 -0.1841684136590E+00 -0.1578324265391E+00  0.7660210320027E-03
-0.1517828138705E+00 -0.1843763875208E+00 -0.1579948246539E+00  0.9677449378516E-03
-0.1521473393412E+00 -0.1848175776249E+00 -0.1583735109741E+00  0.1164046206586E-02
-0.1527160299163E+00 -0.1854710821539E+00 -0.1589479426730E+00  0.1360950417359E-02
-0.1534711598083E+00 -0.1863202469195E+00 -0.1597019611621E+00  0.1563587906295E-02
-0.1543986705695E+00 -0.1873514610802E+00 -0.1606225618754E+00  0.1776321625826E-02
-0.1554869120906E+00 -0.1885529139417E+00 -0.1616987182352E+00  0.2002829572765E-02
-0.1567254337762E+00 -0.1899132394678E+00 -0.1629201764247E+00  0.2246138285857E-02
-0.1581036698715E+00 -0.1914198943772E+00 -0.1642760751969E+00  0.2508590756717E-02
-0.1596094245507E+00 -0.1930571783535E+00 -0.1657533033650E+00  0.2791738660527E-02
-0.1612267258339E+00 -0.1948034663689E+00 -0.1673341903354E+00  0.3096083862902E-02
-0.1629325939937E+00 -0.1966272949305E+00 -0.1689931477943E+00  0.3420597889045E-02
-0.1646921478189E+00 -0.1984819654420E+00 -0.1706918332326E+00  0.3761975343554E-02
-0.1664512603604E+00 -0.2002982134393E+00 -0.1723722526858E+00  0.4113626034325E-02
-0.1681265899818E+00 -0.2019749934909E+00 -0.1739477442322E+00  0.4464597233510E-02
-0.1695938143443E+00 -0.2033690781991E+00 -0.1752925594954E+00  0.4798602907820E-02
-0.1706783088601E+00 -0.2042880701071E+00 -0.1762341981146E+00  0.5093065803727E-02
-0.1711457806536E+00 -0.2044831057326E+00 -0.1765455766015E+00  0.5317820175604E-02
-0.1706832640220E+00 -0.2036315664921E+00 -0.1759279703416E+00  0.5432567019172E-02
-0.1688663722315E+00 -0.2013105073383E+00 -0.1739831333978E+00  0.5382295927093E-02
-0.1651067584619E+00 -0.1969612864565E+00 -0.1701719811117E+00  0.5091093428379E-02
-0.1585727073695E+00 -0.1898478314993E+00 -0.1637576532683E+00  0.4457083207507E-02
-0.1480903213938E+00 -0.1790285043384E+00 -0.1537458480941E+00  0.3358094251224E-02
-0.1320790600412E+00 -0.1633934572943E+00 -0.1388720831477E+00  0.1692312993836E-02
-0.1086677002062E+00 -0.1418455973444E+00 -0.1177412498488E+00 -0.5091009896468E-03
-0.7623328769765E-01 -0.1136739988355E+00 -0.8925642467056E-01 -0.2893774747013E-02
-0.3453612310185E-01 -0.7906757721048E-01 -0.5339373914680E-01 -0.4659130656157E-02
 0.1394476574521E-01 -0.3957209512222E-01 -0.1204484480719E-01 -0.4785264812830E-02
 0.6386905426481E-01  0.1884923670964E-02  0.3090436962981E-01 -0.2749989824254E-02
-0.1839388076415E+00 -0.2085710529478E+00 -0.1844796344770E+00 -0.3531459633975E-02
-0.1792565055582E+00 -0.2056364596238E+00 -0.1808996936355E+00 -0.3412653081660E-02
-0.1743014826866E+00 -0.2023309369535E+00 -0.1770172372308E+00 -0.3090914588288E-02
-0.1695444673801E+00 -0.1989448924675E+00 -0.1731899991284E+00 -0.2618942298958E-02
-0.1653139140000E+00 -0.1957390800650E+00 -0.1696949072105E+00 -0.2081944732836E-02
-0.1617564348532E+00 -0.1928911436448E+00 -0.1666843618941E+00 -0.1551094405172E-02
-0.1588851545412E+00 -0.1904887159005E+00 -0.1642057191076E+00 -0.1066467606430E-02
-0.1566433207210E+00 -0.1885506015881E+00 -0.1622411434853E+00 -0.6419673255985E-03
-0.1549500543495E+00 -0.1870550761015E+00 -0.1607424113120E+00 -0.2761936623412E-03
-0.1537246218933E+00 -0.1859624075887E+00 -0.1596529038566E+00  0.3906741453334E-04
-0.1528961366915E+00 -0.1852284501511E+00 -0.1589185558160E+00  0.3140932783259E-03
-0.1524058294967E+00 -0.1848113565524E+00 -0.1584920774431E+00  0.5590531837341E-03
-0.1522062720581E+00 -0.1846742504884E+00 -0.1583338455969E+00  0.7831886835077E-03
-0.1522596375441E+00 -0.1847858363063E+00 -0.1584113727097E+00  0.9946043430962E-03
-0.1525358298918E+00 -0.1851200327908E+00 -0.1586982554609E+00  0.1200300969694E-02
-0.1530107590753E+00 -0.1856551680247E+00 -0.1591729857370E+00  0.1406284287488E-02
-0.1536648175645E+00 -0.1863729809865E+00 -0.1598177653190E+00  0.1617678155247E-02
-0.1544815202650E+00 -0.1872575139172E+00 -0.1606173460656E+00  0.1838811175450E-02
-0.1554462386758E+00 -0.1882938973862E+00 -0.1615578639491E+00  0.2073264169708E-02
-0.1565449336628E+00 -0.1894669678375E+00 -0.1626255937052E+00  0.2323867501419E-02
-0.1577627334073E+00 -0.1907595768878E+00 -0.1638054858387E+00  0.2592625692521E-02
-0.1590822477225E+00 -0.1921505000036E+00 -0.1650793914313E+00  0.2880556433057E-02
-0.1604812103014E+00 -0.1936115674711E+00 -0.1664236055531E+00  0.3187371280782E-02
-0.1619290401575E+00 -0.1951037257325E+00 -0.1678053999683E+00  0.3510942476220E-02
-0.1633818499726E+00 -0.1965717848317E+00 -0.1691782083580E+00  0.3846538751669E-02
-0.1647752946986E+00 -0.1979375231621E+00 -0.1704750243945E+00  0.4185849853190E-02
-0.1660151689764E+00 -0.1990912116497E+00 -0.1715999988943E+00  0.4515957270455E-02
-0.1669664013763E+00 -0.1998821401761E+00 -0.1724188145297E+00  0.4818355245877E-02
-0.1674440681938E+00 -0.2001123114597E+00 -0.1727514984372E+00  0.5067941968829E-02
-0.1672037422266E+00 -0.1995297436637E+00 -0.1723647383684E+00  0.5231705637715E-02
-0.1659224236137E+00 -0.1978128248638E+00 -0.1709555667844E+00  0.5266405404510E-02
-0.1631675464424E+00 -0.1945479169849E+00 -0.1681262678108E+00  0.5114941220859E-02
-0.1583511043031E+00 -0.1892032358198E+00 -0.1633505398577E+00  0.4702566158463E-02
-0.1506681051053E+00 -0.1811053646161E+00 -0.1559335307691E+00  0.3936918460171E-02
-0.1390363636509E+00 -0.1694402513955E+00 -0.1449840090718E+00  0.2722260326969E-02
-0.1220952984133E+00 -0.1533202952013E+00 -0.1294453289989E+00  0.1007804754840E-02
-0.9838321920864E-01 -0.1319638408868E+00 -0.1082631182449E+00 -0.1109961925827E-02
-0.6684847610939E-01 -0.1049964815316E+00 -0.8076713009128E-01 -0.3252067059115E-02
-0.2773193774036E-01 -0.7280988241523E-01 -0.4725465547313E-01 -0.4711822882128E-02
 0.1658889407741E-01 -0.3682294107597E-01 -0.9510002089322E-02 -0.4694733936584E-02
 0.6176527535381E-01  0.5985158059263E-03  0.2931098184508E-01 -0.2848120634688E-02
-0.1834451971907E+00 -0.2079536998815E+00 -0.1839574816239E+00 -0.3339017669906E-02
-0.1790644708624E+00 -0.2052309436733E+00 -0.1806188448318E+00 -0.3234496163689E-02
-0.1744521677995E+00 -0.2021982734047E+00 -0.1770257073660E+00 -0.2952279184541E-02
-0.1699928857857E+00 -0.1990862845163E+00 -0.1734672100419E+00 -0.2531220170815E-02
-0.1659722204860E+00 -0.1961106028603E+00 -0.1701789269728E+00 -0.2040096339193E-02
-0.1625347332110E+00 -0.1934280151176E+00 -0.1673024917144E+00 -0.1541442512378E-02
-0.1597118253311E+00 -0.1911255936748E+00 -0.1648935869328E+00 -0.1074718853600E-02
-0.1574687237687E+00 -0.1892324299800E+00 -0.1629495422619E+00 -0.6570980571023E-03
-0.1557424984989E+00 -0.1877397554941E+00 -0.1614366593767E+00 -0.2910061609419E-03
-0.1544647346328E+00 -0.1866191246895E+00 -0.1603094138815E+00  0.2877301766645E-04
-0.1535721809071E+00 -0.1858347330628E+00 -0.1595212495658E+00  0.3105323839603E-03
-0.1530104074484E+00 -0.1853502977663E+00 -0.1590295314509E+00  0.5632436589015E-03
-0.1527341242517E+00 -0.1851322875752E+00 -0.1587972135586E+00  0.7954715112771E-03
-0.1527061656321E+00 -0.1851510643096E+00 -0.1587928980726E+00  0.1014960013670E-02
-0.1528960655223E+00 -0.1853809206717E+00 -0.1589901835111E+00  0.1228527141148E-02
-0.1532785943178E+00 -0.1857995526899E+00 -0.1593667290936E+00  0.1442082167594E-02
-0.1538323767388E+00 -0.1863872364266E+00 -0.1599032181877E+00  0.1660677432795E-02
-0.1545385930531E+00 -0.1871258179654E+00 -0.1605822731787E+00  0.1888549977330E-02
-0.1553797156162E+00 -0.1879975362819E+00 -0.1613873083921E+00  0.2129131078951E-02
-0.1563381949814E+00 -0.1889836320666E+00 -0.1623012587126E+00  0.2385005820602E-02
-0.1573949486633E+00 -0.1900626184359E+00 -0.1633050565366E+00  0.2657795412587E-02
-0.1585275364811E+00 -0.1912081256426E+00 -0.1643757611982E+00  0.2947948345831E-02
-0.1597076458698E+00 -0.1923859990389E+00 -0.1654840131071E+00  0.3254372221470E-02
-0.1608975278974E+00 -0.1935504181783E+00 -0.1665905346556E+00  0.3573865641279E-02
-0.1620450001168E+00 -0.1946388629882E+00 -0.1676414156594E+00  0.3900352901941E-02
-0.1630765475587E+00 -0.1955656911265E+00 -0.1685618521820E+00  0.4223947193207E-02
-0.1638884717986E+00 -0.1962143953427E+00 -0.1692483475564E+00  0.4529970295029E-02
-0.1643365958471E+00 -0.1964290603314E+00 -0.1695598584039E+00  0.4797989754741E-02
-0.1642276915333E+00 -0.1960088584223E+00 -0.1693111784791E+00  0.5000834942181E-02
-0.1633099636459E+00 -0.1947023117445E+00 -0.1682657694335E+00  0.5103404834907E-02
-0.1612547904037E+00 -0.1921938966286E+00 -0.1661208829052E+00  0.5060779701744E-02
-0.1576287859965E+00 -0.1880864371453E+00 -0.1624861548766E+00  0.4815793591642E-02
-0.1518561213006E+00 -0.1818841866462E+00 -0.1568579447350E+00  0.4297833330909E-02
-0.1431752005044E+00 -0.1729849061602E+00 -0.1485952501323E+00  0.3427479530708E-02
-0.1306115862620E+00 -0.1607010605555E+00 -0.1369169440042E+00  0.2136689789827E-02
-0.1130211592150E+00 -0.1443401505401E+00 -0.1209598155849E+00  0.4187925023570E-03
-0.8929443857992E-01 -0.1233678984432E+00 -0.9995129840085E-01 -0.1585151676139E-02
-0.5881200255118E-01 -0.9764411254174E-01 -0.7353437409368E-01 -0.3496417402989E-02
-0.2211322061943E-01 -0.6766931422707E-01 -0.4219779137786E-01 -0.4705884555097E-02
 0.1859259506229E-01 -0.3472086146042E-01 -0.7580285207121E-02 -0.4594538797212E-02
 0.5974414960891E-01 -0.7193165129924E-03  0.2774167155508E-01 -0.2917296554361E-02
-0.1830262852480E+00 -0.2074283493465E+00 -0.1835136782594E+00 -0.3155327973834E-02
-0.1789027478388E+00 -0.2048835631216E+00 -0.1803795661514E+00 -0.3062316682488E-02
-0.1745837289582E+00 -0.2020792631531E+00 -0.1770316062923E+00 -0.2812703538784E-02
-0.1703861837841E+00 -0.1992005921273E+00 -0.1737057846783E+00 -0.2435444596262E-02
-0.1665579975497E+00 -0.1964266051267E+00 -0.1706027632579E+00 -0.1986186699537E-02
-0.1632375209853E+00 -0.1938946448675E+00 -0.1678521179508E+00 -0.1519326919407E-02
-0.1604679625640E+00 -0.1916881246469E+00 -0.1655133609891E+00 -0.1072482849861E-02
-0.1582315567771E+00 -0.1898421642827E+00 -0.1635946488981E+00 -0.6647040377875E-03
-0.1564805740237E+00 -0.1883575480454E+00 -0.1620739173725E+00 -0.3013599749287E-03
-0.1551577667677E+00 -0.1872150318823E+00 -0.1609152153655E+00  0.2015119871209E-04
-0.1542072020942E+00 -0.1863860801612E+00 -0.1600788426600E+00  0.3062295667873E-03
-0.1535788208840E+00 -0.1858395033078E+00 -0.1595266123702E+00  0.5646122892568E-03
-0.1532296183039E+00 -0.1855449611197E+00 -0.1592240523291E+00  0.8031073800083E-03
-0.1531232570481E+00 -0.1854744760428E+00 -0.1591409345527E+00  0.1029012773549E-02
-0.1532290545505E+00 -0.1856027925530E+00 -0.1592509681386E+00  0.1248885224111E-02
-0.1535207728258E+00 -0.1859070877847E+00 -0.1595310944869E+00  0.1468469387245E-02
-0.1539753794241E+00 -0.1863663077591E+00 -0.1599605929761E+00  0.1692687255483E-02
-0.1545718159036E+00 -0.1869602533306E+00 -0.1605200725401E+00  0.1925632944177E-02
-0.1552897454369E+00 -0.1876684490313E+00 -0.1611903514001E+00  0.2170542781253E-02
-0.1561082047284E+00 -0.1884687607591E+00 -0.1619511737791E+00  0.2429716963961E-02
-0.1570040232620E+00 -0.1893356569990E+00 -0.1627796497227E+00  0.2704362025227E-02
-0.1579498922208E+00 -0.1902380332810E+00 -0.1636483249859E+00  0.2994340553823E-02
-0.1589117441788E+00 -0.1911363356337E+00 -0.1645225975119E+00  0.3297765741429E-02
-0.1598451335973E+00 -0.1919788031564E+00 -0.1653572502742E+00  0.3610413450973E-02
-0.1606903076627E+00 -0.1926967090148E+00 -0.1660918978384E+00  0.3924968797460E-02
-0.1613656059253E+00 -0.1931984394264E+00 -0.1666451013153E+00  0.4230134483928E-02
-0.1617591605728E+00 -0.1933624893371E+00 -0.1669071754577E+00  0.4509706797835E-02
-0.1617193081346E+00 -0.1930298715097E+00 -0.1667321144328E+00  0.4741660873482E-02
-0.1610465469254E+00 -0.1919995226217E+00 -0.1659316526871E+00  0.4897264345796E-02
-0.1594845422257E+00 -0.1900237856447E+00 -0.1642689140991E+00  0.4940124491930E-02
-0.1567033888912E+00 -0.1867976220908E+00 -0.1614454751616E+00  0.4824884995131E-02
-0.1522756501764E+00 -0.1819459396439E+00 -0.1570841472156E+00  0.4496132223126E-02
-0.1456475228108E+00 -0.1750150381428E+00 -0.1507114036482E+00  0.3889685425250E-02
-0.1361124799053E+00 -0.1654768265435E+00 -0.1417469740309E+00  0.2940947696139E-02
-0.1228105909475E+00 -0.1527624148794E+00 -0.1295193127386E+00  0.1608416356587E-02
-0.1048000068538E+00 -0.1363448547200E+00 -0.1133380849397E+00 -0.7887410567317E-04
-0.8126555497917E-01 -0.1158801537089E+00 -0.9265848308342E-01 -0.1952599379165E-02
-0.5190855274276E-01 -0.9138859736188E-01 -0.6734966054918E-01 -0.3650983786241E-02
-0.1744536118145E-01 -0.6342339116451E-01 -0.3800831360260E-01 -0.4656544367371E-02
 0.2009867840584E-01 -0.3312916549761E-01 -0.6124328933129E-02 -0.4486834901618E-02
 0.5777960789038E-01 -0.2075021679888E-02  0.2618115551893E-01 -0.2963287494532E-02
-0.1826683398223E+00 -0.2069780481589E+00 -0.1831338023512E+00 -0.2979487755910E-02
-0.1787665553334E+00 -0.2045846088522E+00 -0.1801750471672E+00 -0.2895939520090E-02
-0.1747004802064E+00 -0.2019732721780E+00 -0.1770366636207E+00 -0.2673547853188E-02
-0.1707335916003E+00 -0.1992942656117E+00 -0.1739130928896E+00 -0.2334140375006E-02
-0.1670810944731E+00 -0.1966969965471E+00 -0.1709757027795E+00 -0.1922904179633E-02
-0.1638729166036E+00 -0.1943012766531E+00 -0.1683418708307E+00 -0.1486858914658E-02
-0.1611593979599E+00 -0.1921851808989E+00 -0.1660719520636E+00 -0.1061083525975E-02
-0.1589357221990E+00 -0.1903868386927E+00 -0.1641816036191E+00 -0.6654479708446E-03
-0.1571668351325E+00 -0.1889138447109E+00 -0.1626579195264E+00 -0.3074759442406E-03
-0.1558054236171E+00 -0.1877542795663E+00 -0.1614730604962E+00  0.1323491548121E-04
-0.1548024146216E+00 -0.1868857993539E+00 -0.1605934605685E+00  0.3013435175594E-03
-0.1541120373108E+00 -0.1862817702483E+00 -0.1599850895528E+00  0.5633660118034E-03
-0.1536936433619E+00 -0.1859148207783E+00 -0.1596159781459E+00  0.8063087923618E-03
-0.1535118447544E+00 -0.1857585836977E+00 -0.1594571013725E+00  0.1036960330563E-02
-0.1535358694367E+00 -0.1857882962367E+00 -0.1594823578665E+00  0.1261551956399E-02
-0.1537385890054E+00 -0.1859807073258E+00 -0.1596680692757E+00  0.1485605024979E-02
-0.1540954204603E+00 -0.1863135551093E+00 -0.1599922185177E+00  0.1713859583390E-02
-0.1545831658350E+00 -0.1867647451282E+00 -0.1604335181527E+00  0.1950222203954E-02
-0.1551787788811E+00 -0.1873112719057E+00 -0.1609703238698E+00  0.2197696541032E-02
-0.1558579955438E+00 -0.1879278618770E+00 -0.1615793529878E+00  0.2458268192938E-02
-0.1565937039155E+00 -0.1885852520804E+00 -0.1622341093180E+00  0.2732710845230E-02
-0.1573539386281E+00 -0.1892480332403E+00 -0.1629029267781E+00  0.3020301501518E-02
-0.1580992017975E+00 -0.1898718477145E+00 -0.1635463932706E+00  0.3318388575326E-02
-0.1587788474915E+00 -0.1903998073194E+00 -0.1641139677611E+00  0.3621796958417E-02
-0.1593262798887E+00 -0.1907580515454E+00 -0.1645396357740E+00  0.3922097216310E-02
-0.1596526899021E+00 -0.1908503509522E+00 -0.1647364292015E+00  0.4206766277213E-02
-0.1596393175646E+00 -0.1905518500944E+00 -0.1645898487997E+00  0.4458331502794E-02
-0.1591285943659E+00 -0.1897024518595E+00 -0.1639505917260E+00  0.4653538124790E-02
-0.1579167588303E+00 -0.1881032126087E+00 -0.1626293865763E+00  0.4762624149790E-02
-0.1557457116688E+00 -0.1855132001185E+00 -0.1603916885401E+00  0.4748696826931E-02
-0.1522883327112E+00 -0.1816414446813E+00 -0.1569469953745E+00  0.4567108975215E-02
-0.1471290230838E+00 -0.1761389620138E+00 -0.1519359529959E+00  0.4165706933743E-02
-0.1397436183244E+00 -0.1685972520755E+00 -0.1449202090880E+00  0.3488304920774E-02
-0.1294877728399E+00 -0.1585611953466E+00 -0.1353830150476E+00  0.2485674400202E-02
-0.1156159496489E+00 -0.1455689667003E+00 -0.1227569106842E+00  0.1140149446162E-02
-0.9736864768943E-01 -0.1292307229563E+00 -0.1065017042035E+00 -0.4920245723644E-03
-0.7417135541661E-01 -0.1093466507428E+00 -0.8625346289494E-01 -0.2228751325915E-02
-0.4595881564991E-01 -0.8604463459339E-01 -0.6204162161435E-01 -0.3734522784640E-02
-0.1354367466125E-01 -0.5989737523536E-01 -0.3451729345141E-01 -0.4573965865799E-02
 0.2121887755382E-01 -0.3194053705125E-01 -0.5039179963793E-02 -0.4372291396864E-02
 0.5584712368951E-01 -0.3477656861404E-02  0.2461364940921E-01 -0.2991494386289E-02
-0.1823605196424E+00 -0.2065894635027E+00 -0.1828064920782E+00 -0.2810729611500E-02
-0.1786517767033E+00 -0.2043261098487E+00 -0.1799996066794E+00 -0.2735110844068E-02
-0.1748054107128E+00 -0.2018792224535E+00 -0.1770417775882E+00 -0.2535719539308E-02
-0.1710423412496E+00 -0.1993719372706E+00 -0.1740947109045E+00 -0.2229209773855E-02
-0.1675497158987E+00 -0.1969295790516E+00 -0.1713052686266E+00 -0.1852440204895E-02
-0.1644480695643E+00 -0.1946564665858E+00 -0.1687791319906E+00 -0.1445900577350E-02
-0.1617915462615E+00 -0.1926245643022E+00 -0.1665755719649E+00 -0.1041798179347E-02
-0.1595850223884E+00 -0.1908729238156E+00 -0.1647152347159E+00 -0.6600523863462E-03
-0.1578038760732E+00 -0.1894137953262E+00 -0.1631923055577E+00 -0.3096676108599E-03
-0.1564094970030E+00 -0.1882409550704E+00 -0.1619857124745E+00  0.7969723812641E-05
-0.1553591258269E+00 -0.1873372247197E+00 -0.1610672847569E+00  0.2959654431145E-03
-0.1546111094033E+00 -0.1866799615496E+00 -0.1604068033478E+00  0.5596674816098E-03
-0.1541271623983E+00 -0.1862444952551E+00 -0.1599746790971E+00  0.8052660905230E-03
-0.1538729247443E+00 -0.1860059776066E+00 -0.1597430841049E+00  0.1038998112284E-02
-0.1538176367028E+00 -0.1859401490558E+00 -0.1596861593065E+00  0.1266719580741E-02
-0.1539333843004E+00 -0.1860234013332E+00 -0.1597796892478E+00  0.1493679952258E-02
-0.1541941362786E+00 -0.1862323767098E+00 -0.1600004611045E+00  0.1724393645730E-02
-0.1545746569140E+00 -0.1865432332059E+00 -0.1603254083563E+00  0.1962542428304E-02
-0.1550492990015E+00 -0.1869306242942E+00 -0.1607305639490E+00  0.2210867651991E-02
-0.1555906254983E+00 -0.1873663818163E+00 -0.1611897934379E+00  0.2471020522637E-02
-0.1561677501649E+00 -0.1878178362938E+00 -0.1616732256356E+00  0.2743336230757E-02
-0.1567442877042E+00 -0.1882457122637E+00 -0.1621452999849E+00  0.3026521770169E-02
-0.1572756579604E+00 -0.1886014409532E+00 -0.1625622364894E+00  0.3317207457078E-02
-0.1577055247578E+00 -0.1888237936470E+00 -0.1628687796503E+00  0.3609355905247E-02
-0.1579611699294E+00 -0.1888347887344E+00 -0.1629941005720E+00  0.3893563009318E-02
-0.1579475999673E+00 -0.1885348361294E+00 -0.1628467449654E+00  0.4156278775669E-02
-0.1575403885969E+00 -0.1877972340300E+00 -0.1623086826347E+00  0.4379033242539E-02
-0.1565775867599E+00 -0.1864625412641E+00 -0.1612288601713E+00  0.4537718067172E-02
-0.1548531166623E+00 -0.1843360007602E+00 -0.1594188851885E+00  0.4602072932064E-02
-0.1521097346326E+00 -0.1811858281983E+00 -0.1566489145305E+00  0.4535449883236E-02
-0.1480267492473E+00 -0.1767378422495E+00 -0.1526393580035E+00  0.4294902941348E-02
-0.1422052385841E+00 -0.1706716775877E+00 -0.1470521506007E+00  0.3832680897329E-02
-0.1341560663944E+00 -0.1626248312853E+00 -0.1394870219095E+00  0.3101451481008E-02
-0.1233003713272E+00 -0.1522111854313E+00 -0.1294904316765E+00  0.2066870205334E-02
-0.1090021609074E+00 -0.1390628566903E+00 -0.1165905582709E+00  0.7315899705931E-03
-0.9066211562808E-01 -0.1229015589766E+00 -0.1003749270642E+00 -0.8287060617785E-03
-0.6789895010424E-01 -0.1036350819355E+00 -0.8062099505870E-01 -0.2428097552784E-02
-0.4081413753802E-01 -0.8146153043188E-01 -0.5746956394585E-01 -0.3761669443077E-02
-0.1026064020044E-01 -0.5695081831223E-01 -0.3158938550096E-01 -0.4465068818145E-02
 0.2204912808485E-01 -0.3106181431395E-01 -0.4235962527673E-02 -0.4250027098053E-02
 0.5392506742114E-01 -0.4936351649693E-02  0.2302469641258E-01 -0.3007150310170E-02
-0.1820941962266E+00 -0.2062520176775E+00 -0.1825227205349E+00 -0.2648393960005E-02
-0.1785549067637E+00 -0.2041015207737E+00 -0.1798485209426E+00 -0.2579539429847E-02
-0.1749006085701E+00 -0.2017958623748E+00 -0.1770473413441E+00 -0.2399812713606E-02
-0.1713181442450E+00 -0.1994369659332E+00 -0.1742549017838E+00 -0.2122082793317E-02
-0.1679707075372E+00 -0.1971305348408E+00 -0.1715975839177E+00 -0.1776568064222E-02
-0.1649692453450E+00 -0.1949673642102E+00 -0.1691702064909E+00 -0.1398066537342E-02
-0.1623693803288E+00 -0.1930131021904E+00 -0.1670297667840E+00 -0.1015820115634E-02
-0.1601831040225E+00 -0.1913063198754E+00 -0.1652000292320E+00 -0.6492569669696E-03
-0.1583942814171E+00 -0.1898622648147E+00 -0.1636805767289E+00 -0.3083078882453E-03
-0.1569718290868E+00 -0.1886790333963E+00 -0.1624559053670E+00  0.4235869989998E-05
-0.1558787109191E+00 -0.1877436722437E+00 -0.1615025200865E+00  0.2901324175255E-03
-0.1550771571750E+00 -0.1870369685451E+00 -0.1607936390885E+00  0.5536425113847E-03
-0.1545311987166E+00 -0.1865366604500E+00 -0.1603018938083E+00  0.8001510793149E-03
-0.1542075448578E+00 -0.1862192982738E+00 -0.1600006162719E+00  0.1035320405319E-02
-0.1540755266695E+00 -0.1860611120107E+00 -0.1598642201797E+00  0.1264595250215E-02
-0.1541065368326E+00 -0.1860381904579E+00 -0.1598680218265E+00  0.1492914835115E-02
-0.1542731935864E+00 -0.1861261825579E+00 -0.1599877067879E+00  0.1724532549675E-02
-0.1545483271279E+00 -0.1862996434497E+00 -0.1601985461715E+00  0.1962875780491E-02
-0.1549038052294E+00 -0.1865310763388E+00 -0.1604743943370E+00  0.2210402171541E-02
-0.1553091581474E+00 -0.1867896682382E+00 -0.1607864484012E+00  0.2468418384157E-02
-0.1557299090749E+00 -0.1870396728655E+00 -0.1611017035120E+00  0.2736827031548E-02
-0.1561255080395E+00 -0.1872383865539E+00 -0.1613810304589E+00  0.3013794029499E-02
-0.1564466564079E+00 -0.1873336079628E+00 -0.1615767242543E+00  0.3295292419609E-02
-0.1566318425848E+00 -0.1872605176070E+00 -0.1616294092902E+00  0.3574524538002E-02
-0.1566029318908E+00 -0.1869379562686E+00 -0.1614642174349E+00  0.3841262736687E-02
-0.1562596719059E+00 -0.1862641203110E+00 -0.1609861823419E+00  0.4081138152767E-02
-0.1554731361389E+00 -0.1851118120723E+00 -0.1600749256593E+00  0.4274962060134E-02
-0.1540784406928E+00 -0.1833237961706E+00 -0.1585790513258E+00  0.4398148314170E-02
-0.1518690163219E+00 -0.1807112490754E+00 -0.1563127247367E+00  0.4420445587752E-02
-0.1485908583523E+00 -0.1770534460462E+00 -0.1530528230673E+00  0.4306116265709E-02
-0.1439328199702E+00 -0.1720948679649E+00 -0.1485330133295E+00  0.4014718447796E-02
-0.1375163840731E+00 -0.1655449458376E+00 -0.1424388250580E+00  0.3503671448383E-02
-0.1288908103721E+00 -0.1570861826945E+00 -0.1344091867413E+00  0.2734745230764E-02
-0.1175430132699E+00 -0.1463957904377E+00 -0.1240512377426E+00  0.1687283050331E-02
-0.1029388222695E+00 -0.1331866815858E+00 -0.1109789868120E+00  0.3804586845666E-03
-0.8461658732424E-01 -0.1172698095692E+00 -0.9488660653990E-01 -0.1097252166496E-02
-0.6234846740507E-01 -0.9863275157658E-01 -0.7566117292138E-01 -0.2563140029503E-02
-0.3635027344222E-01 -0.7751527909300E-01 -0.5351680969155E-01 -0.3743882720867E-02
-0.7481881281625E-02 -0.5447373751179E-01 -0.2911914083290E-01 -0.4335344873108E-02
 0.2268776796889E-01 -0.3039411303243E-01 -0.3621982179867E-02 -0.4117448862722E-02
 0.5199957988646E-01 -0.6453758421118E-02  0.2140653608871E-01 -0.3015095233421E-02
-0.1818624538426E+00 -0.2059572550126E+00 -0.1822752631620E+00 -0.2491907334996E-02
-0.1784729886140E+00 -0.2039054695679E+00 -0.1797178753455E+00 -0.2428920155421E-02
-0.1749875438725E+00 -0.2017219185620E+00 -0.1770534473442E+00 -0.2266203184750E-02
-0.1715655512883E+00 -0.1994918174036E+00 -0.1743969632852E+00 -0.2013830579206E-02
-0.1683497960875E+00 -0.1973047999708E+00 -0.1718576601474E+00 -0.1696714313074E-02
-0.1654419195228E+00 -0.1952399572295E+00 -0.1695204820736E+00 -0.1344738823060E-02
-0.1628974310411E+00 -0.1933567536671E+00 -0.1674394668129E+00 -0.9842381034869E-03
-0.1607334220214E+00 -0.1916923733490E+00 -0.1656401238241E+00 -0.6337875782332E-03
-0.1589405867373E+00 -0.1902638088101E+00 -0.1641260659073E+00 -0.3038016966877E-03
-0.1574942807504E+00 -0.1890723406091E+00 -0.1628863120390E+00  0.1867996920978E-05
-0.1563625896557E+00 -0.1881084031773E+00 -0.1619013666315E+00  0.2838400575349E-03
-0.1555113507594E+00 -0.1873556779565E+00 -0.1611475034964E+00  0.5453875132607E-03
-0.1549068225961E+00 -0.1867940103574E+00 -0.1605993914882E+00  0.7911208453401E-03
-0.1545167935646E+00 -0.1864012101940E+00 -0.1602314617665E+00  0.1026121676118E-02
-0.1543107431102E+00 -0.1861539652351E+00 -0.1600184129223E+00  0.1255400519732E-02
-0.1542594509548E+00 -0.1860281018298E+00 -0.1599351498087E+00  0.1483558101037E-02
-0.1543342779932E+00 -0.1859983694583E+00 -0.1599563443022E+00  0.1714559733447E-02
-0.1545062252675E+00 -0.1860378609311E+00 -0.1600557205133E+00  0.1951556605700E-02
-0.1547447976175E+00 -0.1861171192378E+00 -0.1602051009220E+00  0.2196709346122E-02
-0.1550166431292E+00 -0.1862029369088E+00 -0.1603732026179E+00  0.2450979035992E-02
-0.1552838912031E+00 -0.1862568191194E+00 -0.1605241338516E+00  0.2713852043668E-02
-0.1555020955705E+00 -0.1862330633786E+00 -0.1606155247061E+00  0.2982993539787E-02
-0.1556176113019E+00 -0.1860763914602E+00 -0.1605961812982E+00  0.3253791494163E-02
-0.1555642629142E+00 -0.1857190974204E+00 -0.1604031793573E+00  0.3518799905623E-02
-0.1552591828807E+00 -0.1850777118411E+00 -0.1599583405192E+00  0.3767126060913E-02
-0.1545977399212E+00 -0.1840492505412E+00 -0.1591640855173E+00  0.3983794349941E-02
-0.1534476036211E+00 -0.1825072089833E+00 -0.1578987619241E+00  0.4149174662975E-02
-0.1516423006877E+00 -0.1802978789667E+00 -0.1560118844376E+00  0.4238565078754E-02
-0.1489764358381E+00 -0.1772397834700E+00 -0.1533216230748E+00  0.4222187567477E-02
-0.1452013309041E+00 -0.1731246606590E+00 -0.1496132160346E+00  0.4065778726962E-02
-0.1400179160559E+00 -0.1677167495370E+00 -0.1446352928287E+00  0.3731999875163E-02
-0.1330707303061E+00 -0.1607553598891E+00 -0.1380982623918E+00  0.3183858952999E-02
-0.1239490479713E+00 -0.1519657366203E+00 -0.1296799487580E+00  0.2391993046621E-02
-0.1122036947218E+00 -0.1410819639376E+00 -0.1190442595699E+00  0.1347800738854E-02
-0.9739282583090E-01 -0.1278851945105E+00 -0.1058806695605E+00  0.8328131837929E-04
-0.7917177780965E-01 -0.1122573908195E+00 -0.8997170925569E-01 -0.1305778079031E-02
-0.5743091033498E-01 -0.9424247518824E-01 -0.7128649119592E-01 -0.2644397735854E-02
-0.3246757346178E-01 -0.7410795709482E-01 -0.5009049936160E-01 -0.3690538631863E-02
-0.5107770915114E-02 -0.5236912022424E-01 -0.2701413883549E-01 -0.4188972740724E-02
 0.2319332017628E-01 -0.2987546038086E-01 -0.3140605896152E-02 -0.3974971810958E-02
 0.5022808949540E-01 -0.7852189408909E-02  0.1991667304065E-01 -0.3013258861682E-02
-0.1816601923739E+00 -0.2056988000098E+00 -0.1820587264203E+00 -0.2340779456672E-02
-0.1784038234375E+00 -0.2037338090888E+00 -0.1796046872873E+00 -0.2283001678211E-02
-0.1750675914711E+00 -0.2016565185601E+00 -0.1770603317147E+00 -0.2135192500654E-02
-0.1717884115905E+00 -0.1995385750810E+00 -0.1745236837356E+00 -0.1905350186897E-02
-0.1686918175780E+00 -0.1974564847026E+00 -0.1720897020718E+00 -0.1614123956942E-02
-0.1658707013005E+00 -0.1954792605652E+00 -0.1698344820769E+00 -0.1287184627493E-02
-0.1633794367228E+00 -0.1936605378980E+00 -0.1678087880718E+00 -0.9481089373689E-03
-0.1612386752571E+00 -0.1920355793268E+00 -0.1660388996544E+00 -0.6143975284757E-03
-0.1594445610519E+00 -0.1906222103296E+00 -0.1645313825493E+00 -0.2966075790108E-03
-0.1579779120808E+00 -0.1894239864835E+00 -0.1632788923252E+00  0.6467581036772E-06
-0.1568113503719E+00 -0.1884340112738E+00 -0.1622653199735E+00  0.2770444465404E-03
-0.1559140219201E+00 -0.1876383718869E+00 -0.1614696250893E+00  0.5349803823379E-03
-0.1552542954313E+00 -0.1870187308246E+00 -0.1608683223403E+00  0.7783369407130E-03
-0.1548010249642E+00 -0.1865540156682E+00 -0.1604368690972E+00  0.1011623910655E-02
-0.1545238822685E+00 -0.1862213354977E+00 -0.1601502523501E+00  0.1239407312812E-02
-0.1543931105180E+00 -0.1859962932619E+00 -0.1599830197765E+00  0.1465931803956E-02
-0.1543789113743E+00 -0.1858528365967E+00 -0.1599089215464E+00  0.1694857022617E-02
-0.1544505748160E+00 -0.1857627456940E+00 -0.1599002606397E+00  0.1929045260951E-02
-0.1545753856647E+00 -0.1856948070653E+00 -0.1599269905831E+00  0.2170356426582E-02
-0.1547172882241E+00 -0.1856136853608E+00 -0.1599555575849E+00  0.2419415655963E-02
-0.1548352484991E+00 -0.1854784808871E+00 -0.1599474528115E+00  0.2675321338362E-02
-0.1548812291187E+00 -0.1852409310991E+00 -0.1598574153023E+00  0.2935291063498E-02
-0.1547976464668E+00 -0.1848432328067E+00 -0.1596312132585E+00  0.3194212684171E-02
-0.1545142000201E+00 -0.1842154722095E+00 -0.1592029459479E+00  0.3444115034548E-02
-0.1539439846809E+00 -0.1832726797522E+00 -0.1584918322836E+00  0.3673607012306E-02
-0.1529788588497E+00 -0.1819116233637E+00 -0.1573985266403E+00  0.3867321633530E-02
-0.1514841412091E+00 -0.1800075212821E+00 -0.1558010813709E+00  0.4005459007985E-02
-0.1492930222934E+00 -0.1774112700045E+00 -0.1535510173800E+00  0.4063538801948E-02
-0.1462027636085E+00 -0.1739497821018E+00 -0.1504716964838E+00  0.4012658803028E-02
-0.1419717428992E+00 -0.1694281053528E+00 -0.1463579286784E+00  0.3820467081214E-02
-0.1363148297489E+00 -0.1636305294012E+00 -0.1409743188005E+00  0.3453101359673E-02
-0.1289011184159E+00 -0.1563252738569E+00 -0.1340564043682E+00  0.2879230500676E-02
-0.1193598361287E+00 -0.1472769859567E+00 -0.1253193063802E+00  0.2077704666084E-02
-0.1073018250435E+00 -0.1362695126597E+00 -0.1144785287205E+00  0.1050059927466E-02
-0.9236703791526E-01 -0.1231406404616E+00 -0.1012886088371E+00 -0.1623584104414E-03
-0.7430717726831E-01 -0.1078269190693E+00 -0.8560302527865E-01 -0.1460741675345E-02
-0.5310488145262E-01 -0.9041355254113E-01 -0.6745366397706E-01 -0.2680836200490E-02
-0.2909953618438E-01 -0.7117230866219E-01 -0.4712776707789E-01 -0.3608998207982E-02
-0.3107749225379E-02 -0.5060785907411E-01 -0.2524633590076E-01 -0.4034530257256E-02
 0.2367829860408E-01 -0.2937844392541E-01 -0.2679068301023E-02 -0.3816723857637E-02
 0.4876468864451E-01 -0.9041733870505E-02  0.1866978874378E-01 -0.3046173722454E-02
-0.1814820101620E+00 -0.2054703746869E+00 -0.1818676208790E+00 -0.2194558525878E-02
-0.1783448358158E+00 -0.2035824591366E+00 -0.1795058286276E+00 -0.2141475940923E-02
-0.1751409534616E+00 -0.2015980687174E+00 -0.1770673404241E+00 -0.2006879283870E-02
-0.1719892109355E+00 -0.1995781965154E+00 -0.1746366815019E+00 -0.1797215857875E-02
-0.1690004448372E+00 -0.1975884797162E+00 -0.1722967945401E+00 -0.1529693153534E-02
-0.1662594963812E+00 -0.1956892858754E+00 -0.1701159276606E+00 -0.1226379613569E-02
-0.1638189454274E+00 -0.1939288552313E+00 -0.1681414663096E+00 -0.9082908323461E-03
-0.1617018218610E+00 -0.1923402343000E+00 -0.1663997663956E+00 -0.5917281610100E-03
-0.1599085736817E+00 -0.1909414198425E+00 -0.1648994969564E+00 -0.2871332815275E-03
-0.1584246164256E+00 -0.1897375201209E+00 -0.1636362041768E+00  0.3693479549416E-06
-0.1572265553778E+00 -0.1887236984982E+00 -0.1625966193217E+00  0.2697048573050E-03
-0.1562865406770E+00 -0.1878880104585E+00 -0.1617620390337E+00  0.5225028663535E-03
-0.1555749151783E+00 -0.1872136619669E+00 -0.1611106312583E+00  0.7619740713119E-03
-0.1550615667026E+00 -0.1866805565012E+00 -0.1606187979058E+00  0.9920764969715E-03
-0.1547163892179E+00 -0.1862661815233E+00 -0.1602618082484E+00  0.1216931635257E-02
-0.1545091570079E+00 -0.1859459478908E+00 -0.1600138993024E+00  0.1440419295431E-02
-0.1544090066359E+00 -0.1856930919359E+00 -0.1598479863287E+00  0.1665883553699E-02
-0.1543836350487E+00 -0.1854782246550E+00 -0.1597350740607E+00  0.1895892263527E-02
-0.1543982528063E+00 -0.1852685732386E+00 -0.1596434082411E+00  0.2132007964484E-02
-0.1544142832101E+00 -0.1850269319960E+00 -0.1595373711469E+00  0.2374536660593E-02
-0.1543877630528E+00 -0.1847103250006E+00 -0.1593761013851E+00  0.2622224157314E-02
-0.1542673688651E+00 -0.1842683425774E+00 -0.1591117843780E+00  0.2871900076883E-02
-0.1539919766729E+00 -0.1836411656262E+00 -0.1586875768806E+00  0.3118041736232E-02
-0.1534876749485E+00 -0.1827572841990E+00 -0.1580351307993E+00  0.3352277393626E-02
-0.1526641691067E+00 -0.1815309403822E+00 -0.1570717014598E+00  0.3562880919489E-02
-0.1514105997969E+00 -0.1798594491325E+00 -0.1556969229968E+00  0.3734299258842E-02
-0.1495908754972E+00 -0.1776205932148E+00 -0.1537893902946E+00  0.3846813380444E-02
-0.1470389395850E+00 -0.1746706965262E+00 -0.1512035289723E+00  0.3876461714066E-02
-0.1435559448987E+00 -0.1708457599672E+00 -0.1477688012870E+00  0.3795547255825E-02
-0.1389086643129E+00 -0.1659645295915E+00 -0.1432904011351E+00  0.3573942816876E-02
-0.1328271501156E+00 -0.1598310568219E+00 -0.1375493572606E+00  0.3181446310999E-02
-0.1250056507392E+00 -0.1522408803552E+00 -0.1303058696144E+00  0.2592216495942E-02
-0.1151121594913E+00 -0.1429942755322E+00 -0.1213100244610E+00  0.1792446072553E-02
-0.1028128185249E+00 -0.1319180715718E+00 -0.1103235183455E+00  0.7918876864953E-03
-0.8781875866117E-01 -0.1188963498844E+00 -0.9715610101642E-01 -0.3617527870587E-03
-0.6996132648347E-01 -0.1039081089325E+00 -0.8171863464552E-01 -0.1569897642440E-02
-0.4928989601700E-01 -0.8706445821813E-01 -0.6408654649051E-01 -0.2680436914962E-02
-0.2617773712728E-01 -0.6864268332376E-01 -0.4456559761199E-01 -0.3506214325094E-02
-0.1361777239710E-02 -0.4908217187510E-01 -0.2370865608396E-01 -0.3871275074559E-02
 0.2393647279969E-01 -0.2908116949012E-01 -0.2418007444504E-02 -0.3668589013774E-02
 0.4875057196705E-01 -0.9043885860713E-02  0.1866214246998E-01 -0.3037003973556E-02
-0.1813246718819E+00 -0.2052679040866E+00 -0.1816985107052E+00 -0.2052832584537E-02
-0.1782944435028E+00 -0.2034485406454E+00 -0.1794192025497E+00 -0.2004003387905E-02
-0.1752084456377E+00 -0.2015457707387E+00 -0.1770744816969E+00 -0.1881224414908E-02
-0.1721706776080E+00 -0.1996119260562E+00 -0.1747378237222E+00 -0.1689765207332E-02
-0.1692795256206E+00 -0.1977036779808E+00 -0.1724821056927E+00 -0.1444045276330E-02
-0.1666124937109E+00 -0.1958739660417E+00 -0.1703686360837E+00 -0.1163054840626E-02
-0.1642199739634E+00 -0.1941661037255E+00 -0.1684414565138E+00 -0.8654613201089E-03
-0.1621264674285E+00 -0.1926107811508E+00 -0.1667265068323E+00 -0.5663091938242E-03
-0.1603357743408E+00 -0.1912256856829E+00 -0.1652338862111E+00 -0.2757320380200E-03
-0.1588371439368E+00 -0.1900168999815E+00 -0.1639614006416E+00  0.8464293591139E-06
-0.1576106458438E+00 -0.1889811274904E+00 -0.1628981334671E+00  0.2617663316907E-03
-0.1566311278867E+00 -0.1881079974287E+00 -0.1620273888982E+00  0.5080035467904E-03
-0.1558707544818E+00 -0.1873819979769E+00 -0.1613287936556E+00  0.7421594778598E-03
-0.1553003953890E+00 -0.1867838620387E+00 -0.1607796009910E+00  0.9676685461811E-03
-0.1548901778973E+00 -0.1862913994505E+00 -0.1603553413535E+00  0.1188215520882E-02
-0.1546094583225E+00 -0.1858798430456E+00 -0.1600299716430E+00  0.1407313427301E-02
-0.1544263870531E+00 -0.1855217885599E+00 -0.1597756425381E+00  0.1627986745155E-02
-0.1543071712201E+00 -0.1851867986852E+00 -0.1595621658555E+00  0.1852508464151E-02
-0.1542150770148E+00 -0.1848407119827E+00 -0.1593562208288E+00  0.2082151709363E-02
-0.1541091707646E+00 -0.1844446773859E+00 -0.1591203086307E+00  0.2316924271302E-02
-0.1539427701517E+00 -0.1839539296795E+00 -0.1588114489206E+00  0.2555258085794E-02
-0.1536615377926E+00 -0.1833162703419E+00 -0.1583795698232E+00  0.2793656285932E-02
-0.1532011618951E+00 -0.1824703016715E+00 -0.1577655878763E+00  0.3026274685691E-02
-0.1524845705573E+00 -0.1813434364677E+00 -0.1568991633017E+00  0.3244461466058E-02
-0.1514186426412E+00 -0.1798497230677E+00 -0.1556961318832E+00  0.3436310029714E-02
-0.1498904837730E+00 -0.1778876742470E+00 -0.1540557342694E+00  0.3586271354060E-02
-0.1477633953429E+00 -0.1753383052299E+00 -0.1518577992692E+00  0.3674932979559E-02
-0.1448729891436E+00 -0.1720639821870E+00 -0.1489603765254E+00  0.3679108134410E-02
-0.1410253166617E+00 -0.1679102479368E+00 -0.1451997153613E+00  0.3572568166991E-02
-0.1359965712846E+00 -0.1627096552304E+00 -0.1403919264620E+00  0.3327624217846E-02
-0.1295328033188E+00 -0.1562854511375E+00 -0.1343345795944E+00  0.2917785055051E-02
-0.1213534868200E+00 -0.1484587381861E+00 -0.1268117457529E+00  0.2322389861716E-02
-0.1111637563289E+00 -0.1390618554798E+00 -0.1176060375501E+00  0.1534042301078E-02
-0.9868028376780E-01 -0.1279586652923E+00 -0.1065203060582E+00  0.5689557315260E-03
-0.8367627040060E-01 -0.1150713924845E+00 -0.9341140155601E-01 -0.5212512569422E-03
-0.6604779612478E-01 -0.1004111841996E+00 -0.7823572075247E-01 -0.1640576145660E-02
-0.4589652529377E-01 -0.8410812892725E-01 -0.6110218748388E-01 -0.2649740648508E-02
-0.2360185510263E-01 -0.6642804627880E-01 -0.4231405364927E-01 -0.3385903959025E-02
 0.1255503061972E-03 -0.4779106771197E-01 -0.2240279318071E-01 -0.3701199719273E-02
 0.2432880291076E-01 -0.2869544155614E-01 -0.2052320163327E-02 -0.3530402168786E-02
 0.4826309468100E-01 -0.9502678821700E-02  0.1821739545387E-01 -0.2971135122886E-02
-0.1811852019897E+00 -0.2050877719238E+00 -0.1815482977393E+00 -0.1915237745657E-02
-0.1782512264380E+00 -0.2033296156153E+00 -0.1793429957650E+00 -0.1870307525485E-02
-0.1752705069032E+00 -0.2014988033703E+00 -0.1770815758285E+00 -0.1758207037481E-02
-0.1723348145464E+00 -0.1996406143448E+00 -0.1748284515789E+00 -0.1583302988090E-02
-0.1695319647877E+00 -0.1978042758406E+00 -0.1726480330953E+00 -0.1357741413116E-02
-0.1669328547895E+00 -0.1960363590635E+00 -0.1705955305109E+00 -0.1097882759449E-02
-0.1645854893606E+00 -0.1943757243480E+00 -0.1687117704431E+00 -0.8202624871045E-03
-0.1625151639520E+00 -0.1928506840634E+00 -0.1670219485672E+00 -0.5386603014359E-03
-0.1607282549116E+00 -0.1914782865407E+00 -0.1655370744826E+00 -0.2627642089895E-03
-0.1592171836964E+00 -0.1902651419172E+00 -0.1642566930384E+00  0.1874997349021E-05
-0.1579650094929E+00 -0.1892090645541E+00 -0.1631718148021E+00  0.2531622061902E-03
-0.1569489807478E+00 -0.1883009147211E+00 -0.1622674508704E+00  0.4915265136502E-03
-0.1561429242739E+00 -0.1875262257128E+00 -0.1615245004937E+00  0.7190257487862E-03
-0.1555186287263E+00 -0.1868664210447E+00 -0.1609209733924E+00  0.9386054289333E-03
-0.1550464554504E+00 -0.1862995761527E+00 -0.1604326348535E+00  0.1153528628496E-02
-0.1546953862667E+00 -0.1858007554409E+00 -0.1600331866026E+00  0.1366946539955E-02
-0.1544326601469E+00 -0.1853419787947E+00 -0.1596940803025E+00  0.1581566353129E-02
-0.1542230963130E+00 -0.1848918745569E+00 -0.1593840363088E+00  0.1799371679475E-02
-0.1540281471541E+00 -0.1844150547296E+00 -0.1590683048853E+00  0.2021359821102E-02
-0.1538046873764E+00 -0.1838712358062E+00 -0.1587076838958E+00  0.2247266657487E-02
-0.1535035256225E+00 -0.1832141320863E+00 -0.1582572991232E+00  0.2475253851006E-02
-0.1530675785394E+00 -0.1823900866811E+00 -0.1576651026536E+00  0.2701563339505E-02
-0.1524296867308E+00 -0.1813365188075E+00 -0.1568701166030E+00  0.2920120333076E-02
-0.1515100434393E+00 -0.1799802223322E+00 -0.1558004249126E+00  0.3122112203734E-02
-0.1502132208386E+00 -0.1782355619242E+00 -0.1543709278985E+00  0.3295600645993E-02
-0.1484249054317E+00 -0.1760027846793E+00 -0.1524810143522E+00  0.3425218127105E-02
-0.1460084958530E+00 -0.1731666549816E+00 -0.1500123208923E+00  0.3492060958597E-02
-0.1428020434229E+00 -0.1695959999641E+00 -0.1468270803919E+00  0.3473932280359E-02
-0.1386172922179E+00 -0.1651461101920E+00 -0.1427687991327E+00  0.3346268537209E-02
-0.1332405677572E+00 -0.1596631579077E+00 -0.1376647510625E+00  0.3083934662523E-02
-0.1264342904444E+00 -0.1529887070122E+00 -0.1313288088046E+00  0.2664074561980E-02
-0.1179426838192E+00 -0.1449674393078E+00 -0.1235677578697E+00  0.2070773120303E-02
-0.1075058553797E+00 -0.1354602077173E+00 -0.1141940496556E+00  0.1302062036691E-02
-0.9488612569389E-01 -0.1243625551773E+00 -0.1030468800095E+00  0.3789991289494E-03
-0.7991005801464E-01 -0.1116277086276E+00 -0.9002275032183E-01 -0.6449086122459E-03
-0.6252684595797E-01 -0.9729167029386E-01 -0.7511470263836E-01 -0.1677874712252E-02
-0.4287446180535E-01 -0.8149465581751E-01 -0.5845348528275E-01 -0.2593708772889E-02
-0.2133718056411E-01 -0.6449517190373E-01 -0.4034120565988E-01 -0.3250807379221E-02
 0.1439549711515E-02 -0.4666192573494E-01 -0.2125451673101E-01 -0.3528750256794E-02
 0.2465498553602E-01 -0.2840678530982E-01 -0.1763345893689E-02 -0.3383723226894E-02
 0.4765459163774E-01 -0.1007582290004E-01  0.1766202130672E-01 -0.2876486280552E-02
-0.1810611799056E+00 -0.2049270383178E+00 -0.1814144625650E+00 -0.1781440413128E-02
-0.1782140086868E+00 -0.2032236783595E+00 -0.1792757129118E+00 -0.1740122685034E-02
-0.1753274902744E+00 -0.2014564789088E+00 -0.1770884655161E+00 -0.1637766333678E-02
-0.1724832902902E+00 -0.1996649496295E+00 -0.1749096727623E+00 -0.1478037834824E-02
-0.1697602433440E+00 -0.1978921148887E+00 -0.1727966083693E+00 -0.1271216804860E-02
-0.1672233442832E+00 -0.1961790869142E+00 -0.1707991426628E+00 -0.1031413937180E-02
-0.1649181497655E+00 -0.1945607340253E+00 -0.1689550753817E+00 -0.7732417256392E-03
-0.1628702525803E+00 -0.1930630479059E+00 -0.1672886512285E+00 -0.5092404356748E-03
-0.1610879779867E+00 -0.1917022232405E+00 -0.1658113945768E+00 -0.2485584677110E-03
-0.1595663525062E+00 -0.1904850586885E+00 -0.1645241632615E+00  0.3264366881114E-05
-0.1582909966100E+00 -0.1894101307222E+00 -0.1634195298461E+00  0.2438282382900E-03
-0.1572412774248E+00 -0.1884692380662E+00 -0.1624839422808E+00  0.4731155478323E-03
-0.1563925238638E+00 -0.1876487482871E+00 -0.1616993979109E+00  0.6927070379886E-03
-0.1557173731500E+00 -0.1869306474036E+00 -0.1610445696602E+00  0.9050984827665E-03
-0.1551864134562E+00 -0.1862932214875E+00 -0.1604954284235E+00  0.1113152028782E-02
-0.1547682893341E+00 -0.1857113732697E+00 -0.1600254414238E+00  0.1319667839379E-02
-0.1544293992412E+00 -0.1851566061945E+00 -0.1596054225548E+00  0.1527043675685E-02
-0.1541332746941E+00 -0.1845967209594E+00 -0.1592030979572E+00  0.1736984447720E-02
-0.1538396844826E+00 -0.1839952553196E+00 -0.1587824217071E+00  0.1950230064111E-02
-0.1535034766845E+00 -0.1833106924293E+00 -0.1583026594835E+00  0.2166275187996E-02
-0.1530731586136E+00 -0.1824954745490E+00 -0.1577172575864E+00  0.2383058439355E-02
-0.1524891617512E+00 -0.1814947868368E+00 -0.1569724558364E+00  0.2596628154613E-02
-0.1516818037163E+00 -0.1802452173793E+00 -0.1560056999149E+00  0.2800769951002E-02
-0.1505689399508E+00 -0.1786733381698E+00 -0.1547438707167E+00  0.2986626467714E-02
-0.1490533095047E+00 -0.1766942569099E+00 -0.1531013562148E+00  0.3142368474971E-02
-0.1470197256855E+00 -0.1742103812390E+00 -0.1509781502545E+00  0.3252972375129E-02
-0.1443322870826E+00 -0.1711105991715E+00 -0.1482581565394E+00  0.3300219765859E-02
-0.1408321099724E+00 -0.1672704390466E+00 -0.1448081980389E+00  0.3263077208272E-02
-0.1363372176424E+00 -0.1625549309785E+00 -0.1404793098518E+00  0.3118780253773E-02
-0.1306444900145E+00 -0.1568234425334E+00 -0.1351099282975E+00  0.2844777760582E-02
-0.1235327120240E+00 -0.1499347579033E+00 -0.1285297108658E+00  0.2421674617581E-02
-0.1147699505707E+00 -0.1417550420887E+00 -0.1205667465499E+00  0.1837787566125E-02
-0.1041287984385E+00 -0.1321702757330E+00 -0.1110605648606E+00  0.1095599154025E-02
-0.9141232726043E-01 -0.1211028683553E+00 -0.9988214193939E-01  0.2195678352031E-03
-0.7649279267975E-01 -0.1085312488555E+00 -0.8696129952156E-01 -0.7365280706705E-03
-0.5936188684144E-01 -0.9450983046782E-01 -0.7231970713535E-01 -0.1686276731642E-02
-0.4018450209747E-01 -0.7918521336018E-01 -0.5610376626510E-01 -0.2516158202165E-02
-0.1933883764174E-01 -0.6280276132020E-01 -0.3860655151211E-01 -0.3103976648937E-02
 0.2589530504245E-02 -0.4569052152754E-01 -0.2025746578095E-01 -0.3351737819761E-02
 0.2490383062727E-01 -0.2821226344978E-01 -0.1554963426582E-02 -0.3226020153565E-02
 0.4698633035128E-01 -0.1071062212784E-01  0.1704958286502E-01 -0.2762248936989E-02
-0.1809506334038E+00 -0.2047833089974E+00 -0.1812949529286E+00 -0.1651132146407E-02
-0.1781818247705E+00 -0.2031290861030E+00 -0.1792161281105E+00 -0.1613193601817E-02
-0.1753796874779E+00 -0.2014182286863E+00 -0.1770950205971E+00 -0.1519812146937E-02
-0.1726175082299E+00 -0.1996855044934E+00 -0.1749824159799E+00 -0.1374103428384E-02
-0.1699664881834E+00 -0.1979687536515E+00 -0.1729295636624E+00 -0.1184803778741E-02
-0.1674863822886E+00 -0.1963044090325E+00 -0.1709816719209E+00 -0.9640944585036E-03
-0.1652203326551E+00 -0.1947237826786E+00 -0.1691737342068E+00 -0.7248604542499E-03
-0.1631938726692E+00 -0.1932506535584E+00 -0.1675289273270E+00 -0.4784490869168E-03
-0.1614167740550E+00 -0.1919002346182E+00 -0.1660589940764E+00 -0.2334085953742E-03
-0.1598861864558E+00 -0.1906792619455E+00 -0.1647657607486E+00  0.4841024855644E-05
-0.1585899098241E+00 -0.1895867952414E+00 -0.1636430513807E+00  0.2337072678955E-03
-0.1575091668680E+00 -0.1886153259372E+00 -0.1626785116185E+00  0.4528176896423E-03
-0.1566206313668E+00 -0.1877518718757E+00 -0.1618550765240E+00  0.6633412389561E-03
-0.1558977148088E+00 -0.1869788661029E+00 -0.1611519930285E+00  0.8673657783657E-03
-0.1553112191512E+00 -0.1862747540814E+00 -0.1605454074193E+00  0.1067377636852E-02
-0.1548294837896E+00 -0.1856142820932E+00 -0.1600085699649E+00  0.1265841554976E-02
-0.1544181340426E+00 -0.1849684917532E+00 -0.1595117141240E+00  0.1464858438770E-02
-0.1540395118912E+00 -0.1843044553588E+00 -0.1590216646075E+00  0.1665869585269E-02
-0.1536518314499E+00 -0.1835847781112E+00 -0.1585012064937E+00  0.1869379936495E-02
-0.1532080773220E+00 -0.1827668937427E+00 -0.1579082364004E+00  0.2074677034995E-02
-0.1526546588390E+00 -0.1818021989784E+00 -0.1571947231742E+00  0.2279526135788E-02
-0.1519297735506E+00 -0.1806349899232E+00 -0.1563054388327E+00  0.2479850482238E-02
-0.1509615224647E+00 -0.1792013310885E+00 -0.1551765411700E+00  0.2669385678026E-02
-0.1496657892165E+00 -0.1774279088099E+00 -0.1537340380724E+00  0.2839340863903E-02
-0.1479439046899E+00 -0.1752309195807E+00 -0.1518921674072E+00  0.2978126999261E-02
-0.1456802831769E+00 -0.1725152531969E+00 -0.1495519020957E+00  0.3071210288041E-02
-0.1427402236771E+00 -0.1691741645220E+00 -0.1465997624536E+00  0.3101207578208E-02
-0.1389683898525E+00 -0.1650899648604E+00 -0.1429074267151E+00  0.3048382009451E-02
-0.1341894747904E+00 -0.1601372359049E+00 -0.1383335540268E+00  0.2891845501302E-02
-0.1282110765358E+00 -0.1541879346997E+00 -0.1327275352807E+00  0.2611590115236E-02
-0.1208280240875E+00 -0.1471168287209E+00 -0.1259340808200E+00  0.2191435651126E-02
-0.1118310088268E+00 -0.1388094570561E+00 -0.1178010189650E+00  0.1623376367556E-02
-0.1010224305110E+00 -0.1291737600800E+00 -0.1081922095778E+00  0.9134125056388E-03
-0.8824144396345E-01 -0.1181548250748E+00 -0.9700624644796E-01  0.8815101499316E-04
-0.7339903678430E-01 -0.1057513613932E+00 -0.8420068714342E-01 -0.7996366420599E-03
-0.5652100997365E-01 -0.9203158034320E-01 -0.6981971744892E-01 -0.1669604642213E-02
-0.3779078701221E-01 -0.7714477153419E-01 -0.5401971251681E-01 -0.2420371307349E-02
-0.1757545129139E-01 -0.6132256097512E-01 -0.3708206576526E-01 -0.2946961755317E-02
 0.3589479662971E-02 -0.4486311343626E-01 -0.1939860787345E-01 -0.3168764552013E-02
 0.2507942336907E-01 -0.2809955793864E-01 -0.1419463247700E-02 -0.3057575532602E-02
 0.4630093212947E-01 -0.1136818779458E-01  0.1641838983739E-01 -0.2633644416518E-02
-0.1808519556451E+00 -0.2046546336240E+00 -0.1811880969565E+00 -0.1524025242480E-02
-0.1781538869738E+00 -0.2030444975391E+00 -0.1791632407211E+00 -0.1489274623413E-02
-0.1754273476868E+00 -0.2013835904073E+00 -0.1771011409042E+00 -0.1404232706674E-02
-0.1727386579845E+00 -0.1997027667266E+00 -0.1750474696142E+00 -0.1271574530637E-02
-0.1701525291367E+00 -0.1980355228330E+00 -0.1730483844258E+00 -0.1098750374166E-02
-0.1677240887699E+00 -0.1964142810455E+00 -0.1711450338132E+00 -0.8962810987753E-03
-0.1654941610464E+00 -0.1948672015009E+00 -0.1693698403972E+00 -0.6755028747021E-03
-0.1634879719321E+00 -0.1934159897492E+00 -0.1677448619902E+00 -0.4466289170936E-03
-0.1617163409766E+00 -0.1920748135187E+00 -0.1662818426128E+00 -0.2175720347924E-03
-0.1601781347223E+00 -0.1908501660593E+00 -0.1649833013673E+00  0.6451930871481E-05
-0.1588629956362E+00 -0.1897413714140E+00 -0.1638440525136E+00  0.2227527437608E-03
-0.1577537598709E+00 -0.1887414107502E+00 -0.1628527301919E+00  0.4306860750311E-03
-0.1568282949917E+00 -0.1878377945079E+00 -0.1619930620648E+00  0.6310717365616E-03
-0.1560607111706E+00 -0.1870133009353E+00 -0.1612447856898E+00  0.8256326805846E-03
-0.1554220071565E+00 -0.1862464886734E+00 -0.1605841930400E+00  0.1016507592387E-02
-0.1548802452226E+00 -0.1855119522472E+00 -0.1599843328108E+00  0.1205845166745E-02
-0.1544003417251E+00 -0.1847803217185E+00 -0.1594149118185E+00  0.1395465872879E-02
-0.1539435449814E+00 -0.1840180326624E+00 -0.1588419414926E+00  0.1586566081959E-02
-0.1534666412893E+00 -0.1831868882054E+00 -0.1582271588625E+00  0.1779441336930E-02
-0.1529209118287E+00 -0.1822434404675E+00 -0.1575272455792E+00  0.1973208586055E-02
-0.1522508652544E+00 -0.1811382442005E+00 -0.1566928814438E+00  0.2165510728601E-02
-0.1513927048805E+00 -0.1798149431174E+00 -0.1556675945590E+00  0.2352214091845E-02
-0.1502726011843E+00 -0.1782093413440E+00 -0.1543865129883E+00  0.2527091086937E-02
-0.1488047990704E+00 -0.1762485163154E+00 -0.1527750582313E+00  0.2681522420037E-02
-0.1468895962536E+00 -0.1738500216872E+00 -0.1507476204322E+00  0.2804279476710E-02
-0.1444114100173E+00 -0.1709214533618E+00 -0.1482064457881E+00  0.2881446750018E-02
-0.1412371394489E+00 -0.1673605573527E+00 -0.1450409174968E+00  0.2896600039711E-02
-0.1372153408236E+00 -0.1630563719826E+00 -0.1411277050189E+00  0.2831394642768E-02
-0.1321775868938E+00 -0.1578926959938E+00 -0.1363330329572E+00  0.2666846847617E-02
-0.1259421317138E+00 -0.1517533369121E+00 -0.1305168702542E+00  0.2385395182412E-02
-0.1183192751782E+00 -0.1445277325045E+00 -0.1235380936109E+00  0.1973780318614E-02
-0.1091208919843E+00 -0.1361187361675E+00 -0.1152626252313E+00  0.1427109238687E-02
-0.9817645308871E-01 -0.1264533531640E+00 -0.1055760089388E+00  0.7540372265215E-03
-0.8535679514256E-01 -0.1154957039566E+00 -0.9440067457659E-01 -0.1774610925681E-04
-0.7060557764655E-01 -0.1032607876304E+00 -0.8171719168019E-01 -0.8374478567620E-03
-0.5397572560052E-01 -0.8982698200651E-01 -0.6758727257530E-01 -0.1631170011389E-02
-0.3566287820956E-01 -0.7534388814060E-01 -0.5217318018457E-01 -0.2308952456646E-02
-0.1602136587339E-01 -0.6003082841332E-01 -0.3574453131475E-01 -0.2780732999272E-02
 0.4454294556207E-02 -0.4416362289930E-01 -0.1866338432125E-01 -0.2979289622682E-02
 0.2519278768657E-01 -0.2805278352956E-01 -0.1344198046204E-02 -0.2879595983123E-02
 0.4562466236436E-01 -0.1202364013810E-01  0.1579248044635E-01 -0.2493664242157E-02
-0.1807638389363E+00 -0.2045394247796E+00 -0.1810925339464E+00 -0.1399849089177E-02
-0.1781295568397E+00 -0.2029688213829E+00 -0.1791162377646E+00 -0.1368128729830E-02
-0.1754706902127E+00 -0.2013521952105E+00 -0.1771067561489E+00 -0.1290900219445E-02
-0.1728477549213E+00 -0.1997171606620E+00 -0.1751055103242E+00 -0.1170479286639E-02
-0.1703199451557E+00 -0.1980935674426E+00 -0.1731543509212E+00 -0.1013235427531E-02
-0.1679383215048E+00 -0.1965104019539E+00 -0.1712909000256E+00 -0.8282544594540E-03
-0.1657415273775E+00 -0.1949930435267E+00 -0.1695452483250E+00 -0.6254844121926E-03
-0.1637543170641E+00 -0.1935612813555E+00 -0.1679383312572E+00 -0.4140692625024E-03
-0.1619882451071E+00 -0.1922282222725E+00 -0.1664817396684E+00 -0.2012697768450E-03
-0.1604435551798E+00 -0.1909999931065E+00 -0.1651784676946E+00  0.7966532932258E-05
-0.1591114374540E+00 -0.1898760142370E+00 -0.1640241022947E+00  0.2109312448417E-03
-0.1579761212438E+00 -0.1888495919355E+00 -0.1630080851943E+00  0.4067820848025E-03
-0.1570165251249E+00 -0.1879085965823E+00 -0.1621148072024E+00  0.5960487413956E-03
-0.1562073832121E+00 -0.1870360637490E+00 -0.1613244200717E+00  0.7801321963656E-03
-0.1555198716751E+00 -0.1862106248875E+00 -0.1606133333844E+00  0.9608535811168E-03
-0.1549218005378E+00 -0.1854067276545E+00 -0.1599544082504E+00  0.1140067703505E-02
-0.1543774384895E+00 -0.1845946368856E+00 -0.1593168754263E+00  0.1319333991461E-02
-0.1538470335586E+00 -0.1837402355354E+00 -0.1586660164742E+00  0.1499625353615E-02
-0.1532860683667E+00 -0.1828046435742E+00 -0.1579626346122E+00  0.1681055789932E-02
-0.1526442765758E+00 -0.1817436826822E+00 -0.1571623408513E+00  0.1862609678378E-02
-0.1518644560767E+00 -0.1805072457882E+00 -0.1562146998765E+00  0.2041858874211E-02
-0.1508810425909E+00 -0.1790385285680E+00 -0.1550621984447E+00  0.2214679533408E-02
-0.1496185403851E+00 -0.1772732943656E+00 -0.1536391623329E+00  0.2374963829111E-02
-0.1479898546661E+00 -0.1751392312337E+00 -0.1518706703729E+00  0.2514361915752E-02
-0.1458945745986E+00 -0.1725554454292E+00 -0.1496715094131E+00  0.2622114230404E-02
-0.1432174511600E+00 -0.1694323731128E+00 -0.1469454174082E+00  0.2685034559788E-02
-0.1398272857428E+00 -0.1656722698536E+00 -0.1435847911303E+00  0.2687756342357E-02
-0.1355767435244E+00 -0.1611707279466E+00 -0.1394713115914E+00  0.2613388910797E-02
-0.1303043236119E+00 -0.1558203126632E+00 -0.1344785790493E+00  0.2444839918869E-02
-0.1238386816421E+00 -0.1495158516709E+00 -0.1284766306571E+00  0.2166855920799E-02
-0.1160048173289E+00 -0.1421601126159E+00 -0.1213375170740E+00  0.1768776908909E-02
-0.1066342057665E+00 -0.1336712991674E+00 -0.1129435873189E+00  0.1248270302492E-02
-0.9558067399744E-01 -0.1239928675240E+00 -0.1031995645151E+00  0.6158679562566E-03
-0.8274268223140E-01 -0.1131048485953E+00 -0.9204833948857E-01 -0.1005457871675E-03
-0.6809130526581E-01 -0.1010352833288E+00 -0.7948949663946E-01 -0.8528768255275E-03
-0.5170087568173E-01 -0.8786994449866E-01 -0.6559828548478E-01 -0.1573820730765E-02
-0.3377479388143E-01 -0.7375745731085E-01 -0.5054015806037E-01 -0.2183985394084E-02
-0.1465461593409E-01 -0.5890662379398E-01 -0.3457378267219E-01 -0.2606075233163E-02
 0.5198891028513E-02 -0.4357575848463E-01 -0.1803712770437E-01 -0.2783374549831E-02
 0.2525621151045E-01 -0.2805672441391E-01 -0.1316241064626E-02 -0.2693406171030E-02
 0.4497417273774E-01 -0.1266050604475E-01  0.1518742334570E-01 -0.2344140368555E-02
-0.1806852210087E+00 -0.2044363924853E+00 -0.1810071583422E+00 -0.1278347166771E-02
-0.1781083206095E+00 -0.2029011734511E+00 -0.1790744622085E+00 -0.1249526509236E-02
-0.1755099126043E+00 -0.2013237547765E+00 -0.1771118236690E+00 -0.1179674932033E-02
-0.1729456705528E+00 -0.1997290616646E+00 -0.1751571241422E+00 -0.1070808748824E-02
-0.1704701015899E+00 -0.1981438788622E+00 -0.1732485708125E+00 -0.9283808271501E-03
-0.1681307081445E+00 -0.1965942518515E+00 -0.1714207311981E+00 -0.7602302882806E-03
-0.1659641148132E+00 -0.1951031174513E+00 -0.1697015991643E+00 -0.5750596605994E-03
-0.1639945041483E+00 -0.1936885141225E+00 -0.1681110185872E+00 -0.3810101492030E-03
-0.1622339233801E+00 -0.1923625071310E+00 -0.1666603223402E+00 -0.1846872401191E-03
-0.1606837112775E+00 -0.1911307783687E+00 -0.1653528101337E+00  0.9277738713511E-05
-0.1593363497684E+00 -0.1899927192914E+00 -0.1641846624581E+00  0.1982241371790E-03
-0.1581772628715E+00 -0.1889418304910E+00 -0.1631459738804E+00  0.3811768807728E-03
-0.1571862870676E+00 -0.1879662328587E+00 -0.1622216843654E+00  0.5584302487032E-03
-0.1563387081135E+00 -0.1870491451154E+00 -0.1613922910176E+00  0.7311051445309E-03
-0.1556058591350E+00 -0.1861692374014E+00 -0.1606342953721E+00  0.9007361402057E-03
-0.1549553204141E+00 -0.1853008160880E+00 -0.1599203841560E+00  0.1068908169755E-02
-0.1543507716916E+00 -0.1844138234913E+00 -0.1592193597360E+00  0.1236941146591E-02
-0.1537515514474E+00 -0.1834736665543E+00 -0.1584958524608E+00  0.1405607944658E-02
-0.1531119595360E+00 -0.1824408893381E+00 -0.1577098389708E+00  0.1574870335979E-02
-0.1523803330409E+00 -0.1812707174535E+00 -0.1568159937323E+00  0.1743618768185E-02
-0.1514979405858E+00 -0.1799125387569E+00 -0.1557629252911E+00  0.1909404730929E-02
-0.1503976628120E+00 -0.1783092734445E+00 -0.1544922600405E+00  0.2068178567499E-02
-0.1490025794353E+00 -0.1763968215295E+00 -0.1529377184534E+00  0.2214030406481E-02
-0.1472245205344E+00 -0.1741036468749E+00 -0.1510242386824E+00  0.2338969845701E-02
-0.1449626414462E+00 -0.1713505359882E+00 -0.1486671933942E+00  0.2432803084035E-02
-0.1421022882854E+00 -0.1680508180653E+00 -0.1457719599848E+00  0.2483167216874E-02
-0.1385143743595E+00 -0.1641111838844E+00 -0.1422340123746E+00  0.2475828986578E-02
-0.1340557710550E+00 -0.1594335091306E+00 -0.1379399616872E+00  0.2395384523581E-02
-0.1285718060762E+00 -0.1539185863425E+00 -0.1327704844368E+00  0.2226587287453E-02
-0.1219011217724E+00 -0.1474713758024E+00 -0.1266050738602E+00  0.1956324820728E-02
-0.1138824975568E+00 -0.1400066439415E+00 -0.1193278965042E+00  0.1576204299563E-02
-0.1043653457325E+00 -0.1314561023311E+00 -0.1108360805899E+00  0.1085929903681E-02
-0.9322521672379E-01 -0.1217773246190E+00 -0.1010511944311E+00  0.4972220416871E-03
-0.8038450029413E-01 -0.1109635945615E+00 -0.8993360458213E-01 -0.1625667789451E-03
-0.6583716081353E-01 -0.9905336445294E-01 -0.7749854687524E-01 -0.8485574916010E-03
-0.4967435059230E-01 -0.8613775331609E-01 -0.6383168883695E-01 -0.1500008086496E-02
-0.3210416002675E-01 -0.7236378164168E-01 -0.4909993258416E-01 -0.2047192991705E-02
-0.1345603508573E-01 -0.5793128873787E-01 -0.3355204219709E-01 -0.2423737493791E-02
 0.5837411485337E-02 -0.4308421357377E-01 -0.1750599698156E-01 -0.2581415911906E-02
 0.2528119006175E-01 -0.2809804248849E-01 -0.1323920640567E-02 -0.2500189408037E-02
 0.4435993729933E-01 -0.1326781372747E-01  0.1461329807877E-01 -0.2186284296360E-02
-0.1806152412719E+00 -0.2043444910018E+00 -0.1809310741686E+00 -0.1159274575393E-02
-0.1780897682146E+00 -0.2028408408723E+00 -0.1790373862708E+00 -0.1133245158093E-02
-0.1755451956082E+00 -0.2012980490348E+00 -0.1771163249822E+00 -0.1070408090439E-02
-0.1730331560186E+00 -0.1997388057938E+00 -0.1752028220518E+00 -0.9725242931132E-03
-0.1706041803734E+00 -0.1981873193163E+00 -0.1733320048542E+00 -0.8442614929478E-03
-0.1683026732732E+00 -0.1966671220934E+00 -0.1715358038223E+00 -0.6923691956013E-03
-0.1661634161372E+00 -0.1951990157546E+00 -0.1698403429891E+00 -0.5244297275941E-03
-0.1642099686419E+00 -0.1937994561037E+00 -0.1682644296305E+00 -0.3476465528912E-03
-0.1624546860858E+00 -0.1924795115142E+00 -0.1668190728720E+00 -0.1679758632640E-03
-0.1608997700142E+00 -0.1912443760505E+00 -0.1655077486504E+00  0.1030205486497E-04
-0.1595387734194E+00 -0.1900933226033E+00 -0.1643270851307E+00  0.1846284955343E-03
-0.1583581376921E+00 -0.1890199448057E+00 -0.1632676987740E+00  0.3539523923760E-03
-0.1573384945116E+00 -0.1880125257850E+00 -0.1623149795394E+00  0.5183826443731E-03
-0.1564556125563E+00 -0.1870544063033E+00 -0.1614497088640E+00  0.6788001484865E-03
-0.1556809613633E+00 -0.1861242673902E+00 -0.1606484575141E+00  0.8364839392439E-03
-0.1549819122846E+00 -0.1851962807161E+00 -0.1598837507103E+00  0.9927740892345E-03
-0.1543216125377E+00 -0.1842401054462E+00 -0.1591240074524E+00  0.1148773847150E-02
-0.1536585790858E+00 -0.1832207418036E+00 -0.1583332808180E+00  0.1305080660319E-02
-0.1529460463189E+00 -0.1820982536203E+00 -0.1574708209714E+00  0.1461534053724E-02
-0.1521311001165E+00 -0.1808273881710E+00 -0.1564904894951E+00  0.1616968980004E-02
-0.1511536522076E+00 -0.1793571620321E+00 -0.1553400826927E+00  0.1768965769994E-02
-0.1499452258835E+00 -0.1776303616952E+00 -0.1539605261620E+00  0.1913610116857E-02
-0.1484276949447E+00 -0.1755831611253E+00 -0.1522851023529E+00  0.2045262844693E-02
-0.1465120446988E+00 -0.1731449143265E+00 -0.1502387707419E+00  0.2156374673617E-02
-0.1440972227862E+00 -0.1702381535320E+00 -0.1477376268695E+00  0.2237402433121E-02
-0.1410693657140E+00 -0.1667790810265E+00 -0.1446887699680E+00  0.2276884529550E-02
-0.1373016217469E+00 -0.1626786684849E+00 -0.1409907364089E+00  0.2261776174505E-02
-0.1326550578304E+00 -0.1578447248403E+00 -0.1365348978552E+00  0.2178168887314E-02
-0.1269816068457E+00 -0.1521856653003E+00 -0.1312086179086E+00  0.2012592007131E-02
-0.1201293520412E+00 -0.1456156652314E+00 -0.1249001581181E+00  0.1753890004540E-02
-0.1119498244913E+00 -0.1380601935900E+00 -0.1175047084982E+00  0.1395607915707E-02
-0.1023086782175E+00 -0.1294627626253E+00 -0.1089325771961E+00  0.9390023314135E-03
-0.9110067610524E-01 -0.1197929967230E+00 -0.9912002622929E-01  0.3963848540032E-03
-0.7826880597914E-01 -0.1090551808040E+00 -0.8804227378807E-01 -0.2060085851133E-03
-0.6382605785642E-01 -0.9729606372864E-01 -0.7572739714498E-01 -0.8268671335909E-03
-0.4787676205798E-01 -0.8461061670492E-01 -0.6226906801856E-01 -0.1411859404794E-02
-0.3063159627709E-01 -0.7114397799850E-01 -0.4783451990953E-01 -0.1900051592838E-02
-0.1240882042136E-01 -0.5708826662391E-01 -0.3266363091128E-01 -0.2234469576215E-02
 0.6382776808209E-02 -0.4267519096727E-01 -0.1705743465476E-01 -0.2373962918703E-02
 0.2527771481844E-01 -0.2816549881023E-01 -0.1357258476143E-02 -0.2300932978409E-02
 0.4378853582972E-01 -0.1383810625206E-01  0.1407670190150E-01 -0.2020984013452E-02
-0.1805532049483E+00 -0.2042628753221E+00 -0.1808635577271E+00 -0.1042395989295E-02
-0.1780735753167E+00 -0.2027872521666E+00 -0.1790045889171E+00 -0.1019067546999E-02
-0.1755767059310E+00 -0.2012749147198E+00 -0.1771202617059E+00 -0.9629441088953E-03
-0.1731108602148E+00 -0.1997466960103E+00 -0.1752430514258E+00 -0.8755634384929E-03
-0.1707232044413E+00 -0.1982246405081E+00 -0.1734054871262E+00 -0.7609135424130E-03
-0.1684554611349E+00 -0.1967301393733E+00 -0.1716372322388E+00 -0.6247849919927E-03
-0.1663407503085E+00 -0.1952821379707E+00 -0.1699627574912E+00 -0.4737489552045E-03
-0.1644019946943E+00 -0.1938956760729E+00 -0.1683999052606E+00 -0.3141327284695E-03
-0.1626517200032E+00 -0.1925808879382E+00 -0.1669593257325E+00 -0.1512551982048E-03
-0.1610928007162E+00 -0.1913424649174E+00 -0.1656445748478E+00  0.1097907218280E-04
-0.1597196717480E+00 -0.1901795011602E+00 -0.1644526112668E+00  0.1701574110866E-03
-0.1585196344800E+00 -0.1890856074976E+00 -0.1633744637295E+00  0.3252018254754E-03
-0.1574740036976E+00 -0.1880491599671E+00 -0.1623958869224E+00  0.4760809970424E-03
-0.1565589666070E+00 -0.1870535724265E+00 -0.1614978933458E+00  0.6234734738322E-03
-0.1557461092964E+00 -0.1860775151503E+00 -0.1606571034899E+00  0.7684330524102E-03
-0.1550026138554E+00 -0.1850950328496E+00 -0.1598458939514E+00  0.9120801799323E-03
-0.1542911493727E+00 -0.1840755378220E+00 -0.1590323429815E+00  0.1055324855021E-02
-0.1535694966036E+00 -0.1829836858071E+00 -0.1581799957330E+00  0.1198614142820E-02
-0.1527899379287E+00 -0.1817791448234E+00 -0.1572474688935E+00  0.1341695222638E-02
-0.1518984474508E+00 -0.1804162853674E+00 -0.1561879244245E+00  0.1483385030358E-02
-0.1508337428473E+00 -0.1788438643880E+00 -0.1549484754006E+00  0.1621339733578E-02
-0.1495261727565E+00 -0.1770046471159E+00 -0.1534694853401E+00  0.1751837669586E-02
-0.1478966008206E+00 -0.1748351810179E+00 -0.1516839374641E+00  0.1869577137856E-02
-0.1458553645859E+00 -0.1722657775866E+00 -0.1495169368211E+00  0.1967523159467E-02
-0.1433013835864E+00 -0.1692207239729E+00 -0.1468853905528E+00  0.2036856607287E-02
-0.1401217177088E+00 -0.1656190114877E+00 -0.1436981427224E+00  0.2067080528128E-02
-0.1361917935481E+00 -0.1613756704908E+00 -0.1398567080983E+00  0.2046376118704E-02
-0.1313767665216E+00 -0.1564040294821E+00 -0.1352569741217E+00  0.1962319727745E-02
-0.1255348437345E+00 -0.1506194759174E+00 -0.1297925302364E+00  0.1803129907760E-02
-0.1185228988863E+00 -0.1439444733994E+00 -0.1233596649743E+00  0.1559416853513E-02
-0.1102041125921E+00 -0.1363139485787E+00 -0.1158634887503E+00  0.1226347181305E-02
-0.1004586882938E+00 -0.1276816459429E+00 -0.1072259570912E+00  0.8062912404760E-03
-0.8919823422671E-01 -0.1180274192522E+00 -0.9739605713508E-01  0.3116412245970E-03
-0.7638335256282E-01 -0.1073646528898E+00 -0.8636156256273E-01 -0.2329464609034E-03
-0.6204277952824E-01 -0.9574669914900E-01 -0.7416105497830E-01 -0.7899559345846E-03
-0.4629114451067E-01 -0.8327129141037E-01 -0.6089434488289E-01 -0.1311243022748E-02
-0.2934028236007E-01 -0.7008159136056E-01 -0.4672828064870E-01 -0.1743863298948E-02
-0.1149827046221E-01 -0.5636298731888E-01 -0.3189479115711E-01 -0.2039017587040E-02
 0.6846484231070E-02 -0.4233656654225E-01 -0.1668033868626E-01 -0.2161611046224E-02
 0.2525417300643E-01 -0.2824978106513E-01 -0.1407935787585E-02 -0.2096449853180E-02
 0.4326409472737E-01 -0.1436618516143E-01  0.1358201749599E-01 -0.1848964884387E-02
-0.1804985535849E+00 -0.2041908654724E+00 -0.1808040269569E+00 -0.9274839576025E-03
-0.1780594879954E+00 -0.2027399522146E+00 -0.1789757368987E+00 -0.9067813671931E-03
-0.1756045975242E+00 -0.2012542349357E+00 -0.1771236512562E+00 -0.8571221671639E-03
-0.1731793438113E+00 -0.1997530059619E+00 -0.1752782043934E+00 -0.7798444457766E-03
-0.1708280574874E+00 -0.1982564978014E+00 -0.1734697409857E+00 -0.6783410038072E-03
-0.1685901546737E+00 -0.1967842849239E+00 -0.1717259866109E+00 -0.5575518469554E-03
-0.1664972768691E+00 -0.1953537098790E+00 -0.1700699637716E+00 -0.4231310245961E-03
-0.1645717236999E+00 -0.1939785592280E+00 -0.1685186329761E+00 -0.2805864888464E-03
-0.1628260916916E+00 -0.1926681086134E+00 -0.1670822741433E+00 -0.1346153394176E-03
-0.1612637744393E+00 -0.1914265536811E+00 -0.1657644542165E+00  0.1127044468132E-04
-0.1598799275201E+00 -0.1902527738694E+00 -0.1645623696531E+00  0.1548397905426E-03
-0.1586625733791E+00 -0.1891403430675E+00 -0.1634673707299E+00  0.2950297552056E-03
-0.1575936082465E+00 -0.1880776776227E+00 -0.1624655043586E+00  0.4317090645769E-03
-0.1566495781993E+00 -0.1870482266316E+00 -0.1615379682705E+00  0.5653887167049E-03
-0.1558021672461E+00 -0.1860306337732E+00 -0.1606614164791E+00  0.6969262133160E-03
-0.1550183871753E+00 -0.1849988257436E+00 -0.1598080900719E+00  0.8272471419003E-03
-0.1542604815516E+00 -0.1839220014022E+00 -0.1589457669883E+00  0.9570915310332E-03
-0.1534855775510E+00 -0.1827645275315E+00 -0.1580375493887E+00  0.1086780851085E-02
-0.1526451150412E+00 -0.1814857499683E+00 -0.1570415065545E+00  0.1215999068042E-02
-0.1516840896499E+00 -0.1800397485382E+00 -0.1559102039484E+00  0.1343580942076E-02
-0.1505401782017E+00 -0.1783751112233E+00 -0.1545901860298E+00  0.1467302619344E-02
-0.1491427224714E+00 -0.1764346669188E+00 -0.1530213730134E+00  0.1583687962850E-02
-0.1474117494327E+00 -0.1741554012102E+00 -0.1511365608021E+00  0.1687833224652E-02
-0.1452571139623E+00 -0.1714686076108E+00 -0.1488610891393E+00  0.1773282426398E-02
-0.1425778432256E+00 -0.1683002870985E+00 -0.1461127212523E+00  0.1832003068527E-02
-0.1392619958093E+00 -0.1645720801672E+00 -0.1428020157090E+00  0.1854513081173E-02
-0.1351872477952E+00 -0.1602027968550E+00 -0.1388333209856E+00  0.1830242515051E-02
-0.1302226511174E+00 -0.1551108219090E+00 -0.1341067323224E+00  0.1748227712975E-02
-0.1242322655633E+00 -0.1492178345360E+00 -0.1285215470466E+00  0.1598279907755E-02
-0.1170810230272E+00 -0.1424536654198E+00 -0.1219813035701E+00  0.1372584860455E-02
-0.1086426044476E+00 -0.1347615149492E+00 -0.1143999361165E+00  0.1067635024839E-02
-0.9881009830758E-01 -0.1261039266692E+00 -0.1057095917391E+00  0.6865245901269E-03
-0.8750974424369E-01 -0.1164693826138E+00 -0.9587018962303E-01  0.2412961323722E-03
-0.7471709833676E-01 -0.1058787622458E+00 -0.8488005447379E-01 -0.2453341053073E-03
-0.6047386674840E-01 -0.9439066526626E-01 -0.7278633004689E-01 -0.7397777210465E-03
-0.4490270239321E-01 -0.8210478725773E-01 -0.5969352013594E-01 -0.1199820960892E-02
-0.2821564073551E-01 -0.6916232147483E-01 -0.4576764223886E-01 -0.1579799842681E-02
-0.1071159297815E-01 -0.5574274843892E-01 -0.3123354046602E-01 -0.1838109944813E-02
 0.7238568743622E-02 -0.4205786299464E-01 -0.1636506829798E-01 -0.1944948050139E-02
 0.2521748161060E-01 -0.2834322473905E-01 -0.1469099270369E-02 -0.1887420248074E-02
 0.4278918646073E-01 -0.1484832998491E-01  0.1313220254363E-01 -0.1670875887957E-02
-0.1804508407917E+00 -0.2041279171825E+00 -0.1807520162479E+00 -0.8143174885031E-03
-0.1780473097467E+00 -0.2026985813369E+00 -0.1789505688093E+00 -0.7961783673701E-03
-0.1756290119106E+00 -0.2012359298115E+00 -0.1771265226094E+00 -0.7527774017061E-03
-0.1732390901031E+00 -0.1997579821049E+00 -0.1753086239377E+00 -0.6852699914279E-03
-0.1709194999461E+00 -0.1982834610003E+00 -0.1735253916448E+00 -0.5965213798837E-03
-0.1687076914255E+00 -0.1968304098094E+00 -0.1718029075804E+00 -0.4907104630358E-03
-0.1666340083726E+00 -0.1954147992702E+00 -0.1701629395921E+00 -0.3726544927269E-03
-0.1647201620040E+00 -0.1940493204809E+00 -0.1686216567679E+00 -0.2470933681856E-03
-0.1629787507466E+00 -0.1927424747325E+00 -0.1671889759752E+00 -0.1181195727683E-03
-0.1614135637889E+00 -0.1914979859919E+00 -0.1658684283970E+00  0.1115848120958E-04
-0.1600203404506E+00 -0.1903145027615E+00 -0.1646573763097E+00  0.1387197423524E-03
-0.1587877020648E+00 -0.1891855261797E+00 -0.1635474172749E+00  0.2635518707344E-03
-0.1576980345836E+00 -0.1880994748611E+00 -0.1625248294390E+00  0.3854590606695E-03
-0.1567281881681E+00 -0.1870398052015E+00 -0.1615709568837E+00  0.5048163747827E-03
-0.1558499276967E+00 -0.1859851237787E+00 -0.1606624741935E+00  0.6223120775526E-03
-0.1550301132470E+00 -0.1849092493796E+00 -0.1597715004345E+00  0.7387005801254E-03
-0.1542306138997E+00 -0.1837811982285E+00 -0.1588655517003E+00  0.8545744513986E-03
-0.1534079832936E+00 -0.1825650973904E+00 -0.1579073479215E+00  0.9701534618215E-03
-0.1525129243348E+00 -0.1812200340110E+00 -0.1568544904225E+00  0.1085086099799E-02
-0.1514895813676E+00 -0.1796998688553E+00 -0.1556590416047E+00  0.1198258547991E-02
-0.1502747340726E+00 -0.1779530920354E+00 -0.1542670782708E+00  0.1307607669664E-02
-0.1487968707177E+00 -0.1759226556394E+00 -0.1526181773878E+00  0.1409950893789E-02
-0.1469753338717E+00 -0.1735460161302E+00 -0.1506450345009E+00  0.1500836397139E-02
-0.1447196308405E+00 -0.1707554351107E+00 -0.1482732809971E+00  0.1574443606104E-02
-0.1419289915410E+00 -0.1674785419798E+00 -0.1454215407548E+00  0.1623579203054E-02
-0.1384924960263E+00 -0.1636394386972E+00 -0.1420020093200E+00  0.1639814880693E-02
-0.1342899765591E+00 -0.1591603891681E+00 -0.1379216718918E+00  0.1613840771472E-02
-0.1291941160415E+00 -0.1539643331846E+00 -0.1330844711363E+00  0.1536118668882E-02
-0.1230743302424E+00 -0.1479785433960E+00 -0.1273948506101E+00  0.1397952109065E-02
-0.1158028144875E+00 -0.1411393122871E+00 -0.1207627995841E+00  0.1192919914387E-02
-0.1072625744695E+00 -0.1333969947412E+00 -0.1131099975290E+00  0.9185703910594E-03
-0.9735796310954E-01 -0.1247216270607E+00 -0.1043774073800E+00  0.5783810091699E-03
-0.8602779050639E-01 -0.1151089121630E+00 -0.9453425025462E-01  0.1836872509162E-03
-0.7326019827086E-01 -0.1045858688142E+00 -0.8358765152999E-01 -0.2450113082356E-03
-0.5910751071604E-01 -0.9321525377716E-01 -0.7159169931180E-01 -0.6781191197057E-03
-0.4369860266982E-01 -0.8109813508611E-01 -0.5865446674529E-01 -0.1079089940705E-02
-0.2724509491721E-01 -0.6837381267014E-01 -0.4494088656606E-01 -0.1408929804598E-02
-0.1003774356701E-01 -0.5521658493153E-01 -0.3066953439432E-01 -0.1632445861768E-02
 0.7567657066139E-02 -0.4183013742639E-01 -0.1610336576932E-01 -0.1724531462607E-02
 0.2517328787224E-01 -0.2843954041244E-01 -0.1535138693890E-02 -0.1674431568443E-02
 0.4236539869439E-01 -0.1528180834291E-01  0.1272928746520E-01 -0.1487335539969E-02
-0.1804097122317E+00 -0.2040735977418E+00 -0.1807071556875E+00 -0.7026808650542E-03
-0.1780368904662E+00 -0.2026628578189E+00 -0.1789288816940E+00 -0.6870536793510E-03
-0.1756500778757E+00 -0.2012199482226E+00 -0.1771289122662E+00 -0.6497418056779E-03
-0.1732905133788E+00 -0.1997618446741E+00 -0.1753346082849E+00 -0.5917301354811E-03
-0.1709981818669E+00 -0.1983060224967E+00 -0.1735729760509E+00 -0.5154102987523E-03
-0.1688088766955E+00 -0.1968692470533E+00 -0.1718687181619E+00 -0.4242734294910E-03
-0.1667518209915E+00 -0.1954663288224E+00 -0.1702425304125E+00 -0.3223678146915E-03
-0.1648481877221E+00 -0.1941090156075E+00 -0.1687098855649E+00 -0.2137106307477E-03
-0.1631105328890E+00 -0.1928051245013E+00 -0.1672803589734E+00 -0.1018071558102E-03
-0.1615429430149E+00 -0.1915579449600E+00 -0.1659574173482E+00  0.1064444681287E-04
-0.1601416252158E+00 -0.1903658943045E+00 -0.1647385341746E+00  0.1218556326524E-03
-0.1588956924649E+00 -0.1892223804302E+00 -0.1636154942607E+00  0.2308944322412E-03
-0.1577879379242E+00 -0.1881157986660E+00 -0.1625747561974E+00  0.3375312213478E-03
-0.1567954658292E+00 -0.1870295934777E+00 -0.1615977778742E+00  0.4420333254847E-03
-0.1558901066432E+00 -0.1859423286169E+00 -0.1606612445722E+00  0.5449445071146E-03
-0.1550385871999E+00 -0.1848277261380E+00 -0.1597371672688E+00  0.6468700691862E-03
-0.1542024517760E+00 -0.1836546480368E+00 -0.1587928369120E+00  0.7482762944467E-03
-0.1533377580771E+00 -0.1823870251110E+00 -0.1577906480984E+00  0.8493036831349E-03
-0.1523945737799E+00 -0.1809837399470E+00 -0.1566878074516E+00  0.9495910232432E-03
-0.1513163132261E+00 -0.1793984925188E+00 -0.1554359587001E+00  0.1048106744164E-02
-0.1500389935732E+00 -0.1775797282698E+00 -0.1539807992662E+00  0.1142985299476E-02
-0.1484903892990E+00 -0.1754705589742E+00 -0.1522616456884E+00  0.1231380555719E-02
-0.1465892910302E+00 -0.1730089161581E+00 -0.1502111573785E+00  0.1309339992784E-02
-0.1442449659679E+00 -0.1701279815598E+00 -0.1477552853380E+00  0.1371726852770E-02
-0.1413569049628E+00 -0.1667568891108E+00 -0.1448134832146E+00  0.1412230426215E-02
-0.1378151852269E+00 -0.1628219740110E+00 -0.1412994648418E+00  0.1423505446611E-02
-0.1335016452821E+00 -0.1582485902370E+00 -0.1371226106940E+00  0.1397504604105E-02
-0.1282922705972E+00 -0.1529637032291E+00 -0.1321903076984E+00  0.1326075042980E-02
-0.1220612748205E+00 -0.1468994721152E+00 -0.1264115510598E+00  0.1201913529321E-02
-0.1146872753440E+00 -0.1399977679487E+00 -0.1197019703476E+00  0.1019822285771E-02
-0.1060614159478E+00 -0.1322150451461E+00 -0.1119899367142E+00  0.7781646556041E-03
-0.9609774585708E-01 -0.1235276418419E+00 -0.1032239322185E+00  0.4805091802490E-03
-0.8474573048083E-01 -0.1139372415050E+00 -0.9338099683332E-01  0.1371913911255E-03
-0.7200398581984E-01 -0.1034758512475E+00 -0.8247552342163E-01 -0.2337144956379E-03
-0.5793345511197E-01 -0.9220950246746E-01 -0.7056719006233E-01 -0.6066259007755E-03
-0.4266780499758E-01 -0.8024020158544E-01 -0.5776676309402E-01 -0.9504131688050E-03
-0.2641787810512E-01 -0.6770548178437E-01 -0.4423797914806E-01 -0.1232236882225E-02
-0.9467281260297E-02 -0.5477513407026E-01 -0.3019393520536E-01 -0.1422689280928E-02
 0.7841065419440E-02 -0.4164584031161E-01 -0.1588824419932E-01 -0.1500883048993E-02
 0.2512616966071E-01 -0.2853358108413E-01 -0.1601483369011E-02 -0.1458010359024E-02
 0.4199369376496E-01 -0.1566456952217E-01  0.1237468839411E-01 -0.1298955482856E-02
-0.1803748891819E+00 -0.2040275661887E+00 -0.1806691540241E+00 -0.5923626495261E-03
-0.1780281171804E+00 -0.2026325633858E+00 -0.1789105198661E+00 -0.5792052240719E-03
-0.1756679107960E+00 -0.2012062605721E+00 -0.1771308605430E+00 -0.5478449164679E-03
-0.1733339653693E+00 -0.1997647879050E+00 -0.1753564140390E+00 -0.4991047452831E-03
-0.1710646532623E+00 -0.1983246034109E+00 -0.1736129506364E+00 -0.4349454359199E-03
-0.1688943944333E+00 -0.1969014212301E+00 -0.1719240333618E+00 -0.3582298922903E-03
-0.1668514635028E+00 -0.1955090865653E+00 -0.1703094585320E+00 -0.2722939063866E-03
-0.1649565567045E+00 -0.1941585505302E+00 -0.1687841004003E+00 -0.1804711049866E-03
-0.1632221628296E+00 -0.1928570400066E+00 -0.1673572253330E+00 -0.8569616495404E-04
-0.1616525883016E+00 -0.1916074571759E+00 -0.1660322213744E+00  0.9746650352989E-05
-0.1602444098903E+00 -0.1904080007391E+00 -0.1648066329958E+00  0.1043188775620E-03
-0.1589871380010E+00 -0.1892519774931E+00 -0.1636723842822E+00  0.1971934871705E-03
-0.1578638988057E+00 -0.1881277444739E+00 -0.1626160723415E+00  0.2881331975384E-03
-0.1568520051057E+00 -0.1870187224898E+00 -0.1616192419698E+00  0.3773222189375E-03
-0.1559233394749E+00 -0.1859034309267E+00 -0.1606585820888E+00  0.4651818684625E-03
-0.1550445140174E+00 -0.1847555072281E+00 -0.1597060099854E+00  0.5521883371536E-03
-0.1541767967176E+00 -0.1835436854123E+00 -0.1587286266011E+00  0.6387009604907E-03
-0.1532758247076E+00 -0.1822317382360E+00 -0.1576885545835E+00  0.7248014265948E-03
-0.1522911285816E+00 -0.1807783894069E+00 -0.1565426734546E+00  0.8101421473772E-03
-0.1511655084093E+00 -0.1791372243632E+00 -0.1552422844031E+00  0.8938013913229E-03
-0.1498343449879E+00 -0.1772566810498E+00 -0.1537327822377E+00  0.9741438282720E-03
-0.1482248261613E+00 -0.1750800469456E+00 -0.1519532903602E+00  0.1048697224199E-02
-0.1462553050368E+00 -0.1725457076781E+00 -0.1498364759760E+00  0.1114049145138E-02
-0.1438348912758E+00 -0.1695876876088E+00 -0.1473086120758E+00  0.1165787444923E-02
-0.1408633619430E+00 -0.1661364684498E+00 -0.1442899202846E+00  0.1198519262322E-02
-0.1372317257495E+00 -0.1621203566825E+00 -0.1406954787431E+00  0.1206003767778E-02
-0.1328236287237E+00 -0.1574674022282E+00 -0.1364367845474E+00  0.1181452614743E-02
-0.1275179777127E+00 -0.1521080463680E+00 -0.1314242313179E+00  0.1118056312423E-02
-0.1211931767928E+00 -0.1459786255491E+00 -0.1255707471007E+00  0.1009811385021E-02
-0.1137333902344E+00 -0.1390257311331E+00 -0.1187967870427E+00  0.8525906121352E-03
-0.1050367127020E+00 -0.1312109228083E+00 -0.1110363886899E+00  0.6453627641652E-03
-0.9502537705510E-01 -0.1225157515872E+00 -0.1022443304619E+00  0.3915415759957E-03
-0.8365772238702E-01 -0.1129467824235E+00 -0.9240411726095E-01  0.1002264483452E-03
-0.7094094922868E-01 -0.1025400262257E+00 -0.8153605846354E-01 -0.2130887431242E-03
-0.5694290932007E-01 -0.9136406875780E-01 -0.6970427969660E-01 -0.5268262505580E-03
-0.4180092181660E-01 -0.7952153864699E-01 -0.5702155641788E-01 -0.8150453641701E-03
-0.2572487706489E-01 -0.6714837238080E-01 -0.4365042723948E-01 -0.1050633561219E-02
-0.8992237893067E-02 -0.5441050476863E-01 -0.2979928905100E-01 -0.1209467645458E-02
 0.8064911841317E-02 -0.4149867465593E-01 -0.1571386852287E-01 -0.1274491270082E-02
 0.2507981001617E-01 -0.2862115628356E-01 -0.1664432745673E-02 -0.1238645501902E-02
 0.4167463861536E-01 -0.1599504993010E-01  0.1206940668207E-01 -0.1106351850315E-02
-0.1803461551256E+00 -0.2039895571676E+00 -0.1806377847778E+00 -0.4831548417746E-03
-0.1780209063328E+00 -0.2026075312283E+00 -0.1788953656537E+00 -0.4724331924568E-03
-0.1756826117973E+00 -0.2011948526056E+00 -0.1771324082694E+00 -0.4469143544129E-03
-0.1733697402024E+00 -0.1997669798053E+00 -0.1753742584036E+00 -0.4072655082461E-03
-0.1711193723769E+00 -0.1983395581954E+00 -0.1736456973689E+00 -0.3550498660887E-03
-0.1689648161272E+00 -0.1969274560059E+00 -0.1719693679025E+00 -0.2925496694399E-03
-0.1669335648022E+00 -0.1955437343151E+00 -0.1703643305851E+00 -0.2224343142122E-03
-0.1650459076576E+00 -0.1941986889610E+00 -0.1688449604107E+00 -0.1473868464510E-03
-0.1633142568405E+00 -0.1928990530014E+00 -0.1674202556257E+00 -0.6978636970888E-04
-0.1617430781545E+00 -0.1916473962074E+00 -0.1660935229501E+00  0.8498377190886E-05
-0.1603292347132E+00 -0.1904417213546E+00 -0.1648623493518E+00  0.8619253129184E-04
-0.1590625512785E+00 -0.1892752365434E+00 -0.1637187602763E+00  0.1625938963870E-03
-0.1579264201177E+00 -0.1881362542477E+00 -0.1626494569517E+00  0.2374793129204E-03
-0.1568983211698E+00 -0.1870081662066E+00 -0.1616360490669E+00  0.3109708146587E-03
-0.1559501773887E+00 -0.1858694494711E+00 -0.1606552246241E+00  0.3833863649517E-03
-0.1550485048124E+00 -0.1846936697974E+00 -0.1596788220666E+00  0.4550905827133E-03
-0.1541543426607E+00 -0.1834494575812E+00 -0.1586737861137E+00  0.5263529322183E-03
-0.1532229808426E+00 -0.1821004611653E+00 -0.1576020177437E+00  0.5972143373423E-03
-0.1522035077597E+00 -0.1806052836247E+00 -0.1564201319507E+00  0.6673612795789E-03
-0.1510382199011E+00 -0.1789174315706E+00 -0.1550791561917E+00  0.7360058396834E-03
-0.1496619802366E+00 -0.1769853586171E+00 -0.1535242492612E+00  0.8017709730006E-03
-0.1480015059011E+00 -0.1747525262016E+00 -0.1516943950883E+00  0.8625902265332E-03
-0.1459748109206E+00 -0.1721577314650E+00 -0.1495222949213E+00  0.9156254992225E-03
-0.1434909081206E+00 -0.1691357387526E+00 -0.1469345240304E+00  0.9572228518482E-03
-0.1404498574691E+00 -0.1656181933104E+00 -0.1438519838664E+00  0.9829352512212E-03
-0.1367434980286E+00 -0.1615350833790E+00 -0.1401909332616E+00  0.9876414248667E-03
-0.1322570433688E+00 -0.1568167369237E+00 -0.1358646767375E+00  0.9658047305167E-03
-0.1268718970625E+00 -0.1513965069275E+00 -0.1307861498753E+00  0.9119183275031E-03
-0.1204700072306E+00 -0.1452141999894E+00 -0.1248715773934E+00  0.8211941330258E-03
-0.1129401860024E+00 -0.1382202948347E+00 -0.1180454259934E+00  0.6904424190921E-03
-0.1041862978261E+00 -0.1303805170052E+00 -0.1102464029707E+00  0.5190600191717E-03
-0.9413730054551E-01 -0.1216806289897E+00 -0.1014344268815E+00  0.3101037874094E-03
-0.8275874316941E-01 -0.1121310950563E+00 -0.9159822396609E-01  0.7125016090572E-04
-0.7006470666441E-01 -0.1017710785320E+00 -0.8076281904231E-01 -0.1847003650963E-03
-0.5612847385127E-01 -0.9067112516585E-01 -0.6899581153805E-01 -0.4401512954462E-03
-0.4109010361494E-01 -0.7893426014926E-01 -0.5641145096917E-01 -0.6741531583176E-03
-0.2515850371215E-01 -0.6669503086528E-01 -0.4317116125139E-01 -0.8649726055606E-03
-0.8606002067457E-02 -0.5411615826627E-01 -0.2947941535685E-01 -0.9933741650579E-03
 0.8244225760095E-02 -0.4138346925834E-01 -0.1557544444417E-01 -0.1045816952547E-02
 0.2503714063377E-01 -0.2869888756544E-01 -0.1721021057882E-02 -0.1016804119026E-02
 0.4140855135667E-01 -0.1627204990562E-01  0.1181415568199E-01 -0.9101502827384E-03
-0.1803233448808E+00 -0.2039593678646E+00 -0.1806128749903E+00 -0.3748521612734E-03
-0.1780151974243E+00 -0.2025876362298E+00 -0.1788833318174E+00 -0.3665395886419E-03
-0.1756942668355E+00 -0.2011857201829E+00 -0.1771335938987E+00 -0.3467762512589E-03
-0.1733980781507E+00 -0.1997685616518E+00 -0.1753883207072E+00 -0.3160776265410E-03
-0.1711627122015E+00 -0.1983511780340E+00 -0.1736715284107E+00 -0.2756349617500E-03
-0.1690206079667E+00 -0.1969477799900E+00 -0.1720051423396E+00 -0.2271869110356E-03
-0.1669986400750E+00 -0.1955708143758E+00 -0.1704076435918E+00 -0.1727730460027E-03
-0.1651167664457E+00 -0.1942300585933E+00 -0.1688930077683E+00 -0.1144526346434E-03
-0.1633873249951E+00 -0.1929318496855E+00 -0.1674700120999E+00 -0.5406210388534E-04
-0.1618148938267E+00 -0.1916784855699E+00 -0.1661418883164E+00  0.6945712675758E-05
-0.1603965511364E+00 -0.1904678036532E+00 -0.1649062467511E+00  0.6756971479597E-04
-0.1591223621941E+00 -0.1892929238877E+00 -0.1637551844584E+00  0.1272482036542E-03
-0.1579759246187E+00 -0.1881421149695E+00 -0.1626754786064E+00  0.1857897045704E-03
-0.1569348476064E+00 -0.1869987393304E+00 -0.1616487858603E+00  0.2432712623286E-03
-0.1559710843407E+00 -0.1858412366656E+00 -0.1606517908730E+00  0.2999233869295E-03
-0.1550510736595E+00 -0.1846431146253E+00 -0.1596562684939E+00  0.3560138915905E-03
-0.1541356727335E+00 -0.1833729227160E+00 -0.1586290398613E+00  0.4117368234396E-03
-0.1531798958645E+00 -0.1819942145765E+00 -0.1575318319073E+00  0.4671076096706E-03
-0.1521324813062E+00 -0.1804655045639E+00 -0.1563210533589E+00  0.5218640107241E-03
-0.1509353282572E+00 -0.1787402472139E+00 -0.1549475204714E+00  0.5753719538616E-03
-0.1495228937667E+00 -0.1767669231316E+00 -0.1533562139422E+00  0.6265359474154E-03
-0.1478215304977E+00 -0.1744891510257E+00 -0.1514860203160E+00  0.6737215058405E-03
-0.1457489981483E+00 -0.1718460789119E+00 -0.1492696862183E+00  0.7146926670444E-03
-0.1432142548429E+00 -0.1687730877217E+00 -0.1466340510054E+00  0.7465805070996E-03
-0.1401176160697E+00 -0.1652027795927E+00 -0.1435005859613E+00  0.7659054023345E-03
-0.1363516205384E+00 -0.1610665130305E+00 -0.1397865227774E+00  0.7686759194833E-03
-0.1318027755743E+00 -0.1562964579355E+00 -0.1354066397496E+00  0.7505982803202E-03
-0.1263545219410E+00 -0.1508283051345E+00 -0.1302759287255E+00  0.7074314865932E-03
-0.1198916754142E+00 -0.1446046285153E+00 -0.1243132628468E+00  0.6355303769124E-03
-0.1123067807235E+00 -0.1375789848912E+00 -0.1174463098389E+00  0.5325315747762E-03
-0.1035083005474E+00 -0.1297203736322E+00 -0.1096174768644E+00  0.3981152276765E-03
-0.9343050826427E-01 -0.1210178400154E+00 -0.1007907236914E+00  0.2348203861257E-03
-0.8204459905156E-01 -0.1114848596509E+00 -0.9095884559015E-01  0.4875661098078E-04
-0.6936998174292E-01 -0.1011630013750E+00 -0.8015050206540E-01 -0.1500495766536E-03
-0.5548407695547E-01 -0.9012427321897E-01 -0.6843592458199E-01 -0.3479533181761E-03
-0.4052894480678E-01 -0.7847194085408E-01 -0.5593041626061E-01 -0.5288322902008E-03
-0.2471258915051E-01 -0.6633940188737E-01 -0.4279443578780E-01 -0.6760573679368E-03
-0.8303218422325E-02 -0.5388680389374E-01 -0.2922931048855E-01 -0.7749720527033E-03
 0.8383046646797E-02 -0.4129607084372E-01 -0.1546912137255E-01 -0.8152994858195E-03
 0.2500045464108E-01 -0.2876409913944E-01 -0.1768912914231E-02 -0.7929418440689E-03
 0.4119559909652E-01 -0.1649465181171E-01  0.1160944522386E-01 -0.7109872264994E-03
-0.1803063360264E+00 -0.2039368476996E+00 -0.1805942963512E+00 -0.2672514277946E-03
-0.1780109479222E+00 -0.2025727871831E+00 -0.1788743554995E+00 -0.2613278264369E-03
-0.1757029458479E+00 -0.2011788650156E+00 -0.1771344511059E+00 -0.2472556009912E-03
-0.1734191684657E+00 -0.1997696474102E+00 -0.1753987434617E+00 -0.2254012726675E-03
-0.1711949655535E+00 -0.1983596933455E+00 -0.1736906896825E+00 -0.1966029416488E-03
-0.1690621365242E+00 -0.1969627312292E+00 -0.1720316878441E+00 -0.1620833979481E-03
-0.1670470957735E+00 -0.1955907547881E+00 -0.1704397897640E+00 -0.1232801231243E-03
-0.1651695496286E+00 -0.1942531560269E+00 -0.1689286716581E+00 -0.8164932274298E-04
-0.1634417730674E+00 -0.1929559745722E+00 -0.1675069413906E+00 -0.3849511946574E-04
-0.1618684197446E+00 -0.1917013011805E+00 -0.1661777688348E+00  0.5145289532533E-05
-0.1604467211046E+00 -0.1904868443674E+00 -0.1649387757718E+00  0.4855192318773E-04
-0.1591669164180E+00 -0.1893056527353E+00 -0.1637821075021E+00  0.9131538235424E-04
-0.1580127529052E+00 -0.1881459574795E+00 -0.1626945938808E+00  0.1332893710569E-03
-0.1569619340673E+00 -0.1869910955551E+00 -0.1616579239225E+00  0.1745193401925E-03
-0.1559864345134E+00 -0.1858194766197E+00 -0.1606487782326E+00  0.2151608814856E-03
-0.1550526349571E+00 -0.1846045643098E+00 -0.1596388836555E+00  0.2553967424886E-03
-0.1541212565915E+00 -0.1833148486515E+00 -0.1585949694642E+00  0.2953570939146E-03
-0.1531471082984E+00 -0.1819138150986E+00 -0.1574786339966E+00  0.3350440519206E-03
-0.1520786678655E+00 -0.1803599160527E+00 -0.1562461344416E+00  0.3742603386958E-03
-0.1508575398373E+00 -0.1786065734515E+00 -0.1548481332457E+00  0.4125415677112E-03
-0.1494178817707E+00 -0.1766022966253E+00 -0.1532294838462E+00  0.4490920777412E-03
-0.1476857801302E+00 -0.1742908328314E+00 -0.1513290080920E+00  0.4827297688979E-03
-0.1455788138567E+00 -0.1716116058762E+00 -0.1490794972745E+00  0.5118422935446E-03
-0.1430059134300E+00 -0.1685004734090E+00 -0.1464080018143E+00  0.5343661471213E-03
-0.1398676030711E+00 -0.1648907702615E+00 -0.1432364354663E+00  0.5478050565412E-03
-0.1360569668260E+00 -0.1607148968122E+00 -0.1394827759100E+00  0.5493040991244E-03
-0.1314615053140E+00 -0.1559064152842E+00 -0.1350629226812E+00  0.5358036697102E-03
-0.1259662099679E+00 -0.1504027741646E+00 -0.1298934225423E+00  0.5042978344015E-03
-0.1194580654462E+00 -0.1441486168931E+00 -0.1238951406995E+00  0.4522259227023E-03
-0.1118324231880E+00 -0.1370997896089E+00 -0.1169981400145E+00  0.3779631967206E-03
-0.1030011830084E+00 -0.1292277123472E+00 -0.1091475808172E+00  0.2813609471338E-03
-0.9290256625611E-01 -0.1205238423151E+00 -0.1003104120285E+00  0.1643181612723E-03
-0.8151193142525E-01 -0.1110038516353E+00 -0.9048241803845E-01  0.3127117942426E-04
-0.6885258149196E-01 -0.1007110472023E+00 -0.7969490548629E-01 -0.1105829829188E-03
-0.5500492251280E-01 -0.8971847412858E-01 -0.6801999642145E-01 -0.2515221706012E-03
-0.4011240809797E-01 -0.7812953492904E-01 -0.5557371322270E-01 -0.3801226378606E-03
-0.2438229795276E-01 -0.6607674239596E-01 -0.4251574896390E-01 -0.4846514325865E-03
-0.8079703384133E-02 -0.5371831209254E-01 -0.2904506727404E-01 -0.5547997274584E-03
 0.8484507115156E-02 -0.4123325668525E-01 -0.1539191229794E-01 -0.5833624458815E-03
 0.2497149359383E-01 -0.2881473580535E-01 -0.1806323839414E-02 -0.5675090489510E-03
 0.4103585940002E-01 -0.1666216868305E-01  0.1145563463698E-01 -0.5095092170115E-03
-0.1802950422943E+00 -0.2039218903939E+00 -0.1805819583635E+00 -0.1601510193610E-03
-0.1780081292944E+00 -0.2025629207693E+00 -0.1788683935299E+00 -0.1566023714736E-03
-0.1757087019973E+00 -0.2011742912937E+00 -0.1771350068467E+00 -0.1481765596577E-03
-0.1734331514389E+00 -0.1997703231514E+00 -0.1754056330574E+00 -0.1350928719771E-03
-0.1712163488954E+00 -0.1983652755618E+00 -0.1737033634949E+00 -0.1178491583379E-03
-0.1690896730947E+00 -0.1969725605448E+00 -0.1720492498105E+00 -0.9717156480538E-04
-0.1670792334678E+00 -0.1956038732969E+00 -0.1704610601794E+00 -0.7391491381436E-04
-0.1652045672347E+00 -0.1942683505429E+00 -0.1689522713555E+00 -0.4894706586564E-04
-0.1634779040496E+00 -0.1929718334912E+00 -0.1675313766442E+00 -0.2304741810260E-04
-0.1619039438728E+00 -0.1917162732980E+00 -0.1662015020703E+00  0.3161984530643E-05
-0.1604800165115E+00 -0.1904992902945E+00 -0.1649602741988E+00  0.2924724650808E-04
-0.1591964742070E+00 -0.1893138830658E+00 -0.1637998679182E+00  0.5495949476514E-04
-0.1580371618050E+00 -0.1881482556107E+00 -0.1627071461854E+00  0.8020715901696E-04
-0.1569798444070E+00 -0.1869857262480E+00 -0.1616638182079E+00  0.1050136755468E-03
-0.1559965102994E+00 -0.1858046836526E+00 -0.1606465611575E+00  0.1294687589464E-03
-0.1550535013313E+00 -0.1845785619156E+00 -0.1596270697260E+00  0.1536786119198E-03
-0.1541114483098E+00 -0.1832758119793E+00 -0.1585720123359E+00  0.1777179314078E-03
-0.1531250237895E+00 -0.1818598752045E+00 -0.1574429025272E+00  0.2015843926525E-03
-0.1520425329498E+00 -0.1802891648861E+00 -0.1561958979829E+00  0.2251556117948E-03
-0.1508053854994E+00 -0.1785170843224E+00 -0.1547815608162E+00  0.2481483389289E-03
-0.1493475417199E+00 -0.1764921660501E+00 -0.1531446626519E+00  0.2700798922030E-03
-0.1475949140527E+00 -0.1741582480826E+00 -0.1512239862036E+00  0.2902351639587E-03
-0.1454649657289E+00 -0.1714549441013E+00 -0.1489523576202E+00  0.3076406718056E-03
-0.1428666152057E+00 -0.1683184363393E+00 -0.1462569742261E+00  0.3210526552148E-03
-0.1397005340190E+00 -0.1646825551803E+00 -0.1430600519237E+00  0.3289691139027E-03
-0.1358601795696E+00 -0.1604804022158E+00 -0.1392800734391E+00  0.3296756803575E-03
-0.1312337255420E+00 -0.1556464728801E+00 -0.1348336932584E+00  0.3213397388162E-03
-0.1257072078312E+00 -0.1501193892321E+00 -0.1296385006198E+00  0.3021672953830E-03
-0.1191690653799E+00 -0.1438451713294E+00 -0.1236166912534E+00  0.2706393633209E-03
-0.1115165238364E+00 -0.1367811821284E+00 -0.1166999218035E+00  0.2258065705766E-03
-0.1026637685015E+00 -0.1289004387948E+00 -0.1088351774293E+00  0.1676115243996E-03
-0.9255163391600E-01 -0.1201959826996E+00 -0.9999137980933E-01  0.9722743726537E-04
-0.8115822008433E-01 -0.1106849211733E+00 -0.9016627639110E-01  0.1734446254976E-04
-0.6850937805912E-01 -0.1004116889931E+00 -0.7939290151453E-01 -0.6770583260072E-04
-0.5468744905266E-01 -0.8944999494741E-01 -0.6774459868003E-01 -0.1521003831241E-03
-0.3983676578391E-01 -0.7790331247547E-01 -0.5533783678191E-01 -0.2290218619025E-03
-0.2416406116465E-01 -0.6590355379645E-01 -0.4233177903172E-01 -0.2914879055348E-03
-0.7932377930665E-02 -0.5360764537866E-01 -0.2892381095538E-01 -0.3333764541513E-03
 0.8550899303301E-02 -0.4119266678807E-01 -0.1534163071784E-01 -0.3504184059065E-03
 0.2495151170440E-01 -0.2884930348541E-01 -0.1831962137074E-02 -0.3409543543258E-03
 0.4092936161504E-01 -0.1677410953770E-01  0.1135296847635E-01 -0.3063712965226E-03
-0.1802894087714E+00 -0.2039144282130E+00 -0.1805758033827E+00 -0.5335038745965E-04
-0.1780067241046E+00 -0.2025579971644E+00 -0.1788654189965E+00 -0.5216841660846E-04
-0.1757115710725E+00 -0.2011720031859E+00 -0.1771352799015E+00 -0.4936270773342E-04
-0.1734401198433E+00 -0.1997706465563E+00 -0.1754090602078E+00 -0.4500625729056E-04
-0.1712270050719E+00 -0.1983680383459E+00 -0.1737096704063E+00 -0.3926419068896E-04
-0.1691033968416E+00 -0.1969774338976E+00 -0.1720579904474E+00 -0.3237731329953E-04
-0.1670952526668E+00 -0.1956103802030E+00 -0.1704716474488E+00 -0.2462929573831E-04
-0.1652220248185E+00 -0.1942758868457E+00 -0.1689640184822E+00 -0.1630844949224E-04
-0.1634959192980E+00 -0.1929796957929E+00 -0.1675435390928E+00 -0.7674057753857E-05
-0.1619216580137E+00 -0.1917236879657E+00 -0.1662133126103E+00  0.1066582336963E-05
-0.1604966188203E+00 -0.1905054389377E+00 -0.1649709671463E+00  0.9768526779113E-05
-0.1592112095376E+00 -0.1893179215589E+00 -0.1638086916154E+00  0.1834828302828E-04
-0.1580493231901E+00 -0.1881493255765E+00 -0.1627133649203E+00  0.2677469742738E-04
-0.1569887552954E+00 -0.1869829594979E+00 -0.1616667059529E+00  0.3505494287444E-04
-0.1560015007943E+00 -0.1857972012210E+00 -0.1606453899472E+00  0.4321831580146E-04
-0.1550538820677E+00 -0.1845654700035E+00 -0.1596210954735E+00  0.5129964013946E-04
-0.1541064848095E+00 -0.1832561974183E+00 -0.1585604606471E+00  0.5932324412097E-04
-0.1531139135976E+00 -0.1818328031905E+00 -0.1574249568904E+00  0.6728775044311E-04
-0.1520243876209E+00 -0.1802536817236E+00 -0.1561706925919E+00  0.7515169180680E-04
-0.1507792196550E+00 -0.1784722279273E+00 -0.1547481803637E+00  0.8281987923690E-04
-0.1493122720655E+00 -0.1764369871621E+00 -0.1531021518370E+00  0.9013053615420E-04
-0.1475493713222E+00 -0.1740918443387E+00 -0.1511713713606E+00  0.9684431843217E-04
-0.1454079242473E+00 -0.1713765098797E+00 -0.1488886840397E+00  0.1026357216473E-03
-0.1427968452159E+00 -0.1682273303359E+00 -0.1461813625094E+00  0.1070892212917E-03
-0.1396168818734E+00 -0.1645783859806E+00 -0.1429717758914E+00  0.1097034541771E-03
-0.1357616812338E+00 -0.1603631309771E+00 -0.1391786617391E+00  0.1099067435712E-03
-0.1311197567602E+00 -0.1555165288279E+00 -0.1347190542264E+00  0.1070887618152E-03
-0.1255776697505E+00 -0.1499777888696E+00 -0.1295110655514E+00  0.1006531280018E-03
-0.1190245887427E+00 -0.1436936184906E+00 -0.1234775573997E+00  0.9009643656082E-04
-0.1113586773330E+00 -0.1366221361903E+00 -0.1165509823560E+00  0.7510648642054E-04
-0.1024952616960E+00 -0.1287371526832E+00 -0.1086792347582E+00  0.5566944463141E-04
-0.9237647726087E-01 -0.1200324943064E+00 -0.9983221663662E-01  0.3218198505716E-04
-0.8098178456443E-01 -0.1105259773324E+00 -0.9000864809151E-01  0.5545490514184E-05
-0.6833829438110E-01 -0.1002625913582E+00 -0.7924241629745E-01 -0.2279402906515E-04
-0.5452929915874E-01 -0.8931636882796E-01 -0.6760746395375E-01 -0.5089731127536E-04
-0.3969955645106E-01 -0.7779081263071E-01 -0.5522047346843E-01 -0.7649807042027E-04
-0.2405552672524E-01 -0.6581753149535E-01 -0.4224033736368E-01 -0.9727836247064E-04
-0.7859217242047E-02 -0.5355280699835E-01 -0.2886365139299E-01 -0.1112079635317E-03
 0.8583724194740E-02 -0.4117275453464E-01 -0.1531684425975E-01 -0.1168728051758E-03
 0.2494132120735E-01 -0.2886682776672E-01 -0.1844988082906E-02 -0.1137262662503E-03
 0.4087611275472E-01 -0.1683015763974E-01  0.1130159890404E-01 -0.1022348358136E-03
-0.1802894087735E+00 -0.2039144282154E+00 -0.1805758033848E+00  0.5335038791317E-04
-0.1780067241067E+00 -0.2025579971669E+00 -0.1788654189986E+00  0.5216841847332E-04
-0.1757115710745E+00 -0.2011720031883E+00 -0.1771352799036E+00  0.4936271082903E-04
-0.1734401198453E+00 -0.1997706465586E+00 -0.1754090602098E+00  0.4500626134802E-04
-0.1712270050737E+00 -0.1983680383481E+00 -0.1737096704083E+00  0.3926419536723E-04
-0.1691033968433E+00 -0.1969774338998E+00 -0.1720579904492E+00  0.3237731820775E-04
-0.1670952526683E+00 -0.1956103802051E+00 -0.1704716474505E+00  0.2462930046109E-04
-0.1652220248198E+00 -0.1942758868477E+00 -0.1689640184837E+00  0.1630845361278E-04
-0.1634959192992E+00 -0.1929796957949E+00 -0.1675435390942E+00  0.7674060871289E-05
-0.1619216580148E+00 -0.1917236879676E+00 -0.1662133126117E+00 -0.1066580597538E-05
-0.1604966188213E+00 -0.1905054389396E+00 -0.1649709671477E+00 -0.9768526763281E-05
-0.1592112095387E+00 -0.1893179215609E+00 -0.1638086916168E+00 -0.1834828505583E-04
-0.1580493231911E+00 -0.1881493255786E+00 -0.1627133649218E+00 -0.2677470179854E-04
-0.1569887552966E+00 -0.1869829595003E+00 -0.1616667059545E+00 -0.3505494987834E-04
-0.1560015007957E+00 -0.1857972012237E+00 -0.1606453899491E+00 -0.4321832572258E-04
-0.1550538820695E+00 -0.1845654700066E+00 -0.1596210954757E+00 -0.5129965326264E-04
-0.1541064848117E+00 -0.1832561974220E+00 -0.1585604606498E+00 -0.5932326073007E-04
-0.1531139136003E+00 -0.1818328031949E+00 -0.1574249568937E+00 -0.6728777081451E-04
-0.1520243876242E+00 -0.1802536817288E+00 -0.1561706925959E+00 -0.7515171619517E-04
-0.1507792196592E+00 -0.1784722279336E+00 -0.1547481803686E+00 -0.8281990785204E-04
-0.1493122720707E+00 -0.1764369871697E+00 -0.1531021518430E+00 -0.9013056912766E-04
-0.1475493713287E+00 -0.1740918443477E+00 -0.1511713713679E+00 -0.9684435577260E-04
-0.1454079242553E+00 -0.1713765098903E+00 -0.1488886840484E+00 -0.1026357631854E-03
-0.1427968452257E+00 -0.1682273303484E+00 -0.1461813625198E+00 -0.1070892666158E-03
-0.1396168818851E+00 -0.1645783859950E+00 -0.1429717759037E+00 -0.1097035025618E-03
-0.1357616812477E+00 -0.1603631309936E+00 -0.1391786617534E+00 -0.1099067939050E-03
-0.1311197567766E+00 -0.1555165288466E+00 -0.1347190542429E+00 -0.1070888125396E-03
-0.1255776697696E+00 -0.1499777888904E+00 -0.1295110655702E+00 -0.1006531770739E-03
-0.1190245887644E+00 -0.1436936185134E+00 -0.1234775574206E+00 -0.9009648146299E-04
-0.1113586773573E+00 -0.1366221362148E+00 -0.1165509823789E+00 -0.7510652423037E-04
-0.1024952617225E+00 -0.1287371527089E+00 -0.1086792347828E+00 -0.5566947216772E-04
-0.9237647728908E-01 -0.1200324943327E+00 -0.9983221666226E-01 -0.3218199913405E-04
-0.8098178459348E-01 -0.1105259773586E+00 -0.9000864811747E-01 -0.5545488301781E-05
-0.6833829440983E-01 -0.1002625913832E+00 -0.7924241632272E-01  0.2279404959170E-04
-0.5452929918572E-01 -0.8931636885073E-01 -0.6760746397713E-01  0.5089735085391E-04
-0.3969955647467E-01 -0.7779081265003E-01 -0.5522047348861E-01  0.7649812808242E-04
-0.2405552674378E-01 -0.6581753151000E-01 -0.4224033737928E-01  0.9727843528813E-04
-0.7859217253952E-02 -0.5355280700720E-01 -0.2886365140274E-01  0.1112080466420E-03
 0.8583724190748E-02 -0.4117275453672E-01 -0.1531684426261E-01  0.1168728921442E-03
 0.2494132121208E-01 -0.2886682776131E-01 -0.1844988078139E-02  0.1137263497655E-03
 0.4087611276837E-01 -0.1683015762641E-01  0.1130159891672E-01  0.1022349086227E-03
-0.1802950423007E+00 -0.2039218904011E+00 -0.1805819583698E+00  0.1601510198188E-03
-0.1780081293008E+00 -0.2025629207765E+00 -0.1788683935363E+00  0.1566023733447E-03
-0.1757087020034E+00 -0.2011742913009E+00 -0.1771350068530E+00  0.1481765627612E-03
-0.1734331514447E+00 -0.1997703231585E+00 -0.1754056330635E+00  0.1350928760434E-03
-0.1712163489008E+00 -0.1983652755687E+00 -0.1737033635007E+00  0.1178491630251E-03
-0.1690896730996E+00 -0.1969725605514E+00 -0.1720492498160E+00  0.9717156972204E-04
-0.1670792334722E+00 -0.1956038733032E+00 -0.1704610601844E+00  0.7391491854502E-04
-0.1652045672386E+00 -0.1942683505489E+00 -0.1689522713602E+00  0.4894706999394E-04
-0.1634779040532E+00 -0.1929718334970E+00 -0.1675313766486E+00  0.2304742122875E-04
-0.1619039438761E+00 -0.1917162733037E+00 -0.1662015020745E+00 -0.3161982779662E-05
-0.1604800165146E+00 -0.1904992903002E+00 -0.1649602742029E+00 -0.2924724647590E-04
-0.1591964742101E+00 -0.1893138830717E+00 -0.1637998679224E+00 -0.5495949676941E-04
-0.1580371618083E+00 -0.1881482556171E+00 -0.1627071461899E+00 -0.8020716335572E-04
-0.1569798444106E+00 -0.1869857262550E+00 -0.1616638182129E+00 -0.1050136825072E-03
-0.1559965103036E+00 -0.1858046836606E+00 -0.1606465611632E+00 -0.1294687688117E-03
-0.1550535013364E+00 -0.1845785619249E+00 -0.1596270697328E+00 -0.1536786249735E-03
-0.1541114483162E+00 -0.1832758119904E+00 -0.1585720123441E+00 -0.1777179479333E-03
-0.1531250237975E+00 -0.1818598752177E+00 -0.1574429025371E+00 -0.2015844129268E-03
-0.1520425329598E+00 -0.1802891649019E+00 -0.1561958979950E+00 -0.2251556360741E-03
-0.1508053855119E+00 -0.1785170843413E+00 -0.1547815608310E+00 -0.2481483674259E-03
-0.1493475417356E+00 -0.1764921660728E+00 -0.1531446626699E+00 -0.2700799250531E-03
-0.1475949140721E+00 -0.1741582481096E+00 -0.1512239862254E+00 -0.2902352011769E-03
-0.1454649657528E+00 -0.1714549441331E+00 -0.1489523576464E+00 -0.3076407132317E-03
-0.1428666152348E+00 -0.1683184363766E+00 -0.1462569742573E+00 -0.3210527004477E-03
-0.1397005340542E+00 -0.1646825552235E+00 -0.1430600519605E+00 -0.3289691622298E-03
-0.1358601796115E+00 -0.1604804022653E+00 -0.1392800734821E+00 -0.3296757306825E-03
-0.1312337255913E+00 -0.1556464729361E+00 -0.1348336933079E+00 -0.3213397895956E-03
-0.1257072078884E+00 -0.1501193892945E+00 -0.1296385006760E+00 -0.3021673445875E-03
-0.1191690654451E+00 -0.1438451713977E+00 -0.1236166913161E+00 -0.2706394084431E-03
-0.1115165239093E+00 -0.1367811822018E+00 -0.1166999218722E+00 -0.2258066086962E-03
-0.1026637685811E+00 -0.1289004388721E+00 -0.1088351775030E+00 -0.1676115523282E-03
-0.9255163400073E-01 -0.1201959827788E+00 -0.9999137988637E-01 -0.9722745179740E-04
-0.8115822017161E-01 -0.1106849212520E+00 -0.9016627646911E-01 -0.1734446082336E-04
-0.6850937814549E-01 -0.1004116890684E+00 -0.7939290159051E-01  0.6770585265090E-04
-0.5468744913382E-01 -0.8944999501593E-01 -0.6774459875038E-01  0.1521004222793E-03
-0.3983676585496E-01 -0.7790331253363E-01 -0.5533783684264E-01  0.2290219192268E-03
-0.2416406122051E-01 -0.6590355384061E-01 -0.4233177907873E-01  0.2914879781147E-03
-0.7932377966571E-02 -0.5360764540540E-01 -0.2892381098483E-01  0.3333765371111E-03
 0.8550899291193E-02 -0.4119266679446E-01 -0.1534163072653E-01  0.3504184927679E-03
 0.2495151171851E-01 -0.2884930346925E-01 -0.1831962122845E-02  0.3409544377082E-03
 0.4092936165600E-01 -0.1677410949772E-01  0.1135296851439E-01  0.3063713690936E-03
-0.1803063360371E+00 -0.2039368477116E+00 -0.1805942963619E+00  0.2672514282609E-03
-0.1780109479327E+00 -0.2025727871951E+00 -0.1788743555101E+00  0.2613278283204E-03
-0.1757029458582E+00 -0.2011788650276E+00 -0.1771344511163E+00  0.2472556041102E-03
-0.1734191684754E+00 -0.1997696474219E+00 -0.1753987434718E+00  0.2254012767512E-03
-0.1711949655625E+00 -0.1983596933569E+00 -0.1736906896921E+00  0.1966029463538E-03
-0.1690621365325E+00 -0.1969627312401E+00 -0.1720316878531E+00  0.1620834028815E-03
-0.1670470957810E+00 -0.1955907547986E+00 -0.1704397897724E+00  0.1232801278704E-03
-0.1651695496353E+00 -0.1942531560369E+00 -0.1689286716659E+00  0.8164932688647E-04
-0.1634417730734E+00 -0.1929559745819E+00 -0.1675069413980E+00  0.3849512260923E-04
-0.1618684197500E+00 -0.1917013011900E+00 -0.1661777688418E+00 -0.5145287758725E-05
-0.1604467211097E+00 -0.1904868443769E+00 -0.1649387757787E+00 -0.4855192312308E-04
-0.1591669164231E+00 -0.1893056527451E+00 -0.1637821075091E+00 -0.9131538431200E-04
-0.1580127529105E+00 -0.1881459574900E+00 -0.1626945938883E+00 -0.1332893753310E-03
-0.1569619340733E+00 -0.1869910955668E+00 -0.1616579239308E+00 -0.1745193470663E-03
-0.1559864345205E+00 -0.1858194766330E+00 -0.1606487782421E+00 -0.2151608912392E-03
-0.1550526349656E+00 -0.1846045643253E+00 -0.1596388836667E+00 -0.2553967554034E-03
-0.1541212566020E+00 -0.1833148486698E+00 -0.1585949694778E+00 -0.2953571102734E-03
-0.1531471083116E+00 -0.1819138151205E+00 -0.1574786340131E+00 -0.3350440720007E-03
-0.1520786678821E+00 -0.1803599160790E+00 -0.1562461344617E+00 -0.3742603627566E-03
-0.1508575398581E+00 -0.1786065734830E+00 -0.1548481332703E+00 -0.4125415959706E-03
-0.1494178817968E+00 -0.1766022966630E+00 -0.1532294838761E+00 -0.4490921103434E-03
-0.1476857801625E+00 -0.1742908328763E+00 -0.1513290081282E+00 -0.4827298058706E-03
-0.1455788138965E+00 -0.1716116059292E+00 -0.1490794973180E+00 -0.5118423347443E-03
-0.1430059134785E+00 -0.1685004734711E+00 -0.1464080018663E+00 -0.5343661921688E-03
-0.1398676031296E+00 -0.1648907703335E+00 -0.1432364355276E+00 -0.5478051047502E-03
-0.1360569668957E+00 -0.1607148968948E+00 -0.1394827759815E+00 -0.5493041494279E-03
-0.1314615053961E+00 -0.1559064153775E+00 -0.1350629227636E+00 -0.5358037205956E-03
-0.1259662100632E+00 -0.1504027742686E+00 -0.1298934226360E+00 -0.5042978838667E-03
-0.1194580655548E+00 -0.1441486170072E+00 -0.1238951408041E+00 -0.4522259682601E-03
-0.1118324233096E+00 -0.1370997897316E+00 -0.1169981401293E+00 -0.3779632354570E-03
-0.1030011831413E+00 -0.1292277124764E+00 -0.1091475809403E+00 -0.2813609758456E-03
-0.9290256639766E-01 -0.1205238424475E+00 -0.1003104121572E+00 -0.1643181767149E-03
-0.8151193157119E-01 -0.1110038517670E+00 -0.9048241816897E-01 -0.3127117867220E-04
-0.6885258163651E-01 -0.1007110473284E+00 -0.7969490561352E-01  0.1105830020125E-03
-0.5500492264877E-01 -0.8971847424352E-01 -0.6801999653938E-01  0.2515222089033E-03
-0.4011240821716E-01 -0.7812953502673E-01 -0.5557371332463E-01  0.3801226945039E-03
-0.2438229804661E-01 -0.6607674247028E-01 -0.4251574904294E-01  0.4846515046879E-03
-0.8079703444623E-02 -0.5371831213772E-01 -0.2904506732370E-01  0.5547998101147E-03
 0.8484507094515E-02 -0.4123325669635E-01 -0.1539191231286E-01  0.5833625325276E-03
 0.2497149361713E-01 -0.2881473577869E-01 -0.1806323815932E-02  0.5675091320683E-03
 0.4103585946835E-01 -0.1666216861648E-01  0.1145563470038E-01  0.5095092891070E-03
-0.1803233448957E+00 -0.2039593678814E+00 -0.1806128750052E+00  0.3748521617526E-03
-0.1780151974391E+00 -0.2025876362467E+00 -0.1788833318323E+00  0.3665395905440E-03
-0.1756942668499E+00 -0.2011857201997E+00 -0.1771335939133E+00  0.3467762544014E-03
-0.1733980781644E+00 -0.1997685616682E+00 -0.1753883207213E+00  0.3160776306510E-03
-0.1711627122142E+00 -0.1983511780500E+00 -0.1736715284242E+00  0.2756349664815E-03
-0.1690206079782E+00 -0.1969477800053E+00 -0.1720051423523E+00  0.2271869159939E-03
-0.1669986400853E+00 -0.1955708143904E+00 -0.1704076436036E+00  0.1727730507716E-03
-0.1651167664550E+00 -0.1942300586073E+00 -0.1688930077793E+00  0.1144526388091E-03
-0.1633873250034E+00 -0.1929318496990E+00 -0.1674700121101E+00  0.5406210705409E-04
-0.1618148938343E+00 -0.1916784855831E+00 -0.1661418883262E+00 -0.6945710868502E-05
-0.1603965511435E+00 -0.1904678036665E+00 -0.1649062467607E+00 -0.6756971468345E-04
-0.1591223622011E+00 -0.1892929239014E+00 -0.1637551844682E+00 -0.1272482055428E-03
-0.1579759246262E+00 -0.1881421149841E+00 -0.1626754786168E+00 -0.1857897087480E-03
-0.1569348476148E+00 -0.1869987393466E+00 -0.1616487858718E+00 -0.2432712690729E-03
-0.1559710843505E+00 -0.1858412366841E+00 -0.1606517908862E+00 -0.2999233965158E-03
-0.1550510736713E+00 -0.1846431146469E+00 -0.1596562685096E+00 -0.3560139042972E-03
-0.1541356727483E+00 -0.1833729227415E+00 -0.1586290398802E+00 -0.4117368395483E-03
-0.1531798958829E+00 -0.1819942146070E+00 -0.1575318319303E+00 -0.4671076294597E-03
-0.1521324813294E+00 -0.1804655046005E+00 -0.1563210533870E+00 -0.5218640344567E-03
-0.1509353282863E+00 -0.1787402472578E+00 -0.1549475205057E+00 -0.5753719817636E-03
-0.1495228938031E+00 -0.1767669231842E+00 -0.1533562139840E+00 -0.6265359796440E-03
-0.1478215305427E+00 -0.1744891510883E+00 -0.1514860203666E+00 -0.6737215424419E-03
-0.1457489982037E+00 -0.1718460789859E+00 -0.1492696862791E+00 -0.7146927079006E-03
-0.1432142549105E+00 -0.1687730878084E+00 -0.1466340510779E+00 -0.7465805518636E-03
-0.1401176161513E+00 -0.1652027796933E+00 -0.1435005860470E+00 -0.7659054503593E-03
-0.1363516206358E+00 -0.1610665131459E+00 -0.1397865228774E+00 -0.7686759697460E-03
-0.1318027756891E+00 -0.1562964580662E+00 -0.1354066398650E+00 -0.7505983313539E-03
-0.1263545220743E+00 -0.1508283052804E+00 -0.1302759288567E+00 -0.7074315364391E-03
-0.1198916755663E+00 -0.1446046286753E+00 -0.1243132629936E+00 -0.6355304231140E-03
-0.1123067808938E+00 -0.1375789850635E+00 -0.1174463100000E+00 -0.5325316144295E-03
-0.1035083007339E+00 -0.1297203738138E+00 -0.1096174770374E+00 -0.3981152575586E-03
-0.9343050846313E-01 -0.1210178402018E+00 -0.1007907238725E+00 -0.2348204029346E-03
-0.8204459925685E-01 -0.1114848598365E+00 -0.9095884577390E-01 -0.4875661169603E-04
-0.6936998194655E-01 -0.1011630015530E+00 -0.8015050224478E-01  0.1500495943024E-03
-0.5548407714732E-01 -0.9012427338144E-01 -0.6843592474852E-01  0.3479533551857E-03
-0.4052894497526E-01 -0.7847194099243E-01 -0.5593041640481E-01  0.5288323458101E-03
-0.2471258928348E-01 -0.6633940199292E-01 -0.4279443589991E-01  0.6760574393095E-03
-0.8303218508378E-02 -0.5388680395829E-01 -0.2922931055934E-01  0.7749721348997E-03
 0.8383046616917E-02 -0.4129607086025E-01 -0.1546912139437E-01  0.8152995721426E-03
 0.2500045467324E-01 -0.2876409910269E-01 -0.1768912881842E-02  0.7929419267931E-03
 0.4119559919230E-01 -0.1649465171864E-01  0.1160944531262E-01  0.7109872978869E-03
-0.1803461551447E+00 -0.2039895571892E+00 -0.1806377847969E+00  0.4831548422710E-03
-0.1780209063518E+00 -0.2026075312500E+00 -0.1788953656728E+00  0.4724331943838E-03
-0.1756826118158E+00 -0.2011948526272E+00 -0.1771324082882E+00  0.4469143575867E-03
-0.1733697402200E+00 -0.1997669798265E+00 -0.1753742584218E+00  0.4072655123910E-03
-0.1711193723931E+00 -0.1983395582159E+00 -0.1736456973862E+00  0.3550498708551E-03
-0.1689648161420E+00 -0.1969274560255E+00 -0.1719693679188E+00  0.2925496744308E-03
-0.1669335648155E+00 -0.1955437343339E+00 -0.1703643306002E+00  0.2224343190106E-03
-0.1650459076694E+00 -0.1941986889790E+00 -0.1688449604248E+00  0.1473868506454E-03
-0.1633142568511E+00 -0.1928990530187E+00 -0.1674202556388E+00  0.6978637291015E-04
-0.1617430781641E+00 -0.1916473962244E+00 -0.1660935229626E+00 -0.8498375339985E-05
-0.1603292347223E+00 -0.1904417213715E+00 -0.1648623493641E+00 -0.8619253111633E-04
-0.1590625512875E+00 -0.1892752365609E+00 -0.1637187602888E+00 -0.1625938981846E-03
-0.1579264201272E+00 -0.1881362542664E+00 -0.1626494569650E+00 -0.2374793169703E-03
-0.1568983211804E+00 -0.1870081662273E+00 -0.1616360490816E+00 -0.3109708212310E-03
-0.1559501774012E+00 -0.1858694494946E+00 -0.1606552246410E+00 -0.3833863743157E-03
-0.1550485048275E+00 -0.1846936698249E+00 -0.1596788220866E+00 -0.4550905951428E-03
-0.1541543426795E+00 -0.1834494576138E+00 -0.1586737861379E+00 -0.5263529479934E-03
-0.1532229808661E+00 -0.1821004612043E+00 -0.1576020177731E+00 -0.5972143567424E-03
-0.1522035077893E+00 -0.1806052836715E+00 -0.1564201319866E+00 -0.6673613028724E-03
-0.1510382199382E+00 -0.1789174316268E+00 -0.1550791562356E+00 -0.7360058671068E-03
-0.1496619802830E+00 -0.1769853586844E+00 -0.1535242493147E+00 -0.8017710047278E-03
-0.1480015059587E+00 -0.1747525262818E+00 -0.1516943951531E+00 -0.8625902626345E-03
-0.1459748109915E+00 -0.1721577315599E+00 -0.1495222949992E+00 -0.9156255396130E-03
-0.1434909082072E+00 -0.1691357388639E+00 -0.1469345241234E+00 -0.9572228962233E-03
-0.1404498575737E+00 -0.1656181934396E+00 -0.1438519839763E+00 -0.9829352989863E-03
-0.1367434981535E+00 -0.1615350835273E+00 -0.1401909333900E+00 -0.9876414750578E-03
-0.1322570435161E+00 -0.1568167370918E+00 -0.1358646768857E+00 -0.9658047817294E-03
-0.1268718972336E+00 -0.1513965071153E+00 -0.1307861500440E+00 -0.9119183778366E-03
-0.1204700074263E+00 -0.1452142001957E+00 -0.1248715775823E+00 -0.8211941800668E-03
-0.1129401862217E+00 -0.1382202950571E+00 -0.1180454262010E+00 -0.6904424599528E-03
-0.1041862980666E+00 -0.1303805172398E+00 -0.1102464031940E+00 -0.5190600506058E-03
-0.9413730080236E-01 -0.1216806292311E+00 -0.1014344271157E+00 -0.3101038060413E-03
-0.8275874343505E-01 -0.1121310952971E+00 -0.9159822420412E-01 -0.7125016358889E-04
-0.7006470692840E-01 -0.1017710787633E+00 -0.8076281927511E-01  0.1847003807986E-03
-0.5612847410050E-01 -0.9067112537741E-01 -0.6899581175462E-01  0.4401513307078E-03
-0.4109010383434E-01 -0.7893426032988E-01 -0.5641145115718E-01  0.6741532125236E-03
-0.2515850388584E-01 -0.6669503100360E-01 -0.4317116139804E-01  0.8649726759427E-03
-0.8606002180475E-02 -0.5411615835153E-01 -0.2947941545004E-01  0.9933742466300E-03
 0.8244225719966E-02 -0.4138346928130E-01 -0.1557544447383E-01  0.1045817038439E-02
 0.2503714067431E-01 -0.2869888751919E-01 -0.1721021017093E-02  0.1016804201233E-02
 0.4140855148002E-01 -0.1627204978617E-01  0.1181415579611E-01  0.9101503531885E-03
-0.1803748892053E+00 -0.2040275662151E+00 -0.1806691540476E+00  0.5923626500442E-03
-0.1780281172036E+00 -0.2026325634124E+00 -0.1789105198895E+00  0.5792052260303E-03
-0.1756679108186E+00 -0.2012062605985E+00 -0.1771308605660E+00  0.5478449196810E-03
-0.1733339653908E+00 -0.1997647879309E+00 -0.1753564140612E+00  0.4991047494713E-03
-0.1710646532821E+00 -0.1983246034359E+00 -0.1736129506575E+00  0.4349454407296E-03
-0.1688943944514E+00 -0.1969014212541E+00 -0.1719240333816E+00  0.3582298973209E-03
-0.1668514635191E+00 -0.1955090865883E+00 -0.1703094585504E+00  0.2722939112205E-03
-0.1649565567190E+00 -0.1941585505521E+00 -0.1687841004174E+00  0.1804711092150E-03
-0.1632221628425E+00 -0.1928570400276E+00 -0.1673572253490E+00  0.8569616819425E-04
-0.1616525883134E+00 -0.1916074571964E+00 -0.1660322213896E+00 -0.9746648449495E-05
-0.1602444099013E+00 -0.1904080007597E+00 -0.1648066330107E+00 -0.1043188773096E-03
-0.1589871380119E+00 -0.1892519775143E+00 -0.1636723842973E+00 -0.1971934888559E-03
-0.1578638988173E+00 -0.1881277444966E+00 -0.1626160723575E+00 -0.2881332014301E-03
-0.1568520051185E+00 -0.1870187225148E+00 -0.1616192419877E+00 -0.3773222252963E-03
-0.1559233394900E+00 -0.1859034309553E+00 -0.1606585821093E+00 -0.4651818775496E-03
-0.1550445140357E+00 -0.1847555072614E+00 -0.1597060100096E+00 -0.5521883492377E-03
-0.1541767967404E+00 -0.1835436854518E+00 -0.1587286266303E+00 -0.6387009758490E-03
-0.1532758247362E+00 -0.1822317382833E+00 -0.1576885546191E+00 -0.7248014455084E-03
-0.1522911286175E+00 -0.1807783894637E+00 -0.1565426734982E+00 -0.8101421701205E-03
-0.1511655084544E+00 -0.1791372244315E+00 -0.1552422844564E+00 -0.8938014181447E-03
-0.1498343450442E+00 -0.1772566811316E+00 -0.1537327823026E+00 -0.9741438593662E-03
-0.1482248262312E+00 -0.1750800470430E+00 -0.1519532904389E+00 -0.1048697259667E-02
-0.1462553051230E+00 -0.1725457077935E+00 -0.1498364760708E+00 -0.1114049184933E-02
-0.1438348913811E+00 -0.1695876877443E+00 -0.1473086121889E+00 -0.1165787488795E-02
-0.1408633620702E+00 -0.1661364686073E+00 -0.1442899204184E+00 -0.1198519309740E-02
-0.1372317259016E+00 -0.1621203568636E+00 -0.1406954788996E+00 -0.1206003817853E-02
-0.1328236289033E+00 -0.1574674024337E+00 -0.1364367847284E+00 -0.1181452666149E-02
-0.1275179779217E+00 -0.1521080465979E+00 -0.1314242315242E+00 -0.1118056363334E-02
-0.1211931770319E+00 -0.1459786258021E+00 -0.1255707473320E+00 -0.1009811433081E-02
-0.1137333905029E+00 -0.1390257314064E+00 -0.1187967872974E+00 -0.8525906544809E-03
-0.1050367129971E+00 -0.1312109230971E+00 -0.1110363889643E+00 -0.6453627975257E-03
-0.9502537737081E-01 -0.1225157518848E+00 -0.1022443307502E+00 -0.3915415969067E-03
-0.8365772271424E-01 -0.1129467827211E+00 -0.9240411755460E-01 -0.1002264535047E-03
-0.7094094955466E-01 -0.1025400265122E+00 -0.8153605875141E-01  0.2130887563615E-03
-0.5694290962864E-01 -0.9136406902050E-01 -0.6970427996509E-01  0.5268262835939E-03
-0.4180092208905E-01 -0.7952153887199E-01 -0.5702155665169E-01  0.8150454165809E-03
-0.2572487728143E-01 -0.6714837255390E-01 -0.4365042742261E-01  0.1050633630330E-02
-0.8992238034901E-02 -0.5441050487636E-01 -0.2979928916829E-01  0.1209467726233E-02
 0.8064911789600E-02 -0.4149867468667E-01 -0.1571386856162E-01  0.1274491355435E-02
 0.2507981006445E-01 -0.2862115622860E-01 -0.1664432697147E-02  0.1238645583473E-02
 0.4167463876643E-01 -0.1599504978441E-01  0.1206940682155E-01  0.1106351919605E-02
-0.1804097122594E+00 -0.2040735977731E+00 -0.1807071557153E+00  0.7026808655983E-03
-0.1780368904937E+00 -0.2026628578503E+00 -0.1789288817217E+00  0.6870536813470E-03
-0.1756500779024E+00 -0.2012199482538E+00 -0.1771289122934E+00  0.6497418089381E-03
-0.1732905134041E+00 -0.1997618447047E+00 -0.1753346083111E+00  0.5917301397212E-03
-0.1709981818904E+00 -0.1983060225263E+00 -0.1735729760758E+00  0.5154103036130E-03
-0.1688088767169E+00 -0.1968692470816E+00 -0.1718687181853E+00  0.4242734345677E-03
-0.1667518210106E+00 -0.1954663288494E+00 -0.1702425304342E+00  0.3223678195659E-03
-0.1648481877391E+00 -0.1941090156333E+00 -0.1687098855850E+00  0.2137106350143E-03
-0.1631105329042E+00 -0.1928051245260E+00 -0.1672803589922E+00  0.1018071590943E-03
-0.1615429430286E+00 -0.1915579449842E+00 -0.1659574173660E+00 -0.1064444484894E-04
-0.1601416252287E+00 -0.1903658943286E+00 -0.1647385341919E+00 -0.1218556323102E-03
-0.1588956924776E+00 -0.1892223804551E+00 -0.1636154942784E+00 -0.2308944337943E-03
-0.1577879379377E+00 -0.1881157986925E+00 -0.1625747562162E+00 -0.3375312250518E-03
-0.1567954658443E+00 -0.1870295935070E+00 -0.1615977778951E+00 -0.4420333315888E-03
-0.1558901066608E+00 -0.1859423286503E+00 -0.1606612445962E+00 -0.5449445158712E-03
-0.1550385872214E+00 -0.1848277261770E+00 -0.1597371672972E+00 -0.6468700808570E-03
-0.1542024518026E+00 -0.1836546480830E+00 -0.1587928369462E+00 -0.7482763093057E-03
-0.1533377581105E+00 -0.1823870251664E+00 -0.1577906481401E+00 -0.8493037014641E-03
-0.1523945738219E+00 -0.1809837400135E+00 -0.1566878075026E+00 -0.9495910453242E-03
-0.1513163132788E+00 -0.1793984925988E+00 -0.1554359587625E+00 -0.1048106770260E-02
-0.1500389936391E+00 -0.1775797283658E+00 -0.1539807993423E+00 -0.1142985329803E-02
-0.1484903893809E+00 -0.1754705590886E+00 -0.1522616457807E+00 -0.1231380590412E-02
-0.1465892911312E+00 -0.1730089162938E+00 -0.1502111574898E+00 -0.1309340031847E-02
-0.1442449660914E+00 -0.1701279817193E+00 -0.1477552854710E+00 -0.1371726896014E-02
-0.1413569051122E+00 -0.1667568892964E+00 -0.1448134833721E+00 -0.1412230473185E-02
-0.1378151854058E+00 -0.1628219742247E+00 -0.1412994650263E+00 -0.1423505496507E-02
-0.1335016454936E+00 -0.1582485904800E+00 -0.1371226109076E+00 -0.1397504655697E-02
-0.1282922708437E+00 -0.1529637035014E+00 -0.1321903079422E+00 -0.1326075094535E-02
-0.1220612751031E+00 -0.1468994724153E+00 -0.1264115513337E+00 -0.1201913578556E-02
-0.1146872756620E+00 -0.1399977682735E+00 -0.1197019706497E+00 -0.1019822329860E-02
-0.1060614162980E+00 -0.1322150454902E+00 -0.1119899370404E+00 -0.7781646912537E-03
-0.9609774623268E-01 -0.1235276421973E+00 -0.1032239325621E+00 -0.4805092038943E-03
-0.8474573087117E-01 -0.1139372418612E+00 -0.9338099718423E-01 -0.1371913992809E-03
-0.7200398620983E-01 -0.1034758515914E+00 -0.8247552376660E-01  0.2337145058713E-03
-0.5793345548231E-01 -0.9220950278385E-01 -0.7056719038509E-01  0.6066259310813E-03
-0.4266780532575E-01 -0.8024020185746E-01 -0.5776676337611E-01  0.9504132190008E-03
-0.2641787836715E-01 -0.6770548199480E-01 -0.4423797937012E-01  0.1232236949763E-02
-0.9467281433276E-02 -0.5477513420267E-01 -0.3019393534890E-01  0.1422689360718E-02
 0.7841065354428E-02 -0.4164584035181E-01 -0.1588824424877E-01  0.1500883133695E-02
 0.2512616971590E-01 -0.2853358102144E-01 -0.1601483313602E-02  0.1458010439845E-02
 0.4199369394393E-01 -0.1566456935045E-01  0.1237468855894E-01  0.1298955550770E-02
-0.1804508408236E+00 -0.2041279172186E+00 -0.1807520162799E+00  0.8143174890779E-03
-0.1780473097785E+00 -0.2026985813732E+00 -0.1789505688413E+00  0.7961783694104E-03
-0.1756290119414E+00 -0.2012359298475E+00 -0.1771265226408E+00  0.7527774050213E-03
-0.1732390901322E+00 -0.1997579821402E+00 -0.1753086239680E+00  0.6852699957281E-03
-0.1709194999732E+00 -0.1982834610344E+00 -0.1735253916735E+00  0.5965213848028E-03
-0.1687076914500E+00 -0.1968304098420E+00 -0.1718029076073E+00  0.4907104681642E-03
-0.1666340083945E+00 -0.1954147993013E+00 -0.1701629396170E+00  0.3726544976455E-03
-0.1647201620234E+00 -0.1940493205105E+00 -0.1686216567909E+00  0.2470933724935E-03
-0.1629787507639E+00 -0.1927424747608E+00 -0.1671889759966E+00  0.1181195760997E-03
-0.1614135638045E+00 -0.1914979860195E+00 -0.1658684284173E+00 -0.1115847917892E-04
-0.1600203404653E+00 -0.1903145027890E+00 -0.1646573763295E+00 -0.1387197419091E-03
-0.1587877020793E+00 -0.1891855262080E+00 -0.1635474172950E+00 -0.2635518721364E-03
-0.1576980345989E+00 -0.1880994748913E+00 -0.1625248294604E+00 -0.3854590641573E-03
-0.1567281881852E+00 -0.1870398052349E+00 -0.1615709569075E+00 -0.5048163805924E-03
-0.1558499277168E+00 -0.1859851238168E+00 -0.1606624742208E+00 -0.6223120859256E-03
-0.1550301132714E+00 -0.1849092494241E+00 -0.1597715004669E+00 -0.7387005913156E-03
-0.1542306139301E+00 -0.1837811982812E+00 -0.1588655517393E+00 -0.8545744656756E-03
-0.1534079833317E+00 -0.1825650974535E+00 -0.1579073479691E+00 -0.9701534794684E-03
-0.1525129243827E+00 -0.1812200340870E+00 -0.1568544904807E+00 -0.1085086121105E-02
-0.1514895814277E+00 -0.1796998689467E+00 -0.1556590416760E+00 -0.1198258573232E-02
-0.1502747341479E+00 -0.1779530921452E+00 -0.1542670783578E+00 -0.1307607699085E-02
-0.1487968708113E+00 -0.1759226557705E+00 -0.1526181774934E+00 -0.1409950927563E-02
-0.1469753339872E+00 -0.1735460162858E+00 -0.1506450346283E+00 -0.1500836435323E-02
-0.1447196309819E+00 -0.1707554352937E+00 -0.1482732811495E+00 -0.1574443648581E-02
-0.1419289917123E+00 -0.1674785421932E+00 -0.1454215409356E+00 -0.1623579249457E-02
-0.1384924962316E+00 -0.1636394389433E+00 -0.1420020095322E+00 -0.1639814930326E-02
-0.1342899768022E+00 -0.1591603894485E+00 -0.1379216721378E+00 -0.1613840823219E-02
-0.1291941163253E+00 -0.1539643334993E+00 -0.1330844714176E+00 -0.1536118721120E-02
-0.1230743305685E+00 -0.1479785437438E+00 -0.1273948509268E+00 -0.1397952159607E-02
-0.1158028148553E+00 -0.1411393126644E+00 -0.1207627999343E+00 -0.1192919960456E-02
-0.1072625748754E+00 -0.1333969951419E+00 -0.1131099979081E+00 -0.9185704293459E-03
-0.9735796354624E-01 -0.1247216274758E+00 -0.1043774077804E+00 -0.5783810360018E-03
-0.8602779096164E-01 -0.1151089125803E+00 -0.9453425066472E-01 -0.1836872625981E-03
-0.7326019872725E-01 -0.1045858692185E+00 -0.8358765193448E-01  0.2450113149016E-03
-0.5910751115106E-01 -0.9321525415031E-01 -0.7159169969164E-01  0.6781191467423E-03
-0.4369860305694E-01 -0.8109813540836E-01 -0.5865446707869E-01  0.1079089988230E-02
-0.2724509522797E-01 -0.6837381292099E-01 -0.4494088683001E-01  0.1408929870230E-02
-0.1003774377400E-01 -0.5521658509135E-01 -0.3066953456672E-01  0.1632445940368E-02
 0.7567656985721E-02 -0.4183013747814E-01 -0.1610336583144E-01  0.1724531546542E-02
 0.2517328793332E-01 -0.2843954034324E-01 -0.1535138632661E-02  0.1674431648409E-02
 0.4236539890147E-01 -0.1528180814539E-01  0.1272928765536E-01  0.1487335606302E-02
-0.1804985536211E+00 -0.2041908655134E+00 -0.1808040269932E+00  0.9274839582126E-03
-0.1780594880314E+00 -0.2027399522558E+00 -0.1789757369350E+00  0.9067813692844E-03
-0.1756045975591E+00 -0.2012542349765E+00 -0.1771236512918E+00  0.8571221705421E-03
-0.1731793438443E+00 -0.1997530060018E+00 -0.1752782044277E+00  0.7798444501450E-03
-0.1708280575180E+00 -0.1982564978400E+00 -0.1734697410183E+00  0.6783410087915E-03
-0.1685901547014E+00 -0.1967842849609E+00 -0.1717259866413E+00  0.5575518521401E-03
-0.1664972768939E+00 -0.1953537099141E+00 -0.1700699637997E+00  0.4231310295612E-03
-0.1645717237218E+00 -0.1939785592613E+00 -0.1685186330021E+00  0.2805864931966E-03
-0.1628260917110E+00 -0.1926681086452E+00 -0.1670822741674E+00  0.1346153427982E-03
-0.1612637744568E+00 -0.1914265537120E+00 -0.1657644542393E+00 -0.1127044257937E-04
-0.1598799275366E+00 -0.1902527739002E+00 -0.1645623696753E+00 -0.1548397899884E-03
-0.1586625733953E+00 -0.1891403430992E+00 -0.1634673707524E+00 -0.2950297564389E-03
-0.1575936082636E+00 -0.1880776776565E+00 -0.1624655043824E+00 -0.4317090678216E-03
-0.1566495782184E+00 -0.1870482266689E+00 -0.1615379682970E+00 -0.5653887221815E-03
-0.1558021672685E+00 -0.1860306338158E+00 -0.1606614165096E+00 -0.6969262212535E-03
-0.1550183872025E+00 -0.1849988257933E+00 -0.1598080901080E+00 -0.8272471525433E-03
-0.1542604815855E+00 -0.1839220014611E+00 -0.1589457670319E+00 -0.9570915446463E-03
-0.1534855775935E+00 -0.1827645276021E+00 -0.1580375494419E+00 -0.1086780867952E-02
-0.1526451150948E+00 -0.1814857500534E+00 -0.1570415066197E+00 -0.1215999088457E-02
-0.1516840897172E+00 -0.1800397486407E+00 -0.1559102040282E+00 -0.1343580966335E-02
-0.1505401782860E+00 -0.1783751113465E+00 -0.1545901861272E+00 -0.1467302647716E-02
-0.1491427225763E+00 -0.1764346670661E+00 -0.1530213731319E+00 -0.1583687995552E-02
-0.1474117495622E+00 -0.1741554013852E+00 -0.1511365609453E+00 -0.1687833261800E-02
-0.1452571141210E+00 -0.1714686078170E+00 -0.1488610893109E+00 -0.1773282467954E-02
-0.1425778434181E+00 -0.1683002873394E+00 -0.1461127214560E+00 -0.1832003114225E-02
-0.1392619960405E+00 -0.1645720804456E+00 -0.1428020159484E+00 -0.1854513130434E-02
-0.1351872480694E+00 -0.1602027971727E+00 -0.1388333212638E+00 -0.1830242566892E-02
-0.1302226514382E+00 -0.1551108222664E+00 -0.1341067326412E+00 -0.1748227765904E-02
-0.1242322659327E+00 -0.1492178349320E+00 -0.1285215474064E+00 -0.1598279959700E-02
-0.1170810234449E+00 -0.1424536658506E+00 -0.1219813039689E+00 -0.1372584908711E-02
-0.1086426049101E+00 -0.1347615154081E+00 -0.1143999365496E+00 -0.1067635066090E-02
-0.9881009880672E-01 -0.1261039271460E+00 -0.1057095921978E+00 -0.6865246205918E-03
-0.8750974476591E-01 -0.1164693830949E+00 -0.9587019009458E-01 -0.2412961481222E-03
-0.7471709886233E-01 -0.1058787627135E+00 -0.8488005494063E-01  0.2453341078142E-03
-0.6047386725149E-01 -0.9439066569981E-01 -0.7278633048711E-01  0.7397777442363E-03
-0.4490270284310E-01 -0.8210478763402E-01 -0.5969352052425E-01  0.1199821005250E-02
-0.2821564109886E-01 -0.6916232176981E-01 -0.4576764254827E-01  0.1579799906039E-02
-0.1071159322261E-01 -0.5574274862944E-01 -0.3123354067046E-01  0.1838110021996E-02
 0.7238568645223E-02 -0.4205786306047E-01 -0.1636506837517E-01  0.1944948133185E-02
 0.2521748167628E-01 -0.2834322466484E-01 -0.1469099204627E-02  0.1887420327086E-02
 0.4278918669615E-01 -0.1484832976187E-01  0.1313220275911E-01  0.1670875952515E-02
-0.1805532049888E+00 -0.2042628753680E+00 -0.1808635577677E+00  0.1042395989946E-02
-0.1780735753570E+00 -0.2027872522127E+00 -0.1790045889577E+00  0.1019067549148E-02
-0.1755767059701E+00 -0.2012749147655E+00 -0.1771202617457E+00  0.9629441123447E-03
-0.1731108602517E+00 -0.1997466960550E+00 -0.1752430514642E+00  0.8755634429372E-03
-0.1707232044754E+00 -0.1982246405512E+00 -0.1734054871625E+00  0.7609135474684E-03
-0.1684554611657E+00 -0.1967301394144E+00 -0.1716372322727E+00  0.6247849972369E-03
-0.1663407503359E+00 -0.1952821380097E+00 -0.1699627575224E+00  0.4737489602169E-03
-0.1644019947185E+00 -0.1938956761099E+00 -0.1683999052894E+00  0.3141327328611E-03
-0.1626517200246E+00 -0.1925808879735E+00 -0.1669593257591E+00  0.1512552016343E-03
-0.1610928007355E+00 -0.1913424649516E+00 -0.1656445748729E+00 -0.1097907000696E-04
-0.1597196717660E+00 -0.1901795011942E+00 -0.1644526112913E+00 -0.1701574104133E-03
-0.1585196344978E+00 -0.1890856075324E+00 -0.1633744637542E+00 -0.3252018265245E-03
-0.1574740037163E+00 -0.1880491600042E+00 -0.1623958869486E+00 -0.4760810000180E-03
-0.1565589666279E+00 -0.1870535724676E+00 -0.1614978933749E+00 -0.6234734789383E-03
-0.1557461093209E+00 -0.1860775151971E+00 -0.1606571035235E+00 -0.7684330598614E-03
-0.1550026138854E+00 -0.1850950329042E+00 -0.1598458939911E+00 -0.9120801899630E-03
-0.1542911494099E+00 -0.1840755378869E+00 -0.1590323430295E+00 -0.1055324867889E-02
-0.1535694966503E+00 -0.1829836858850E+00 -0.1581799957916E+00 -0.1198614158809E-02
-0.1527899379876E+00 -0.1817791449172E+00 -0.1572474689653E+00 -0.1341695242049E-02
-0.1518984475249E+00 -0.1804162854805E+00 -0.1561879245125E+00 -0.1483385053501E-02
-0.1508337429402E+00 -0.1788438645242E+00 -0.1549484755082E+00 -0.1621339760753E-02
-0.1495261728722E+00 -0.1770046472789E+00 -0.1534694854710E+00 -0.1751837701054E-02
-0.1478966009636E+00 -0.1748351812119E+00 -0.1516839376225E+00 -0.1869577173799E-02
-0.1458553647614E+00 -0.1722657778156E+00 -0.1495169370112E+00 -0.1967523199932E-02
-0.1433013837996E+00 -0.1692207242408E+00 -0.1468853907790E+00 -0.2036856652118E-02
-0.1401217179653E+00 -0.1656190117979E+00 -0.1436981429887E+00 -0.2067080576881E-02
-0.1361917938528E+00 -0.1613756708456E+00 -0.1398567084083E+00 -0.2046376170543E-02
-0.1313767668789E+00 -0.1564040298825E+00 -0.1352569744779E+00 -0.1962319781336E-02
-0.1255348441471E+00 -0.1506194763622E+00 -0.1297925306394E+00 -0.1803129961168E-02
-0.1185228993543E+00 -0.1439444738848E+00 -0.1233596654224E+00 -0.1559416904127E-02
-0.1102041131119E+00 -0.1363139490975E+00 -0.1158634892384E+00 -0.1226347225823E-02
-0.1004586888569E+00 -0.1276816464840E+00 -0.1072259576102E+00 -0.8062912750102E-03
-0.8919823481819E-01 -0.1180274198001E+00 -0.9739605767060E-01 -0.3116412449673E-03
-0.7638335316074E-01 -0.1073646534247E+00 -0.8636156309517E-01  0.2329464586281E-03
-0.6204278010336E-01 -0.9574669964719E-01 -0.7416105548276E-01  0.7899559533035E-03
-0.4629114502777E-01 -0.8327129184518E-01 -0.6089434533029E-01  0.1311243063390E-02
-0.2934028278055E-01 -0.7008159170407E-01 -0.4672828100777E-01  0.1743863359619E-02
-0.1149827074824E-01 -0.5636298754401E-01 -0.3189479139736E-01  0.2039017662548E-02
 0.6846484111584E-02 -0.4233656662520E-01 -0.1668033878140E-01  0.2161611128244E-02
 0.2525417307510E-01 -0.2824978098771E-01 -0.1407935718930E-02  0.2096449931145E-02
 0.4326409499138E-01 -0.1436618491319E-01  0.1358201773675E-01  0.1848964946989E-02
-0.1806152413167E+00 -0.2043444910525E+00 -0.1809310742136E+00  0.1159274576088E-02
-0.1780897682591E+00 -0.2028408409233E+00 -0.1790373863158E+00  0.1133245160306E-02
-0.1755451956514E+00 -0.2012980490853E+00 -0.1771163250263E+00  0.1070408093968E-02
-0.1730331560594E+00 -0.1997388058432E+00 -0.1752028220942E+00  0.9725242976410E-03
-0.1706041804110E+00 -0.1981873193639E+00 -0.1733320048942E+00  0.8442614980795E-03
-0.1683026733071E+00 -0.1966671221388E+00 -0.1715358038596E+00  0.6923692009067E-03
-0.1661634161673E+00 -0.1951990157975E+00 -0.1698403430234E+00  0.5244297326523E-03
-0.1642099686684E+00 -0.1937994561443E+00 -0.1682644296620E+00  0.3476465573211E-03
-0.1624546861092E+00 -0.1924795115528E+00 -0.1668190729011E+00  0.1679758667396E-03
-0.1608997700353E+00 -0.1912443760878E+00 -0.1655077486778E+00 -0.1030205261490E-04
-0.1595387734390E+00 -0.1900933226403E+00 -0.1643270851572E+00 -0.1846284947361E-03
-0.1583581377114E+00 -0.1890199448436E+00 -0.1632676988008E+00 -0.3539523932267E-03
-0.1573384945318E+00 -0.1880125258253E+00 -0.1623149795679E+00 -0.5183826470559E-03
-0.1564556125790E+00 -0.1870544063478E+00 -0.1614497088956E+00 -0.6788001531864E-03
-0.1556809613899E+00 -0.1861242674410E+00 -0.1606484575505E+00 -0.8364839461599E-03
-0.1549819123170E+00 -0.1851962807754E+00 -0.1598837507534E+00 -0.9927740985887E-03
-0.1543216125780E+00 -0.1842401055167E+00 -0.1591240075045E+00 -0.1148773859193E-02
-0.1536585791365E+00 -0.1832207418882E+00 -0.1583332808816E+00 -0.1305080675331E-02
-0.1529460463828E+00 -0.1820982537224E+00 -0.1574708210495E+00 -0.1461534072014E-02
-0.1521311001970E+00 -0.1808273882943E+00 -0.1564904895909E+00 -0.1616969001898E-02
-0.1511536523087E+00 -0.1793571621806E+00 -0.1553400828099E+00 -0.1768965795821E-02
-0.1499452260094E+00 -0.1776303618733E+00 -0.1539605263049E+00 -0.1913610146925E-02
-0.1484276951007E+00 -0.1755831613375E+00 -0.1522851025260E+00 -0.2045262879250E-02
-0.1465120448904E+00 -0.1731449145776E+00 -0.1502387709500E+00 -0.2156374712804E-02
-0.1440972230194E+00 -0.1702381538264E+00 -0.1477376271175E+00 -0.2237402476902E-02
-0.1410693659950E+00 -0.1667790813682E+00 -0.1446887702607E+00 -0.2276884577625E-02
-0.1373016220816E+00 -0.1626786688767E+00 -0.1409907367504E+00 -0.2261776226209E-02
-0.1326550582238E+00 -0.1578447252837E+00 -0.1365348982485E+00 -0.2178168941490E-02
-0.1269816073013E+00 -0.1521856657945E+00 -0.1312086183550E+00 -0.2012592062012E-02
-0.1201293525595E+00 -0.1456156657725E+00 -0.1249001586161E+00 -0.1753890057640E-02
-0.1119498250692E+00 -0.1380601941705E+00 -0.1175047090426E+00 -0.1395607963760E-02
-0.1023086788460E+00 -0.1294627632332E+00 -0.1089325777772E+00 -0.9390023704373E-03
-0.9110067676853E-01 -0.1197929973413E+00 -0.9912002683161E-01 -0.3963848795538E-03
-0.7826880665296E-01 -0.1090551814104E+00 -0.8804227438979E-01  0.2060085774005E-03
-0.6382605850805E-01 -0.9729606429635E-01 -0.7572739771807E-01  0.8268671471617E-03
-0.4787676264745E-01 -0.8461061720346E-01 -0.6226906852992E-01  0.1411859441111E-02
-0.3063159676004E-01 -0.7114397839569E-01 -0.4783452032319E-01  0.1900051650358E-02
-0.1240882075384E-01 -0.5708826688828E-01 -0.3266363119180E-01  0.2234469649754E-02
 0.6382776663911E-02 -0.4267519107095E-01 -0.1705743477131E-01  0.2373962999545E-02
 0.2527771488812E-01 -0.2816549873179E-01 -0.1357258406521E-02  0.2300933055231E-02
 0.4378853612254E-01 -0.1383810597903E-01  0.1407670216745E-01  0.2020984073930E-02
-0.1806852210579E+00 -0.2044363925409E+00 -0.1810071583914E+00  0.1278347167517E-02
-0.1781083206583E+00 -0.2029011735070E+00 -0.1790744622577E+00  0.1249526511522E-02
-0.1755099126516E+00 -0.2013237548319E+00 -0.1771118237173E+00  0.1179674935649E-02
-0.1729456705975E+00 -0.1997290617187E+00 -0.1751571241886E+00  0.1070808753443E-02
-0.1704701016309E+00 -0.1981438789143E+00 -0.1732485708563E+00  0.9283808323621E-03
-0.1681307081815E+00 -0.1965942519010E+00 -0.1714207312388E+00  0.7602302936473E-03
-0.1659641148459E+00 -0.1951031174980E+00 -0.1697015992016E+00  0.5750596656996E-03
-0.1639945041769E+00 -0.1936885141665E+00 -0.1681110186214E+00  0.3810101536656E-03
-0.1622339234053E+00 -0.1923625071727E+00 -0.1666603223717E+00  0.1846872436358E-03
-0.1606837113001E+00 -0.1911307784089E+00 -0.1653528101632E+00 -0.9277736390993E-05
-0.1593363497895E+00 -0.1899927193312E+00 -0.1641846624867E+00 -0.1982241362519E-03
-0.1581772628922E+00 -0.1889418305317E+00 -0.1631459739092E+00 -0.3811768814129E-03
-0.1571862870893E+00 -0.1879662329020E+00 -0.1622216843959E+00 -0.5584302510706E-03
-0.1563387081378E+00 -0.1870491451632E+00 -0.1613922910514E+00 -0.7311051487901E-03
-0.1556058591635E+00 -0.1861692374558E+00 -0.1606342954111E+00 -0.9007361465384E-03
-0.1549553204489E+00 -0.1853008161517E+00 -0.1599203842023E+00 -0.1068908178370E-02
-0.1543507717349E+00 -0.1844138235670E+00 -0.1592193597919E+00 -0.1236941157730E-02
-0.1537515515018E+00 -0.1834736666453E+00 -0.1584958525291E+00 -0.1405607958598E-02
-0.1531119596047E+00 -0.1824408894480E+00 -0.1577098390548E+00 -0.1574870353033E-02
-0.1523803331274E+00 -0.1812707175864E+00 -0.1568159938355E+00 -0.1743618788694E-02
-0.1514979406945E+00 -0.1799125389173E+00 -0.1557629254175E+00 -0.1909404755252E-02
-0.1503976629477E+00 -0.1783092736371E+00 -0.1544922601948E+00 -0.2068178595990E-02
-0.1490025796035E+00 -0.1763968217595E+00 -0.1529377186406E+00 -0.2214030439460E-02
-0.1472245207414E+00 -0.1741036471474E+00 -0.1510242389078E+00 -0.2338969883405E-02
-0.1449626416986E+00 -0.1713505363085E+00 -0.1486671936634E+00 -0.2432803126555E-02
-0.1421022885902E+00 -0.1680508184379E+00 -0.1457719603032E+00 -0.2483167264071E-02
-0.1385143747233E+00 -0.1641111843130E+00 -0.1422340127471E+00 -0.2475829037972E-02
-0.1340557714838E+00 -0.1594335096172E+00 -0.1379399621175E+00 -0.2395384578218E-02
-0.1285718065743E+00 -0.1539185868866E+00 -0.1327704849266E+00 -0.2226587343766E-02
-0.1219011223413E+00 -0.1474713764005E+00 -0.1266050744086E+00 -0.1956324876389E-02
-0.1138824981936E+00 -0.1400066445857E+00 -0.1193278971063E+00 -0.1576204351377E-02
-0.1043653464282E+00 -0.1314561030088E+00 -0.1108360812354E+00 -0.1085929947591E-02
-0.9322521746163E-01 -0.1217773253115E+00 -0.1010511951034E+00 -0.4972220729830E-03
-0.8038450104779E-01 -0.1109635952442E+00 -0.8993360525725E-01  0.1625667651028E-03
-0.6583716154675E-01 -0.9905336509573E-01 -0.7749854752197E-01  0.8485574992860E-03
-0.4967435126003E-01 -0.8613775388437E-01 -0.6383168941786E-01  0.1500008117810E-02
-0.3210416057832E-01 -0.7236378209854E-01 -0.4909993305812E-01  0.2047193045545E-02
-0.1345603547035E-01 -0.5793128904693E-01 -0.3355204252312E-01  0.2423737565022E-02
 0.5837411311780E-02 -0.4308421370252E-01 -0.1750599712365E-01  0.2581415991390E-02
 0.2528119013003E-01 -0.2809804241164E-01 -0.1323920572360E-02  0.2500189483619E-02
 0.4435993762114E-01 -0.1326781343014E-01  0.1461329836977E-01  0.2186284354560E-02
-0.1807638389898E+00 -0.2045394248401E+00 -0.1810925340001E+00  0.1399849089978E-02
-0.1781295568929E+00 -0.2029688214438E+00 -0.1791162378182E+00  0.1368128732195E-02
-0.1754706902642E+00 -0.2013521952708E+00 -0.1771067562015E+00  0.1290900223157E-02
-0.1728477549698E+00 -0.1997171607208E+00 -0.1751055103746E+00  0.1170479291355E-02
-0.1703199452002E+00 -0.1980935674991E+00 -0.1731543509687E+00  0.1013235432826E-02
-0.1679383215448E+00 -0.1965104020076E+00 -0.1712909000696E+00  0.8282544648797E-03
-0.1657415274127E+00 -0.1949930435771E+00 -0.1695452483652E+00  0.6254844173283E-03
-0.1637543170949E+00 -0.1935612814029E+00 -0.1679383312940E+00  0.4140692669889E-03
-0.1619882451340E+00 -0.1922282223173E+00 -0.1664817397021E+00  0.2012697803945E-03
-0.1604435552039E+00 -0.1909999931495E+00 -0.1651784677261E+00 -0.7966530541767E-05
-0.1591114374764E+00 -0.1898760142794E+00 -0.1640241023252E+00 -0.2109312437838E-03
-0.1579761212658E+00 -0.1888495919788E+00 -0.1630080852250E+00 -0.4067820852217E-03
-0.1570165251479E+00 -0.1879085966283E+00 -0.1621148072348E+00 -0.5960487434269E-03
-0.1562073832378E+00 -0.1870360637997E+00 -0.1613244201077E+00 -0.7801322001517E-03
-0.1555198717053E+00 -0.1862106249453E+00 -0.1606133334258E+00 -0.9608535868206E-03
-0.1549218005747E+00 -0.1854067277222E+00 -0.1599544082995E+00 -0.1140067711320E-02
-0.1543774385354E+00 -0.1845946369662E+00 -0.1593168754858E+00 -0.1319334001618E-02
-0.1538470336164E+00 -0.1837402356324E+00 -0.1586660165469E+00 -0.1499625366387E-02
-0.1532860684397E+00 -0.1828046436915E+00 -0.1579626347017E+00 -0.1681055805633E-02
-0.1526442766679E+00 -0.1817436828242E+00 -0.1571623409613E+00 -0.1862609697365E-02
-0.1518644561926E+00 -0.1805072459597E+00 -0.1562147000116E+00 -0.2041858896869E-02
-0.1508810427357E+00 -0.1790385287744E+00 -0.1550621986097E+00 -0.2214679560139E-02
-0.1496185405650E+00 -0.1772732946125E+00 -0.1536391625334E+00 -0.2374963860305E-02
-0.1479898548877E+00 -0.1751392315270E+00 -0.1518706706149E+00 -0.2514361951746E-02
-0.1458945748693E+00 -0.1725554457746E+00 -0.1496715097027E+00 -0.2622114271425E-02
-0.1432174514876E+00 -0.1694323735158E+00 -0.1469454177516E+00 -0.2685034605867E-02
-0.1398272861349E+00 -0.1656722703186E+00 -0.1435847915331E+00 -0.2687756393217E-02
-0.1355767439880E+00 -0.1611707284762E+00 -0.1394713120582E+00 -0.2613388965715E-02
-0.1303043241522E+00 -0.1558203132577E+00 -0.1344785795826E+00 -0.2444839976509E-02
-0.1238386822616E+00 -0.1495158523271E+00 -0.1284766312567E+00 -0.2166855979032E-02
-0.1160048180253E+00 -0.1421601133259E+00 -0.1213375177351E+00 -0.1768776964654E-02
-0.1066342065311E+00 -0.1336712999179E+00 -0.1129435880310E+00 -0.1248270351652E-02
-0.9558067481277E-01 -0.1239928682950E+00 -0.1031995652607E+00 -0.6158679938602E-03
-0.8274268306923E-01 -0.1131048493598E+00 -0.9204834024164E-01  0.1005457664699E-03
-0.6809130608628E-01 -0.1010352840530E+00 -0.7948949736546E-01  0.8528768265231E-03
-0.5170087643441E-01 -0.8786994514355E-01 -0.6559828614164E-01  0.1573820756316E-02
-0.3377479450874E-01 -0.7375745783432E-01 -0.5054015860124E-01  0.2183985443642E-02
-0.1465461637752E-01 -0.5890662415411E-01 -0.3457378304986E-01  0.2606075301696E-02
 0.5198890820410E-02 -0.4357575864357E-01 -0.1803712787689E-01  0.2783374627746E-02
 0.2525621157428E-01 -0.2805672434186E-01 -0.1316241000762E-02  0.2693406245257E-02
 0.4497417308858E-01 -0.1266050572379E-01  0.1518742366145E-01  0.2344140424337E-02
-0.1808519557030E+00 -0.2046546336895E+00 -0.1811880970145E+00  0.1524025243341E-02
-0.1781538870313E+00 -0.2030444976050E+00 -0.1791632407791E+00  0.1489274625865E-02
-0.1754273477424E+00 -0.2013835904725E+00 -0.1771011409610E+00  0.1404232710490E-02
-0.1727386580368E+00 -0.1997027667901E+00 -0.1750474696687E+00  0.1271574535456E-02
-0.1701525291846E+00 -0.1980355228939E+00 -0.1730483844769E+00  0.1098750379546E-02
-0.1677240888127E+00 -0.1964142811032E+00 -0.1711450338605E+00  0.8962811042554E-03
-0.1654941610840E+00 -0.1948672015549E+00 -0.1693698404403E+00  0.6755028798639E-03
-0.1634879719648E+00 -0.1934159897999E+00 -0.1677448620294E+00  0.4466289215919E-03
-0.1617163410052E+00 -0.1920748135664E+00 -0.1662818426487E+00  0.2175720383636E-03
-0.1601781347478E+00 -0.1908501661049E+00 -0.1649833014008E+00 -0.6451928420267E-05
-0.1588629956598E+00 -0.1897413714589E+00 -0.1638440525458E+00 -0.2227527425726E-03
-0.1577537598940E+00 -0.1887414107959E+00 -0.1628527302242E+00 -0.4306860752211E-03
-0.1568282950159E+00 -0.1878377945564E+00 -0.1619930620990E+00 -0.6310717382384E-03
-0.1560607111976E+00 -0.1870133009887E+00 -0.1612447857276E+00 -0.8256326838669E-03
-0.1554220071883E+00 -0.1862464887343E+00 -0.1605841930836E+00 -0.1016507597418E-02
-0.1548802452614E+00 -0.1855119523185E+00 -0.1599843328626E+00 -0.1205845173701E-02
-0.1544003417734E+00 -0.1847803218034E+00 -0.1594149118811E+00 -0.1395465881978E-02
-0.1539435450423E+00 -0.1840180327648E+00 -0.1588419415693E+00 -0.1586566093468E-02
-0.1534666413663E+00 -0.1831868883294E+00 -0.1582271589570E+00 -0.1779441351165E-02
-0.1529209119261E+00 -0.1822434406178E+00 -0.1575272456956E+00 -0.1973208603382E-02
-0.1522508653769E+00 -0.1811382443824E+00 -0.1566928815869E+00 -0.2165510749430E-02
-0.1513927050338E+00 -0.1798149433367E+00 -0.1556675947341E+00 -0.2352214116625E-02
-0.1502726013749E+00 -0.1782093416070E+00 -0.1543865132015E+00 -0.2527091116128E-02
-0.1488047993057E+00 -0.1762485166285E+00 -0.1527750584891E+00 -0.2681522454079E-02
-0.1468895965417E+00 -0.1738500220570E+00 -0.1507476207414E+00 -0.2804279515967E-02
-0.1444114103667E+00 -0.1709214537944E+00 -0.1482064461557E+00 -0.2881446794701E-02
-0.1412371398683E+00 -0.1673605578535E+00 -0.1450409179292E+00 -0.2896600089764E-02
-0.1372153413210E+00 -0.1630563725551E+00 -0.1411277055218E+00 -0.2831394697724E-02
-0.1321775874756E+00 -0.1578926966391E+00 -0.1363330335339E+00 -0.2666846906408E-02
-0.1259421323836E+00 -0.1517533376275E+00 -0.1305168709052E+00 -0.2385395243156E-02
-0.1183192759349E+00 -0.1445277332825E+00 -0.1235380943322E+00 -0.1973780378395E-02
-0.1091208928195E+00 -0.1361187369942E+00 -0.1152626260124E+00 -0.1427109293413E-02
-0.9817645398460E-01 -0.1264533540181E+00 -0.1055760097613E+00 -0.7540372709834E-03
-0.8535679606924E-01 -0.1154957048087E+00 -0.9440067541263E-01  0.1774608094453E-04
-0.7060557856058E-01 -0.1032607884432E+00 -0.8171719249177E-01  0.8374478501901E-03
-0.5397572644576E-01 -0.8982698273589E-01 -0.6758727331537E-01  0.1631170030321E-02
-0.3566287892077E-01 -0.7534388873869E-01 -0.5217318079994E-01  0.2308952501233E-02
-0.1602136638338E-01 -0.6003082883195E-01 -0.3574453175121E-01  0.2780733064653E-02
 0.4454294307284E-02 -0.4416362309456E-01 -0.1866338453002E-01  0.2979289698773E-02
 0.2519278774220E-01 -0.2805278346625E-01 -0.1344197990303E-02  0.2879596055849E-02
 0.4562466274403E-01 -0.1202363979442E-01  0.1579248078631E-01  0.2493664295386E-02
-0.1809506334661E+00 -0.2047833090679E+00 -0.1812949529910E+00  0.1651132147335E-02
-0.1781818248324E+00 -0.2031290861738E+00 -0.1792161281729E+00  0.1613193604364E-02
-0.1753796875377E+00 -0.2014182287564E+00 -0.1770950206582E+00  0.1519812150865E-02
-0.1726175082860E+00 -0.1996855045616E+00 -0.1749824160384E+00  0.1374103433312E-02
-0.1699664882346E+00 -0.1979687537169E+00 -0.1729295637172E+00  0.1184803784204E-02
-0.1674863823343E+00 -0.1963044090941E+00 -0.1709816719714E+00  0.9640944640304E-03
-0.1652203326950E+00 -0.1947237827362E+00 -0.1691737342527E+00  0.7248604594246E-03
-0.1631938727038E+00 -0.1932506536121E+00 -0.1675289273685E+00  0.4784490914114E-03
-0.1614167740851E+00 -0.1919002346686E+00 -0.1660589941142E+00  0.2334085989526E-03
-0.1598861864825E+00 -0.1906792619935E+00 -0.1647657607837E+00 -0.4841022353932E-05
-0.1585899098487E+00 -0.1895867952884E+00 -0.1636430514145E+00 -0.2337072665801E-03
-0.1575091668921E+00 -0.1886153259850E+00 -0.1626785116523E+00 -0.4528176895972E-03
-0.1566206313920E+00 -0.1877518719264E+00 -0.1618550765596E+00 -0.6633412402613E-03
-0.1558977148370E+00 -0.1869788661587E+00 -0.1611519930680E+00 -0.8673657811153E-03
-0.1553112191843E+00 -0.1862747541451E+00 -0.1605454074648E+00 -0.1067377641168E-02
-0.1548294838301E+00 -0.1856142821677E+00 -0.1600085700190E+00 -0.1265841561016E-02
-0.1544181340931E+00 -0.1849684918422E+00 -0.1595117141896E+00 -0.1464858446739E-02
-0.1540395119550E+00 -0.1843044554661E+00 -0.1590216646879E+00 -0.1665869595423E-02
-0.1536518315306E+00 -0.1835847782413E+00 -0.1585012065928E+00 -0.1869379949149E-02
-0.1532080774240E+00 -0.1827668939007E+00 -0.1579082365226E+00 -0.2074677050522E-02
-0.1526546589675E+00 -0.1818021991700E+00 -0.1571947233246E+00 -0.2279526154623E-02
-0.1519297737117E+00 -0.1806349901547E+00 -0.1563054390172E+00 -0.2479850504869E-02
-0.1509615226653E+00 -0.1792013313666E+00 -0.1551765413950E+00 -0.2669385704983E-02
-0.1496657894646E+00 -0.1774279091418E+00 -0.1537340383450E+00 -0.2839340895727E-02
-0.1479439049943E+00 -0.1752309199738E+00 -0.1518921677350E+00 -0.2978127036458E-02
-0.1456802835470E+00 -0.1725152536583E+00 -0.1495519024865E+00 -0.3071210331010E-02
-0.1427402241226E+00 -0.1691741650579E+00 -0.1465997629149E+00 -0.3101207627129E-02
-0.1389683903826E+00 -0.1650899654755E+00 -0.1429074272533E+00 -0.3048382064135E-02
-0.1341894754129E+00 -0.1601372366012E+00 -0.1383335546466E+00 -0.2891845560988E-02
-0.1282110772556E+00 -0.1541879354754E+00 -0.1327275359836E+00 -0.2611590178341E-02
-0.1208280249047E+00 -0.1471168295690E+00 -0.1259340816027E+00 -0.2191435714963E-02
-0.1118310097342E+00 -0.1388094579624E+00 -0.1178010198174E+00 -0.1623376428102E-02
-0.1010224314906E+00 -0.1291737610223E+00 -0.1081922104811E+00 -0.9134125574857E-03
-0.8824144498400E-01 -0.1181548260212E+00 -0.9700624737244E-01 -0.8815105170687E-04
-0.7339903779884E-01 -0.1057513623025E+00 -0.8420068804761E-01  0.7996366269627E-03
-0.5652101092000E-01 -0.9203158116603E-01 -0.6981971828043E-01  0.1669604653561E-02
-0.3779078781666E-01 -0.7714477221611E-01 -0.5401971321541E-01  0.2420371346173E-02
-0.1757545187690E-01 -0.6132256146092E-01 -0.3708206626878E-01  0.2946961817028E-02
 0.3589479365824E-02 -0.4486311367507E-01 -0.1939860812535E-01  0.3168764625975E-02
 0.2507942341175E-01 -0.2809955788895E-01 -0.1419463204281E-02  0.3057575603627E-02
 0.4630093253733E-01 -0.1136818742954E-01  0.1641839020066E-01  0.2633644467050E-02
-0.1810611799723E+00 -0.2049270383933E+00 -0.1814144626318E+00  0.1781440414129E-02
-0.1782140087531E+00 -0.2032236784355E+00 -0.1792757129786E+00  0.1740122687686E-02
-0.1753274903384E+00 -0.2014564789840E+00 -0.1770884655815E+00  0.1637766337727E-02
-0.1724832903502E+00 -0.1996649497025E+00 -0.1749096728248E+00  0.1478037839864E-02
-0.1697602433985E+00 -0.1978921149583E+00 -0.1727966084277E+00  0.1271216810404E-02
-0.1672233443316E+00 -0.1961790869798E+00 -0.1707991427163E+00  0.1031413942742E-02
-0.1649181498076E+00 -0.1945607340863E+00 -0.1689550754301E+00  0.7732417308094E-03
-0.1628702526166E+00 -0.1930630479625E+00 -0.1672886512722E+00  0.5092404401460E-03
-0.1610879780181E+00 -0.1917022232934E+00 -0.1658113946164E+00  0.2485584712787E-03
-0.1595663525340E+00 -0.1904850587388E+00 -0.1645241632982E+00 -0.3264364341706E-05
-0.1582909966355E+00 -0.1894101307713E+00 -0.1634195298812E+00 -0.2438282368524E-03
-0.1572412774497E+00 -0.1884692381159E+00 -0.1624839423158E+00 -0.4731155475475E-03
-0.1563925238899E+00 -0.1876487483397E+00 -0.1616993979479E+00 -0.6927070389072E-03
-0.1557173731791E+00 -0.1869306474615E+00 -0.1610445697011E+00 -0.9050984849565E-03
-0.1551864134905E+00 -0.1862932215535E+00 -0.1604954284707E+00 -0.1113152032342E-02
-0.1547682893761E+00 -0.1857113733471E+00 -0.1600254414799E+00 -0.1319667844449E-02
-0.1544293992936E+00 -0.1851566062869E+00 -0.1596054226228E+00 -0.1527043682452E-02
-0.1541332747603E+00 -0.1845967210710E+00 -0.1592030980407E+00 -0.1736984456430E-02
-0.1538396845665E+00 -0.1839952554552E+00 -0.1587824218102E+00 -0.1950230075072E-02
-0.1535034767906E+00 -0.1833106925943E+00 -0.1583026596109E+00 -0.2166275201586E-02
-0.1530731587474E+00 -0.1824954747494E+00 -0.1577172577435E+00 -0.2383058456027E-02
-0.1524891619193E+00 -0.1814947870794E+00 -0.1569724560294E+00 -0.2596628174894E-02
-0.1516818039259E+00 -0.1802452176715E+00 -0.1560057001508E+00 -0.2800769975486E-02
-0.1505689402106E+00 -0.1786733385194E+00 -0.1547438710031E+00 -0.2986626497040E-02
-0.1490533098241E+00 -0.1766942573252E+00 -0.1531013565602E+00 -0.3142368509788E-02
-0.1470197260750E+00 -0.1742103817281E+00 -0.1509781506675E+00 -0.3252972416026E-02
-0.1443322875529E+00 -0.1711105997417E+00 -0.1482581570285E+00 -0.3300219813263E-02
-0.1408321105340E+00 -0.1672704397038E+00 -0.1448081986118E+00 -0.3263077262299E-02
-0.1363372183046E+00 -0.1625549317260E+00 -0.1404793105144E+00 -0.3118780314008E-02
-0.1306444907838E+00 -0.1568234433704E+00 -0.1351099290525E+00 -0.2844777825797E-02
-0.1235327129022E+00 -0.1499347588235E+00 -0.1285297117111E+00 -0.2421674685394E-02
-0.1147699515517E+00 -0.1417550430783E+00 -0.1205667474761E+00 -0.1837787632661E-02
-0.1041287995050E+00 -0.1321702767688E+00 -0.1110605658487E+00 -0.1095599213741E-02
-0.9141232838019E-01 -0.1211028694032E+00 -0.9988214295820E-01 -0.2195678811238E-03
-0.7649279380242E-01 -0.1085312498702E+00 -0.8696130052614E-01  0.7365280460040E-03
-0.5936188789850E-01 -0.9450983139428E-01 -0.7231970806761E-01  0.1686276734309E-02
-0.4018450300586E-01 -0.7918521413653E-01 -0.5610376705692E-01  0.2516158234310E-02
-0.1933883831314E-01 -0.6280276188318E-01 -0.3860655209227E-01  0.3103976706386E-02
 0.2589530150192E-02 -0.4569052181848E-01 -0.2025746608409E-01  0.3351737891248E-02
 0.2490383065109E-01 -0.2821226341981E-01 -0.1554963401300E-02  0.3226020222603E-02
 0.4698633078586E-01 -0.1071062174354E-01  0.1704958324989E-01  0.2762248984639E-02
-0.1811852020608E+00 -0.2050877720043E+00 -0.1815482978106E+00  0.1915237746735E-02
-0.1782512265087E+00 -0.2033296156963E+00 -0.1793429958363E+00  0.1870307528249E-02
-0.1752705069714E+00 -0.2014988034504E+00 -0.1770815758983E+00  0.1758207041660E-02
-0.1723348146101E+00 -0.1996406144226E+00 -0.1748284516454E+00  0.1583302993247E-02
-0.1695319648454E+00 -0.1978042759146E+00 -0.1726480331572E+00  0.1357741418734E-02
-0.1669328548405E+00 -0.1960363591328E+00 -0.1705955305675E+00  0.1097882765031E-02
-0.1645854894048E+00 -0.1943757244123E+00 -0.1687117704940E+00  0.8202624922484E-03
-0.1625151639899E+00 -0.1928506841228E+00 -0.1670219486129E+00  0.5386603058597E-03
-0.1607282549443E+00 -0.1914782865958E+00 -0.1655370745239E+00  0.2627642125244E-03
-0.1592171837251E+00 -0.1902651419694E+00 -0.1642566930764E+00 -0.1874994787918E-05
-0.1579650095192E+00 -0.1892090646049E+00 -0.1631718148383E+00 -0.2531622046381E-03
-0.1569489807734E+00 -0.1883009147724E+00 -0.1622674509066E+00 -0.4915265131235E-03
-0.1561429243006E+00 -0.1875262257670E+00 -0.1615245005318E+00 -0.7190257493051E-03
-0.1555186287562E+00 -0.1868664211043E+00 -0.1609209734344E+00 -0.9386054305391E-03
-0.1550464554857E+00 -0.1862995762207E+00 -0.1604326349020E+00 -0.1153528631264E-02
-0.1546953863099E+00 -0.1858007555207E+00 -0.1600331866604E+00 -0.1366946544003E-02
-0.1544326602008E+00 -0.1853419788901E+00 -0.1596940803727E+00 -0.1581566358627E-02
-0.1542230963812E+00 -0.1848918746723E+00 -0.1593840363952E+00 -0.1799371686654E-02
-0.1540281472406E+00 -0.1844150548700E+00 -0.1590683049920E+00 -0.2021359830262E-02
-0.1538046874861E+00 -0.1838712359773E+00 -0.1587076840278E+00 -0.2247266669006E-02
-0.1535035257611E+00 -0.1832141322946E+00 -0.1582572992862E+00 -0.2475253865349E-02
-0.1530675787136E+00 -0.1823900869338E+00 -0.1576651028543E+00 -0.2701563357230E-02
-0.1524296869486E+00 -0.1813365191126E+00 -0.1568701168488E+00 -0.2920120354837E-02
-0.1515100437097E+00 -0.1799802226984E+00 -0.1558004252118E+00 -0.3122112230264E-02
-0.1502132211719E+00 -0.1782355623605E+00 -0.1543709282602E+00 -0.3295600678078E-02
-0.1484249058392E+00 -0.1760027851949E+00 -0.1524810147860E+00 -0.3425218165529E-02
-0.1460084963466E+00 -0.1731666555850E+00 -0.1500123214079E+00 -0.3492061004046E-02
-0.1428020440145E+00 -0.1695960006627E+00 -0.1468270809983E+00 -0.3473932333268E-02
-0.1386172929185E+00 -0.1651461109904E+00 -0.1427687998372E+00 -0.3346268597548E-02
-0.1332405685752E+00 -0.1596631588066E+00 -0.1376647518695E+00 -0.3083934729483E-02
-0.1264342913836E+00 -0.1529887080066E+00 -0.1313288097134E+00 -0.2664074633565E-02
-0.1179426848752E+00 -0.1449674403844E+00 -0.1235677588720E+00 -0.2070773192891E-02
-0.1075058565364E+00 -0.1354602088523E+00 -0.1141940507327E+00 -0.1302062104694E-02
-0.9488612691843E-01 -0.1243625563346E+00 -0.1030468811289E+00 -0.3789991848874E-03
-0.7991005925371E-01 -0.1116277097578E+00 -0.9002275143539E-01  0.6449085768814E-03
-0.6252684713650E-01 -0.9729167133550E-01 -0.7511470368184E-01  0.1677874704993E-02
-0.4287446282989E-01 -0.8149465670047E-01 -0.5845348617927E-01  0.2593708797282E-02
-0.2133718133333E-01 -0.6449517255542E-01 -0.4034120632771E-01  0.3250807431735E-02
 0.1439549290512E-02 -0.4666192608801E-01 -0.2125451709482E-01  0.3528750325438E-02
 0.2465498553357E-01 -0.2840678530734E-01 -0.1763345893672E-02  0.3383723293541E-02
 0.4765459209612E-01 -0.1007582249987E-01  0.1766202171024E-01  0.2876486325022E-02
-0.1813246719575E+00 -0.2052679041721E+00 -0.1816985107809E+00  0.2052832585701E-02
-0.1782944435780E+00 -0.2034485407316E+00 -0.1794192026255E+00  0.2004003390792E-02
-0.1752084457101E+00 -0.2015457708239E+00 -0.1770744817710E+00  0.1881224419225E-02
-0.1721706776755E+00 -0.1996119261387E+00 -0.1747378237927E+00  0.1689765212606E-02
-0.1692795256815E+00 -0.1977036780591E+00 -0.1724821057581E+00  0.1444045282012E-02
-0.1666124937644E+00 -0.1958739661148E+00 -0.1703686361432E+00  0.1163054846209E-02
-0.1642199740095E+00 -0.1941661037929E+00 -0.1684414565671E+00  0.8654613251993E-03
-0.1621264674678E+00 -0.1926107812127E+00 -0.1667265068798E+00  0.5663091981715E-03
-0.1603357743745E+00 -0.1912256857401E+00 -0.1652338862539E+00  0.2757320414968E-03
-0.1588371439663E+00 -0.1900169000354E+00 -0.1639614006808E+00 -0.8464267945554E-06
-0.1576106458707E+00 -0.1889811275426E+00 -0.1628981335043E+00 -0.2617663300335E-03
-0.1566311279128E+00 -0.1881079974813E+00 -0.1620273889352E+00 -0.5080035460209E-03
-0.1558707545091E+00 -0.1873819980324E+00 -0.1613287936945E+00 -0.7421594779672E-03
-0.1553003954195E+00 -0.1867838620997E+00 -0.1607796010340E+00 -0.9676685471798E-03
-0.1548901779333E+00 -0.1862913995201E+00 -0.1603553414031E+00 -0.1188215522822E-02
-0.1546094583666E+00 -0.1858798431274E+00 -0.1600299717022E+00 -0.1407313430279E-02
-0.1544263871084E+00 -0.1855217886578E+00 -0.1597756426101E+00 -0.1627986749320E-02
-0.1543071712900E+00 -0.1851867988038E+00 -0.1595621659441E+00 -0.1852508469718E-02
-0.1542150771036E+00 -0.1848407121272E+00 -0.1593562209385E+00 -0.2082151716617E-02
-0.1541091708773E+00 -0.1844446775623E+00 -0.1591203087666E+00 -0.2316924280616E-02
-0.1539427702943E+00 -0.1839539298947E+00 -0.1588114490888E+00 -0.2555258097640E-02
-0.1536615379721E+00 -0.1833162706036E+00 -0.1583795700306E+00 -0.2793656300894E-02
-0.1532011621200E+00 -0.1824703019882E+00 -0.1577655881308E+00 -0.3026274704473E-02
-0.1524845708371E+00 -0.1813434368489E+00 -0.1568991636124E+00 -0.3244461489479E-02
-0.1514186429869E+00 -0.1798497235234E+00 -0.1556961322599E+00 -0.3436310058693E-02
-0.1498904841969E+00 -0.1778876747876E+00 -0.1540557347227E+00 -0.3586271389572E-02
-0.1477633958581E+00 -0.1753383058652E+00 -0.1518577998100E+00 -0.3674933022550E-02
-0.1448729897636E+00 -0.1720639829259E+00 -0.1489603771641E+00 -0.3679108185658E-02
-0.1410253173992E+00 -0.1679102487857E+00 -0.1451997161069E+00 -0.3572568226884E-02
-0.1359965721502E+00 -0.1627096561917E+00 -0.1403919273207E+00 -0.3327624286054E-02
-0.1295328043186E+00 -0.1562854522078E+00 -0.1343345805674E+00 -0.2917785130063E-02
-0.1213534879521E+00 -0.1484587393532E+00 -0.1268117468335E+00 -0.2322389940281E-02
-0.1111637575788E+00 -0.1390618567198E+00 -0.1176060387204E+00 -0.1534042377690E-02
-0.9868028510286E-01 -0.1279586665674E+00 -0.1065203072850E+00 -0.5689557982734E-03
-0.8367627176499E-01 -0.1150713937412E+00 -0.9341140278792E-01  0.5212512096649E-03
-0.6604779743675E-01 -0.1004111853695E+00 -0.7823572191895E-01  0.1640576127059E-02
-0.4589652644849E-01 -0.8410812993087E-01 -0.6110218849830E-01  0.2649740663877E-02
-0.2360185598347E-01 -0.6642804703247E-01 -0.4231405441749E-01  0.3385904005822E-02
 0.1255498069263E-03 -0.4779106813849E-01 -0.2240279361584E-01  0.3701199784761E-02
 0.2432880287293E-01 -0.2869544159100E-01 -0.2052320197493E-02  0.3530402232527E-02
 0.4826309515755E-01 -0.9502678411535E-02  0.1821739587063E-01  0.2971135163612E-02
-0.1814820102421E+00 -0.2054703747775E+00 -0.1818676209592E+00  0.2194558527133E-02
-0.1783448358955E+00 -0.2035824592280E+00 -0.1795058287081E+00  0.2141475943943E-02
-0.1751409535383E+00 -0.2015980688077E+00 -0.1770673405026E+00  0.2006879288333E-02
-0.1719892110067E+00 -0.1995781966027E+00 -0.1746366815764E+00  0.1797215863265E-02
-0.1690004449011E+00 -0.1975884797988E+00 -0.1722967946089E+00  0.1529693159268E-02
-0.1662594964371E+00 -0.1956892859521E+00 -0.1701159277229E+00  0.1226379619126E-02
-0.1638189454752E+00 -0.1939288553016E+00 -0.1681414663651E+00  0.9082908373498E-03
-0.1617018219015E+00 -0.1923402343642E+00 -0.1663997664449E+00  0.5917281652471E-03
-0.1599085737162E+00 -0.1909414199015E+00 -0.1648994970003E+00  0.2871332849168E-03
-0.1584246164557E+00 -0.1897375201761E+00 -0.1636362042170E+00 -0.3693454084525E-06
-0.1572265554052E+00 -0.1887236985516E+00 -0.1625966193597E+00 -0.2697048555540E-03
-0.1562865407035E+00 -0.1878880105121E+00 -0.1617620390714E+00 -0.5225028653420E-03
-0.1555749152060E+00 -0.1872136620233E+00 -0.1611106312978E+00 -0.7619740709980E-03
-0.1550615667335E+00 -0.1866805565632E+00 -0.1606187979495E+00 -0.9920764973422E-03
-0.1547163892544E+00 -0.1862661815941E+00 -0.1602618082988E+00 -0.1216931636338E-02
-0.1545091570527E+00 -0.1859459479740E+00 -0.1600138993626E+00 -0.1440419297294E-02
-0.1544090066921E+00 -0.1856930920357E+00 -0.1598479864020E+00 -0.1665883556472E-02
-0.1543836351199E+00 -0.1854782247761E+00 -0.1597350741511E+00 -0.1895892267403E-02
-0.1543982528969E+00 -0.1852685733864E+00 -0.1596434083532E+00 -0.2132007969733E-02
-0.1544142833252E+00 -0.1850269321769E+00 -0.1595373712860E+00 -0.2374536667575E-02
-0.1543877631986E+00 -0.1847103252217E+00 -0.1593761015576E+00 -0.2622224166501E-02
-0.1542673690491E+00 -0.1842683428468E+00 -0.1591117845911E+00 -0.2871900088875E-02
-0.1539919769037E+00 -0.1836411659533E+00 -0.1586875771428E+00 -0.3118041751774E-02
-0.1534876752364E+00 -0.1827572845938E+00 -0.1580351311202E+00 -0.3352277413614E-02
-0.1526641694634E+00 -0.1815309408558E+00 -0.1570717018500E+00 -0.3562880944966E-02
-0.1514106002356E+00 -0.1798594496964E+00 -0.1556969234681E+00 -0.3734299290966E-02
-0.1495908760323E+00 -0.1776205938804E+00 -0.1537893908590E+00 -0.3846813420422E-02
-0.1470389402315E+00 -0.1746706973041E+00 -0.1512035296417E+00 -0.3876461763027E-02
-0.1435559456712E+00 -0.1708457608658E+00 -0.1477688020724E+00 -0.3795547314607E-02
-0.1389086652246E+00 -0.1659645306153E+00 -0.1432904020448E+00 -0.3573942885690E-02
-0.1328271511753E+00 -0.1598310579696E+00 -0.1375493582981E+00 -0.3181446388919E-02
-0.1250056519478E+00 -0.1522408816161E+00 -0.1303058707751E+00 -0.2592216580234E-02
-0.1151121608370E+00 -0.1429942768833E+00 -0.1213100257285E+00 -0.1792446157957E-02
-0.1028128199763E+00 -0.1319180729738E+00 -0.1103235196866E+00 -0.7918877647933E-03
-0.8781876016039E-01 -0.1188963512798E+00 -0.9715610237688E-01  0.3617527265793E-03
-0.6996132794220E-01 -0.1039081102455E+00 -0.8171863594823E-01  0.1569897610884E-02
-0.4928989731782E-01 -0.8706445935851E-01 -0.6408654763787E-01  0.2680436919803E-02
-0.2617773813635E-01 -0.6864268419534E-01 -0.4456559849590E-01  0.3506214365165E-02
-0.1361777829048E-02 -0.4908217238667E-01 -0.2370865660139E-01  0.3871275136746E-02
 0.2393647271572E-01 -0.2908116957482E-01 -0.2418007523779E-02  0.3668589074126E-02
 0.4875057245086E-01 -0.9043885451356E-02  0.1866214288976E-01  0.3037004009363E-02
-0.1816601924586E+00 -0.2056988001055E+00 -0.1820587265051E+00  0.2340779458026E-02
-0.1784038235218E+00 -0.2037338091855E+00 -0.1796046873724E+00  0.2283001681377E-02
-0.1750675915521E+00 -0.2016565186556E+00 -0.1770603317976E+00  0.2135192505270E-02
-0.1717884116653E+00 -0.1995385751731E+00 -0.1745236838141E+00  0.1905350192401E-02
-0.1686918176448E+00 -0.1974564847892E+00 -0.1720897021440E+00  0.1614123962709E-02
-0.1658707013586E+00 -0.1954792606452E+00 -0.1698344821418E+00  0.1287184632991E-02
-0.1633794367721E+00 -0.1936605379710E+00 -0.1678087881293E+00  0.9481089422463E-03
-0.1612386752987E+00 -0.1920355793930E+00 -0.1660388997051E+00  0.6143975325631E-03
-0.1594445610871E+00 -0.1906222103902E+00 -0.1645313825943E+00  0.2966075822795E-03
-0.1579779121113E+00 -0.1894239865399E+00 -0.1632788923661E+00 -0.6467555985949E-06
-0.1568113503996E+00 -0.1884340113280E+00 -0.1622653200120E+00 -0.2770444447080E-03
-0.1559140219468E+00 -0.1876383719411E+00 -0.1614696251274E+00 -0.5349803810862E-03
-0.1552542954592E+00 -0.1870187308816E+00 -0.1608683223802E+00 -0.7783369399693E-03
-0.1548010249954E+00 -0.1865540157309E+00 -0.1604368691413E+00 -0.1011623910379E-02
-0.1545238823053E+00 -0.1862213355693E+00 -0.1601502524011E+00 -0.1239407313004E-02
-0.1543931105633E+00 -0.1859962933462E+00 -0.1599830198374E+00 -0.1465931804664E-02
-0.1543789114312E+00 -0.1858528366978E+00 -0.1599089216206E+00 -0.1694857023944E-02
-0.1544505748882E+00 -0.1857627458169E+00 -0.1599002607314E+00 -0.1929045263065E-02
-0.1545753857566E+00 -0.1856948072157E+00 -0.1599269906970E+00 -0.2170356429731E-02
-0.1547172883411E+00 -0.1856136855451E+00 -0.1599555577265E+00 -0.2419415660492E-02
-0.1548352486475E+00 -0.1854784811130E+00 -0.1599474529874E+00 -0.2675321344732E-02
-0.1548812293062E+00 -0.1852409313750E+00 -0.1598574155202E+00 -0.2935291072317E-02
-0.1547976467025E+00 -0.1848432331425E+00 -0.1596312135272E+00 -0.3194212696212E-02
-0.1545142003147E+00 -0.1842154726163E+00 -0.1592029462776E+00 -0.3444115050771E-02
-0.1539439850470E+00 -0.1832726802418E+00 -0.1584918326857E+00 -0.3673607033864E-02
-0.1529788593014E+00 -0.1819116239491E+00 -0.1573985271277E+00 -0.3867321661754E-02
-0.1514841417620E+00 -0.1800075219762E+00 -0.1558010819569E+00 -0.4005459044336E-02
-0.1492930229642E+00 -0.1774112708197E+00 -0.1535510180784E+00 -0.4063538847910E-02
-0.1462027644139E+00 -0.1739497830488E+00 -0.1504716973075E+00 -0.4012658859915E-02
-0.1419717438550E+00 -0.1694281064387E+00 -0.1463579296381E+00 -0.3820467149833E-02
-0.1363148308672E+00 -0.1636305306273E+00 -0.1409743199024E+00 -0.3453101439789E-02
-0.1289011197012E+00 -0.1563252752150E+00 -0.1340564056106E+00 -0.2879230590235E-02
-0.1193598375727E+00 -0.1472769874249E+00 -0.1253193077488E+00 -0.2077704760278E-02
-0.1073018266168E+00 -0.1362695141982E+00 -0.1144785301830E+00 -0.1050060017958E-02
-0.9236703955934E-01 -0.1231406420091E+00 -0.1012886103372E+00  0.1623583354177E-03
-0.7430717888848E-01 -0.1078269205421E+00 -0.8560302673236E-01  0.1460741629007E-02
-0.5310488291795E-01 -0.9041355383707E-01 -0.6745366527486E-01  0.2680836192988E-02
-0.2909953734025E-01 -0.7117230966954E-01 -0.4712776809460E-01  0.3608998240124E-02
-0.3107749922727E-02 -0.5060785968761E-01 -0.2524633651686E-01  0.4034530315681E-02
 0.2367829847664E-01 -0.2937844405988E-01 -0.2679068424123E-02  0.3816723915645E-02
 0.4876468909262E-01 -0.9041733506749E-02  0.1866978912536E-01  0.3046173749671E-02
-0.1818624539323E+00 -0.2059572551140E+00 -0.1822752632518E+00  0.2491907336444E-02
-0.1784729887031E+00 -0.2039054696701E+00 -0.1797178754354E+00  0.2428920158690E-02
-0.1749875439580E+00 -0.2017219186628E+00 -0.1770534474318E+00  0.2266203189444E-02
-0.1715655513671E+00 -0.1994918175006E+00 -0.1743969633678E+00  0.2013830584717E-02
-0.1683497961577E+00 -0.1973048000618E+00 -0.1718576602232E+00  0.1696714318747E-02
-0.1654419195835E+00 -0.1952399573132E+00 -0.1695204821414E+00  0.1344738828368E-02
-0.1628974310926E+00 -0.1933567537431E+00 -0.1674394668728E+00  0.9842381081173E-03
-0.1607334220647E+00 -0.1916923734177E+00 -0.1656401238767E+00  0.6337875820718E-03
-0.1589405867740E+00 -0.1902638088726E+00 -0.1641260659539E+00  0.3038016997631E-03
-0.1574942807822E+00 -0.1890723406671E+00 -0.1628863120812E+00 -0.1867994503071E-05
-0.1563625896845E+00 -0.1881084032329E+00 -0.1619013666712E+00 -0.2838400556431E-03
-0.1555113507872E+00 -0.1873556780119E+00 -0.1611475035356E+00 -0.5453875117698E-03
-0.1549068226250E+00 -0.1867940104154E+00 -0.1605993915290E+00 -0.7911208441500E-03
-0.1545167935967E+00 -0.1864012102574E+00 -0.1602314618114E+00 -0.1026121675163E-02
-0.1543107431480E+00 -0.1861539653073E+00 -0.1600184129740E+00 -0.1255400518988E-02
-0.1542594510008E+00 -0.1860281019144E+00 -0.1599351498702E+00 -0.1483558100526E-02
-0.1543342780506E+00 -0.1859983695597E+00 -0.1599563443769E+00 -0.1714559733242E-02
-0.1545062253400E+00 -0.1860378610541E+00 -0.1600557206052E+00 -0.1951556605940E-02
-0.1547447977094E+00 -0.1861171193880E+00 -0.1602051010358E+00 -0.2196709347021E-02
-0.1550166432460E+00 -0.1862029370929E+00 -0.1603732027593E+00 -0.2450979037861E-02
-0.1552838913510E+00 -0.1862568193450E+00 -0.1605241340271E+00 -0.2713852046941E-02
-0.1555020957573E+00 -0.1862330636545E+00 -0.1606155249235E+00 -0.2982993545051E-02
-0.1556176115368E+00 -0.1860763917965E+00 -0.1605961815667E+00 -0.3253791502187E-02
-0.1555642632082E+00 -0.1857190978285E+00 -0.1604031796873E+00 -0.3518799917390E-02
-0.1552591832465E+00 -0.1850777123338E+00 -0.1599583409227E+00 -0.3767126077638E-02
-0.1545977403736E+00 -0.1840492511322E+00 -0.1591640860077E+00 -0.3983794373077E-02
-0.1534476041766E+00 -0.1825072096870E+00 -0.1578987625159E+00 -0.4149174694180E-02
-0.1516423013642E+00 -0.1802978797972E+00 -0.1560118851459E+00 -0.4238565119819E-02
-0.1489764366542E+00 -0.1772397844401E+00 -0.1533216239143E+00 -0.4222187620162E-02
-0.1452013318778E+00 -0.1731246617787E+00 -0.1496132170185E+00 -0.4065778792687E-02
-0.1400179172026E+00 -0.1677167508106E+00 -0.1446352939662E+00 -0.3731999954478E-02
-0.1330707316346E+00 -0.1607553613116E+00 -0.1380982636847E+00 -0.3183859044746E-02
-0.1239490494777E+00 -0.1519657381727E+00 -0.1296799501957E+00 -0.2391993146802E-02
-0.1122036963813E+00 -0.1410819655816E+00 -0.1190442611225E+00 -0.1347800839485E-02
-0.9739282758680E-01 -0.1278851961832E+00 -0.1058806711719E+00 -0.8328140708883E-04
-0.7917177956426E-01 -0.1122573924314E+00 -0.8997171083795E-01  0.1305778017375E-02
-0.5743091194635E-01 -0.9424247662622E-01 -0.7128649262911E-01  0.2644397714336E-02
-0.3246757475604E-01 -0.7410795823234E-01 -0.5009050050454E-01  0.3690538653973E-02
-0.5107771718075E-02 -0.5236912093861E-01 -0.2701413954864E-01  0.4188972793571E-02
 0.2319331998983E-01 -0.2987546057899E-01 -0.3140606076902E-02  0.3974971865596E-02
 0.5022808995052E-01 -0.7852189056022E-02  0.1991667342041E-01  0.3013258884210E-02
-0.1820941963209E+00 -0.2062520177841E+00 -0.1825227206293E+00  0.2648393961540E-02
-0.1785549068573E+00 -0.2041015208812E+00 -0.1798485210371E+00  0.2579539433166E-02
-0.1749006086597E+00 -0.2017958624808E+00 -0.1770473414360E+00  0.2399812718287E-02
-0.1713181443275E+00 -0.1994369660349E+00 -0.1742549018703E+00  0.2122082798710E-02
-0.1679707076106E+00 -0.1971305349360E+00 -0.1715975839969E+00  0.1776568069658E-02
-0.1649692454084E+00 -0.1949673642975E+00 -0.1691702065618E+00  0.1398066542320E-02
-0.1623693803828E+00 -0.1930131022695E+00 -0.1670297668466E+00  0.1015820119893E-02
-0.1601831040681E+00 -0.1913063199468E+00 -0.1652000292870E+00  0.6492569704612E-03
-0.1583942814561E+00 -0.1898622648796E+00 -0.1636805767778E+00  0.3083078910559E-03
-0.1569718291209E+00 -0.1886790334565E+00 -0.1624559054114E+00 -0.4235867709141E-05
-0.1558787109503E+00 -0.1877436723013E+00 -0.1615025201282E+00 -0.2901324156087E-03
-0.1550771572052E+00 -0.1870369686024E+00 -0.1607936391295E+00 -0.5536425096811E-03
-0.1545311987477E+00 -0.1865366605095E+00 -0.1603018938509E+00 -0.8001510777031E-03
-0.1542075448919E+00 -0.1862192983385E+00 -0.1600006163183E+00 -0.1035320403713E-02
-0.1540755267089E+00 -0.1860611120836E+00 -0.1598642202325E+00 -0.1264595248568E-02
-0.1541065368798E+00 -0.1860381905427E+00 -0.1598680218886E+00 -0.1492914833423E-02
-0.1542731936446E+00 -0.1861261826587E+00 -0.1599877068625E+00 -0.1724532547982E-02
-0.1545483272004E+00 -0.1862996435713E+00 -0.1601985462627E+00 -0.1962875778899E-02
-0.1549038053205E+00 -0.1865310764865E+00 -0.1604743944493E+00 -0.2210402170223E-02
-0.1553091582622E+00 -0.1867896684186E+00 -0.1607864485400E+00 -0.2468418383379E-02
-0.1557299092197E+00 -0.1870396730861E+00 -0.1611017036837E+00 -0.2736827031696E-02
-0.1561255082218E+00 -0.1872383868233E+00 -0.1613810306712E+00 -0.3013794031112E-02
-0.1564466566367E+00 -0.1873336082912E+00 -0.1615767245161E+00 -0.3295292423417E-02
-0.1566318428708E+00 -0.1872605180060E+00 -0.1616294096121E+00 -0.3574524544964E-02
-0.1566029322469E+00 -0.1869379567511E+00 -0.1614642178291E+00 -0.3841262748023E-02
-0.1562596723469E+00 -0.1862641208914E+00 -0.1609861828220E+00 -0.4081138169979E-02
-0.1554731366816E+00 -0.1851118127659E+00 -0.1600749262403E+00 -0.4274962085002E-02
-0.1540784413557E+00 -0.1833237969928E+00 -0.1585790520238E+00 -0.4398148348704E-02
-0.1518690171250E+00 -0.1807112500411E+00 -0.1563127255681E+00 -0.4420445634078E-02
-0.1485908593155E+00 -0.1770534471678E+00 -0.1530528240471E+00 -0.4306116325814E-02
-0.1439328211118E+00 -0.1720948692501E+00 -0.1485330144701E+00 -0.4014718523041E-02
-0.1375163854061E+00 -0.1655449472855E+00 -0.1424388263651E+00 -0.3503671538657E-02
-0.1288908118982E+00 -0.1570861842905E+00 -0.1344091882087E+00 -0.2734745333221E-02
-0.1175430149704E+00 -0.1463957921469E+00 -0.1240512393451E+00 -0.1687283157882E-02
-0.1029388240930E+00 -0.1331866833463E+00 -0.1109789884965E+00 -0.3804587848697E-03
-0.8461658917398E-01 -0.1172698112885E+00 -0.9488660821737E-01  0.1097252090026E-02
-0.6234846913222E-01 -0.9863275313304E-01 -0.7566117446467E-01  0.2563139992930E-02
-0.3635027485588E-01 -0.7751528034607E-01 -0.5351681094491E-01  0.3743882730988E-02
-0.7481882184508E-02 -0.5447373832306E-01 -0.2911914163856E-01  0.4335344918551E-02
 0.2268776772360E-01 -0.3039411329416E-01 -0.3621982418161E-02  0.4117448912871E-02
 0.5199958032111E-01 -0.6453758099050E-02  0.2140653644437E-01  0.3015095250386E-02
-0.1823605197413E+00 -0.2065894636145E+00 -0.1828064921772E+00  0.2810729613130E-02
-0.1786517768015E+00 -0.2043261099615E+00 -0.1799996067786E+00  0.2735110847441E-02
-0.1748054108066E+00 -0.2018792225646E+00 -0.1770417776844E+00  0.2535719543970E-02
-0.1710423413358E+00 -0.1993719373769E+00 -0.1740947109950E+00  0.2229209779109E-02
-0.1675497159752E+00 -0.1969295791509E+00 -0.1713052687092E+00  0.1852440210059E-02
-0.1644480696305E+00 -0.1946564666767E+00 -0.1687791320644E+00  0.1445900581958E-02
-0.1617915463180E+00 -0.1926245643843E+00 -0.1665755720301E+00  0.1041798183200E-02
-0.1595850224365E+00 -0.1908729238898E+00 -0.1647152347734E+00  0.6600523894631E-03
-0.1578038761146E+00 -0.1894137953936E+00 -0.1631923056089E+00  0.3096676133842E-03
-0.1564094970396E+00 -0.1882409551329E+00 -0.1619857125211E+00 -0.7969721687924E-05
-0.1553591258605E+00 -0.1873372247794E+00 -0.1610672848008E+00 -0.2959654411951E-03
-0.1546111094359E+00 -0.1866799616087E+00 -0.1604068033910E+00 -0.5596674797251E-03
-0.1541271624317E+00 -0.1862444953163E+00 -0.1599746791415E+00 -0.8052660885347E-03
-0.1538729247805E+00 -0.1860059776725E+00 -0.1597430841529E+00 -0.1038998110090E-02
-0.1538176367440E+00 -0.1859401491294E+00 -0.1596861593605E+00 -0.1266719578275E-02
-0.1539333843490E+00 -0.1860234014181E+00 -0.1597796893105E+00 -0.1493679949492E-02
-0.1541941363374E+00 -0.1862323768099E+00 -0.1600004611792E+00 -0.1724393642679E-02
-0.1545746569865E+00 -0.1865432333256E+00 -0.1603254084467E+00 -0.1962542425034E-02
-0.1550492990916E+00 -0.1869306244389E+00 -0.1607305640594E+00 -0.2210867648634E-02
-0.1555906256110E+00 -0.1873663819922E+00 -0.1611897935735E+00 -0.2471020519410E-02
-0.1561677503060E+00 -0.1878178365083E+00 -0.1616732258027E+00 -0.2743336227990E-02
-0.1567442878811E+00 -0.1882457125253E+00 -0.1621453001910E+00 -0.3026521768345E-02
-0.1572756581819E+00 -0.1886014412719E+00 -0.1625622367433E+00 -0.3317207456872E-02
-0.1577055250344E+00 -0.1888237940345E+00 -0.1628687799624E+00 -0.3609355907573E-02
-0.1579611702738E+00 -0.1888347892039E+00 -0.1629941009545E+00 -0.3893563015372E-02
-0.1579476003942E+00 -0.1885348366956E+00 -0.1628467454322E+00 -0.4156278786966E-02
-0.1575403891234E+00 -0.1877972347089E+00 -0.1623086832012E+00 -0.4379033260929E-02
-0.1565775874051E+00 -0.1864625420724E+00 -0.1612288608544E+00 -0.4537718094829E-02
-0.1548531174470E+00 -0.1843360017147E+00 -0.1594188860060E+00 -0.4602072971418E-02
-0.1521097355786E+00 -0.1811858293141E+00 -0.1566489154996E+00 -0.4535449936783E-02
-0.1480267503758E+00 -0.1767378435378E+00 -0.1526393591394E+00 -0.4294903011237E-02
-0.1422052399123E+00 -0.1706716790523E+00 -0.1470521519134E+00 -0.3832680984557E-02
-0.1341560679302E+00 -0.1626248329167E+00 -0.1394870233980E+00 -0.3101451584077E-02
-0.1233003730592E+00 -0.1522111871992E+00 -0.1294904333215E+00 -0.2066870318411E-02
-0.1090021627913E+00 -0.1390628585358E+00 -0.1165905600237E+00 -0.7315900818158E-03
-0.9066211757058E-01 -0.1229015608052E+00 -0.1003749288366E+00  0.8287059701618E-03
-0.6789895195107E-01 -0.1036350836171E+00 -0.8062099671705E-01  0.2428097500014E-02
-0.4081413908071E-01 -0.8146153181078E-01 -0.5746956531900E-01  0.3761669440020E-02
-0.1026064121413E-01 -0.5695081923053E-01 -0.3158938640899E-01  0.4465068855697E-02
 0.2204912777113E-01 -0.3106181464745E-01 -0.4235962831872E-02  0.4250027143999E-02
 0.5392506785109E-01 -0.4936351343775E-02  0.2302469675844E-01  0.3007150320395E-02
-0.1826683399259E+00 -0.2069780482760E+00 -0.1831338024549E+00  0.2979487757642E-02
-0.1787665554362E+00 -0.2045846089703E+00 -0.1801750472711E+00  0.2895939523524E-02
-0.1747004803044E+00 -0.2019732722942E+00 -0.1770366637213E+00  0.2673547857822E-02
-0.1707335916900E+00 -0.1992942657227E+00 -0.1739130929840E+00  0.2334140380095E-02
-0.1670810945526E+00 -0.1966969966503E+00 -0.1709757028654E+00  0.1922904184487E-02
-0.1638729166725E+00 -0.1943012767474E+00 -0.1683418709074E+00  0.1486858918855E-02
-0.1611593980189E+00 -0.1921851809840E+00 -0.1660719521314E+00  0.1061083529388E-02
-0.1589357222496E+00 -0.1903868387695E+00 -0.1641816036790E+00  0.6654479735629E-03
-0.1571668351765E+00 -0.1889138447808E+00 -0.1626579195799E+00  0.3074759464621E-03
-0.1558054236564E+00 -0.1877542796312E+00 -0.1614730605451E+00 -0.1323491352742E-04
-0.1548024146580E+00 -0.1868857994158E+00 -0.1605934606147E+00 -0.3013435156575E-03
-0.1541120373461E+00 -0.1862817703095E+00 -0.1599850895981E+00 -0.5633660097681E-03
-0.1536936433979E+00 -0.1859148208412E+00 -0.1596159781923E+00 -0.8063087900432E-03
-0.1535118447930E+00 -0.1857585837650E+00 -0.1594571014223E+00 -0.1036960327846E-02
-0.1535358694799E+00 -0.1857882963112E+00 -0.1594823579218E+00 -0.1261551953202E-02
-0.1537385890556E+00 -0.1859807074109E+00 -0.1596680693392E+00 -0.1485605021254E-02
-0.1540954205201E+00 -0.1863135552085E+00 -0.1599922185924E+00 -0.1713859579123E-02
-0.1545831659075E+00 -0.1867647452460E+00 -0.1604335182421E+00 -0.1950222199177E-02
-0.1551787789702E+00 -0.1873112720471E+00 -0.1609703239781E+00 -0.2197696535833E-02
-0.1558579956541E+00 -0.1879278620480E+00 -0.1615793531200E+00 -0.2458268187483E-02
-0.1565937040527E+00 -0.1885852522880E+00 -0.1622341094801E+00 -0.2732710839790E-02
-0.1573539387991E+00 -0.1892480334930E+00 -0.1629029269773E+00 -0.3020301496511E-02
-0.1580992020108E+00 -0.1898718480221E+00 -0.1635463935154E+00 -0.3318388571359E-02
-0.1587788477575E+00 -0.1903998076934E+00 -0.1641139680619E+00 -0.3621796956337E-02
-0.1593262802196E+00 -0.1907580519990E+00 -0.1645396361428E+00 -0.3922097217262E-02
-0.1596526903127E+00 -0.1908503515005E+00 -0.1647364296522E+00 -0.4206766282686E-02
-0.1596393180719E+00 -0.1905518507542E+00 -0.1645898493483E+00 -0.4458331514659E-02
-0.1591285949894E+00 -0.1897024526485E+00 -0.1639505923898E+00 -0.4653538145321E-02
-0.1579167595915E+00 -0.1881032135453E+00 -0.1626293873743E+00 -0.4762624181644E-02
-0.1557457125911E+00 -0.1855132012205E+00 -0.1603916894915E+00 -0.4748696873036E-02
-0.1522883338183E+00 -0.1816414459636E+00 -0.1569469964975E+00 -0.4567109038449E-02
-0.1471290243974E+00 -0.1761389634850E+00 -0.1519359543047E+00 -0.4165707016223E-02
-0.1397436198587E+00 -0.1685972537321E+00 -0.1449202105877E+00 -0.3488305022511E-02
-0.1294877745920E+00 -0.1585611971648E+00 -0.1353830167257E+00 -0.2485674516999E-02
-0.1156159515840E+00 -0.1455689686258E+00 -0.1227569124986E+00 -0.1140149567192E-02
-0.9736864972026E-01 -0.1292307248946E+00 -0.1065017060690E+00  0.4920244655439E-03
-0.7417135738599E-01 -0.1093466525559E+00 -0.8625346467269E-01  0.2228751255781E-02
-0.4595881733141E-01 -0.8604463610883E-01 -0.6204162311691E-01  0.3734522766945E-02
-0.1354367579843E-01 -0.5989737627230E-01 -0.3451729447324E-01  0.4573965894736E-02
 0.2121887716523E-01 -0.3194053746179E-01 -0.5039180339385E-02  0.4372291438347E-02
 0.5584712411751E-01 -0.3477656569809E-02  0.2461364974742E-01  0.2991494389283E-02
-0.1830262853563E+00 -0.2074283494690E+00 -0.1835136783679E+00  0.3155327975678E-02
-0.1789027479462E+00 -0.2048835632452E+00 -0.1803795662599E+00  0.3062316685987E-02
-0.1745837290604E+00 -0.2020792632744E+00 -0.1770316063973E+00  0.2812703543380E-02
-0.1703861838774E+00 -0.1992005922428E+00 -0.1737057847765E+00  0.2435444601155E-02
-0.1665579976323E+00 -0.1964266052339E+00 -0.1706027633471E+00  0.1986186704038E-02
-0.1632375210568E+00 -0.1938946449652E+00 -0.1678521180303E+00  0.1519326923151E-02
-0.1604679626256E+00 -0.1916881247350E+00 -0.1655133610595E+00  0.1072482852803E-02
-0.1582315568303E+00 -0.1898421643622E+00 -0.1635946489605E+00  0.6647040400892E-03
-0.1564805740705E+00 -0.1883575481178E+00 -0.1620739174285E+00  0.3013599768375E-03
-0.1551577668099E+00 -0.1872150319496E+00 -0.1609152154170E+00 -0.2015119693896E-04
-0.1542072021335E+00 -0.1863860802255E+00 -0.1600788427087E+00 -0.3062295649190E-03
-0.1535788209222E+00 -0.1858395033713E+00 -0.1595266124179E+00 -0.5646122870999E-03
-0.1532296183427E+00 -0.1855449611846E+00 -0.1592240523778E+00 -0.8031073774064E-03
-0.1531232570893E+00 -0.1854744761116E+00 -0.1591409346044E+00 -0.1029012770378E-02
-0.1532290545959E+00 -0.1856027926285E+00 -0.1592509681955E+00 -0.1248885220277E-02
-0.1535207728776E+00 -0.1859070878699E+00 -0.1595310945513E+00 -0.1468469382681E-02
-0.1539753794848E+00 -0.1863663078575E+00 -0.1599605930509E+00 -0.1692687250150E-02
-0.1545718159761E+00 -0.1869602534464E+00 -0.1605200726286E+00 -0.1925632938074E-02
-0.1552897455249E+00 -0.1876684491692E+00 -0.1611903515062E+00 -0.2170542774426E-02
-0.1561082048362E+00 -0.1884687609247E+00 -0.1619511739076E+00 -0.2429716956524E-02
-0.1570040233949E+00 -0.1893356571992E+00 -0.1627796498792E+00 -0.2704362017388E-02
-0.1579498923855E+00 -0.1902380335239E+00 -0.1636483251774E+00 -0.2994340545927E-02
-0.1589117443833E+00 -0.1911363359287E+00 -0.1645225977467E+00 -0.3297765734002E-02
-0.1598451338516E+00 -0.1919788035150E+00 -0.1653572505623E+00 -0.3610413444781E-02
-0.1606903079788E+00 -0.1926967094501E+00 -0.1660918981916E+00 -0.3924968793567E-02
-0.1613656063175E+00 -0.1931984399536E+00 -0.1666451017474E+00 -0.4230134483762E-02
-0.1617591610582E+00 -0.1933624899735E+00 -0.1669071759849E+00 -0.4509706803237E-02
-0.1617193087327E+00 -0.1930298722739E+00 -0.1667321150731E+00 -0.4741660886759E-02
-0.1610465476582E+00 -0.1919995235337E+00 -0.1659316534602E+00 -0.4897264369745E-02
-0.1594845431179E+00 -0.1900237867245E+00 -0.1642689150259E+00 -0.4940124529809E-02
-0.1567033899688E+00 -0.1867976233571E+00 -0.1614454762632E+00 -0.4824885050452E-02
-0.1522756514650E+00 -0.1819459411104E+00 -0.1570841485105E+00 -0.4496132299083E-02
-0.1456475243313E+00 -0.1750150398129E+00 -0.1507114051478E+00 -0.3889685523462E-02
-0.1361124816645E+00 -0.1654768284014E+00 -0.1417469757309E+00 -0.2940947814404E-02
-0.1228105929219E+00 -0.1527624168775E+00 -0.1295193146057E+00 -0.1608416485771E-02
-0.1048000089659E+00 -0.1363448567664E+00 -0.1133380868942E+00  0.7887398399953E-04
-0.8126555707225E-01 -0.1158801556591E+00 -0.9265848498372E-01  0.1952599290549E-02
-0.5190855457303E-01 -0.9138859902527E-01 -0.6734966219120E-01  0.3650983752158E-02
-0.1744536245584E-01 -0.6342339233270E-01 -0.3800831475061E-01  0.4656544386569E-02
 0.2009867793425E-01 -0.3312916599246E-01 -0.6124329387358E-02  0.4486834938262E-02
 0.5777960831609E-01 -0.2075021403924E-02  0.2618115584872E-01  0.2963287490060E-02
-0.1834451973038E+00 -0.2079537000095E+00 -0.1839574817372E+00  0.3339017671871E-02
-0.1790644709744E+00 -0.2052309438024E+00 -0.1806188449451E+00  0.3234496167257E-02
-0.1744521679057E+00 -0.2021982735311E+00 -0.1770257074753E+00  0.2952279189084E-02
-0.1699928858824E+00 -0.1990862846364E+00 -0.1734672101438E+00  0.2531220175475E-02
-0.1659722205714E+00 -0.1961106029713E+00 -0.1701789270651E+00  0.2040096343293E-02
-0.1625347332851E+00 -0.1934280152185E+00 -0.1673024917967E+00  0.1541442515627E-02
-0.1597118253953E+00 -0.1911255937658E+00 -0.1648935870057E+00  0.1074718856046E-02
-0.1574687238247E+00 -0.1892324300622E+00 -0.1629495423268E+00  0.6570980589770E-03
-0.1557424985485E+00 -0.1877397555692E+00 -0.1614366594353E+00  0.2910061625352E-03
-0.1544647346780E+00 -0.1866191247595E+00 -0.1603094139356E+00 -0.2877301607753E-04
-0.1535721809496E+00 -0.1858347331297E+00 -0.1595212496172E+00 -0.3105323821381E-03
-0.1530104074898E+00 -0.1853502978322E+00 -0.1590295315013E+00 -0.5632436566507E-03
-0.1527341242935E+00 -0.1851322876424E+00 -0.1587972136099E+00 -0.7954715084395E-03
-0.1527061656761E+00 -0.1851510643802E+00 -0.1587928981265E+00 -0.1014960010117E-02
-0.1528960655701E+00 -0.1853809207484E+00 -0.1589901835697E+00 -0.1228527136777E-02
-0.1532785943715E+00 -0.1857995527755E+00 -0.1593667291591E+00 -0.1442082162321E-02
-0.1538323768007E+00 -0.1863872365244E+00 -0.1599032182628E+00 -0.1660677426558E-02
-0.1545385931259E+00 -0.1871258180792E+00 -0.1605822732664E+00 -0.1888549970098E-02
-0.1553797157031E+00 -0.1879975364162E+00 -0.1613873084961E+00 -0.2129131070729E-02
-0.1563381950867E+00 -0.1889836322266E+00 -0.1623012588373E+00 -0.2385005811451E-02
-0.1573949487918E+00 -0.1900626186282E+00 -0.1633050566874E+00 -0.2657795402653E-02
-0.1585275366392E+00 -0.1912081258749E+00 -0.1643757613816E+00 -0.2947948335380E-02
-0.1597076460650E+00 -0.1923859993203E+00 -0.1654840133311E+00 -0.3254372210938E-02
-0.1608975281393E+00 -0.1935504185199E+00 -0.1665905349298E+00 -0.3573865631332E-02
-0.1620450004168E+00 -0.1946388634030E+00 -0.1676414159953E+00 -0.3900352893543E-02
-0.1630765479309E+00 -0.1955656916297E+00 -0.1685618525935E+00 -0.4223947187688E-02
-0.1638884722596E+00 -0.1962143959518E+00 -0.1692483480593E+00 -0.4529970294153E-02
-0.1643365964163E+00 -0.1964290610657E+00 -0.1695598590165E+00 -0.4797989760778E-02
-0.1642276922332E+00 -0.1960088593031E+00 -0.1693111792221E+00 -0.5000834957978E-02
-0.1633099645018E+00 -0.1947023127939E+00 -0.1682657703290E+00 -0.5103404863931E-02
-0.1612547914436E+00 -0.1921938978685E+00 -0.1661208839767E+00 -0.5060779748006E-02
-0.1576287872496E+00 -0.1880864385949E+00 -0.1624861561469E+00 -0.4815793659301E-02
-0.1518561227942E+00 -0.1818841883162E+00 -0.1568579462219E+00 -0.4297833423206E-02
-0.1431752022554E+00 -0.1729849080442E+00 -0.1485952518408E+00 -0.3427479647737E-02
-0.1306115882608E+00 -0.1607010626158E+00 -0.1369169459120E+00 -0.2136689924862E-02
-0.1130211613979E+00 -0.1443401526903E+00 -0.1209598176215E+00 -0.4187926379508E-03
-0.8929444079539E-01 -0.1233679005346E+00 -0.9995130042508E-01  0.1585151568089E-02
-0.5881200453989E-01 -0.9764411436500E-01 -0.7353437588530E-01  0.3496417350448E-02
-0.2211322204645E-01 -0.6766931554096E-01 -0.4219779266608E-01  0.4705884563004E-02
 0.1859259449708E-01 -0.3472086204942E-01 -0.7580285749600E-02  0.4594538828628E-02
 0.5974415003065E-01 -0.7193162552942E-03  0.2774167187442E-01  0.2917296542271E-02
-0.1839388077595E+00 -0.2085710530814E+00 -0.1844796345952E+00  0.3531459636073E-02
-0.1792565056748E+00 -0.2056364597584E+00 -0.1808996937536E+00  0.3412653085299E-02
-0.1743014827969E+00 -0.2023309370851E+00 -0.1770172373445E+00  0.3090914592758E-02
-0.1695444674802E+00 -0.1989448925920E+00 -0.1731899992339E+00  0.2618942303340E-02
-0.1653139140882E+00 -0.1957390801797E+00 -0.1696949073059E+00  0.2081944736483E-02
-0.1617564349300E+00 -0.1928911437488E+00 -0.1666843619790E+00  0.1551094407889E-02
-0.1588851546080E+00 -0.1904887159943E+00 -0.1642057191831E+00  0.1066467608362E-02
-0.1566433207798E+00 -0.1885506016731E+00 -0.1622411435529E+00  0.6419673270455E-03
-0.1549500544023E+00 -0.1870550761795E+00 -0.1607424113734E+00  0.2761936636251E-03
-0.1537246219419E+00 -0.1859624076616E+00 -0.1596529039136E+00 -0.3906741312574E-04
-0.1528961367375E+00 -0.1852284502209E+00 -0.1589185558704E+00 -0.3140932765581E-03
-0.1524058295416E+00 -0.1848113566211E+00 -0.1584920774964E+00 -0.5590531814153E-03
-0.1522062721034E+00 -0.1846742505581E+00 -0.1583338456509E+00 -0.7831886804825E-03
-0.1522596375913E+00 -0.1847858363791E+00 -0.1584113727661E+00 -0.9946043392353E-03
-0.1525358299425E+00 -0.1851200328691E+00 -0.1586982555214E+00 -0.1200300964887E-02
-0.1530107591312E+00 -0.1856551681110E+00 -0.1591729858038E+00 -0.1406284281639E-02
-0.1536648176278E+00 -0.1863729810839E+00 -0.1598177653945E+00 -0.1617678148276E-02
-0.1544815203382E+00 -0.1872575140292E+00 -0.1606173461526E+00 -0.1838811167295E-02
-0.1554462387619E+00 -0.1882938975169E+00 -0.1615578640510E+00 -0.2073264160338E-02
-0.1565449337657E+00 -0.1894669679919E+00 -0.1626255938261E+00 -0.2323867490843E-02
-0.1577627335315E+00 -0.1907595770719E+00 -0.1638054859836E+00 -0.2592625680821E-02
-0.1590822478738E+00 -0.1921505002247E+00 -0.1650793916063E+00 -0.2880556420419E-02
-0.1604812104870E+00 -0.1936115677380E+00 -0.1664236057658E+00 -0.3187371267547E-02
-0.1619290403863E+00 -0.1951037260559E+00 -0.1678054002278E+00 -0.3510942462942E-02
-0.1633818502556E+00 -0.1965717852241E+00 -0.1691782086755E+00 -0.3846538739189E-02
-0.1647752950493E+00 -0.1979375236387E+00 -0.1704750247834E+00 -0.4185849842710E-02
-0.1660151694110E+00 -0.1990912122279E+00 -0.1715999993702E+00 -0.4515957263619E-02
-0.1669664019140E+00 -0.1998821408757E+00 -0.1724188151112E+00 -0.4818355244850E-02
-0.1674440688568E+00 -0.2001123123028E+00 -0.1727514991450E+00 -0.5067941976414E-02
-0.1672037430407E+00 -0.1995297446742E+00 -0.1723647392260E+00 -0.5231705657458E-02
-0.1659224246080E+00 -0.1978128260669E+00 -0.1709555678172E+00 -0.5266405440754E-02
-0.1631675476493E+00 -0.1945479184044E+00 -0.1681262690453E+00 -0.5114941278549E-02
-0.1583511057558E+00 -0.1892032374742E+00 -0.1633505413181E+00 -0.4702566242362E-02
-0.1506681068312E+00 -0.1811053665100E+00 -0.1559335324704E+00 -0.3936918572840E-02
-0.1390363656560E+00 -0.1694402535037E+00 -0.1449840110051E+00 -0.2722260464809E-02
-0.1220953006524E+00 -0.1533202974473E+00 -0.1294453311069E+00 -0.1007804902619E-02
-0.9838322154162E-01 -0.1319638431215E+00 -0.1082631203917E+00  0.1109961797765E-02
-0.6684847826530E-01 -0.1049964835270E+00 -0.8076713204238E-01  0.3252066985750E-02
-0.2773193933763E-01 -0.7280988389173E-01 -0.4725465691780E-01  0.4711822876714E-02
 0.1658889340505E-01 -0.3682294177175E-01 -0.9510002732350E-02  0.4694733962358E-02
 0.6176527576952E-01  0.5985160423073E-03  0.2931098215156E-01  0.2848120614821E-02
-0.1845246789031E+00 -0.2093021914829E+00 -0.1850986290814E+00  0.3733727505177E-02
-0.1794843143308E+00 -0.2061119333222E+00 -0.1812302363969E+00  0.3596811724072E-02
-0.1741254017677E+00 -0.2024769819675E+00 -0.1770031203555E+00  0.3226589850636E-02
-0.1690290617725E+00 -0.1987673612678E+00 -0.1728643188290E+00  0.2695266562872E-02
-0.1645712543184E+00 -0.1952993896460E+00 -0.1691392026633E+00  0.2108466531784E-02
-0.1608934796029E+00 -0.1922717913290E+00 -0.1659876773380E+00  0.1545943989371E-02
-0.1579817640323E+00 -0.1897674827617E+00 -0.1634421459932E+00  0.1046419041837E-02
-0.1557514245694E+00 -0.1877891233274E+00 -0.1614640575115E+00  0.6187651127981E-03
-0.1541007878025E+00 -0.1862979458259E+00 -0.1599874048053E+00  0.2568333433331E-03
-0.1529358498501E+00 -0.1852407305281E+00 -0.1589429927777E+00 -0.5089023713386E-04
-0.1521779744507E+00 -0.1845640019512E+00 -0.1582687289089E+00 -0.3166726059826E-03
-0.1517642228406E+00 -0.1842199905290E+00 -0.1579125802837E+00 -0.5517825778851E-03
-0.1516452598775E+00 -0.1841684137316E+00 -0.1578324265963E+00 -0.7660210288384E-03
-0.1517828139211E+00 -0.1843763875961E+00 -0.1579948247131E+00 -0.9677449337578E-03
-0.1521473393949E+00 -0.1848175777051E+00 -0.1583735110370E+00 -0.1164046201449E-02
-0.1527160299747E+00 -0.1854710822412E+00 -0.1589479427415E+00 -0.1360950411074E-02
-0.1534711598733E+00 -0.1863202470167E+00 -0.1597019612383E+00 -0.1563587898764E-02
-0.1543986706434E+00 -0.1873514611905E+00 -0.1606225619619E+00 -0.1776321616963E-02
-0.1554869121761E+00 -0.1885529140690E+00 -0.1616987183352E+00 -0.2002829562503E-02
-0.1567254338768E+00 -0.1899132396166E+00 -0.1629201765419E+00 -0.2246138274161E-02
-0.1581036699914E+00 -0.1914198945531E+00 -0.1642760753359E+00 -0.2508590743604E-02
-0.1596094246953E+00 -0.1930571785633E+00 -0.1657533035315E+00 -0.2791738646105E-02
-0.1612267260098E+00 -0.1948034666209E+00 -0.1673341905364E+00 -0.3096083847411E-02
-0.1629325942091E+00 -0.1966272952347E+00 -0.1689931480386E+00 -0.3420597872919E-02
-0.1646921480844E+00 -0.1984819658106E+00 -0.1706918335307E+00 -0.3761975327497E-02
-0.1664512606886E+00 -0.2002982138871E+00 -0.1723722530506E+00 -0.4113626019387E-02
-0.1681265903884E+00 -0.2019749940351E+00 -0.1739477446790E+00 -0.4464597221170E-02
-0.1695938148479E+00 -0.2033690788596E+00 -0.1752925600425E+00 -0.4798602900086E-02
-0.1706783094827E+00 -0.2042880709066E+00 -0.1762341987830E+00 -0.5093065803261E-02
-0.1711457814208E+00 -0.2044831066963E+00 -0.1765455774151E+00 -0.5317820185899E-02
-0.1706832649636E+00 -0.2036315676476E+00 -0.1759279713273E+00 -0.5432567044709E-02
-0.1688663733820E+00 -0.2013105087139E+00 -0.1739831345851E+00 -0.5382295973364E-02
-0.1651067598595E+00 -0.1969612880783E+00 -0.1701719825308E+00 -0.5091093501436E-02
-0.1585727090516E+00 -0.1898478333835E+00 -0.1637576549445E+00 -0.4457083312375E-02
-0.1480903233836E+00 -0.1790285064755E+00 -0.1537458500338E+00 -0.3358094388023E-02
-0.1320790623166E+00 -0.1633934596231E+00 -0.1388720853117E+00 -0.1692313151007E-02
-0.1086677026469E+00 -0.1418455997210E+00 -0.1177412521129E+00  0.5091008416732E-03
-0.7623329002770E-01 -0.1136740010150E+00 -0.8925642679007E-01  0.2893774650266E-02
-0.3453612488952E-01 -0.7906757886952E-01 -0.5339374076675E-01  0.4659130634811E-02
 0.1394476494871E-01 -0.3957209594062E-01 -0.1204484556620E-01  0.4785264832448E-02
 0.6386905467270E-01  0.1884923883113E-02  0.3090436992123E-01  0.2749989796405E-02
-0.1852255317676E+00 -0.2101754541266E+00 -0.1858384633703E+00  0.3947111398631E-02
-0.1797539744113E+00 -0.2066717340848E+00 -0.1816200829932E+00  0.3786719555301E-02
-0.1739147405511E+00 -0.2026344476483E+00 -0.1769781184537E+00  0.3356315907621E-02
-0.1684313122364E+00 -0.1985408911549E+00 -0.1724769355939E+00  0.2755774764099E-02
-0.1637300797479E+00 -0.1947753483677E+00 -0.1684975512143E+00  0.2115751836509E-02
-0.1599356883622E+00 -0.1915554148932E+00 -0.1652008185300E+00  0.1523486600113E-02
-0.1569952289824E+00 -0.1889507402029E+00 -0.1625946055171E+00  0.1013367694426E-02
-0.1547891979092E+00 -0.1869400081133E+00 -0.1606127268306E+00  0.5871310475566E-03
-0.1531924151914E+00 -0.1854627233126E+00 -0.1591679150969E+00  0.2330113169857E-03
-0.1520970090505E+00 -0.1844500217128E+00 -0.1581771044587E+00 -0.6396173444557E-04
-0.1514167453106E+00 -0.1838382971769E+00 -0.1575698699691E+00 -0.3179369157287E-03
-0.1510848444146E+00 -0.1835736643357E+00 -0.1572894991127E+00 -0.5411159673220E-03
-0.1510503861097E+00 -0.1836124910631E+00 -0.1572915522712E+00 -0.7437027988334E-03
-0.1512749205179E+00 -0.1839204520240E+00 -0.1575418250947E+00 -0.9341774530422E-03
-0.1517296595574E+00 -0.1844711283319E+00 -0.1580143703080E+00 -0.1119619496756E-02
-0.1523932368738E+00 -0.1852445530434E+00 -0.1586897612611E+00 -0.1305990880051E-02
-0.1532499250933E+00 -0.1862258337909E+00 -0.1595536066756E+00 -0.1498358505596E-02
-0.1542881798644E+00 -0.1874038560059E+00 -0.1605952568590E+00 -0.1701057792424E-02
-0.1554993973151E+00 -0.1887700222901E+00 -0.1618066272145E+00 -0.1917805615624E-02
-0.1568767742245E+00 -0.1903169421123E+00 -0.1631810466783E+00 -0.2151766891164E-02
-0.1584141164307E+00 -0.1920369086509E+00 -0.1647119817883E+00 -0.2405565001165E-02
-0.1601045238599E+00 -0.1939200801642E+00 -0.1663915638913E+00 -0.2681230851644E-02
-0.1619385122555E+00 -0.1959518913546E+00 -0.1682084896967E+00 -0.2980016701708E-02
-0.1639010823753E+00 -0.1981092676447E+00 -0.1701448645094E+00 -0.3301988773060E-02
-0.1659670419348E+00 -0.2003551853169E+00 -0.1721714468083E+00 -0.3645320050179E-02
-0.1680935509195E+00 -0.2026309558407E+00 -0.1742405181773E+00 -0.4005257914792E-02
-0.1702095572963E+00 -0.2048462464721E+00 -0.1762762277711E+00 -0.4372989779239E-02
-0.1722031533815E+00 -0.2068677110259E+00 -0.1781633062715E+00 -0.4734691098308E-02
-0.1739119230428E+00 -0.2085114197862E+00 -0.1797389711297E+00 -0.5070689440551E-02
-0.1751142874363E+00 -0.2095354093802E+00 -0.1807853575038E+00 -0.5354333447196E-02
-0.1755115752022E+00 -0.2096216114768E+00 -0.1810125977391E+00 -0.5549461423451E-02
-0.1746951394432E+00 -0.2083462274207E+00 -0.1800294424261E+00 -0.5605230703042E-02
-0.1720895482074E+00 -0.2051360873359E+00 -0.1772960487053E+00 -0.5448002294192E-02
-0.1668578798360E+00 -0.1992076811990E+00 -0.1720508136865E+00 -0.4971368918620E-02
-0.1577620438511E+00 -0.1895014016796E+00 -0.1632138193994E+00 -0.4031268648864E-02
-0.1430154795683E+00 -0.1746666580611E+00 -0.1493106046858E+00 -0.2471578386913E-02
-0.1202897292381E+00 -0.1532148187894E+00 -0.1285471375729E+00 -0.2356079199525E-03
-0.8722353735471E-01 -0.1239589158681E+00 -0.9925575301474E-01  0.2390671738086E-02
-0.4282903836217E-01 -0.8673261281633E-01 -0.6089397605390E-01  0.4525100645748E-02
 0.1046737581048E-01 -0.4315238692305E-01 -0.1536195522291E-01  0.4862087101919E-02
 0.6608524371456E-01  0.3144278683399E-02  0.3253787552704E-01  0.2616402683248E-02
-0.1860711690105E+00 -0.2112282610261E+00 -0.1867307321172E+00  0.4173176085766E-02
-0.1800719411033E+00 -0.2073332461069E+00 -0.1820804379888E+00  0.3981625395057E-02
-0.1736559462645E+00 -0.2027983578412E+00 -0.1769335229297E+00  0.3475668527066E-02
-0.1677312381133E+00 -0.1982472822286E+00 -0.1720099045607E+00  0.2794657241713E-02
-0.1627735284333E+00 -0.1941462584731E+00 -0.1677522998460E+00  0.2099218224705E-02
-0.1588719455698E+00 -0.1907249136160E+00 -0.1643105238173E+00  0.1481174441323E-02
-0.1559190741637E+00 -0.1880262784894E+00 -0.1616543157469E+00  0.9663402808086E-03
-0.1537530231265E+00 -0.1859949907081E+00 -0.1596815665022E+00  0.5469745791022E-03
-0.1522229000755E+00 -0.1845438168812E+00 -0.1582803569697E+00  0.2050348649765E-03
-0.1512069038050E+00 -0.1835863811955E+00 -0.1573528439502E+00 -0.7784299055282E-04
-0.1506116737208E+00 -0.1830484507124E+00 -0.1568202584836E+00 -0.3174475554222E-03
-0.1503670901614E+00 -0.1828700466916E+00 -0.1566214543209E+00 -0.5266749429911E-03
-0.1504210624429E+00 -0.1830043851250E+00 -0.1567099603569E+00 -0.7159387684131E-03
-0.1507352784225E+00 -0.1834159340420E+00 -0.1570510698583E+00 -0.8936942231907E-03
-0.1512819395766E+00 -0.1840784107048E+00 -0.1576193646322E+00 -0.1066895834839E-02
-0.1520412866636E+00 -0.1849729755996E+00 -0.1583967032637E+00 -0.1241353561775E-02
-0.1529997091482E+00 -0.1860866638818E+00 -0.1593705953241E+00 -0.1421997742282E-02
-0.1541482590444E+00 -0.1874110039204E+00 -0.1605328535934E+00 -0.1613071141869E-02
-0.1554814347140E+00 -0.1889407512657E+00 -0.1618784274104E+00 -0.1818266627265E-02
-0.1569961191470E+00 -0.1906726410131E+00 -0.1634043172752E+00 -0.2040822252705E-02
-0.1586905237070E+00 -0.1926039913981E+00 -0.1651084220994E+00 -0.2283571364041E-02
-0.1605630973147E+00 -0.1947310952326E+00 -0.1669882704973E+00 -0.2548949500479E-02
-0.1626109701215E+00 -0.1970468951895E+00 -0.1690391966962E+00 -0.2838890355989E-02
-0.1648274287426E+00 -0.1995374528299E+00 -0.1712514943390E+00 -0.3154514325586E-02
-0.1671976048050E+00 -0.2021766040030E+00 -0.1736058781398E+00 -0.3495489946230E-02
-0.1696910310824E+00 -0.2049179344251E+00 -0.1760662137885E+00 -0.3858990271324E-02
-0.1722504445553E+00 -0.2076839863866E+00 -0.1785691825427E+00 -0.4238484660276E-02
-0.1747780538901E+00 -0.2103538026082E+00 -0.1810119725542E+00 -0.4622795275032E-02
-0.1771254372049E+00 -0.2127548068835E+00 -0.1832437147216E+00 -0.4995440517941E-02
-0.1790859952292E+00 -0.2146556956775E+00 -0.1850585947261E+00 -0.5333819397379E-02
-0.1803792179375E+00 -0.2157486965251E+00 -0.1861801197974E+00 -0.5606944209696E-02
-0.1806195205898E+00 -0.2156185079118E+00 -0.1862318733957E+00 -0.5770091668012E-02
-0.1792581931097E+00 -0.2136924446888E+00 -0.1846867997653E+00 -0.5755489412785E-02
-0.1754783850124E+00 -0.2091618427631E+00 -0.1807809070545E+00 -0.5458417392952E-02
-0.1680179827986E+00 -0.2008734973891E+00 -0.1733789956882E+00 -0.4721297241570E-02
-0.1549239850788E+00 -0.1872360472293E+00 -0.1608152151848E+00 -0.3336824941472E-02
-0.1333880702971E+00 -0.1662941123348E+00 -0.1408506258370E+00 -0.1139992326737E-02
-0.1001229097731E+00 -0.1362005521053E+00 -0.1110720270828E+00  0.1704190243425E-02
-0.5300867167801E-01 -0.9619164480004E-01 -0.7012414874468E-01  0.4276009348567E-02
 0.5886479282477E-02 -0.4782098810843E-01 -0.1970921914820E-01  0.4918063746568E-02
 0.6845076765259E-01  0.4379863381501E-02  0.3423039658602E-01  0.2439755265622E-02
-0.1871013331048E+00 -0.2125109101468E+00 -0.1878177543282E+00  0.4413833024802E-02
-0.1804444635221E+00 -0.2081172824945E+00 -0.1826240206278E+00  0.4179883396109E-02
-0.1733288420709E+00 -0.2029584521485E+00 -0.1768550282832E+00  0.3578083146217E-02
-0.1669027420116E+00 -0.1978605332195E+00 -0.1714387393586E+00  0.2804338599547E-02
-0.1616817541005E+00 -0.1933857796107E+00 -0.1668817408442E+00  0.2053672094286E-02
-0.1576904649685E+00 -0.1897605315618E+00 -0.1633019683693E+00  0.1416629983032E-02
-0.1547470479778E+00 -0.1869810680849E+00 -0.1606122145495E+00  0.9047632976524E-03
-0.1526396565245E+00 -0.1849457499061E+00 -0.1586651410224E+00  0.4985671375503E-03
-0.1511905317647E+00 -0.1835358400067E+00 -0.1573213947326E+00  0.1734774080870E-03
-0.1502645954061E+00 -0.1826461871925E+00 -0.1564680678214E+00 -0.9191500929460E-04
-0.1497621827627E+00 -0.1821918568548E+00 -0.1560183986202E+00 -0.3146517472475E-03
-0.1496105110857E+00 -0.1821070623990E+00 -0.1559072595378E+00 -0.5080154585855E-03
-0.1497568253187E+00 -0.1823422265620E+00 -0.1560865543839E+00 -0.6824038605595E-03
-0.1501633133770E+00 -0.1828609404459E+00 -0.1565213992968E+00 -0.8460850951407E-03
-0.1508034209134E+00 -0.1836373320820E+00 -0.1571871539078E+00 -0.1005769974338E-02
-0.1516591720678E+00 -0.1846539097922E+00 -0.1580671484742E+00 -0.1167025665620E-02
-0.1527191922103E+00 -0.1858998118585E+00 -0.1591509319123E+00 -0.1334571503077E-02
-0.1539772062238E+00 -0.1873693522424E+00 -0.1604328824791E+00 -0.1512490893627E-02
-0.1554308586512E+00 -0.1890607622199E+00 -0.1619110618094E+00 -0.1704386829332E-02
-0.1570807375206E+00 -0.1909750214647E+00 -0.1635862067231E+00 -0.1913499518849E-02
-0.1589294615247E+00 -0.1931146126955E+00 -0.1654607148835E+00 -0.2142791148698E-02
-0.1609808301024E+00 -0.1954821675613E+00 -0.1675376089019E+00 -0.2395008213154E-02
-0.1632386359241E+00 -0.1980784931138E+00 -0.1698190506478E+00 -0.2672665817768E-02
-0.1657046588763E+00 -0.2008994470278E+00 -0.1723039297749E+00 -0.2977855680021E-02
-0.1683749135274E+00 -0.2039308799439E+00 -0.1749837229315E+00 -0.3311715128459E-02
-0.1712324011485E+00 -0.2071404273667E+00 -0.1778352294022E+00 -0.3673397040108E-02
-0.1742352515184E+00 -0.2104658294803E+00 -0.1808095080694E+00 -0.4058763986506E-02
-0.1773015656471E+00 -0.2138011460360E+00 -0.1838182744911E+00 -0.4459414689976E-02
-0.1802985580902E+00 -0.2169879834080E+00 -0.1867246745042E+00 -0.4862240156894E-02
-0.1830364363549E+00 -0.2198092254835E+00 -0.1893374610640E+00 -0.5249059745878E-02
-0.1852560762274E+00 -0.2219729686583E+00 -0.1913976510963E+00 -0.5594853235470E-02
-0.1866016051507E+00 -0.2230821262195E+00 -0.1925513537440E+00 -0.5862655554230E-02
-0.1865643955639E+00 -0.2225813103638E+00 -0.1922984817860E+00 -0.5993897977508E-02
-0.1843745299249E+00 -0.2196650947464E+00 -0.1898986235955E+00 -0.5892277877533E-02
-0.1787974440804E+00 -0.2131285625413E+00 -0.1842052231122E+00 -0.5398680973956E-02
-0.1677870651002E+00 -0.2011714371213E+00 -0.1734104960441E+00 -0.4267090394658E-02
-0.1480819242002E+00 -0.1813170904070E+00 -0.1548175368654E+00 -0.2212698049034E-02
-0.1152824928653E+00 -0.1508290428327E+00 -0.1250724217781E+00  0.7881780516459E-03
-0.6560368783247E-01 -0.1079694904340E+00 -0.8157939378526E-01  0.3861902842764E-02
-0.1891342866309E-03 -0.5394937292016E-01 -0.2544509838719E-01  0.4940341663675E-02
 0.7101436528002E-01  0.5594525092603E-02  0.3600617847513E-01  0.2210974487208E-02
-0.1883700965837E+00 -0.2140924794232E+00 -0.1891574107233E+00  0.4671423026169E-02
-0.1808763036744E+00 -0.2090482188835E+00 -0.1832645256022E+00  0.4378232893314E-02
-0.1729030725648E+00 -0.2030952584431E+00 -0.1767192155737E+00  0.3653787281499E-02
-0.1659116990160E+00 -0.1973433944740E+00 -0.1707298939403E+00  0.2775089990349E-02
-0.1604318913214E+00 -0.1924607983178E+00 -0.1658595641304E+00  0.1973545676612E-02
-0.1563793240028E+00 -0.1886400892987E+00 -0.1621591242517E+00  0.1327981568743E-02
-0.1534734832725E+00 -0.1858016899623E+00 -0.1594593314203E+00  0.8286653899541E-03
-0.1514463884900E+00 -0.1837841984040E+00 -0.1575583758402E+00  0.4426346027561E-03
-0.1500940017909E+00 -0.1824337937296E+00 -0.1562880638946E+00  0.1392184451260E-03
-0.1492694438132E+00 -0.1816262149945E+00 -0.1555209596396E+00 -0.1053624369599E-03
-0.1488679178639E+00 -0.1812662677545E+00 -0.1551630672406E+00 -0.3088771737871E-03
-0.1488148283237E+00 -0.1812829465594E+00 -0.1551459541950E+00 -0.4846270746851E-03
-0.1490573468758E+00 -0.1816244141456E+00 -0.1554204276801E+00 -0.6427442274844E-03
-0.1495585648362E+00 -0.1822538126076E+00 -0.1559518173986E+00 -0.7911391376947E-03
-0.1502934457758E+00 -0.1831460093882E+00 -0.1567165439271E+00 -0.9361582499658E-03
-0.1512459803881E+00 -0.1842851077812E+00 -0.1576996114396E+00 -0.1083035506380E-02
-0.1524071483789E+00 -0.1856625333612E+00 -0.1588927504179E+00 -0.1236205597511E-02
-0.1537734176734E+00 -0.1872755229762E+00 -0.1602930021053E+00 -0.1399526093346E-02
-0.1553456109185E+00 -0.1891258879805E+00 -0.1619016044825E+00 -0.1576443091010E-02
-0.1571280205461E+00 -0.1912189380759E+00 -0.1637230705523E+00 -0.1770124317718E-02
-0.1591276430625E+00 -0.1935624060505E+00 -0.1657643230831E+00 -0.1983571440892E-02
-0.1613535771871E+00 -0.1961653835628E+00 -0.1680339115525E+00 -0.2219731348823E-02
-0.1638162376188E+00 -0.1990367799977E+00 -0.1705409182798E+00 -0.2481568979254E-02
-0.1665259785098E+00 -0.2021827757535E+00 -0.1732931145038E+00 -0.2772015528230E-02
-0.1694901392748E+00 -0.2056023149407E+00 -0.1762934534813E+00 -0.3093594503809E-02
-0.1727062785399E+00 -0.2092789291434E+00 -0.1795330476111E+00 -0.3447451022770E-02
-0.1761496724019E+00 -0.2131680918525E+00 -0.1829793491995E+00 -0.3831925721396E-02
-0.1797562375388E+00 -0.2171816795579E+00 -0.1865608210355E+00 -0.4241477661511E-02
-0.1834103291792E+00 -0.2211781982190E+00 -0.1901566078771E+00 -0.4666450269270E-02
-0.1869402368346E+00 -0.2249577870745E+00 -0.1935920712373E+00 -0.5093270803066E-02
-0.1901105521194E+00 -0.2282493798648E+00 -0.1966291680326E+00 -0.5503370079514E-02
-0.1926006785158E+00 -0.2306835475710E+00 -0.1989435862608E+00 -0.5868696167823E-02
-0.1939541379220E+00 -0.2317397306339E+00 -0.2000761182213E+00 -0.6142561868690E-02
-0.1934734910145E+00 -0.2306477843873E+00 -0.1993369994389E+00 -0.6243284512802E-02
-0.1900094040837E+00 -0.2262094018085E+00 -0.1956228387694E+00 -0.6024276795928E-02
-0.1815339869723E+00 -0.2164935041337E+00 -0.1870729208198E+00 -0.5224373269118E-02
-0.1644429025848E+00 -0.1985054118837E+00 -0.1705857078002E+00 -0.3446958931511E-02
-0.1330912103324E+00 -0.1683651472557E+00 -0.1416844880664E+00 -0.4081654271960E-03
-0.8132197432021E-01 -0.1227900698612E+00 -0.9593266076528E-01  0.3209262268997E-02
-0.8344736745204E-02 -0.6209347203828E-01 -0.3310595812824E-01  0.4904989498472E-02
 0.7384185728439E-01  0.6789306626674E-02  0.3789664703820E-01  0.1919111844869E-02
-0.1899528843440E+00 -0.2160703761382E+00 -0.1908309324266E+00  0.4948790887150E-02
-0.1813680238242E+00 -0.2101532599296E+00 -0.1840150033643E+00  0.4570458192027E-02
-0.1723323797323E+00 -0.2031731688051E+00 -0.1764876078126E+00  0.3688196326009E-02
-0.1647136609567E+00 -0.1966425489045E+00 -0.1698374186348E+00  0.2694757469653E-02
-0.1589986159324E+00 -0.1913306950151E+00 -0.1646547761453E+00  0.1853449219307E-02
-0.1549273751273E+00 -0.1873397949819E+00 -0.1608655699513E+00  0.1214342338482E-02
-0.1520937036120E+00 -0.1844749704992E+00 -0.1581872768323E+00  0.7388933682561E-03
-0.1501711865202E+00 -0.1825028212942E+00 -0.1563567836728E+00  0.3804382195025E-03
-0.1489324758941E+00 -0.1812332723512E+00 -0.1551779016753E+00  0.1034742501305E-03
-0.1482211458002E+00 -0.1805237650799E+00 -0.1545101081137E+00 -0.1171641064502E-03
-0.1479287677223E+00 -0.1802698743643E+00 -0.1542533617807E+00 -0.2993311393575E-03
-0.1479799468172E+00 -0.1803962994928E+00 -0.1543368357657E+00 -0.4559350346192E-03
-0.1483224450529E+00 -0.1808496547856E+00 -0.1547108869241E+00 -0.5965800443637E-03
-0.1489206945213E+00 -0.1815931583404E+00 -0.1553415108450E+00 -0.7286472883505E-03
-0.1497514652601E+00 -0.1826027972287E+00 -0.1562065033697E+00 -0.8580008058433E-03
-0.1508009019364E+00 -0.1838645411131E+00 -0.1572927582333E+00 -0.9894542985272E-03
-0.1520624549693E+00 -0.1853722936868E+00 -0.1585943318684E+00 -0.1127087198245E-02
-0.1535353986216E+00 -0.1871263452238E+00 -0.1601110196073E+00 -0.1274466886066E-02
-0.1552237537655E+00 -0.1891321720157E+00 -0.1618472851172E+00 -0.1434816355863E-02
-0.1571354981481E+00 -0.1913994645100E+00 -0.1638114324493E+00 -0.1611154963109E-02
-0.1592819473154E+00 -0.1939412348642E+00 -0.1660148956244E+00 -0.1806429461984E-02
-0.1616773976013E+00 -0.1967730652206E+00 -0.1684717175263E+00 -0.2023663613063E-02
-0.1643387513156E+00 -0.1999120618374E+00 -0.1711978821819E+00 -0.2266111212756E-02
-0.1672848604344E+00 -0.2033750635765E+00 -0.1742101642851E+00 -0.2537356401619E-02
-0.1705346537993E+00 -0.2071750358202E+00 -0.1775235541212E+00 -0.2841154132562E-02
-0.1741012918972E+00 -0.2113133010766E+00 -0.1811448586977E+00 -0.3180597739361E-02
-0.1779791604079E+00 -0.2157658984315E+00 -0.1850601776545E+00 -0.3556568250621E-02
-0.1821241875374E+00 -0.2204656105774E+00 -0.1892172051139E+00 -0.3966441739009E-02
-0.1864392767635E+00 -0.2252904294324E+00 -0.1935129619121E+00 -0.4404010350409E-02
-0.1907714174651E+00 -0.2300601190300E+00 -0.1977908221527E+00 -0.4860321586076E-02
-0.1949101248914E+00 -0.2345283419471E+00 -0.2018360794141E+00 -0.5323395907594E-02
-0.1985741164491E+00 -0.2383617029364E+00 -0.2053598351112E+00 -0.5774620471814E-02
-0.2013692900834E+00 -0.2410916681375E+00 -0.2079566503638E+00 -0.6180881943080E-02
-0.2026925732047E+00 -0.2420160049080E+00 -0.2090130317130E+00 -0.6479763606949E-02
-0.2015337608932E+00 -0.2400102976046E+00 -0.2075257074940E+00 -0.6550354934014E-02
-0.1960243582725E+00 -0.2331439916796E+00 -0.2017091244775E+00 -0.6149202165312E-02
-0.1824504225588E+00 -0.2180232872188E+00 -0.1882226435955E+00 -0.4807807972274E-02
-0.1539430473416E+00 -0.1894145887862E+00 -0.1613780889800E+00 -0.1931076627127E-02
-0.1011127780420E+00 -0.1416642697721E+00 -0.1141052124726E+00  0.2211782627414E-02
-0.1948725538621E-01 -0.7311878993641E-01 -0.4352484130163E-01  0.4766228264651E-02
 0.7701905039001E-01  0.7954737564406E-02  0.3993768033857E-01  0.1550611434980E-02
-0.1919583177817E+00 -0.2185865881059E+00 -0.1929561057672E+00  0.5249285148024E-02
-0.1819102218246E+00 -0.2114593307783E+00 -0.1848836897233E+00  0.4744824537957E-02
-0.1715451533470E+00 -0.2031279663718E+00 -0.1760963662679E+00  0.3659561679310E-02
-0.1632515575865E+00 -0.1956823273058E+00 -0.1686989258994E+00  0.2548931033776E-02
-0.1573559678168E+00 -0.1899479384580E+00 -0.1632328359492E+00  0.1689238531728E-02
-0.1533255694776E+00 -0.1858358966088E+00 -0.1594058890606E+00  0.1076409134118E-02
-0.1506043590678E+00 -0.1829887353108E+00 -0.1567887543580E+00  0.6372989064682E-03
-0.1488128072100E+00 -0.1810950406184E+00 -0.1550566884793E+00  0.3138326518951E-03
-0.1477056628601E+00 -0.1799306912489E+00 -0.1539890864312E+00  0.6781538071068E-04
-0.1471197653449E+00 -0.1793367935268E+00 -0.1534345826697E+00 -0.1260928115963E-03
-0.1469448814818E+00 -0.1792013868710E+00 -0.1532887461258E+00 -0.2851051620787E-03
-0.1471059668892E+00 -0.1794461404962E+00 -0.1534794904711E+00 -0.4213055305678E-03
-0.1475520921547E+00 -0.1800170019862E+00 -0.1539574742462E+00 -0.5435101536672E-03
-0.1482494939489E+00 -0.1808778824164E+00 -0.1546898668917E+00 -0.6584059791777E-03
-0.1491770466744E+00 -0.1820063147109E+00 -0.1556561798511E+00 -0.7712642201546E-03
-0.1503232377580E+00 -0.1833904267812E+00 -0.1568454223334E+00 -0.8863978948433E-03
-0.1516841011063E+00 -0.1850267954123E+00 -0.1582541213637E+00 -0.1007465828184E-02
-0.1532617731982E+00 -0.1869188866508E+00 -0.1598849101291E+00 -0.1137684888904E-02
-0.1550634818406E+00 -0.1890759065318E+00 -0.1617455125351E+00 -0.1279991584926E-02
-0.1571008539345E+00 -0.1915119421838E+00 -0.1638480141756E+00 -0.1437182331879E-02
-0.1593894389151E+00 -0.1942452580460E+00 -0.1662083075717E+00 -0.1612053280718E-02
-0.1619485845006E+00 -0.1972978644778E+00 -0.1688458310198E+00 -0.1807574232449E-02
-0.1648014556764E+00 -0.2006949983810E+00 -0.1717833334070E+00 -0.2027103618364E-02
-0.1679751407166E+00 -0.2044642365741E+00 -0.1750465073267E+00 -0.2274635253057E-02
-0.1715001595299E+00 -0.2086332259835E+00 -0.1786626911913E+00 -0.2554907989699E-02
-0.1754061956005E+00 -0.2132229603765E+00 -0.1826557033092E+00 -0.2872835551312E-02
-0.1797089874848E+00 -0.2182332950969E+00 -0.1870328728134E+00 -0.3231877278543E-02
-0.1843871468561E+00 -0.2236215260375E+00 -0.1917640762600E+00 -0.3632385300049E-02
-0.1893635373610E+00 -0.2292876401629E+00 -0.1967660534362E+00 -0.4071554048406E-02
-0.1945036823622E+00 -0.2350724247152E+00 -0.2019007703264E+00 -0.4544923695801E-02
-0.1996219339509E+00 -0.2407566234585E+00 -0.2069779219824E+00 -0.5046908427604E-02
-0.2044784281706E+00 -0.2460492857803E+00 -0.2117480255569E+00 -0.5568134666785E-02
-0.2087491514283E+00 -0.2505494555503E+00 -0.2158703452799E+00 -0.6089500268167E-02
-0.2119435366659E+00 -0.2536543400317E+00 -0.2188310020479E+00 -0.6570373780149E-02
-0.2132299563366E+00 -0.2543769646809E+00 -0.2197752528782E+00 -0.6924217936711E-02
-0.2110393686490E+00 -0.2509549150009E+00 -0.2171373133155E+00 -0.6959225114258E-02
-0.2019270720524E+00 -0.2398971035401E+00 -0.2076573625285E+00 -0.6214623992328E-02
-0.1781557549256E+00 -0.2146195372660E+00 -0.1846043873300E+00 -0.3800369145430E-02
-0.1262350535441E+00 -0.1660097749750E+00 -0.1373550694040E+00  0.7219691776327E-03
-0.3507553183831E-01 -0.8843273684744E-01 -0.5804888628231E-01  0.4435115445273E-02
 0.8064132788098E-01  0.9038541213931E-02  0.4214953847461E-01  0.1087116434747E-02
-0.1945496681074E+00 -0.2218572106876E+00 -0.1957112330336E+00  0.5576463548908E-02
-0.1824708327552E+00 -0.2129835238304E+00 -0.1858635475952E+00  0.4879010416816E-02
-0.1704284118534E+00 -0.2028438321907E+00 -0.1754379547007E+00  0.3535742362333E-02
-0.1614549067541E+00 -0.1943580479805E+00 -0.1672320887253E+00  0.2322297717559E-02
-0.1554815775405E+00 -0.1882618775906E+00 -0.1615594239116E+00  0.1479809606779E-02
-0.1515683823229E+00 -0.1841071308460E+00 -0.1577674911894E+00  0.9170466656828E-03
-0.1490035098318E+00 -0.1813324593507E+00 -0.1552579055158E+00  0.5268405852722E-03
-0.1473709159498E+00 -0.1795556294191E+00 -0.1536554763234E+00  0.2452977447991E-03
-0.1464138735193E+00 -0.1785235271731E+00 -0.1527205783254E+00  0.3416565198187E-04
-0.1459657518609E+00 -0.1780640348750E+00 -0.1522939997659E+00 -0.1307264717504E-03
-0.1459166839165E+00 -0.1780601138947E+00 -0.1522690949712E+00 -0.2651854603188E-03
-0.1461931932901E+00 -0.1784319585247E+00 -0.1525738213530E+00 -0.3800545016008E-03
-0.1467464222219E+00 -0.1791258921214E+00 -0.1531599877413E+00 -0.4831186586436E-03
-0.1475448911822E+00 -0.1801072153746E+00 -0.1539964900817E+00 -0.5802217935926E-03
-0.1485698802705E+00 -0.1813554708315E+00 -0.1550649150179E+00 -0.6759445648615E-03
-0.1498124068558E+00 -0.1828612520320E+00 -0.1563566196772E+00 -0.7740285178517E-03
-0.1512711957717E+00 -0.1846240047556E+00 -0.1578707442478E+00 -0.8776539502356E-03
-0.1529512936845E+00 -0.1866504835292E+00 -0.1596128352904E+00 -0.9896327327360E-03
-0.1548631331035E+00 -0.1889536687872E+00 -0.1615938968886E+00 -0.1112556285593E-02
-0.1570219385792E+00 -0.1915520267139E+00 -0.1638297636878E+00 -0.1248927452075E-02
-0.1594473851301E+00 -0.1944689926110E+00 -0.1663406975383E+00 -0.1401298770486E-02
-0.1621636889220E+00 -0.1977328536920E+00 -0.1691513750286E+00 -0.1572454791319E-02
-0.1651999780528E+00 -0.2013767487563E+00 -0.1722910616003E+00 -0.1765662159709E-02
-0.1685911198240E+00 -0.2054387565212E+00 -0.1757940418823E+00 -0.1985030681189E-02
-0.1723788512711E+00 -0.2099614238997E+00 -0.1796999293303E+00 -0.2235920729753E-02
-0.1766100170143E+00 -0.2149871245618E+00 -0.1840506565408E+00 -0.2524806537418E-02
-0.1813242972584E+00 -0.2205433530477E+00 -0.1888777956439E+00 -0.2857719895479E-02
-0.1865264591504E+00 -0.2266164501960E+00 -0.1941771673928E+00 -0.3238089109181E-02
-0.1921609441068E+00 -0.2331310166420E+00 -0.1998872215519E+00 -0.3666494978771E-02
-0.1981106987615E+00 -0.2399489643778E+00 -0.2058880416754E+00 -0.4142776174773E-02
-0.2042132771602E+00 -0.2468783710318E+00 -0.2120130746503E+00 -0.4667256037457E-02
-0.2102704593129E+00 -0.2536746407793E+00 -0.2180541970433E+00 -0.5238890146587E-02
-0.2160320793293E+00 -0.2600159801006E+00 -0.2237425879321E+00 -0.5851493194961E-02
-0.2211354599807E+00 -0.2654291689710E+00 -0.2286853756073E+00 -0.6486475096040E-02
-0.2249529187893E+00 -0.2691178791728E+00 -0.2322132750422E+00 -0.7094393484833E-02
-0.2262970649665E+00 -0.2696351699479E+00 -0.2330881504098E+00 -0.7555299975406E-02
-0.2224616817650E+00 -0.2638932449662E+00 -0.2285868155637E+00 -0.7522857343444E-02
-0.2057936877879E+00 -0.2445066802649E+00 -0.2116411729848E+00 -0.5964679254152E-02
-0.1582958128251E+00 -0.1977877888734E+00 -0.1673592927983E+00 -0.1446363805581E-02
-0.5754820640074E-01 -0.1104321931933E+00 -0.7895078780922E-01  0.3738564576647E-02
 0.8475413368533E-01  0.9840674574109E-02  0.4445955988194E-01  0.4977231796821E-03
-0.1979877514298E+00 -0.2262310293980E+00 -0.1993828269891E+00  0.5932775516345E-02
-0.1829650871553E+00 -0.2147051898712E+00 -0.1869050302025E+00  0.4929705963945E-02
-0.1688001773638E+00 -0.2021102745562E+00 -0.1743279124024E+00  0.3270574274110E-02
-0.1592456143993E+00 -0.1925344974431E+00 -0.1653366525659E+00  0.2002754017075E-02
-0.1533645627130E+00 -0.1862285805811E+00 -0.1596087773482E+00  0.1229584865274E-02
-0.1496540440383E+00 -0.1821367208996E+00 -0.1559416595208E+00  0.7415291726310E-03
-0.1472904837868E+00 -0.1794976943417E+00 -0.1535904437204E+00  0.4115905871145E-03
-0.1458463113809E+00 -0.1778812811026E+00 -0.1521519684673E+00  0.1779458746083E-03
-0.1450580161602E+00 -0.1770105055260E+00 -0.1513722051925E+00  0.4772477395107E-05
-0.1447599582523E+00 -0.1767051219704E+00 -0.1510885877047E+00 -0.1294701651207E-03
-0.1448448864777E+00 -0.1768460360985E+00 -0.1511947336108E+00 -0.2384699078091E-03
-0.1452421404155E+00 -0.1773537564386E+00 -0.1516200715214E+00 -0.3314600786265E-03
-0.1459057371503E+00 -0.1781761774885E+00 -0.1523184998802E+00 -0.4149833752259E-03
-0.1468069559967E+00 -0.1792807391219E+00 -0.1532612167057E+00 -0.4939170974571E-03
-0.1479297849442E+00 -0.1806494875172E+00 -0.1544322580569E+00 -0.5720707998097E-03
-0.1492679523829E+00 -0.1822757970078E+00 -0.1558255622136E+00 -0.6525563895669E-03
-0.1508229748590E+00 -0.1841621758648E+00 -0.1574430208402E+00 -0.7380270591739E-03
-0.1526028486742E+00 -0.1863187685415E+00 -0.1592931600914E+00 -0.8308426732645E-03
-0.1546211984004E+00 -0.1887623547150E+00 -0.1613902699642E+00 -0.9331975228873E-03
-0.1568967813147E+00 -0.1915157308527E+00 -0.1637538807187E+00 -0.1047236662348E-02
-0.1594532703314E+00 -0.1946073718541E+00 -0.1664085018272E+00 -0.1175182651211E-02
-0.1623195370092E+00 -0.1980716081804E+00 -0.1693838382391E+00 -0.1319510040172E-02
-0.1655303247607E+00 -0.2019491076607E+00 -0.1727153332381E+00 -0.1483200179822E-02
-0.1691276583804E+00 -0.2062878794238E+00 -0.1764453027680E+00 -0.1670155895189E-02
-0.1731636207485E+00 -0.2111449160769E+00 -0.1806250123080E+00 -0.1885869119525E-02
-0.1777022663835E+00 -0.2165851551907E+00 -0.1853150881399E+00 -0.2137904850508E-02
-0.1828101514344E+00 -0.2226682569689E+00 -0.1905748519496E+00 -0.2434755225844E-02
-0.1885230207165E+00 -0.2294158079487E+00 -0.1964312494727E+00 -0.2783109276410E-02
-0.1948090377676E+00 -0.2367801252890E+00 -0.2028469066366E+00 -0.3187068046386E-02
-0.2015663851030E+00 -0.2446427304933E+00 -0.2097182843302E+00 -0.3650647573587E-02
-0.2086520719792E+00 -0.2528362468793E+00 -0.2168995098635E+00 -0.4179362695413E-02
-0.2159082194632E+00 -0.2611637475175E+00 -0.2242238244809E+00 -0.4778982577101E-02
-0.2231584820957E+00 -0.2693889710779E+00 -0.2314973029916E+00 -0.5453642644215E-02
-0.2301745633659E+00 -0.2771900955411E+00 -0.2384613896863E+00 -0.6204002778163E-02
-0.2365651808516E+00 -0.2840199929173E+00 -0.2446750316714E+00 -0.7017026666056E-02
-0.2415139165744E+00 -0.2888092163187E+00 -0.2492518724598E+00 -0.7839807204286E-02
-0.2433682912263E+00 -0.2893860591727E+00 -0.2503945446875E+00 -0.8519024601225E-02
-0.2363187170485E+00 -0.2791129767063E+00 -0.2422528960648E+00 -0.8222154562063E-02
-0.1991304864019E+00 -0.2395572294293E+00 -0.2061832264407E+00 -0.4474801375416E-02
-0.9113838000623E-01 -0.1433935378847E+00 -0.1102300014087E+00  0.2345589789557E-02
 0.8913133020973E-01  0.9685071746368E-02  0.4644370891936E-01 -0.2881845295689E-03
-0.2027294125023E+00 -0.2323208087903E+00 -0.2044736040075E+00  0.6314625896684E-02
-0.1831755167421E+00 -0.2164802796548E+00 -0.1878382243066E+00  0.4810335622797E-02
-0.1663637460394E+00 -0.2005432351348E+00 -0.1724462811519E+00  0.2802938887001E-02
-0.1565663472080E+00 -0.1900697949132E+00 -0.1629189867970E+00  0.1591167616186E-02
-0.1510147436052E+00 -0.1838267918276E+00 -0.1573755216534E+00  0.9505293821325E-03
-0.1475808907398E+00 -0.1799103722355E+00 -0.1539208935984E+00  0.5570336856970E-03
-0.1454667286888E+00 -0.1774794389884E+00 -0.1517846988083E+00  0.2967927739724E-03
-0.1442409977754E+00 -0.1760711124901E+00 -0.1505466918248E+00  0.1154586981216E-03
-0.1436395143995E+00 -0.1753916797059E+00 -0.1499446612295E+00 -0.1785223742777E-04
-0.1435036983413E+00 -0.1752607438534E+00 -0.1498192878315E+00 -0.1205861291952E-03
-0.1437304740776E+00 -0.1755598492129E+00 -0.1500664519465E+00 -0.2037934139553E-03
-0.1442535435125E+00 -0.1762120971538E+00 -0.1506188511131E+00 -0.2747778500381E-03
-0.1450305095405E+00 -0.1771681532603E+00 -0.1514333715164E+00 -0.3386863905928E-03
-0.1460359054884E+00 -0.1783984108244E+00 -0.1524841286670E+00 -0.3993366026278E-03
-0.1472567135706E+00 -0.1798879206803E+00 -0.1537579780979E+00 -0.4597086301954E-03
-0.1486895477999E+00 -0.1816331559532E+00 -0.1552516707640E+00 -0.5222414250470E-03
-0.1503388080413E+00 -0.1836398735457E+00 -0.1569699803459E+00 -0.5890235258031E-03
-0.1522154708422E+00 -0.1859216966199E+00 -0.1589244687072E+00 -0.6619246022252E-03
-0.1543363303789E+00 -0.1884992098595E+00 -0.1611327039120E+00 -0.7426978628126E-03
-0.1567235998627E+00 -0.1913994630506E+00 -0.1636178395692E+00 -0.8330748929983E-03
-0.1594048080265E+00 -0.1946557973217E+00 -0.1664084845137E+00 -0.9348722954176E-03
-0.1624132436424E+00 -0.1983082793231E+00 -0.1695391157938E+00 -0.1050142816726E-02
-0.1657888884824E+00 -0.2024046145484E+00 -0.1730509464245E+00 -0.1181406797713E-02
-0.1695802391480E+00 -0.2070019052184E+00 -0.1769936078522E+00 -0.1332047652853E-02
-0.1738483094604E+00 -0.2121702527730E+00 -0.1814287242497E+00 -0.1507093699536E-02
-0.1786732610413E+00 -0.2179970833373E+00 -0.1864350618580E+00 -0.1714413548039E-02
-0.1841515839160E+00 -0.2245793793579E+00 -0.1921035527387E+00 -0.1964584330974E-02
-0.1903570798553E+00 -0.2319831642308E+00 -0.1984999147205E+00 -0.2267845925890E-02
-0.1972850557091E+00 -0.2401929952839E+00 -0.2056146839667E+00 -0.2632320869693E-02
-0.2048449734923E+00 -0.2491059420609E+00 -0.2133569303100E+00 -0.3066354838111E-02
-0.2129077476990E+00 -0.2585731420606E+00 -0.2215960181870E+00 -0.3579869710483E-02
-0.2213506575399E+00 -0.2684413301707E+00 -0.2302022342240E+00 -0.4183175703075E-02
-0.2300738395002E+00 -0.2785666879294E+00 -0.2390610478919E+00 -0.4887507892702E-02
-0.2389702649090E+00 -0.2887774659896E+00 -0.2480414335224E+00 -0.5705812515432E-02
-0.2479184949958E+00 -0.2988393640215E+00 -0.2569761937381E+00 -0.6657617591338E-02
-0.2565010412697E+00 -0.3081241074343E+00 -0.2653738198909E+00 -0.7743658195731E-02
-0.2638367299624E+00 -0.3153800738449E+00 -0.2722318977894E+00 -0.8962040381234E-02
-0.2680116293778E+00 -0.3172240972746E+00 -0.2750607915266E+00 -0.1011191217934E-01
-0.2501077941877E+00 -0.2940361428230E+00 -0.2557476503951E+00 -0.8378211001865E-02
-0.1434404694475E+00 -0.1952745255858E+00 -0.1591960476657E+00 -0.3437432848896E-03
 0.9252339609859E-01  0.6378858588383E-02  0.4648405970288E-01 -0.1473877805104E-02
-0.2097014199237E+00 -0.2413528333708E+00 -0.2119954990484E+00  0.6693346208836E-02
-0.1824964757159E+00 -0.2177430897899E+00 -0.1881125957877E+00  0.4341297900233E-02
-0.1626593954191E+00 -0.1974707253255E+00 -0.1692611567500E+00  0.2072113440957E-02
-0.1534748683688E+00 -0.1869254156478E+00 -0.1599881334878E+00  0.1119624753221E-02
-0.1484478525187E+00 -0.1810540937454E+00 -0.1548659147441E+00  0.6593432074919E-03
-0.1453432342945E+00 -0.1774115360482E+00 -0.1516947420611E+00  0.3721201165125E-03
-0.1435395787335E+00 -0.1752810984133E+00 -0.1498457182590E+00  0.1890621749499E-03
-0.1425565081525E+00 -0.1741252643981E+00 -0.1488404330988E+00  0.6180899902461E-04
-0.1421608973143E+00 -0.1736691708588E+00 -0.1484401320414E+00 -0.3095243941400E-04
-0.1421985627099E+00 -0.1737325536995E+00 -0.1484876247124E+00 -0.1022560824464E-03
-0.1425747622356E+00 -0.1742030651993E+00 -0.1488855788944E+00 -0.1599533382853E-03
-0.1432283468767E+00 -0.1750081223134E+00 -0.1495711405194E+00 -0.2092609825625E-03
-0.1441213910798E+00 -0.1761025857014E+00 -0.1505052690872E+00 -0.2538258845726E-03
-0.1452321078087E+00 -0.1774605824279E+00 -0.1516655644112E+00 -0.2963549384424E-03
-0.1465507587854E+00 -0.1790706797385E+00 -0.1530420761063E+00 -0.3389647471771E-03
-0.1480770029469E+00 -0.1809327567404E+00 -0.1546345870530E+00 -0.3833950243757E-03
-0.1498182056600E+00 -0.1830559944466E+00 -0.1564508740501E+00 -0.4311442712625E-03
-0.1517883445596E+00 -0.1854575688172E+00 -0.1585055792871E+00 -0.4835636146801E-03
-0.1540073517946E+00 -0.1881618573229E+00 -0.1608195282852E+00 -0.5419304751284E-03
-0.1565008099776E+00 -0.1912000620778E+00 -0.1634194098660E+00 -0.6075175413957E-03
-0.1592999489820E+00 -0.1946101815875E+00 -0.1663377613677E+00 -0.6816726613351E-03
-0.1624422271202E+00 -0.1984376607689E+00 -0.1696135473079E+00 -0.7659344891842E-03
-0.1659724437140E+00 -0.2027366334632E+00 -0.1732932662732E+00 -0.8622135192014E-03
-0.1699449413041E+00 -0.2075723425919E+00 -0.1774331234311E+00 -0.9731181286113E-03
-0.1744279807546E+00 -0.2130258860073E+00 -0.1821033173781E+00 -0.1102615656469E-02
-0.1795146953344E+00 -0.2192045224290E+00 -0.1873980323488E+00 -0.1257681774048E-02
-0.1853336847406E+00 -0.2262473618581E+00 -0.1934430919014E+00 -0.1449983204265E-02
-0.1920078391437E+00 -0.2342795930599E+00 -0.2003550931357E+00 -0.1693624199168E-02
-0.1995656854511E+00 -0.2433258749613E+00 -0.2081590333938E+00 -0.2002019523497E-02
-0.2079215234632E+00 -0.2532909675570E+00 -0.2167698707795E+00 -0.2388669718366E-02
-0.2169505618614E+00 -0.2640325077000E+00 -0.2260620426938E+00 -0.2867027593662E-02
-0.2265618812722E+00 -0.2754364111002E+00 -0.2359391974150E+00 -0.3449331475380E-02
-0.2367193707540E+00 -0.2874416929058E+00 -0.2463556999201E+00 -0.4148910914548E-02
-0.2474632653161E+00 -0.3000562586181E+00 -0.2573341762490E+00 -0.4985988134526E-02
-0.2588255246444E+00 -0.3132704306936E+00 -0.2688850990089E+00 -0.5990252741425E-02
-0.2711090085332E+00 -0.3272569241574E+00 -0.2812319883646E+00 -0.7231310200091E-02
-0.2835685177052E+00 -0.3410939565371E+00 -0.2935913628939E+00 -0.8712442566825E-02
-0.2975177572752E+00 -0.3553876999882E+00 -0.3068655649138E+00 -0.1087290601488E-01
-0.3095467474515E+00 -0.3616922922700E+00 -0.3154823486691E+00 -0.1255081951607E-01
-0.2282877002536E+00 -0.2812389012735E+00 -0.2394775027178E+00 -0.5261194307700E-02
 0.9006398976548E-01 -0.7310014386939E-02  0.3889436842791E-01 -0.3712061370223E-02
-0.2212893344499E+00 -0.2563566471114E+00 -0.2244936113338E+00  0.6930916117643E-02
-0.1788737765935E+00 -0.2162246281022E+00 -0.1856962502070E+00  0.3137629992745E-02
-0.1573083241070E+00 -0.1920904652356E+00 -0.1642174309910E+00  0.1104830127220E-02
-0.1503214463143E+00 -0.1834253423259E+00 -0.1568609906609E+00  0.6632419660599E-03
-0.1455552595699E+00 -0.1777890037470E+00 -0.1519718037589E+00  0.3636154487742E-03
-0.1429839327761E+00 -0.1746759388391E+00 -0.1493001396591E+00  0.2012775248993E-03
-0.1415046877379E+00 -0.1728981579225E+00 -0.1477693374604E+00  0.9452808549244E-04
-0.1407990699858E+00 -0.1720500107556E+00 -0.1470390679485E+00  0.2152066776986E-04
-0.1406243295605E+00 -0.1718459359672E+00 -0.1468610247981E+00 -0.3173268147042E-04
-0.1408468044764E+00 -0.1721235825936E+00 -0.1470960819229E+00 -0.7261119866311E-04
-0.1413792915144E+00 -0.1727779514953E+00 -0.1476539042146E+00 -0.1057507466878E-03
-0.1421677305320E+00 -0.1737435977250E+00 -0.1484783242807E+00 -0.1341801536126E-03
-0.1431792070233E+00 -0.1749807224295E+00 -0.1495351668428E+00 -0.1600297853181E-03
-0.1443960863148E+00 -0.1764680167814E+00 -0.1508061284552E+00 -0.1848844969293E-03
-0.1458121558462E+00 -0.1781980416795E+00 -0.1522847928371E+00 -0.2099910830653E-03
-0.1474302682079E+00 -0.1801743763125E+00 -0.1539741829246E+00 -0.2363814937970E-03
-0.1492608236343E+00 -0.1824097842541E+00 -0.1558851857076E+00 -0.2649517975390E-03
-0.1513208115610E+00 -0.1849250519944E+00 -0.1580355558710E+00 -0.2965166308961E-03
-0.1536332619121E+00 -0.1877483209315E+00 -0.1604493439365E+00 -0.3318528859248E-03
-0.1562270323304E+00 -0.1909148250445E+00 -0.1631566729662E+00 -0.3717403943340E-03
-0.1591368901054E+00 -0.1944669848671E+00 -0.1661938212370E+00 -0.4170104890180E-03
-0.1624042065257E+00 -0.1984552282040E+00 -0.1696039343229E+00 -0.4686190575410E-03
-0.1660781869823E+00 -0.2029394562955E+00 -0.1734382923405E+00 -0.5277566361342E-03
-0.1702182803296E+00 -0.2079918861337E+00 -0.1777587782378E+00 -0.5960646890744E-03
-0.1748990054179E+00 -0.2137027226748E+00 -0.1826428122035E+00 -0.6760549834105E-03
-0.1802207567809E+00 -0.2201924481771E+00 -0.1881942063303E+00 -0.7723363019714E-03
-0.1863418902164E+00 -0.2276424084912E+00 -0.1945726203926E+00 -0.8953184371632E-03
-0.1934524463735E+00 -0.2362620902716E+00 -0.2019658322232E+00 -0.1062805074987E-02
-0.2016269530342E+00 -0.2461329352615E+00 -0.2104471474990E+00 -0.1296429502197E-02
-0.2107717717911E+00 -0.2571507012613E+00 -0.2199235623346E+00 -0.1617059952752E-02
-0.2207537110227E+00 -0.2691612123396E+00 -0.2302600139803E+00 -0.2040621558856E-02
-0.2315048948838E+00 -0.2820784746166E+00 -0.2413841836652E+00 -0.2577909447522E-02
-0.2430577294412E+00 -0.2959270193994E+00 -0.2533228319551E+00 -0.3239715340786E-02
-0.2555431185969E+00 -0.3108462217918E+00 -0.2662029899827E+00 -0.4043578612798E-02
-0.2693188966093E+00 -0.3272046221031E+00 -0.2803660537948E+00 -0.5024056838337E-02
-0.2846269008893E+00 -0.3453173161911E+00 -0.2960737820278E+00 -0.6239862101136E-02
-0.3035365306743E+00 -0.3670547309627E+00 -0.3151778929694E+00 -0.7867405662283E-02
-0.3220403197878E+00 -0.3892122362469E+00 -0.3342887013363E+00 -0.9851577653934E-02
-0.3649823769407E+00 -0.4322069711466E+00 -0.3746789936010E+00 -0.1482516178924E-01
-0.3688318887664E+00 -0.4281026030316E+00 -0.3745592111451E+00 -0.1305737787694E-01
 0.6284971843851E-01 -0.5778595925900E-01  0.2379966814373E-02 -0.9226451745263E-02
-0.2463759452285E+00 -0.2878688863712E+00 -0.2510950708519E+00  0.6302209403882E-02
-0.1625852257589E+00 -0.2004773300084E+00 -0.1706394012106E+00  0.4108845353446E-03
-0.1540045003084E+00 -0.1878596321217E+00 -0.1606761422422E+00  0.3912811414710E-03
-0.1461631593625E+00 -0.1786938825417E+00 -0.1526828096950E+00  0.1829623469727E-03
-0.1425983241108E+00 -0.1742624810123E+00 -0.1489245784078E+00  0.1037139009123E-03
-0.1404544219792E+00 -0.1716638553747E+00 -0.1466955903563E+00  0.5305368689491E-04
-0.1393830229249E+00 -0.1703520617439E+00 -0.1455754897943E+00  0.2106159777799E-04
-0.1389699797578E+00 -0.1698493055911E+00 -0.1451450641139E+00 -0.1142037542142E-05
-0.1390340133187E+00 -0.1699279773551E+00 -0.1452121356167E+00 -0.1733269333363E-04
-0.1394507198572E+00 -0.1704377258672E+00 -0.1456475694905E+00 -0.2982817917450E-04
-0.1401459750954E+00 -0.1712876807885E+00 -0.1463738182654E+00 -0.4002172921853E-04
-0.1410730712611E+00 -0.1724208913707E+00 -0.1473421624370E+00 -0.4884856092985E-04
-0.1422049665513E+00 -0.1738043111871E+00 -0.1485243605371E+00 -0.5696962190556E-04
-0.1435285194212E+00 -0.1754218962763E+00 -0.1499066953778E+00 -0.6488390483480E-04
-0.1450412866221E+00 -0.1772706635597E+00 -0.1514866165854E+00 -0.7298921051104E-04
-0.1467494383965E+00 -0.1793581537450E+00 -0.1532705683065E+00 -0.8161949357318E-04
-0.1486664682402E+00 -0.1817008527510E+00 -0.1552726408658E+00 -0.9106906977260E-04
-0.1508123769342E+00 -0.1843231965511E+00 -0.1575137195381E+00 -0.1016088319704E-03
-0.1532132414934E+00 -0.1872570437724E+00 -0.1600210340749E+00 -0.1135002917965E-03
-0.1559010999848E+00 -0.1905415314562E+00 -0.1628280367773E+00 -0.1270089002398E-03
-0.1589140786489E+00 -0.1942232399094E+00 -0.1659745397224E+00 -0.1424174081086E-03
-0.1622972114539E+00 -0.1983571755367E+00 -0.1695075618856E+00 -0.1600554618503E-03
-0.1661036986457E+00 -0.2030083162072E+00 -0.1734826469809E+00 -0.1803293561255E-03
-0.1703973907425E+00 -0.2082546422187E+00 -0.1779664554918E+00 -0.2037995307698E-03
-0.1752579008860E+00 -0.2141933115499E+00 -0.1830420698449E+00 -0.2313282562921E-03
-0.1807904834002E+00 -0.2209529651430E+00 -0.1888194208153E+00 -0.2644192694473E-03
-0.1871632805646E+00 -0.2287357897763E+00 -0.1954725630602E+00 -0.3074219214551E-03
-0.1946630761337E+00 -0.2378791834705E+00 -0.2032948620140E+00 -0.3789736355935E-03
-0.2034443062999E+00 -0.2485660342720E+00 -0.2124448600688E+00 -0.5158069119048E-03
-0.2133732485863E+00 -0.2606401700767E+00 -0.2227863067716E+00 -0.7513580507283E-03
-0.2242909050166E+00 -0.2739083415698E+00 -0.2341536458956E+00 -0.1101617060131E-02
-0.2361519997390E+00 -0.2883081842817E+00 -0.2464962864897E+00 -0.1571980337795E-02
-0.2490342314927E+00 -0.3039254270051E+00 -0.2598910394940E+00 -0.2165784784857E-02
-0.2632029826057E+00 -0.3210629901580E+00 -0.2746050071990E+00 -0.2890178958212E-02
-0.2790750151082E+00 -0.3402338271040E+00 -0.2910751558397E+00 -0.3766765383921E-02
-0.2978189082571E+00 -0.3627135298170E+00 -0.3104502458948E+00 -0.4834472406654E-02
-0.3197080857787E+00 -0.3892825572604E+00 -0.3332256022284E+00 -0.6214670394635E-02
-0.3542094954507E+00 -0.4288089965868E+00 -0.3680186912576E+00 -0.8072184938778E-02
-0.3771898870117E+00 -0.4641455455462E+00 -0.3954276533022E+00 -0.1099397154528E-01
-0.5869431582985E+00 -0.6630921570128E+00 -0.5875165981963E+00 -0.1978456095765E-01
-0.5537894146591E-01 -0.2431516634069E+00 -0.1403093842902E+00 -0.2534553982882E-01
-0.1782515142640E+01 -0.2873767161834E+01 -0.2188452683103E+01 -0.8884572959030E+00
-0.1460904838014E+01 -0.2964845491494E+01 -0.2080102654869E+01 -0.7363290232500E+00
-0.1157570427776E+01 -0.3030177727870E+01 -0.1968241633154E+01 -0.6058153341118E+00
-0.8832023285720E+00 -0.3075505345771E+01 -0.1860592606941E+01 -0.4954379871109E+00
-0.6376429556185E+00 -0.3100872755030E+01 -0.1757102384005E+01 -0.4042944046645E+00
-0.4207340065898E+00 -0.3108155943084E+01 -0.1658578276346E+01 -0.3310835698752E+00
-0.2315853399654E+00 -0.3098843202177E+01 -0.1565301414807E+01 -0.2743177015593E+00
-0.6983653086147E-01 -0.3074746789021E+01 -0.1477954160345E+01 -0.2326286757823E+00
 0.6458460813681E-01 -0.3038193976202E+01 -0.1397596402991E+01 -0.2050815085902E+00
 0.1720923475742E+00 -0.2992715296549E+01 -0.1325692786018E+01 -0.1913579694280E+00
 0.2544956061249E+00 -0.2942464678917E+01 -0.1263345464212E+01 -0.1911853787427E+00
 0.3145898877845E+00 -0.2890999079252E+01 -0.1210912319990E+01 -0.2035850198489E+00
 0.3549569280925E+00 -0.2840821186654E+01 -0.1168356201524E+01 -0.2271688866531E+00
 0.3775524085467E+00 -0.2793168528405E+01 -0.1135339576333E+01 -0.2605799970914E+00
 0.3834575846547E+00 -0.2748256887845E+01 -0.1111455672499E+01 -0.3026225485310E+00
 0.3729371868163E+00 -0.2705641109636E+01 -0.1096370843725E+01 -0.3524559656330E+00
 0.3470447725987E+00 -0.2663531005132E+01 -0.1088748529290E+01 -0.4096380338705E+00
 0.3010650762052E+00 -0.2624250106440E+01 -0.1091896964211E+01 -0.4730646423665E+00
 0.2380810856599E+00 -0.2584563150460E+01 -0.1102846570456E+01 -0.5424405524969E+00
 0.1412826667900E+00 -0.2571004951554E+01 -0.1141969473839E+01 -0.6080900827568E+00
-0.1826067154015E+01 -0.2878356836833E+01 -0.2211079275699E+01 -0.8494881790342E+00
-0.1491240375124E+01 -0.2966714078958E+01 -0.2095238593418E+01 -0.7032466850227E+00
-0.1183245447518E+01 -0.3037741677372E+01 -0.1983863948698E+01 -0.5801241501110E+00
-0.9028493361239E+00 -0.3087973507767E+01 -0.1875686736629E+01 -0.4765712911625E+00
-0.6521226234711E+00 -0.3119328401350E+01 -0.1772581981666E+01 -0.3915604139194E+00
-0.4303571697941E+00 -0.3133252037106E+01 -0.1674896327243E+01 -0.3236337184365E+00
-0.2368576119782E+00 -0.3131517946146E+01 -0.1583136512318E+01 -0.2712622583290E+00
-0.7115163049572E-01 -0.3115848924993E+01 -0.1497890261080E+01 -0.2330607715328E+00
 0.6692792430990E-01 -0.3088330517451E+01 -0.1420059218776E+01 -0.2081169714587E+00
 0.1780442177354E+00 -0.3051838807584E+01 -0.1350683457229E+01 -0.1961956831385E+00
 0.2640312351728E+00 -0.3010025251069E+01 -0.1290617187471E+01 -0.1972360884800E+00
 0.3274775150734E+00 -0.2966433760379E+01 -0.1240309435294E+01 -0.2105894128611E+00
 0.3708692702804E+00 -0.2923715369814E+01 -0.1199837666781E+01 -0.2351620882188E+00
 0.3960791088646E+00 -0.2883399998854E+01 -0.1169040818295E+01 -0.2697801579495E+00
 0.4041794837065E+00 -0.2845999724734E+01 -0.1147655513283E+01 -0.3133667513855E+00
 0.3957725249916E+00 -0.2811183949702E+01 -0.1135243369614E+01 -0.3650945913979E+00
 0.3699639813211E+00 -0.2779081475247E+01 -0.1132285222145E+01 -0.4240704542512E+00
 0.3247220817464E+00 -0.2748747464294E+01 -0.1139291929797E+01 -0.4889585507540E+00
 0.2514786667315E+00 -0.2723951067602E+01 -0.1162062028409E+01 -0.5583982736529E+00
 0.1538811770131E+00 -0.2696814659243E+01 -0.1195178736648E+01 -0.6331728311538E+00
-0.1865092034596E+01 -0.2879936163129E+01 -0.2230163252931E+01 -0.8103188019449E+00
-0.1521736618538E+01 -0.2971965575929E+01 -0.2112040031399E+01 -0.6700713100153E+00
-0.1206584367489E+01 -0.3046178823816E+01 -0.1998798699913E+01 -0.5535108208706E+00
-0.9209112826326E+00 -0.3101428965031E+01 -0.1890499916402E+01 -0.4565334815924E+00
-0.6651454763370E+00 -0.3138223020713E+01 -0.1787583193613E+01 -0.3773633068715E+00
-0.4389115822508E+00 -0.3158371185108E+01 -0.1690722900659E+01 -0.3144388023268E+00
-0.2413826530199E+00 -0.3163604738224E+01 -0.1600344073885E+01 -0.2662062174817E+00
-0.7202216427521E-01 -0.3155646271407E+01 -0.1517004164771E+01 -0.2313268181269E+00
 0.6954563421766E-01 -0.3136378769449E+01 -0.1441411573559E+01 -0.2089593038491E+00
 0.1841553529855E+00 -0.3108338611009E+01 -0.1374366131271E+01 -0.1989281228159E+00
 0.2736353396030E+00 -0.3074822522184E+01 -0.1316557975813E+01 -0.2012767578860E+00
 0.3404447114959E+00 -0.3039216690584E+01 -0.1268422830172E+01 -0.2155907333500E+00
 0.3869376808344E+00 -0.3004245748121E+01 -0.1230134791625E+01 -0.2410299389180E+00
 0.4149030066851E+00 -0.2971635082963E+01 -0.1201664075851E+01 -0.2766043290905E+00
 0.4254173218893E+00 -0.2942123065635E+01 -0.1182851699560E+01 -0.3213403414268E+00
 0.4186384441055E+00 -0.2915927987827E+01 -0.1173726085549E+01 -0.3743475327084E+00
 0.3937317574379E+00 -0.2892797671423E+01 -0.1174560979573E+01 -0.4346554104812E+00
 0.3469473110764E+00 -0.2872619108219E+01 -0.1187065744657E+01 -0.5010160983060E+00
 0.2749815047990E+00 -0.2852765874034E+01 -0.1211558653540E+01 -0.5738870924696E+00
 0.1808418872449E+00 -0.2827937681851E+01 -0.1244135023465E+01 -0.6563809151574E+00
-0.1902399620478E+01 -0.2881824835205E+01 -0.2248585494171E+01 -0.7703579086023E+00
-0.1550460620827E+01 -0.2977887069240E+01 -0.2128323414332E+01 -0.6363557677268E+00
-0.1228536922819E+01 -0.3055903110304E+01 -0.2013686815567E+01 -0.5261713882627E+00
-0.9373417035731E+00 -0.3115464156830E+01 -0.1904818754390E+01 -0.4354183602944E+00
-0.6768923309240E+00 -0.3157371272608E+01 -0.1802103893660E+01 -0.3618355597859E+00
-0.4464669955465E+00 -0.3183248519446E+01 -0.1705966292046E+01 -0.3036630201740E+00
-0.2452098067206E+00 -0.3194902402554E+01 -0.1616852738359E+01 -0.2593552912535E+00
-0.7243012392920E-01 -0.3194019443914E+01 -0.1535231296887E+01 -0.2276460816739E+00
 0.7244558041645E-01 -0.3182387321890E+01 -0.1461672618492E+01 -0.2077786187341E+00
 0.1904125638118E+00 -0.3162332706603E+01 -0.1396802467112E+01 -0.1996199037957E+00
 0.2832956939733E+00 -0.3136888197959E+01 -0.1341188476873E+01 -0.2032713449012E+00
 0.3534391278891E+00 -0.3109271523909E+01 -0.1295241226129E+01 -0.2184851515135E+00
 0.4030718190949E+00 -0.3082206549845E+01 -0.1259193323452E+01 -0.2446296973834E+00
 0.4338893844086E+00 -0.3057544893697E+01 -0.1233118089365E+01 -0.2808825720107E+00
 0.4468093815080E+00 -0.3036278143168E+01 -0.1217050317980E+01 -0.3263652240435E+00
 0.4418674504424E+00 -0.3018720960460E+01 -0.1211121149708E+01 -0.3802333609041E+00
 0.4178108363653E+00 -0.3004732887458E+01 -0.1215853364014E+01 -0.4416430368462E+00
 0.3720557681922E+00 -0.2992990996860E+01 -0.1231839557474E+01 -0.5100814722039E+00
 0.3026479487079E+00 -0.2980836401893E+01 -0.1258748572997E+01 -0.5869357517239E+00
 0.2114383839943E+00 -0.2965424517762E+01 -0.1294373482871E+01 -0.6753168243167E+00
-0.1938064759719E+01 -0.2884182355340E+01 -0.2266456144078E+01 -0.7295338771645E+00
-0.1577553428193E+01 -0.2984453942278E+01 -0.2144143464122E+01 -0.6019702180216E+00
-0.1248941800629E+01 -0.3066292808923E+01 -0.2028160266489E+01 -0.4981069006710E+00
-0.9523904687497E+00 -0.3129950377232E+01 -0.1918700197612E+01 -0.4133471623733E+00
-0.6874412771525E+00 -0.3176517535337E+01 -0.1816060641870E+01 -0.3451019497951E+00
-0.4531140280855E+00 -0.3207679564582E+01 -0.1720572988554E+01 -0.2914618812947E+00
-0.2483813391468E+00 -0.3225232856059E+01 -0.1632598671747E+01 -0.2508872403906E+00
-0.7239817858076E-01 -0.3230873520190E+01 -0.1552537698422E+01 -0.2221962434903E+00
 0.7561219575611E-01 -0.3226344582313E+01 -0.1480844221682E+01 -0.2047152189436E+00
 0.1967927826434E+00 -0.3213845477549E+01 -0.1418014766606E+01 -0.1983445259946E+00
 0.2929730192540E+00 -0.3196207962085E+01 -0.1364520423130E+01 -0.2032193126226E+00
 0.3663966930735E+00 -0.3176490881104E+01 -0.1320744268374E+01 -0.2192133312955E+00
 0.4191729778408E+00 -0.3157379314751E+01 -0.1286956978348E+01 -0.2458638870757E+00
 0.4528726912047E+00 -0.3140813236732E+01 -0.1263332056398E+01 -0.2824998658831E+00
 0.4683047800572E+00 -0.3127913841323E+01 -0.1250016258795E+01 -0.3283667519985E+00
 0.4653673952394E+00 -0.3119106614424E+01 -0.1247257433017E+01 -0.3827543227760E+00
 0.4430020003378E+00 -0.3114055555892E+01 -0.1255395171111E+01 -0.4451367166013E+00
 0.3993077929330E+00 -0.3111411812981E+01 -0.1274688889423E+01 -0.5155864172102E+00
 0.3329821308106E+00 -0.3109216065524E+01 -0.1304829949315E+01 -0.5957939161395E+00
 0.2452153854148E+00 -0.3106004484828E+01 -0.1344570876724E+01 -0.6885083538259E+00
-0.1972099182138E+01 -0.2887034197940E+01 -0.2283792688636E+01 -0.6878088470563E+00
-0.1603015953679E+01 -0.2991501247369E+01 -0.2159423084493E+01 -0.5668823348143E+00
-0.1267855601264E+01 -0.3077087962420E+01 -0.2042123474931E+01 -0.4693326338139E+00
-0.9661299786043E+00 -0.3144604827186E+01 -0.1932045358722E+01 -0.3904035417426E+00
-0.6969090638422E+00 -0.3195466342641E+01 -0.1829416441047E+01 -0.3272858309901E+00
-0.4589239020199E+00 -0.3231469211320E+01 -0.1734484763270E+01 -0.2779769523135E+00
-0.2509522742343E+00 -0.3254445593635E+01 -0.1647536997899E+01 -0.2409574213801E+00
-0.7196422569849E-01 -0.3266110489864E+01 -0.1568895116314E+01 -0.2151281474544E+00
 0.7901084494579E-01 -0.3268204048148E+01 -0.1498920805505E+01 -0.1998931502348E+00
 0.2032563457686E+00 -0.3262848322493E+01 -0.1438008229060E+01 -0.1951802560990E+00
 0.3026136952513E+00 -0.3252722100742E+01 -0.1386550950581E+01 -0.2011454557227E+00
 0.3792415273189E+00 -0.3240741293653E+01 -0.1344904890177E+01 -0.2177529393824E+00
 0.4351326537098E+00 -0.3229536415503E+01 -0.1313369768043E+01 -0.2446783617286E+00
 0.4717475489747E+00 -0.3221086307291E+01 -0.1292189216409E+01 -0.2813946889899E+00
 0.4898057827831E+00 -0.3216606670070E+01 -0.1281596417025E+01 -0.3272964945416E+00
 0.4892215315950E+00 -0.3216573659251E+01 -0.1281855499998E+01 -0.3818720833378E+00
 0.4691484237822E+00 -0.3220714065428E+01 -0.1293235851574E+01 -0.4449104895341E+00
 0.4281724454009E+00 -0.3228009068626E+01 -0.1315923212916E+01 -0.5168617596590E+00
 0.3653544832175E+00 -0.3237254643990E+01 -0.1349793075563E+01 -0.5994625043156E+00
 0.2814228423522E+00 -0.3247886600239E+01 -0.1394237966207E+01 -0.6950845635492E+00
-0.2004441805644E+01 -0.2890308230033E+01 -0.2300532516768E+01 -0.6451728231098E+00
-0.1626858598549E+01 -0.2998882733878E+01 -0.2174098426240E+01 -0.5310966289261E+00
-0.1285323465044E+01 -0.3088066964823E+01 -0.2055493502038E+01 -0.4398801651588E+00
-0.9786384584105E+00 -0.3159199714050E+01 -0.1944783941056E+01 -0.3666621300132E+00
-0.7053795165226E+00 -0.3214012736116E+01 -0.1842114358740E+01 -0.3084964803725E+00
-0.4639729835268E+00 -0.3254447546100E+01 -0.1747657648925E+01 -0.2633375640321E+00
-0.2529803993587E+00 -0.3282400553933E+01 -0.1661629048047E+01 -0.2297032536652E+00
-0.7117799971481E-01 -0.3299629485088E+01 -0.1584279517858E+01 -0.2065749671846E+00
 0.8259369594485E-01 -0.3307895223385E+01 -0.1515891717897E+01 -0.1934267752765E+00
 0.2097501989989E+00 -0.3309277371560E+01 -0.1456777771104E+01 -0.1902100717576E+00
 0.3121525059353E+00 -0.3306337640756E+01 -0.1407267013366E+01 -0.1970944310709E+00
 0.3918884704572E+00 -0.3301867564233E+01 -0.1367690174074E+01 -0.2141128864687E+00
 0.4508492781255E+00 -0.3298433946798E+01 -0.1338364794276E+01 -0.2410574165748E+00
 0.4904028117243E+00 -0.3298032164520E+01 -0.1319585795814E+01 -0.2775389411133E+00
 0.5112289074432E+00 -0.3301947745627E+01 -0.1311637853946E+01 -0.3231148313506E+00
 0.5133003645909E+00 -0.3310764386544E+01 -0.1314808090318E+01 -0.3774792543606E+00
 0.4959707196921E+00 -0.3324417135268E+01 -0.1329369815321E+01 -0.4406778667978E+00
 0.4581741845211E+00 -0.3342340899620E+01 -0.1355558356096E+01 -0.5133878548218E+00
 0.3991959698952E+00 -0.3364005572958E+01 -0.1393460513440E+01 -0.5972858114334E+00
 0.3194618627804E+00 -0.3389483379474E+01 -0.1442910112846E+01 -0.6944293729543E+00
-0.2035009368405E+01 -0.2893904116513E+01 -0.2316589337911E+01 -0.6016323777823E+00
-0.1649081204595E+01 -0.3006447786780E+01 -0.2188098625947E+01 -0.4946362643092E+00
-0.1301390145986E+01 -0.3099039454003E+01 -0.2068201911995E+01 -0.4097912850268E+00
-0.9899838209322E+00 -0.3173533000516E+01 -0.1956852906080E+01 -0.3421941232381E+00
-0.7129285077065E+00 -0.3231971152863E+01 -0.1854102840467E+01 -0.2888324708648E+00
-0.4683316305253E+00 -0.3276454977386E+01 -0.1760049705718E+01 -0.2476601537993E+00
-0.2545276262151E+00 -0.3308966999547E+01 -0.1674842474108E+01 -0.2172485051411E+00
-0.7009601634164E-01 -0.3331326051675E+01 -0.1598668371968E+01 -0.1966577763783E+00
 0.8630346382846E-01 -0.3345331731467E+01 -0.1531743285790E+01 -0.1854250240476E+00
 0.2162115730461E+00 -0.3353044833571E+01 -0.1474311632447E+01 -0.1835221034239E+00
 0.3215153326421E+00 -0.3356938335066E+01 -0.1426648811139E+01 -0.1911278446332E+00
 0.4042478080083E+00 -0.3359697054010E+01 -0.1389061145621E+01 -0.2083288318334E+00
 0.4662163700455E+00 -0.3363825076165E+01 -0.1361876091876E+01 -0.2350160945041E+00
 0.5087214205250E+00 -0.3371325518477E+01 -0.1345423926038E+01 -0.2709298642850E+00
 0.5324311266675E+00 -0.3383562920846E+01 -0.1340031943264E+01 -0.3157855482964E+00
 0.5373920913088E+00 -0.3401278653228E+01 -0.1346026684102E+01 -0.3694618371760E+00
 0.5231294307705E+00 -0.3424692728361E+01 -0.1363734749868E+01 -0.4321965068214E+00
 0.4888359527476E+00 -0.3453711390500E+01 -0.1393491455744E+01 -0.5047929835228E+00
 0.4339486475142E+00 -0.3488387953683E+01 -0.1435586473900E+01 -0.5888238391187E+00
 0.3586469805234E+00 -0.3529339365623E+01 -0.1490225420997E+01 -0.6860813902335E+00
-0.2063707834566E+01 -0.2897711747001E+01 -0.2331867203336E+01 -0.5572075609819E+00
-0.1669677646054E+01 -0.3014048618805E+01 -0.2201351344483E+01 -0.4575348226745E+00
-0.1316095042583E+01 -0.3109832664022E+01 -0.2080186022104E+01 -0.3791134554621E+00
-0.1000227856212E+01 -0.3187425344819E+01 -0.1968197004484E+01 -0.3170683286361E+00
-0.7196248738667E+00 -0.3249173354199E+01 -0.1865335167191E+01 -0.2683839489084E+00
-0.4720669547298E+00 -0.3297344258444E+01 -0.1771623270192E+01 -0.2310502271079E+00
-0.2556567290843E+00 -0.3334020185155E+01 -0.1687148149693E+01 -0.2037060482522E+00
-0.6877937507346E-01 -0.3361094197479E+01 -0.1612040579099E+01 -0.1854893247627E+00
 0.9007677290135E-01 -0.3380416882815E+01 -0.1546459851659E+01 -0.1759940784657E+00
 0.2225708868639E+00 -0.3394047368640E+01 -0.1490593946435E+01 -0.1752100201081E+00
 0.3306220590923E+00 -0.3404392254965E+01 -0.1444671992060E+01 -0.1833222292642E+00
 0.4162242879306E+00 -0.3414047273099E+01 -0.1408976803029E+01 -0.2004591225129E+00
 0.4811205649312E+00 -0.3425461047449E+01 -0.1383840026784E+01 -0.2265955185454E+00
 0.5265644914730E+00 -0.3440649142745E+01 -0.1369619786098E+01 -0.2615874719582E+00
 0.5532291614570E+00 -0.3461071055320E+01 -0.1366685690116E+01 -0.3052914138246E+00
 0.5612355694371E+00 -0.3487659608730E+01 -0.1375419298468E+01 -0.3577380931256E+00
 0.5502530714186E+00 -0.3520948960440E+01 -0.1396227067840E+01 -0.4193004220254E+00
 0.5196696243793E+00 -0.3561296327004E+01 -0.1429564550234E+01 -0.4908401104238E+00
 0.4690175056603E+00 -0.3609269876316E+01 -0.1475918614208E+01 -0.5738038794658E+00
 0.3982757013486E+00 -0.3665964533851E+01 -0.1535813751276E+01 -0.6697482287117E+00
-0.2090438939860E+01 -0.2901620603943E+01 -0.2346267985587E+01 -0.5119299574831E+00
-0.1688637092337E+01 -0.3021543185037E+01 -0.2213784730366E+01 -0.4198323101776E+00
-0.1329472411049E+01 -0.3120288183851E+01 -0.2091387479603E+01 -0.3478968368149E+00
-0.1009426389984E+01 -0.3200715361894E+01 -0.1978766623383E+01 -0.2913510576122E+00
-0.7255320080555E+00 -0.3265467236672E+01 -0.1875769645022E+01 -0.2472342168063E+00
-0.4752427035427E+00 -0.3316979606107E+01 -0.1782344485535E+01 -0.2136044303870E+00
-0.2564301724397E+00 -0.3357441471162E+01 -0.1698519672493E+01 -0.1891803275002E+00
-0.6729122077507E-01 -0.3388827889439E+01 -0.1624375981801E+01 -0.1731766259232E+00
 0.9384672738252E-01 -0.3413048216841E+01 -0.1560024700045E+01 -0.1652392439880E+00
 0.2287544529211E+00 -0.3432172239536E+01 -0.1505606359709E+01 -0.1653733456124E+00
 0.3393882057570E+00 -0.3448558435745E+01 -0.1461310008095E+01 -0.1737675872522E+00
 0.4277175548551E+00 -0.3464730573562E+01 -0.1427396118792E+01 -0.1905822043625E+00
 0.4954386827450E+00 -0.3483093601897E+01 -0.1404197812002E+01 -0.2158608274453E+00
 0.5437744753729E+00 -0.3505685586821E+01 -0.1392098222381E+01 -0.2495580270851E+00
 0.5734118466382E+00 -0.3534075222768E+01 -0.1391511786781E+01 -0.2916479211569E+00
 0.5845412815923E+00 -0.3569403550347E+01 -0.1402885266315E+01 -0.3422785185196E+00
 0.5769515622296E+00 -0.3612522046792E+01 -0.1426718127744E+01 -0.4019105172909E+00
 0.5501746835695E+00 -0.3664207519232E+01 -0.1463595432761E+01 -0.4714168544631E+00
 0.5037958119235E+00 -0.3725481914839E+01 -0.1514192468370E+01 -0.5521081296568E+00
 0.4376224137201E+00 -0.3797861001033E+01 -0.1579312136037E+01 -0.6453238674396E+00
-0.2115104415937E+01 -0.2905524744638E+01 -0.2359695705470E+01 -0.4658413539341E+00
-0.1705945582071E+01 -0.3028797722443E+01 -0.2225329353121E+01 -0.3815729657903E+00
-0.1341551860787E+01 -0.3130260753152E+01 -0.2101751928552E+01 -0.3161924663221E+00
-0.1017629934372E+01 -0.3213257322329E+01 -0.1988517010649E+01 -0.2651058602523E+00
-0.7307084119134E+00 -0.3280715247065E+01 -0.1885369119720E+01 -0.2254608155095E+00
-0.4779192767256E+00 -0.3335236322936E+01 -0.1792183131841E+01 -0.1954123082599E+00
-0.2569090328496E+00 -0.3379118803402E+01 -0.1708933083038E+01 -0.1737693508628E+00
-0.6569497072457E-01 -0.3414423040527E+01 -0.1635655465288E+01 -0.1598228174794E+00
 0.9754509763795E-01 -0.3443121184269E+01 -0.1572420760716E+01 -0.1532661696127E+00
 0.2346865326798E+00 -0.3467302385769E+01 -0.1519329450952E+01 -0.1541175686656E+00
 0.3477265530314E+00 -0.3489292041647E+01 -0.1476535779649E+01 -0.1625663194932E+00
 0.4386227830908E+00 -0.3511558279685E+01 -0.1444279683399E+01 -0.1787950567197E+00
 0.5090393705623E+00 -0.3536475745618E+01 -0.1422895096276E+01 -0.2029010799636E+00
 0.5601804492854E+00 -0.3566115757155E+01 -0.1412789594699E+01 -0.2349180512735E+00
 0.5927512045652E+00 -0.3602165283248E+01 -0.1414424616981E+01 -0.2749121762893E+00
 0.6070044883998E+00 -0.3645977570703E+01 -0.1428317348682E+01 -0.3231153977412E+00
 0.6028261341445E+00 -0.3698710587468E+01 -0.1455065693062E+01 -0.3800373702456E+00
 0.5798513233554E+00 -0.3761525340962E+01 -0.1495386788275E+01 -0.4465293318299E+00
 0.5376812236648E+00 -0.3835846289945E+01 -0.1550137581152E+01 -0.5237639880172E+00
 0.4759752170303E+00 -0.3923546912680E+01 -0.1620358696955E+01 -0.6128804837950E+00
-0.2137608756163E+01 -0.2909325375478E+01 -0.2372059041871E+01 -0.4189926110483E+00
-0.1721587194406E+01 -0.3035688340034E+01 -0.2235919501187E+01 -0.3428039781353E+00
-0.1352358845060E+01 -0.3139617877346E+01 -0.2111229059531E+01 -0.2840511863480E+00
-0.1024884005671E+01 -0.3224919725732E+01 -0.1997407753759E+01 -0.2383933897385E+00
-0.7352078583161E+00 -0.3294793214160E+01 -0.1894100504064E+01 -0.2031363613754E+00
-0.4801533932701E+00 -0.3352000429053E+01 -0.1801112296492E+01 -0.1765577300157E+00
-0.2571520191076E+00 -0.3398947361863E+01 -0.1718366709056E+01 -0.1575662846877E+00
-0.6405276404017E-01 -0.3437779330156E+01 -0.1645861084272E+01 -0.1455285550024E+00
 0.1011041494621E+00 -0.3470532255765E+01 -0.1583631209962E+01 -0.1401816964173E+00
 0.2402912061687E+00 -0.3499320454019E+01 -0.1531743746490E+01 -0.1415541921412E+00
 0.3555488062126E+00 -0.3526448572781E+01 -0.1490322890287E+01 -0.1498325318980E+00
 0.4488325483682E+00 -0.3554343962811E+01 -0.1459590364788E+01 -0.1652124625537E+00
 0.5217863304745E+00 -0.3585363823319E+01 -0.1439881421637E+01 -0.1878298123456E+00
 0.5756042527521E+00 -0.3621621574993E+01 -0.1431628141453E+01 -0.2177773187638E+00
 0.6110115139218E+00 -0.3664925913116E+01 -0.1435339767621E+01 -0.2551878304054E+00
 0.6283154265144E+00 -0.3716837178806E+01 -0.1451605223577E+01 -0.3003468549711E+00
 0.6274794019714E+00 -0.3778800790429E+01 -0.1481121052575E+01 -0.3537811808134E+00
 0.6082099389352E+00 -0.3852325632661E+01 -0.1524734376051E+01 -0.4162966624295E+00
 0.5700951658359E+00 -0.3939195325637E+01 -0.1583477075106E+01 -0.4889315384270E+00
 0.5126357828001E+00 -0.4041599646628E+01 -0.1658613015999E+01 -0.5726432666135E+00
-0.2157861393187E+01 -0.2912932360182E+01 -0.2383273064083E+01 -0.3714426500368E+00
-0.1735545083364E+01 -0.3042102110664E+01 -0.2245494181193E+01 -0.3035746835044E+00
-0.1361915152360E+01 -0.3148239816855E+01 -0.2119772835531E+01 -0.2515230456871E+00
-0.1031229374876E+01 -0.3235584559773E+01 -0.2005402549285E+01 -0.2112714076415E+00
-0.7390793967424E+00 -0.3307589643378E+01 -0.1901934448857E+01 -0.1803292238482E+00
-0.4819977046787E+00 -0.3367168544502E+01 -0.1809108137115E+01 -0.1571200056365E+00
-0.2572145969930E+00 -0.3416830286976E+01 -0.1726801095465E+01 -0.1406606704884E+00
-0.6242416803313E-01 -0.3458801904684E+01 -0.1654976254177E+01 -0.1303930145722E+00
 0.1044582145237E+00 -0.3495181581668E+01 -0.1593639982558E+01 -0.1260943992448E+00
 0.2454940882771E+00 -0.3528112170258E+01 -0.1542830498531E+01 -0.1278006798879E+00
 0.3627675135443E+00 -0.3559887409420E+01 -0.1502646351062E+01 -0.1356915062830E+00
 0.4582393585068E+00 -0.3592906725918E+01 -0.1473293662683E+01 -0.1499665254740E+00
 0.5335422718124E+00 -0.3629520892296E+01 -0.1455109951627E+01 -0.1707853478406E+00
 0.5898664897064E+00 -0.3671891278845E+01 -0.1448551650895E+01 -0.1982803090675E+00
 0.6279572403954E+00 -0.3721946614102E+01 -0.1454175005642E+01 -0.2326269692096E+00
 0.6481683366121E+00 -0.3781442681804E+01 -0.1472638942240E+01 -0.2741374992912E+00
 0.6505242396376E+00 -0.3852088146203E+01 -0.1504735036086E+01 -0.3233295867935E+00
 0.6347782700450E+00 -0.3935703416706E+01 -0.1551434818931E+01 -0.3809457338565E+00
 0.6004856184392E+00 -0.4034392012975E+01 -0.1613936005432E+01 -0.4478927667213E+00
 0.5469546878382E+00 -0.4150641173847E+01 -0.1693732648424E+01 -0.5249676621480E+00
-0.2175778400068E+01 -0.2916265053697E+01 -0.2393260423269E+01 -0.3232575200466E+00
-0.1747802353190E+01 -0.3047937793173E+01 -0.2253997868790E+01 -0.2639360607539E+00
-0.1370239318971E+01 -0.3156019693366E+01 -0.2127341735799E+01 -0.2186570245795E+00
-0.1036702221148E+01 -0.3245146929867E+01 -0.2012469100977E+01 -0.1837949303830E+00
-0.7423672558696E+00 -0.3319005340071E+01 -0.1908845120092E+01 -0.1571041292739E+00
-0.4835003708520E+00 -0.3380647933327E+01 -0.1816149702964E+01 -0.1371747862580E+00
-0.2571481964823E+00 -0.3432679395437E+01 -0.1734218968202E+01 -0.1231393642186E+00
-0.6086505356033E-01 -0.3477402864069E+01 -0.1662985921286E+01 -0.1145146221616E+00
 0.1075450804196E+00 -0.3516975226074E+01 -0.1602432168458E+01 -0.1111149280244E+00
 0.2502239844441E+00 -0.3553569141968E+01 -0.1552572224036E+01 -0.1129803370247E+00
 0.3692981303953E+00 -0.3589474911903E+01 -0.1513483087309E+01 -0.1202792175888E+00
 0.4667384876201E+00 -0.3627074541921E+01 -0.1485357945522E+01 -0.1332061365232E+00
 0.5441729934138E+00 -0.3668720901270E+01 -0.1468537516692E+01 -0.1519305532223E+00
 0.6027921726457E+00 -0.3716625838000E+01 -0.1463501822716E+01 -0.1766062381562E+00
 0.6433601524706E+00 -0.3772831997431E+01 -0.1470851767131E+01 -0.2074297897451E+00
 0.6662695913979E+00 -0.3839274132679E+01 -0.1491312134402E+01 -0.2447166987547E+00
 0.6715919250296E+00 -0.3917896556159E+01 -0.1525763176631E+01 -0.2889538783383E+00
 0.6591090144937E+00 -0.4010793988414E+01 -0.1575291937742E+01 -0.3408062110220E+00
 0.6283284956389E+00 -0.4120352907177E+01 -0.1641251473423E+01 -0.4010512365085E+00
 0.5783703845921E+00 -0.4249321223633E+01 -0.1725346894349E+01 -0.4703477939069E+00
-0.2191283850293E+01 -0.2919252740420E+01 -0.2401952197635E+01 -0.2745094941937E+00
-0.1758342789484E+01 -0.3053106293701E+01 -0.2261381069097E+01 -0.2239403795587E+00
-0.1377346966711E+01 -0.3162863630837E+01 -0.2133898980848E+01 -0.1855009482808E+00
-0.1041334213163E+01 -0.3253514909276E+01 -0.2018579087546E+01 -0.1560164609093E+00
-0.7451106882476E+00 -0.3328953261128E+01 -0.1914810056207E+01 -0.1335227032068E+00
-0.4847046328049E+00 -0.3392356668810E+01 -0.1822218811759E+01 -0.1167947910243E+00
-0.2569994927977E+00 -0.3446415865974E+01 -0.1740605218623E+01 -0.1050872505509E+00
-0.5942660076364E-01 -0.3493502555179E+01 -0.1669876703293E+01 -0.9799156385344E-01
 0.1103072549643E+00 -0.3535827056378E+01 -0.1609994306664E+01 -0.9535618123355E-01
 0.2544144907644E+00 -0.3575591255497E+01 -0.1560953079424E+01 -0.9722209080445E-01
 0.3750611243800E+00 -0.3615087242660E+01 -0.1522812275592E+01 -0.1037417627011E+00
 0.4742308583150E+00 -0.3656687648486E+01 -0.1495754691380E+01 -0.1150961848857E+00
 0.5535513424953E+00 -0.3702753255480E+01 -0.1480124899103E+01 -0.1314519189103E+00
 0.6142159335573E+00 -0.3755545697578E+01 -0.1476424989090E+01 -0.1529678340022E+00
 0.6570057554343E+00 -0.3817211707122E+01 -0.1485296797293E+01 -0.1798425466474E+00
 0.6823450676189E+00 -0.3889844932943E+01 -0.1507524936702E+01 -0.2123750294924E+00
 0.6903404648590E+00 -0.3975595107147E+01 -0.1544069681875E+01 -0.2510036946910E+00
 0.6807885529429E+00 -0.4076793183303E+01 -0.1596122176269E+01 -0.2963047074587E+00
 0.6531458923482E+00 -0.4196067294891E+01 -0.1665173059195E+01 -0.3489291167471E+00
 0.6063683009671E+00 -0.4336387555458E+01 -0.1753109049611E+01 -0.4094158576420E+00
-0.2204310846258E+01 -0.2921834785351E+01 -0.2409288446856E+01 -0.2252762078510E+00
-0.1767151442275E+01 -0.3057530938234E+01 -0.2267600718839E+01 -0.1836409502975E+00
-0.1383251044955E+01 -0.3168690872521E+01 -0.2139412701214E+01 -0.1521015276615E+00
-0.1045152519727E+01 -0.3260609497790E+01 -0.2023708148233E+01 -0.1279862809304E+00
-0.7473437704251E+00 -0.3337358494553E+01 -0.1919810064540E+01 -0.1096439697369E+00
-0.4856483888598E+00 -0.3402223854629E+01 -0.1827299954440E+01 -0.9605040440779E-01
-0.2568097482799E+00 -0.3457970862683E+01 -0.1745946887153E+01 -0.8658778428618E-01
-0.5815440467793E-01 -0.3507030673470E+01 -0.1675636986729E+01 -0.8092212310304E-01
 0.1126931276139E+00 -0.3551660336310E+01 -0.1616314588087E+01 -0.7893333249207E-01
 0.2580055176689E+00 -0.3594088746788E+01 -0.1567959117686E+01 -0.8066014375007E-01
 0.3799840203053E+00 -0.3636612951411E+01 -0.1530615597619E+01 -0.8623461604171E-01
 0.4806258110218E+00 -0.3681601876500E+01 -0.1504458750775E+01 -0.9581641589041E-01
 0.5615609043570E+00 -0.3731427407925E+01 -0.1489837256677E+01 -0.1095579542193E+00
 0.6239867542708E+00 -0.3788397354385E+01 -0.1487272982054E+01 -0.1276090247586E+00
 0.6686990536533E+00 -0.3854749649922E+01 -0.1497443780246E+01 -0.1501540952419E+00
 0.6961469560509E+00 -0.3932713977778E+01 -0.1521186500212E+01 -0.1774592021099E+00
 0.7064623853611E+00 -0.4024613322549E+01 -0.1559530940478E+01 -0.2099001401231E+00
 0.6994477749951E+00 -0.4132975245867E+01 -0.1613757911310E+01 -0.2479563077626E+00
 0.6745122436010E+00 -0.4260627101708E+01 -0.1685473983310E+01 -0.2921552855656E+00
 0.6304797716204E+00 -0.4410723345649E+01 -0.1776714479793E+01 -0.3429284025127E+00
-0.2214802452456E+01 -0.2923960754559E+01 -0.2415218707297E+01 -0.1756398035860E+00
-0.1774215151824E+01 -0.3061147680109E+01 -0.2272620531008E+01 -0.1430919185360E+00
-0.1387962072556E+01 -0.3173433934161E+01 -0.2143856123157E+01 -0.1185044646299E+00
-0.1048179837111E+01 -0.3266364691072E+01 -0.2027835928246E+01 -0.9975276912876E-01
-0.7490952413498E+00 -0.3344158358179E+01 -0.1923829191778E+01 -0.8552480823110E-01
-0.4863638415694E+00 -0.3410189905278E+01 -0.1831380261018E+01 -0.7501016944965E-01
-0.2566142612997E+00 -0.3467286117930E+01 -0.1750233178238E+01 -0.6772339438319E-01
-0.5708771268418E-01 -0.3517927215918E+01 -0.1680257016443E+01 -0.6340487561097E-01
 0.1146579912384E+00 -0.3564409083226E+01 -0.1621383013234E+01 -0.6196372086969E-01
 0.2609446702907E+00 -0.3608984001250E+01 -0.1573578485551E+01 -0.6343347826743E-01
 0.3840032758065E+00 -0.3653955317026E+01 -0.1536877459373E+01 -0.6792166628176E-01
 0.4858436255397E+00 -0.3701691777940E+01 -0.1511448631628E+01 -0.7555990441176E-01
 0.5680993063685E+00 -0.3754577198104E+01 -0.1497644609115E+01 -0.8647693908140E-01
 0.6319721360447E+00 -0.3814959436931E+01 -0.1496004031417E+01 -0.1008016923277E+00
 0.6782696281354E+00 -0.3885152266410E+01 -0.1507234839989E+01 -0.1186912631487E+00
 0.7074597281136E+00 -0.3967496426516E+01 -0.1532217248249E+01 -0.1403656474825E+00
 0.7196918885499E+00 -0.4064454503068E+01 -0.1572038428823E+01 -0.1661272389440E+00
 0.7147692468433E+00 -0.4178710524420E+01 -0.1628052400461E+01 -0.1963531678033E+00
 0.6920610349248E+00 -0.4313249003255E+01 -0.1701958345115E+01 -0.2314503218556E+00
 0.6502928538886E+00 -0.4471370912159E+01 -0.1795906687387E+01 -0.2717496492557E+00
-0.2222712345963E+01 -0.2925590375789E+01 -0.2419702279223E+01 -0.1256860817618E+00
-0.1779522934650E+01 -0.3063905198360E+01 -0.2276411222515E+01 -0.1023480834431E+00
-0.1391488285265E+01 -0.3177038697154E+01 -0.2147207681737E+01 -0.8475459670122E-01
-0.1050434361001E+01 -0.3270727546666E+01 -0.2030946096604E+01 -0.7136273512004E-01
-0.7503883195808E+00 -0.3349302505381E+01 -0.1926854687732E+01 -0.6122038013767E-01
-0.4868771628141E+00 -0.3416206794992E+01 -0.1834449460169E+01 -0.5374120786380E-01
-0.2564418729164E+00 -0.3474314412702E+01 -0.1753455454240E+01 -0.4857578947635E-01
-0.5625875280058E-01 -0.3526143251273E+01 -0.1683728941915E+01 -0.4553877753264E-01
 0.1161649449507E+00 -0.3574019174661E+01 -0.1625191487964E+01 -0.4456662872805E-01
 0.2631884743882E+00 -0.3620213061377E+01 -0.1577801555885E+01 -0.4568522247364E-01
 0.3870659431509E+00 -0.3667034377377E+01 -0.1541585164086E+01 -0.4897404151853E-01
 0.4898177325765E+00 -0.3716853401498E+01 -0.1516706764393E+01 -0.5453117790715E-01
 0.5730810768053E+00 -0.3772064710952E+01 -0.1503522308049E+01 -0.6245412816278E-01
 0.6380616731526E+00 -0.3835048036222E+01 -0.1502583590643E+01 -0.7284166343178E-01
 0.6855759405679E+00 -0.3908175685402E+01 -0.1514621880072E+01 -0.8581326902176E-01
 0.7161051801541E+00 -0.3993872902338E+01 -0.1540550829427E+01 -0.1015329714080E+00
 0.7298103346217E+00 -0.4094707363366E+01 -0.1581501603510E+01 -0.1202219417200E+00
 0.7264928517387E+00 -0.4213479651174E+01 -0.1638883795734E+01 -0.1421515171479E+00
 0.7054914188248E+00 -0.4353290387089E+01 -0.1714465515084E+01 -0.1676102638608E+00
 0.6654638809964E+00 -0.4517549122956E+01 -0.1810480063721E+01 -0.1968324917817E+00
-0.2228005345442E+01 -0.2926693505373E+01 -0.2422708459883E+01 -0.7550368237903E-01
-0.1783066292194E+01 -0.3065764963336E+01 -0.2278950690099E+01 -0.6146474741288E-01
-0.1393835760425E+01 -0.3179464497274E+01 -0.2149451121119E+01 -0.5089607757619E-01
-0.1051929766020E+01 -0.3273658268506E+01 -0.2033026376227E+01 -0.4286176931828E-01
-0.7512405573996E+00 -0.3352753047426E+01 -0.1928876994268E+01 -0.3678453767121E-01
-0.4872082259729E+00 -0.3420238286620E+01 -0.1836499860919E+01 -0.3230958933155E-01
-0.2563145711353E+00 -0.3479019975704E+01 -0.1755607237015E+01 -0.2922619113212E-01
-0.5569218881706E-01 -0.3531641538843E+01 -0.1686046852000E+01 -0.2742316958866E-01
 0.1171856370284E+00 -0.3580449236696E+01 -0.1627733891844E+01 -0.2686296116985E-01
 0.2647033947308E+00 -0.3627726857316E+01 -0.1580621027415E+01 -0.2756188419671E-01
 0.3891310518707E+00 -0.3675788620510E+01 -0.1544729057260E+01 -0.2956873354820E-01
 0.4924965451803E+00 -0.3727006633278E+01 -0.1520219741406E+01 -0.3294402322982E-01
 0.5764399964490E+00 -0.3783783526994E+01 -0.1507451459356E+01 -0.3774848427707E-01
 0.6421699671385E+00 -0.3848521158825E+01 -0.1506985060093E+01 -0.4404406121229E-01
 0.6905088108099E+00 -0.3923631640597E+01 -0.1519567730000E+01 -0.5190534404666E-01
 0.7219463510589E+00 -0.4011597092179E+01 -0.1546135848327E+01 -0.6143346574890E-01
 0.7366503784015E+00 -0.4115055362649E+01 -0.1587850342596E+01 -0.7276312685211E-01
 0.7344201453028E+00 -0.4236884258101E+01 -0.1646158133015E+01 -0.8605780994567E-01
 0.7145737522777E+00 -0.4380260736363E+01 -0.1722872882520E+01 -0.1014897022563E+00
 0.6757275208584E+00 -0.4548665378070E+01 -0.1820280792890E+01 -0.1191984649530E+00
-0.2230657790804E+01 -0.2927250080638E+01 -0.2424216699577E+01 -0.2518326808071E-01
-0.1784839436227E+01 -0.3066701273301E+01 -0.2280224133478E+01 -0.2049756859523E-01
-0.1395008503474E+01 -0.3180684189105E+01 -0.2150575565512E+01 -0.1697256635390E-01
-0.1052675183410E+01 -0.3275130280534E+01 -0.2034068568054E+01 -0.1429459175434E-01
-0.7516637238340E+00 -0.3354484659780E+01 -0.1929889740299E+01 -0.1227021119628E-01
-0.4873703980116E+00 -0.3422260115076E+01 -0.1837526341151E+01 -0.1078065885810E-01
-0.2562471866393E+00 -0.3481378787868E+01 -0.1756684208018E+01 -0.9755510386757E-02
-0.5540470089088E-01 -0.3534396992913E+01 -0.1687206796088E+01 -0.9157713865281E-02
 0.1177008395217E+00 -0.3583671313026E+01 -0.1629006122547E+01 -0.8974842968404E-02
 0.2654666247041E+00 -0.3631492146073E+01 -0.1582031995044E+01 -0.9212471376589E-02
 0.3901706791910E+00 -0.3680176293337E+01 -0.1546302638648E+01 -0.9887051464781E-02
 0.4938448708495E+00 -0.3732097020757E+01 -0.1521978510457E+01 -0.1101903380996E-01
 0.5781309010522E+00 -0.3789661253069E+01 -0.1509419265448E+01 -0.1262903618538E-01
 0.6442388442719E+00 -0.3855282175727E+01 -0.1509190365784E+01 -0.1473815448715E-01
 0.6929940162734E+00 -0.3931392034022E+01 -0.1522047068342E+01 -0.1737173405115E-01
 0.7248903819248E+00 -0.4020501539702E+01 -0.1548937244155E+01 -0.2056393476288E-01
 0.7400989050536E+00 -0.4125283648513E+01 -0.1591036829426E+01 -0.2435998225083E-01
 0.7384174109425E+00 -0.4248654613337E+01 -0.1649811485126E+01 -0.2881447278500E-01
 0.7191535494386E+00 -0.4393829225821E+01 -0.1727097567900E+01 -0.3398461754451E-01
 0.6809043349545E+00 -0.4564322666687E+01 -0.1825206615914E+01 -0.3991673878126E-01
-0.2230657790336E+01 -0.2927250080561E+01 -0.2424216699322E+01  0.2518328602480E-01
-0.1784839435949E+01 -0.3066701273172E+01 -0.2280224133287E+01  0.2049758165041E-01
-0.1395008503318E+01 -0.3180684188951E+01 -0.2150575565366E+01  0.1697257585760E-01
-0.1052675183331E+01 -0.3275130280373E+01 -0.2034068567941E+01  0.1429459866343E-01
-0.7516637238035E+00 -0.3354484659621E+01 -0.1929889740209E+01  0.1227021620920E-01
-0.4873703980103E+00 -0.3422260114926E+01 -0.1837526341080E+01  0.1078066248928E-01
-0.2562471866539E+00 -0.3481378787733E+01 -0.1756684207962E+01  0.9755513013704E-02
-0.5540470091236E-01 -0.3534396992798E+01 -0.1687206796044E+01  0.9157715760494E-02
 0.1177008394992E+00 -0.3583671312934E+01 -0.1629006122514E+01  0.8974844324844E-02
 0.2654666246840E+00 -0.3631492146005E+01 -0.1582031995021E+01  0.9212472327882E-02
 0.3901706791750E+00 -0.3680176293290E+01 -0.1546302638634E+01  0.9887052103528E-02
 0.4938448708375E+00 -0.3732097020730E+01 -0.1521978510449E+01  0.1101903420322E-01
 0.5781309010435E+00 -0.3789661253057E+01 -0.1509419265446E+01  0.1262903638667E-01
 0.6442388442652E+00 -0.3855282175725E+01 -0.1509190365786E+01  0.1473815454332E-01
 0.6929940162680E+00 -0.3931392034027E+01 -0.1522047068347E+01  0.1737173400470E-01
 0.7248903819209E+00 -0.4020501539711E+01 -0.1548937244161E+01  0.2056393465006E-01
 0.7400989050532E+00 -0.4125283648523E+01 -0.1591036829431E+01  0.2435998209599E-01
 0.7384174109509E+00 -0.4248654613348E+01 -0.1649811485127E+01  0.2881447259064E-01
 0.7191535494656E+00 -0.4393829225834E+01 -0.1727097567893E+01  0.3398461727465E-01
 0.6809043350151E+00 -0.4564322666704E+01 -0.1825206615894E+01  0.3991673833811E-01
-0.2228005344041E+01 -0.2926693505145E+01 -0.2422708459117E+01  0.7550370029111E-01
-0.1783066291363E+01 -0.3065764962949E+01 -0.2278950689527E+01  0.6146476045040E-01
-0.1393835759956E+01 -0.3179464496816E+01 -0.2149451120683E+01  0.5089608706774E-01
-0.1051929765782E+01 -0.3273658268023E+01 -0.2033026375888E+01  0.4286177621681E-01
-0.7512405573075E+00 -0.3352753046949E+01 -0.1928876994000E+01  0.3678454267378E-01
-0.4872082259684E+00 -0.3420238286171E+01 -0.1836499860705E+01  0.3230959295241E-01
-0.2563145711787E+00 -0.3479019975300E+01 -0.1755607236845E+01  0.2922619374898E-01
-0.5569218888112E-01 -0.3531641538498E+01 -0.1686046851868E+01  0.2742317147435E-01
 0.1171856369613E+00 -0.3580449236420E+01 -0.1627733891745E+01  0.2686296251764E-01
 0.2647033946711E+00 -0.3627726857110E+01 -0.1580621027346E+01  0.2756188514043E-01
 0.3891310518230E+00 -0.3675788620371E+01 -0.1544729057218E+01  0.2956873418047E-01
 0.4924965451448E+00 -0.3727006633196E+01 -0.1520219741384E+01  0.3294402361754E-01
 0.5764399964233E+00 -0.3783783526957E+01 -0.1507451459351E+01  0.3774848447346E-01
 0.6421699671187E+00 -0.3848521158820E+01 -0.1506985060100E+01  0.4404406126393E-01
 0.6905088107939E+00 -0.3923631640612E+01 -0.1519567730014E+01  0.5190534399589E-01
 0.7219463510469E+00 -0.4011597092206E+01 -0.1546135848345E+01  0.6143346563205E-01
 0.7366503784003E+00 -0.4115055362680E+01 -0.1587850342611E+01  0.7276312669399E-01
 0.7344201453279E+00 -0.4236884258136E+01 -0.1646158133020E+01  0.8605780974955E-01
 0.7145737523577E+00 -0.4380260736403E+01 -0.1722872882501E+01  0.1014897019874E+00
 0.6757275210384E+00 -0.4548665378124E+01 -0.1820280792830E+01  0.1191984645147E+00
-0.2222712343634E+01 -0.2925590375415E+01 -0.2419702277953E+01  0.1256860996101E+00
-0.1779522933265E+01 -0.3063905197722E+01 -0.2276411221564E+01  0.1023480964453E+00
-0.1391488284482E+01 -0.3177038696396E+01 -0.2147207681013E+01  0.8475460616841E-01
-0.1050434360603E+01 -0.3270727545868E+01 -0.2030946096041E+01  0.7136274199735E-01
-0.7503883194254E+00 -0.3349302504590E+01 -0.1926854687287E+01  0.6122038511949E-01
-0.4868771628050E+00 -0.3416206794246E+01 -0.1834449459814E+01  0.5374121146396E-01
-0.2564418729873E+00 -0.3474314412031E+01 -0.1753455453958E+01  0.4857579207302E-01
-0.5625875290617E-01 -0.3526143250701E+01 -0.1683728941695E+01  0.4553877939933E-01
 0.1161649448400E+00 -0.3574019174203E+01 -0.1625191487800E+01  0.4456663005859E-01
 0.2631884742897E+00 -0.3620213061036E+01 -0.1577801555771E+01  0.4568522340227E-01
 0.3870659430725E+00 -0.3667034377147E+01 -0.1541585164015E+01  0.4897404213792E-01
 0.4898177325185E+00 -0.3716853401363E+01 -0.1516706764357E+01  0.5453117828390E-01
 0.5730810767634E+00 -0.3772064710892E+01 -0.1503522308041E+01  0.6245412834952E-01
 0.6380616731208E+00 -0.3835048036215E+01 -0.1502583590654E+01  0.7284166347454E-01
 0.6855759405418E+00 -0.3908175685429E+01 -0.1514621880097E+01  0.8581326896254E-01
 0.7161051801345E+00 -0.3993872902384E+01 -0.1540550829457E+01  0.1015329712833E+00
 0.7298103346191E+00 -0.4094707363421E+01 -0.1581501603537E+01  0.1202219415555E+00
 0.7264928517789E+00 -0.4213479651235E+01 -0.1638883795744E+01  0.1421515169486E+00
 0.7054914189550E+00 -0.4353290387161E+01 -0.1714465515057E+01  0.1676102635943E+00
 0.6654638812903E+00 -0.4517549123055E+01 -0.1810480063629E+01  0.1968324913544E+00
-0.2214802449210E+01 -0.2923960754049E+01 -0.2415218705532E+01  0.1756398213396E+00
-0.1774215149888E+01 -0.3061147679231E+01 -0.2272620529686E+01  0.1430919314854E+00
-0.1387962071458E+01 -0.3173433933113E+01 -0.2143856122149E+01  0.1185044740604E+00
-0.1048179836550E+01 -0.3266364689965E+01 -0.2027835927462E+01  0.9975277597401E-01
-0.7490952411282E+00 -0.3344158357082E+01 -0.1923829191159E+01  0.8552481318159E-01
-0.4863638415531E+00 -0.3410189904242E+01 -0.1831380260524E+01  0.7501017301866E-01
-0.2566142613960E+00 -0.3467286116997E+01 -0.1750233177845E+01  0.6772339694957E-01
-0.5708771282938E-01 -0.3517927215122E+01 -0.1680257016137E+01  0.6340487744919E-01
 0.1146579910858E+00 -0.3564409082588E+01 -0.1621383013006E+01  0.6196372217447E-01
 0.2609446701551E+00 -0.3608984000776E+01 -0.1573578485392E+01  0.6343347917360E-01
 0.3840032756990E+00 -0.3653955316707E+01 -0.1536877459274E+01  0.6792166688207E-01
 0.4858436254607E+00 -0.3701691777754E+01 -0.1511448631578E+01  0.7555990477231E-01
 0.5680993063121E+00 -0.3754577198022E+01 -0.1497644609104E+01  0.8647693925401E-01
 0.6319721360022E+00 -0.3814959436925E+01 -0.1496004031434E+01  0.1008016923575E+00
 0.6782696281004E+00 -0.3885152266452E+01 -0.1507234840025E+01  0.1186912630772E+00
 0.7074597280866E+00 -0.3967496426585E+01 -0.1532217248294E+01  0.1403656473465E+00
 0.7196918885451E+00 -0.4064454503150E+01 -0.1572038428865E+01  0.1661272387705E+00
 0.7147692468960E+00 -0.4178710524513E+01 -0.1628052400480E+01  0.1963531676001E+00
 0.6920610351007E+00 -0.4313249003368E+01 -0.1701958345086E+01  0.2314503215943E+00
 0.6502928542873E+00 -0.4471370912314E+01 -0.1795906687273E+01  0.2717496488467E+00
-0.2204310842110E+01 -0.2921834784717E+01 -0.2409288444609E+01  0.2252762254795E+00
-0.1767151439792E+01 -0.3057530937131E+01 -0.2267600717154E+01  0.1836409631767E+00
-0.1383251043541E+01 -0.3168690871199E+01 -0.2139412699927E+01  0.1521015370427E+00
-0.1045152519000E+01 -0.3260609496388E+01 -0.2023708147232E+01  0.1279862877325E+00
-0.7473437701337E+00 -0.3337358493159E+01 -0.1919810063747E+01  0.1096439746452E+00
-0.4856483888329E+00 -0.3402223853309E+01 -0.1827299953807E+01  0.9605040793503E-01
-0.2568097483986E+00 -0.3457970861493E+01 -0.1745946886649E+01  0.8658778681210E-01
-0.5815440486021E-01 -0.3507030672454E+01 -0.1675636986338E+01  0.8092212490338E-01
 0.1126931274217E+00 -0.3551660335496E+01 -0.1616314587795E+01  0.7893333376269E-01
 0.2580055174984E+00 -0.3594088746184E+01 -0.1567959117482E+01  0.8066014462657E-01
 0.3799840201708E+00 -0.3636612951005E+01 -0.1530615597492E+01  0.8623461661697E-01
 0.4806258109241E+00 -0.3681601876264E+01 -0.1504458750710E+01  0.9581641622985E-01
 0.5615609042881E+00 -0.3731427407825E+01 -0.1489837256662E+01  0.1095579543736E+00
 0.6239867542195E+00 -0.3788397354382E+01 -0.1487272982076E+01  0.1276090247719E+00
 0.6686990536108E+00 -0.3854749649982E+01 -0.1497443780295E+01  0.1501540951549E+00
 0.6961469560170E+00 -0.3932713977874E+01 -0.1521186500273E+01  0.1774592019598E+00
 0.7064623853529E+00 -0.4024613322665E+01 -0.1559530940537E+01  0.2099001399388E+00
 0.6994477750565E+00 -0.4132975246000E+01 -0.1613757911344E+01  0.2479563075557E+00
 0.6745122438148E+00 -0.4260627101871E+01 -0.1685473983286E+01  0.2921552853136E+00
 0.6304797721117E+00 -0.4410723345873E+01 -0.1776714479668E+01  0.3429284021329E+00
-0.2191283845262E+01 -0.2919252739679E+01 -0.2401952194922E+01  0.2745095116684E+00
-0.1758342786457E+01 -0.3053106292392E+01 -0.2261381067059E+01  0.2239403923504E+00
-0.1377346964978E+01 -0.3162863629257E+01 -0.2133898979290E+01  0.1855009576000E+00
-0.1041334212264E+01 -0.3253514907593E+01 -0.2018579086333E+01  0.1560164676567E+00
-0.7451106878814E+00 -0.3328953259448E+01 -0.1914810055245E+01  0.1335227080619E+00
-0.4847046327631E+00 -0.3392356667216E+01 -0.1822218810990E+01  0.1167947944990E+00
-0.2569994929351E+00 -0.3446415864535E+01 -0.1740605218011E+01  0.1050872530261E+00
-0.5942660097981E-01 -0.3493502553949E+01 -0.1669876702817E+01  0.9799156560652E-01
 0.1103072547353E+00 -0.3535827055392E+01 -0.1609994306309E+01  0.9535618246176E-01
 0.2544144905617E+00 -0.3575591254766E+01 -0.1560953079176E+01  0.9722209164433E-01
 0.3750611242213E+00 -0.3615087242171E+01 -0.1522812275436E+01  0.1037417632457E+00
 0.4742308582013E+00 -0.3656687648205E+01 -0.1495754691301E+01  0.1150961851995E+00
 0.5535513424168E+00 -0.3702753255364E+01 -0.1480124899085E+01  0.1314519190427E+00
 0.6142159334996E+00 -0.3755545697582E+01 -0.1476424989119E+01  0.1529678339959E+00
 0.6570057553860E+00 -0.3817211707205E+01 -0.1485296797355E+01  0.1798425465423E+00
 0.6823450675785E+00 -0.3889844933072E+01 -0.1507524936782E+01  0.2123750293259E+00
 0.6903404648455E+00 -0.3975595107303E+01 -0.1544069681955E+01  0.2510036944946E+00
 0.6807885530080E+00 -0.4076793183484E+01 -0.1596122176324E+01  0.2963047072493E+00
 0.6531458925901E+00 -0.4196067295116E+01 -0.1665173059187E+01  0.3489291165091E+00
 0.6063683015371E+00 -0.4336387555764E+01 -0.1753109049487E+01  0.4094158572994E+00
-0.2175778394176E+01 -0.2916265052869E+01 -0.2393260420111E+01  0.3232575373400E+00
-0.1747802349624E+01 -0.3047937791681E+01 -0.2253997866413E+01  0.2639360734410E+00
-0.1370239316915E+01 -0.3156019691550E+01 -0.2127341733979E+01  0.2186570338234E+00
-0.1036702220073E+01 -0.3245146927921E+01 -0.2012469099557E+01  0.1837949370638E+00
-0.7423672554226E+00 -0.3319005338120E+01 -0.1908845118965E+01  0.1571041340643E+00
-0.4835003707900E+00 -0.3380647931471E+01 -0.1816149702063E+01  0.1371747896691E+00
-0.2571481966338E+00 -0.3432679393757E+01 -0.1734218967484E+01  0.1231393666328E+00
-0.6086505380655E-01 -0.3477402862633E+01 -0.1662985920726E+01  0.1145146238581E+00
 0.1075450801573E+00 -0.3516975224923E+01 -0.1602432168040E+01  0.1111149292021E+00
 0.2502239842124E+00 -0.3553569141115E+01 -0.1552572223744E+01  0.1129803378212E+00
 0.3692981302154E+00 -0.3589474911334E+01 -0.1513483087126E+01  0.1202792180973E+00
 0.4667384874934E+00 -0.3627074541597E+01 -0.1485357945429E+01  0.1332061368073E+00
 0.5441729933286E+00 -0.3668720901140E+01 -0.1468537516671E+01  0.1519305533298E+00
 0.6027921725845E+00 -0.3716625838013E+01 -0.1463501822751E+01  0.1766062381280E+00
 0.6433601524184E+00 -0.3772831997540E+01 -0.1470851767207E+01  0.2074297896200E+00
 0.6662695913514E+00 -0.3839274132847E+01 -0.1491312134503E+01  0.2447166985706E+00
 0.6715919250083E+00 -0.3917896556363E+01 -0.1525763176737E+01  0.2889538781297E+00
 0.6591090145559E+00 -0.4010793988652E+01 -0.1575291937825E+01  0.3408062108120E+00
 0.6283284958996E+00 -0.4120352907474E+01 -0.1641251473440E+01  0.4010512362908E+00
 0.5783703852240E+00 -0.4249321224040E+01 -0.1725346894243E+01  0.4703477936112E+00
-0.2157861386459E+01 -0.2912932359292E+01 -0.2383273060503E+01  0.3714426671233E+00
-0.1735545079264E+01 -0.3042102109018E+01 -0.2245494178492E+01  0.3035746960701E+00
-0.1361915149976E+01 -0.3148239814829E+01 -0.2119772833458E+01  0.2515230548423E+00
-0.1031229373616E+01 -0.3235584557585E+01 -0.2005402547664E+01  0.2112714142432E+00
-0.7390793962077E+00 -0.3307589641174E+01 -0.1901934447570E+01  0.1803292285618E+00
-0.4819977045904E+00 -0.3367168542396E+01 -0.1809108136084E+01  0.1571200089726E+00
-0.2572145971537E+00 -0.3416830285066E+01 -0.1726801094643E+01  0.1406606728311E+00
-0.6242416830501E-01 -0.3458801903049E+01 -0.1654976253536E+01  0.1303930162029E+00
 0.1044582142318E+00 -0.3495181580357E+01 -0.1593639982079E+01  0.1260944003640E+00
 0.2454940880198E+00 -0.3528112169288E+01 -0.1542830498196E+01  0.1278006806345E+00
 0.3627675133467E+00 -0.3559887408774E+01 -0.1502646350851E+01  0.1356915067504E+00
 0.4582393583707E+00 -0.3592906725554E+01 -0.1473293662576E+01  0.1499665257247E+00
 0.5335422717240E+00 -0.3629520892157E+01 -0.1455109951603E+01  0.1707853479207E+00
 0.5898664896447E+00 -0.3671891278872E+01 -0.1448551650937E+01  0.1982803090158E+00
 0.6279572403417E+00 -0.3721946614242E+01 -0.1454175005733E+01  0.2326269690637E+00
 0.6481683365598E+00 -0.3781442682017E+01 -0.1472638942365E+01  0.2741374990891E+00
 0.6505242396056E+00 -0.3852088146461E+01 -0.1504735036222E+01  0.3233295865730E+00
 0.6347782700965E+00 -0.3935703417010E+01 -0.1551434819049E+01  0.3809457336486E+00
 0.6004856187051E+00 -0.4034392013355E+01 -0.1613936005485E+01  0.4478927665320E+00
 0.5469546885187E+00 -0.4150641174368E+01 -0.1693732648349E+01  0.5249676619174E+00
-0.2137608748627E+01 -0.2909325374555E+01 -0.2372059037896E+01  0.4189926279046E+00
-0.1721587189776E+01 -0.3035688338265E+01 -0.2235919498179E+01  0.3428039905630E+00
-0.1352358842345E+01 -0.3139617875139E+01 -0.2111229057217E+01  0.2840511954004E+00
-0.1024884004220E+01 -0.3224919723327E+01 -0.1997407751947E+01  0.2383933962479E+00
-0.7352078576857E+00 -0.3294793211722E+01 -0.1894100502622E+01  0.2031363659997E+00
-0.4801533931485E+00 -0.3352000426714E+01 -0.1801112295336E+01  0.1765577332651E+00
-0.2571520192715E+00 -0.3398947359736E+01 -0.1718366708133E+01  0.1575662869483E+00
-0.6405276433283E-01 -0.3437779328332E+01 -0.1645861083552E+01  0.1455285565578E+00
 0.1011041491449E+00 -0.3470532254302E+01 -0.1583631209424E+01  0.1401816974702E+00
 0.2402912058897E+00 -0.3499320452937E+01 -0.1531743746112E+01  0.1415541928316E+00
 0.3555488060010E+00 -0.3526448572062E+01 -0.1490322890049E+01  0.1498325323197E+00
 0.4488325482263E+00 -0.3554343962409E+01 -0.1459590364666E+01  0.1652124627679E+00
 0.5217863303863E+00 -0.3585363823172E+01 -0.1439881421609E+01  0.1878298123966E+00
 0.5756042526934E+00 -0.3621621575036E+01 -0.1431628141501E+01  0.2177773186881E+00
 0.6110115138692E+00 -0.3664925913292E+01 -0.1435339767729E+01  0.2551878302388E+00
 0.6283154264570E+00 -0.3716837179069E+01 -0.1451605223727E+01  0.3003468547517E+00
 0.6274794019253E+00 -0.3778800790750E+01 -0.1481121052748E+01  0.3537811805824E+00
 0.6082099389663E+00 -0.3852325633040E+01 -0.1524734376215E+01  0.4162966622269E+00
 0.5700951660904E+00 -0.3939195326111E+01 -0.1583477075210E+01  0.4889315382736E+00
 0.5126357835096E+00 -0.4041599647273E+01 -0.1658613015969E+01  0.5726432664613E+00
-0.2115104407625E+01 -0.2905524743712E+01 -0.2359695701129E+01  0.4658413705394E+00
-0.1705945576916E+01 -0.3028797720587E+01 -0.2225329349826E+01  0.3815729780638E+00
-0.1341551857735E+01 -0.3130260750797E+01 -0.2101751926010E+01  0.3161924752571E+00
-0.1017629932720E+01 -0.3213257319735E+01 -0.1988517008654E+01  0.2651058666556E+00
-0.7307084111784E+00 -0.3280715244416E+01 -0.1885369118129E+01  0.2254608200313E+00
-0.4779192765630E+00 -0.3335236320381E+01 -0.1792183130564E+01  0.1954123114105E+00
-0.2569090330104E+00 -0.3379118801070E+01 -0.1708933082018E+01  0.1737693530305E+00
-0.6569497103269E-01 -0.3414423038523E+01 -0.1635655464491E+01  0.1598228189503E+00
 0.9754509730013E-01 -0.3443121182661E+01 -0.1572420760119E+01  0.1532661705913E+00
 0.2346865323832E+00 -0.3467302384580E+01 -0.1519329450533E+01  0.1541175692937E+00
 0.3477265528095E+00 -0.3489292040860E+01 -0.1476535779384E+01  0.1625663198645E+00
 0.4386227829467E+00 -0.3511558279249E+01 -0.1444279683262E+01  0.1787950568947E+00
 0.5090393704781E+00 -0.3536475745465E+01 -0.1422895096244E+01  0.2029010799842E+00
 0.5601804492329E+00 -0.3566115757217E+01 -0.1412789594753E+01  0.2349180511741E+00
 0.5927512045162E+00 -0.3602165283463E+01 -0.1414424617105E+01  0.2749121761032E+00
 0.6070044883380E+00 -0.3645977571021E+01 -0.1428317348861E+01  0.3231153975062E+00
 0.6028261340807E+00 -0.3698710587858E+01 -0.1455065693276E+01  0.3800373700063E+00
 0.5798513233554E+00 -0.3761525341425E+01 -0.1495386788493E+01  0.4465293316364E+00
 0.5376812238885E+00 -0.3835846290524E+01 -0.1550137581319E+01  0.5237639879076E+00
 0.4759752177480E+00 -0.3923546913462E+01 -0.1620358696986E+01  0.6128804837359E+00
-0.2090438930805E+01 -0.2901620603052E+01 -0.2346267980913E+01  0.5119299738194E+00
-0.1688637086663E+01 -0.3021543183134E+01 -0.2213784726804E+01  0.4198323222809E+00
-0.1329472407653E+01 -0.3120288181384E+01 -0.2091387476847E+01  0.3478968456175E+00
-0.1009426388121E+01 -0.3200715359142E+01 -0.1978766621213E+01  0.2913510638949E+00
-0.7255320072061E+00 -0.3265467233835E+01 -0.1875769643289E+01  0.2472342212118E+00
-0.4752427033307E+00 -0.3316979603355E+01 -0.1782344484142E+01  0.2136044334260E+00
-0.2564301725905E+00 -0.3357441468641E+01 -0.1698519671379E+01  0.1891803295638E+00
-0.6729122109288E-01 -0.3388827887268E+01 -0.1624375980930E+01  0.1731766272999E+00
 0.9384672702876E-01 -0.3413048215097E+01 -0.1560024699392E+01  0.1652392448845E+00
 0.2287544526110E+00 -0.3432172238247E+01 -0.1505606359249E+01  0.1653733461720E+00
 0.3393882055286E+00 -0.3448558434893E+01 -0.1461310007801E+01  0.1737675875690E+00
 0.4277175547125E+00 -0.3464730573093E+01 -0.1427396118639E+01  0.1905822044958E+00
 0.4954386826683E+00 -0.3483093601739E+01 -0.1404197811963E+01  0.2158608274352E+00
 0.5437744753302E+00 -0.3505685586902E+01 -0.1392098222439E+01  0.2495580269631E+00
 0.5734118465960E+00 -0.3534075223024E+01 -0.1391511786921E+01  0.2916479209540E+00
 0.5845412815270E+00 -0.3569403550724E+01 -0.1402885266523E+01  0.3422785182723E+00
 0.5769515621448E+00 -0.3612522047258E+01 -0.1426718128003E+01  0.4019105170468E+00
 0.5501746835270E+00 -0.3664207519786E+01 -0.1463595433042E+01  0.4714168542830E+00
 0.5037958120967E+00 -0.3725481915532E+01 -0.1514192468614E+01  0.5521081296000E+00
 0.4376224144097E+00 -0.3797861001973E+01 -0.1579312136155E+01  0.6453238674919E+00
-0.2063707824803E+01 -0.2897711746183E+01 -0.2331867198363E+01  0.5572075770345E+00
-0.1669677639863E+01 -0.3014048616898E+01 -0.2201351340678E+01  0.4575348345920E+00
-0.1316095038835E+01 -0.3109832661483E+01 -0.2080186019149E+01  0.3791134641168E+00
-0.1000227854127E+01 -0.3187425341941E+01 -0.1968197002152E+01  0.3170683347826E+00
-0.7196248728921E+00 -0.3249173351202E+01 -0.1865335165324E+01  0.2683839531831E+00
-0.4720669544591E+00 -0.3297344255516E+01 -0.1771623268688E+01  0.2310502300222E+00
-0.2556567292174E+00 -0.3334020182462E+01 -0.1687148148489E+01  0.2037060502001E+00
-0.6877937539483E-01 -0.3361094195152E+01 -0.1612040578157E+01  0.1854893260354E+00
 0.9007677253667E-01 -0.3380416880943E+01 -0.1546459850951E+01  0.1759940792720E+00
 0.2225708865445E+00 -0.3394047367257E+01 -0.1490593945935E+01  0.1752100205929E+00
 0.3306220588609E+00 -0.3404392254051E+01 -0.1444671991739E+01  0.1833222295220E+00
 0.4162242877923E+00 -0.3414047272597E+01 -0.1408976802858E+01  0.2004591226021E+00
 0.4811205648650E+00 -0.3425461047285E+01 -0.1383840026738E+01  0.2265955185043E+00
 0.5265644914432E+00 -0.3440649142844E+01 -0.1369619786158E+01  0.2615874718159E+00
 0.5532291614244E+00 -0.3461071055616E+01 -0.1366685690270E+01  0.3052914136088E+00
 0.5612355693698E+00 -0.3487659609170E+01 -0.1375419298706E+01  0.3577380928708E+00
 0.5502530713094E+00 -0.3520948960988E+01 -0.1396227068149E+01  0.4193004217809E+00
 0.5196696242817E+00 -0.3561296327657E+01 -0.1429564550586E+01  0.4908401102623E+00
 0.4690175057574E+00 -0.3609269877133E+01 -0.1475918614547E+01  0.5738038794722E+00
 0.3982757019729E+00 -0.3665964534959E+01 -0.1535813751504E+01  0.6697482288982E+00
-0.2035009357969E+01 -0.2893904115810E+01 -0.2316589332676E+01  0.6016323935399E+00
-0.1649081197892E+01 -0.3006447784918E+01 -0.2188098621921E+01  0.4946362760260E+00
-0.1301390141877E+01 -0.3099039451435E+01 -0.2068201908857E+01  0.4097912935173E+00
-0.9899838186136E+00 -0.3173532997549E+01 -0.1956852903596E+01  0.3421941292323E+00
-0.7129285065951E+00 -0.3231971149735E+01 -0.1854102838475E+01  0.2888324749933E+00
-0.4683316301860E+00 -0.3276454974306E+01 -0.1760049704111E+01  0.2476601565750E+00
-0.2545276263224E+00 -0.3308966996698E+01 -0.1674842472819E+01  0.2172485069612E+00
-0.7009601666008E-01 -0.3331326049208E+01 -0.1598668370958E+01  0.1966577775369E+00
 0.8630346345794E-01 -0.3345331729478E+01 -0.1531743285029E+01  0.1854250247552E+00
 0.2162115727212E+00 -0.3353044832100E+01 -0.1474311631908E+01  0.1835221038272E+00
 0.3215153324107E+00 -0.3356938334093E+01 -0.1426648810790E+01  0.1911278448273E+00
 0.4042478078772E+00 -0.3359697053475E+01 -0.1389061145431E+01  0.2083288318762E+00
 0.4662163699920E+00 -0.3363825075991E+01 -0.1361876091820E+01  0.2350160944322E+00
 0.5087214205107E+00 -0.3371325518590E+01 -0.1345423926097E+01  0.2709298641253E+00
 0.5324311266474E+00 -0.3383562921179E+01 -0.1340031943430E+01  0.3157855480732E+00
 0.5373920912414E+00 -0.3401278653728E+01 -0.1346026684369E+01  0.3694618369204E+00
 0.5231294306343E+00 -0.3424692728992E+01 -0.1363734750228E+01  0.4321965065830E+00
 0.4888359525813E+00 -0.3453711391257E+01 -0.1393491456177E+01  0.5047929833856E+00
 0.4339486475061E+00 -0.3488387954632E+01 -0.1435586474349E+01  0.5888238391984E+00
 0.3586469810325E+00 -0.3529339366908E+01 -0.1490225421362E+01  0.6860813905756E+00
-0.2004441794570E+01 -0.2890308229491E+01 -0.2300532511309E+01  0.6451728385651E+00
-0.1626858591336E+01 -0.2998882732109E+01 -0.2174098422019E+01  0.5310966404275E+00
-0.1285323460565E+01 -0.3088066962273E+01 -0.2055493498734E+01  0.4398801734684E+00
-0.9786384558447E+00 -0.3159199711033E+01 -0.1944783938433E+01  0.3666621358382E+00
-0.7053795152617E+00 -0.3214012732889E+01 -0.1842114356631E+01  0.3084964843388E+00
-0.4639729831081E+00 -0.3254447542892E+01 -0.1747657647220E+01  0.2633375666548E+00
-0.2529803994315E+00 -0.3282400550949E+01 -0.1661629046679E+01  0.2297032553450E+00
-0.7117800002335E-01 -0.3299629482494E+01 -0.1584279516783E+01  0.2065749682182E+00
 0.8259369557384E-01 -0.3307895221289E+01 -0.1515891717086E+01  0.1934267758763E+00
 0.2097501986723E+00 -0.3309277370006E+01 -0.1456777770527E+01  0.1902100720721E+00
 0.3121525057064E+00 -0.3306337639725E+01 -0.1407267012989E+01  0.1970944311960E+00
 0.3918884703346E+00 -0.3301867563662E+01 -0.1367690173864E+01  0.2141128864621E+00
 0.4508492780862E+00 -0.3298433946610E+01 -0.1338364794206E+01  0.2410574164723E+00
 0.4904028117273E+00 -0.3298032164638E+01 -0.1319585795868E+01  0.2775389409399E+00
 0.5112289074384E+00 -0.3301947745989E+01 -0.1311637854119E+01  0.3231148311270E+00
 0.5133003645262E+00 -0.3310764387102E+01 -0.1314808090610E+01  0.3774792541129E+00
 0.4959707195275E+00 -0.3324417135984E+01 -0.1329369815734E+01  0.4406778665736E+00
 0.4581741842725E+00 -0.3342340900485E+01 -0.1355558356620E+01  0.5133878547153E+00
 0.3991959697497E+00 -0.3364005574043E+01 -0.1393460514018E+01  0.5972858115954E+00
 0.3194618631191E+00 -0.3389483380938E+01 -0.1442910113375E+01  0.6944293734688E+00
-0.1972099170460E+01 -0.2887034197608E+01 -0.2283792682992E+01  0.6878088622063E+00
-0.1603015945956E+01 -0.2991501245746E+01 -0.2159423080100E+01  0.5668823460864E+00
-0.1267855596402E+01 -0.3077087959934E+01 -0.2042123471478E+01  0.4693326419257E+00
-0.9661299757766E+00 -0.3144604824161E+01 -0.1932045355971E+01  0.3904035473808E+00
-0.6969090624181E+00 -0.3195466339349E+01 -0.1829416438830E+01  0.3272858347775E+00
-0.4589239015103E+00 -0.3231469208013E+01 -0.1734484761476E+01  0.2779769547679E+00
-0.2509522742633E+00 -0.3254445590537E+01 -0.1647536996456E+01  0.2409574229061E+00
-0.7196422598985E-01 -0.3266110487159E+01 -0.1568895115180E+01  0.2151281483514E+00
 0.7901084457959E-01 -0.3268204045957E+01 -0.1498920804647E+01  0.1998931507169E+00
 0.2032563454440E+00 -0.3262848320862E+01 -0.1438008228447E+01  0.1951802563164E+00
 0.3026136950267E+00 -0.3252722099655E+01 -0.1386550950175E+01  0.2011454557726E+00
 0.3792415272053E+00 -0.3240741293043E+01 -0.1344904889944E+01  0.2177529393226E+00
 0.4351326536844E+00 -0.3229536415291E+01 -0.1313369767955E+01  0.2446783615950E+00
 0.4717475489951E+00 -0.3221086307404E+01 -0.1292189216452E+01  0.2813946888068E+00
 0.4898057827953E+00 -0.3216606670450E+01 -0.1281596417198E+01  0.3272964943258E+00
 0.4892215315362E+00 -0.3216573659856E+01 -0.1281855500310E+01  0.3818720831095E+00
 0.4691484235899E+00 -0.3220714066223E+01 -0.1293235852038E+01  0.4449104893352E+00
 0.4281724450580E+00 -0.3228009069600E+01 -0.1315923213535E+01  0.5168617595910E+00
 0.3653544829023E+00 -0.3237254645217E+01 -0.1349793076288E+01  0.5994625045681E+00
 0.2814228424603E+00 -0.3247886601884E+01 -0.1394237966929E+01  0.6950845642479E+00
-0.1938064747467E+01 -0.2884182355267E+01 -0.2266456138285E+01  0.7295338920110E+00
-0.1577553419959E+01 -0.2984453940857E+01 -0.2144143459583E+01  0.6019702290514E+00
-0.1248941795372E+01 -0.3066292806554E+01 -0.2028160262905E+01  0.4981069085681E+00
-0.9523904656448E+00 -0.3129950374243E+01 -0.1918700194747E+01  0.4133471678069E+00
-0.6874412755504E+00 -0.3176517532018E+01 -0.1816060639557E+01  0.3451019533864E+00
-0.4531140274725E+00 -0.3207679561204E+01 -0.1720572986678E+01  0.2914618835650E+00
-0.2483813391219E+00 -0.3225232852871E+01 -0.1632598670237E+01  0.2508872417487E+00
-0.7239817884711E-01 -0.3230873517392E+01 -0.1552537697232E+01  0.2221962442380E+00
 0.7561219540035E-01 -0.3226344580037E+01 -0.1480844220779E+01  0.2047152192968E+00
 0.1967927823237E+00 -0.3213845475848E+01 -0.1418014765956E+01  0.1983445261053E+00
 0.2929730190350E+00 -0.3196207960940E+01 -0.1364520422695E+01  0.2032193125898E+00
 0.3663966929680E+00 -0.3176490880450E+01 -0.1320744268116E+01  0.2192133311777E+00
 0.4191729778267E+00 -0.3157379314504E+01 -0.1286956978239E+01  0.2458638869098E+00
 0.4528726912407E+00 -0.3140813236822E+01 -0.1263332056423E+01  0.2824998656937E+00
 0.4683047800871E+00 -0.3127913841702E+01 -0.1250016258959E+01  0.3283667517997E+00
 0.4653673951905E+00 -0.3119106615058E+01 -0.1247257433338E+01  0.3827543225811E+00
 0.4430020001210E+00 -0.3114055556757E+01 -0.1255395171619E+01  0.4451367164424E+00
 0.3993077924864E+00 -0.3111411814061E+01 -0.1274688890140E+01  0.5155864171909E+00
 0.3329821302954E+00 -0.3109216066895E+01 -0.1304829950202E+01  0.5957939164909E+00
 0.2452153852279E+00 -0.3106004486657E+01 -0.1344570877672E+01  0.6885083547158E+00
-0.1902399607680E+01 -0.2881824835440E+01 -0.2248585488266E+01  0.7703579231523E+00
-0.1550460612076E+01 -0.2977887068075E+01 -0.2128323409671E+01  0.6363557785027E+00
-0.1228536917153E+01 -0.3055903108104E+01 -0.2013686811871E+01  0.5261713959288E+00
-0.9373417001739E+00 -0.3115464153925E+01 -0.1904818751426E+01  0.4354183655057E+00
-0.6768923291279E+00 -0.3157371269302E+01 -0.1802103891262E+01  0.3618355631635E+00
-0.4464669948162E+00 -0.3183248516032E+01 -0.1705966290099E+01  0.3036630222436E+00
-0.2452098066306E+00 -0.3194902399303E+01 -0.1616852736789E+01  0.2593552924283E+00
-0.7243012416183E-01 -0.3194019441044E+01 -0.1535231295647E+01  0.2276460822581E+00
 0.7244558007680E-01 -0.3182387319542E+01 -0.1461672617549E+01  0.2077786189450E+00
 0.1904125635000E+00 -0.3162332704837E+01 -0.1396802466428E+01  0.1996199037882E+00
 0.2832956937597E+00 -0.3136888196755E+01 -0.1341188476408E+01  0.2032713447764E+00
 0.3534391277893E+00 -0.3109271523201E+01 -0.1295241225843E+01  0.2184851513312E+00
 0.4030718190874E+00 -0.3082206549549E+01 -0.1259193323317E+01  0.2446296971821E+00
 0.4338893844551E+00 -0.3057544893744E+01 -0.1233118089366E+01  0.2808825718170E+00
 0.4468093815538E+00 -0.3036278143518E+01 -0.1217050318123E+01  0.3263652238710E+00
 0.4418674504069E+00 -0.3018720961098E+01 -0.1211121150025E+01  0.3802333607591E+00
 0.4178108361312E+00 -0.3004732888371E+01 -0.1215853364553E+01  0.4416430367466E+00
 0.3720557676363E+00 -0.2992990998037E+01 -0.1231839558288E+01  0.5100814722478E+00
 0.3026479479663E+00 -0.2980836403411E+01 -0.1258748574059E+01  0.5869357521847E+00
 0.2114383834524E+00 -0.2965424519780E+01 -0.1294373484074E+01  0.6753168254015E+00
-0.1865092021269E+01 -0.2879936163715E+01 -0.2230163246943E+01  0.8103188162112E+00
-0.1521736609265E+01 -0.2971965575075E+01 -0.2112040026640E+01  0.6700713205282E+00
-0.1206584361399E+01 -0.3046178821841E+01 -0.1998798696123E+01  0.5535108282909E+00
-0.9209112789209E+00 -0.3101428962259E+01 -0.1890499913354E+01  0.4565334865641E+00
-0.6651454743284E+00 -0.3138223017462E+01 -0.1787583191141E+01  0.3773633100180E+00
-0.4389115813882E+00 -0.3158371181695E+01 -0.1690722898649E+01  0.3144388041788E+00
-0.2413826528522E+00 -0.3163604734940E+01 -0.1600344072262E+01  0.2662062184568E+00
-0.7202216446471E-01 -0.3155646268487E+01 -0.1517004163487E+01  0.2313268185316E+00
 0.6954563389993E-01 -0.3136378767045E+01 -0.1441411572578E+01  0.2089593039019E+00
 0.1841553526837E+00 -0.3108338609182E+01 -0.1374366130554E+01  0.1989281226758E+00
 0.2736353393943E+00 -0.3074822520918E+01 -0.1316557975316E+01  0.2012767576576E+00
 0.3404447113981E+00 -0.3039216689812E+01 -0.1268422829854E+01  0.2155907330950E+00
 0.3869376808264E+00 -0.3004245747759E+01 -0.1230134791459E+01  0.2410299386766E+00
 0.4149030067311E+00 -0.2971635082945E+01 -0.1201664075821E+01  0.2766043288920E+00
 0.4254173219451E+00 -0.2942123065921E+01 -0.1182851699668E+01  0.3213403412879E+00
 0.4186384440885E+00 -0.2915927988425E+01 -0.1173726085838E+01  0.3743475326321E+00
 0.3937317571934E+00 -0.2892797672353E+01 -0.1174560980125E+01  0.4346554104659E+00
 0.3469473104170E+00 -0.2872619109467E+01 -0.1187065745554E+01  0.5010160984345E+00
 0.2749815038079E+00 -0.2852765875707E+01 -0.1211558654792E+01  0.5738870930558E+00
 0.1808418862960E+00 -0.2827937684071E+01 -0.1244135024954E+01  0.6563809164351E+00
-0.1826067140167E+01 -0.2878356837801E+01 -0.2211079269645E+01  0.8494881930360E+00
-0.1491240365319E+01 -0.2966714078461E+01 -0.2095238588576E+01  0.7032466952688E+00
-0.1183245440995E+01 -0.3037741675687E+01 -0.1983863944841E+01  0.5801241572740E+00
-0.9028493320744E+00 -0.3087973505179E+01 -0.1875686733509E+01  0.4765712958782E+00
-0.6521226212320E+00 -0.3119328398204E+01 -0.1772581979135E+01  0.3915604168179E+00
-0.4303571687813E+00 -0.3133252033735E+01 -0.1674896325183E+01  0.3236337200537E+00
-0.2368576117181E+00 -0.3131517942864E+01 -0.1583136510653E+01  0.2712622590869E+00
-0.7115163063090E-01 -0.3115848922051E+01 -0.1497890259761E+01  0.2330607717393E+00
 0.6692792401983E-01 -0.3088330515009E+01 -0.1420059217765E+01  0.2081169713337E+00
 0.1780442174444E+00 -0.3051838805702E+01 -0.1350683456481E+01  0.1961956828471E+00
 0.2640312349665E+00 -0.3010025249732E+01 -0.1290617186940E+01  0.1972360881333E+00
 0.3274775149725E+00 -0.2966433759526E+01 -0.1240309434940E+01  0.2105894125237E+00
 0.3708692702633E+00 -0.2923715369368E+01 -0.1199837666579E+01  0.2351620879315E+00
 0.3960791088963E+00 -0.2883399998747E+01 -0.1169040818230E+01  0.2697801577424E+00
 0.4041794837493E+00 -0.2845999724924E+01 -0.1147655513352E+01  0.3133667512797E+00
 0.3957725250006E+00 -0.2811183950184E+01 -0.1135243369836E+01  0.3650945914077E+00
 0.3699639810925E+00 -0.2779081476126E+01 -0.1132285222666E+01  0.4240704543574E+00
 0.3247220809562E+00 -0.2748747465618E+01 -0.1139291930791E+01  0.4889585509941E+00
 0.2514786655283E+00 -0.2723951069372E+01 -0.1162062029807E+01  0.5583982743945E+00
 0.1538811755805E+00 -0.2696814661735E+01 -0.1195178738492E+01  0.6331728326355E+00
-0.1782515128172E+01 -0.2873767163065E+01 -0.2188452676881E+01  0.8884573096823E+00
-0.1460904827745E+01 -0.2964845491483E+01 -0.2080102650037E+01  0.7363290332467E+00
-0.1157570420766E+01 -0.3030177726511E+01 -0.1968241629220E+01  0.6058153410059E+00
-0.8832023241700E+00 -0.3075505343432E+01 -0.1860592603773E+01  0.4954379915573E+00
-0.6376429531242E+00 -0.3100872752037E+01 -0.1757102381426E+01  0.4042944072986E+00
-0.4207340054079E+00 -0.3108155939800E+01 -0.1658578274248E+01  0.3310835712404E+00
-0.2315853395938E+00 -0.3098843198935E+01 -0.1565301413109E+01  0.2743177020820E+00
-0.6983653092912E-01 -0.3074746786092E+01 -0.1477954159000E+01  0.2326286757695E+00
 0.6458460788008E-01 -0.3038193973744E+01 -0.1397596401956E+01  0.2050815082620E+00
 0.1720923472926E+00 -0.2992715294616E+01 -0.1325692785242E+01  0.1913579689600E+00
 0.2544956059171E+00 -0.2942464677494E+01 -0.1263345463641E+01  0.1911853782589E+00
 0.3145898876754E+00 -0.2890999078294E+01 -0.1210912319591E+01  0.2035850194186E+00
 0.3549569280561E+00 -0.2840821186099E+01 -0.1168356201280E+01  0.2271688863142E+00
 0.3775524085509E+00 -0.2793168528185E+01 -0.1135339576228E+01  0.2605799968705E+00
 0.3834575846598E+00 -0.2748256887911E+01 -0.1111455672528E+01  0.3026225484489E+00
 0.3729371867874E+00 -0.2705641109965E+01 -0.1096370843893E+01  0.3524559657211E+00
 0.3470447724898E+00 -0.2663531005732E+01 -0.1088748529624E+01  0.4096380341521E+00
 0.3010650753312E+00 -0.2624250107796E+01 -0.1091896965258E+01  0.4730646427975E+00
 0.2380810839822E+00 -0.2584563152625E+01 -0.1102846572262E+01  0.5424405533763E+00
 0.1412826653552E+00 -0.2571004953796E+01 -0.1141969475567E+01  0.6080900844439E+00
-0.3533554220655E+01 -0.7392564554780E+01 -0.5135275824454E+01 -0.7895754278715E+00
 0.4650641450804E+00 -0.2544920472271E+01 -0.9775324737797E+00  0.5291226750093E+00
-0.2317288725051E-01 -0.2082002420059E+01 -0.9894323944354E+00  0.4202843629136E+00
-0.7453291744130E-01 -0.1681848488432E+01 -0.8254992607607E+00  0.3761019420653E+00
-0.1231560341283E+00 -0.1367995719058E+01 -0.7008413239975E+00  0.3401698391647E+00
-0.1399883060257E+00 -0.1031935035208E+01 -0.5508039703800E+00  0.2784194500126E+00
-0.1080317537010E+00 -0.6487608961552E+00 -0.3556925454324E+00  0.1758116843439E+00
-0.4713905379852E-01 -0.2901943232462E+00 -0.1585466872110E+00  0.3827383795559E-01
 0.2369214255679E-02 -0.2453143358795E-01 -0.1041624308617E-01 -0.7570653533983E-01
 0.1134174495540E+00  0.2383345721051E+00  0.1653234501798E+00 -0.1316987008525E+00
 0.1430271899728E+00  0.3766294147665E+00  0.2442386042275E+00 -0.1606024453466E+00
 0.1254609358145E+00  0.4361404281384E+00  0.2639526410579E+00 -0.1665885735402E+00
 0.9871272548070E-01  0.4586988318242E+00  0.2619834319333E+00 -0.1495592278069E+00
 0.7418081834491E-01  0.4554481305293E+00  0.2489256059709E+00 -0.1165494872547E+00
 0.5121957134039E-01  0.4239863119996E+00  0.2233467651698E+00 -0.7578944784985E-01
 0.3449029363818E-01  0.3695518302123E+00  0.1898997982097E+00 -0.3296099871877E-01
 0.2954869872925E-01  0.3017038455711E+00  0.1556886958212E+00  0.4349390823309E-02
 0.2320942688752E-01  0.2081369844132E+00  0.1087328133114E+00  0.3107080882998E-01
 0.2307438283511E-01  0.1124688212207E+00  0.6370530590621E-01  0.5031248896989E-01
 0.3618608277252E-01  0.4208805471974E-01  0.3678884462136E-01  0.5736739615382E-01
-0.2018236591446E+01 -0.5499365032729E+01 -0.3533272763362E+01 -0.1149132635091E+01
-0.3505085138196E+00 -0.3634489640126E+01 -0.1872949132355E+01  0.1032410062447E+00
 0.1038775203311E+00 -0.2219629560702E+01 -0.9944034589741E+00  0.3690852744076E+00
-0.5999630723132E-01 -0.1848834369101E+01 -0.8971504178760E+00  0.3432606109935E+00
-0.9017625079169E-01 -0.1510268296457E+01 -0.7522089372068E+00  0.3127336556870E+00
-0.1035010784931E+00 -0.1185626419511E+01 -0.6058899240619E+00  0.2577530562434E+00
-0.8506575024115E-01 -0.8382319554071E+00 -0.4339499216547E+00  0.1713423491536E+00
-0.4118704688795E-01 -0.4891104368711E+00 -0.2492398173668E+00  0.5882534395664E-01
 0.1942030539257E-01 -0.1808930862974E+00 -0.7589220702526E-01 -0.4542033645039E-01
 0.8779499340457E-01  0.6107263616586E-01  0.6996778589810E-01 -0.1044315778703E+00
 0.1204324580384E+00  0.2293175669360E+00  0.1643825117380E+00 -0.1322710327883E+00
 0.1106281449275E+00  0.3235001517031E+00  0.2040402994164E+00 -0.1406236965135E+00
 0.8453017468710E-01  0.3698694409476E+00  0.2135678193483E+00 -0.1289333445199E+00
 0.5673883362294E-01  0.3841398031914E+00  0.2072129593027E+00 -0.9984470907430E-01
 0.3277690985275E-01  0.3717326767082E+00  0.1901195056836E+00 -0.5993792846253E-01
 0.1751524189455E-01  0.3360199147012E+00  0.1661615236000E+00 -0.1572378926832E-01
 0.1146199270015E-01  0.2789825072272E+00  0.1365089149658E+00  0.2652914792623E-01
 0.1489213263446E-01  0.2059369228361E+00  0.1037896560712E+00  0.6058215553924E-01
 0.2801398522632E-01  0.1257175211942E+00  0.7225380801765E-01  0.8468983149330E-01
 0.5696015304994E-01  0.5838028262019E-01  0.5421000476496E-01  0.9471238764326E-01
-0.1548828958417E+01 -0.4700746356668E+01 -0.2937300398090E+01 -0.1259171535810E+01
-0.4735467998799E+00 -0.3727702255302E+01 -0.1974587055935E+01 -0.1877957589140E+00
-0.5847425365345E-01 -0.2602832619446E+01 -0.1250814230357E+01  0.2233796469443E+00
-0.1732276935692E-01 -0.1996151226639E+01 -0.9463327781181E+00  0.3018344615923E+00
-0.6618549797821E-01 -0.1661416198727E+01 -0.8119727974513E+00  0.2826782284207E+00
-0.7211822192215E-01 -0.1340851294164E+01 -0.6640956725606E+00  0.2369789443143E+00
-0.5925805365419E-01 -0.1014487123324E+01 -0.5046602331798E+00  0.1645138062584E+00
-0.2504363437211E-01 -0.6772294890160E+00 -0.3300683679924E+00  0.7080928187952E-01
 0.2629149883806E-01 -0.3593453258801E+00 -0.1565352987098E+00 -0.2106249266657E-01
 0.7746105183917E-01 -0.1092998000435E+00 -0.1496421165606E-01 -0.8065804594629E-01
 0.1031086709816E+00  0.7119793308792E-01  0.8192410391270E-01 -0.1101630078890E+00
 0.9684469366120E-01  0.1918059786677E+00  0.1356658159946E+00 -0.1199184849994E+00
 0.7192205136837E-01  0.2635941820554E+00  0.1576926297092E+00 -0.1118967110088E+00
 0.4198635572799E-01  0.2989786296132E+00  0.1602535431103E+00 -0.8692046084802E-01
 0.1538987482667E-01  0.3059910698876E+00  0.1510490440157E+00 -0.4924088629253E-01
-0.2094887756418E-02  0.2886190750126E+00  0.1346663680104E+00 -0.4447082708041E-02
-0.7711655181962E-02  0.2495049550307E+00  0.1136428509289E+00  0.4132727988582E-01
-0.9029125973270E-03  0.1932965993397E+00  0.9042503276891E-01  0.8109738880125E-01
 0.2302306298907E-01  0.1285242749374E+00  0.7122724882543E-01  0.1110829804632E+00
 0.6504019443223E-01  0.6534081995076E-01  0.6127907676001E-01  0.1254109228094E+00
-0.1355554296450E+01 -0.4236829908052E+01 -0.2628420576116E+01 -0.1297005625520E+01
-0.5258638867727E+00 -0.3665168408408E+01 -0.1969785178735E+01 -0.3847814100881E+00
-0.1625087452112E+00 -0.2827033396985E+01 -0.1405084806832E+01  0.6861209466373E-01
-0.4249186005688E-01 -0.2202990253699E+01 -0.1055376593465E+01  0.2304118842233E+00
-0.4030595792258E-01 -0.1811124365317E+01 -0.8701722519228E+00  0.2481630721253E+00
-0.4594511659854E-01 -0.1497245925407E+01 -0.7252997897427E+00  0.2146427638400E+00
-0.3314197762013E-01 -0.1183849651381E+01 -0.5719860656305E+00  0.1550674078968E+00
-0.5167215627457E-02 -0.8589132263836E+00 -0.4061178077452E+00  0.7674735304600E-01
 0.3540201071946E-01 -0.5424550419891E+00 -0.2383149246968E+00 -0.3328131620399E-02
 0.7261015427057E-01 -0.2858584608312E+00 -0.1002267040835E+00 -0.6113819972163E-01
 0.9266720500008E-01 -0.9297290248216E-01 -0.1436778165752E-03 -0.9264243201457E-01
 0.8627326966700E-01  0.4617146940795E-01  0.6224902736523E-01 -0.1045513372520E+00
 0.6162749096145E-01  0.1405479039931E+00  0.9502243562863E-01 -0.9965697305117E-01
 0.2974908103499E-01  0.1977926782905E+00  0.1069446268830E+00 -0.7861314983534E-01
-0.3356283980133E-03  0.2252102914057E+00  0.1056910916136E+00 -0.4396412419277E-01
-0.2156443304932E-01  0.2275254020049E+00  0.9680165540914E-01  0.4030182546781E-04
-0.2943535622508E-01  0.2075102174344E+00  0.8369518476839E-01  0.4788379094034E-01
-0.2207856864503E-01  0.1697914337907E+00  0.6942504661845E-01  0.9244880759382E-01
 0.8021859592881E-02  0.1204741976888E+00  0.6039314692241E-01  0.1286254828537E+00
 0.5992824613764E-01  0.6407359804467E-01  0.5828086676569E-01  0.1484163451247E+00
-0.1273720504484E+01 -0.3928777136590E+01 -0.2445173891305E+01 -0.1304688980656E+01
-0.5727802924391E+00 -0.3572505522054E+01 -0.1948284332812E+01 -0.5230921452022E+00
-0.2367426228607E+00 -0.2951040895209E+01 -0.1498258253493E+01 -0.7071728571028E-01
-0.8040648070005E-01 -0.2388676747746E+01 -0.1160469117370E+01  0.1431684339839E+00
-0.3428714353104E-01 -0.1976150720219E+01 -0.9449057959626E+00  0.2024825744613E+00
-0.2267860637144E-01 -0.1652872197008E+01 -0.7875088775882E+00  0.1891784908333E+00
-0.8652698739449E-02 -0.1349557414411E+01 -0.6383587531807E+00  0.1427400557020E+00
 0.1629645579871E-01 -0.1035978188641E+01 -0.4792504144357E+00  0.7782893594858E-01
 0.4786996326561E-01 -0.7258848601262E+00 -0.3186670015245E+00  0.8465908532498E-02
 0.7320440892446E-01 -0.4670468082894E+00 -0.1851059277015E+00 -0.4633397414105E-01
 0.8747891788037E-01 -0.2644094043676E+00 -0.8315732864901E-01 -0.7939337927923E-01
 0.8007169447498E-01 -0.1102856298562E+00 -0.1420054962918E-01 -0.9393877820158E-01
 0.5464488746956E-01  0.2765743812434E-02  0.2698299670254E-01 -0.9243605718314E-01
 0.2051951575561E-01  0.8039799043645E-01  0.4743122791027E-01 -0.7547109082944E-01
-0.1352326854705E-01  0.1283159380846E+00  0.5395255468264E-01 -0.4455993017152E-01
-0.3983117300018E-01  0.1509227467746E+00  0.5221303967396E-01 -0.2680800747206E-02
-0.5231323853756E-01  0.1510039455219E+00  0.4638463228264E-01  0.4560633022285E-01
-0.4786059071915E-01  0.1329054220215E+00  0.3997107071208E-01  0.9370298300355E-01
-0.1610831418791E-01  0.1005847085864E+00  0.3970390536728E-01  0.1357658739095E+00
 0.4111620292915E-01  0.5389584152758E-01  0.4465566089466E-01  0.1613990770430E+00
-0.1245436512951E+01 -0.3707710179352E+01 -0.2327978945383E+01 -0.1297677875929E+01
-0.6240634025752E+00 -0.3480697392139E+01 -0.1929237573515E+01 -0.6226745034499E+00
-0.2990337261550E+00 -0.3018066452505E+01 -0.1559037083970E+01 -0.1898475073970E+00
-0.1200934704171E+00 -0.2538423988406E+01 -0.1249503205647E+01  0.5208018693241E-01
-0.4089934617922E-01 -0.2138969079891E+01 -0.1024538160253E+01  0.1470102586459E+00
-0.7704869367776E-02 -0.1811533307132E+01 -0.8550419429550E+00  0.1580135174159E+00
 0.1355199999173E-01 -0.1512837574987E+01 -0.7046642202478E+00  0.1269450511398E+00
 0.3787041796612E-01 -0.1209763798373E+01 -0.5507898887910E+00  0.7462144105350E-01
 0.6314513410518E-01 -0.9082487087913E+00 -0.3971986801025E+00  0.1507496933487E-01
 0.7892438462639E-01 -0.6508728974963E+00 -0.2688158010488E+00 -0.3612685492593E-01
 0.8732719350564E-01 -0.4421035401864E+00 -0.1667448829399E+00 -0.7027037602421E-01
 0.7828913819013E-01 -0.2763491626377E+00 -0.9308821149036E-01 -0.8765554696993E-01
 0.5172444809532E-01 -0.1479141673415E+00 -0.4520916804573E-01 -0.8994314831517E-01
 0.1507331906013E-01 -0.5238347251050E-01 -0.1753577212168E-01 -0.7752728145872E-01
-0.2329560383422E-01  0.1486912369818E-01 -0.3960445663942E-02 -0.5117873580489E-01
-0.5564398950027E-01  0.5752918424892E-01  0.8860415318665E-03 -0.1280213601739E-01
-0.7483070324033E-01  0.7802077476926E-01  0.1499333618598E-02  0.3412194321858E-01
-0.7653001788726E-01  0.8047101535710E-01  0.1852268810828E-02  0.8398345404364E-01
-0.4796047534017E-01  0.6670904700736E-01  0.8811828683579E-02  0.1306949237082E+00
 0.9046424877728E-02  0.3246594261188E-01  0.1951081272012E-01  0.1615781432463E+00
-0.1245933566420E+01 -0.3541152209724E+01 -0.2249930314788E+01 -0.1282767144923E+01
-0.6796551286544E+00 -0.3397786443132E+01 -0.1916397538739E+01 -0.6952961882678E+00
-0.3573682333589E+00 -0.3052799145697E+01 -0.1602778668156E+01 -0.2895494390065E+00
-0.1604990633142E+00 -0.2655147747661E+01 -0.1323354001158E+01 -0.3593909905739E-01
-0.5519214715754E-01 -0.2288606582310E+01 -0.1101585402850E+01  0.8565050762026E-01
-0.8838996700788E-03 -0.1968825221855E+01 -0.9257632871170E+00  0.1206369555884E+00
 0.3141367739648E-01 -0.1675155267452E+01 -0.7725585473263E+00  0.1067174753927E+00
 0.5848262079242E-01 -0.1381130564986E+01 -0.6216445337712E+00  0.6723487193993E-01
 0.8025595531702E-01 -0.1089200332429E+01 -0.4742038572429E+00  0.1706145228079E-01
 0.8906754499759E-01 -0.8359460726272E+00 -0.3510329079859E+00 -0.3017837465455E-01
 0.9205800299327E-01 -0.6245474803272E+00 -0.2502700543470E+00 -0.6499086044228E-01
 0.8101789969922E-01 -0.4506340042239E+00 -0.1737195691266E+00 -0.8528419856166E-01
 0.5323805124819E-01 -0.3100638527229E+00 -0.1207081266931E+00 -0.9171727349924E-01
 0.1411295226335E-01 -0.1994501997122E+00 -0.8710850630096E-01 -0.8441439539999E-01
-0.2869061415975E-01 -0.1149114921918E+00 -0.6749298998522E-01 -0.6355700484296E-01
-0.6766960349792E-01 -0.5340145603376E-01 -0.5690339797989E-01 -0.3013591597300E-01
-0.9515439924328E-01 -0.1298762277159E-01 -0.5082675034699E-01  0.1344062341628E-01
-0.1057963718702E+00  0.1029058004178E-01 -0.4488772215937E-01  0.6280625365256E-01
-0.8515278772386E-01  0.1610736941175E-01 -0.3245134660669E-01  0.1120084999372E+00
-0.3436884362251E-01 -0.3680485611047E-02 -0.1788318473977E-01  0.1465143044269E+00
-0.1263089479630E+01 -0.3411533254373E+01 -0.2197072684982E+01 -0.1263295223725E+01
-0.7380683771684E+00 -0.3325313978911E+01 -0.1909789707357E+01 -0.7482966571914E+00
-0.4149249346078E+00 -0.3069036919135E+01 -0.1637462071259E+01 -0.3720093195908E+00
-0.2023306370226E+00 -0.2745359197229E+01 -0.1385414222098E+01 -0.1173596072170E+00
-0.7499439205782E-01 -0.2420889187852E+01 -0.1173065282558E+01  0.2218825160095E-01
-0.1000072255732E-02 -0.2119458247175E+01 -0.9966154101325E+00  0.7812586328457E-01
 0.4412430827469E-01 -0.1835229848656E+01 -0.8418196039791E+00  0.8162906368223E-01
 0.7684878931941E-01 -0.1550638284808E+01 -0.6926810628797E+00  0.5546810481723E-01
 0.9815310608489E-01 -0.1268703712349E+01 -0.5501587849442E+00  0.1472141640413E-01
 0.1027035184927E+00 -0.1021402743473E+01 -0.4317886357407E+00 -0.2815026373012E-01
 0.1013156809620E+00 -0.8103367554099E+00 -0.3332399049905E+00 -0.6318714527239E-01
 0.8827627699143E-01 -0.6316230636972E+00 -0.2553729897517E+00 -0.8633696591315E-01
 0.5941344828454E-01 -0.4822210486530E+00 -0.1987195721732E+00 -0.9717519727225E-01
 0.1815611917357E-01 -0.3595841051326E+00 -0.1604711534007E+00 -0.9550684360069E-01
-0.2881416772511E-01 -0.2603805712532E+00 -0.1359215273198E+00 -0.8105383752510E-01
-0.7453649773236E-01 -0.1820479057631E+00 -0.1205946696429E+00 -0.5405004850195E-01
-0.1112787414476E+00 -0.1230900328997E+00 -0.1101533239432E+00 -0.1590624402270E-01
-0.1329258166408E+00 -0.7961224425277E-01 -0.9989288861997E-01  0.3034507652930E-01
-0.1244099851537E+00 -0.5414822923960E-01 -0.8392236076483E-01  0.7915370298098E-01
-0.8561110858839E-01 -0.5848760669931E-01 -0.6772639618522E-01  0.1147847520356E+00
-0.1290401564671E+01 -0.3308395398095E+01 -0.2161434572500E+01 -0.1241016132827E+01
-0.7979646812019E+00 -0.3262833327299E+01 -0.1908575063996E+01 -0.7864898308592E+00
-0.4728096245320E+00 -0.3074657108553E+01 -0.1667309364550E+01 -0.4395609593823E+00
-0.2461914608131E+00 -0.2815211614901E+01 -0.1438859445586E+01 -0.1906004660054E+00
-0.9948011138186E-01 -0.2535437752731E+01 -0.1238411396133E+01 -0.4043550527558E-01
-0.7135199833158E-02 -0.2259759459747E+01 -0.1065440490003E+01  0.3224851877302E-01
 0.5157557468532E-01 -0.1990499653462E+01 -0.9112943170253E+00  0.5199837635002E-01
 0.9204778312133E-01 -0.1717678764763E+01 -0.7640465613716E+00  0.3919656707854E-01
 0.1157126649423E+00 -0.1446645936228E+01 -0.6255386375041E+00  0.8133161482330E-02
 0.1187924736451E+00 -0.1206644892281E+01 -0.5112906367589E+00 -0.2981544932066E-01
 0.1145163487291E+00 -0.9983009221190E+00 -0.4153787494933E+00 -0.6450639315119E-01
 0.9990896347512E-01 -0.8178272224743E+00 -0.3374215817296E+00 -0.9029033818984E-01
 0.7033011283669E-01 -0.6628402085372E+00 -0.2784797449792E+00 -0.1056397719754E+00
 0.2753905319509E-01 -0.5313940246612E+00 -0.2368118365891E+00 -0.1099939103581E+00
-0.2294386675948E-01 -0.4205498992382E+00 -0.2084420700189E+00 -0.1027274848635E+00
-0.7497712183970E-01 -0.3280758117456E+00 -0.1894348787851E+00 -0.8348733544906E-01
-0.1211932329553E+00 -0.2527912889736E+00 -0.1757727253065E+00 -0.5281449614242E-01
-0.1549933824140E+00 -0.1907547615892E+00 -0.1625016276815E+00 -0.1243295488554E-01
-0.1618424829860E+00 -0.1466954502909E+00 -0.1450128286401E+00  0.3268910420328E-01
-0.1398631603520E+00 -0.1356821344535E+00 -0.1295062885586E+00  0.6640127784363E-01
-0.1324141611333E+01 -0.3225055277175E+01 -0.2138122537599E+01 -0.1216886446193E+01
-0.8583805863054E+00 -0.3209334811475E+01 -0.1911826236957E+01 -0.8131703562134E+00
-0.5312706107559E+00 -0.3074271979892E+01 -0.1694605017604E+01 -0.4943126299791E+00
-0.2923289221577E+00 -0.2869655885313E+01 -0.1486132859511E+01 -0.2551513358464E+00
-0.1283060764560E+00 -0.2633585721562E+01 -0.1298089145068E+01 -0.1001511609459E+00
-0.1877098726030E-01 -0.2387845950351E+01 -0.1131109960677E+01 -0.1512148051076E-01
 0.5381824134113E-01 -0.2138452447571E+01 -0.9797780769278E+00  0.1871199765185E-01
 0.1034946441342E+00 -0.1880745900817E+01 -0.8353080906410E+00  0.1861738604872E-01
 0.1319143784156E+00 -0.1622387934681E+01 -0.7005225714446E+00 -0.2657358771031E-02
 0.1362334353683E+00 -0.1391061468553E+01 -0.5897691755966E+00 -0.3506240647284E-01
 0.1308823396860E+00 -0.1187424124031E+01 -0.4965746386423E+00 -0.6867805396328E-01
 0.1155424367146E+00 -0.1007850250397E+01 -0.4193846724308E+00 -0.9665247861297E-01
 0.8587479709976E-01 -0.8503359815021E+00 -0.3592967566691E+00 -0.1163987290462E+00
 0.4238654619495E-01 -0.7133164158576E+00 -0.3153370387414E+00 -0.1269472764349E+00
-0.1059796312058E-01 -0.5941045247076E+00 -0.2842101692793E+00 -0.1274138930740E+00
-0.6796277816316E-01 -0.4906584105277E+00 -0.2625519586847E+00 -0.1170332865781E+00
-0.1230815133981E+00 -0.4019767388588E+00 -0.2467773785607E+00 -0.9564414236878E-01
-0.1691703251094E+00 -0.3239802621232E+00 -0.2317807759993E+00 -0.6376747705743E-01
-0.1933522707705E+00 -0.2634579573225E+00 -0.2147008072037E+00 -0.2566962812724E-01
-0.1916016029497E+00 -0.2381753932085E+00 -0.2019951881943E+00  0.2920787316292E-02
-0.1362061065505E+01 -0.3156998026658E+01 -0.2123957773317E+01 -0.1191433498334E+01
-0.9186777611203E+00 -0.3163723456181E+01 -0.1918728572131E+01 -0.8306749179435E+00
-0.5902264739946E+00 -0.3070638972625E+01 -0.1720606759911E+01 -0.5380671316843E+00
-0.3407206926452E+00 -0.2912465239039E+01 -0.1528997387892E+01 -0.3110728911125E+00
-0.1612436624578E+00 -0.2717268366864E+01 -0.1352900653781E+01 -0.1555968886192E+00
-0.3562136817434E-01 -0.2503157001306E+01 -0.1193225833656E+01 -0.6229271051589E-01
 0.5087145054629E-01 -0.2277205973777E+01 -0.1046377225918E+01 -0.1703319365564E-01
 0.1107706272157E+00 -0.2038020204528E+01 -0.9058073013368E+00 -0.5702660880110E-02
 0.1458825805367E+00 -0.1794735655940E+01 -0.7749609454394E+00 -0.1745428855852E-01
 0.1539278186116E+00 -0.1573778188732E+01 -0.6673296739567E+00 -0.4380246378861E-01
 0.1494846458607E+00 -0.1376689904014E+01 -0.5767864713319E+00 -0.7551689991243E-01
 0.1345796662849E+00 -0.1200357057013E+01 -0.5009153736422E+00 -0.1050130201635E+00
 0.1057045989791E+00 -0.1043110127026E+01 -0.4405805981820E+00 -0.1287741571207E+00
 0.6257069108820E-01 -0.9036418109420E+00 -0.3953034263313E+00 -0.1454010183457E+00
 0.8401870990190E-02 -0.7794212300718E+00 -0.3623790987683E+00 -0.1538171101351E+00
-0.5281671777846E-01 -0.6684825424069E+00 -0.3390106522871E+00 -0.1530135929627E+00
-0.1155029869452E+00 -0.5698695656566E+00 -0.3221250997228E+00 -0.1423201565486E+00
-0.1729978463624E+00 -0.4793021088159E+00 -0.3065809789338E+00 -0.1212165752899E+00
-0.2150610953725E+00 -0.4053409224555E+00 -0.2915889483792E+00 -0.9318421835413E-01
-0.2352851672666E+00 -0.3676624490166E+00 -0.2833853796531E+00 -0.7270948550585E-01
-0.1402747151265E+01 -0.3101033488823E+01 -0.2116776900841E+01 -0.1164941735186E+01
-0.9784559844796E+00 -0.3124975842158E+01 -0.1928612958520E+01 -0.8407110210932E+00
-0.6494928671905E+00 -0.3065428307432E+01 -0.1746012952072E+01 -0.5723364860089E+00
-0.3911909781717E+00 -0.2946457955936E+01 -0.1568694999031E+01 -0.3587186221027E+00
-0.1980544334617E+00 -0.2788491301459E+01 -0.1403676495413E+01 -0.2059370658146E+00
-0.5748721060645E-01 -0.2605957258160E+01 -0.1251818900320E+01 -0.1078629189663E+00
 0.4271381883253E-01 -0.2405608551266E+01 -0.1110560524244E+01 -0.5394266468910E-01
 0.1135239280794E+00 -0.2187808149787E+01 -0.9749135842024E+00 -0.3289875425849E-01
 0.1568552671828E+00 -0.1962170524763E+01 -0.8484981710629E+00 -0.3581506570366E-01
 0.1708111959646E+00 -0.1753594686751E+01 -0.7439082406697E+00 -0.5585004589313E-01
 0.1692920554315E+00 -0.1564942648229E+01 -0.6559557786148E+00 -0.8486421115818E-01
 0.1562201090575E+00 -0.1393995672670E+01 -0.5817545148980E+00 -0.1150494154905E+00
 0.1292320239172E+00 -0.1239541098831E+01 -0.5218452652095E+00 -0.1421761441633E+00
 0.8767770553887E-01 -0.1100535510314E+01 -0.4760431682445E+00 -0.1644349100891E+00
 0.3387683511675E-01 -0.9745921843128E+00 -0.4421362141221E+00 -0.1806127414654E+00
-0.2930566513212E-01 -0.8597589012563E+00 -0.4178603462025E+00 -0.1896148248731E+00
-0.9753950925682E-01 -0.7550090978018E+00 -0.4006978453175E+00 -0.1904744435797E+00
-0.1646074836482E+00 -0.6558159187645E+00 -0.3855989991339E+00 -0.1818389715454E+00
-0.2236839001502E+00 -0.5720692113558E+00 -0.3740039624078E+00 -0.1663441804144E+00
-0.2659818243372E+00 -0.5244283932457E+00 -0.3714928022640E+00 -0.1564791070842E+00
-0.1445280246814E+01 -0.3054822343644E+01 -0.2115048217515E+01 -0.1137552908516E+01
-0.1037479329465E+01 -0.3092182506562E+01 -0.1940941062933E+01 -0.8445579760972E+00
-0.7088770543454E+00 -0.3059653934695E+01 -0.1771209564849E+01 -0.5983826832987E+00
-0.4434958378298E+00 -0.2973724371354E+01 -0.1606093498316E+01 -0.3985810389902E+00
-0.2384660185735E+00 -0.2849101177574E+01 -0.1451156582189E+01 -0.2507114425709E+00
-0.8417678517775E-01 -0.2696963309120E+01 -0.1307135844320E+01 -0.1507342106450E+00
 0.2932404609192E-01 -0.2523132268152E+01 -0.1172089864368E+01 -0.9076685841822E-01
 0.1114467341826E+00 -0.2328761131491E+01 -0.1042137766735E+01 -0.6192286029815E-01
 0.1641581682077E+00 -0.2123116488303E+01 -0.9207104104447E+00 -0.5704249699750E-01
 0.1858677687929E+00 -0.1929076522059E+01 -0.8193081140350E+00 -0.7083518973633E-01
 0.1892148154623E+00 -0.1750842258201E+01 -0.7339648980871E+00 -0.9650271904136E-01
 0.1794980929758E+00 -0.1587332345220E+01 -0.6616820985547E+00 -0.1264894773469E+00
 0.1556360279289E+00 -0.1437958973964E+01 -0.6026917846366E+00 -0.1561238004324E+00
 0.1169951096840E+00 -0.1302050095431E+01 -0.5569758433011E+00 -0.1832456915489E+00
 0.6525567313649E-01 -0.1177449727190E+01 -0.5227312054051E+00 -0.2065568580920E+00
 0.2290403253745E-02 -0.1062241010637E+01 -0.4981767854703E+00 -0.2250218986928E+00
-0.6890539568179E-01 -0.9552513933633E+00 -0.4813536908512E+00 -0.2376113484519E+00
-0.1428765858255E+00 -0.8516769644282E+00 -0.4674401686193E+00 -0.2424074892830E+00
-0.2168002994965E+00 -0.7621508920600E+00 -0.4601070600316E+00 -0.2411677471367E+00
-0.2798414208696E+00 -0.7073195257838E+00 -0.4639656449271E+00 -0.2437216804418E+00
-0.1489041471916E+01 -0.3016595386826E+01 -0.2117649323609E+01 -0.1109322524942E+01
-0.1095621751633E+01 -0.3064549738369E+01 -0.1955280600301E+01 -0.8431944720394E+00
-0.7682137724328E+00 -0.3053922873514E+01 -0.1796404223595E+01 -0.6172610667381E+00
-0.4973758923603E+00 -0.2995811512689E+01 -0.1641798080373E+01 -0.4312074701076E+00
-0.2821824130568E+00 -0.2900704392584E+01 -0.1495956798651E+01 -0.2897217658830E+00
-0.1154750885381E+00 -0.2777097657721E+01 -0.1359509190742E+01 -0.1900877236547E+00
 0.1071598199883E-01 -0.2629710792227E+01 -0.1230927560807E+01 -0.1263840830952E+00
 0.1042871241027E+00 -0.2459933838238E+01 -0.1107153955643E+01 -0.9165709575475E-01
 0.1672024982536E+00 -0.2276134683581E+01 -0.9911981271040E+00 -0.8023631904814E-01
 0.1981490994414E+00 -0.2098702478260E+01 -0.8932600880448E+00 -0.8817004309612E-01
 0.2081472370362E+00 -0.1932905342364E+01 -0.8106363095040E+00 -0.1100810545811E+00
 0.2033339921901E+00 -0.1778838136894E+01 -0.7404869480107E+00 -0.1390475270760E+00
 0.1838979115939E+00 -0.1636642768217E+01 -0.6827900826127E+00 -0.1702305258505E+00
 0.1495290924622E+00 -0.1506149378566E+01 -0.6376115344690E+00 -0.2011947918125E+00
 0.1015637294608E+00 -0.1385607422877E+01 -0.6035005359057E+00 -0.2305920461560E+00
 0.4113559951410E-01 -0.1273253455078E+01 -0.5790953921152E+00 -0.2575674225149E+00
-0.3003253585952E-01 -0.1167790343762E+01 -0.5629767534221E+00 -0.2812862073214E+00
-0.1075234645769E+00 -0.1064119262017E+01 -0.5506720814992E+00 -0.2996236456222E+00
-0.1930062273758E+00 -0.9729312113303E+00 -0.5479905961919E+00 -0.3135003174786E+00
-0.2743708932068E+00 -0.9138239566395E+00 -0.5584515794277E+00 -0.3295323927703E+00
-0.1533600478547E+01 -0.2984980607960E+01 -0.2123733110658E+01 -0.1080252786326E+01
-0.1152828668506E+01 -0.3041388719991E+01 -0.1971282172594E+01 -0.8373824456676E+00
-0.8273752693621E+00 -0.3048583733489E+01 -0.1821700731340E+01 -0.6298589930204E+00
-0.5525857530442E+00 -0.3013862418208E+01 -0.1676230640488E+01 -0.4571548414527E+00
-0.3289018731838E+00 -0.2944654176988E+01 -0.1538571343581E+01 -0.3229501706099E+00
-0.1511402893299E+00 -0.2847338549616E+01 -0.1409285054305E+01 -0.2253439718688E+00
-0.1304540693495E-01 -0.2725588251387E+01 -0.1287157819411E+01 -0.1598407639623E+00
 0.9186397628915E-01 -0.2580756795385E+01 -0.1169779624975E+01 -0.1210065486512E+00
 0.1654943315678E+00 -0.2420028250482E+01 -0.1059630941890E+01 -0.1043734680317E+00
 0.2067994590000E+00 -0.2260994033478E+01 -0.9654714500046E+00 -0.1070655710111E+00
 0.2250153830070E+00 -0.2109580407511E+01 -0.8857455615170E+00 -0.1250673047116E+00
 0.2265967966093E+00 -0.1966918756682E+01 -0.8179513212344E+00 -0.1523524667052E+00
 0.2128664286027E+00 -0.1833853435101E+01 -0.7618638930543E+00 -0.1841557231226E+00
 0.1840495650810E+00 -0.1710783964690E+01 -0.7175651678163E+00 -0.2178251301241E+00
 0.1414572984757E+00 -0.1596537820346E+01 -0.6838878452792E+00 -0.2519439183573E+00
 0.8580980669240E-01 -0.1489769321287E+01 -0.6598609718594E+00 -0.2858974176409E+00
 0.1787316687887E-01 -0.1389174258267E+01 -0.6445115129525E+00 -0.3193000942614E+00
-0.5918617584490E-01 -0.1289501123905E+01 -0.6338830308822E+00 -0.3503184409986E+00
-0.1519285231589E+00 -0.1200669943550E+01 -0.6357212793531E+00 -0.3792668866550E+00
-0.2485048006501E+00 -0.1140227433943E+01 -0.6527041502588E+00 -0.4091429275156E+00
-0.1578648450906E+01 -0.2958894244231E+01 -0.2132645066715E+01 -0.1050312396298E+01
-0.1209089502509E+01 -0.3022102397668E+01 -0.1988660193083E+01 -0.8277243302373E+00
-0.8862699708485E+00 -0.3043817486635E+01 -0.1847141105017E+01 -0.6369284491180E+00
-0.6089084405632E+00 -0.3028717936369E+01 -0.1709684397158E+01 -0.4769665069404E+00
-0.3783331117345E+00 -0.2982066763789E+01 -0.1579387941496E+01 -0.3505017652731E+00
-0.1909114408785E+00 -0.2908632537056E+01 -0.1456785669629E+01 -0.2561210746148E+00
-0.4184344555376E-01 -0.2811198845311E+01 -0.1340929876707E+01 -0.1903632503665E+00
 0.7407236541002E-01 -0.2690975271920E+01 -0.1229944366060E+01 -0.1489659985462E+00
 0.1586403348084E+00 -0.2553881149276E+01 -0.1125763182800E+01 -0.1283951167043E+00
 0.2110767632983E+00 -0.2414601697231E+01 -0.1035656718948E+01 -0.1265866698275E+00
 0.2388229887475E+00 -0.2279310881362E+01 -0.9590293095287E+00 -0.1407402296158E+00
 0.2481794715452E+00 -0.2149939270169E+01 -0.8938271053530E+00 -0.1658808644577E+00
 0.2413491723847E+00 -0.2027879897980E+01 -0.8396694410299E+00 -0.1975211691991E+00
 0.2191996578581E+00 -0.1914003094169E+01 -0.7965576150660E+00 -0.2328254723165E+00
 0.1832666446544E+00 -0.1807797945734E+01 -0.7635297115074E+00 -0.2701999140156E+00
 0.1343735579092E+00 -0.1708524397409E+01 -0.7398508945650E+00 -0.3091622097838E+00
 0.7270033704530E-01 -0.1615435224242E+01 -0.7250853969825E+00 -0.3499519401549E+00
 0.5449683419041E-03 -0.1523230367059E+01 -0.7156621373972E+00 -0.3916506300996E+00
-0.9419300947146E-01 -0.1440642649650E+01 -0.7213727597870E+00 -0.4346418511433E+00
-0.2023878505238E+00 -0.1381736221354E+01 -0.7445383137827E+00 -0.4782041165152E+00
-0.1623958441490E+01 -0.2937472582254E+01 -0.2143872581160E+01 -0.1019448404716E+01
-0.1264419186441E+01 -0.3006176040916E+01 -0.2007179756858E+01 -0.8147045571629E+00
-0.9448336123068E+00 -0.3039690139661E+01 -0.1872726163425E+01 -0.6391132984339E+00
-0.6661632468394E+00 -0.3040992922792E+01 -0.1742363399727E+01 -0.4911613518029E+00
-0.4302068805580E+00 -0.3013847406727E+01 -0.1618705515024E+01 -0.3725652460029E+00
-0.2345201069745E+00 -0.2961846309024E+01 -0.1502292215519E+01 -0.2821966277474E+00
-0.7551575591453E-01 -0.2887074438109E+01 -0.1392417391191E+01 -0.2173513223625E+00
 0.5087946459548E-01 -0.2790582292989E+01 -0.1287660329345E+01 -0.1746599914902E+00
 0.1463428953328E+00 -0.2677063448491E+01 -0.1189438659984E+01 -0.1512857228797E+00
 0.2103549125903E+00 -0.2558362587609E+01 -0.1103563607259E+01 -0.1457339894909E+00
 0.2486775971454E+00 -0.2440575203082E+01 -0.1030191874790E+01 -0.1562260954350E+00
 0.2670611518741E+00 -0.2326208588823E+01 -0.9677992953658E+00 -0.1789152529440E+00
 0.2682432899556E+00 -0.2217000957319E+01 -0.9159161036606E+00 -0.2097910690727E+00
 0.2536518755406E+00 -0.2114062778392E+01 -0.8743931243399E+00 -0.2458978164803E+00
 0.2252444567350E+00 -0.2017291424030E+01 -0.8422620746287E+00 -0.2852915511875E+00
 0.1842484774147E+00 -0.1926667924919E+01 -0.8189371403269E+00 -0.3272659011256E+00
 0.1316065657443E+00 -0.1842016249162E+01 -0.8038925512065E+00 -0.3724120812367E+00
 0.6859332416305E-01 -0.1760014154577E+01 -0.7949677902946E+00 -0.4214231600519E+00
-0.2105261781539E-01 -0.1686660385360E+01 -0.8026251114925E+00 -0.4760929859109E+00
-0.1369982536670E+00 -0.1632710795510E+01 -0.8317632531132E+00 -0.5328543785866E+00
-0.1669381312605E+01 -0.2920053441730E+01 -0.2157034334538E+01 -0.9875959332803E+00
-0.1318830580275E+01 -0.2993154597432E+01 -0.2026633033522E+01 -0.7987241189060E+00
-0.1003028107985E+01 -0.3036191782436E+01 -0.1898433348498E+01 -0.6369723178713E+00
-0.7241973229565E+00 -0.3051118479601E+01 -0.1774398427202E+01 -0.5002281727141E+00
-0.4842970490837E+00 -0.3040736315149E+01 -0.1656765681189E+01 -0.3893864296532E+00
-0.2816959583641E+00 -0.3007734395149E+01 -0.1546032266151E+01 -0.3034780312093E+00
-0.1138627786644E+00 -0.2953770962492E+01 -0.1441787858343E+01 -0.2403606143931E+00
 0.2232008448469E-01 -0.2879749031522E+01 -0.1342991605107E+01 -0.1973565144968E+00
 0.1283897868885E+00 -0.2789222951351E+01 -0.1250591587297E+01 -0.1721305497587E+00
 0.2041057953238E+00 -0.2691357986083E+01 -0.1169008529657E+01 -0.1635373830099E+00
 0.2537736060354E+00 -0.2591942722228E+01 -0.1098939484611E+01 -0.1705894424564E+00
 0.2823175960738E+00 -0.2493937038109E+01 -0.1039461137757E+01 -0.1905697193555E+00
 0.2926121708582E+00 -0.2399327405617E+01 -0.9901561603364E+00 -0.2201609226261E+00
 0.2864062344247E+00 -0.2309221755879E+01 -0.9507232950836E+00 -0.2564831023496E+00
 0.2658631231248E+00 -0.2223569646660E+01 -0.9201220660615E+00 -0.2972037003533E+00
 0.2330286684571E+00 -0.2142273271664E+01 -0.8973449635072E+00 -0.3409061914849E+00
 0.1896417522901E+00 -0.2066138853713E+01 -0.8819536376689E+00 -0.3875860352882E+00
 0.1413192369805E+00 -0.1992074635169E+01 -0.8698550371486E+00 -0.4387491490901E+00
 0.6407127946863E-01 -0.1931827381496E+01 -0.8778453679528E+00 -0.5005034219312E+00
-0.5195594372277E-01 -0.1885024835069E+01 -0.9103809660322E+00 -0.5695311493986E+00
-0.1714808740642E+01 -0.2906141866539E+01 -0.2171846785375E+01 -0.9546752476582E+00
-0.1372410791084E+01 -0.2982742703135E+01 -0.2046922142283E+01 -0.7801502550203E+00
-0.1060703959713E+01 -0.3033079378240E+01 -0.1924078168838E+01 -0.6309980792809E+00
-0.7829780062635E+00 -0.3059491546784E+01 -0.1805960689932E+01 -0.5046077448820E+00
-0.5403909131874E+00 -0.3063314779458E+01 -0.1693741675543E+01 -0.4012588014321E+00
-0.3321967766343E+00 -0.3046946350469E+01 -0.1588197269739E+01 -0.3199841100070E+00
-0.1566466467886E+00 -0.3011789916359E+01 -0.1489165184680E+01 -0.2590845467525E+00
-0.1150032482277E-01 -0.2958738401050E+01 -0.1396012201160E+01 -0.2164549237101E+00
 0.1046523470126E+00 -0.2890260885510E+01 -0.1309236013094E+01 -0.1901357751765E+00
 0.1918815493605E+00 -0.2812984041315E+01 -0.1231918171219E+01 -0.1791329526131E+00
 0.2533410963978E+00 -0.2732201559044E+01 -0.1165064417444E+01 -0.1829677196236E+00
 0.2930269737683E+00 -0.2651289305033E+01 -0.1108383295694E+01 -0.1999355554088E+00
 0.3136196692304E+00 -0.2572586600571E+01 -0.1061714457730E+01 -0.2275897791762E+00
 0.3168327131676E+00 -0.2497245022542E+01 -0.1024793785406E+01 -0.2634765556701E+00
 0.3046888113574E+00 -0.2424975899245E+01 -0.9965349313074E+00 -0.3052192675825E+00
 0.2790358533242E+00 -0.2355261559228E+01 -0.9758260817747E+00 -0.3507083420383E+00
 0.2435620188335E+00 -0.2287195170369E+01 -0.9605075812215E+00 -0.3983480875695E+00
 0.2047153030048E+00 -0.2220469180123E+01 -0.9474043222454E+00 -0.4475085118470E+00
 0.1624289666246E+00 -0.2155778432958E+01 -0.9368742491765E+00 -0.5055961565093E+00
 0.5266624349965E-01 -0.2130042673469E+01 -0.9763669220858E+00 -0.5830034029731E+00
-0.1761605482856E+01 -0.2897067040501E+01 -0.2189576085978E+01 -0.9208398648117E+00
-0.1424081180316E+01 -0.2973230270950E+01 -0.2066736382095E+01 -0.7594713138028E+00
-0.1118341649151E+01 -0.3030652203635E+01 -0.1950027110810E+01 -0.6215100702599E+00
-0.8422915362771E+00 -0.3066243900261E+01 -0.1837011655173E+01 -0.5047180091948E+00
-0.5983892921368E+00 -0.3082149565065E+01 -0.1729853262885E+01 -0.4085044511488E+00
-0.3858082736740E+00 -0.3080033826589E+01 -0.1628945787124E+01 -0.3318492749405E+00
-0.2036262936389E+00 -0.3061533141147E+01 -0.1534624934349E+01 -0.2733559823136E+00
-0.5036662331064E-01 -0.3027735797188E+01 -0.1446708137634E+01 -0.2314584015080E+00
 0.7511165246837E-01 -0.2980249865537E+01 -0.1365414960142E+01 -0.2045876450504E+00
 0.1733090852833E+00 -0.2923049376294E+01 -0.1292377936775E+01 -0.1917793147575E+00
 0.2466354400243E+00 -0.2860557275933E+01 -0.1228543262877E+01 -0.1926957450373E+00
 0.2981342533109E+00 -0.2796657858403E+01 -0.1174306094393E+01 -0.2063405358516E+00
 0.3301905472735E+00 -0.2734234186960E+01 -0.1129900510653E+01 -0.2311414695615E+00
 0.3443050264856E+00 -0.2674832335836E+01 -0.1095347835395E+01 -0.2653829841897E+00
 0.3419179170724E+00 -0.2618319618260E+01 -0.1069908799558E+01 -0.3072460780808E+00
 0.3242536871065E+00 -0.2563558640767E+01 -0.1052473328220E+01 -0.3548525789692E+00
 0.2925389743825E+00 -0.2509551610148E+01 -0.1041995938810E+01 -0.4060238878389E+00
 0.2568778877202E+00 -0.2449742215293E+01 -0.1030646233959E+01 -0.4570797975019E+00
 0.2166002026324E+00 -0.2389830636302E+01 -0.1021418303824E+01 -0.5066106462404E+00
 0.2310747446721E+00 -0.2285773597529E+01 -0.9657084608430E+00 -0.5700214731211E+00
-0.1761605469841E+01 -0.2897067043762E+01 -0.2189576081393E+01  0.9208398779138E+00
-0.1424081170069E+01 -0.2973230272063E+01 -0.2066736377802E+01  0.7594713230818E+00
-0.1118341641887E+01 -0.3030652202998E+01 -0.1950027107096E+01  0.6215100764618E+00
-0.8422915313277E+00 -0.3066243898159E+01 -0.1837011651859E+01  0.5047180130014E+00
-0.5983892889554E+00 -0.3082149561937E+01 -0.1729853259920E+01  0.4085044532189E+00
-0.3858082717337E+00 -0.3080033822872E+01 -0.1628945784465E+01  0.3318492758383E+00
-0.2036262925129E+00 -0.3061533137259E+01 -0.1534624931993E+01  0.2733559824837E+00
-0.5036662267640E-01 -0.3027735793477E+01 -0.1446708135592E+01  0.2314584012701E+00
 0.7511165275352E-01 -0.2980249862303E+01 -0.1365414958488E+01  0.2045876446163E+00
 0.1733090852992E+00 -0.2923049373730E+01 -0.1292377935563E+01  0.1917793142915E+00
 0.2466354398943E+00 -0.2860557274052E+01 -0.1228543262054E+01  0.1926957446507E+00
 0.2981342531199E+00 -0.2796657857117E+01 -0.1174306093879E+01  0.2063405355885E+00
 0.3301905470468E+00 -0.2734234186155E+01 -0.1129900510381E+01  0.2311414694323E+00
 0.3443050262113E+00 -0.2674832335411E+01 -0.1095347835324E+01  0.2653829841965E+00
 0.3419179167648E+00 -0.2618319618119E+01 -0.1069908799637E+01  0.3072460782153E+00
 0.3242536867704E+00 -0.2563558640859E+01 -0.1052473328422E+01  0.3548525792170E+00
 0.2925389741354E+00 -0.2509551610426E+01 -0.1041995939056E+01  0.4060238881521E+00
 0.2568778881389E+00 -0.2449742215444E+01 -0.1030646233834E+01  0.4570797978148E+00
 0.2166002021941E+00 -0.2389830637435E+01 -0.1021418304563E+01  0.5066106470366E+00
 0.2310747430546E+00 -0.2285773599911E+01 -0.9657084627227E+00  0.5700214748557E+00
-0.1714808727852E+01 -0.2906141870250E+01 -0.2171846781108E+01  0.9546752597744E+00
-0.1372410780882E+01 -0.2982742705005E+01 -0.2046922138367E+01  0.7801502631184E+00
-0.1060703952154E+01 -0.3033079378085E+01 -0.1924078165212E+01  0.6309980843404E+00
-0.7829780009311E+00 -0.3059491544967E+01 -0.1805960686572E+01  0.5046077476291E+00
-0.5403909095848E+00 -0.3063314776401E+01 -0.1693741672413E+01  0.4012588025761E+00
-0.3321967742978E+00 -0.3046946346638E+01 -0.1588197266840E+01  0.3199841101349E+00
-0.1566466453254E+00 -0.3011789912187E+01 -0.1489165182031E+01  0.2590845463125E+00
-0.1150032392297E-01 -0.2958738396889E+01 -0.1396012198782E+01  0.2164549230097E+00
 0.1046523474750E+00 -0.2890260881709E+01 -0.1309236011090E+01  0.1901357744188E+00
 0.1918815494637E+00 -0.2812984038131E+01 -0.1231918169674E+01  0.1791329519613E+00
 0.2533410962940E+00 -0.2732201556508E+01 -0.1165064416301E+01  0.1829677191745E+00
 0.2930269735460E+00 -0.2651289303083E+01 -0.1108383294882E+01  0.1999355551836E+00
 0.3136196689136E+00 -0.2572586599116E+01 -0.1061714457195E+01  0.2275897791657E+00
 0.3168327127620E+00 -0.2497245021484E+01 -0.1024793785099E+01  0.2634765558574E+00
 0.3046888109112E+00 -0.2424975898490E+01 -0.9965349311621E+00  0.3052192679411E+00
 0.2790358528884E+00 -0.2355261558743E+01 -0.9758260817515E+00  0.3507083425504E+00
 0.2435620186337E+00 -0.2287195170109E+01 -0.9605075811936E+00  0.3983480882431E+00
 0.2047153031885E+00 -0.2220469180180E+01 -0.9474043221859E+00  0.4475085128410E+00
 0.1624289650794E+00 -0.2155778434505E+01 -0.9368742506301E+00  0.5055961584037E+00
 0.5266624099702E-01 -0.2130042676411E+01 -0.9763669246447E+00  0.5830034055566E+00
-0.1669381300276E+01 -0.2920053446160E+01 -0.2157034330825E+01  0.9875959444933E+00
-0.1318830570058E+01 -0.2993154599976E+01 -0.2026633029916E+01  0.7987241258556E+00
-0.1003028100221E+01 -0.3036191782793E+01 -0.1898433345017E+01  0.6369723217703E+00
-0.7241973173033E+00 -0.3051118478035E+01 -0.1774398423809E+01  0.5002281743902E+00
-0.4842970451506E+00 -0.3040736312111E+01 -0.1656765677913E+01  0.3893864298696E+00
-0.2816959557340E+00 -0.3007734391130E+01 -0.1546032263026E+01  0.3034780305775E+00
-0.1138627769737E+00 -0.2953770957941E+01 -0.1441787855410E+01  0.2403606133623E+00
 0.2232008554773E-01 -0.2879749026791E+01 -0.1342991602384E+01  0.1973565133583E+00
 0.1283897874267E+00 -0.2789222946858E+01 -0.1250591584933E+01  0.1721305487058E+00
 0.2041057954123E+00 -0.2691357982173E+01 -0.1169008527778E+01  0.1635373822039E+00
 0.2537736058631E+00 -0.2591942718957E+01 -0.1098939483154E+01  0.1705894419743E+00
 0.2823175957407E+00 -0.2493937035436E+01 -0.1039461136657E+01  0.1905697191872E+00
 0.2926121703926E+00 -0.2399327403463E+01 -0.9901561595431E+00  0.2201609227367E+00
 0.2864062338413E+00 -0.2309221754161E+01 -0.9507232945502E+00  0.2564831027073E+00
 0.2658631224845E+00 -0.2223569645295E+01 -0.9201220657208E+00  0.2972037009333E+00
 0.2330286678036E+00 -0.2142273270643E+01 -0.8973449633346E+00  0.3409061923056E+00
 0.1896417517198E+00 -0.2066138853042E+01 -0.8819536376215E+00  0.3875860364306E+00
 0.1413192364895E+00 -0.1992074634808E+01 -0.8698550372096E+00  0.4387491507397E+00
 0.6407127690102E-01 -0.1931827382737E+01 -0.8778453697427E+00  0.5005034245146E+00
-0.5195594679549E-01 -0.1885024838354E+01 -0.9103809690201E+00  0.5695311525991E+00
-0.1623958429710E+01 -0.2937472587504E+01 -0.2143872578091E+01  0.1019448415078E+01
-0.1264419176250E+01 -0.3006176044185E+01 -0.2007179753604E+01  0.8147045629724E+00
-0.9448336043791E+00 -0.3039690140503E+01 -0.1872726160095E+01  0.6391133011638E+00
-0.6661632409455E+00 -0.3040992921436E+01 -0.1742363396319E+01  0.4911613524002E+00
-0.4302068763854E+00 -0.3013847403637E+01 -0.1618705511610E+01  0.3725652452999E+00
-0.2345201041547E+00 -0.2961846304728E+01 -0.1502292212175E+01  0.2821966263800E+00
-0.7551575410293E-01 -0.2887074433079E+01 -0.1392417387976E+01  0.2173513207773E+00
 0.5087946572248E-01 -0.2790582287577E+01 -0.1287660326272E+01  0.1746599899572E+00
 0.1463428958502E+00 -0.2677063443204E+01 -0.1189438657256E+01  0.1512857215814E+00
 0.2103549125738E+00 -0.2558362582901E+01 -0.1103563605054E+01  0.1457339885819E+00
 0.2486775968321E+00 -0.2440575199033E+01 -0.1030191873034E+01  0.1562260949628E+00
 0.2670611513744E+00 -0.2326208585406E+01 -0.9677992939951E+00  0.1789152528606E+00
 0.2682432892933E+00 -0.2217000954470E+01 -0.9159161026332E+00  0.2097910693180E+00
 0.2536518747235E+00 -0.2114062776035E+01 -0.8743931236163E+00  0.2458978170148E+00
 0.2252444558105E+00 -0.2017291422079E+01 -0.8422620741464E+00  0.2852915519954E+00
 0.1842484763730E+00 -0.1926667923360E+01 -0.8189371400838E+00  0.3272659022474E+00
 0.1316065646150E+00 -0.1842016247932E+01 -0.8038925511590E+00  0.3724120827540E+00
 0.6859332285751E-01 -0.1760014153557E+01 -0.7949677904286E+00  0.4214231620744E+00
-0.2105262119516E-01 -0.1686660386104E+01 -0.8026251134307E+00  0.4760929887998E+00
-0.1369982571023E+00 -0.1632710798900E+01 -0.8317632563211E+00  0.5328543821982E+00
-0.1578648439750E+01 -0.2958894250386E+01 -0.2132645064364E+01  0.1050312405857E+01
-0.1209089492388E+01 -0.3022102401699E+01 -0.1988660190221E+01  0.8277243349022E+00
-0.8862699628151E+00 -0.3043817487940E+01 -0.1847141101855E+01  0.6369284506677E+00
-0.6089084345064E+00 -0.3028717935155E+01 -0.1709684393741E+01  0.4769665064588E+00
-0.3783331074180E+00 -0.2982066760558E+01 -0.1579387937949E+01  0.3505017636708E+00
-0.1909114379724E+00 -0.2908632532382E+01 -0.1456785666067E+01  0.2561210725521E+00
-0.4184344372426E-01 -0.2811198839700E+01 -0.1340929873210E+01  0.1903632482825E+00
 0.7407236650791E-01 -0.2690975265728E+01 -0.1229944362634E+01  0.1489659966841E+00
 0.1586403352187E+00 -0.2553881143121E+01 -0.1125763179714E+01  0.1283951152319E+00
 0.2110767631037E+00 -0.2414601691688E+01 -0.1035656716435E+01  0.1265866688837E+00
 0.2388229882418E+00 -0.2279310876529E+01 -0.9590293074951E+00  0.1407402292069E+00
 0.2481794708398E+00 -0.2149939266030E+01 -0.8938271037394E+00  0.1658808644926E+00
 0.2413491714865E+00 -0.2027879894473E+01 -0.8396694398037E+00  0.1975211695934E+00
 0.2191996567561E+00 -0.1914003091209E+01 -0.7965576141930E+00  0.2328254730226E+00
 0.1832666433711E+00 -0.1807797943211E+01 -0.7635297109247E+00  0.2701999150157E+00
 0.1343735563984E+00 -0.1708524395270E+01 -0.7398508942696E+00  0.3091622111083E+00
 0.7270033530218E-01 -0.1615435222369E+01 -0.7250853969214E+00  0.3499519418464E+00
 0.5449662679746E-03 -0.1523230365313E+01 -0.7156621375511E+00  0.3916506321884E+00
-0.9419301336545E-01 -0.1440642649796E+01 -0.7213727616858E+00  0.4346418540045E+00
-0.2023878541765E+00 -0.1381736224676E+01 -0.7445383170605E+00  0.4782041203005E+00
-0.1533600468086E+01 -0.2984980615094E+01 -0.2123733109095E+01  0.1080252795125E+01
-0.1152828658504E+01 -0.3041388724810E+01 -0.1971282170157E+01  0.8373824491756E+00
-0.8273752612882E+00 -0.3048583735217E+01 -0.1821700728357E+01  0.6298589933778E+00
-0.5525857469074E+00 -0.3013862417051E+01 -0.1676230637061E+01  0.4571548398999E+00
-0.3289018688198E+00 -0.2944654173511E+01 -0.1538571339895E+01  0.3229501681434E+00
-0.1511402864392E+00 -0.2847338544459E+01 -0.1409285050522E+01  0.2253439691711E+00
-0.1304540518494E-01 -0.2725588245101E+01 -0.1287157815635E+01  0.1598407614574E+00
 0.9186397727412E-01 -0.2580756788340E+01 -0.1169779621201E+01  0.1210065465480E+00
 0.1654943317980E+00 -0.2420028243421E+01 -0.1059630938463E+01  0.1043734664765E+00
 0.2067994585738E+00 -0.2260994027102E+01 -0.9654714472082E+00  0.1070655701133E+00
 0.2250153822782E+00 -0.2109580401928E+01 -0.8857455592352E+00  0.1250673044231E+00
 0.2265967956773E+00 -0.1966918751872E+01 -0.8179513194115E+00  0.1523524668878E+00
 0.2128664274465E+00 -0.1833853430990E+01 -0.7618638916655E+00  0.1841557236664E+00
 0.1840495636670E+00 -0.1710783961173E+01 -0.7175651668278E+00  0.2178251309677E+00
 0.1414572968071E+00 -0.1596537817274E+01 -0.6838878446196E+00  0.2519439194668E+00
 0.8580980470757E-01 -0.1489769318572E+01 -0.6598609715161E+00  0.2858974190167E+00
 0.1787316457455E-01 -0.1389174255762E+01 -0.6445115128579E+00  0.3193000958984E+00
-0.5918617852460E-01 -0.1289501121468E+01 -0.6338830309965E+00  0.3503184428675E+00
-0.1519285272391E+00 -0.1200669943091E+01 -0.6357212810552E+00  0.3792668891864E+00
-0.2485048043537E+00 -0.1140227437083E+01 -0.6527041534755E+00  0.4091429312106E+00
-0.1489041462223E+01 -0.3016595395011E+01 -0.2117649322900E+01  0.1109322533017E+01
-0.1095621741805E+01 -0.3064549743987E+01 -0.1955280598322E+01  0.8431944743718E+00
-0.7682137643915E+00 -0.3053922875604E+01 -0.1796404220798E+01  0.6172610658913E+00
-0.4973758862310E+00 -0.2995811511481E+01 -0.1641798076925E+01  0.4312074675019E+00
-0.2821824087420E+00 -0.2900704388737E+01 -0.1495956794815E+01  0.2897217626063E+00
-0.1154750857601E+00 -0.2777097651972E+01 -0.1359509186734E+01  0.1900877204054E+00
 0.1071598358056E-01 -0.2629710785190E+01 -0.1230927556756E+01  0.1263840802715E+00
 0.1042871249029E+00 -0.2459933830296E+01 -0.1107153951535E+01  0.9165709352046E-01
 0.1672024982478E+00 -0.2276134675614E+01 -0.9911981233620E+00  0.8023631751724E-01
 0.1981490987528E+00 -0.2098702471091E+01 -0.8932600849990E+00  0.8817004232960E-01
 0.2081472360765E+00 -0.1932905336092E+01 -0.8106363070075E+00  0.1100810544639E+00
 0.2033339910312E+00 -0.1778838131484E+01 -0.7404869460130E+00  0.1390475274212E+00
 0.1838979101802E+00 -0.1636642763573E+01 -0.6827900810947E+00  0.1702305265225E+00
 0.1495290907413E+00 -0.1506149374555E+01 -0.6376115333923E+00  0.2011947927309E+00
 0.1015637274281E+00 -0.1385607419314E+01 -0.6035005351865E+00  0.2305920472623E+00
 0.4113559711629E-01 -0.1273253451852E+01 -0.5790953917258E+00  0.2575674237734E+00
-0.3003253859357E-01 -0.1167790340713E+01 -0.5629767532739E+00  0.2812862086846E+00
-0.1075234676341E+00 -0.1064119259011E+01 -0.5506720815234E+00  0.2996236470250E+00
-0.1930062312989E+00 -0.9729312103433E+00 -0.5479905975719E+00  0.3135003194195E+00
-0.2743708967379E+00 -0.9138239595494E+00 -0.5584515824551E+00  0.3295323961078E+00
-0.1445280237972E+01 -0.3054822352949E+01 -0.2115048217733E+01  0.1137552915894E+01
-0.1037479319879E+01 -0.3092182512973E+01 -0.1940941061440E+01  0.8445579772294E+00
-0.7088770464178E+00 -0.3059653937058E+01 -0.1771209562234E+01  0.5983826812386E+00
-0.4434958317983E+00 -0.2973724369955E+01 -0.1606093494824E+01  0.3985810353643E+00
-0.2384660144026E+00 -0.2849101173218E+01 -0.1451156578182E+01  0.2507114385614E+00
-0.8417678260307E-01 -0.2696963302677E+01 -0.1307135840082E+01  0.1507342069542E+00
 0.2932404742838E-01 -0.2523132260313E+01 -0.1172089860056E+01  0.9076685540168E-01
 0.1114467347410E+00 -0.2328761122651E+01 -0.1042137762318E+01  0.6192285806077E-01
 0.1641581679297E+00 -0.2123116479474E+01 -0.9207104064257E+00  0.5704249560547E-01
 0.1858677678366E+00 -0.1929076514172E+01 -0.8193081107777E+00  0.7083518918124E-01
 0.1892148142882E+00 -0.1750842251330E+01 -0.7339648954098E+00  0.9650271913189E-01
 0.1794980916114E+00 -0.1587332339303E+01 -0.6616820964151E+00  0.1264894778502E+00
 0.1556360262817E+00 -0.1437958968878E+01 -0.6026917830202E+00  0.1561238011898E+00
 0.1169951076919E+00 -0.1302050091013E+01 -0.5569758421611E+00  0.1832456924599E+00
 0.6525567080102E-01 -0.1177449723234E+01 -0.5227312046433E+00  0.2065568590721E+00
 0.2290400553663E-02 -0.1062241007018E+01 -0.4981767850385E+00  0.2250218996723E+00
-0.6890539866433E-01 -0.9552513899227E+00 -0.4813536906359E+00  0.2376113493540E+00
-0.1428765889982E+00 -0.8516769610435E+00 -0.4674401685196E+00  0.2424074900278E+00
-0.2168003029178E+00 -0.7621508906943E+00 -0.4601070609977E+00  0.2411677482854E+00
-0.2798414239447E+00 -0.7073195284789E+00 -0.4639656476391E+00  0.2437216831836E+00
-0.1402747143368E+01 -0.3101033499318E+01 -0.2116776902062E+01  0.1164941741883E+01
-0.9784559752140E+00 -0.3124975849337E+01 -0.1928612957539E+01  0.8407110209953E+00
-0.6494928594642E+00 -0.3065428309944E+01 -0.1746012949622E+01  0.5723364827326E+00
-0.3911909723292E+00 -0.2946457954179E+01 -0.1568694995459E+01  0.3587186175096E+00
-0.1980544295245E+00 -0.2788491296448E+01 -0.1403676491207E+01  0.2059370611785E+00
-0.5748720831560E-01 -0.2605957250940E+01 -0.1251818895850E+01  0.1078629149733E+00
 0.4271381986124E-01 -0.2405608542614E+01 -0.1110560519694E+01  0.5394266162773E-01
 0.1135239283558E+00 -0.2187808140096E+01 -0.9749135795179E+00  0.3289875215706E-01
 0.1568552666201E+00 -0.1962170515159E+01 -0.8484981668133E+00  0.3581506456267E-01
 0.1708111947623E+00 -0.1753594678250E+01 -0.7439082372394E+00  0.5585004561463E-01
 0.1692920540821E+00 -0.1564942640867E+01 -0.6559557757888E+00  0.8486421147184E-01
 0.1562201075282E+00 -0.1393995666352E+01 -0.5817545126474E+00  0.1150494161266E+00
 0.1292320220805E+00 -0.1239541093408E+01 -0.5218452635240E+00  0.1421761449466E+00
 0.8767770333508E-01 -0.1100535505604E+01 -0.4760431670665E+00  0.1644349109018E+00
 0.3387683256980E-01 -0.9745921800946E+00 -0.4421362133367E+00  0.1806127422007E+00
-0.2930566799187E-01 -0.8597588974058E+00 -0.4178603457369E+00  0.1896148254356E+00
-0.9753951228154E-01 -0.7550090941701E+00 -0.4006978450323E+00  0.1904744438793E+00
-0.1646074866655E+00 -0.6558159152437E+00 -0.3855989988973E+00  0.1818389715072E+00
-0.2236839027496E+00 -0.5720692098209E+00 -0.3740039629081E+00  0.1663441806470E+00
-0.2659818266366E+00 -0.5244283958007E+00 -0.3714928045456E+00  0.1564791090531E+00
-0.1362061058670E+01 -0.3156998038420E+01 -0.2123957775632E+01  0.1191433504353E+01
-0.9186777522695E+00 -0.3163723464080E+01 -0.1918728571684E+01  0.8306749165801E+00
-0.5902264665626E+00 -0.3070638975121E+01 -0.1720606757591E+01  0.5380671271987E+00
-0.3407206870791E+00 -0.2912465236723E+01 -0.1528997384187E+01  0.3110728856323E+00
-0.1612436588354E+00 -0.2717268361051E+01 -0.1352900649347E+01  0.1555968834984E+00
-0.3562136623555E-01 -0.2503156993260E+01 -0.1193225828963E+01  0.6229270639042E-01
 0.5087145122062E-01 -0.2277205964354E+01 -0.1046377221173E+01  0.1703319071384E-01
 0.1107706271886E+00 -0.2038020194088E+01 -0.9058072964427E+00  0.5702659054777E-02
 0.1458825797020E+00 -0.1794735645683E+01 -0.7749609410113E+00  0.1745428776706E-01
 0.1539278172125E+00 -0.1573778179740E+01 -0.6673296703878E+00  0.4380246382906E-01
 0.1494846443957E+00 -0.1376689896277E+01 -0.5767864683843E+00  0.7551690044182E-01
 0.1345796646454E+00 -0.1200357050411E+01 -0.5009153713100E+00  0.1050130208899E+00
 0.1057045970100E+00 -0.1043110121389E+01 -0.4405805964580E+00  0.1287741578614E+00
 0.6257068874858E-01 -0.9036418060743E+00 -0.3953034251431E+00  0.1454010189707E+00
 0.8401868341137E-02 -0.7794212257505E+00 -0.3623790979824E+00  0.1538171105231E+00
-0.5281672064152E-01 -0.6684825385160E+00 -0.3390106518041E+00  0.1530135930053E+00
-0.1155029898043E+00 -0.5698695620656E+00 -0.3221250993789E+00  0.1423201561603E+00
-0.1729978489699E+00 -0.4793021054358E+00 -0.3065809785707E+00  0.1212165744193E+00
-0.2150610968866E+00 -0.4053409210021E+00 -0.2915889484077E+00  0.9318421763929E-01
-0.2352851684782E+00 -0.3676624515537E+00 -0.2833853814150E+00  0.7270948661186E-01
-0.1324141605708E+01 -0.3225055290289E+01 -0.2138122541118E+01  0.1216886451519E+01
-0.8583805779814E+00 -0.3209334820016E+01 -0.1911826237059E+01  0.8131703535439E+00
-0.5312706037118E+00 -0.3074271982153E+01 -0.1694605015356E+01  0.4943126243073E+00
-0.2923289169469E+00 -0.2869655882203E+01 -0.1486132855601E+01  0.2551513295965E+00
-0.1283060732181E+00 -0.2633585714816E+01 -0.1298089140376E+01  0.1001511555237E+00
-0.1877098572835E-01 -0.2387845941485E+01 -0.1131109955790E+01  0.1512147645039E-01
 0.5381824163160E-01 -0.2138452437485E+01 -0.9797780720512E+00 -0.1871200030347E-01
 0.1034946438015E+00 -0.1880745889779E+01 -0.8353080856093E+00 -0.1861738746984E-01
 0.1319143773493E+00 -0.1622387923918E+01 -0.7005225668875E+00  0.2657358403648E-02
 0.1362334338464E+00 -0.1391061459196E+01 -0.5897691719145E+00  0.3506240684795E-01
 0.1308823381790E+00 -0.1187424116043E+01 -0.4965746355963E+00  0.6867805467999E-01
 0.1155424350269E+00 -0.1007850243638E+01 -0.4193846700473E+00  0.9665247937531E-01
 0.8587479506210E-01 -0.8503359757870E+00 -0.3592967549407E+00  0.1163987296736E+00
 0.4238654380223E-01 -0.7133164109845E+00 -0.3153370375757E+00  0.1269472767923E+00
-0.1059796575729E-01 -0.5941045204598E+00 -0.2842101685220E+00  0.1274138930363E+00
-0.6796278087649E-01 -0.4906584068042E+00 -0.2625519582099E+00  0.1170332860394E+00
-0.1230815159038E+00 -0.4019767355541E+00 -0.2467773781852E+00  0.9564414126729E-01
-0.1691703270940E+00 -0.3239802591707E+00 -0.2317807755444E+00  0.6376747538435E-01
-0.1933522710294E+00 -0.2634579562197E+00 -0.2147008068071E+00  0.2566962653175E-01
-0.1916016028215E+00 -0.2381753958789E+00 -0.2019951893892E+00 -0.2920787061108E-02
-0.1290401560452E+01 -0.3308395412665E+01 -0.2161434577365E+01  0.1241016137419E+01
-0.7979646735353E+00 -0.3262833336360E+01 -0.1908575064651E+01  0.7864898268390E+00
-0.4728096179616E+00 -0.3074657110289E+01 -0.1667309362278E+01  0.4395609525730E+00
-0.2461914560206E+00 -0.2815211610737E+01 -0.1438859441376E+01  0.1906004591534E+00
-0.9948010858554E-01 -0.2535437744966E+01 -0.1238411391169E+01  0.4043549978281E-01
-0.7135198751174E-02 -0.2259759450154E+01 -0.1065440484986E+01 -0.3224852254989E-01
 0.5157557457876E-01 -0.1990499642896E+01 -0.9112943121091E+00 -0.5199837854952E-01
 0.9204778250358E-01 -0.1717678753313E+01 -0.7640465562804E+00 -0.3919656799249E-01
 0.1157126637141E+00 -0.1446645925107E+01 -0.6255386328546E+00 -0.8133161380957E-02
 0.1187924720969E+00 -0.1206644882686E+01 -0.5112906329767E+00  0.2981545002066E-01
 0.1145163472611E+00 -0.9983009140061E+00 -0.4153787463701E+00  0.6450639401099E-01
 0.9990896179967E-01 -0.8178272156944E+00 -0.3374215793305E+00  0.9029033892797E-01
 0.7033011079309E-01 -0.6628402028914E+00 -0.2784797432862E+00  0.1056397724226E+00
 0.2753905083110E-01 -0.5313940199448E+00 -0.2368118354835E+00  0.1099939103830E+00
-0.2294386927578E-01 -0.4205498952480E+00 -0.2084420693262E+00  0.1027274843504E+00
-0.7497712427006E-01 -0.3280758084009E+00 -0.1894348783553E+00  0.8348733431197E-01
-0.1211932349596E+00 -0.2527912861967E+00 -0.1757727249435E+00  0.5281449436229E-01
-0.1549933836282E+00 -0.1907547593365E+00 -0.1625016271934E+00  0.1243295251499E-01
-0.1618424819424E+00 -0.1466954497980E+00 -0.1450128279180E+00 -0.3268910652122E-01
-0.1398631587483E+00 -0.1356821374144E+00 -0.1295062891965E+00 -0.6640127832450E-01
-0.1263089477084E+01 -0.3411533270530E+01 -0.2197072691378E+01  0.1263295227515E+01
-0.7380683703062E+00 -0.3325313988306E+01 -0.1909789708548E+01  0.7482966517732E+00
-0.4149249285750E+00 -0.3069036919961E+01 -0.1637462068812E+01  0.3720093117337E+00
-0.2023306326891E+00 -0.2745359191738E+01 -0.1385414217481E+01  0.1173595999984E+00
-0.7499438975170E-01 -0.2420889179069E+01 -0.1173065277346E+01 -0.2218825688442E-01
-0.1000071659560E-02 -0.2119458237057E+01 -0.9966154050966E+00 -0.7812586655454E-01
 0.4412430777672E-01 -0.1835229837851E+01 -0.8418195991351E+00 -0.8162906529575E-01
 0.7684878846465E-01 -0.1550638273137E+01 -0.6926810577959E+00 -0.5546810515630E-01
 0.9815310479457E-01 -0.1268703701000E+01 -0.5501587802164E+00 -0.1472141581822E-01
 0.1027035170303E+00 -0.1021402733757E+01 -0.4317886318616E+00  0.2815026472524E-01
 0.1013156796110E+00 -0.8103367473067E+00 -0.3332399018170E+00  0.6318714622076E-01
 0.8827627537995E-01 -0.6316230570437E+00 -0.2553729873820E+00  0.8633696656566E-01
 0.5941344629052E-01 -0.4822210432308E+00 -0.1987195705619E+00  0.9717519748008E-01
 0.1815611691164E-01 -0.3595841007369E+00 -0.1604711523979E+00  0.9550684324615E-01
-0.2881417003003E-01 -0.2603805677018E+00 -0.1359215267340E+00  0.8105383651733E-01
-0.7453649977962E-01 -0.1820479029982E+00 -0.1205946693056E+00  0.5405004679185E-01
-0.1112787428592E+00 -0.1230900308713E+00 -0.1101533236533E+00  0.1590624165190E-01
-0.1329258170229E+00 -0.7961224293273E-01 -0.9989288817914E-01 -0.3034507943041E-01
-0.1244099829008E+00 -0.5414822957700E-01 -0.8392235986458E-01 -0.7915370579206E-01
-0.8561110553364E-01 -0.5848761008541E-01 -0.6772639634096E-01 -0.1147847530520E+00
-0.1245933565912E+01 -0.3541152227644E+01 -0.2249930322971E+01  0.1282767147802E+01
-0.6796551227498E+00 -0.3397786452569E+01 -0.1916397540400E+01  0.6952961814066E+00
-0.3573682278802E+00 -0.3052799145109E+01 -0.1602778665305E+01  0.2895494302575E+00
-0.1604990594560E+00 -0.2655147740603E+01 -0.1323353996028E+01  0.3593909179667E-01
-0.5519214539632E-01 -0.2288606572667E+01 -0.1101585397490E+01 -0.8565051237296E-01
-0.8838995925480E-03 -0.1968825211541E+01 -0.9257632822328E+00 -0.1206369581506E+00
 0.3141367654028E-01 -0.1675155256676E+01 -0.7725585426638E+00 -0.1067174763346E+00
 0.5848261978508E-01 -0.1381130553247E+01 -0.6216445287272E+00 -0.6723487167234E-01
 0.8025595409144E-01 -0.1089200320957E+01 -0.4742038524270E+00 -0.1706145121489E-01
 0.8906754373862E-01 -0.8359460629171E+00 -0.3510329040139E+00  0.3017837590103E-01
 0.9205800182302E-01 -0.6245474723843E+00 -0.2502700511638E+00  0.6499086141775E-01
 0.8101789818908E-01 -0.4506339978513E+00 -0.1737195668412E+00  0.8528419906809E-01
 0.5323804934898E-01 -0.3100638476765E+00 -0.1207081252139E+00  0.9171727341796E-01
 0.1411295016158E-01 -0.1994501957948E+00 -0.8710850544762E-01  0.8441439463904E-01
-0.2869061618874E-01 -0.1149114892486E+00 -0.6749298955557E-01  0.6355700335095E-01
-0.6766960510629E-01 -0.5340145402965E-01 -0.5690339779389E-01  0.3013591375311E-01
-0.9515440003871E-01 -0.1298762167657E-01 -0.5082675020618E-01 -0.1344062624836E-01
-0.1057963714557E+00  0.1029058025410E-01 -0.4488772186478E-01 -0.6280625687764E-01
-0.8515278449460E-01  0.1610736808954E-01 -0.3245134571038E-01 -0.1120085029739E+00
-0.3436883932168E-01 -0.3680489503347E-02 -0.1788318454776E-01 -0.1465143057263E+00
-0.1245436515004E+01 -0.3707710199279E+01 -0.2327978955713E+01  0.1297677877731E+01
-0.6240633977564E+00 -0.3480697401147E+01 -0.1929237575485E+01  0.6226744951151E+00
-0.2990337211602E+00 -0.3018066449850E+01 -0.1559037080375E+01  0.1898474980212E+00
-0.1200934670436E+00 -0.2538423979677E+01 -0.1249503199959E+01 -0.5208019379912E-01
-0.4089934505210E-01 -0.2138969069792E+01 -0.1024538154977E+01 -0.1470102625321E+00
-0.7704869830646E-02 -0.1811533297049E+01 -0.8550419384334E+00 -0.1580135191321E+00
 0.1355199886216E-01 -0.1512837564448E+01 -0.7046642158252E+00 -0.1269450513842E+00
 0.3787041692934E-01 -0.1209763786655E+01 -0.5507898837710E+00 -0.7462144016962E-01
 0.6314513308363E-01 -0.9082486973027E+00 -0.3971986751830E+00 -0.1507496780218E-01
 0.7892438368254E-01 -0.6508728879436E+00 -0.2688157970027E+00  0.3612685636752E-01
 0.8732719255616E-01 -0.4421035325703E+00 -0.1667448798067E+00  0.7027037695779E-01
 0.7828913680205E-01 -0.2763491566971E+00 -0.9308820935069E-01  0.8765554727130E-01
 0.5172444632281E-01 -0.1479141628118E+00 -0.4520916674982E-01  0.8994314790651E-01
 0.1507331715618E-01 -0.5238346921516E-01 -0.1753577146772E-01  0.7752728028520E-01
-0.2329560555538E-01  0.1486912588311E-01 -0.3960445445970E-02  0.5117873386657E-01
-0.5564399066324E-01  0.5752918534149E-01  0.8860414987763E-03  0.1280213338065E-01
-0.7483070346814E-01  0.7802077479006E-01  0.1499333521301E-02 -0.3412194635697E-01
-0.7653001680970E-01  0.8047101435389E-01  0.1852268845771E-02 -0.8398345737474E-01
-0.4796047148519E-01  0.6670904462853E-01  0.8811829377370E-02 -0.1306949267064E+00
 0.9046430054191E-02  0.3246593821315E-01  0.1951081308565E-01 -0.1615781445714E+00
-0.1273720509863E+01 -0.3928777158876E+01 -0.2445173904308E+01  0.1304688981137E+01
-0.5727802887234E+00 -0.3572505529830E+01 -0.1948284334720E+01  0.5230921354088E+00
-0.2367426181410E+00 -0.2951040889689E+01 -0.1498258248680E+01  0.7071727615635E-01
-0.8040647788470E-01 -0.2388676737588E+01 -0.1160469111272E+01 -0.1431684398986E+00
-0.3428714319469E-01 -0.1976150710383E+01 -0.9449057911816E+00 -0.2024825771971E+00
-0.2267860733343E-01 -0.1652872187547E+01 -0.7875088735936E+00 -0.1891784916733E+00
-0.8652699978259E-02 -0.1349557404172E+01 -0.6383587489505E+00 -0.1427400552692E+00
 0.1629645487320E-01 -0.1035978177002E+01 -0.4792504094005E+00 -0.7782893443425E-01
 0.4786996258499E-01 -0.7258848487697E+00 -0.3186669965068E+00 -0.8465906550631E-02
 0.7320440838843E-01 -0.4670467990826E+00 -0.1851059236262E+00  0.4633397570181E-01
 0.8747891716263E-01 -0.2644093972459E+00 -0.8315732563915E-01  0.7939338009178E-01
 0.8007169321542E-01 -0.1102856244782E+00 -0.1420054769352E-01  0.9393877824296E-01
 0.5464488584043E-01  0.2765747702407E-02  0.2698299776513E-01  0.9243605642403E-01
 0.2051951406160E-01  0.8039799298143E-01  0.4743122831022E-01  0.7547108925841E-01
-0.1352326996361E-01  0.1283159393862E+00  0.5395255462861E-01  0.4455992784734E-01
-0.3983117375966E-01  0.1509227468418E+00  0.5221303934862E-01  0.2680797806076E-02
-0.5231323831310E-01  0.1510039443753E+00  0.4638463184922E-01 -0.4560633350449E-01
-0.4786058919809E-01  0.1329054197564E+00  0.3997107036241E-01 -0.9370298624108E-01
-0.1610831013624E-01  0.1005847051610E+00  0.3970390566164E-01 -0.1357658766509E+00
 0.4111620849988E-01  0.5389583671907E-01  0.4465566125291E-01 -0.1613990781810E+00
-0.1355554306323E+01 -0.4236829933215E+01 -0.2628420592583E+01  0.1297005624318E+01
-0.5258638838308E+00 -0.3665168413483E+01 -0.1969785179737E+01  0.3847813989776E+00
-0.1625087404059E+00 -0.2827033387824E+01 -0.1405084800268E+01 -0.6861210363880E-01
-0.4249185812930E-01 -0.2202990243113E+01 -0.1055376587584E+01 -0.2304118885513E+00
-0.4030595855505E-01 -0.1811124356673E+01 -0.8701722481573E+00 -0.2481630736017E+00
-0.4594511783032E-01 -0.1497245916649E+01 -0.7252997862053E+00 -0.2146427638950E+00
-0.3314197876724E-01 -0.1183849641388E+01 -0.5719860614731E+00 -0.1550674068029E+00
-0.5167216309770E-02 -0.8589132149220E+00 -0.4061178026790E+00 -0.7674735086176E-01
 0.3540201049777E-01 -0.5424550309969E+00 -0.2383149196346E+00  0.3328134017604E-02
 0.7261015420519E-01 -0.2858584521840E+00 -0.1002267000500E+00  0.6113820129262E-01
 0.9266720450280E-01 -0.9297289598382E-01 -0.1436749960781E-03  0.9264243261842E-01
 0.8627326853452E-01  0.4617147412714E-01  0.6224902905098E-01  0.1045513369913E+00
 0.6162748946816E-01  0.1405479071267E+00  0.9502243639958E-01  0.9965697193789E-01
 0.2974907953343E-01  0.1977926799715E+00  0.1069446269673E+00  0.7861314789884E-01
-0.3356295421426E-03  0.2252102917361E+00  0.1056910912312E+00  0.4396412155789E-01
-0.2156443348823E-01  0.2275254009761E+00  0.9680165471932E-01 -0.4030494837655E-04
-0.2943535571836E-01  0.2075102150690E+00  0.8369518389481E-01 -0.4788379420810E-01
-0.2207856696356E-01  0.1697914302563E+00  0.6942504574756E-01 -0.9244881058053E-01
 0.8021863381895E-02  0.1204741932855E+00  0.6039314663365E-01 -0.1286254851985E+00
 0.5992825159322E-01  0.6407359301718E-01  0.5828086696689E-01 -0.1484163459451E+00
-0.1548828974579E+01 -0.4700746385403E+01 -0.2937300419191E+01  0.1259171532396E+01
-0.4735467963909E+00 -0.3727702254803E+01 -0.1974587054061E+01  0.1877957469874E+00
-0.5847424854261E-01 -0.2602832606687E+01 -0.1250814221958E+01 -0.2233796540903E+00
-0.1732276929928E-01 -0.1996151218000E+01 -0.9463327740304E+00 -0.3018344638523E+00
-0.6618549925900E-01 -0.1661416191562E+01 -0.8119727946857E+00 -0.2826782288519E+00
-0.7211822311966E-01 -0.1340851285902E+01 -0.6640956692401E+00 -0.2369789437039E+00
-0.5925805452166E-01 -0.1014487113519E+01 -0.5046602289793E+00 -0.1645138044624E+00
-0.2504363469202E-01 -0.6772294779297E+00 -0.3300683629322E+00 -0.7080927896085E-01
 0.2629149913331E-01 -0.3593453156175E+00 -0.1565352937476E+00  0.2106249539979E-01
 0.7746105228627E-01 -0.1092997921225E+00 -0.1496420772302E-01  0.8065804737189E-01
 0.1031086707014E+00  0.7119793893364E-01  0.8192410652846E-01  0.1101630082048E+00
 0.9684469263090E-01  0.1918059826293E+00  0.1356658173723E+00  0.1199184844226E+00
 0.7192204996222E-01  0.2635941842954E+00  0.1576926301011E+00  0.1118967095520E+00
 0.4198635438841E-01  0.2989786303585E+00  0.1602535428310E+00  0.8692045858431E-01
 0.1538987389921E-01  0.3059910692065E+00  0.1510490432597E+00  0.4924088343127E-01
-0.2094887988459E-02  0.2886190728614E+00  0.1346663668903E+00  0.4447079531003E-02
-0.7711654598423E-02  0.2495049514248E+00  0.1136428495084E+00 -0.4132728299542E-01
-0.9029110740011E-03  0.1932965945272E+00  0.9042503122299E-01 -0.8109739143385E-01
 0.2302306606629E-01  0.1285242696336E+00  0.7122724777895E-01 -0.1110829823656E+00
 0.6504019932635E-01  0.6534081497130E-01  0.6127907671989E-01 -0.1254109232806E+00
-0.2018236616771E+01 -0.5499365065758E+01 -0.3533272790788E+01  0.1149132628723E+01
-0.3505085048765E+00 -0.3634489627408E+01 -0.1872949122174E+01 -0.1032410172990E+00
 0.1038775225136E+00 -0.2219629549979E+01 -0.9944034529086E+00 -0.3690852780132E+00
-0.5999630874416E-01 -0.1848834363602E+01 -0.8971504160026E+00 -0.3432606115022E+00
-0.9017625210780E-01 -0.1510268290284E+01 -0.7522089349241E+00 -0.3127336554531E+00
-0.1035010795155E+00 -0.1185626411588E+01 -0.6058899208185E+00 -0.2577530549908E+00
-0.8506575054764E-01 -0.8382319456728E+00 -0.4339499172236E+00 -0.1713423465460E+00
-0.4118704679888E-01 -0.4891104265984E+00 -0.2492398124967E+00 -0.5882534022549E-01
 0.1942030610808E-01 -0.1808930773191E+00 -0.7589220246917E-01  0.4542033933822E-01
 0.8779499451414E-01  0.6107264350565E-01  0.6996778986930E-01  0.1044315789561E+00
 0.1204324579936E+00  0.2293175721670E+00  0.1643825141755E+00  0.1322710327965E+00
 0.1106281438486E+00  0.3235001546366E+00  0.2040403002880E+00  0.1406236956330E+00
 0.8453017333718E-01  0.3698694422282E+00  0.2135678193157E+00  0.1289333427175E+00
 0.5673883240749E-01  0.3841398029913E+00  0.2072129586374E+00  0.9984470652605E-01
 0.3277690906108E-01  0.3717326750166E+00  0.1901195045165E+00  0.5993792546929E-01
 0.1751524173600E-01  0.3360199114443E+00  0.1661615219948E+00  0.1572378616761E-01
 0.1146199315324E-01  0.2789825023892E+00  0.1365089129050E+00 -0.2652915074049E-01
 0.1489213365997E-01  0.2059369166663E+00  0.1037896536534E+00 -0.6058215775709E-01
 0.2801398715891E-01  0.1257175149820E+00  0.7225380600623E-01 -0.8468983299834E-01
 0.5696015710575E-01  0.5838027804525E-01  0.5421000452097E-01 -0.9471238783488E-01
-0.3533554240000E+01 -0.7392564573241E+01 -0.5135275842223E+01  0.7895754215263E+00
 0.4650641545348E+00 -0.2544920456121E+01 -0.9775324617456E+00 -0.5291226805992E+00
-0.2317288915700E-01 -0.2082002416580E+01 -0.9894323936962E+00 -0.4202843628669E+00
-0.7453291867895E-01 -0.1681848484541E+01 -0.8254992595136E+00 -0.3761019418666E+00
-0.1231560354771E+00 -0.1367995713822E+01 -0.7008413221707E+00 -0.3401698384036E+00
-0.1399883068498E+00 -0.1031935027482E+01 -0.5508039671361E+00 -0.2784194480966E+00
-0.1080317526304E+00 -0.6487608858966E+00 -0.3556925401077E+00 -0.1758116807016E+00
-0.4713905392401E-01 -0.2901943152908E+00 -0.1585466835309E+00 -0.3827383336021E-01
 0.2369215267265E-02 -0.2453142620589E-01 -0.1041623914115E-01  0.7570653798645E-01
 0.1134174520806E+00  0.2383345799355E+00  0.1653234550476E+00  0.1316987014944E+00
 0.1430271896530E+00  0.3766294185966E+00  0.2442386058773E+00  0.1606024451350E+00
 0.1254609346192E+00  0.4361404299308E+00  0.2639526413385E+00  0.1665885723027E+00
 0.9871272417275E-01  0.4586988322038E+00  0.2619834314970E+00  0.1495592256430E+00
 0.7418081725786E-01  0.4554481294780E+00  0.2489256049658E+00  0.1165494844938E+00
 0.5121957048139E-01  0.4239863091941E+00  0.2233467634475E+00  0.7578944482835E-01
 0.3449029344936E-01  0.3695518259815E+00  0.1898997961325E+00  0.3296099579891E-01
 0.2954869897582E-01  0.3017038396930E+00  0.1556886931744E+00 -0.4349393176233E-02
 0.2320942696571E-01  0.2081369764927E+00  0.1087328096255E+00 -0.3107081054366E-01
 0.2307438320199E-01  0.1124688137982E+00  0.6370530259008E-01 -0.5031249021862E-01
 0.3618608600528E-01  0.4208805101516E-01  0.3678884439961E-01 -0.5736739628993E-01
-0.2007870003165E-01 -0.2537871400417E+01 -0.1202236547211E+01 -0.6605531863777E+00
-0.1853349863360E-01 -0.2170939977885E+01 -0.1029052533964E+01 -0.6493144877340E+00
-0.1005029663050E+00 -0.1908029130941E+01 -0.9440100857055E+00 -0.6282863375973E+00
-0.1716087312273E+00 -0.1646924748086E+01 -0.8547107352772E+00 -0.5886673829424E+00
-0.2319248525211E+00 -0.1392492598349E+01 -0.7634762019088E+00 -0.5306688843851E+00
-0.2746586408412E+00 -0.1148475236766E+01 -0.6688729224755E+00 -0.4567988700378E+00
-0.2969800773088E+00 -0.9208617767446E+00 -0.5723856714051E+00 -0.3707269490952E+00
-0.2974651816182E+00 -0.7146872392331E+00 -0.4757116378001E+00 -0.2770986516526E+00
-0.2766122566934E+00 -0.5338977566424E+00 -0.3809397062678E+00 -0.1812494816963E+00
-0.2368224460115E+00 -0.3810094346697E+00 -0.2903809839201E+00 -0.8882167740006E-01
-0.1823407564350E+00 -0.2569473274797E+00 -0.2064653994399E+00 -0.5284967516459E-02
-0.1189469237978E+00 -0.1609574183982E+00 -0.1315550408322E+00  0.6460110339019E-01
-0.5337950929567E-01 -0.9065142023316E-01 -0.6769453687855E-01  0.1173297392140E+00
 0.7499911769090E-02 -0.4224226260241E-01 -0.1632890489166E-01  0.1511043746039E+00
 0.5769351346500E-01 -0.1103555159988E-01  0.2192924207661E-01  0.1660792636380E+00
 0.9297829039945E-01  0.7816444040259E-02  0.4737352518666E-01  0.1642375198622E+00
 0.1114572967015E+00  0.1844056844933E-01  0.6105199662090E-01  0.1488333690651E+00
 0.1135354621635E+00  0.2349829309904E-01  0.6440586497338E-01  0.1234923842847E+00
 0.1016651305233E+00  0.2402134869650E-01  0.5907264523331E-01  0.9128840873659E-01
 0.7823975644147E-01  0.1784160412187E-01  0.4515823946477E-01  0.5357043827465E-01
 0.5901374233601E-01 -0.2610920810207E+01 -0.1199396321900E+01 -0.7090975754013E+00
-0.2087724898665E-01 -0.2367346535358E+01 -0.1122465178642E+01 -0.7031645958150E+00
-0.9023288923748E-01 -0.2078676126340E+01 -0.1019387237321E+01 -0.6837219625892E+00
-0.1703536805037E+00 -0.1808656540266E+01 -0.9301348037618E+00 -0.6509096592395E+00
-0.2383974233800E+00 -0.1543400127548E+01 -0.8374448489360E+00 -0.5987854374409E+00
-0.2900132611206E+00 -0.1287277459051E+01 -0.7413266384807E+00 -0.5281507869856E+00
-0.3205908013492E+00 -0.1045177141563E+01 -0.6419109331687E+00 -0.4419760577007E+00
-0.3277136171873E+00 -0.8228095880989E+00 -0.5407459064845E+00 -0.3448495208784E+00
-0.3107092676337E+00 -0.6250735138782E+00 -0.4398179073106E+00 -0.2424627824350E+00
-0.2710233798643E+00 -0.4555867965984E+00 -0.3415067829374E+00 -0.1411753507272E+00
-0.2123239388517E+00 -0.3163116315150E+00 -0.2484587180724E+00 -0.4746689319713E-01
-0.1404017500900E+00 -0.2073543682264E+00 -0.1634453756087E+00  0.3271439146288E-01
-0.6272555457906E-01 -0.1269008373000E+00 -0.8912440418316E-01  0.9466730327592E-01
 0.1240707087558E-01 -0.7134006536841E-01 -0.2769850741163E-01  0.1356180938397E+00
 0.7709635138937E-01 -0.3565758817196E-01  0.1947621871218E-01  0.1551943827586E+00
 0.1252335160276E+00 -0.1417166273814E-01  0.5219907104604E-01  0.1554626651117E+00
 0.1536256031488E+00 -0.1573267722539E-02  0.7146459765033E-01  0.1403469485976E+00
 0.1624725400204E+00  0.6089341985604E-02  0.7922408454281E-01  0.1145093439836E+00
 0.1547927481910E+00  0.1065667581489E-01  0.7776122928275E-01  0.8210670357904E-01
 0.1380028782381E+00  0.1345755270826E-01  0.7118640254477E-01  0.4610733848177E-01
 0.8996427148936E-01 -0.2735833372272E+01 -0.1243558477368E+01 -0.7403905724704E+00
 0.8013808962090E-02 -0.2516006332306E+01 -0.1178756485971E+01 -0.7533643454341E+00
-0.7827078099393E-01 -0.2260248826298E+01 -0.1099104215427E+01 -0.7436076195843E+00
-0.1618476927530E+00 -0.1988620231547E+01 -0.1010719924421E+01 -0.7179987948335E+00
-0.2386095957895E+00 -0.1718014790113E+01 -0.9196134613744E+00 -0.6735457201916E+00
-0.2997414390061E+00 -0.1451854398150E+01 -0.8232500434632E+00 -0.6089568361030E+00
-0.3402786078991E+00 -0.1196119775414E+01 -0.7221072401569E+00 -0.5259228877882E+00
-0.3563864544981E+00 -0.9569186870092E+00 -0.6172534165084E+00 -0.4282898958235E+00
-0.3460679863377E+00 -0.7401434035158E+00 -0.5105193532311E+00 -0.3215778149081E+00
-0.3094210983700E+00 -0.5506326164385E+00 -0.4042252459600E+00 -0.2124877641141E+00
-0.2490262876552E+00 -0.3916706047146E+00 -0.3011275394138E+00 -0.1083253103436E+00
-0.1701164769989E+00 -0.2646229681041E+00 -0.2043275391984E+00 -0.1627487509245E-01
-0.8041106402540E-01 -0.1687378658480E+00 -0.1170999970405E+00  0.5746511582669E-01
 0.1056405185582E-01 -0.1011259384512E+00 -0.4256408669985E-01  0.1086131904196E+00
 0.9278674548691E-01 -0.5698855110293E-01  0.1682515136047E-01  0.1356276452930E+00
 0.1575892080817E+00 -0.3021373978129E-01  0.5986647010117E-01  0.1401170956059E+00
 0.1995739347089E+00 -0.1441815072591E-01  0.8702321847203E-01  0.1264754861195E+00
 0.2176924074999E+00 -0.4325206668505E-02  0.1002825843908E+00  0.1006054941408E+00
 0.2152492515120E+00  0.3379753438443E-02  0.1027556323267E+00  0.6823176462225E-01
 0.1980860543164E+00  0.9339753755874E-02  0.9749012979398E-01  0.3396616587957E-01
 0.1216564277095E+00 -0.2873817960446E+01 -0.1293515920386E+01 -0.7632469220090E+00
 0.3406759842195E-01 -0.2674872436073E+01 -0.1241178273696E+01 -0.7939754162711E+00
-0.5672558559124E-01 -0.2439955027082E+01 -0.1173439887956E+01 -0.7996693570167E+00
-0.1479154787971E+00 -0.2182613085321E+01 -0.1095348425135E+01 -0.7859100673454E+00
-0.2320546746763E+00 -0.1913634386294E+01 -0.1008473858656E+01 -0.7520146515363E+00
-0.3030435716312E+00 -0.1642324205325E+01 -0.9143228551695E+00 -0.6967346340662E+00
-0.3545420423988E+00 -0.1375451921583E+01 -0.8130971630714E+00 -0.6205315883134E+00
-0.3816725504269E+00 -0.1120122617852E+01 -0.7058437290910E+00 -0.5261302937196E+00
-0.3809418921479E+00 -0.8832286146497E+00 -0.5941601381949E+00 -0.4183176012669E+00
-0.3508272909272E+00 -0.6709639165845E+00 -0.4802418675305E+00 -0.3036060502021E+00
-0.2923102176649E+00 -0.4881876578410E+00 -0.3668340014878E+00 -0.1897287336903E+00
-0.2093680373814E+00 -0.3379141766793E+00 -0.2572226406085E+00 -0.8493376812997E-01
-0.1092014756827E+00 -0.2209433209326E+00 -0.1551680544092E+00  0.2949987514416E-02
-0.1958262165486E-02 -0.1356712254274E+00 -0.6468585916865E-01  0.6765142977737E-01
 0.1003465173958E+00 -0.7812433158733E-01  0.1044442732996E-01  0.1056756738928E+00
 0.1859097465115E+00 -0.4231579175840E-01  0.6748915873393E-01  0.1172924018927E+00
 0.2459171447402E+00 -0.2111662492897E-01  0.1056562443113E+00  0.1067467888212E+00
 0.2769053863252E+00 -0.7717837537577E-02  0.1265181479302E+00  0.8114030342969E-01
 0.2809499423040E+00  0.2537897786016E-02  0.1332392848423E+00  0.4814339886163E-01
 0.2637791051422E+00  0.1143514926291E-01  0.1293506995704E+00  0.1392137830323E-01
 0.1557838769284E+00 -0.3020521498155E+01 -0.1346426681977E+01 -0.7784960044189E+00
 0.6420209815769E-01 -0.2841000766809E+01 -0.1305095374266E+01 -0.8250579325860E+00
-0.3062755637604E-01 -0.2627782684927E+01 -0.1249452813412E+01 -0.8474925884518E+00
-0.1266586001743E+00 -0.2387622353172E+01 -0.1181712048073E+01 -0.8491623400425E+00
-0.2181537286574E+00 -0.2128743260804E+01 -0.1103041585047E+01 -0.8296129660818E+00
-0.2985740245439E+00 -0.1859006800007E+01 -0.1014062987539E+01 -0.7875630394274E+00
-0.3616573579883E+00 -0.1586191270383E+01 -0.9154888553343E+00 -0.7226270895416E+00
-0.4015175780037E+00 -0.1317904929070E+01 -0.8081285783249E+00 -0.6362363241025E+00
-0.4133220777929E+00 -0.1061900295026E+01 -0.6933545152247E+00 -0.5319629020239E+00
-0.3937923386024E+00 -0.8256158124596E+00 -0.5731218309991E+00 -0.4154842663625E+00
-0.3419137365212E+00 -0.6155892501212E+00 -0.4500264037219E+00 -0.2943088140613E+00
-0.2596783933210E+00 -0.4368157735942E+00 -0.3273522584501E+00 -0.1772383203557E+00
-0.1527455651007E+00 -0.2921902721497E+00 -0.2091198435077E+00 -0.7352156749975E-01
-0.3075988512469E-01 -0.1821022625791E+00 -0.1000452094208E+00  0.8338457978598E-02
 0.9308182979368E-01 -0.1042372447529E+00 -0.5243045030822E-02  0.6209895226256E-01
 0.2037668521003E+00 -0.5363209955988E-01  0.7056333369399E-01  0.8541688364219E-01
 0.2878326589087E+00 -0.2312526299485E-01  0.1244124760795E+00  0.8104625827036E-01
 0.3374546773864E+00 -0.4571789786191E-02  0.1564549571721E+00  0.5657148983762E-01
 0.3526738080353E+00  0.9054484836874E-02  0.1700122976499E+00  0.2190386530714E-01
 0.3390465778872E+00  0.2127253850310E-01  0.1693499847034E+00 -0.1443631182965E-01
 0.1934844277924E+00 -0.3172315075240E+01 -0.1400050404300E+01 -0.7859643945691E+00
 0.9920956792356E-01 -0.3013025615736E+01 -0.1369493542472E+01 -0.8458342345442E+00
 0.1725466077037E-02 -0.2822405459963E+01 -0.1325719597126E+01 -0.8845169110691E+00
-0.9805858168828E-01 -0.2603248030986E+01 -0.1269614107957E+01 -0.9031809259343E+00
-0.1955441037084E+00 -0.2360467850752E+01 -0.1201325618596E+01 -0.9008747826356E+00
-0.2848740425485E+00 -0.2100083040186E+01 -0.1120929828885E+01 -0.8758769207030E+00
-0.3596861809981E+00 -0.1828756605427E+01 -0.1028568109620E+01 -0.8269237397358E+00
-0.4136333585280E+00 -0.1553818958933E+01 -0.9247025892069E+00 -0.7540957263860E+00
-0.4407770303164E+00 -0.1283121646879E+01 -0.8102323782820E+00 -0.6593835660141E+00
-0.4361885828710E+00 -0.1024786883511E+01 -0.6866584691995E+00 -0.5469826044526E+00
-0.3966644293673E+00 -0.7866680034873E+00 -0.5561662434417E+00 -0.4233380834444E+00
-0.3216183744103E+00 -0.5756786370590E+00 -0.4217295953906E+00 -0.2969220046810E+00
-0.2140755792341E+00 -0.3970837179357E+00 -0.2872448696698E+00 -0.1776719598759E+00
-0.8161366302434E-01 -0.2538684241137E+00 -0.1576765809549E+00 -0.7599818305221E-01
 0.6310693994750E-01 -0.1462831309500E+00 -0.3909280977118E-01 -0.1265292808840E-02
 0.2029280518358E+00 -0.7161826480682E-01  0.6171559990363E-01  0.4026811090078E-01
 0.3190252594001E+00 -0.2417975401877E-01  0.1385773875292E+00  0.4776788771739E-01
 0.3965605220995E+00  0.4327549142696E-02  0.1884173934839E+00  0.2731376022314E-01
 0.4306298667093E+00  0.2319803983522E-01  0.2132991160759E+00 -0.9426491930932E-02
 0.4270504706700E+00  0.3970037129471E-01  0.2193728957234E+00 -0.5015110683263E-01
 0.2341964157930E+00 -0.3327115957715E+01 -0.1453672184703E+01 -0.7852810644596E+00
 0.1390721822705E+00 -0.3189074181533E+01 -0.1433500939653E+01 -0.8556870837852E+00
 0.4031615961553E-01 -0.3022561924349E+01 -0.1401655509425E+01 -0.9089199798708E+00
-0.6176925790454E-01 -0.2827606972768E+01 -0.1358006828416E+01 -0.9444853791331E+00
-0.1638090845617E+00 -0.2606472670530E+01 -0.1302032424893E+01 -0.9607738892529E+00
-0.2607715617325E+00 -0.2362842347656E+01 -0.1233098537412E+01 -0.9555339403414E+00
-0.3467118375503E+00 -0.2101568308039E+01 -0.1150691668427E+01 -0.9266477008051E+00
-0.4151711856387E+00 -0.1828581752941E+01 -0.1054563881133E+01 -0.8728674965634E+00
-0.4595678064861E+00 -0.1550852172686E+01 -0.9448973902109E+00 -0.7944388057514E+00
-0.4736631000650E+00 -0.1276197986816E+01 -0.8224347108342E+00 -0.6935940678141E+00
-0.4522142034110E+00 -0.1012920622744E+01 -0.6886133682931E+00 -0.5748963137526E+00
-0.3918407947568E+00 -0.7692296165021E+00 -0.5457030932917E+00 -0.4453869553462E+00
-0.2921460296933E+00 -0.5525187288487E+00 -0.3969924365147E+00 -0.3144569784835E+00
-0.1570707728170E+00 -0.3685817025989E+00 -0.2470566634455E+00 -0.1933144911611E+00
 0.3665602393142E-02 -0.2208961040666E+00 -0.1020983357865E+00 -0.9386916538338E-01
 0.1735096839185E+00 -0.1101157936390E+00  0.2979512843139E-01 -0.2680957224588E-01
 0.3296627408933E+00 -0.3378249409623E-01  0.1390637159946E+00  0.1304463944754E-02
 0.4479926173233E+00  0.1416063144578E-01  0.2172120269215E+00 -0.8403747565087E-02
 0.5131972762240E+00  0.4353241995774E-01  0.2616629572054E+00 -0.4517628682097E-01
 0.5270931749222E+00  0.6562013824392E-01  0.2785752571881E+00 -0.9225686439944E-01
 0.2772300024918E+00 -0.3482689148745E+01 -0.1506565798739E+01 -0.7760154613836E+00
 0.1831725567189E+00 -0.3366863711978E+01 -0.1496334842972E+01 -0.8540512412642E+00
 0.8483368845337E-01 -0.3225788473519E+01 -0.1476248748981E+01 -0.9193154435937E+00
-0.1789063491848E-01 -0.3057803187939E+01 -0.1445576096743E+01 -0.9702743733320E+00
-0.1226568103533E+00 -0.2863110881569E+01 -0.1403310815203E+01 -0.1004842181398E+01
-0.2254379819208E+00 -0.2643273246318E+01 -0.1348294277272E+01 -0.1020394571700E+01
-0.3210174721674E+00 -0.2401039399596E+01 -0.1279366729729E+01 -0.1014189676633E+01
-0.4033032030226E+00 -0.2140351028818E+01 -0.1195517488965E+01 -0.9838953199544E+00
-0.4655902044245E+00 -0.1866379978280E+01 -0.1096025985871E+01 -0.9281384036052E+00
-0.5008938693753E+00 -0.1585518095082E+01 -0.9806136232950E+00 -0.8470475430874E+00
-0.5024246162498E+00 -0.1305231993647E+01 -0.8495986066513E+00 -0.7427654835305E+00
-0.4642850957219E+00 -0.1033740270818E+01 -0.7040719222736E+00 -0.6198934689618E+00
-0.3824692608856E+00 -0.7794889673370E+00 -0.5461203672646E+00 -0.4858004895387E+00
-0.2562599473677E+00 -0.5504462516271E+00 -0.3791519135276E+00 -0.3506840326394E+00
-0.9011448868808E-01 -0.3532949830102E+00 -0.2084024516982E+00 -0.2271945939253E+00
 0.1039869029905E+00 -0.1926758924224E+00 -0.4168382503303E-01 -0.1293144764978E+00
 0.3041701624458E+00 -0.7073040783138E-01  0.1097166846688E+00 -0.6999925627553E-01
 0.4785791486270E+00  0.1323826342053E-01  0.2311541836623E+00 -0.5688522908075E-01
 0.5949733675416E+00  0.6509826471222E-01  0.3102336671593E+00 -0.8617334299381E-01
 0.6403069001826E+00  0.9768083271884E-01  0.3468542344637E+00 -0.1398919533578E+00
 0.3217060318775E+00 -0.3636794826160E+01 -0.1558091733313E+01 -0.7578420081386E+00
 0.2306063503962E+00 -0.3543757692426E+01 -0.1557181130754E+01 -0.8405754966900E+00
 0.1345065529516E+00 -0.3428972095051E+01 -0.1548398804787E+01 -0.9148136186226E+00
 0.3304266529663E-01 -0.3289894165539E+01 -0.1530720205114E+01 -0.9785362784692E+00
-0.7231325548204E-01 -0.3125370027990E+01 -0.1502911143232E+01 -0.1029475101418E+01
-0.1785621881315E+00 -0.2935313686006E+01 -0.1463521660845E+01 -0.1064920687443E+01
-0.2814543052759E+00 -0.2720607019667E+01 -0.1410968822723E+01 -0.1081883236392E+01
-0.3756622699676E+00 -0.2483130503620E+01 -0.1343632603586E+01 -0.1077404323524E+01
-0.4549165710395E+00 -0.2225859687677E+01 -0.1259964841597E+01 -0.1048950969180E+01
-0.5121693039586E+00 -0.1952964268983E+01 -0.1158612779283E+01 -0.9948714741470E+00
-0.5398545872045E+00 -0.1669859110163E+01 -0.1038565437763E+01 -0.9149053776669E+00
-0.5303146629328E+00 -0.1383155020296E+01 -0.8993307511174E+00 -0.8107370206267E+00
-0.4764847769188E+00 -0.1100465809736E+01 -0.7411667757280E+00 -0.6865678380209E+00
-0.3729715044384E+00 -0.8300377504620E+00 -0.5654143498031E+00 -0.5496533858187E+00
-0.2177320529196E+00 -0.5801960440322E+00 -0.3750262055673E+00 -0.4106961545540E+00
-0.1468896815136E-01 -0.3586877904769E+00 -0.1754870765553E+00 -0.2838767202975E+00
 0.2223249921808E+00 -0.1721220995499E+00  0.2359535953653E-01 -0.1860727295805E+00
 0.4637619319175E+00 -0.2626729107225E-01  0.2056224811972E+00 -0.1343121468152E+00
 0.6607812743816E+00  0.7364682163038E-01  0.3451812051256E+00 -0.1391784575112E+00
 0.7677792028789E+00  0.1325231916547E+00  0.4231421254308E+00 -0.1927019088958E+00
 0.3666276871553E+00 -0.3787258139591E+01 -0.1607696312645E+01 -0.7306307677222E+00
 0.2801758453764E+00 -0.3717140139359E+01 -0.1615373218172E+01 -0.8152322066670E+00
 0.1880997651118E+00 -0.3628869632181E+01 -0.1617161837522E+01 -0.8951418998693E+00
 0.8984389440514E-01 -0.3519643373769E+01 -0.1612005755301E+01 -0.9682471990013E+00
-0.1380949980626E-01 -0.3387591194521E+01 -0.1598658326334E+01 -0.1032359996869E+01
-0.1208232533119E+00 -0.3231592943096E+01 -0.1575635612312E+01 -0.1084960002655E+01
-0.2280082763449E+00 -0.3051203698071E+01 -0.1541229627976E+01 -0.1123191109428E+01
-0.3310775007114E+00 -0.2846671470492E+01 -0.1493542016466E+01 -0.1143995928129E+01
-0.4246630721393E+00 -0.2619014244553E+01 -0.1430528338846E+01 -0.1144339131665E+01
-0.5023317725765E+00 -0.2370127017555E+01 -0.1350055631362E+01 -0.1121506198904E+01
-0.5566379820322E+00 -0.2102889632683E+01 -0.1249977978916E+01 -0.1073480815408E+01
-0.5792625002094E+00 -0.1821247496668E+01 -0.1128239698533E+01 -0.9994114853885E+00
-0.5613032360102E+00 -0.1530234744480E+01 -0.9830228508305E+00 -0.9001799210271E+00
-0.4938228294790E+00 -0.1235908077401E+01 -0.8129735262335E+00 -0.7790807649377E+00
-0.3688400652838E+00 -0.9451654197451E+00 -0.6175825779636E+00 -0.6426104316337E+00
-0.1811090935020E+00 -0.6654444633965E+00 -0.3978801717423E+00 -0.5013301430504E+00
 0.6853102209916E-01 -0.4044695805329E+00 -0.1578911224638E+00 -0.3706780654402E+00
 0.3668854271918E+00 -0.1703740778717E+00  0.9236033418044E-01 -0.2713250366037E+00
 0.6731480523427E+00  0.2395904698969E-01  0.3276403366862E+00 -0.2277323114976E+00
 0.9000753207881E+00  0.1544594889931E+00  0.4956313605971E+00 -0.2578746140185E+00
 0.4109476221994E+00 -0.3932078352326E+01 -0.1654931443159E+01 -0.6944420319935E+00
 0.3306055289158E+00 -0.3884562037462E+01 -0.1670359559017E+01 -0.7783253039418E+00
 0.2441408019155E+00 -0.3822414068865E+01 -0.1681788435466E+01 -0.8606452524146E+00
 0.1509027012561E+00 -0.3742968977273E+01 -0.1688271149728E+01 -0.9394210571936E+00
 0.5116686652519E-01 -0.3644140965039E+01 -0.1688697826301E+01 -0.1012707359379E+01
-0.5384668954487E-01 -0.3524337327544E+01 -0.1681746488032E+01 -0.1078338855140E+01
-0.1619676344074E+00 -0.3382404769692E+01 -0.1665855029927E+01 -0.1133845915968E+01
-0.2700473326849E+00 -0.3217626973632E+01 -0.1639206923969E+01 -0.1176476298715E+01
-0.3738985102636E+00 -0.3029761350167E+01 -0.1599720134402E+01 -0.1203288584683E+01
-0.4682107559033E+00 -0.2819099224178E+01 -0.1545035690638E+01 -0.1211306058918E+01
-0.5464567969305E+00 -0.2586533448759E+01 -0.1472505415474E+01 -0.1197734187371E+01
-0.6008084672185E+00 -0.2333616056010E+01 -0.1379179525918E+01 -0.1160254953372E+01
-0.6220887410738E+00 -0.2062585765836E+01 -0.1261797018247E+01 -0.1097420515360E+01
-0.5998023834957E+00 -0.1776339286516E+01 -0.1116786584906E+01 -0.1009179680122E+01
-0.5223214784496E+00 -0.1478308738238E+01 -0.9402962018434E+00 -0.8975866862630E+00
-0.3773930553101E+00 -0.1172201665209E+01 -0.7283095186440E+00 -0.7677677794983E+00
-0.1532931547807E+00 -0.8615116711546E+00 -0.4769582681896E+00 -0.6292676629779E+00
 0.1581501438796E+00 -0.5490335907229E+00 -0.1837152200164E+00 -0.4979859859436E+00
 0.5551089891791E+00 -0.2356573581254E+00  0.1501422665953E+00 -0.3991228910051E+00
 0.9838167236291E+00  0.6181251056209E-01  0.4914457400699E+00 -0.3717695479873E+00
 0.4535701096796E+00 -0.4069440956448E+01 -0.1699459297981E+01 -0.6494882042729E+00
 0.3803577068060E+00 -0.4043946047679E+01 -0.1721886520211E+01 -0.7304185860005E+00
 0.3006080357352E+00 -0.4007195022199E+01 -0.1742095883638E+01 -0.8121620650361E+00
 0.2137025375364E+00 -0.3956847262010E+01 -0.1759278020503E+01 -0.8929733714073E+00
 0.1195794259688E+00 -0.3890912379564E+01 -0.1772526488190E+01 -0.9712070964861E+00
 0.1883136277808E-01 -0.3807710834257E+01 -0.1780773351595E+01 -0.1045089726931E+01
-0.8723242955427E-01 -0.3705848814045E+01 -0.1782748184492E+01 -0.1112610066443E+01
-0.1965147791800E+00 -0.3584215672489E+01 -0.1776943312284E+01 -0.1171485784713E+01
-0.3060335930581E+00 -0.3442004196836E+01 -0.1761577761250E+01 -0.1219182804496E+01
-0.4117930404851E+00 -0.3278746203441E+01 -0.1734553444645E+01 -0.1252977623399E+01
-0.5086211132182E+00 -0.3094353471161E+01 -0.1693398054658E+01 -0.1270062540851E+01
-0.5899718973595E+00 -0.2889151895025E+01 -0.1635188182421E+01 -0.1267701707664E+01
-0.6476885935230E+00 -0.2663893085364E+01 -0.1556443389077E+01 -0.1243454125470E+01
-0.6717187007325E+00 -0.2419720304792E+01 -0.1452976332596E+01 -0.1195490840634E+01
-0.6497665019606E+00 -0.2158052385516E+01 -0.1319674877114E+01 -0.1123051757764E+01
-0.5668464667405E+00 -0.1880313030551E+01 -0.1150164963727E+01 -0.1027121313204E+01
-0.4047003469158E+00 -0.1587393292911E+01 -0.9362840107188E+00 -0.9114715363506E+00
-0.1407216573896E+00 -0.1278363664399E+01 -0.6669701012404E+00 -0.7843926763886E+00
 0.2531872779110E+00 -0.9483883449218E+00 -0.3267445014951E+00 -0.6618778342201E+00
 0.8256470086380E+00 -0.5723913541645E+00  0.1190301576026E+00 -0.5757701309726E+00
 0.4934912814752E+00 -0.4197488620596E+01 -0.1740878749387E+01 -0.5960835251874E+00
 0.4278052390662E+00 -0.4193187803279E+01 -0.1769729805180E+01 -0.6721345627050E+00
 0.3552680714963E+00 -0.4180814669401E+01 -0.1798006901015E+01 -0.7506422885730E+00
 0.2753347693823E+00 -0.4158449970045E+01 -0.1825064144312E+01 -0.8301349183786E+00
 0.1877372754880E+00 -0.4124355525709E+01 -0.1850210577604E+01 -0.9092567935352E+00
 0.9261551685509E-01 -0.4076977904928E+01 -0.1872650322394E+01 -0.9865805362400E+00
-0.9392888758903E-02 -0.4014946738497E+01 -0.1891439624810E+01 -0.1060497694303E+01
-0.1170650920698E+00 -0.3937083523222E+01 -0.1905449849187E+01 -0.1129162014786E+01
-0.2284870988794E+00 -0.3842425064927E+01 -0.1913328716989E+01 -0.1190469695376E+01
-0.3409181603008E+00 -0.3730261016713E+01 -0.1913454213197E+01 -0.1242068726864E+01
-0.4506164796966E+00 -0.3600182121918E+01 -0.1903875342759E+01 -0.1281395282163E+01
-0.5526157243547E+00 -0.3452134265684E+01 -0.1882232495318E+01 -0.1305739926739E+01
-0.6404361398011E+00 -0.3286471642656E+01 -0.1845646657755E+01 -0.1312351117821E+01
-0.7057027439998E+00 -0.3103999201182E+01 -0.1790559914235E+01 -0.1298589219775E+01
-0.7376197587668E+00 -0.2905986614836E+01 -0.1712494995593E+01 -0.1262152842123E+01
-0.7222087815451E+00 -0.2694123799632E+01 -0.1605676313153E+01 -0.1201413387778E+01
-0.6410890479623E+00 -0.2470326783241E+01 -0.1462365440666E+01 -0.1115919032727E+01
-0.4694106925273E+00 -0.2236292309446E+01 -0.1271680410927E+01 -0.1007165328083E+01
-0.1709074232802E+00 -0.1991654332014E+01 -0.1016404024988E+01 -0.8798280991830E+00
 0.3131182381081E+00 -0.1730999986094E+01 -0.6664044215534E+00 -0.7427577753480E+00
 0.5299229620260E+00 -0.4314324264719E+01 -0.1778668612266E+01 -0.5346861993640E+00
 0.4716883200697E+00 -0.4329932057264E+01 -0.1813374556482E+01 -0.6041542400736E+00
 0.4063926309507E+00 -0.4340406927551E+01 -0.1848986719402E+01 -0.6770578445358E+00
 0.3335557001030E+00 -0.4344278108492E+01 -0.1885039531943E+01 -0.7522005646125E+00
 0.2527756384846E+00 -0.4340134218345E+01 -0.1921058532534E+01 -0.8284843463237E+00
 0.1638622145202E+00 -0.4326653426239E+01 -0.1956511869508E+01 -0.9047623460378E+00
 0.6693050358728E-01 -0.4302618636451E+01 -0.1990773422446E+01 -0.9797388812601E+00
-0.3751305077765E-01 -0.4266934154286E+01 -0.2023090186380E+01 -0.1051902352017E+01
-0.1484739299555E+00 -0.4218651526855E+01 -0.2052548964701E+01 -0.1119480930512E+01
-0.2643501626740E+00 -0.4157007527308E+01 -0.2078038114292E+01 -0.1180414503678E+01
-0.3827804351846E+00 -0.4081475237854E+01 -0.2098200166328E+01 -0.1232339207343E+01
-0.5004488084616E+00 -0.3991828335152E+01 -0.2111370257499E+01 -0.1272582867759E+01
-0.6128311201629E+00 -0.3888218569273E+01 -0.2115493354035E+01 -0.1298170836111E+01
-0.7138597514206E+00 -0.3771266493845E+01 -0.2108009335275E+01 -0.1305841979223E+01
-0.7954689590597E+00 -0.3642166464873E+01 -0.2085688649249E+01 -0.1292073427530E+01
-0.8469532223178E+00 -0.3502805554216E+01 -0.2044386624971E+01 -0.1253108402320E+01
-0.8540375379388E+00 -0.3355913446862E+01 -0.1978676962856E+01 -0.1184967086829E+01
-0.7974316561869E+00 -0.3205235477688E+01 -0.1881253552921E+01 -0.1083380171749E+01
-0.6508951044473E+00 -0.3056152997011E+01 -0.1742312607685E+01 -0.9433828689811E+00
-0.3815553645717E+00 -0.2919223320823E+01 -0.1551365982136E+01 -0.7579216347959E+00
 0.5622344214791E+00 -0.4418143479476E+01 -0.1812277257258E+01 -0.4659408968653E+00
 0.5110122421956E+00 -0.4451874402160E+01 -0.1852205215183E+01 -0.5273255812281E+00
 0.4526136621758E+00 -0.4483110782693E+01 -0.1894333646643E+01 -0.5925509141005E+00
 0.3865934938138E+00 -0.4510813590464E+01 -0.1938383445425E+01 -0.6606782876504E+00
 0.3124490728980E+00 -0.4533920537727E+01 -0.1984091588470E+01 -0.7308361044059E+00
 0.2297358935007E+00 -0.4551388712537E+01 -0.2031176824947E+01 -0.8021076698418E+00
 0.1381501399532E+00 -0.4562218122030E+01 -0.2079311951576E+01 -0.8734439645203E+00
 0.3760052731912E-01 -0.4565471329159E+01 -0.2128099276865E+01 -0.9435942368750E+00
-0.7171618991489E-01 -0.4560297340545E+01 -0.2177046359316E+01 -0.1011047853269E+01
-0.1892263108459E+00 -0.4545964336744E+01 -0.2225539604367E+01 -0.1073982088056E+01
-0.3138692888508E+00 -0.4521904100678E+01 -0.2272813493078E+01 -0.1130211498551E+01
-0.4439597957088E+00 -0.4487770528702E+01 -0.2317913252473E+01 -0.1177134811196E+01
-0.5770139818940E+00 -0.4443515016455E+01 -0.2359648629224E+01 -0.1211674515827E+01
-0.7095305500648E+00 -0.4389483028640E+01 -0.2396536381991E+01 -0.1230202092869E+01
-0.8367146932234E+00 -0.4326538965934E+01 -0.2426729219804E+01 -0.1228436968099E+01
-0.9521342166097E+00 -0.4256234925911E+01 -0.2447933496985E+01 -0.1201297714899E+01
-0.1047302475752E+01 -0.4181050597880E+01 -0.2457325944607E+01 -0.1142666366064E+01
-0.1111271350348E+01 -0.4104805639237E+01 -0.2451556185105E+01 -0.1044990689268E+01
-0.1130636326850E+01 -0.4033504842299E+01 -0.2427146349500E+01 -0.8986230434345E+00
-0.1089581289480E+01 -0.3975888192350E+01 -0.2380770656460E+01 -0.6909603892124E+00
 0.5899094500798E+00 -0.4507313761703E+01 -0.1841180026463E+01 -0.3906692519531E+00
 0.5449703210099E+00 -0.4556910534101E+01 -0.1885611900153E+01 -0.4426790326831E+00
 0.4928125273151E+00 -0.4606299040055E+01 -0.1933338660988E+01 -0.4984575355468E+00
 0.4329975127791E+00 -0.4654823466497E+01 -0.1984258198247E+01 -0.5572954057570E+00
 0.3649354809426E+00 -0.4701753896088E+01 -0.2038304655118E+01 -0.6185202057889E+00
 0.2879762616241E+00 -0.4746330178678E+01 -0.2095426341015E+01 -0.6814118952941E+00
 0.2014726092966E+00 -0.4787786838545E+01 -0.2155567687747E+01 -0.7451296568067E+00
 0.1048308314474E+00 -0.4825370833016E+01 -0.2218653800737E+01 -0.8086462903633E+00
-0.2441138629095E-02 -0.4858359437869E+01 -0.2284576270954E+01 -0.8706858633154E+00
-0.1206814191941E+00 -0.4886082808187E+01 -0.2353179186869E+01 -0.9296604647112E+00
-0.2500130628821E+00 -0.4907954364367E+01 -0.2424244690807E+01 -0.9836020560073E+00
-0.3902713263900E+00 -0.4923511629597E+01 -0.2497477989314E+01 -0.1030085167990E+01
-0.5409183677068E+00 -0.4932470352332E+01 -0.2572492698418E+01 -0.1066135286646E+01
-0.7009471616071E+00 -0.4934795631901E+01 -0.2648799112949E+01 -0.1088115860449E+01
-0.8687818710329E+00 -0.4930795930229E+01 -0.2725801566593E+01 -0.1091583478575E+01
-0.1042191680867E+01 -0.4921248743850E+01 -0.2802816999617E+01 -0.1071095578724E+01
-0.1218258632264E+01 -0.4907574886045E+01 -0.2879141753605E+01 -0.1019948234624E+01
-0.1393471512844E+01 -0.4892075607980E+01 -0.2954207146787E+01 -0.9298213664266E+00
-0.1563915021022E+01 -0.4878119331077E+01 -0.3027756145486E+01 -0.7903435548058E+00
-0.1725695843180E+01 -0.4870364929950E+01 -0.3100148563371E+01 -0.5885994070789E+00
 0.6125302665192E+00 -0.4580420444050E+01 -0.1864908383439E+01 -0.3098473034246E+00
 0.5729105694245E+00 -0.4643212962884E+01 -0.1913042124926E+01 -0.3514121820239E+00
 0.5260768312616E+00 -0.4707685899742E+01 -0.1965356262186E+01 -0.3962925086052E+00
 0.4715793957258E+00 -0.4773499379805E+01 -0.2021902392517E+01 -0.4439760356318E+00
 0.4087505149117E+00 -0.4840210915909E+01 -0.2082786388469E+01 -0.4939659206195E+00
 0.3367716986234E+00 -0.4907314457986E+01 -0.2148155096901E+01 -0.5457176851157E+00
 0.2547160311794E+00 -0.4974261849582E+01 -0.2218186534649E+01 -0.5985806166157E+00
 0.1615757963574E+00 -0.5040475262184E+01 -0.2293082748939E+01 -0.6517409241918E+00
 0.5628235852455E-01 -0.5105356321930E+01 -0.2373064762801E+01 -0.7041636417240E+00
-0.6227734941325E-01 -0.5168295687434E+01 -0.2458369327318E+01 -0.7545302374659E+00
-0.1952454576990E+00 -0.5228685621299E+01 -0.2549247607129E+01 -0.8011689134059E+00
-0.3437786758783E+00 -0.5285937456485E+01 -0.2645966582211E+01 -0.8419745293793E+00
-0.5090369660780E+00 -0.5339505583878E+01 -0.2748814998479E+01 -0.8743149062329E+00
-0.6921813634392E+00 -0.5388919584537E+01 -0.2858117445549E+01 -0.8949199513559E+00
-0.8943925441931E+00 -0.5433826039899E+01 -0.2974262734523E+01 -0.8997497604005E+00
-0.1116930437442E+01 -0.5474041284887E+01 -0.3097756709495E+01 -0.8838380242141E+00
-0.1361263795392E+01 -0.5509612051631E+01 -0.3229311648101E+01 -0.8411091783445E+00
-0.1629290081022E+01 -0.5540862352635E+01 -0.3369971643819E+01 -0.7641732061037E+00
-0.1923641177782E+01 -0.5568394193691E+01 -0.3521256624593E+01 -0.6440964109623E+00
-0.2248042894165E+01 -0.5593013462324E+01 -0.3685296487550E+01 -0.4701652554485E+00
 0.6297718002835E+00 -0.4636296829058E+01 -0.1883066763524E+01 -0.2245780069418E+00
 0.5943208097478E+00 -0.4709276533260E+01 -0.1934029190051E+01 -0.2548613520903E+00
 0.5516825133879E+00 -0.4785388679107E+01 -0.1989841897888E+01 -0.2877168603474E+00
 0.5013902201885E+00 -0.4864533382376E+01 -0.2050677286228E+01 -0.3228002476540E+00
 0.4427109034097E+00 -0.4946493149206E+01 -0.2116777655524E+01 -0.3597710227387E+00
 0.3746943007054E+00 -0.5030965669342E+01 -0.2188447543259E+01 -0.3982475789139E+00
 0.2961969533361E+00 -0.5117579876611E+01 -0.2266049973939E+01 -0.4377639206155E+00
 0.2058893745286E+00 -0.5205901627638E+01 -0.2350005758962E+01 -0.4777256896245E+00
 0.1022513743902E+00 -0.5295433386782E+01 -0.2440795545824E+01 -0.5173633201716E+00
-0.1644154274365E-01 -0.5385610681459E+01 -0.2538964545375E+01 -0.5556802769353E+00
-0.1521395134188E+00 -0.5475797045328E+01 -0.2645130182611E+01 -0.5913944913253E+00
-0.3070477357261E+00 -0.5565278452490E+01 -0.2759993308462E+01 -0.6228713991717E+00
-0.4836660362765E+00 -0.5653257717760E+01 -0.2884354164397E+01 -0.6480475118063E+00
-0.6848427522834E+00 -0.5738848781392E+01 -0.3019135020828E+01 -0.6643444196743E+00
-0.9138497919782E+00 -0.5821070003190E+01 -0.3165412303729E+01 -0.6685748470812E+00
-0.1174488504723E+01 -0.5898833911530E+01 -0.3324461535638E+01 -0.6568453186281E+00
-0.1471237805228E+01 -0.5970927974701E+01 -0.3497817916567E+01 -0.6244643089471E+00
-0.1809462516108E+01 -0.6035982676839E+01 -0.3687359240685E+01 -0.5658681077520E+00
-0.2195748016819E+01 -0.6092452529716E+01 -0.3895454256872E+01 -0.4745754241139E+00
-0.2638193541989E+01 -0.6138429576652E+01 -0.4125012865761E+01 -0.3431308893320E+00
 0.6413968896779E+00 -0.4674048793908E+01 -0.1895346394988E+01 -0.1360632976520E+00
 0.6088188345538E+00 -0.4753952360765E+01 -0.1948212757319E+01 -0.1544692236502E+00
 0.5690821470307E+00 -0.4837973261657E+01 -0.2006378823874E+01 -0.1745000838934E+00
 0.5217064110386E+00 -0.4926172423599E+01 -0.2070099025903E+01 -0.1959576943499E+00
 0.4659118873601E+00 -0.5018485488476E+01 -0.2139709592524E+01 -0.2186437310357E+00
 0.4006570000841E+00 -0.5114750973545E+01 -0.2215624167527E+01 -0.2423320714998E+00
 0.3246496255882E+00 -0.5214721230975E+01 -0.2298333654532E+01 -0.2667420315766E+00
 0.2363392585826E+00 -0.5318062143765E+01 -0.2388409756036E+01 -0.2915105180395E+00
 0.1338944948942E+00 -0.5424344896654E+01 -0.2486511688827E+01 -0.3161616995914E+00
 0.1516812766011E-01 -0.5533031825409E+01 -0.2593395937942E+01 -0.3400730220208E+00
-0.1223491259990E+00 -0.5643457386479E+01 -0.2709929060865E+01 -0.3624366156452E+00
-0.2815860406475E+00 -0.5754804608354E+01 -0.2837103605031E+01 -0.3822155294684E+00
-0.4659596076428E+00 -0.5866076845372E+01 -0.2976057132917E+01 -0.3980949265930E+00
-0.6794552184546E+00 -0.5976064153904E+01 -0.3128094105009E+01 -0.4084295802590E+00
-0.9267178111012E+00 -0.6083303015532E+01 -0.3294709788518E+01 -0.4111909496724E+00
-0.1213151987324E+01 -0.6186027484415E+01 -0.3477614351717E+01 -0.4039199774616E+00
-0.1545027882459E+01 -0.6282110220169E+01 -0.3678754908235E+01 -0.3836956026161E+00
-0.1929593239550E+01 -0.6368995515463E+01 -0.3900336714856E+01 -0.3471346505552E+00
-0.2375189720738E+01 -0.6443619877433E+01 -0.4144840511141E+01 -0.2904514476203E+00
-0.2891813886882E+01 -0.6502638908501E+01 -0.4415392813830E+01 -0.2096253457734E+00
 0.6472498534877E+00 -0.4693074246999E+01 -0.1901537464950E+01 -0.4557493838753E-01
 0.6161423835897E+00 -0.4776474353028E+01 -0.1955356025636E+01 -0.5174926384187E-01
 0.5778927772989E+00 -0.4864489918307E+01 -0.2014700656274E+01 -0.5847909314742E-01
 0.5320153906758E+00 -0.4957261400004E+01 -0.2079865624384E+01 -0.6569968912237E-01
 0.4777063018486E+00 -0.5054801766894E+01 -0.2151234868571E+01 -0.7334602997500E-01
 0.4138773038854E+00 -0.5157021149129E+01 -0.2229277607265E+01 -0.8134329411016E-01
 0.3391606495933E+00 -0.5263734902148E+01 -0.2314549898700E+01 -0.8959777310685E-01
 0.2518933791545E+00 -0.5374659803481E+01 -0.2407700219433E+01 -0.9798732160370E-01
 0.1500854694256E+00 -0.5489401315072E+01 -0.2509478447454E+01 -0.1063508550500E+00
 0.3137396694103E-01 -0.5607433493584E+01 -0.2620747977522E+01 -0.1144765096599E+00
-0.1070357614013E+00 -0.5728072235945E+01 -0.2742500758753E+01 -0.1220881829460E+00
-0.2684407796264E+00 -0.5850441914337E+01 -0.2875874866163E+01 -0.1288303466715E+00
-0.4567219561678E+00 -0.5973434999693E+01 -0.3022173769255E+01 -0.1342513332308E+00
-0.6764331759503E+00 -0.6095663960173E+01 -0.3182885653978E+01 -0.1377858163425E+00
-0.9328930918838E+00 -0.6215404599876E+01 -0.3359699915127E+01 -0.1387380106283E+00
-0.1232270301719E+01 -0.6330530181683E+01 -0.3554516227199E+01 -0.1362682481722E+00
-0.1581646967788E+01 -0.6438435815432E+01 -0.3769438908113E+01 -0.1293872466011E+00
-0.1989034181602E+01 -0.6535950605450E+01 -0.4006742849914E+01 -0.1169657417277E+00
-0.2463292148437E+01 -0.6619232617475E+01 -0.4268786639979E+01 -0.9777351873802E-01
-0.3013663986895E+01 -0.6683480801863E+01 -0.4557658050716E+01 -0.7063243438038E-01
 0.6472498535719E+00 -0.4693074247167E+01 -0.1901537464990E+01  0.4557493742353E-01
 0.6161423837748E+00 -0.4776474353376E+01 -0.1955356025712E+01  0.5174926113784E-01
 0.5778927775954E+00 -0.4864489918874E+01 -0.2014700656401E+01  0.5847908847166E-01
 0.5320153910928E+00 -0.4957261400838E+01 -0.2079865624580E+01  0.6569968225143E-01
 0.4777063023937E+00 -0.5054801768051E+01 -0.2151234868859E+01  0.7334602069690E-01
 0.4138773045635E+00 -0.5157021150671E+01 -0.2229277607671E+01  0.8134328222848E-01
 0.3391606504044E+00 -0.5263734904144E+01 -0.2314549899258E+01  0.8959775844707E-01
 0.2518933800912E+00 -0.5374659806008E+01 -0.2407700220181E+01  0.9798730402231E-01
 0.1500854704690E+00 -0.5489401318213E+01 -0.2509478448440E+01  0.1063508344468E+00
 0.3137396805611E-01 -0.5607433497423E+01 -0.2620747978802E+01  0.1144764859940E+00
-0.1070357602722E+00 -0.5728072240570E+01 -0.2742500760396E+01  0.1220881562578E+00
-0.2684407785706E+00 -0.5850441919834E+01 -0.2875874868250E+01  0.1288303171089E+00
-0.4567219553108E+00 -0.5973435006141E+01 -0.3022173771882E+01  0.1342513010832E+00
-0.6764331754673E+00 -0.6095663967640E+01 -0.3182885657260E+01  0.1377857820810E+00
-0.9328930920093E+00 -0.6215404608410E+01 -0.3359699919197E+01  0.1387379749534E+00
-0.1232270302758E+01 -0.6330530191307E+01 -0.3554516232211E+01  0.1362682120691E+00
-0.1581646970120E+01 -0.6438435826126E+01 -0.3769438914236E+01  0.1293872113990E+00
-0.1989034185683E+01 -0.6535950617145E+01 -0.4006742857329E+01  0.1169657091601E+00
-0.2463292154772E+01 -0.6619232630029E+01 -0.4268786648856E+01  0.9777349099490E-01
-0.3013663995931E+01 -0.6683480815008E+01 -0.4557658061141E+01  0.7063241412815E-01
 0.6413968899293E+00 -0.4674048794412E+01 -0.1895346395107E+01  0.1360632967028E+00
 0.6088188351042E+00 -0.4753952361804E+01 -0.1948212757549E+01  0.1544692209748E+00
 0.5690821479101E+00 -0.4837973263351E+01 -0.2006378824257E+01  0.1745000792707E+00
 0.5217064122732E+00 -0.4926172426092E+01 -0.2070099026495E+01  0.1959576875695E+00
 0.4659118889721E+00 -0.5018485491933E+01 -0.2139709593391E+01  0.2186437219009E+00
 0.4006570020868E+00 -0.5114750978153E+01 -0.2215624168751E+01  0.2423320598314E+00
 0.3246496279803E+00 -0.5214721236941E+01 -0.2298333656211E+01  0.2667420172186E+00
 0.2363392613408E+00 -0.5318062151316E+01 -0.2388409758289E+01  0.2915105008673E+00
 0.1338944979611E+00 -0.5424344906035E+01 -0.2486511691795E+01  0.3161616795230E+00
 0.1516813093102E-01 -0.5533031836874E+01 -0.2593395941793E+01  0.3400729990313E+00
-0.1223491226959E+00 -0.5643457400290E+01 -0.2709929065803E+01  0.3624365897859E+00
-0.2815860375716E+00 -0.5754804624766E+01 -0.2837103611299E+01  0.3822155008904E+00
-0.4659596051686E+00 -0.5866076864625E+01 -0.2976057140803E+01  0.3980948955768E+00
-0.6794552171038E+00 -0.5976064176205E+01 -0.3128094114855E+01  0.4084295472504E+00
-0.9267178115754E+00 -0.6083303041034E+01 -0.3294709800726E+01  0.4111909153268E+00
-0.1213151990538E+01 -0.6186027513190E+01 -0.3477614366752E+01  0.4039199426959E+00
-0.1545027889571E+01 -0.6282110252175E+01 -0.3678754926621E+01  0.3836955686701E+00
-0.1929593251969E+01 -0.6368995550505E+01 -0.3900336737163E+01  0.3471346190615E+00
-0.2375189740100E+01 -0.6443619915121E+01 -0.4144840537954E+01  0.2904514206835E+00
-0.2891813914914E+01 -0.6502638948159E+01 -0.4415392845645E+01  0.2096253260718E+00
 0.6297718007027E+00 -0.4636296829889E+01 -0.1883066763718E+01  0.2245780060231E+00
 0.5943208106552E+00 -0.4709276534971E+01 -0.1934029190428E+01  0.2548613494747E+00
 0.5516825148295E+00 -0.4785388681899E+01 -0.1989841898523E+01  0.2877168558345E+00
 0.5013902222058E+00 -0.4864533386484E+01 -0.2050677287211E+01  0.3228002410595E+00
 0.4427109060364E+00 -0.4946493154902E+01 -0.2116777656967E+01  0.3597710138963E+00
 0.3746943039612E+00 -0.5030965676933E+01 -0.2188447545297E+01  0.3982475676782E+00
 0.2961969572175E+00 -0.5117579886439E+01 -0.2266049976734E+01  0.4377639068670E+00
 0.2058893789945E+00 -0.5205901640075E+01 -0.2350005762708E+01  0.4777256732762E+00
 0.1022513793446E+00 -0.5295433402226E+01 -0.2440795550754E+01  0.5173633011780E+00
-0.1644153747494E-01 -0.5385610700328E+01 -0.2538964551767E+01  0.5556802553040E+00
-0.1521395081163E+00 -0.5475797068048E+01 -0.2645130190797E+01  0.5913944671314E+00
-0.3070477308139E+00 -0.5565278479484E+01 -0.2759993318840E+01  0.6228713725752E+00
-0.4836660323662E+00 -0.5653257749426E+01 -0.2884354177443E+01  0.6480474830743E+00
-0.6848427502278E+00 -0.5738848818082E+01 -0.3019135037106E+01  0.6643443892080E+00
-0.9138497929316E+00 -0.5821070045175E+01 -0.3165412323910E+01  0.6685748154503E+00
-0.1174488510210E+01 -0.5898833958960E+01 -0.3324461560510E+01  0.6568452866150E+00
-0.1471237817210E+01 -0.5970928027551E+01 -0.3497817947037E+01  0.6244642776054E+00
-0.1809462537042E+01 -0.6035982734846E+01 -0.3687359277787E+01  0.5658680784839E+00
-0.2195748049698E+01 -0.6092452592299E+01 -0.3895454301738E+01  0.4745753987755E+00
-0.2638193590441E+01 -0.6138429642897E+01 -0.4125012919669E+01  0.3431308703795E+00
 0.6125302671079E+00 -0.4580420445193E+01 -0.1864908383700E+01  0.3098473025504E+00
 0.5729105706768E+00 -0.4643212965233E+01 -0.1913042125442E+01  0.3514121794987E+00
 0.5260768332370E+00 -0.4707685903575E+01 -0.1965356263059E+01  0.3962925042601E+00
 0.4715793984777E+00 -0.4773499385445E+01 -0.2021902393875E+01  0.4439760293217E+00
 0.4087505184822E+00 -0.4840210923732E+01 -0.2082786390467E+01  0.4939659122238E+00
 0.3367717030364E+00 -0.4907314468411E+01 -0.2148155099726E+01  0.5457176745400E+00
 0.2547160364253E+00 -0.4974261863075E+01 -0.2218186538525E+01  0.5985806037956E+00
 0.1615758023761E+00 -0.5040475279250E+01 -0.2293082754131E+01  0.6517409090980E+00
 0.5628236518091E-01 -0.5105356343110E+01 -0.2373064769627E+01  0.7041636243687E+00
-0.6227734235886E-01 -0.5168295713292E+01 -0.2458369336156E+01  0.7545302179102E+00
-0.1952454506299E+00 -0.5228685652414E+01 -0.2549247618431E+01  0.8011688917681E+00
-0.3437786693685E+00 -0.5285937493430E+01 -0.2645966596515E+01  0.8419745058439E+00
-0.5090369609532E+00 -0.5339505627204E+01 -0.2748815016434E+01  0.8743148810612E+00
-0.6921813608513E+00 -0.5388919634741E+01 -0.2858117467929E+01  0.8949199248986E+00
-0.8943925457121E+00 -0.5433826097387E+01 -0.2974262762257E+01  0.8997497331142E+00
-0.1116930445167E+01 -0.5474041349925E+01 -0.3097756743693E+01  0.8838379966855E+00
-0.1361263812080E+01 -0.5509612124275E+01 -0.3229311690087E+01  0.8411091513300E+00
-0.1629290110230E+01 -0.5540862432642E+01 -0.3369971695150E+01  0.7641731805934E+00
-0.1923641224036E+01 -0.5568394280417E+01 -0.3521256687093E+01  0.6440963882783E+00
-0.2248042963087E+01 -0.5593013554545E+01 -0.3685296563287E+01  0.4701652373819E+00
 0.5899094508358E+00 -0.4507313763138E+01 -0.1841180026782E+01  0.3906692511427E+00
 0.5449703225899E+00 -0.4556910537043E+01 -0.1885611900793E+01  0.4426790302872E+00
 0.4928125297857E+00 -0.4606299044852E+01 -0.1933338662081E+01  0.4984575314396E+00
 0.4329975162004E+00 -0.4654823473557E+01 -0.1984258199957E+01  0.5572953998464E+00
 0.3649354853618E+00 -0.4701753905878E+01 -0.2038304657643E+01  0.6185201980154E+00
 0.2879762670642E+00 -0.4746330191723E+01 -0.2095426344590E+01  0.6814118856316E+00
 0.2014726157384E+00 -0.4787786855420E+01 -0.2155567692650E+01  0.7451296452654E+00
 0.1048308388077E+00 -0.4825370854341E+01 -0.2218653807301E+01  0.8086462769936E+00
-0.2441130528009E-02 -0.4858359464304E+01 -0.2284576279571E+01  0.8706858482115E+00
-0.1206814106572E+00 -0.4886082840418E+01 -0.2353179198006E+01  0.9296604480138E+00
-0.2500130543881E+00 -0.4907954403097E+01 -0.2424244705018E+01  0.9836020379056E+00
-0.3902713186475E+00 -0.4923511675528E+01 -0.2497478007262E+01  0.1030085148720E+01
-0.5409183617234E+00 -0.4932470406141E+01 -0.2572492720896E+01  0.1066135266486E+01
-0.7009471587827E+00 -0.4934795694216E+01 -0.2648799140909E+01  0.1088115839715E+01
-0.8687818732758E+00 -0.4930796001596E+01 -0.2725801601190E+01  0.1091583457603E+01
-0.1042191690749E+01 -0.4921248824690E+01 -0.2802817042256E+01  0.1071095557864E+01
-0.1218258653228E+01 -0.4907574976591E+01 -0.2879141806015E+01  0.1019948214225E+01
-0.1393471549464E+01 -0.4892075708192E+01 -0.2954207211098E+01  0.9298213468453E+00
-0.1563915079278E+01 -0.4878119440452E+01 -0.3027756224274E+01  0.7903435364524E+00
-0.1725695930838E+01 -0.4870365047376E+01 -0.3100148659761E+01  0.5885993905051E+00
 0.5622344223996E+00 -0.4418143481170E+01 -0.1812277257622E+01  0.4659408961254E+00
 0.5110122440803E+00 -0.4451874405626E+01 -0.1852205215926E+01  0.5273255789828E+00
 0.4526136650915E+00 -0.4483110788345E+01 -0.1894333647929E+01  0.5925509102800E+00
 0.3865934978228E+00 -0.4510813598784E+01 -0.1938383447452E+01  0.6606782822289E+00
 0.3124490780476E+00 -0.4533920549267E+01 -0.1984091591473E+01  0.7308360973999E+00
 0.2297358998063E+00 -0.4551388727907E+01 -0.2031176829207E+01  0.8021076613106E+00
 0.1381501473774E+00 -0.4562218141896E+01 -0.2079311957424E+01  0.8734439545694E+00
 0.3760053574538E-01 -0.4565471354230E+01 -0.2128099284688E+01  0.9435942256586E+00
-0.7171618071472E-01 -0.4560297371569E+01 -0.2177046369573E+01  0.1011047840992E+01
-0.1892263012498E+00 -0.4545964374493E+01 -0.2225539617599E+01  0.1073982074972E+01
-0.3138692794334E+00 -0.4521904145938E+01 -0.2272813509925E+01  0.1130211484961E+01
-0.4439597872999E+00 -0.4487770582258E+01 -0.2317913273692E+01  0.1177134797430E+01
-0.5770139756514E+00 -0.4443515079071E+01 -0.2359648655719E+01  0.1211674502229E+01
-0.7095305475690E+00 -0.4389483101045E+01 -0.2396536414848E+01  0.1230202079763E+01
-0.8367146966017E+00 -0.4326539048800E+01 -0.2426729260339E+01  0.1228436955742E+01
-0.9521342287109E+00 -0.4256235019837E+01 -0.2447933546818E+01  0.1201297703416E+01
-0.1047302500400E+01 -0.4181050703380E+01 -0.2457326005777E+01  0.1142666355347E+01
-0.1111271392736E+01 -0.4104805756732E+01 -0.2451556260250E+01  0.1044990678863E+01
-0.1130636394125E+01 -0.4033504972069E+01 -0.2427146442111E+01  0.8986230324159E+00
-0.1089581391154E+01 -0.3975888334047E+01 -0.2380770770845E+01  0.6909603761633E+00
 0.5299229631111E+00 -0.4314324266637E+01 -0.1778668612657E+01  0.5346861986983E+00
 0.4716883222305E+00 -0.4329932061183E+01 -0.1813374557307E+01  0.6041542379996E+00
 0.4063926342525E+00 -0.4340406933942E+01 -0.1848986720854E+01  0.6770578410517E+00
 0.3335557046051E+00 -0.4344278117908E+01 -0.1885039534253E+01  0.7522005597721E+00
 0.2527756442262E+00 -0.4340134231405E+01 -0.1921058535974E+01  0.8284843402339E+00
 0.1638622214982E+00 -0.4326653443622E+01 -0.1956511874398E+01  0.9047623388612E+00
 0.6693051173124E-01 -0.4302618658884E+01 -0.1990773429162E+01  0.9797388732188E+00
-0.3751304163549E-01 -0.4266934182535E+01 -0.2023090195360E+01  0.1051902343396E+01
-0.1484739201142E+00 -0.4218651561715E+01 -0.2052548976460E+01  0.1119480921660E+01
-0.2643501526037E+00 -0.4157007569588E+01 -0.2078038129430E+01  0.1180414495001E+01
-0.3827804255703E+00 -0.4081475288366E+01 -0.2098200185550E+01  0.1232339199297E+01
-0.5004488002564E+00 -0.3991828394700E+01 -0.2111370281629E+01  0.1272582860825E+01
-0.6128311146515E+00 -0.3888218638638E+01 -0.2115493384046E+01  0.1298170830762E+01
-0.7138597502946E+00 -0.3771266573787E+01 -0.2108009372319E+01  0.1305841975868E+01
-0.7954689645152E+00 -0.3642166556131E+01 -0.2085688694704E+01  0.1292073426427E+01
-0.8469532371867E+00 -0.3502805657532E+01 -0.2044386680518E+01  0.1253108403452E+01
-0.8540375658916E+00 -0.3355913563048E+01 -0.1978677030602E+01  0.1184967089712E+01
-0.7974317020803E+00 -0.3205235607765E+01 -0.1881253635627E+01  0.1083380175128E+01
-0.6508951751637E+00 -0.3056153142622E+01 -0.1742312709359E+01  0.9433828703614E+00
-0.3815554708990E+00 -0.2919223484908E+01 -0.1551366109230E+01  0.7579216298471E+00
 0.4934912827043E+00 -0.4197488622720E+01 -0.1740878749807E+01  0.5960835246148E+00
 0.4278052414572E+00 -0.4193187807596E+01 -0.1769729806085E+01  0.6721345608459E+00
 0.3552680750999E+00 -0.4180814676439E+01 -0.1798006902629E+01  0.7506422855064E+00
 0.2753347742480E+00 -0.4158449980410E+01 -0.1825064146896E+01  0.8301349142504E+00
 0.1877372816346E+00 -0.4124355540073E+01 -0.1850210581466E+01  0.9092567885569E+00
 0.9261552424448E-01 -0.4076977924013E+01 -0.1872650327891E+01  0.9865805306943E+00
-0.9392880254072E-02 -0.4014946763061E+01 -0.1891439632358E+01  0.1060497688550E+01
-0.1170650826976E+00 -0.3937083554046E+01 -0.1905449859269E+01  0.1129162009267E+01
-0.2284870890440E+00 -0.3842425102801E+01 -0.1913328730167E+01  0.1190469690614E+01
-0.3409181505980E+00 -0.3730261062421E+01 -0.1913454230119E+01  0.1242068723458E+01
-0.4506164709525E+00 -0.3600182176223E+01 -0.1903875364172E+01  0.1281395280771E+01
-0.5526157176654E+00 -0.3452134329320E+01 -0.1882232522083E+01  0.1305739928048E+01
-0.6404361365696E+00 -0.3286471716326E+01 -0.1845646690861E+01  0.1312351122503E+01
-0.7057027459678E+00 -0.3103999285565E+01 -0.1790559954820E+01  0.1298589228415E+01
-0.7376197680394E+00 -0.2905986710617E+01 -0.1712495044968E+01  0.1262152855110E+01
-0.7222088005956E+00 -0.2694123907565E+01 -0.1605676372836E+01  0.1201413405143E+01
-0.6410890796064E+00 -0.2470326904284E+01 -0.1462365512428E+01  0.1115919053896E+01
-0.4694107398707E+00 -0.2236292445018E+01 -0.1271680496898E+01  0.1007165351466E+01
-0.1709074895813E+00 -0.1991654484495E+01 -0.1016404127816E+01  0.8798281214392E+00
 0.3131181475768E+00 -0.1731000161579E+01 -0.6664045465808E+00  0.7427577897028E+00
 0.4535701110354E+00 -0.4069440958723E+01 -0.1699459298413E+01  0.6494882037948E+00
 0.3803577093606E+00 -0.4043946052297E+01 -0.1721886521180E+01  0.7304185843775E+00
 0.3006080395276E+00 -0.4007195029732E+01 -0.1742095885396E+01  0.8121620624410E+00
 0.2137025425964E+00 -0.3956847273106E+01 -0.1759278023339E+01  0.8929733680875E+00
 0.1195794322798E+00 -0.3890912394923E+01 -0.1772526492442E+01  0.9712070927672E+00
 0.1883137024185E-01 -0.3807710854612E+01 -0.1780773357654E+01  0.1045089723225E+01
-0.8723242115178E-01 -0.3705848840140E+01 -0.1782748192807E+01  0.1112610063255E+01
-0.1965147702037E+00 -0.3584215705056E+01 -0.1776943323372E+01  0.1171485782646E+01
-0.3060335840559E+00 -0.3442004236574E+01 -0.1761577775696E+01  0.1219182804243E+01
-0.4117930322175E+00 -0.3278746250990E+01 -0.1734553463108E+01  0.1252977625731E+01
-0.5086211066831E+00 -0.3094353527078E+01 -0.1693398077868E+01  0.1270062546588E+01
-0.5899718938048E+00 -0.2889151959757E+01 -0.1635188211174E+01  0.1267701717624E+01
-0.6476885944402E+00 -0.2663893159232E+01 -0.1556443424226E+01  0.1243454140404E+01
-0.6717187078177E+00 -0.2419720387981E+01 -0.1452976375025E+01  0.1195490861124E+01
-0.6497665170147E+00 -0.2158052478080E+01 -0.1319674927694E+01  0.1123051784085E+01
-0.5668464914641E+00 -0.1880313132438E+01 -0.1150165023234E+01  0.1027121345135E+01
-0.4047003825038E+00 -0.1587393404026E+01 -0.9362840796692E+00  0.9114715729165E+00
-0.1407217036817E+00 -0.1278363784674E+01 -0.6669701795274E+00  0.7843927155061E+00
 0.2531872242732E+00 -0.9483884743607E+00 -0.3267445875411E+00  0.6618778721894E+00
 0.8256469613871E+00 -0.5723914907350E+00  0.1190300712065E+00  0.5757701615568E+00
 0.4109476236354E+00 -0.3932078354729E+01 -0.1654931443614E+01  0.6944420316131E+00
 0.3306055315286E+00 -0.3884562042341E+01 -0.1670359560082E+01  0.7783253025920E+00
 0.2441408057278E+00 -0.3822414076834E+01 -0.1681788437420E+01  0.8606452503694E+00
 0.1509027062664E+00 -0.3742968989006E+01 -0.1688271152887E+01  0.9394210548058E+00
 0.5116687266227E-01 -0.3644140981239E+01 -0.1688697831031E+01  0.1012707357087E+01
-0.5384668246240E-01 -0.3524337348913E+01 -0.1681746494746E+01  0.1078338853477E+01
-0.1619676267065E+00 -0.3382404796892E+01 -0.1665855039091E+01  0.1133845915563E+01
-0.2700473248687E+00 -0.3217627007252E+01 -0.1639206936097E+01  0.1176476300290E+01
-0.3738985030338E+00 -0.3029761390680E+01 -0.1599720150046E+01  0.1203288589030E+01
-0.4682107501739E+00 -0.2819099271894E+01 -0.1545035710372E+01  0.1211306066858E+01
-0.5464567938218E+00 -0.2586533503772E+01 -0.1472505439869E+01  0.1197734199697E+01
-0.6008084680255E+00 -0.2333616118139E+01 -0.1379179555497E+01  0.1160254970764E+01
-0.6220887471903E+00 -0.2062585834566E+01 -0.1261797053426E+01  0.1097420538266E+01
-0.5998023962681E+00 -0.1776339360938E+01 -0.1116786625887E+01  0.1009179708615E+01
-0.5223214989190E+00 -0.1478308816980E+01 -0.9402962484725E+00  0.8975867198603E+00
-0.3773930837631E+00 -0.1172201746359E+01 -0.7283095701574E+00  0.7677678169652E+00
-0.1532931899607E+00 -0.8615117521408E+00 -0.4769583227877E+00  0.6292677021407E+00
 0.1581501062179E+00 -0.5490336680260E+00 -0.1837152740498E+00  0.4979860236117E+00
 0.5551089592309E+00 -0.2356574263524E+00  0.1501422204529E+00  0.3991229232825E+00
 0.9838167243164E+00  0.6181246229452E-01  0.4914457177071E+00  0.3717695723921E+00
 0.3666276886005E+00 -0.3787258142121E+01 -0.1607696313155E+01  0.7306307674555E+00
 0.2801758478990E+00 -0.3717140144520E+01 -0.1615373219412E+01  0.8152322056602E+00
 0.1880997687170E+00 -0.3628869640623E+01 -0.1617161839796E+01  0.8951418984970E+00
 0.8984389904667E-01 -0.3519643386176E+01 -0.1612005758951E+01  0.9682471977147E+00
-0.1380949426736E-01 -0.3387591211558E+01 -0.1598658331738E+01  0.1032359996201E+01
-0.1208232471491E+00 -0.3231592965363E+01 -0.1575635619880E+01  0.1084960003222E+01
-0.2280082699932E+00 -0.3051203726051E+01 -0.1541229638141E+01  0.1123191111927E+01
-0.3310774947836E+00 -0.2846671504499E+01 -0.1493542029663E+01  0.1143995933304E+01
-0.4246630674280E+00 -0.2619014284671E+01 -0.1430528355487E+01  0.1144339140265E+01
-0.5023317700362E+00 -0.2370127063571E+01 -0.1350055651795E+01  0.1121506211607E+01
-0.5566379827307E+00 -0.2102889684022E+01 -0.1249978003374E+01  0.1073480832726E+01
-0.5792625052374E+00 -0.1821247552334E+01 -0.1128239727058E+01  0.9994115075502E+00
-0.5613032463301E+00 -0.1530234803007E+01 -0.9830228831885E+00  0.9001799478356E+00
-0.4938228456833E+00 -0.1235908136830E+01 -0.8129735617813E+00  0.7790807956280E+00
-0.3688400872276E+00 -0.9451654776261E+00 -0.6175826154812E+00  0.6426104647469E+00
-0.1811091197526E+00 -0.6654445168146E+00 -0.3978802091866E+00  0.5013301763792E+00
 0.6853099505933E-01 -0.4044696261335E+00 -0.1578911566049E+00  0.3706780961445E+00
 0.3668854060099E+00 -0.1703741118127E+00  0.9236030827268E-01  0.2713250617024E+00
 0.6731480476869E+00  0.2395902930316E-01  0.3276403261853E+00  0.2277323291995E+00
 0.9000753409475E+00  0.1544594896925E+00  0.4956313704008E+00  0.2578746265445E+00
 0.3217060332576E+00 -0.3636794828818E+01 -0.1558091733913E+01  0.7578420080151E+00
 0.2306063527353E+00 -0.3543757697858E+01 -0.1557181132208E+01  0.8405754961073E+00
 0.1345065562211E+00 -0.3428972103924E+01 -0.1548398807421E+01  0.9148136180418E+00
 0.3304266940663E-01 -0.3289894178496E+01 -0.1530720209272E+01  0.9785362784108E+00
-0.7231325073718E-01 -0.3125370045588E+01 -0.1502911149273E+01  0.1029475102465E+01
-0.1785621831036E+00 -0.2935313708652E+01 -0.1463521669125E+01  0.1064920690234E+01
-0.2814543004753E+00 -0.2720607047567E+01 -0.1410968833580E+01  0.1081883241597E+01
-0.3756622660585E+00 -0.2483130536709E+01 -0.1343632617301E+01  0.1077404331793E+01
-0.4549165688145E+00 -0.2225859725569E+01 -0.1259964858360E+01  0.1048950981067E+01
-0.5121693042861E+00 -0.1952964310919E+01 -0.1158612799146E+01  0.9948714900166E+00
-0.5398545909417E+00 -0.1669859154980E+01 -0.1038565460583E+01  0.9149053975863E+00
-0.5303146707897E+00 -0.1383155066433E+01 -0.8993307764947E+00  0.8107370442528E+00
-0.4764847892617E+00 -0.1100465855278E+01 -0.7411668029335E+00  0.6865678645043E+00
-0.3729715210193E+00 -0.8300377932364E+00 -0.5654143777002E+00  0.5496534137511E+00
-0.2177320725273E+00 -0.5801960817712E+00 -0.3750262325203E+00  0.4106961820077E+00
-0.1468898820368E-01 -0.3586878210166E+00 -0.1754871003336E+00  0.2838767450264E+00
 0.2223249759661E+00 -0.1721221210721E+00  0.2359534180017E-01  0.1860727494877E+00
 0.4637619253476E+00 -0.2626730239621E-01  0.2056224727871E+00  0.1343121608218E+00
 0.6607812822089E+00  0.7364681995102E-01  0.3451812080151E+00  0.1391784668374E+00
 0.7677792236588E+00  0.1325231960175E+00  0.4231421372479E+00  0.1927019175327E+00
 0.2772300037365E+00 -0.3482689151495E+01 -0.1506565799446E+01  0.7760154614373E+00
 0.1831725587773E+00 -0.3366863717624E+01 -0.1496334844658E+01  0.8540512411749E+00
 0.8483369127481E-01 -0.3225788482710E+01 -0.1476248751974E+01  0.9193154438805E+00
-0.1789063146405E-01 -0.3057803201223E+01 -0.1445576101363E+01  0.9702743745400E+00
-0.1226568065246E+00 -0.2863110899322E+01 -0.1403310821748E+01  0.1004842184101E+01
-0.2254379781220E+00 -0.2643273268692E+01 -0.1348294286002E+01  0.1020394576486E+01
-0.3210174689376E+00 -0.2401039426461E+01 -0.1279366740837E+01  0.1014189684054E+01
-0.4033032010085E+00 -0.2140351059723E+01 -0.1195517502544E+01  0.9838953304649E+00
-0.4655902043306E+00 -0.1866380012428E+01 -0.1096026001876E+01  0.9281384174707E+00
-0.5008938718851E+00 -0.1585518131328E+01 -0.9806136415099E+00  0.8470475602954E+00
-0.5024246219141E+00 -0.1305232030538E+01 -0.8495986266525E+00  0.7427655037057E+00
-0.4642851048054E+00 -0.1033740306681E+01 -0.7040719433988E+00  0.6198934913092E+00
-0.3824692731738E+00 -0.7794890004089E+00 -0.5461203885839E+00  0.4858005128376E+00
-0.2562599619433E+00 -0.5504462802291E+00 -0.3791519338210E+00  0.3506840553206E+00
-0.9011450371832E-01 -0.3532950057468E+00 -0.2084024694486E+00  0.2271946142722E+00
 0.1039868903494E+00 -0.1926759083744E+00 -0.4168383847176E-01  0.1293144930110E+00
 0.3041701557771E+00 -0.7073041673297E-01  0.1097166773507E+00  0.6999926821998E-01
 0.4785791510466E+00  0.1323826090783E-01  0.2311541836186E+00  0.5688523712601E-01
 0.5949733794797E+00  0.6509826679428E-01  0.3102336737488E+00  0.8617334944112E-01
 0.6403069185451E+00  0.9768083729628E-01  0.3468542452454E+00  0.1398919610575E+00
 0.2341964168335E+00 -0.3327115960508E+01 -0.1453672185527E+01  0.7852810647239E+00
 0.1390721839756E+00 -0.3189074187311E+01 -0.1433500941568E+01  0.8556870842405E+00
 0.4031616192207E-01 -0.3022561933701E+01 -0.1401655512736E+01  0.9089199810480E+00
-0.6176925515639E-01 -0.2827606986091E+01 -0.1358006833386E+01  0.9444853815463E+00
-0.1638090816690E+00 -0.2606472687974E+01 -0.1302032431732E+01  0.9607738934065E+00
-0.2607715591206E+00 -0.2362842369085E+01 -0.1233098546256E+01  0.9555339467041E+00
-0.3467118357421E+00 -0.2101568333009E+01 -0.1150691679313E+01  0.9266477097524E+00
-0.4151711852075E+00 -0.1828581780696E+01 -0.1054563893975E+01  0.8728675083042E+00
-0.4595678079890E+00 -0.1550852202181E+01 -0.9448974047797E+00  0.7944388202514E+00
-0.4736631039516E+00 -0.1276198016775E+01 -0.8224347267413E+00  0.6935940847335E+00
-0.4522142099065E+00 -0.1012920651753E+01 -0.6886133849801E+00  0.5748963324122E+00
-0.3918408037210E+00 -0.7692296431396E+00 -0.5457031100245E+00  0.4453869747434E+00
-0.2921460404733E+00 -0.5525187518356E+00 -0.3969924523852E+00  0.3144569973744E+00
-0.1570707841263E+00 -0.3685817209511E+00 -0.2470566773863E+00  0.1933145082285E+00
 0.3665592496886E-02 -0.2208961172240E+00 -0.1020983466217E+00  0.9386917950185E-01
 0.1735096778222E+00 -0.1101158015574E+00  0.2979512184445E-01  0.2680958283092E-01
 0.3296627407882E+00 -0.3378249731313E-01  0.1390637144333E+00 -0.1304456581618E-02
 0.4479926241140E+00  0.1416063181399E-01  0.2172120302861E+00  0.8403753045261E-02
 0.5131972887671E+00  0.4353242253479E-01  0.2616629643119E+00  0.4517629231503E-01
 0.5270931907048E+00  0.6562014203529E-01  0.2785752663878E+00  0.9225687130930E-01
 0.1934844285687E+00 -0.3172315078021E+01 -0.1400050405242E+01  0.7859643950758E+00
 0.9920956922785E-01 -0.3013025621552E+01 -0.1369493544592E+01  0.8458342355701E+00
 0.1725467845404E-02 -0.2822405469300E+01 -0.1325719600684E+01  0.8845169130975E+00
-0.9805857964071E-01 -0.2603248044046E+01 -0.1269614113133E+01  0.9031809293922E+00
-0.1955441017017E+00 -0.2360467867436E+01 -0.1201325625495E+01  0.9008747879092E+00
-0.2848740410020E+00 -0.2100083060093E+01 -0.1120929837515E+01  0.8758769281051E+00
-0.3596861803812E+00 -0.1828756627877E+01 -0.1028568119882E+01  0.8269237494432E+00
-0.4136333593025E+00 -0.1553818983007E+01 -0.9247026008853E+00  0.7540957383747E+00
-0.4407770328632E+00 -0.1283121671477E+01 -0.8102323910401E+00  0.6593835800085E+00
-0.4361885873998E+00 -0.1024786907448E+01 -0.6866584825784E+00  0.5469826199052E+00
-0.3966644358124E+00 -0.7866680255995E+00 -0.5561662568636E+00  0.4233380995567E+00
-0.3216183823287E+00 -0.5756786563268E+00 -0.4217296081681E+00  0.2969220204768E+00
-0.2140755877294E+00 -0.3970837335964E+00 -0.2872448810231E+00  0.1776719743327E+00
-0.8161367074588E-01 -0.2538684357510E+00 -0.1576765900535E+00  0.7599819529104E-01
 0.6310693466177E-01 -0.1462831385463E+00 -0.3909281582572E-01  0.1265302323887E-02
 0.2029280505901E+00 -0.7161826875856E-01  0.6171559746081E-01 -0.4026810402466E-01
 0.3190252631464E+00 -0.2417975509323E-01  0.1385773887850E+00 -0.4776788271390E-01
 0.3965605306030E+00  0.4327549983310E-02  0.1884173978756E+00 -0.2731375585186E-01
 0.4306298786150E+00  0.2319804178560E-01  0.2132991225883E+00  0.9426496829925E-02
 0.4270504843518E+00  0.3970037406827E-01  0.2193729034574E+00  0.5015111277977E-01
 0.1557838773881E+00 -0.3020521500881E+01 -0.1346426683042E+01  0.7784960052009E+00
 0.6420209903494E-01 -0.2841000772586E+01 -0.1305095376569E+01  0.8250579341832E+00
-0.3062755514131E-01 -0.2627782694091E+01 -0.1249452817139E+01  0.8474925912338E+00
-0.1266585987919E+00 -0.2387622365697E+01 -0.1181712053310E+01  0.8491623443050E+00
-0.2181537274586E+00 -0.2128743276347E+01 -0.1103041591789E+01  0.8296129720703E+00
-0.2985740239144E+00 -0.1859006817962E+01 -0.1014062995682E+01  0.7875630472946E+00
-0.3616573583145E+00 -0.1586191289948E+01 -0.9154888646835E+00  0.7226270992849E+00
-0.4015175796129E+00 -0.1317904949309E+01 -0.8081285885933E+00  0.6362363355175E+00
-0.4133220808840E+00 -0.1061900314941E+01 -0.6933545260378E+00  0.5319629146875E+00
-0.3937923431685E+00 -0.8256158310881E+00 -0.5731218419006E+00  0.4154842796533E+00
-0.3419137422751E+00 -0.6155892666256E+00 -0.4500264141833E+00  0.2943088272195E+00
-0.2596783996445E+00 -0.4368157873500E+00 -0.3273522678874E+00  0.1772383325842E+00
-0.1527455710470E+00 -0.2921902828085E+00 -0.2091198513121E+00  0.7352157809949E-01
-0.3075988951137E-01 -0.1821022701020E+00 -0.1000452150183E+00 -0.8338449452823E-02
 0.9308182816200E-01 -0.1042372494109E+00 -0.5243047987006E-02 -0.6209894585992E-01
 0.2037668540840E+00 -0.5363210189156E-01  0.7056333353046E-01 -0.8541687894860E-01
 0.2878326646779E+00 -0.2312526368965E-01  0.1244124784645E+00 -0.8104625449890E-01
 0.3374546863070E+00 -0.4571789474866E-02  0.1564549615111E+00 -0.5657148612071E-01
 0.3526738189768E+00  0.9054485812376E-02  0.1700123032509E+00 -0.2190386107156E-01
 0.3390465897183E+00  0.2127254014078E-01  0.1693499910338E+00  0.1443631668771E-01
 0.1216564278147E+00 -0.2873817963094E+01 -0.1293515921581E+01  0.7632469230960E+00
 0.3406759888482E-01 -0.2674872441736E+01 -0.1241178276140E+01  0.7939754183995E+00
-0.5672558484216E-01 -0.2439955035895E+01 -0.1173439891747E+01  0.7996693603817E+00
-0.1479154780134E+00 -0.2182613097014E+01 -0.1095348430263E+01  0.7859100720950E+00
-0.2320546741811E+00 -0.1913634400314E+01 -0.1008473865013E+01  0.7520146577875E+00
-0.3030435717559E+00 -0.1642324220971E+01 -0.9143228625817E+00  0.6967346418394E+00
-0.3545420434297E+00 -0.1375451938063E+01 -0.8130971713015E+00  0.6205315974709E+00
-0.3816725525532E+00 -0.1120122634340E+01 -0.7058437378397E+00  0.5261303039469E+00
-0.3809418954022E+00 -0.8832286303515E+00 -0.5941601471042E+00  0.4183176120898E+00
-0.3508272951317E+00 -0.6709639308104E+00 -0.4802418761928E+00  0.3036060610353E+00
-0.2923102223947E+00 -0.4881876700693E+00 -0.3668340094581E+00  0.1897287439134E+00
-0.2093680419654E+00 -0.3379141866016E+00 -0.2572226474265E+00  0.8493377718576E-01
-0.1092014792648E+00 -0.2209433284762E+00 -0.1551680596383E+00 -0.2949980012862E-02
-0.1958263843338E-02 -0.1356712307511E+00 -0.6468586245939E-01 -0.6765142395003E-01
 0.1003465183577E+00 -0.7812433504729E-01  0.1044442615589E-01 -0.1056756695407E+00
 0.1859097504456E+00 -0.4231579383268E-01  0.6748915960806E-01 -0.1172923985345E+00
 0.2459171514357E+00 -0.2111662608882E-01  0.1056562469130E+00 -0.1067467858469E+00
 0.2769053950945E+00 -0.7717838100011E-02  0.1265181517874E+00 -0.8114030033527E-01
 0.2809499522509E+00  0.2537897747835E-02  0.1332392894994E+00 -0.4814339542975E-01
 0.2637791154166E+00  0.1143514985473E-01  0.1293507046775E+00 -0.1392137460180E-01
 0.8996427125866E-01 -0.2735833374801E+01 -0.1243558478665E+01  0.7403905738783E+00
 0.8013809094889E-02 -0.2516006337743E+01 -0.1178756488464E+01  0.7533643479991E+00
-0.7827078066146E-01 -0.2260248834568E+01 -0.1099104219158E+01  0.7436076232832E+00
-0.1618476924918E+00 -0.1988620242085E+01 -0.1010719929251E+01  0.7179987997026E+00
-0.2386095959008E+00 -0.1718014802277E+01 -0.9196134671437E+00  0.6735457262729E+00
-0.2997414397491E+00 -0.1451854411284E+01 -0.8232500499853E+00  0.6089568433176E+00
-0.3402786094527E+00 -0.1196119788845E+01 -0.7221072472000E+00  0.5259228959089E+00
-0.3563864569194E+00 -0.9569187000919E+00 -0.6172534237953E+00  0.4282899044909E+00
-0.3460679895199E+00 -0.7401434156815E+00 -0.5105193604447E+00  0.3215778236716E+00
-0.3094211020170E+00 -0.5506326272478E+00 -0.4042252527544E+00  0.2124877724905E+00
-0.2490262912816E+00 -0.3916706138893E+00 -0.3011275454303E+00  0.1083253178887E+00
-0.1701164799710E+00 -0.2646229755436E+00 -0.2043275440919E+00  0.1627488147704E-01
-0.8041106565300E-01 -0.1687378716255E+00 -0.1171000005209E+00 -0.5746511074975E-01
 0.1056405218089E-01 -0.1011259427910E+00 -0.4256408858675E-01 -0.1086131865752E+00
 0.9278674813419E-01 -0.5698855432824E-01  0.1682515108880E-01 -0.1356276423943E+00
 0.1575892130625E+00 -0.3021374223254E-01  0.5986647129009E-01 -0.1401170932349E+00
 0.1995739416647E+00 -0.1441815265808E-01  0.8702322083311E-01 -0.1264754838672E+00
 0.2176924158254E+00 -0.4325208168977E-02  0.1002825875985E+00 -0.1006054917544E+00
 0.2152492604968E+00  0.3379752425022E-02  0.1027556360733E+00 -0.6823176207317E-01
 0.1980860633204E+00  0.9339753414627E-02  0.9749013386545E-01 -0.3396616329680E-01
 0.5901374187934E-01 -0.2610920812621E+01 -0.1199396323249E+01  0.7090975771561E+00
-0.2087724919795E-01 -0.2367346540693E+01 -0.1122465181249E+01  0.7031645986428E+00
-0.9023288932476E-01 -0.2078676133881E+01 -0.1019387240907E+01  0.6837219662950E+00
-0.1703536807623E+00 -0.1808656549321E+01 -0.9301348081392E+00  0.6509096638914E+00
-0.2383974240571E+00 -0.1543400137599E+01 -0.8374448539783E+00  0.5987854430088E+00
-0.2900132623898E+00 -0.1287277469573E+01 -0.7413266440226E+00  0.5281507933015E+00
-0.3205908032816E+00 -0.1045177152044E+01 -0.6419109390031E+00  0.4419760644858E+00
-0.3277136197224E+00 -0.8228095980859E+00 -0.5407459123699E+00  0.3448495277808E+00
-0.3107092705616E+00 -0.6250735230184E+00 -0.4398179129826E+00  0.2424627890767E+00
-0.2710233828257E+00 -0.4555868046650E+00 -0.3415067881206E+00  0.1411753567571E+00
-0.2123239413690E+00 -0.3163116384177E+00 -0.2484587224998E+00  0.4746689834498E-01
-0.1404017516318E+00 -0.2073543740055E+00 -0.1634453790495E+00 -0.3271438733917E-01
-0.6272555465414E-01 -0.1269008421048E+00 -0.8912440647669E-01 -0.9466730016107E-01
 0.1240707260869E-01 -0.7134006941943E-01 -0.2769850850105E-01 -0.1356180915620E+00
 0.7709635503188E-01 -0.3565759170210E-01  0.1947621876500E-01 -0.1551943810316E+00
 0.1252335214084E+00 -0.1417166592054E-01  0.5219907207929E-01 -0.1554626636156E+00
 0.1536256098812E+00 -0.1573270604230E-02  0.7146459946016E-01 -0.1403469470795E+00
 0.1624725476211E+00  0.6089339502768E-02  0.7922408694823E-01 -0.1145093423330E+00
 0.1547927562394E+00  0.1065667397581E-01  0.7776123220113E-01 -0.8210670185506E-01
 0.1380028861429E+00  0.1345755168104E-01  0.7118640577725E-01 -0.4610733687283E-01
-0.2007870111689E-01 -0.2537871403542E+01 -0.1202236549190E+01  0.6605531883862E+00
-0.1853349933162E-01 -0.2170939982986E+01 -0.1029052536689E+01  0.6493144903603E+00
-0.1005029669381E+00 -0.1908029137134E+01 -0.9440100889140E+00  0.6282863410102E+00
-0.1716087320827E+00 -0.1646924755096E+01 -0.8547107389740E+00  0.5886673871072E+00
-0.2319248537868E+00 -0.1392492605812E+01 -0.7634762060115E+00  0.5306688891391E+00
-0.2746586426063E+00 -0.1148475244312E+01 -0.6688729268516E+00  0.4567988751443E+00
-0.2969800795409E+00 -0.9208617840507E+00 -0.5723856758880E+00  0.3707269542685E+00
-0.2974651841585E+00 -0.7146872460670E+00 -0.4757116422060E+00  0.2770986565940E+00
-0.2766122592611E+00 -0.5338977628753E+00 -0.3809397104041E+00  0.1812494861328E+00
-0.2368224482305E+00 -0.3810094402760E+00 -0.2903809875981E+00  0.8882168112283E-01
-0.1823407578844E+00 -0.2569473325240E+00 -0.2064654024920E+00  0.5284970412621E-02
-0.1189469240832E+00 -0.1609574230111E+00 -0.1315550431344E+00 -0.6460110131854E-01
-0.5337950813027E-01 -0.9065142457713E-01 -0.6769453837248E-01 -0.1173297378499E+00
 0.7499914494388E-02 -0.4224226682715E-01 -0.1632890559640E-01 -0.1511043737396E+00
 0.5769351764763E-01 -0.1103555579281E-01  0.2192924207177E-01 -0.1660792630225E+00
 0.9297829574904E-01  0.7816439895997E-02  0.4737352575317E-01 -0.1642375192632E+00
 0.1114573028241E+00  0.1844056449249E-01  0.6105199763880E-01 -0.1488333683255E+00
 0.1135354686919E+00  0.2349828958378E-01  0.6440586638958E-01 -0.1234923833529E+00
 0.1016651372281E+00  0.2402134595560E-01  0.5907264709635E-01 -0.9128840766514E-01
 0.7823976354233E-01  0.1784160283546E-01  0.4515824219756E-01 -0.5357043728283E-01
</DataArray>
<DataArray type="Float64" Name="S_Mises" NumberOfComponents="1" ComponentName0="S_Mises" format="ascii">
 0.3934620575018E-01
 0.3457588247072E-01
 0.3106141396221E-01
 0.2981048220270E-01
 0.2902283265739E-01
 0.2860415328673E-01
 0.2838403182966E-01
 0.2830162517116E-01
 0.2831500519900E-01
 0.2840024064175E-01
 0.2854200769781E-01
 0.2873090645742E-01
 0.2896143317950E-01
 0.2923092617104E-01
 0.2953889039447E-01
 0.2988658196373E-01
 0.3027674402201E-01
 0.3071344232340E-01
 0.3120197697707E-01
 0.3174885612112E-01
 0.3236182966477E-01
 0.3305004060140E-01
 0.3382428724863E-01
 0.3469752499965E-01
 0.3568584695675E-01
 0.3681068759839E-01
 0.3810354278224E-01
 0.3961196124137E-01
 0.4136254056427E-01
 0.4333406565708E-01
 0.4549505186983E-01
 0.4783046437233E-01
 0.5034849004857E-01
 0.5308545380221E-01
 0.5612921972141E-01
 0.5959158259702E-01
 0.6389723203842E-01
 0.6874314751736E-01
 0.7942308013888E-01
 0.7586390402341E-01
 0.1628623789474E+00
 0.3358003017114E-01
 0.3445006608972E-01
 0.3189387977138E-01
 0.3036690918979E-01
 0.2955261507137E-01
 0.2905347568461E-01
 0.2877719080510E-01
 0.2864529743944E-01
 0.2861757202647E-01
 0.2866763074436E-01
 0.2877902328150E-01
 0.2894125966369E-01
 0.2914799224347E-01
 0.2939583196411E-01
 0.2968364106327E-01
 0.3001207728634E-01
 0.3038330206052E-01
 0.3080079353760E-01
 0.3126923702335E-01
 0.3179447976044E-01
 0.3238354251302E-01
 0.3304473785468E-01
 0.3378788982442E-01
 0.3462473980859E-01
 0.3556974171372E-01
 0.3664150302560E-01
 0.3786217511769E-01
 0.3925160289810E-01
 0.4081699233414E-01
 0.4254773927129E-01
 0.4442386298267E-01
 0.4642904596949E-01
 0.4855744497694E-01
 0.5081871806599E-01
 0.5322897875874E-01
 0.5585375201401E-01
 0.5857170548931E-01
 0.6196242345350E-01
 0.6293901226369E-01
 0.5662470543420E-01
 0.1044736708964E+00
 0.3056900266130E-01
 0.3280114921068E-01
 0.3202492543278E-01
 0.3071627339545E-01
 0.2991804811457E-01
 0.2941148685733E-01
 0.2910541210893E-01
 0.2894301966529E-01
 0.2888515611391E-01
 0.2890719050236E-01
 0.2899268067455E-01
 0.2913095602730E-01
 0.2931529739759E-01
 0.2954189306683E-01
 0.2980914845902E-01
 0.3011723918973E-01
 0.3046781352455E-01
 0.3086379465730E-01
 0.3130925542653E-01
 0.3180935204491E-01
 0.3237030330246E-01
 0.3299945901319E-01
 0.3370542952440E-01
 0.3449830957523E-01
 0.3539007155031E-01
 0.3639424531348E-01
 0.3752207071739E-01
 0.3877789007394E-01
 0.4015909954823E-01
 0.4165615325562E-01
 0.4325208034412E-01
 0.4492595908058E-01
 0.4665657298892E-01
 0.4841814807806E-01
 0.5017718839687E-01
 0.5183318350986E-01
 0.5322654360342E-01
 0.5380849973226E-01
 0.4944566714684E-01
 0.4833764442971E-01
 0.8436489667748E-01
 0.2875899641488E-01
 0.3123551988826E-01
 0.3158063906547E-01
 0.3082209772098E-01
 0.3013934054228E-01
 0.2967190596292E-01
 0.2936792499745E-01
 0.2919258491311E-01
 0.2911619502032E-01
 0.2911755735122E-01
 0.2918190397057E-01
 0.2929915128510E-01
 0.2946272029373E-01
 0.2966868172809E-01
 0.2991518021562E-01
 0.3020203249880E-01
 0.3053044882136E-01
 0.3090283660712E-01
 0.3132266489703E-01
 0.3179437551839E-01
 0.3232332291324E-01
 0.3291577438853E-01
 0.3357891235215E-01
 0.3432081754364E-01
 0.3515021763057E-01
 0.3607471237875E-01
 0.3709662896254E-01
 0.3821102360766E-01
 0.3940896845737E-01
 0.4067848680317E-01
 0.4200072595757E-01
 0.4334806973527E-01
 0.4468233339760E-01
 0.4594816477338E-01
 0.4705051433415E-01
 0.4780823254358E-01
 0.4790073159483E-01
 0.4609393644546E-01
 0.4139756263316E-01
 0.4602534180339E-01
 0.7466233601312E-01
 0.2757222294435E-01
 0.2996503083497E-01
 0.3091907237303E-01
 0.3069994497380E-01
 0.3022952040526E-01
 0.2983990316898E-01
 0.2956500920774E-01
 0.2939386094427E-01
 0.2931000683431E-01
 0.2929805335710E-01
 0.2934606832717E-01
 0.2944534280487E-01
 0.2958989974896E-01
 0.2977599382116E-01
 0.3000170171117E-01
 0.3026660677695E-01
 0.3057156010979E-01
 0.3091849793165E-01
 0.3131030106079E-01
 0.3175068345037E-01
 0.3224408757037E-01
 0.3279560249076E-01
 0.3341081903879E-01
 0.3409552261122E-01
 0.3485481085615E-01
 0.3569069335463E-01
 0.3659881001643E-01
 0.3756821275058E-01
 0.3858524874056E-01
 0.3963421450772E-01
 0.4069220191605E-01
 0.4172391399983E-01
 0.4267653060631E-01
 0.4346863455364E-01
 0.4396450160017E-01
 0.4394032737559E-01
 0.4293798634080E-01
 0.4015736931391E-01
 0.3740245137140E-01
 0.4579798949310E-01
 0.6886631355994E-01
 0.2674568432411E-01
 0.2896573785152E-01
 0.3022364234090E-01
 0.3042868873440E-01
 0.3020355374125E-01
 0.2992470317729E-01
 0.2969983836083E-01
 0.2954800676849E-01
 0.2946690134730E-01
 0.2944860948417E-01
 0.2948499509671E-01
 0.2956935621524E-01
 0.2969673451373E-01
 0.2986384149855E-01
 0.3006886884591E-01
 0.3031128851326E-01
 0.3059167249736E-01
 0.3091153467765E-01
 0.3127319075259E-01
 0.3167962541897E-01
 0.3213434087278E-01
 0.3264118685192E-01
 0.3320406147811E-01
 0.3382631754447E-01
 0.3450946244802E-01
 0.3525074855059E-01
 0.3604092945497E-01
 0.3686494118373E-01
 0.3770538493255E-01
 0.3854266449060E-01
 0.3934930716130E-01
 0.4008319803597E-01
 0.4068042784638E-01
 0.4104290557548E-01
 0.4101954570723E-01
 0.4037322608603E-01
 0.3873393598131E-01
 0.3614574935265E-01
 0.3583054703917E-01
 0.4607529401915E-01
 0.6493899507477E-01
 0.2614366064666E-01
 0.2818027719851E-01
 0.2957105864277E-01
 0.3007933338879E-01
 0.3008713037331E-01
 0.2993690826100E-01
 0.2977779012065E-01
 0.2965741413771E-01
 0.2958801044757E-01
 0.2956973408417E-01
 0.2959891642103E-01
 0.2967132911584E-01
 0.2978337014030E-01
 0.2993244303760E-01
 0.3011701853801E-01
 0.3033657149495E-01
 0.3059147350824E-01
 0.3088286832932E-01
 0.3121253754904E-01
 0.3158274905116E-01
 0.3199605979758E-01
 0.3245505975998E-01
 0.3296192797118E-01
 0.3351761574562E-01
 0.3412037098982E-01
 0.3476363226574E-01
 0.3543464345899E-01
 0.3611545854308E-01
 0.3678576366909E-01
 0.3742257609756E-01
 0.3799456469350E-01
 0.3845490654672E-01
 0.3873381909736E-01
 0.3872914359329E-01
 0.3829618530388E-01
 0.3724289129727E-01
 0.3545391638354E-01
 0.3370535179056E-01
 0.3554416526822E-01
 0.4635700981987E-01
 0.6206816806549E-01
 0.2568972423804E-01
 0.2755725650350E-01
 0.2898740548442E-01
 0.2970035171377E-01
 0.2990785959027E-01
 0.2988905909018E-01
 0.2980537632184E-01
 0.2972550672405E-01
 0.2967515066137E-01
 0.2966243925997E-01
 0.2968843708874E-01
 0.2975168571151E-01
 0.2985018212306E-01
 0.2998220945956E-01
 0.3014665699684E-01
 0.3034310528481E-01
 0.3057180079449E-01
 0.3083357180244E-01
 0.3112970483002E-01
 0.3146177839059E-01
 0.3183142492522E-01
 0.3223999802639E-01
 0.3268801160623E-01
 0.3317419132778E-01
 0.3369401045917E-01
 0.3423799327390E-01
 0.3479094460564E-01
 0.3533297645085E-01
 0.3584171111420E-01
 0.3629174571679E-01
 0.3664939272944E-01
 0.3686611769807E-01
 0.3687268639263E-01
 0.3657510545633E-01
 0.3585802458133E-01
 0.3462899496142E-01
 0.3306679271204E-01
 0.3240027315941E-01
 0.3586592032375E-01
 0.4652928557455E-01
 0.5986574928370E-01
 0.2533790136941E-01
 0.2705696996461E-01
 0.2847654008248E-01
 0.2932102393513E-01
 0.2968952822682E-01
 0.2979433314603E-01
 0.2978979000094E-01
 0.2975637835780E-01
 0.2973068897723E-01
 0.2972815539336E-01
 0.2975448752779E-01
 0.2981110719299E-01
 0.2989775553672E-01
 0.3001372898183E-01
 0.3015844631178E-01
 0.3033168232866E-01
 0.3053362851140E-01
 0.3076485389484E-01
 0.3102619682236E-01
 0.3131858928488E-01
 0.3164278619159E-01
 0.3199897219195E-01
 0.3238612406932E-01
 0.3280102010026E-01
 0.3323690469255E-01
 0.3368219860777E-01
 0.3412014093311E-01
 0.3452971929347E-01
 0.3488741361868E-01
 0.3516666842639E-01
 0.3533341412194E-01
 0.3534092888878E-01
 0.3512701223754E-01
 0.3461700475404E-01
 0.3374528325819E-01
 0.3254549365899E-01
 0.3144438301437E-01
 0.3185869282269E-01
 0.3643072564623E-01
 0.4659571113603E-01
 0.5811957183316E-01
 0.2505904833841E-01
 0.2664996976924E-01
 0.2803334191047E-01
 0.2895748000273E-01
 0.2945037490039E-01
 0.2966507799553E-01
 0.2973843191182E-01
 0.2975449994271E-01
 0.2975738214753E-01
 0.2976864531741E-01
 0.2979827102556E-01
 0.2985049878989E-01
 0.2992686220975E-01
 0.3002774964984E-01
 0.3015318965319E-01
 0.3030322386993E-01
 0.3047805252366E-01
 0.3067804240573E-01
 0.3090363793898E-01
 0.3115518241308E-01
 0.3143262548990E-01
 0.3173509089100E-01
 0.3206020577617E-01
 0.3240314096325E-01
 0.3275546518805E-01
 0.3310421653292E-01
 0.3343181878920E-01
 0.3371690550148E-01
 0.3393579783709E-01
 0.3406221761642E-01
 0.3406390428726E-01
 0.3389952776263E-01
 0.3351975217121E-01
 0.3287843021636E-01
 0.3197209172747E-01
 0.3095810953335E-01
 0.3043165352112E-01
 0.3180254276091E-01
 0.3705753382856E-01
 0.4658605287913E-01
 0.5670183967353E-01
 0.2483388031567E-01
 0.2631460740698E-01
 0.2764970473396E-01
 0.2861761624446E-01
 0.2920340223284E-01
 0.2951194412607E-01
 0.2965843877981E-01
 0.2972447132313E-01
 0.2975822383139E-01
 0.2978591622179E-01
 0.2982120966375E-01
 0.2987095456599E-01
 0.2993843621098E-01
 0.3002516056720E-01
 0.3013181533941E-01
 0.3025876488582E-01
 0.3040627468407E-01
 0.3057456627494E-01
 0.3076375097581E-01
 0.3097365496062E-01
 0.3120351772205E-01
 0.3145154408248E-01
 0.3171424127974E-01
 0.3198554228242E-01
 0.3225587325078E-01
 0.3251153214982E-01
 0.3273479895545E-01
 0.3290470037267E-01
 0.3299840787738E-01
 0.3299139203902E-01
 0.3285537385639E-01
 0.3255765561074E-01
 0.3206645333707E-01
 0.3137012549298E-01
 0.3053009084015E-01
 0.2980634409678E-01
 0.2988200406403E-01
 0.3203843178740E-01
 0.3766445996853E-01
 0.4652904137856E-01
 0.5553003177418E-01
 0.2464917268669E-01
 0.2603491278557E-01
 0.2731714741033E-01
 0.2830444830551E-01
 0.2895738341255E-01
 0.2934359766759E-01
 0.2955633221250E-01
 0.2967080908022E-01
 0.2973631048001E-01
 0.2978213530883E-01
 0.2982489089736E-01
 0.2987372172082E-01
 0.2993354849114E-01
 0.3000697232705E-01
 0.3009536018398E-01
 0.3019943838179E-01
 0.3031958650770E-01
 0.3045593711506E-01
 0.3060833469077E-01
 0.3077617175463E-01
 0.3095809173058E-01
 0.3115154829339E-01
 0.3135218415590E-01
 0.3155307107391E-01
 0.3174399274443E-01
 0.3191108336685E-01
 0.3203709320114E-01
 0.3210216359047E-01
 0.3208530385072E-01
 0.3196513829357E-01
 0.3171932743522E-01
 0.3132643289584E-01
 0.3077538885854E-01
 0.3009129139864E-01
 0.2939511567162E-01
 0.2902029572180E-01
 0.2967103644933E-01
 0.3243846878413E-01
 0.3821976576002E-01
 0.4644642821605E-01
 0.5454802694096E-01
 0.2449558102788E-01
 0.2579900363401E-01
 0.2702786513276E-01
 0.2801823744070E-01
 0.2871793719069E-01
 0.2916679569983E-01
 0.2943782464359E-01
 0.2959778204842E-01
 0.2969472857898E-01
 0.2975955384491E-01
 0.2981101683181E-01
 0.2986016566355E-01
 0.2991338149189E-01
 0.2997429716085E-01
 0.3004495251912E-01
 0.3012645939720E-01
 0.3021935262552E-01
 0.3032373062580E-01
 0.3043924145771E-01
 0.3056493690119E-01
 0.3069899283782E-01
 0.3083829657040E-01
 0.3097789335476E-01
 0.3111036219280E-01
 0.3122530582936E-01
 0.3130921323543E-01
 0.3134586861079E-01
 0.3131720810730E-01
 0.3120499711794E-01
 0.3099226172487E-01
 0.3066420404737E-01
 0.3021248511915E-01
 0.2964822351431E-01
 0.2903200349127E-01
 0.2853391712455E-01
 0.2853098691149E-01
 0.2969950950620E-01
 0.3292132192986E-01
 0.3871566897813E-01
 0.4635333733225E-01
 0.5371606427465E-01
 0.2436633380747E-01
 0.2559794557303E-01
 0.2677507257596E-01
 0.2775778654683E-01
 0.2848844301873E-01
 0.2898663455964E-01
 0.2930775851472E-01
 0.2950930173439E-01
 0.2963646528524E-01
 0.2972044195675E-01
 0.2978135797510E-01
 0.2983173688083E-01
 0.2987920439600E-01
 0.2992832923391E-01
 0.2998179518250E-01
 0.3004110893267E-01
 0.3010699420117E-01
 0.3017956809919E-01
 0.3025835529390E-01
 0.3034216641953E-01
 0.3042884783316E-01
 0.3051491406608E-01
 0.3059508049327E-01
 0.3066178368229E-01
 0.3070486588884E-01
 0.3071163585548E-01
 0.3066742329329E-01
 0.3055657806018E-01
 0.3036442839184E-01
 0.3007942621441E-01
 0.2969547552760E-01
 0.2921831718356E-01
 0.2868109362886E-01
 0.2817598883066E-01
 0.2790948463010E-01
 0.2827576157408E-01
 0.2989142695665E-01
 0.3343696096824E-01
 0.3915499475065E-01
 0.4625998893030E-01
 0.5300499668328E-01
 0.2425641801826E-01
 0.2542494628495E-01
 0.2655303714390E-01
 0.2752120778293E-01
 0.2827074712435E-01
 0.2880685127884E-01
 0.2917013603469E-01
 0.2940886422865E-01
 0.2956434329288E-01
 0.2966703522631E-01
 0.2973771261587E-01
 0.2978994040740E-01
 0.2983234957346E-01
 0.2987032548673E-01
 0.2990714877763E-01
 0.2994471807981E-01
 0.2998397261262E-01
 0.3002509839108E-01
 0.3006757077228E-01
 0.3011006259828E-01
 0.3015023335101E-01
 0.3018442000408E-01
 0.3020726759723E-01
 0.3021139593925E-01
 0.3018726491484E-01
 0.3012341559576E-01
 0.3000717692763E-01
 0.2982585087333E-01
 0.2956899155118E-01
 0.2923123585753E-01
 0.2881587405272E-01
 0.2834287386779E-01
 0.2786589071124E-01
 0.2750318900063E-01
 0.2748470665336E-01
 0.2820054560816E-01
 0.3019028391583E-01
 0.3395556271208E-01
 0.3954457057294E-01
 0.4617334289045E-01
 0.5239282956127E-01
 0.2416205472863E-01
 0.2527478607824E-01
 0.2635698786202E-01
 0.2730636450648E-01
 0.2806567883629E-01
 0.2863011489756E-01
 0.2902820023947E-01
 0.2929953351025E-01
 0.2948097864676E-01
 0.2960149328830E-01
 0.2968187242689E-01
 0.2973630847560E-01
 0.2977419067037E-01
 0.2980158737716E-01
 0.2982231551613E-01
 0.2983865266333E-01
 0.2985177375687E-01
 0.2986198081356E-01
 0.2986877342104E-01
 0.2987079085981E-01
 0.2986564852456E-01
 0.2984969661760E-01
 0.2981775499916E-01
 0.2976292347417E-01
 0.2967661437620E-01
 0.2954896043116E-01
 0.2936967891121E-01
 0.2912946646540E-01
 0.2882260229133E-01
 0.2845038673862E-01
 0.2802571683286E-01
 0.2758220842873E-01
 0.2719154735899E-01
 0.2699183467092E-01
 0.2722462581964E-01
 0.2826028715375E-01
 0.3055499339431E-01
 0.3445992031696E-01
 0.3989198178129E-01
 0.4609832252037E-01
 0.5186256078886E-01
 0.2408035125280E-01
 0.2514341303796E-01
 0.2618298475360E-01
 0.2711111632880E-01
 0.2787341549393E-01
 0.2845827997117E-01
 0.2888453838132E-01
 0.2918395403160E-01
 0.2938875832939E-01
 0.2952586984382E-01
 0.2961559443813E-01
 0.2967237667857E-01
 0.2970612266179E-01
 0.2972344378800E-01
 0.2972862385533E-01
 0.2972429857222E-01
 0.2971189313685E-01
 0.2969186910651E-01
 0.2966382177638E-01
 0.2962645927475E-01
 0.2957749188124E-01
 0.2951346451308E-01
 0.2942959798561E-01
 0.2931973712377E-01
 0.2917653744560E-01
 0.2899202795131E-01
 0.2875863294860E-01
 0.2847078081927E-01
 0.2812780354662E-01
 0.2773786954396E-01
 0.2732328811388E-01
 0.2693017617309E-01
 0.2664518377879E-01
 0.2661997200330E-01
 0.2709766092002E-01
 0.2841841704836E-01
 0.3095621139111E-01
 0.3494047910470E-01
 0.4020389778013E-01
 0.4603852712077E-01
 0.5140078302430E-01
 0.2400906434847E-01
 0.2502765255225E-01
 0.2602778598361E-01
 0.2693344708711E-01
 0.2769373412824E-01
 0.2829259442071E-01
 0.2874118912996E-01
 0.2906438158022E-01
 0.2928983350217E-01
 0.2944209287269E-01
 0.2954057914823E-01
 0.2959966374957E-01
 0.2962954405956E-01
 0.2963723529826E-01
 0.2962741412251E-01
 0.2960304797418E-01
 0.2956582194221E-01
 0.2951639673230E-01
 0.2945453136542E-01
 0.2937910099311E-01
 0.2928804259928E-01
 0.2917826420522E-01
 0.2904559141898E-01
 0.2888484560551E-01
 0.2869017160697E-01
 0.2845574340443E-01
 0.2817693716347E-01
 0.2785214095502E-01
 0.2748589952481E-01
 0.2709320490017E-01
 0.2670524259270E-01
 0.2637908983199E-01
 0.2621304907706E-01
 0.2636650024635E-01
 0.2707612787821E-01
 0.2864585099741E-01
 0.3137331462295E-01
 0.3539228894662E-01
 0.4048512308519E-01
 0.4599622003522E-01
 0.5099666553922E-01
 0.2394643515453E-01
 0.2492499674854E-01
 0.2588872758589E-01
 0.2677152435711E-01
 0.2752618156864E-01
 0.2813386354904E-01
 0.2859974309575E-01
 0.2894272373798E-01
 0.2918612417103E-01
 0.2935195343932E-01
 0.2945845427301E-01
 0.2951965488660E-01
 0.2954584136006E-01
 0.2954429995021E-01
 0.2952002526912E-01
 0.2947628656032E-01
 0.2941503427782E-01
 0.2933716365413E-01
 0.2924266076957E-01
 0.2913065967325E-01
 0.2899944601438E-01
 0.2884644336456E-01
 0.2866826146490E-01
 0.2846089527879E-01
 0.2822018046808E-01
 0.2794262848191E-01
 0.2762673758460E-01
 0.2727497672347E-01
 0.2689710880922E-01
 0.2651469338618E-01
 0.2616699944644E-01
 0.2592029626866E-01
 0.2588124459538E-01
 0.2621181767096E-01
 0.2713631281381E-01
 0.2891983744349E-01
 0.3179206529871E-01
 0.3581322514547E-01
 0.4073856358289E-01
 0.4597083876717E-01
 0.5064051292337E-01
 0.2389107148052E-01
 0.2483345067354E-01
 0.2576361988746E-01
 0.2662372002800E-01
 0.2737018711423E-01
 0.2798257606035E-01
 0.2846143163711E-01
 0.2882058374838E-01
 0.2907933148556E-01
 0.2925710134425E-01
 0.2937076344815E-01
 0.2943378841431E-01
 0.2945637572426E-01
 0.2944596058219E-01
 0.2940778285310E-01
 0.2934538192858E-01
 0.2926097565126E-01
 0.2915572470193E-01
 0.2902989983813E-01
 0.2888297788324E-01
 0.2871370315562E-01
 0.2852014925964E-01
 0.2829986358488E-01
 0.2805017703878E-01
 0.2776877353685E-01
 0.2745463920875E-01
 0.2710949225560E-01
 0.2673990425299E-01
 0.2636072711601E-01
 0.2599966445294E-01
 0.2570310475665E-01
 0.2554465561546E-01
 0.2563624784684E-01
 0.2613817298643E-01
 0.2725827541455E-01
 0.2922283277027E-01
 0.3220283860932E-01
 0.3620308924901E-01
 0.4096583439407E-01
 0.4595934930200E-01
 0.5031505980737E-01
 0.2384183891574E-01
 0.2475141173746E-01
 0.2565067703550E-01
 0.2648865867200E-01
 0.2722522134763E-01
 0.2783911819260E-01
 0.2832734730639E-01
 0.2869946696826E-01
 0.2897113099010E-01
 0.2915923469017E-01
 0.2927916384823E-01
 0.2934367407416E-01
 0.2936273588991E-01
 0.2934382816496E-01
 0.2929237066206E-01
 0.2921214338671E-01
 0.2910563269833E-01
 0.2897429251813E-01
 0.2881873027885E-01
 0.2863884026006E-01
 0.2843392092833E-01
 0.2820280843707E-01
 0.2794410989933E-01
 0.2765661203074E-01
 0.2733994946653E-01
 0.2699564999009E-01
 0.2662865858735E-01
 0.2624955268004E-01
 0.2587799574396E-01
 0.2554724561139E-01
 0.2530970332196E-01
 0.2524444318268E-01
 0.2546588141593E-01
 0.2612928417065E-01
 0.2742371535291E-01
 0.2953870958497E-01
 0.3259586615814E-01
 0.3656005520454E-01
 0.4116785343747E-01
 0.4594880508100E-01
 0.5007601206976E-01
 0.2379790238156E-01
 0.2467761811695E-01
 0.2554844951251E-01
 0.2636513224791E-01
 0.2709069027047E-01
 0.2770362090295E-01
 0.2819822939988E-01
 0.2858050799699E-01
 0.2886285332032E-01
 0.2905974258941E-01
 0.2918502936272E-01
 0.2925064407406E-01
 0.2926621484790E-01
 0.2923917402742E-01
 0.2917506209217E-01
 0.2907787090498E-01
 0.2895035385794E-01
 0.2879428072385E-01
 0.2861063980650E-01
 0.2839980640761E-01
 0.2816171309244E-01
 0.2789604995143E-01
 0.2760257830519E-01
 0.2728162613478E-01
 0.2693483983597E-01
 0.2656630633292E-01
 0.2618414438601E-01
 0.2580276874124E-01
 0.2544629823132E-01
 0.2515288815234E-01
 0.2497983539837E-01
 0.2500994550731E-01
 0.2535776675515E-01
 0.2617108228333E-01
 0.2761920581171E-01
 0.2985792275925E-01
 0.3296849133707E-01
 0.3688557390801E-01
 0.4135477216622E-01
 0.4591488447760E-01
 0.5006564166705E-01
 0.2375851876952E-01
 0.2461100135394E-01
 0.2545565527949E-01
 0.2625198394870E-01
 0.2696587348112E-01
 0.2757593357222E-01
 0.2807444635978E-01
 0.2846444626751E-01
 0.2875544959126E-01
 0.2895966366894E-01
 0.2908940719001E-01
 0.2915571205087E-01
 0.2916777428634E-01
 0.2913290200912E-01
 0.2905670177637E-01
 0.2894334791382E-01
 0.2879585529274E-01
 0.2861632548615E-01
 0.2840616276682E-01
 0.2816627520221E-01
 0.2789729438370E-01
 0.2759983715143E-01
 0.2727489148913E-01
 0.2692438728501E-01
 0.2655201701888E-01
 0.2616441619101E-01
 0.2577279533695E-01
 0.2539521050179E-01
 0.2505986256984E-01
 0.2480916179974E-01
 0.2470427070576E-01
 0.2483021872236E-01
 0.2529979294970E-01
 0.2625159824520E-01
 0.2783506490293E-01
 0.3017564519450E-01
 0.3332125565295E-01
 0.3718678303943E-01
 0.4152163909480E-01
 0.4592052957821E-01
 0.5004013962938E-01
 0.2372310617167E-01
 0.2455071786968E-01
 0.2537128797520E-01
 0.2614831112525E-01
 0.2685023280187E-01
 0.2745600946885E-01
 0.2795641989074E-01
 0.2835205870242E-01
 0.2864991862026E-01
 0.2886010894964E-01
 0.2899344902597E-01
 0.2906003379538E-01
 0.2906856279714E-01
 0.2902615772889E-01
 0.2893844445000E-01
 0.2880975275599E-01
 0.2864335191970E-01
 0.2844168659470E-01
 0.2820660445379E-01
 0.2793958709516E-01
 0.2764201521683E-01
 0.2731548596368E-01
 0.2696226246990E-01
 0.2658590851028E-01
 0.2619216376225E-01
 0.2579016404266E-01
 0.2539408798634E-01
 0.2502539438472E-01
 0.2471595884254E-01
 0.2451179891301E-01
 0.2447697427789E-01
 0.2469742125152E-01
 0.2528267426516E-01
 0.2636110595129E-01
 0.2806287698629E-01
 0.3048659575375E-01
 0.3365353545809E-01
 0.3746451168520E-01
 0.4167918559735E-01
 0.4595297936341E-01
 0.5000871443560E-01
 0.2369119271924E-01
 0.2449607970763E-01
 0.2529451677309E-01
 0.2605334593780E-01
 0.2674328099386E-01
 0.2734376469664E-01
 0.2784447274242E-01
 0.2824399635564E-01
 0.2854713370583E-01
 0.2876207894823E-01
 0.2889821529916E-01
 0.2896469107090E-01
 0.2896966743249E-01
 0.2892003227199E-01
 0.2882139199264E-01
 0.2867820763516E-01
 0.2849399454167E-01
 0.2827154714065E-01
 0.2801317620821E-01
 0.2772096659402E-01
 0.2739708347724E-01
 0.2704413920018E-01
 0.2666569786570E-01
 0.2626696269786E-01
 0.2585569201192E-01
 0.2544344150281E-01
 0.2504720127650E-01
 0.2469156527674E-01
 0.2441166185019E-01
 0.2425648773544E-01
 0.2429211870865E-01
 0.2460428698113E-01
 0.2529815929773E-01
 0.2649136860206E-01
 0.2829589213905E-01
 0.3078704777535E-01
 0.3396492051101E-01
 0.3772143971533E-01
 0.4183174027014E-01
 0.4599999389844E-01
 0.4997887632130E-01
 0.2366239477212E-01
 0.2444652522690E-01
 0.2522465507909E-01
 0.2596643788129E-01
 0.2664458409277E-01
 0.2723909625746E-01
 0.2773885293255E-01
 0.2814080646175E-01
 0.2844785833222E-01
 0.2866647246938E-01
 0.2880467835846E-01
 0.2887069097017E-01
 0.2887211077505E-01
 0.2881555810818E-01
 0.2870658898109E-01
 0.2854977437564E-01
 0.2834886630500E-01
 0.2810701119790E-01
 0.2782699497995E-01
 0.2751152457074E-01
 0.2716357069500E-01
 0.2678677798770E-01
 0.2638601622471E-01
 0.2596810970781E-01
 0.2554278090919E-01
 0.2512389841189E-01
 0.2473108263807E-01
 0.2439177823437E-01
 0.2414394585619E-01
 0.2403897151385E-01
 0.2414416982473E-01
 0.2454416591509E-01
 0.2533898725129E-01
 0.2663545109472E-01
 0.2852875846142E-01
 0.3107429067346E-01
 0.3425552857093E-01
 0.3795997380091E-01
 0.4197944133847E-01
 0.4605443788373E-01
 0.4995391687921E-01
 0.2363640003382E-01
 0.2440159540390E-01
 0.2516113544505E-01
 0.2588703775151E-01
 0.2655376057269E-01
 0.2714189431019E-01
 0.2763975234349E-01
 0.2804295066369E-01
 0.2835276008106E-01
 0.2857409510216E-01
 0.2871372619952E-01
 0.2877896615929E-01
 0.2877684897815E-01
 0.2871370595825E-01
 0.2859501915591E-01
 0.2842545109081E-01
 0.2820898010399E-01
 0.2794910252803E-01
 0.2764908401009E-01
 0.2731226177146E-01
 0.2694241943950E-01
 0.2654423431329E-01
 0.2612386717112E-01
 0.2568972370865E-01
 0.2525341396597E-01
 0.2483099135858E-01
 0.2444450872599E-01
 0.2412397064910E-01
 0.2390976409614E-01
 0.2385512589166E-01
 0.2402794458690E-01
 0.2451103671005E-01
 0.2539881893457E-01
 0.2678755162626E-01
 0.2875723588937E-01
 0.3134638314478E-01
 0.3452574639046E-01
 0.3818154184184E-01
 0.4212120096774E-01
 0.4611209713533E-01
 0.4993506995976E-01
 0.2361295420253E-01
 0.2436091487977E-01
 0.2510348908012E-01
 0.2581468338625E-01
 0.2647047857216E-01
 0.2705205021288E-01
 0.2754732083798E-01
 0.2795081990546E-01
 0.2826242274488E-01
 0.2848566718443E-01
 0.2862616645257E-01
 0.2869037577660E-01
 0.2868477060779E-01
 0.2861538249309E-01
 0.2848760271786E-01
 0.2830616968744E-01
 0.2807527685137E-01
 0.2779876420185E-01
 0.2748037448256E-01
 0.2712407331834E-01
 0.2673445165367E-01
 0.2631720432541E-01
 0.2587975092144E-01
 0.2543202020184E-01
 0.2498741480851E-01
 0.2456402900786E-01
 0.2418614031612E-01
 0.2388602488052E-01
 0.2370611418360E-01
 0.2370101741085E-01
 0.2393864702970E-01
 0.2449949748071E-01
 0.2547215817058E-01
 0.2694283744396E-01
 0.2897796905640E-01
 0.3160194878128E-01
 0.3477595286580E-01
 0.3838685035420E-01
 0.4225577276429E-01
 0.4617043330142E-01
 0.4992250899664E-01
 0.2359185031625E-01
 0.2432417676158E-01
 0.2505132905359E-01
 0.2574898716482E-01
 0.2639445209351E-01
 0.2696946156433E-01
 0.2746167689073E-01
 0.2786474652074E-01
 0.2817735677463E-01
 0.2840183114610E-01
 0.2854273047359E-01
 0.2860570684473E-01
 0.2859669619009E-01
 0.2852142881425E-01
 0.2838519443724E-01
 0.2819279420981E-01
 0.2794862462607E-01
 0.2765685914398E-01
 0.2732170813563E-01
 0.2694775416946E-01
 0.2654037786387E-01
 0.2610626229520E-01
 0.2565403804611E-01
 0.2519508258909E-01
 0.2474448135175E-01
 0.2432221418257E-01
 0.2395457156879E-01
 0.2367582214418E-01
 0.2353009120321E-01
 0.2357294649751E-01
 0.2387188712274E-01
 0.2450474239093E-01
 0.2555426838030E-01
 0.2709729578248E-01
 0.2918830476323E-01
 0.3183999432254E-01
 0.3500642862655E-01
 0.3857619311919E-01
 0.4238210283430E-01
 0.4622784866216E-01
 0.4991581226865E-01
 0.2357292017301E-01
 0.2429113036332E-01
 0.2500433647666E-01
 0.2568962513154E-01
 0.2632543672339E-01
 0.2689403510137E-01
 0.2738291548244E-01
 0.2778501393869E-01
 0.2809800816194E-01
 0.2832315812666E-01
 0.2846407734650E-01
 0.2852567598816E-01
 0.2851337827095E-01
 0.2843261953863E-01
 0.2828858240266E-01
 0.2808611983671E-01
 0.2782981848008E-01
 0.2752417133312E-01
 0.2717384050036E-01
 0.2678400512453E-01
 0.2636080676512E-01
 0.2591187464664E-01
 0.2544698879983E-01
 0.2497888754047E-01
 0.2452421764533E-01
 0.2410468202717E-01
 0.2374837326915E-01
 0.2349128784062E-01
 0.2337892964168E-01
 0.2346747734226E-01
 0.2382368651321E-01
 0.2452252894242E-01
 0.2564108956227E-01
 0.2724760364810E-01
 0.2938614085028E-01
 0.3205978279550E-01
 0.3521735715983E-01
 0.3874966509948E-01
 0.4249939502025E-01
 0.4628326174317E-01
 0.4991422376062E-01
 0.2355602738149E-01
 0.2426157127023E-01
 0.2496224911343E-01
 0.2563632760176E-01
 0.2626322524684E-01
 0.2682568811141E-01
 0.2731111388894E-01
 0.2771186442191E-01
 0.2802476592466E-01
 0.2825015385852E-01
 0.2839079769834E-01
 0.2845093133289E-01
 0.2843550187077E-01
 0.2834966238510E-01
 0.2819848731784E-01
 0.2798687244144E-01
 0.2771958080448E-01
 0.2740140753699E-01
 0.2703744461497E-01
 0.2663343918948E-01
 0.2619625495724E-01
 0.2573441379814E-01
 0.2525877174359E-01
 0.2478332889535E-01
 0.2432616318895E-01
 0.2391053421976E-01
 0.2356613034607E-01
 0.2333042919377E-01
 0.2325003583329E-01
 0.2338145734140E-01
 0.2379047478444E-01
 0.2454914007188E-01
 0.2572915964891E-01
 0.2739101538862E-01
 0.2956980581565E-01
 0.3226075372437E-01
 0.3540885386993E-01
 0.3890728401275E-01
 0.4260707633571E-01
 0.4633587057852E-01
 0.4991681530613E-01
 0.2354106170400E-01
 0.2423533325242E-01
 0.2492485197846E-01
 0.2558887109325E-01
 0.2620764338128E-01
 0.2676434883246E-01
 0.2724633585437E-01
 0.2764550518044E-01
 0.2795796835029E-01
 0.2818326381891E-01
 0.2832341724160E-01
 0.2838205446588E-01
 0.2836368520461E-01
 0.2827319813570E-01
 0.2811556221923E-01
 0.2789570857921E-01
 0.2761856210018E-01
 0.2728919939867E-01
 0.2691311499448E-01
 0.2649658803669E-01
 0.2604715652604E-01
 0.2557417147485E-01
 0.2508948130061E-01
 0.2460823975617E-01
 0.2414981945726E-01
 0.2373886915599E-01
 0.2340647392716E-01
 0.2319136597437E-01
 0.2314101238466E-01
 0.2331202834472E-01
 0.2376907913973E-01
 0.2458134428263E-01
 0.2581554234702E-01
 0.2752526751109E-01
 0.2973796625905E-01
 0.3244247448770E-01
 0.3558099518630E-01
 0.3904904970858E-01
 0.4270473956741E-01
 0.4638502712890E-01
 0.4992259106687E-01
 0.2352793443526E-01
 0.2421228166607E-01
 0.2489196957165E-01
 0.2554707143769E-01
 0.2615854577694E-01
 0.2670995619769E-01
 0.2718863455053E-01
 0.2758611317549E-01
 0.2789790817175E-01
 0.2812287770198E-01
 0.2826240001704E-01
 0.2831956239085E-01
 0.2829848059511E-01
 0.2820380090208E-01
 0.2804039254991E-01
 0.2781321583820E-01
 0.2752734208478E-01
 0.2718810579442E-01
 0.2680137175985E-01
 0.2637390844848E-01
 0.2591387234445E-01
 0.2543137136355E-01
 0.2493915413542E-01
 0.2445341271701E-01
 0.2399467368687E-01
 0.2358880835588E-01
 0.2326810849505E-01
 0.2307235531144E-01
 0.2304967611217E-01
 0.2325663177295E-01
 0.2375670994965E-01
 0.2461635611859E-01
 0.2589776251822E-01
 0.2764849955176E-01
 0.2988955678271E-01
 0.3260460967252E-01
 0.3573383894769E-01
 0.3917496770809E-01
 0.4279209157483E-01
 0.4643017466128E-01
 0.4993055705858E-01
 0.2351657462638E-01
 0.2419230806580E-01
 0.2486345947534E-01
 0.2551077793939E-01
 0.2611581236959E-01
 0.2666245918195E-01
 0.2713805463228E-01
 0.2753383886865E-01
 0.2784483682697E-01
 0.2806933326077E-01
 0.2820815131439E-01
 0.2826390941856E-01
 0.2824037549976E-01
 0.2814197861314E-01
 0.2797349650265E-01
 0.2773991346152E-01
 0.2744643103105E-01
 0.2709861534188E-01
 0.2670266478560E-01
 0.2626578858204E-01
 0.2579669891550E-01
 0.2530618092839E-01
 0.2480778419282E-01
 0.2431861811909E-01
 0.2386021993044E-01
 0.2345951929032E-01
 0.2314983462971E-01
 0.2297181145696E-01
 0.2297407079054E-01
 0.2321300930663E-01
 0.2375094408446E-01
 0.2465179861861E-01
 0.2597374959311E-01
 0.2775918930761E-01
 0.3002372701176E-01
 0.3274690030049E-01
 0.3586743577913E-01
 0.3928505471323E-01
 0.4286891491104E-01
 0.4647081973568E-01
 0.4993976766537E-01
 0.2350692600310E-01
 0.2417532581291E-01
 0.2483920709092E-01
 0.2547986845847E-01
 0.2607934512656E-01
 0.2662181592940E-01
 0.2709463362210E-01
 0.2748880911870E-01
 0.2779896792678E-01
 0.2802291956083E-01
 0.2816102024866E-01
 0.2821548892919E-01
 0.2818979356911E-01
 0.2808817362996E-01
 0.2791532553025E-01
 0.2767625312735E-01
 0.2737627120981E-01
 0.2702114891172E-01
 0.2661737769631E-01
 0.2617255386474E-01
 0.2569587655063E-01
 0.2519872217803E-01
 0.2469533620785E-01
 0.2420362020206E-01
 0.2374597735726E-01
 0.2335023478726E-01
 0.2305056775422E-01
 0.2288832124381E-01
 0.2291247580052E-01
 0.2317920052970E-01
 0.2374970750920E-01
 0.2468566886520E-01
 0.2604178904273E-01
 0.2785610048546E-01
 0.3013980136879E-01
 0.3286914854419E-01
 0.3598183388263E-01
 0.3937933647847E-01
 0.4293504238613E-01
 0.4650652237229E-01
 0.4994935665096E-01
 0.2349894446265E-01
 0.2416126651372E-01
 0.2481912134124E-01
 0.2545424531636E-01
 0.2604906520851E-01
 0.2658799279870E-01
 0.2705840281327E-01
 0.2745112940252E-01
 0.2776048005368E-01
 0.2798387970407E-01
 0.2812130199785E-01
 0.2817463497848E-01
 0.2814709568941E-01
 0.2804276343299E-01
 0.2786626496374E-01
 0.2762261982376E-01
 0.2731723836701E-01
 0.2695606206455E-01
 0.2654583162528E-01
 0.2609447242676E-01
 0.2561159679084E-01
 0.2510908130644E-01
 0.2460175764552E-01
 0.2410819117873E-01
 0.2365150594156E-01
 0.2326026932457E-01
 0.2296935340929E-01
 0.2282065601528E-01
 0.2286341170148E-01
 0.2315353872199E-01
 0.2375125829005E-01
 0.2471630731270E-01
 0.2610048152170E-01
 0.2793824074849E-01
 0.3023724822012E-01
 0.3297120563389E-01
 0.3607707971261E-01
 0.3945784333168E-01
 0.4299034162629E-01
 0.4653689517492E-01
 0.4995855763350E-01
 0.2349259606455E-01
 0.2415007716188E-01
 0.2480313120304E-01
 0.2543383193729E-01
 0.2602491055341E-01
 0.2656096342003E-01
 0.2702938783210E-01
 0.2742088549537E-01
 0.2772951898624E-01
 0.2795241306578E-01
 0.2808923969892E-01
 0.2814162371115E-01
 0.2811258095237E-01
 0.2800606131165E-01
 0.2782663465908E-01
 0.2757933272929E-01
 0.2726964313491E-01
 0.2690364729939E-01
 0.2648828860787E-01
 0.2603175993270E-01
 0.2554400892923E-01
 0.2503731707579E-01
 0.2452698897057E-01
 0.2403212319629E-01
 0.2357641960386E-01
 0.2318903242335E-01
 0.2290537946035E-01
 0.2276778064539E-01
 0.2282564355166E-01
 0.2313464574819E-01
 0.2375417088785E-01
 0.2474237134010E-01
 0.2614870922942E-01
 0.2800482853886E-01
 0.3031565619209E-01
 0.3305296206837E-01
 0.3615321662781E-01
 0.3952060585708E-01
 0.4303470664967E-01
 0.4656160629673E-01
 0.4996671802819E-01
 0.2348785544209E-01
 0.2414171788405E-01
 0.2479118295895E-01
 0.2541857015094E-01
 0.2600683387751E-01
 0.2654070782968E-01
 0.2700760896575E-01
 0.2739814471916E-01
 0.2770619943116E-01
 0.2792867708784E-01
 0.2806502600878E-01
 0.2811667456170E-01
 0.2808648751508E-01
 0.2797831700932E-01
 0.2779668961914E-01
 0.2754664604020E-01
 0.2723373231189E-01
 0.2686413604130E-01
 0.2644495453090E-01
 0.2598458373045E-01
 0.2549322555681E-01
 0.2498346787959E-01
 0.2447097221975E-01
 0.2397523821628E-01
 0.2352039692867E-01
 0.2313603938769E-01
 0.2285798563299E-01
 0.2272886020356E-01
 0.2279818266317E-01
 0.2312142677895E-01
 0.2375732233911E-01
 0.2476281318900E-01
 0.2618560887800E-01
 0.2805526723842E-01
 0.3037471604342E-01
 0.3311433965443E-01
 0.3621028275578E-01
 0.3956765154611E-01
 0.4306805382790E-01
 0.4658038372744E-01
 0.4997330790157E-01
 0.2348470458769E-01
 0.2413616021683E-01
 0.2478323809008E-01
 0.2540841810235E-01
 0.2599480109132E-01
 0.2652721173481E-01
 0.2699308134273E-01
 0.2738295685085E-01
 0.2769060633647E-01
 0.2791278867305E-01
 0.2804880434653E-01
 0.2809995123644E-01
 0.2806899332966E-01
 0.2795971729484E-01
 0.2777662055689E-01
 0.2752474970688E-01
 0.2720968996977E-01
 0.2683770032397E-01
 0.2641598159182E-01
 0.2595306627277E-01
 0.2545932709566E-01
 0.2494755746960E-01
 0.2443365789584E-01
 0.2393739588881E-01
 0.2348318961441E-01
 0.2310091965121E-01
 0.2282667075741E-01
 0.2270326476622E-01
 0.2278028738758E-01
 0.2311306545365E-01
 0.2375988078574E-01
 0.2477686235765E-01
 0.2621055073176E-01
 0.2808912558980E-01
 0.3041420704703E-01
 0.3315528519243E-01
 0.3624830881032E-01
 0.3959900250457E-01
 0.4309032039915E-01
 0.4659301943230E-01
 0.4997792578618E-01
 0.2348313197233E-01
 0.2413338585881E-01
 0.2477927174564E-01
 0.2540334872173E-01
 0.2598879011979E-01
 0.2652046593706E-01
 0.2698581502020E-01
 0.2737535474958E-01
 0.2768279583134E-01
 0.2790482520290E-01
 0.2804066981593E-01
 0.2809156245655E-01
 0.2806021670826E-01
 0.2795038641643E-01
 0.2776655434816E-01
 0.2751377002044E-01
 0.2719763832222E-01
 0.2682445409257E-01
 0.2640147018599E-01
 0.2593728772517E-01
 0.2544236523405E-01
 0.2492959927129E-01
 0.2441501013193E-01
 0.2391849941108E-01
 0.2346462870700E-01
 0.2308342286298E-01
 0.2281109795008E-01
 0.2269057270029E-01
 0.2277146333239E-01
 0.2310901989622E-01
 0.2376129664917E-01
 0.2478401245156E-01
 0.2622312329440E-01
 0.2810612363729E-01
 0.3043398726272E-01
 0.3317576579602E-01
 0.3626731630199E-01
 0.3961467406987E-01
 0.4310146426827E-01
 0.4659937274957E-01
 0.4998030231291E-01
 0.2348313197261E-01
 0.2413338585910E-01
 0.2477927174597E-01
 0.2540334872210E-01
 0.2598879012021E-01
 0.2652046593753E-01
 0.2698581502073E-01
 0.2737535475016E-01
 0.2768279583198E-01
 0.2790482520359E-01
 0.2804066981667E-01
 0.2809156245735E-01
 0.2806021670913E-01
 0.2795038641738E-01
 0.2776655434921E-01
 0.2751377002161E-01
 0.2719763832353E-01
 0.2682445409404E-01
 0.2640147018763E-01
 0.2593728772699E-01
 0.2544236523606E-01
 0.2492959927347E-01
 0.2441501013426E-01
 0.2391849941351E-01
 0.2346462870945E-01
 0.2308342286536E-01
 0.2281109795225E-01
 0.2269057270212E-01
 0.2277146333370E-01
 0.2310901989684E-01
 0.2376129664896E-01
 0.2478401245042E-01
 0.2622312329234E-01
 0.2810612363443E-01
 0.3043398725932E-01
 0.3317576579246E-01
 0.3626731629870E-01
 0.3961467406726E-01
 0.4310146426662E-01
 0.4659937274898E-01
 0.4998030231320E-01
 0.2348470458852E-01
 0.2413616021772E-01
 0.2478323809106E-01
 0.2540841810346E-01
 0.2599480109257E-01
 0.2652721173623E-01
 0.2699308134431E-01
 0.2738295685260E-01
 0.2769060633837E-01
 0.2791278867510E-01
 0.2804880434875E-01
 0.2809995123883E-01
 0.2806899333226E-01
 0.2795971729770E-01
 0.2777662056004E-01
 0.2752474971040E-01
 0.2720968997370E-01
 0.2683770032837E-01
 0.2641598159674E-01
 0.2595306627825E-01
 0.2545932710169E-01
 0.2494755747614E-01
 0.2443365790282E-01
 0.2393739589609E-01
 0.2348318962176E-01
 0.2310091965835E-01
 0.2282667076396E-01
 0.2270326477173E-01
 0.2278028739154E-01
 0.2311306545556E-01
 0.2375988078514E-01
 0.2477686235427E-01
 0.2621055072560E-01
 0.2808912558123E-01
 0.3041420703684E-01
 0.3315528518174E-01
 0.3624830880044E-01
 0.3959900249672E-01
 0.4309032039420E-01
 0.4659301943052E-01
 0.4997792578707E-01
 0.2348785544347E-01
 0.2414171788553E-01
 0.2479118296058E-01
 0.2541857015279E-01
 0.2600683387960E-01
 0.2654070783205E-01
 0.2700760896839E-01
 0.2739814472207E-01
 0.2770619943432E-01
 0.2792867709126E-01
 0.2806502601247E-01
 0.2811667456568E-01
 0.2808648751941E-01
 0.2797831701406E-01
 0.2779668962438E-01
 0.2754664604604E-01
 0.2723373231842E-01
 0.2686413604862E-01
 0.2644495453909E-01
 0.2598458373956E-01
 0.2549322556684E-01
 0.2498346789050E-01
 0.2447097223139E-01
 0.2397523822842E-01
 0.2352039694096E-01
 0.2313603939964E-01
 0.2285798564399E-01
 0.2272886021285E-01
 0.2279818266990E-01
 0.2312142678227E-01
 0.2375732233826E-01
 0.2476281318350E-01
 0.2618560886784E-01
 0.2805526722422E-01
 0.3037471602647E-01
 0.3311433963661E-01
 0.3621028273928E-01
 0.3956765153301E-01
 0.4306805381966E-01
 0.4658038372452E-01
 0.4997330790316E-01
 0.2349259606649E-01
 0.2415007716396E-01
 0.2480313120533E-01
 0.2543383193987E-01
 0.2602491055635E-01
 0.2656096342334E-01
 0.2702938783579E-01
 0.2742088549943E-01
 0.2772951899066E-01
 0.2795241307055E-01
 0.2808923970406E-01
 0.2814162371670E-01
 0.2811258095840E-01
 0.2800606131826E-01
 0.2782663466639E-01
 0.2757933273743E-01
 0.2726964314402E-01
 0.2690364730960E-01
 0.2648828861930E-01
 0.2603175994542E-01
 0.2554400894326E-01
 0.2503731709105E-01
 0.2452698898689E-01
 0.2403212321333E-01
 0.2357641962114E-01
 0.2318903244020E-01
 0.2290537947590E-01
 0.2276778065860E-01
 0.2282564356134E-01
 0.2313464575312E-01
 0.2375417088697E-01
 0.2474237133270E-01
 0.2614870921544E-01
 0.2800482851914E-01
 0.3031565616844E-01
 0.3305296204343E-01
 0.3615321660467E-01
 0.3952060583869E-01
 0.4303470663814E-01
 0.4656160629274E-01
 0.4996671803062E-01
 0.2349894446515E-01
 0.2416126651639E-01
 0.2481912134419E-01
 0.2545424531969E-01
 0.2604906521229E-01
 0.2658799280296E-01
 0.2705840281802E-01
 0.2745112940774E-01
 0.2776048005935E-01
 0.2798387971019E-01
 0.2812130200444E-01
 0.2817463498559E-01
 0.2814709569713E-01
 0.2804276344144E-01
 0.2786626497308E-01
 0.2762261983416E-01
 0.2731723837866E-01
 0.2695606207762E-01
 0.2654583163992E-01
 0.2609447244307E-01
 0.2561159680884E-01
 0.2510908132605E-01
 0.2460175766652E-01
 0.2410819120071E-01
 0.2365150596391E-01
 0.2326026934644E-01
 0.2296935342957E-01
 0.2282065603262E-01
 0.2286341171437E-01
 0.2315353872884E-01
 0.2375125828944E-01
 0.2471630730369E-01
 0.2610048150416E-01
 0.2793824072343E-01
 0.3023724818985E-01
 0.3297120560182E-01
 0.3607707968278E-01
 0.3945784330795E-01
 0.4299034161148E-01
 0.4653689516997E-01
 0.4995855763698E-01
 0.2350692600615E-01
 0.2417532581617E-01
 0.2483920709453E-01
 0.2547986846255E-01
 0.2607934513119E-01
 0.2662181593462E-01
 0.2709463362791E-01
 0.2748880912507E-01
 0.2779896793370E-01
 0.2802291956827E-01
 0.2816102025666E-01
 0.2821548893782E-01
 0.2818979357847E-01
 0.2808817364021E-01
 0.2791532554158E-01
 0.2767625313997E-01
 0.2737627122395E-01
 0.2702114892760E-01
 0.2661737771412E-01
 0.2617255388460E-01
 0.2569587657258E-01
 0.2519872220199E-01
 0.2469533623354E-01
 0.2420362022902E-01
 0.2374597738477E-01
 0.2335023481427E-01
 0.2305056777942E-01
 0.2288832126555E-01
 0.2291247581693E-01
 0.2317920053883E-01
 0.2374970750927E-01
 0.2468566885497E-01
 0.2604178902196E-01
 0.2785610045531E-01
 0.3013980133203E-01
 0.3286914850501E-01
 0.3598183384603E-01
 0.3937933644933E-01
 0.4293504236803E-01
 0.4650652236649E-01
 0.4994935665576E-01
 0.2351657462998E-01
 0.2419230806966E-01
 0.2486345947961E-01
 0.2551077794421E-01
 0.2611581237507E-01
 0.2666245918811E-01
 0.2713805463914E-01
 0.2753383887617E-01
 0.2784483683511E-01
 0.2806933326953E-01
 0.2820815132379E-01
 0.2826390942868E-01
 0.2824037551073E-01
 0.2814197862514E-01
 0.2797349651591E-01
 0.2773991347630E-01
 0.2744643104763E-01
 0.2709861536051E-01
 0.2670266480651E-01
 0.2626578860540E-01
 0.2579669894136E-01
 0.2530618095667E-01
 0.2480778422323E-01
 0.2431861815109E-01
 0.2386021996320E-01
 0.2345951932266E-01
 0.2314983466007E-01
 0.2297181148342E-01
 0.2297407081089E-01
 0.2321300931852E-01
 0.2375094408571E-01
 0.2465179860765E-01
 0.2597374956953E-01
 0.2775918927266E-01
 0.3002372696866E-01
 0.3274690025420E-01
 0.3586743573570E-01
 0.3928505467859E-01
 0.4286891488964E-01
 0.4647081972918E-01
 0.4993976767181E-01
 0.2352793443942E-01
 0.2421228167053E-01
 0.2489196957659E-01
 0.2554707144327E-01
 0.2615854578327E-01
 0.2670995620482E-01
 0.2718863455844E-01
 0.2758611318414E-01
 0.2789790818110E-01
 0.2812287771202E-01
 0.2826240002779E-01
 0.2831956240241E-01
 0.2829848060763E-01
 0.2820380091577E-01
 0.2804039256504E-01
 0.2781321585508E-01
 0.2752734210372E-01
 0.2718810581573E-01
 0.2680137178381E-01
 0.2637390847528E-01
 0.2591387237418E-01
 0.2543137139613E-01
 0.2493915417055E-01
 0.2445341275410E-01
 0.2399467372501E-01
 0.2358880839373E-01
 0.2326810853085E-01
 0.2307235534299E-01
 0.2304967613691E-01
 0.2325663178814E-01
 0.2375670995269E-01
 0.2461635610750E-01
 0.2589776249237E-01
 0.2764849951242E-01
 0.2988955673347E-01
 0.3260460961915E-01
 0.3573383889733E-01
 0.3917496766784E-01
 0.4279209155011E-01
 0.4643017465424E-01
 0.4993055706706E-01
 0.2354106170872E-01
 0.2423533325748E-01
 0.2492485198406E-01
 0.2558887109959E-01
 0.2620764338847E-01
 0.2676434884054E-01
 0.2724633586333E-01
 0.2764550519023E-01
 0.2795796836084E-01
 0.2818326383021E-01
 0.2832341725368E-01
 0.2838205447884E-01
 0.2836368521864E-01
 0.2827319815103E-01
 0.2811556223618E-01
 0.2789570859811E-01
 0.2761856212141E-01
 0.2728919942258E-01
 0.2691311502139E-01
 0.2649658806686E-01
 0.2604715655958E-01
 0.2557417151170E-01
 0.2508948134046E-01
 0.2460823979842E-01
 0.2414981950090E-01
 0.2373886919957E-01
 0.2340647396871E-01
 0.2319136601144E-01
 0.2314101241434E-01
 0.2331202836385E-01
 0.2376907914525E-01
 0.2458134427214E-01
 0.2581554231953E-01
 0.2752526746782E-01
 0.2973796620395E-01
 0.3244247442732E-01
 0.3558099512892E-01
 0.3904904966259E-01
 0.4270473953934E-01
 0.4638502712150E-01
 0.4992259107783E-01
 0.2355602738677E-01
 0.2426157127589E-01
 0.2496224911972E-01
 0.2563632760886E-01
 0.2626322525489E-01
 0.2682568812046E-01
 0.2731111389895E-01
 0.2771186443281E-01
 0.2802476593639E-01
 0.2825015387104E-01
 0.2839079771170E-01
 0.2845093134720E-01
 0.2843550188623E-01
 0.2834966240199E-01
 0.2819848733651E-01
 0.2798687246228E-01
 0.2771958082790E-01
 0.2740140756340E-01
 0.2703744464476E-01
 0.2663343922293E-01
 0.2619625499452E-01
 0.2573441383921E-01
 0.2525877178817E-01
 0.2478332894280E-01
 0.2432616323822E-01
 0.2391053426928E-01
 0.2356613039371E-01
 0.2333042923682E-01
 0.2325003586851E-01
 0.2338145736521E-01
 0.2379047479327E-01
 0.2454914006281E-01
 0.2572915962056E-01
 0.2739101534204E-01
 0.2956980575504E-01
 0.3226075365706E-01
 0.3540885380544E-01
 0.3890728396088E-01
 0.4260707630422E-01
 0.4633587057094E-01
 0.4991681532005E-01
 0.2357292017885E-01
 0.2429113036959E-01
 0.2500433648363E-01
 0.2568962513941E-01
 0.2632543673232E-01
 0.2689403511139E-01
 0.2738291549350E-01
 0.2778501395070E-01
 0.2809800817482E-01
 0.2832315814038E-01
 0.2846407736109E-01
 0.2852567600375E-01
 0.2851337828777E-01
 0.2843261955700E-01
 0.2828858242296E-01
 0.2808611985938E-01
 0.2782981850559E-01
 0.2752417136194E-01
 0.2717384053290E-01
 0.2678400516116E-01
 0.2636080680605E-01
 0.2591187469188E-01
 0.2544698884912E-01
 0.2497888759317E-01
 0.2452421770035E-01
 0.2410468208286E-01
 0.2374837332324E-01
 0.2349128789017E-01
 0.2337892968311E-01
 0.2346747737156E-01
 0.2382368652628E-01
 0.2452252893576E-01
 0.2564108953396E-01
 0.2724760359892E-01
 0.2938614078460E-01
 0.3205978272141E-01
 0.3521735708813E-01
 0.3874966504155E-01
 0.4249939498529E-01
 0.4628326173557E-01
 0.4991422377805E-01
 0.2359185032266E-01
 0.2432417676846E-01
 0.2505132906124E-01
 0.2574898717348E-01
 0.2639445210333E-01
 0.2696946157533E-01
 0.2746167690284E-01
 0.2786474653385E-01
 0.2817735678863E-01
 0.2840183116097E-01
 0.2854273048936E-01
 0.2860570686154E-01
 0.2859669620821E-01
 0.2852142883400E-01
 0.2838519445907E-01
 0.2819279423421E-01
 0.2794862465354E-01
 0.2765685917506E-01
 0.2732170817081E-01
 0.2694775420915E-01
 0.2654037790835E-01
 0.2610626234454E-01
 0.2565403810007E-01
 0.2519508264707E-01
 0.2474448141264E-01
 0.2432221424467E-01
 0.2395457162971E-01
 0.2367582220076E-01
 0.2353009125157E-01
 0.2357294653320E-01
 0.2387188714110E-01
 0.2450474238780E-01
 0.2555426835312E-01
 0.2709729573159E-01
 0.2918830469305E-01
 0.3183999424186E-01
 0.3500642854756E-01
 0.3857619305501E-01
 0.4238210279574E-01
 0.4622784865473E-01
 0.4991581229019E-01
 0.2361295420950E-01
 0.2436091488727E-01
 0.2510348908847E-01
 0.2581468339571E-01
 0.2647047858287E-01
 0.2705205022486E-01
 0.2754732085113E-01
 0.2795081991965E-01
 0.2826242275998E-01
 0.2848566720040E-01
 0.2862616646945E-01
 0.2869037579456E-01
 0.2868477062710E-01
 0.2861538251413E-01
 0.2848760274111E-01
 0.2830616971344E-01
 0.2807527688069E-01
 0.2779876423507E-01
 0.2748037452025E-01
 0.2712407336097E-01
 0.2673445170159E-01
 0.2631720437875E-01
 0.2587975098003E-01
 0.2543202026512E-01
 0.2498741487539E-01
 0.2456402907660E-01
 0.2418614038425E-01
 0.2388602494471E-01
 0.2370611423968E-01
 0.2370101745393E-01
 0.2393864705452E-01
 0.2449949748239E-01
 0.2547215814578E-01
 0.2694283739243E-01
 0.2897796898243E-01
 0.3160194869430E-01
 0.3477595277946E-01
 0.3838685028356E-01
 0.4225577272204E-01
 0.4617043329431E-01
 0.4992250902290E-01
 0.2363640004137E-01
 0.2440159541201E-01
 0.2516113545410E-01
 0.2588703776178E-01
 0.2655376058431E-01
 0.2714189432317E-01
 0.2763975235769E-01
 0.2804295067894E-01
 0.2835276009723E-01
 0.2857409511918E-01
 0.2871372621745E-01
 0.2877896617830E-01
 0.2877684899857E-01
 0.2871370598048E-01
 0.2859501918047E-01
 0.2842545111828E-01
 0.2820898013501E-01
 0.2794910256325E-01
 0.2764908405013E-01
 0.2731226181687E-01
 0.2694241949071E-01
 0.2654423437051E-01
 0.2612386723426E-01
 0.2568972377721E-01
 0.2525341403890E-01
 0.2483099143417E-01
 0.2444450880170E-01
 0.2412397072147E-01
 0.2390976416074E-01
 0.2385512594317E-01
 0.2402794461948E-01
 0.2451103671799E-01
 0.2539881891362E-01
 0.2678755157536E-01
 0.2875723581249E-01
 0.3134638305190E-01
 0.3452574629674E-01
 0.3818154176453E-01
 0.4212120092166E-01
 0.4611209712867E-01
 0.4993506999137E-01
 0.2366239478024E-01
 0.2444652523564E-01
 0.2522465508886E-01
 0.2596643789239E-01
 0.2664458410533E-01
 0.2723909627144E-01
 0.2773885294779E-01
 0.2814080647804E-01
 0.2844785834941E-01
 0.2866647248740E-01
 0.2880467837736E-01
 0.2887069099016E-01
 0.2887211079646E-01
 0.2881555813147E-01
 0.2870658900682E-01
 0.2854977440444E-01
 0.2834886633757E-01
 0.2810701123494E-01
 0.2782699502217E-01
 0.2751152461877E-01
 0.2716357074934E-01
 0.2678677804867E-01
 0.2638601629230E-01
 0.2596810978162E-01
 0.2554278098825E-01
 0.2512389849452E-01
 0.2473108272173E-01
 0.2439177831551E-01
 0.2414394593016E-01
 0.2403897157494E-01
 0.2414416986648E-01
 0.2454416593092E-01
 0.2533898723589E-01
 0.2663545104599E-01
 0.2852875838275E-01
 0.3107429057521E-01
 0.3425552846984E-01
 0.3795997371673E-01
 0.4197944128845E-01
 0.4605443787765E-01
 0.4995391691677E-01
 0.2369119272794E-01
 0.2449607971701E-01
 0.2529451678359E-01
 0.2605334594974E-01
 0.2674328100736E-01
 0.2734376471163E-01
 0.2784447275870E-01
 0.2824399637296E-01
 0.2854713372400E-01
 0.2876207896718E-01
 0.2889821531895E-01
 0.2896469109176E-01
 0.2896966745478E-01
 0.2892003229621E-01
 0.2882139201940E-01
 0.2867820766515E-01
 0.2849399457563E-01
 0.2827154717935E-01
 0.2801317625243E-01
 0.2772096664446E-01
 0.2739708353452E-01
 0.2704413926471E-01
 0.2666569793760E-01
 0.2626696277684E-01
 0.2585569209711E-01
 0.2544344159263E-01
 0.2504720136845E-01
 0.2469156536722E-01
 0.2441166193438E-01
 0.2425648780731E-01
 0.2429211876110E-01
 0.2460428700667E-01
 0.2529815928983E-01
 0.2649136855732E-01
 0.2829589205998E-01
 0.3078704767244E-01
 0.3396492040263E-01
 0.3772143962406E-01
 0.4183174021610E-01
 0.4599999389312E-01
 0.4997887636537E-01
 0.2372310618094E-01
 0.2455071787971E-01
 0.2537128798646E-01
 0.2614831113806E-01
 0.2685023281634E-01
 0.2745600948488E-01
 0.2795641990805E-01
 0.2835205872074E-01
 0.2864991863936E-01
 0.2886010896944E-01
 0.2899344904656E-01
 0.2906003381700E-01
 0.2906856282020E-01
 0.2902615775392E-01
 0.2893844447764E-01
 0.2880975278699E-01
 0.2864335195486E-01
 0.2844168663486E-01
 0.2820660449979E-01
 0.2793958714781E-01
 0.2764201527684E-01
 0.2731548603158E-01
 0.2696226254595E-01
 0.2658590859432E-01
 0.2619216385356E-01
 0.2579016413978E-01
 0.2539408808687E-01
 0.2502539448508E-01
 0.2471595893782E-01
 0.2451179899688E-01
 0.2447697434266E-01
 0.2469742128876E-01
 0.2528267426698E-01
 0.2636110591273E-01
 0.2806287690856E-01
 0.3048659564715E-01
 0.3365353534258E-01
 0.3746451158659E-01
 0.4167918553930E-01
 0.4595297935914E-01
 0.5000871448659E-01
 0.2375851877938E-01
 0.2461100136463E-01
 0.2545565529152E-01
 0.2625198396241E-01
 0.2696587349659E-01
 0.2757593358929E-01
 0.2807444637812E-01
 0.2846444628679E-01
 0.2875544961123E-01
 0.2895966368953E-01
 0.2908940721130E-01
 0.2915571207315E-01
 0.2916777431003E-01
 0.2913290203480E-01
 0.2905670180474E-01
 0.2894334794566E-01
 0.2879585532891E-01
 0.2861632552756E-01
 0.2840616281439E-01
 0.2816627525684E-01
 0.2789729444620E-01
 0.2759983722246E-01
 0.2727489156910E-01
 0.2692438737393E-01
 0.2655201711622E-01
 0.2616441629548E-01
 0.2577279544629E-01
 0.2539521061253E-01
 0.2505986267705E-01
 0.2480916189686E-01
 0.2470427078459E-01
 0.2483021877349E-01
 0.2529979296377E-01
 0.2625159821537E-01
 0.2783506482867E-01
 0.3017564508548E-01
 0.3332125553056E-01
 0.3718678293316E-01
 0.4152163903279E-01
 0.4592052957566E-01
 0.5004013968748E-01
 0.2379790239201E-01
 0.2467761812831E-01
 0.2554844952533E-01
 0.2636513226255E-01
 0.2709069028698E-01
 0.2770362092108E-01
 0.2819822941924E-01
 0.2858050801719E-01
 0.2886285334109E-01
 0.2905974261068E-01
 0.2918502938460E-01
 0.2925064409686E-01
 0.2926621487210E-01
 0.2923917405362E-01
 0.2917506212110E-01
 0.2907787093748E-01
 0.2895035389492E-01
 0.2879428076629E-01
 0.2861063985539E-01
 0.2839980646395E-01
 0.2816171315715E-01
 0.2789605002532E-01
 0.2760257838883E-01
 0.2728162622837E-01
 0.2693483993920E-01
 0.2656630644472E-01
 0.2618414450434E-01
 0.2580276886279E-01
 0.2544629835123E-01
 0.2515288826395E-01
 0.2497983549304E-01
 0.2500994557469E-01
 0.2535776678430E-01
 0.2617108226524E-01
 0.2761920574357E-01
 0.2985792264950E-01
 0.3296849120828E-01
 0.3688557379365E-01
 0.4135477210013E-01
 0.4591488447825E-01
 0.5006564173214E-01
 0.2384183892679E-01
 0.2475141174950E-01
 0.2565067704915E-01
 0.2648865868761E-01
 0.2722522136520E-01
 0.2783911821180E-01
 0.2832734732674E-01
 0.2869946698933E-01
 0.2897113101161E-01
 0.2915923471203E-01
 0.2927916387060E-01
 0.2934367409736E-01
 0.2936273591446E-01
 0.2934382819151E-01
 0.2929237069138E-01
 0.2921214341969E-01
 0.2910563273592E-01
 0.2897429256137E-01
 0.2881873032880E-01
 0.2863884031782E-01
 0.2843392099495E-01
 0.2820280851351E-01
 0.2794410998633E-01
 0.2765661212873E-01
 0.2733994957543E-01
 0.2699565010911E-01
 0.2662865871473E-01
 0.2624955281273E-01
 0.2587799587730E-01
 0.2554724573870E-01
 0.2530970343429E-01
 0.2524444326882E-01
 0.2546588146332E-01
 0.2612928416780E-01
 0.2742371529414E-01
 0.2953870947673E-01
 0.3259586602367E-01
 0.3656005508170E-01
 0.4116785336645E-01
 0.4594880508712E-01
 0.5007601214337E-01
 0.2389107149214E-01
 0.2483345068626E-01
 0.2576361990191E-01
 0.2662372004452E-01
 0.2737018713275E-01
 0.2798257608045E-01
 0.2846143165824E-01
 0.2882058377006E-01
 0.2907933150751E-01
 0.2925710136639E-01
 0.2937076347066E-01
 0.2943378843754E-01
 0.2945637574875E-01
 0.2944596060861E-01
 0.2940778288224E-01
 0.2934538196134E-01
 0.2926097568862E-01
 0.2915572474495E-01
 0.2902989988794E-01
 0.2888297794098E-01
 0.2871370322243E-01
 0.2852014933660E-01
 0.2829986367291E-01
 0.2805017713853E-01
 0.2776877364850E-01
 0.2745463933186E-01
 0.2710949238877E-01
 0.2673990439360E-01
 0.2636072725979E-01
 0.2599966459354E-01
 0.2570310488519E-01
 0.2554465572031E-01
 0.2563624791416E-01
 0.2613817300239E-01
 0.2725827537018E-01
 0.2922283266892E-01
 0.3220283847359E-01
 0.3620308912025E-01
 0.4096583431934E-01
 0.4595934931218E-01
 0.5031505989649E-01
 0.2394643516675E-01
 0.2492499676196E-01
 0.2588872760115E-01
 0.2677152437450E-01
 0.2752618158801E-01
 0.2813386356988E-01
 0.2859974311745E-01
 0.2894272376003E-01
 0.2918612419314E-01
 0.2935195346144E-01
 0.2945845429534E-01
 0.2951965490952E-01
 0.2954584138410E-01
 0.2954429997605E-01
 0.2952002529754E-01
 0.2947628659220E-01
 0.2941503431414E-01
 0.2933716369594E-01
 0.2924266081799E-01
 0.2913065972946E-01
 0.2899944607958E-01
 0.2884644343992E-01
 0.2866826155147E-01
 0.2846089537742E-01
 0.2822018057926E-01
 0.2794262860554E-01
 0.2762673771976E-01
 0.2727497686808E-01
 0.2689710895965E-01
 0.2651469353672E-01
 0.2616699958872E-01
 0.2592029639115E-01
 0.2588124468355E-01
 0.2621181770898E-01
 0.2713631278920E-01
 0.2891983735548E-01
 0.3179206516757E-01
 0.3581322501466E-01
 0.4073856350598E-01
 0.4597083878149E-01
 0.5064051302146E-01
 0.2400906436131E-01
 0.2502765256639E-01
 0.2602778599969E-01
 0.2693344710540E-01
 0.2769373414847E-01
 0.2829259444227E-01
 0.2874118915217E-01
 0.2906438160256E-01
 0.2928983352436E-01
 0.2944209289471E-01
 0.2954057917031E-01
 0.2959966377210E-01
 0.2962954408307E-01
 0.2963723532343E-01
 0.2962741415010E-01
 0.2960304800506E-01
 0.2956582197732E-01
 0.2951639677269E-01
 0.2945453141221E-01
 0.2937910104748E-01
 0.2928804266247E-01
 0.2917826427846E-01
 0.2904559150347E-01
 0.2888484570230E-01
 0.2869017171680E-01
 0.2845574352758E-01
 0.2817693729951E-01
 0.2785214110245E-01
 0.2748589968072E-01
 0.2709320505963E-01
 0.2670524274806E-01
 0.2637908997216E-01
 0.2621304918716E-01
 0.2636650030878E-01
 0.2707612787687E-01
 0.2864585092657E-01
 0.3137331449916E-01
 0.3539228881462E-01
 0.4048512300556E-01
 0.4599622005246E-01
 0.5099666564723E-01
 0.2408035126628E-01
 0.2514341305284E-01
 0.2618298477055E-01
 0.2711111634801E-01
 0.2787341551501E-01
 0.2845827999341E-01
 0.2888453840398E-01
 0.2918395405414E-01
 0.2938875835158E-01
 0.2952586986568E-01
 0.2961559445989E-01
 0.2967237670064E-01
 0.2970612268472E-01
 0.2972344381243E-01
 0.2972862388202E-01
 0.2972429860199E-01
 0.2971189317064E-01
 0.2969186914532E-01
 0.2966382182131E-01
 0.2962645932699E-01
 0.2957749194204E-01
 0.2951346458375E-01
 0.2942959806744E-01
 0.2931973721798E-01
 0.2917653755321E-01
 0.2899202807295E-01
 0.2875863308430E-01
 0.2847078096819E-01
 0.2812780370660E-01
 0.2773786971098E-01
 0.2732328828126E-01
 0.2693017633049E-01
 0.2664518391140E-01
 0.2661997209220E-01
 0.2709766094553E-01
 0.2841841699900E-01
 0.3095621127810E-01
 0.3494047897268E-01
 0.4020389769702E-01
 0.4603852713994E-01
 0.5140078314303E-01
 0.2416205474275E-01
 0.2527478609389E-01
 0.2635698787987E-01
 0.2730636452663E-01
 0.2806567885822E-01
 0.2863011492043E-01
 0.2902820026250E-01
 0.2929953353293E-01
 0.2948097866888E-01
 0.2960149330993E-01
 0.2968187244828E-01
 0.2973630849718E-01
 0.2977419069267E-01
 0.2980158740083E-01
 0.2982231554187E-01
 0.2983865269194E-01
 0.2985177378924E-01
 0.2986198085066E-01
 0.2986877346394E-01
 0.2987079090968E-01
 0.2986564858266E-01
 0.2984969668526E-01
 0.2981775507779E-01
 0.2976292356512E-01
 0.2967661448072E-01
 0.2954896055022E-01
 0.2936967904533E-01
 0.2912946661434E-01
 0.2882260245376E-01
 0.2845038691153E-01
 0.2802571701072E-01
 0.2758220860231E-01
 0.2719154751408E-01
 0.2699183478784E-01
 0.2722462587545E-01
 0.2826028713067E-01
 0.3055499329633E-01
 0.3445992018664E-01
 0.3989198169394E-01
 0.4609832254075E-01
 0.5186256091915E-01
 0.2425641803304E-01
 0.2542494630141E-01
 0.2655303716268E-01
 0.2752120780404E-01
 0.2827074714711E-01
 0.2880685130229E-01
 0.2917013605802E-01
 0.2940886425139E-01
 0.2956434331487E-01
 0.2966703524765E-01
 0.2973771263687E-01
 0.2978994042847E-01
 0.2983234959514E-01
 0.2987032550962E-01
 0.2990714880240E-01
 0.2994471810722E-01
 0.2998397264351E-01
 0.3002509842638E-01
 0.3006757081301E-01
 0.3011006264558E-01
 0.3015023340612E-01
 0.3018442006838E-01
 0.3020726767215E-01
 0.3021139602627E-01
 0.3018726501542E-01
 0.3012341571119E-01
 0.3000717705885E-01
 0.2982585102072E-01
 0.2956899171424E-01
 0.2923123603433E-01
 0.2881587423904E-01
 0.2834287405584E-01
 0.2786589088799E-01
 0.2750318914640E-01
 0.2748470674260E-01
 0.2820054561650E-01
 0.3019028383811E-01
 0.3395556258598E-01
 0.3954457048079E-01
 0.4617334291142E-01
 0.5239282970394E-01
 0.2436633382293E-01
 0.2559794559033E-01
 0.2677507259574E-01
 0.2775778656892E-01
 0.2848844304228E-01
 0.2898663458359E-01
 0.2930775853827E-01
 0.2950930175711E-01
 0.2963646530703E-01
 0.2972044197779E-01
 0.2978135799569E-01
 0.2983173690140E-01
 0.2987920441706E-01
 0.2992832925603E-01
 0.2998179520632E-01
 0.3004110895888E-01
 0.3010699423057E-01
 0.3017956813265E-01
 0.3025835533239E-01
 0.3034216646413E-01
 0.3042884788508E-01
 0.3051491412669E-01
 0.3059508056403E-01
 0.3066178376479E-01
 0.3070486598470E-01
 0.3071163596624E-01
 0.3066742342030E-01
 0.3055657820440E-01
 0.3036442855355E-01
 0.3007942639280E-01
 0.2969547571989E-01
 0.2921831738369E-01
 0.2868109382554E-01
 0.2817598900512E-01
 0.2790948475519E-01
 0.2827576161915E-01
 0.2989142690552E-01
 0.3343696085006E-01
 0.3915499465347E-01
 0.4625998895112E-01
 0.5300499683918E-01
 0.2449558104404E-01
 0.2579900365220E-01
 0.2702786515356E-01
 0.2801823746379E-01
 0.2871793721499E-01
 0.2916679572420E-01
 0.2943782466726E-01
 0.2959778207105E-01
 0.2969472860055E-01
 0.2975955386562E-01
 0.2981101685201E-01
 0.2986016568365E-01
 0.2991338151237E-01
 0.2997429718225E-01
 0.3004495254202E-01
 0.3012645942225E-01
 0.3021935265345E-01
 0.3032373065741E-01
 0.3043924149390E-01
 0.3056493694300E-01
 0.3069899288640E-01
 0.3083829662708E-01
 0.3097789342101E-01
 0.3111036227026E-01
 0.3122530591977E-01
 0.3130921334056E-01
 0.3134586873232E-01
 0.3131720824670E-01
 0.3120499727625E-01
 0.3099226190234E-01
 0.3066420424272E-01
 0.3021248532826E-01
 0.2964822372817E-01
 0.2903200369304E-01
 0.2853391728687E-01
 0.2853098699838E-01
 0.2969950948911E-01
 0.3292132182489E-01
 0.3871566887626E-01
 0.4635333735202E-01
 0.5371606444474E-01
 0.2464917270358E-01
 0.2603491280469E-01
 0.2731714743221E-01
 0.2830444832958E-01
 0.2895738343754E-01
 0.2934359769229E-01
 0.2955633223621E-01
 0.2967080910271E-01
 0.2973631050134E-01
 0.2978213532925E-01
 0.2982489091721E-01
 0.2987372174051E-01
 0.2993354851111E-01
 0.3000697234780E-01
 0.3009536020605E-01
 0.3019943840575E-01
 0.3031958653422E-01
 0.3045593714487E-01
 0.3060833472470E-01
 0.3077617179363E-01
 0.3095809177575E-01
 0.3115154834599E-01
 0.3135218421738E-01
 0.3155307114592E-01
 0.3174399282878E-01
 0.3191108346546E-01
 0.3203709331599E-01
 0.3210216372344E-01
 0.3208530400353E-01
 0.3196513846746E-01
 0.3171932763036E-01
 0.3132643311016E-01
 0.3077538908574E-01
 0.3009129162480E-01
 0.2939511587095E-01
 0.2902029585480E-01
 0.2967103647471E-01
 0.3243846869980E-01
 0.3821976565470E-01
 0.4644642823357E-01
 0.5454802712642E-01
 0.2483388033332E-01
 0.2631460742711E-01
 0.2764970475697E-01
 0.2861761626949E-01
 0.2920340225841E-01
 0.2951194415098E-01
 0.2965843880348E-01
 0.2972447134543E-01
 0.2975822385248E-01
 0.2978591624194E-01
 0.2982120968331E-01
 0.2987095458535E-01
 0.2993843623054E-01
 0.3002516058741E-01
 0.3013181536074E-01
 0.3025876490880E-01
 0.3040627470929E-01
 0.3057456630304E-01
 0.3076375100755E-01
 0.3097365499686E-01
 0.3120351776380E-01
 0.3145154413093E-01
 0.3171424133628E-01
 0.3198554234866E-01
 0.3225587332857E-01
 0.3251153224118E-01
 0.3273479906254E-01
 0.3290470049772E-01
 0.3299840802265E-01
 0.3299139220662E-01
 0.3285537404783E-01
 0.3255765582596E-01
 0.3206645357268E-01
 0.3137012573890E-01
 0.3053009107412E-01
 0.2980634427859E-01
 0.2988200414078E-01
 0.3203843173375E-01
 0.3766445986254E-01
 0.4652904139230E-01
 0.5553003197659E-01
 0.2505904835686E-01
 0.2664996979044E-01
 0.2803334193465E-01
 0.2895748002868E-01
 0.2945037492643E-01
 0.2966507802053E-01
 0.2973843193536E-01
 0.2975449996481E-01
 0.2975738216841E-01
 0.2976864533736E-01
 0.2979827104493E-01
 0.2985049880903E-01
 0.2992686222903E-01
 0.3002774966965E-01
 0.3015318967393E-01
 0.3030322389207E-01
 0.3047805254771E-01
 0.3067804243225E-01
 0.3090363796865E-01
 0.3115518244667E-01
 0.3143262552831E-01
 0.3173509093533E-01
 0.3206020582771E-01
 0.3240314102355E-01
 0.3275546525893E-01
 0.3310421661644E-01
 0.3343181888763E-01
 0.3371690561728E-01
 0.3393579797293E-01
 0.3406221777510E-01
 0.3406390447142E-01
 0.3389952797404E-01
 0.3351975240939E-01
 0.3287843047560E-01
 0.3197209199098E-01
 0.3095810976395E-01
 0.3043165365762E-01
 0.3180254275096E-01
 0.3705753372728E-01
 0.4658605288729E-01
 0.5670183989507E-01
 0.2533790138872E-01
 0.2705696998696E-01
 0.2847654010786E-01
 0.2932102396190E-01
 0.2968952825317E-01
 0.2979433317101E-01
 0.2978979002432E-01
 0.2975637837972E-01
 0.2973068899797E-01
 0.2972815541323E-01
 0.2975448754709E-01
 0.2981110721205E-01
 0.2989775555586E-01
 0.3001372900139E-01
 0.3015844633210E-01
 0.3033168235013E-01
 0.3053362853446E-01
 0.3076485391998E-01
 0.3102619685016E-01
 0.3131858931600E-01
 0.3164278622684E-01
 0.3199897223229E-01
 0.3238612411595E-01
 0.3280102015461E-01
 0.3323690475634E-01
 0.3368219868305E-01
 0.3412014102218E-01
 0.3452971939892E-01
 0.3488741374342E-01
 0.3516666857372E-01
 0.3533341429534E-01
 0.3534092909155E-01
 0.3512701247180E-01
 0.3461700501852E-01
 0.3374528354299E-01
 0.3254549393433E-01
 0.3144438321676E-01
 0.3185869287228E-01
 0.3643072555923E-01
 0.4659571113670E-01
 0.5811957207700E-01
 0.2568972425827E-01
 0.2755725652710E-01
 0.2898740551100E-01
 0.2970035174122E-01
 0.2990785961676E-01
 0.2988905911502E-01
 0.2980537634504E-01
 0.2972550674585E-01
 0.2967515068208E-01
 0.2966243927987E-01
 0.2968843710814E-01
 0.2975168573067E-01
 0.2985018214224E-01
 0.2998220947905E-01
 0.3014665701693E-01
 0.3034310530583E-01
 0.3057180081678E-01
 0.3083357182641E-01
 0.3112970485617E-01
 0.3146177841948E-01
 0.3183142495754E-01
 0.3223999806299E-01
 0.3268801164814E-01
 0.3317419137629E-01
 0.3369401051589E-01
 0.3423799334078E-01
 0.3479094468492E-01
 0.3533297654515E-01
 0.3584171122652E-01
 0.3629174585068E-01
 0.3664939288892E-01
 0.3686611788751E-01
 0.3687268661622E-01
 0.3657510571673E-01
 0.3585802487602E-01
 0.3462899527197E-01
 0.3306679298164E-01
 0.3240027328586E-01
 0.3586592026701E-01
 0.4652928556645E-01
 0.5986574955456E-01
 0.2614366066791E-01
 0.2818027722348E-01
 0.2957105867051E-01
 0.3007933341670E-01
 0.3008713039974E-01
 0.2993690828564E-01
 0.2977779014371E-01
 0.2965741415950E-01
 0.2958801046839E-01
 0.2956973410430E-01
 0.2959891644069E-01
 0.2967132913528E-01
 0.2978337015973E-01
 0.2993244305724E-01
 0.3011701855809E-01
 0.3033657151573E-01
 0.3059147353001E-01
 0.3088286835240E-01
 0.3121253757384E-01
 0.3158274907814E-01
 0.3199605982730E-01
 0.3245505979316E-01
 0.3296192800871E-01
 0.3351761578861E-01
 0.3412037103970E-01
 0.3476363232430E-01
 0.3543464352836E-01
 0.3611545862577E-01
 0.3678576376807E-01
 0.3742257621640E-01
 0.3799456483641E-01
 0.3845490671860E-01
 0.3873381930377E-01
 0.3872914383988E-01
 0.3829618559452E-01
 0.3724289162703E-01
 0.3545391671320E-01
 0.3370535200920E-01
 0.3554416526655E-01
 0.4635700980413E-01
 0.6206816837071E-01
 0.2674568434649E-01
 0.2896573787796E-01
 0.3022364236966E-01
 0.3042868876250E-01
 0.3020355376747E-01
 0.2992470320174E-01
 0.2969983838386E-01
 0.2954800679043E-01
 0.2946690136842E-01
 0.2944860950470E-01
 0.2948499511685E-01
 0.2956935623518E-01
 0.2969673453362E-01
 0.2986384151857E-01
 0.3006886886623E-01
 0.3031128853407E-01
 0.3059167251889E-01
 0.3091153470015E-01
 0.3127319077637E-01
 0.3167962544440E-01
 0.3213434090031E-01
 0.3264118688213E-01
 0.3320406151172E-01
 0.3382631758241E-01
 0.3450946249151E-01
 0.3525074860119E-01
 0.3604092951463E-01
 0.3686494125478E-01
 0.3770538501778E-01
 0.3854266459339E-01
 0.3934930728570E-01
 0.4008319818688E-01
 0.4068042802987E-01
 0.4104290579895E-01
 0.4101954597896E-01
 0.4037322641298E-01
 0.3873393635110E-01
 0.3614574967015E-01
 0.3583054712682E-01
 0.4607529400333E-01
 0.6493899542633E-01
 0.2757222296804E-01
 0.2996503086297E-01
 0.3091907240255E-01
 0.3069994500176E-01
 0.3022952043119E-01
 0.2983990319335E-01
 0.2956500923093E-01
 0.2939386096658E-01
 0.2931000685597E-01
 0.2929805337828E-01
 0.2934606834804E-01
 0.2944534282553E-01
 0.2958989976956E-01
 0.2977599384180E-01
 0.3000170173198E-01
 0.3026660679808E-01
 0.3057156013139E-01
 0.3091849795391E-01
 0.3131030108394E-01
 0.3175068347468E-01
 0.3224408759620E-01
 0.3279560251854E-01
 0.3341081906908E-01
 0.3409552264475E-01
 0.3485481089390E-01
 0.3569069339792E-01
 0.3659881006695E-01
 0.3756821281039E-01
 0.3858524881218E-01
 0.3963421459414E-01
 0.4069220202085E-01
 0.4172391412743E-01
 0.4267653076242E-01
 0.4346863474604E-01
 0.4396450183927E-01
 0.4394032767499E-01
 0.4293798671525E-01
 0.4015736971690E-01
 0.3740245158636E-01
 0.4579798949886E-01
 0.6886631397887E-01
 0.2875899644015E-01
 0.3123551991786E-01
 0.3158063909531E-01
 0.3082209774853E-01
 0.3013934056802E-01
 0.2967190598742E-01
 0.2936792502105E-01
 0.2919258493604E-01
 0.2911619504276E-01
 0.2911755737330E-01
 0.2918190399239E-01
 0.2929915130675E-01
 0.2946272031528E-01
 0.2966868174961E-01
 0.2991518023720E-01
 0.3020203252054E-01
 0.3053044884336E-01
 0.3090283662950E-01
 0.3132266491996E-01
 0.3179437554207E-01
 0.3232332293790E-01
 0.3291577441450E-01
 0.3357891237984E-01
 0.3432081757358E-01
 0.3515021766350E-01
 0.3607471241568E-01
 0.3709662900486E-01
 0.3821102365715E-01
 0.3940896851615E-01
 0.4067848687372E-01
 0.4200072604271E-01
 0.4334806983848E-01
 0.4468233352358E-01
 0.4594816492892E-01
 0.4705051452965E-01
 0.4780823279387E-01
 0.4790073192730E-01
 0.4609393688490E-01
 0.4139756299752E-01
 0.4602534187691E-01
 0.7466233653938E-01
 0.3056900268855E-01
 0.3280114924170E-01
 0.3202492546232E-01
 0.3071627342259E-01
 0.2991804814042E-01
 0.2941148688229E-01
 0.2910541213326E-01
 0.2894301968916E-01
 0.2888515613743E-01
 0.2890719052561E-01
 0.2899268069759E-01
 0.2913095605017E-01
 0.2931529742035E-01
 0.2954189308951E-01
 0.2980914848166E-01
 0.3011723921239E-01
 0.3046781354729E-01
 0.3086379468020E-01
 0.3130925544970E-01
 0.3180935206846E-01
 0.3237030332656E-01
 0.3299945903806E-01
 0.3370542955030E-01
 0.3449830960253E-01
 0.3539007157950E-01
 0.3639424534530E-01
 0.3752207075289E-01
 0.3877789011453E-01
 0.4015909959563E-01
 0.4165615331162E-01
 0.4325208041059E-01
 0.4492595915977E-01
 0.4665657308402E-01
 0.4841814819392E-01
 0.5017718854158E-01
 0.5183318369704E-01
 0.5322654385413E-01
 0.5380850011584E-01
 0.4944566762533E-01
 0.4833764463625E-01
 0.8436489739164E-01
 0.3358003020104E-01
 0.3445006612150E-01
 0.3189387980019E-01
 0.3036690921697E-01
 0.2955261509777E-01
 0.2905347571043E-01
 0.2877719083054E-01
 0.2864529746458E-01
 0.2861757205137E-01
 0.2866763076905E-01
 0.2877902330602E-01
 0.2894125968805E-01
 0.2914799226769E-01
 0.2939583198820E-01
 0.2968364108725E-01
 0.3001207731025E-01
 0.3038330208437E-01
 0.3080079356144E-01
 0.3126923704724E-01
 0.3179447978444E-01
 0.3238354253722E-01
 0.3304473787921E-01
 0.3378788984944E-01
 0.3462473983433E-01
 0.3556974174048E-01
 0.3664150305383E-01
 0.3786217514811E-01
 0.3925160293180E-01
 0.4081699237232E-01
 0.4254773931494E-01
 0.4442386303256E-01
 0.4642904602649E-01
 0.4855744504244E-01
 0.5081871814255E-01
 0.5322897885079E-01
 0.5585375213088E-01
 0.5857170564422E-01
 0.6196242368731E-01
 0.6293901270789E-01
 0.5662470576465E-01
 0.1044736719353E+00
 0.3934620578385E-01
 0.3457588250212E-01
 0.3106141399080E-01
 0.2981048223068E-01
 0.2902283268485E-01
 0.2860415331390E-01
 0.2838403185659E-01
 0.2830162519790E-01
 0.2831500522557E-01
 0.2840024066816E-01
 0.2854200772406E-01
 0.2873090648351E-01
 0.2896143320544E-01
 0.2923092619682E-01
 0.2953889042008E-01
 0.2988658198920E-01
 0.3027674404733E-01
 0.3071344234859E-01
 0.3120197700216E-01
 0.3174885614613E-01
 0.3236182968974E-01
 0.3305004062640E-01
 0.3382428727375E-01
 0.3469752502499E-01
 0.3568584698249E-01
 0.3681068762477E-01
 0.3810354280974E-01
 0.3961196127081E-01
 0.4136254059621E-01
 0.4333406569146E-01
 0.4549505190625E-01
 0.4783046441030E-01
 0.5034849008778E-01
 0.5308545384280E-01
 0.5612921976467E-01
 0.5959158264492E-01
 0.6389723210116E-01
 0.6874314758803E-01
 0.7942308035106E-01
 0.7586390422635E-01
 0.1628623799368E+00
 0.9553198916883E+00
 0.1309200770040E+01
 0.1626584484872E+01
 0.1902300875051E+01
 0.2136165872136E+01
 0.2329782233688E+01
 0.2485127424330E+01
 0.2604037981390E+01
 0.2688565477161E+01
 0.2742109751754E+01
 0.2769822910957E+01
 0.2777197249941E+01
 0.2768629604700E+01
 0.2746880981428E+01
 0.2713072004411E+01
 0.2667045294399E+01
 0.2608161111341E+01
 0.2534355767878E+01
 0.2445494989373E+01
 0.2350040699394E+01
 0.9221733172249E+00
 0.1284777416579E+01
 0.1611025219847E+01
 0.1896156569063E+01
 0.2139656449375E+01
 0.2343215712931E+01
 0.2508885249700E+01
 0.2638518047432E+01
 0.2734036916722E+01
 0.2798489073366E+01
 0.2836612564512E+01
 0.2853709217663E+01
 0.2854221659919E+01
 0.2841092307927E+01
 0.2815690839335E+01
 0.2778250918123E+01
 0.2728110871654E+01
 0.2662695926496E+01
 0.2577865082925E+01
 0.2469953425221E+01
 0.8903343289191E+00
 0.1263149652699E+01
 0.1598235970718E+01
 0.1892235271154E+01
 0.2144785177146E+01
 0.2357592373091E+01
 0.2532779299833E+01
 0.2672251725557E+01
 0.2777935992864E+01
 0.2852732574245E+01
 0.2901066962996E+01
 0.2927992217836E+01
 0.2937900450659E+01
 0.2933830834506E+01
 0.2917352673782E+01
 0.2888790884832E+01
 0.2847205219593E+01
 0.2789255646658E+01
 0.2709812396528E+01
 0.2606889387006E+01
 0.8602646317903E+00
 0.1243629783635E+01
 0.1587756647327E+01
 0.1890223737510E+01
 0.2151235285771E+01
 0.2372622427487E+01
 0.2556592603886E+01
 0.2705151129879E+01
 0.2820311592772E+01
 0.2904931103248E+01
 0.2963203010618E+01
 0.2999934823380E+01
 0.3019409539689E+01
 0.3024695059036E+01
 0.3017442433922E+01
 0.2997954347361E+01
 0.2965025650014E+01
 0.2915276516828E+01
 0.2844715721216E+01
 0.2752484226672E+01
 0.8320351789877E+00
 0.1226074024080E+01
 0.1579187335395E+01
 0.1889794783139E+01
 0.2158717819500E+01
 0.2388050405644E+01
 0.2580134320404E+01
 0.2737114412331E+01
 0.2861140214371E+01
 0.2955085845231E+01
 0.3022974336018E+01
 0.3069388577365E+01
 0.3098474257240E+01
 0.3113267806249E+01
 0.3115438564295E+01
 0.3105266259618E+01
 0.3081544242444E+01
 0.3041460844875E+01
 0.2982194333794E+01
 0.2903510231922E+01
 0.8056547783264E+00
 0.1210337633710E+01
 0.1572253791092E+01
 0.1890640850613E+01
 0.2166962594105E+01
 0.2403645714387E+01
 0.2603226483147E+01
 0.2768023886492E+01
 0.2900351618920E+01
 0.3003137720995E+01
 0.3080282826681E+01
 0.3136172202051E+01
 0.3174803515696E+01
 0.3199151355397E+01
 0.3210889573276E+01
 0.3210355603674E+01
 0.3196580656591E+01
 0.3167459964110E+01
 0.3121140404093E+01
 0.3057766958530E+01
 0.7811096027548E+00
 0.1196283998694E+01
 0.1566724922877E+01
 0.1892497047941E+01
 0.2175719638396E+01
 0.2419195155292E+01
 0.2625697789416E+01
 0.2797749158493E+01
 0.2937843366659E+01
 0.3048985510558E+01
 0.3134991520951E+01
 0.3200077563646E+01
 0.3248098118918E+01
 0.3281961940859E+01
 0.3303368953222E+01
 0.3312800422621E+01
 0.3309640859664E+01
 0.3292479727267E+01
 0.3260241628390E+01
 0.3213360956450E+01
 0.7583797930941E+00
 0.1183781898829E+01
 0.1562397093750E+01
 0.1895129718472E+01
 0.2184762663560E+01
 0.2434499667787E+01
 0.2647381453167E+01
 0.2826150865116E+01
 0.2973491083544E+01
 0.3092498863823E+01
 0.3186935589658E+01
 0.3260877474769E+01
 0.3318052084033E+01
 0.3361316444289E+01
 0.3392428789581E+01
 0.3412070791619E+01
 0.3420022224008E+01
 0.3415504516618E+01
 0.3398078861555E+01
 0.3368438263060E+01
 0.7374455982012E+00
 0.1172707784076E+01
 0.1559086573408E+01
 0.1898330170446E+01
 0.2193886473636E+01
 0.2449373694838E+01
 0.2668115135835E+01
 0.2853084348004E+01
 0.3007156192320E+01
 0.3133528066142E+01
 0.3235931427202E+01
 0.3318331421333E+01
 0.3384351806097E+01
 0.3436819854904E+01
 0.3477580288483E+01
 0.3507544965461E+01
 0.3526890559518E+01
 0.3535397950155E+01
 0.3533156668469E+01
 0.3521100187206E+01
 0.7182898869878E+00
 0.1162947207481E+01
 0.1556626538866E+01
 0.1901910429812E+01
 0.2202904557998E+01
 0.2463644520337E+01
 0.2687742057478E+01
 0.2878403144859E+01
 0.3038692070783E+01
 0.3171911707885E+01
 0.3281783823581E+01
 0.3372190004668E+01
 0.3446675619881E+01
 0.3508060820762E+01
 0.3558296852972E+01
 0.3598536051310E+01
 0.3629333280351E+01
 0.3650957476323E+01
 0.3663936940338E+01
 0.3669421194210E+01
 0.7008988996058E+00
 0.1154395666013E+01
 0.1554865596593E+01
 0.1905700681204E+01
 0.2211647239567E+01
 0.2477151926505E+01
 0.2706112343766E+01
 0.2901962243611E+01
 0.3067949132774E+01
 0.3207482858717E+01
 0.3324291843728E+01
 0.3422199067975E+01
 0.3504695885571E+01
 0.3574614996028E+01
 0.3634025890191E+01
 0.3684318677577E+01
 0.3726397680874E+01
 0.3760953901700E+01
 0.3788878104103E+01
 0.3811501463058E+01
 0.6852622090202E+00
 0.1146958965772E+01
 0.1553667018944E+01
 0.1909547754244E+01
 0.2219960520633E+01
 0.2489748162030E+01
 0.2723084434650E+01
 0.2923621000130E+01
 0.3094779103514E+01
 0.3240074176810E+01
 0.3363253912906E+01
 0.3468104152959E+01
 0.3558083577672E+01
 0.3636052651735E+01
 0.3704203613977E+01
 0.3764153084373E+01
 0.3817121506358E+01
 0.3864162916736E+01
 0.3906467880920E+01
 0.3945504212055E+01
 0.6713723097198E+00
 0.1140553273911E+01
 0.1552908304858E+01
 0.1913314262458E+01
 0.2227705465854E+01
 0.2501298173740E+01
 0.2738526469932E+01
 0.2943245730017E+01
 0.3119038682223E+01
 0.3269522315135E+01
 0.3398472546830E+01
 0.3509655534888E+01
 0.3606514627244E+01
 0.3691948462191E+01
 0.3768270578229E+01
 0.3837307128465E+01
 0.3900559412846E+01
 0.3959391826131E+01
 0.4015243521313E+01
 0.4069673581561E+01
 0.6592240734628E+00
 0.1135104987620E+01
 0.1552480910595E+01
 0.1916878147546E+01
 0.2234757959007E+01
 0.2511680010864E+01
 0.2752317594599E+01
 0.2960711969079E+01
 0.3140592679999E+01
 0.3295671781551E+01
 0.3429758823150E+01
 0.3546613566800E+01
 0.3649677074148E+01
 0.3741891944872E+01
 0.3825686744006E+01
 0.3903076267409E+01
 0.3975806589059E+01
 0.4045504412972E+01
 0.4113812843352E+01
 0.4182353761956E+01
 0.6488141910936E+00
 0.1130550501721E+01
 0.1552290075806E+01
 0.1920132477273E+01
 0.2241008707799E+01
 0.2520785337105E+01
 0.2764349174381E+01
 0.2975906453595E+01
 0.3159316750435E+01
 0.3318378400045E+01
 0.3456936647607E+01
 0.3578754114280E+01
 0.3687278447376E+01
 0.3785497812987E+01
 0.3875945644378E+01
 0.3960801724497E+01
 0.4042020494733E+01
 0.4121446050296E+01
 0.4200886628359E+01
 0.4282014517893E+01
 0.6401406755642E+00
 0.1126835940481E+01
 0.1552254712053E+01
 0.1922985398835E+01
 0.2246363398192E+01
 0.2528519988287E+01
 0.2774525904684E+01
 0.2988728848232E+01
 0.3175099774392E+01
 0.3337512422880E+01
 0.3479846762961E+01
 0.3605873835157E+01
 0.3719052935268E+01
 0.3822415765814E+01
 0.3918587367531E+01
 0.4009886904642E+01
 0.4098440816769E+01
 0.4186268551972E+01
 0.4275309867835E+01
 0.4367282664255E+01
 0.6332024333890E+00
 0.1123916882876E+01
 0.1552307323507E+01
 0.1925360174043E+01
 0.2250742919076E+01
 0.2534804520295E+01
 0.2782766792035E+01
 0.2999093231116E+01
 0.3187845919762E+01
 0.3352961284109E+01
 0.3498350400659E+01
 0.3627795071108E+01
 0.3744768003356E+01
 0.3852339364385E+01
 0.3953210116771E+01
 0.4049811889598E+01
 0.4144407221253E+01
 0.4239151708076E+01
 0.4336086730660E+01
 0.4436971982457E+01
 0.6279989350566E+00
 0.1121758113843E+01
 0.1552393957718E+01
 0.1927195259683E+01
 0.2254083611413E+01
 0.2539574714083E+01
 0.2789005996757E+01
 0.3006929342080E+01
 0.3197476381111E+01
 0.3364631966301E+01
 0.3512332477189E+01
 0.3644370165883E+01
 0.3764230211386E+01
 0.3875013742389E+01
 0.3979480133764E+01
 0.4080145774146E+01
 0.4179374180719E+01
 0.4279420453332E+01
 0.4382400120192E+01
 0.4490108300921E+01
 0.6245299727304E+00
 0.1120333414124E+01
 0.1552474172771E+01
 0.1928444397624E+01
 0.2256337500016E+01
 0.2542782005387E+01
 0.2793193520907E+01
 0.3012183590007E+01
 0.3203930791984E+01
 0.3372452947695E+01
 0.3521704255521E+01
 0.3655485077896E+01
 0.3777290064062E+01
 0.3890241986146E+01
 0.3997139834167E+01
 0.4100556641307E+01
 0.4202922638655E+01
 0.4306557921688E+01
 0.4413626330461E+01
 0.4525948580647E+01
 0.6227954928716E+00
 0.1119625396971E+01
 0.1552521016909E+01
 0.1929076697327E+01
 0.2257472486553E+01
 0.2544393823325E+01
 0.2795295735171E+01
 0.3014819817924E+01
 0.3207168301622E+01
 0.3376375699013E+01
 0.3526405405058E+01
 0.3661062182306E+01
 0.3783845763332E+01
 0.3897890041600E+01
 0.4006014010981E+01
 0.4110819056465E+01
 0.4214768566906E+01
 0.4320214707652E+01
 0.4429345048906E+01
 0.4543993570440E+01
 0.6227954931958E+00
 0.1119625397096E+01
 0.1552521016911E+01
 0.1929076697255E+01
 0.2257472486441E+01
 0.2544393823196E+01
 0.2795295735041E+01
 0.3014819817805E+01
 0.3207168301523E+01
 0.3376375698936E+01
 0.3526405405004E+01
 0.3661062182272E+01
 0.3783845763314E+01
 0.3897890041593E+01
 0.4006014010981E+01
 0.4110819056469E+01
 0.4214768566915E+01
 0.4320214707669E+01
 0.4429345048940E+01
 0.4543993570508E+01
 0.6245299737031E+00
 0.1120333414501E+01
 0.1552474172777E+01
 0.1928444397411E+01
 0.2256337499682E+01
 0.2542782005001E+01
 0.2793193520520E+01
 0.3012183589653E+01
 0.3203930791686E+01
 0.3372452947465E+01
 0.3521704255360E+01
 0.3655485077795E+01
 0.3777290064008E+01
 0.3890241986125E+01
 0.3997139834167E+01
 0.4100556641319E+01
 0.4202922638681E+01
 0.4306557921739E+01
 0.4413626330565E+01
 0.4525948580850E+01
 0.6279989366779E+00
 0.1121758114476E+01
 0.1552393957735E+01
 0.1927195259334E+01
 0.2254083610862E+01
 0.2539574713445E+01
 0.2789005996114E+01
 0.3006929341493E+01
 0.3197476380618E+01
 0.3364631965921E+01
 0.3512332476922E+01
 0.3644370165716E+01
 0.3764230211298E+01
 0.3875013742356E+01
 0.3979480133766E+01
 0.4080145774169E+01
 0.4179374180764E+01
 0.4279420453419E+01
 0.4382400120368E+01
 0.4490108301260E+01
 0.6332024356591E+00
 0.1123916883774E+01
 0.1552307323545E+01
 0.1925360173568E+01
 0.2250742918317E+01
 0.2534804519411E+01
 0.2782766791143E+01
 0.2999093230300E+01
 0.3187845919077E+01
 0.3352961283581E+01
 0.3498350400289E+01
 0.3627795070878E+01
 0.3744768003236E+01
 0.3852339364343E+01
 0.3953210116778E+01
 0.4049811889634E+01
 0.4144407221321E+01
 0.4239151708202E+01
 0.4336086730909E+01
 0.4436971982936E+01
 0.6401406784836E+00
 0.1126835941652E+01
 0.1552254712126E+01
 0.1922985398247E+01
 0.2246363397235E+01
 0.2528519987167E+01
 0.2774525903550E+01
 0.2988728847194E+01
 0.3175099773521E+01
 0.3337512422209E+01
 0.3479846762493E+01
 0.3605873834869E+01
 0.3719052935122E+01
 0.3822415765767E+01
 0.3918587367546E+01
 0.4009886904697E+01
 0.4098440816863E+01
 0.4186268552140E+01
 0.4275309868162E+01
 0.4367282664874E+01
 0.6488141946631E+00
 0.1130550503180E+01
 0.1552290075930E+01
 0.1920132476589E+01
 0.2241008706660E+01
 0.2520785335760E+01
 0.2764349173015E+01
 0.2975906452342E+01
 0.3159316749383E+01
 0.3318378399237E+01
 0.3456936647045E+01
 0.3578754113937E+01
 0.3687278447207E+01
 0.3785497812940E+01
 0.3875945644408E+01
 0.3960801724574E+01
 0.4042020494857E+01
 0.4121446050509E+01
 0.4200886628764E+01
 0.4282014518651E+01
 0.6592240776834E+00
 0.1135104989383E+01
 0.1552480910793E+01
 0.1916878146787E+01
 0.2234757957702E+01
 0.2511680009309E+01
 0.2752317593013E+01
 0.2960711967621E+01
 0.3140592678775E+01
 0.3295671780611E+01
 0.3429758822501E+01
 0.3546613566409E+01
 0.3649677073962E+01
 0.3741891944831E+01
 0.3825686744056E+01
 0.3903076267514E+01
 0.3975806589217E+01
 0.4045504413231E+01
 0.4113812843835E+01
 0.4182353762856E+01
 0.6713723145933E+00
 0.1140553275999E+01
 0.1552908305155E+01
 0.1913314261648E+01
 0.2227705464406E+01
 0.2501298171992E+01
 0.2738526468139E+01
 0.2943245728365E+01
 0.3119038680834E+01
 0.3269522314072E+01
 0.3398472546099E+01
 0.3509655534454E+01
 0.3606514627047E+01
 0.3691948462161E+01
 0.3768270578305E+01
 0.3837307128604E+01
 0.3900559413043E+01
 0.3959391826439E+01
 0.4015243521873E+01
 0.4069673582601E+01
 0.6852622145491E+00
 0.1146958968207E+01
 0.1553667019369E+01
 0.1909547753412E+01
 0.2219960519064E+01
 0.2489748160108E+01
 0.2723084432665E+01
 0.2923620998296E+01
 0.3094779101971E+01
 0.3240074175632E+01
 0.3363253912101E+01
 0.3468104152488E+01
 0.3558083577469E+01
 0.3636052651722E+01
 0.3704203614084E+01
 0.3764153084551E+01
 0.3817121506596E+01
 0.3864162917091E+01
 0.3906467881551E+01
 0.3945504213229E+01
 0.7008989057936E+00
 0.1154395668823E+01
 0.1554865597180E+01
 0.1905700680381E+01
 0.2211647237906E+01
 0.2477151924431E+01
 0.2706112341607E+01
 0.2901962241609E+01
 0.3067949131088E+01
 0.3207482857431E+01
 0.3324291842855E+01
 0.3422199067472E+01
 0.3504695885366E+01
 0.3574614996037E+01
 0.3634025890335E+01
 0.3684318677799E+01
 0.3726397681158E+01
 0.3760953902100E+01
 0.3788878104798E+01
 0.3811501464357E+01
 0.7182898938396E+00
 0.1162947210695E+01
 0.1556626539653E+01
 0.1901910429034E+01
 0.2202904556274E+01
 0.2463644518136E+01
 0.2687742055163E+01
 0.2878403142703E+01
 0.3038692068966E+01
 0.3171911706501E+01
 0.3281783822645E+01
 0.3372190004138E+01
 0.3446675619677E+01
 0.3508060820796E+01
 0.3558296853157E+01
 0.3598536051581E+01
 0.3629333280682E+01
 0.3650957476766E+01
 0.3663936941089E+01
 0.3669421195620E+01
 0.7374456057236E+00
 0.1172707787730E+01
 0.1559086574436E+01
 0.1898330169751E+01
 0.2193886471880E+01
 0.2449373692535E+01
 0.2668115133385E+01
 0.2853084345710E+01
 0.3007156190383E+01
 0.3133528064667E+01
 0.3235931426210E+01
 0.3318331420779E+01
 0.3384351805897E+01
 0.3436819854964E+01
 0.3477580288711E+01
 0.3507544965784E+01
 0.3526890559898E+01
 0.3535397950636E+01
 0.3533156669261E+01
 0.3521100188706E+01
 0.7583798012960E+00
 0.1183781902961E+01
 0.1562397095063E+01
 0.1895129717901E+01
 0.2184762661809E+01
 0.2434499665411E+01
 0.2647381450605E+01
 0.2826150862703E+01
 0.2973491081500E+01
 0.3092498862267E+01
 0.3186935588614E+01
 0.3260877474192E+01
 0.3318052083837E+01
 0.3361316444374E+01
 0.3392428789852E+01
 0.3412070791994E+01
 0.3420022224437E+01
 0.3415504517130E+01
 0.3398078862370E+01
 0.3368438264614E+01
 0.7811096116478E+00
 0.1196284003345E+01
 0.1566724924524E+01
 0.1892497047540E+01
 0.2175719636689E+01
 0.2419195152874E+01
 0.2625697786767E+01
 0.2797749155978E+01
 0.2937843364522E+01
 0.3048985508929E+01
 0.3134991519860E+01
 0.3200077563046E+01
 0.3248098118721E+01
 0.3281961940964E+01
 0.3303368953531E+01
 0.3312800423048E+01
 0.3309640860142E+01
 0.3292479727801E+01
 0.3260241629204E+01
 0.3213360958011E+01
 0.8056547879250E+00
 0.1210337638926E+01
 0.1572253793125E+01
 0.1890640850431E+01
 0.2166962592483E+01
 0.2403645711961E+01
 0.2603226480437E+01
 0.2768023883896E+01
 0.2900351616704E+01
 0.3003137719302E+01
 0.3080282825545E+01
 0.3136172201425E+01
 0.3174803515491E+01
 0.3199151355512E+01
 0.3210889573615E+01
 0.3210355604147E+01
 0.3196580657114E+01
 0.3167459964657E+01
 0.3121140404883E+01
 0.3057766960048E+01
 0.8320351893097E+00
 0.1226074029911E+01
 0.1579187337868E+01
 0.1889794783227E+01
 0.2158717818007E+01
 0.2388050403247E+01
 0.2580134317663E+01
 0.2737114409676E+01
 0.2861140212091E+01
 0.2955085843480E+01
 0.3022974334836E+01
 0.3069388576706E+01
 0.3098474257015E+01
 0.3113267806358E+01
 0.3115438564649E+01
 0.3105266260125E+01
 0.3081544243005E+01
 0.3041460845424E+01
 0.2982194334536E+01
 0.2903510233345E+01
 0.8602646428564E+00
 0.1243629790132E+01
 0.1587756650300E+01
 0.1890223737924E+01
 0.2151235284457E+01
 0.2372622425160E+01
 0.2556592601147E+01
 0.2705151127191E+01
 0.2820311590444E+01
 0.2904931101448E+01
 0.2963203009390E+01
 0.2999934822681E+01
 0.3019409539426E+01
 0.3024695059117E+01
 0.3017442434265E+01
 0.2997954347883E+01
 0.2965025650602E+01
 0.2915276517367E+01
 0.2844715721890E+01
 0.2752484227952E+01
 0.8903343407521E+00
 0.1263149659916E+01
 0.1598235974251E+01
 0.1892235271954E+01
 0.2144785176063E+01
 0.2357592370879E+01
 0.2532779297132E+01
 0.2672251722863E+01
 0.2777935990507E+01
 0.2852732572401E+01
 0.2901066961719E+01
 0.2927992217082E+01
 0.2937900450339E+01
 0.2933830834530E+01
 0.2917352674078E+01
 0.2888790885335E+01
 0.2847205220187E+01
 0.2789255647170E+01
 0.2709812397120E+01
 0.2606889388110E+01
 0.9221733298461E+00
 0.1284777424564E+01
 0.1611025224005E+01
 0.1896156570313E+01
 0.2139656448581E+01
 0.2343215710885E+01
 0.2508885247081E+01
 0.2638518044766E+01
 0.2734036914354E+01
 0.2798489071483E+01
 0.2836612563176E+01
 0.2853709216836E+01
 0.2854221659517E+01
 0.2841092307862E+01
 0.2815690839537E+01
 0.2778250918548E+01
 0.2728110872218E+01
 0.2662695926960E+01
 0.2577865083418E+01
 0.2469953426141E+01
 0.9553199050804E+00
 0.1309200778847E+01
 0.1626584489732E+01
 0.1902300876821E+01
 0.2136165871696E+01
 0.2329782231864E+01
 0.2485127421842E+01
 0.2604037978794E+01
 0.2688565474809E+01
 0.2742109749835E+01
 0.2769822909545E+01
 0.2777197249016E+01
 0.2768629604188E+01
 0.2746880981242E+01
 0.2713072004473E+01
 0.2667045294658E+01
 0.2608161111767E+01
 0.2534355768297E+01
 0.2445494989798E+01
 0.2350040700096E+01
 0.3358037020866E+01
 0.2607469802247E+01
 0.1784116832116E+01
 0.1392973042324E+01
 0.1078990528725E+01
 0.7732482070208E+00
 0.4688352223627E+00
 0.2107351713200E+00
 0.2330612984548E-01
 0.1086948580481E+00
 0.2029052445344E+00
 0.2695833205073E+00
 0.3122052761406E+00
 0.3305692493962E+00
 0.3231400946566E+00
 0.2904248611993E+00
 0.2359026777883E+00
 0.1603022775731E+00
 0.7752457013651E-01
 0.5624865437459E-02
 0.3023169581630E+01
 0.2846522653645E+01
 0.2013216986004E+01
 0.1550237233390E+01
 0.1230772661418E+01
 0.9379456833903E+00
 0.6528489337059E+00
 0.3882391226418E+00
 0.1735441075947E+00
 0.2356923198400E-01
 0.9487922731929E-01
 0.1848120371936E+00
 0.2474867749238E+00
 0.2838458784815E+00
 0.2937950376001E+00
 0.2760369691654E+00
 0.2318433554717E+00
 0.1655822237499E+00
 0.8473934000175E-01
 0.3672281373715E-02
 0.2736071807629E+01
 0.2820998270170E+01
 0.2204924923672E+01
 0.1714779932613E+01
 0.1382482147559E+01
 0.1099572435549E+01
 0.8278795609819E+00
 0.5652023182313E+00
 0.3341207159105E+00
 0.1617424625207E+00
 0.2812589390031E-01
 0.8269353981505E-01
 0.1662978300826E+00
 0.2227967751935E+00
 0.2518526316491E+00
 0.2519123708962E+00
 0.2228741932724E+00
 0.1682807226781E+00
 0.9147977496686E-01
 0.3920085432383E-02
 0.2500891670482E+01
 0.2721623217162E+01
 0.2309288275840E+01
 0.1872258783563E+01
 0.1534579222065E+01
 0.1257715716277E+01
 0.9972106470559E+00
 0.7398200184306E+00
 0.5006700235911E+00
 0.3105088378226E+00
 0.1607690493025E+00
 0.3495573252030E-01
 0.6861567675179E-01
 0.1456900328126E+00
 0.1954449620935E+00
 0.2158065971517E+00
 0.2052704149365E+00
 0.1662233754846E+00
 0.9746284610301E-01
 0.5169793849793E-02
 0.2304637427732E+01
 0.2600813073815E+01
 0.2352595821819E+01
 0.2000392574993E+01
 0.1682784385242E+01
 0.1412683644932E+01
 0.1161972182809E+01
 0.9118098602505E+00
 0.6703999767467E+00
 0.4680204417841E+00
 0.3047904484367E+00
 0.1648567705270E+00
 0.4496165635820E-01
 0.5194458303161E-01
 0.1228846207818E+00
 0.1652313548818E+00
 0.1761027366922E+00
 0.1565687481032E+00
 0.1010908937948E+00
 0.1142864522866E-01
 0.2137562631159E+01
 0.2476980514217E+01
 0.2356853212116E+01
 0.2095853719669E+01
 0.1818158161260E+01
 0.1563114339853E+01
 0.1322657144715E+01
 0.1081054741454E+01
 0.8416336961883E+00
 0.6322558559131E+00
 0.4586239810169E+00
 0.3071832487401E+00
 0.1729161929839E+00
 0.5843001702505E-01
 0.3305259030284E-01
 0.9801085981110E-01
 0.1323732975573E+00
 0.1359669346134E+00
 0.9930831221304E-01
 0.2032009614063E-01
 0.1992898902763E+01
 0.2357146868324E+01
 0.2336552411094E+01
 0.2162079814438E+01
 0.1935471281780E+01
 0.1705311280762E+01
 0.1478754499711E+01
 0.1247372859785E+01
 0.1013231058837E+01
 0.8013985833372E+00
 0.6208041193346E+00
 0.4605575584735E+00
 0.3147230029960E+00
 0.1850346719322E+00
 0.7479364454897E-01
 0.1287934025309E-01
 0.7123243358221E-01
 0.1005750690967E+00
 0.8771832824534E-01
 0.2660139966975E-01
 0.1865884476021E+01
 0.2243934005571E+01
 0.2300903520573E+01
 0.2204102012463E+01
 0.2032983838121E+01
 0.1835741127800E+01
 0.1628455184686E+01
 0.1410138462091E+01
 0.1184253495424E+01
 0.9738946419311E+00
 0.7898006478554E+00
 0.6236641714100E+00
 0.4692407013941E+00
 0.3272929476123E+00
 0.2007299670441E+00
 0.9342525966281E-01
 0.1241232470069E-01
 0.4660909712893E-01
 0.6108379891943E-01
 0.2388412154168E-01
 0.1753071126326E+01
 0.2138112287581E+01
 0.2255777873768E+01
 0.2226731547357E+01
 0.2111081650664E+01
 0.1952014849463E+01
 0.1769445368466E+01
 0.1568027755516E+01
 0.1353631243738E+01
 0.1148326277171E+01
 0.9640926700158E+00
 0.7950746167591E+00
 0.6351928852717E+00
 0.4842861984307E+00
 0.3445938708771E+00
 0.2195231573767E+00
 0.1145181830157E+00
 0.3266105910044E-01
 0.1605461118321E-01
 0.9024600917146E-02
 0.1651886874709E+01
 0.2039639920263E+01
 0.2204958484009E+01
 0.2234045442551E+01
 0.2171217358260E+01
 0.2052949039828E+01
 0.1899591853502E+01
 0.1719229671975E+01
 0.1519928226786E+01
 0.1323211784527E+01
 0.1142126788801E+01
 0.9732548170974E+00
 0.8111066066122E+00
 0.6547674070555E+00
 0.5056570271936E+00
 0.3664485640363E+00
 0.2420434416382E+00
 0.1348831538784E+00
 0.6224077032965E-01
 0.4234472687461E-01
 0.1560361729361E+01
 0.1948120127048E+01
 0.2150905940472E+01
 0.2229333399419E+01
 0.2215266116182E+01
 0.2138305387831E+01
 0.2017280168718E+01
 0.1861805411631E+01
 0.1681352491189E+01
 0.1496843483276E+01
 0.1322218588957E+01
 0.1156531164608E+01
 0.9953001116377E+00
 0.8371449156958E+00
 0.6826667947777E+00
 0.5336211681259E+00
 0.3940298248479E+00
 0.2659881042570E+00
 0.1658349126191E+00
 0.1160603282256E+00
 0.1476952267103E+01
 0.1863012335449E+01
 0.2095227580470E+01
 0.2215190264087E+01
 0.2245172573589E+01
 0.2208485732408E+01
 0.2121493993701E+01
 0.1993983297069E+01
 0.1835929186287E+01
 0.1667260682765E+01
 0.1502474812453E+01
 0.1343039689268E+01
 0.1185860195717E+01
 0.1029471358313E+01
 0.8738156402773E+00
 0.7196880055029E+00
 0.5699595162034E+00
 0.4261104084042E+00
 0.3026535056973E+00
 0.2250738661335E+00
 0.1400426774985E+01
 0.1783732759040E+01
 0.2038969249186E+01
 0.2193638980884E+01
 0.2262773014274E+01
 0.2264277220433E+01
 0.2211757694368E+01
 0.2114328653638E+01
 0.1981709560371E+01
 0.1832341920641E+01
 0.1680791747673E+01
 0.1530702827316E+01
 0.1380629816232E+01
 0.1229443325415E+01
 0.1076731541310E+01
 0.9224594810244E+00
 0.7682128143426E+00
 0.6145638336400E+00
 0.4731997067824E+00
 0.3713895336394E+00
 0.1329788106945E+01
 0.1709703011303E+01
 0.1982800400131E+01
 0.2166245030951E+01
 0.2269715997549E+01
 0.2306665624873E+01
 0.2288026088787E+01
 0.2221804676851E+01
 0.2116937711310E+01
 0.1989948810981E+01
 0.1854927740449E+01
 0.1717261993397E+01
 0.1577236727949E+01
 0.1434437093884E+01
 0.1288503945918E+01
 0.1138894307253E+01
 0.9859822127037E+00
 0.8291815915535E+00
 0.6763399326871E+00
 0.5549286364490E+00
 0.1264220719484E+01
 0.1640373925237E+01
 0.1927134150288E+01
 0.2134211731333E+01
 0.2267435696648E+01
 0.2336708279159E+01
 0.2350567296446E+01
 0.2315761531464E+01
 0.2240149525721E+01
 0.2138060168693E+01
 0.2022609590511E+01
 0.1900357521724E+01
 0.1773178358019E+01
 0.1641613049806E+01
 0.1505780796856E+01
 0.1365141451821E+01
 0.1219233063230E+01
 0.1066251947362E+01
 0.9091427255847E+00
 0.7733774373116E+00
 0.1203054114258E+01
 0.1575237920098E+01
 0.1872207117505E+01
 0.2098456001465E+01
 0.2257151912637E+01
 0.2355451638867E+01
 0.2399858925626E+01
 0.2395888079662E+01
 0.2350211280272E+01
 0.2274864941812E+01
 0.2181626886660E+01
 0.2077615254521E+01
 0.1965940729822E+01
 0.1848107304450E+01
 0.1725001114225E+01
 0.1596694964941E+01
 0.1462700681206E+01
 0.1320418558005E+01
 0.1166968347301E+01
 0.1022450702481E+01
 0.1145737987576E+01
 0.1513836810994E+01
 0.1818132747966E+01
 0.2059667618457E+01
 0.2239882616408E+01
 0.2363879489680E+01
 0.2436502804053E+01
 0.2462150292791E+01
 0.2446320017623E+01
 0.2398814138897E+01
 0.2329889362449E+01
 0.2246686903055E+01
 0.2153078520923E+01
 0.2051260472902E+01
 0.1942837016193E+01
 0.1828854413617E+01
 0.1709977547454E+01
 0.1584433273275E+01
 0.1443368138006E+01
 0.1296412622963E+01
 0.1091829749162E+01
 0.1455765977201E+01
 0.1764936163979E+01
 0.2018353105975E+01
 0.2216465556919E+01
 0.2362880125179E+01
 0.2461153836825E+01
 0.2514727077781E+01
 0.2527987361038E+01
 0.2508655150313E+01
 0.2465460686574E+01
 0.2405222334810E+01
 0.2332144600301E+01
 0.2248698757595E+01
 0.2156711846726E+01
 0.2057869085612E+01
 0.1954374253834E+01
 0.1848407375630E+01
 0.1729406909955E+01
 0.1588547410498E+01
 0.1040996555569E+01
 0.1400695283061E+01
 0.1712536641805E+01
 0.1974885703064E+01
 0.2187589232807E+01
 0.2353226653751E+01
 0.2474452951373E+01
 0.2553937997437E+01
 0.2595016879751E+01
 0.2603477688394E+01
 0.2586625018218E+01
 0.2550833985839E+01
 0.2500446482594E+01
 0.2437940504815E+01
 0.2364814607921E+01
 0.2282218610299E+01
 0.2192557355199E+01
 0.2101141777754E+01
 0.2008516930099E+01
 0.1891308437487E+01
 0.9932208306211E+00
 0.1348072658264E+01
 0.1660780382105E+01
 0.1929565254736E+01
 0.2153831597336E+01
 0.2335583300335E+01
 0.2476957569539E+01
 0.2580130353534E+01
 0.2647455636930E+01
 0.2682793647755E+01
 0.2692050196263E+01
 0.2681216518529E+01
 0.2654849467875E+01
 0.2615584261921E+01
 0.2564550351120E+01
 0.2501820950582E+01
 0.2427592915515E+01
 0.2344924748278E+01
 0.2258176681767E+01
 0.2180526035586E+01
 0.9932208445345E+00
 0.1348072668028E+01
 0.1660780387810E+01
 0.1929565257185E+01
 0.2153831597373E+01
 0.2335583298790E+01
 0.2476957567142E+01
 0.2580130350867E+01
 0.2647455634375E+01
 0.2682793645548E+01
 0.2692050194521E+01
 0.2681216517249E+01
 0.2654849466981E+01
 0.2615584261316E+01
 0.2564550350732E+01
 0.2501820950371E+01
 0.2427592915542E+01
 0.2344924748772E+01
 0.2258176682370E+01
 0.2180526036252E+01
 0.1040996569697E+01
 0.1400695293446E+01
 0.1712536648183E+01
 0.1974885706092E+01
 0.2187589233269E+01
 0.2353226652450E+01
 0.2474452949022E+01
 0.2553937994609E+01
 0.2595016876857E+01
 0.2603477685724E+01
 0.2586625015930E+01
 0.2550833983957E+01
 0.2500446481059E+01
 0.2437940503547E+01
 0.2364814606880E+01
 0.2282218609502E+01
 0.2192557354801E+01
 0.2101141777963E+01
 0.2008516930104E+01
 0.1891308437873E+01
 0.1091829763530E+01
 0.1455765988189E+01
 0.1764936170980E+01
 0.2018353109496E+01
 0.2216465557683E+01
 0.2362880123969E+01
 0.2461153834343E+01
 0.2514727074601E+01
 0.2527987357610E+01
 0.2508655147002E+01
 0.2465460683591E+01
 0.2405222332205E+01
 0.2332144598033E+01
 0.2248698755601E+01
 0.2156711844989E+01
 0.2057869084162E+01
 0.1954374252760E+01
 0.1848407374892E+01
 0.1729406908810E+01
 0.1588547410688E+01
 0.1145738002197E+01
 0.1513836822591E+01
 0.1818132755530E+01
 0.2059667622369E+01
 0.2239882617334E+01
 0.2363879488393E+01
 0.2436502801260E+01
 0.2462150289075E+01
 0.2446320013489E+01
 0.2398814134803E+01
 0.2329889358669E+01
 0.2246686899663E+01
 0.2153078517882E+01
 0.2051260470153E+01
 0.1942837013703E+01
 0.1828854411366E+01
 0.1709977545411E+01
 0.1584433271262E+01
 0.1443368135729E+01
 0.1296412622932E+01
 0.1203054129137E+01
 0.1575237932300E+01
 0.1872207125564E+01
 0.2098456005643E+01
 0.2257151913567E+01
 0.2355451637328E+01
 0.2399858922345E+01
 0.2395888075246E+01
 0.2350211275294E+01
 0.2274864936841E+01
 0.2181626882036E+01
 0.2077615250325E+01
 0.1965940726006E+01
 0.1848107300932E+01
 0.1725001110929E+01
 0.1596694961780E+01
 0.1462700678076E+01
 0.1320418554699E+01
 0.1166968344063E+01
 0.1022450702204E+01
 0.1264220734624E+01
 0.1640373938024E+01
 0.1927134158749E+01
 0.2134211735630E+01
 0.2267435697405E+01
 0.2336708277189E+01
 0.2350567292513E+01
 0.2315761526211E+01
 0.2240149519801E+01
 0.2138060162799E+01
 0.2022609585042E+01
 0.1900357516749E+01
 0.1773178353457E+01
 0.1641613045535E+01
 0.1505780792751E+01
 0.1365141447752E+01
 0.1219233059066E+01
 0.1066251942935E+01
 0.9091427216627E+00
 0.7733774368356E+00
 0.1329788122342E+01
 0.1709703024634E+01
 0.1982800408880E+01
 0.2166245035197E+01
 0.2269715997942E+01
 0.2306665622292E+01
 0.2288026084056E+01
 0.2221804670661E+01
 0.2116937704401E+01
 0.1989948804173E+01
 0.1854927734184E+01
 0.1717261987707E+01
 0.1577236722702E+01
 0.1434437088920E+01
 0.1288503941073E+01
 0.1138894302384E+01
 0.9859822076980E+00
 0.8291815863076E+00
 0.6763399284451E+00
 0.5549286359246E+00
 0.1400426790628E+01
 0.1783732772853E+01
 0.2038969258074E+01
 0.2193638984882E+01
 0.2262773014104E+01
 0.2264277217076E+01
 0.2211757688731E+01
 0.2114328646461E+01
 0.1981709552480E+01
 0.1832341912979E+01
 0.1680791740704E+01
 0.1530702821009E+01
 0.1380629810400E+01
 0.1229443319864E+01
 0.1076731535863E+01
 0.9224594755543E+00
 0.7682128087839E+00
 0.6145638279675E+00
 0.4731997026485E+00
 0.3713895333252E+00
 0.1476952282971E+01
 0.1863012349655E+01
 0.2095227589315E+01
 0.2215190267611E+01
 0.2245172572649E+01
 0.2208485728132E+01
 0.2121493987093E+01
 0.1993983288911E+01
 0.1835929177478E+01
 0.1667260674359E+01
 0.1502474804906E+01
 0.1343039682471E+01
 0.1185860189429E+01
 0.1029471352325E+01
 0.8738156344200E+00
 0.7196879996946E+00
 0.5699595104438E+00
 0.4261104027506E+00
 0.3026535021307E+00
 0.2250738663689E+00
 0.1560361745418E+01
 0.1948120141524E+01
 0.2150905949051E+01
 0.2229333402221E+01
 0.2215266114275E+01
 0.2138305382535E+01
 0.2017280161135E+01
 0.1861805402561E+01
 0.1681352481580E+01
 0.1496843474274E+01
 0.1322218580986E+01
 0.1156531157469E+01
 0.9953001050501E+00
 0.8371449094547E+00
 0.6826667887430E+00
 0.5336211622804E+00
 0.3940298192684E+00
 0.2659880990840E+00
 0.1658349100657E+00
 0.1160603293770E+00
 0.1651886890901E+01
 0.2039639934843E+01
 0.2204958492052E+01
 0.2234045444359E+01
 0.2171217355213E+01
 0.2052949033471E+01
 0.1899591845014E+01
 0.1719229662122E+01
 0.1519928216538E+01
 0.1323211775103E+01
 0.1142126780576E+01
 0.9732548097808E+00
 0.8111065998976E+00
 0.6547674007639E+00
 0.5056570212335E+00
 0.3664485584663E+00
 0.2420434366153E+00
 0.1348831496253E+00
 0.6224076917384E-01
 0.4234472920644E-01
 0.1753071142572E+01
 0.2138112302046E+01
 0.2255777880946E+01
 0.2226731547890E+01
 0.2111081646352E+01
 0.1952014842085E+01
 0.1769445359218E+01
 0.1568027745060E+01
 0.1353631233039E+01
 0.1148326267517E+01
 0.9640926617162E+00
 0.7950746094351E+00
 0.6351928786121E+00
 0.4842861922997E+00
 0.3445938652448E+00
 0.2195231523813E+00
 0.1145181788928E+00
 0.3266105624342E-01
 0.1605461076692E-01
 0.9024599368359E-02
 0.1865884492204E+01
 0.2243934019633E+01
 0.2300903526500E+01
 0.2204102011449E+01
 0.2032983832504E+01
 0.1835741119548E+01
 0.1628455174893E+01
 0.1410138451238E+01
 0.1184253484474E+01
 0.9738946322474E+00
 0.7898006396653E+00
 0.6236641642508E+00
 0.4692406949710E+00
 0.3272929418475E+00
 0.2007299619756E+00
 0.9342525550782E-01
 0.1241232223509E-01
 0.4660909858533E-01
 0.6108379667983E-01
 0.2388411605768E-01
 0.1992898918718E+01
 0.2357146881598E+01
 0.2336552415318E+01
 0.2162079811657E+01
 0.1935471274947E+01
 0.1705311271891E+01
 0.1478754489633E+01
 0.1247372848741E+01
 0.1013231047837E+01
 0.8013985738344E+00
 0.6208041114398E+00
 0.4605575516453E+00
 0.3147229969804E+00
 0.1850346667202E+00
 0.7479364024853E-01
 0.1287934325125E-01
 0.7123243521728E-01
 0.1005750689212E+00
 0.8771832430340E-01
 0.2660139258029E-01
 0.2137562646647E+01
 0.2476980526183E+01
 0.2356853214130E+01
 0.2095853715020E+01
 0.1818158153483E+01
 0.1563114330715E+01
 0.1322657134605E+01
 0.1081054730404E+01
 0.8416336853497E+00
 0.6322558468192E+00
 0.4586239735963E+00
 0.3071832423918E+00
 0.1729161875253E+00
 0.5843001252236E-01
 0.3305259368541E-01
 0.9801086176445E-01
 0.1323732977726E+00
 0.1359669328114E+00
 0.9930830681474E-01
 0.2032008786528E-01
 0.2304637442396E+01
 0.2600813083762E+01
 0.2352595821114E+01
 0.2000392568624E+01
 0.1682784377010E+01
 0.1412683635902E+01
 0.1161972172866E+01
 0.9118098493650E+00
 0.6703999663173E+00
 0.4680204333426E+00
 0.3047904416452E+00
 0.1648567647782E+00
 0.4496165158462E-01
 0.5194458669793E-01
 0.1228846231348E+00
 0.1652313555972E+00
 0.1761027355045E+00
 0.1565687448244E+00
 0.1010908873220E+00
 0.1142863652972E-01
 0.2500891683766E+01
 0.2721623224101E+01
 0.2309288272054E+01
 0.1872258776056E+01
 0.1534579214028E+01
 0.1257715707623E+01
 0.9972106374052E+00
 0.7398200079089E+00
 0.5006700138742E+00
 0.3105088302736E+00
 0.1607690432441E+00
 0.3495572749767E-01
 0.6861568074746E-01
 0.1456900355660E+00
 0.1954449633689E+00
 0.2158065966397E+00
 0.2052704124486E+00
 0.1662233709676E+00
 0.9746283901301E-01
 0.5169787554726E-02
 0.2736071818584E+01
 0.2820998272751E+01
 0.2204924917033E+01
 0.1714779925176E+01
 0.1382482140243E+01
 0.1099572427354E+01
 0.8278795517360E+00
 0.5652023083480E+00
 0.3341207072729E+00
 0.1617424560467E+00
 0.2812588871860E-01
 0.8269354412356E-01
 0.1662978332360E+00
 0.2227967769963E+00
 0.2518526318605E+00
 0.2519123692327E+00
 0.2228741896433E+00
 0.1682807171909E+00
 0.9147976771436E-01
 0.3920084861944E-02
 0.3023169588414E+01
 0.2846522650351E+01
 0.2013216978599E+01
 0.1550237227318E+01
 0.1230772654932E+01
 0.9379456756409E+00
 0.6528489250062E+00
 0.3882391138171E+00
 0.1735441004335E+00
 0.2356922673425E-01
 0.9487923187747E-01
 0.1848120406637E+00
 0.2474867771983E+00
 0.2838458793579E+00
 0.2937950368184E+00
 0.2760369664802E+00
 0.2318433508879E+00
 0.1655822175174E+00
 0.8473933295161E-01
 0.3672278855812E-02
 0.3358037020215E+01
 0.2607469796431E+01
 0.1784116827453E+01
 0.1392973037883E+01
 0.1078990523022E+01
 0.7732481996143E+00
 0.4688352143985E+00
 0.2107351643185E+00
 0.2330612432355E-01
 0.1086948626498E+00
 0.2029052481258E+00
 0.2695833230909E+00
 0.3122052775985E+00
 0.3305692494240E+00
 0.3231400929676E+00
 0.2904248576963E+00
 0.2359026724818E+00
 0.1603022706424E+00
 0.7752456338890E-01
 0.5624859972220E-02
 0.2181822371191E+01
 0.1865195607339E+01
 0.1566522871824E+01
 0.1278825386757E+01
 0.1006261883577E+01
 0.7579507645723E+00
 0.5415312604748E+00
 0.3625985263223E+00
 0.2241385848009E+00
 0.1262377137913E+00
 0.6594150400839E-01
 0.3733862663691E-01
 0.3256634653279E-01
 0.4309059365164E-01
 0.5953757265277E-01
 0.7381428504782E-01
 0.8064905399874E-01
 0.7808277201103E-01
 0.6734712335527E-01
 0.5238569525910E-01
 0.2313498193832E+01
 0.2033364658754E+01
 0.1723271200383E+01
 0.1420053530166E+01
 0.1131428904384E+01
 0.8649514274049E+00
 0.6288464146233E+00
 0.4301527038053E+00
 0.2736910301059E+00
 0.1613161715735E+00
 0.9144173105707E-01
 0.5891375639475E-01
 0.5586781305797E-01
 0.7254869337113E-01
 0.9765568912736E-01
 0.1207743936510E+00
 0.1344835494075E+00
 0.1355261977182E+00
 0.1249241437061E+00
 0.1079550824159E+00
 0.2448499500426E+01
 0.2187160094504E+01
 0.1890950276766E+01
 0.1583346295803E+01
 0.1282546427165E+01
 0.9991418728835E+00
 0.7426119753966E+00
 0.5215664052341E+00
 0.3428315118001E+00
 0.2104827082917E+00
 0.1250199750004E+00
 0.8287765798072E-01
 0.7685756703463E-01
 0.9676451705490E-01
 0.1297136575734E+00
 0.1626870077125E+00
 0.1854058086185E+00
 0.1923794135477E+00
 0.1836015575590E+00
 0.1635774966208E+00
 0.2595470489404E+01
 0.2347348194887E+01
 0.2065295862768E+01
 0.1763486316801E+01
 0.1457712704302E+01
 0.1161318419750E+01
 0.8856558740650E+00
 0.6411015726190E+00
 0.4366431930815E+00
 0.2789359171207E+00
 0.1712432127641E+00
 0.1125284341220E+00
 0.9727680100079E-01
 0.1158724086937E+00
 0.1545617268134E+00
 0.1976960534264E+00
 0.2313563428007E+00
 0.2466231952074E+00
 0.2412618467961E+00
 0.2186921869863E+00
 0.2752103364032E+01
 0.2517358201512E+01
 0.2250615805025E+01
 0.1959504342204E+01
 0.1656116361610E+01
 0.1352923676549E+01
 0.1062086239344E+01
 0.7952893217430E+00
 0.5634260651106E+00
 0.3757550998264E+00
 0.2387443105723E+00
 0.1548219374947E+00
 0.1214981104887E+00
 0.1312218185924E+00
 0.1708836589142E+00
 0.2229595291445E+00
 0.2694145224387E+00
 0.2963719084193E+00
 0.2977808625124E+00
 0.2754126031229E+00
 0.2916237440570E+01
 0.2696691893853E+01
 0.2447232565088E+01
 0.2171070699984E+01
 0.1876446375542E+01
 0.1573644495140E+01
 0.1273945166636E+01
 0.9891921877412E+00
 0.7313227630627E+00
 0.5116219053356E+00
 0.3396135140888E+00
 0.2216632367511E+00
 0.1595466961148E+00
 0.1495161210244E+00
 0.1813542880489E+00
 0.2377967157483E+00
 0.2973558498024E+00
 0.3398965562153E+00
 0.3531088839924E+00
 0.3357471449293E+00
 0.3085582425157E+01
 0.2883711310993E+01
 0.2654038626083E+01
 0.2396853634293E+01
 0.2117040637438E+01
 0.1822147416299E+01
 0.1521524101720E+01
 0.1225898877700E+01
 0.9470025267007E+00
 0.6969953341168E+00
 0.4875712507565E+00
 0.3286792024659E+00
 0.2269087251474E+00
 0.1838513925302E+00
 0.1945853031137E+00
 0.2456342312191E+00
 0.3148779441877E+00
 0.3759652524379E+00
 0.4070844642920E+00
 0.4000427487785E+00
 0.3257605177025E+01
 0.3075904815210E+01
 0.2868630921149E+01
 0.2634257988647E+01
 0.2374992571603E+01
 0.2095674611675E+01
 0.1803201887806E+01
 0.1506261770407E+01
 0.1215135082756E+01
 0.9413952871347E+00
 0.6973633372062E+00
 0.4952060877368E+00
 0.3455916921958E+00
 0.2559196819565E+00
 0.2283088482897E+00
 0.2569312939285E+00
 0.3247489382627E+00
 0.4032670337551E+00
 0.4593123594598E+00
 0.4704492003638E+00
 0.3429604585758E+01
 0.3270205990522E+01
 0.3087645253096E+01
 0.2879405886605E+01
 0.2645764426903E+01
 0.2389243754086E+01
 0.2114287257700E+01
 0.1827134968578E+01
 0.1535788900529E+01
 0.1249954716623E+01
 0.9808553499839E+00
 0.7408088390172E+00
 0.5424503136921E+00
 0.3974728582950E+00
 0.3148144357603E+00
 0.2981222257808E+00
 0.3416045219672E+00
 0.4245806648243E+00
 0.5089504842035E+00
 0.5508104390884E+00
 0.3598834010851E+01
 0.3463312397484E+01
 0.3307203734645E+01
 0.3127600666063E+01
 0.2923561999806E+01
 0.2695882206640E+01
 0.2446937310190E+01
 0.2180653123555E+01
 0.1902556273899E+01
 0.1619851914659E+01
 0.1341468003262E+01
 0.1077998725413E+01
 0.8414619890946E+00
 0.6447562783693E+00
 0.5006666905432E+00
 0.4202148861360E+00
 0.4097544957792E+00
 0.4653177268010E+00
 0.5626030003302E+00
 0.6464967639254E+00
 0.3762653915391E+01
 0.3651998871257E+01
 0.3523375515528E+01
 0.3373913178011E+01
 0.3202045204880E+01
 0.3007449419708E+01
 0.2791006597073E+01
 0.2554822261852E+01
 0.2302310139552E+01
 0.2038316268128E+01
 0.1769256517324E+01
 0.1503235300073E+01
 0.1250104190957E+01
 0.1021401369413E+01
 0.8300819235452E+00
 0.6898925019126E+00
 0.6140903403836E+00
 0.6125513339687E+00
 0.6848907989104E+00
 0.7990950088261E+00
 0.3918544231984E+01
 0.3833135462718E+01
 0.3732323712895E+01
 0.3613547321132E+01
 0.3475030078820E+01
 0.3315831560280E+01
 0.3135879003145E+01
 0.2936026658150E+01
 0.2718156862538E+01
 0.2485321589022E+01
 0.2241917071048E+01
 0.1993881984566E+01
 0.1748908325380E+01
 0.1516652070007E+01
 0.1308927114898E+01
 0.1139862071187E+01
 0.1025984184451E+01
 0.9861462492546E+00
 0.1040803995530E+01
 0.1210760576037E+01
 0.4064027185919E+01
 0.4003491328619E+01
 0.3930038969310E+01
 0.3841536940078E+01
 0.3736248855674E+01
 0.3612951647408E+01
 0.3471011669651E+01
 0.3310467960825E+01
 0.3132143963819E+01
 0.2937796929442E+01
 0.2730309666206E+01
 0.2513929205222E+01
 0.2294560187930E+01
 0.2080127849056E+01
 0.1881039446035E+01
 0.1710801222934E+01
 0.1586913934892E+01
 0.1532315806880E+01
 0.1578147168441E+01
 0.1770769277933E+01
 0.4196777087155E+01
 0.4159935831991E+01
 0.4112542809270E+01
 0.4052909345204E+01
 0.3979466241202E+01
 0.3890905291514E+01
 0.3786273460009E+01
 0.3665061744673E+01
 0.3527311137256E+01
 0.3373748595001E+01
 0.3205962266358E+01
 0.3026625306854E+01
 0.2839780926377E+01
 0.2651208538226E+01
 0.2468904284201E+01
 0.2303734374426E+01
 0.2170366009756E+01
 0.2088673895535E+01
 0.2085981095880E+01
 0.2199914684272E+01
 0.4314684722947E+01
 0.4299611638119E+01
 0.4276172618487E+01
 0.4243083240300E+01
 0.4198989466680E+01
 0.4142604662362E+01
 0.4072801430030E+01
 0.3988690805205E+01
 0.3889708286460E+01
 0.3775719070211E+01
 0.3647151486709E+01
 0.3505166715121E+01
 0.3351873778646E+01
 0.3190601452541E+01
 0.3026243275138E+01
 0.2865698086177E+01
 0.2718434306358E+01
 0.2597195096120E+01
 0.2518727006268E+01
 0.2504230168362E+01
 0.4415888903034E+01
 0.4419997431295E+01
 0.4417684096506E+01
 0.4408002174547E+01
 0.4389810147040E+01
 0.4361888378768E+01
 0.4323015524931E+01
 0.4272027795711E+01
 0.4207876131814E+01
 0.4129691116523E+01
 0.4036862276724E+01
 0.3929136469422E+01
 0.3806738605542E+01
 0.3670516324607E+01
 0.3522107359982E+01
 0.3364122342148E+01
 0.3200322494370E+01
 0.3035742125614E+01
 0.2876684286209E+01
 0.2730542979869E+01
 0.4498802346071E+01
 0.4518945579849E+01
 0.4534307170042E+01
 0.4544204483200E+01
 0.4547677553856E+01
 0.4543581251443E+01
 0.4530640568350E+01
 0.4507485408268E+01
 0.4472675847161E+01
 0.4424724901733E+01
 0.4362122996423E+01
 0.4283366012017E+01
 0.4186986410967E+01
 0.4071583751810E+01
 0.3935846041432E+01
 0.3778545754667E+01
 0.3598483428153E+01
 0.3394343560155E+01
 0.3164440858167E+01
 0.2906364571883E+01
 0.4562132848266E+01
 0.4594708712978E+01
 0.4623784005166E+01
 0.4648869260137E+01
 0.4669142950222E+01
 0.4683522452234E+01
 0.4690698864063E+01
 0.4689148270063E+01
 0.4677127624003E+01
 0.4652660194073E+01
 0.4613513134338E+01
 0.4557167815257E+01
 0.4480781657791E+01
 0.4381137995810E+01
 0.4254577638401E+01
 0.4096902286255E+01
 0.3903236601115E+01
 0.3667833203821E+01
 0.3383792899557E+01
 0.3042706924072E+01
 0.4604900451107E+01
 0.4645960620664E+01
 0.4684398278613E+01
 0.4719851399826E+01
 0.4751590708995E+01
 0.4778576592509E+01
 0.4799478475332E+01
 0.4812667942060E+01
 0.4816192357997E+01
 0.4807732748109E+01
 0.4784547772802E+01
 0.4743404402776E+01
 0.4680495150408E+01
 0.4591341416799E+01
 0.4470682786858E+01
 0.4312353313836E+01
 0.4109148267887E+01
 0.3852687288546E+01
 0.3533282781972E+01
 0.3139740940198E+01
 0.4626448740579E+01
 0.4671810567320E+01
 0.4714995702820E+01
 0.4755706496993E+01
 0.4793259743706E+01
 0.4826637530676E+01
 0.4854498451045E+01
 0.4875160920423E+01
 0.4886564832142E+01
 0.4886214831392E+01
 0.4871106847824E+01
 0.4837638799437E+01
 0.4781506491691E+01
 0.4697586815500E+01
 0.4579812683719E+01
 0.4421048145946E+01
 0.4212978517393E+01
 0.3946041630945E+01
 0.3609449253993E+01
 0.3191441327506E+01
 0.4626448740797E+01
 0.4671810567782E+01
 0.4714995703568E+01
 0.4755706498077E+01
 0.4793259745180E+01
 0.4826637532599E+01
 0.4854498453477E+01
 0.4875160923423E+01
 0.4886564835765E+01
 0.4886214835682E+01
 0.4871106852808E+01
 0.4837638805112E+01
 0.4781506498019E+01
 0.4697586822387E+01
 0.4579812691006E+01
 0.4421048153388E+01
 0.4212978524645E+01
 0.3946041637555E+01
 0.3609449259406E+01
 0.3191441331111E+01
 0.4604900451761E+01
 0.4645960622040E+01
 0.4684398280842E+01
 0.4719851403054E+01
 0.4751590713385E+01
 0.4778576598233E+01
 0.4799478482571E+01
 0.4812667950989E+01
 0.4816192368778E+01
 0.4807732760871E+01
 0.4784547787624E+01
 0.4743404419656E+01
 0.4680495169229E+01
 0.4591341437290E+01
 0.4470682808545E+01
 0.4312353335991E+01
 0.4109148289476E+01
 0.3852687308190E+01
 0.3533282797927E+01
 0.3139740950408E+01
 0.4562132849349E+01
 0.4594708715245E+01
 0.4623784008832E+01
 0.4648869265442E+01
 0.4669142957430E+01
 0.4683522461628E+01
 0.4690698875936E+01
 0.4689148284701E+01
 0.4677127641669E+01
 0.4652660214978E+01
 0.4613513158609E+01
 0.4557167842893E+01
 0.4480781688609E+01
 0.4381138029378E+01
 0.4254577673956E+01
 0.4096902322612E+01
 0.3903236636561E+01
 0.3667833236013E+01
 0.3383792925423E+01
 0.3042706939721E+01
 0.4498802347571E+01
 0.4518945582969E+01
 0.4534307175072E+01
 0.4544204490468E+01
 0.4547677563722E+01
 0.4543581264292E+01
 0.4530640584578E+01
 0.4507485428261E+01
 0.4472675871268E+01
 0.4424724930238E+01
 0.4362123029495E+01
 0.4283366049657E+01
 0.4186986452939E+01
 0.4071583797548E+01
 0.3935846089932E+01
 0.3778545804348E+01
 0.3598483476687E+01
 0.3394343604268E+01
 0.3164440893412E+01
 0.2906364592386E+01
 0.4415888904931E+01
 0.4419997435211E+01
 0.4417684102800E+01
 0.4408002183624E+01
 0.4389810159345E+01
 0.4361888394776E+01
 0.4323015545123E+01
 0.4272027820553E+01
 0.4207876161724E+01
 0.4129691151832E+01
 0.4036862317626E+01
 0.3929136515912E+01
 0.3806738657337E+01
 0.3670516381042E+01
 0.3522107419881E+01
 0.3364122403656E+01
 0.3200322554723E+01
 0.3035742180834E+01
 0.2876684330718E+01
 0.2730543006028E+01
 0.4314684725212E+01
 0.4299611642752E+01
 0.4276172625905E+01
 0.4243083250977E+01
 0.4198989481133E+01
 0.4142604681133E+01
 0.4072801453663E+01
 0.3988690834215E+01
 0.3889708321296E+01
 0.3775719111216E+01
 0.3647151534067E+01
 0.3505166768794E+01
 0.3351873838295E+01
 0.3190601517433E+01
 0.3026243344018E+01
 0.2865698157107E+01
 0.2718434376487E+01
 0.2597195161336E+01
 0.2518727060650E+01
 0.2504230203401E+01
 0.4196777089755E+01
 0.4159935837255E+01
 0.4112542817664E+01
 0.4052909357256E+01
 0.3979466257484E+01
 0.3890905312610E+01
 0.3786273486489E+01
 0.3665061777055E+01
 0.3527311175969E+01
 0.3373748640340E+01
 0.3205962318435E+01
 0.3026625365540E+01
 0.2839780991240E+01
 0.2651208608462E+01
 0.2468904358556E+01
 0.2303734451101E+01
 0.2170366086290E+01
 0.2088673968624E+01
 0.2085981160995E+01
 0.2199914734606E+01
 0.4064027188822E+01
 0.4003491334427E+01
 0.3930038978525E+01
 0.3841536953267E+01
 0.3736248873436E+01
 0.3612951670335E+01
 0.3471011698289E+01
 0.3310467995637E+01
 0.3132144005139E+01
 0.2937796977432E+01
 0.2730309720814E+01
 0.2513929266138E+01
 0.2294560254550E+01
 0.2080127920464E+01
 0.1881039521010E+01
 0.1710801299999E+01
 0.1586914012448E+01
 0.1532315883472E+01
 0.1578147243282E+01
 0.1770769351676E+01
 0.3918544235128E+01
 0.3833135468928E+01
 0.3732323722703E+01
 0.3613547335122E+01
 0.3475030097586E+01
 0.3315831584371E+01
 0.3135879033020E+01
 0.2936026694128E+01
 0.2718156904751E+01
 0.2485321637365E+01
 0.2241917125141E+01
 0.1993882043718E+01
 0.1748908388583E+01
 0.1516652135958E+01
 0.1308927182091E+01
 0.1139862138118E+01
 0.1025984250005E+01
 0.9861463134824E+00
 0.1040804061272E+01
 0.1210760653354E+01
 0.3762653918716E+01
 0.3651998877744E+01
 0.3523375525729E+01
 0.3373913192510E+01
 0.3202045224225E+01
 0.3007449444347E+01
 0.2791006627298E+01
 0.2554822297738E+01
 0.2302310180902E+01
 0.2038316314420E+01
 0.1769256567670E+01
 0.1503235353198E+01
 0.1250104245214E+01
 0.1021401422856E+01
 0.8300819740934E+00
 0.6898925476674E+00
 0.6140903801769E+00
 0.6125513683590E+00
 0.6848908320164E+00
 0.7990950511336E+00
 0.3598834014293E+01
 0.3463312404138E+01
 0.3307203745078E+01
 0.3127600680827E+01
 0.2923562019357E+01
 0.2695882231261E+01
 0.2446937339924E+01
 0.2180653158143E+01
 0.1902556312729E+01
 0.1619851956720E+01
 0.1341468047133E+01
 0.1077998769290E+01
 0.8414620308808E+00
 0.6447563158643E+00
 0.5006667217576E+00
 0.4202149097653E+00
 0.4097545119020E+00
 0.4653177378288E+00
 0.5626030115824E+00
 0.6464967807887E+00
 0.3429604589255E+01
 0.3270205997251E+01
 0.3087645263612E+01
 0.2879405901387E+01
 0.2645764446253E+01
 0.2389243778055E+01
 0.2114287286022E+01
 0.1827135000625E+01
 0.1535788935280E+01
 0.1249954752669E+01
 0.9808553855774E+00
 0.7408088721948E+00
 0.5424503424846E+00
 0.3974728810472E+00
 0.3148144515479E+00
 0.2981222349138E+00
 0.3416045265587E+00
 0.4245806689229E+00
 0.5089504924368E+00
 0.5508104533260E+00
 0.3257605180484E+01
 0.3075904821882E+01
 0.2868630931552E+01
 0.2634258003144E+01
 0.2374992590296E+01
 0.2095674634345E+01
 0.1803201913875E+01
 0.1506261798924E+01
 0.1215135112419E+01
 0.9413953163632E+00
 0.6973633642672E+00
 0.4952061109556E+00
 0.3455917102405E+00
 0.2559196941718E+00
 0.2283088550183E+00
 0.2569312968046E+00
 0.3247489401859E+00
 0.4032670380237E+00
 0.4593123680056E+00
 0.4704492123211E+00
 0.3085582428478E+01
 0.2883711317475E+01
 0.2654038636181E+01
 0.2396853648213E+01
 0.2117040655054E+01
 0.1822147437124E+01
 0.1521524124917E+01
 0.1225898902118E+01
 0.9470025509524E+00
 0.6969953567080E+00
 0.4875712702703E+00
 0.3286792177984E+00
 0.2269087357658E+00
 0.1838513986835E+00
 0.1945853059595E+00
 0.2456342327937E+00
 0.3148779468787E+00
 0.3759652580040E+00
 0.4070844729341E+00
 0.4000427591790E+00
 0.2916237443651E+01
 0.2696691900020E+01
 0.2447232574707E+01
 0.2171070713071E+01
 0.1876446391733E+01
 0.1573644513726E+01
 0.1273945186620E+01
 0.9891922079269E+00
 0.7313227821694E+00
 0.5116219221550E+00
 0.3396135276722E+00
 0.2216632466063E+00
 0.1595467023624E+00
 0.1495161244469E+00
 0.1813542900550E+00
 0.2377967180889E+00
 0.2973558539779E+00
 0.3398965628573E+00
 0.3531088926235E+00
 0.3357471543885E+00
 0.2752103366791E+01
 0.2517358207276E+01
 0.2250615814034E+01
 0.1959504354252E+01
 0.1656116376114E+01
 0.1352923692651E+01
 0.1062086256014E+01
 0.7952893378851E+00
 0.5634260796901E+00
 0.3757551120147E+00
 0.2387443198953E+00
 0.1548219439538E+00
 0.1214981145999E+00
 0.1312218213226E+00
 0.1708836615354E+00
 0.2229595328808E+00
 0.2694145280387E+00
 0.2963719158803E+00
 0.2977808711504E+00
 0.2754126119597E+00
 0.2595470491788E+01
 0.2347348200194E+01
 0.2065295871052E+01
 0.1763486327611E+01
 0.1457712716879E+01
 0.1161318433198E+01
 0.8856558874520E+00
 0.6411015850652E+00
 0.4366432038701E+00
 0.2789359258077E+00
 0.1712432192666E+00
 0.1125284387591E+00
 0.9727680444771E-01
 0.1158724118566E+00
 0.1545617306425E+00
 0.1976960586298E+00
 0.2313563496056E+00
 0.2466232032926E+00
 0.2412618554485E+00
 0.2186921953780E+00
 0.2448499502417E+01
 0.2187160099330E+01
 0.1890950284219E+01
 0.1583346305160E+01
 0.1282546437609E+01
 0.9991418836213E+00
 0.7426119856912E+00
 0.5215664144759E+00
 0.3428315195887E+00
 0.2104827145008E+00
 0.1250199798074E+00
 0.8287766185060E-01
 0.7685757063315E-01
 0.9676452109655E-01
 0.1297136626589E+00
 0.1626870141489E+00
 0.1854058163167E+00
 0.1923794220593E+00
 0.1836015662207E+00
 0.1635775047180E+00
 0.2313498195528E+01
 0.2033364663195E+01
 0.1723271206843E+01
 0.1420053537789E+01
 0.1131428912508E+01
 0.8649514354256E+00
 0.6288464220355E+00
 0.4301527102681E+00
 0.2736910354946E+00
 0.1613161759989E+00
 0.9144173484636E-01
 0.5891376004524E-01
 0.5586781714764E-01
 0.7254869838055E-01
 0.9765569533858E-01
 0.1207744010659E+00
 0.1344835577327E+00
 0.1355262064505E+00
 0.1249241522696E+00
 0.1079550901531E+00
 0.2181822372961E+01
 0.1865195611156E+01
 0.1566522876644E+01
 0.1278825392092E+01
 0.1006261888951E+01
 0.7579507695863E+00
 0.5415312648784E+00
 0.3625985300511E+00
 0.2241385879850E+00
 0.1262377167275E+00
 0.6594150709777E-01
 0.3733863032167E-01
 0.3256635127451E-01
 0.4309059966988E-01
 0.5953757990421E-01
 0.7381429326432E-01
 0.8064906272071E-01
 0.7808278070183E-01
 0.6734713152933E-01
 0.5238570252128E-01
</DataArray>
<DataArray type="Float64" Name="S_Hyd" NumberOfComponents="1" ComponentName0="S_Hyd" format="ascii">
 0.2617799672489E+00
 0.1779006521702E+00
 0.1675134247367E+00
 0.1591799503845E+00
 0.1552617943638E+00
 0.1529379557585E+00
 0.1517701913440E+00
 0.1513214496782E+00
 0.1513913752883E+00
 0.1518453382639E+00
 0.1526024912430E+00
 0.1536120415503E+00
 0.1548445459534E+00
 0.1562857035542E+00
 0.1579328554524E+00
 0.1597927200135E+00
 0.1618799871506E+00
 0.1642164308735E+00
 0.1668304396465E+00
 0.1697568892729E+00
 0.1730372859607E+00
 0.1767206494925E+00
 0.1808648871446E+00
 0.1855394960167E+00
 0.1908310939574E+00
 0.1968542896469E+00
 0.2037905443223E+00
 0.2119457070516E+00
 0.2214850667137E+00
 0.2322665749675E+00
 0.2441176306419E+00
 0.2569854899800E+00
 0.2709502324717E+00
 0.2862903264605E+00
 0.3034613324872E+00
 0.3236608944422E+00
 0.3474054148624E+00
 0.3836790606900E+00
 0.4122543618759E+00
 0.6125173014242E+00
 0.1462799955744E+00
 0.2340465307542E+00
 0.1935982181300E+00
 0.1712054066306E+00
 0.1635359262906E+00
 0.1584386888866E+00
 0.1556533369551E+00
 0.1540573942391E+00
 0.1532960494301E+00
 0.1531104299766E+00
 0.1533554895332E+00
 0.1539370489446E+00
 0.1547965507165E+00
 0.1558983653033E+00
 0.1572234103893E+00
 0.1587649966604E+00
 0.1605262756884E+00
 0.1625185977392E+00
 0.1647604730163E+00
 0.1672769754676E+00
 0.1700995099878E+00
 0.1732658986099E+00
 0.1768211228897E+00
 0.1808186450763E+00
 0.1853229814342E+00
 0.1904148466282E+00
 0.1962024702858E+00
 0.2028523062135E+00
 0.2105601227880E+00
 0.2194023450770E+00
 0.2292820115850E+00
 0.2400583122128E+00
 0.2516558507945E+00
 0.2641025266414E+00
 0.2775307764621E+00
 0.2922965237852E+00
 0.3086726659042E+00
 0.3285897175707E+00
 0.3485137516112E+00
 0.3906227790402E+00
 0.3904978958903E+00
-0.2481243237843E-02
 0.2210165839183E+00
 0.1961173869236E+00
 0.1764637590167E+00
 0.1667961390302E+00
 0.1614559535369E+00
 0.1581498373392E+00
 0.1562221316757E+00
 0.1551740684254E+00
 0.1547567332819E+00
 0.1548062469188E+00
 0.1552211353223E+00
 0.1559358697832E+00
 0.1569097485035E+00
 0.1581194180972E+00
 0.1595545047584E+00
 0.1612147821287E+00
 0.1631083579342E+00
 0.1652504974363E+00
 0.1676629123486E+00
 0.1703734271870E+00
 0.1734159638571E+00
 0.1768311449409E+00
 0.1806674476881E+00
 0.1849834689748E+00
 0.1898523945716E+00
 0.1953724165518E+00
 0.2016747126660E+00
 0.2088808415908E+00
 0.2170168643842E+00
 0.2259941203467E+00
 0.2356817037908E+00
 0.2459791629198E+00
 0.2568389207912E+00
 0.2682845662475E+00
 0.2803270175266E+00
 0.2931993062610E+00
 0.3060846113490E+00
 0.3199236725839E+00
 0.3289071264540E+00
 0.2496680297534E+00
-0.4054944840963E-01
 0.2131746082477E+00
 0.1958313400622E+00
 0.1797844206258E+00
 0.1698517095044E+00
 0.1640723522346E+00
 0.1604707187355E+00
 0.1582436220429E+00
 0.1569529339136E+00
 0.1563252849971E+00
 0.1561945765622E+00
 0.1564522583002E+00
 0.1570281638152E+00
 0.1578773446617E+00
 0.1589728148829E+00
 0.1603008706727E+00
 0.1618581247287E+00
 0.1636495538667E+00
 0.1656872119446E+00
 0.1679894146034E+00
 0.1705803007118E+00
 0.1734896965017E+00
 0.1767535461296E+00
 0.1804148163553E+00
 0.1845252506013E+00
 0.1891490953448E+00
 0.1943684685805E+00
 0.2002781718178E+00
 0.2069467193862E+00
 0.2143642447317E+00
 0.2224359483177E+00
 0.2310256356200E+00
 0.2399980735443E+00
 0.2492338579165E+00
 0.2585963874976E+00
 0.2679113501097E+00
 0.2766663218071E+00
 0.2838162324286E+00
 0.2867655038606E+00
 0.2666305254428E+00
 0.1659703433662E+00
-0.4846210483011E-01
 0.2078672024284E+00
 0.1948584355744E+00
 0.1817461212913E+00
 0.1723722546694E+00
 0.1664006400907E+00
 0.1625774747026E+00
 0.1601262071705E+00
 0.1586265202077E+00
 0.1578135755193E+00
 0.1575178892039E+00
 0.1576285519583E+00
 0.1580719893553E+00
 0.1588001380703E+00
 0.1597829705055E+00
 0.1610038434033E+00
 0.1624564370980E+00
 0.1641427237501E+00
 0.1660715923294E+00
 0.1682579409177E+00
 0.1707221308495E+00
 0.1734897145535E+00
 0.1765916610188E+00
 0.1800649217535E+00
 0.1839536133792E+00
 0.1883111828840E+00
 0.1932008363900E+00
 0.1986844199078E+00
 0.2047900257980E+00
 0.2114786896001E+00
 0.2186424662823E+00
 0.2261292758041E+00
 0.2337652632890E+00
 0.2413482514028E+00
 0.2486086820532E+00
 0.2550867341147E+00
 0.2598583337679E+00
 0.2610496298449E+00
 0.2525615272147E+00
 0.2149569769637E+00
 0.1149206363711E+00
-0.4842003681985E-01
 0.2040393704397E+00
 0.1937726345629E+00
 0.1829033994333E+00
 0.1743483476879E+00
 0.1684342928939E+00
 0.1644810013404E+00
 0.1618646247926E+00
 0.1601940071279E+00
 0.1592193262392E+00
 0.1587745954026E+00
 0.1587486308309E+00
 0.1590663242935E+00
 0.1596774339329E+00
 0.1605495321174E+00
 0.1616634219439E+00
 0.1630100927578E+00
 0.1645886481594E+00
 0.1664048707330E+00
 0.1684702328210E+00
 0.1708012428831E+00
 0.1734190249758E+00
 0.1763493057545E+00
 0.1796225959982E+00
 0.1832746392554E+00
 0.1873467346596E+00
 0.1918825991713E+00
 0.1969151484132E+00
 0.2024400252957E+00
 0.2083930604222E+00
 0.2146492345173E+00
 0.2210349070987E+00
 0.2273330984120E+00
 0.2332635483377E+00
 0.2384166672066E+00
 0.2420946897543E+00
 0.2430067934820E+00
 0.2383139119001E+00
 0.2206471773433E+00
 0.1744809612248E+00
 0.8231039305900E-01
-0.4635145585018E-01
 0.2011670037220E+00
 0.1927510806163E+00
 0.1835898285163E+00
 0.1758776034667E+00
 0.1701789139569E+00
 0.1661891182738E+00
 0.1634606161436E+00
 0.1616548453387E+00
 0.1605418134197E+00
 0.1599637137558E+00
 0.1598116714031E+00
 0.1600105325300E+00
 0.1605088560404E+00
 0.1612724143300E+00
 0.1622798469889E+00
 0.1635196955326E+00
 0.1649883391998E+00
 0.1666885232281E+00
 0.1686283001995E+00
 0.1708202699883E+00
 0.1732810013924E+00
 0.1760307598693E+00
 0.1790932623430E+00
 0.1824952947078E+00
 0.1862653587115E+00
 0.1904282862055E+00
 0.1949917181984E+00
 0.1999242493948E+00
 0.2051390765918E+00
 0.2104922919831E+00
 0.2157854925341E+00
 0.2207585791001E+00
 0.2250563165071E+00
 0.2281429584402E+00
 0.2291273898516E+00
 0.2263771971217E+00
 0.2164938435983E+00
 0.1924598900883E+00
 0.1431999626646E+00
 0.6051904941846E-01
-0.4394313564094E-01
 0.1989513974797E+00
 0.1918454288853E+00
 0.1839977186403E+00
 0.1770645427035E+00
 0.1716613622489E+00
 0.1677109132484E+00
 0.1649186502169E+00
 0.1630102637370E+00
 0.1617812165521E+00
 0.1610850062459E+00
 0.1608173345389E+00
 0.1609043606093E+00
 0.1612943288384E+00
 0.1619517878192E+00
 0.1628535885350E+00
 0.1639860670074E+00
 0.1653430267513E+00
 0.1669242543892E+00
 0.1687344035313E+00
 0.1707821315926E+00
 0.1730793591471E+00
 0.1756407266475E+00
 0.1784828982914E+00
 0.1816233625880E+00
 0.1850777477056E+00
 0.1888531503096E+00
 0.1929350785326E+00
 0.1972690007120E+00
 0.2017475555890E+00
 0.2062074523324E+00
 0.2104248480729E+00
 0.2140985506621E+00
 0.2168058684918E+00
 0.2179072019835E+00
 0.2163565870406E+00
 0.2102924894204E+00
 0.1962321152092E+00
 0.1682452386620E+00
 0.1189607504434E+00
 0.4537696035962E-01
-0.4163715587241E-01
 0.1972066620929E+00
 0.1910630159045E+00
 0.1842391820544E+00
 0.1779949956839E+00
 0.1729174178102E+00
 0.1690595124156E+00
 0.1662448347913E+00
 0.1642629874905E+00
 0.1629386197220E+00
 0.1621388727359E+00
 0.1617657508751E+00
 0.1617479096158E+00
 0.1620340628236E+00
 0.1625880648697E+00
 0.1633853329507E+00
 0.1644102331203E+00
 0.1656541439657E+00
 0.1671139808254E+00
 0.1687910343598E+00
 0.1706900096138E+00
 0.1728181239411E+00
 0.1751842906261E+00
 0.1777979784688E+00
 0.1806672893977E+00
 0.1837953023384E+00
 0.1871727514915E+00
 0.1907657041525E+00
 0.1944995789708E+00
 0.1982483779253E+00
 0.2018300311001E+00
 0.2049963659145E+00
 0.2074092698490E+00
 0.2085899944405E+00
 0.2078194235213E+00
 0.2039472131180E+00
 0.1950334684534E+00
 0.1778446714548E+00
 0.1477136122985E+00
 0.1000148989766E+00
 0.3451472076048E-01
-0.3950927008000E-01
 0.1958099990485E+00
 0.1903952554045E+00
 0.1843807740319E+00
 0.1787340047398E+00
 0.1739830914078E+00
 0.1702509882005E+00
 0.1674467767804E+00
 0.1654168490675E+00
 0.1640159220895E+00
 0.1631262833984E+00
 0.1626574793398E+00
 0.1625416109357E+00
 0.1627285353497E+00
 0.1631818843002E+00
 0.1638759688924E+00
 0.1647934100324E+00
 0.1659233119094E+00
 0.1672598135570E+00
 0.1688008941261E+00
 0.1705473217899E+00
 0.1725015962393E+00
 0.1746668687066E+00
 0.1770453930545E+00
 0.1796360116866E+00
 0.1824298385533E+00
 0.1854026856725E+00
 0.1885035293232E+00
 0.1916403282755E+00
 0.1946704047819E+00
 0.1973943736218E+00
 0.1995422311600E+00
 0.2007450273477E+00
 0.2004813946489E+00
 0.1979794145494E+00
 0.1920437413634E+00
 0.1807896638215E+00
 0.1614055145357E+00
 0.1303946497340E+00
 0.8505085496632E-01
 0.2652786723229E-01
-0.3753835603149E-01
 0.1946767205788E+00
 0.1898285415945E+00
 0.1844626088802E+00
 0.1793294748471E+00
 0.1748906954761E+00
 0.1713024609044E+00
 0.1685332227128E+00
 0.1664765266991E+00
 0.1650156912345E+00
 0.1640487095797E+00
 0.1634934609042E+00
 0.1632861969909E+00
 0.1633784692410E+00
 0.1637340940388E+00
 0.1643265715662E+00
 0.1651369884330E+00
 0.1661523227025E+00
 0.1673640387622E+00
 0.1687668710286E+00
 0.1703576923629E+00
 0.1721343122679E+00
 0.1740941541917E+00
 0.1762323538169E+00
 0.1785387917482E+00
 0.1809933620473E+00
 0.1835583927716E+00
 0.1861678707613E+00
 0.1887146091930E+00
 0.1910413190002E+00
 0.1929334278045E+00
 0.1941026771813E+00
 0.1941566328604E+00
 0.1925458111755E+00
 0.1884737099785E+00
 0.1807568233330E+00
 0.1676584135323E+00
 0.1468442669274E+00
 0.1157984937427E+00
 0.7310815294908E-01
 0.2054790822566E-01
-0.3568700893837E-01
 0.1937464829545E+00
 0.1893485970298E+00
 0.1845091020903E+00
 0.1798163795445E+00
 0.1756676596713E+00
 0.1722306405012E+00
 0.1695135248166E+00
 0.1674473108746E+00
 0.1659410177964E+00
 0.1649080450075E+00
 0.1642749707549E+00
 0.1639826692248E+00
 0.1639848097515E+00
 0.1642457324805E+00
 0.1647383859974E+00
 0.1654425169859E+00
 0.1663431217727E+00
 0.1674290974863E+00
 0.1686920155039E+00
 0.1701249208864E+00
 0.1717210021509E+00
 0.1734720558069E+00
 0.1753662975714E+00
 0.1773850712714E+00
 0.1794978910635E+00
 0.1816550079585E+00
 0.1837773434128E+00
 0.1857447230278E+00
 0.1873874373346E+00
 0.1884783506436E+00
 0.1887152605025E+00
 0.1876902685862E+00
 0.1848405599956E+00
 0.1793721232065E+00
 0.1701590863052E+00
 0.1556642451462E+00
 0.1340172260622E+00
 0.1034793996868E+00
 0.6348520718324E-01
 0.1601565451280E-01
-0.3392246568864E-01
 0.1929751663608E+00
 0.1889421612218E+00
 0.1845351679072E+00
 0.1802202471761E+00
 0.1763366154401E+00
 0.1730509826654E+00
 0.1703971308476E+00
 0.1683348683960E+00
 0.1667953794107E+00
 0.1657065243225E+00
 0.1650035683768E+00
 0.1646322644920E+00
 0.1645487000089E+00
 0.1647180086817E+00
 0.1651128093134E+00
 0.1657116849144E+00
 0.1664977892966E+00
 0.1674575645084E+00
 0.1685795147559E+00
 0.1698529498896E+00
 0.1712665464818E+00
 0.1728066354230E+00
 0.1744547941794E+00
 0.1761843455728E+00
 0.1779553154978E+00
 0.1797072421618E+00
 0.1813497759016E+00
 0.1827518173462E+00
 0.1837335256939E+00
 0.1840581543292E+00
 0.1834142669519E+00
 0.1813866709892E+00
 0.1774133420100E+00
 0.1707260640457E+00
 0.1602882246088E+00
 0.1447815334944E+00
 0.1227515157998E+00
 0.9305457040122E-01
 0.5566581315304E-01
 0.1255739139474E-01
-0.3221944918853E-01
 0.1923298316888E+00
 0.1885975529392E+00
 0.1845498856236E+00
 0.1805597863253E+00
 0.1769159670918E+00
 0.1737773134640E+00
 0.1711931965164E+00
 0.1691450219315E+00
 0.1675825139210E+00
 0.1664466444462E+00
 0.1656810475529E+00
 0.1652364211640E+00
 0.1650714560478E+00
 0.1651522821867E+00
 0.1654513727145E+00
 0.1659463042790E+00
 0.1666185212900E+00
 0.1674521267493E+00
 0.1684326666704E+00
 0.1695458317352E+00
 0.1707759320446E+00
 0.1721040463858E+00
 0.1735054611085E+00
 0.1749460552861E+00
 0.1763772810541E+00
 0.1777292807517E+00
 0.1789021265068E+00
 0.1797557853607E+00
 0.1801026260302E+00
 0.1796994080862E+00
 0.1782302717540E+00
 0.1752805770794E+00
 0.1703016266602E+00
 0.1625690001635E+00
 0.1511535413728E+00
 0.1349536408711E+00
 0.1128700594468E+00
 0.8420402924410E-01
 0.4926549187624E-01
 0.9914683029294E-02
-0.3055825766827E-01
 0.1917854595654E+00
 0.1883047531225E+00
 0.1845587161900E+00
 0.1808487934480E+00
 0.1774205834397E+00
 0.1744217466810E+00
 0.1719103353129E+00
 0.1698835653369E+00
 0.1683063044565E+00
 0.1671310910679E+00
 0.1663093878452E+00
 0.1657967455552E+00
 0.1655545417952E+00
 0.1655500426714E+00
 0.1657557232350E+00
 0.1661482920337E+00
 0.1667076104511E+00
 0.1674155613991E+00
 0.1682548534301E+00
 0.1692076952535E+00
 0.1702542078786E+00
 0.1713704744406E+00
 0.1725258860053E+00
 0.1736794935771E+00
 0.1747750929215E+00
 0.1757346969557E+00
 0.1764504048993E+00
 0.1767751715274E+00
 0.1765159094783E+00
 0.1754260149413E+00
 0.1731898566458E+00
 0.1694004593395E+00
 0.1635327508939E+00
 0.1549184522656E+00
 0.1427431969406E+00
 0.1261070417800E+00
 0.1042045451413E+00
 0.7666349639553E-01
 0.4399344207479E-01
 0.7902850535083E-02
-0.2892216821700E-01
 0.1913227709513E+00
 0.1880552923706E+00
 0.1845648661346E+00
 0.1810975201966E+00
 0.1778624553115E+00
 0.1749947612679E+00
 0.1725564827334E+00
 0.1705561233193E+00
 0.1689706798139E+00
 0.1677626713385E+00
 0.1668907083052E+00
 0.1663149788540E+00
 0.1659995439175E+00
 0.1659128892145E+00
 0.1660276050807E+00
 0.1663196516991E+00
 0.1667674267198E+00
 0.1673507139248E+00
 0.1680495152895E+00
 0.1688427130889E+00
 0.1697064433279E+00
 0.1706120834959E+00
 0.1715235591081E+00
 0.1723937290093E+00
 0.1731596381720E+00
 0.1737363822223E+00
 0.1740096084559E+00
 0.1738270980257E+00
 0.1729925740781E+00
 0.1712590806565E+00
 0.1683154953812E+00
 0.1637685790120E+00
 0.1571246548672E+00
 0.1477787601599E+00
 0.1350307728552E+00
 0.1181609821712E+00
 0.9660139725718E-01
 0.7021560355128E-01
 0.3962568864952E-01
 0.6384938674965E-02
-0.2729524724314E-01
 0.1909267301108E+00
 0.1878420704509E+00
 0.1845701386684E+00
 0.1813136500339E+00
 0.1782512645999E+00
 0.1755053546958E+00
 0.1731388436408E+00
 0.1711680548369E+00
 0.1695795331232E+00
 0.1683442545599E+00
 0.1674272248480E+00
 0.1667929657040E+00
 0.1664081474287E+00
 0.1662425099416E+00
 0.1662688411800E+00
 0.1664624552023E+00
 0.1668003980291E+00
 0.1672604763720E+00
 0.1678201248856E+00
 0.1684550701362E+00
 0.1691376884380E+00
 0.1698349662155E+00
 0.1705058142608E+00
 0.1710975408573E+00
 0.1715413224027E+00
 0.1717464900186E+00
 0.1715936721529E+00
 0.1709272126505E+00
 0.1695497860051E+00
 0.1672168667758E+00
 0.1636255909223E+00
 0.1584013126978E+00
 0.1510870264960E+00
 0.1411439944113E+00
 0.1279806090111E+00
 0.1110336916164E+00
 0.8992382301813E-01
 0.6468169061921E-01
 0.3598611444934E-01
 0.5253613153741E-02
-0.2566103874577E-01
 0.1905854917411E+00
 0.1876591644105E+00
 0.1845754702515E+00
 0.1815029964749E+00
 0.1785948545256E+00
 0.1759612227136E+00
 0.1736638941762E+00
 0.1717243936400E+00
 0.1701366589857E+00
 0.1688787215160E+00
 0.1679212117678E+00
 0.1672326247669E+00
 0.1667821122502E+00
 0.1665406621519E+00
 0.1664813150217E+00
 0.1665788249605E+00
 0.1668089913643E+00
 0.1671477661587E+00
 0.1675701624149E+00
 0.1680489335841E+00
 0.1685529373647E+00
 0.1690450999843E+00
 0.1694797784677E+00
 0.1697993660184E+00
 0.1699300197453E+00
 0.1697763936874E+00
 0.1692154350872E+00
 0.1680896627317E+00
 0.1662026675370E+00
 0.1633148257871E+00
 0.1591346498334E+00
 0.1533096889242E+00
 0.1454226398631E+00
 0.1350006628117E+00
 0.1215518586229E+00
 0.1046462005563E+00
 0.8405167569949E-01
 0.5991507730525E-01
 0.3293361467121E-01
 0.4416216252255E-02
-0.2400447072801E-01
 0.1902896448130E+00
 0.1875016494933E+00
 0.1845812707630E+00
 0.1816700039873E+00
 0.1788996087652E+00
 0.1763689386820E+00
 0.1741374164344E+00
 0.1722298177100E+00
 0.1706457076536E+00
 0.1693689226167E+00
 0.1683749677498E+00
 0.1676359216029E+00
 0.1671232509916E+00
 0.1668091531345E+00
 0.1666669529533E+00
 0.1666709163723E+00
 0.1667956943107E+00
 0.1670155055831E+00
 0.1673030919684E+00
 0.1676284249289E+00
 0.1679570951508E+00
 0.1682483083508E+00
 0.1684523295417E+00
 0.1685072564940E+00
 0.1683350351981E+00
 0.1678366581863E+00
 0.1668866246235E+00
 0.1653270960630E+00
 0.1629643300447E+00
 0.1595657091552E+00
 0.1548535670882E+00
 0.1485000516562E+00
 0.1401287266026E+00
 0.1293300138167E+00
 0.1157014968891E+00
 0.9892433447777E-01
 0.7888079730101E-01
 0.5579412074226E-01
 0.3035825320877E-01
 0.3776109081138E-02
-0.2231745251802E-01
 0.1900316573391E+00
 0.1873654445091E+00
 0.1845876365929E+00
 0.1818181106591E+00
 0.1791707520686E+00
 0.1767341196086E+00
 0.1745645505070E+00
 0.1726886397315E+00
 0.1711101538182E+00
 0.1698176444661E+00
 0.1687907864882E+00
 0.1680048440708E+00
 0.1674334081472E+00
 0.1670498218417E+00
 0.1668277070892E+00
 0.1667409008644E+00
 0.1667629972513E+00
 0.1668666022373E+00
 0.1670223392591E+00
 0.1671975942186E+00
 0.1673549480581E+00
 0.1674502278851E+00
 0.1674300613534E+00
 0.1672288465640E+00
 0.1667650784137E+00
 0.1659370253266E+00
 0.1646178581761E+00
 0.1626506880307E+00
 0.1598459474610E+00
 0.1559797358659E+00
 0.1507899861405E+00
 0.1439747841957E+00
 0.1351982444499E+00
 0.1241099727431E+00
 0.1103862299673E+00
 0.9380029262827E-01
 0.7431995890638E-01
 0.5222200997273E-01
 0.2816367665828E-01
 0.3274248700244E-02
-0.2076419104238E-01
 0.1898059062680E+00
 0.1872474399379E+00
 0.1845948139153E+00
 0.1819502234691E+00
 0.1794126681175E+00
 0.1770614813142E+00
 0.1749495875642E+00
 0.1731043847461E+00
 0.1715327179770E+00
 0.1702269302965E+00
 0.1691702272064E+00
 0.1683406729654E+00
 0.1677137828654E+00
 0.1672639699099E+00
 0.1669651567054E+00
 0.1667908078521E+00
 0.1667135565058E+00
 0.1667045270499E+00
 0.1667323944377E+00
 0.1667621770566E+00
 0.1667537273993E+00
 0.1666598585067E+00
 0.1664240308440E+00
 0.1659775393925E+00
 0.1652361655722E+00
 0.1640963362846E+00
 0.1624309146207E+00
 0.1600851032260E+00
 0.1568747473981E+00
 0.1525859256435E+00
 0.1469732259835E+00
 0.1397609322137E+00
 0.1306520428219E+00
 0.1193499554746E+00
 0.1055987624047E+00
 0.8924570720540E-01
 0.7032403265694E-01
 0.4913320397482E-01
 0.2632064806675E-01
 0.2793071207450E-02
-0.1946424783926E-01
 0.1896066685759E+00
 0.1871443745267E+00
 0.1846021208677E+00
 0.1820680296510E+00
 0.1796285730312E+00
 0.1773549033058E+00
 0.1752964223228E+00
 0.1734806075189E+00
 0.1719164968268E+00
 0.1705994469078E+00
 0.1695156243993E+00
 0.1686455300564E+00
 0.1679664028012E+00
 0.1674536403699E+00
 0.1670814596632E+00
 0.1668230014003E+00
 0.1666500283001E+00
 0.1665323112548E+00
 0.1664367447620E+00
 0.1663261954510E+00
 0.1661580631462E+00
 0.1658824986068E+00
 0.1654402397266E+00
 0.1647600299823E+00
 0.1637556036496E+00
 0.1623223239754E+00
 0.1603336196689E+00
 0.1576377216945E+00
 0.1540568353843E+00
 0.1493878650132E+00
 0.1434025213994E+00
 0.1358508002362E+00
 0.1264721531615E+00
 0.1150181361474E+00
 0.1012904031873E+00
 0.8519602335384E-01
 0.6681363357521E-01
 0.4646200602101E-01
 0.2471753506626E-01
 0.2520901378313E-02
-0.1945627619211E-01
 0.1894303622245E+00
 0.1870540622326E+00
 0.1846095660244E+00
 0.1821734757955E+00
 0.1798217697647E+00
 0.1776183652788E+00
 0.1756091780676E+00
 0.1738212518039E+00
 0.1722651154116E+00
 0.1709384815200E+00
 0.1698299689337E+00
 0.1689221714045E+00
 0.1681938487048E+00
 0.1676212861396E+00
 0.1671789729004E+00
 0.1668397576704E+00
 0.1665746060504E+00
 0.1663520452536E+00
 0.1661373366088E+00
 0.1658913855937E+00
 0.1655693829173E+00
 0.1651191259859E+00
 0.1644790171476E+00
 0.1635757234422E+00
 0.1623214991974E+00
 0.1606112974298E+00
 0.1583198332806E+00
 0.1552991159520E+00
 0.1513784266533E+00
 0.1463660509923E+00
 0.1400509446836E+00
 0.1322079902530E+00
 0.1226105497863E+00
 0.1110530850394E+00
 0.9738635481371E-01
 0.8156490035896E-01
 0.6370228056830E-01
 0.4411465167690E-01
 0.2335610352883E-01
 0.2139652936235E-02
-0.1899260377106E-01
 0.1892737572176E+00
 0.1869746126061E+00
 0.1846169620340E+00
 0.1822679601567E+00
 0.1799947579079E+00
 0.1778549147880E+00
 0.1758909947172E+00
 0.1741292655275E+00
 0.1725812053116E+00
 0.1712463395507E+00
 0.1701152962830E+00
 0.1691724487798E+00
 0.1683978834935E+00
 0.1677686743878E+00
 0.1672595554855E+00
 0.1668431094367E+00
 0.1664895730814E+00
 0.1661663357262E+00
 0.1658371689230E+00
 0.1654612023595E+00
 0.1649916522773E+00
 0.1643742559581E+00
 0.1635454407138E+00
 0.1624302302281E+00
 0.1609399035538E+00
 0.1589695681544E+00
 0.1563958239089E+00
 0.1530750412596E+00
 0.1488440671809E+00
 0.1435228255758E+00
 0.1369172687538E+00
 0.1288259603322E+00
 0.1190533709175E+00
 0.1074318536269E+00
 0.9385350565468E-01
 0.7831107296339E-01
 0.6094086763521E-01
 0.4205785270924E-01
 0.2215896425148E-01
 0.1838381889165E-02
-0.1841359668147E-01
 0.1891342269295E+00
 0.1869044666527E+00
 0.1846241448997E+00
 0.1823526375607E+00
 0.1801496555340E+00
 0.1780671912868E+00
 0.1761446530575E+00
 0.1744073172382E+00
 0.1728671986013E+00
 0.1715251914854E+00
 0.1703735523928E+00
 0.1693981525906E+00
 0.1685802233540E+00
 0.1678975300713E+00
 0.1673250211224E+00
 0.1668350346759E+00
 0.1663971426635E+00
 0.1659776978702E+00
 0.1655391205031E+00
 0.1650389428658E+00
 0.1644286302496E+00
 0.1636521348082E+00
 0.1626442403368E+00
 0.1613287162791E+00
 0.1596163075431E+00
 0.1574027523930E+00
 0.1545670142645E+00
 0.1509702490193E+00
 0.1464571528243E+00
 0.1408592869485E+00
 0.1339990602644E+00
 0.1256972464031E+00
 0.1157865463440E+00
 0.1041324458517E+00
 0.9066178035226E-01
 0.7539714148154E-01
 0.5849116057425E-01
 0.4024938349135E-01
 0.2111948560141E-01
 0.1621132083032E-02
-0.1777509702949E-01
 0.1890096317766E+00
 0.1868423463280E+00
 0.1846309789204E+00
 0.1824284762344E+00
 0.1802882684991E+00
 0.1782574877474E+00
 0.1763726165135E+00
 0.1746578178515E+00
 0.1731253342499E+00
 0.1717770697166E+00
 0.1706065854821E+00
 0.1696010014746E+00
 0.1687425265888E+00
 0.1680095246467E+00
 0.1673771268840E+00
 0.1668174452825E+00
 0.1662994466399E+00
 0.1657885439525E+00
 0.1652459386850E+00
 0.1646277358217E+00
 0.1638838603305E+00
 0.1629567341022E+00
 0.1617797982411E+00
 0.1602759120329E+00
 0.1583556638926E+00
 0.1559158128231E+00
 0.1528380502176E+00
 0.1489885938093E+00
 0.1442200882407E+00
 0.1383755155054E+00
 0.1312929778761E+00
 0.1228138282826E+00
 0.1127961333896E+00
 0.1011341718287E+00
 0.8778369510697E-01
 0.7279076925525E-01
 0.5631842368774E-01
 0.3866002601059E-01
 0.2022408054891E-01
 0.1479865939091E-02
-0.1711704472409E-01
 0.1888982287419E+00
 0.1867872084113E+00
 0.1846373596661E+00
 0.1824962981084E+00
 0.1804121454652E+00
 0.1784278012096E+00
 0.1765770676482E+00
 0.1748829412238E+00
 0.1733576657027E+00
 0.1720038673830E+00
 0.1708161398546E+00
 0.1697826336043E+00
 0.1688863838548E+00
 0.1681062659319E+00
 0.1674175629566E+00
 0.1667921767602E+00
 0.1661985250873E+00
 0.1656011730454E+00
 0.1649602294524E+00
 0.1642305326252E+00
 0.1633606636329E+00
 0.1622917475190E+00
 0.1609561518389E+00
 0.1592761245390E+00
 0.1571624127910E+00
 0.1545131030557E+00
 0.1512128714328E+00
 0.1471331392750E+00
 0.1421344386149E+00
 0.1360707796267E+00
 0.1287950337646E+00
 0.1201674177944E+00
 0.1100686050638E+00
 0.9841772455857E-01
 0.8519451898573E-01
 0.7046332672744E-01
 0.5439331551158E-01
 0.3726557520049E-01
 0.1945757088812E-01
 0.1401397963064E-02
-0.1646450089087E-01
 0.1887985992208E+00
 0.1867382053291E+00
 0.1846432138574E+00
 0.1825568086358E+00
 0.1805226211732E+00
 0.1785798744948E+00
 0.1767599397430E+00
 0.1750846432256E+00
 0.1735660690160E+00
 0.1722073386603E+00
 0.1710038513286E+00
 0.1699445994579E+00
 0.1690133096365E+00
 0.1681892890109E+00
 0.1674479433157E+00
 0.1667609788142E+00
 0.1660963169338E+00
 0.1654177618560E+00
 0.1646844488510E+00
 0.1638501000364E+00
 0.1628621339138E+00
 0.1616605898678E+00
 0.1601769990279E+00
 0.1583332520909E+00
 0.1560405098136E+00
 0.1531984138937E+00
 0.1496947822422E+00
 0.1454062610208E+00
 0.1402010717748E+00
 0.1339437213234E+00
 0.1265008156729E+00
 0.1177496974176E+00
 0.1075910353455E+00
 0.9596529010510E-01
 0.8287202841136E-01
 0.6838970188839E-01
 0.5269080308422E-01
 0.3604500746675E-01
 0.1880466505349E-01
 0.1372251322695E-02
-0.1583369667956E-01
 0.1887095906120E+00
 0.1866946520897E+00
 0.1846484970166E+00
 0.1826106187865E+00
 0.1806208504215E+00
 0.1787152303981E+00
 0.1769229438096E+00
 0.1752646789527E+00
 0.1737522509504E+00
 0.1723890999266E+00
 0.1711712438393E+00
 0.1700883557476E+00
 0.1691247347639E+00
 0.1682600480822E+00
 0.1674697973028E+00
 0.1667255068861E+00
 0.1659946516396E+00
 0.1652403568208E+00
 0.1644208959483E+00
 0.1634890147422E+00
 0.1623911348779E+00
 0.1610663987657E+00
 0.1594457064727E+00
 0.1574508020306E+00
 0.1549934569429E+00
 0.1519750221119E+00
 0.1482865235395E+00
 0.1438097472910E+00
 0.1384202922852E+00
 0.1319925238117E+00
 0.1244056793342E+00
 0.1155525095511E+00
 0.1053512452580E+00
 0.9376056647925E-01
 0.8079635738057E-01
 0.6654793091511E-01
 0.5118929141753E-01
 0.3497978867357E-01
 0.1825093302333E-01
 0.1380257689102E-02
-0.1523514055021E-01
 0.1886302688141E+00
 0.1866559984526E+00
 0.1846531898751E+00
 0.1826582612881E+00
 0.1807078348480E+00
 0.1788351997297E+00
 0.1770675916270E+00
 0.1754246181254E+00
 0.1739177568240E+00
 0.1725506315717E+00
 0.1713197270511E+00
 0.1702152604239E+00
 0.1692219999453E+00
 0.1683199092412E+00
 0.1674845620892E+00
 0.1666873145703E+00
 0.1658952418121E+00
 0.1650708672358E+00
 0.1641717069702E+00
 0.1631496592609E+00
 0.1619502989775E+00
 0.1605120379135E+00
 0.1587653194743E+00
 0.1566319099224E+00
 0.1540243343959E+00
 0.1508457389028E+00
 0.1469903422136E+00
 0.1423448935086E+00
 0.1367919633515E+00
 0.1302150584636E+00
 0.1225049088598E+00
 0.1135680060129E+00
 0.1033378996859E+00
 0.9178875352373E-01
 0.7894983957668E-01
 0.6491881559382E-01
 0.4987003139504E-01
 0.3405357265219E-01
 0.1778328293794E-01
 0.1415014155979E-02
-0.1467571049305E-01
 0.1885598793325E+00
 0.1866218054668E+00
 0.1846572941189E+00
 0.1827002025503E+00
 0.1807844440252E+00
 0.1789409442490E+00
 0.1771952152568E+00
 0.1755658586760E+00
 0.1740639778913E+00
 0.1726932801604E+00
 0.1714505947250E+00
 0.1703265685690E+00
 0.1693063501957E+00
 0.1683701441264E+00
 0.1674935759789E+00
 0.1666478468855E+00
 0.1657996767254E+00
 0.1649110593813E+00
 0.1639388505485E+00
 0.1628342190809E+00
 0.1615420275453E+00
 0.1600001017375E+00
 0.1581385731009E+00
 0.1558793596645E+00
 0.1531358327040E+00
 0.1498129573063E+00
 0.1458080573790E+00
 0.1410125900418E+00
 0.1353156166295E+00
 0.1286090124200E+00
 0.1207938499737E+00
 0.1117887637760E+00
 0.1015405702047E+00
 0.9003652267178E-01
 0.7731684455185E-01
 0.6348559360131E-01
 0.4871671812311E-01
 0.3325201631273E-01
 0.1739014033248E-01
 0.1467847948759E-02
-0.1415997568731E-01
 0.1884978153380E+00
 0.1865917257029E+00
 0.1846608279054E+00
 0.1827368513888E+00
 0.1808514320915E+00
 0.1790334754028E+00
 0.1773069835066E+00
 0.1756896386347E+00
 0.1741921581494E+00
 0.1728182607790E+00
 0.1715650236809E+00
 0.1704234290588E+00
 0.1693789300759E+00
 0.1684119243671E+00
 0.1674980724995E+00
 0.1666084343302E+00
 0.1657094166474E+00
 0.1647625514904E+00
 0.1637241238547E+00
 0.1625446807122E+00
 0.1611684918183E+00
 0.1595329208012E+00
 0.1575679038150E+00
 0.1551956035708E+00
 0.1523302838588E+00
 0.1488786972285E+00
 0.1447411218786E+00
 0.1398134017829E+00
 0.1339905490486E+00
 0.1271719973390E+00
 0.1192680185044E+00
 0.1102078722386E+00
 0.9994977216018E-01
 0.8849197168544E-01
 0.7588362068718E-01
 0.6223366992896E-01
 0.4771520148307E-01
 0.3256262729436E-01
 0.1706145418300E-01
 0.1531614132938E-02
-0.1369101967315E-01
 0.1884435914073E+00
 0.1865654866310E+00
 0.1846638214439E+00
 0.1827685653819E+00
 0.1809094508637E+00
 0.1791136696051E+00
 0.1774039157450E+00
 0.1757970464176E+00
 0.1743034004847E+00
 0.1729266593926E+00
 0.1716640731739E+00
 0.1705068818398E+00
 0.1694407796279E+00
 0.1684463167511E+00
 0.1674991752230E+00
 0.1665702876870E+00
 0.1656257879428E+00
 0.1646268095352E+00
 0.1635291495894E+00
 0.1622828306092E+00
 0.1608316347929E+00
 0.1591125679150E+00
 0.1570554615010E+00
 0.1545827823161E+00
 0.1516096914252E+00
 0.1480446480145E+00
 0.1437906792064E+00
 0.1387476401208E+00
 0.1328159080828E+00
 0.1259016421196E+00
 0.1179231889132E+00
 0.1088189991834E+00
 0.9855698430801E-01
 0.8714457287170E-01
 0.7463815460167E-01
 0.6115040150041E-01
 0.4685326471780E-01
 0.3197462096429E-01
 0.1678861537652E-01
 0.1600463744694E-02
-0.1327095927223E-01
 0.1883968218870E+00
 0.1865428766597E+00
 0.1846663127882E+00
 0.1827956554459E+00
 0.1809590601382E+00
 0.1791822806369E+00
 0.1774868934088E+00
 0.1758890296315E+00
 0.1743986721212E+00
 0.1730194351077E+00
 0.1717486845650E+00
 0.1705778557186E+00
 0.1694928309292E+00
 0.1684742790604E+00
 0.1674978932774E+00
 0.1665344935356E+00
 0.1655499789082E+00
 0.1645051437622E+00
 0.1633553737262E+00
 0.1620502548150E+00
 0.1605331737031E+00
 0.1587408646539E+00
 0.1566031215223E+00
 0.1540427442886E+00
 0.1509757590961E+00
 0.1473122080266E+00
 0.1429576154044E+00
 0.1378154271749E+00
 0.1317907659985E+00
 0.1247956712134E+00
 0.1167554659360E+00
 0.1076164399725E+00
 0.9735465627304E-01
 0.8598512016298E-01
 0.7357004921392E-01
 0.6022492322568E-01
 0.4612044634585E-01
 0.3147878351197E-01
 0.1656433969716E-01
 0.1669631597480E-02
-0.1290127087897E-01
 0.1883572031316E+00
 0.1865237334774E+00
 0.1846683439704E+00
 0.1828183891044E+00
 0.1810007357699E+00
 0.1792399496750E+00
 0.1775566695334E+00
 0.1759664025450E+00
 0.1744788093897E+00
 0.1730974222840E+00
 0.1718196812084E+00
 0.1706371665921E+00
 0.1695359052070E+00
 0.1684966565218E+00
 0.1674951174968E+00
 0.1665020104103E+00
 0.1654830362437E+00
 0.1643987058424E+00
 0.1632040638144E+00
 0.1618483390586E+00
 0.1602746027585E+00
 0.1584193878224E+00
 0.1562124962303E+00
 0.1535770636535E+00
 0.1504299168925E+00
 0.1466825203917E+00
 0.1422426051664E+00
 0.1370167517995E+00
 0.1309141831475E+00
 0.1238519694701E+00
 0.1157613414001E+00
 0.1065951530347E+00
 0.9633620735716E-01
 0.8500567797263E-01
 0.7267041925815E-01
 0.5944800562716E-01
 0.4550789222839E-01
 0.3106734390423E-01
 0.1638254377916E-01
 0.1735259671021E-02
-0.1258299845578E-01
 0.1883244990236E+00
 0.1865079344049E+00
 0.1846699575574E+00
 0.1828369928038E+00
 0.1810348759804E+00
 0.1792872133452E+00
 0.1776138765675E+00
 0.1760298523431E+00
 0.1745445218225E+00
 0.1731613324373E+00
 0.1718777684732E+00
 0.1706855160327E+00
 0.1695707104390E+00
 0.1685141788144E+00
 0.1674916171613E+00
 0.1664736655588E+00
 0.1654258621185E+00
 0.1643084865839E+00
 0.1630763077784E+00
 0.1616782692211E+00
 0.1600571960383E+00
 0.1581494757304E+00
 0.1558849457690E+00
 0.1531870569679E+00
 0.1499733448820E+00
 0.1461565048897E+00
 0.1416461523433E+00
 0.1363515179551E+00
 0.1301852615378E+00
 0.1230686356101E+00
 0.1149377392673E+00
 0.1057507854722E+00
 0.9549602073060E-01
 0.8419953474623E-01
 0.7193180351839E-01
 0.5881193824446E-01
 0.4500823194294E-01
 0.3073385856353E-01
 0.1623822931414E-01
 0.1794255996516E-02
-0.1231688571101E-01
 0.1882985292452E+00
 0.1864953884905E+00
 0.1846711936390E+00
 0.1828516535032E+00
 0.1810618062154E+00
 0.1793245100987E+00
 0.1776590326809E+00
 0.1760799442691E+00
 0.1745963955935E+00
 0.1732117559043E+00
 0.1719235338469E+00
 0.1707234901801E+00
 0.1695978393982E+00
 0.1685274575990E+00
 0.1674880372931E+00
 0.1664501522595E+00
 0.1653792117703E+00
 0.1642353141161E+00
 0.1629730130763E+00
 0.1615410319808E+00
 0.1598820102802E+00
 0.1579322339465E+00
 0.1556215877595E+00
 0.1528737978567E+00
 0.1496069938745E+00
 0.1457348854487E+00
 0.1411686244198E+00
 0.1358195852670E+00
 0.1296031889254E+00
 0.1224440251512E+00
 0.1142820503480E+00
 0.1050796906570E+00
 0.9482943476420E-01
 0.8356116172776E-01
 0.7134809158548E-01
 0.5831043397382E-01
 0.4461547560856E-01
 0.3047311093487E-01
 0.1612738185649E-01
 0.1844185804198E-02
-0.1210346416956E-01
 0.1882791600258E+00
 0.1864860302016E+00
 0.1846720873232E+00
 0.1828625197792E+00
 0.1810817828605E+00
 0.1793521851992E+00
 0.1776925467752E+00
 0.1761171257712E+00
 0.1746348963434E+00
 0.1732491632533E+00
 0.1719574470813E+00
 0.1707515588851E+00
 0.1696177680885E+00
 0.1685369845150E+00
 0.1674848964552E+00
 0.1664320276408E+00
 0.1653436915690E+00
 0.1641798524645E+00
 0.1628949061199E+00
 0.1614374155115E+00
 0.1597498874141E+00
 0.1577685403512E+00
 0.1554233056691E+00
 0.1526381295511E+00
 0.1493316029330E+00
 0.1454182131827E+00
 0.1408102810931E+00
 0.1354208022249E+00
 0.1291672743463E+00
 0.1219767842705E+00
 0.1137921587243E+00
 0.1045789401999E+00
 0.9433273369967E-01
 0.8308617806017E-01
 0.7091446435428E-01
 0.5793855208324E-01
 0.4432492977087E-01
 0.3028102758357E-01
 0.1604688728934E-01
 0.1883188683645E-02
-0.1194310845132E-01
 0.1882662970172E+00
 0.1864798145312E+00
 0.1846726667126E+00
 0.1828697025493E+00
 0.1810949959840E+00
 0.1793704944833E+00
 0.1777147223147E+00
 0.1761417297110E+00
 0.1746603713950E+00
 0.1732739064137E+00
 0.1719798603349E+00
 0.1707700750637E+00
 0.1696308545337E+00
 0.1685431296210E+00
 0.1674825850365E+00
 0.1664197109909E+00
 0.1653197575417E+00
 0.1641426005071E+00
 0.1628425319396E+00
 0.1613680102127E+00
 0.1596614568073E+00
 0.1576590494463E+00
 0.1552907558168E+00
 0.1524806752570E+00
 0.1491477137077E+00
 0.1452068850748E+00
 0.1405712972268E+00
 0.1351550325610E+00
 0.1288769759876E+00
 0.1216658759228E+00
 0.1134664615752E+00
 0.1042463321416E+00
 0.9400313921625E-01
 0.8277132285557E-01
 0.7062734756003E-01
 0.5769263834709E-01
 0.4413313133094E-01
 0.3015461142157E-01
 0.1599446606754E-01
 0.1909917972694E-02
-0.1183607351790E-01
 0.1882598801223E+00
 0.1864767134219E+00
 0.1846729513866E+00
 0.1828732755358E+00
 0.1811015712747E+00
 0.1793796070622E+00
 0.1777257601062E+00
 0.1761539767154E+00
 0.1746730513946E+00
 0.1732862195299E+00
 0.1719910083014E+00
 0.1707792742373E+00
 0.1696373378956E+00
 0.1685461402487E+00
 0.1674813639875E+00
 0.1664134825149E+00
 0.1653077142917E+00
 0.1641238912262E+00
 0.1628162539788E+00
 0.1613332093153E+00
 0.1596171370215E+00
 0.1576041956738E+00
 0.1552243727222E+00
 0.1524018460204E+00
 0.1490556812485E+00
 0.1451011579833E+00
 0.1404517799381E+00
 0.1350221747238E+00
 0.1287319215443E+00
 0.1215105986265E+00
 0.1133038830458E+00
 0.1040803960680E+00
 0.9383880332945E-01
 0.8261443401224E-01
 0.7048437731348E-01
 0.5757028085007E-01
 0.4403779852809E-01
 0.3009189187780E-01
 0.1596862486655E-01
 0.1923498214093E-02
-0.1178251800634E-01
 0.1882598801246E+00
 0.1864767134241E+00
 0.1846729513888E+00
 0.1828732755379E+00
 0.1811015712767E+00
 0.1793796070641E+00
 0.1777257601080E+00
 0.1761539767171E+00
 0.1746730513961E+00
 0.1732862195314E+00
 0.1719910083029E+00
 0.1707792742388E+00
 0.1696373378972E+00
 0.1685461402505E+00
 0.1674813639895E+00
 0.1664134825173E+00
 0.1653077142945E+00
 0.1641238912296E+00
 0.1628162539830E+00
 0.1613332093205E+00
 0.1596171370278E+00
 0.1576041956814E+00
 0.1552243727314E+00
 0.1524018460313E+00
 0.1490556812613E+00
 0.1451011579982E+00
 0.1404517799553E+00
 0.1350221747434E+00
 0.1287319215661E+00
 0.1215105986503E+00
 0.1133038830714E+00
 0.1040803960947E+00
 0.9383880335651E-01
 0.8261443403858E-01
 0.7048437733786E-01
 0.5757028087110E-01
 0.4403779854435E-01
 0.3009189188797E-01
 0.1596862486953E-01
 0.1923498209124E-02
-0.1178251801956E-01
 0.1882662970239E+00
 0.1864798145379E+00
 0.1846726667191E+00
 0.1828697025556E+00
 0.1810949959900E+00
 0.1793704944890E+00
 0.1777147223200E+00
 0.1761417297159E+00
 0.1746603713996E+00
 0.1732739064181E+00
 0.1719798603392E+00
 0.1707700750681E+00
 0.1696308545384E+00
 0.1685431296262E+00
 0.1674825850425E+00
 0.1664197109980E+00
 0.1653197575502E+00
 0.1641426005175E+00
 0.1628425319523E+00
 0.1613680102281E+00
 0.1596614568261E+00
 0.1576590494690E+00
 0.1552907558441E+00
 0.1524806752896E+00
 0.1491477137461E+00
 0.1452068851196E+00
 0.1405712972784E+00
 0.1351550326196E+00
 0.1288769760530E+00
 0.1216658759945E+00
 0.1134664616521E+00
 0.1042463322220E+00
 0.9400313929758E-01
 0.8277132293478E-01
 0.7062734763338E-01
 0.5769263841041E-01
 0.4413313137995E-01
 0.3015461145226E-01
 0.1599446607660E-01
 0.1909917957860E-02
-0.1183607355756E-01
 0.1882791600369E+00
 0.1864860302127E+00
 0.1846720873341E+00
 0.1828625197897E+00
 0.1810817828705E+00
 0.1793521852086E+00
 0.1776925467840E+00
 0.1761171257794E+00
 0.1746348963511E+00
 0.1732491632606E+00
 0.1719574470884E+00
 0.1707515588924E+00
 0.1696177680963E+00
 0.1685369845236E+00
 0.1674848964652E+00
 0.1664320276526E+00
 0.1653436915832E+00
 0.1641798524817E+00
 0.1628949061409E+00
 0.1614374155372E+00
 0.1597498874453E+00
 0.1577685403890E+00
 0.1554233057146E+00
 0.1526381296053E+00
 0.1493316029969E+00
 0.1454182132573E+00
 0.1408102811791E+00
 0.1354208023226E+00
 0.1291672744554E+00
 0.1219767843902E+00
 0.1137921588527E+00
 0.1045789403342E+00
 0.9433273383573E-01
 0.8308617819281E-01
 0.7091446447722E-01
 0.5793855218950E-01
 0.4432492985327E-01
 0.3028102763535E-01
 0.1604688730490E-01
 0.1883188659163E-02
-0.1194310851742E-01
 0.1882985292608E+00
 0.1864953885060E+00
 0.1846711936543E+00
 0.1828516535180E+00
 0.1810618062295E+00
 0.1793245101119E+00
 0.1776590326931E+00
 0.1760799442805E+00
 0.1745963956042E+00
 0.1732117559145E+00
 0.1719235338569E+00
 0.1707234901903E+00
 0.1695978394090E+00
 0.1685274576110E+00
 0.1674880373069E+00
 0.1664501522759E+00
 0.1653792117900E+00
 0.1642353141401E+00
 0.1629730131056E+00
 0.1615410320166E+00
 0.1598820103238E+00
 0.1579322339992E+00
 0.1556215878229E+00
 0.1528737979323E+00
 0.1496069939639E+00
 0.1457348855531E+00
 0.1411686245401E+00
 0.1358195854038E+00
 0.1296031890784E+00
 0.1224440253191E+00
 0.1142820505283E+00
 0.1050796908458E+00
 0.9482943495577E-01
 0.8356116191477E-01
 0.7134809175909E-01
 0.5831043412417E-01
 0.4461547572543E-01
 0.3047311100867E-01
 0.1612738187923E-01
 0.1844185770431E-02
-0.1210346426210E-01
 0.1883244990436E+00
 0.1865079344249E+00
 0.1846699575771E+00
 0.1828369928227E+00
 0.1810348759984E+00
 0.1792872133621E+00
 0.1776138765832E+00
 0.1760298523577E+00
 0.1745445218362E+00
 0.1731613324504E+00
 0.1718777684860E+00
 0.1706855160457E+00
 0.1695707104528E+00
 0.1685141788298E+00
 0.1674916171790E+00
 0.1664736655797E+00
 0.1654258621437E+00
 0.1643084866145E+00
 0.1630763078158E+00
 0.1616782692669E+00
 0.1600571960940E+00
 0.1581494757979E+00
 0.1558849458502E+00
 0.1531870570648E+00
 0.1499733449965E+00
 0.1461565050236E+00
 0.1416461524979E+00
 0.1363515181310E+00
 0.1301852617348E+00
 0.1230686358266E+00
 0.1149377395001E+00
 0.1057507857164E+00
 0.9549602097876E-01
 0.8419953498894E-01
 0.7193180374418E-01
 0.5881193844047E-01
 0.4500823209582E-01
 0.3073385866068E-01
 0.1623822934506E-01
 0.1794255953990E-02
-0.1231688582999E-01
 0.1883572031560E+00
 0.1865237335018E+00
 0.1846683439944E+00
 0.1828183891276E+00
 0.1810007357919E+00
 0.1792399496957E+00
 0.1775566695526E+00
 0.1759664025628E+00
 0.1744788094064E+00
 0.1730974222998E+00
 0.1718196812239E+00
 0.1706371666078E+00
 0.1695359052238E+00
 0.1684966565403E+00
 0.1674951175182E+00
 0.1665020104356E+00
 0.1654830362742E+00
 0.1643987058795E+00
 0.1632040638598E+00
 0.1618483391141E+00
 0.1602746028261E+00
 0.1584193879044E+00
 0.1562124963291E+00
 0.1535770637714E+00
 0.1504299170320E+00
 0.1466825205549E+00
 0.1422426053551E+00
 0.1370167520146E+00
 0.1309141833887E+00
 0.1238519697356E+00
 0.1157613416861E+00
 0.1065951533353E+00
 0.9633620766330E-01
 0.8500567827275E-01
 0.7267041953808E-01
 0.5944800587091E-01
 0.4550789241931E-01
 0.3106734402652E-01
 0.1638254381957E-01
 0.1735259620430E-02
-0.1258299860119E-01
 0.1883968219159E+00
 0.1865428766886E+00
 0.1846663128166E+00
 0.1827956554733E+00
 0.1809590601642E+00
 0.1791822806613E+00
 0.1774868934314E+00
 0.1758890296525E+00
 0.1743986721408E+00
 0.1730194351263E+00
 0.1717486845831E+00
 0.1705778557370E+00
 0.1694928309488E+00
 0.1684742790821E+00
 0.1674978933024E+00
 0.1665344935652E+00
 0.1655499789440E+00
 0.1645051438057E+00
 0.1633553737794E+00
 0.1620502548800E+00
 0.1605331737824E+00
 0.1587408647501E+00
 0.1566031216383E+00
 0.1540427444272E+00
 0.1509757592602E+00
 0.1473122082190E+00
 0.1429576156271E+00
 0.1378154274291E+00
 0.1317907662840E+00
 0.1247956715284E+00
 0.1167554662762E+00
 0.1076164403307E+00
 0.9735465663888E-01
 0.8598512052262E-01
 0.7357004955042E-01
 0.6022492351977E-01
 0.4612044657736E-01
 0.3147878366161E-01
 0.1656433974872E-01
 0.1669631539713E-02
-0.1290127105081E-01
 0.1884435914407E+00
 0.1865654866643E+00
 0.1846638214766E+00
 0.1827685654135E+00
 0.1809094508937E+00
 0.1791136696331E+00
 0.1774039157709E+00
 0.1757970464416E+00
 0.1743034005071E+00
 0.1729266594138E+00
 0.1716640731946E+00
 0.1705068818608E+00
 0.1694407796502E+00
 0.1684463167759E+00
 0.1674991752515E+00
 0.1665702877208E+00
 0.1656257879835E+00
 0.1646268095848E+00
 0.1635291496501E+00
 0.1622828306835E+00
 0.1608316348836E+00
 0.1591125680251E+00
 0.1570554616338E+00
 0.1545827824750E+00
 0.1516096916137E+00
 0.1480446482357E+00
 0.1437906794628E+00
 0.1387476404141E+00
 0.1328159084130E+00
 0.1259016424846E+00
 0.1179231893085E+00
 0.1088189996008E+00
 0.9855698473556E-01
 0.8714457329340E-01
 0.7463815499767E-01
 0.6115040184800E-01
 0.4685326499299E-01
 0.3197462114402E-01
 0.1678861544129E-01
 0.1600463680860E-02
-0.1327095947048E-01
 0.1884978153759E+00
 0.1865917257407E+00
 0.1846608279425E+00
 0.1827368514246E+00
 0.1808514321254E+00
 0.1790334754345E+00
 0.1773069835359E+00
 0.1756896386617E+00
 0.1741921581746E+00
 0.1728182608027E+00
 0.1715650237040E+00
 0.1704234290823E+00
 0.1693789301008E+00
 0.1684119243948E+00
 0.1674980725313E+00
 0.1666084343679E+00
 0.1657094166928E+00
 0.1647625515458E+00
 0.1637241239226E+00
 0.1625446807954E+00
 0.1611684919199E+00
 0.1595329209248E+00
 0.1575679039642E+00
 0.1551956037496E+00
 0.1523302840712E+00
 0.1488786974782E+00
 0.1447411221686E+00
 0.1398134021153E+00
 0.1339905494237E+00
 0.1271719977548E+00
 0.1192680189559E+00
 0.1102078727169E+00
 0.9994977265179E-01
 0.8849197217215E-01
 0.7588362114614E-01
 0.6223367033379E-01
 0.4771520180565E-01
 0.3256262750750E-01
 0.1706145426347E-01
 0.1531614064399E-02
-0.1369101989780E-01
 0.1885598793748E+00
 0.1866218055091E+00
 0.1846572941604E+00
 0.1827002025903E+00
 0.1807844440630E+00
 0.1789409442843E+00
 0.1771952152893E+00
 0.1755658587059E+00
 0.1740639779191E+00
 0.1726932801867E+00
 0.1714505947505E+00
 0.1703265685948E+00
 0.1693063502231E+00
 0.1683701441568E+00
 0.1674935760138E+00
 0.1666478469269E+00
 0.1657996767754E+00
 0.1649110594423E+00
 0.1639388506234E+00
 0.1628342191726E+00
 0.1615420276575E+00
 0.1600001018740E+00
 0.1581385732660E+00
 0.1558793598627E+00
 0.1531358329398E+00
 0.1498129575839E+00
 0.1458080577022E+00
 0.1410125904131E+00
 0.1353156170496E+00
 0.1286090128872E+00
 0.1207938504826E+00
 0.1117887643170E+00
 0.1015405707630E+00
 0.9003652322688E-01
 0.7731684507777E-01
 0.6348559406774E-01
 0.4871671849747E-01
 0.3325201656320E-01
 0.1739014043167E-01
 0.1467847877182E-02
-0.1415997593831E-01
 0.1886302688609E+00
 0.1866559984994E+00
 0.1846531899210E+00
 0.1826582613323E+00
 0.1807078348897E+00
 0.1788351997685E+00
 0.1770675916627E+00
 0.1754246181582E+00
 0.1739177568544E+00
 0.1725506316003E+00
 0.1713197270788E+00
 0.1702152604519E+00
 0.1692219999750E+00
 0.1683199092741E+00
 0.1674845621271E+00
 0.1666873146153E+00
 0.1658952418664E+00
 0.1650708673021E+00
 0.1641717070516E+00
 0.1631496593608E+00
 0.1619502990997E+00
 0.1605120380625E+00
 0.1587653196547E+00
 0.1566319101393E+00
 0.1540243346544E+00
 0.1508457392079E+00
 0.1469903425696E+00
 0.1423448939187E+00
 0.1367919638169E+00
 0.1302150589827E+00
 0.1225049094274E+00
 0.1135680066188E+00
 0.1033379003138E+00
 0.9178875415106E-01
 0.7894984017415E-01
 0.6491881612694E-01
 0.4987003182631E-01
 0.3405357294464E-01
 0.1778328305945E-01
 0.1415014083394E-02
-0.1467571077032E-01
 0.1887095906634E+00
 0.1866946521410E+00
 0.1846484970669E+00
 0.1826106188349E+00
 0.1806208504672E+00
 0.1787152304404E+00
 0.1769229438485E+00
 0.1752646789883E+00
 0.1737522509832E+00
 0.1723890999574E+00
 0.1711712438691E+00
 0.1700883557777E+00
 0.1691247347958E+00
 0.1682600481175E+00
 0.1674697973435E+00
 0.1667255069343E+00
 0.1659946516979E+00
 0.1652403568921E+00
 0.1644208960358E+00
 0.1634890148498E+00
 0.1623911350098E+00
 0.1610663989265E+00
 0.1594457066679E+00
 0.1574508022655E+00
 0.1549934572235E+00
 0.1519750224438E+00
 0.1482865239278E+00
 0.1438097477395E+00
 0.1384202927959E+00
 0.1319925243835E+00
 0.1244056799619E+00
 0.1155525102241E+00
 0.1053512459588E+00
 0.9376056718309E-01
 0.8079635805482E-01
 0.6654793152075E-01
 0.5118929191166E-01
 0.3497978901347E-01
 0.1825093317146E-01
 0.1380257617993E-02
-0.1523514085359E-01
 0.1887985992767E+00
 0.1867382053850E+00
 0.1846432139122E+00
 0.1825568086884E+00
 0.1805226212227E+00
 0.1785798745406E+00
 0.1767599397850E+00
 0.1750846432639E+00
 0.1735660690512E+00
 0.1722073386932E+00
 0.1710038513603E+00
 0.1699445994899E+00
 0.1690133096704E+00
 0.1681892890484E+00
 0.1674479433588E+00
 0.1667609788655E+00
 0.1660963169958E+00
 0.1654177619319E+00
 0.1646844489443E+00
 0.1638501001511E+00
 0.1628621340546E+00
 0.1616605900399E+00
 0.1601769992370E+00
 0.1583332523432E+00
 0.1560405101156E+00
 0.1531984142517E+00
 0.1496947826622E+00
 0.1454062615075E+00
 0.1402010723308E+00
 0.1339437219484E+00
 0.1265008163621E+00
 0.1177496981600E+00
 0.1075910361228E+00
 0.9596529089022E-01
 0.8287202916825E-01
 0.6838970257320E-01
 0.5269080364810E-01
 0.3604500786049E-01
 0.1880466523335E-01
 0.1372251256114E-02
-0.1583369700875E-01
 0.1888982288023E+00
 0.1867872084718E+00
 0.1846373597253E+00
 0.1824962981652E+00
 0.1804121455185E+00
 0.1784278012588E+00
 0.1765770676931E+00
 0.1748829412647E+00
 0.1733576657401E+00
 0.1720038674178E+00
 0.1708161398882E+00
 0.1697826336380E+00
 0.1688863838904E+00
 0.1681062659713E+00
 0.1674175630021E+00
 0.1667921768142E+00
 0.1661985251527E+00
 0.1656011731255E+00
 0.1649602295509E+00
 0.1642305327465E+00
 0.1633606637820E+00
 0.1622917477016E+00
 0.1609561520611E+00
 0.1592761248078E+00
 0.1571624131134E+00
 0.1545131034389E+00
 0.1512128718837E+00
 0.1471331397993E+00
 0.1421344392162E+00
 0.1360707803054E+00
 0.1287950345165E+00
 0.1201674186087E+00
 0.1100686059213E+00
 0.9841772543019E-01
 0.8519451983184E-01
 0.7046332749901E-01
 0.5439331615313E-01
 0.3726557565551E-01
 0.1945757110576E-01
 0.1401397904784E-02
-0.1646450124531E-01
 0.1890096318416E+00
 0.1868423463931E+00
 0.1846309789841E+00
 0.1824284762954E+00
 0.1802882685562E+00
 0.1782574877999E+00
 0.1763726165613E+00
 0.1746578178948E+00
 0.1731253342893E+00
 0.1717770697532E+00
 0.1706065855172E+00
 0.1696010015098E+00
 0.1687425266260E+00
 0.1680095246879E+00
 0.1673771269314E+00
 0.1668174453389E+00
 0.1662994467083E+00
 0.1657885440363E+00
 0.1652459387882E+00
 0.1646277359491E+00
 0.1638838604874E+00
 0.1629567342945E+00
 0.1617797984756E+00
 0.1602759123171E+00
 0.1583556642344E+00
 0.1559158132306E+00
 0.1528380506985E+00
 0.1489885943705E+00
 0.1442200888869E+00
 0.1383755162382E+00
 0.1312929786921E+00
 0.1228138291714E+00
 0.1127961343313E+00
 0.1011341727925E+00
 0.8778369604964E-01
 0.7279077012215E-01
 0.5631842441606E-01
 0.3866002653553E-01
 0.2022408081153E-01
 0.1479865893825E-02
-0.1711704510282E-01
 0.1891342269991E+00
 0.1869044667224E+00
 0.1846241449679E+00
 0.1823526376258E+00
 0.1801496555949E+00
 0.1780671913426E+00
 0.1761446531080E+00
 0.1744073172838E+00
 0.1728671986426E+00
 0.1715251915236E+00
 0.1703735524293E+00
 0.1693981526272E+00
 0.1685802233925E+00
 0.1678975301139E+00
 0.1673250211716E+00
 0.1668350347344E+00
 0.1663971427345E+00
 0.1659776979574E+00
 0.1655391206106E+00
 0.1650389429986E+00
 0.1644286304134E+00
 0.1636521350093E+00
 0.1626442405827E+00
 0.1613287165777E+00
 0.1596163079032E+00
 0.1574027528235E+00
 0.1545670147744E+00
 0.1509702496166E+00
 0.1464571535150E+00
 0.1408592877356E+00
 0.1339990611456E+00
 0.1256972473687E+00
 0.1157865473742E+00
 0.1041324469139E+00
 0.9066178139960E-01
 0.7539714245346E-01
 0.5849116139977E-01
 0.4024938409620E-01
 0.2111948591746E-01
 0.1621132056674E-02
-0.1777509743074E-01
 0.1892737572919E+00
 0.1869746126804E+00
 0.1846169621067E+00
 0.1822679602260E+00
 0.1799947579724E+00
 0.1778549148469E+00
 0.1758909947704E+00
 0.1741292655752E+00
 0.1725812053547E+00
 0.1712463395903E+00
 0.1701152963208E+00
 0.1691724488175E+00
 0.1683978835331E+00
 0.1677686744317E+00
 0.1672595555361E+00
 0.1668431094970E+00
 0.1664895731546E+00
 0.1661663358162E+00
 0.1658371690342E+00
 0.1654612024971E+00
 0.1649916524473E+00
 0.1643742561672E+00
 0.1635454409700E+00
 0.1624302305399E+00
 0.1609399039308E+00
 0.1589695686067E+00
 0.1563958244465E+00
 0.1530750418918E+00
 0.1488440679154E+00
 0.1435228264171E+00
 0.1369172697012E+00
 0.1288259613772E+00
 0.1190533720405E+00
 0.1074318547940E+00
 0.9385350681562E-01
 0.7831107405128E-01
 0.6094086856988E-01
 0.4205785340549E-01
 0.2215896463077E-01
 0.1838381889147E-02
-0.1841359710216E-01
 0.1894303623035E+00
 0.1870540623117E+00
 0.1846095661017E+00
 0.1821734758689E+00
 0.1798217698329E+00
 0.1776183653408E+00
 0.1756091781232E+00
 0.1738212518535E+00
 0.1722651154562E+00
 0.1709384815608E+00
 0.1698299689725E+00
 0.1689221714431E+00
 0.1681938487453E+00
 0.1676212861844E+00
 0.1671789729522E+00
 0.1668397577321E+00
 0.1665746061254E+00
 0.1663520453460E+00
 0.1661373367231E+00
 0.1658913857354E+00
 0.1655693830926E+00
 0.1651191262021E+00
 0.1644790174130E+00
 0.1635757237661E+00
 0.1623214995901E+00
 0.1606112979024E+00
 0.1583198338445E+00
 0.1552991166179E+00
 0.1513784274306E+00
 0.1463660518875E+00
 0.1400509456979E+00
 0.1322079913796E+00
 0.1226105510063E+00
 0.1110530863184E+00
 0.9738635609804E-01
 0.8156490157507E-01
 0.6370228162589E-01
 0.4411465247781E-01
 0.2335610398247E-01
 0.2139652971854E-02
-0.1899260420555E-01
 0.1896066686596E+00
 0.1871443746105E+00
 0.1846021209495E+00
 0.1820680297286E+00
 0.1796285731029E+00
 0.1773549033707E+00
 0.1752964223806E+00
 0.1734806075702E+00
 0.1719164968727E+00
 0.1705994469496E+00
 0.1695156244388E+00
 0.1686455300957E+00
 0.1679664028423E+00
 0.1674536404154E+00
 0.1670814597158E+00
 0.1668230014631E+00
 0.1666500283766E+00
 0.1665323113491E+00
 0.1664367448788E+00
 0.1663261955961E+00
 0.1661580633260E+00
 0.1658824988290E+00
 0.1654402399999E+00
 0.1647600303168E+00
 0.1637556040564E+00
 0.1623223244667E+00
 0.1603336202572E+00
 0.1576377223924E+00
 0.1540568362031E+00
 0.1493878659616E+00
 0.1434025224810E+00
 0.1358508014464E+00
 0.1264721544829E+00
 0.1150181375456E+00
 0.1012904046057E+00
 0.8519602471198E-01
 0.6681363477140E-01
 0.4646200694253E-01
 0.2471753560570E-01
 0.2520901460961E-02
-0.1945627662975E-01
 0.1898059063564E+00
 0.1872474400266E+00
 0.1845948140018E+00
 0.1819502235508E+00
 0.1794126681927E+00
 0.1770614813819E+00
 0.1749495876241E+00
 0.1731043847990E+00
 0.1715327180239E+00
 0.1702269303391E+00
 0.1691702272465E+00
 0.1683406730051E+00
 0.1677137829070E+00
 0.1672639699559E+00
 0.1669651567586E+00
 0.1667908079156E+00
 0.1667135565832E+00
 0.1667045271455E+00
 0.1667323945564E+00
 0.1667621772042E+00
 0.1667537275826E+00
 0.1666598587338E+00
 0.1664240311241E+00
 0.1659775397362E+00
 0.1652361659915E+00
 0.1640963367927E+00
 0.1624309152317E+00
 0.1600851039541E+00
 0.1568747482567E+00
 0.1525859266439E+00
 0.1469732271323E+00
 0.1397609335089E+00
 0.1306520442488E+00
 0.1193499569993E+00
 0.1055987639685E+00
 0.8924570872097E-01
 0.7032403400996E-01
 0.4913320503480E-01
 0.2632064870907E-01
 0.2793071335788E-02
-0.1946424823708E-01
 0.1900316574327E+00
 0.1873654446029E+00
 0.1845876366842E+00
 0.1818181107452E+00
 0.1791707521476E+00
 0.1767341196794E+00
 0.1745645505695E+00
 0.1726886397864E+00
 0.1711101538668E+00
 0.1698176445102E+00
 0.1687907865295E+00
 0.1680048441116E+00
 0.1674334081898E+00
 0.1670498218885E+00
 0.1668277071431E+00
 0.1667409009285E+00
 0.1667629973291E+00
 0.1668666023331E+00
 0.1670223393778E+00
 0.1671975943661E+00
 0.1673549482411E+00
 0.1674502281118E+00
 0.1674300616333E+00
 0.1672288469080E+00
 0.1667650788344E+00
 0.1659370258378E+00
 0.1646178587932E+00
 0.1626506887691E+00
 0.1598459483362E+00
 0.1559797368917E+00
 0.1507899873264E+00
 0.1439747855436E+00
 0.1351982459487E+00
 0.1241099743618E+00
 0.1103862316473E+00
 0.9380029427786E-01
 0.7431996040056E-01
 0.5222201116430E-01
 0.2816367740177E-01
 0.3274248888685E-02
-0.2076419143830E-01
 0.1902896449114E+00
 0.1875016495919E+00
 0.1845812708588E+00
 0.1816700040776E+00
 0.1788996088478E+00
 0.1763689387559E+00
 0.1741374164996E+00
 0.1722298177673E+00
 0.1706457077045E+00
 0.1693689226629E+00
 0.1683749677933E+00
 0.1676359216457E+00
 0.1671232510360E+00
 0.1668091531829E+00
 0.1666669530083E+00
 0.1666709164370E+00
 0.1667956943886E+00
 0.1670155056781E+00
 0.1673030920854E+00
 0.1676284250736E+00
 0.1679570953298E+00
 0.1682483085721E+00
 0.1684523298147E+00
 0.1685072568297E+00
 0.1683350356090E+00
 0.1678366586868E+00
 0.1668866252293E+00
 0.1653270967908E+00
 0.1629643309114E+00
 0.1595657101768E+00
 0.1548535682774E+00
 0.1485000530189E+00
 0.1401287281325E+00
 0.1293300154875E+00
 0.1157014986453E+00
 0.9892433622661E-01
 0.7888079890997E-01
 0.5579412204895E-01
 0.3035825404871E-01
 0.3776109329572E-02
-0.2231745288881E-01
 0.1905854918444E+00
 0.1876591645139E+00
 0.1845754703519E+00
 0.1815029965692E+00
 0.1785948546118E+00
 0.1759612227905E+00
 0.1736638942441E+00
 0.1717243936999E+00
 0.1701366590391E+00
 0.1688787215645E+00
 0.1679212118136E+00
 0.1672326248119E+00
 0.1667821122965E+00
 0.1665406622020E+00
 0.1664813150780E+00
 0.1665788250259E+00
 0.1668089914422E+00
 0.1671477662529E+00
 0.1675701625300E+00
 0.1680489337256E+00
 0.1685529375390E+00
 0.1690451001991E+00
 0.1694797787324E+00
 0.1697993663438E+00
 0.1699300201441E+00
 0.1697763941740E+00
 0.1692154356778E+00
 0.1680896634440E+00
 0.1662026683892E+00
 0.1633148267974E+00
 0.1591346510177E+00
 0.1533096902927E+00
 0.1454226414150E+00
 0.1350006645266E+00
 0.1215518604503E+00
 0.1046462024041E+00
 0.8405167742842E-01
 0.5991507873683E-01
 0.3293361561788E-01
 0.4416216569399E-02
-0.2400447108858E-01
 0.1909267302189E+00
 0.1878420705592E+00
 0.1845701387733E+00
 0.1813136501323E+00
 0.1782512646894E+00
 0.1755053547758E+00
 0.1731388437114E+00
 0.1711680548993E+00
 0.1695795331791E+00
 0.1683442546109E+00
 0.1674272248962E+00
 0.1667929657513E+00
 0.1664081474771E+00
 0.1662425099934E+00
 0.1662688412376E+00
 0.1664624552685E+00
 0.1668003981070E+00
 0.1672604764652E+00
 0.1678201249985E+00
 0.1684550702740E+00
 0.1691376886069E+00
 0.1698349664231E+00
 0.1705058145161E+00
 0.1710975411709E+00
 0.1715413227871E+00
 0.1717464904885E+00
 0.1715936727248E+00
 0.1709272133426E+00
 0.1695497868370E+00
 0.1672168677677E+00
 0.1636255920931E+00
 0.1584013140623E+00
 0.1510870280595E+00
 0.1411439961609E+00
 0.1279806109028E+00
 0.1110336935613E+00
 0.8992382487153E-01
 0.6468169218571E-01
 0.3598611551466E-01
 0.5253613545316E-02
-0.2566103909837E-01
 0.1913227710644E+00
 0.1880552924837E+00
 0.1845648662440E+00
 0.1810975202989E+00
 0.1778624554044E+00
 0.1749947613508E+00
 0.1725564828067E+00
 0.1705561233844E+00
 0.1689706798723E+00
 0.1677626713921E+00
 0.1668907083559E+00
 0.1663149789038E+00
 0.1659995439684E+00
 0.1659128892684E+00
 0.1660276051400E+00
 0.1663196517663E+00
 0.1667674267977E+00
 0.1673507140170E+00
 0.1680495154001E+00
 0.1688427132228E+00
 0.1697064434911E+00
 0.1706120836956E+00
 0.1715235593529E+00
 0.1723937293096E+00
 0.1731596385401E+00
 0.1737363826728E+00
 0.1740096090055E+00
 0.1738270986932E+00
 0.1729925748840E+00
 0.1712590816228E+00
 0.1683154965297E+00
 0.1637685803620E+00
 0.1571246564306E+00
 0.1477787619323E+00
 0.1350307748017E+00
 0.1181609842089E+00
 0.9660139923835E-01
 0.7021560526317E-01
 0.3962568984639E-01
 0.6384939148522E-02
-0.2729524758696E-01
 0.1917854596835E+00
 0.1883047532406E+00
 0.1845587163041E+00
 0.1808487935542E+00
 0.1774205835360E+00
 0.1744217467668E+00
 0.1719103353889E+00
 0.1698835654046E+00
 0.1683063045177E+00
 0.1671310911244E+00
 0.1663093878988E+00
 0.1657967456078E+00
 0.1655545418486E+00
 0.1655500427276E+00
 0.1657557232961E+00
 0.1661482921020E+00
 0.1667076105293E+00
 0.1674155614905E+00
 0.1682548535385E+00
 0.1692076953835E+00
 0.1702542080358E+00
 0.1713704746319E+00
 0.1725258862388E+00
 0.1736794938630E+00
 0.1747750932717E+00
 0.1757346973847E+00
 0.1764504054236E+00
 0.1767751721662E+00
 0.1765159102528E+00
 0.1754260158749E+00
 0.1731898577629E+00
 0.1694004606638E+00
 0.1635327524441E+00
 0.1549184540468E+00
 0.1427431989296E+00
 0.1261070439032E+00
 0.1042045472517E+00
 0.7666349826339E-01
 0.4399344341783E-01
 0.7902851100647E-02
-0.2892216854993E-01
 0.1923298318120E+00
 0.1885975530623E+00
 0.1845498857422E+00
 0.1805597864354E+00
 0.1769159671913E+00
 0.1737773135526E+00
 0.1711931965951E+00
 0.1691450220019E+00
 0.1675825139850E+00
 0.1664466445057E+00
 0.1656810476096E+00
 0.1652364212197E+00
 0.1650714561041E+00
 0.1651522822455E+00
 0.1654513727777E+00
 0.1659463043487E+00
 0.1666185213687E+00
 0.1674521268400E+00
 0.1684326667766E+00
 0.1695458318612E+00
 0.1707759321957E+00
 0.1721040465683E+00
 0.1735054613303E+00
 0.1749460555567E+00
 0.1763772813851E+00
 0.1777292811571E+00
 0.1789021270030E+00
 0.1797557859670E+00
 0.1801026267682E+00
 0.1796994089803E+00
 0.1782302728307E+00
 0.1752805783664E+00
 0.1703016281827E+00
 0.1625690019372E+00
 0.1511535433883E+00
 0.1349536430689E+00
 0.1128700616849E+00
 0.8420403127822E-01
 0.4926549338239E-01
 0.9914683699684E-02
-0.3055825798780E-01
 0.1929751664892E+00
 0.1889421613500E+00
 0.1845351680302E+00
 0.1802202472898E+00
 0.1763366155425E+00
 0.1730509827567E+00
 0.1703971309291E+00
 0.1683348684694E+00
 0.1667953794779E+00
 0.1657065243853E+00
 0.1650035684370E+00
 0.1646322645511E+00
 0.1645487000684E+00
 0.1647180087434E+00
 0.1651128093790E+00
 0.1657116849858E+00
 0.1664977893761E+00
 0.1674575645986E+00
 0.1685795148601E+00
 0.1698529500118E+00
 0.1712665466268E+00
 0.1728066355967E+00
 0.1744547943891E+00
 0.1761843458275E+00
 0.1779553158086E+00
 0.1797072425421E+00
 0.1813497763675E+00
 0.1827518179167E+00
 0.1837335263907E+00
 0.1840581551774E+00
 0.1834142679795E+00
 0.1813866722270E+00
 0.1774133434896E+00
 0.1707260657932E+00
 0.1602882266310E+00
 0.1447815357505E+00
 0.1227515181603E+00
 0.9305457261092E-01
 0.5566581484193E-01
 0.1255739218603E-01
-0.3221944949235E-01
 0.1937464830882E+00
 0.1893485971631E+00
 0.1845091022177E+00
 0.1798163796617E+00
 0.1756676597767E+00
 0.1722306405951E+00
 0.1695135249008E+00
 0.1674473109510E+00
 0.1659410178670E+00
 0.1649080450740E+00
 0.1642749708189E+00
 0.1639826692877E+00
 0.1639848098147E+00
 0.1642457325455E+00
 0.1647383860658E+00
 0.1654425170594E+00
 0.1663431218533E+00
 0.1674290975764E+00
 0.1686920156066E+00
 0.1701249210050E+00
 0.1717210022900E+00
 0.1734720559718E+00
 0.1753662977689E+00
 0.1773850715098E+00
 0.1794978913533E+00
 0.1816550083125E+00
 0.1837773438465E+00
 0.1857447235596E+00
 0.1873874379862E+00
 0.1884783514401E+00
 0.1887152614727E+00
 0.1876902697633E+00
 0.1848405614162E+00
 0.1793721249072E+00
 0.1701590883100E+00
 0.1556642474384E+00
 0.1340172285335E+00
 0.1034794020792E+00
 0.6348520907747E-01
 0.1601565544516E-01
-0.3392246597500E-01
 0.1946767207179E+00
 0.1898285417330E+00
 0.1844626090118E+00
 0.1793294749675E+00
 0.1748906955842E+00
 0.1713024610010E+00
 0.1685332228000E+00
 0.1664765267789E+00
 0.1650156913088E+00
 0.1640487096502E+00
 0.1634934609723E+00
 0.1632861970580E+00
 0.1633784693083E+00
 0.1637340941076E+00
 0.1643265716379E+00
 0.1651369885090E+00
 0.1661523227847E+00
 0.1673640388527E+00
 0.1687668711300E+00
 0.1703576924784E+00
 0.1721343124015E+00
 0.1740941543482E+00
 0.1762323540024E+00
 0.1785387919705E+00
 0.1809933623159E+00
 0.1835583930987E+00
 0.1861678711615E+00
 0.1887146096842E+00
 0.1910413196034E+00
 0.1929334285443E+00
 0.1941026780867E+00
 0.1941566339658E+00
 0.1925458125213E+00
 0.1884737116100E+00
 0.1807568252920E+00
 0.1676584158310E+00
 0.1468442694896E+00
 0.1157984963204E+00
 0.7310815507425E-01
 0.2054790932472E-01
-0.3568700920670E-01
 0.1958099991933E+00
 0.1903952555482E+00
 0.1843807741676E+00
 0.1787340048632E+00
 0.1739830915185E+00
 0.1702509882999E+00
 0.1674467768707E+00
 0.1654168491510E+00
 0.1640159221680E+00
 0.1631262834733E+00
 0.1626574794125E+00
 0.1625416110075E+00
 0.1627285354215E+00
 0.1631818843733E+00
 0.1638759689677E+00
 0.1647934101114E+00
 0.1659233119937E+00
 0.1672598136484E+00
 0.1688008942268E+00
 0.1705473219028E+00
 0.1725015963679E+00
 0.1746668688552E+00
 0.1770453932286E+00
 0.1796360118930E+00
 0.1824298388009E+00
 0.1854026859725E+00
 0.1885035296894E+00
 0.1916403287247E+00
 0.1946704053341E+00
 0.1973943743008E+00
 0.1995422319940E+00
 0.2007450283714E+00
 0.2004813959046E+00
 0.1979794160889E+00
 0.1920437432446E+00
 0.1807896660885E+00
 0.1614055171575E+00
 0.1303946524920E+00
 0.8505085735059E-01
 0.2652786853133E-01
-0.3753835628258E-01
 0.1972066622434E+00
 0.1910630160533E+00
 0.1842391821939E+00
 0.1779949958101E+00
 0.1729174179232E+00
 0.1690595125177E+00
 0.1662448348850E+00
 0.1642629875781E+00
 0.1629386198050E+00
 0.1621388728158E+00
 0.1617657509530E+00
 0.1617479096927E+00
 0.1620340629005E+00
 0.1625880649475E+00
 0.1633853330304E+00
 0.1644102332030E+00
 0.1656541440527E+00
 0.1671139809183E+00
 0.1687910344605E+00
 0.1706900097248E+00
 0.1728181240654E+00
 0.1751842907675E+00
 0.1777979786321E+00
 0.1806672895891E+00
 0.1837953025656E+00
 0.1871727517648E+00
 0.1907657044846E+00
 0.1944995793774E+00
 0.1982483784251E+00
 0.2018300317155E+00
 0.2049963666723E+00
 0.2074092707825E+00
 0.2085899955924E+00
 0.2078194249469E+00
 0.2039472148872E+00
 0.1950334706419E+00
 0.1778446740896E+00
 0.1477136152182E+00
 0.1000149016489E+00
 0.3451472230391E-01
-0.3950927031642E-01
 0.1989513976363E+00
 0.1918454290394E+00
 0.1839977187833E+00
 0.1770645428320E+00
 0.1716613623643E+00
 0.1677109133535E+00
 0.1649186503145E+00
 0.1630102638291E+00
 0.1617812166402E+00
 0.1610850063313E+00
 0.1608173346224E+00
 0.1609043606919E+00
 0.1612943289208E+00
 0.1619517879022E+00
 0.1628535886195E+00
 0.1639860670943E+00
 0.1653430268415E+00
 0.1669242544842E+00
 0.1687344036328E+00
 0.1707821317025E+00
 0.1730793592680E+00
 0.1756407267827E+00
 0.1784828984450E+00
 0.1816233627653E+00
 0.1850777479135E+00
 0.1888531505572E+00
 0.1929350788313E+00
 0.1972690010762E+00
 0.2017475560360E+00
 0.2062074528826E+00
 0.2104248487509E+00
 0.2140985514989E+00
 0.2168058695283E+00
 0.2179072032752E+00
 0.2163565886639E+00
 0.2102924914765E+00
 0.1962321177911E+00
 0.1682452417026E+00
 0.1189607534289E+00
 0.4537696220809E-01
-0.4163715609766E-01
 0.2011670038850E+00
 0.1927510807754E+00
 0.1835898286622E+00
 0.1758776035972E+00
 0.1701789140747E+00
 0.1661891183823E+00
 0.1634606162455E+00
 0.1616548454359E+00
 0.1605418135134E+00
 0.1599637138471E+00
 0.1598116714929E+00
 0.1600105326189E+00
 0.1605088561290E+00
 0.1612724144190E+00
 0.1622798470788E+00
 0.1635196956242E+00
 0.1649883392941E+00
 0.1666885233260E+00
 0.1686283003025E+00
 0.1708202700980E+00
 0.1732810015109E+00
 0.1760307599994E+00
 0.1790932624881E+00
 0.1824952948725E+00
 0.1862653589015E+00
 0.1904282864287E+00
 0.1949917184651E+00
 0.1999242497179E+00
 0.2051390769867E+00
 0.2104922924679E+00
 0.2157854931306E+00
 0.2207585798360E+00
 0.2250563174195E+00
 0.2281429595818E+00
 0.2291273912986E+00
 0.2263771989885E+00
 0.2164938460403E+00
 0.1924598931739E+00
 0.1431999659744E+00
 0.6051905165602E-01
-0.4394313585651E-01
 0.2040393706095E+00
 0.1937726347269E+00
 0.1829033995816E+00
 0.1743483478200E+00
 0.1684342930142E+00
 0.1644810014528E+00
 0.1618646248994E+00
 0.1601940072308E+00
 0.1592193263393E+00
 0.1587745955006E+00
 0.1587486309275E+00
 0.1590663243893E+00
 0.1596774340282E+00
 0.1605495322129E+00
 0.1616634220399E+00
 0.1630100928550E+00
 0.1645886482584E+00
 0.1664048708347E+00
 0.1684702329264E+00
 0.1708012429936E+00
 0.1734190250931E+00
 0.1763493058809E+00
 0.1796225961365E+00
 0.1832746394092E+00
 0.1873467348337E+00
 0.1918825993723E+00
 0.1969151486500E+00
 0.2024400255797E+00
 0.2083930607669E+00
 0.2146492349382E+00
 0.2210349076141E+00
 0.2273330990452E+00
 0.2332635491207E+00
 0.2384166681864E+00
 0.2420946910014E+00
 0.2430067951080E+00
 0.2383139140983E+00
 0.2206471803459E+00
 0.1744809648323E+00
 0.8231039580110E-01
-0.4635145604713E-01
 0.2078672026056E+00
 0.1948584357430E+00
 0.1817461214408E+00
 0.1723722548028E+00
 0.1664006402141E+00
 0.1625774748196E+00
 0.1601262072829E+00
 0.1586265203169E+00
 0.1578135756263E+00
 0.1575178893091E+00
 0.1576285520623E+00
 0.1580719894585E+00
 0.1588001381730E+00
 0.1597829706081E+00
 0.1610038435061E+00
 0.1624564372014E+00
 0.1641427238547E+00
 0.1660715924357E+00
 0.1682579410265E+00
 0.1707221309620E+00
 0.1734897146709E+00
 0.1765916611429E+00
 0.1800649218865E+00
 0.1839536135241E+00
 0.1883111830445E+00
 0.1932008365714E+00
 0.1986844201176E+00
 0.2047900260460E+00
 0.2114786898977E+00
 0.2186424666422E+00
 0.2261292762407E+00
 0.2337652638206E+00
 0.2413482520550E+00
 0.2486086828645E+00
 0.2550867351467E+00
 0.2598583351176E+00
 0.2610496316955E+00
 0.2525615299399E+00
 0.2149569807573E+00
 0.1149206397666E+00
-0.4842003695849E-01
 0.2131746084334E+00
 0.1958313402345E+00
 0.1797844207753E+00
 0.1698517096394E+00
 0.1640723523621E+00
 0.1604707188579E+00
 0.1582436221618E+00
 0.1569529340301E+00
 0.1563252851116E+00
 0.1561945766754E+00
 0.1564522584124E+00
 0.1570281639265E+00
 0.1578773447724E+00
 0.1589728149933E+00
 0.1603008707829E+00
 0.1618581248390E+00
 0.1636495539776E+00
 0.1656872120564E+00
 0.1679894147168E+00
 0.1705803008275E+00
 0.1734896966206E+00
 0.1767535462531E+00
 0.1804148164851E+00
 0.1845252507395E+00
 0.1891490954944E+00
 0.1943684687455E+00
 0.2002781720042E+00
 0.2069467196022E+00
 0.2143642449866E+00
 0.2224359486211E+00
 0.2310256359822E+00
 0.2399980739782E+00
 0.2492338584405E+00
 0.2585963881404E+00
 0.2679113509185E+00
 0.2766663228649E+00
 0.2838162338656E+00
 0.2867655060597E+00
 0.2666305291353E+00
 0.1659703475664E+00
-0.4846210479662E-01
 0.2210165841143E+00
 0.1961173870978E+00
 0.1764637591649E+00
 0.1667961391681E+00
 0.1614559536694E+00
 0.1581498374679E+00
 0.1562221318019E+00
 0.1551740685498E+00
 0.1547567334048E+00
 0.1548062470406E+00
 0.1552211354431E+00
 0.1559358699032E+00
 0.1569097486228E+00
 0.1581194182159E+00
 0.1595545048767E+00
 0.1612147822468E+00
 0.1631083580522E+00
 0.1652504975546E+00
 0.1676629124676E+00
 0.1703734273071E+00
 0.1734159639791E+00
 0.1768311450657E+00
 0.1806674478168E+00
 0.1849834691090E+00
 0.1898523947133E+00
 0.1953724167041E+00
 0.2016747128333E+00
 0.2088808417798E+00
 0.2170168646021E+00
 0.2259941205999E+00
 0.2356817040851E+00
 0.2459791632625E+00
 0.2568389211933E+00
 0.2682845667277E+00
 0.2803270181156E+00
 0.2931993070184E+00
 0.3060846123787E+00
 0.3199236740591E+00
 0.3289071294635E+00
 0.2496680347483E+00
-0.4054944793548E-01
 0.2340465309651E+00
 0.1935982183009E+00
 0.1712054067779E+00
 0.1635359264337E+00
 0.1584386890253E+00
 0.1556533370914E+00
 0.1540573943736E+00
 0.1532960495633E+00
 0.1531104301086E+00
 0.1533554896643E+00
 0.1539370490748E+00
 0.1547965508459E+00
 0.1558983654318E+00
 0.1572234105171E+00
 0.1587649967876E+00
 0.1605262758150E+00
 0.1625185978653E+00
 0.1647604731422E+00
 0.1672769755934E+00
 0.1700995101137E+00
 0.1732658987365E+00
 0.1768211230175E+00
 0.1808186452061E+00
 0.1853229815670E+00
 0.1904148467654E+00
 0.1962024704294E+00
 0.2028523063667E+00
 0.2105601229561E+00
 0.2194023452649E+00
 0.2292820117957E+00
 0.2400583124475E+00
 0.2516558510552E+00
 0.2641025269319E+00
 0.2775307767905E+00
 0.2922965241691E+00
 0.3086726663694E+00
 0.3285897182022E+00
 0.3485137524570E+00
 0.3906227805628E+00
 0.3904979009810E+00
-0.2481241997963E-02
 0.2617799674839E+00
 0.1779006523259E+00
 0.1675134248908E+00
 0.1591799505331E+00
 0.1552617945103E+00
 0.1529379559034E+00
 0.1517701914877E+00
 0.1513214498209E+00
 0.1513913754301E+00
 0.1518453384050E+00
 0.1526024913831E+00
 0.1536120416896E+00
 0.1548445460918E+00
 0.1562857036918E+00
 0.1579328555891E+00
 0.1597927201494E+00
 0.1618799872857E+00
 0.1642164310078E+00
 0.1668304397802E+00
 0.1697568894061E+00
 0.1730372860936E+00
 0.1767206496254E+00
 0.1808648872779E+00
 0.1855394961510E+00
 0.1908310940936E+00
 0.1968542897862E+00
 0.2037905444670E+00
 0.2119457072060E+00
 0.2214850668802E+00
 0.2322665751448E+00
 0.2441176308273E+00
 0.2569854901701E+00
 0.2709502326639E+00
 0.2862903266542E+00
 0.3034613326840E+00
 0.3236608946563E+00
 0.3474054150892E+00
 0.3836790610984E+00
 0.4122543619534E+00
 0.6125173045025E+00
 0.1462799963877E+00
 0.2281578329192E+01
 0.2168617661459E+01
 0.2051996596267E+01
 0.1939766760428E+01
 0.1831872698218E+01
 0.1729156075340E+01
 0.1631909985650E+01
 0.1540845826742E+01
 0.1457068590352E+01
 0.1382105244998E+01
 0.1317104845668E+01
 0.1262440503819E+01
 0.1218073486695E+01
 0.1183651898730E+01
 0.1158751658563E+01
 0.1143024922182E+01
 0.1135078253941E+01
 0.1138360664815E+01
 0.1149776211752E+01
 0.1190563919534E+01
 0.2305167755516E+01
 0.2184397682500E+01
 0.2068283691196E+01
 0.1955503193507E+01
 0.1848011002163E+01
 0.1746168511381E+01
 0.1650504023481E+01
 0.1561630272189E+01
 0.1480487270639E+01
 0.1408159349026E+01
 0.1345537067789E+01
 0.1293088560200E+01
 0.1250894588772E+01
 0.1218787236095E+01
 0.1196491918104E+01
 0.1183551598108E+01
 0.1180467572024E+01
 0.1187772437448E+01
 0.1211511476427E+01
 0.1246037406293E+01
 0.2325063816885E+01
 0.2201914075289E+01
 0.2083853963740E+01
 0.1970946721355E+01
 0.1863650563554E+01
 0.1762668556006E+01
 0.1668443821710E+01
 0.1581557533484E+01
 0.1502748236263E+01
 0.1432849796431E+01
 0.1372581719465E+01
 0.1322398269753E+01
 0.1282480952970E+01
 0.1252798717376E+01
 0.1233185814435E+01
 0.1223671876424E+01
 0.1224542297853E+01
 0.1237579180600E+01
 0.1263114340925E+01
 0.1297076939357E+01
 0.2344269983285E+01
 0.2218890368133E+01
 0.2099375616230E+01
 0.1985874871598E+01
 0.1878789165731E+01
 0.1778560602346E+01
 0.1685654982545E+01
 0.1600560288243E+01
 0.1523871453322E+01
 0.1456240869968E+01
 0.1398260326953E+01
 0.1350357874050E+01
 0.1312776018067E+01
 0.1285591199551E+01
 0.1268839693213E+01
 0.1262658219908E+01
 0.1267591805035E+01
 0.1284258262047E+01
 0.1312312342061E+01
 0.1349453205546E+01
 0.2362901086379E+01
 0.2235383611531E+01
 0.2114464958680E+01
 0.2000347014531E+01
 0.1893339818120E+01
 0.1793788860407E+01
 0.1702070955651E+01
 0.1618603132397E+01
 0.1543858869413E+01
 0.1478355820504E+01
 0.1422585121987E+01
 0.1376946152135E+01
 0.1341721105086E+01
 0.1317090867308E+01
 0.1303208440020E+01
 0.1300332217400E+01
 0.1308816242222E+01
 0.1328930969824E+01
 0.1360354628009E+01
 0.1401786658712E+01
 0.2380975356238E+01
 0.2251313428513E+01
 0.2129022346205E+01
 0.2014260054837E+01
 0.1907263949177E+01
 0.1808292625537E+01
 0.1717644955256E+01
 0.1635656610626E+01
 0.1562704669569E+01
 0.1499200068595E+01
 0.1445553118691E+01
 0.1402134885504E+01
 0.1369257843278E+01
 0.1347175991575E+01
 0.1336132434771E+01
 0.1336402542552E+01
 0.1348267164407E+01
 0.1371919945380E+01
 0.1407231078779E+01
 0.1453567241365E+01
 0.2398427517482E+01
 0.2266613252889E+01
 0.2142961310635E+01
 0.2027540704506E+01
 0.1920502203793E+01
 0.1822026059517E+01
 0.1732336667113E+01
 0.1651695667554E+01
 0.1580397748446E+01
 0.1518768314555E+01
 0.1467150716062E+01
 0.1425889755950E+01
 0.1395316487650E+01
 0.1375738382870E+01
 0.1367452230710E+01
 0.1370757370757E+01
 0.1385938743632E+01
 0.1413241690398E+01
 0.1452756705501E+01
 0.1504310543180E+01
 0.2415167607610E+01
 0.2281209205774E+01
 0.2156210503994E+01
 0.2040123242509E+01
 0.1933000833679E+01
 0.1834945437877E+01
 0.1746112366623E+01
 0.1666696813328E+01
 0.1596923851143E+01
 0.1537048297657E+01
 0.1487357271188E+01
 0.1448170130541E+01
 0.1419828265998E+01
 0.1402676007997E+01
 0.1397054579147E+01
 0.1403304415340E+01
 0.1421766015819E+01
 0.1452788964499E+01
 0.1496675260023E+01
 0.1553639268699E+01
 0.2431095594968E+01
 0.2295025869781E+01
 0.2168704576236E+01
 0.2051950068505E+01
 0.1944711131752E+01
 0.1847011494455E+01
 0.1758941687978E+01
 0.1680638050551E+01
 0.1612266653858E+01
 0.1554023476070E+01
 0.1506147395978E+01
 0.1468933262733E+01
 0.1442726836434E+01
 0.1427901479123E+01
 0.1424842527993E+01
 0.1433947779254E+01
 0.1455640985621E+01
 0.1490397084286E+01
 0.1538723661621E+01
 0.1601167527926E+01
 0.2446109176464E+01
 0.2307988335913E+01
 0.2180382691501E+01
 0.2062969458420E+01
 0.1955589629916E+01
 0.1858188931728E+01
 0.1770797105365E+01
 0.1693498364005E+01
 0.1626408729835E+01
 0.1569674715441E+01
 0.1523493412694E+01
 0.1488136379167E+01
 0.1463950910385E+01
 0.1451336444610E+01
 0.1450725054304E+01
 0.1462582511690E+01
 0.1487429537436E+01
 0.1525876089474E+01
 0.1578626190428E+01
 0.1646516907784E+01
 0.2460108288681E+01
 0.2320024219212E+01
 0.2191188180830E+01
 0.2073134755783E+01
 0.1965597592900E+01
 0.1868446243834E+01
 0.1781653639763E+01
 0.1705257825513E+01
 0.1639332282449E+01
 0.1583981768013E+01
 0.1539367089422E+01
 0.1505738393331E+01
 0.1483443823777E+01
 0.1472908300856E+01
 0.1474612898555E+01
 0.1489096810328E+01
 0.1516983382128E+01
 0.1559020268627E+01
 0.1616100882477E+01
 0.1689310130868E+01
 0.2472997724504E+01
 0.2331065011876E+01
 0.2201068593979E+01
 0.2082403828387E+01
 0.1974700525513E+01
 0.1877755372939E+01
 0.1791488696675E+01
 0.1715897726156E+01
 0.1651019772088E+01
 0.1596924331447E+01
 0.1553740885618E+01
 0.1521700593077E+01
 0.1501152971494E+01
 0.1492548487898E+01
 0.1496418055605E+01
 0.1513375658623E+01
 0.1544147480344E+01
 0.1589616689926E+01
 0.1650859078302E+01
 0.1729192293275E+01
 0.2484688939151E+01
 0.2341047125074E+01
 0.2209975934915E+01
 0.2090738827978E+01
 0.1982867829659E+01
 0.1886091462098E+01
 0.1800281993145E+01
 0.1725400775631E+01
 0.1661454449901E+01
 0.1608482860171E+01
 0.1566588748979E+01
 0.1535987010032E+01
 0.1517029524037E+01
 0.1510192146678E+01
 0.1516054793116E+01
 0.1535304429144E+01
 0.1568766314217E+01
 0.1617453321864E+01
 0.1682614133322E+01
 0.1765806378145E+01
 0.2495101292345E+01
 0.2349912671718E+01
 0.2217866916045E+01
 0.2098106083998E+01
 0.1990072572011E+01
 0.1893432669048E+01
 0.1808015520040E+01
 0.1733751279638E+01
 0.1670620771371E+01
 0.1618639127187E+01
 0.1577886622939E+01
 0.1548564666608E+01
 0.1531028474849E+01
 0.1525778496023E+01
 0.1533441204031E+01
 0.1554772225228E+01
 0.1590689269253E+01
 0.1642325637221E+01
 0.1711091961654E+01
 0.1798765911130E+01
 0.2504162929450E+01
 0.2357610050760E+01
 0.2224703192799E+01
 0.2104476069995E+01
 0.1996291335194E+01
 0.1899760037791E+01
 0.1814673525798E+01
 0.1740935286412E+01
 0.1678504702693E+01
 0.1627376614719E+01
 0.1587612797957E+01
 0.1559403827184E+01
 0.1543108937363E+01
 0.1539251584370E+01
 0.1548500916327E+01
 0.1571674934009E+01
 0.1609774774721E+01
 0.1664042268876E+01
 0.1736031487246E+01
 0.1827709434700E+01
 0.2511811359488E+01
 0.2364094366449E+01
 0.2230451539563E+01
 0.2109823388584E+01
 0.2001504109840E+01
 0.1905057399309E+01
 0.1820242499372E+01
 0.1746940688292E+01
 0.1685093932261E+01
 0.1634680782268E+01
 0.1595748176242E+01
 0.1568478272084E+01
 0.1553234586748E+01
 0.1550561194056E+01
 0.1561164792172E+01
 0.1585917840646E+01
 0.1625893959222E+01
 0.1682428460727E+01
 0.1757196280472E+01
 0.1852319351274E+01
 0.2517993971437E+01
 0.2369327787647E+01
 0.2235084043291E+01
 0.2114126818809E+01
 0.2005694263769E+01
 0.1909311335955E+01
 0.1824711185823E+01
 0.1751757315015E+01
 0.1690378035074E+01
 0.1640539272170E+01
 0.1602276500198E+01
 0.1575765594676E+01
 0.1561374166950E+01
 0.1559663777434E+01
 0.1571372492755E+01
 0.1597417982217E+01
 0.1638933681114E+01
 0.1697331226013E+01
 0.1774382104482E+01
 0.1872328248552E+01
 0.2522668333659E+01
 0.2373279785175E+01
 0.2238578221385E+01
 0.2117369334757E+01
 0.2008848504231E+01
 0.1912511139325E+01
 0.1828070579953E+01
 0.1755376981996E+01
 0.1694348572558E+01
 0.1644942047625E+01
 0.1607184532771E+01
 0.1581247477771E+01
 0.1567501980732E+01
 0.1566523317904E+01
 0.1579073874968E+01
 0.1606106183870E+01
 0.1648799544085E+01
 0.1708623531723E+01
 0.1787421494449E+01
 0.1887521768560E+01
 0.2525802436900E+01
 0.2375927315210E+01
 0.2240917126273E+01
 0.2119538136917E+01
 0.2010956866364E+01
 0.1914648791171E+01
 0.1830313927952E+01
 0.1757793526553E+01
 0.1696999163837E+01
 0.1647881496667E+01
 0.1610462208633E+01
 0.1584909943168E+01
 0.1571598329967E+01
 0.1571112083926E+01
 0.1584230186595E+01
 0.1611928863149E+01
 0.1655418442281E+01
 0.1716207415271E+01
 0.1796186622202E+01
 0.1897739550034E+01
 0.2527374857006E+01
 0.2377254947669E+01
 0.2242089419364E+01
 0.2120624677333E+01
 0.2012012707971E+01
 0.1915718951413E+01
 0.1831436727508E+01
 0.1759002829964E+01
 0.1698325532017E+01
 0.1649352505471E+01
 0.1612102750931E+01
 0.1586743553455E+01
 0.1573649872488E+01
 0.1573411232413E+01
 0.1586815028697E+01
 0.1614849467311E+01
 0.1658740524295E+01
 0.1720016229173E+01
 0.1800591081427E+01
 0.1902874982549E+01
 0.2527374856739E+01
 0.2377254947469E+01
 0.2242089419212E+01
 0.2120624677215E+01
 0.2012012707878E+01
 0.1915718951339E+01
 0.1831436727449E+01
 0.1759002829918E+01
 0.1698325531983E+01
 0.1649352505447E+01
 0.1612102750917E+01
 0.1586743553447E+01
 0.1573649872487E+01
 0.1573411232415E+01
 0.1586815028702E+01
 0.1614849467317E+01
 0.1658740524300E+01
 0.1720016229175E+01
 0.1800591081420E+01
 0.1902874982527E+01
 0.2525802436101E+01
 0.2375927314613E+01
 0.2240917125818E+01
 0.2119538136564E+01
 0.2010956866085E+01
 0.1914648790948E+01
 0.1830313927775E+01
 0.1757793526416E+01
 0.1696999163735E+01
 0.1647881496595E+01
 0.1610462208589E+01
 0.1584909943145E+01
 0.1571598329962E+01
 0.1571112083934E+01
 0.1584230186611E+01
 0.1611928863168E+01
 0.1655418442297E+01
 0.1716207415276E+01
 0.1796186622182E+01
 0.1897739549972E+01
 0.2522668332334E+01
 0.2373279784184E+01
 0.2238578220630E+01
 0.2117369334171E+01
 0.2008848503768E+01
 0.1912511138955E+01
 0.1828070579659E+01
 0.1755376981768E+01
 0.1694348572388E+01
 0.1644942047506E+01
 0.1607184532697E+01
 0.1581247477734E+01
 0.1567501980723E+01
 0.1566523317916E+01
 0.1579073874995E+01
 0.1606106183902E+01
 0.1648799544113E+01
 0.1708623531733E+01
 0.1787421494421E+01
 0.1887521768465E+01
 0.2517993969597E+01
 0.2369327786269E+01
 0.2235084042240E+01
 0.2114126817992E+01
 0.2005694263123E+01
 0.1909311335440E+01
 0.1824711185413E+01
 0.1751757314696E+01
 0.1690378034836E+01
 0.1640539272004E+01
 0.1602276500094E+01
 0.1575765594624E+01
 0.1561374166938E+01
 0.1559663777452E+01
 0.1571372492792E+01
 0.1597417982264E+01
 0.1638933681157E+01
 0.1697331226033E+01
 0.1774382104451E+01
 0.1872328248433E+01
 0.2511811357145E+01
 0.2364094364692E+01
 0.2230451538222E+01
 0.2109823387540E+01
 0.2001504109013E+01
 0.1905057398649E+01
 0.1820242498847E+01
 0.1746940687884E+01
 0.1685093931956E+01
 0.1634680782056E+01
 0.1595748176109E+01
 0.1568478272017E+01
 0.1553234586733E+01
 0.1550561194080E+01
 0.1561164792222E+01
 0.1585917840710E+01
 0.1625893959283E+01
 0.1682428460763E+01
 0.1757196280448E+01
 0.1852319351143E+01
 0.2504162926621E+01
 0.2357610048636E+01
 0.2224703191175E+01
 0.2104476068730E+01
 0.1996291334192E+01
 0.1899760036990E+01
 0.1814673525160E+01
 0.1740935285915E+01
 0.1678504702322E+01
 0.1627376614460E+01
 0.1587612797795E+01
 0.1559403827102E+01
 0.1543108937344E+01
 0.1539251584400E+01
 0.1548500916391E+01
 0.1571674934092E+01
 0.1609774774804E+01
 0.1664042268933E+01
 0.1736031487238E+01
 0.1827709434571E+01
 0.2495101289052E+01
 0.2349912669239E+01
 0.2217866914148E+01
 0.2098106082517E+01
 0.1990072570836E+01
 0.1893432668108E+01
 0.1808015519292E+01
 0.1733751279055E+01
 0.1670620770935E+01
 0.1618639126882E+01
 0.1577886622748E+01
 0.1548564666511E+01
 0.1531028474828E+01
 0.1525778496060E+01
 0.1533441204110E+01
 0.1554772225333E+01
 0.1590689269364E+01
 0.1642325637307E+01
 0.1711091961671E+01
 0.1798765911020E+01
 0.2484688935418E+01
 0.2341047122258E+01
 0.2209975932755E+01
 0.2090738826289E+01
 0.1982867828317E+01
 0.1886091461024E+01
 0.1800281992288E+01
 0.1725400774963E+01
 0.1661454449401E+01
 0.1608482859821E+01
 0.1566588748759E+01
 0.1535987009920E+01
 0.1517029524012E+01
 0.1510192146721E+01
 0.1516054793211E+01
 0.1535304429274E+01
 0.1568766314359E+01
 0.1617453321987E+01
 0.1682614133378E+01
 0.1765806378066E+01
 0.2472997720359E+01
 0.2331065008740E+01
 0.2201068591567E+01
 0.2082403826498E+01
 0.1974700524010E+01
 0.1877755371733E+01
 0.1791488695714E+01
 0.1715897725406E+01
 0.1651019771527E+01
 0.1596924331053E+01
 0.1553740885370E+01
 0.1521700592950E+01
 0.1501152971465E+01
 0.1492548487948E+01
 0.1496418055717E+01
 0.1513375658780E+01
 0.1544147480524E+01
 0.1589616690096E+01
 0.1650859078410E+01
 0.1729192293244E+01
 0.2460108284155E+01
 0.2320024215776E+01
 0.2191188178181E+01
 0.2073134753703E+01
 0.1965597591241E+01
 0.1868446242502E+01
 0.1781653638700E+01
 0.1705257824682E+01
 0.1639332281827E+01
 0.1583981767577E+01
 0.1539367089145E+01
 0.1505738393188E+01
 0.1483443823744E+01
 0.1472908300912E+01
 0.1474612898684E+01
 0.1489096810515E+01
 0.1516983382351E+01
 0.1559020268854E+01
 0.1616100882651E+01
 0.1689310130900E+01
 0.2446109171590E+01
 0.2307988332200E+01
 0.2180382688628E+01
 0.2062969456159E+01
 0.1955589628110E+01
 0.1858188930276E+01
 0.1770797104204E+01
 0.1693498363097E+01
 0.1626408729153E+01
 0.1569674714962E+01
 0.1523493412389E+01
 0.1488136379006E+01
 0.1463950910345E+01
 0.1451336444670E+01
 0.1450725054450E+01
 0.1462582511907E+01
 0.1487429537706E+01
 0.1525876089767E+01
 0.1578626190683E+01
 0.1646516907906E+01
 0.2431095589783E+01
 0.2295025865813E+01
 0.2168704573156E+01
 0.2051950066073E+01
 0.1944711129806E+01
 0.1847011492888E+01
 0.1758941686723E+01
 0.1680638049568E+01
 0.1612266653119E+01
 0.1554023475549E+01
 0.1506147395643E+01
 0.1468933262554E+01
 0.1442726836386E+01
 0.1427901479186E+01
 0.1424842528154E+01
 0.1433947779502E+01
 0.1455640985942E+01
 0.1490397084654E+01
 0.1538723661974E+01
 0.1601167528163E+01
 0.2415167602152E+01
 0.2281209201577E+01
 0.2156210500723E+01
 0.2040123239920E+01
 0.1933000831602E+01
 0.1834945436201E+01
 0.1746112365280E+01
 0.1666696812275E+01
 0.1596923850350E+01
 0.1537048297095E+01
 0.1487357270824E+01
 0.1448170130343E+01
 0.1419828265940E+01
 0.1402676008059E+01
 0.1397054579320E+01
 0.1403304415619E+01
 0.1421766016195E+01
 0.1452788964951E+01
 0.1496675260491E+01
 0.1553639269079E+01
 0.2398427511790E+01
 0.2266613248488E+01
 0.2142961307190E+01
 0.2027540701770E+01
 0.1920502201594E+01
 0.1822026057740E+01
 0.1732336665686E+01
 0.1651695666433E+01
 0.1580397747601E+01
 0.1518768313954E+01
 0.1467150715669E+01
 0.1425889755731E+01
 0.1395316487577E+01
 0.1375738382926E+01
 0.1367452230890E+01
 0.1370757371062E+01
 0.1385938744063E+01
 0.1413241690944E+01
 0.1452756706104E+01
 0.1504310543731E+01
 0.2380975350353E+01
 0.2251313423934E+01
 0.2129022342605E+01
 0.2014260051970E+01
 0.1907263946866E+01
 0.1808292623666E+01
 0.1717644953752E+01
 0.1635656609443E+01
 0.1562704668675E+01
 0.1499200067955E+01
 0.1445553118268E+01
 0.1402134885261E+01
 0.1369257843187E+01
 0.1347175991620E+01
 0.1336132434951E+01
 0.1336402542877E+01
 0.1348267164890E+01
 0.1371919946025E+01
 0.1407231079534E+01
 0.1453567242117E+01
 0.2362901080340E+01
 0.2235383606800E+01
 0.2114464954944E+01
 0.2000347011545E+01
 0.1893339815709E+01
 0.1793788858452E+01
 0.1702070954077E+01
 0.1618603131157E+01
 0.1543858868472E+01
 0.1478355819827E+01
 0.1422585121533E+01
 0.1376946151866E+01
 0.1341721104972E+01
 0.1317090867335E+01
 0.1303208440191E+01
 0.1300332217735E+01
 0.1308816242752E+01
 0.1328930970571E+01
 0.1360354628934E+01
 0.1401786659700E+01
 0.2344269977129E+01
 0.2218890363274E+01
 0.2099375612376E+01
 0.1985874868508E+01
 0.1878789163230E+01
 0.1778560600316E+01
 0.1685654980907E+01
 0.1600560286951E+01
 0.1523871452338E+01
 0.1456240869255E+01
 0.1398260326468E+01
 0.1350357873752E+01
 0.1312776017926E+01
 0.1285591199552E+01
 0.1268839693362E+01
 0.1262658220238E+01
 0.1267591805597E+01
 0.1284258262896E+01
 0.1312312343168E+01
 0.1349453206801E+01
 0.2325063810642E+01
 0.2201914070327E+01
 0.2083853959788E+01
 0.1970946718178E+01
 0.1863650560977E+01
 0.1762668553911E+01
 0.1668443820018E+01
 0.1581557532146E+01
 0.1502748235241E+01
 0.1432849795684E+01
 0.1372581718947E+01
 0.1322398269423E+01
 0.1282480952797E+01
 0.1252798717345E+01
 0.1233185814548E+01
 0.1223671876725E+01
 0.1224542298428E+01
 0.1237579181535E+01
 0.1263114342230E+01
 0.1297076940910E+01
 0.2305167749204E+01
 0.2184397677452E+01
 0.2068283687174E+01
 0.1955503190254E+01
 0.1848010999524E+01
 0.1746168509233E+01
 0.1650504021745E+01
 0.1561630270814E+01
 0.1480487269585E+01
 0.1408159348246E+01
 0.1345537067235E+01
 0.1293088559831E+01
 0.1250894588561E+01
 0.1218787236027E+01
 0.1196491918176E+01
 0.1183551598340E+01
 0.1180467572566E+01
 0.1187772438484E+01
 0.1211511477884E+01
 0.1246037408215E+01
 0.2281578322706E+01
 0.2168617656422E+01
 0.2051996592166E+01
 0.1939766757125E+01
 0.1831872695529E+01
 0.1729156073152E+01
 0.1631909983879E+01
 0.1540845825340E+01
 0.1457068589274E+01
 0.1382105244188E+01
 0.1317104845073E+01
 0.1262440503403E+01
 0.1218073486441E+01
 0.1183651898621E+01
 0.1158751658593E+01
 0.1143024922357E+01
 0.1135078254289E+01
 0.1138360665908E+01
 0.1149776213635E+01
 0.1190563921336E+01
 0.5353798199963E+01
 0.1019129600324E+01
 0.1031535900582E+01
 0.8606268888781E+00
 0.7306643590612E+00
 0.5742424372047E+00
 0.3708283984295E+00
 0.1652933547519E+00
 0.1085948747281E-01
-0.1723584906130E+00
-0.2546317363222E+00
-0.2751846683369E+00
-0.2731316630794E+00
-0.2595181849483E+00
-0.2328508828366E+00
-0.1979806406867E+00
-0.1623137467072E+00
-0.1133597415374E+00
-0.6641616998733E-01
-0.3835432737121E-01
 0.3683624795846E+01
 0.1952649095433E+01
 0.1036718499782E+01
 0.9353270314026E+00
 0.7842178281518E+00
 0.6316724740220E+00
 0.4524158757676E+00
 0.2598457670419E+00
 0.7912166264335E-01
-0.7294513848951E-01
-0.1713775122375E+00
-0.2127228653490E+00
-0.2226558116610E+00
-0.2160305320390E+00
-0.1982096974149E+00
-0.1732322267319E+00
-0.1423178049644E+00
-0.1082062371806E+00
-0.7532843814606E-01
-0.5651681347837E-01
 0.3062291904392E+01
 0.2058612037039E+01
 0.1304040367819E+01
 0.9866022580381E+00
 0.8465248313854E+00
 0.6923550628823E+00
 0.5261351367194E+00
 0.3441138304602E+00
 0.1631963752506E+00
 0.1560098662015E-01
-0.8541023599409E-01
-0.1414388294412E+00
-0.1644029543777E+00
-0.1670728428172E+00
-0.1574766629100E+00
-0.1403968517555E+00
-0.1184787169259E+00
-0.9427290650375E-01
-0.7425819558395E-01
-0.6388669704767E-01
 0.2740268260206E+01
 0.2053605824638E+01
 0.1464875649676E+01
 0.1100286235740E+01
 0.9072008583876E+00
 0.7561636105828E+00
 0.5963258982105E+00
 0.4233994165854E+00
 0.2484559853221E+00
 0.1044916702147E+00
 0.1497917662167E-03
-0.6489792214673E-01
-0.9906594352772E-01
-0.1114954620695E+00
-0.1101885848738E+00
-0.1009208747883E+00
-0.8725668199257E-01
-0.7237930392136E-01
-0.6296306806804E-01
-0.6076090364933E-01
 0.2549223844126E+01
 0.2031190049101E+01
 0.1562013923854E+01
 0.1209850781939E+01
 0.9851145532376E+00
 0.8210198936557E+00
 0.6655229554437E+00
 0.4996440490925E+00
 0.3322272994617E+00
 0.1929827756888E+00
 0.8669593837875E-01
 0.1480482833680E-01
-0.2813120932818E-01
-0.4944957803411E-01
-0.5624840807339E-01
-0.5443487114945E-01
-0.4835844642233E-01
-0.4167196733813E-01
-0.4139343325525E-01
-0.4655590178380E-01
 0.2427041879229E+01
 0.2011332789410E+01
 0.1625379087544E+01
 0.1302673554823E+01
 0.1068135528774E+01
 0.8914267064850E+00
 0.7346499317477E+00
 0.5742277563992E+00
 0.4141007515962E+00
 0.2802547713062E+00
 0.1738404098736E+00
 0.9704941197931E-01
 0.4713296243065E-01
 0.1828197519069E-01
 0.4128975266663E-02
-0.9237454268396E-03
-0.1563135049176E-02
-0.1931088760225E-02
-0.9186800116923E-02
-0.2034106006991E-01
 0.2345672030310E+01
 0.1997946370175E+01
 0.1670982015738E+01
 0.1379666937378E+01
 0.1148461377439E+01
 0.9651574695475E+00
 0.8054333791274E+00
 0.6480974926551E+00
 0.4943827447851E+00
 0.3659704785385E+00
 0.2609198438936E+00
 0.1811118912171E+00
 0.1258446427226E+00
 0.9081525124994E-01
 0.7036503211226E-01
 0.5932481917053E-01
 0.5298959078729E-01
 0.4679783799593E-01
 0.3383225497293E-01
 0.1864417132444E-01
 0.2290565139662E+01
 0.1991057354479E+01
 0.1707141308334E+01
 0.1444368018784E+01
 0.1222982954156E+01
 0.1039024576521E+01
 0.8776417147867E+00
 0.7221568527895E+00
 0.5735697970694E+00
 0.4501626202404E+00
 0.3474203264795E+00
 0.2662399254859E+00
 0.2071757241806E+00
 0.1672997131199E+00
 0.1417054220994E+00
 0.1257263577128E+00
 0.1148406994302E+00
 0.1041436498378E+00
 0.8749352505269E-01
 0.7060837049098E-01
 0.2253410511755E+01
 0.1989791024166E+01
 0.1738258699212E+01
 0.1500087507100E+01
 0.1291109753415E+01
 0.1110778383194E+01
 0.9500727986008E+00
 0.7965591810044E+00
 0.6521573029298E+00
 0.5330476851316E+00
 0.4330544409611E+00
 0.3517799469096E+00
 0.2903299468932E+00
 0.2468889360184E+00
 0.2173119453389E+00
 0.1974959374568E+00
 0.1832524157451E+00
 0.1694165905616E+00
 0.1511835873057E+00
 0.1350171944547E+00
 0.2229106475369E+01
 0.1993180544912E+01
 0.1766715869417E+01
 0.1549372555660E+01
 0.1353326981029E+01
 0.1179242299429E+01
 0.1021470761052E+01
 0.8708531157746E+00
 0.7303320425699E+00
 0.6148657362603E+00
 0.5177054743292E+00
 0.4372308287045E+00
 0.3745859803571E+00
 0.3287556361347E+00
 0.2963042190358E+00
 0.2737243824585E+00
 0.2572785436059E+00
 0.2416437877440E+00
 0.2238370117656E+00
 0.2105907281175E+00
 0.2214338955160E+01
 0.2000376596478E+01
 0.1793824068843E+01
 0.1594061106525E+01
 0.1410470894368E+01
 0.1244001401045E+01
 0.1090903916383E+01
 0.9443522928830E+00
 0.8079380069475E+00
 0.6957266813592E+00
 0.6013305764949E+00
 0.5222309214567E+00
 0.4593287087429E+00
 0.4121248487284E+00
 0.3777994859500E+00
 0.3534366374908E+00
 0.3358325507749E+00
 0.3196269780374E+00
 0.3039969887357E+00
 0.2954443319788E+00
 0.2206852513643E+01
 0.2010681595052E+01
 0.1820311375565E+01
 0.1635447977713E+01
 0.1463407410111E+01
 0.1305087789695E+01
 0.1157818418893E+01
 0.1016399268636E+01
 0.8846044762145E+00
 0.7755639104854E+00
 0.6838687904708E+00
 0.6065100261702E+00
 0.5440514467078E+00
 0.4963003243401E+00
 0.4609505211060E+00
 0.4356416375303E+00
 0.4177488174587E+00
 0.4020074671822E+00
 0.3899190246380E+00
 0.3873010066156E+00
 0.2205050269325E+01
 0.2023534299653E+01
 0.1846580184630E+01
 0.1674437902500E+01
 0.1512907926112E+01
 0.1362758646206E+01
 0.1221966028810E+01
 0.1086484054681E+01
 0.9598895768466E+00
 0.8541722891003E+00
 0.7651974469419E+00
 0.6898387835995E+00
 0.6283382435574E+00
 0.5806769430160E+00
 0.5449750864862E+00
 0.5193757976179E+00
 0.5018368266321E+00
 0.4873312396243E+00
 0.4796860838627E+00
 0.4837088638602E+00
 0.2207762060783E+01
 0.2038484030101E+01
 0.1872846956514E+01
 0.1711661828474E+01
 0.1559614534764E+01
 0.1417360645667E+01
 0.1283307457012E+01
 0.1154266889926E+01
 0.1033376770811E+01
 0.9312711556212E+00
 0.8451314716105E+00
 0.7719970309048E+00
 0.7118449797451E+00
 0.6647439401911E+00
 0.6291814097740E+00
 0.6037377492265E+00
 0.5869332110145E+00
 0.5741049360311E+00
 0.5713093449660E+00
 0.5822154764247E+00
 0.2214104732388E+01
 0.2055166520364E+01
 0.1899219911397E+01
 0.1747559603913E+01
 0.1604042464584E+01
 0.1469254631083E+01
 0.1341930492578E+01
 0.1219557481357E+01
 0.1104721620268E+01
 0.1006555341494E+01
 0.9234368620071E+00
 0.8527577604359E+00
 0.7942836331843E+00
 0.7480998558085E+00
 0.7129894557166E+00
 0.6879401621513E+00
 0.6719375347803E+00
 0.6608567768772E+00
 0.6627732486873E+00
 0.6804787949507E+00
 0.2223395920617E+01
 0.2073284031087E+01
 0.1925742854167E+01
 0.1782436924697E+01
 0.1646595939006E+01
 0.1518776549188E+01
 0.1397990722524E+01
 0.1282282424190E+01
 0.1173667999089E+01
 0.1079727217627E+01
 0.9998390673810E+00
 0.9318623013255E+00
 0.8754000555418E+00
 0.8304536837922E+00
 0.7960203375290E+00
 0.7713339113550E+00
 0.7559400947264E+00
 0.7461158453716E+00
 0.7520694729694E+00
 0.7762207952202E+00
 0.2235101201635E+01
 0.2092591661405E+01
 0.1952416638464E+01
 0.1816506523120E+01
 0.1687586600769E+01
 0.1566219543839E+01
 0.1451669195072E+01
 0.1342454385913E+01
 0.1240053071047E+01
 0.1150523760759E+01
 0.1074029826909E+01
 0.1008982244105E+01
 0.9548912570078E+00
 0.9116013423969E+00
 0.8781030139746E+00
 0.8537855292770E+00
 0.8381007448749E+00
 0.8287962069029E+00
 0.8367793715560E+00
 0.8671574340967E+00
 0.2248823029625E+01
 0.2112872737077E+01
 0.1979217746306E+01
 0.1849904743253E+01
 0.1727266348474E+01
 0.1611820873222E+01
 0.1503140533166E+01
 0.1400140184048E+01
 0.1303808250586E+01
 0.1218753573472E+01
 0.1145702866934E+01
 0.1083693526597E+01
 0.1032290465032E+01
 0.9911796055127E+00
 0.9592761965322E+00
 0.9355298555714E+00
 0.9194835796973E+00
 0.9068701451124E+00
 0.9152004899933E+00
 0.9491205816081E+00
 0.2264265797519E+01
 0.2134025212167E+01
 0.2005953835597E+01
 0.1882810080993E+01
 0.1765815789396E+01
 0.1655780132281E+01
 0.1552533915942E+01
 0.1455416975678E+01
 0.1364948183864E+01
 0.1284340221058E+01
 0.1214641626697E+01
 0.1155548542320E+01
 0.1106893796357E+01
 0.1068402031593E+01
 0.1038940673065E+01
 0.1017350595893E+01
 0.1001380244252E+01
 0.9877193997877E+00
 0.9767412385031E+00
 0.1017914450685E+01
 0.2282749536445E+01
 0.2154682611121E+01
 0.2033006987865E+01
 0.1915182363904E+01
 0.1803464040029E+01
 0.1698262629129E+01
 0.1599928123045E+01
 0.1508270186044E+01
 0.1423517724404E+01
 0.1347372742595E+01
 0.1280821699595E+01
 0.1224276566495E+01
 0.1177981383447E+01
 0.1141958381582E+01
 0.1115436833582E+01
 0.1097259427294E+01
 0.1086336191525E+01
 0.1074503520510E+01
 0.1064882912498E+01
 0.1006802437900E+01
 0.2282749531665E+01
 0.2154682606644E+01
 0.2033006983993E+01
 0.1915182360449E+01
 0.1803464036937E+01
 0.1698262626357E+01
 0.1599928120588E+01
 0.1508270183915E+01
 0.1423517722679E+01
 0.1347372741331E+01
 0.1280821698737E+01
 0.1224276565958E+01
 0.1177981383163E+01
 0.1141958381508E+01
 0.1115436833664E+01
 0.1097259427503E+01
 0.1086336191782E+01
 0.1074503520380E+01
 0.1064882913268E+01
 0.1006802439860E+01
 0.2264265793070E+01
 0.2134025208085E+01
 0.2005953831817E+01
 0.1882810077490E+01
 0.1765815786133E+01
 0.1655780129259E+01
 0.1552533913181E+01
 0.1455416973198E+01
 0.1364948181775E+01
 0.1284340219447E+01
 0.1214641625505E+01
 0.1155548541473E+01
 0.1106893795799E+01
 0.1068402031274E+01
 0.1038940672914E+01
 0.1017350595869E+01
 0.1001380244223E+01
 0.9877193997258E+00
 0.9767412400186E+00
 0.1017914453353E+01
 0.2248823025754E+01
 0.2112872733317E+01
 0.1979217742677E+01
 0.1849904739716E+01
 0.1727266345058E+01
 0.1611820869963E+01
 0.1503140530108E+01
 0.1400140181209E+01
 0.1303808248121E+01
 0.1218753571513E+01
 0.1145702865416E+01
 0.1083693525451E+01
 0.1032290464205E+01
 0.9911796049566E+00
 0.9592761961770E+00
 0.9355298553914E+00
 0.9194835796480E+00
 0.9068701451760E+00
 0.9152004918594E+00
 0.9491205847231E+00
 0.2235101198435E+01
 0.2092591658013E+01
 0.1952416634992E+01
 0.1816506519567E+01
 0.1687586597211E+01
 0.1566219540352E+01
 0.1451669191719E+01
 0.1342454382709E+01
 0.1240053068203E+01
 0.1150523758460E+01
 0.1074029825078E+01
 0.1008982242676E+01
 0.9548912559367E+00
 0.9116013416425E+00
 0.8781030134718E+00
 0.8537855290235E+00
 0.8381007448254E+00
 0.8287962070425E+00
 0.8367793735767E+00
 0.8671574374412E+00
 0.2223395918167E+01
 0.2073284028103E+01
 0.1925742850870E+01
 0.1782436921134E+01
 0.1646595935308E+01
 0.1518776545474E+01
 0.1397990718878E+01
 0.1282282420618E+01
 0.1173667995872E+01
 0.1079727215006E+01
 0.9998390652608E+00
 0.9318622996432E+00
 0.8754000542634E+00
 0.8304536828820E+00
 0.7960203369215E+00
 0.7713339110470E+00
 0.7559400946627E+00
 0.7461158455320E+00
 0.7520694749490E+00
 0.7762207986376E+00
 0.2214104730758E+01
 0.2055166517824E+01
 0.1899219908288E+01
 0.1747559600340E+01
 0.1604042460742E+01
 0.1469254627140E+01
 0.1341930488640E+01
 0.1219557477422E+01
 0.1104721616695E+01
 0.1006555338579E+01
 0.9234368596282E+00
 0.8527577585353E+00
 0.7942836317364E+00
 0.7480998547779E+00
 0.7129894550289E+00
 0.6879401617934E+00
 0.6719375346816E+00
 0.6608567769963E+00
 0.6627732504618E+00
 0.6804787983042E+00
 0.2207762060045E+01
 0.2038484028038E+01
 0.1872846953598E+01
 0.1711661824879E+01
 0.1559614530765E+01
 0.1417360641489E+01
 0.1283307452788E+01
 0.1154266885643E+01
 0.1033376766909E+01
 0.9312711524458E+00
 0.8451314690078E+00
 0.7719970288221E+00
 0.7118449781625E+00
 0.6647439390686E+00
 0.6291814090243E+00
 0.6037377488205E+00
 0.5869332108600E+00
 0.5741049360563E+00
 0.5713093464047E+00
 0.5822154795808E+00
 0.2205050269551E+01
 0.2023534298097E+01
 0.1846580181903E+01
 0.1674437898859E+01
 0.1512907921934E+01
 0.1362758641787E+01
 0.1221966024313E+01
 0.1086484050076E+01
 0.9598895726565E+00
 0.8541722857044E+00
 0.7651974441507E+00
 0.6898387813690E+00
 0.6283382418721E+00
 0.5806769418275E+00
 0.5449750856919E+00
 0.5193757971677E+00
 0.5018368264077E+00
 0.4873312395204E+00
 0.4796860848699E+00
 0.4837088666875E+00
 0.2206852514916E+01
 0.2010681594030E+01
 0.1820311373010E+01
 0.1635447973989E+01
 0.1463407405727E+01
 0.1305087785035E+01
 0.1157818414149E+01
 0.1016399263753E+01
 0.8846044717841E+00
 0.7755639069092E+00
 0.6838687875245E+00
 0.6065100238239E+00
 0.5440514449505E+00
 0.4963003231119E+00
 0.4609505202872E+00
 0.4356416370449E+00
 0.4177488171613E+00
 0.4020074669355E+00
 0.3899190251595E+00
 0.3873010089943E+00
 0.2214338957574E+01
 0.2000376596011E+01
 0.1793824066425E+01
 0.1594061102663E+01
 0.1410470889744E+01
 0.1244001396153E+01
 0.1090903911435E+01
 0.9443522877807E+00
 0.8079380023309E+00
 0.6957266776383E+00
 0.6013305734219E+00
 0.5222309190253E+00
 0.4593287069456E+00
 0.4121248474896E+00
 0.3777994851306E+00
 0.3534366369872E+00
 0.3358325504163E+00
 0.3196269776588E+00
 0.3039969887655E+00
 0.2954443338156E+00
 0.2229106479038E+01
 0.1993180545019E+01
 0.1766715867074E+01
 0.1549372551584E+01
 0.1353326976137E+01
 0.1179242294335E+01
 0.1021470755968E+01
 0.8708531105289E+00
 0.7303320378189E+00
 0.6148657324215E+00
 0.5177054711536E+00
 0.4372308262195E+00
 0.3745859785552E+00
 0.3287556349193E+00
 0.2963042182464E+00
 0.2737243819636E+00
 0.2572785432144E+00
 0.2416437872697E+00
 0.2238370113521E+00
 0.2105907293632E+00
 0.2253410516827E+01
 0.1989791024849E+01
 0.1738258696843E+01
 0.1500087502711E+01
 0.1291109748240E+01
 0.1110778377964E+01
 0.9500727934755E+00
 0.7965591756966E+00
 0.6521572980824E+00
 0.5330476811885E+00
 0.4330544377050E+00
 0.3517799444084E+00
 0.2903299451282E+00
 0.2468889348657E+00
 0.2173119446167E+00
 0.1974959370088E+00
 0.1832524153666E+00
 0.1694165900527E+00
 0.1511835865528E+00
 0.1350171951197E+00
 0.2290565146331E+01
 0.1991057355720E+01
 0.1707141305783E+01
 0.1444368013969E+01
 0.1222982948722E+01
 0.1039024571271E+01
 0.8776417097366E+00
 0.7221568474894E+00
 0.5735697921405E+00
 0.4501626161961E+00
 0.3474203231709E+00
 0.2662399230152E+00
 0.2071757225008E+00
 0.1672997120744E+00
 0.1417054214886E+00
 0.1257263573612E+00
 0.1148406991279E+00
 0.1041436493783E+00
 0.8749352411414E-01
 0.7060837065334E-01
 0.2345672038842E+01
 0.1997946371906E+01
 0.1670982012765E+01
 0.1379666932029E+01
 0.1148461371851E+01
 0.9651574644555E+00
 0.8054333742665E+00
 0.6480974873964E+00
 0.4943827397643E+00
 0.3659704743974E+00
 0.2609198405750E+00
 0.1811118888345E+00
 0.1258446411805E+00
 0.9081525036028E-01
 0.7036503166432E-01
 0.5932481897661E-01
 0.5298959064048E-01
 0.4679783768881E-01
 0.3383225403848E-01
 0.1864417112426E-01
 0.2427041889999E+01
 0.2011332791463E+01
 0.1625379083795E+01
 0.1302673548893E+01
 0.1068135523273E+01
 0.8914267017710E+00
 0.7346499271369E+00
 0.5742277511655E+00
 0.4141007464673E+00
 0.2802547670879E+00
 0.1738404066069E+00
 0.9704940974859E-01
 0.4713296107960E-01
 0.1828197450890E-01
 0.4128975039415E-02
-0.9237453923413E-03
-0.1563134947739E-02
-0.1931088796655E-02
-0.9186800840237E-02
-0.2034106045100E-01
 0.2549223857682E+01
 0.2031190051091E+01
 0.1562013918837E+01
 0.1209850775581E+01
 0.9851145482532E+00
 0.8210198894912E+00
 0.6655229510335E+00
 0.4996440438431E+00
 0.3322272942305E+00
 0.1929827714401E+00
 0.8669593524081E-01
 0.1480482631878E-01
-0.2813121043599E-01
-0.4944957845108E-01
-0.5624840801706E-01
-0.5443487081026E-01
-0.4835844597046E-01
-0.4167196697358E-01
-0.4139343356213E-01
-0.4655590215728E-01
 0.2740268277374E+01
 0.2053605825684E+01
 0.1464875642833E+01
 0.1100286229609E+01
 0.9072008544619E+00
 0.7561636068949E+00
 0.5963258938762E+00
 0.4233994113036E+00
 0.2484559800446E+00
 0.1044916660096E+00
 0.1497888256985E-03
-0.6489792390421E-01
-0.9906594433147E-01
-0.1114954621574E+00
-0.1101885844750E+00
-0.1009208740691E+00
-0.8725668108183E-01
-0.7237930301342E-01
-0.6296306776700E-01
-0.6076090385910E-01
 0.3062291926391E+01
 0.2058612035085E+01
 0.1304040359062E+01
 0.9866022537764E+00
 0.8465248285021E+00
 0.6923550594206E+00
 0.5261351323401E+00
 0.3441138251846E+00
 0.1631963700773E+00
 0.1560098251974E-01
-0.8541023872117E-01
-0.1414388308775E+00
-0.1644029547862E+00
-0.1670728425260E+00
-0.1574766621218E+00
-0.1403968505877E+00
-0.1184787154449E+00
-0.9427290489205E-01
-0.7425819449294E-01
-0.6388669700584E-01
 0.3683624824439E+01
 0.1952649084819E+01
 0.1036718493458E+01
 0.9353270294495E+00
 0.7842178257719E+00
 0.6316724706405E+00
 0.4524158711480E+00
 0.2598457619647E+00
 0.7912165789339E-01
-0.7294514262970E-01
-0.1713775147787E+00
-0.2127228662577E+00
-0.2226558116270E+00
-0.2160305313454E+00
-0.1982096961981E+00
-0.1732322250584E+00
-0.1423178028158E+00
-0.1082062346599E+00
-0.7532843604905E-01
-0.5651681322399E-01
 0.5353798218488E+01
 0.1019129587777E+01
 0.1031535899811E+01
 0.8606268875780E+00
 0.7306643571566E+00
 0.5742424338227E+00
 0.3708283928783E+00
 0.1652933509152E+00
 0.1085948335993E-01
-0.1723584956879E+00
-0.2546317380423E+00
-0.2751846686295E+00
-0.2731316626245E+00
-0.2595181839006E+00
-0.2328508810410E+00
-0.1979806385211E+00
-0.1623137439477E+00
-0.1133597376946E+00
-0.6641616653008E-01
-0.3835432714001E-01
 0.1253395549220E+01
 0.1072842003494E+01
 0.9841807276504E+00
 0.8910814048634E+00
 0.7959645509262E+00
 0.6973356000276E+00
 0.5967425084862E+00
 0.4959546862171E+00
 0.3971499065345E+00
 0.3027376215338E+00
 0.2152511611182E+00
 0.1371531276761E+00
 0.7057515546913E-01
 0.1702375190833E-01
-0.2286240131391E-01
-0.4938941987546E-01
-0.6364995392392E-01
-0.6714654007863E-01
-0.6158637481771E-01
-0.4707986667603E-01
 0.1250434463257E+01
 0.1170229654329E+01
 0.1062765417633E+01
 0.9697150081772E+00
 0.8730807999546E+00
 0.7728724528841E+00
 0.6692262920269E+00
 0.5637563705902E+00
 0.4585335629408E+00
 0.3560389864667E+00
 0.2590314294797E+00
 0.1704004979750E+00
 0.9291693202074E-01
 0.2887716730149E-01
-0.2030499397653E-01
-0.5442030811183E-01
-0.7450564435885E-01
-0.8259532218293E-01
-0.8107021776287E-01
-0.7421561116370E-01
 0.1296475859384E+01
 0.1228916336438E+01
 0.1145874607573E+01
 0.1053729282907E+01
 0.9587459490925E+00
 0.8582819602064E+00
 0.7528352078232E+00
 0.6435195193385E+00
 0.5322435810282E+00
 0.4214263202561E+00
 0.3139414772612E+00
 0.2130223281005E+00
 0.1220829756379E+00
 0.4437532443176E-01
-0.1754111524815E-01
-0.6241397946718E-01
-0.9072633415169E-01
-0.1045499284074E+00
-0.1071282124257E+00
-0.1016386459554E+00
 0.1348559151041E+01
 0.1293994370449E+01
 0.1223373500210E+01
 0.1141958996418E+01
 0.1051387639875E+01
 0.9532302107086E+00
 0.8476970423511E+00
 0.7358796324566E+00
 0.6194435483308E+00
 0.5006776916807E+00
 0.3824439589979E+00
 0.2681682848897E+00
 0.1617709503415E+00
 0.6743844892051E-01
-0.1088887104613E-01
-0.7036103782900E-01
-0.1101522547075E+00
-0.1319018989059E+00
-0.1389090416441E+00
-0.1348549846585E+00
 0.1403721434401E+01
 0.1360631347639E+01
 0.1302621018238E+01
 0.1231997667140E+01
 0.1149979524836E+01
 0.1057214604030E+01
 0.9544458279017E+00
 0.8425170284663E+00
 0.7228589626811E+00
 0.5975099940204E+00
 0.4691764634548E+00
 0.3412821417884E+00
 0.2180185602527E+00
 0.1043024523748E+00
 0.5466153330006E-02
-0.7356602874480E-01
-0.1297066239978E+00
-0.1631126149241E+00
-0.1772468635074E+00
-0.1765563670312E+00
 0.1459627017249E+01
 0.1427769863428E+01
 0.1382133197004E+01
 0.1323640240210E+01
 0.1252445857686E+01
 0.1168628970540E+01
 0.1072336965348E+01
 0.9640516355562E+00
 0.8447103518259E+00
 0.7158779785272E+00
 0.5798328920988E+00
 0.4396755356200E+00
 0.2994680556132E+00
 0.1643862226977E+00
 0.4075633359123E-01
-0.6434179564421E-01
-0.1444742976368E+00
-0.1964351549087E+00
-0.2223756742068E+00
-0.2287079125627E+00
 0.1515530575542E+01
 0.1494500979639E+01
 0.1461300424719E+01
 0.1415794353029E+01
 0.1357438059995E+01
 0.1285570815600E+01
 0.1199657271339E+01
 0.1099438939904E+01
 0.9851057897943E+00
 0.8574319325718E+00
 0.7179160648162E+00
 0.5689245015169E+00
 0.4138857316856E+00
 0.2575697129538E+00
 0.1064429458200E+00
-0.3106300623698E-01
-0.1449813209306E+00
-0.2264550918969E+00
-0.2727975511291E+00
-0.2904295234514E+00
 0.1570674981664E+01
 0.1560008666077E+01
 0.1539067844682E+01
 0.1507089973200E+01
 0.1463026169042E+01
 0.1405668501837E+01
 0.1333807867164E+01
 0.1246390573602E+01
 0.1142665389525E+01
 0.1022341862584E+01
 0.8857517388492E+00
 0.7340324296044E+00
 0.5693595318291E+00
 0.3952860375074E+00
 0.2172706411322E+00
 0.4345760482167E-01
-0.1143854797611E+00
-0.2409905319033E+00
-0.3234350998044E+00
-0.3616139891217E+00
 0.1624393509198E+01
 0.1623444157595E+01
 0.1614288115629E+01
 0.1595857235119E+01
 0.1566864808902E+01
 0.1525799178327E+01
 0.1471010049222E+01
 0.1400808459058E+01
 0.1313580366771E+01
 0.1207915450741E+01
 0.1082759711710E+01
 0.9376001447820E+00
 0.7727057874611E+00
 0.5894745349012E+00
 0.3909847675063E+00
 0.1829546117279E+00
-0.2459941738914E-01
-0.2143723740141E+00
-0.3598697670458E+00
-0.4411481733215E+00
 0.1676108921694E+01
 0.1684112504051E+01
 0.1685977234864E+01
 0.1680601744888E+01
 0.1666686340220E+01
 0.1642683936240E+01
 0.1606813867464E+01
 0.1557096995890E+01
 0.1491401885179E+01
 0.1407504807165E+01
 0.1303168531211E+01
 0.1176249898470E+01
 0.1024853610440E+01
 0.8475681443711E+00
 0.6438626876641E+00
 0.4148112428803E+00
 0.1646098936325E+00
-0.9629056116685E-01
-0.3415824786729E+00
-0.5167220567928E+00
 0.1725354057762E+01
 0.1741438689188E+01
 0.1753353900805E+01
 0.1760112475248E+01
 0.1760557308272E+01
 0.1753310168373E+01
 0.1736742478009E+01
 0.1708960410095E+01
 0.1667793331611E+01
 0.1610781890240E+01
 0.1535165220388E+01
 0.1437868016382E+01
 0.1315490508386E+01
 0.1164309418306E+01
 0.9803088061771E+00
 0.7593014130544E+00
 0.4972543647083E+00
 0.1915328889532E+00
-0.1565312992163E+00
-0.5123583247537E+00
 0.1771776714916E+01
 0.1795158287028E+01
 0.1816227623367E+01
 0.1834140914992E+01
 0.1847953147261E+01
 0.1856550941025E+01
 0.1858609809364E+01
 0.1852557921318E+01
 0.1836538517048E+01
 0.1808364229524E+01
 0.1765457546346E+01
 0.1704770658269E+01
 0.1622675022655E+01
 0.1514805112707E+01
 0.1375831254864E+01
 0.1199108153673E+01
 0.9761258835153E+00
 0.6953518076762E+00
 0.3406485228353E+00
-0.1240952706920E+00
 0.1814958696169E+01
 0.1845037456464E+01
 0.1874517832973E+01
 0.1902726448325E+01
 0.1928942942608E+01
 0.1952337570156E+01
 0.1971926417355E+01
 0.1986532821493E+01
 0.1994746960265E+01
 0.1994877796737E+01
 0.1984891314791E+01
 0.1962327495119E+01
 0.1924184813404E+01
 0.1866753953139E+01
 0.1785367123066E+01
 0.1674002964777E+01
 0.1524593757290E+01
 0.1325794470967E+01
 0.1059655260094E+01
 0.6947620565131E+00
 0.1854356638320E+01
 0.1890539431225E+01
 0.1927667005334E+01
 0.1965253980111E+01
 0.2002805704132E+01
 0.2039767693742E+01
 0.2075487185103E+01
 0.2109179130481E+01
 0.2139891473837E+01
 0.2166465268091E+01
 0.2187485279789E+01
 0.2201215800371E+01
 0.2205514347823E+01
 0.2197711860180E+01
 0.2174441357727E+01
 0.2131381800502E+01
 0.2062875982552E+01
 0.1961306895599E+01
 0.1816453569715E+01
 0.1617381555844E+01
 0.1889395438418E+01
 0.1931022458382E+01
 0.1974943589054E+01
 0.2020867847358E+01
 0.2068521017766E+01
 0.2117609881328E+01
 0.2167793311218E+01
 0.2218656692902E+01
 0.2269686629926E+01
 0.2320243417319E+01
 0.2369528960869E+01
 0.2416547858961E+01
 0.2460059209191E+01
 0.2498516653565E+01
 0.2529994292987E+01
 0.2552100879835E+01
 0.2561893006080E+01
 0.2555877724896E+01
 0.2530429172883E+01
 0.2482080046097E+01
 0.1919528112695E+01
 0.1965850704414E+01
 0.2015608391242E+01
 0.2068694717322E+01
 0.2125041023421E+01
 0.2184593419356E+01
 0.2247293972332E+01
 0.2313064600769E+01
 0.2381792282484E+01
 0.2453314471417E+01
 0.2527404039352E+01
 0.2603753648434E+01
 0.2681960472819E+01
 0.2761513968819E+01
 0.2841793122618E+01
 0.2922085808111E+01
 0.3001658423971E+01
 0.3079918089204E+01
 0.3156596832528E+01
 0.3232069778834E+01
 0.1944266186990E+01
 0.1994448172795E+01
 0.2048988443555E+01
 0.2107940792199E+01
 0.2171415596489E+01
 0.2239565952088E+01
 0.2312577451017E+01
 0.2390660738255E+01
 0.2474046242069E+01
 0.2562980788055E+01
 0.2657726228709E+01
 0.2758560904858E+01
 0.2865785849478E+01
 0.2979739464508E+01
 0.3100827106205E+01
 0.3229576143942E+01
 0.3366729165041E+01
 0.3513374692492E+01
 0.3671097332022E+01
 0.3842117614680E+01
 0.1963197264099E+01
 0.2016328304521E+01
 0.2074516021202E+01
 0.2137940149472E+01
 0.2206853300440E+01
 0.2281572970632E+01
 0.2362477632405E+01
 0.2450006004024E+01
 0.2544659186072E+01
 0.2647005589859E+01
 0.2757688913786E+01
 0.2877439832226E+01
 0.3007092639478E+01
 0.3147608851501E+01
 0.3300110699633E+01
 0.3465927983964E+01
 0.3646661232165E+01
 0.3844268144544E+01
 0.4061218267802E+01
 0.4300545328134E+01
 0.1975999433073E+01
 0.2031115427844E+01
 0.2091756646167E+01
 0.2158188346154E+01
 0.2230761064547E+01
 0.2309906046996E+01
 0.2396135086639E+01
 0.2490044213739E+01
 0.2592320696862E+01
 0.2703753211897E+01
 0.2825245191114E+01
 0.2957831418011E+01
 0.3102697861977E+01
 0.3261204492456E+01
 0.3434910205050E+01
 0.3625597941152E+01
 0.3835297670288E+01
 0.4066308489956E+01
 0.4321216703104E+01
 0.4603281869738E+01
 0.1982453952821E+01
 0.2038562665025E+01
 0.2100432599094E+01
 0.2168370544571E+01
 0.2242776777872E+01
 0.2324140484169E+01
 0.2413041383752E+01
 0.2510155547920E+01
 0.2616264764367E+01
 0.2732269168055E+01
 0.2859202918700E+01
 0.2998252520042E+01
 0.3150776908372E+01
 0.3318327596700E+01
 0.3502665868962E+01
 0.3705772236867E+01
 0.3929840563778E+01
 0.4177242545655E+01
 0.4450437135297E+01
 0.4751600946491E+01
 0.1982453952862E+01
 0.2038562665104E+01
 0.2100432599226E+01
 0.2168370544775E+01
 0.2242776778172E+01
 0.2324140484593E+01
 0.2413041384333E+01
 0.2510155548699E+01
 0.2616264765394E+01
 0.2732269169390E+01
 0.2859202920413E+01
 0.2998252522218E+01
 0.3150776911111E+01
 0.3318327600123E+01
 0.3502665873206E+01
 0.3705772242092E+01
 0.3929840570161E+01
 0.4177242553386E+01
 0.4450437144552E+01
 0.4751600957360E+01
 0.1975999433197E+01
 0.2031115428083E+01
 0.2091756646566E+01
 0.2158188346771E+01
 0.2230761065451E+01
 0.2309906048272E+01
 0.2396135088390E+01
 0.2490044216088E+01
 0.2592320699956E+01
 0.2703753215912E+01
 0.2825245196263E+01
 0.2957831424546E+01
 0.3102697870199E+01
 0.3261204502721E+01
 0.3434910217779E+01
 0.3625597956827E+01
 0.3835297689456E+01
 0.4066308513212E+01
 0.4321216731058E+01
 0.4603281902906E+01
 0.1963197264301E+01
 0.2016328304915E+01
 0.2074516021864E+01
 0.2137940150496E+01
 0.2206853301944E+01
 0.2281572972756E+01
 0.2362477635319E+01
 0.2450006007930E+01
 0.2544659191212E+01
 0.2647005596523E+01
 0.2757688922320E+01
 0.2877439843046E+01
 0.3007092653078E+01
 0.3147608868472E+01
 0.3300110720672E+01
 0.3465928009893E+01
 0.3646661263933E+01
 0.3844268183225E+01
 0.4061218314578E+01
 0.4300545384336E+01
 0.1944266187262E+01
 0.1994448173333E+01
 0.2048988444466E+01
 0.2107940793614E+01
 0.2171415598572E+01
 0.2239565955033E+01
 0.2312577455058E+01
 0.2390660743668E+01
 0.2474046249185E+01
 0.2562980797269E+01
 0.2657726240492E+01
 0.2758560919771E+01
 0.2865785868197E+01
 0.2979739487840E+01
 0.3100827135119E+01
 0.3229576179595E+01
 0.3366729208814E+01
 0.3513374746007E+01
 0.3671097397182E+01
 0.3842117693640E+01
 0.1919528113028E+01
 0.1965850705082E+01
 0.2015608392382E+01
 0.2068694719105E+01
 0.2125041026053E+01
 0.2184593423083E+01
 0.2247293977444E+01
 0.2313064607611E+01
 0.2381792291468E+01
 0.2453314483027E+01
 0.2527404054168E+01
 0.2603753667146E+01
 0.2681960496253E+01
 0.2761513997969E+01
 0.2841793158687E+01
 0.2922085852565E+01
 0.3001658478611E+01
 0.3079918156251E+01
 0.3156596914668E+01
 0.3232069879325E+01
 0.1889395438798E+01
 0.1931022459157E+01
 0.1974943590394E+01
 0.2020867849471E+01
 0.2068521020898E+01
 0.2117609885769E+01
 0.2167793317314E+01
 0.2218656701058E+01
 0.2269686640619E+01
 0.2320243431114E+01
 0.2369528978432E+01
 0.2416547881083E+01
 0.2460059236814E+01
 0.2498516687821E+01
 0.2529994335247E+01
 0.2552100931789E+01
 0.2561893069852E+01
 0.2555877803239E+01
 0.2530429269435E+01
 0.2482080165349E+01
 0.1854356638728E+01
 0.1890539432087E+01
 0.1927667006848E+01
 0.1965253982519E+01
 0.2002805707718E+01
 0.2039767698841E+01
 0.2075487192105E+01
 0.2109179139844E+01
 0.2139891486096E+01
 0.2166465283874E+01
 0.2187485299829E+01
 0.2201215825528E+01
 0.2205514379112E+01
 0.2197711898800E+01
 0.2174441405117E+01
 0.2131381858412E+01
 0.2062876053180E+01
 0.1961306981824E+01
 0.1816453675715E+01
 0.1617381688346E+01
 0.1814958696608E+01
 0.1845037457408E+01
 0.1874517834656E+01
 0.1902726451020E+01
 0.1928942946635E+01
 0.1952337575887E+01
 0.1971926425224E+01
 0.1986532832004E+01
 0.1994746974004E+01
 0.1994877814379E+01
 0.1984891337116E+01
 0.1962327523023E+01
 0.1924184847919E+01
 0.1866753995451E+01
 0.1785367174541E+01
 0.1674003026999E+01
 0.1524593832106E+01
 0.1325794560596E+01
 0.1059655367297E+01
 0.6947621868608E+00
 0.1771776715367E+01
 0.1795158288039E+01
 0.1816227625200E+01
 0.1834140917950E+01
 0.1847953151695E+01
 0.1856550947341E+01
 0.1858609818033E+01
 0.1852557932877E+01
 0.1836538532109E+01
 0.1808364248772E+01
 0.1765457570543E+01
 0.1704770688245E+01
 0.1622675059299E+01
 0.1514805156941E+01
 0.1375831307596E+01
 0.1199108215712E+01
 0.9761259553998E+00
 0.6953518892945E+00
 0.3406486125429E+00
-0.1240951806195E+00
 0.1725354058236E+01
 0.1741438690298E+01
 0.1753353902842E+01
 0.1760112478542E+01
 0.1760557313203E+01
 0.1753310175374E+01
 0.1736742487563E+01
 0.1708960422739E+01
 0.1667793347920E+01
 0.1610781910813E+01
 0.1535165245821E+01
 0.1437868047220E+01
 0.1315490545061E+01
 0.1164309461031E+01
 0.9803088547905E+00
 0.7593014667598E+00
 0.4972544216298E+00
 0.1915329452860E+00
-0.1565312511105E+00
-0.5123583014394E+00
 0.1676108922225E+01
 0.1684112505344E+01
 0.1685977237234E+01
 0.1680601748694E+01
 0.1666686345854E+01
 0.1642683944131E+01
 0.1606813878062E+01
 0.1557097009649E+01
 0.1491401902529E+01
 0.1407504828468E+01
 0.1303168556709E+01
 0.1176249928210E+01
 0.1024853644175E+01
 0.8475681814316E+00
 0.6438627267783E+00
 0.4148112819179E+00
 0.1646099292263E+00
-0.9629053415662E-01
-0.3415824677251E+00
-0.5167220670136E+00
 0.1624393509825E+01
 0.1623444159110E+01
 0.1614288118375E+01
 0.1595857239454E+01
 0.1566864815199E+01
 0.1525799186960E+01
 0.1471010060541E+01
 0.1400808473356E+01
 0.1313580384248E+01
 0.1207915471450E+01
 0.1082759735502E+01
 0.9376001712391E+00
 0.7727058158243E+00
 0.5894745639853E+00
 0.3909847956063E+00
 0.1829546365180E+00
-0.2459939889805E-01
-0.2143723652462E+00
-0.3598697700583E+00
-0.4411481856414E+00
 0.1570674982402E+01
 0.1560008667835E+01
 0.1539067847803E+01
 0.1507089978016E+01
 0.1463026175865E+01
 0.1405668510939E+01
 0.1333807878745E+01
 0.1246390587758E+01
 0.1142665406212E+01
 0.1022341881574E+01
 0.8857517597016E+00
 0.7340324516285E+00
 0.5693595540555E+00
 0.3952860586645E+00
 0.2172706596379E+00
 0.4345761883227E-01
-0.1143854721316E+00
-0.2409905318577E+00
-0.3234351066742E+00
-0.3616140003623E+00
 0.1515530576401E+01
 0.1494500981635E+01
 0.1461300428172E+01
 0.1415794358211E+01
 0.1357438067125E+01
 0.1285570824821E+01
 0.1199657282688E+01
 0.1099438953293E+01
 0.9851058049831E+00
 0.8574319491558E+00
 0.7179160822133E+00
 0.5689245189617E+00
 0.4138857482314E+00
 0.2575697274879E+00
 0.1064429571163E+00
-0.3106299936975E-01
-0.1449813193028E+00
-0.2264550954047E+00
-0.2727975585379E+00
-0.2904295330426E+00
 0.1459627018231E+01
 0.1427769865639E+01
 0.1382133200713E+01
 0.1323640245607E+01
 0.1252445864877E+01
 0.1168628979537E+01
 0.1072336976047E+01
 0.9640516477314E+00
 0.8447103651269E+00
 0.7158779924754E+00
 0.5798329060918E+00
 0.4396755489412E+00
 0.2994680674496E+00
 0.1643862321835E+00
 0.4075633990341E-01
-0.6434179309744E-01
-0.1444742989461E+00
-0.1964351594873E+00
-0.2223756809963E+00
-0.2287079206258E+00
 0.1403721435512E+01
 0.1360631350040E+01
 0.1302621022124E+01
 0.1231997672600E+01
 0.1149979531865E+01
 0.1057214612519E+01
 0.9544458376487E+00
 0.8425170391717E+00
 0.7228589739543E+00
 0.5975100053858E+00
 0.4691764743613E+00
 0.3412821516273E+00
 0.2180185683892E+00
 0.1043024582105E+00
 0.5466156411985E-02
-0.7356602857430E-01
-0.1297066264842E+00
-0.1631126194478E+00
-0.1772468693467E+00
-0.1765563736309E+00
 0.1348559152287E+01
 0.1293994372997E+01
 0.1223373504161E+01
 0.1141959001763E+01
 0.1051387646503E+01
 0.9532302184363E+00
 0.8476970509314E+00
 0.7358796415776E+00
 0.6194435576193E+00
 0.5006777007116E+00
 0.3824439673073E+00
 0.2681682919978E+00
 0.1617709557931E+00
 0.6743845235128E-01
-0.1088886982209E-01
-0.7036103874032E-01
-0.1101522574200E+00
-0.1319019029273E+00
-0.1389090464994E+00
-0.1348549899829E+00
 0.1296475860736E+01
 0.1228916339037E+01
 0.1145874611462E+01
 0.1053729287942E+01
 0.9587459551073E+00
 0.8582819670060E+00
 0.7528352151659E+00
 0.6435195269355E+00
 0.5322435885487E+00
 0.4214263273397E+00
 0.3139414835337E+00
 0.2130223332022E+00
 0.1220829792665E+00
 0.4437532639895E-01
-0.1754111496492E-01
-0.6241398070668E-01
-0.9072633661324E-01
-0.1045499317516E+00
-0.1071282163317E+00
-0.1016386502001E+00
 0.1250434464663E+01
 0.1170229657046E+01
 0.1062765421371E+01
 0.9697150127409E+00
 0.8730808052115E+00
 0.7728724586619E+00
 0.6692262981096E+00
 0.5637563767261E+00
 0.4585335688542E+00
 0.3560389918705E+00
 0.2590314340955E+00
 0.1704005015623E+00
 0.9291693441187E-01
 0.2887716843726E-01
-0.2030499403159E-01
-0.5442030918904E-01
-0.7450564624570E-01
-0.8259532469071E-01
-0.8107022080543E-01
-0.7421561453373E-01
 0.1253395551283E+01
 0.1072842006336E+01
 0.9841807309954E+00
 0.8910814087176E+00
 0.7959645552035E+00
 0.6973356045899E+00
 0.5967425131599E+00
 0.4959546908105E+00
 0.3971499108469E+00
 0.3027376253682E+00
 0.2152511643001E+00
 0.1371531300763E+00
 0.7057515702663E-01
 0.1702375264305E-01
-0.2286240130886E-01
-0.4938942046607E-01
-0.6364995498513E-01
-0.6714654155509E-01
-0.6158637676002E-01
-0.4707986952511E-01
</DataArray>
<DataArray type="Float64" Name="S_Oct" NumberOfComponents="1" ComponentName0="S_Oct" format="ascii">
 0.1854797926661E-01
 0.1629922730704E-01
 0.1464249096395E-01
 0.1405279607731E-01
 0.1368149452085E-01
 0.1348412717277E-01
 0.1338036092278E-01
 0.1334151405142E-01
 0.1334782145703E-01
 0.1338800183007E-01
 0.1345483146120E-01
 0.1354387919045E-01
 0.1365255052941E-01
 0.1377959074394E-01
 0.1392476647110E-01
 0.1408866984870E-01
 0.1427259400681E-01
 0.1447845556030E-01
 0.1470875300461E-01
 0.1496655430544E-01
 0.1525551280504E-01
 0.1557993855183E-01
 0.1594492192154E-01
 0.1635657014509E-01
 0.1682246958367E-01
 0.1735272454731E-01
 0.1796218232570E-01
 0.1867325760658E-01
 0.1949848861340E-01
 0.2042787445501E-01
 0.2144657312506E-01
 0.2254749713665E-01
 0.2373450582390E-01
 0.2502472291061E-01
 0.2645956792515E-01
 0.2809174143733E-01
 0.3012144404894E-01
 0.3240583051309E-01
 0.3744039903262E-01
 0.3576258732149E-01
 0.7677406170258E-01
 0.1582977803098E-01
 0.1623991689624E-01
 0.1503491910980E-01
 0.1431509827452E-01
 0.1393123634584E-01
 0.1369593978242E-01
 0.1356569784119E-01
 0.1350352271236E-01
 0.1349045282734E-01
 0.1351405073326E-01
 0.1356656167885E-01
 0.1364304064285E-01
 0.1374049531556E-01
 0.1385732808030E-01
 0.1399300259076E-01
 0.1414782891111E-01
 0.1432282594789E-01
 0.1451963331758E-01
 0.1474045969450E-01
 0.1498806149527E-01
 0.1526574833987E-01
 0.1557743881305E-01
 0.1592776401122E-01
 0.1632225887698E-01
 0.1676773704722E-01
 0.1727297017484E-01
 0.1784840051746E-01
 0.1850338305446E-01
 0.1924131471141E-01
 0.2005719664193E-01
 0.2094160984103E-01
 0.2188686216603E-01
 0.2289019908019E-01
 0.2395617343711E-01
 0.2509238122396E-01
 0.2632971120255E-01
 0.2761096675810E-01
 0.2920936653515E-01
 0.2966973491522E-01
 0.2669314213014E-01
 0.4924936076422E-01
 0.1441036605061E-01
 0.1546261002506E-01
 0.1509669462701E-01
 0.1447979014047E-01
 0.1410350313445E-01
 0.1386470786773E-01
 0.1372042284764E-01
 0.1364387031556E-01
 0.1361659317585E-01
 0.1362698028618E-01
 0.1366728073983E-01
 0.1373246436623E-01
 0.1381936372156E-01
 0.1392618194443E-01
 0.1405216734451E-01
 0.1419740270778E-01
 0.1436266503409E-01
 0.1454933233022E-01
 0.1475932455067E-01
 0.1499507235740E-01
 0.1525950731615E-01
 0.1555609416248E-01
 0.1588889185301E-01
 0.1626265909341E-01
 0.1668303971993E-01
 0.1715641177155E-01
 0.1768807376562E-01
 0.1828007268759E-01
 0.1893118107793E-01
 0.1963689896346E-01
 0.2038922620783E-01
 0.2117830021146E-01
 0.2199411943160E-01
 0.2282453389233E-01
 0.2365375345087E-01
 0.2443439703354E-01
 0.2509123328073E-01
 0.2536557003077E-01
 0.2330891102655E-01
 0.2278658410856E-01
 0.3976999368983E-01
 0.1355712092339E-01
 0.1472456528458E-01
 0.1488725602493E-01
 0.1452967620593E-01
 0.1420782138529E-01
 0.1398747061141E-01
 0.1384417261005E-01
 0.1376151650161E-01
 0.1372550596081E-01
 0.1372614816976E-01
 0.1375648145701E-01
 0.1381175237114E-01
 0.1388885954127E-01
 0.1398595069253E-01
 0.1410215119392E-01
 0.1423737465701E-01
 0.1439219159617E-01
 0.1456773688186E-01
 0.1476564583568E-01
 0.1498801235510E-01
 0.1523736054829E-01
 0.1551664485209E-01
 0.1582925108605E-01
 0.1617898854732E-01
 0.1656997149784E-01
 0.1700578250158E-01
 0.1748751859905E-01
 0.1801284927270E-01
 0.1857756589051E-01
 0.1917602257795E-01
 0.1979933209290E-01
 0.2043447604077E-01
 0.2106345396312E-01
 0.2166017259622E-01
 0.2217982516266E-01
 0.2253701695207E-01
 0.2258062142300E-01
 0.2172889002145E-01
 0.1951499817500E-01
 0.2169655419707E-01
 0.3519616272940E-01
 0.1299767054422E-01
 0.1412565100125E-01
 0.1457539049531E-01
 0.1447209284869E-01
 0.1425033258038E-01
 0.1406666525382E-01
 0.1393707899776E-01
 0.1385639893263E-01
 0.1381686972611E-01
 0.1381123480291E-01
 0.1383386927687E-01
 0.1388066771446E-01
 0.1394881251141E-01
 0.1403653809834E-01
 0.1414293781807E-01
 0.1426781526366E-01
 0.1441157164339E-01
 0.1457511970105E-01
 0.1475981746738E-01
 0.1496741571671E-01
 0.1520000864945E-01
 0.1545999527621E-01
 0.1575001113822E-01
 0.1607278349766E-01
 0.1643071540890E-01
 0.1682475419754E-01
 0.1725284449732E-01
 0.1770982532866E-01
 0.1818926069215E-01
 0.1868374789694E-01
 0.1918248794417E-01
 0.1966884168462E-01
 0.2011790945949E-01
 0.2049131084120E-01
 0.2072506480865E-01
 0.2071366896989E-01
 0.2024116087472E-01
 0.1893036543765E-01
 0.1763168466514E-01
 0.2158937929019E-01
 0.3246389154237E-01
 0.1260803650203E-01
 0.1365457977126E-01
 0.1424756163427E-01
 0.1434422143114E-01
 0.1423809177758E-01
 0.1410664036111E-01
 0.1400063807006E-01
 0.1392906397103E-01
 0.1389083050882E-01
 0.1388220764185E-01
 0.1389935998409E-01
 0.1393912819674E-01
 0.1399917490250E-01
 0.1407794989060E-01
 0.1417460070904E-01
 0.1428887843615E-01
 0.1442105271381E-01
 0.1457183719163E-01
 0.1474232350033E-01
 0.1493391863947E-01
 0.1514827356007E-01
 0.1538720304598E-01
 0.1565254468941E-01
 0.1594587901218E-01
 0.1626791660807E-01
 0.1661736222802E-01
 0.1698985707858E-01
 0.1737829993271E-01
 0.1777448891537E-01
 0.1816918628420E-01
 0.1854944128583E-01
 0.1889540076192E-01
 0.1917693759450E-01
 0.1934781123468E-01
 0.1933679928718E-01
 0.1903212129587E-01
 0.1825935252962E-01
 0.1703926965222E-01
 0.1689068185668E-01
 0.2172010189740E-01
 0.3061253585387E-01
 0.1232423981886E-01
 0.1328431006852E-01
 0.1393993072878E-01
 0.1417953374186E-01
 0.1418320927561E-01
 0.1411239389274E-01
 0.1403738488204E-01
 0.1398063909949E-01
 0.1394792188620E-01
 0.1393930632587E-01
 0.1395306301139E-01
 0.1398719868309E-01
 0.1404001532853E-01
 0.1411028896624E-01
 0.1419729869157E-01
 0.1430079694802E-01
 0.1442095890944E-01
 0.1455832374543E-01
 0.1471373130598E-01
 0.1488825068173E-01
 0.1508308723608E-01
 0.1529946189340E-01
 0.1553840185960E-01
 0.1580035558862E-01
 0.1608449713567E-01
 0.1638773340919E-01
 0.1670405111919E-01
 0.1702499042765E-01
 0.1734097529436E-01
 0.1764117155204E-01
 0.1791080956200E-01
 0.1812781679272E-01
 0.1825929743000E-01
 0.1825709337624E-01
 0.1805299488130E-01
 0.1755646732486E-01
 0.1671313646295E-01
 0.1588885520892E-01
 0.1675568019518E-01
 0.2185290399944E-01
 0.2925921502329E-01
 0.1211025214369E-01
 0.1299061529635E-01
 0.1366479399136E-01
 0.1400088006696E-01
 0.1409870021804E-01
 0.1408983757730E-01
 0.1405038914199E-01
 0.1401273825252E-01
 0.1398900017693E-01
 0.1398300796484E-01
 0.1399526345885E-01
 0.1402507914556E-01
 0.1407151079924E-01
 0.1413374908254E-01
 0.1421127039504E-01
 0.1430387700610E-01
 0.1441168510324E-01
 0.1453508513980E-01
 0.1467468358776E-01
 0.1483122456545E-01
 0.1500547761297E-01
 0.1519808081994E-01
 0.1540927644685E-01
 0.1563846376550E-01
 0.1588350885403E-01
 0.1613994481213E-01
 0.1640060856969E-01
 0.1665612483194E-01
 0.1689594465212E-01
 0.1710809299829E-01
 0.1727668941690E-01
 0.1737885454688E-01
 0.1738195105920E-01
 0.1724167006052E-01
 0.1690363489428E-01
 0.1632426477526E-01
 0.1558783557252E-01
 0.1527363524221E-01
 0.1690735698295E-01
 0.2193411556902E-01
 0.2822098485288E-01
 0.1194440125290E-01
 0.1275477796022E-01
 0.1342396973137E-01
 0.1382206323724E-01
 0.1399577782627E-01
 0.1404518333899E-01
 0.1404304167986E-01
 0.1402729128023E-01
 0.1401518119010E-01
 0.1401398684721E-01
 0.1402639993442E-01
 0.1405309070056E-01
 0.1409393712151E-01
 0.1414860752783E-01
 0.1421682793141E-01
 0.1429849217293E-01
 0.1439369051643E-01
 0.1450269120750E-01
 0.1462588944502E-01
 0.1476372457369E-01
 0.1491655246114E-01
 0.1508446015195E-01
 0.1526696529718E-01
 0.1546254916182E-01
 0.1566802712917E-01
 0.1587794069388E-01
 0.1608438868590E-01
 0.1627746577659E-01
 0.1644608449855E-01
 0.1657772647736E-01
 0.1665633115206E-01
 0.1665987364712E-01
 0.1655903237066E-01
 0.1631861253730E-01
 0.1590767908328E-01
 0.1534209284222E-01
 0.1482302430646E-01
 0.1501833182311E-01
 0.1717360876533E-01
 0.2196542887900E-01
 0.2739782890859E-01
 0.1181294867345E-01
 0.1256291622817E-01
 0.1321504410948E-01
 0.1365068698400E-01
 0.1388303986703E-01
 0.1398425187671E-01
 0.1401883124447E-01
 0.1402640578687E-01
 0.1402776447125E-01
 0.1403307398045E-01
 0.1404703967320E-01
 0.1407166007742E-01
 0.1410765813877E-01
 0.1415521693412E-01
 0.1421434991878E-01
 0.1428507672683E-01
 0.1436749174456E-01
 0.1446176787908E-01
 0.1456811463332E-01
 0.1468669383560E-01
 0.1481748175627E-01
 0.1496006531373E-01
 0.1511332594038E-01
 0.1527498713790E-01
 0.1544107437026E-01
 0.1560547733086E-01
 0.1575991051550E-01
 0.1589430168048E-01
 0.1599748851705E-01
 0.1605708337255E-01
 0.1605787847681E-01
 0.1598039063998E-01
 0.1580136270930E-01
 0.1549904064050E-01
 0.1507178857948E-01
 0.1459379278916E-01
 0.1434561904500E-01
 0.1499186243014E-01
 0.1746908897615E-01
 0.2196087593303E-01
 0.2672950355927E-01
 0.1170680344959E-01
 0.1240482489449E-01
 0.1303419581013E-01
 0.1349047367190E-01
 0.1376661583504E-01
 0.1391206387836E-01
 0.1398112212041E-01
 0.1401225015984E-01
 0.1402816124483E-01
 0.1404121556286E-01
 0.1405785305095E-01
 0.1408130302275E-01
 0.1411311417527E-01
 0.1415399642886E-01
 0.1420427397064E-01
 0.1426411856073E-01
 0.1433365534649E-01
 0.1441298876323E-01
 0.1450217128649E-01
 0.1460112097386E-01
 0.1470947931876E-01
 0.1482640006634E-01
 0.1495023671273E-01
 0.1507812923188E-01
 0.1520556447248E-01
 0.1532608323327E-01
 0.1543133221478E-01
 0.1551142451095E-01
 0.1555559865230E-01
 0.1555229135438E-01
 0.1548817176818E-01
 0.1534782604126E-01
 0.1511627106883E-01
 0.1478801897517E-01
 0.1439202284221E-01
 0.1405084535547E-01
 0.1408651180608E-01
 0.1510306158364E-01
 0.1775519670232E-01
 0.2193400045393E-01
 0.2617710801802E-01
 0.1161973143826E-01
 0.1227297558552E-01
 0.1287742678434E-01
 0.1334284488971E-01
 0.1365064145096E-01
 0.1383270459677E-01
 0.1393298862297E-01
 0.1398695353595E-01
 0.1401783119192E-01
 0.1403943322339E-01
 0.1405958840112E-01
 0.1408260747205E-01
 0.1411081008204E-01
 0.1414542241022E-01
 0.1418708884556E-01
 0.1423615177853E-01
 0.1429279014824E-01
 0.1435706644097E-01
 0.1442890734712E-01
 0.1450802649777E-01
 0.1459378439686E-01
 0.1468498069515E-01
 0.1477956134776E-01
 0.1487426034908E-01
 0.1496426168768E-01
 0.1504302896247E-01
 0.1510243056802E-01
 0.1513310504372E-01
 0.1512515728618E-01
 0.1506851069930E-01
 0.1495263434942E-01
 0.1476742208735E-01
 0.1450765743702E-01
 0.1418517080176E-01
 0.1385699041678E-01
 0.1368029859795E-01
 0.1398706071877E-01
 0.1529164083238E-01
 0.1801697036285E-01
 0.2189505623564E-01
 0.2571418650020E-01
 0.1154732763595E-01
 0.1216176694498E-01
 0.1274105781091E-01
 0.1320792379414E-01
 0.1353776541948E-01
 0.1374935934989E-01
 0.1387712361924E-01
 0.1395252826301E-01
 0.1399822929579E-01
 0.1402878821921E-01
 0.1405304810389E-01
 0.1407621708537E-01
 0.1410130326742E-01
 0.1413001918916E-01
 0.1416332644446E-01
 0.1420174915527E-01
 0.1424553944305E-01
 0.1429474370425E-01
 0.1434919603261E-01
 0.1440844943291E-01
 0.1447164400748E-01
 0.1453731241678E-01
 0.1460311897202E-01
 0.1466556538113E-01
 0.1471975033104E-01
 0.1475930466159E-01
 0.1477658417125E-01
 0.1476307348034E-01
 0.1471017671267E-01
 0.1460989228664E-01
 0.1445524441439E-01
 0.1424230206950E-01
 0.1397630659807E-01
 0.1368581769341E-01
 0.1345101752839E-01
 0.1344963621271E-01
 0.1400048304650E-01
 0.1551925998815E-01
 0.1825074138174E-01
 0.2185117277218E-01
 0.2532199553817E-01
 0.1148639991194E-01
 0.1206698726609E-01
 0.1262189025682E-01
 0.1308514606533E-01
 0.1342958082933E-01
 0.1366443057393E-01
 0.1381580985809E-01
 0.1391081824298E-01
 0.1397076371573E-01
 0.1401035069832E-01
 0.1403906678476E-01
 0.1406281562867E-01
 0.1408519202991E-01
 0.1410834970059E-01
 0.1413355379046E-01
 0.1416151456043E-01
 0.1419257317386E-01
 0.1422678483748E-01
 0.1426392547725E-01
 0.1430343442076E-01
 0.1434429643101E-01
 0.1438486844230E-01
 0.1442265925849E-01
 0.1445410344335E-01
 0.1447441259028E-01
 0.1447760398316E-01
 0.1445676198147E-01
 0.1440450903747E-01
 0.1431392881515E-01
 0.1417957750027E-01
 0.1399858141075E-01
 0.1377364681024E-01
 0.1352039719788E-01
 0.1328228851253E-01
 0.1315665722758E-01
 0.1332932183483E-01
 0.1409095380026E-01
 0.1576233456194E-01
 0.1845784153701E-01
 0.2180716791348E-01
 0.2498679506101E-01
 0.1143458511201E-01
 0.1198543461960E-01
 0.1251722175036E-01
 0.1297362176650E-01
 0.1332695800056E-01
 0.1357967992260E-01
 0.1375093399884E-01
 0.1386347154872E-01
 0.1393676508248E-01
 0.1398517452415E-01
 0.1401849216511E-01
 0.1404311258214E-01
 0.1406310445475E-01
 0.1408100647195E-01
 0.1409836513774E-01
 0.1411607547664E-01
 0.1413458024086E-01
 0.1415396711875E-01
 0.1417398879125E-01
 0.1419401963013E-01
 0.1421295630457E-01
 0.1422907204738E-01
 0.1423984250608E-01
 0.1424178862517E-01
 0.1423041315117E-01
 0.1420031429351E-01
 0.1414551885986E-01
 0.1406004093813E-01
 0.1393895629246E-01
 0.1377973673155E-01
 0.1358393329900E-01
 0.1336095887349E-01
 0.1313610685715E-01
 0.1296512763107E-01
 0.1295641496901E-01
 0.1329386468846E-01
 0.1423183632189E-01
 0.1600680576848E-01
 0.1864148934083E-01
 0.2176632257859E-01
 0.2469821671222E-01
 0.1139010183068E-01
 0.1191464841931E-01
 0.1242480323259E-01
 0.1287234367472E-01
 0.1323028788250E-01
 0.1349636559347E-01
 0.1368402482331E-01
 0.1381193255380E-01
 0.1389746661143E-01
 0.1395427775827E-01
 0.1399216884758E-01
 0.1401783024703E-01
 0.1403568808491E-01
 0.1404860301634E-01
 0.1405837435476E-01
 0.1406607575981E-01
 0.1407226110262E-01
 0.1407707275529E-01
 0.1408027482116E-01
 0.1408122585092E-01
 0.1407880173083E-01
 0.1407128192978E-01
 0.1405622450645E-01
 0.1403037667768E-01
 0.1398969017871E-01
 0.1392951353192E-01
 0.1384499941293E-01
 0.1373176218002E-01
 0.1358710502110E-01
 0.1341164092684E-01
 0.1321144961342E-01
 0.1300237774671E-01
 0.1281821835233E-01
 0.1272407288832E-01
 0.1283381168822E-01
 0.1332202712313E-01
 0.1440376201882E-01
 0.1624456222351E-01
 0.1880526055501E-01
 0.2173095763698E-01
 0.2444824561567E-01
 0.1135158644281E-01
 0.1185271857421E-01
 0.1234277738065E-01
 0.1278030280109E-01
 0.1313965407373E-01
 0.1341536183235E-01
 0.1361630197392E-01
 0.1375744786505E-01
 0.1385399353691E-01
 0.1391862852467E-01
 0.1396092510405E-01
 0.1398769250889E-01
 0.1400360051794E-01
 0.1401176577514E-01
 0.1401420768230E-01
 0.1401216872429E-01
 0.1400632074597E-01
 0.1399688132754E-01
 0.1398365968932E-01
 0.1396604683715E-01
 0.1394296338648E-01
 0.1391278059567E-01
 0.1387324553548E-01
 0.1382145662855E-01
 0.1375395165288E-01
 0.1366697304315E-01
 0.1355694958374E-01
 0.1342125478865E-01
 0.1325957375180E-01
 0.1307575710013E-01
 0.1288032153976E-01
 0.1269500679369E-01
 0.1256066009063E-01
 0.1254877514569E-01
 0.1277395986056E-01
 0.1339657027032E-01
 0.1459289799633E-01
 0.1647109980856E-01
 0.1895229916697E-01
 0.2170276981529E-01
 0.2423056148985E-01
 0.1131798147383E-01
 0.1179814855792E-01
 0.1226961597885E-01
 0.1269654871735E-01
 0.1305495146564E-01
 0.1333725691483E-01
 0.1354872648878E-01
 0.1370108087091E-01
 0.1380735992614E-01
 0.1387913568173E-01
 0.1392556255726E-01
 0.1395341530544E-01
 0.1396750101865E-01
 0.1397112670335E-01
 0.1396649695670E-01
 0.1395501064422E-01
 0.1393746212446E-01
 0.1391416285707E-01
 0.1388499924344E-01
 0.1384944102493E-01
 0.1380651568642E-01
 0.1375476565517E-01
 0.1369222310395E-01
 0.1361644680079E-01
 0.1352467659780E-01
 0.1341416608332E-01
 0.1328273556091E-01
 0.1312962515991E-01
 0.1295697729400E-01
 0.1277185927266E-01
 0.1258897208702E-01
 0.1243522220115E-01
 0.1235694983864E-01
 0.1242928741357E-01
 0.1276380908730E-01
 0.1350378366209E-01
 0.1478952234546E-01
 0.1668408501058E-01
 0.1908487004714E-01
 0.2168282606390E-01
 0.2404005868046E-01
 0.1128845778867E-01
 0.1174975614796E-01
 0.1220406322152E-01
 0.1262021761041E-01
 0.1297596643157E-01
 0.1326243046433E-01
 0.1348204818880E-01
 0.1364373081409E-01
 0.1375847087859E-01
 0.1383664354534E-01
 0.1388684851981E-01
 0.1391569876573E-01
 0.1392804318771E-01
 0.1392731656014E-01
 0.1391587336573E-01
 0.1389525474067E-01
 0.1386638013779E-01
 0.1382967157374E-01
 0.1378512248673E-01
 0.1373232466359E-01
 0.1367046995161E-01
 0.1359834381080E-01
 0.1351434805777E-01
 0.1341659470018E-01
 0.1330312065019E-01
 0.1317228138916E-01
 0.1302336899209E-01
 0.1285754733191E-01
 0.1267941868887E-01
 0.1249914632963E-01
 0.1233524183459E-01
 0.1221894484129E-01
 0.1220053570596E-01
 0.1235636934824E-01
 0.1279218053803E-01
 0.1363294211140E-01
 0.1498692330710E-01
 0.1688251623768E-01
 0.1920434304351E-01
 0.2167086121940E-01
 0.2387216672725E-01
 0.1126235910246E-01
 0.1170660091435E-01
 0.1214508688689E-01
 0.1255054198147E-01
 0.1290242994055E-01
 0.1319111285823E-01
 0.1341684754192E-01
 0.1358615347082E-01
 0.1370812832387E-01
 0.1379192983892E-01
 0.1384551066854E-01
 0.1387522092251E-01
 0.1388586868254E-01
 0.1388095893748E-01
 0.1386296178339E-01
 0.1383354570547E-01
 0.1379375620476E-01
 0.1374414043143E-01
 0.1368482602181E-01
 0.1361556634807E-01
 0.1353576947621E-01
 0.1344452729463E-01
 0.1334068363168E-01
 0.1322298026507E-01
 0.1309032538209E-01
 0.1294224103969E-01
 0.1277953720564E-01
 0.1260531175038E-01
 0.1242656593382E-01
 0.1225635936217E-01
 0.1211655978065E-01
 0.1204186613918E-01
 0.1208504313112E-01
 0.1232165291102E-01
 0.1284967425938E-01
 0.1377577547822E-01
 0.1518056370274E-01
 0.1706629993859E-01
 0.1931147953134E-01
 0.2166544503358E-01
 0.2371874665706E-01
 0.1123915064885E-01
 0.1166792738900E-01
 0.1209184511588E-01
 0.1248687344767E-01
 0.1283409242281E-01
 0.1312348617083E-01
 0.1335363958225E-01
 0.1352905847313E-01
 0.1365712212116E-01
 0.1374579505575E-01
 0.1380233020304E-01
 0.1383274061518E-01
 0.1384172644130E-01
 0.1383281325428E-01
 0.1380855595478E-01
 0.1377073645449E-01
 0.1372052683448E-01
 0.1365861247977E-01
 0.1358527973691E-01
 0.1350047876880E-01
 0.1340387886943E-01
 0.1329493139624E-01
 0.1317297973602E-01
 0.1303745194105E-01
 0.1288817577672E-01
 0.1272587144702E-01
 0.1255287004068E-01
 0.1237415780211E-01
 0.1219900418271E-01
 0.1204308707497E-01
 0.1193110856585E-01
 0.1190034464117E-01
 0.1200473162540E-01
 0.1231746268308E-01
 0.1292766339425E-01
 0.1392468123669E-01
 0.1536583866605E-01
 0.1723457530379E-01
 0.1940671222169E-01
 0.2166047444013E-01
 0.2360605847287E-01
 0.1121843876801E-01
 0.1163314074269E-01
 0.1204365459940E-01
 0.1242864253292E-01
 0.1277067386485E-01
 0.1305961213593E-01
 0.1329277281741E-01
 0.1347298067628E-01
 0.1360607953813E-01
 0.1369889402967E-01
 0.1375795478100E-01
 0.1378888585256E-01
 0.1379622598574E-01
 0.1378347882072E-01
 0.1375325616461E-01
 0.1370743979959E-01
 0.1364732768713E-01
 0.1357375410615E-01
 0.1348718494751E-01
 0.1338779713014E-01
 0.1327555886499E-01
 0.1315032405932E-01
 0.1301198019856E-01
 0.1286068189446E-01
 0.1269720526546E-01
 0.1252347690606E-01
 0.1234332403661E-01
 0.1216354183354E-01
 0.1199550002364E-01
 0.1185718518596E-01
 0.1177560733541E-01
 0.1178980137688E-01
 0.1195376588554E-01
 0.1233716650236E-01
 0.1301981848030E-01
 0.1407515977014E-01
 0.1554149585995E-01
 0.1738802629221E-01
 0.1949482655544E-01
 0.2164448411434E-01
 0.2360116981815E-01
 0.1119987315525E-01
 0.1160173729944E-01
 0.1199991097845E-01
 0.1237530391315E-01
 0.1271183466608E-01
 0.1299941975098E-01
 0.1323442093270E-01
 0.1341826865232E-01
 0.1355544893470E-01
 0.1365171637413E-01
 0.1371287805650E-01
 0.1374413446766E-01
 0.1374982065999E-01
 0.1373338171086E-01
 0.1369746057666E-01
 0.1364402505340E-01
 0.1357449636504E-01
 0.1348986520260E-01
 0.1339079354660E-01
 0.1327770946417E-01
 0.1315091069031E-01
 0.1301068800628E-01
 0.1285750715206E-01
 0.1269227788568E-01
 0.1251674085882E-01
 0.1233402407630E-01
 0.1214941223526E-01
 0.1197141703698E-01
 0.1181333250583E-01
 0.1169515102943E-01
 0.1164570489354E-01
 0.1170507735795E-01
 0.1192643677157E-01
 0.1237512209078E-01
 0.1312157543175E-01
 0.1422493556247E-01
 0.1570779055323E-01
 0.1753001763846E-01
 0.1957348837994E-01
 0.2164714524029E-01
 0.2358914804231E-01
 0.1118317949653E-01
 0.1157331939243E-01
 0.1196013984980E-01
 0.1232643207549E-01
 0.1265732112709E-01
 0.1294288698650E-01
 0.1317878272163E-01
 0.1336528864606E-01
 0.1350570115788E-01
 0.1360478582938E-01
 0.1366764294416E-01
 0.1369903130548E-01
 0.1370305191547E-01
 0.1368306197459E-01
 0.1364171353839E-01
 0.1358104769205E-01
 0.1350260558556E-01
 0.1340753963966E-01
 0.1329672085568E-01
 0.1317084766569E-01
 0.1303057093699E-01
 0.1287664357088E-01
 0.1271013241907E-01
 0.1253271746108E-01
 0.1234710440683E-01
 0.1215759992165E-01
 0.1197088787813E-01
 0.1179708404754E-01
 0.1165121473406E-01
 0.1155497282032E-01
 0.1153855632988E-01
 0.1164247602985E-01
 0.1191836694628E-01
 0.1242674451849E-01
 0.1322896707774E-01
 0.1437151906184E-01
 0.1586442875555E-01
 0.1766094017763E-01
 0.1964775651348E-01
 0.2166244221573E-01
 0.2357433406389E-01
 0.1116813535078E-01
 0.1154756271584E-01
 0.1192394955806E-01
 0.1228166505681E-01
 0.1260690356129E-01
 0.1288997429344E-01
 0.1312601032982E-01
 0.1331434756725E-01
 0.1345724788455E-01
 0.1355857404355E-01
 0.1362274933482E-01
 0.1365408631414E-01
 0.1365643219349E-01
 0.1363303395444E-01
 0.1358653448082E-01
 0.1351903672740E-01
 0.1343219784234E-01
 0.1332733513186E-01
 0.1320553790627E-01
 0.1306778897312E-01
 0.1291510900766E-01
 0.1274872947987E-01
 0.1257033052394E-01
 0.1238236496322E-01
 0.1218849010260E-01
 0.1199415334891E-01
 0.1180736391491E-01
 0.1163971549686E-01
 0.1150776775620E-01
 0.1143461797700E-01
 0.1145141457885E-01
 0.1159857211375E-01
 0.1192566666064E-01
 0.1248815092095E-01
 0.1333881147416E-01
 0.1451315350311E-01
 0.1601121707720E-01
 0.1778205721255E-01
 0.1971967147590E-01
 0.2168460508008E-01
 0.2356026824192E-01
 0.1115455986832E-01
 0.1152420250959E-01
 0.1189101643968E-01
 0.1224069620608E-01
 0.1256037739593E-01
 0.1284063311803E-01
 0.1307622067396E-01
 0.1326570338477E-01
 0.1341044902463E-01
 0.1351350471720E-01
 0.1357865559811E-01
 0.1360977424170E-01
 0.1361044354414E-01
 0.1358378436131E-01
 0.1353241582217E-01
 0.1345849270824E-01
 0.1336378373548E-01
 0.1324977214461E-01
 0.1311777123358E-01
 0.1296905705650E-01
 0.1280503002645E-01
 0.1262740824083E-01
 0.1243848733399E-01
 0.1224148431266E-01
 0.1204098239417E-01
 0.1184351929126E-01
 0.1165834415964E-01
 0.1149839452982E-01
 0.1138156522634E-01
 0.1133207984679E-01
 0.1138167080612E-01
 0.1157023077142E-01
 0.1194491314253E-01
 0.1255607205936E-01
 0.1344858571127E-01
 0.1464856110385E-01
 0.1614821103042E-01
 0.1789450325886E-01
 0.1978929842724E-01
 0.2171027022088E-01
 0.2354850224808E-01
 0.1114230583117E-01
 0.1150302238791E-01
 0.1186107299703E-01
 0.1220326662595E-01
 0.1251756277797E-01
 0.1279481168066E-01
 0.1302950420827E-01
 0.1321957371918E-01
 0.1336561927911E-01
 0.1346995760867E-01
 0.1353578033921E-01
 0.1356653475118E-01
 0.1356553670242E-01
 0.1353577079738E-01
 0.1347982130220E-01
 0.1339988614973E-01
 0.1329784074792E-01
 0.1317533328376E-01
 0.1303390319809E-01
 0.1287512367209E-01
 0.1270077832483E-01
 0.1251307205622E-01
 0.1231490908501E-01
 0.1211025189413E-01
 0.1190457350896E-01
 0.1170544158216E-01
 0.1152325192195E-01
 0.1137214882342E-01
 0.1127117088597E-01
 0.1124541418937E-01
 0.1132688170358E-01
 0.1155461351439E-01
 0.1197311806851E-01
 0.1262777293754E-01
 0.1355629100370E-01
 0.1477682672490E-01
 0.1627559293215E-01
 0.1799895143501E-01
 0.1985612455734E-01
 0.2173745105275E-01
 0.2353961772505E-01
 0.1113125336030E-01
 0.1148384540493E-01
 0.1183389824000E-01
 0.1216915845107E-01
 0.1247830326642E-01
 0.1275245876702E-01
 0.1298593157870E-01
 0.1317614286325E-01
 0.1332303385044E-01
 0.1342827228849E-01
 0.1349450427866E-01
 0.1352477284428E-01
 0.1352213054237E-01
 0.1348942067141E-01
 0.1342918470770E-01
 0.1334365635694E-01
 0.1323481243019E-01
 0.1310446311715E-01
 0.1295437276411E-01
 0.1278641078453E-01
 0.1260274137041E-01
 0.1240604909358E-01
 0.1219983158131E-01
 0.1198876929600E-01
 0.1177918030361E-01
 0.1157959432315E-01
 0.1140145588551E-01
 0.1125998011241E-01
 0.1117516939654E-01
 0.1117276675482E-01
 0.1128478643142E-01
 0.1154917386952E-01
 0.1200769051591E-01
 0.1270097537402E-01
 0.1366034561653E-01
 0.1489730152130E-01
 0.1639354139576E-01
 0.1809573479590E-01
 0.1991956231060E-01
 0.2176495098517E-01
 0.2353369643025E-01
 0.1112130489290E-01
 0.1146652688993E-01
 0.1180930976769E-01
 0.1213818895528E-01
 0.1244246404069E-01
 0.1271352610473E-01
 0.1294555863479E-01
 0.1313556748057E-01
 0.1328293336750E-01
 0.1338875160102E-01
 0.1345517218097E-01
 0.1348485952703E-01
 0.1348061186370E-01
 0.1344513048245E-01
 0.1338090898125E-01
 0.1329021064424E-01
 0.1317510799862E-01
 0.1303756843135E-01
 0.1287957673087E-01
 0.1270329314065E-01
 0.1251125410853E-01
 0.1230661006691E-01
 0.1209342951148E-01
 0.1187707583420E-01
 0.1166466037384E-01
 0.1146560172131E-01
 0.1129229333114E-01
 0.1116088959221E-01
 0.1109219136782E-01
 0.1111239354729E-01
 0.1125331550947E-01
 0.1155164634391E-01
 0.1204639763998E-01
 0.1277378773307E-01
 0.1375949881961E-01
 0.1500951726561E-01
 0.1650218871131E-01
 0.1818499183129E-01
 0.1997911487672E-01
 0.2179201684579E-01
 0.2353053956240E-01
 0.1111238113780E-01
 0.1145094866839E-01
 0.1178715725448E-01
 0.1211020542443E-01
 0.1240992988320E-01
 0.1267796972910E-01
 0.1290843015086E-01
 0.1309798118094E-01
 0.1324552807276E-01
 0.1335166478399E-01
 0.1341809474129E-01
 0.1344713261944E-01
 0.1344133541995E-01
 0.1340326538844E-01
 0.1333536563138E-01
 0.1323992386250E-01
 0.1311910224430E-01
 0.1297501879746E-01
 0.1280987125912E-01
 0.1262610110059E-01
 0.1242660348078E-01
 0.1221497485060E-01
 0.1199582556076E-01
 0.1177516051091E-01
 0.1156082706687E-01
 0.1136305607984E-01
 0.1119509052051E-01
 0.1107389928727E-01
 0.1102093312434E-01
 0.1106267491070E-01
 0.1123059352424E-01
 0.1156003100468E-01
 0.1208732553766E-01
 0.1284464354043E-01
 0.1385275964542E-01
 0.1511312654538E-01
 0.1660162137546E-01
 0.1826676730703E-01
 0.2003440694343E-01
 0.2181813882268E-01
 0.2352979073253E-01
 0.1110441779951E-01
 0.1143701437828E-01
 0.1176731708118E-01
 0.1208508072795E-01
 0.1238060311191E-01
 0.1264575064905E-01
 0.1287458255508E-01
 0.1306349816803E-01
 0.1321100135100E-01
 0.1331725024195E-01
 0.1338355038386E-01
 0.1341189765104E-01
 0.1340462413284E-01
 0.1336415901123E-01
 0.1329289440110E-01
 0.1319313819170E-01
 0.1306713570567E-01
 0.1291714738898E-01
 0.1274557362214E-01
 0.1255512363813E-01
 0.1234903301464E-01
 0.1213131900435E-01
 0.1190709918956E-01
 0.1168297328152E-01
 0.1146746330077E-01
 0.1127153392572E-01
 0.1110918038269E-01
 0.1099806979394E-01
 0.1096017200036E-01
 0.1102212469342E-01
 0.1121493736515E-01
 0.1157257561142E-01
 0.1212884217465E-01
 0.1291224848325E-01
 0.1393934014041E-01
 0.1520786514979E-01
 0.1669189379031E-01
 0.1834106957531E-01
 0.2008516840234E-01
 0.2184293886550E-01
 0.2353101239880E-01
 0.1109736291149E-01
 0.1142464565807E-01
 0.1174968790269E-01
 0.1206270951530E-01
 0.1235440156922E-01
 0.1261683503565E-01
 0.1284404589674E-01
 0.1303221612161E-01
 0.1317951267246E-01
 0.1328571797488E-01
 0.1335178693194E-01
 0.1337942878455E-01
 0.1337076943175E-01
 0.1332811341839E-01
 0.1325380313473E-01
 0.1315016313491E-01
 0.1301951503177E-01
 0.1286425196530E-01
 0.1268696407696E-01
 0.1249061138603E-01
 0.1227874734013E-01
 0.1205578004873E-01
 0.1182729490941E-01
 0.1160043546977E-01
 0.1138433406844E-01
 0.1119061023860E-01
 0.1103391762504E-01
 0.1093251476364E-01
 0.1090877785381E-01
 0.1098939555051E-01
 0.1120485136151E-01
 0.1158775682195E-01
 0.1216956336906E-01
 0.1297553554071E-01
 0.1401861173365E-01
 0.1529352913915E-01
 0.1677304198507E-01
 0.1840789856522E-01
 0.2013120729128E-01
 0.2186611148558E-01
 0.2353373511853E-01
 0.1109117465766E-01
 0.1141377903605E-01
 0.1173418698747E-01
 0.1204300496870E-01
 0.1233125673657E-01
 0.1259119410172E-01
 0.1281684524126E-01
 0.1300421846198E-01
 0.1315120003277E-01
 0.1325725168637E-01
 0.1332302313644E-01
 0.1334996973787E-01
 0.1334003168405E-01
 0.1329539924873E-01
 0.1321836781278E-01
 0.1311127568386E-01
 0.1297651350413E-01
 0.1281659598323E-01
 0.1263428781100E-01
 0.1243277967354E-01
 0.1221591657438E-01
 0.1198846343069E-01
 0.1175643000414E-01
 0.1152744930357E-01
 0.1131119765090E-01
 0.1111987089903E-01
 0.1096869153482E-01
 0.1087641259911E-01
 0.1086572152205E-01
 0.1096328135614E-01
 0.1119902046939E-01
 0.1160426155970E-01
 0.1220832232946E-01
 0.1303362768179E-01
 0.1409007219181E-01
 0.1536996039825E-01
 0.1684509322516E-01
 0.1846725687943E-01
 0.2017238542248E-01
 0.2188739423644E-01
 0.2353749032303E-01
 0.1108581959239E-01
 0.1140436339059E-01
 0.1172074719918E-01
 0.1202589604952E-01
 0.1231111201516E-01
 0.1256880379378E-01
 0.1279300163913E-01
 0.1297957611741E-01
 0.1312618196092E-01
 0.1323201059472E-01
 0.1329745005276E-01
 0.1332373467514E-01
 0.1331264067942E-01
 0.1326625594224E-01
 0.1318683271368E-01
 0.1307672061211E-01
 0.1293837166762E-01
 0.1277440977934E-01
 0.1258775689710E-01
 0.1238181147971E-01
 0.1216068049025E-01
 0.1192944809360E-01
 0.1169450161930E-01
 0.1146390652073E-01
 0.1124781554228E-01
 0.1105892344904E-01
 0.1091293670001E-01
 0.1082901577157E-01
 0.1083008083163E-01
 0.1094271752831E-01
 0.1119630241447E-01
 0.1162096931444E-01
 0.1224414298008E-01
 0.1308580733310E-01
 0.1415332064434E-01
 0.1543703684355E-01
 0.1690807137547E-01
 0.1851915239134E-01
 0.2020860029047E-01
 0.2190655450826E-01
 0.2354183224471E-01
 0.1108127118776E-01
 0.1139635787980E-01
 0.1170931451552E-01
 0.1201132518048E-01
 0.1229392119193E-01
 0.1254964438079E-01
 0.1277253277864E-01
 0.1295834888972E-01
 0.1310455915401E-01
 0.1321013096674E-01
 0.1327523225530E-01
 0.1330090903755E-01
 0.1328879612865E-01
 0.1324089202993E-01
 0.1315941065431E-01
 0.1304671084279E-01
 0.1290529801071E-01
 0.1273789175395E-01
 0.1254755217764E-01
 0.1233786021249E-01
 0.1211315237165E-01
 0.1187879155288E-01
 0.1164149313083E-01
 0.1140969598276E-01
 0.1119396107682E-01
 0.1100740624024E-01
 0.1086614184614E-01
 0.1078965810765E-01
 0.1080104467488E-01
 0.1092677991802E-01
 0.1119571948730E-01
 0.1163693590181E-01
 0.1227621708423E-01
 0.1313149170046E-01
 0.1420803862099E-01
 0.1549466521829E-01
 0.1696199915862E-01
 0.1856359724170E-01
 0.2023977308118E-01
 0.2192338489257E-01
 0.2354635253587E-01
 0.1107750865351E-01
 0.1138973026260E-01
 0.1169984600232E-01
 0.1199924631546E-01
 0.1227964710167E-01
 0.1253370000407E-01
 0.1275545341156E-01
 0.1294058650117E-01
 0.1308641579663E-01
 0.1319172740177E-01
 0.1325650889232E-01
 0.1328165030049E-01
 0.1326866815513E-01
 0.1321948545779E-01
 0.1313628328147E-01
 0.1302142786101E-01
 0.1287746966173E-01
 0.1270720951995E-01
 0.1251382503631E-01
 0.1230105226963E-01
 0.1207342251188E-01
 0.1183653444076E-01
 0.1159737977351E-01
 0.1136471030975E-01
 0.1114942682437E-01
 0.1096499611442E-01
 0.1082785703679E-01
 0.1075776041302E-01
 0.1077791563679E-01
 0.1091468282586E-01
 0.1119645053240E-01
 0.1165137900447E-01
 0.1230388498415E-01
 0.1317021299178E-01
 0.1425397550724E-01
 0.1554277539175E-01
 0.1700689847346E-01
 0.1860060572722E-01
 0.2026584139299E-01
 0.2193770276903E-01
 0.2355068992063E-01
 0.1107451598995E-01
 0.1138445555156E-01
 0.1169230817888E-01
 0.1198962335628E-01
 0.1226826048806E-01
 0.1252095823277E-01
 0.1274177561827E-01
 0.1292632938661E-01
 0.1307182060947E-01
 0.1317689388623E-01
 0.1324139457965E-01
 0.1326608863984E-01
 0.1325239775205E-01
 0.1320218391186E-01
 0.1311760137669E-01
 0.1300102212899E-01
 0.1285503305416E-01
 0.1268250096270E-01
 0.1248669899777E-01
 0.1227148931642E-01
 0.1204156128837E-01
 0.1180270445800E-01
 0.1156213348212E-01
 0.1132885151894E-01
 0.1111403078532E-01
 0.1093141471713E-01
 0.1079769942804E-01
 0.1073283472461E-01
 0.1076011156022E-01
 0.1090577659259E-01
 0.1119782354418E-01
 0.1166366570482E-01
 0.1232661974360E-01
 0.1320160277719E-01
 0.1429093737970E-01
 0.1558131574456E-01
 0.1704278975949E-01
 0.1863019226543E-01
 0.2028675526557E-01
 0.2194935170357E-01
 0.2355453676758E-01
 0.1107228123909E-01
 0.1138051495020E-01
 0.1168667572260E-01
 0.1198242888120E-01
 0.1225973906132E-01
 0.1251140965590E-01
 0.1273150896221E-01
 0.1291560928190E-01
 0.1306082766578E-01
 0.1316570463892E-01
 0.1322998013666E-01
 0.1325432749800E-01
 0.1324009718775E-01
 0.1318910512232E-01
 0.1310348514949E-01
 0.1298561347598E-01
 0.1283810452984E-01
 0.1266387517701E-01
 0.1246627111798E-01
 0.1224925024141E-01
 0.1201762177702E-01
 0.1177731970348E-01
 0.1153572693254E-01
 0.1130203568220E-01
 0.1108762144297E-01
 0.1090643356055E-01
 0.1077535776357E-01
 0.1071448745239E-01
 0.1074716637324E-01
 0.1089954511074E-01
 0.1119930915255E-01
 0.1167330208480E-01
 0.1234401440475E-01
 0.1322537980819E-01
 0.1431877846061E-01
 0.1561024941611E-01
 0.1706969099019E-01
 0.1865236981592E-01
 0.2030247527614E-01
 0.2195820346930E-01
 0.2355764326368E-01
 0.1107079591208E-01
 0.1137789504075E-01
 0.1168293047551E-01
 0.1197764315960E-01
 0.1225406675151E-01
 0.1250504753577E-01
 0.1272466057504E-01
 0.1290844965212E-01
 0.1305347701046E-01
 0.1315821476836E-01
 0.1322233317174E-01
 0.1324644404686E-01
 0.1323185034965E-01
 0.1318033713283E-01
 0.1309402450281E-01
 0.1297529144547E-01
 0.1282677086107E-01
 0.1265141326036E-01
 0.1245261314352E-01
 0.1223439276937E-01
 0.1200164188919E-01
 0.1176039137386E-01
 0.1151813679156E-01
 0.1128419663795E-01
 0.1107008174682E-01
 0.1088987795801E-01
 0.1076059578965E-01
 0.1070242164751E-01
 0.1073873045942E-01
 0.1089560354419E-01
 0.1120051521585E-01
 0.1167992492641E-01
 0.1235577210738E-01
 0.1324134078810E-01
 0.1433739469825E-01
 0.1562955132783E-01
 0.1708761664421E-01
 0.1866714879947E-01
 0.2031297183849E-01
 0.2196415999769E-01
 0.2355982015536E-01
 0.1107005457409E-01
 0.1137658719584E-01
 0.1168106072280E-01
 0.1197525343066E-01
 0.1225123315236E-01
 0.1250186753621E-01
 0.1272123519775E-01
 0.1290486598721E-01
 0.1304979510303E-01
 0.1315446075253E-01
 0.1321849851724E-01
 0.1324248953810E-01
 0.1322771301065E-01
 0.1317593851456E-01
 0.1308927924651E-01
 0.1297011557164E-01
 0.1282108965994E-01
 0.1264516892699E-01
 0.1244577240120E-01
 0.1222695469070E-01
 0.1199364599095E-01
 0.1175192579799E-01
 0.1150934615135E-01
 0.1127528875292E-01
 0.1106133205116E-01
 0.1088162989294E-01
 0.1075325469787E-01
 0.1069643855025E-01
 0.1073457075992E-01
 0.1089369645013E-01
 0.1120118266028E-01
 0.1168329551301E-01
 0.1236169887024E-01
 0.1324935374453E-01
 0.1434671918134E-01
 0.1563920597695E-01
 0.1709657686172E-01
 0.1867453644620E-01
 0.2031822510877E-01
 0.2196715498018E-01
 0.2356094046081E-01
 0.1107005457422E-01
 0.1137658719598E-01
 0.1168106072296E-01
 0.1197525343083E-01
 0.1225123315256E-01
 0.1250186753644E-01
 0.1272123519800E-01
 0.1290486598748E-01
 0.1304979510333E-01
 0.1315446075285E-01
 0.1321849851759E-01
 0.1324248953848E-01
 0.1322771301106E-01
 0.1317593851501E-01
 0.1308927924701E-01
 0.1297011557219E-01
 0.1282108966055E-01
 0.1264516892768E-01
 0.1244577240198E-01
 0.1222695469156E-01
 0.1199364599189E-01
 0.1175192579902E-01
 0.1150934615245E-01
 0.1127528875406E-01
 0.1106133205232E-01
 0.1088162989406E-01
 0.1075325469890E-01
 0.1069643855111E-01
 0.1073457076053E-01
 0.1089369645042E-01
 0.1120118266018E-01
 0.1168329551247E-01
 0.1236169886927E-01
 0.1324935374318E-01
 0.1434671917974E-01
 0.1563920597527E-01
 0.1709657686017E-01
 0.1867453644497E-01
 0.2031822510800E-01
 0.2196715497989E-01
 0.2356094046095E-01
 0.1107079591247E-01
 0.1137789504117E-01
 0.1168293047597E-01
 0.1197764316012E-01
 0.1225406675210E-01
 0.1250504753644E-01
 0.1272466057579E-01
 0.1290844965294E-01
 0.1305347701135E-01
 0.1315821476933E-01
 0.1322233317278E-01
 0.1324644404799E-01
 0.1323185035088E-01
 0.1318033713417E-01
 0.1309402450430E-01
 0.1297529144712E-01
 0.1282677086293E-01
 0.1265141326243E-01
 0.1245261314584E-01
 0.1223439277195E-01
 0.1200164189203E-01
 0.1176039137695E-01
 0.1151813679485E-01
 0.1128419664138E-01
 0.1107008175029E-01
 0.1088987796138E-01
 0.1076059579274E-01
 0.1070242165011E-01
 0.1073873046129E-01
 0.1089560354509E-01
 0.1120051521557E-01
 0.1167992492482E-01
 0.1235577210447E-01
 0.1324134078406E-01
 0.1433739469344E-01
 0.1562955132279E-01
 0.1708761663956E-01
 0.1866714879577E-01
 0.2031297183616E-01
 0.2196415999685E-01
 0.2355982015578E-01
 0.1107228123974E-01
 0.1138051495090E-01
 0.1168667572338E-01
 0.1198242888207E-01
 0.1225973906231E-01
 0.1251140965702E-01
 0.1273150896346E-01
 0.1291560928327E-01
 0.1306082766728E-01
 0.1316570464053E-01
 0.1322998013840E-01
 0.1325432749987E-01
 0.1324009718979E-01
 0.1318910512455E-01
 0.1310348515196E-01
 0.1298561347873E-01
 0.1283810453292E-01
 0.1266387518047E-01
 0.1246627112184E-01
 0.1224925024570E-01
 0.1201762178176E-01
 0.1177731970862E-01
 0.1153572693803E-01
 0.1130203568792E-01
 0.1108762144877E-01
 0.1090643356619E-01
 0.1077535776875E-01
 0.1071448745676E-01
 0.1074716637641E-01
 0.1089954511230E-01
 0.1119930915215E-01
 0.1167330208221E-01
 0.1234401439996E-01
 0.1322537980150E-01
 0.1431877845262E-01
 0.1561024940771E-01
 0.1706969098242E-01
 0.1865236980975E-01
 0.2030247527226E-01
 0.2195820346792E-01
 0.2355764326443E-01
 0.1107451599086E-01
 0.1138445555254E-01
 0.1169230817997E-01
 0.1198962335750E-01
 0.1226826048944E-01
 0.1252095823433E-01
 0.1274177562001E-01
 0.1292632938853E-01
 0.1307182061156E-01
 0.1317689388848E-01
 0.1324139458208E-01
 0.1326608864245E-01
 0.1325239775489E-01
 0.1320218391498E-01
 0.1311760138014E-01
 0.1300102213282E-01
 0.1285503305845E-01
 0.1268250096751E-01
 0.1248669900316E-01
 0.1227148932242E-01
 0.1204156129498E-01
 0.1180270446520E-01
 0.1156213348981E-01
 0.1132885152697E-01
 0.1111403079347E-01
 0.1093141472508E-01
 0.1079769943538E-01
 0.1073283473084E-01
 0.1076011156478E-01
 0.1090577659492E-01
 0.1119782354376E-01
 0.1166366570132E-01
 0.1232661973701E-01
 0.1320160276790E-01
 0.1429093736855E-01
 0.1558131573281E-01
 0.1704278974858E-01
 0.1863019225676E-01
 0.2028675526014E-01
 0.2194935170169E-01
 0.2355453676872E-01
 0.1107750865469E-01
 0.1138973026386E-01
 0.1169984600371E-01
 0.1199924631703E-01
 0.1227964710345E-01
 0.1253370000608E-01
 0.1275545341380E-01
 0.1294058650363E-01
 0.1308641579931E-01
 0.1319172740466E-01
 0.1325650889542E-01
 0.1328165030384E-01
 0.1326866815876E-01
 0.1321948546177E-01
 0.1313628328587E-01
 0.1302142786592E-01
 0.1287746966722E-01
 0.1270720952611E-01
 0.1251382504322E-01
 0.1230105227732E-01
 0.1207342252037E-01
 0.1183653445001E-01
 0.1159737978340E-01
 0.1136471032011E-01
 0.1114942683490E-01
 0.1096499612473E-01
 0.1082785704634E-01
 0.1075776042120E-01
 0.1077791564286E-01
 0.1091468282909E-01
 0.1119645053212E-01
 0.1165137900022E-01
 0.1230388497588E-01
 0.1317021297997E-01
 0.1425397549298E-01
 0.1554277537663E-01
 0.1700689845940E-01
 0.1860060571603E-01
 0.2026584138600E-01
 0.2193770276670E-01
 0.2355068992227E-01
 0.1108127118920E-01
 0.1139635788134E-01
 0.1170931451723E-01
 0.1201132518241E-01
 0.1229392119411E-01
 0.1254964438324E-01
 0.1277253278137E-01
 0.1295834889272E-01
 0.1310455915727E-01
 0.1321013097025E-01
 0.1327523225908E-01
 0.1330090904162E-01
 0.1328879613306E-01
 0.1324089203476E-01
 0.1315941065965E-01
 0.1304671084874E-01
 0.1290529801737E-01
 0.1273789176144E-01
 0.1254755218604E-01
 0.1233786022185E-01
 0.1211315238200E-01
 0.1187879156417E-01
 0.1164149314295E-01
 0.1140969599547E-01
 0.1119396108978E-01
 0.1100740625298E-01
 0.1086614185802E-01
 0.1078965811790E-01
 0.1080104468262E-01
 0.1092677992233E-01
 0.1119571948733E-01
 0.1163693589699E-01
 0.1227621707444E-01
 0.1313149168624E-01
 0.1420803860366E-01
 0.1549466519981E-01
 0.1696199914137E-01
 0.1856359722796E-01
 0.2023977307264E-01
 0.2192338488983E-01
 0.2354635253813E-01
 0.1108581959409E-01
 0.1140436339241E-01
 0.1172074720119E-01
 0.1202589605180E-01
 0.1231111201774E-01
 0.1256880379668E-01
 0.1279300164236E-01
 0.1297957612096E-01
 0.1312618196476E-01
 0.1323201059884E-01
 0.1329745005719E-01
 0.1332373467991E-01
 0.1331264068459E-01
 0.1326625594790E-01
 0.1318683271993E-01
 0.1307672061908E-01
 0.1293837167543E-01
 0.1277440978812E-01
 0.1258775690696E-01
 0.1238181149073E-01
 0.1216068050244E-01
 0.1192944810693E-01
 0.1169450163364E-01
 0.1146390653582E-01
 0.1124781555772E-01
 0.1105892346429E-01
 0.1091293671432E-01
 0.1082901578404E-01
 0.1083008084122E-01
 0.1094271753391E-01
 0.1119630241506E-01
 0.1162096930928E-01
 0.1224414296897E-01
 0.1308580731663E-01
 0.1415332062402E-01
 0.1543703682172E-01
 0.1690807135499E-01
 0.1851915237501E-01
 0.2020860028038E-01
 0.2190655450520E-01
 0.2354183224775E-01
 0.1109117465962E-01
 0.1141377903815E-01
 0.1173418698980E-01
 0.1204300497133E-01
 0.1233125673955E-01
 0.1259119410508E-01
 0.1281684524498E-01
 0.1300421846606E-01
 0.1315120003718E-01
 0.1325725169110E-01
 0.1332302314151E-01
 0.1334996974332E-01
 0.1334003168996E-01
 0.1329539925519E-01
 0.1321836781992E-01
 0.1311127569182E-01
 0.1297651351305E-01
 0.1281659599328E-01
 0.1263428782229E-01
 0.1243277968618E-01
 0.1221591658839E-01
 0.1198846344605E-01
 0.1175643002070E-01
 0.1152744932105E-01
 0.1131119766887E-01
 0.1111987091688E-01
 0.1096869155170E-01
 0.1087641261398E-01
 0.1086572153371E-01
 0.1096328136330E-01
 0.1119902047082E-01
 0.1160426155448E-01
 0.1220832231728E-01
 0.1303362766324E-01
 0.1409007216860E-01
 0.1536996037309E-01
 0.1684509320142E-01
 0.1846725686046E-01
 0.2017238541083E-01
 0.2188739423313E-01
 0.2353749032703E-01
 0.1109736291371E-01
 0.1142464566045E-01
 0.1174968790534E-01
 0.1206270951829E-01
 0.1235440157261E-01
 0.1261683503946E-01
 0.1284404590097E-01
 0.1303221612622E-01
 0.1317951267743E-01
 0.1328571798021E-01
 0.1335178693763E-01
 0.1337942879066E-01
 0.1337076943836E-01
 0.1332811342562E-01
 0.1325380314271E-01
 0.1315016314382E-01
 0.1301951504178E-01
 0.1286425197657E-01
 0.1268696408965E-01
 0.1249061140025E-01
 0.1227874735594E-01
 0.1205578006610E-01
 0.1182729492820E-01
 0.1160043548969E-01
 0.1138433408901E-01
 0.1119061025914E-01
 0.1103391764463E-01
 0.1093251478111E-01
 0.1090877786780E-01
 0.1098939555953E-01
 0.1120485136411E-01
 0.1158775681701E-01
 0.1216956335610E-01
 0.1297553552032E-01
 0.1401861170768E-01
 0.1529352911068E-01
 0.1677304195802E-01
 0.1840789854354E-01
 0.2013120727805E-01
 0.2186611148209E-01
 0.2353373512369E-01
 0.1110441780200E-01
 0.1143701438095E-01
 0.1176731708415E-01
 0.1208508073130E-01
 0.1238060311571E-01
 0.1264575065332E-01
 0.1287458255980E-01
 0.1306349817317E-01
 0.1321100135653E-01
 0.1331725024785E-01
 0.1338355039016E-01
 0.1341189765779E-01
 0.1340462414013E-01
 0.1336415901920E-01
 0.1329289440990E-01
 0.1319313820152E-01
 0.1306713571670E-01
 0.1291714740143E-01
 0.1274557363618E-01
 0.1255512365390E-01
 0.1234903303221E-01
 0.1213131902371E-01
 0.1190709921057E-01
 0.1168297330389E-01
 0.1146746332400E-01
 0.1127153394907E-01
 0.1110918040514E-01
 0.1099806981423E-01
 0.1096017201697E-01
 0.1102212470464E-01
 0.1121493736931E-01
 0.1157257560714E-01
 0.1212884216129E-01
 0.1291224846129E-01
 0.1393934011184E-01
 0.1520786511807E-01
 0.1669189375991E-01
 0.1834106955086E-01
 0.2008516838750E-01
 0.2184293886193E-01
 0.2353101240536E-01
 0.1111238114056E-01
 0.1145094867135E-01
 0.1178715725776E-01
 0.1211020542815E-01
 0.1240992988741E-01
 0.1267796973382E-01
 0.1290843015608E-01
 0.1309798118660E-01
 0.1324552807883E-01
 0.1335166479045E-01
 0.1341809474816E-01
 0.1344713262679E-01
 0.1344133542788E-01
 0.1340326539710E-01
 0.1333536564095E-01
 0.1323992387319E-01
 0.1311910225633E-01
 0.1297501881104E-01
 0.1280987127446E-01
 0.1262610111786E-01
 0.1242660350007E-01
 0.1221497487192E-01
 0.1199582558399E-01
 0.1177516053575E-01
 0.1156082709281E-01
 0.1136305610609E-01
 0.1119509054601E-01
 0.1107389931063E-01
 0.1102093314387E-01
 0.1106267492451E-01
 0.1123059353040E-01
 0.1156003100154E-01
 0.1208732552432E-01
 0.1284464351725E-01
 0.1385275961446E-01
 0.1511312651045E-01
 0.1660162134166E-01
 0.1826676727972E-01
 0.2003440692695E-01
 0.2181813881910E-01
 0.2352979074075E-01
 0.1112130489593E-01
 0.1146652689317E-01
 0.1180930977129E-01
 0.1213818895937E-01
 0.1244246404531E-01
 0.1271352610991E-01
 0.1294555864050E-01
 0.1313556748675E-01
 0.1328293337410E-01
 0.1338875160802E-01
 0.1345517218840E-01
 0.1348485953495E-01
 0.1348061187224E-01
 0.1344513049177E-01
 0.1338090899154E-01
 0.1329021065574E-01
 0.1317510801157E-01
 0.1303756844601E-01
 0.1287957674745E-01
 0.1270329315936E-01
 0.1251125412950E-01
 0.1230661009017E-01
 0.1209342953692E-01
 0.1187707586153E-01
 0.1166466040255E-01
 0.1146560175059E-01
 0.1129229335986E-01
 0.1116088961888E-01
 0.1109219139062E-01
 0.1111239356412E-01
 0.1125331551813E-01
 0.1155164634243E-01
 0.1204639762717E-01
 0.1277378770908E-01
 0.1375949878653E-01
 0.1500951722758E-01
 0.1650218867407E-01
 0.1818499180104E-01
 0.1997911485854E-01
 0.2179201684228E-01
 0.2353053957255E-01
 0.1113125336359E-01
 0.1148384540846E-01
 0.1183389824393E-01
 0.1216915845553E-01
 0.1247830327147E-01
 0.1275245877267E-01
 0.1298593158490E-01
 0.1317614286994E-01
 0.1332303385756E-01
 0.1342827229602E-01
 0.1349450428662E-01
 0.1352477285275E-01
 0.1352213055147E-01
 0.1348942068133E-01
 0.1342918471866E-01
 0.1334365636919E-01
 0.1323481244402E-01
 0.1310446313282E-01
 0.1295437278188E-01
 0.1278641080463E-01
 0.1260274139300E-01
 0.1240604911872E-01
 0.1219983160893E-01
 0.1198876932583E-01
 0.1177918033514E-01
 0.1157959435555E-01
 0.1140145591762E-01
 0.1125998014266E-01
 0.1117516942297E-01
 0.1117276677513E-01
 0.1128478644312E-01
 0.1154917387031E-01
 0.1200769050422E-01
 0.1270097534973E-01
 0.1366034558166E-01
 0.1489730148030E-01
 0.1639354135505E-01
 0.1809573476260E-01
 0.1991956229069E-01
 0.2176495098182E-01
 0.2353369644263E-01
 0.1114230583473E-01
 0.1150302239174E-01
 0.1186107300130E-01
 0.1220326663079E-01
 0.1251756278345E-01
 0.1279481168677E-01
 0.1302950421496E-01
 0.1321957372637E-01
 0.1336561928674E-01
 0.1346995761669E-01
 0.1353578034766E-01
 0.1356653476014E-01
 0.1356553671205E-01
 0.1353577080786E-01
 0.1347982131378E-01
 0.1339988616268E-01
 0.1329784076255E-01
 0.1317533330037E-01
 0.1303390321696E-01
 0.1287512369350E-01
 0.1270077834897E-01
 0.1251307208320E-01
 0.1231490911478E-01
 0.1211025192645E-01
 0.1190457354335E-01
 0.1170544161779E-01
 0.1152325195764E-01
 0.1137214885753E-01
 0.1127117091642E-01
 0.1124541421365E-01
 0.1132688171894E-01
 0.1155461351814E-01
 0.1197311805863E-01
 0.1262777291355E-01
 0.1355629096746E-01
 0.1477682668111E-01
 0.1627559288797E-01
 0.1799895139857E-01
 0.1985612453562E-01
 0.2173745104961E-01
 0.2353961773995E-01
 0.1115455987215E-01
 0.1152420251371E-01
 0.1189101644428E-01
 0.1224069621131E-01
 0.1256037740185E-01
 0.1284063312462E-01
 0.1307622068115E-01
 0.1326570339246E-01
 0.1341044903273E-01
 0.1351350472569E-01
 0.1357865560702E-01
 0.1360977425112E-01
 0.1361044355423E-01
 0.1358378437229E-01
 0.1353241583430E-01
 0.1345849272182E-01
 0.1336378375083E-01
 0.1324977216208E-01
 0.1311777125348E-01
 0.1296905707914E-01
 0.1280503005207E-01
 0.1262740826957E-01
 0.1243848736586E-01
 0.1224148434745E-01
 0.1204098243143E-01
 0.1184351933021E-01
 0.1165834419908E-01
 0.1149839456806E-01
 0.1138156526121E-01
 0.1133207987560E-01
 0.1138167082580E-01
 0.1157023077888E-01
 0.1194491313527E-01
 0.1255607203639E-01
 0.1344858567419E-01
 0.1464856105753E-01
 0.1614821098277E-01
 0.1789450321918E-01
 0.1978929840366E-01
 0.2171027021801E-01
 0.2354850226579E-01
 0.1116813535488E-01
 0.1154756272026E-01
 0.1192394956301E-01
 0.1228166506244E-01
 0.1260690356766E-01
 0.1288997430051E-01
 0.1312601033749E-01
 0.1331434757542E-01
 0.1345724789312E-01
 0.1355857405248E-01
 0.1362274934415E-01
 0.1365408632397E-01
 0.1365643220400E-01
 0.1363303396586E-01
 0.1358653449344E-01
 0.1351903674153E-01
 0.1343219785835E-01
 0.1332733515010E-01
 0.1320553792711E-01
 0.1306778899690E-01
 0.1291510903466E-01
 0.1274872951029E-01
 0.1257033055783E-01
 0.1238236500045E-01
 0.1218849014276E-01
 0.1199415339125E-01
 0.1180736395825E-01
 0.1163971553951E-01
 0.1150776779589E-01
 0.1143461801088E-01
 0.1145141460357E-01
 0.1159857212578E-01
 0.1192566665692E-01
 0.1248815089986E-01
 0.1333881143689E-01
 0.1451315345460E-01
 0.1601121702611E-01
 0.1778205716953E-01
 0.1971967145043E-01
 0.2168460507757E-01
 0.2356026826269E-01
 0.1118317950090E-01
 0.1157331939716E-01
 0.1196013985511E-01
 0.1232643208153E-01
 0.1265732113391E-01
 0.1294288699405E-01
 0.1317878272979E-01
 0.1336528865469E-01
 0.1350570116689E-01
 0.1360478583872E-01
 0.1366764295387E-01
 0.1369903131567E-01
 0.1370305192634E-01
 0.1368306198639E-01
 0.1364171355142E-01
 0.1358104770666E-01
 0.1350260560213E-01
 0.1340753965859E-01
 0.1329672087736E-01
 0.1317084769051E-01
 0.1303057096528E-01
 0.1287664360289E-01
 0.1271013245491E-01
 0.1253271750070E-01
 0.1234710444987E-01
 0.1215759996743E-01
 0.1197088792552E-01
 0.1179708409485E-01
 0.1165121477897E-01
 0.1155497285985E-01
 0.1153855636042E-01
 0.1164247604740E-01
 0.1191836694714E-01
 0.1242674450031E-01
 0.1322896704110E-01
 0.1437151901159E-01
 0.1586442870109E-01
 0.1766094013115E-01
 0.1964775648611E-01
 0.2166244221371E-01
 0.2357433408792E-01
 0.1119987315990E-01
 0.1160173730448E-01
 0.1199991098412E-01
 0.1237530391961E-01
 0.1271183467337E-01
 0.1299941975902E-01
 0.1323442094135E-01
 0.1341826866140E-01
 0.1355544894411E-01
 0.1365171638383E-01
 0.1371287806654E-01
 0.1374413447816E-01
 0.1374982067116E-01
 0.1373338172297E-01
 0.1369746059003E-01
 0.1364402506841E-01
 0.1357449638209E-01
 0.1348986522212E-01
 0.1339079356903E-01
 0.1327770948992E-01
 0.1315091071978E-01
 0.1301068803976E-01
 0.1285750718976E-01
 0.1269227792760E-01
 0.1251674090471E-01
 0.1233402412555E-01
 0.1214941228681E-01
 0.1197141708919E-01
 0.1181333255637E-01
 0.1169515107522E-01
 0.1164570493070E-01
 0.1170507738206E-01
 0.1192643677820E-01
 0.1237512207671E-01
 0.1312157539675E-01
 0.1422493551108E-01
 0.1570779049554E-01
 0.1753001758837E-01
 0.1957348835071E-01
 0.2164714523908E-01
 0.2358914806969E-01
 0.1121843877294E-01
 0.1163314074804E-01
 0.1204365460544E-01
 0.1242864253982E-01
 0.1277067387263E-01
 0.1305961214448E-01
 0.1329277282653E-01
 0.1347298068581E-01
 0.1360607954792E-01
 0.1369889403970E-01
 0.1375795479132E-01
 0.1378888586331E-01
 0.1379622599715E-01
 0.1378347883307E-01
 0.1375325617824E-01
 0.1370743981491E-01
 0.1364732770457E-01
 0.1357375412616E-01
 0.1348718497055E-01
 0.1338779715669E-01
 0.1327555889550E-01
 0.1315032409415E-01
 0.1301198023798E-01
 0.1286068193859E-01
 0.1269720531412E-01
 0.1252347695876E-01
 0.1234332409239E-01
 0.1216354189084E-01
 0.1199550008017E-01
 0.1185718523858E-01
 0.1177560738003E-01
 0.1178980140865E-01
 0.1195376589928E-01
 0.1233716649383E-01
 0.1301981844818E-01
 0.1407515971840E-01
 0.1554149579924E-01
 0.1738802623830E-01
 0.1949482652428E-01
 0.2164448411465E-01
 0.2360116984884E-01
 0.1123915065406E-01
 0.1166792739467E-01
 0.1209184512232E-01
 0.1248687345503E-01
 0.1283409243109E-01
 0.1312348617988E-01
 0.1335363959184E-01
 0.1352905848306E-01
 0.1365712213130E-01
 0.1374579506606E-01
 0.1380233021358E-01
 0.1383274062611E-01
 0.1384172645287E-01
 0.1383281326679E-01
 0.1380855596860E-01
 0.1377073647004E-01
 0.1372052685219E-01
 0.1365861250015E-01
 0.1358527976046E-01
 0.1350047879603E-01
 0.1340387890084E-01
 0.1329493143227E-01
 0.1317297977704E-01
 0.1303745198725E-01
 0.1288817582806E-01
 0.1272587150313E-01
 0.1255287010072E-01
 0.1237415786467E-01
 0.1219900424557E-01
 0.1204308713498E-01
 0.1193110861881E-01
 0.1190034468178E-01
 0.1200473164774E-01
 0.1231746268173E-01
 0.1292766336655E-01
 0.1392468118566E-01
 0.1536583860266E-01
 0.1723457524588E-01
 0.1940671218821E-01
 0.2166047444301E-01
 0.2360605850757E-01
 0.1126235910793E-01
 0.1170660092034E-01
 0.1214508689370E-01
 0.1255054198926E-01
 0.1290242994927E-01
 0.1319111286770E-01
 0.1341684755188E-01
 0.1358615348104E-01
 0.1370812833422E-01
 0.1379192984936E-01
 0.1384551067915E-01
 0.1387522093346E-01
 0.1388586869408E-01
 0.1388095894993E-01
 0.1386296179713E-01
 0.1383354572092E-01
 0.1379375622237E-01
 0.1374414045171E-01
 0.1368482604528E-01
 0.1361556637528E-01
 0.1353576950771E-01
 0.1344452733091E-01
 0.1334068367318E-01
 0.1322298031209E-01
 0.1309032543472E-01
 0.1294224109772E-01
 0.1277953726842E-01
 0.1260531181666E-01
 0.1242656600160E-01
 0.1225635942845E-01
 0.1211655984124E-01
 0.1204186618861E-01
 0.1208504316286E-01
 0.1232165291855E-01
 0.1284967423847E-01
 0.1377577543045E-01
 0.1518056363875E-01
 0.1706629987788E-01
 0.1931147949611E-01
 0.2166544503837E-01
 0.2371874669908E-01
 0.1128845779443E-01
 0.1174975615429E-01
 0.1220406322871E-01
 0.1262021761861E-01
 0.1297596644070E-01
 0.1326243047416E-01
 0.1348204819903E-01
 0.1364373082448E-01
 0.1375847088901E-01
 0.1383664355577E-01
 0.1388684853034E-01
 0.1391569877654E-01
 0.1392804319904E-01
 0.1392731657231E-01
 0.1391587337912E-01
 0.1389525475569E-01
 0.1386638015491E-01
 0.1382967159345E-01
 0.1378512250956E-01
 0.1373232469009E-01
 0.1367046998235E-01
 0.1359834384632E-01
 0.1351434809858E-01
 0.1341659474668E-01
 0.1330312070260E-01
 0.1317228144744E-01
 0.1302336905580E-01
 0.1285754740008E-01
 0.1267941875979E-01
 0.1249914640060E-01
 0.1233524190166E-01
 0.1221894489903E-01
 0.1220053574752E-01
 0.1235636936616E-01
 0.1279218052643E-01
 0.1363294206992E-01
 0.1498692324527E-01
 0.1688251617602E-01
 0.1920434300725E-01
 0.2167086122615E-01
 0.2387216677349E-01
 0.1131798147988E-01
 0.1179814856458E-01
 0.1226961598644E-01
 0.1269654872597E-01
 0.1305495147517E-01
 0.1333725692499E-01
 0.1354872649925E-01
 0.1370108088144E-01
 0.1380735993660E-01
 0.1387913569212E-01
 0.1392556256767E-01
 0.1395341531606E-01
 0.1396750102974E-01
 0.1397112671521E-01
 0.1396649696970E-01
 0.1395501065878E-01
 0.1393746214101E-01
 0.1391416287611E-01
 0.1388499926550E-01
 0.1384944105056E-01
 0.1380651571621E-01
 0.1375476568970E-01
 0.1369222314379E-01
 0.1361644684642E-01
 0.1352467664957E-01
 0.1341416614137E-01
 0.1328273562503E-01
 0.1312962522941E-01
 0.1295697736750E-01
 0.1277185934783E-01
 0.1258897216026E-01
 0.1243522226723E-01
 0.1235694989054E-01
 0.1242928744300E-01
 0.1276380908667E-01
 0.1350378362869E-01
 0.1478952228710E-01
 0.1668408494835E-01
 0.1908487000960E-01
 0.2168282607203E-01
 0.2404005873137E-01
 0.1135158644916E-01
 0.1185271858123E-01
 0.1234277738864E-01
 0.1278030281014E-01
 0.1313965408366E-01
 0.1341536184283E-01
 0.1361630198460E-01
 0.1375744787568E-01
 0.1385399354737E-01
 0.1391862853497E-01
 0.1396092511431E-01
 0.1398769251930E-01
 0.1400360052875E-01
 0.1401176578666E-01
 0.1401420769488E-01
 0.1401216873832E-01
 0.1400632076190E-01
 0.1399688134584E-01
 0.1398365971051E-01
 0.1396604686177E-01
 0.1394296341514E-01
 0.1391278062899E-01
 0.1387324557406E-01
 0.1382145667296E-01
 0.1375395170361E-01
 0.1366697310049E-01
 0.1355694964771E-01
 0.1342125485886E-01
 0.1325957382722E-01
 0.1307575717887E-01
 0.1288032161866E-01
 0.1269500686789E-01
 0.1256066015314E-01
 0.1254877518759E-01
 0.1277395987258E-01
 0.1339657024706E-01
 0.1459289794306E-01
 0.1647109974633E-01
 0.1895229912779E-01
 0.2170276982433E-01
 0.2423056154582E-01
 0.1139010183733E-01
 0.1191464842669E-01
 0.1242480324100E-01
 0.1287234368422E-01
 0.1323028789283E-01
 0.1349636560426E-01
 0.1368402483417E-01
 0.1381193256449E-01
 0.1389746662185E-01
 0.1395427776846E-01
 0.1399216885766E-01
 0.1401783025721E-01
 0.1403568809542E-01
 0.1404860302750E-01
 0.1405837436689E-01
 0.1406607577329E-01
 0.1407226111788E-01
 0.1407707277278E-01
 0.1408027484139E-01
 0.1408122587443E-01
 0.1407880175822E-01
 0.1407128196167E-01
 0.1405622454351E-01
 0.1403037672055E-01
 0.1398969022798E-01
 0.1392951358805E-01
 0.1384499947615E-01
 0.1373176225023E-01
 0.1358710509767E-01
 0.1341164100835E-01
 0.1321144969726E-01
 0.1300237782853E-01
 0.1281821842544E-01
 0.1272407294343E-01
 0.1283381171453E-01
 0.1332202711225E-01
 0.1440376197263E-01
 0.1624456216208E-01
 0.1880526051384E-01
 0.2173095764659E-01
 0.2444824567709E-01
 0.1143458511897E-01
 0.1198543462735E-01
 0.1251722175922E-01
 0.1297362177645E-01
 0.1332695801129E-01
 0.1357967993365E-01
 0.1375093400984E-01
 0.1386347155943E-01
 0.1393676509285E-01
 0.1398517453421E-01
 0.1401849217500E-01
 0.1404311259208E-01
 0.1406310446497E-01
 0.1408100648273E-01
 0.1409836514942E-01
 0.1411607548956E-01
 0.1413458025542E-01
 0.1415396713539E-01
 0.1417398881046E-01
 0.1419401965243E-01
 0.1421295633055E-01
 0.1422907207769E-01
 0.1423984254139E-01
 0.1424178866619E-01
 0.1423041319858E-01
 0.1420031434792E-01
 0.1414551892172E-01
 0.1406004100761E-01
 0.1393895636933E-01
 0.1377973681489E-01
 0.1358393338683E-01
 0.1336095896213E-01
 0.1313610694047E-01
 0.1296512769978E-01
 0.1295641501108E-01
 0.1329386469239E-01
 0.1423183628525E-01
 0.1600680570903E-01
 0.1864148929738E-01
 0.2176632258848E-01
 0.2469821677947E-01
 0.1148639991923E-01
 0.1206698727424E-01
 0.1262189026614E-01
 0.1308514607574E-01
 0.1342958084043E-01
 0.1366443058522E-01
 0.1381580986919E-01
 0.1391081825369E-01
 0.1397076372600E-01
 0.1401035070824E-01
 0.1403906679447E-01
 0.1406281563837E-01
 0.1408519203984E-01
 0.1410834971101E-01
 0.1413355380169E-01
 0.1416151457279E-01
 0.1419257318772E-01
 0.1422678485325E-01
 0.1426392549539E-01
 0.1430343444179E-01
 0.1434429645549E-01
 0.1438486847087E-01
 0.1442265929185E-01
 0.1445410348224E-01
 0.1447441263547E-01
 0.1447760403537E-01
 0.1445676204134E-01
 0.1440450910546E-01
 0.1431392889138E-01
 0.1417957758437E-01
 0.1399858150140E-01
 0.1377364690458E-01
 0.1352039729059E-01
 0.1328228859477E-01
 0.1315665728655E-01
 0.1332932185608E-01
 0.1409095377615E-01
 0.1576233450623E-01
 0.1845784149120E-01
 0.2180716792330E-01
 0.2498679513450E-01
 0.1154732764357E-01
 0.1216176695355E-01
 0.1274105782072E-01
 0.1320792380503E-01
 0.1353776543094E-01
 0.1374935936138E-01
 0.1387712363040E-01
 0.1395252827368E-01
 0.1399822930596E-01
 0.1402878822898E-01
 0.1405304811341E-01
 0.1407621709484E-01
 0.1410130327708E-01
 0.1413001919925E-01
 0.1416332645526E-01
 0.1420174916708E-01
 0.1424553945621E-01
 0.1429474371915E-01
 0.1434919604968E-01
 0.1440844945262E-01
 0.1447164403038E-01
 0.1453731244350E-01
 0.1460311900325E-01
 0.1466556541765E-01
 0.1471975037366E-01
 0.1475930471115E-01
 0.1477658422854E-01
 0.1476307354605E-01
 0.1471017678730E-01
 0.1460989237030E-01
 0.1445524450648E-01
 0.1424230216808E-01
 0.1397630669888E-01
 0.1368581778852E-01
 0.1345101760491E-01
 0.1344963625367E-01
 0.1400048303844E-01
 0.1551925993867E-01
 0.1825074133372E-01
 0.2185117278149E-01
 0.2532199561836E-01
 0.1161973144623E-01
 0.1227297559453E-01
 0.1287742679466E-01
 0.1334284490106E-01
 0.1365064146273E-01
 0.1383270460842E-01
 0.1393298863415E-01
 0.1398695354654E-01
 0.1401783120198E-01
 0.1403943323302E-01
 0.1405958841047E-01
 0.1408260748133E-01
 0.1411081009146E-01
 0.1414542242001E-01
 0.1418708885597E-01
 0.1423615178982E-01
 0.1429279016075E-01
 0.1435706645502E-01
 0.1442890736311E-01
 0.1450802651616E-01
 0.1459378441815E-01
 0.1468498071994E-01
 0.1477956137674E-01
 0.1487426038303E-01
 0.1496426172744E-01
 0.1504302900896E-01
 0.1510243062216E-01
 0.1513310510640E-01
 0.1512515735822E-01
 0.1506851078127E-01
 0.1495263444141E-01
 0.1476742218839E-01
 0.1450765754412E-01
 0.1418517090837E-01
 0.1385699051074E-01
 0.1368029866065E-01
 0.1398706073074E-01
 0.1529164079262E-01
 0.1801697031320E-01
 0.2189505624390E-01
 0.2571418658763E-01
 0.1170680345791E-01
 0.1240482490398E-01
 0.1303419582097E-01
 0.1349047368370E-01
 0.1376661584709E-01
 0.1391206389011E-01
 0.1398112213156E-01
 0.1401225017036E-01
 0.1402816125477E-01
 0.1404121557235E-01
 0.1405785306017E-01
 0.1408130303188E-01
 0.1411311418449E-01
 0.1415399643838E-01
 0.1420427398069E-01
 0.1426411857156E-01
 0.1433365535837E-01
 0.1441298877648E-01
 0.1450217130145E-01
 0.1460112099094E-01
 0.1470947933844E-01
 0.1482640008918E-01
 0.1495023673938E-01
 0.1507812926311E-01
 0.1520556450915E-01
 0.1532608327634E-01
 0.1543133226527E-01
 0.1551142456990E-01
 0.1555559872079E-01
 0.1555229143339E-01
 0.1548817185843E-01
 0.1534782614272E-01
 0.1511627117989E-01
 0.1478801909110E-01
 0.1439202295250E-01
 0.1405084544118E-01
 0.1408651184226E-01
 0.1510306155834E-01
 0.1775519665236E-01
 0.2193400046041E-01
 0.2617710811344E-01
 0.1181294868215E-01
 0.1256291623816E-01
 0.1321504412087E-01
 0.1365068699624E-01
 0.1388303987931E-01
 0.1398425188850E-01
 0.1401883125557E-01
 0.1402640579729E-01
 0.1402776448109E-01
 0.1403307398986E-01
 0.1404703968234E-01
 0.1407166008644E-01
 0.1410765814786E-01
 0.1415521694345E-01
 0.1421434992856E-01
 0.1428507673727E-01
 0.1436749175590E-01
 0.1446176789158E-01
 0.1456811464731E-01
 0.1468669385143E-01
 0.1481748177438E-01
 0.1496006533463E-01
 0.1511332596467E-01
 0.1527498716633E-01
 0.1544107440367E-01
 0.1560547737023E-01
 0.1575991056189E-01
 0.1589430173507E-01
 0.1599748858109E-01
 0.1605708344735E-01
 0.1605787856362E-01
 0.1598039073965E-01
 0.1580136282158E-01
 0.1549904076271E-01
 0.1507178870369E-01
 0.1459379289787E-01
 0.1434561910935E-01
 0.1499186242545E-01
 0.1746908892841E-01
 0.2196087593688E-01
 0.2672950366370E-01
 0.1194440126200E-01
 0.1275477797076E-01
 0.1342396974333E-01
 0.1382206324986E-01
 0.1399577783870E-01
 0.1404518335077E-01
 0.1404304169088E-01
 0.1402729129057E-01
 0.1401518119988E-01
 0.1401398685657E-01
 0.1402639994352E-01
 0.1405309070955E-01
 0.1409393713054E-01
 0.1414860753705E-01
 0.1421682794099E-01
 0.1429849218305E-01
 0.1439369052730E-01
 0.1450269121935E-01
 0.1462588945812E-01
 0.1476372458836E-01
 0.1491655247776E-01
 0.1508446017097E-01
 0.1526696531916E-01
 0.1546254918744E-01
 0.1566802715924E-01
 0.1587794072937E-01
 0.1608438872788E-01
 0.1627746582630E-01
 0.1644608455736E-01
 0.1657772654681E-01
 0.1665633123381E-01
 0.1665987374271E-01
 0.1655903248109E-01
 0.1631861266197E-01
 0.1590767921754E-01
 0.1534209297202E-01
 0.1482302440187E-01
 0.1501833184649E-01
 0.1717360872432E-01
 0.2196542887931E-01
 0.2739782902354E-01
 0.1211025215322E-01
 0.1299061530748E-01
 0.1366479400389E-01
 0.1400088007989E-01
 0.1409870023052E-01
 0.1408983758901E-01
 0.1405038915293E-01
 0.1401273826280E-01
 0.1398900018669E-01
 0.1398300797422E-01
 0.1399526346800E-01
 0.1402507915459E-01
 0.1407151080829E-01
 0.1413374909173E-01
 0.1421127040452E-01
 0.1430387701600E-01
 0.1441168511375E-01
 0.1453508515111E-01
 0.1467468360009E-01
 0.1483122457907E-01
 0.1500547762820E-01
 0.1519808083719E-01
 0.1540927646660E-01
 0.1563846378837E-01
 0.1588350888077E-01
 0.1613994484366E-01
 0.1640060860706E-01
 0.1665612487639E-01
 0.1689594470507E-01
 0.1710809306141E-01
 0.1727668949209E-01
 0.1737885463619E-01
 0.1738195116460E-01
 0.1724167018328E-01
 0.1690363503319E-01
 0.1632426492166E-01
 0.1558783569961E-01
 0.1527363530182E-01
 0.1690735695620E-01
 0.2193411556520E-01
 0.2822098498056E-01
 0.1232423982888E-01
 0.1328431008029E-01
 0.1393993074185E-01
 0.1417953375501E-01
 0.1418320928807E-01
 0.1411239390435E-01
 0.1403738489291E-01
 0.1398063910976E-01
 0.1394792189601E-01
 0.1393930633535E-01
 0.1395306302066E-01
 0.1398719869225E-01
 0.1404001533769E-01
 0.1411028897550E-01
 0.1419729870103E-01
 0.1430079695781E-01
 0.1442095891970E-01
 0.1455832375632E-01
 0.1471373131767E-01
 0.1488825069444E-01
 0.1508308725009E-01
 0.1529946190904E-01
 0.1553840187729E-01
 0.1580035560889E-01
 0.1608449715918E-01
 0.1638773343679E-01
 0.1670405115189E-01
 0.1702499046663E-01
 0.1734097534102E-01
 0.1764117160806E-01
 0.1791080962937E-01
 0.1812781687375E-01
 0.1825929752730E-01
 0.1825709349249E-01
 0.1805299501831E-01
 0.1755646748031E-01
 0.1671313661835E-01
 0.1588885531199E-01
 0.1675568019440E-01
 0.2185290399202E-01
 0.2925921516717E-01
 0.1260803651258E-01
 0.1365457978372E-01
 0.1424756164783E-01
 0.1434422144438E-01
 0.1423809178994E-01
 0.1410664037263E-01
 0.1400063808092E-01
 0.1392906398137E-01
 0.1389083051878E-01
 0.1388220765153E-01
 0.1389935999359E-01
 0.1393912820614E-01
 0.1399917491188E-01
 0.1407794990004E-01
 0.1417460071862E-01
 0.1428887844596E-01
 0.1442105272396E-01
 0.1457183720224E-01
 0.1474232351154E-01
 0.1493391865146E-01
 0.1514827357305E-01
 0.1538720306022E-01
 0.1565254470525E-01
 0.1594587903006E-01
 0.1626791662856E-01
 0.1661736225187E-01
 0.1698985710671E-01
 0.1737829996620E-01
 0.1777448895555E-01
 0.1816918633266E-01
 0.1854944134447E-01
 0.1889540083306E-01
 0.1917693768100E-01
 0.1934781134003E-01
 0.1933679941528E-01
 0.1903212145000E-01
 0.1825935270394E-01
 0.1703926980189E-01
 0.1689068189800E-01
 0.2172010188995E-01
 0.3061253601960E-01
 0.1299767055539E-01
 0.1412565101445E-01
 0.1457539050923E-01
 0.1447209286187E-01
 0.1425033259261E-01
 0.1406666526531E-01
 0.1393707900869E-01
 0.1385639894315E-01
 0.1381686973632E-01
 0.1381123481290E-01
 0.1383386928671E-01
 0.1388066772420E-01
 0.1394881252112E-01
 0.1403653810807E-01
 0.1414293782788E-01
 0.1426781527362E-01
 0.1441157165357E-01
 0.1457511971154E-01
 0.1475981747830E-01
 0.1496741572817E-01
 0.1520000866163E-01
 0.1545999528930E-01
 0.1575001115250E-01
 0.1607278351347E-01
 0.1643071542670E-01
 0.1682475421794E-01
 0.1725284452113E-01
 0.1770982535686E-01
 0.1818926072591E-01
 0.1868374793768E-01
 0.1918248799357E-01
 0.1966884174477E-01
 0.2011790953308E-01
 0.2049131093190E-01
 0.2072506492136E-01
 0.2071366911103E-01
 0.2024116105123E-01
 0.1893036562763E-01
 0.1763168476648E-01
 0.2158937929290E-01
 0.3246389173985E-01
 0.1355712093530E-01
 0.1472456529854E-01
 0.1488725603900E-01
 0.1452967621892E-01
 0.1420782139742E-01
 0.1398747062296E-01
 0.1384417262117E-01
 0.1376151651243E-01
 0.1372550597139E-01
 0.1372614818017E-01
 0.1375648146730E-01
 0.1381175238134E-01
 0.1388885955143E-01
 0.1398595070268E-01
 0.1410215120410E-01
 0.1423737466726E-01
 0.1439219160654E-01
 0.1456773689241E-01
 0.1476564584649E-01
 0.1498801236626E-01
 0.1523736055992E-01
 0.1551664486433E-01
 0.1582925109910E-01
 0.1617898856143E-01
 0.1656997151336E-01
 0.1700578251899E-01
 0.1748751861900E-01
 0.1801284929603E-01
 0.1857756591822E-01
 0.1917602261121E-01
 0.1979933213304E-01
 0.2043447608943E-01
 0.2106345402251E-01
 0.2166017266955E-01
 0.2217982525482E-01
 0.2253701707006E-01
 0.2258062157973E-01
 0.2172889022860E-01
 0.1951499834676E-01
 0.2169655423173E-01
 0.3519616297748E-01
 0.1441036606346E-01
 0.1546261003968E-01
 0.1509669464093E-01
 0.1447979015326E-01
 0.1410350314664E-01
 0.1386470787950E-01
 0.1372042285911E-01
 0.1364387032681E-01
 0.1361659318694E-01
 0.1362698029714E-01
 0.1366728075069E-01
 0.1373246437702E-01
 0.1381936373229E-01
 0.1392618195512E-01
 0.1405216735519E-01
 0.1419740271847E-01
 0.1436266504481E-01
 0.1454933234101E-01
 0.1475932456159E-01
 0.1499507236851E-01
 0.1525950732752E-01
 0.1555609417420E-01
 0.1588889186522E-01
 0.1626265910628E-01
 0.1668303973370E-01
 0.1715641178655E-01
 0.1768807378235E-01
 0.1828007270673E-01
 0.1893118110028E-01
 0.1963689898986E-01
 0.2038922623917E-01
 0.2117830024879E-01
 0.2199411947642E-01
 0.2282453394694E-01
 0.2365375351909E-01
 0.2443439712178E-01
 0.2509123339892E-01
 0.2536557021159E-01
 0.2330891125211E-01
 0.2278658420592E-01
 0.3976999402649E-01
 0.1582977804507E-01
 0.1623991691123E-01
 0.1503491912337E-01
 0.1431509828733E-01
 0.1393123635829E-01
 0.1369593979459E-01
 0.1356569785318E-01
 0.1350352272421E-01
 0.1349045283908E-01
 0.1351405074490E-01
 0.1356656169041E-01
 0.1364304065434E-01
 0.1374049532697E-01
 0.1385732809165E-01
 0.1399300260207E-01
 0.1414782892238E-01
 0.1432282595913E-01
 0.1451963332882E-01
 0.1474045970575E-01
 0.1498806150658E-01
 0.1526574835127E-01
 0.1557743882461E-01
 0.1592776402302E-01
 0.1632225888912E-01
 0.1676773705983E-01
 0.1727297018815E-01
 0.1784840053180E-01
 0.1850338307035E-01
 0.1924131472941E-01
 0.2005719666250E-01
 0.2094160986455E-01
 0.2188686219290E-01
 0.2289019911107E-01
 0.2395617347320E-01
 0.2509238126735E-01
 0.2632971125764E-01
 0.2761096683113E-01
 0.2920936664537E-01
 0.2966973512463E-01
 0.2669314228592E-01
 0.4924936125394E-01
 0.1854797928248E-01
 0.1629922732184E-01
 0.1464249097743E-01
 0.1405279609050E-01
 0.1368149453380E-01
 0.1348412718557E-01
 0.1338036093547E-01
 0.1334151406402E-01
 0.1334782146956E-01
 0.1338800184252E-01
 0.1345483147358E-01
 0.1354387920275E-01
 0.1365255054163E-01
 0.1377959075609E-01
 0.1392476648318E-01
 0.1408866986070E-01
 0.1427259401874E-01
 0.1447845557218E-01
 0.1470875301644E-01
 0.1496655431723E-01
 0.1525551281681E-01
 0.1557993856361E-01
 0.1594492193338E-01
 0.1635657015704E-01
 0.1682246959580E-01
 0.1735272455974E-01
 0.1796218233867E-01
 0.1867325762046E-01
 0.1949848862846E-01
 0.2042787447121E-01
 0.2144657314223E-01
 0.2254749715455E-01
 0.2373450584238E-01
 0.2502472292974E-01
 0.2645956794554E-01
 0.2809174145991E-01
 0.3012144407852E-01
 0.3240583054640E-01
 0.3744039913264E-01
 0.3576258741716E-01
 0.7677406216899E-01
 0.4503421157435E+00
 0.6171631616201E+00
 0.7667792796173E+00
 0.8967532324040E+00
 0.1006998249284E+01
 0.1098269877419E+01
 0.1171500302571E+01
 0.1227555276739E+01
 0.1267401920376E+01
 0.1292642933482E+01
 0.1305707042016E+01
 0.1309183338751E+01
 0.1305144512051E+01
 0.1294892112720E+01
 0.1278954408111E+01
 0.1257257208934E+01
 0.1229498938837E+01
 0.1194706766271E+01
 0.1152817393562E+01
 0.1107819809737E+01
 0.4347166706927E+00
 0.6056498823857E+00
 0.7594445717442E+00
 0.8938567787837E+00
 0.1008643723175E+01
 0.1104602480264E+01
 0.1182699848855E+01
 0.1243809335748E+01
 0.1288837362552E+01
 0.1319220400569E+01
 0.1337191986644E+01
 0.1345251426229E+01
 0.1345492993825E+01
 0.1339303757941E+01
 0.1327329390813E+01
 0.1309680042695E+01
 0.1286043798117E+01
 0.1255206897242E+01
 0.1215217254080E+01
 0.1164347210793E+01
 0.4197076276679E+00
 0.5954544567182E+00
 0.7534156618873E+00
 0.8920082612222E+00
 0.1011061428632E+01
 0.1111379702857E+01
 0.1193963612107E+01
 0.1259711544119E+01
 0.1309531585504E+01
 0.1344791032107E+01
 0.1367576081474E+01
 0.1380268768329E+01
 0.1384939554075E+01
 0.1383021118622E+01
 0.1375253239163E+01
 0.1361789082730E+01
 0.1342185412136E+01
 0.1314867721477E+01
 0.1277417814219E+01
 0.1228899442237E+01
 0.4055326365026E+00
 0.5862527021959E+00
 0.7484756614658E+00
 0.8910600151687E+00
 0.1014102038998E+01
 0.1118464938448E+01
 0.1205189311293E+01
 0.1275220472048E+01
 0.1329507634872E+01
 0.1369397654658E+01
 0.1396867295227E+01
 0.1414182837820E+01
 0.1423363307129E+01
 0.1425854924844E+01
 0.1422436004578E+01
 0.1413249232471E+01
 0.1397726495678E+01
 0.1374274529389E+01
 0.1341011851346E+01
 0.1297533507859E+01
 0.3922251448320E+00
 0.5779768377755E+00
 0.7444360490810E+00
 0.8908578041388E+00
 0.1017629339225E+01
 0.1125737757097E+01
 0.1216286982887E+01
 0.1290288107895E+01
 0.1348754431672E+01
 0.1393040826767E+01
 0.1425043768234E+01
 0.1446923651434E+01
 0.1460634772418E+01
 0.1467608518299E+01
 0.1468631823455E+01
 0.1463836553044E+01
 0.1452653886906E+01
 0.1433758392083E+01
 0.1405819890828E+01
 0.1368727849491E+01
 0.3797893047000E+00
 0.5705586322143E+00
 0.7411675449518E+00
 0.8912566441713E+00
 0.1021515963246E+01
 0.1133089456142E+01
 0.1227172732798E+01
 0.1304858973750E+01
 0.1367238865043E+01
 0.1415692698235E+01
 0.1452059249813E+01
 0.1478405754026E+01
 0.1496616729922E+01
 0.1508094411629E+01
 0.1513627860603E+01
 0.1513376144919E+01
 0.1506882572590E+01
 0.1493154946506E+01
 0.1471319696513E+01
 0.1441445167777E+01
 0.3682185979719E+00
 0.5639336851342E+00
 0.7385612114802E+00
 0.8921316639829E+00
 0.1025644073514E+01
 0.1140419532880E+01
 0.1237765808162E+01
 0.1318871601353E+01
 0.1384912644419E+01
 0.1437305553503E+01
 0.1477849175618E+01
 0.1508531030385E+01
 0.1531168137231E+01
 0.1547131695985E+01
 0.1557223058389E+01
 0.1561669095702E+01
 0.1560179663441E+01
 0.1552089828047E+01
 0.1536892642494E+01
 0.1514792881804E+01
 0.3575036629411E+00
 0.5580401387386E+00
 0.7365210532645E+00
 0.8933727167730E+00
 0.1029906996458E+01
 0.1147634149259E+01
 0.1247987585281E+01
 0.1332260294253E+01
 0.1401717139315E+01
 0.1457817944947E+01
 0.1502335844435E+01
 0.1537192383352E+01
 0.1564144752633E+01
 0.1584539767647E+01
 0.1599206267870E+01
 0.1608465596428E+01
 0.1612213937603E+01
 0.1610084269916E+01
 0.1601869737342E+01
 0.1587897025212E+01
 0.3476351888295E+00
 0.5528197509804E+00
 0.7349604590093E+00
 0.8948814243024E+00
 0.1034208001774E+01
 0.1154645832853E+01
 0.1257761537023E+01
 0.1344956859847E+01
 0.1417587023785E+01
 0.1477159296405E+01
 0.1525432703753E+01
 0.1564276433500E+01
 0.1595398741341E+01
 0.1620132416746E+01
 0.1639347069405E+01
 0.1653472553596E+01
 0.1662592154092E+01
 0.1666602576499E+01
 0.1665546026179E+01
 0.1659862546407E+01
 0.3386050999645E+00
 0.5482185710477E+00
 0.7338007876049E+00
 0.8965691747529E+00
 0.1038459167512E+01
 0.1161373164509E+01
 0.1267013756615E+01
 0.1356892255146E+01
 0.1432453179459E+01
 0.1495253518647E+01
 0.1547047730695E+01
 0.1589665613167E+01
 0.1624778468912E+01
 0.1653715730117E+01
 0.1677397222807E+01
 0.1696366162817E+01
 0.1710884115815E+01
 0.1721077859554E+01
 0.1727196437569E+01
 0.1729781739637E+01
 0.3304069098916E+00
 0.5441873357401E+00
 0.7329706714562E+00
 0.8983559163939E+00
 0.1042580507127E+01
 0.1167740616841E+01
 0.1275673592620E+01
 0.1367998120803E+01
 0.1446245090747E+01
 0.1512021919959E+01
 0.1567086203562E+01
 0.1613240111690E+01
 0.1652129484456E+01
 0.1685089669215E+01
 0.1713096233308E+01
 0.1736804480645E+01
 0.1756640713029E+01
 0.1772930671748E+01
 0.1786094267000E+01
 0.1796759020687E+01
 0.3230357032594E+00
 0.5406816416265E+00
 0.7324056565339E+00
 0.9001694440168E+00
 0.1046499425404E+01
 0.1173678539212E+01
 0.1283674312990E+01
 0.1378208156541E+01
 0.1458892860246E+01
 0.1527385614647E+01
 0.1585453099112E+01
 0.1634879976279E+01
 0.1677296683867E+01
 0.1714051657862E+01
 0.1746178329559E+01
 0.1774438780923E+01
 0.1799408334506E+01
 0.1821583868023E+01
 0.1841526619391E+01
 0.1859928522363E+01
 0.3164879419358E+00
 0.5376619695247E+00
 0.7320479952842E+00
 0.9019449930165E+00
 0.1050150427594E+01
 0.1179123266948E+01
 0.1290953758232E+01
 0.1387459342929E+01
 0.1470328935322E+01
 0.1541267600182E+01
 0.1602055322360E+01
 0.1654467485565E+01
 0.1700127299582E+01
 0.1740401195604E+01
 0.1776379786141E+01
 0.1808923928022E+01
 0.1838741340830E+01
 0.1866475206421E+01
 0.1892803948024E+01
 0.1918462524492E+01
 0.3107612084446E+00
 0.5350936227367E+00
 0.7318465196963E+00
 0.9036250245586E+00
 0.1053475004749E+01
 0.1184017311902E+01
 0.1297454956747E+01
 0.1395693006984E+01
 0.1480489587315E+01
 0.1553594576866E+01
 0.1616803814456E+01
 0.1671889668888E+01
 0.1720474272181E+01
 0.1763944779124E+01
 0.1803446026255E+01
 0.1839927797449E+01
 0.1874213199873E+01
 0.1907069069155E+01
 0.1939269972044E+01
 0.1971580470934E+01
 0.3058539428349E+00
 0.5329466174938E+00
 0.7317565593141E+00
 0.9051591303042E+00
 0.1056421635988E+01
 0.1188309603855E+01
 0.1303126697848E+01
 0.1402855755676E+01
 0.1489316198766E+01
 0.1564298579477E+01
 0.1629615563770E+01
 0.1687040868271E+01
 0.1738199729508E+01
 0.1784500782486E+01
 0.1827138299100E+01
 0.1867139838885E+01
 0.1905426734347E+01
 0.1942868300306E+01
 0.1980316947939E+01
 0.2018561001827E+01
 0.3017652084032E+00
 0.5311955565324E+00
 0.7317398886812E+00
 0.9065040104259E+00
 0.1058945861247E+01
 0.1191955753389E+01
 0.1307924054520E+01
 0.1408900290475E+01
 0.1496756387611E+01
 0.1573318444342E+01
 0.1640415495720E+01
 0.1699825227295E+01
 0.1753178366747E+01
 0.1801904072347E+01
 0.1847239800169E+01
 0.1890278814709E+01
 0.1932023529219E+01
 0.1973425920645E+01
 0.2015400399480E+01
 0.2058756791502E+01
 0.2984944896755E+00
 0.5298194995813E+00
 0.7317646899584E+00
 0.9076234901951E+00
 0.1061010387191E+01
 0.1194918310189E+01
 0.1311808846072E+01
 0.1413786107422E+01
 0.1502764978161E+01
 0.1580601107366E+01
 0.1649138194182E+01
 0.1710158997024E+01
 0.1765300566095E+01
 0.1816010191992E+01
 0.1863561120683E+01
 0.1909099633110E+01
 0.1953692300098E+01
 0.1998355279506E+01
 0.2044050887375E+01
 0.2091608651153E+01
 0.2960415370377E+00
 0.5288018460996E+00
 0.7318055297168E+00
 0.9084885578616E+00
 0.1062585204661E+01
 0.1197167001105E+01
 0.1314750035384E+01
 0.1417480085556E+01
 0.1507304821178E+01
 0.1586102719712E+01
 0.1655729408268E+01
 0.1717972571633E+01
 0.1774475138946E+01
 0.1826698996289E+01
 0.1875944925455E+01
 0.1923399163419E+01
 0.1970175882868E+01
 0.2017338148066E+01
 0.2065883228574E+01
 0.2116657351895E+01
 0.2944062525146E+00
 0.5281302362111E+00
 0.7318433434554E+00
 0.9090774071343E+00
 0.1063647697938E+01
 0.1198678932726E+01
 0.1316724053200E+01
 0.1419956961782E+01
 0.1510347459643E+01
 0.1589789565698E+01
 0.1660147306942E+01
 0.1723212191404E+01
 0.1780631612538E+01
 0.1833877659240E+01
 0.1884269788060E+01
 0.1933020938472E+01
 0.1981276732397E+01
 0.2030130873332E+01
 0.2080603405262E+01
 0.2133552621785E+01
 0.2935886108680E+00
 0.5277964737245E+00
 0.7318654259942E+00
 0.9093754760725E+00
 0.1064182735722E+01
 0.1199438750988E+01
 0.1317715046507E+01
 0.1421199691540E+01
 0.1511873636323E+01
 0.1591638768404E+01
 0.1662363450086E+01
 0.1725841263636E+01
 0.1783721998811E+01
 0.1837482987157E+01
 0.1888453115129E+01
 0.1937858687372E+01
 0.1986860956528E+01
 0.2036568743975E+01
 0.2088013280198E+01
 0.2142059111551E+01
 0.2935886110208E+00
 0.5277964737835E+00
 0.7318654259949E+00
 0.9093754760387E+00
 0.1064182735670E+01
 0.1199438750927E+01
 0.1317715046446E+01
 0.1421199691484E+01
 0.1511873636276E+01
 0.1591638768367E+01
 0.1662363450061E+01
 0.1725841263620E+01
 0.1783721998802E+01
 0.1837482987153E+01
 0.1888453115128E+01
 0.1937858687373E+01
 0.1986860956532E+01
 0.2036568743983E+01
 0.2088013280214E+01
 0.2142059111583E+01
 0.2944062529731E+00
 0.5281302363889E+00
 0.7318433434584E+00
 0.9090774070338E+00
 0.1063647697781E+01
 0.1198678932544E+01
 0.1316724053017E+01
 0.1419956961615E+01
 0.1510347459503E+01
 0.1589789565590E+01
 0.1660147306866E+01
 0.1723212191357E+01
 0.1780631612512E+01
 0.1833877659230E+01
 0.1884269788060E+01
 0.1933020938478E+01
 0.1981276732409E+01
 0.2030130873356E+01
 0.2080603405311E+01
 0.2133552621880E+01
 0.2960415378019E+00
 0.5288018463982E+00
 0.7318055297249E+00
 0.9084885576971E+00
 0.1062585204401E+01
 0.1197167000805E+01
 0.1314750035081E+01
 0.1417480085279E+01
 0.1507304820946E+01
 0.1586102719533E+01
 0.1655729408142E+01
 0.1717972571554E+01
 0.1774475138904E+01
 0.1826698996274E+01
 0.1875944925455E+01
 0.1923399163430E+01
 0.1970175882890E+01
 0.2017338148107E+01
 0.2065883228657E+01
 0.2116657352055E+01
 0.2984944907456E+00
 0.5298195000042E+00
 0.7317646899762E+00
 0.9076234899711E+00
 0.1061010386833E+01
 0.1194918309772E+01
 0.1311808845652E+01
 0.1413786107037E+01
 0.1502764977838E+01
 0.1580601107117E+01
 0.1649138194007E+01
 0.1710158996915E+01
 0.1765300566039E+01
 0.1816010191972E+01
 0.1863561120686E+01
 0.1909099633127E+01
 0.1953692300130E+01
 0.1998355279565E+01
 0.2044050887493E+01
 0.2091608651379E+01
 0.3017652097794E+00
 0.5311955570845E+00
 0.7317398887152E+00
 0.9065040101488E+00
 0.1058945860796E+01
 0.1191955752861E+01
 0.1307924053986E+01
 0.1408900289986E+01
 0.1496756387200E+01
 0.1573318444025E+01
 0.1640415495499E+01
 0.1699825227159E+01
 0.1753178366678E+01
 0.1801904072325E+01
 0.1847239800176E+01
 0.1890278814735E+01
 0.1932023529264E+01
 0.1973425920724E+01
 0.2015400399634E+01
 0.2058756791794E+01
 0.3058539445176E+00
 0.5329466181814E+00
 0.7317565593726E+00
 0.9051591299820E+00
 0.1056421635451E+01
 0.1188309603221E+01
 0.1303126697204E+01
 0.1402855755085E+01
 0.1489316198270E+01
 0.1564298579096E+01
 0.1629615563505E+01
 0.1687040868110E+01
 0.1738199729429E+01
 0.1784500782464E+01
 0.1827138299114E+01
 0.1867139838921E+01
 0.1905426734405E+01
 0.1942868300406E+01
 0.1980316948130E+01
 0.2018561002185E+01
 0.3107612104343E+00
 0.5350936235678E+00
 0.7318465197896E+00
 0.9036250242009E+00
 0.1053475004135E+01
 0.1184017311169E+01
 0.1297454955999E+01
 0.1395693006297E+01
 0.1480489586738E+01
 0.1553594576424E+01
 0.1616803814150E+01
 0.1671889668704E+01
 0.1720474272093E+01
 0.1763944779105E+01
 0.1803446026278E+01
 0.1839927797498E+01
 0.1874213199948E+01
 0.1907069069277E+01
 0.1939269972272E+01
 0.1971580471358E+01
 0.3164879442332E+00
 0.5376619705087E+00
 0.7320479954242E+00
 0.9019449926350E+00
 0.1050150426912E+01
 0.1179123266124E+01
 0.1290953757386E+01
 0.1387459342150E+01
 0.1470328934667E+01
 0.1541267599681E+01
 0.1602055322015E+01
 0.1654467485361E+01
 0.1700127299489E+01
 0.1740401195590E+01
 0.1776379786177E+01
 0.1808923928087E+01
 0.1838741340922E+01
 0.1866475206566E+01
 0.1892803948288E+01
 0.1918462524982E+01
 0.3230357058657E+00
 0.5406816427744E+00
 0.7324056567346E+00
 0.9001694436248E+00
 0.1046499424665E+01
 0.1173678538306E+01
 0.1283674312054E+01
 0.1378208155676E+01
 0.1458892859519E+01
 0.1527385614091E+01
 0.1585453098732E+01
 0.1634879976057E+01
 0.1677296683771E+01
 0.1714051657856E+01
 0.1746178329610E+01
 0.1774438781007E+01
 0.1799408334618E+01
 0.1821583868190E+01
 0.1841526619688E+01
 0.1859928522916E+01
 0.3304069128086E+00
 0.5441873370645E+00
 0.7329706717332E+00
 0.8983559160062E+00
 0.1042580506344E+01
 0.1167740615863E+01
 0.1275673591602E+01
 0.1367998119859E+01
 0.1446245089952E+01
 0.1512021919353E+01
 0.1567086203150E+01
 0.1613240111453E+01
 0.1652129484359E+01
 0.1685089669219E+01
 0.1713096233376E+01
 0.1736804480749E+01
 0.1756640713163E+01
 0.1772930671937E+01
 0.1786094267328E+01
 0.1796759021299E+01
 0.3386051031945E+00
 0.5482185725631E+00
 0.7338007879759E+00
 0.8965691743861E+00
 0.1038459166699E+01
 0.1161373163471E+01
 0.1267013755524E+01
 0.1356892254129E+01
 0.1432453178602E+01
 0.1495253517994E+01
 0.1547047730254E+01
 0.1589665612917E+01
 0.1624778468816E+01
 0.1653715730133E+01
 0.1677397222895E+01
 0.1696366162945E+01
 0.1710884115971E+01
 0.1721077859763E+01
 0.1727196437922E+01
 0.1729781740302E+01
 0.3476351923756E+00
 0.5528197527030E+00
 0.7349604594937E+00
 0.8948814239746E+00
 0.1034208000947E+01
 0.1154645831768E+01
 0.1257761535869E+01
 0.1344956858766E+01
 0.1417587022871E+01
 0.1477159295710E+01
 0.1525432703285E+01
 0.1564276433238E+01
 0.1595398741247E+01
 0.1620132416774E+01
 0.1639347069512E+01
 0.1653472553748E+01
 0.1662592154271E+01
 0.1666602576725E+01
 0.1665546026553E+01
 0.1659862547114E+01
 0.3575036668075E+00
 0.5580401406864E+00
 0.7365210538833E+00
 0.8933727165040E+00
 0.1029906995632E+01
 0.1147634148139E+01
 0.1247987584074E+01
 0.1332260293116E+01
 0.1401717138351E+01
 0.1457817944214E+01
 0.1502335843943E+01
 0.1537192383080E+01
 0.1564144752541E+01
 0.1584539767687E+01
 0.1599206267998E+01
 0.1608465596605E+01
 0.1612213937806E+01
 0.1610084270157E+01
 0.1601869737726E+01
 0.1587897025944E+01
 0.3682186021641E+00
 0.5639336873269E+00
 0.7385612122564E+00
 0.8921316637940E+00
 0.1025644072709E+01
 0.1140419531740E+01
 0.1237765806913E+01
 0.1318871600167E+01
 0.1384912643412E+01
 0.1437305552735E+01
 0.1477849175103E+01
 0.1508531030102E+01
 0.1531168137138E+01
 0.1547131696035E+01
 0.1557223058535E+01
 0.1561669095903E+01
 0.1560179663666E+01
 0.1552089828298E+01
 0.1536892642878E+01
 0.1514792882540E+01
 0.3797893092248E+00
 0.5705586346735E+00
 0.7411675459100E+00
 0.8912566440855E+00
 0.1021515962481E+01
 0.1133089454998E+01
 0.1227172731521E+01
 0.1304858972526E+01
 0.1367238863998E+01
 0.1415692697437E+01
 0.1452059249277E+01
 0.1478405753731E+01
 0.1496616729826E+01
 0.1508094411683E+01
 0.1513627860763E+01
 0.1513376145142E+01
 0.1506882572837E+01
 0.1493154946764E+01
 0.1471319696885E+01
 0.1441445168492E+01
 0.3922251496978E+00
 0.5779768405244E+00
 0.7444360502471E+00
 0.8908578041805E+00
 0.1017629338521E+01
 0.1125737755967E+01
 0.1216286981594E+01
 0.1290288106644E+01
 0.1348754430597E+01
 0.1393040825942E+01
 0.1425043767677E+01
 0.1446923651124E+01
 0.1460634772311E+01
 0.1467608518350E+01
 0.1468631823622E+01
 0.1463836553283E+01
 0.1452653887170E+01
 0.1433758392342E+01
 0.1405819891178E+01
 0.1368727850162E+01
 0.4055326417192E+00
 0.5862527052587E+00
 0.7484756628673E+00
 0.8910600153640E+00
 0.1014102038378E+01
 0.1118464937351E+01
 0.1205189310002E+01
 0.1275220470781E+01
 0.1329507633775E+01
 0.1369397653809E+01
 0.1396867294648E+01
 0.1414182837490E+01
 0.1423363307005E+01
 0.1425854924882E+01
 0.1422436004739E+01
 0.1413249232717E+01
 0.1397726495955E+01
 0.1374274529643E+01
 0.1341011851664E+01
 0.1297533508463E+01
 0.4197076332460E+00
 0.5954544601199E+00
 0.7534156635528E+00
 0.8920082615993E+00
 0.1011061428122E+01
 0.1111379701815E+01
 0.1193963610834E+01
 0.1259711542849E+01
 0.1309531584393E+01
 0.1344791031238E+01
 0.1367576080872E+01
 0.1380268767973E+01
 0.1384939553924E+01
 0.1383021118634E+01
 0.1375253239302E+01
 0.1361789082967E+01
 0.1342185412416E+01
 0.1314867721718E+01
 0.1277417814498E+01
 0.1228899442757E+01
 0.4347166766424E+00
 0.6056498861498E+00
 0.7594445737046E+00
 0.8938567793731E+00
 0.1008643722801E+01
 0.1104602479300E+01
 0.1182699847620E+01
 0.1243809334492E+01
 0.1288837361436E+01
 0.1319220399681E+01
 0.1337191986014E+01
 0.1345251425840E+01
 0.1345492993636E+01
 0.1339303757911E+01
 0.1327329390908E+01
 0.1309680042895E+01
 0.1286043798383E+01
 0.1255206897461E+01
 0.1215217254313E+01
 0.1164347211226E+01
 0.4503421220566E+00
 0.6171631657717E+00
 0.7667792819081E+00
 0.8967532332384E+00
 0.1006998249077E+01
 0.1098269876559E+01
 0.1171500301398E+01
 0.1227555275515E+01
 0.1267401919268E+01
 0.1292642932578E+01
 0.1305707041350E+01
 0.1309183338315E+01
 0.1305144511810E+01
 0.1294892112632E+01
 0.1278954408140E+01
 0.1257257209056E+01
 0.1229498939038E+01
 0.1194706766468E+01
 0.1152817393762E+01
 0.1107819810068E+01
 0.1582993832620E+01
 0.1229173052605E+01
 0.8410407402789E+00
 0.6566537894916E+00
 0.5086410131315E+00
 0.3645127004832E+00
 0.2210110433278E+00
 0.9934151244992E-01
 0.1098661497130E-01
 0.5123924747064E-01
 0.9565044956574E-01
 0.1270827960170E+00
 0.1471749785875E+00
 0.1558318385999E+00
 0.1523297014700E+00
 0.1369075925195E+00
 0.1112055887761E+00
 0.7556721834108E-01
 0.3654543283473E-01
 0.2651586996059E-02
 0.1425135807898E+01
 0.1341863647462E+01
 0.9490395885354E+00
 0.7307888401188E+00
 0.5801917966587E+00
 0.4421518354066E+00
 0.3077559387426E+00
 0.1830176775613E+00
 0.8180947687676E-01
 0.1111064250883E-01
 0.4472649668747E-01
 0.8712122982964E-01
 0.1166663845351E+00
 0.1338062303241E+00
 0.1384963089107E+00
 0.1301250751700E+00
 0.1092920058847E+00
 0.7805620883834E-01
 0.3994650796567E-01
 0.1731130041186E-02
 0.1289796619325E+01
 0.1329831337702E+01
 0.1039411577024E+01
 0.8083550123954E+00
 0.6517083342720E+00
 0.5183434170549E+00
 0.3902661677173E+00
 0.2664389279758E+00
 0.1575060159702E+00
 0.7624612803614E-01
 0.1325867353590E-01
 0.3898210850903E-01
 0.7839354889868E-01
 0.1050274070439E+00
 0.1187244691325E+00
 0.1187526304837E+00
 0.1050639022763E+00
 0.7932829343243E-01
 0.4312397948033E-01
 0.1847945994712E-02
 0.1178931639474E+01
 0.1282985488460E+01
 0.1088608933041E+01
 0.8825912546622E+00
 0.7234075827935E+00
 0.5928928745227E+00
 0.4700896072031E+00
 0.3487545012599E+00
 0.2360181125454E+00
 0.1463752698952E+00
 0.7578725664446E-01
 0.1647829033763E-01
 0.3234574021793E-01
 0.6867894010207E-01
 0.9213363869670E-01
 0.1017322055138E+00
 0.9676540158571E-01
 0.7835845066457E-01
 0.4594442626212E-01
 0.2437064192350E-02
 0.1086416502217E+01
 0.1226035040729E+01
 0.1109024305999E+01
 0.9429941032086E+00
 0.7932721667197E+00
 0.6659454566686E+00
 0.5477589400098E+00
 0.4298312902239E+00
 0.3160295797766E+00
 0.2206269520797E+00
 0.1436795952870E+00
 0.7771422690945E-01
 0.2119512806951E-01
 0.2448691127171E-01
 0.5792836577225E-01
 0.7789080766769E-01
 0.8301562620037E-01
 0.7380721567043E-01
 0.4765470434569E-01
 0.5387515027305E-02
 0.1007656687803E+01
 0.1167659812313E+01
 0.1111031259032E+01
 0.9879949183685E+00
 0.8570879767311E+00
 0.7368591663200E+00
 0.6235065574751E+00
 0.5096140923439E+00
 0.3967499292332E+00
 0.2980482687741E+00
 0.2161974179945E+00
 0.1448075721673E+00
 0.8151347509058E-01
 0.2754417417551E-01
 0.1558114049261E-01
 0.4620276240157E-01
 0.6240137090052E-01
 0.6409542765485E-01
 0.4681438732935E-01
 0.9578985183601E-02
 0.9394615522420E+00
 0.1111169689896E+01
 0.1101461369655E+01
 0.1019214198837E+01
 0.9123899120925E+00
 0.8038914471072E+00
 0.6970915563039E+00
 0.5880172052145E+00
 0.4776417017419E+00
 0.3777829151407E+00
 0.2926498683800E+00
 0.2171089151489E+00
 0.1483618464093E+00
 0.8722618085193E-01
 0.3525806216682E-01
 0.6071379220113E-02
 0.3357929121760E-01
 0.4741154225106E-01
 0.4135081649108E-01
 0.1254002006369E-01
 0.8795863772702E+00
 0.1057800634583E+01
 0.1084656321502E+01
 0.1039023652960E+01
 0.9583577719854E+00
 0.8653766666471E+00
 0.7676611359665E+00
 0.6647456459710E+00
 0.5582624515055E+00
 0.4590983369805E+00
 0.3723155959227E+00
 0.2939981098581E+00
 0.2212021879763E+00
 0.1542873751275E+00
 0.9462501392283E-01
 0.4404108976113E-01
 0.5851225977431E-02
 0.2197173909657E-01
 0.2879517895771E-01
 0.1125908286987E-01
 0.8264056542185E+00
 0.1007915798325E+01
 0.1063383887594E+01
 0.1049691318012E+01
 0.9951734338820E+00
 0.9201886246880E+00
 0.8341245459877E+00
 0.7391753726759E+00
 0.6381078877819E+00
 0.5413261984015E+00
 0.4544776431069E+00
 0.3748017687064E+00
 0.2994327976914E+00
 0.2282947032969E+00
 0.1624431085683E+00
 0.1034842088057E+00
 0.5398438918639E-01
 0.1539657091377E-01
 0.7568216291309E-02
 0.4254237670677E-02
 0.7787069405732E+00
 0.9614954791981E+00
 0.1039427397519E+01
 0.1053139121271E+01
 0.1023521678304E+01
 0.9677694583286E+00
 0.8954761873988E+00
 0.8104526396469E+00
 0.7165010373849E+00
 0.6237680171899E+00
 0.5384037315573E+00
 0.4587967206613E+00
 0.3823593212004E+00
 0.3086603157526E+00
 0.2383690085888E+00
 0.1727455097241E+00
 0.1141003726161E+00
 0.6358452851682E-01
 0.2934058051091E-01
 0.1996149568035E-01
 0.7355615732899E+00
 0.9183526349346E+00
 0.1013946784135E+01
 0.1050917842837E+01
 0.1044286461923E+01
 0.1008006826656E+01
 0.9509549912355E+00
 0.8776634878762E+00
 0.7925971653896E+00
 0.7056187849329E+00
 0.6232998203084E+00
 0.5451940194318E+00
 0.4691889721698E+00
 0.3946338978162E+00
 0.3218122132521E+00
 0.2515514310443E+00
 0.1857474407598E+00
 0.1253879948234E+00
 0.7817532751365E-01
 0.5471136341003E-01
 0.6962419757047E+00
 0.8782324372201E+00
 0.9876997535194E+00
 0.1044250704903E+01
 0.1058384501146E+01
 0.1041090158360E+01
 0.1000081859462E+01
 0.9399727406202E+00
 0.8654653182680E+00
 0.7859542231926E+00
 0.7082734189649E+00
 0.6331149811228E+00
 0.5590198572872E+00
 0.4852974523334E+00
 0.4119206431646E+00
 0.3392641793531E+00
 0.2686814926061E+00
 0.2008703728778E+00
 0.1426722308190E+00
 0.1061008380073E+00
 0.6601675127646E+00
 0.8408596864943E+00
 0.9611793218200E+00
 0.1034091332572E+01
 0.1066681428453E+01
 0.1067390518036E+01
 0.1042632576020E+01
 0.9967040857629E+00
 0.9341868456538E+00
 0.8637742650249E+00
 0.7923328283613E+00
 0.7215802327846E+00
 0.6508351369106E+00
 0.5795651416569E+00
 0.5075761162521E+00
 0.4348515696014E+00
 0.3621389936107E+00
 0.2897081694926E+00
 0.2230684810142E+00
 0.1750747051321E+00
 0.6268681253079E+00
 0.8059617287381E+00
 0.9347010724481E+00
 0.1021177700731E+01
 0.1069954382156E+01
 0.1087372603518E+01
 0.1078585841942E+01
 0.1047368768982E+01
 0.9979340073448E+00
 0.9380708656391E+00
 0.8744213225882E+00
 0.8095250670701E+00
 0.7435165239127E+00
 0.6762001308474E+00
 0.6074065851627E+00
 0.5368799251422E+00
 0.4647964724881E+00
 0.3908799508150E+00
 0.3188297018602E+00
 0.2615958679385E+00
 0.5959593624427E+00
 0.7732796841446E+00
 0.9084597506164E+00
 0.1006077058476E+01
 0.1068879438003E+01
 0.1101534846565E+01
 0.1108068049968E+01
 0.1091660455006E+01
 0.1056016613673E+01
 0.1007891229245E+01
 0.9534673047622E+00
 0.8958371268598E+00
 0.8358842941391E+00
 0.7738638130681E+00
 0.7098318749581E+00
 0.6435338519076E+00
 0.5747519779044E+00
 0.5026359882888E+00
 0.4285739908849E+00
 0.3645736202265E+00
 0.5671251482173E+00
 0.7425742768556E+00
 0.8825668990491E+00
 0.9892216457717E+00
 0.1064031615729E+01
 0.1110370551066E+01
 0.1131304346801E+01
 0.1129432472062E+01
 0.1107900222334E+01
 0.1072381617759E+01
 0.1028428777051E+01
 0.9793972234455E+00
 0.9267533476452E+00
 0.8712061382245E+00
 0.8131733236151E+00
 0.7526892247973E+00
 0.6895237136847E+00
 0.6224512775800E+00
 0.5501141545378E+00
 0.4819878834353E+00
 0.5401060669855E+00
 0.7136295164423E+00
 0.8570759967893E+00
 0.9709366266675E+00
 0.1055890791416E+01
 0.1114343478040E+01
 0.1148578436751E+01
 0.1160668778889E+01
 0.1153206315609E+01
 0.1130811829613E+01
 0.1098320378401E+01
 0.1059098362902E+01
 0.1014970948381E+01
 0.9669734602457E+00
 0.9158621525934E+00
 0.8621302384479E+00
 0.8060911463209E+00
 0.7469090079136E+00
 0.6804102654216E+00
 0.6111347712751E+00
 0.5146934796891E+00
 0.6862546628665E+00
 0.8319988866073E+00
 0.9514607787092E+00
 0.1044851883709E+01
 0.1113872373097E+01
 0.1160199045042E+01
 0.1185453713022E+01
 0.1191704670496E+01
 0.1182591378963E+01
 0.1162229313484E+01
 0.1133832682137E+01
 0.1099383507721E+01
 0.1060046760227E+01
 0.1016683714590E+01
 0.9700887901535E+00
 0.9213008585751E+00
 0.8713475931355E+00
 0.8152502356401E+00
 0.7488484307997E+00
 0.4907304824231E+00
 0.6602940886856E+00
 0.8072975149672E+00
 0.9309700484701E+00
 0.1031239453979E+01
 0.1109321683024E+01
 0.1166468307762E+01
 0.1203937917812E+01
 0.1223302688644E+01
 0.1227291152087E+01
 0.1219346727179E+01
 0.1202474672712E+01
 0.1178721775891E+01
 0.1149256175389E+01
 0.1114784297006E+01
 0.1075848170329E+01
 0.1033581449334E+01
 0.9904877328563E+00
 0.9468239609339E+00
 0.8915713476417E+00
 0.4682087896986E+00
 0.6354875454603E+00
 0.7828993801652E+00
 0.9096057842440E+00
 0.1015325952007E+01
 0.1101004526462E+01
 0.1167648996088E+01
 0.1216285112886E+01
 0.1248022555843E+01
 0.1264681053901E+01
 0.1269044632715E+01
 0.1263937588054E+01
 0.1251508041176E+01
 0.1232998245580E+01
 0.1208940629314E+01
 0.1179369706314E+01
 0.1144378275014E+01
 0.1105408127253E+01
 0.1064514696530E+01
 0.1027909830878E+01
 0.4682087962575E+00
 0.6354875500634E+00
 0.7828993828548E+00
 0.9096057853982E+00
 0.1015325952024E+01
 0.1101004525734E+01
 0.1167648994959E+01
 0.1216285111629E+01
 0.1248022554638E+01
 0.1264681052861E+01
 0.1269044631893E+01
 0.1263937587451E+01
 0.1251508040755E+01
 0.1232998245294E+01
 0.1208940629131E+01
 0.1179369706215E+01
 0.1144378275027E+01
 0.1105408127486E+01
 0.1064514696814E+01
 0.1027909831192E+01
 0.4907304890829E+00
 0.6602940935812E+00
 0.8072975179739E+00
 0.9309700498971E+00
 0.1031239454197E+01
 0.1109321682411E+01
 0.1166468306654E+01
 0.1203937916479E+01
 0.1223302687279E+01
 0.1227291150829E+01
 0.1219346726101E+01
 0.1202474671825E+01
 0.1178721775167E+01
 0.1149256174792E+01
 0.1114784296516E+01
 0.1075848169953E+01
 0.1033581449147E+01
 0.9904877329546E+00
 0.9468239609362E+00
 0.8915713478235E+00
 0.5146934864621E+00
 0.6862546680461E+00
 0.8319988899076E+00
 0.9514607803692E+00
 0.1044851884070E+01
 0.1113872372526E+01
 0.1160199043872E+01
 0.1185453711522E+01
 0.1191704668880E+01
 0.1182591377402E+01
 0.1162229312077E+01
 0.1133832680909E+01
 0.1099383506651E+01
 0.1060046759288E+01
 0.1016683713771E+01
 0.9700887894701E+00
 0.9213008580685E+00
 0.8713475927878E+00
 0.8152502351005E+00
 0.7488484308893E+00
 0.5401060738776E+00
 0.7136295219092E+00
 0.8570760003553E+00
 0.9709366285114E+00
 0.1055890791853E+01
 0.1114343477434E+01
 0.1148578435434E+01
 0.1160668777137E+01
 0.1153206313660E+01
 0.1130811827683E+01
 0.1098320376620E+01
 0.1059098361303E+01
 0.1014970946948E+01
 0.9669734589499E+00
 0.9158621514197E+00
 0.8621302373864E+00
 0.8060911453581E+00
 0.7469090069646E+00
 0.6804102643484E+00
 0.6111347712607E+00
 0.5671251552313E+00
 0.7425742826077E+00
 0.8825669028479E+00
 0.9892216477410E+00
 0.1064031616167E+01
 0.1110370550341E+01
 0.1131304345254E+01
 0.1129432469980E+01
 0.1107900219988E+01
 0.1072381615416E+01
 0.1028428774871E+01
 0.9793972214674E+00
 0.9267533458464E+00
 0.8712061365663E+00
 0.8131733220614E+00
 0.7526892233074E+00
 0.6895237122091E+00
 0.6224512760214E+00
 0.5501141530111E+00
 0.4819878833048E+00
 0.5959593695795E+00
 0.7732796901722E+00
 0.9084597546052E+00
 0.1006077060501E+01
 0.1068879438360E+01
 0.1101534845637E+01
 0.1108068048114E+01
 0.1091660452530E+01
 0.1056016610882E+01
 0.1007891226467E+01
 0.9534673021843E+00
 0.8958371245148E+00
 0.8358842919884E+00
 0.7738638110549E+00
 0.7098318730230E+00
 0.6435338499894E+00
 0.5747519759418E+00
 0.5026359862017E+00
 0.4285739890361E+00
 0.3645736200021E+00
 0.6268681325661E+00
 0.8059617350225E+00
 0.9347010765722E+00
 0.1021177702733E+01
 0.1069954382342E+01
 0.1087372602302E+01
 0.1078585839712E+01
 0.1047368766064E+01
 0.9979340040878E+00
 0.9380708624299E+00
 0.8744213196352E+00
 0.8095250643879E+00
 0.7435165214395E+00
 0.6762001285072E+00
 0.6074065828787E+00
 0.5368799228471E+00
 0.4647964701284E+00
 0.3908799483421E+00
 0.3188296998605E+00
 0.2615958676913E+00
 0.6601675201389E+00
 0.8408596930061E+00
 0.9611793260101E+00
 0.1034091334457E+01
 0.1066681428372E+01
 0.1067390516454E+01
 0.1042632573362E+01
 0.9967040823796E+00
 0.9341868419338E+00
 0.8637742614134E+00
 0.7923328250762E+00
 0.7215802298114E+00
 0.6508351341613E+00
 0.5795651390402E+00
 0.5075761136839E+00
 0.4348515670228E+00
 0.3621389909903E+00
 0.2897081668185E+00
 0.2230684790655E+00
 0.1750747049840E+00
 0.6962419831851E+00
 0.8782324439170E+00
 0.9876997576894E+00
 0.1044250706564E+01
 0.1058384500703E+01
 0.1041090156344E+01
 0.1000081856346E+01
 0.9399727367743E+00
 0.8654653141153E+00
 0.7859542192300E+00
 0.7082734154074E+00
 0.6331149779186E+00
 0.5590198543232E+00
 0.4852974495110E+00
 0.4119206404035E+00
 0.3392641766151E+00
 0.2686814898910E+00
 0.2008703702127E+00
 0.1426722291376E+00
 0.1061008381182E+00
 0.7355615808595E+00
 0.9183526417585E+00
 0.1013946788179E+01
 0.1050917844157E+01
 0.1044286461025E+01
 0.1008006824159E+01
 0.9509549876611E+00
 0.8776634836004E+00
 0.7925971608598E+00
 0.7056187806891E+00
 0.6232998165509E+00
 0.5451940160667E+00
 0.4691889690644E+00
 0.3946338948741E+00
 0.3218122104073E+00
 0.2515514282887E+00
 0.1857474381296E+00
 0.1253879923848E+00
 0.7817532630996E-01
 0.5471136395282E-01
 0.7787069482061E+00
 0.9614954860710E+00
 0.1039427401310E+01
 0.1053139122124E+01
 0.1023521676867E+01
 0.9677694553316E+00
 0.8954761833974E+00
 0.8104526350023E+00
 0.7165010325539E+00
 0.6237680127476E+00
 0.5384037276800E+00
 0.4587967172123E+00
 0.3823593180352E+00
 0.3086603127867E+00
 0.2383690057792E+00
 0.1727455070984E+00
 0.1141003702483E+00
 0.6358452651192E-01
 0.2934057996606E-01
 0.1996149677959E-01
 0.8264056618768E+00
 0.1007915805144E+01
 0.1063383890978E+01
 0.1049691318263E+01
 0.9951734318493E+00
 0.9201886212103E+00
 0.8341245416280E+00
 0.7391753677469E+00
 0.6381078827385E+00
 0.5413261938507E+00
 0.4544776391945E+00
 0.3748017652539E+00
 0.2994327945520E+00
 0.2282947004068E+00
 0.1624431059132E+00
 0.1034842064509E+00
 0.5398438724282E-01
 0.1539656956696E-01
 0.7568216095068E-02
 0.4254236940572E-02
 0.8795863848991E+00
 0.1057800641212E+01
 0.1084656324296E+01
 0.1039023652482E+01
 0.9583577693372E+00
 0.8653766627568E+00
 0.7676611313500E+00
 0.6647456408550E+00
 0.5582624463434E+00
 0.4590983324155E+00
 0.3723155920619E+00
 0.2939981064832E+00
 0.2212021849485E+00
 0.1542873724099E+00
 0.9462501153349E-01
 0.4404108780244E-01
 0.5851224815138E-02
 0.2197173978312E-01
 0.2879517790195E-01
 0.1125908028469E-01
 0.9394615597633E+00
 0.1111169696154E+01
 0.1101461371646E+01
 0.1019214197526E+01
 0.9123899088711E+00
 0.8038914429255E+00
 0.6970915515528E+00
 0.5880172000085E+00
 0.4776416965561E+00
 0.3777829106610E+00
 0.2926498646584E+00
 0.2171089119300E+00
 0.1483618435735E+00
 0.8722617839496E-01
 0.3525806013958E-01
 0.6071380633461E-02
 0.3357929198838E-01
 0.4741154216831E-01
 0.4135081463284E-01
 0.1254001672169E-01
 0.1007656695103E+01
 0.1167659817954E+01
 0.1111031259982E+01
 0.9879949161770E+00
 0.8570879730649E+00
 0.7368591620124E+00
 0.6235065527095E+00
 0.5096140871348E+00
 0.3967499241239E+00
 0.2980482644871E+00
 0.2161974144964E+00
 0.1448075691747E+00
 0.8151347251739E-01
 0.2754417205292E-01
 0.1558114208717E-01
 0.4620276332239E-01
 0.6240137100201E-01
 0.6409542680538E-01
 0.4681438478457E-01
 0.9578981282565E-02
 0.1086416509130E+01
 0.1226035045418E+01
 0.1109024305667E+01
 0.9429941002059E+00
 0.7932721628388E+00
 0.6659454524118E+00
 0.5477589353223E+00
 0.4298312850924E+00
 0.3160295748601E+00
 0.2206269481003E+00
 0.1436795920854E+00
 0.7771422419941E-01
 0.2119512581922E-01
 0.2448691300003E-01
 0.5792836688145E-01
 0.7789080800494E-01
 0.8301562564049E-01
 0.7380721412480E-01
 0.4765470129439E-01
 0.5387510926589E-02
 0.1178931645736E+01
 0.1282985491731E+01
 0.1088608931256E+01
 0.8825912511234E+00
 0.7234075790047E+00
 0.5928928704433E+00
 0.4700896026537E+00
 0.3487544962999E+00
 0.2360181079648E+00
 0.1463752663365E+00
 0.7578725378851E-01
 0.1647828796994E-01
 0.3234574210150E-01
 0.6867894140003E-01
 0.9213363929793E-01
 0.1017322052725E+00
 0.9676540041289E-01
 0.7835844853525E-01
 0.4594442291986E-01
 0.2437061224827E-02
 0.1289796624490E+01
 0.1329831338919E+01
 0.1039411573894E+01
 0.8083550088897E+00
 0.6517083308233E+00
 0.5183434131920E+00
 0.3902661633588E+00
 0.2664389233168E+00
 0.1575060118984E+00
 0.7624612498427E-01
 0.1325867109322E-01
 0.3898211054008E-01
 0.7839355038520E-01
 0.1050274078937E+00
 0.1187244692321E+00
 0.1187526296995E+00
 0.1050639005655E+00
 0.7932829084576E-01
 0.4312397606146E-01
 0.1847945725805E-02
 0.1425135811096E+01
 0.1341863645909E+01
 0.9490395850448E+00
 0.7307888372562E+00
 0.5801917936009E+00
 0.4421518317535E+00
 0.3077559346415E+00
 0.1830176734013E+00
 0.8180947350098E-01
 0.1111064003407E-01
 0.4472649883622E-01
 0.8712123146551E-01
 0.1166663856073E+00
 0.1338062307372E+00
 0.1384963085422E+00
 0.1301250739042E+00
 0.1092920037239E+00
 0.7805620590030E-01
 0.3994650464221E-01
 0.1731128854235E-02
 0.1582993832313E+01
 0.1229173049864E+01
 0.8410407380808E+00
 0.6566537873979E+00
 0.5086410104435E+00
 0.3645126969917E+00
 0.2210110395735E+00
 0.9934150914936E-01
 0.1098661236824E-01
 0.5123924963989E-01
 0.9565045125875E-01
 0.1270827972349E+00
 0.1471749792748E+00
 0.1558318386130E+00
 0.1523297006738E+00
 0.1369075908681E+00
 0.1112055862746E+00
 0.7556721507388E-01
 0.3654542965388E-01
 0.2651584419721E-02
 0.1028520929342E+01
 0.8792616414590E+00
 0.7384659637006E+00
 0.6028440686194E+00
 0.4743564010180E+00
 0.3573014169564E+00
 0.2552802843375E+00
 0.1709305845405E+00
 0.1056599421589E+00
 0.5950902897555E-01
 0.3108512309731E-01
 0.1760159739677E-01
 0.1535192298121E-01
 0.2031310065095E-01
 0.2806628090544E-01
 0.3479638767050E-01
 0.3801832865252E-01
 0.3680857172189E-01
 0.3174773841195E-01
 0.2469485356992E-01
 0.1090593507414E+01
 0.9585372925535E+00
 0.8123578344094E+00
 0.6694196538856E+00
 0.5333607004801E+00
 0.4077420131433E+00
 0.2964410427367E+00
 0.2027759292043E+00
 0.1290191888919E+00
 0.7604517255643E-01
 0.4310604540926E-01
 0.2777221110126E-01
 0.2633633964224E-01
 0.3419978203263E-01
 0.4603533333560E-01
 0.5693359516286E-01
 0.6339615316271E-01
 0.6388766228997E-01
 0.5888980609903E-01
 0.5089051389322E-01
 0.1154233733655E+01
 0.1031037156243E+01
 0.8914025090583E+00
 0.7463966018192E+00
 0.6045981838899E+00
 0.4709999957889E+00
 0.3500706423955E+00
 0.2458687613201E+00
 0.1616123245322E+00
 0.9922250023705E-01
 0.5893498140435E-01
 0.3906890264468E-01
 0.3623100455712E-01
 0.4561523079184E-01
 0.6114760458846E-01
 0.7669139090963E-01
 0.8740113636367E-01
 0.9068852525349E-01
 0.8655060425759E-01
 0.7711117140674E-01
 0.1223516522285E+01
 0.1106550550940E+01
 0.9735898064796E+00
 0.8313154220932E+00
 0.6871723588227E+00
 0.5474507531479E+00
 0.4175021828994E+00
 0.3022181796188E+00
 0.2058355751913E+00
 0.1314916523417E+00
 0.8072482465179E-01
 0.5304641256263E-01
 0.4585672375986E-01
 0.5462277729315E-01
 0.7286109676112E-01
 0.9319481332776E-01
 0.1090624259099E+00
 0.1162592891527E+00
 0.1137319252741E+00
 0.1030924856070E+00
 0.1297353967489E+01
 0.1186694036643E+01
 0.1060950465053E+01
 0.9237192054248E+00
 0.7807007398191E+00
 0.6377743374105E+00
 0.5006722546967E+00
 0.3749029816065E+00
 0.2656015942246E+00
 0.1771326527684E+00
 0.1125451473169E+00
 0.7298376125265E-01
 0.5727475855194E-01
 0.6185855851087E-01
 0.8055532934144E-01
 0.1051041299922E+00
 0.1270032238443E+00
 0.1397110574643E+00
 0.1403752447934E+00
 0.1298307461950E+00
 0.1374727513185E+01
 0.1271232749943E+01
 0.1153636494610E+01
 0.1023452542929E+01
 0.8845653044525E+00
 0.7418231291271E+00
 0.6005435107922E+00
 0.4663096692324E+00
 0.3447488566652E+00
 0.2411808791109E+00
 0.1600953458632E+00
 0.1044930518976E+00
 0.7521103382578E-01
 0.7048257538205E-01
 0.8549123125109E-01
 0.1120984468330E+00
 0.1401748918805E+00
 0.1602287732012E+00
 0.1664571242455E+00
 0.1582727219623E+00
 0.1454557504493E+01
 0.1359394548658E+01
 0.1251125806690E+01
 0.1129887638880E+01
 0.9979825271866E+00
 0.8589685295910E+00
 0.7172533400435E+00
 0.5778942729806E+00
 0.4464212722873E+00
 0.3285667514729E+00
 0.2298432918143E+00
 0.1549408619324E+00
 0.1069657988414E+00
 0.8666837759247E-01
 0.9172839156728E-01
 0.1157930870577E+00
 0.1484348863875E+00
 0.1772317196595E+00
 0.1919014568110E+00
 0.1885819602838E+00
 0.1535649807402E+01
 0.1449995435413E+01
 0.1352285584710E+01
 0.1241801124778E+01
 0.1119582235099E+01
 0.9879104860507E+00
 0.8500375218109E+00
 0.7100586080647E+00
 0.5728201713828E+00
 0.4437779942067E+00
 0.3287402297929E+00
 0.2334423884823E+00
 0.1629134860489E+00
 0.1206416950337E+00
 0.1076258232204E+00
 0.1211185734906E+00
 0.1530881176191E+00
 0.1901019027982E+00
 0.2165219227046E+00
 0.2217718798540E+00
 0.1616731106252E+01
 0.1541589887850E+01
 0.1455529930908E+01
 0.1357364952138E+01
 0.1247225311790E+01
 0.1126300306948E+01
 0.9966845715306E+00
 0.8613196842829E+00
 0.7239778306901E+00
 0.5892343042003E+00
 0.4623796462245E+00
 0.3492206357546E+00
 0.2557135301790E+00
 0.1873705022920E+00
 0.1484049482277E+00
 0.1405361649814E+00
 0.1610339159780E+00
 0.2001492448386E+00
 0.2399215591123E+00
 0.2596545310852E+00
 0.1696506622292E+01
 0.1632621121086E+01
 0.1559030791689E+01
 0.1474365093211E+01
 0.1378180343521E+01
 0.1270851059730E+01
 0.1153497310116E+01
 0.1027969740721E+01
 0.8968736285755E+00
 0.7636055155824E+00
 0.6323740812344E+00
 0.5081734725667E+00
 0.3966689857330E+00
 0.3039410244317E+00
 0.2360165413315E+00
 0.1980911970282E+00
 0.1931601217247E+00
 0.2193528800182E+00
 0.2652135977662E+00
 0.3047614971912E+00
 0.1773732065887E+01
 0.1721568777834E+01
 0.1660935146464E+01
 0.1590477924871E+01
 0.1509458585358E+01
 0.1417725252501E+01
 0.1315693127418E+01
 0.1204354764055E+01
 0.1085319408048E+01
 0.9608715035975E+00
 0.8340355207057E+00
 0.7086319162670E+00
 0.5893047670769E+00
 0.4814932230836E+00
 0.3913043713861E+00
 0.3252184442614E+00
 0.2894849626309E+00
 0.2887594680494E+00
 0.3228606188545E+00
 0.3766969997022E+00
 0.1847219465877E+01
 0.1806957385930E+01
 0.1759434271314E+01
 0.1703442543274E+01
 0.1638144889041E+01
 0.1563097987698E+01
 0.1478267538736E+01
 0.1384056239815E+01
 0.1281351433220E+01
 0.1171591832684E+01
 0.1056849842531E+01
 0.9399249814482E+00
 0.8244432910334E+00
 0.7149566422686E+00
 0.6170341593487E+00
 0.5373361334358E+00
 0.4836535828103E+00
 0.4648738000598E+00
 0.4906397087501E+00
 0.5707580091392E+00
 0.1915800788060E+01
 0.1887263911259E+01
 0.1852638137018E+01
 0.1810917880338E+01
 0.1761284601365E+01
 0.1703161739988E+01
 0.1636250592792E+01
 0.1560569562667E+01
 0.1476506824313E+01
 0.1384890753705E+01
 0.1287080319809E+01
 0.1185077592290E+01
 0.1081666045817E+01
 0.9805816718683E+00
 0.8867304986473E+00
 0.8064794306657E+00
 0.7480784030142E+00
 0.7223405986429E+00
 0.7439457096765E+00
 0.8347486428957E+00
 0.1978379691637E+01
 0.1961012557401E+01
 0.1938671272237E+01
 0.1910559787685E+01
 0.1875938376438E+01
 0.1834190344390E+01
 0.1784866425999E+01
 0.1727726675417E+01
 0.1662790416339E+01
 0.1590400339696E+01
 0.1511305105847E+01
 0.1426764852391E+01
 0.1338685566750E+01
 0.1249791690479E+01
 0.1163852640973E+01
 0.1085990798806E+01
 0.1023120348770E+01
 0.9846103168136E+00
 0.9833409188825E+00
 0.1037049727521E+01
 0.2033961884185E+01
 0.2026856363855E+01
 0.2015807104037E+01
 0.2000208621570E+01
 0.1979422617347E+01
 0.1952842565687E+01
 0.1919937006400E+01
 0.1880286877611E+01
 0.1833626070796E+01
 0.1779891038934E+01
 0.1719283698845E+01
 0.1652351435634E+01
 0.1580088452375E+01
 0.1504063948770E+01
 0.1426584760913E+01
 0.1350903033046E+01
 0.1281482221491E+01
 0.1224329509687E+01
 0.1187339297393E+01
 0.1180505422467E+01
 0.2081669992201E+01
 0.2083606770997E+01
 0.2082516254520E+01
 0.2077952152738E+01
 0.2069376348729E+01
 0.2056213900937E+01
 0.2037889061902E+01
 0.2013853215843E+01
 0.1983611831466E+01
 0.1946755061799E+01
 0.1902995127059E+01
 0.1852212694490E+01
 0.1794513788122E+01
 0.1730297989057E+01
 0.1660337332207E+01
 0.1585862480583E+01
 0.1508646491835E+01
 0.1431062561970E+01
 0.1356081977408E+01
 0.1287190304925E+01
 0.2120755764083E+01
 0.2130251375550E+01
 0.2137492898613E+01
 0.2142158536779E+01
 0.2143795757987E+01
 0.2141864742512E+01
 0.2135764446000E+01
 0.2124848998857E+01
 0.2108439614384E+01
 0.2085835321934E+01
 0.2056324500760E+01
 0.2019198102267E+01
 0.1973764322621E+01
 0.1919362987383E+01
 0.1855375617068E+01
 0.1781223550766E+01
 0.1696341356023E+01
 0.1600108899375E+01
 0.1491731726316E+01
 0.1370073398252E+01
 0.2150610049122E+01
 0.2165966459016E+01
 0.2179672683196E+01
 0.2191497985795E+01
 0.2201055094954E+01
 0.2207833657209E+01
 0.2211216650189E+01
 0.2210485693167E+01
 0.2204819106272E+01
 0.2193285049190E+01
 0.2174830948256E+01
 0.2148269510116E+01
 0.2112260730160E+01
 0.2065288257434E+01
 0.2005627132798E+01
 0.1931298258979E+01
 0.1840003379483E+01
 0.1729033153789E+01
 0.1595135270272E+01
 0.1434345799450E+01
 0.2170770890444E+01
 0.2190126839998E+01
 0.2208246525724E+01
 0.2224959287340E+01
 0.2239921341169E+01
 0.2252642608655E+01
 0.2262495850711E+01
 0.2268713424953E+01
 0.2270374850559E+01
 0.2266386952213E+01
 0.2255457450039E+01
 0.2236062279409E+01
 0.2206406573443E+01
 0.2164379100374E+01
 0.2107500076748E+01
 0.2032862847390E+01
 0.1937071070082E+01
 0.1816174205015E+01
 0.1665605476655E+01
 0.1480088073322E+01
 0.2180928851517E+01
 0.2202312621714E+01
 0.2222670289820E+01
 0.2241861542238E+01
 0.2259564312509E+01
 0.2275298752181E+01
 0.2288432515996E+01
 0.2298172897471E+01
 0.2303548753010E+01
 0.2303383761074E+01
 0.2296261789320E+01
 0.2280484800009E+01
 0.2254023776375E+01
 0.2214463661635E+01
 0.2158944403481E+01
 0.2084102082634E+01
 0.1986017119094E+01
 0.1860181864057E+01
 0.1701510695898E+01
 0.1504459869626E+01
 0.2180928851620E+01
 0.2202312621932E+01
 0.2222670290172E+01
 0.2241861542749E+01
 0.2259564313204E+01
 0.2275298753087E+01
 0.2288432517142E+01
 0.2298172898886E+01
 0.2303548754718E+01
 0.2303383763097E+01
 0.2296261791670E+01
 0.2280484802684E+01
 0.2254023779358E+01
 0.2214463664882E+01
 0.2158944406916E+01
 0.2084102086142E+01
 0.1986017122513E+01
 0.1860181867173E+01
 0.1701510698450E+01
 0.1504459871325E+01
 0.2170770890753E+01
 0.2190126840647E+01
 0.2208246526775E+01
 0.2224959288862E+01
 0.2239921343238E+01
 0.2252642611353E+01
 0.2262495854123E+01
 0.2268713429162E+01
 0.2270374855641E+01
 0.2266386958230E+01
 0.2255457457027E+01
 0.2236062287366E+01
 0.2206406582315E+01
 0.2164379110034E+01
 0.2107500086971E+01
 0.2032862857834E+01
 0.1937071080260E+01
 0.1816174214275E+01
 0.1665605484176E+01
 0.1480088078135E+01
 0.2150610049632E+01
 0.2165966460084E+01
 0.2179672684925E+01
 0.2191497988296E+01
 0.2201055098352E+01
 0.2207833661638E+01
 0.2211216655785E+01
 0.2210485700068E+01
 0.2204819114600E+01
 0.2193285059045E+01
 0.2174830959697E+01
 0.2148269523143E+01
 0.2112260744688E+01
 0.2065288273258E+01
 0.2005627149559E+01
 0.1931298276118E+01
 0.1840003396192E+01
 0.1729033168964E+01
 0.1595135282465E+01
 0.1434345806827E+01
 0.2120755764790E+01
 0.2130251377020E+01
 0.2137492900984E+01
 0.2142158540205E+01
 0.2143795762638E+01
 0.2141864748569E+01
 0.2135764453649E+01
 0.2124849008282E+01
 0.2108439625749E+01
 0.2085835335371E+01
 0.2056324516351E+01
 0.2019198120011E+01
 0.1973764342406E+01
 0.1919363008944E+01
 0.1855375639932E+01
 0.1781223574185E+01
 0.1696341378902E+01
 0.1600108920170E+01
 0.1491731742930E+01
 0.1370073407918E+01
 0.2081669993096E+01
 0.2083606772843E+01
 0.2082516257487E+01
 0.2077952157017E+01
 0.2069376354530E+01
 0.2056213908483E+01
 0.2037889071421E+01
 0.2013853227554E+01
 0.1983611845566E+01
 0.1946755078444E+01
 0.1902995146340E+01
 0.1852212716406E+01
 0.1794513812539E+01
 0.1730298015661E+01
 0.1660337360444E+01
 0.1585862509578E+01
 0.1508646520286E+01
 0.1431062588001E+01
 0.1356081998389E+01
 0.1287190317256E+01
 0.2033961885253E+01
 0.2026856366039E+01
 0.2015807107535E+01
 0.2000208626603E+01
 0.1979422624160E+01
 0.1952842574536E+01
 0.1919937017541E+01
 0.1880286891287E+01
 0.1833626087218E+01
 0.1779891058264E+01
 0.1719283721169E+01
 0.1652351460936E+01
 0.1580088480494E+01
 0.1504063979360E+01
 0.1426584793384E+01
 0.1350903066483E+01
 0.1281482254550E+01
 0.1224329540430E+01
 0.1187339323029E+01
 0.1180505438985E+01
 0.1978379692863E+01
 0.1961012559883E+01
 0.1938671276194E+01
 0.1910559793367E+01
 0.1875938384113E+01
 0.1834190354334E+01
 0.1784866438482E+01
 0.1727726690682E+01
 0.1662790434589E+01
 0.1590400361069E+01
 0.1511305130396E+01
 0.1426764880056E+01
 0.1338685597327E+01
 0.1249791723589E+01
 0.1163852676024E+01
 0.1085990834951E+01
 0.1023120384849E+01
 0.9846103512677E+00
 0.9833409495779E+00
 0.1037049751248E+01
 0.1915800789429E+01
 0.1887263913997E+01
 0.1852638141361E+01
 0.1810917886556E+01
 0.1761284609738E+01
 0.1703161750795E+01
 0.1636250606292E+01
 0.1560569579077E+01
 0.1476506843791E+01
 0.1384890776328E+01
 0.1287080345552E+01
 0.1185077621006E+01
 0.1081666077222E+01
 0.9805817055305E+00
 0.8867305339906E+00
 0.8064794669945E+00
 0.7480784395749E+00
 0.7223406347487E+00
 0.7439457449570E+00
 0.8347486776580E+00
 0.1847219467359E+01
 0.1806957388857E+01
 0.1759434275938E+01
 0.1703442549869E+01
 0.1638144897887E+01
 0.1563097999054E+01
 0.1478267552819E+01
 0.1384056256775E+01
 0.1281351453119E+01
 0.1171591855474E+01
 0.1056849868030E+01
 0.9399250093329E+00
 0.8244433208274E+00
 0.7149566733578E+00
 0.6170341910241E+00
 0.5373361649873E+00
 0.4836536137126E+00
 0.4648738303370E+00
 0.4906397397414E+00
 0.5707580455868E+00
 0.1773732067455E+01
 0.1721568780892E+01
 0.1660935151273E+01
 0.1590477931706E+01
 0.1509458594477E+01
 0.1417725264116E+01
 0.1315693141666E+01
 0.1204354780972E+01
 0.1085319427541E+01
 0.9608715254197E+00
 0.8340355444389E+00
 0.7086319413105E+00
 0.5893047926540E+00
 0.4814932482766E+00
 0.3913043952148E+00
 0.3252184658304E+00
 0.2894849813897E+00
 0.2887594842611E+00
 0.3228606344608E+00
 0.3766970196461E+00
 0.1696506623914E+01
 0.1632621124222E+01
 0.1559030796607E+01
 0.1474365100171E+01
 0.1378180352738E+01
 0.1270851071337E+01
 0.1153497324132E+01
 0.1027969757026E+01
 0.8968736468798E+00
 0.7636055354099E+00
 0.6323741019154E+00
 0.5081734932505E+00
 0.3966690054312E+00
 0.3039410421070E+00
 0.2360165560462E+00
 0.1980912081671E+00
 0.1931601293251E+00
 0.2193528852167E+00
 0.2652136030706E+00
 0.3047615051406E+00
 0.1616731107901E+01
 0.1541589891022E+01
 0.1455529935866E+01
 0.1357364959106E+01
 0.1247225320912E+01
 0.1126300318247E+01
 0.9966845848820E+00
 0.8613196993901E+00
 0.7239778470720E+00
 0.5892343211924E+00
 0.4623796630034E+00
 0.3492206513947E+00
 0.2557135437519E+00
 0.1873705130175E+00
 0.1484049556700E+00
 0.1405361692867E+00
 0.1610339181424E+00
 0.2001492467707E+00
 0.2399215629935E+00
 0.2596545377968E+00
 0.1535649809033E+01
 0.1449995438558E+01
 0.1352285589615E+01
 0.1241801131612E+01
 0.1119582243911E+01
 0.9879104967375E+00
 0.8500375340997E+00
 0.7100586215075E+00
 0.5728201853664E+00
 0.4437780079851E+00
 0.3287402425496E+00
 0.2334423994278E+00
 0.1629134945553E+00
 0.1206417007920E+00
 0.1076258263922E+00
 0.1211185748464E+00
 0.1530881185257E+00
 0.1901019048104E+00
 0.2165219267331E+00
 0.2217718854908E+00
 0.1454557506058E+01
 0.1359394551714E+01
 0.1251125811450E+01
 0.1129887645442E+01
 0.9979825354908E+00
 0.8589685394080E+00
 0.7172533509786E+00
 0.5778942844912E+00
 0.4464212837196E+00
 0.3285667621225E+00
 0.2298433010132E+00
 0.1549408691602E+00
 0.1069658038470E+00
 0.8666838049314E-01
 0.9172839290883E-01
 0.1157930878000E+00
 0.1484348876560E+00
 0.1772317222835E+00
 0.1919014608850E+00
 0.1885819651867E+00
 0.1374727514637E+01
 0.1271232752850E+01
 0.1153636499144E+01
 0.1023452549099E+01
 0.8845653120849E+00
 0.7418231378883E+00
 0.6005435202127E+00
 0.4663096787480E+00
 0.3447488656721E+00
 0.2411808870396E+00
 0.1600953522665E+00
 0.1044930565434E+00
 0.7521103677094E-01
 0.7048257699543E-01
 0.8549123219679E-01
 0.1120984479364E+00
 0.1401748938489E+00
 0.1602287763323E+00
 0.1664571283143E+00
 0.1582727264215E+00
 0.1297353968790E+01
 0.1186694039360E+01
 0.1060950469299E+01
 0.9237192111043E+00
 0.7807007466561E+00
 0.6377743450008E+00
 0.5006722625548E+00
 0.3749029892159E+00
 0.2656016010975E+00
 0.1771326585141E+00
 0.1125451517118E+00
 0.7298376429746E-01
 0.5727476048998E-01
 0.6185855979791E-01
 0.8055533057713E-01
 0.1051041317535E+00
 0.1270032264842E+00
 0.1397110609815E+00
 0.1403752488654E+00
 0.1298307503607E+00
 0.1223516523409E+01
 0.1106550553442E+01
 0.9735898103851E+00
 0.8313154271888E+00
 0.6871723647514E+00
 0.5474507594876E+00
 0.4175021892101E+00
 0.3022181854860E+00
 0.2058355802770E+00
 0.1314916564368E+00
 0.8072482771707E-01
 0.5304641474861E-01
 0.4585672538476E-01
 0.5462277878416E-01
 0.7286109856617E-01
 0.9319481578067E-01
 0.1090624291178E+00
 0.1162592929641E+00
 0.1137319293529E+00
 0.1030924895629E+00
 0.1154233734594E+01
 0.1031037158518E+01
 0.8914025125721E+00
 0.7463966062301E+00
 0.6045981888132E+00
 0.4710000008507E+00
 0.3500706472484E+00
 0.2458687656767E+00
 0.1616123282038E+00
 0.9922250316405E-01
 0.5893498367039E-01
 0.3906890446896E-01
 0.3623100625348E-01
 0.4561523269709E-01
 0.6114760698579E-01
 0.7669139394378E-01
 0.8740113999265E-01
 0.9068852926590E-01
 0.8655060834077E-01
 0.7711117522380E-01
 0.1090593508214E+01
 0.9585372946467E+00
 0.8123578374546E+00
 0.6694196574792E+00
 0.5333607043100E+00
 0.4077420169243E+00
 0.2964410462308E+00
 0.2027759322509E+00
 0.1290191914321E+00
 0.7604517464258E-01
 0.4310604719555E-01
 0.2777221282212E-01
 0.2633634157012E-01
 0.3419978439409E-01
 0.4603533626360E-01
 0.5693359865830E-01
 0.6339615708724E-01
 0.6388766640641E-01
 0.5888981013588E-01
 0.5089051754058E-01
 0.1028520930177E+01
 0.8792616432586E+00
 0.7384659659727E+00
 0.6028440711346E+00
 0.4743564035513E+00
 0.3573014193200E+00
 0.2552802864133E+00
 0.1709305862983E+00
 0.1056599436598E+00
 0.5950903035966E-01
 0.3108512455366E-01
 0.1760159913378E-01
 0.1535192521647E-01
 0.2031310348798E-01
 0.2806628432380E-01
 0.3479639154380E-01
 0.3801833276410E-01
 0.3680857581878E-01
 0.3174774226523E-01
 0.2469485699335E-01
</DataArray>
<DataArray type="Float64" Name="OI" NumberOfComponents="1" ComponentName0="OI" format="ascii">
 0.1494379628910E+00
 0.1052495533921E+00
 0.9839920333229E-01
 0.9364277126957E-01
 0.9131239170274E-01
 0.8995310505203E-01
 0.8926545659476E-01
 0.8900223889050E-01
 0.8904350910116E-01
 0.8931067096204E-01
 0.8975607708268E-01
 0.9034989996560E-01
 0.9107482350609E-01
 0.9192244252102E-01
 0.9289119419728E-01
 0.9398502985544E-01
 0.9521258758210E-01
 0.9658667099706E-01
 0.9812397282788E-01
 0.9984499894190E-01
 0.1017741557854E+00
 0.1039402632981E+00
 0.1063773654938E+00
 0.1091263181534E+00
 0.1122380165624E+00
 0.1157798693708E+00
 0.1198574544868E+00
 0.1246461111324E+00
 0.1302410219703E+00
 0.1365611619387E+00
 0.1435053884460E+00
 0.1510402421266E+00
 0.1592096220598E+00
 0.1681698861409E+00
 0.1781902341687E+00
 0.1899221886584E+00
 0.2038241514801E+00
 0.2242453608581E+00
 0.2435675799706E+00
 0.3420212380336E+00
 0.1499140594898E+00
 0.1328530434081E+00
 0.1130390259612E+00
 0.1006376224251E+00
 0.9608306141981E-01
 0.9315058078915E-01
 0.9152260825998E-01
 0.9059439496073E-01
 0.9015154742742E-01
 0.9004566781563E-01
 0.9019179549988E-01
 0.9053508615115E-01
 0.9104131600111E-01
 0.9168967796718E-01
 0.9246903327494E-01
 0.9337550092098E-01
 0.9441096675532E-01
 0.9558212481749E-01
 0.9689986982575E-01
 0.9837894742831E-01
 0.1000378164891E+00
 0.1018986976448E+00
 0.1039880002579E+00
 0.1063370865494E+00
 0.1089837495941E+00
 0.1119751603613E+00
 0.1153742053178E+00
 0.1192745536242E+00
 0.1237834444485E+00
 0.1289424872499E+00
 0.1346982024344E+00
 0.1409707659474E+00
 0.1477147875633E+00
 0.1549414624009E+00
 0.1627215616682E+00
 0.1712406431165E+00
 0.1806660441547E+00
 0.1919058255434E+00
 0.2034662423407E+00
 0.2249811244353E+00
 0.2219420900753E+00
 0.4800873914530E-01
 0.1249186580097E+00
 0.1135213034869E+00
 0.1033285741354E+00
 0.9787785965557E-01
 0.9483147990289E-01
 0.9293962653733E-01
 0.9183148868547E-01
 0.9123090452826E-01
 0.9099495981679E-01
 0.9103010374559E-01
 0.9127784840096E-01
 0.9170039925782E-01
 0.9227423797329E-01
 0.9298589099302E-01
 0.9382941972371E-01
 0.9480479377211E-01
 0.9591684400118E-01
 0.9717458104836E-01
 0.9859078072496E-01
 0.1001817859509E+00
 0.1019674892447E+00
 0.1039716666329E+00
 0.1062226156971E+00
 0.1087543935808E+00
 0.1116092370057E+00
 0.1148426200475E+00
 0.1185254300986E+00
 0.1227204934830E+00
 0.1274396132700E+00
 0.1326339591368E+00
 0.1382300781032E+00
 0.1441678816713E+00
 0.1504135798272E+00
 0.1569668170161E+00
 0.1638172622142E+00
 0.1710340501641E+00
 0.1781335389552E+00
 0.1853274063227E+00
 0.1877624742536E+00
 0.1476205989852E+00
 0.1949526948502E-01
 0.1201444250472E+00
 0.1126402353157E+00
 0.1047794663378E+00
 0.9945553095812E-01
 0.9624399750261E-01
 0.9422282997915E-01
 0.9296598363151E-01
 0.9223798345843E-01
 0.9188814845934E-01
 0.9182343645087E-01
 0.9198261060714E-01
 0.9232583427872E-01
 0.9282753187210E-01
 0.9347235813399E-01
 0.9425258653028E-01
 0.9516643702135E-01
 0.9621696852954E-01
 0.9741134285416E-01
 0.9876035313740E-01
 0.1002781627110E+00
 0.1019822087991E+00
 0.1038934179169E+00
 0.1060366592637E+00
 0.1084416138480E+00
 0.1111445191702E+00
 0.1141900167919E+00
 0.1176266045079E+00
 0.1214862089658E+00
 0.1257596882564E+00
 0.1303939967368E+00
 0.1353121499029E+00
 0.1404335128129E+00
 0.1456803829214E+00
 0.1509583663450E+00
 0.1561355002175E+00
 0.1608701778556E+00
 0.1644887376373E+00
 0.1651116419517E+00
 0.1528302608964E+00
 0.1046817258802E+00
 0.1096511031435E-01
 0.1169312717584E+00
 0.1115548687885E+00
 0.1054484511409E+00
 0.1006582201834E+00
 0.9745065262573E-01
 0.9535540260512E-01
 0.9400018258299E-01
 0.9316965903646E-01
 0.9272365748577E-01
 0.9257017940485E-01
 0.9264814525603E-01
 0.9291666239210E-01
 0.9334888154654E-01
 0.9392802335111E-01
 0.9464485951973E-01
 0.9549603381266E-01
 0.9648293351845E-01
 0.9761091586574E-01
 0.9888878792621E-01
 0.1003284811415E+00
 0.1019448659262E+00
 0.1037558257856E+00
 0.1057824720149E+00
 0.1080495901873E+00
 0.1105863068509E+00
 0.1134251723925E+00
 0.1165950544512E+00
 0.1201048382277E+00
 0.1239286054922E+00
 0.1280049810381E+00
 0.1322471258462E+00
 0.1365514733291E+00
 0.1407920351609E+00
 0.1447956518678E+00
 0.1482684318660E+00
 0.1506428358538E+00
 0.1507659757972E+00
 0.1452111290450E+00
 0.1251101731470E+00
 0.7904969747574E-01
 0.8253873132446E-02
 0.1146277217219E+00
 0.1105408970527E+00
 0.1056992613509E+00
 0.1015183952751E+00
 0.9845523822454E-01
 0.9634714103129E-01
 0.9493295046634E-01
 0.9402606753499E-01
 0.9350049362844E-01
 0.9326950534314E-01
 0.9327367539952E-01
 0.9347229034350E-01
 0.9383789186893E-01
 0.9435271594932E-01
 0.9500631168100E-01
 0.9579392481506E-01
 0.9671537679351E-01
 0.9777427255814E-01
 0.9897743991084E-01
 0.1003345400810E+00
 0.1018577860480E+00
 0.1035618559232E+00
 0.1054638426885E+00
 0.1075831986399E+00
 0.1099412839379E+00
 0.1125586618137E+00
 0.1154474312852E+00
 0.1185983125806E+00
 0.1219710191265E+00
 0.1254938035429E+00
 0.1290668948352E+00
 0.1325619499679E+00
 0.1358087117633E+00
 0.1385561448380E+00
 0.1403841441643E+00
 0.1405355180369E+00
 0.1374163084797E+00
 0.1273628583238E+00
 0.1041311624691E+00
 0.6287529842690E-01
 0.7436807928782E-02
 0.1129077416799E+00
 0.1096598503766E+00
 0.1057348449869E+00
 0.1021183354752E+00
 0.9927266625406E-01
 0.9720695302964E-01
 0.9576769295385E-01
 0.9480806176885E-01
 0.9421882859603E-01
 0.9392116320376E-01
 0.9385889871294E-01
 0.9399246494807E-01
 0.9429444334875E-01
 0.9474649613126E-01
 0.9533722218600E-01
 0.9606064471429E-01
 0.9691512850935E-01
 0.9790258535948E-01
 0.9902788140574E-01
 0.1002983856759E+00
 0.1017235879323E+00
 0.1033148418280E+00
 0.1050850330311E+00
 0.1070480029425E+00
 0.1092171764914E+00
 0.1116018765119E+00
 0.1141999102184E+00
 0.1169871151251E+00
 0.1199105135903E+00
 0.1228873175436E+00
 0.1258035558291E+00
 0.1285071063428E+00
 0.1307874556836E+00
 0.1323285725963E+00
 0.1326166898071E+00
 0.1307450658857E+00
 0.1249600582621E+00
 0.1121188002531E+00
 0.8835566152747E-01
 0.5211242870867E-01
 0.7287647202820E-02
 0.1115859508835E+00
 0.1089133297390E+00
 0.1056636533115E+00
 0.1025331514187E+00
 0.9992938134248E-01
 0.9794529420148E-01
 0.9650971425044E-01
 0.9551787012103E-01
 0.9487960845296E-01
 0.9452551108780E-01
 0.9440393072828E-01
 0.9447725945019E-01
 0.9471867521844E-01
 0.9510964299212E-01
 0.9563806466255E-01
 0.9629691050982E-01
 0.9708319847887E-01
 0.9799721233441E-01
 0.9904188535343E-01
 0.1002222903617E+00
 0.1015451571865E+00
 0.1030184441437E+00
 0.1046507255925E+00
 0.1064501450595E+00
 0.1084223827068E+00
 0.1105665199669E+00
 0.1128681478360E+00
 0.1152906251879E+00
 0.1177697224466E+00
 0.1202118191645E+00
 0.1224891134534E+00
 0.1244281298779E+00
 0.1257848853051E+00
 0.1261952710523E+00
 0.1250819284146E+00
 0.1214705094855E+00
 0.1137038931771E+00
 0.9939625457323E-01
 0.7638773220462E-01
 0.4462259574883E-01
 0.7402406916673E-02
 0.1105477322993E+00
 0.1082862859125E+00
 0.1055435607585E+00
 0.1028195610792E+00
 0.1004544867314E+00
 0.9857493954678E-01
 0.9716545907549E-01
 0.9615878502549E-01
 0.9548449105110E-01
 0.9508342321516E-01
 0.9490927537197E-01
 0.9492704550845E-01
 0.9511096853332E-01
 0.9544263996268E-01
 0.9590949440678E-01
 0.9650360873310E-01
 0.9722076249927E-01
 0.9805968162021E-01
 0.9902140662491E-01
 0.1001087293806E+00
 0.1013256144317E+00
 0.1026766054650E+00
 0.1041659545316E+00
 0.1057961938607E+00
 0.1075656782983E+00
 0.1094643164396E+00
 0.1114672407621E+00
 0.1135272552620E+00
 0.1155702734612E+00
 0.1174927420274E+00
 0.1191545141093E+00
 0.1203645085716E+00
 0.1208540295909E+00
 0.1202283242980E+00
 0.1178812856423E+00
 0.1128588270689E+00
 0.1037453600339E+00
 0.8887513797235E-01
 0.6718105825363E-01
 0.3922278925924E-01
 0.7643193868593E-02
 0.1097179481977E+00
 0.1077605439304E+00
 0.1054054311254E+00
 0.1030176893539E+00
 0.1008745855710E+00
 0.9910974597697E-01
 0.9774221963465E-01
 0.9673483032063E-01
 0.9603572551601E-01
 0.9559621567964E-01
 0.9537577934309E-01
 0.9534246554529E-01
 0.9547192581362E-01
 0.9574615908424E-01
 0.9615233436496E-01
 0.9668178174301E-01
 0.9732914769926E-01
 0.9809167465759E-01
 0.9896856169635E-01
 0.9996035473053E-01
 0.1010682798759E+00
 0.1022934996671E+00
 0.1036360224676E+00
 0.1050929929812E+00
 0.1066559936469E+00
 0.1083068201671E+00
 0.1100116751771E+00
 0.1117144658182E+00
 0.1133326909080E+00
 0.1147542701834E+00
 0.1158289940568E+00
 0.1163529043138E+00
 0.1160420600337E+00
 0.1144887479152E+00
 0.1110936592612E+00
 0.1049886246999E+00
 0.9504837631285E-01
 0.8018918729716E-01
 0.5999451645931E-01
 0.3522480954918E-01
 0.7960325543529E-02
 0.1090451637390E+00
 0.1073190956918E+00
 0.1052655002502E+00
 0.1031552110954E+00
 0.1012119635731E+00
 0.9956329433056E-01
 0.9824773347681E-01
 0.9725051350940E-01
 0.9653600686206E-01
 0.9606557035272E-01
 0.9580458350303E-01
 0.9572440151820E-01
 0.9580234879576E-01
 0.9602104344828E-01
 0.9636755975375E-01
 0.9683261277721E-01
 0.9740981669775E-01
 0.9809500814433E-01
 0.9888560680079E-01
 0.9977996715532E-01
 0.1007766354527E+00
 0.1018734771622E+00
 0.1030664136212E+00
 0.1043475251060E+00
 0.1057022454961E+00
 0.1071052796191E+00
 0.1085152675954E+00
 0.1098687291074E+00
 0.1110762581524E+00
 0.1120190052567E+00
 0.1125395103589E+00
 0.1124261424715E+00
 0.1113891766566E+00
 0.1090248739644E+00
 0.1047704345087E+00
 0.9788005212163E-01
 0.8750864526978E-01
 0.7300230845497E-01
 0.5430927317686E-01
 0.3220795456675E-01
 0.8333603548834E-02
 0.1084929729155E+00
 0.1069472741004E+00
 0.1051319778295E+00
 0.1032510346620E+00
 0.1014844712866E+00
 0.9994802484735E-01
 0.9868975103125E-01
 0.9771060897323E-01
 0.9698834009010E-01
 0.9649345572716E-01
 0.9619707377859E-01
 0.9607394208445E-01
 0.9610321495778E-01
 0.9626828865047E-01
 0.9655628184427E-01
 0.9695741027150E-01
 0.9746435103457E-01
 0.9807161518410E-01
 0.9877491509908E-01
 0.9957048694096E-01
 0.1004542854723E+00
 0.1014210085986E+00
 0.1024627101335E+00
 0.1035667959848E+00
 0.1047132072194E+00
 0.1058705329417E+00
 0.1069911022744E+00
 0.1080054665576E+00
 0.1088188759535E+00
 0.1093076860211E+00
 0.1093102646007E+00
 0.1086125563805E+00
 0.1069279374348E+00
 0.1038712324050E+00
 0.9893653356940E-01
 0.9151242117104E-01
 0.8099567374988E-01
 0.6703134067579E-01
 0.4975957395447E-01
 0.2990288349204E-01
 0.8752953655881E-02
 0.1080349108163E+00
 0.1066328475559E+00
 0.1050086417645E+00
 0.1033180473822E+00
 0.1017060731395E+00
 0.1002748506826E+00
 0.9907568904306E-01
 0.9811996246103E-01
 0.9739591900115E-01
 0.9688205038044E-01
 0.9655483229230E-01
 0.9639234933138E-01
 0.9637565327186E-01
 0.9648902353003E-01
 0.9671973110117E-01
 0.9705759161248E-01
 0.9749443409135E-01
 0.9802352595843E-01
 0.9863895341054E-01
 0.9933492437769E-01
 0.1001049172484E+00
 0.1009406301283E+00
 0.1018305160617E+00
 0.1027577381675E+00
 0.1036974080800E+00
 0.1046129257425E+00
 0.1054514721221E+00
 0.1061389821535E+00
 0.1065769395596E+00
 0.1066389694513E+00
 0.1061623778903E+00
 0.1049356375641E+00
 0.1026829776031E+00
 0.9904884971626E-01
 0.9359512983277E-01
 0.8584040295990E-01
 0.7537624094642E-01
 0.6204654518876E-01
 0.4608364795826E-01
 0.2812986846954E-01
 0.9212270943910E-02
 0.1076513157563E+00
 0.1063657637357E+00
 0.1048968330686E+00
 0.1033650392280E+00
 0.1018875643752E+00
 0.1005530873060E+00
 0.9941240811631E-01
 0.9848332920872E-01
 0.9776202067622E-01
 0.9723367292143E-01
 0.9687959056120E-01
 0.9668102621069E-01
 0.9662092005381E-01
 0.9668449079394E-01
 0.9685924014772E-01
 0.9713466669994E-01
 0.9750183381887E-01
 0.9795284821213E-01
 0.9848025881243E-01
 0.9907635028835E-01
 0.9973226245331E-01
 0.1004368916352E+00
 0.1011753898127E+00
 0.1019271310864E+00
 0.1026630531173E+00
 0.1033422443590E+00
 0.1039078252349E+00
 0.1042824017178E+00
 0.1043652418303E+00
 0.1040292815434E+00
 0.1031137172877E+00
 0.1014139353499E+00
 0.9867121052797E-01
 0.9456678859428E-01
 0.8873342791395E-01
 0.8080614227040E-01
 0.7052598352365E-01
 0.5786434918399E-01
 0.4309058747512E-01
 0.2676450942813E-01
 0.9707666226877E-02
 0.1073273148947E+00
 0.1061378111809E+00
 0.1047965798454E+00
 0.1033980184905E+00
 0.1020372497204E+00
 0.1007905532631E+00
 0.9970610165530E-01
 0.9880525421717E-01
 0.9808991731075E-01
 0.9755072005812E-01
 0.9717318608772E-01
 0.9694148535974E-01
 0.9684037535234E-01
 0.9685602780767E-01
 0.9697622675525E-01
 0.9719022149351E-01
 0.9748838546639E-01
 0.9786174781830E-01
 0.9830141550629E-01
 0.9879786725690E-01
 0.9934006024387E-01
 0.9991430926769E-01
 0.1005027855087E+00
 0.1010815354137E+00
 0.1016179596119E+00
 0.1020676627714E+00
 0.1023707213095E+00
 0.1024476267018E+00
 0.1021969110316E+00
 0.1014927442022E+00
 0.1001788616219E+00
 0.9806118854322E-01
 0.9490248230412E-01
 0.9042435376389E-01
 0.8432801343930E-01
 0.7634738557846E-01
 0.6633410889254E-01
 0.5433855396625E-01
 0.4063821037822E-01
 0.2571774784614E-01
 0.1023713260371E-01
 0.1070514873063E+00
 0.1059422946046E+00
 0.1047072362999E+00
 0.1034211037730E+00
 0.1021615155382E+00
 0.1009937462274E+00
 0.9996226618999E-01
 0.9908999421347E-01
 0.9838280651836E-01
 0.9783561342753E-01
 0.9743752300016E-01
 0.9717531967404E-01
 0.9703546004368E-01
 0.9700504762361E-01
 0.9707217689512E-01
 0.9722590160938E-01
 0.9745597446250E-01
 0.9775242971766E-01
 0.9810503246589E-01
 0.9850258239535E-01
 0.9893202339478E-01
 0.9937732367772E-01
 0.9981800406050E-01
 0.1002272411823E+00
 0.1005695092647E+00
 0.1007977046431E+00
 0.1008498036409E+00
 0.1006453111929E+00
 0.1000833920601E+00
 0.9904118125508E-01
 0.9736919730402E-01
 0.9488666725269E-01
 0.9138054578596E-01
 0.8661345296827E-01
 0.8034919811581E-01
 0.7240251820873E-01
 0.6270446064741E-01
 0.5135236399915E-01
 0.3861810487977E-01
 0.2492342697447E-01
 0.1080062199410E-01
 0.1068149514982E+00
 0.1057737537997E+00
 0.1046278467148E+00
 0.1034371278180E+00
 0.1022652863737E+00
 0.1011680391802E+00
 0.1001857237943E+00
 0.9934147528351E-01
 0.9864376009853E-01
 0.9809075580460E-01
 0.9767453752806E-01
 0.9738417536089E-01
 0.9720767423227E-01
 0.9713302074592E-01
 0.9714862827228E-01
 0.9724339632545E-01
 0.9740651976053E-01
 0.9762711951354E-01
 0.9789372213210E-01
 0.9819358190525E-01
 0.9851180760546E-01
 0.9883026370343E-01
 0.9912615266590E-01
 0.9937022705722E-01
 0.9952461285423E-01
 0.9954021805244E-01
 0.9935378566020E-01
 0.9888486111389E-01
 0.9803446675435E-01
 0.9668419048803E-01
 0.9469311700092E-01
 0.9189566314261E-01
 0.8810417333862E-01
 0.8312077235136E-01
 0.7676426436613E-01
 0.6891341607853E-01
 0.5955480950540E-01
 0.4881194511817E-01
 0.3694535639164E-01
 0.2432957639216E-01
 0.1140004211697E-01
 0.1066107273444E+00
 0.1056277307632E+00
 0.1045573511046E+00
 0.1034480469548E+00
 0.1023523787285E+00
 0.1013178682716E+00
 0.1003806735769E+00
 0.9956327769091E-01
 0.9887568941900E-01
 0.9831849643972E-01
 0.9788616844118E-01
 0.9756972768889E-01
 0.9735855714374E-01
 0.9724145777932E-01
 0.9720715446753E-01
 0.9724442312445E-01
 0.9734195780661E-01
 0.9748804593644E-01
 0.9767008045088E-01
 0.9787390781700E-01
 0.9808298436878E-01
 0.9827731564730E-01
 0.9843211233779E-01
 0.9851612980997E-01
 0.9848968647045E-01
 0.9830236292700E-01
 0.9789045310450E-01
 0.9717445652577E-01
 0.9605831106250E-01
 0.9442927216621E-01
 0.9215629700373E-01
 0.8909006666324E-01
 0.8506826977018E-01
 0.7992961881939E-01
 0.7353973839874E-01
 0.6582688394023E-01
 0.5681536019520E-01
 0.4664162366320E-01
 0.3555167738274E-01
 0.2389093419003E-01
 0.1203782331646E-01
 0.1064332801952E+00
 0.1055005808946E+00
 0.1044946986030E+00
 0.1034552196041E+00
 0.1024257708142E+00
 0.1014468998054E+00
 0.1005507564060E+00
 0.9975863966907E-01
 0.9908132470538E-01
 0.9852110485369E-01
 0.9807433239471E-01
 0.9773365956718E-01
 0.9748966868353E-01
 0.9733189312739E-01
 0.9724934984237E-01
 0.9723071292682E-01
 0.9726422729316E-01
 0.9733742436527E-01
 0.9743666847094E-01
 0.9754653712807E-01
 0.9764901752703E-01
 0.9772249798617E-01
 0.9774051282861E-01
 0.9767022294719E-01
 0.9747063824925E-01
 0.9709061048230E-01
 0.9646668130385E-01
 0.9552109536344E-01
 0.9416158371122E-01
 0.9228200090726E-01
 0.8976202537869E-01
 0.8646897066941E-01
 0.8226489900728E-01
 0.7702137625660E-01
 0.7064292898258E-01
 0.6309510935029E-01
 0.5442732195760E-01
 0.4477957660881E-01
 0.3438346964789E-01
 0.2355891575997E-01
 0.1271344046825E-01
 0.1062781877720E+00
 0.1053893231689E+00
 0.1044389051833E+00
 0.1034595973110E+00
 0.1024878059748E+00
 0.1015581726625E+00
 0.1006991227954E+00
 0.9993047333657E-01
 0.9926320523298E-01
 0.9870075207199E-01
 0.9824090391263E-01
 0.9787764295789E-01
 0.9760257275615E-01
 0.9740586985833E-01
 0.9727681532800E-01
 0.9720399613769E-01
 0.9717525483039E-01
 0.9717744155008E-01
 0.9719599565135E-01
 0.9721436345739E-01
 0.9721324350523E-01
 0.9716964123716E-01
 0.9705571430840E-01
 0.9683740354705E-01
 0.9647286458892E-01
 0.9591075370297E-01
 0.9508846629371E-01
 0.9393065576571E-01
 0.9234953966431E-01
 0.9024622729511E-01
 0.8751155285091E-01
 0.8402925823701E-01
 0.7968416535606E-01
 0.7437663928258E-01
 0.6804278924304E-01
 0.6067592179236E-01
 0.5234054315593E-01
 0.4317730492495E-01
 0.3339331786048E-01
 0.2330256938370E-01
 0.1333665113587E-01
 0.1061421037829E+00
 0.1052916473579E+00
 0.1043892520735E+00
 0.1034619851822E+00
 0.1025404264815E+00
 0.1016542268279E+00
 0.1008284333643E+00
 0.1000812508462E+00
 0.9942348110965E-01
 0.9885926020401E-01
 0.9838744380626E-01
 0.9800307709788E-01
 0.9769861787400E-01
 0.9746479820923E-01
 0.9729113430749E-01
 0.9716614038056E-01
 0.9707730508736E-01
 0.9701087600471E-01
 0.9695147695576E-01
 0.9688156729711E-01
 0.9678074256905E-01
 0.9662486064958E-01
 0.9638499515803E-01
 0.9602622163731E-01
 0.9550625856283E-01
 0.9477403958932E-01
 0.9376832735103E-01
 0.9241670941511E-01
 0.9063637788174E-01
 0.8833604989670E-01
 0.8541772155762E-01
 0.8178081074802E-01
 0.7733075303633E-01
 0.7199244042036E-01
 0.6572704459659E-01
 0.5854753483939E-01
 0.5052785499452E-01
 0.4180117729120E-01
 0.3256703625506E-01
 0.2305701004385E-01
 0.1387393455324E-01
 0.1060217730560E+00
 0.1052053280060E+00
 0.1043447150332E+00
 0.1034626573584E+00
 0.1025849603804E+00
 0.1017370637888E+00
 0.1009409839788E+00
 0.1002132844357E+00
 0.9956432795155E-01
 0.9899861748356E-01
 0.9851576698063E-01
 0.9811165088076E-01
 0.9777942738632E-01
 0.9751029900565E-01
 0.9729398599620E-01
 0.9711894049976E-01
 0.9697234183721E-01
 0.9683990973355E-01
 0.9670555732851E-01
 0.9655089485564E-01
 0.9635459043808E-01
 0.9609157336273E-01
 0.9573210006184E-01
 0.9524069688560E-01
 0.9457500709024E-01
 0.9368463889378E-01
 0.9251013387104E-01
 0.9098240268081E-01
 0.8902391771578E-01
 0.8655111769255E-01
 0.8347686803510E-01
 0.7971520149500E-01
 0.7518984246629E-01
 0.6984623457606E-01
 0.6366502007397E-01
 0.5667317144706E-01
 0.4894831264756E-01
 0.4061902930271E-01
 0.3185359408857E-01
 0.2290493480349E-01
 0.1387303172210E-01
 0.1059150542675E+00
 0.1051287684158E+00
 0.1043046939907E+00
 0.1034620418109E+00
 0.1026227195484E+00
 0.1018086023904E+00
 0.1010390099665E+00
 0.1003288945542E+00
 0.9968800664050E-01
 0.9912095713410E-01
 0.9862786252337E-01
 0.9820522016992E-01
 0.9784674501239E-01
 0.9754402478066E-01
 0.9728694702687E-01
 0.9706390388859E-01
 0.9686179939022E-01
 0.9666588782940E-01
 0.9645946185099E-01
 0.9622340226103E-01
 0.9593560214895E-01
 0.9557025099924E-01
 0.9509701572588E-01
 0.9448013960680E-01
 0.9367749045750E-01
 0.9263967279120E-01
 0.9130932887558E-01
 0.8962097501299E-01
 0.8750254583246E-01
 0.8487817652559E-01
 0.8167117723533E-01
 0.7780907248446E-01
 0.7323171166471E-01
 0.6790166461050E-01
 0.6181475283861E-01
 0.5500738574195E-01
 0.4755893083738E-01
 0.3958734347691E-01
 0.3125154014435E-01
 0.2271697170841E-01
 0.1409284615678E-01
 0.1058200581053E+00
 0.1050606256955E+00
 0.1042686208668E+00
 0.1034604121539E+00
 0.1026547000810E+00
 0.1018703443805E+00
 0.1011242800802E+00
 0.1004299214098E+00
 0.9979630381370E-01
 0.9922795560471E-01
 0.9872529108568E-01
 0.9828525569537E-01
 0.9790199366220E-01
 0.9756739916849E-01
 0.9727149128116E-01
 0.9700260241041E-01
 0.9674739212623E-01
 0.9649070750278E-01
 0.9621530531718E-01
 0.9590144884543E-01
 0.9552639707566E-01
 0.9506377154991E-01
 0.9448285277597E-01
 0.9374783257512E-01
 0.9281705618371E-01
 0.9164238399885E-01
 0.9016879983260E-01
 0.8833460467736E-01
 0.8607324832449E-01
 0.8331638560820E-01
 0.7999719070676E-01
 0.7605545619596E-01
 0.7144505240505E-01
 0.6614267133193E-01
 0.6015571990508E-01
 0.5352705554354E-01
 0.4633486257315E-01
 0.3868986653225E-01
 0.3072723863922E-01
 0.2258163316031E-01
 0.1436753572315E-01
 0.1057352488155E+00
 0.1049997960422E+00
 0.1042360220079E+00
 0.1034579838371E+00
 0.1026817313283E+00
 0.1019235699368E+00
 0.1011983368586E+00
 0.1005180061864E+00
 0.9989084718521E-01
 0.9932116978626E-01
 0.9880952553120E-01
 0.9835316260943E-01
 0.9794654387047E-01
 0.9758179899008E-01
 0.9724904504203E-01
 0.9693655406534E-01
 0.9663076917408E-01
 0.9631618406697E-01
 0.9597509815782E-01
 0.9558726040601E-01
 0.9512942413248E-01
 0.9457479688394E-01
 0.9389245069235E-01
 0.9304672310277E-01
 0.9199664387417E-01
 0.9069552954542E-01
 0.8909087104715E-01
 0.8712484000652E-01
 0.8473634416833E-01
 0.8186426145124E-01
 0.7845094471103E-01
 0.7444719531528E-01
 0.6981893983264E-01
 0.6455437384680E-01
 0.5866970165029E-01
 0.5221172424388E-01
 0.4525679736432E-01
 0.3790674895823E-01
 0.3027941427661E-01
 0.2249517112160E-01
 0.1467271972717E-01
 0.1056593757566E+00
 0.1049453756736E+00
 0.1042065058999E+00
 0.1034549343233E+00
 0.1027045116455E+00
 0.1019693769917E+00
 0.1012625289307E+00
 0.1005946123105E+00
 0.9997311614957E-01
 0.9940203957550E-01
 0.9888194833914E-01
 0.9841027497898E-01
 0.9798170683856E-01
 0.9758854668468E-01
 0.9722097926416E-01
 0.9686721534951E-01
 0.9651350705545E-01
 0.9614404412087E-01
 0.9574074057605E-01
 0.9528292496734E-01
 0.9474696019172E-01
 0.9410577529193E-01
 0.9332838645453E-01
 0.9237944032913E-01
 0.9121881434047E-01
 0.8980142570283E-01
 0.8807736926843E-01
 0.8599269143447E-01
 0.8349160934667E-01
 0.8051983759949E-01
 0.7702815974418E-01
 0.7297714491273E-01
 0.6834297983731E-01
 0.6312315797372E-01
 0.5734043326475E-01
 0.5104394573147E-01
 0.4430742287429E-01
 0.3722451626415E-01
 0.2990133870169E-01
 0.2245020319042E-01
 0.1498997988603E-01
 0.1055914202021E+00
 0.1048966265936E+00
 0.1041797528301E+00
 0.1034514156802E+00
 0.1027236355106E+00
 0.1020087122854E+00
 0.1013180380323E+00
 0.1006610443311E+00
 0.1000444521305E+00
 0.9947189130015E-01
 0.9894385026652E-01
 0.9845785155334E-01
 0.9800872862984E-01
 0.9758890376333E-01
 0.9718860278051E-01
 0.9679597452983E-01
 0.9639710329159E-01
 0.9597591980649E-01
 0.9551401792428E-01
 0.9499038998467E-01
 0.9438111014127E-01
 0.9365894581571E-01
 0.9279298500446E-01
 0.9174831416366E-01
 0.9048577990448E-01
 0.8896199311002E-01
 0.8712968763834E-01
 0.8493871846093E-01
 0.8233839019342E-01
 0.7928080400270E-01
 0.7572439858587E-01
 0.7163832241158E-01
 0.6700742060041E-01
 0.6183663521683E-01
 0.5615355049656E-01
 0.5000849008862E-01
 0.4347225068794E-01
 0.3663173903526E-01
 0.2958491000140E-01
 0.2243815003428E-01
 0.1530736727961E-01
 0.1055305529707E+00
 0.1048529480695E+00
 0.1041555051687E+00
 0.1034475627690E+00
 0.1027396138530E+00
 0.1020423960144E+00
 0.1013659014502E+00
 0.1007184644761E+00
 0.1001060683584E+00
 0.9953194161864E-01
 0.9899642994294E-01
 0.9849707257322E-01
 0.9802878536064E-01
 0.9758406517688E-01
 0.9715315636553E-01
 0.9672414576406E-01
 0.9628297089709E-01
 0.9581334404518E-01
 0.9529659718963E-01
 0.9471146080274E-01
 0.9403380832731E-01
 0.9323634402750E-01
 0.9228833109525E-01
 0.9115539534144E-01
 0.8979943521042E-01
 0.8817880126999E-01
 0.8624884700662E-01
 0.8396311062281E-01
 0.8127570528393E-01
 0.7814462741653E-01
 0.7453519426789E-01
 0.7042402257831E-01
 0.6580320818867E-01
 0.6068362042657E-01
 0.5509635982221E-01
 0.4909215246550E-01
 0.4273894293787E-01
 0.3611823852927E-01
 0.2932189483735E-01
 0.2245107664652E-01
 0.1561684809047E-01
 0.1054761001989E+00
 0.1048138529348E+00
 0.1041335582760E+00
 0.1034434983485E+00
 0.1027528892515E+00
 0.1020711413038E+00
 0.1014070305396E+00
 0.1007679069569E+00
 0.1001590588427E+00
 0.9958330156433E-01
 0.9904079410063E-01
 0.9852903740084E-01
 0.9804297924566E-01
 0.9757515452354E-01
 0.9711580763266E-01
 0.9665296408726E-01
 0.9617243381843E-01
 0.9565774684175E-01
 0.9509002470502E-01
 0.9444780051176E-01
 0.9370682154750E-01
 0.9283980944975E-01
 0.9181628274785E-01
 0.9060247684948E-01
 0.8916138884528E-01
 0.8745311277724E-01
 0.8543555510088E-01
 0.8306576323768E-01
 0.8030233751040E-01
 0.7710865545314E-01
 0.7345615517655E-01
 0.6932790111948E-01
 0.6472202026897E-01
 0.5965407097270E-01
 0.5415767750990E-01
 0.4828348272316E-01
 0.4209683442007E-01
 0.3567488616808E-01
 0.2910458138838E-01
 0.2248214569034E-01
 0.1591296928729E-01
 0.1054275155449E+00
 0.1047789478947E+00
 0.1041137521920E+00
 0.1034393360685E+00
 0.1027638473072E+00
 0.1020955695939E+00
 0.1014422259643E+00
 0.1008102902436E+00
 0.1002044064848E+00
 0.9962698056984E-01
 0.9907795826684E-01
 0.9855476283140E-01
 0.9805233539262E-01
 0.9756322000904E-01
 0.9707764667599E-01
 0.9658358114767E-01
 0.9606672315035E-01
 0.9551045241535E-01
 0.9489572474422E-01
 0.9420093073103E-01
 0.9340175296951E-01
 0.9247099380736E-01
 0.9137848529790E-01
 0.9009111547210E-01
 0.8857299426482E-01
 0.8678592553126E-01
 0.8469026162729E-01
 0.8224634604159E-01
 0.7941691480011E-01
 0.7617020414249E-01
 0.7248304795414E-01
 0.6834403401115E-01
 0.6375627538059E-01
 0.5873902030230E-01
 0.5332767943376E-01
 0.4757253434229E-01
 0.4153663707298E-01
 0.3529355363313E-01
 0.2892604841240E-01
 0.2252564590067E-01
 0.1619193548600E-01
 0.1053843574658E+00
 0.1047479171117E+00
 0.1040959641406E+00
 0.1034351820031E+00
 0.1027728251245E+00
 0.1021162227735E+00
 0.1014721901835E+00
 0.1008464275060E+00
 0.1002429902966E+00
 0.9966389032217E-01
 0.9910884774636E-01
 0.9857518193555E-01
 0.9805779923069E-01
 0.9754923107445E-01
 0.9703968239053E-01
 0.9651706163443E-01
 0.9596697406836E-01
 0.9537267707960E-01
 0.9471499889640E-01
 0.9397223317858E-01
 0.9312004678731E-01
 0.9213136987310E-01
 0.9097638573998E-01
 0.8962265311378E-01
 0.8803537965279E-01
 0.8617801257887E-01
 0.8401320907220E-01
 0.8150436481484E-01
 0.7861798031509E-01
 0.7532663090343E-01
 0.7161186235201E-01
 0.6746695749940E-01
 0.6289912727698E-01
 0.5793050981915E-01
 0.5259776241633E-01
 0.4695066195045E-01
 0.4105025285187E-01
 0.3496707773168E-01
 0.2878023856858E-01
 0.2257686283988E-01
 0.1645102455514E-01
 0.1053462705805E+00
 0.1047205085095E+00
 0.1040801018554E+00
 0.1034311352097E+00
 0.1027801176150E+00
 0.1021335727371E+00
 0.1014975376500E+00
 0.1008770354390E+00
 0.1002755917472E+00
 0.9969484836436E-01
 0.9913429877239E-01
 0.9859114331397E-01
 0.9806023446972E-01
 0.9753407560195E-01
 0.9700283938447E-01
 0.9645438030003E-01
 0.9587422335545E-01
 0.9524552771050E-01
 0.9454902600431E-01
 0.9376295174212E-01
 0.9286299324926E-01
 0.9182224044934E-01
 0.9061124681690E-01
 0.8919823725517E-01
 0.8754947599783E-01
 0.8562995885286E-01
 0.8340447856435E-01
 0.8083921565510E-01
 0.7790405237812E-01
 0.7457539422001E-01
 0.7083886061373E-01
 0.6669169294125E-01
 0.6214444944915E-01
 0.5722152138343E-01
 0.5196042207724E-01
 0.4641036410363E-01
 0.4063064272660E-01
 0.3468921221240E-01
 0.2866193438278E-01
 0.2263191855205E-01
 0.1668822528195E-01
 0.1053129703613E+00
 0.1046965223515E+00
 0.1040660977094E+00
 0.1034272876597E+00
 0.1027859821684E+00
 0.1021480289043E+00
 0.1015188031137E+00
 0.1009027416708E+00
 0.1003029002751E+00
 0.9972058138267E-01
 0.9915505972341E-01
 0.9860341065776E-01
 0.9806042149802E-01
 0.9751855762428E-01
 0.9696795542427E-01
 0.9639641952738E-01
 0.9578940747553E-01
 0.9513000075082E-01
 0.9439886260571E-01
 0.9357419497814E-01
 0.9263173397085E-01
 0.9154474738817E-01
 0.9028416075462E-01
 0.8881884046161E-01
 0.8711604336349E-01
 0.8514219490628E-01
 0.8286403113801E-01
 0.8025023265950E-01
 0.7727367556347E-01
 0.7391410241593E-01
 0.7016061492600E-01
 0.6601376115141E-01
 0.6148681448347E-01
 0.5660591411764E-01
 0.5140914949264E-01
 0.4594516114846E-01
 0.4027172558406E-01
 0.3445456736158E-01
 0.2856669311074E-01
 0.2268762610879E-01
 0.1690201068692E-01
 0.1052842305359E+00
 0.1046758017204E+00
 0.1040539035933E+00
 0.1034237237725E+00
 0.1027906420842E+00
 0.1021599441122E+00
 0.1015364483435E+00
 0.1009240909332E+00
 0.1003255180215E+00
 0.9974172814859E-01
 0.9917179233524E-01
 0.9861266253443E-01
 0.9805905614403E-01
 0.9750339547243E-01
 0.9693577935238E-01
 0.9634396737991E-01
 0.9571336112174E-01
 0.9502698166044E-01
 0.9426544376019E-01
 0.9340693888720E-01
 0.9242726734179E-01
 0.9129988042053E-01
 0.8999606238044E-01
 0.8848527866502E-01
 0.8673569509030E-01
 0.8471502746233E-01
 0.8239174440221E-01
 0.7973672935904E-01
 0.7672546383088E-01
 0.7334055313502E-01
 0.6957403538248E-01
 0.6542918930069E-01
 0.6092147111660E-01
 0.5607836741459E-01
 0.5093834525130E-01
 0.4554949845638E-01
 0.3996829454839E-01
 0.3425854414733E-01
 0.2849077013905E-01
 0.2274137030700E-01
 0.1709119680522E-01
 0.1052598727535E+00
 0.1046582246185E+00
 0.1040434865007E+00
 0.1034205197327E+00
 0.1027942890769E+00
 0.1021696192183E+00
 0.1015508675453E+00
 0.1009415501622E+00
 0.1003439638489E+00
 0.9975884210873E-01
 0.9918507285952E-01
 0.9861949233360E-01
 0.9805674873217E-01
 0.9748922029080E-01
 0.9690696940271E-01
 0.9629771604792E-01
 0.9564681613253E-01
 0.9493724467514E-01
 0.9414958408484E-01
 0.9326202974177E-01
 0.9225045375089E-01
 0.9108848546407E-01
 0.8974774124601E-01
 0.8819822780951E-01
 0.8640891952305E-01
 0.8434866643609E-01
 0.8198744442936E-01
 0.7929803400742E-01
 0.7625813624865E-01
 0.7285276465306E-01
 0.6907639018734E-01
 0.6493451241917E-01
 0.6044432076281E-01
 0.5563433068677E-01
 0.5054324825007E-01
 0.4521866803186E-01
 0.3971594527282E-01
 0.3409726919382E-01
 0.2843104497076E-01
 0.2279101472808E-01
 0.1725485330798E-01
 0.1052397581653E+00
 0.1046436974651E+00
 0.1040348247810E+00
 0.1034177427174E+00
 0.1027970850919E+00
 0.1021773066767E+00
 0.1015623916953E+00
 0.1009555126727E+00
 0.1003586767079E+00
 0.9977239362045E-01
 0.9919539312892E-01
 0.9862440831686E-01
 0.9805402337464E-01
 0.9747657486501E-01
 0.9688209186211E-01
 0.9625826064040E-01
 0.9559040072100E-01
 0.9486145281189E-01
 0.9405197892550E-01
 0.9314018688020E-01
 0.9210202053104E-01
 0.9091127230595E-01
 0.8953985265799E-01
 0.8795823879370E-01
 0.8613609926536E-01
 0.8404324855928E-01
 0.8165093320844E-01
 0.7893351939056E-01
 0.7587054640570E-01
 0.7244900063093E-01
 0.6866532016605E-01
 0.6452677174059E-01
 0.6005189534946E-01
 0.5526998036490E-01
 0.5021987726644E-01
 0.4494874451398E-01
 0.3951101444493E-01
 0.3396753500898E-01
 0.2838495605005E-01
 0.2283483076729E-01
 0.1739224706512E-01
 0.1052237806126E+00
 0.1046321497968E+00
 0.1040279049984E+00
 0.1034154501079E+00
 0.1027991635958E+00
 0.1021832132821E+00
 0.1015712919587E+00
 0.1009663015212E+00
 0.1003700184062E+00
 0.9978277183840E-01
 0.9920316150312E-01
 0.9862783372987E-01
 0.9805131745115E-01
 0.9746591271137E-01
 0.9686162002324E-01
 0.9622609825876E-01
 0.9554463893929E-01
 0.9480015802074E-01
 0.9397320553593E-01
 0.9304200530684E-01
 0.9198256642847E-01
 0.9076882143124E-01
 0.8937292736185E-01
 0.8776575044727E-01
 0.8591752772260E-01
 0.8379885744151E-01
 0.8138201163792E-01
 0.7864262735813E-01
 0.7556170602293E-01
 0.7212778916819E-01
 0.6833884871818E-01
 0.6420351103333E-01
 0.5974133712570E-01
 0.5498218364108E-01
 0.4996498317244E-01
 0.4473653273148E-01
 0.3935052756377E-01
 0.3386674773287E-01
 0.2835044619382E-01
 0.2287144460567E-01
 0.1750280468280E-01
 0.1052118612520E+00
 0.1046235300510E+00
 0.1040227193842E+00
 0.1034136887708E+00
 0.1028006304916E+00
 0.1021875022555E+00
 0.1015777823498E+00
 0.1009741721675E+00
 0.1003782758375E+00
 0.9979028626555E-01
 0.9920870367730E-01
 0.9863010694056E-01
 0.9804898123199E-01
 0.9745759737981E-01
 0.9684593337711E-01
 0.9620162729638E-01
 0.9550995031436E-01
 0.9475380140927E-01
 0.9391372417794E-01
 0.9296795799716E-01
 0.9189256548406E-01
 0.9066158987907E-01
 0.8924737976710E-01
 0.8762110045776E-01
 0.8575342290946E-01
 0.8361554015191E-01
 0.8118049831013E-01
 0.7842488856485E-01
 0.7533080354636E-01
 0.7188793724598E-01
 0.6809538851468E-01
 0.6396277218475E-01
 0.5951038125459E-01
 0.5476846883828E-01
 0.4977601063775E-01
 0.4457952545772E-01
 0.3923215587563E-01
 0.3379288360771E-01
 0.2832591892082E-01
 0.2289979781112E-01
 0.1758608903803E-01
 0.1052039444207E+00
 0.1046178023064E+00
 0.1040192638318E+00
 0.1034124944342E+00
 0.1028015647435E+00
 0.1021902947774E+00
 0.1015820217324E+00
 0.1009793145076E+00
 0.1003836627080E+00
 0.9979516797521E-01
 0.9921226333921E-01
 0.9863148157870E-01
 0.9804727761652E-01
 0.9745190194332E-01
 0.9683531702106E-01
 0.9618514694094E-01
 0.9548664963191E-01
 0.9472271351390E-01
 0.9387387911331E-01
 0.9291839787570E-01
 0.9183237029284E-01
 0.9058991609702E-01
 0.8916351469996E-01
 0.8752453426646E-01
 0.8564393860065E-01
 0.8349332049542E-01
 0.8104624440306E-01
 0.7827993792803E-01
 0.7517721845320E-01
 0.7172854150557E-01
 0.6793374600345E-01
 0.6380309099723E-01
 0.5935734171550E-01
 0.5462700221589E-01
 0.4965106847826E-01
 0.4447587050137E-01
 0.3915418230968E-01
 0.3374445451025E-01
 0.2831020487226E-01
 0.2291911898404E-01
 0.1764178339641E-01
 0.1051999946353E+00
 0.1046149439068E+00
 0.1040175364161E+00
 0.1034118911986E+00
 0.1028020187897E+00
 0.1021916710673E+00
 0.1015841152509E+00
 0.1009818543449E+00
 0.1003863208003E+00
 0.9979757051750E-01
 0.9921400266796E-01
 0.9863212665677E-01
 0.9804638195845E-01
 0.9744900863894E-01
 0.9682996124026E-01
 0.9617685682909E-01
 0.9547494680577E-01
 0.9470711454008E-01
 0.9385389939059E-01
 0.9289355934837E-01
 0.9180221450171E-01
 0.9055402363492E-01
 0.8912153251247E-01
 0.8747621176313E-01
 0.8558917267540E-01
 0.8343220888459E-01
 0.8097914466694E-01
 0.7820752591217E-01
 0.7510053153208E-01
 0.7164899576335E-01
 0.6785312418317E-01
 0.6372349354699E-01
 0.5928110053497E-01
 0.5455657075065E-01
 0.4958890783808E-01
 0.4442434640198E-01
 0.3911547612576E-01
 0.3372048238510E-01
 0.2830253754205E-01
 0.2292890408722E-01
 0.1766968145764E-01
 0.1051999946365E+00
 0.1046149439080E+00
 0.1040175364174E+00
 0.1034118911998E+00
 0.1028020187909E+00
 0.1021916710685E+00
 0.1015841152520E+00
 0.1009818543460E+00
 0.1003863208014E+00
 0.9979757051855E-01
 0.9921400266902E-01
 0.9863212665788E-01
 0.9804638195964E-01
 0.9744900864025E-01
 0.9682996124175E-01
 0.9617685683083E-01
 0.9547494680781E-01
 0.9470711454250E-01
 0.9385389939348E-01
 0.9289355935180E-01
 0.9180221450579E-01
 0.9055402363974E-01
 0.8912153251812E-01
 0.8747621176970E-01
 0.8558917268296E-01
 0.8343220889318E-01
 0.8097914467657E-01
 0.7820752592279E-01
 0.7510053154360E-01
 0.7164899577559E-01
 0.6785312419587E-01
 0.6372349355981E-01
 0.5928110054752E-01
 0.5455657076247E-01
 0.4958890784867E-01
 0.4442434641082E-01
 0.3911547613234E-01
 0.3372048238895E-01
 0.2830253754276E-01
 0.2292890408446E-01
 0.1766968145116E-01
 0.1052039444244E+00
 0.1046178023101E+00
 0.1040192638355E+00
 0.1034124944379E+00
 0.1028015647471E+00
 0.1021902947809E+00
 0.1015820217358E+00
 0.1009793145109E+00
 0.1003836627112E+00
 0.9979516797837E-01
 0.9921226334241E-01
 0.9863148158203E-01
 0.9804727762009E-01
 0.9745190194726E-01
 0.9683531702554E-01
 0.9618514694614E-01
 0.9548664963803E-01
 0.9472271352116E-01
 0.9387387912196E-01
 0.9291839788601E-01
 0.9183237030508E-01
 0.9058991611147E-01
 0.8916351471691E-01
 0.8752453428617E-01
 0.8564393862332E-01
 0.8349332052119E-01
 0.8104624443196E-01
 0.7827993795992E-01
 0.7517721848779E-01
 0.7172854154232E-01
 0.6793374604161E-01
 0.6380309103580E-01
 0.5935734175326E-01
 0.5462700225145E-01
 0.4965106851013E-01
 0.4447587052799E-01
 0.3915418232953E-01
 0.3374445452190E-01
 0.2831020487446E-01
 0.2291911897578E-01
 0.1764178337700E-01
 0.1052118612582E+00
 0.1046235300572E+00
 0.1040227193904E+00
 0.1034136887769E+00
 0.1028006304976E+00
 0.1021875022613E+00
 0.1015777823554E+00
 0.1009741721730E+00
 0.1003782758428E+00
 0.9979028627082E-01
 0.9920870368262E-01
 0.9863010694609E-01
 0.9804898123792E-01
 0.9745759738637E-01
 0.9684593338455E-01
 0.9620162730501E-01
 0.9550995032452E-01
 0.9475380142133E-01
 0.9391372419231E-01
 0.9296795801429E-01
 0.9189256550441E-01
 0.9066158990312E-01
 0.8924737979531E-01
 0.8762110049056E-01
 0.8575342294722E-01
 0.8361554019486E-01
 0.8118049835830E-01
 0.7842488861806E-01
 0.7533080360410E-01
 0.7188793730738E-01
 0.6809538857848E-01
 0.6396277224928E-01
 0.5951038131783E-01
 0.5476846889790E-01
 0.4977601069123E-01
 0.4457952550246E-01
 0.3923215590906E-01
 0.3379288362742E-01
 0.2832591892471E-01
 0.2289979779750E-01
 0.1758608900572E-01
 0.1052237806213E+00
 0.1046321498056E+00
 0.1040279050071E+00
 0.1034154501165E+00
 0.1027991636042E+00
 0.1021832132903E+00
 0.1015712919666E+00
 0.1009663015288E+00
 0.1003700184136E+00
 0.9978277184574E-01
 0.9920316151053E-01
 0.9862783373758E-01
 0.9805131745941E-01
 0.9746591272050E-01
 0.9686162003360E-01
 0.9622609827079E-01
 0.9554463895344E-01
 0.9480015803756E-01
 0.9397320555598E-01
 0.9304200533073E-01
 0.9198256645686E-01
 0.9076882146481E-01
 0.8937292740125E-01
 0.8776575049312E-01
 0.8591752777540E-01
 0.8379885750161E-01
 0.8138201170541E-01
 0.7864262743273E-01
 0.7556170610397E-01
 0.7212778925447E-01
 0.6833884880793E-01
 0.6420351112423E-01
 0.5974133721489E-01
 0.5498218372529E-01
 0.4996498324809E-01
 0.4473653279489E-01
 0.3935052761129E-01
 0.3386674776109E-01
 0.2835044619975E-01
 0.2287144458691E-01
 0.1750280463767E-01
 0.1052397581765E+00
 0.1046436974763E+00
 0.1040348247922E+00
 0.1034177427284E+00
 0.1027970851027E+00
 0.1021773066871E+00
 0.1015623917054E+00
 0.1009555126825E+00
 0.1003586767174E+00
 0.9977239362984E-01
 0.9919539313840E-01
 0.9862440832670E-01
 0.9805402338519E-01
 0.9747657487667E-01
 0.9688209187535E-01
 0.9625826065576E-01
 0.9559040073908E-01
 0.9486145283337E-01
 0.9405197895112E-01
 0.9314018691076E-01
 0.9210202056738E-01
 0.9091127234894E-01
 0.8953985270850E-01
 0.8795823885251E-01
 0.8613609933316E-01
 0.8404324863652E-01
 0.8165093329527E-01
 0.7893351948668E-01
 0.7587054651024E-01
 0.7244900074239E-01
 0.6866532028219E-01
 0.6452677185841E-01
 0.6005189546527E-01
 0.5526998047444E-01
 0.5021987736506E-01
 0.4494874459686E-01
 0.3951101450731E-01
 0.3396753504637E-01
 0.2838495605853E-01
 0.2283483074370E-01
 0.1739224700728E-01
 0.1052598727672E+00
 0.1046582246323E+00
 0.1040434865144E+00
 0.1034205197462E+00
 0.1027942890900E+00
 0.1021696192311E+00
 0.1015508675577E+00
 0.1009415501741E+00
 0.1003439638605E+00
 0.9975884212014E-01
 0.9918507287102E-01
 0.9861949234553E-01
 0.9805674874495E-01
 0.9748922030493E-01
 0.9690696941875E-01
 0.9629771606653E-01
 0.9564681615446E-01
 0.9493724470120E-01
 0.9414958411594E-01
 0.9326202977889E-01
 0.9225045379507E-01
 0.9108848551637E-01
 0.8974774130749E-01
 0.8819822788118E-01
 0.8640891960577E-01
 0.8434866653045E-01
 0.8198744453558E-01
 0.7929803412518E-01
 0.7625813637696E-01
 0.7285276479010E-01
 0.6907639033041E-01
 0.6493451256462E-01
 0.6044432090609E-01
 0.5563433082262E-01
 0.5054324837270E-01
 0.4521866813527E-01
 0.3971594535102E-01
 0.3409726924122E-01
 0.2843104498243E-01
 0.2279101470005E-01
 0.1725485323753E-01
 0.1052842305520E+00
 0.1046758017367E+00
 0.1040539036095E+00
 0.1034237237884E+00
 0.1027906420998E+00
 0.1021599441273E+00
 0.1015364483581E+00
 0.1009240909472E+00
 0.1003255180351E+00
 0.9974172816198E-01
 0.9917179234873E-01
 0.9861266254841E-01
 0.9805905615899E-01
 0.9750339548895E-01
 0.9693577937114E-01
 0.9634396740168E-01
 0.9571336114741E-01
 0.9502698169096E-01
 0.9426544379664E-01
 0.9340693893074E-01
 0.9242726739364E-01
 0.9129988048197E-01
 0.8999606245276E-01
 0.8848527874943E-01
 0.8673569518784E-01
 0.8471502757376E-01
 0.8239174452785E-01
 0.7973672949859E-01
 0.7672546398324E-01
 0.7334055329811E-01
 0.6957403555316E-01
 0.6542918947463E-01
 0.6092147128841E-01
 0.5607836757794E-01
 0.5093834539923E-01
 0.4554949858161E-01
 0.3996829464367E-01
 0.3425854420582E-01
 0.2849077015474E-01
 0.2274137027506E-01
 0.1709119672234E-01
 0.1053129703800E+00
 0.1046965223703E+00
 0.1040660977281E+00
 0.1034272876781E+00
 0.1027859821864E+00
 0.1021480289216E+00
 0.1015188031304E+00
 0.1009027416869E+00
 0.1003029002907E+00
 0.9972058139800E-01
 0.9915505973882E-01
 0.9860341067371E-01
 0.9806042151507E-01
 0.9751855764312E-01
 0.9696795544565E-01
 0.9639641955221E-01
 0.9578940750481E-01
 0.9513000078566E-01
 0.9439886264735E-01
 0.9357419502791E-01
 0.9263173403020E-01
 0.9154474745858E-01
 0.9028416083759E-01
 0.8881884055858E-01
 0.8711604347572E-01
 0.8514219503472E-01
 0.8286403128311E-01
 0.8025023282102E-01
 0.7727367574022E-01
 0.7391410260563E-01
 0.7016061512506E-01
 0.6601376135488E-01
 0.6148681468506E-01
 0.5660591430994E-01
 0.5140914966743E-01
 0.4594516129709E-01
 0.4027172569792E-01
 0.3445456743247E-01
 0.2856669313147E-01
 0.2268762607356E-01
 0.1690201059179E-01
 0.1053462706017E+00
 0.1047205085308E+00
 0.1040801018766E+00
 0.1034311352306E+00
 0.1027801176353E+00
 0.1021335727567E+00
 0.1014975376689E+00
 0.1008770354571E+00
 0.1002755917647E+00
 0.9969484838156E-01
 0.9913429878965E-01
 0.9859114333181E-01
 0.9806023448878E-01
 0.9753407562299E-01
 0.9700283940837E-01
 0.9645438032778E-01
 0.9587422338820E-01
 0.9524552774949E-01
 0.9454902605096E-01
 0.9376295179794E-01
 0.9286299331588E-01
 0.9182224052849E-01
 0.9061124691030E-01
 0.8919823736451E-01
 0.8754947612460E-01
 0.8562995899823E-01
 0.8340447872893E-01
 0.8083921583875E-01
 0.7790405257964E-01
 0.7457539443692E-01
 0.7083886084207E-01
 0.6669169317543E-01
 0.6214444968199E-01
 0.5722152160639E-01
 0.5196042228074E-01
 0.4641036427758E-01
 0.4063064286084E-01
 0.3468921229729E-01
 0.2866193440978E-01
 0.2263191851429E-01
 0.1668822517479E-01
 0.1053843574894E+00
 0.1047479171355E+00
 0.1040959641644E+00
 0.1034351820265E+00
 0.1027728251472E+00
 0.1021162227955E+00
 0.1014721902045E+00
 0.1008464275261E+00
 0.1002429903161E+00
 0.9966389034118E-01
 0.9910884776541E-01
 0.9857518195520E-01
 0.9805779925166E-01
 0.9754923109759E-01
 0.9703968241681E-01
 0.9651706166497E-01
 0.9596697410441E-01
 0.9537267712258E-01
 0.9471499894785E-01
 0.9397223324022E-01
 0.9312004686098E-01
 0.9213136996074E-01
 0.9097638584356E-01
 0.8962265323524E-01
 0.8803537979390E-01
 0.8617801274103E-01
 0.8401320925627E-01
 0.8150436502078E-01
 0.7861798054175E-01
 0.7532663114822E-01
 0.7161186261062E-01
 0.6746695776564E-01
 0.6289912754277E-01
 0.5793051007474E-01
 0.5259776265072E-01
 0.4695066215194E-01
 0.4105025300864E-01
 0.3496707783246E-01
 0.2878023860333E-01
 0.2257686280052E-01
 0.1645102443621E-01
 0.1054275155710E+00
 0.1047789479211E+00
 0.1041137522183E+00
 0.1034393360943E+00
 0.1027638473323E+00
 0.1020955696181E+00
 0.1014422259874E+00
 0.1008102902657E+00
 0.1002044065060E+00
 0.9962698059059E-01
 0.9907795828758E-01
 0.9855476285276E-01
 0.9805233541539E-01
 0.9756322003415E-01
 0.9707764670451E-01
 0.9658358118083E-01
 0.9606672318953E-01
 0.9551045246210E-01
 0.9489572480025E-01
 0.9420093079824E-01
 0.9340175304994E-01
 0.9247099390319E-01
 0.9137848541136E-01
 0.9009111560541E-01
 0.8857299442003E-01
 0.8678592571007E-01
 0.8469026183079E-01
 0.8224634626997E-01
 0.7941691505232E-01
 0.7617020441587E-01
 0.7248304824411E-01
 0.6834403431095E-01
 0.6375627568122E-01
 0.5873902059278E-01
 0.5332767970154E-01
 0.4757253457392E-01
 0.4153663725481E-01
 0.3529355375204E-01
 0.2892604845667E-01
 0.2252564586080E-01
 0.1619193535559E-01
 0.1054761002276E+00
 0.1048138529637E+00
 0.1041335583048E+00
 0.1034434983768E+00
 0.1027528892789E+00
 0.1020711413301E+00
 0.1014070305647E+00
 0.1007679069809E+00
 0.1001590588657E+00
 0.9958330158674E-01
 0.9904079412297E-01
 0.9852903742381E-01
 0.9804297927012E-01
 0.9757515455050E-01
 0.9711580766328E-01
 0.9665296412287E-01
 0.9617243386054E-01
 0.9565774689204E-01
 0.9509002476537E-01
 0.9444780058425E-01
 0.9370682163438E-01
 0.9283980955344E-01
 0.9181628287086E-01
 0.9060247699431E-01
 0.8916138901430E-01
 0.8745311297248E-01
 0.8543555532375E-01
 0.8306576348863E-01
 0.8030233778854E-01
 0.7710865575586E-01
 0.7345615549906E-01
 0.6932790145449E-01
 0.6472202060659E-01
 0.5965407130063E-01
 0.5415767781394E-01
 0.4828348298795E-01
 0.4209683462990E-01
 0.3567488630777E-01
 0.2910458144427E-01
 0.2248214565128E-01
 0.1591296914576E-01
 0.1055305530019E+00
 0.1048529481009E+00
 0.1041555052000E+00
 0.1034475627997E+00
 0.1027396138828E+00
 0.1020423960430E+00
 0.1013659014774E+00
 0.1007184645019E+00
 0.1001060683831E+00
 0.9953194164261E-01
 0.9899642996678E-01
 0.9849707259768E-01
 0.9802878538665E-01
 0.9758406520553E-01
 0.9715315639807E-01
 0.9672414580193E-01
 0.9628297094191E-01
 0.9581334409876E-01
 0.9529659725402E-01
 0.9471146088020E-01
 0.9403380842030E-01
 0.9323634413869E-01
 0.9228833122741E-01
 0.9115539549741E-01
 0.8979943539292E-01
 0.8817880148140E-01
 0.8624884724872E-01
 0.8396311089640E-01
 0.8127570558838E-01
 0.7814462774934E-01
 0.7453519462416E-01
 0.7042402295031E-01
 0.6580320856563E-01
 0.6068362079484E-01
 0.5509636016578E-01
 0.4909215276690E-01
 0.4273894317910E-01
 0.3611823869284E-01
 0.2932189490736E-01
 0.2245107660987E-01
 0.1561684793825E-01
 0.1055914202359E+00
 0.1048966266276E+00
 0.1041797528639E+00
 0.1034514157134E+00
 0.1027236355427E+00
 0.1020087123162E+00
 0.1013180380615E+00
 0.1006610443587E+00
 0.1000444521568E+00
 0.9947189132559E-01
 0.9894385029174E-01
 0.9845785157916E-01
 0.9800872865726E-01
 0.9758890379351E-01
 0.9718860281480E-01
 0.9679597456976E-01
 0.9639710333889E-01
 0.9597591986311E-01
 0.9551401799241E-01
 0.9499039006676E-01
 0.9438111023999E-01
 0.9365894593398E-01
 0.9279298514535E-01
 0.9174831433034E-01
 0.9048578010004E-01
 0.8896199333726E-01
 0.8712968789948E-01
 0.8493871875717E-01
 0.8233839052451E-01
 0.7928080436636E-01
 0.7572439897719E-01
 0.7163832282249E-01
 0.6700742101929E-01
 0.6183663562864E-01
 0.5615355088338E-01
 0.5000849043062E-01
 0.4347225096453E-01
 0.3663173922633E-01
 0.2958491008850E-01
 0.2243815000200E-01
 0.1530736711729E-01
 0.1056593757930E+00
 0.1049453757102E+00
 0.1042065059363E+00
 0.1034549343590E+00
 0.1027045116800E+00
 0.1019693770246E+00
 0.1012625289618E+00
 0.1005946123398E+00
 0.9997311617739E-01
 0.9940203960230E-01
 0.9888194836562E-01
 0.9841027500602E-01
 0.9798170686723E-01
 0.9758854671623E-01
 0.9722097930000E-01
 0.9686721539128E-01
 0.9651350710498E-01
 0.9614404418024E-01
 0.9574074064760E-01
 0.9528292505369E-01
 0.9474696029576E-01
 0.9410577541683E-01
 0.9332838660367E-01
 0.9237944050602E-01
 0.9121881454862E-01
 0.8980142594550E-01
 0.8807736954832E-01
 0.8599269175331E-01
 0.8349160970466E-01
 0.8051983799470E-01
 0.7702816017187E-01
 0.7297714536457E-01
 0.6834298030093E-01
 0.6312315843266E-01
 0.5734043369901E-01
 0.5104394611860E-01
 0.4430742319080E-01
 0.3722451648694E-01
 0.2990133880942E-01
 0.2245020316493E-01
 0.1498997971438E-01
 0.1057352488544E+00
 0.1049997960815E+00
 0.1042360220470E+00
 0.1034579838753E+00
 0.1026817313651E+00
 0.1019235699718E+00
 0.1011983368915E+00
 0.1005180062173E+00
 0.9989084721444E-01
 0.9932116981430E-01
 0.9880952555881E-01
 0.9835316263755E-01
 0.9794654390024E-01
 0.9758179902281E-01
 0.9724904507922E-01
 0.9693655410872E-01
 0.9663076922557E-01
 0.9631618412878E-01
 0.9597509823242E-01
 0.9558726049621E-01
 0.9512942424138E-01
 0.9457479701496E-01
 0.9389245084919E-01
 0.9304672328931E-01
 0.9199664409435E-01
 0.9069552980302E-01
 0.8909087134543E-01
 0.8712484034779E-01
 0.8473634455338E-01
 0.8186426187867E-01
 0.7845094517637E-01
 0.7444719581015E-01
 0.6981894034401E-01
 0.6455437435680E-01
 0.5866970213669E-01
 0.5221172468133E-01
 0.4525679772600E-01
 0.3790674921763E-01
 0.3027941440916E-01
 0.2249517110591E-01
 0.1467271954732E-01
 0.1058200581468E+00
 0.1050606257374E+00
 0.1042686209085E+00
 0.1034604121946E+00
 0.1026547001201E+00
 0.1018703444175E+00
 0.1011242801150E+00
 0.1004299214423E+00
 0.9979630384422E-01
 0.9922795563387E-01
 0.9872529111427E-01
 0.9828525572442E-01
 0.9790199369290E-01
 0.9756739920222E-01
 0.9727149131949E-01
 0.9700260245515E-01
 0.9674739217941E-01
 0.9649070756671E-01
 0.9621530539447E-01
 0.9590144893906E-01
 0.9552639718893E-01
 0.9506377168650E-01
 0.9448285293991E-01
 0.9374783277067E-01
 0.9281705641529E-01
 0.9164238427078E-01
 0.9016880014877E-01
 0.8833460504077E-01
 0.8607324873666E-01
 0.8331638606840E-01
 0.7999719121102E-01
 0.7605545673601E-01
 0.7144505296737E-01
 0.6614267189730E-01
 0.6015572044890E-01
 0.5352705603723E-01
 0.4633486298603E-01
 0.3868986683389E-01
 0.3072723880150E-01
 0.2258163315829E-01
 0.1436753553684E-01
 0.1059150543116E+00
 0.1051287684603E+00
 0.1043046940350E+00
 0.1034620418541E+00
 0.1026227195898E+00
 0.1018086024294E+00
 0.1010390100029E+00
 0.1003288945881E+00
 0.9968800667219E-01
 0.9912095716423E-01
 0.9862786255280E-01
 0.9820522019972E-01
 0.9784674504383E-01
 0.9754402481518E-01
 0.9728694706613E-01
 0.9706390393444E-01
 0.9686179944480E-01
 0.9666588789511E-01
 0.9645946193058E-01
 0.9622340235762E-01
 0.9593560226607E-01
 0.9557025114082E-01
 0.9509701589626E-01
 0.9448013981067E-01
 0.9367749069975E-01
 0.9263967307675E-01
 0.9130932920903E-01
 0.8962097539813E-01
 0.8750254627166E-01
 0.8487817701898E-01
 0.8167117777966E-01
 0.7780907307184E-01
 0.7323171228136E-01
 0.6790166523593E-01
 0.6181475344577E-01
 0.5500738629862E-01
 0.4755893130849E-01
 0.3958734382727E-01
 0.3125154034195E-01
 0.2271697172501E-01
 0.1409284596692E-01
 0.1060217731027E+00
 0.1052053280533E+00
 0.1043447150802E+00
 0.1034626574041E+00
 0.1025849604241E+00
 0.1017370638298E+00
 0.1009409840169E+00
 0.1002132844709E+00
 0.9956432798427E-01
 0.9899861751450E-01
 0.9851576701073E-01
 0.9811165091115E-01
 0.9777942741832E-01
 0.9751029904076E-01
 0.9729398603614E-01
 0.9711894054646E-01
 0.9697234189287E-01
 0.9683990980069E-01
 0.9670555740998E-01
 0.9655089495472E-01
 0.9635459055848E-01
 0.9609157350866E-01
 0.9573210023794E-01
 0.9524069709698E-01
 0.9457500734232E-01
 0.9368463919211E-01
 0.9251013422100E-01
 0.9098240308707E-01
 0.8902391818173E-01
 0.8655111821936E-01
 0.8347686862052E-01
 0.7971520213183E-01
 0.7518984314075E-01
 0.6984623526660E-01
 0.6366502075102E-01
 0.5667317207439E-01
 0.4894831318494E-01
 0.4061902970956E-01
 0.3185359432714E-01
 0.2290493484513E-01
 0.1387303153396E-01
 0.1061421038323E+00
 0.1052916474080E+00
 0.1043892521232E+00
 0.1034619852304E+00
 0.1025404265274E+00
 0.1016542268708E+00
 0.1008284334039E+00
 0.1000812508825E+00
 0.9942348114325E-01
 0.9885926023560E-01
 0.9838744383685E-01
 0.9800307712867E-01
 0.9769861790636E-01
 0.9746479824472E-01
 0.9729113434788E-01
 0.9716614042784E-01
 0.9707730514380E-01
 0.9701087607290E-01
 0.9695147703867E-01
 0.9688156739815E-01
 0.9678074269215E-01
 0.9662486079916E-01
 0.9638499533908E-01
 0.9602622185535E-01
 0.9550625882381E-01
 0.9477403989948E-01
 0.9376832771657E-01
 0.9241670984172E-01
 0.9063637837394E-01
 0.8833605045695E-01
 0.8541772218494E-01
 0.8178081143625E-01
 0.7733075377213E-01
 0.7199244118140E-01
 0.6572704535081E-01
 0.5854753554615E-01
 0.5052785560764E-01
 0.4180117776328E-01
 0.3256703654274E-01
 0.2305701011091E-01
 0.1387393438903E-01
 0.1062781878243E+00
 0.1053893232218E+00
 0.1044389052358E+00
 0.1034595973619E+00
 0.1024878060230E+00
 0.1015581727074E+00
 0.1006991228366E+00
 0.9993047337423E-01
 0.9926320526763E-01
 0.9870075210444E-01
 0.9824090394391E-01
 0.9787764298925E-01
 0.9760257278898E-01
 0.9740586989420E-01
 0.9727681536867E-01
 0.9720399618515E-01
 0.9717525488691E-01
 0.9717744161825E-01
 0.9719599573417E-01
 0.9721436355831E-01
 0.9721324362824E-01
 0.9716964138680E-01
 0.9705571448984E-01
 0.9683740376609E-01
 0.9647286485190E-01
 0.9591075401664E-01
 0.9508846666499E-01
 0.9393065620120E-01
 0.9234954016972E-01
 0.9024622787429E-01
 0.8751155350447E-01
 0.8402925896042E-01
 0.7968416613721E-01
 0.7437664009944E-01
 0.6804279006211E-01
 0.6067592256938E-01
 0.5234054383903E-01
 0.4317730546004E-01
 0.3339331819700E-01
 0.2330256948272E-01
 0.1333665097993E-01
 0.1064332802502E+00
 0.1055005809502E+00
 0.1044946986581E+00
 0.1034552196574E+00
 0.1024257708646E+00
 0.1014468998521E+00
 0.1005507564488E+00
 0.9975863970815E-01
 0.9908132474127E-01
 0.9852110488724E-01
 0.9807433242698E-01
 0.9773365959938E-01
 0.9748966871706E-01
 0.9733189316376E-01
 0.9724934988328E-01
 0.9723071297421E-01
 0.9726422734921E-01
 0.9733742443251E-01
 0.9743666855228E-01
 0.9754653722690E-01
 0.9764901764728E-01
 0.9772249813235E-01
 0.9774051300592E-01
 0.9767022316150E-01
 0.9747063850711E-01
 0.9709061079081E-01
 0.9646668167044E-01
 0.9552109579548E-01
 0.9416158421547E-01
 0.9228200148900E-01
 0.8976202604034E-01
 0.8646897140849E-01
 0.8226489981377E-01
 0.7702137710989E-01
 0.7064292984906E-01
 0.6309511018322E-01
 0.5442732270026E-01
 0.4477957720049E-01
 0.3438347003161E-01
 0.2355891589094E-01
 0.1271344032909E-01
 0.1066107274021E+00
 0.1056277308215E+00
 0.1045573511624E+00
 0.1034480470106E+00
 0.1023523787811E+00
 0.1013178683202E+00
 0.1003806736213E+00
 0.9956327773138E-01
 0.9887568945613E-01
 0.9831849647439E-01
 0.9788616847445E-01
 0.9756972772199E-01
 0.9735855717799E-01
 0.9724145781620E-01
 0.9720715450868E-01
 0.9724442317172E-01
 0.9734195786210E-01
 0.9748804600258E-01
 0.9767008053048E-01
 0.9787390791335E-01
 0.9808298448571E-01
 0.9827731578928E-01
 0.9843211250998E-01
 0.9851613001831E-01
 0.9848968672160E-01
 0.9830236322836E-01
 0.9789045346395E-01
 0.9717445695141E-01
 0.9605831156212E-01
 0.9442927274653E-01
 0.9215629766909E-01
 0.8909006741356E-01
 0.8506827059802E-01
 0.7992961970631E-01
 0.7353973931182E-01
 0.6582688483075E-01
 0.5681536100131E-01
 0.4664162431677E-01
 0.3555167781854E-01
 0.2389093435673E-01
 0.1203782318708E-01
 0.1068149515586E+00
 0.1057737538608E+00
 0.1046278467753E+00
 0.1034371278763E+00
 0.1022652864284E+00
 0.1011680392307E+00
 0.1001857238403E+00
 0.9934147532535E-01
 0.9864376013690E-01
 0.9809075584041E-01
 0.9767453756239E-01
 0.9738417539493E-01
 0.9720767426731E-01
 0.9713302078337E-01
 0.9714862831370E-01
 0.9724339637259E-01
 0.9740651981540E-01
 0.9762711957845E-01
 0.9789372220975E-01
 0.9819358199879E-01
 0.9851180771861E-01
 0.9883026384056E-01
 0.9912615283211E-01
 0.9937022725841E-01
 0.9952461309717E-01
 0.9954021834472E-01
 0.9935378601010E-01
 0.9888486153014E-01
 0.9803446724574E-01
 0.9668419106272E-01
 0.9469311766522E-01
 0.9189566389906E-01
 0.8810417418289E-01
 0.8312077326803E-01
 0.7676426532400E-01
 0.6891341702770E-01
 0.5955481037882E-01
 0.4881194583918E-01
 0.3694535688512E-01
 0.2432957659699E-01
 0.1140004199664E-01
 0.1070514873695E+00
 0.1059422946686E+00
 0.1047072363630E+00
 0.1034211038337E+00
 0.1021615155950E+00
 0.1009937462796E+00
 0.9996226623751E-01
 0.9908999425668E-01
 0.9838280655799E-01
 0.9783561346454E-01
 0.9743752303562E-01
 0.9717531970911E-01
 0.9703546007960E-01
 0.9700504766171E-01
 0.9707217693688E-01
 0.9722590165644E-01
 0.9745597451675E-01
 0.9775242978129E-01
 0.9810503254144E-01
 0.9850258248585E-01
 0.9893202350379E-01
 0.9937732380946E-01
 0.9981800421996E-01
 0.1002272413754E+00
 0.1005695094981E+00
 0.1007977049245E+00
 0.1008498039789E+00
 0.1006453115968E+00
 0.1000833925397E+00
 0.9904118181973E-01
 0.9736919796210E-01
 0.9488666800951E-01
 0.9138054664076E-01
 0.8661345390956E-01
 0.8034919911539E-01
 0.7240251921668E-01
 0.6270446159180E-01
 0.5135236479366E-01
 0.3861810543703E-01
 0.2492342722086E-01
 0.1080062188361E-01
 0.1073273149607E+00
 0.1061378112477E+00
 0.1047965799113E+00
 0.1033980185536E+00
 0.1020372497793E+00
 0.1007905533170E+00
 0.9970610170430E-01
 0.9880525426172E-01
 0.9808991735168E-01
 0.9755072009640E-01
 0.9717318612442E-01
 0.9694148539596E-01
 0.9684037538926E-01
 0.9685602784655E-01
 0.9697622679746E-01
 0.9719022154057E-01
 0.9748838552007E-01
 0.9786174788063E-01
 0.9830141557969E-01
 0.9879786734419E-01
 0.9934006034845E-01
 0.9991430939362E-01
 0.1005027856608E+00
 0.1010815355977E+00
 0.1016179598345E+00
 0.1020676630403E+00
 0.1023707216335E+00
 0.1024476270907E+00
 0.1021969114957E+00
 0.1014927447523E+00
 0.1001788622683E+00
 0.9806118929402E-01
 0.9490248316251E-01
 0.9042435472320E-01
 0.8432801447586E-01
 0.7634738664402E-01
 0.6633410991109E-01
 0.5433855484073E-01
 0.4063821100630E-01
 0.2571774813880E-01
 0.1023713250451E-01
 0.1076513158252E+00
 0.1063657638054E+00
 0.1048968331372E+00
 0.1033650392934E+00
 0.1018875644361E+00
 0.1005530873615E+00
 0.9941240816675E-01
 0.9848332925465E-01
 0.9776202071852E-01
 0.9723367296109E-01
 0.9687959059926E-01
 0.9668102624821E-01
 0.9662092009190E-01
 0.9668449083375E-01
 0.9685924019052E-01
 0.9713466674714E-01
 0.9750183387209E-01
 0.9795284827324E-01
 0.9848025888368E-01
 0.9907635037239E-01
 0.9973226255332E-01
 0.1004368917550E+00
 0.1011753899570E+00
 0.1019271312606E+00
 0.1026630533280E+00
 0.1033422446139E+00
 0.1039078255429E+00
 0.1042824020889E+00
 0.1043652422755E+00
 0.1040292820745E+00
 0.1031137179168E+00
 0.1014139360878E+00
 0.9867121138194E-01
 0.9456678956338E-01
 0.8873342898068E-01
 0.8080614339051E-01
 0.7052598461862E-01
 0.5786435014534E-01
 0.4309058818239E-01
 0.2676450977314E-01
 0.9707666140605E-02
 0.1080349108881E+00
 0.1066328476285E+00
 0.1050086418358E+00
 0.1033180474499E+00
 0.1017060732022E+00
 0.1002748507397E+00
 0.9907568909494E-01
 0.9811996250837E-01
 0.9739591904491E-01
 0.9688205042162E-01
 0.9655483233190E-01
 0.9639234937039E-01
 0.9637565331130E-01
 0.9648902357096E-01
 0.9671973114475E-01
 0.9705759165998E-01
 0.9749443414426E-01
 0.9802352601846E-01
 0.9863895347974E-01
 0.9933492445850E-01
 0.1001049173438E+00
 0.1009406302418E+00
 0.1018305161978E+00
 0.1027577383314E+00
 0.1036974082779E+00
 0.1046129259822E+00
 0.1054514724123E+00
 0.1061389825044E+00
 0.1065769399827E+00
 0.1066389699590E+00
 0.1061623784962E+00
 0.1049356382816E+00
 0.1026829784437E+00
 0.9904885068514E-01
 0.9359513092039E-01
 0.8584040412891E-01
 0.7537624211859E-01
 0.6204654624413E-01
 0.4608364875468E-01
 0.2812986887451E-01
 0.9212270872181E-02
 0.1084929729903E+00
 0.1069472741761E+00
 0.1051319779035E+00
 0.1032510347319E+00
 0.1014844713511E+00
 0.9994802490599E-01
 0.9868975108455E-01
 0.9771060902207E-01
 0.9698834013546E-01
 0.9649345577002E-01
 0.9619707381991E-01
 0.9607394212516E-01
 0.9610321499880E-01
 0.9626828869276E-01
 0.9655628188886E-01
 0.9695741031954E-01
 0.9746435108738E-01
 0.9807161524323E-01
 0.9877491516639E-01
 0.9957048701867E-01
 0.1004542855631E+00
 0.1014210087058E+00
 0.1024627102612E+00
 0.1035667961379E+00
 0.1047132074041E+00
 0.1058705331652E+00
 0.1069911025454E+00
 0.1080054668862E+00
 0.1088188763513E+00
 0.1093076865013E+00
 0.1093102651778E+00
 0.1086125570701E+00
 0.1069279382522E+00
 0.1038712333619E+00
 0.9893653466575E-01
 0.9151242237985E-01
 0.8099567499748E-01
 0.6703134183222E-01
 0.4975957485193E-01
 0.2990288396648E-01
 0.8752953600126E-02
 0.1090451638169E+00
 0.1073190957705E+00
 0.1052655003269E+00
 0.1031552111675E+00
 0.1012119636392E+00
 0.9956329439063E-01
 0.9824773353156E-01
 0.9725051355983E-01
 0.9653600690917E-01
 0.9606557039747E-01
 0.9580458354631E-01
 0.9572440156087E-01
 0.9580234883862E-01
 0.9602104349219E-01
 0.9636755979962E-01
 0.9683261282606E-01
 0.9740981675073E-01
 0.9809500820283E-01
 0.9888560686646E-01
 0.9977996723016E-01
 0.1007766355392E+00
 0.1018734772633E+00
 0.1030664137406E+00
 0.1043475252484E+00
 0.1057022456671E+00
 0.1071052798257E+00
 0.1085152678460E+00
 0.1098687294120E+00
 0.1110762585225E+00
 0.1120190057055E+00
 0.1125395109018E+00
 0.1124261431256E+00
 0.1113891774405E+00
 0.1090248748961E+00
 0.1047704355985E+00
 0.9788005335668E-01
 0.8750864658707E-01
 0.7300230971855E-01
 0.5430927418948E-01
 0.3220795512276E-01
 0.8333603510084E-02
 0.1097179482788E+00
 0.1077605440122E+00
 0.1054054312047E+00
 0.1030176894279E+00
 0.1008745856385E+00
 0.9910974603843E-01
 0.9774221969092E-01
 0.9673483037280E-01
 0.9603572556509E-01
 0.9559621572652E-01
 0.9537577938860E-01
 0.9534246559019E-01
 0.9547192585862E-01
 0.9574615913008E-01
 0.9615233441243E-01
 0.9668178179298E-01
 0.9732914775274E-01
 0.9809167471579E-01
 0.9896856176072E-01
 0.9996035480283E-01
 0.1010682799583E+00
 0.1022934997622E+00
 0.1036360225790E+00
 0.1050929931128E+00
 0.1066559938041E+00
 0.1083068203565E+00
 0.1100116754066E+00
 0.1117144660974E+00
 0.1133326912481E+00
 0.1147542705977E+00
 0.1158289945606E+00
 0.1163529049253E+00
 0.1160420607739E+00
 0.1144887488072E+00
 0.1110936603260E+00
 0.1049886259421E+00
 0.9504837768810E-01
 0.8018918867147E-01
 0.5999451760370E-01
 0.3522481020254E-01
 0.7960325522412E-02
 0.1105477323837E+00
 0.1082862859974E+00
 0.1055435608403E+00
 0.1028195611549E+00
 0.1004544868003E+00
 0.9857493960963E-01
 0.9716545913340E-01
 0.9615878507960E-01
 0.9548449110240E-01
 0.9508342326446E-01
 0.9490927542002E-01
 0.9492704555590E-01
 0.9511096858078E-01
 0.9544264001078E-01
 0.9590949445618E-01
 0.9650360878455E-01
 0.9722076255363E-01
 0.9805968167849E-01
 0.9902140668837E-01
 0.1001087294507E+00
 0.1013256145105E+00
 0.1026766055547E+00
 0.1041659546352E+00
 0.1057961939820E+00
 0.1075656784421E+00
 0.1094643166118E+00
 0.1114672409702E+00
 0.1135272555150E+00
 0.1155702737699E+00
 0.1174927424045E+00
 0.1191545145699E+00
 0.1203645091340E+00
 0.1208540302773E+00
 0.1202283251354E+00
 0.1178812866611E+00
 0.1128588282930E+00
 0.1037453614466E+00
 0.8887513945557E-01
 0.6718105954877E-01
 0.3922279003127E-01
 0.7643193865326E-02
 0.1115859509714E+00
 0.1089133298272E+00
 0.1056636533956E+00
 0.1025331514959E+00
 0.9992938141266E-01
 0.9794529426577E-01
 0.9650971431018E-01
 0.9551787017735E-01
 0.9487960850677E-01
 0.9452551113985E-01
 0.9440393077920E-01
 0.9447725950053E-01
 0.9471867526871E-01
 0.9510964304284E-01
 0.9563806471427E-01
 0.9629691056314E-01
 0.9708319853451E-01
 0.9799721239323E-01
 0.9904188541648E-01
 0.1002222904303E+00
 0.1015451572622E+00
 0.1030184442285E+00
 0.1046507256891E+00
 0.1064501451710E+00
 0.1084223828375E+00
 0.1105665201222E+00
 0.1128681480227E+00
 0.1152906254145E+00
 0.1177697227231E+00
 0.1202118195027E+00
 0.1224891138675E+00
 0.1244281303856E+00
 0.1257848859287E+00
 0.1261952718209E+00
 0.1250819293651E+00
 0.1214705106599E+00
 0.1137038945951E+00
 0.9939625615312E-01
 0.7638773367067E-01
 0.4462259666924E-01
 0.7402406931734E-02
 0.1129077417714E+00
 0.1096598504680E+00
 0.1057348450730E+00
 0.1021183355536E+00
 0.9927266632540E-01
 0.9720695309551E-01
 0.9576769301568E-01
 0.9480806182770E-01
 0.9421882865272E-01
 0.9392116325892E-01
 0.9385889876710E-01
 0.9399246500168E-01
 0.9429444340221E-01
 0.9474649618499E-01
 0.9533722224043E-01
 0.9606064476992E-01
 0.9691512856675E-01
 0.9790258541934E-01
 0.9902788146892E-01
 0.1002983857434E+00
 0.1017235880055E+00
 0.1033148419087E+00
 0.1050850331213E+00
 0.1070480030451E+00
 0.1092171766100E+00
 0.1116018766512E+00
 0.1141999103844E+00
 0.1169871153256E+00
 0.1199105138344E+00
 0.1228873178420E+00
 0.1258035561947E+00
 0.1285071067917E+00
 0.1307874562371E+00
 0.1323285732834E+00
 0.1326166906676E+00
 0.1307450669746E+00
 0.1249600596385E+00
 0.1121188018989E+00
 0.8835566318158E-01
 0.5211242982003E-01
 0.7287647238916E-02
 0.1146277218174E+00
 0.1105408971472E+00
 0.1056992614386E+00
 0.1015183953544E+00
 0.9845523829705E-01
 0.9634714109901E-01
 0.9493295053062E-01
 0.9402606759676E-01
 0.9350049368840E-01
 0.9326950540182E-01
 0.9327367545731E-01
 0.9347229040077E-01
 0.9383789192599E-01
 0.9435271600648E-01
 0.9500631173859E-01
 0.9579392487346E-01
 0.9671537685316E-01
 0.9777427261959E-01
 0.9897743997476E-01
 0.1003345401483E+00
 0.1018577861196E+00
 0.1035618560007E+00
 0.1054638427735E+00
 0.1075831987346E+00
 0.1099412840454E+00
 0.1125586619380E+00
 0.1154474314317E+00
 0.1185983127561E+00
 0.1219710193390E+00
 0.1254938038018E+00
 0.1290668951515E+00
 0.1325619503556E+00
 0.1358087122413E+00
 0.1385561454332E+00
 0.1403841449160E+00
 0.1405355190040E+00
 0.1374163097531E+00
 0.1273628599748E+00
 0.1041311643141E+00
 0.6287529979050E-01
 0.7436807996039E-02
 0.1169312718582E+00
 0.1115548688860E+00
 0.1054484512296E+00
 0.1006582202633E+00
 0.9745065269966E-01
 0.9535540267509E-01
 0.9400018265016E-01
 0.9316965910161E-01
 0.9272365754945E-01
 0.9257017946747E-01
 0.9264814531788E-01
 0.9291666245345E-01
 0.9334888160761E-01
 0.9392802341213E-01
 0.9464485958093E-01
 0.9549603387432E-01
 0.9648293358090E-01
 0.9761091592938E-01
 0.9888878799156E-01
 0.1003284812092E+00
 0.1019448659971E+00
 0.1037558258608E+00
 0.1057824720958E+00
 0.1080495902755E+00
 0.1105863069489E+00
 0.1134251725036E+00
 0.1165950545799E+00
 0.1201048383798E+00
 0.1239286056748E+00
 0.1280049812588E+00
 0.1322471261139E+00
 0.1365514736550E+00
 0.1407920355606E+00
 0.1447956523641E+00
 0.1482684324947E+00
 0.1506428366698E+00
 0.1507659768990E+00
 0.1452111305976E+00
 0.1251101751451E+00
 0.7904969917619E-01
 0.8253873260610E-02
 0.1201444251520E+00
 0.1126402354158E+00
 0.1047794664267E+00
 0.9945553103861E-01
 0.9624399757846E-01
 0.9422283005189E-01
 0.9296598370209E-01
 0.9223798352746E-01
 0.9188814852721E-01
 0.9182343651787E-01
 0.9198261067348E-01
 0.9232583434457E-01
 0.9282753193761E-01
 0.9347235819930E-01
 0.9425258659556E-01
 0.9516643708678E-01
 0.9621696859534E-01
 0.9741134292062E-01
 0.9876035320490E-01
 0.1002781627800E+00
 0.1019822088702E+00
 0.1038934179909E+00
 0.1060366593417E+00
 0.1084416139312E+00
 0.1111445192605E+00
 0.1141900168918E+00
 0.1176266046211E+00
 0.1214862090971E+00
 0.1257596884115E+00
 0.1303939969218E+00
 0.1353121501241E+00
 0.1404335130785E+00
 0.1456803832428E+00
 0.1509583667397E+00
 0.1561355007141E+00
 0.1608701785025E+00
 0.1644887385125E+00
 0.1651116432584E+00
 0.1528302629144E+00
 0.1046817280149E+00
 0.1096511057918E-01
 0.1249186581206E+00
 0.1135213035886E+00
 0.1033285742234E+00
 0.9787785973733E-01
 0.9483147998135E-01
 0.9293962661347E-01
 0.9183148876007E-01
 0.9123090460171E-01
 0.9099495988935E-01
 0.9103010381745E-01
 0.9127784847224E-01
 0.9170039932861E-01
 0.9227423804368E-01
 0.9298589106309E-01
 0.9382941979356E-01
 0.9480479384184E-01
 0.9591684407093E-01
 0.9717458111832E-01
 0.9859078079537E-01
 0.1001817860221E+00
 0.1019674893170E+00
 0.1039716667070E+00
 0.1062226157736E+00
 0.1087543936608E+00
 0.1116092370904E+00
 0.1148426201386E+00
 0.1185254301990E+00
 0.1227204935966E+00
 0.1274396134013E+00
 0.1326339592898E+00
 0.1382300782817E+00
 0.1441678818800E+00
 0.1504135800731E+00
 0.1569668173108E+00
 0.1638172625769E+00
 0.1710340506310E+00
 0.1781335395883E+00
 0.1853274072411E+00
 0.1877624759839E+00
 0.1476206015801E+00
 0.1949527005875E-01
 0.1328530435276E+00
 0.1130390260617E+00
 0.1006376225123E+00
 0.9608306150419E-01
 0.9315058087092E-01
 0.9152260834031E-01
 0.9059439503997E-01
 0.9015154750585E-01
 0.9004566789338E-01
 0.9019179557705E-01
 0.9053508622779E-01
 0.9104131607728E-01
 0.9168967804289E-01
 0.9246903335023E-01
 0.9337550099588E-01
 0.9441096682989E-01
 0.9558212489179E-01
 0.9689986989989E-01
 0.9837894750244E-01
 0.1000378165634E+00
 0.1018986977195E+00
 0.1039880003334E+00
 0.1063370866261E+00
 0.1089837496726E+00
 0.1119751604425E+00
 0.1153742054029E+00
 0.1192745537152E+00
 0.1237834445484E+00
 0.1289424873619E+00
 0.1346982025603E+00
 0.1409707660883E+00
 0.1477147877205E+00
 0.1549414625770E+00
 0.1627215618684E+00
 0.1712406433519E+00
 0.1806660444423E+00
 0.1919058259322E+00
 0.2034662428739E+00
 0.2249811254060E+00
 0.2219420927764E+00
 0.4800874025496E-01
 0.1494379630244E+00
 0.1052495534848E+00
 0.9839920342280E-01
 0.9364277135704E-01
 0.9131239178894E-01
 0.8995310513728E-01
 0.8926545667932E-01
 0.8900223897448E-01
 0.8904350918462E-01
 0.8931067104500E-01
 0.8975607716514E-01
 0.9034990004756E-01
 0.9107482358754E-01
 0.9192244260197E-01
 0.9289119427772E-01
 0.9398502993539E-01
 0.9521258766157E-01
 0.9658667107609E-01
 0.9812397290655E-01
 0.9984499902027E-01
 0.1017741558636E+00
 0.1039402633763E+00
 0.1063773655723E+00
 0.1091263182325E+00
 0.1122380166426E+00
 0.1157798694528E+00
 0.1198574545722E+00
 0.1246461112235E+00
 0.1302410220686E+00
 0.1365611620436E+00
 0.1435053885559E+00
 0.1510402422396E+00
 0.1592096221744E+00
 0.1681698862569E+00
 0.1781902342875E+00
 0.1899221887881E+00
 0.2038241516231E+00
 0.2242453610956E+00
 0.2435675801093E+00
 0.3420212396684E+00
 0.1499140603628E+00
 0.1591131280340E+01
 0.1701471992350E+01
 0.1792777577751E+01
 0.1866636612618E+01
 0.1922934598393E+01
 0.1962847915089E+01
 0.1987455295396E+01
 0.1997978190110E+01
 0.1995936215552E+01
 0.1983695555981E+01
 0.1964259464850E+01
 0.1940403590660E+01
 0.1914181255399E+01
 0.1886718062085E+01
 0.1858330237393E+01
 0.1828769670025E+01
 0.1797038065808E+01
 0.1763887098678E+01
 0.1727705499438E+01
 0.1703101769505E+01
 0.1587300548451E+01
 0.1697848723636E+01
 0.1793586417342E+01
 0.1871608375537E+01
 0.1932649224256E+01
 0.1977686735955E+01
 0.2007951860595E+01
 0.2024624471843E+01
 0.2029080997872E+01
 0.2023300075082E+01
 0.2009960520538E+01
 0.1991795706329E+01
 0.1970940288211E+01
 0.1948697375989E+01
 0.1925575349864E+01
 0.1901455841749E+01
 0.1876277584129E+01
 0.1849093115966E+01
 0.1820972992293E+01
 0.1787365913939E+01
 0.1582239536111E+01
 0.1696411494363E+01
 0.1795342643757E+01
 0.1877481621900E+01
 0.1942886710409E+01
 0.1992713980860E+01
 0.2028185522962E+01
 0.2050490310861E+01
 0.2060905703636E+01
 0.2061215930322E+01
 0.2053866941206E+01
 0.2041467903206E+01
 0.2026180030560E+01
 0.2009420477310E+01
 0.1991846146380E+01
 0.1973625020942E+01
 0.1954456561062E+01
 0.1933657311777E+01
 0.1908974984681E+01
 0.1877437911915E+01
 0.1577667628145E+01
 0.1695697886262E+01
 0.1798163469581E+01
 0.1883997450968E+01
 0.1953496621863E+01
 0.2007745239621E+01
 0.2048016802565E+01
 0.2075500616170E+01
 0.2091443361533E+01
 0.2097518089641E+01
 0.2095997458703E+01
 0.2089361774845E+01
 0.2079751316162E+01
 0.2068650524619E+01
 0.2056855851184E+01
 0.2044578342426E+01
 0.2031522398196E+01
 0.2016403660412E+01
 0.1997168022377E+01
 0.1972260110632E+01
 0.1573675688021E+01
 0.1695668643541E+01
 0.1801668528421E+01
 0.1891031311404E+01
 0.1964299248285E+01
 0.2022632187301E+01
 0.2067322460712E+01
 0.2099589674094E+01
 0.2120683866378E+01
 0.2132218737019E+01
 0.2136336329227E+01
 0.2135396727502E+01
 0.2131495324961E+01
 0.2126153951953E+01
 0.2120236043466E+01
 0.2114002661744E+01
 0.2107062008016E+01
 0.2098223876995E+01
 0.2085997204832E+01
 0.2069621178847E+01
 0.1570276982819E+01
 0.1696215346471E+01
 0.1805678718054E+01
 0.1898386671590E+01
 0.1975147937835E+01
 0.2037235768910E+01
 0.2085995210426E+01
 0.2122687279063E+01
 0.2148591199827E+01
 0.2165292732533E+01
 0.2174835809158E+01
 0.2179473196778E+01
 0.2181245651562E+01
 0.2181682407416E+01
 0.2181694077988E+01
 0.2181577416194E+01
 0.2181016154794E+01
 0.2179114919196E+01
 0.2174935235902E+01
 0.2168228788459E+01
 0.1567432356713E+01
 0.1697240311579E+01
 0.1810041866798E+01
 0.1905902016236E+01
 0.1985895175410E+01
 0.2051432562639E+01
 0.2103934141718E+01
 0.2144719435130E+01
 0.2175111518642E+01
 0.2196689710781E+01
 0.2211424533649E+01
 0.2221475908360E+01
 0.2228826381056E+01
 0.2235000887420E+01
 0.2240949173744E+01
 0.2247047781080E+01
 0.2253149035257E+01
 0.2258710673246E+01
 0.2263270995244E+01
 0.2266948153394E+01
 0.1565087466746E+01
 0.1698644741626E+01
 0.1814626305262E+01
 0.1913434338028E+01
 0.1996407413297E+01
 0.2065106868197E+01
 0.2121043768593E+01
 0.2165608700918E+01
 0.2200179064886E+01
 0.2226342093776E+01
 0.2246014480029E+01
 0.2261277448622E+01
 0.2274058885633E+01
 0.2285877771645E+01
 0.2297733557444E+01
 0.2310117804098E+01
 0.2323096945513E+01
 0.2336478752165E+01
 0.2350207367353E+01
 0.2364716659561E+01
 0.1563182986313E+01
 0.1700332685871E+01
 0.1819312747127E+01
 0.1920856458555E+01
 0.2006563567650E+01
 0.2078151580081E+01
 0.2137232381012E+01
 0.2185275885122E+01
 0.2223720350713E+01
 0.2254171034440E+01
 0.2278506401742E+01
 0.2298743064866E+01
 0.2316762159558E+01
 0.2334083156308E+01
 0.2351768333401E+01
 0.2370446443223E+01
 0.2390412646902E+01
 0.2411801118642E+01
 0.2434907856990E+01
 0.2460446310370E+01
 0.1561659688196E+01
 0.1702212739004E+01
 0.1823992133355E+01
 0.1928053903963E+01
 0.2016253982470E+01
 0.2090467630373E+01
 0.2152412309298E+01
 0.2203641437148E+01
 0.2245657544376E+01
 0.2280090876368E+01
 0.2308794437042E+01
 0.2333733802750E+01
 0.2356753924104E+01
 0.2379383952422E+01
 0.2402759749959E+01
 0.2427657418662E+01
 0.2454598884533E+01
 0.2484015904292E+01
 0.2516509532783E+01
 0.2553040193529E+01
 0.1560461054232E+01
 0.1704199445346E+01
 0.1828564761871E+01
 0.1934923294286E+01
 0.2025379303577E+01
 0.2101963738758E+01
 0.2166500412501E+01
 0.2220627033560E+01
 0.2265911231971E+01
 0.2304012803966E+01
 0.2336769748273E+01
 0.2366109308356E+01
 0.2393851396345E+01
 0.2421543819643E+01
 0.2450402682585E+01
 0.2481352885809E+01
 0.2515132404094E+01
 0.2552440806062E+01
 0.2594144708239E+01
 0.2641414086121E+01
 0.1559534565511E+01
 0.1706214147564E+01
 0.1832939953523E+01
 0.1941371358210E+01
 0.2033849688160E+01
 0.2112556225681E+01
 0.2179418661327E+01
 0.2236157019619E+01
 0.2284402746290E+01
 0.2325847780370E+01
 0.2362323541921E+01
 0.2395730272818E+01
 0.2427873169614E+01
 0.2460325901811E+01
 0.2494387357362E+01
 0.2531126610234E+01
 0.2571482074678E+01
 0.2616392212986E+01
 0.2666956158542E+01
 0.2724524669001E+01
 0.1558832411511E+01
 0.1708185532062E+01
 0.1837035962742E+01
 0.1947314407005E+01
 0.2041584342424E+01
 0.2122168997997E+01
 0.2191094754804E+01
 0.2250159730745E+01
 0.2301056160272E+01
 0.2345509030267E+01
 0.2385349696849E+01
 0.2422460990581E+01
 0.2458642061600E+01
 0.2495497268943E+01
 0.2534407182699E+01
 0.2576576142594E+01
 0.2623124497938E+01
 0.2675201867353E+01
 0.2734111014685E+01
 0.2801365713564E+01
 0.1558311854617E+01
 0.1710049958595E+01
 0.1840779977719E+01
 0.1952678066557E+01
 0.2048511290755E+01
 0.2130733646426E+01
 0.2201462716767E+01
 0.2262568646803E+01
 0.2315799973000E+01
 0.2362914140460E+01
 0.2405747125925E+01
 0.2446172002192E+01
 0.2485988509605E+01
 0.2526834027136E+01
 0.2570166628270E+01
 0.2617313910063E+01
 0.2669557834500E+01
 0.2728231887765E+01
 0.2794815952871E+01
 0.2870963426498E+01
 0.1557935407560E+01
 0.1711751642874E+01
 0.1844108155713E+01
 0.1957397165302E+01
 0.2054567303586E+01
 0.2138189622751E+01
 0.2210463460747E+01
 0.2273323398882E+01
 0.2328568550112E+01
 0.2377986886836E+01
 0.2423421962749E+01
 0.2466742781863E+01
 0.2509754198189E+01
 0.2554126574672E+01
 0.2601388757264E+01
 0.2652977305889E+01
 0.2710314121707E+01
 0.2774889434744E+01
 0.2848332691562E+01
 0.2932415719178E+01
 0.1557670888147E+01
 0.1713242739757E+01
 0.1846965658463E+01
 0.1961415704718E+01
 0.2059697916167E+01
 0.2144484453044E+01
 0.2218045304206E+01
 0.2282370634621E+01
 0.2339303353742E+01
 0.2390658835476E+01
 0.2438289583841E+01
 0.2484064363337E+01
 0.2529795660121E+01
 0.2577184669375E+01
 0.2627822196254E+01
 0.2683237735032E+01
 0.2744970508830E+01
 0.2814640151008E+01
 0.2893998539716E+01
 0.2984916467139E+01
 0.1557491475394E+01
 0.1714483393405E+01
 0.1849306711604E+01
 0.1964686899600E+01
 0.2063857519075E+01
 0.2149573978166E+01
 0.2224164438984E+01
 0.2289664764929E+01
 0.2347953995698E+01
 0.2400870743451E+01
 0.2450276444280E+01
 0.2498041794362E+01
 0.2545987649570E+01
 0.2595842080709E+01
 0.2649247367060E+01
 0.2707808624218E+01
 0.2773159140655E+01
 0.2847020892512E+01
 0.2931241939616E+01
 0.3027772775430E+01
 0.1557375703867E+01
 0.1715441738687E+01
 0.1851094640409E+01
 0.1967173225240E+01
 0.2067009456777E+01
 0.2153422570768E+01
 0.2228785325361E+01
 0.2295168576554E+01
 0.2354479107457E+01
 0.2408573743525E+01
 0.2459321674654E+01
 0.2508596310519E+01
 0.2558226129312E+01
 0.2609960655241E+01
 0.2665481862939E+01
 0.2726452255354E+01
 0.2794575654911E+01
 0.2871649913928E+01
 0.2959593975799E+01
 0.3060418236176E+01
 0.1557307470964E+01
 0.1716093893816E+01
 0.1852301906592E+01
 0.1968846475593E+01
 0.2069126131120E+01
 0.2156003328311E+01
 0.2231881017176E+01
 0.2298853725058E+01
 0.2358847041561E+01
 0.2413730314032E+01
 0.2465378411258E+01
 0.2515667162988E+01
 0.2566430777521E+01
 0.2619433701203E+01
 0.2676384881358E+01
 0.2738985370046E+01
 0.2808985953537E+01
 0.2888234580968E+01
 0.2978696716363E+01
 0.3082422396802E+01
 0.1557276039371E+01
 0.1716423947559E+01
 0.1852910135676E+01
 0.1969687814739E+01
 0.2070189089708E+01
 0.2157298226695E+01
 0.2233433410262E+01
 0.2300701106522E+01
 0.2361036402331E+01
 0.2416315021139E+01
 0.2468414825552E+01
 0.2519213040364E+01
 0.2570546935055E+01
 0.2624188603363E+01
 0.2681860629477E+01
 0.2745283421027E+01
 0.2816231218675E+01
 0.2896576858562E+01
 0.2988308820911E+01
 0.3093496602825E+01
 0.1557276039391E+01
 0.1716423947518E+01
 0.1852910135601E+01
 0.1969687814646E+01
 0.2070189089609E+01
 0.2157298226597E+01
 0.2233433410171E+01
 0.2300701106443E+01
 0.2361036402267E+01
 0.2416315021091E+01
 0.2468414825519E+01
 0.2519213040344E+01
 0.2570546935045E+01
 0.2624188603361E+01
 0.2681860629479E+01
 0.2745283421032E+01
 0.2816231218682E+01
 0.2896576858570E+01
 0.2988308820924E+01
 0.3093496602846E+01
 0.1557307471024E+01
 0.1716093893695E+01
 0.1852301906367E+01
 0.1968846475316E+01
 0.2069126130823E+01
 0.2156003328018E+01
 0.2231881016905E+01
 0.2298853724823E+01
 0.2358847041370E+01
 0.2413730313888E+01
 0.2465378411160E+01
 0.2515667162929E+01
 0.2566430777493E+01
 0.2619433701197E+01
 0.2676384881366E+01
 0.2738985370061E+01
 0.2808985953558E+01
 0.2888234580994E+01
 0.2978696716402E+01
 0.3082422396866E+01
 0.1557375703969E+01
 0.1715441738490E+01
 0.1851094640040E+01
 0.1967173224782E+01
 0.2067009456285E+01
 0.2153422570282E+01
 0.2228785324911E+01
 0.2295168576163E+01
 0.2354479107140E+01
 0.2408573743286E+01
 0.2459321674491E+01
 0.2508596310421E+01
 0.2558226129266E+01
 0.2609960655232E+01
 0.2665481862953E+01
 0.2726452255381E+01
 0.2794575654946E+01
 0.2871649913974E+01
 0.2959593975867E+01
 0.3060418236288E+01
 0.1557491475544E+01
 0.1714483393139E+01
 0.1849306711096E+01
 0.1964686898967E+01
 0.2063857518394E+01
 0.2149573977492E+01
 0.2224164438358E+01
 0.2289664764385E+01
 0.2347953995256E+01
 0.2400870743120E+01
 0.2450276444054E+01
 0.2498041794227E+01
 0.2545987649508E+01
 0.2595842080698E+01
 0.2649247367082E+01
 0.2707808624259E+01
 0.2773159140708E+01
 0.2847020892582E+01
 0.2931241939718E+01
 0.3027772775596E+01
 0.1557670888352E+01
 0.1713242739431E+01
 0.1846965657826E+01
 0.1961415703919E+01
 0.2059697915303E+01
 0.2144484452186E+01
 0.2218045303409E+01
 0.2282370633928E+01
 0.2339303353178E+01
 0.2390658835053E+01
 0.2438289583554E+01
 0.2484064363168E+01
 0.2529795660044E+01
 0.2577184669365E+01
 0.2627822196287E+01
 0.2683237735090E+01
 0.2744970508905E+01
 0.2814640151105E+01
 0.2893998539858E+01
 0.2984916467365E+01
 0.1557935407828E+01
 0.1711751642499E+01
 0.1844108154960E+01
 0.1957397164347E+01
 0.2054567302547E+01
 0.2138189621716E+01
 0.2210463459784E+01
 0.2273323398043E+01
 0.2328568549431E+01
 0.2377986886326E+01
 0.2423421962403E+01
 0.2466742781660E+01
 0.2509754198101E+01
 0.2554126574665E+01
 0.2601388757310E+01
 0.2652977305967E+01
 0.2710314121808E+01
 0.2774889434873E+01
 0.2848332691749E+01
 0.2932415719470E+01
 0.1558311854960E+01
 0.1710049958187E+01
 0.1840779976864E+01
 0.1952678065459E+01
 0.2048511289553E+01
 0.2130733645223E+01
 0.2201462715645E+01
 0.2262568645824E+01
 0.2315799972205E+01
 0.2362914139865E+01
 0.2405747125524E+01
 0.2446172001959E+01
 0.2485988509507E+01
 0.2526834027135E+01
 0.2570166628333E+01
 0.2617313910165E+01
 0.2669557834630E+01
 0.2728231887931E+01
 0.2794815953108E+01
 0.2870963426867E+01
 0.1558832411942E+01
 0.1708185531638E+01
 0.1837035961801E+01
 0.1947314405779E+01
 0.2041584341070E+01
 0.2122168996635E+01
 0.2191094753530E+01
 0.2250159729632E+01
 0.2301056159368E+01
 0.2345509029592E+01
 0.2385349696395E+01
 0.2422460990321E+01
 0.2458642061495E+01
 0.2495497268951E+01
 0.2534407182782E+01
 0.2576576142724E+01
 0.2623124498102E+01
 0.2675201867560E+01
 0.2734111014977E+01
 0.2801365714015E+01
 0.1559534566045E+01
 0.1706214147144E+01
 0.1832939952518E+01
 0.1941371356874E+01
 0.2033849686669E+01
 0.2112556224172E+01
 0.2179418659911E+01
 0.2236157018379E+01
 0.2284402745282E+01
 0.2325847779618E+01
 0.2362323541417E+01
 0.2395730272532E+01
 0.2427873169503E+01
 0.2460325901830E+01
 0.2494387357468E+01
 0.2531126610397E+01
 0.2571482074880E+01
 0.2616392213238E+01
 0.2666956158893E+01
 0.2724524669538E+01
 0.1560461054886E+01
 0.1704199444953E+01
 0.1828564760824E+01
 0.1934923292858E+01
 0.2025379301964E+01
 0.2101963737114E+01
 0.2166500410952E+01
 0.2220627032200E+01
 0.2265911230865E+01
 0.2304012803141E+01
 0.2336769747723E+01
 0.2366109308047E+01
 0.2393851396231E+01
 0.2421543819675E+01
 0.2450402682718E+01
 0.2481352886007E+01
 0.2515132404339E+01
 0.2552440806364E+01
 0.2594144708654E+01
 0.2641414086749E+01
 0.1561659688989E+01
 0.1702212738663E+01
 0.1823992132290E+01
 0.1928053902465E+01
 0.2016253980754E+01
 0.2090467628609E+01
 0.2152412307626E+01
 0.2203641435678E+01
 0.2245657543179E+01
 0.2280090875475E+01
 0.2308794436448E+01
 0.2333733802420E+01
 0.2356753923989E+01
 0.2379383952468E+01
 0.2402759750119E+01
 0.2427657418898E+01
 0.2454598884824E+01
 0.2484015904647E+01
 0.2516509533264E+01
 0.2553040194255E+01
 0.1563182987267E+01
 0.1700332685610E+01
 0.1819312746072E+01
 0.1920856457011E+01
 0.2006563565850E+01
 0.2078151578212E+01
 0.2137232379230E+01
 0.2185275883550E+01
 0.2223720349431E+01
 0.2254171033484E+01
 0.2278506401107E+01
 0.2298743064515E+01
 0.2316762159440E+01
 0.2334083156367E+01
 0.2351768333589E+01
 0.2370446443499E+01
 0.2390412647242E+01
 0.2411801119052E+01
 0.2434907857540E+01
 0.2460446311196E+01
 0.1565087467883E+01
 0.1698644741475E+01
 0.1814626304245E+01
 0.1913434336464E+01
 0.1996407411433E+01
 0.2065106866239E+01
 0.2121043766714E+01
 0.2165608699253E+01
 0.2200179063526E+01
 0.2226342092762E+01
 0.2246014479355E+01
 0.2261277448251E+01
 0.2274058885511E+01
 0.2285877771716E+01
 0.2297733557658E+01
 0.2310117804414E+01
 0.2323096945903E+01
 0.2336478752633E+01
 0.2350207367971E+01
 0.2364716660484E+01
 0.1567432358059E+01
 0.1697240311571E+01
 0.1810041865852E+01
 0.1905902014679E+01
 0.1985895173506E+01
 0.2051432560610E+01
 0.2103934139756E+01
 0.2144719433384E+01
 0.2175111517212E+01
 0.2196689709712E+01
 0.2211424532938E+01
 0.2221475907967E+01
 0.2228826380926E+01
 0.2235000887498E+01
 0.2240949173980E+01
 0.2247047781434E+01
 0.2253149035697E+01
 0.2258710673770E+01
 0.2263270995930E+01
 0.2266948154406E+01
 0.1570276984401E+01
 0.1696215346641E+01
 0.1805678717212E+01
 0.1898386670070E+01
 0.1975147935914E+01
 0.2037235766831E+01
 0.2085995208397E+01
 0.2122687277247E+01
 0.2148591198335E+01
 0.2165292731414E+01
 0.2174835808411E+01
 0.2179473196361E+01
 0.2181245651419E+01
 0.2181682407493E+01
 0.2181694078238E+01
 0.2181577416580E+01
 0.2181016155282E+01
 0.2179114919777E+01
 0.2174935236652E+01
 0.2168228789551E+01
 0.1573675689868E+01
 0.1695668643924E+01
 0.1801668527719E+01
 0.1891031309953E+01
 0.1964299246375E+01
 0.2022632185193E+01
 0.2067322458633E+01
 0.2099589672222E+01
 0.2120683864833E+01
 0.2132218735856E+01
 0.2136336328444E+01
 0.2135396727057E+01
 0.2131495324797E+01
 0.2126153952018E+01
 0.2120236043718E+01
 0.2114002662151E+01
 0.2107062008546E+01
 0.2098223877628E+01
 0.2085997205644E+01
 0.2069621180012E+01
 0.1577667630284E+01
 0.1695697886896E+01
 0.1798163469055E+01
 0.1883997449618E+01
 0.1953496619993E+01
 0.2007745237508E+01
 0.2048016800455E+01
 0.2075500614256E+01
 0.2091443359944E+01
 0.2097518088436E+01
 0.2095997457882E+01
 0.2089361774366E+01
 0.2079751315968E+01
 0.2068650524658E+01
 0.2056855851420E+01
 0.2044578342837E+01
 0.2031522398754E+01
 0.2016403661091E+01
 0.1997168023248E+01
 0.1972260111863E+01
 0.1582239538567E+01
 0.1696411495283E+01
 0.1795342643447E+01
 0.1877481620688E+01
 0.1942886708610E+01
 0.1992713978770E+01
 0.2028185520843E+01
 0.2050490308922E+01
 0.2060905702013E+01
 0.2061215929080E+01
 0.2053866940345E+01
 0.2041467902685E+01
 0.2026180030322E+01
 0.2009420477306E+01
 0.1991846146576E+01
 0.1973625021329E+01
 0.1954456561630E+01
 0.1933657312485E+01
 0.1908974985613E+01
 0.1877437913212E+01
 0.1587300551245E+01
 0.1697848724876E+01
 0.1793586417292E+01
 0.1871608374500E+01
 0.1932649222563E+01
 0.1977686733916E+01
 0.2007951858492E+01
 0.2024624469899E+01
 0.2029080996228E+01
 0.2023300073805E+01
 0.2009960519631E+01
 0.1991795705755E+01
 0.1970940287916E+01
 0.1948697375924E+01
 0.1925575349996E+01
 0.1901455842065E+01
 0.1876277584666E+01
 0.1849093116703E+01
 0.1820972993255E+01
 0.1787365915334E+01
 0.1591131283410E+01
 0.1701471993983E+01
 0.1792777577991E+01
 0.1866636611801E+01
 0.1922934596842E+01
 0.1962847913135E+01
 0.1987455293338E+01
 0.1997978188185E+01
 0.1995936213904E+01
 0.1983695554672E+01
 0.1964259463886E+01
 0.1940403590016E+01
 0.1914181255031E+01
 0.1886718061943E+01
 0.1858330237437E+01
 0.1828769670235E+01
 0.1797038066182E+01
 0.1763887099422E+01
 0.1727705500580E+01
 0.1703101770736E+01
 0.4259892932602E+01
 0.1738737852767E+01
 0.1356808690570E+01
 0.1086967233931E+01
 0.8739731926621E+00
 0.6516339190855E+00
 0.4064252425426E+00
 0.1819881898259E+00
 0.1641635870771E-01
-0.3493999783584E-01
-0.3166541859538E-01
-0.1050953815145E-01
 0.1060914704781E-01
 0.2607274612568E-01
 0.3590426005167E-01
 0.3791727217609E-01
 0.3004871542251E-01
 0.1888734757239E-01
 0.3337347841067E-02
-0.1652557668954E-01
 0.3266948205821E+01
 0.2318188195179E+01
 0.1467398838426E+01
 0.1198452355820E+01
 0.9723007107346E+00
 0.7579880724176E+00
 0.5339638766264E+00
 0.3129405610822E+00
 0.1213703081984E+00
-0.2536192673593E-01
-0.4096225943125E-01
-0.1924020284486E-01
 0.5338478704561E-02
 0.2579096430457E-01
 0.3939146020325E-01
 0.4350896180406E-01
 0.3813310340254E-01
 0.2395309024805E-01
 0.2282288892643E-02
-0.2652727669800E-01
 0.2820942571521E+01
 0.2359137356221E+01
 0.1691431760933E+01
 0.1301656141414E+01
 0.1074970749965E+01
 0.8645209484960E+00
 0.6533337360770E+00
 0.4384958432059E+00
 0.2391042035955E+00
 0.8404662134621E-01
-0.2944644446115E-01
-0.3173730621156E-01
-0.3807928290147E-02
 0.2149098563529E-01
 0.3998613767752E-01
 0.4855420460589E-01
 0.4582454381333E-01
 0.3219184018055E-01
 0.5994881688349E-02
-0.3009540252912E-01
 0.2549065769577E+01
 0.2309788400779E+01
 0.1821046757879E+01
 0.1432734372532E+01
 0.1177008011987E+01
 0.9709746798141E+00
 0.7682525563084E+00
 0.5604542095526E+00
 0.3602461052065E+00
 0.1986211050025E+00
 0.7586215252757E-01
-0.1597067073573E-01
-0.1718723154593E-01
 0.1293120906732E-01
 0.3703934625982E-01
 0.5127176811969E-01
 0.5313706058942E-01
 0.4216879870389E-01
 0.1446289222810E-01
-0.2794338763232E-01
 0.2361028424280E+01
 0.2241630065279E+01
 0.1890031267927E+01
 0.1547919494178E+01
 0.1285829443338E+01
 0.1076455403496E+01
 0.8805204177317E+00
 0.6796533147702E+00
 0.4821432295074E+00
 0.3171183399241E+00
 0.1870275644763E+00
 0.8511664107785E-01
 0.7129523405422E-02
-0.2378777453474E-03
 0.2980416173556E-01
 0.5067337209296E-01
 0.5883640298921E-01
 0.5297123200137E-01
 0.2695798771807E-01
-0.1789043586459E-01
 0.2221177627417E+01
 0.2173326207018E+01
 0.1923720802804E+01
 0.1639331695780E+01
 0.1391155741118E+01
 0.1182572519563E+01
 0.9908315233490E+00
 0.7967279705435E+00
 0.6038003050313E+00
 0.4381756544272E+00
 0.3031176229313E+00
 0.1933322781570E+00
 0.1050799563059E+00
 0.3668516177085E-01
 0.1764562812595E-01
 0.4574088968815E-01
 0.6161980337593E-01
 0.6312988327474E-01
 0.4222098727089E-01
-0.5915448513535E-03
 0.2112297567397E+01
 0.2110142874984E+01
 0.1936952377524E+01
 0.1709047667526E+01
 0.1486620600812E+01
 0.1286470181881E+01
 0.1099808245868E+01
 0.9120659515420E+00
 0.7248330741344E+00
 0.5607681544099E+00
 0.4231097903269E+00
 0.3076648607575E+00
 0.2112841677706E+00
 0.1326338064769E+00
 0.7044057822295E-01
 0.3573378880538E-01
 0.6007408661124E-01
 0.7081046124903E-01
 0.5826694397755E-01
 0.2186210572591E-01
 0.2024868947101E+01
 0.2053329311822E+01
 0.1938226975669E+01
 0.1761207662351E+01
 0.1569849249063E+01
 0.1384888954908E+01
 0.1206481993360E+01
 0.1025824072366E+01
 0.8450473500402E+00
 0.6841796471007E+00
 0.5460257591625E+00
 0.4271180726010E+00
 0.3247900500666E+00
 0.2379372316874E+00
 0.1654777249725E+00
 0.1069042686175E+00
 0.6327157569253E-01
 0.7404356401549E-01
 0.7254194148406E-01
 0.4656326811536E-01
 0.1953110910096E+01
 0.2002811310407E+01
 0.1932513237200E+01
 0.1799735071562E+01
 0.1640728310590E+01
 0.1475577816285E+01
 0.1309160945288E+01
 0.1137454963178E+01
 0.9641865392468E+00
 0.8078500409673E+00
 0.6710048635875E+00
 0.5506917421612E+00
 0.4445977711380E+00
 0.3517391713061E+00
 0.2710990812378E+00
 0.2022321775341E+00
 0.1456105970589E+00
 0.1001048661946E+00
 0.8316000994413E-01
 0.7176283489802E-01
 0.1893260178258E+01
 0.1958085751654E+01
 0.1922785332227E+01
 0.1827825399102E+01
 0.1700185168818E+01
 0.1557390608043E+01
 0.1406211567925E+01
 0.1245879197534E+01
 0.1081667058670E+01
 0.9312008853201E+00
 0.7972564687219E+00
 0.6774121350136E+00
 0.5696523113790E+00
 0.4730381338199E+00
 0.3865211181067E+00
 0.3096077009533E+00
 0.2427396444190E+00
 0.1844064223888E+00
 0.1412590863937E+00
 0.1252568597391E+00
 0.1842731050870E+01
 0.1918540933173E+01
 0.1910858818556E+01
 0.1847948396100E+01
 0.1749521909107E+01
 0.1630007527178E+01
 0.1496406949427E+01
 0.1349839634318E+01
 0.1196566168863E+01
 0.1053482125612E+01
 0.9239651085559E+00
 0.8063094801601E+00
 0.6988533265413E+00
 0.6006963221804E+00
 0.5107119562271E+00
 0.4282697497898E+00
 0.3536637161472E+00
 0.2852014838421E+00
 0.2301738218815E+00
 0.2024335293994E+00
 0.1799668232526E+01
 0.1883573234746E+01
 0.1897855441302E+01
 0.1861974693759E+01
 0.1790088206201E+01
 0.1693634053207E+01
 0.1578991068908E+01
 0.1448172374938E+01
 0.1307767556375E+01
 0.1173736178435E+01
 0.1050207814200E+01
 0.9363699942079E+00
 0.8310455806411E+00
 0.7334476145034E+00
 0.6423959037176E+00
 0.5570849981183E+00
 0.4775559013355E+00
 0.4018741064689E+00
 0.3376317431379E+00
 0.2997513413151E+00
 0.1762692647427E+01
 0.1852626836321E+01
 0.1884469414135E+01
 0.1871310283822E+01
 0.1823135391509E+01
 0.1748769841139E+01
 0.1653615590424E+01
 0.1539946113103E+01
 0.1414131634077E+01
 0.1290860409575E+01
 0.1174931551832E+01
 0.1066499624584E+01
 0.9650042586892E+00
 0.8699036131649E+00
 0.7800636594952E+00
 0.6945394684104E+00
 0.6130574069268E+00
 0.5333737893047E+00
 0.4629115229456E+00
 0.4169291370621E+00
 0.1730749155700E+01
 0.1825203743789E+01
 0.1871124550705E+01
 0.1877008614969E+01
 0.1849761649538E+01
 0.1796052926352E+01
 0.1720239570448E+01
 0.1624502213945E+01
 0.1514622392750E+01
 0.1403706443450E+01
 0.1296987058393E+01
 0.1195523582522E+01
 0.1099439013785E+01
 0.1008572100943E+01
 0.9219972900497E+00
 0.8387487997555E+00
 0.7582630779953E+00
 0.6779324188306E+00
 0.6044843743432E+00
 0.5527036061508E+00
 0.1703011728637E+01
 0.1800862944326E+01
 0.1858069706315E+01
 0.1879856860432E+01
 0.1870900670295E+01
 0.1836162162107E+01
 0.1779033296257E+01
 0.1701439195684E+01
 0.1608377423807E+01
 0.1511168899992E+01
 0.1415185735766E+01
 0.1322216007078E+01
 0.1233026110731E+01
 0.1147913740972E+01
 0.1066326602816E+01
 0.9875039329833E+00
 0.9107207452946E+00
 0.8330643767274E+00
 0.7599606152286E+00
 0.7048130177018E+00
 0.1678823108526E+01
 0.1779216292399E+01
 0.1845438326133E+01
 0.1880440108120E+01
 0.1887329585232E+01
 0.1869758825660E+01
 0.1830299708063E+01
 0.1770573684157E+01
 0.1694734221879E+01
 0.1612245226573E+01
 0.1528348310741E+01
 0.1445328374108E+01
 0.1364453375416E+01
 0.1286432980121E+01
 0.1211183492380E+01
 0.1138356180475E+01
 0.1067493761048E+01
 0.9955092002657E+00
 0.9261488910224E+00
 0.8700982810454E+00
 0.1657656667803E+01
 0.1759925347145E+01
 0.1833284316021E+01
 0.1879189888227E+01
 0.1899684091801E+01
 0.1897453249960E+01
 0.1874413034287E+01
 0.1831895971845E+01
 0.1773232851133E+01
 0.1706073709993E+01
 0.1635335291856E+01
 0.1563589484955E+01
 0.1492416576885E+01
 0.1422774131444E+01
 0.1354913659581E+01
 0.1289023003086E+01
 0.1225141518758E+01
 0.1161307111365E+01
 0.1098799951200E+01
 0.1044713488323E+01
 0.1639104994501E+01
 0.1742691031405E+01
 0.1821607759760E+01
 0.1876413150336E+01
 0.1908485057946E+01
 0.1919782809708E+01
 0.1911769311625E+01
 0.1885523805046E+01
 0.1843608795789E+01
 0.1791968165699E+01
 0.1735080746951E+01
 0.1675679445436E+01
 0.1615528740236E+01
 0.1555636562984E+01
 0.1496321812856E+01
 0.1437853717939E+01
 0.1381042648424E+01
 0.1324782665692E+01
 0.1272850480637E+01
 0.1223408721604E+01
 0.1622863381182E+01
 0.1727306694769E+01
 0.1810274432766E+01
 0.1872375088967E+01
 0.1914147348677E+01
 0.1937211749164E+01
 0.1942735265733E+01
 0.1931646405651E+01
 0.1905776780575E+01
 0.1869461262616E+01
 0.1826667540528E+01
 0.1780248943872E+01
 0.1732168674069E+01
 0.1683457191186E+01
 0.1634254633539E+01
 0.1584523468275E+01
 0.1534271571460E+01
 0.1484347432750E+01
 0.1435194580185E+01
 0.1400528572984E+01
 0.1609583557921E+01
 0.1712828851021E+01
 0.1799402874098E+01
 0.1867196966196E+01
 0.1917057972021E+01
 0.1950135841026E+01
 0.1967613057611E+01
 0.1970420205908E+01
 0.1959781418045E+01
 0.1938367425199E+01
 0.1909455482512E+01
 0.1876075871302E+01
 0.1840498732899E+01
 0.1803977436371E+01
 0.1766659046105E+01
 0.1727999419961E+01
 0.1687546370777E+01
 0.1642659887508E+01
 0.1596956152779E+01
 0.1531311049828E+01
 0.1609583562090E+01
 0.1712828853386E+01
 0.1799402874851E+01
 0.1867196965622E+01
 0.1917057970493E+01
 0.1950135838912E+01
 0.1967613055253E+01
 0.1970420203586E+01
 0.1959781415978E+01
 0.1938367423526E+01
 0.1909455481262E+01
 0.1876075870430E+01
 0.1840498732336E+01
 0.1803977436048E+01
 0.1766659045963E+01
 0.1727999419966E+01
 0.1687546370918E+01
 0.1642659887676E+01
 0.1596956153448E+01
 0.1531311051121E+01
 0.1622863385618E+01
 0.1727306697624E+01
 0.1810274433882E+01
 0.1872375088642E+01
 0.1914147347263E+01
 0.1937211747040E+01
 0.1942735263244E+01
 0.1931646403078E+01
 0.1905776778167E+01
 0.1869461260553E+01
 0.1826667538853E+01
 0.1780248942561E+01
 0.1732168673067E+01
 0.1683457190429E+01
 0.1634254632973E+01
 0.1584523467887E+01
 0.1534271571258E+01
 0.1484347432818E+01
 0.1435194580945E+01
 0.1400528574500E+01
 0.1639104999339E+01
 0.1742691034704E+01
 0.1821607761246E+01
 0.1876413150227E+01
 0.1908485056599E+01
 0.1919782807508E+01
 0.1911769308926E+01
 0.1885523802127E+01
 0.1843608792940E+01
 0.1791968163159E+01
 0.1735080744785E+01
 0.1675679443634E+01
 0.1615528738753E+01
 0.1555636561766E+01
 0.1496321811860E+01
 0.1437853717166E+01
 0.1381042647892E+01
 0.1324782665376E+01
 0.1272850481030E+01
 0.1223408723251E+01
 0.1657656673095E+01
 0.1759925350916E+01
 0.1833284317852E+01
 0.1879189888295E+01
 0.1899684090458E+01
 0.1897453247610E+01
 0.1874413031294E+01
 0.1831895968491E+01
 0.1773232847762E+01
 0.1706073706914E+01
 0.1635335289159E+01
 0.1563589482641E+01
 0.1492416574916E+01
 0.1422774129771E+01
 0.1354913658156E+01
 0.1289023001898E+01
 0.1225141517771E+01
 0.1161307110486E+01
 0.1098799951137E+01
 0.1044713489981E+01
 0.1678823114315E+01
 0.1779216296659E+01
 0.1845438328283E+01
 0.1880440108308E+01
 0.1887329583822E+01
 0.1869758823078E+01
 0.1830299704693E+01
 0.1770573680289E+01
 0.1694734217924E+01
 0.1612245222919E+01
 0.1528348307501E+01
 0.1445328371289E+01
 0.1364453372978E+01
 0.1286432978007E+01
 0.1211183490522E+01
 0.1138356178831E+01
 0.1067493759540E+01
 0.9955091987874E+00
 0.9261488904856E+00
 0.8700982826235E+00
 0.1703011734959E+01
 0.1800862949084E+01
 0.1858069708749E+01
 0.1879856860671E+01
 0.1870900668731E+01
 0.1836162159207E+01
 0.1779033292434E+01
 0.1701439191241E+01
 0.1608377419230E+01
 0.1511168895756E+01
 0.1415185731998E+01
 0.1322216003782E+01
 0.1233026107857E+01
 0.1147913738444E+01
 0.1066326600537E+01
 0.9875039308861E+00
 0.9107207432826E+00
 0.8330643746998E+00
 0.7599606142670E+00
 0.7048130191542E+00
 0.1730749162588E+01
 0.1825203749042E+01
 0.1871124553371E+01
 0.1877008615172E+01
 0.1849761647724E+01
 0.1796052923046E+01
 0.1720239566106E+01
 0.1624502208886E+01
 0.1514622387542E+01
 0.1403706438653E+01
 0.1296987054139E+01
 0.1195523578799E+01
 0.1099439010521E+01
 0.1008572098041E+01
 0.9219972873909E+00
 0.8387487972573E+00
 0.7582630755584E+00
 0.6779324163703E+00
 0.6044843730628E+00
 0.5527036074817E+00
 0.1762692654914E+01
 0.1852626842055E+01
 0.1884469416962E+01
 0.1871310283886E+01
 0.1823135389339E+01
 0.1748769837347E+01
 0.1653615585519E+01
 0.1539946107418E+01
 0.1414131628262E+01
 0.1290860404266E+01
 0.1174931547152E+01
 0.1066499620496E+01
 0.9650042550973E+00
 0.8699036099540E+00
 0.7800636565299E+00
 0.6945394656067E+00
 0.6130574041942E+00
 0.5333737865788E+00
 0.4629115215005E+00
 0.4169291383277E+00
 0.1799668240643E+01
 0.1883573240932E+01
 0.1897855444194E+01
 0.1861974693559E+01
 0.1790088203566E+01
 0.1693634048862E+01
 0.1578991063421E+01
 0.1448172368651E+01
 0.1307767550007E+01
 0.1173736172685E+01
 0.1050207809170E+01
 0.9363699898306E+00
 0.8310455767984E+00
 0.7334476110669E+00
 0.6423959005470E+00
 0.5570849951375E+00
 0.4775558984717E+00
 0.4018741036805E+00
 0.3376317417174E+00
 0.2997513426154E+00
 0.1842731059646E+01
 0.1918540939764E+01
 0.1910858821392E+01
 0.1847948395489E+01
 0.1749521905897E+01
 0.1630007522235E+01
 0.1496406943379E+01
 0.1349839627491E+01
 0.1196566162025E+01
 0.1053482119508E+01
 0.9239651032618E+00
 0.8063094755793E+00
 0.6988533225372E+00
 0.6006963186190E+00
 0.5107119529726E+00
 0.4282697467823E+00
 0.3536637133377E+00
 0.2852014812142E+00
 0.2301738206927E+00
 0.2024335308606E+00
 0.1893260187725E+01
 0.1958085758580E+01
 0.1922785334847E+01
 0.1827825397915E+01
 0.1700185164936E+01
 0.1557390602499E+01
 0.1406211561381E+01
 0.1245879190267E+01
 0.1081667051463E+01
 0.9312008789584E+00
 0.7972564632568E+00
 0.6774121303220E+00
 0.5696523073128E+00
 0.4730381302463E+00
 0.3865211149024E+00
 0.3096076980801E+00
 0.2427396418554E+00
 0.1844064201468E+00
 0.1412590856421E+00
 0.1252568614612E+00
 0.1953110920290E+01
 0.2002811317568E+01
 0.1932513239400E+01
 0.1799735069619E+01
 0.1640728305969E+01
 0.1475577810192E+01
 0.1309160938366E+01
 0.1137454955595E+01
 0.9641865317797E+00
 0.8078500344450E+00
 0.6710048580470E+00
 0.5506917374581E+00
 0.4445977671161E+00
 0.3517391678396E+00
 0.2710990782216E+00
 0.2022321749552E+00
 0.1456105949261E+00
 0.1001048645933E+00
 0.8316000937145E-01
 0.7176283450044E-01
 0.2024868958064E+01
 0.2053329319072E+01
 0.1938226977187E+01
 0.1761207659467E+01
 0.1569849243698E+01
 0.1384888948392E+01
 0.1206481986218E+01
 0.1025824064600E+01
 0.8450473424137E+00
 0.6841796405136E+00
 0.5460257536473E+00
 0.4271180679908E+00
 0.3247900461989E+00
 0.2379372284471E+00
 0.1654777222778E+00
 0.1069042664830E+00
 0.6327157437910E-01
 0.7404356447224E-01
 0.7254193995902E-01
 0.4656326561135E-01
 0.2112297579184E+01
 0.2110142882107E+01
 0.1936952378028E+01
 0.1709047663540E+01
 0.1486620594797E+01
 0.1286470175153E+01
 0.1099808238686E+01
 0.9120659437067E+00
 0.7248330664382E+00
 0.5607681478597E+00
 0.4231097849459E+00
 0.3076648563473E+00
 0.2112841641637E+00
 0.1326338035751E+00
 0.7044057597173E-01
 0.3573379012176E-01
 0.6007408730862E-01
 0.7081046101272E-01
 0.5826694165208E-01
 0.2186210228382E-01
 0.2221177640103E+01
 0.2173326213686E+01
 0.1923720801879E+01
 0.1639331690623E+01
 0.1391155734702E+01
 0.1182572512898E+01
 0.9908315162779E+00
 0.7967279627175E+00
 0.6038002973575E+00
 0.4381756480311E+00
 0.3031176177999E+00
 0.1933322740490E+00
 0.1050799530572E+00
 0.3668515930737E-01
 0.1764562960688E-01
 0.4574089062622E-01
 0.6161980352814E-01
 0.6312988240705E-01
 0.4222098436445E-01
-0.5915489429329E-03
 0.2361028437971E+01
 0.2241630070963E+01
 0.1890031265085E+01
 0.1547919487997E+01
 0.1285829436965E+01
 0.1076455397157E+01
 0.8805204108391E+00
 0.6796533070140E+00
 0.4821432219754E+00
 0.3171183338204E+00
 0.1870275597059E+00
 0.8511663735880E-01
 0.7129520601229E-02
-0.2378762255159E-03
 0.2980416287293E-01
 0.5067337259981E-01
 0.5883640265526E-01
 0.5297123063801E-01
 0.2695798451332E-01
-0.1789044015205E-01
 0.2549065784423E+01
 0.2309788404573E+01
 0.1821046752672E+01
 0.1432734365928E+01
 0.1177008006236E+01
 0.9709746738907E+00
 0.7682525495918E+00
 0.5604542019517E+00
 0.3602460979871E+00
 0.1986210993413E+00
 0.7586214820135E-01
-0.1597067398216E-01
-0.1718723006423E-01
 0.1293121032132E-01
 0.3703934706041E-01
 0.5127176823797E-01
 0.5313705987198E-01
 0.4216879702854E-01
 0.1446288903636E-01
-0.2794339070472E-01
 0.2820942587685E+01
 0.2359137356461E+01
 0.1691431753425E+01
 0.1301656135778E+01
 0.1074970745074E+01
 0.8645209429023E+00
 0.6533337295289E+00
 0.4384958359091E+00
 0.2391041969370E+00
 0.8404661624414E-01
-0.2944644826737E-01
-0.3173730489867E-01
-0.3807927007921E-02
 0.2149098663075E-01
 0.3998613817125E-01
 0.4855420440559E-01
 0.4582454284301E-01
 0.3219183839973E-01
 0.5994878814991E-02
-0.3009540277712E-01
 0.3266948223316E+01
 0.2318188188319E+01
 0.1467398831774E+01
 0.1198452351981E+01
 0.9723007064869E+00
 0.7579880670738E+00
 0.5339638702155E+00
 0.3129405543836E+00
 0.1213703024477E+00
-0.2536193128078E-01
-0.4096225855312E-01
-0.1924020166335E-01
 0.5338479793767E-02
 0.2579096506451E-01
 0.3939146044313E-01
 0.4350896137503E-01
 0.3813310231597E-01
 0.2395308857036E-01
 0.2282286617681E-02
-0.2652727775776E-01
 0.4259892941557E+01
 0.1738737843752E+01
 0.1356808687986E+01
 0.1086967231187E+01
 0.8739731890218E+00
 0.6516339139030E+00
 0.4064252360126E+00
 0.1819881846070E+00
 0.1641635404820E-01
-0.3493999820406E-01
-0.3166541776240E-01
-0.1050953707986E-01
 0.1060914796251E-01
 0.2607274666270E-01
 0.3590426015329E-01
 0.3791727160758E-01
 0.3004871430072E-01
 0.1888734622657E-01
 0.3337346388841E-02
-0.1652557915029E-01
 0.1655218703952E+01
 0.1415682643206E+01
 0.1230556327526E+01
 0.1048384771051E+01
 0.8723386764811E+00
 0.7059692169702E+00
 0.5536515385806E+00
 0.4189079276491E+00
 0.3042348954261E+00
 0.2108778397424E+00
 0.1387107036564E+00
 0.8617816123481E-01
 0.5063950071577E-01
 0.2882497660512E-01
 0.1663508024849E-01
 0.1010167773277E-01
 0.6193351690566E-02
 0.3235301682578E-02
 0.9545510030925E-03
 0.1154920231904E-02
 0.1715810739043E+01
 0.1543652119718E+01
 0.1343740543226E+01
 0.1154277157974E+01
 0.9699011004574E+00
 0.7941782395854E+00
 0.6310541887501E+00
 0.4846541144994E+00
 0.3582859703623E+00
 0.2540646657898E+00
 0.1726217601491E+00
 0.1129724600888E+00
 0.7279480565261E-01
 0.4863836568338E-01
 0.3588283634733E-01
 0.2972344110695E-01
 0.2614333098329E-01
 0.2259000119850E-01
 0.1835469721759E-01
 0.1378270831137E-01
 0.1802471663347E+01
 0.1645495324462E+01
 0.1464339812845E+01
 0.1273261243273E+01
 0.1083971158436E+01
 0.9001409758921E+00
 0.7264882463071E+00
 0.5676285209893E+00
 0.4277341150463E+00
 0.3099356603651E+00
 0.2159057200350E+00
 0.1455800666949E+00
 0.9727249237610E-01
 0.6780289300772E-01
 0.5237704696438E-01
 0.4548440117604E-01
 0.4203796928783E-01
 0.3841356104979E-01
 0.3298649804472E-01
 0.2629184842903E-01
 0.1897796097805E+01
 0.1753547736165E+01
 0.1585276556585E+01
 0.1402294920302E+01
 0.1212866178760E+01
 0.1024065858502E+01
 0.8413507040749E+00
 0.6701579958471E+00
 0.5155573493567E+00
 0.3818304981821E+00
 0.2719468041507E+00
 0.1871305550075E+00
 0.1267421989306E+00
 0.8834200175340E-01
 0.6741666123805E-01
 0.5801429441326E-01
 0.5398629855620E-01
 0.5030833969973E-01
 0.4427740445200E-01
 0.3566499327776E-01
 0.1999214684689E+01
 0.1867009710463E+01
 0.1712260974172E+01
 0.1539718038995E+01
 0.1355690502237E+01
 0.1166381639425E+01
 0.9778951686475E+00
 0.7961614958397E+00
 0.6270310755652E+00
 0.4758876497786E+00
 0.3471333790443E+00
 0.2436248321469E+00
 0.1662840386783E+00
 0.1140097846983E+00
 0.8328840600645E-01
 0.6832111561976E-01
 0.6214991184544E-01
 0.5815475000227E-01
 0.5175181303969E-01
 0.4155256267934E-01
 0.2104541021809E+01
 0.1985117681657E+01
 0.1844703093112E+01
 0.1685272663034E+01
 0.1510788233295E+01
 0.1326137614397E+01
 0.1136711993466E+01
 0.9483354870105E+00
 0.7671040325781E+00
 0.5991198683745E+00
 0.4500117919126E+00
 0.3243308197076E+00
 0.2249450616324E+00
 0.1526756867309E+00
 0.1058693980467E+00
 0.7992754901091E-01
 0.6793774306210E-01
 0.6201119574685E-01
 0.5526928714208E-01
 0.4391876568099E-01
 0.2212322792263E+01
 0.2106645038478E+01
 0.1981776019049E+01
 0.1837784815395E+01
 0.1676701557184E+01
 0.1501753937391E+01
 0.1317081975713E+01
 0.1127613742933E+01
 0.9389741671844E+00
 0.7572827177588E+00
 0.5888013242224E+00
 0.4394031126909E+00
 0.3139086646842E+00
 0.2154532340694E+00
 0.1449498644773E+00
 0.1002615839392E+00
 0.7594422592217E-01
 0.6400417371111E-01
 0.5550268124649E-01
 0.4336719855815E-01
 0.2320987298234E+01
 0.2229999768451E+01
 0.2121819507051E+01
 0.1995346111378E+01
 0.1851095319620E+01
 0.1690744736969E+01
 0.1516941455393E+01
 0.1333253894866E+01
 0.1144152866145E+01
 0.9549489254987E+00
 0.7716160992176E+00
 0.6004586032846E+00
 0.4475932519635E+00
 0.3182847137874E+00
 0.2162611437865E+00
 0.1428473759014E+00
 0.9589537773859E-01
 0.6960663684651E-01
 0.5480437280237E-01
 0.4096488529315E-01
 0.2428927860851E+01
 0.2353311966647E+01
 0.2262673988723E+01
 0.2155293569697E+01
 0.2030657716241E+01
 0.1889199896111E+01
 0.1732189596142E+01
 0.1561723913812E+01
 0.1380768014076E+01
 0.1193192029571E+01
 0.1003759502080E+01
 0.8180207081456E+00
 0.6420664239095E+00
 0.4821077697426E+00
 0.3438973319808E+00
 0.2320134708453E+00
 0.1487342072834E+00
 0.9296305783154E-01
 0.5998667558938E-01
 0.3908044442445E-01
 0.2534561083139E+01
 0.2474677373111E+01
 0.2402019409121E+01
 0.2314665965655E+01
 0.2211523513632E+01
 0.2092193027850E+01
 0.1956904243848E+01
 0.1806518238666E+01
 0.1642574571165E+01
 0.1467357919165E+01
 0.1283958346840E+01
 0.1096298421802E+01
 0.9090957909531E+00
 0.7277250966173E+00
 0.5579478851636E+00
 0.4054968184683E+00
 0.2754650685410E+00
 0.1712075994348E+00
 0.9442235842982E-01
 0.4640046879484E-01
 0.2636409094768E+01
 0.2592288122428E+01
 0.2537612096867E+01
 0.2470534162495E+01
 0.2389737239494E+01
 0.2294380336687E+01
 0.2184064366422E+01
 0.2058834969102E+01
 0.1919216073854E+01
 0.1766262448718E+01
 0.1601618130900E+01
 0.1427565924458E+01
 0.1247050021270E+01
 0.1063647932237E+01
 0.8814587744747E+00
 0.7048691507886E+00
 0.5381121449851E+00
 0.3845259125260E+00
 0.2445949692463E+00
 0.1205178373253E+00
 0.2733107823335E+01
 0.2704536529444E+01
 0.2667548082998E+01
 0.2620513000770E+01
 0.2562121462671E+01
 0.2491373458210E+01
 0.2407572443418E+01
 0.2310335200474E+01
 0.2199620691744E+01
 0.2075773947446E+01
 0.1939578615704E+01
 0.1792310310583E+01
 0.1635780802361E+01
 0.1472359198622E+01
 0.1304949786780E+01
 0.1136890210272E+01
 0.9717165245679E+00
 0.8125497038979E+00
 0.6609639701677E+00
 0.5087103737932E+00
 0.2823280136144E+01
 0.2809782639491E+01
 0.2789897053504E+01
 0.2762281104501E+01
 0.2725756072669E+01
 0.2679330525066E+01
 0.2622213801470E+01
 0.2553835973413E+01
 0.2473880304445E+01
 0.2382329652073E+01
 0.2279525977205E+01
 0.2166241339850E+01
 0.2043758452519E+01
 0.1913958648438E+01
 0.1779414060180E+01
 0.1643480913054E+01
 0.1510375281659E+01
 0.1385237834126E+01
 0.1273773339723E+01
 0.1182129671152E+01
 0.2905558010797E+01
 0.2906282273014E+01
 0.2902504774904E+01
 0.2893186777741E+01
 0.2877341228504E+01
 0.2854074191261E+01
 0.2822610018551E+01
 0.2782316240658E+01
 0.2732736153258E+01
 0.2673632973741E+01
 0.2605047745741E+01
 0.2527372752577E+01
 0.2441442740662E+01
 0.2348647620569E+01
 0.2251073319836E+01
 0.2151681699057E+01
 0.2054558340046E+01
 0.1965263764613E+01
 0.1891567703740E+01
 0.1845740505442E+01
 0.2978659603395E+01
 0.2992367593046E+01
 0.3003278898564E+01
 0.3010642545249E+01
 0.3013683126230E+01
 0.3011647506351E+01
 0.3003833662009E+01
 0.2989615224062E+01
 0.2968469385759E+01
 0.2940012747594E+01
 0.2904048179279E+01
 0.2860625365115E+01
 0.2810118056970E+01
 0.2753322275553E+01
 0.2691581907407E+01
 0.2626953472963E+01
 0.2562428724531E+01
 0.2502268372136E+01
 0.2452553883835E+01
 0.2421545445515E+01
 0.3041434048549E+01
 0.3066532123204E+01
 0.3090320450141E+01
 0.3112299511399E+01
 0.3131896860439E+01
 0.3148510610615E+01
 0.3161536048068E+01
 0.3170385516227E+01
 0.3174507972708E+01
 0.3173412297508E+01
 0.3166697146734E+01
 0.3154089518707E+01
 0.3135494024532E+01
 0.3111054973467E+01
 0.3081233893516E+01
 0.3046905384638E+01
 0.3009475703821E+01
 0.2971021606572E+01
 0.2934380393672E+01
 0.2903225194341E+01
 0.3092888857578E+01
 0.3127475461947E+01
 0.3161987120391E+01
 0.3196128932879E+01
 0.3229503556232E+01
 0.3261647718556E+01
 0.3292053171508E+01
 0.3320179367985E+01
 0.3345462735419E+01
 0.3367325715961E+01
 0.3385187615115E+01
 0.3398478554696E+01
 0.3406657247360E+01
 0.3409232719637E+01
 0.3405789170171E+01
 0.3396011622737E+01
 0.3379705938544E+01
 0.3356796245621E+01
 0.3327280392327E+01
 0.3291132205592E+01
 0.3132208681171E+01
 0.3174130611276E+01
 0.3216930693798E+01
 0.3260468060531E+01
 0.3304481745174E+01
 0.3348620142525E+01
 0.3392455466391E+01
 0.3435488695179E+01
 0.3477148699308E+01
 0.3516787844120E+01
 0.3553675405148E+01
 0.3586989426228E+01
 0.3615807049899E+01
 0.3639092683185E+01
 0.3655682482615E+01
 0.3664262250961E+01
 0.3663333995565E+01
 0.3651167226060E+01
 0.3625744404173E+01
 0.3584618463517E+01
 0.3158770606981E+01
 0.3205684553920E+01
 0.3254124848807E+01
 0.3304053460417E+01
 0.3355301873442E+01
 0.3407595632153E+01
 0.3460563394031E+01
 0.3513735531823E+01
 0.3566535198990E+01
 0.3618263558162E+01
 0.3668080045596E+01
 0.3714977988414E+01
 0.3757755504432E+01
 0.3794981346602E+01
 0.3824955179273E+01
 0.3845661817966E+01
 0.3854719905226E+01
 0.3849328449993E+01
 0.3826213828207E+01
 0.3781729008191E+01
 0.3172155827927E+01
 0.3221593954227E+01
 0.3272886589367E+01
 0.3326046814523E+01
 0.3380952701445E+01
 0.3437368994265E+01
 0.3494953207872E+01
 0.3553250671431E+01
 0.3611681135193E+01
 0.3669518345102E+01
 0.3725863248670E+01
 0.3779611060030E+01
 0.3829412230561E+01
 0.3873627459985E+01
 0.3910277337962E+01
 0.3936988201068E+01
 0.3950937400983E+01
 0.3948803136885E+01
 0.3926729263547E+01
 0.3880260342871E+01
 0.3172155828051E+01
 0.3221593954484E+01
 0.3272886589785E+01
 0.3326046815136E+01
 0.3380952702290E+01
 0.3437368995383E+01
 0.3494953209308E+01
 0.3553250673235E+01
 0.3611681137415E+01
 0.3669518347792E+01
 0.3725863251876E+01
 0.3779611063793E+01
 0.3829412234913E+01
 0.3873627464943E+01
 0.3910277343519E+01
 0.3936988207188E+01
 0.3950937407594E+01
 0.3948803143866E+01
 0.3926729270726E+01
 0.3880260350005E+01
 0.3158770607351E+01
 0.3205684554688E+01
 0.3254124850058E+01
 0.3304053462247E+01
 0.3355301875964E+01
 0.3407595635489E+01
 0.3460563398318E+01
 0.3513735537206E+01
 0.3566535205619E+01
 0.3618263566186E+01
 0.3668080055158E+01
 0.3714977999639E+01
 0.3757755517415E+01
 0.3794981361394E+01
 0.3824955195860E+01
 0.3845661836248E+01
 0.3854719924988E+01
 0.3849328470881E+01
 0.3826213849705E+01
 0.3781729029588E+01
 0.3132208681783E+01
 0.3174130612542E+01
 0.3216930695857E+01
 0.3260468063544E+01
 0.3304481749324E+01
 0.3348620148016E+01
 0.3392455473445E+01
 0.3435488704032E+01
 0.3477148710205E+01
 0.3516787857307E+01
 0.3553675420857E+01
 0.3586989444666E+01
 0.3615807071227E+01
 0.3639092707494E+01
 0.3655682509896E+01
 0.3664262281065E+01
 0.3663334028158E+01
 0.3651167260577E+01
 0.3625744439754E+01
 0.3584618498994E+01
 0.3092888858421E+01
 0.3127475463686E+01
 0.3161987123217E+01
 0.3196128937013E+01
 0.3229503561924E+01
 0.3261647726085E+01
 0.3292053181179E+01
 0.3320179380116E+01
 0.3345462750341E+01
 0.3367325734005E+01
 0.3385187636597E+01
 0.3398478579897E+01
 0.3406657276505E+01
 0.3409232752864E+01
 0.3405789207491E+01
 0.3396011663983E+01
 0.3379705983309E+01
 0.3356796293174E+01
 0.3327280441521E+01
 0.3291132254737E+01
 0.3041434049609E+01
 0.3066532125384E+01
 0.3090320453678E+01
 0.3112299516569E+01
 0.3131896867556E+01
 0.3148510620025E+01
 0.3161536060143E+01
 0.3170385531359E+01
 0.3174507991299E+01
 0.3173412319958E+01
 0.3166697173424E+01
 0.3154089549979E+01
 0.3135494060665E+01
 0.3111055014645E+01
 0.3081233939787E+01
 0.3046905435861E+01
 0.3009475759591E+01
 0.2971021666127E+01
 0.2934380455723E+01
 0.2903225256918E+01
 0.2978659604652E+01
 0.2992367595618E+01
 0.3003278902732E+01
 0.3010642551339E+01
 0.3013683134609E+01
 0.3011647517421E+01
 0.3003833676198E+01
 0.2989615241815E+01
 0.2968469407527E+01
 0.2940012773821E+01
 0.2904048210385E+01
 0.2860625401477E+01
 0.2810118098900E+01
 0.2753322323271E+01
 0.2691581961007E+01
 0.2626953532377E+01
 0.2562428789476E+01
 0.2502268442050E+01
 0.2452553957747E+01
 0.2421545521659E+01
 0.2905558012227E+01
 0.2906282275926E+01
 0.2902504779618E+01
 0.2893186784626E+01
 0.2877341237972E+01
 0.2854074203755E+01
 0.2822610034534E+01
 0.2782316260604E+01
 0.2732736177637E+01
 0.2673633003006E+01
 0.2605047780310E+01
 0.2527372792820E+01
 0.2441442786883E+01
 0.2348647672989E+01
 0.2251073378582E+01
 0.2151681764157E+01
 0.2054558411439E+01
 0.1965263842180E+01
 0.1891567787435E+01
 0.1845740595421E+01
 0.2823280137732E+01
 0.2809782642701E+01
 0.2789897058689E+01
 0.2762281112066E+01
 0.2725756083055E+01
 0.2679330538739E+01
 0.2622213818904E+01
 0.2553835995079E+01
 0.2473880330793E+01
 0.2382329683517E+01
 0.2279526014110E+01
 0.2166241382518E+01
 0.2043758501182E+01
 0.1913958703256E+01
 0.1779414121261E+01
 0.1643480980494E+01
 0.1510375355628E+01
 0.1385237915047E+01
 0.1273773428606E+01
 0.1182129771088E+01
 0.2733107825042E+01
 0.2704536532877E+01
 0.2667548088538E+01
 0.2620513008843E+01
 0.2562121473734E+01
 0.2491373472725E+01
 0.2407572461836E+01
 0.2310335223214E+01
 0.2199620719173E+01
 0.2075773979860E+01
 0.1939578653302E+01
 0.1792310353456E+01
 0.1635780850477E+01
 0.1472359251829E+01
 0.1304949844822E+01
 0.1136890272843E+01
 0.9717165914125E+00
 0.8125497749842E+00
 0.6609640460129E+00
 0.5087104552770E+00
 0.2636409096573E+01
 0.2592288126041E+01
 0.2537612102694E+01
 0.2470534170977E+01
 0.2389737251078E+01
 0.2294380351803E+01
 0.2184064385448E+01
 0.2058834992341E+01
 0.1919216101501E+01
 0.1766262480826E+01
 0.1601618167349E+01
 0.1427565964921E+01
 0.1247050065184E+01
 0.1063647978792E+01
 0.8814588226100E+00
 0.7048691992104E+00
 0.5381121922046E+00
 0.3845259569041E+00
 0.2445950089056E+00
 0.1205178689264E+00
 0.2534561085027E+01
 0.2474677376894E+01
 0.2402019415224E+01
 0.2314665974518E+01
 0.2211523525665E+01
 0.2092193043402E+01
 0.1956904263163E+01
 0.1806518261850E+01
 0.1642574598144E+01
 0.1467357949644E+01
 0.1283958380270E+01
 0.1096298457355E+01
 0.9090958275189E+00
 0.7277251328228E+00
 0.5579479194353E+00
 0.4054968491261E+00
 0.2754650939383E+00
 0.1712076181384E+00
 0.9442236920805E-01
 0.4640047163386E-01
 0.2428927862813E+01
 0.2353311970577E+01
 0.2262673995053E+01
 0.2155293578833E+01
 0.2030657728512E+01
 0.1889199911727E+01
 0.1732189615152E+01
 0.1561723936068E+01
 0.1380768039196E+01
 0.1193192056918E+01
 0.1003759530754E+01
 0.8180207370143E+00
 0.6420664516640E+00
 0.4821077950102E+00
 0.3438973534732E+00
 0.2320134875457E+00
 0.1487342186934E+00
 0.9296306414763E-01
 0.5998667796434E-01
 0.3908044497615E-01
 0.2320987300233E+01
 0.2229999772476E+01
 0.2121819513516E+01
 0.1995346120620E+01
 0.1851095331843E+01
 0.1690744752207E+01
 0.1516941473472E+01
 0.1333253915387E+01
 0.1144152888472E+01
 0.9549489487722E+00
 0.7716161224004E+00
 0.6004586252420E+00
 0.4475932715831E+00
 0.3182847301243E+00
 0.2162611562112E+00
 0.1428473842625E+00
 0.9589538245992E-01
 0.6960663888154E-01
 0.5480437339596E-01
 0.4096488530963E-01
 0.2212322794258E+01
 0.2106645042531E+01
 0.1981776025536E+01
 0.1837784824548E+01
 0.1676701569053E+01
 0.1501753951818E+01
 0.1317081992323E+01
 0.1127613761138E+01
 0.9389741862111E+00
 0.7572827367004E+00
 0.5888013421199E+00
 0.4394031286411E+00
 0.3139086779627E+00
 0.2154532442371E+00
 0.1449498714670E+00
 0.1002615881151E+00
 0.7594422800462E-01
 0.6400417458110E-01
 0.5550268161602E-01
 0.4336719866538E-01
 0.2104541023753E+01
 0.1985117685669E+01
 0.1844703099500E+01
 0.1685272671902E+01
 0.1510788244524E+01
 0.1326137627657E+01
 0.1136712008236E+01
 0.9483355026137E+00
 0.7671040482356E+00
 0.5991198832773E+00
 0.4500118053124E+00
 0.3243308310140E+00
 0.2249450704958E+00
 0.1526756930872E+00
 0.1058694021485E+00
 0.7992755138764E-01
 0.6793774437583E-01
 0.6201119658862E-01
 0.5526928781611E-01
 0.4391876610853E-01
 0.1999214686546E+01
 0.1867009714380E+01
 0.1712260980361E+01
 0.1539718047404E+01
 0.1355690512588E+01
 0.1166381651261E+01
 0.9778951813792E+00
 0.7961615088018E+00
 0.6270310880747E+00
 0.4758876612069E+00
 0.3471333888925E+00
 0.2436248401111E+00
 0.1662840446846E+00
 0.1140097889032E+00
 0.8328840878312E-01
 0.6832111746631E-01
 0.6214991324209E-01
 0.5815475125758E-01
 0.5175181419205E-01
 0.4155256354520E-01
 0.1897796099552E+01
 0.1753547739941E+01
 0.1585276562466E+01
 0.1402294928070E+01
 0.1212866188003E+01
 0.1024065868706E+01
 0.8413507146757E+00
 0.6701580062748E+00
 0.5155573590867E+00
 0.3818305067926E+00
 0.2719468113707E+00
 0.1871305607475E+00
 0.1267422032813E+00
 0.8834200495980E-01
 0.6741666365512E-01
 0.5801429641051E-01
 0.5398630040781E-01
 0.5030834150047E-01
 0.4427740610317E-01
 0.3566499457142E-01
 0.1802471664962E+01
 0.1645495328037E+01
 0.1464339818303E+01
 0.1273261250201E+01
 0.1083971166367E+01
 0.9001409843537E+00
 0.7264882548314E+00
 0.5676285291445E+00
 0.4277341224781E+00
 0.3099356668339E+00
 0.2159057254373E+00
 0.1455800710700E+00
 0.9727249588672E-01
 0.6780289589657E-01
 0.5237704950333E-01
 0.4548440359044E-01
 0.4203797168603E-01
 0.3841356339008E-01
 0.3298650017491E-01
 0.2629185012372E-01
 0.1715810740546E+01
 0.1543652123170E+01
 0.1343740548140E+01
 0.1154277163850E+01
 0.9699011069158E+00
 0.7941782462553E+00
 0.6310541952856E+00
 0.4846541206139E+00
 0.3582859758592E+00
 0.2540646705778E+00
 0.1726217642433E+00
 0.1129724636033E+00
 0.7279480877606E-01
 0.4863836861272E-01
 0.3588283924780E-01
 0.2972344406377E-01
 0.2614333396439E-01
 0.2259000406105E-01
 0.1835469973316E-01
 0.1378271027371E-01
 0.1655218705818E+01
 0.1415682646427E+01
 0.1230556331470E+01
 0.1048384775493E+01
 0.8723386811531E+00
 0.7059692216150E+00
 0.5536515429933E+00
 0.4189079317035E+00
 0.3042348990833E+00
 0.2108778430438E+00
 0.1387107067037E+00
 0.8617816417191E-01
 0.5063950372979E-01
 0.2882497980950E-01
 0.1663508366937E-01
 0.1010168131076E-01
 0.6193355271538E-02
 0.3235305041228E-02
 0.9545538852212E-03
 0.1154922230790E-02
</DataArray>
<DataArray type="Float64" Name="CK" NumberOfComponents="1" ComponentName0="CK" format="ascii">
 0.0000000000000E+00
 0.0000000000000E+00
 0.0000000000000E+00
 0.0000000000000E+00
 0.0000000000000E+00
 0.0000000000000E+00
 0.0000000000000E+00
 0.0000000000000E+00
 0.0000000000000E+00
 0.0000000000000E+00
 0.0000000000000E+00
 0.0000000000000E+00
 0.0000000000000E+00
 0.0000000000000E+00
 0.0000000000000E+00
 0.0000000000000E+00
 0.0000000000000E+00
 0.0000000000000E+00
 0.0000000000000E+00
 0.0000000000000E+00
 0.0000000000000E+00
 0.0000000000000E+00
 0.0000000000000E+00
 0.0000000000000E+00
 0.0000000000000E+00
 0.0000000000000E+00
 0.0000000000000E+00
 0.0000000000000E+00
 0.0000000000000E+00
 0.0000000000000E+00
 0.0000000000000E+00
 0.0000000000000E+00
 0.0000000000000E+00
 0.0000000000000E+00
 0.0000000000000E+00
 0.0000000000000E+00
 0.0000000000000E+00
 0.0000000000000E+00
 0.0000000000000E+00
 0.0000000000000E+00
 0.0000000000000E+00
 0.0000000000000E+00
 0.0000000000000E+00
 0.0000000000000E+00
 0.0000000000000E+00
 0.0000000000000E+00
 0.0000000000000E+00
 0.0000000000000E+00
 0.0000000000000E+00
 0.0000000000000E+00
 0.0000000000000E+00
 0.0000000000000E+00
 0.0000000000000E+00
 0.0000000000000E+00
 0.0000000000000E+00
 0.0000000000000E+00
 0.0000000000000E+00
 0.0000000000000E+00
 0.0000000000000E+00
 0.0000000000000E+00
 0.0000000000000E+00
 0.0000000000000E+00
 0.0000000000000E+00
 0.0000000000000E+00
 0.0000000000000E+00
 0.0000000000000E+00
 0.0000000000000E+00
 0.0000000000000E+00
 0.0000000000000E+00
 0.0000000000000E+00
 0.0000000000000E+00
 0.0000000000000E+00
 0.0000000000000E+00
 0.0000000000000E+00
 0.0000000000000E+00
 0.0000000000000E+00
 0.0000000000000E+00
 0.0000000000000E+00
 0.0000000000000E+00
 0.0000000000000E+00
 0.0000000000000E+00
 0.0000000000000E+00
 0.0000000000000E+00
 0.0000000000000E+00
 0.0000000000000E+00
 0.0000000000000E+00
 0.0000000000000E+00
 0.0000000000000E+00
 0.0000000000000E+00
 0.0000000000000E+00
 0.0000000000000E+00
 0.0000000000000E+00
 0.0000000000000E+00
 0.0000000000000E+00
 0.0000000000000E+00
 0.0000000000000E+00
 0.0000000000000E+00
 0.0000000000000E+00
 0.0000000000000E+00
 0.0000000000000E+00
 0.0000000000000E+00
 0.0000000000000E+00
 0.0000000000000E+00
 0.0000000000000E+00
 0.0000000000000E+00
 0.0000000000000E+00
 0.0000000000000E+00
 0.0000000000000E+00
 0.0000000000000E+00
 0.0000000000000E+00
 0.0000000000000E+00
 0.0000000000000E+00
 0.0000000000000E+00
 0.0000000000000E+00
 0.0000000000000E+00
 0.0000000000000E+00
 0.0000000000000E+00
 0.0000000000000E+00
 0.0000000000000E+00
 0.0000000000000E+00
 0.0000000000000E+00
 0.0000000000000E+00
 0.0000000000000E+00
 0.0000000000000E+00
 0.0000000000000E+00
 0.0000000000000E+00
 0.0000000000000E+00
 0.0000000000000E+00
 0.0000000000000E+00
 0.0000000000000E+00
 0.0000000000000E+00
 0.0000000000000E+00
 0.0000000000000E+00
 0.0000000000000E+00
 0.0000000000000E+00
 0.0000000000000E+00
 0.0000000000000E+00
 0.0000000000000E+00
 0.0000000000000E+00
 0.0000000000000E+00
 0.0000000000000E+00
 0.0000000000000E+00
 0.0000000000000E+00
 0.0000000000000E+00
 0.0000000000000E+00
 0.0000000000000E+00
 0.0000000000000E+00
 0.0000000000000E+00
 0.0000000000000E+00
 0.0000000000000E+00
 0.0000000000000E+00
 0.0000000000000E+00
 0.0000000000000E+00
 0.0000000000000E+00
 0.0000000000000E+00
 0.0000000000000E+00
 0.0000000000000E+00
 0.0000000000000E+00
 0.0000000000000E+00
 0.0000000000000E+00
 0.0000000000000E+00
 0.0000000000000E+00
 0.0000000000000E+00
 0.0000000000000E+00
 0.0000000000000E+00
 0.0000000000000E+00
 0.0000000000000E+00
 0.0000000000000E+00
 0.0000000000000E+00
 0.0000000000000E+00
 0.0000000000000E+00
 0.0000000000000E+00
 0.0000000000000E+00
 0.0000000000000E+00
 0.0000000000000E+00
 0.0000000000000E+00
 0.0000000000000E+00
 0.0000000000000E+00
 0.0000000000000E+00
 0.0000000000000E+00
 0.0000000000000E+00
 0.0000000000000E+00
 0.0000000000000E+00
 0.0000000000000E+00
 0.0000000000000E+00
 0.0000000000000E+00
 0.0000000000000E+00
 0.0000000000000E+00
 0.0000000000000E+00
 0.0000000000000E+00
 0.0000000000000E+00
 0.0000000000000E+00
 0.0000000000000E+00
 0.0000000000000E+00
 0.0000000000000E+00
 0.0000000000000E+00
 0.0000000000000E+00
 0.0000000000000E+00
 0.0000000000000E+00
 0.0000000000000E+00
 0.0000000000000E+00
 0.0000000000000E+00
 0.0000000000000E+00
 0.0000000000000E+00
 0.0000000000000E+00
 0.0000000000000E+00
 0.0000000000000E+00
 0.0000000000000E+00
 0.0000000000000E+00
 0.0000000000000E+00
 0.0000000000000E+00
 0.0000000000000E+00
 0.0000000000000E+00
 0.0000000000000E+00
 0.0000000000000E+00
 0.0000000000000E+00
 0.0000000000000E+00
 0.0000000000000E+00
 0.0000000000000E+00
 0.0000000000000E+00
 0.0000000000000E+00
 0.0000000000000E+00
 0.0000000000000E+00
 0.0000000000000E+00
 0.0000000000000E+00
 0.0000000000000E+00
 0.0000000000000E+00
 0.0000000000000E+00
 0.0000000000000E+00
 0.0000000000000E+00
 0.0000000000000E+00
 0.0000000000000E+00
 0.0000000000000E+00
 0.0000000000000E+00
 0.0000000000000E+00
 0.0000000000000E+00
 0.0000000000000E+00
 0.0000000000000E+00
 0.0000000000000E+00
 0.0000000000000E+00
 0.0000000000000E+00
 0.0000000000000E+00
 0.0000000000000E+00
 0.0000000000000E+00
 0.0000000000000E+00
 0.0000000000000E+00
 0.0000000000000E+00
 0.0000000000000E+00
 0.0000000000000E+00
 0.0000000000000E+00
 0.0000000000000E+00
 0.0000000000000E+00
 0.0000000000000E+00
 0.0000000000000E+00
 0.0000000000000E+00
 0.0000000000000E+00
 0.0000000000000E+00
 0.0000000000000E+00
 0.0000000000000E+00
 0.0000000000000E+00
 0.0000000000000E+00
 0.0000000000000E+00
 0.0000000000000E+00
 0.0000000000000E+00
 0.0000000000000E+00
 0.0000000000000E+00
 0.0000000000000E+00
 0.0000000000000E+00
 0.0000000000000E+00
 0.0000000000000E+00
 0.0000000000000E+00
 0.0000000000000E+00
 0.0000000000000E+00
 0.0000000000000E+00
 0.0000000000000E+00
 0.0000000000000E+00
 0.0000000000000E+00
 0.0000000000000E+00
 0.0000000000000E+00
 0.0000000000000E+00
 0.0000000000000E+00
 0.0000000000000E+00
 0.0000000000000E+00
 0.0000000000000E+00
 0.0000000000000E+00
 0.0000000000000E+00
 0.0000000000000E+00
 0.0000000000000E+00
 0.0000000000000E+00
 0.0000000000000E+00
 0.0000000000000E+00
 0.0000000000000E+00
 0.0000000000000E+00
 0.0000000000000E+00
 0.0000000000000E+00
 0.0000000000000E+00
 0.0000000000000E+00
 0.0000000000000E+00
 0.0000000000000E+00
 0.0000000000000E+00
 0.0000000000000E+00
 0.0000000000000E+00
 0.0000000000000E+00
 0.0000000000000E+00
 0.0000000000000E+00
 0.0000000000000E+00
 0.0000000000000E+00
 0.0000000000000E+00
 0.0000000000000E+00
 0.0000000000000E+00
 0.0000000000000E+00
 0.0000000000000E+00
 0.0000000000000E+00
 0.0000000000000E+00
 0.0000000000000E+00
 0.0000000000000E+00
 0.0000000000000E+00
 0.0000000000000E+00
 0.0000000000000E+00
 0.0000000000000E+00
 0.0000000000000E+00
 0.0000000000000E+00
 0.0000000000000E+00
 0.0000000000000E+00
 0.0000000000000E+00
 0.0000000000000E+00
 0.0000000000000E+00
 0.0000000000000E+00
 0.0000000000000E+00
 0.0000000000000E+00
 0.0000000000000E+00
 0.0000000000000E+00
 0.0000000000000E+00
 0.0000000000000E+00
 0.0000000000000E+00
 0.0000000000000E+00
 0.0000000000000E+00
 0.0000000000000E+00
 0.0000000000000E+00
 0.0000000000000E+00
 0.0000000000000E+00
 0.0000000000000E+00
 0.0000000000000E+00
 0.0000000000000E+00
 0.0000000000000E+00
 0.0000000000000E+00
 0.0000000000000E+00
 0.0000000000000E+00
 0.0000000000000E+00
 0.0000000000000E+00
 0.0000000000000E+00
 0.0000000000000E+00
 0.0000000000000E+00
 0.0000000000000E+00
 0.0000000000000E+00
 0.0000000000000E+00
 0.0000000000000E+00
 0.0000000000000E+00
 0.0000000000000E+00
 0.0000000000000E+00
 0.0000000000000E+00
 0.0000000000000E+00
 0.0000000000000E+00
 0.0000000000000E+00
 0.0000000000000E+00
 0.0000000000000E+00
 0.0000000000000E+00
 0.0000000000000E+00
 0.0000000000000E+00
 0.0000000000000E+00
 0.0000000000000E+00
 0.0000000000000E+00
 0.0000000000000E+00
 0.0000000000000E+00
 0.0000000000000E+00
 0.0000000000000E+00
 0.0000000000000E+00
 0.0000000000000E+00
 0.0000000000000E+00
 0.0000000000000E+00
 0.0000000000000E+00
 0.0000000000000E+00
 0.0000000000000E+00
 0.0000000000000E+00
 0.0000000000000E+00
 0.0000000000000E+00
 0.0000000000000E+00
 0.0000000000000E+00
 0.0000000000000E+00
 0.0000000000000E+00
 0.0000000000000E+00
 0.0000000000000E+00
 0.0000000000000E+00
 0.0000000000000E+00
 0.0000000000000E+00
 0.0000000000000E+00
 0.0000000000000E+00
 0.0000000000000E+00
 0.0000000000000E+00
 0.0000000000000E+00
 0.0000000000000E+00
 0.0000000000000E+00
 0.0000000000000E+00
 0.0000000000000E+00
 0.0000000000000E+00
 0.0000000000000E+00
 0.0000000000000E+00
 0.0000000000000E+00
 0.0000000000000E+00
 0.0000000000000E+00
 0.0000000000000E+00
 0.0000000000000E+00
 0.0000000000000E+00
 0.0000000000000E+00
 0.0000000000000E+00
 0.0000000000000E+00
 0.0000000000000E+00
 0.0000000000000E+00
 0.0000000000000E+00
 0.0000000000000E+00
 0.0000000000000E+00
 0.0000000000000E+00
 0.0000000000000E+00
 0.0000000000000E+00
 0.0000000000000E+00
 0.0000000000000E+00
 0.0000000000000E+00
 0.0000000000000E+00
 0.0000000000000E+00
 0.0000000000000E+00
 0.0000000000000E+00
 0.0000000000000E+00
 0.0000000000000E+00
 0.0000000000000E+00
 0.0000000000000E+00
 0.0000000000000E+00
 0.0000000000000E+00
 0.0000000000000E+00
 0.0000000000000E+00
 0.0000000000000E+00
 0.0000000000000E+00
 0.0000000000000E+00
 0.0000000000000E+00
 0.0000000000000E+00
 0.0000000000000E+00
 0.0000000000000E+00
 0.0000000000000E+00
 0.0000000000000E+00
 0.0000000000000E+00
 0.0000000000000E+00
 0.0000000000000E+00
 0.0000000000000E+00
 0.0000000000000E+00
 0.0000000000000E+00
 0.0000000000000E+00
 0.0000000000000E+00
 0.0000000000000E+00
 0.0000000000000E+00
 0.0000000000000E+00
 0.0000000000000E+00
 0.0000000000000E+00
 0.0000000000000E+00
 0.0000000000000E+00
 0.0000000000000E+00
 0.0000000000000E+00
 0.0000000000000E+00
 0.0000000000000E+00
 0.0000000000000E+00
 0.0000000000000E+00
 0.0000000000000E+00
 0.0000000000000E+00
 0.0000000000000E+00
 0.0000000000000E+00
 0.0000000000000E+00
 0.0000000000000E+00
 0.0000000000000E+00
 0.0000000000000E+00
 0.0000000000000E+00
 0.0000000000000E+00
 0.0000000000000E+00
 0.0000000000000E+00
 0.0000000000000E+00
 0.0000000000000E+00
 0.0000000000000E+00
 0.0000000000000E+00
 0.0000000000000E+00
 0.0000000000000E+00
 0.0000000000000E+00
 0.0000000000000E+00
 0.0000000000000E+00
 0.0000000000000E+00
 0.0000000000000E+00
 0.0000000000000E+00
 0.0000000000000E+00
 0.0000000000000E+00
 0.0000000000000E+00
 0.0000000000000E+00
 0.0000000000000E+00
 0.0000000000000E+00
 0.0000000000000E+00
 0.0000000000000E+00
 0.0000000000000E+00
 0.0000000000000E+00
 0.0000000000000E+00
 0.0000000000000E+00
 0.0000000000000E+00
 0.0000000000000E+00
 0.0000000000000E+00
 0.0000000000000E+00
 0.0000000000000E+00
 0.0000000000000E+00
 0.0000000000000E+00
 0.0000000000000E+00
 0.0000000000000E+00
 0.0000000000000E+00
 0.0000000000000E+00
 0.0000000000000E+00
 0.0000000000000E+00
 0.0000000000000E+00
 0.0000000000000E+00
 0.0000000000000E+00
 0.0000000000000E+00
 0.0000000000000E+00
 0.0000000000000E+00
 0.0000000000000E+00
 0.0000000000000E+00
 0.0000000000000E+00
 0.0000000000000E+00
 0.0000000000000E+00
 0.0000000000000E+00
 0.0000000000000E+00
 0.0000000000000E+00
 0.0000000000000E+00
 0.0000000000000E+00
 0.0000000000000E+00
 0.0000000000000E+00
 0.0000000000000E+00
 0.0000000000000E+00
 0.0000000000000E+00
 0.0000000000000E+00
 0.0000000000000E+00
 0.0000000000000E+00
 0.0000000000000E+00
 0.0000000000000E+00
 0.0000000000000E+00
 0.0000000000000E+00
 0.0000000000000E+00
 0.0000000000000E+00
 0.0000000000000E+00
 0.0000000000000E+00
 0.0000000000000E+00
 0.0000000000000E+00
 0.0000000000000E+00
 0.0000000000000E+00
 0.0000000000000E+00
 0.0000000000000E+00
 0.0000000000000E+00
 0.0000000000000E+00
 0.0000000000000E+00
 0.0000000000000E+00
 0.0000000000000E+00
 0.0000000000000E+00
 0.0000000000000E+00
 0.0000000000000E+00
 0.0000000000000E+00
 0.0000000000000E+00
 0.0000000000000E+00
 0.0000000000000E+00
 0.0000000000000E+00
 0.0000000000000E+00
 0.0000000000000E+00
 0.0000000000000E+00
 0.0000000000000E+00
 0.0000000000000E+00
 0.0000000000000E+00
 0.0000000000000E+00
 0.0000000000000E+00
 0.0000000000000E+00
 0.0000000000000E+00
 0.0000000000000E+00
 0.0000000000000E+00
 0.0000000000000E+00
 0.0000000000000E+00
 0.0000000000000E+00
 0.0000000000000E+00
 0.0000000000000E+00
 0.0000000000000E+00
 0.0000000000000E+00
 0.0000000000000E+00
 0.0000000000000E+00
 0.0000000000000E+00
 0.0000000000000E+00
 0.0000000000000E+00
 0.0000000000000E+00
 0.0000000000000E+00
 0.0000000000000E+00
 0.0000000000000E+00
 0.0000000000000E+00
 0.0000000000000E+00
 0.0000000000000E+00
 0.0000000000000E+00
 0.0000000000000E+00
 0.0000000000000E+00
 0.0000000000000E+00
 0.0000000000000E+00
 0.0000000000000E+00
 0.0000000000000E+00
 0.0000000000000E+00
 0.0000000000000E+00
 0.0000000000000E+00
 0.0000000000000E+00
 0.0000000000000E+00
 0.0000000000000E+00
 0.0000000000000E+00
 0.0000000000000E+00
 0.0000000000000E+00
 0.0000000000000E+00
 0.0000000000000E+00
 0.0000000000000E+00
 0.0000000000000E+00
 0.0000000000000E+00
 0.0000000000000E+00
 0.0000000000000E+00
 0.0000000000000E+00
 0.0000000000000E+00
 0.0000000000000E+00
 0.0000000000000E+00
 0.0000000000000E+00
 0.0000000000000E+00
 0.0000000000000E+00
 0.0000000000000E+00
 0.0000000000000E+00
 0.0000000000000E+00
 0.0000000000000E+00
 0.0000000000000E+00
 0.0000000000000E+00
 0.0000000000000E+00
 0.0000000000000E+00
 0.0000000000000E+00
 0.0000000000000E+00
 0.0000000000000E+00
 0.0000000000000E+00
 0.0000000000000E+00
 0.0000000000000E+00
 0.0000000000000E+00
 0.0000000000000E+00
 0.0000000000000E+00
 0.0000000000000E+00
 0.0000000000000E+00
 0.0000000000000E+00
 0.0000000000000E+00
 0.0000000000000E+00
 0.0000000000000E+00
 0.0000000000000E+00
 0.0000000000000E+00
 0.0000000000000E+00
 0.0000000000000E+00
 0.0000000000000E+00
 0.0000000000000E+00
 0.0000000000000E+00
 0.0000000000000E+00
 0.0000000000000E+00
 0.0000000000000E+00
 0.0000000000000E+00
 0.0000000000000E+00
 0.0000000000000E+00
 0.0000000000000E+00
 0.0000000000000E+00
 0.0000000000000E+00
 0.0000000000000E+00
 0.0000000000000E+00
 0.0000000000000E+00
 0.0000000000000E+00
 0.0000000000000E+00
 0.0000000000000E+00
 0.0000000000000E+00
 0.0000000000000E+00
 0.0000000000000E+00
 0.0000000000000E+00
 0.0000000000000E+00
 0.0000000000000E+00
 0.0000000000000E+00
 0.0000000000000E+00
 0.0000000000000E+00
 0.0000000000000E+00
 0.0000000000000E+00
 0.0000000000000E+00
 0.0000000000000E+00
 0.0000000000000E+00
 0.0000000000000E+00
 0.0000000000000E+00
 0.0000000000000E+00
 0.0000000000000E+00
 0.0000000000000E+00
 0.0000000000000E+00
 0.0000000000000E+00
 0.0000000000000E+00
 0.0000000000000E+00
 0.0000000000000E+00
 0.0000000000000E+00
 0.0000000000000E+00
 0.0000000000000E+00
 0.0000000000000E+00
 0.0000000000000E+00
 0.0000000000000E+00
 0.0000000000000E+00
 0.0000000000000E+00
 0.0000000000000E+00
 0.0000000000000E+00
 0.0000000000000E+00
 0.0000000000000E+00
 0.0000000000000E+00
 0.0000000000000E+00
 0.0000000000000E+00
 0.0000000000000E+00
 0.0000000000000E+00
 0.0000000000000E+00
 0.0000000000000E+00
 0.0000000000000E+00
 0.0000000000000E+00
 0.0000000000000E+00
 0.0000000000000E+00
 0.0000000000000E+00
 0.0000000000000E+00
 0.0000000000000E+00
 0.0000000000000E+00
 0.0000000000000E+00
 0.0000000000000E+00
 0.0000000000000E+00
 0.0000000000000E+00
 0.0000000000000E+00
 0.0000000000000E+00
 0.0000000000000E+00
 0.0000000000000E+00
 0.0000000000000E+00
 0.0000000000000E+00
 0.0000000000000E+00
 0.0000000000000E+00
 0.0000000000000E+00
 0.0000000000000E+00
 0.0000000000000E+00
 0.0000000000000E+00
 0.0000000000000E+00
 0.0000000000000E+00
 0.0000000000000E+00
 0.0000000000000E+00
 0.0000000000000E+00
 0.0000000000000E+00
 0.0000000000000E+00
 0.0000000000000E+00
 0.0000000000000E+00
 0.0000000000000E+00
 0.0000000000000E+00
 0.0000000000000E+00
 0.0000000000000E+00
 0.0000000000000E+00
 0.0000000000000E+00
 0.0000000000000E+00
 0.0000000000000E+00
 0.0000000000000E+00
 0.0000000000000E+00
 0.0000000000000E+00
 0.0000000000000E+00
 0.0000000000000E+00
 0.0000000000000E+00
 0.0000000000000E+00
 0.0000000000000E+00
 0.0000000000000E+00
 0.0000000000000E+00
 0.0000000000000E+00
 0.0000000000000E+00
 0.0000000000000E+00
 0.0000000000000E+00
 0.0000000000000E+00
 0.0000000000000E+00
 0.0000000000000E+00
 0.0000000000000E+00
 0.0000000000000E+00
 0.0000000000000E+00
 0.0000000000000E+00
 0.0000000000000E+00
 0.0000000000000E+00
 0.0000000000000E+00
 0.0000000000000E+00
 0.0000000000000E+00
 0.0000000000000E+00
 0.0000000000000E+00
 0.0000000000000E+00
 0.0000000000000E+00
 0.0000000000000E+00
 0.0000000000000E+00
 0.0000000000000E+00
 0.0000000000000E+00
 0.0000000000000E+00
 0.0000000000000E+00
 0.0000000000000E+00
 0.0000000000000E+00
 0.0000000000000E+00
 0.0000000000000E+00
 0.0000000000000E+00
 0.0000000000000E+00
 0.0000000000000E+00
 0.0000000000000E+00
 0.0000000000000E+00
 0.0000000000000E+00
 0.0000000000000E+00
 0.0000000000000E+00
 0.0000000000000E+00
 0.0000000000000E+00
 0.0000000000000E+00
 0.0000000000000E+00
 0.0000000000000E+00
 0.0000000000000E+00
 0.0000000000000E+00
 0.0000000000000E+00
 0.0000000000000E+00
 0.0000000000000E+00
 0.0000000000000E+00
 0.0000000000000E+00
 0.0000000000000E+00
 0.0000000000000E+00
 0.0000000000000E+00
 0.0000000000000E+00
 0.0000000000000E+00
 0.0000000000000E+00
 0.0000000000000E+00
 0.0000000000000E+00
 0.0000000000000E+00
 0.0000000000000E+00
 0.0000000000000E+00
 0.0000000000000E+00
 0.0000000000000E+00
 0.0000000000000E+00
 0.0000000000000E+00
 0.0000000000000E+00
 0.0000000000000E+00
 0.0000000000000E+00
 0.0000000000000E+00
 0.0000000000000E+00
 0.0000000000000E+00
 0.0000000000000E+00
 0.0000000000000E+00
 0.0000000000000E+00
 0.0000000000000E+00
 0.0000000000000E+00
 0.0000000000000E+00
 0.0000000000000E+00
 0.0000000000000E+00
 0.0000000000000E+00
 0.0000000000000E+00
 0.0000000000000E+00
 0.0000000000000E+00
 0.0000000000000E+00
 0.0000000000000E+00
 0.0000000000000E+00
 0.0000000000000E+00
 0.0000000000000E+00
 0.0000000000000E+00
 0.0000000000000E+00
 0.0000000000000E+00
 0.0000000000000E+00
 0.0000000000000E+00
 0.0000000000000E+00
 0.0000000000000E+00
 0.0000000000000E+00
 0.0000000000000E+00
 0.0000000000000E+00
 0.0000000000000E+00
 0.0000000000000E+00
 0.0000000000000E+00
 0.0000000000000E+00
 0.0000000000000E+00
 0.0000000000000E+00
 0.0000000000000E+00
 0.0000000000000E+00
 0.0000000000000E+00
 0.0000000000000E+00
 0.0000000000000E+00
 0.0000000000000E+00
 0.0000000000000E+00
 0.0000000000000E+00
 0.0000000000000E+00
 0.0000000000000E+00
 0.0000000000000E+00
 0.0000000000000E+00
 0.0000000000000E+00
 0.0000000000000E+00
 0.0000000000000E+00
 0.0000000000000E+00
 0.0000000000000E+00
 0.0000000000000E+00
 0.0000000000000E+00
 0.0000000000000E+00
 0.0000000000000E+00
 0.0000000000000E+00
 0.0000000000000E+00
 0.0000000000000E+00
 0.0000000000000E+00
 0.0000000000000E+00
 0.0000000000000E+00
 0.0000000000000E+00
 0.0000000000000E+00
 0.0000000000000E+00
 0.0000000000000E+00
 0.0000000000000E+00
 0.0000000000000E+00
 0.0000000000000E+00
 0.0000000000000E+00
 0.0000000000000E+00
 0.0000000000000E+00
 0.0000000000000E+00
 0.0000000000000E+00
 0.0000000000000E+00
 0.0000000000000E+00
 0.0000000000000E+00
 0.0000000000000E+00
 0.0000000000000E+00
 0.0000000000000E+00
 0.0000000000000E+00
 0.0000000000000E+00
 0.0000000000000E+00
 0.0000000000000E+00
 0.0000000000000E+00
 0.0000000000000E+00
 0.0000000000000E+00
 0.0000000000000E+00
 0.0000000000000E+00
 0.0000000000000E+00
 0.0000000000000E+00
 0.0000000000000E+00
 0.0000000000000E+00
 0.0000000000000E+00
 0.0000000000000E+00
 0.0000000000000E+00
 0.0000000000000E+00
 0.0000000000000E+00
 0.0000000000000E+00
 0.0000000000000E+00
 0.0000000000000E+00
 0.0000000000000E+00
 0.0000000000000E+00
 0.0000000000000E+00
 0.0000000000000E+00
 0.0000000000000E+00
 0.0000000000000E+00
 0.0000000000000E+00
 0.0000000000000E+00
 0.0000000000000E+00
 0.0000000000000E+00
 0.0000000000000E+00
 0.0000000000000E+00
 0.0000000000000E+00
 0.0000000000000E+00
 0.0000000000000E+00
 0.0000000000000E+00
 0.0000000000000E+00
 0.0000000000000E+00
 0.0000000000000E+00
 0.0000000000000E+00
 0.0000000000000E+00
 0.0000000000000E+00
 0.0000000000000E+00
 0.0000000000000E+00
 0.0000000000000E+00
 0.0000000000000E+00
 0.0000000000000E+00
 0.0000000000000E+00
 0.0000000000000E+00
 0.0000000000000E+00
 0.0000000000000E+00
 0.0000000000000E+00
 0.0000000000000E+00
 0.0000000000000E+00
 0.0000000000000E+00
 0.0000000000000E+00
 0.0000000000000E+00
 0.0000000000000E+00
 0.0000000000000E+00
 0.0000000000000E+00
 0.0000000000000E+00
 0.0000000000000E+00
 0.0000000000000E+00
 0.0000000000000E+00
 0.0000000000000E+00
 0.0000000000000E+00
 0.0000000000000E+00
 0.0000000000000E+00
 0.0000000000000E+00
 0.0000000000000E+00
 0.0000000000000E+00
 0.0000000000000E+00
 0.0000000000000E+00
 0.0000000000000E+00
 0.0000000000000E+00
 0.0000000000000E+00
 0.0000000000000E+00
 0.0000000000000E+00
 0.0000000000000E+00
 0.0000000000000E+00
 0.0000000000000E+00
 0.0000000000000E+00
 0.0000000000000E+00
 0.0000000000000E+00
 0.0000000000000E+00
 0.0000000000000E+00
 0.0000000000000E+00
 0.0000000000000E+00
 0.0000000000000E+00
 0.0000000000000E+00
 0.0000000000000E+00
 0.0000000000000E+00
 0.0000000000000E+00
 0.0000000000000E+00
 0.0000000000000E+00
 0.0000000000000E+00
 0.0000000000000E+00
 0.0000000000000E+00
 0.0000000000000E+00
 0.0000000000000E+00
 0.0000000000000E+00
 0.0000000000000E+00
 0.0000000000000E+00
 0.0000000000000E+00
 0.0000000000000E+00
 0.0000000000000E+00
 0.0000000000000E+00
 0.0000000000000E+00
 0.0000000000000E+00
 0.0000000000000E+00
 0.0000000000000E+00
 0.0000000000000E+00
 0.0000000000000E+00
 0.0000000000000E+00
 0.0000000000000E+00
 0.0000000000000E+00
 0.0000000000000E+00
 0.0000000000000E+00
 0.0000000000000E+00
 0.0000000000000E+00
 0.0000000000000E+00
 0.0000000000000E+00
 0.0000000000000E+00
 0.0000000000000E+00
 0.0000000000000E+00
 0.0000000000000E+00
 0.0000000000000E+00
 0.0000000000000E+00
 0.0000000000000E+00
 0.0000000000000E+00
 0.0000000000000E+00
 0.0000000000000E+00
 0.0000000000000E+00
 0.0000000000000E+00
 0.0000000000000E+00
 0.0000000000000E+00
 0.0000000000000E+00
 0.0000000000000E+00
 0.0000000000000E+00
 0.0000000000000E+00
 0.0000000000000E+00
 0.0000000000000E+00
 0.0000000000000E+00
 0.0000000000000E+00
 0.0000000000000E+00
 0.0000000000000E+00
 0.0000000000000E+00
 0.0000000000000E+00
 0.0000000000000E+00
 0.0000000000000E+00
 0.0000000000000E+00
 0.0000000000000E+00
 0.0000000000000E+00
 0.0000000000000E+00
 0.0000000000000E+00
 0.0000000000000E+00
 0.0000000000000E+00
 0.0000000000000E+00
 0.0000000000000E+00
 0.0000000000000E+00
 0.0000000000000E+00
 0.0000000000000E+00
 0.0000000000000E+00
 0.0000000000000E+00
 0.0000000000000E+00
 0.0000000000000E+00
 0.0000000000000E+00
 0.0000000000000E+00
 0.0000000000000E+00
 0.0000000000000E+00
 0.0000000000000E+00
 0.0000000000000E+00
 0.0000000000000E+00
 0.0000000000000E+00
 0.0000000000000E+00
 0.0000000000000E+00
 0.0000000000000E+00
 0.0000000000000E+00
 0.0000000000000E+00
 0.0000000000000E+00
 0.0000000000000E+00
 0.0000000000000E+00
 0.0000000000000E+00
 0.0000000000000E+00
 0.0000000000000E+00
 0.0000000000000E+00
 0.0000000000000E+00
 0.0000000000000E+00
 0.0000000000000E+00
 0.0000000000000E+00
 0.0000000000000E+00
 0.0000000000000E+00
 0.0000000000000E+00
 0.0000000000000E+00
 0.0000000000000E+00
 0.0000000000000E+00
 0.0000000000000E+00
 0.0000000000000E+00
 0.0000000000000E+00
 0.0000000000000E+00
 0.0000000000000E+00
 0.0000000000000E+00
 0.0000000000000E+00
 0.0000000000000E+00
 0.0000000000000E+00
 0.0000000000000E+00
 0.0000000000000E+00
 0.0000000000000E+00
 0.0000000000000E+00
 0.0000000000000E+00
 0.0000000000000E+00
 0.0000000000000E+00
 0.0000000000000E+00
 0.0000000000000E+00
 0.0000000000000E+00
 0.0000000000000E+00
 0.0000000000000E+00
 0.0000000000000E+00
 0.0000000000000E+00
 0.0000000000000E+00
 0.0000000000000E+00
 0.0000000000000E+00
 0.0000000000000E+00
 0.0000000000000E+00
 0.0000000000000E+00
 0.0000000000000E+00
 0.0000000000000E+00
 0.0000000000000E+00
 0.0000000000000E+00
 0.0000000000000E+00
 0.0000000000000E+00
 0.0000000000000E+00
 0.0000000000000E+00
 0.0000000000000E+00
 0.0000000000000E+00
 0.0000000000000E+00
 0.0000000000000E+00
 0.0000000000000E+00
 0.0000000000000E+00
 0.0000000000000E+00
 0.0000000000000E+00
 0.0000000000000E+00
 0.0000000000000E+00
 0.0000000000000E+00
 0.0000000000000E+00
 0.0000000000000E+00
 0.0000000000000E+00
 0.0000000000000E+00
 0.0000000000000E+00
 0.0000000000000E+00
 0.0000000000000E+00
 0.0000000000000E+00
 0.0000000000000E+00
 0.0000000000000E+00
 0.0000000000000E+00
 0.0000000000000E+00
 0.0000000000000E+00
 0.0000000000000E+00
 0.0000000000000E+00
 0.0000000000000E+00
 0.0000000000000E+00
 0.0000000000000E+00
 0.0000000000000E+00
 0.0000000000000E+00
 0.0000000000000E+00
 0.0000000000000E+00
 0.0000000000000E+00
 0.0000000000000E+00
 0.0000000000000E+00
 0.0000000000000E+00
 0.0000000000000E+00
 0.0000000000000E+00
 0.0000000000000E+00
 0.0000000000000E+00
 0.0000000000000E+00
 0.0000000000000E+00
 0.0000000000000E+00
 0.0000000000000E+00
 0.0000000000000E+00
 0.0000000000000E+00
 0.0000000000000E+00
 0.0000000000000E+00
 0.0000000000000E+00
 0.0000000000000E+00
 0.0000000000000E+00
 0.0000000000000E+00
 0.0000000000000E+00
 0.0000000000000E+00
 0.0000000000000E+00
 0.0000000000000E+00
 0.0000000000000E+00
 0.0000000000000E+00
 0.0000000000000E+00
 0.0000000000000E+00
 0.0000000000000E+00
 0.0000000000000E+00
 0.0000000000000E+00
 0.0000000000000E+00
 0.0000000000000E+00
 0.0000000000000E+00
 0.0000000000000E+00
 0.0000000000000E+00
 0.0000000000000E+00
 0.0000000000000E+00
 0.0000000000000E+00
 0.0000000000000E+00
 0.0000000000000E+00
 0.0000000000000E+00
 0.0000000000000E+00
 0.0000000000000E+00
 0.0000000000000E+00
 0.0000000000000E+00
 0.0000000000000E+00
 0.0000000000000E+00
 0.0000000000000E+00
 0.0000000000000E+00
 0.0000000000000E+00
 0.0000000000000E+00
 0.0000000000000E+00
 0.0000000000000E+00
 0.0000000000000E+00
 0.0000000000000E+00
 0.0000000000000E+00
 0.0000000000000E+00
 0.0000000000000E+00
 0.0000000000000E+00
 0.0000000000000E+00
 0.0000000000000E+00
 0.0000000000000E+00
 0.0000000000000E+00
 0.0000000000000E+00
 0.0000000000000E+00
 0.0000000000000E+00
 0.0000000000000E+00
 0.0000000000000E+00
 0.0000000000000E+00
 0.0000000000000E+00
 0.0000000000000E+00
 0.0000000000000E+00
 0.0000000000000E+00
 0.0000000000000E+00
 0.0000000000000E+00
 0.0000000000000E+00
 0.0000000000000E+00
 0.0000000000000E+00
 0.0000000000000E+00
 0.0000000000000E+00
 0.0000000000000E+00
 0.0000000000000E+00
 0.0000000000000E+00
 0.0000000000000E+00
 0.0000000000000E+00
 0.0000000000000E+00
 0.0000000000000E+00
 0.0000000000000E+00
 0.0000000000000E+00
 0.0000000000000E+00
 0.0000000000000E+00
 0.0000000000000E+00
 0.0000000000000E+00
 0.0000000000000E+00
 0.0000000000000E+00
 0.0000000000000E+00
 0.0000000000000E+00
 0.0000000000000E+00
 0.0000000000000E+00
 0.0000000000000E+00
 0.0000000000000E+00
 0.0000000000000E+00
 0.0000000000000E+00
 0.0000000000000E+00
 0.0000000000000E+00
 0.0000000000000E+00
 0.0000000000000E+00
 0.0000000000000E+00
 0.0000000000000E+00
 0.0000000000000E+00
 0.0000000000000E+00
 0.0000000000000E+00
 0.0000000000000E+00
 0.0000000000000E+00
 0.0000000000000E+00
 0.0000000000000E+00
 0.0000000000000E+00
 0.0000000000000E+00
 0.0000000000000E+00
 0.0000000000000E+00
 0.0000000000000E+00
 0.0000000000000E+00
 0.0000000000000E+00
 0.0000000000000E+00
 0.0000000000000E+00
 0.0000000000000E+00
 0.0000000000000E+00
 0.0000000000000E+00
 0.0000000000000E+00
 0.0000000000000E+00
 0.0000000000000E+00
 0.0000000000000E+00
 0.0000000000000E+00
 0.0000000000000E+00
 0.0000000000000E+00
 0.0000000000000E+00
 0.0000000000000E+00
 0.0000000000000E+00
 0.0000000000000E+00
 0.0000000000000E+00
 0.0000000000000E+00
 0.0000000000000E+00
 0.0000000000000E+00
 0.0000000000000E+00
 0.0000000000000E+00
 0.0000000000000E+00
 0.0000000000000E+00
 0.0000000000000E+00
 0.0000000000000E+00
 0.0000000000000E+00
 0.0000000000000E+00
 0.0000000000000E+00
 0.0000000000000E+00
 0.0000000000000E+00
 0.0000000000000E+00
 0.0000000000000E+00
 0.0000000000000E+00
 0.0000000000000E+00
 0.0000000000000E+00
 0.0000000000000E+00
 0.0000000000000E+00
 0.0000000000000E+00
 0.0000000000000E+00
 0.0000000000000E+00
 0.0000000000000E+00
 0.0000000000000E+00
 0.0000000000000E+00
 0.0000000000000E+00
 0.0000000000000E+00
 0.0000000000000E+00
 0.0000000000000E+00
 0.0000000000000E+00
 0.0000000000000E+00
 0.0000000000000E+00
 0.0000000000000E+00
 0.0000000000000E+00
 0.0000000000000E+00
 0.0000000000000E+00
 0.0000000000000E+00
 0.0000000000000E+00
 0.0000000000000E+00
 0.0000000000000E+00
 0.0000000000000E+00
 0.0000000000000E+00
 0.0000000000000E+00
 0.0000000000000E+00
 0.0000000000000E+00
 0.0000000000000E+00
 0.0000000000000E+00
 0.0000000000000E+00
 0.0000000000000E+00
 0.0000000000000E+00
 0.0000000000000E+00
 0.0000000000000E+00
 0.0000000000000E+00
 0.0000000000000E+00
 0.0000000000000E+00
 0.0000000000000E+00
 0.0000000000000E+00
 0.0000000000000E+00
 0.0000000000000E+00
 0.0000000000000E+00
 0.0000000000000E+00
 0.0000000000000E+00
 0.0000000000000E+00
 0.0000000000000E+00
 0.0000000000000E+00
 0.0000000000000E+00
 0.0000000000000E+00
 0.0000000000000E+00
 0.0000000000000E+00
 0.0000000000000E+00
 0.0000000000000E+00
 0.0000000000000E+00
 0.0000000000000E+00
 0.0000000000000E+00
 0.0000000000000E+00
 0.0000000000000E+00
 0.0000000000000E+00
 0.0000000000000E+00
 0.0000000000000E+00
 0.0000000000000E+00
 0.0000000000000E+00
 0.0000000000000E+00
 0.0000000000000E+00
 0.0000000000000E+00
 0.0000000000000E+00
 0.0000000000000E+00
 0.0000000000000E+00
 0.0000000000000E+00
 0.0000000000000E+00
 0.0000000000000E+00
 0.0000000000000E+00
 0.0000000000000E+00
 0.0000000000000E+00
 0.0000000000000E+00
 0.0000000000000E+00
 0.0000000000000E+00
 0.0000000000000E+00
 0.0000000000000E+00
 0.0000000000000E+00
 0.0000000000000E+00
 0.0000000000000E+00
 0.0000000000000E+00
 0.0000000000000E+00
 0.0000000000000E+00
 0.0000000000000E+00
 0.0000000000000E+00
 0.0000000000000E+00
 0.0000000000000E+00
 0.0000000000000E+00
 0.0000000000000E+00
 0.0000000000000E+00
 0.0000000000000E+00
 0.0000000000000E+00
 0.0000000000000E+00
 0.0000000000000E+00
 0.0000000000000E+00
 0.0000000000000E+00
 0.0000000000000E+00
 0.0000000000000E+00
 0.0000000000000E+00
 0.0000000000000E+00
 0.0000000000000E+00
 0.0000000000000E+00
 0.0000000000000E+00
 0.0000000000000E+00
 0.0000000000000E+00
 0.0000000000000E+00
 0.0000000000000E+00
 0.0000000000000E+00
 0.0000000000000E+00
 0.0000000000000E+00
 0.0000000000000E+00
 0.0000000000000E+00
 0.0000000000000E+00
 0.0000000000000E+00
 0.0000000000000E+00
 0.0000000000000E+00
 0.0000000000000E+00
 0.0000000000000E+00
 0.0000000000000E+00
 0.0000000000000E+00
 0.0000000000000E+00
 0.0000000000000E+00
 0.0000000000000E+00
 0.0000000000000E+00
 0.0000000000000E+00
 0.0000000000000E+00
 0.0000000000000E+00
 0.0000000000000E+00
 0.0000000000000E+00
 0.0000000000000E+00
 0.0000000000000E+00
 0.0000000000000E+00
 0.0000000000000E+00
 0.0000000000000E+00
 0.0000000000000E+00
 0.0000000000000E+00
 0.0000000000000E+00
 0.0000000000000E+00
 0.0000000000000E+00
 0.0000000000000E+00
 0.0000000000000E+00
 0.0000000000000E+00
 0.0000000000000E+00
 0.0000000000000E+00
 0.0000000000000E+00
 0.0000000000000E+00
 0.0000000000000E+00
 0.0000000000000E+00
 0.0000000000000E+00
 0.0000000000000E+00
 0.0000000000000E+00
 0.0000000000000E+00
 0.0000000000000E+00
 0.0000000000000E+00
 0.0000000000000E+00
 0.0000000000000E+00
 0.0000000000000E+00
 0.0000000000000E+00
 0.0000000000000E+00
 0.0000000000000E+00
 0.0000000000000E+00
 0.0000000000000E+00
 0.0000000000000E+00
 0.0000000000000E+00
 0.0000000000000E+00
 0.0000000000000E+00
 0.0000000000000E+00
 0.0000000000000E+00
 0.0000000000000E+00
 0.0000000000000E+00
 0.0000000000000E+00
 0.0000000000000E+00
 0.0000000000000E+00
 0.0000000000000E+00
 0.0000000000000E+00
 0.0000000000000E+00
 0.0000000000000E+00
 0.0000000000000E+00
 0.0000000000000E+00
 0.0000000000000E+00
 0.0000000000000E+00
 0.0000000000000E+00
 0.0000000000000E+00
 0.0000000000000E+00
 0.0000000000000E+00
 0.0000000000000E+00
 0.0000000000000E+00
 0.0000000000000E+00
 0.0000000000000E+00
 0.0000000000000E+00
 0.0000000000000E+00
 0.0000000000000E+00
 0.0000000000000E+00
 0.0000000000000E+00
 0.0000000000000E+00
 0.0000000000000E+00
 0.0000000000000E+00
 0.0000000000000E+00
 0.0000000000000E+00
 0.0000000000000E+00
 0.0000000000000E+00
 0.0000000000000E+00
 0.0000000000000E+00
 0.0000000000000E+00
 0.0000000000000E+00
 0.0000000000000E+00
 0.0000000000000E+00
 0.0000000000000E+00
 0.0000000000000E+00
 0.0000000000000E+00
 0.0000000000000E+00
 0.0000000000000E+00
 0.0000000000000E+00
 0.0000000000000E+00
 0.0000000000000E+00
 0.0000000000000E+00
 0.0000000000000E+00
 0.0000000000000E+00
 0.0000000000000E+00
 0.0000000000000E+00
 0.0000000000000E+00
 0.0000000000000E+00
 0.0000000000000E+00
 0.0000000000000E+00
 0.0000000000000E+00
 0.0000000000000E+00
 0.0000000000000E+00
 0.0000000000000E+00
 0.0000000000000E+00
 0.0000000000000E+00
 0.0000000000000E+00
 0.0000000000000E+00
 0.0000000000000E+00
 0.0000000000000E+00
 0.0000000000000E+00
 0.0000000000000E+00
 0.0000000000000E+00
 0.0000000000000E+00
 0.0000000000000E+00
 0.0000000000000E+00
 0.0000000000000E+00
 0.0000000000000E+00
 0.0000000000000E+00
 0.0000000000000E+00
 0.0000000000000E+00
 0.0000000000000E+00
 0.0000000000000E+00
 0.0000000000000E+00
 0.0000000000000E+00
 0.0000000000000E+00
 0.0000000000000E+00
 0.0000000000000E+00
 0.0000000000000E+00
 0.0000000000000E+00
 0.0000000000000E+00
 0.0000000000000E+00
 0.0000000000000E+00
 0.0000000000000E+00
 0.0000000000000E+00
 0.0000000000000E+00
 0.0000000000000E+00
 0.0000000000000E+00
 0.0000000000000E+00
 0.0000000000000E+00
 0.0000000000000E+00
 0.0000000000000E+00
 0.0000000000000E+00
 0.0000000000000E+00
 0.0000000000000E+00
 0.0000000000000E+00
 0.0000000000000E+00
 0.0000000000000E+00
 0.0000000000000E+00
 0.0000000000000E+00
 0.0000000000000E+00
 0.0000000000000E+00
 0.0000000000000E+00
 0.0000000000000E+00
 0.0000000000000E+00
 0.0000000000000E+00
 0.0000000000000E+00
 0.0000000000000E+00
 0.0000000000000E+00
 0.0000000000000E+00
 0.0000000000000E+00
 0.0000000000000E+00
 0.0000000000000E+00
 0.0000000000000E+00
 0.0000000000000E+00
 0.0000000000000E+00
 0.0000000000000E+00
 0.0000000000000E+00
 0.0000000000000E+00
 0.0000000000000E+00
 0.0000000000000E+00
 0.0000000000000E+00
 0.0000000000000E+00
 0.0000000000000E+00
 0.0000000000000E+00
 0.0000000000000E+00
 0.0000000000000E+00
 0.0000000000000E+00
 0.0000000000000E+00
 0.0000000000000E+00
 0.0000000000000E+00
 0.0000000000000E+00
 0.0000000000000E+00
 0.0000000000000E+00
 0.0000000000000E+00
 0.0000000000000E+00
 0.0000000000000E+00
 0.0000000000000E+00
 0.0000000000000E+00
 0.0000000000000E+00
 0.0000000000000E+00
 0.0000000000000E+00
 0.0000000000000E+00
 0.0000000000000E+00
 0.0000000000000E+00
 0.0000000000000E+00
 0.0000000000000E+00
 0.0000000000000E+00
 0.0000000000000E+00
 0.0000000000000E+00
 0.0000000000000E+00
 0.0000000000000E+00
 0.0000000000000E+00
 0.0000000000000E+00
 0.0000000000000E+00
 0.0000000000000E+00
 0.0000000000000E+00
 0.0000000000000E+00
 0.0000000000000E+00
 0.0000000000000E+00
 0.0000000000000E+00
 0.0000000000000E+00
 0.0000000000000E+00
 0.0000000000000E+00
 0.0000000000000E+00
 0.0000000000000E+00
 0.0000000000000E+00
 0.0000000000000E+00
 0.0000000000000E+00
 0.0000000000000E+00
 0.0000000000000E+00
 0.0000000000000E+00
 0.0000000000000E+00
 0.0000000000000E+00
 0.0000000000000E+00
 0.0000000000000E+00
 0.0000000000000E+00
 0.0000000000000E+00
 0.0000000000000E+00
 0.0000000000000E+00
 0.0000000000000E+00
 0.0000000000000E+00
 0.0000000000000E+00
 0.0000000000000E+00
 0.0000000000000E+00
 0.0000000000000E+00
 0.0000000000000E+00
 0.0000000000000E+00
 0.0000000000000E+00
 0.0000000000000E+00
 0.0000000000000E+00
 0.0000000000000E+00
 0.0000000000000E+00
 0.0000000000000E+00
 0.0000000000000E+00
 0.0000000000000E+00
 0.0000000000000E+00
 0.0000000000000E+00
 0.0000000000000E+00
 0.0000000000000E+00
 0.0000000000000E+00
 0.0000000000000E+00
 0.0000000000000E+00
 0.0000000000000E+00
 0.0000000000000E+00
 0.0000000000000E+00
 0.0000000000000E+00
 0.0000000000000E+00
 0.0000000000000E+00
 0.0000000000000E+00
 0.0000000000000E+00
 0.0000000000000E+00
 0.0000000000000E+00
 0.0000000000000E+00
 0.0000000000000E+00
 0.0000000000000E+00
 0.0000000000000E+00
 0.0000000000000E+00
 0.0000000000000E+00
 0.0000000000000E+00
 0.0000000000000E+00
 0.0000000000000E+00
 0.0000000000000E+00
 0.0000000000000E+00
 0.0000000000000E+00
 0.0000000000000E+00
 0.0000000000000E+00
 0.0000000000000E+00
 0.0000000000000E+00
 0.0000000000000E+00
 0.0000000000000E+00
 0.0000000000000E+00
 0.0000000000000E+00
 0.0000000000000E+00
 0.0000000000000E+00
 0.0000000000000E+00
 0.0000000000000E+00
 0.0000000000000E+00
 0.0000000000000E+00
 0.0000000000000E+00
 0.0000000000000E+00
 0.0000000000000E+00
 0.0000000000000E+00
 0.0000000000000E+00
 0.0000000000000E+00
 0.0000000000000E+00
 0.0000000000000E+00
 0.0000000000000E+00
 0.0000000000000E+00
 0.0000000000000E+00
 0.0000000000000E+00
 0.0000000000000E+00
 0.0000000000000E+00
 0.0000000000000E+00
 0.0000000000000E+00
 0.0000000000000E+00
 0.0000000000000E+00
 0.0000000000000E+00
 0.0000000000000E+00
 0.0000000000000E+00
 0.0000000000000E+00
 0.0000000000000E+00
 0.0000000000000E+00
 0.0000000000000E+00
 0.0000000000000E+00
 0.0000000000000E+00
 0.0000000000000E+00
 0.0000000000000E+00
 0.0000000000000E+00
 0.0000000000000E+00
 0.0000000000000E+00
 0.0000000000000E+00
 0.0000000000000E+00
 0.0000000000000E+00
 0.0000000000000E+00
 0.0000000000000E+00
 0.0000000000000E+00
 0.0000000000000E+00
 0.0000000000000E+00
 0.0000000000000E+00
 0.0000000000000E+00
 0.0000000000000E+00
 0.0000000000000E+00
 0.0000000000000E+00
 0.0000000000000E+00
 0.0000000000000E+00
 0.0000000000000E+00
 0.0000000000000E+00
 0.0000000000000E+00
 0.0000000000000E+00
 0.0000000000000E+00
 0.0000000000000E+00
 0.0000000000000E+00
 0.0000000000000E+00
 0.0000000000000E+00
 0.0000000000000E+00
 0.0000000000000E+00
 0.0000000000000E+00
 0.0000000000000E+00
 0.0000000000000E+00
 0.0000000000000E+00
 0.0000000000000E+00
 0.0000000000000E+00
 0.0000000000000E+00
 0.0000000000000E+00
 0.0000000000000E+00
 0.0000000000000E+00
 0.0000000000000E+00
 0.0000000000000E+00
 0.0000000000000E+00
 0.0000000000000E+00
 0.0000000000000E+00
 0.0000000000000E+00
 0.0000000000000E+00
 0.0000000000000E+00
 0.0000000000000E+00
 0.0000000000000E+00
 0.0000000000000E+00
 0.0000000000000E+00
 0.0000000000000E+00
 0.0000000000000E+00
 0.0000000000000E+00
 0.0000000000000E+00
 0.0000000000000E+00
 0.0000000000000E+00
 0.0000000000000E+00
 0.0000000000000E+00
 0.0000000000000E+00
 0.0000000000000E+00
 0.0000000000000E+00
 0.0000000000000E+00
 0.0000000000000E+00
 0.0000000000000E+00
 0.0000000000000E+00
 0.0000000000000E+00
 0.0000000000000E+00
 0.0000000000000E+00
 0.0000000000000E+00
 0.0000000000000E+00
 0.0000000000000E+00
 0.0000000000000E+00
 0.0000000000000E+00
 0.0000000000000E+00
 0.0000000000000E+00
 0.0000000000000E+00
 0.0000000000000E+00
 0.0000000000000E+00
 0.0000000000000E+00
 0.0000000000000E+00
 0.0000000000000E+00
 0.0000000000000E+00
 0.0000000000000E+00
 0.0000000000000E+00
 0.0000000000000E+00
 0.0000000000000E+00
 0.0000000000000E+00
 0.0000000000000E+00
 0.0000000000000E+00
 0.0000000000000E+00
 0.0000000000000E+00
 0.0000000000000E+00
 0.0000000000000E+00
 0.0000000000000E+00
 0.0000000000000E+00
 0.0000000000000E+00
 0.0000000000000E+00
 0.0000000000000E+00
 0.0000000000000E+00
 0.0000000000000E+00
 0.0000000000000E+00
 0.0000000000000E+00
 0.0000000000000E+00
 0.0000000000000E+00
 0.0000000000000E+00
 0.0000000000000E+00
 0.0000000000000E+00
 0.0000000000000E+00
 0.0000000000000E+00
 0.0000000000000E+00
 0.0000000000000E+00
 0.0000000000000E+00
 0.0000000000000E+00
 0.0000000000000E+00
 0.0000000000000E+00
 0.0000000000000E+00
 0.0000000000000E+00
 0.0000000000000E+00
 0.0000000000000E+00
 0.0000000000000E+00
 0.0000000000000E+00
 0.0000000000000E+00
 0.0000000000000E+00
 0.0000000000000E+00
 0.0000000000000E+00
 0.0000000000000E+00
 0.0000000000000E+00
 0.0000000000000E+00
 0.0000000000000E+00
 0.0000000000000E+00
 0.0000000000000E+00
 0.0000000000000E+00
 0.0000000000000E+00
 0.0000000000000E+00
 0.0000000000000E+00
 0.0000000000000E+00
 0.0000000000000E+00
 0.0000000000000E+00
 0.0000000000000E+00
 0.0000000000000E+00
 0.0000000000000E+00
 0.0000000000000E+00
 0.0000000000000E+00
 0.0000000000000E+00
 0.0000000000000E+00
 0.0000000000000E+00
 0.0000000000000E+00
 0.0000000000000E+00
 0.0000000000000E+00
 0.0000000000000E+00
 0.0000000000000E+00
 0.0000000000000E+00
 0.0000000000000E+00
 0.0000000000000E+00
 0.0000000000000E+00
 0.0000000000000E+00
 0.0000000000000E+00
 0.0000000000000E+00
 0.0000000000000E+00
 0.0000000000000E+00
 0.0000000000000E+00
 0.0000000000000E+00
 0.0000000000000E+00
 0.0000000000000E+00
 0.0000000000000E+00
 0.0000000000000E+00
 0.0000000000000E+00
 0.0000000000000E+00
 0.0000000000000E+00
 0.0000000000000E+00
 0.0000000000000E+00
 0.0000000000000E+00
 0.0000000000000E+00
 0.0000000000000E+00
 0.0000000000000E+00
 0.0000000000000E+00
 0.0000000000000E+00
 0.0000000000000E+00
 0.0000000000000E+00
 0.0000000000000E+00
 0.0000000000000E+00
 0.0000000000000E+00
 0.0000000000000E+00
 0.0000000000000E+00
 0.0000000000000E+00
 0.0000000000000E+00
 0.0000000000000E+00
 0.0000000000000E+00
 0.0000000000000E+00
 0.0000000000000E+00
 0.0000000000000E+00
 0.0000000000000E+00
 0.0000000000000E+00
 0.0000000000000E+00
 0.0000000000000E+00
 0.0000000000000E+00
 0.0000000000000E+00
 0.0000000000000E+00
 0.0000000000000E+00
 0.0000000000000E+00
 0.0000000000000E+00
 0.0000000000000E+00
 0.0000000000000E+00
 0.0000000000000E+00
 0.0000000000000E+00
 0.0000000000000E+00
 0.0000000000000E+00
 0.0000000000000E+00
 0.0000000000000E+00
 0.0000000000000E+00
 0.0000000000000E+00
 0.0000000000000E+00
 0.0000000000000E+00
 0.0000000000000E+00
 0.0000000000000E+00
 0.0000000000000E+00
 0.0000000000000E+00
 0.0000000000000E+00
 0.0000000000000E+00
 0.0000000000000E+00
 0.0000000000000E+00
 0.0000000000000E+00
 0.0000000000000E+00
 0.0000000000000E+00
 0.0000000000000E+00
 0.0000000000000E+00
 0.0000000000000E+00
 0.0000000000000E+00
 0.0000000000000E+00
 0.0000000000000E+00
 0.0000000000000E+00
 0.0000000000000E+00
 0.0000000000000E+00
 0.0000000000000E+00
 0.0000000000000E+00
 0.0000000000000E+00
 0.0000000000000E+00
 0.0000000000000E+00
 0.0000000000000E+00
 0.0000000000000E+00
 0.0000000000000E+00
 0.0000000000000E+00
 0.0000000000000E+00
 0.0000000000000E+00
 0.0000000000000E+00
 0.0000000000000E+00
 0.0000000000000E+00
 0.0000000000000E+00
 0.0000000000000E+00
 0.0000000000000E+00
 0.0000000000000E+00
 0.0000000000000E+00
 0.0000000000000E+00
 0.0000000000000E+00
 0.0000000000000E+00
 0.0000000000000E+00
 0.0000000000000E+00
 0.0000000000000E+00
 0.0000000000000E+00
 0.0000000000000E+00
 0.0000000000000E+00
 0.0000000000000E+00
 0.0000000000000E+00
 0.0000000000000E+00
 0.0000000000000E+00
 0.0000000000000E+00
 0.0000000000000E+00
 0.0000000000000E+00
 0.0000000000000E+00
 0.0000000000000E+00
 0.0000000000000E+00
 0.0000000000000E+00
 0.0000000000000E+00
 0.0000000000000E+00
 0.0000000000000E+00
 0.0000000000000E+00
 0.0000000000000E+00
 0.0000000000000E+00
 0.0000000000000E+00
 0.0000000000000E+00
 0.0000000000000E+00
 0.0000000000000E+00
 0.0000000000000E+00
 0.0000000000000E+00
 0.0000000000000E+00
 0.0000000000000E+00
 0.0000000000000E+00
 0.0000000000000E+00
 0.0000000000000E+00
 0.0000000000000E+00
 0.0000000000000E+00
 0.0000000000000E+00
 0.0000000000000E+00
 0.0000000000000E+00
 0.0000000000000E+00
 0.0000000000000E+00
 0.0000000000000E+00
 0.0000000000000E+00
 0.0000000000000E+00
 0.0000000000000E+00
 0.0000000000000E+00
 0.0000000000000E+00
 0.0000000000000E+00
 0.0000000000000E+00
 0.0000000000000E+00
 0.0000000000000E+00
 0.0000000000000E+00
 0.0000000000000E+00
 0.0000000000000E+00
 0.0000000000000E+00
 0.0000000000000E+00
 0.0000000000000E+00
 0.0000000000000E+00
 0.0000000000000E+00
 0.0000000000000E+00
 0.0000000000000E+00
 0.0000000000000E+00
 0.0000000000000E+00
 0.0000000000000E+00
 0.0000000000000E+00
 0.0000000000000E+00
 0.0000000000000E+00
 0.0000000000000E+00
 0.0000000000000E+00
 0.0000000000000E+00
 0.0000000000000E+00
 0.0000000000000E+00
 0.0000000000000E+00
 0.0000000000000E+00
 0.0000000000000E+00
 0.0000000000000E+00
 0.0000000000000E+00
 0.0000000000000E+00
 0.0000000000000E+00
 0.0000000000000E+00
 0.0000000000000E+00
 0.0000000000000E+00
 0.0000000000000E+00
 0.0000000000000E+00
 0.0000000000000E+00
 0.0000000000000E+00
 0.0000000000000E+00
 0.0000000000000E+00
 0.0000000000000E+00
 0.0000000000000E+00
 0.0000000000000E+00
 0.0000000000000E+00
 0.0000000000000E+00
 0.0000000000000E+00
 0.0000000000000E+00
 0.0000000000000E+00
 0.0000000000000E+00
 0.0000000000000E+00
 0.0000000000000E+00
 0.0000000000000E+00
 0.0000000000000E+00
 0.0000000000000E+00
 0.0000000000000E+00
 0.0000000000000E+00
 0.0000000000000E+00
 0.0000000000000E+00
 0.0000000000000E+00
 0.0000000000000E+00
 0.0000000000000E+00
 0.0000000000000E+00
 0.0000000000000E+00
 0.0000000000000E+00
 0.0000000000000E+00
 0.0000000000000E+00
 0.0000000000000E+00
 0.0000000000000E+00
 0.0000000000000E+00
 0.0000000000000E+00
 0.0000000000000E+00
 0.0000000000000E+00
 0.0000000000000E+00
 0.0000000000000E+00
 0.0000000000000E+00
 0.0000000000000E+00
 0.0000000000000E+00
 0.0000000000000E+00
 0.0000000000000E+00
 0.0000000000000E+00
 0.0000000000000E+00
 0.0000000000000E+00
 0.0000000000000E+00
 0.0000000000000E+00
 0.0000000000000E+00
 0.0000000000000E+00
 0.0000000000000E+00
 0.0000000000000E+00
 0.0000000000000E+00
 0.0000000000000E+00
 0.0000000000000E+00
 0.0000000000000E+00
 0.0000000000000E+00
 0.0000000000000E+00
 0.0000000000000E+00
 0.0000000000000E+00
 0.0000000000000E+00
 0.0000000000000E+00
 0.0000000000000E+00
 0.0000000000000E+00
 0.0000000000000E+00
 0.0000000000000E+00
 0.0000000000000E+00
 0.0000000000000E+00
 0.0000000000000E+00
 0.0000000000000E+00
 0.0000000000000E+00
 0.0000000000000E+00
 0.0000000000000E+00
 0.0000000000000E+00
 0.0000000000000E+00
 0.0000000000000E+00
 0.0000000000000E+00
 0.0000000000000E+00
 0.0000000000000E+00
 0.0000000000000E+00
 0.0000000000000E+00
 0.0000000000000E+00
 0.0000000000000E+00
 0.0000000000000E+00
 0.0000000000000E+00
 0.0000000000000E+00
 0.0000000000000E+00
 0.0000000000000E+00
 0.0000000000000E+00
 0.0000000000000E+00
 0.0000000000000E+00
 0.0000000000000E+00
 0.0000000000000E+00
 0.0000000000000E+00
 0.0000000000000E+00
 0.0000000000000E+00
 0.0000000000000E+00
 0.0000000000000E+00
 0.0000000000000E+00
 0.0000000000000E+00
 0.0000000000000E+00
 0.0000000000000E+00
 0.0000000000000E+00
 0.0000000000000E+00
 0.0000000000000E+00
 0.0000000000000E+00
 0.0000000000000E+00
 0.0000000000000E+00
 0.0000000000000E+00
 0.0000000000000E+00
 0.0000000000000E+00
 0.0000000000000E+00
 0.0000000000000E+00
 0.0000000000000E+00
 0.0000000000000E+00
 0.0000000000000E+00
 0.0000000000000E+00
 0.0000000000000E+00
 0.0000000000000E+00
 0.0000000000000E+00
 0.0000000000000E+00
 0.0000000000000E+00
 0.0000000000000E+00
 0.0000000000000E+00
 0.0000000000000E+00
 0.0000000000000E+00
 0.0000000000000E+00
 0.0000000000000E+00
 0.0000000000000E+00
 0.0000000000000E+00
 0.0000000000000E+00
 0.0000000000000E+00
 0.0000000000000E+00
 0.0000000000000E+00
 0.0000000000000E+00
 0.0000000000000E+00
 0.0000000000000E+00
 0.0000000000000E+00
 0.0000000000000E+00
 0.0000000000000E+00
 0.0000000000000E+00
 0.0000000000000E+00
 0.0000000000000E+00
 0.0000000000000E+00
 0.0000000000000E+00
 0.0000000000000E+00
 0.0000000000000E+00
 0.0000000000000E+00
 0.0000000000000E+00
 0.0000000000000E+00
 0.0000000000000E+00
 0.0000000000000E+00
 0.0000000000000E+00
 0.0000000000000E+00
 0.0000000000000E+00
 0.0000000000000E+00
 0.0000000000000E+00
 0.0000000000000E+00
 0.0000000000000E+00
 0.0000000000000E+00
 0.0000000000000E+00
 0.0000000000000E+00
 0.0000000000000E+00
 0.0000000000000E+00
 0.0000000000000E+00
 0.0000000000000E+00
 0.0000000000000E+00
 0.0000000000000E+00
 0.0000000000000E+00
 0.0000000000000E+00
 0.0000000000000E+00
 0.0000000000000E+00
 0.0000000000000E+00
 0.0000000000000E+00
 0.0000000000000E+00
 0.0000000000000E+00
 0.0000000000000E+00
 0.0000000000000E+00
 0.0000000000000E+00
 0.0000000000000E+00
 0.0000000000000E+00
 0.0000000000000E+00
 0.0000000000000E+00
 0.0000000000000E+00
 0.0000000000000E+00
 0.0000000000000E+00
 0.0000000000000E+00
 0.0000000000000E+00
 0.0000000000000E+00
 0.0000000000000E+00
 0.0000000000000E+00
 0.0000000000000E+00
 0.0000000000000E+00
 0.0000000000000E+00
 0.0000000000000E+00
 0.0000000000000E+00
 0.0000000000000E+00
 0.0000000000000E+00
 0.0000000000000E+00
 0.0000000000000E+00
 0.0000000000000E+00
 0.0000000000000E+00
 0.0000000000000E+00
 0.0000000000000E+00
 0.0000000000000E+00
 0.0000000000000E+00
 0.0000000000000E+00
 0.0000000000000E+00
 0.0000000000000E+00
 0.0000000000000E+00
 0.0000000000000E+00
 0.0000000000000E+00
 0.0000000000000E+00
 0.0000000000000E+00
 0.0000000000000E+00
 0.0000000000000E+00
 0.0000000000000E+00
 0.0000000000000E+00
 0.0000000000000E+00
 0.0000000000000E+00
 0.0000000000000E+00
 0.0000000000000E+00
 0.0000000000000E+00
 0.0000000000000E+00
 0.0000000000000E+00
 0.0000000000000E+00
 0.0000000000000E+00
 0.0000000000000E+00
 0.0000000000000E+00
 0.0000000000000E+00
 0.0000000000000E+00
 0.0000000000000E+00
 0.0000000000000E+00
 0.0000000000000E+00
 0.0000000000000E+00
 0.0000000000000E+00
 0.0000000000000E+00
 0.0000000000000E+00
 0.0000000000000E+00
 0.0000000000000E+00
 0.0000000000000E+00
 0.0000000000000E+00
 0.0000000000000E+00
 0.0000000000000E+00
 0.0000000000000E+00
 0.0000000000000E+00
 0.0000000000000E+00
 0.0000000000000E+00
 0.0000000000000E+00
 0.0000000000000E+00
 0.0000000000000E+00
 0.0000000000000E+00
 0.0000000000000E+00
 0.0000000000000E+00
 0.0000000000000E+00
 0.0000000000000E+00
 0.0000000000000E+00
 0.0000000000000E+00
 0.0000000000000E+00
 0.0000000000000E+00
 0.0000000000000E+00
 0.0000000000000E+00
 0.0000000000000E+00
 0.0000000000000E+00
 0.0000000000000E+00
 0.0000000000000E+00
 0.0000000000000E+00
 0.0000000000000E+00
 0.0000000000000E+00
 0.0000000000000E+00
 0.0000000000000E+00
 0.0000000000000E+00
 0.0000000000000E+00
 0.0000000000000E+00
 0.0000000000000E+00
 0.0000000000000E+00
 0.0000000000000E+00
 0.0000000000000E+00
 0.0000000000000E+00
 0.0000000000000E+00
 0.0000000000000E+00
 0.0000000000000E+00
 0.0000000000000E+00
 0.0000000000000E+00
 0.0000000000000E+00
 0.0000000000000E+00
 0.0000000000000E+00
 0.0000000000000E+00
 0.0000000000000E+00
 0.0000000000000E+00
 0.0000000000000E+00
 0.0000000000000E+00
 0.0000000000000E+00
 0.0000000000000E+00
 0.0000000000000E+00
 0.0000000000000E+00
 0.0000000000000E+00
 0.0000000000000E+00
 0.0000000000000E+00
 0.0000000000000E+00
 0.0000000000000E+00
 0.0000000000000E+00
 0.0000000000000E+00
 0.0000000000000E+00
 0.0000000000000E+00
 0.0000000000000E+00
 0.0000000000000E+00
 0.0000000000000E+00
 0.0000000000000E+00
 0.0000000000000E+00
 0.0000000000000E+00
 0.0000000000000E+00
 0.0000000000000E+00
 0.0000000000000E+00
 0.0000000000000E+00
 0.0000000000000E+00
 0.0000000000000E+00
 0.0000000000000E+00
 0.0000000000000E+00
 0.0000000000000E+00
 0.0000000000000E+00
 0.0000000000000E+00
 0.0000000000000E+00
 0.0000000000000E+00
 0.0000000000000E+00
 0.0000000000000E+00
 0.0000000000000E+00
 0.0000000000000E+00
 0.0000000000000E+00
 0.0000000000000E+00
 0.0000000000000E+00
 0.0000000000000E+00
 0.0000000000000E+00
 0.0000000000000E+00
 0.0000000000000E+00
 0.0000000000000E+00
 0.0000000000000E+00
 0.0000000000000E+00
 0.0000000000000E+00
 0.0000000000000E+00
 0.0000000000000E+00
 0.0000000000000E+00
 0.0000000000000E+00
 0.0000000000000E+00
 0.0000000000000E+00
 0.0000000000000E+00
 0.0000000000000E+00
 0.0000000000000E+00
 0.0000000000000E+00
 0.0000000000000E+00
 0.0000000000000E+00
 0.0000000000000E+00
 0.0000000000000E+00
 0.0000000000000E+00
 0.0000000000000E+00
 0.0000000000000E+00
 0.0000000000000E+00
 0.0000000000000E+00
 0.0000000000000E+00
 0.0000000000000E+00
 0.0000000000000E+00
 0.0000000000000E+00
 0.0000000000000E+00
 0.0000000000000E+00
 0.0000000000000E+00
 0.0000000000000E+00
 0.0000000000000E+00
 0.0000000000000E+00
 0.0000000000000E+00
 0.0000000000000E+00
 0.0000000000000E+00
 0.0000000000000E+00
 0.0000000000000E+00
 0.0000000000000E+00
 0.0000000000000E+00
 0.0000000000000E+00
 0.0000000000000E+00
 0.0000000000000E+00
 0.0000000000000E+00
 0.0000000000000E+00
 0.0000000000000E+00
 0.0000000000000E+00
 0.0000000000000E+00
 0.0000000000000E+00
 0.0000000000000E+00
 0.0000000000000E+00
 0.0000000000000E+00
 0.0000000000000E+00
 0.0000000000000E+00
 0.0000000000000E+00
 0.0000000000000E+00
 0.0000000000000E+00
 0.0000000000000E+00
 0.0000000000000E+00
 0.0000000000000E+00
 0.0000000000000E+00
 0.0000000000000E+00
 0.0000000000000E+00
 0.0000000000000E+00
 0.0000000000000E+00
 0.0000000000000E+00
 0.0000000000000E+00
 0.0000000000000E+00
 0.0000000000000E+00
 0.0000000000000E+00
 0.0000000000000E+00
 0.0000000000000E+00
 0.0000000000000E+00
 0.0000000000000E+00
 0.0000000000000E+00
 0.0000000000000E+00
 0.0000000000000E+00
 0.0000000000000E+00
 0.0000000000000E+00
 0.0000000000000E+00
 0.0000000000000E+00
 0.0000000000000E+00
 0.0000000000000E+00
 0.0000000000000E+00
 0.0000000000000E+00
 0.0000000000000E+00
 0.0000000000000E+00
 0.0000000000000E+00
 0.0000000000000E+00
 0.0000000000000E+00
 0.0000000000000E+00
 0.0000000000000E+00
 0.0000000000000E+00
 0.0000000000000E+00
 0.0000000000000E+00
 0.0000000000000E+00
 0.0000000000000E+00
 0.0000000000000E+00
 0.0000000000000E+00
 0.0000000000000E+00
 0.0000000000000E+00
 0.0000000000000E+00
 0.0000000000000E+00
 0.0000000000000E+00
 0.0000000000000E+00
 0.0000000000000E+00
 0.0000000000000E+00
 0.0000000000000E+00
 0.0000000000000E+00
 0.0000000000000E+00
 0.0000000000000E+00
 0.0000000000000E+00
 0.0000000000000E+00
 0.0000000000000E+00
 0.0000000000000E+00
 0.0000000000000E+00
 0.0000000000000E+00
 0.0000000000000E+00
 0.0000000000000E+00
 0.0000000000000E+00
 0.0000000000000E+00
 0.0000000000000E+00
 0.0000000000000E+00
 0.0000000000000E+00
 0.0000000000000E+00
 0.0000000000000E+00
 0.0000000000000E+00
 0.0000000000000E+00
 0.0000000000000E+00
 0.0000000000000E+00
 0.0000000000000E+00
 0.0000000000000E+00
 0.0000000000000E+00
 0.0000000000000E+00
 0.0000000000000E+00
 0.0000000000000E+00
 0.0000000000000E+00
 0.0000000000000E+00
 0.0000000000000E+00
 0.0000000000000E+00
 0.0000000000000E+00
 0.0000000000000E+00
 0.0000000000000E+00
 0.0000000000000E+00
 0.0000000000000E+00
 0.0000000000000E+00
 0.0000000000000E+00
 0.0000000000000E+00
 0.0000000000000E+00
 0.0000000000000E+00
 0.0000000000000E+00
 0.0000000000000E+00
 0.0000000000000E+00
 0.0000000000000E+00
 0.0000000000000E+00
 0.0000000000000E+00
 0.0000000000000E+00
 0.0000000000000E+00
 0.0000000000000E+00
 0.0000000000000E+00
 0.0000000000000E+00
 0.0000000000000E+00
 0.0000000000000E+00
 0.0000000000000E+00
 0.0000000000000E+00
 0.0000000000000E+00
 0.0000000000000E+00
 0.0000000000000E+00
 0.0000000000000E+00
 0.0000000000000E+00
 0.0000000000000E+00
 0.0000000000000E+00
 0.0000000000000E+00
 0.0000000000000E+00
 0.0000000000000E+00
 0.0000000000000E+00
 0.0000000000000E+00
 0.0000000000000E+00
 0.0000000000000E+00
 0.0000000000000E+00
 0.0000000000000E+00
 0.0000000000000E+00
 0.0000000000000E+00
 0.0000000000000E+00
 0.0000000000000E+00
 0.0000000000000E+00
 0.0000000000000E+00
 0.0000000000000E+00
 0.0000000000000E+00
 0.0000000000000E+00
 0.0000000000000E+00
 0.0000000000000E+00
 0.0000000000000E+00
 0.0000000000000E+00
 0.0000000000000E+00
 0.0000000000000E+00
 0.0000000000000E+00
 0.0000000000000E+00
 0.0000000000000E+00
 0.0000000000000E+00
 0.0000000000000E+00
 0.0000000000000E+00
 0.0000000000000E+00
 0.0000000000000E+00
 0.0000000000000E+00
 0.0000000000000E+00
 0.0000000000000E+00
 0.0000000000000E+00
 0.0000000000000E+00
 0.0000000000000E+00
 0.0000000000000E+00
 0.0000000000000E+00
 0.0000000000000E+00
 0.0000000000000E+00
 0.0000000000000E+00
 0.0000000000000E+00
 0.0000000000000E+00
 0.0000000000000E+00
 0.0000000000000E+00
 0.0000000000000E+00
 0.0000000000000E+00
 0.0000000000000E+00
 0.0000000000000E+00
 0.0000000000000E+00
 0.0000000000000E+00
 0.0000000000000E+00
 0.0000000000000E+00
 0.0000000000000E+00
 0.0000000000000E+00
 0.0000000000000E+00
 0.0000000000000E+00
 0.0000000000000E+00
 0.0000000000000E+00
 0.0000000000000E+00
 0.0000000000000E+00
 0.0000000000000E+00
 0.0000000000000E+00
 0.0000000000000E+00
 0.0000000000000E+00
 0.0000000000000E+00
 0.0000000000000E+00
 0.0000000000000E+00
 0.0000000000000E+00
 0.0000000000000E+00
 0.0000000000000E+00
 0.0000000000000E+00
 0.0000000000000E+00
 0.0000000000000E+00
 0.0000000000000E+00
 0.0000000000000E+00
 0.0000000000000E+00
 0.0000000000000E+00
 0.0000000000000E+00
 0.0000000000000E+00
 0.0000000000000E+00
 0.0000000000000E+00
 0.0000000000000E+00
 0.0000000000000E+00
 0.0000000000000E+00
 0.0000000000000E+00
 0.0000000000000E+00
 0.0000000000000E+00
 0.0000000000000E+00
 0.0000000000000E+00
 0.0000000000000E+00
 0.0000000000000E+00
 0.0000000000000E+00
 0.0000000000000E+00
 0.0000000000000E+00
 0.0000000000000E+00
 0.0000000000000E+00
 0.0000000000000E+00
 0.0000000000000E+00
 0.0000000000000E+00
 0.0000000000000E+00
 0.0000000000000E+00
 0.0000000000000E+00
 0.0000000000000E+00
 0.0000000000000E+00
 0.0000000000000E+00
 0.0000000000000E+00
 0.0000000000000E+00
 0.0000000000000E+00
 0.0000000000000E+00
 0.0000000000000E+00
 0.0000000000000E+00
 0.0000000000000E+00
 0.0000000000000E+00
 0.0000000000000E+00
 0.0000000000000E+00
 0.0000000000000E+00
 0.0000000000000E+00
 0.0000000000000E+00
 0.0000000000000E+00
 0.0000000000000E+00
 0.0000000000000E+00
 0.0000000000000E+00
 0.0000000000000E+00
 0.0000000000000E+00
 0.0000000000000E+00
 0.0000000000000E+00
 0.0000000000000E+00
 0.0000000000000E+00
 0.0000000000000E+00
 0.0000000000000E+00
 0.0000000000000E+00
 0.0000000000000E+00
 0.0000000000000E+00
 0.0000000000000E+00
 0.0000000000000E+00
 0.0000000000000E+00
 0.0000000000000E+00
 0.0000000000000E+00
 0.0000000000000E+00
 0.0000000000000E+00
 0.0000000000000E+00
 0.0000000000000E+00
 0.0000000000000E+00
 0.0000000000000E+00
 0.0000000000000E+00
 0.0000000000000E+00
 0.0000000000000E+00
 0.0000000000000E+00
 0.0000000000000E+00
 0.0000000000000E+00
 0.0000000000000E+00
 0.0000000000000E+00
 0.0000000000000E+00
 0.0000000000000E+00
 0.0000000000000E+00
 0.0000000000000E+00
 0.0000000000000E+00
 0.0000000000000E+00
 0.0000000000000E+00
 0.0000000000000E+00
 0.0000000000000E+00
 0.0000000000000E+00
 0.0000000000000E+00
 0.0000000000000E+00
 0.0000000000000E+00
 0.0000000000000E+00
 0.0000000000000E+00
 0.0000000000000E+00
 0.0000000000000E+00
 0.0000000000000E+00
 0.0000000000000E+00
 0.0000000000000E+00
 0.0000000000000E+00
 0.0000000000000E+00
 0.0000000000000E+00
 0.0000000000000E+00
 0.0000000000000E+00
 0.0000000000000E+00
 0.0000000000000E+00
 0.0000000000000E+00
 0.0000000000000E+00
 0.0000000000000E+00
 0.0000000000000E+00
 0.0000000000000E+00
 0.0000000000000E+00
 0.0000000000000E+00
 0.0000000000000E+00
 0.0000000000000E+00
 0.0000000000000E+00
 0.0000000000000E+00
 0.0000000000000E+00
 0.0000000000000E+00
 0.0000000000000E+00
 0.0000000000000E+00
 0.0000000000000E+00
 0.0000000000000E+00
 0.0000000000000E+00
 0.0000000000000E+00
 0.0000000000000E+00
 0.0000000000000E+00
 0.0000000000000E+00
 0.0000000000000E+00
 0.0000000000000E+00
 0.0000000000000E+00
 0.0000000000000E+00
 0.0000000000000E+00
 0.0000000000000E+00
 0.0000000000000E+00
 0.0000000000000E+00
 0.0000000000000E+00
 0.0000000000000E+00
 0.0000000000000E+00
 0.0000000000000E+00
 0.0000000000000E+00
 0.0000000000000E+00
 0.0000000000000E+00
 0.0000000000000E+00
 0.0000000000000E+00
 0.0000000000000E+00
 0.0000000000000E+00
 0.0000000000000E+00
 0.0000000000000E+00
 0.0000000000000E+00
 0.0000000000000E+00
 0.0000000000000E+00
 0.0000000000000E+00
 0.0000000000000E+00
 0.0000000000000E+00
 0.0000000000000E+00
 0.0000000000000E+00
 0.0000000000000E+00
 0.0000000000000E+00
 0.0000000000000E+00
 0.0000000000000E+00
 0.0000000000000E+00
 0.0000000000000E+00
 0.0000000000000E+00
 0.0000000000000E+00
 0.0000000000000E+00
 0.0000000000000E+00
 0.0000000000000E+00
 0.0000000000000E+00
 0.0000000000000E+00
 0.0000000000000E+00
 0.0000000000000E+00
 0.0000000000000E+00
 0.0000000000000E+00
 0.0000000000000E+00
 0.0000000000000E+00
 0.0000000000000E+00
 0.0000000000000E+00
 0.0000000000000E+00
 0.0000000000000E+00
 0.0000000000000E+00
 0.0000000000000E+00
 0.0000000000000E+00
 0.0000000000000E+00
 0.0000000000000E+00
 0.0000000000000E+00
 0.0000000000000E+00
 0.0000000000000E+00
 0.0000000000000E+00
 0.0000000000000E+00
 0.0000000000000E+00
 0.0000000000000E+00
 0.0000000000000E+00
 0.0000000000000E+00
 0.0000000000000E+00
 0.0000000000000E+00
 0.0000000000000E+00
 0.0000000000000E+00
 0.0000000000000E+00
 0.0000000000000E+00
 0.0000000000000E+00
 0.0000000000000E+00
 0.0000000000000E+00
 0.0000000000000E+00
 0.0000000000000E+00
 0.0000000000000E+00
 0.0000000000000E+00
 0.0000000000000E+00
 0.0000000000000E+00
 0.0000000000000E+00
 0.0000000000000E+00
 0.0000000000000E+00
 0.0000000000000E+00
 0.0000000000000E+00
 0.0000000000000E+00
 0.0000000000000E+00
 0.0000000000000E+00
 0.0000000000000E+00
 0.0000000000000E+00
 0.0000000000000E+00
 0.0000000000000E+00
 0.0000000000000E+00
 0.0000000000000E+00
 0.0000000000000E+00
 0.0000000000000E+00
 0.0000000000000E+00
 0.0000000000000E+00
 0.0000000000000E+00
 0.0000000000000E+00
 0.0000000000000E+00
 0.0000000000000E+00
 0.0000000000000E+00
 0.0000000000000E+00
 0.0000000000000E+00
 0.0000000000000E+00
 0.0000000000000E+00
 0.0000000000000E+00
 0.0000000000000E+00
 0.0000000000000E+00
 0.0000000000000E+00
 0.0000000000000E+00
 0.0000000000000E+00
 0.0000000000000E+00
 0.0000000000000E+00
 0.0000000000000E+00
 0.0000000000000E+00
 0.0000000000000E+00
 0.0000000000000E+00
 0.0000000000000E+00
 0.0000000000000E+00
 0.0000000000000E+00
 0.0000000000000E+00
 0.0000000000000E+00
 0.0000000000000E+00
 0.0000000000000E+00
 0.0000000000000E+00
 0.0000000000000E+00
 0.0000000000000E+00
 0.0000000000000E+00
 0.0000000000000E+00
 0.0000000000000E+00
 0.0000000000000E+00
 0.0000000000000E+00
 0.0000000000000E+00
 0.0000000000000E+00
 0.0000000000000E+00
 0.0000000000000E+00
 0.0000000000000E+00
 0.0000000000000E+00
 0.0000000000000E+00
 0.0000000000000E+00
 0.0000000000000E+00
 0.0000000000000E+00
 0.0000000000000E+00
 0.0000000000000E+00
 0.0000000000000E+00
 0.0000000000000E+00
 0.0000000000000E+00
 0.0000000000000E+00
 0.0000000000000E+00
 0.0000000000000E+00
 0.0000000000000E+00
 0.0000000000000E+00
 0.0000000000000E+00
 0.0000000000000E+00
 0.0000000000000E+00
 0.0000000000000E+00
 0.0000000000000E+00
 0.0000000000000E+00
 0.0000000000000E+00
 0.0000000000000E+00
 0.0000000000000E+00
 0.0000000000000E+00
 0.0000000000000E+00
 0.0000000000000E+00
 0.0000000000000E+00
 0.0000000000000E+00
 0.0000000000000E+00
 0.0000000000000E+00
 0.0000000000000E+00
 0.0000000000000E+00
 0.0000000000000E+00
 0.0000000000000E+00
 0.0000000000000E+00
 0.0000000000000E+00
 0.0000000000000E+00
 0.0000000000000E+00
 0.0000000000000E+00
 0.0000000000000E+00
 0.0000000000000E+00
 0.0000000000000E+00
 0.0000000000000E+00
 0.0000000000000E+00
 0.0000000000000E+00
 0.0000000000000E+00
 0.0000000000000E+00
 0.0000000000000E+00
 0.0000000000000E+00
 0.0000000000000E+00
 0.0000000000000E+00
 0.0000000000000E+00
 0.0000000000000E+00
 0.0000000000000E+00
 0.0000000000000E+00
 0.0000000000000E+00
 0.0000000000000E+00
 0.0000000000000E+00
 0.0000000000000E+00
 0.0000000000000E+00
 0.0000000000000E+00
 0.0000000000000E+00
 0.0000000000000E+00
 0.0000000000000E+00
 0.0000000000000E+00
 0.0000000000000E+00
 0.0000000000000E+00
 0.0000000000000E+00
 0.0000000000000E+00
 0.0000000000000E+00
 0.0000000000000E+00
 0.0000000000000E+00
 0.0000000000000E+00
 0.0000000000000E+00
 0.0000000000000E+00
 0.0000000000000E+00
 0.0000000000000E+00
 0.0000000000000E+00
 0.0000000000000E+00
 0.0000000000000E+00
 0.0000000000000E+00
 0.0000000000000E+00
 0.0000000000000E+00
 0.0000000000000E+00
 0.0000000000000E+00
 0.0000000000000E+00
 0.0000000000000E+00
 0.0000000000000E+00
 0.0000000000000E+00
 0.0000000000000E+00
 0.0000000000000E+00
 0.0000000000000E+00
 0.0000000000000E+00
 0.0000000000000E+00
 0.0000000000000E+00
 0.0000000000000E+00
 0.0000000000000E+00
 0.0000000000000E+00
 0.0000000000000E+00
 0.0000000000000E+00
 0.0000000000000E+00
 0.0000000000000E+00
 0.0000000000000E+00
 0.0000000000000E+00
 0.0000000000000E+00
 0.0000000000000E+00
 0.0000000000000E+00
 0.0000000000000E+00
 0.0000000000000E+00
 0.0000000000000E+00
 0.0000000000000E+00
 0.0000000000000E+00
 0.0000000000000E+00
 0.0000000000000E+00
 0.0000000000000E+00
 0.0000000000000E+00
 0.0000000000000E+00
 0.0000000000000E+00
 0.0000000000000E+00
 0.0000000000000E+00
 0.0000000000000E+00
 0.0000000000000E+00
 0.0000000000000E+00
 0.0000000000000E+00
 0.0000000000000E+00
 0.0000000000000E+00
 0.0000000000000E+00
 0.0000000000000E+00
 0.0000000000000E+00
 0.0000000000000E+00
 0.0000000000000E+00
 0.0000000000000E+00
 0.0000000000000E+00
 0.0000000000000E+00
 0.0000000000000E+00
 0.0000000000000E+00
 0.0000000000000E+00
 0.0000000000000E+00
 0.0000000000000E+00
 0.0000000000000E+00
 0.0000000000000E+00
 0.0000000000000E+00
 0.0000000000000E+00
 0.0000000000000E+00
 0.0000000000000E+00
 0.0000000000000E+00
 0.0000000000000E+00
 0.0000000000000E+00
 0.0000000000000E+00
 0.0000000000000E+00
 0.0000000000000E+00
 0.0000000000000E+00
 0.0000000000000E+00
 0.0000000000000E+00
 0.0000000000000E+00
 0.0000000000000E+00
 0.0000000000000E+00
 0.0000000000000E+00
 0.0000000000000E+00
 0.0000000000000E+00
 0.0000000000000E+00
 0.0000000000000E+00
 0.0000000000000E+00
 0.0000000000000E+00
 0.0000000000000E+00
 0.0000000000000E+00
 0.0000000000000E+00
 0.0000000000000E+00
 0.0000000000000E+00
 0.0000000000000E+00
 0.0000000000000E+00
 0.0000000000000E+00
 0.0000000000000E+00
 0.0000000000000E+00
 0.0000000000000E+00
 0.0000000000000E+00
 0.0000000000000E+00
 0.0000000000000E+00
 0.0000000000000E+00
 0.0000000000000E+00
 0.0000000000000E+00
 0.0000000000000E+00
 0.0000000000000E+00
 0.0000000000000E+00
 0.0000000000000E+00
 0.0000000000000E+00
 0.0000000000000E+00
 0.0000000000000E+00
 0.0000000000000E+00
 0.0000000000000E+00
 0.0000000000000E+00
 0.0000000000000E+00
 0.0000000000000E+00
 0.0000000000000E+00
 0.0000000000000E+00
 0.0000000000000E+00
 0.0000000000000E+00
 0.0000000000000E+00
 0.0000000000000E+00
 0.0000000000000E+00
 0.0000000000000E+00
 0.0000000000000E+00
 0.0000000000000E+00
 0.0000000000000E+00
 0.0000000000000E+00
 0.0000000000000E+00
 0.0000000000000E+00
 0.0000000000000E+00
 0.0000000000000E+00
 0.0000000000000E+00
 0.0000000000000E+00
 0.0000000000000E+00
 0.0000000000000E+00
 0.0000000000000E+00
 0.0000000000000E+00
 0.0000000000000E+00
 0.0000000000000E+00
 0.0000000000000E+00
 0.0000000000000E+00
 0.0000000000000E+00
 0.0000000000000E+00
 0.0000000000000E+00
 0.0000000000000E+00
 0.0000000000000E+00
 0.0000000000000E+00
 0.0000000000000E+00
 0.0000000000000E+00
 0.0000000000000E+00
 0.0000000000000E+00
 0.0000000000000E+00
 0.0000000000000E+00
 0.0000000000000E+00
 0.0000000000000E+00
 0.0000000000000E+00
 0.0000000000000E+00
 0.0000000000000E+00
 0.0000000000000E+00
 0.0000000000000E+00
 0.0000000000000E+00
 0.0000000000000E+00
 0.0000000000000E+00
 0.0000000000000E+00
 0.0000000000000E+00
 0.0000000000000E+00
 0.0000000000000E+00
 0.0000000000000E+00
 0.0000000000000E+00
 0.0000000000000E+00
 0.0000000000000E+00
 0.0000000000000E+00
 0.0000000000000E+00
 0.0000000000000E+00
 0.0000000000000E+00
 0.0000000000000E+00
 0.0000000000000E+00
 0.0000000000000E+00
 0.0000000000000E+00
 0.0000000000000E+00
 0.0000000000000E+00
 0.0000000000000E+00
 0.0000000000000E+00
 0.0000000000000E+00
 0.0000000000000E+00
 0.0000000000000E+00
 0.0000000000000E+00
 0.0000000000000E+00
 0.0000000000000E+00
 0.0000000000000E+00
 0.0000000000000E+00
 0.0000000000000E+00
 0.0000000000000E+00
 0.0000000000000E+00
 0.0000000000000E+00
 0.0000000000000E+00
 0.0000000000000E+00
 0.0000000000000E+00
 0.0000000000000E+00
 0.0000000000000E+00
 0.0000000000000E+00
 0.0000000000000E+00
 0.0000000000000E+00
 0.0000000000000E+00
 0.0000000000000E+00
 0.0000000000000E+00
 0.0000000000000E+00
 0.0000000000000E+00
 0.0000000000000E+00
 0.0000000000000E+00
 0.0000000000000E+00
 0.0000000000000E+00
 0.0000000000000E+00
 0.0000000000000E+00
 0.0000000000000E+00
 0.0000000000000E+00
 0.0000000000000E+00
 0.0000000000000E+00
 0.0000000000000E+00
 0.0000000000000E+00
 0.0000000000000E+00
 0.0000000000000E+00
 0.0000000000000E+00
 0.0000000000000E+00
 0.0000000000000E+00
 0.0000000000000E+00
 0.0000000000000E+00
 0.0000000000000E+00
 0.0000000000000E+00
 0.0000000000000E+00
 0.0000000000000E+00
 0.0000000000000E+00
 0.0000000000000E+00
 0.0000000000000E+00
 0.0000000000000E+00
 0.0000000000000E+00
 0.0000000000000E+00
 0.0000000000000E+00
 0.0000000000000E+00
 0.0000000000000E+00
 0.0000000000000E+00
 0.0000000000000E+00
 0.0000000000000E+00
 0.0000000000000E+00
 0.0000000000000E+00
 0.0000000000000E+00
 0.0000000000000E+00
 0.0000000000000E+00
 0.0000000000000E+00
 0.0000000000000E+00
 0.0000000000000E+00
 0.0000000000000E+00
 0.0000000000000E+00
 0.0000000000000E+00
 0.0000000000000E+00
 0.0000000000000E+00
 0.0000000000000E+00
 0.0000000000000E+00
 0.0000000000000E+00
 0.0000000000000E+00
 0.0000000000000E+00
 0.0000000000000E+00
 0.0000000000000E+00
 0.0000000000000E+00
 0.0000000000000E+00
 0.0000000000000E+00
 0.0000000000000E+00
 0.0000000000000E+00
 0.0000000000000E+00
 0.0000000000000E+00
 0.0000000000000E+00
 0.0000000000000E+00
 0.0000000000000E+00
 0.0000000000000E+00
 0.0000000000000E+00
 0.0000000000000E+00
 0.0000000000000E+00
 0.0000000000000E+00
 0.0000000000000E+00
 0.0000000000000E+00
 0.0000000000000E+00
 0.0000000000000E+00
 0.0000000000000E+00
 0.0000000000000E+00
 0.0000000000000E+00
 0.0000000000000E+00
 0.0000000000000E+00
 0.0000000000000E+00
 0.0000000000000E+00
 0.0000000000000E+00
 0.0000000000000E+00
 0.0000000000000E+00
 0.0000000000000E+00
 0.0000000000000E+00
 0.0000000000000E+00
 0.0000000000000E+00
 0.0000000000000E+00
 0.0000000000000E+00
 0.0000000000000E+00
 0.0000000000000E+00
 0.0000000000000E+00
 0.0000000000000E+00
 0.0000000000000E+00
 0.0000000000000E+00
 0.0000000000000E+00
 0.0000000000000E+00
 0.0000000000000E+00
 0.0000000000000E+00
 0.0000000000000E+00
 0.0000000000000E+00
 0.0000000000000E+00
 0.0000000000000E+00
 0.0000000000000E+00
 0.0000000000000E+00
 0.0000000000000E+00
 0.0000000000000E+00
 0.0000000000000E+00
 0.0000000000000E+00
 0.0000000000000E+00
 0.0000000000000E+00
 0.0000000000000E+00
 0.0000000000000E+00
 0.0000000000000E+00
 0.0000000000000E+00
 0.0000000000000E+00
 0.0000000000000E+00
 0.0000000000000E+00
 0.0000000000000E+00
 0.0000000000000E+00
 0.0000000000000E+00
 0.0000000000000E+00
 0.0000000000000E+00
 0.0000000000000E+00
 0.0000000000000E+00
 0.0000000000000E+00
 0.0000000000000E+00
 0.0000000000000E+00
 0.0000000000000E+00
 0.0000000000000E+00
 0.0000000000000E+00
 0.0000000000000E+00
 0.0000000000000E+00
 0.0000000000000E+00
 0.0000000000000E+00
 0.0000000000000E+00
 0.0000000000000E+00
 0.0000000000000E+00
 0.0000000000000E+00
 0.0000000000000E+00
 0.0000000000000E+00
 0.0000000000000E+00
 0.0000000000000E+00
 0.0000000000000E+00
 0.0000000000000E+00
 0.0000000000000E+00
 0.0000000000000E+00
 0.0000000000000E+00
 0.0000000000000E+00
 0.0000000000000E+00
 0.0000000000000E+00
 0.0000000000000E+00
 0.0000000000000E+00
 0.0000000000000E+00
 0.0000000000000E+00
 0.0000000000000E+00
 0.0000000000000E+00
 0.0000000000000E+00
 0.0000000000000E+00
 0.0000000000000E+00
 0.0000000000000E+00
 0.0000000000000E+00
 0.0000000000000E+00
 0.0000000000000E+00
 0.0000000000000E+00
 0.0000000000000E+00
 0.0000000000000E+00
 0.0000000000000E+00
 0.0000000000000E+00
 0.0000000000000E+00
 0.0000000000000E+00
 0.0000000000000E+00
 0.0000000000000E+00
 0.0000000000000E+00
 0.0000000000000E+00
 0.0000000000000E+00
 0.0000000000000E+00
 0.0000000000000E+00
 0.0000000000000E+00
 0.0000000000000E+00
 0.0000000000000E+00
 0.0000000000000E+00
 0.0000000000000E+00
 0.0000000000000E+00
 0.0000000000000E+00
 0.0000000000000E+00
 0.0000000000000E+00
 0.0000000000000E+00
 0.0000000000000E+00
 0.0000000000000E+00
 0.0000000000000E+00
 0.0000000000000E+00
 0.0000000000000E+00
 0.0000000000000E+00
 0.0000000000000E+00
 0.0000000000000E+00
 0.0000000000000E+00
 0.0000000000000E+00
 0.0000000000000E+00
 0.0000000000000E+00
 0.0000000000000E+00
 0.0000000000000E+00
 0.0000000000000E+00
 0.0000000000000E+00
 0.0000000000000E+00
 0.0000000000000E+00
 0.0000000000000E+00
 0.0000000000000E+00
 0.0000000000000E+00
 0.0000000000000E+00
 0.0000000000000E+00
 0.0000000000000E+00
 0.0000000000000E+00
 0.0000000000000E+00
 0.0000000000000E+00
 0.0000000000000E+00
 0.0000000000000E+00
 0.0000000000000E+00
 0.0000000000000E+00
 0.0000000000000E+00
 0.0000000000000E+00
 0.0000000000000E+00
 0.0000000000000E+00
 0.0000000000000E+00
 0.0000000000000E+00
 0.0000000000000E+00
 0.0000000000000E+00
 0.0000000000000E+00
 0.0000000000000E+00
 0.0000000000000E+00
 0.0000000000000E+00
 0.0000000000000E+00
 0.0000000000000E+00
 0.0000000000000E+00
 0.0000000000000E+00
 0.0000000000000E+00
 0.0000000000000E+00
 0.0000000000000E+00
 0.0000000000000E+00
 0.0000000000000E+00
 0.0000000000000E+00
 0.0000000000000E+00
 0.0000000000000E+00
 0.0000000000000E+00
 0.0000000000000E+00
 0.0000000000000E+00
 0.0000000000000E+00
 0.0000000000000E+00
 0.0000000000000E+00
 0.0000000000000E+00
 0.0000000000000E+00
 0.0000000000000E+00
 0.0000000000000E+00
 0.0000000000000E+00
 0.0000000000000E+00
 0.0000000000000E+00
 0.0000000000000E+00
 0.0000000000000E+00
 0.0000000000000E+00
 0.0000000000000E+00
 0.0000000000000E+00
 0.0000000000000E+00
 0.0000000000000E+00
 0.0000000000000E+00
 0.0000000000000E+00
 0.0000000000000E+00
 0.0000000000000E+00
 0.0000000000000E+00
 0.0000000000000E+00
 0.0000000000000E+00
 0.0000000000000E+00
 0.0000000000000E+00
 0.0000000000000E+00
 0.0000000000000E+00
 0.0000000000000E+00
 0.0000000000000E+00
 0.0000000000000E+00
 0.0000000000000E+00
 0.0000000000000E+00
 0.0000000000000E+00
 0.0000000000000E+00
 0.0000000000000E+00
 0.0000000000000E+00
 0.0000000000000E+00
 0.0000000000000E+00
 0.0000000000000E+00
 0.0000000000000E+00
 0.0000000000000E+00
 0.0000000000000E+00
 0.0000000000000E+00
 0.0000000000000E+00
 0.0000000000000E+00
 0.0000000000000E+00
 0.0000000000000E+00
 0.0000000000000E+00
 0.0000000000000E+00
 0.0000000000000E+00
 0.0000000000000E+00
 0.0000000000000E+00
 0.0000000000000E+00
 0.0000000000000E+00
 0.0000000000000E+00
 0.0000000000000E+00
 0.0000000000000E+00
 0.0000000000000E+00
 0.0000000000000E+00
 0.0000000000000E+00
 0.0000000000000E+00
 0.0000000000000E+00
 0.0000000000000E+00
 0.0000000000000E+00
 0.0000000000000E+00
 0.0000000000000E+00
 0.0000000000000E+00
 0.0000000000000E+00
 0.0000000000000E+00
 0.0000000000000E+00
 0.0000000000000E+00
 0.0000000000000E+00
 0.0000000000000E+00
 0.0000000000000E+00
 0.0000000000000E+00
 0.0000000000000E+00
 0.0000000000000E+00
 0.0000000000000E+00
 0.0000000000000E+00
 0.0000000000000E+00
 0.0000000000000E+00
 0.0000000000000E+00
 0.0000000000000E+00
 0.0000000000000E+00
 0.0000000000000E+00
 0.0000000000000E+00
 0.0000000000000E+00
 0.0000000000000E+00
 0.0000000000000E+00
 0.0000000000000E+00
 0.0000000000000E+00
 0.0000000000000E+00
 0.0000000000000E+00
 0.0000000000000E+00
 0.0000000000000E+00
 0.0000000000000E+00
 0.0000000000000E+00
 0.0000000000000E+00
 0.0000000000000E+00
 0.0000000000000E+00
 0.0000000000000E+00
 0.0000000000000E+00
 0.0000000000000E+00
 0.0000000000000E+00
 0.0000000000000E+00
 0.0000000000000E+00
 0.0000000000000E+00
 0.0000000000000E+00
 0.0000000000000E+00
 0.0000000000000E+00
 0.0000000000000E+00
 0.0000000000000E+00
 0.0000000000000E+00
 0.0000000000000E+00
 0.0000000000000E+00
 0.0000000000000E+00
 0.0000000000000E+00
 0.0000000000000E+00
 0.0000000000000E+00
 0.0000000000000E+00
 0.0000000000000E+00
 0.0000000000000E+00
 0.0000000000000E+00
 0.0000000000000E+00
 0.0000000000000E+00
 0.0000000000000E+00
 0.0000000000000E+00
 0.0000000000000E+00
 0.0000000000000E+00
 0.0000000000000E+00
 0.0000000000000E+00
 0.0000000000000E+00
 0.0000000000000E+00
 0.0000000000000E+00
 0.0000000000000E+00
 0.0000000000000E+00
 0.0000000000000E+00
 0.0000000000000E+00
 0.0000000000000E+00
 0.0000000000000E+00
 0.0000000000000E+00
 0.0000000000000E+00
 0.0000000000000E+00
 0.0000000000000E+00
 0.0000000000000E+00
 0.0000000000000E+00
 0.0000000000000E+00
 0.0000000000000E+00
 0.0000000000000E+00
 0.0000000000000E+00
 0.0000000000000E+00
 0.0000000000000E+00
 0.0000000000000E+00
 0.0000000000000E+00
 0.0000000000000E+00
 0.0000000000000E+00
 0.0000000000000E+00
 0.0000000000000E+00
 0.0000000000000E+00
 0.0000000000000E+00
 0.0000000000000E+00
 0.0000000000000E+00
 0.0000000000000E+00
 0.0000000000000E+00
 0.0000000000000E+00
 0.0000000000000E+00
 0.0000000000000E+00
 0.0000000000000E+00
 0.0000000000000E+00
 0.0000000000000E+00
 0.0000000000000E+00
 0.0000000000000E+00
 0.0000000000000E+00
 0.0000000000000E+00
 0.0000000000000E+00
 0.0000000000000E+00
 0.0000000000000E+00
 0.0000000000000E+00
 0.0000000000000E+00
 0.0000000000000E+00
 0.0000000000000E+00
 0.0000000000000E+00
 0.0000000000000E+00
 0.0000000000000E+00
 0.0000000000000E+00
 0.0000000000000E+00
 0.0000000000000E+00
 0.0000000000000E+00
 0.0000000000000E+00
 0.0000000000000E+00
 0.0000000000000E+00
 0.0000000000000E+00
 0.0000000000000E+00
 0.0000000000000E+00
 0.0000000000000E+00
 0.0000000000000E+00
 0.0000000000000E+00
 0.0000000000000E+00
 0.0000000000000E+00
 0.0000000000000E+00
 0.0000000000000E+00
 0.0000000000000E+00
 0.0000000000000E+00
 0.0000000000000E+00
 0.0000000000000E+00
 0.0000000000000E+00
 0.0000000000000E+00
 0.0000000000000E+00
 0.0000000000000E+00
 0.0000000000000E+00
 0.0000000000000E+00
 0.0000000000000E+00
 0.0000000000000E+00
 0.0000000000000E+00
 0.0000000000000E+00
 0.0000000000000E+00
 0.0000000000000E+00
 0.0000000000000E+00
 0.0000000000000E+00
 0.0000000000000E+00
 0.0000000000000E+00
 0.0000000000000E+00
 0.0000000000000E+00
 0.0000000000000E+00
 0.0000000000000E+00
 0.0000000000000E+00
 0.0000000000000E+00
 0.0000000000000E+00
 0.0000000000000E+00
 0.0000000000000E+00
 0.0000000000000E+00
 0.0000000000000E+00
 0.0000000000000E+00
 0.0000000000000E+00
 0.0000000000000E+00
 0.0000000000000E+00
 0.0000000000000E+00
 0.0000000000000E+00
 0.0000000000000E+00
 0.0000000000000E+00
 0.0000000000000E+00
 0.0000000000000E+00
 0.0000000000000E+00
 0.0000000000000E+00
 0.0000000000000E+00
 0.0000000000000E+00
 0.0000000000000E+00
 0.0000000000000E+00
 0.0000000000000E+00
 0.0000000000000E+00
 0.0000000000000E+00
 0.0000000000000E+00
 0.0000000000000E+00
 0.0000000000000E+00
 0.0000000000000E+00
 0.0000000000000E+00
 0.0000000000000E+00
 0.0000000000000E+00
 0.0000000000000E+00
 0.0000000000000E+00
 0.0000000000000E+00
 0.0000000000000E+00
 0.0000000000000E+00
 0.0000000000000E+00
 0.0000000000000E+00
 0.0000000000000E+00
 0.0000000000000E+00
 0.0000000000000E+00
 0.0000000000000E+00
 0.0000000000000E+00
 0.0000000000000E+00
 0.0000000000000E+00
 0.0000000000000E+00
 0.0000000000000E+00
 0.0000000000000E+00
 0.0000000000000E+00
 0.0000000000000E+00
 0.0000000000000E+00
 0.0000000000000E+00
 0.0000000000000E+00
 0.0000000000000E+00
 0.0000000000000E+00
 0.0000000000000E+00
 0.0000000000000E+00
 0.0000000000000E+00
 0.0000000000000E+00
 0.0000000000000E+00
 0.0000000000000E+00
 0.0000000000000E+00
 0.0000000000000E+00
 0.0000000000000E+00
 0.0000000000000E+00
 0.0000000000000E+00
 0.0000000000000E+00
 0.0000000000000E+00
 0.0000000000000E+00
 0.0000000000000E+00
 0.0000000000000E+00
 0.0000000000000E+00
 0.0000000000000E+00
 0.0000000000000E+00
 0.0000000000000E+00
 0.0000000000000E+00
 0.0000000000000E+00
 0.0000000000000E+00
 0.0000000000000E+00
 0.0000000000000E+00
 0.0000000000000E+00
 0.0000000000000E+00
 0.0000000000000E+00
 0.0000000000000E+00
 0.0000000000000E+00
 0.0000000000000E+00
 0.0000000000000E+00
 0.0000000000000E+00
 0.0000000000000E+00
 0.0000000000000E+00
 0.0000000000000E+00
 0.0000000000000E+00
 0.0000000000000E+00
 0.0000000000000E+00
 0.0000000000000E+00
 0.0000000000000E+00
 0.0000000000000E+00
 0.0000000000000E+00
 0.0000000000000E+00
 0.0000000000000E+00
 0.0000000000000E+00
 0.0000000000000E+00
 0.0000000000000E+00
 0.0000000000000E+00
 0.0000000000000E+00
 0.0000000000000E+00
 0.0000000000000E+00
 0.0000000000000E+00
 0.0000000000000E+00
 0.0000000000000E+00
 0.0000000000000E+00
 0.0000000000000E+00
 0.0000000000000E+00
 0.0000000000000E+00
 0.0000000000000E+00
 0.0000000000000E+00
 0.0000000000000E+00
 0.0000000000000E+00
 0.0000000000000E+00
 0.0000000000000E+00
 0.0000000000000E+00
 0.0000000000000E+00
 0.0000000000000E+00
 0.0000000000000E+00
 0.0000000000000E+00
 0.0000000000000E+00
 0.0000000000000E+00
 0.0000000000000E+00
 0.0000000000000E+00
 0.0000000000000E+00
 0.0000000000000E+00
 0.0000000000000E+00
 0.0000000000000E+00
 0.0000000000000E+00
 0.0000000000000E+00
 0.0000000000000E+00
 0.0000000000000E+00
 0.0000000000000E+00
 0.0000000000000E+00
 0.0000000000000E+00
 0.0000000000000E+00
 0.0000000000000E+00
 0.0000000000000E+00
 0.0000000000000E+00
 0.0000000000000E+00
 0.0000000000000E+00
 0.0000000000000E+00
 0.0000000000000E+00
 0.0000000000000E+00
 0.0000000000000E+00
 0.0000000000000E+00
 0.0000000000000E+00
 0.0000000000000E+00
 0.0000000000000E+00
 0.0000000000000E+00
 0.0000000000000E+00
 0.0000000000000E+00
 0.0000000000000E+00
 0.0000000000000E+00
 0.0000000000000E+00
 0.0000000000000E+00
 0.0000000000000E+00
 0.0000000000000E+00
 0.0000000000000E+00
 0.0000000000000E+00
 0.0000000000000E+00
 0.0000000000000E+00
 0.0000000000000E+00
 0.0000000000000E+00
 0.0000000000000E+00
 0.0000000000000E+00
 0.0000000000000E+00
 0.0000000000000E+00
 0.0000000000000E+00
 0.0000000000000E+00
 0.0000000000000E+00
 0.0000000000000E+00
 0.0000000000000E+00
 0.0000000000000E+00
 0.0000000000000E+00
 0.0000000000000E+00
 0.0000000000000E+00
 0.0000000000000E+00
 0.0000000000000E+00
 0.0000000000000E+00
 0.0000000000000E+00
 0.0000000000000E+00
 0.0000000000000E+00
 0.0000000000000E+00
 0.0000000000000E+00
 0.0000000000000E+00
 0.0000000000000E+00
 0.0000000000000E+00
 0.0000000000000E+00
 0.0000000000000E+00
 0.0000000000000E+00
 0.0000000000000E+00
 0.0000000000000E+00
 0.0000000000000E+00
 0.0000000000000E+00
 0.0000000000000E+00
 0.0000000000000E+00
 0.0000000000000E+00
 0.0000000000000E+00
 0.0000000000000E+00
 0.0000000000000E+00
 0.0000000000000E+00
 0.0000000000000E+00
 0.0000000000000E+00
 0.0000000000000E+00
 0.0000000000000E+00
 0.0000000000000E+00
 0.0000000000000E+00
 0.0000000000000E+00
 0.0000000000000E+00
 0.0000000000000E+00
 0.0000000000000E+00
 0.0000000000000E+00
 0.0000000000000E+00
 0.0000000000000E+00
 0.0000000000000E+00
 0.0000000000000E+00
 0.0000000000000E+00
 0.0000000000000E+00
 0.0000000000000E+00
 0.0000000000000E+00
 0.0000000000000E+00
 0.0000000000000E+00
 0.0000000000000E+00
 0.0000000000000E+00
 0.0000000000000E+00
 0.0000000000000E+00
 0.0000000000000E+00
 0.0000000000000E+00
 0.0000000000000E+00
 0.0000000000000E+00
 0.0000000000000E+00
 0.0000000000000E+00
 0.0000000000000E+00
 0.0000000000000E+00
 0.0000000000000E+00
 0.0000000000000E+00
 0.0000000000000E+00
 0.0000000000000E+00
 0.0000000000000E+00
 0.0000000000000E+00
 0.0000000000000E+00
 0.0000000000000E+00
 0.0000000000000E+00
 0.0000000000000E+00
 0.0000000000000E+00
 0.0000000000000E+00
 0.0000000000000E+00
 0.0000000000000E+00
 0.0000000000000E+00
 0.0000000000000E+00
 0.0000000000000E+00
 0.0000000000000E+00
 0.0000000000000E+00
 0.0000000000000E+00
 0.0000000000000E+00
 0.0000000000000E+00
 0.0000000000000E+00
 0.0000000000000E+00
 0.0000000000000E+00
 0.0000000000000E+00
 0.0000000000000E+00
 0.0000000000000E+00
 0.0000000000000E+00
 0.0000000000000E+00
 0.0000000000000E+00
 0.0000000000000E+00
 0.0000000000000E+00
 0.0000000000000E+00
 0.0000000000000E+00
 0.0000000000000E+00
 0.0000000000000E+00
 0.0000000000000E+00
 0.0000000000000E+00
 0.0000000000000E+00
 0.0000000000000E+00
 0.0000000000000E+00
 0.0000000000000E+00
 0.0000000000000E+00
 0.0000000000000E+00
 0.0000000000000E+00
 0.0000000000000E+00
 0.0000000000000E+00
 0.0000000000000E+00
 0.0000000000000E+00
 0.0000000000000E+00
 0.0000000000000E+00
 0.0000000000000E+00
 0.0000000000000E+00
 0.0000000000000E+00
 0.0000000000000E+00
 0.0000000000000E+00
 0.0000000000000E+00
 0.0000000000000E+00
 0.0000000000000E+00
 0.0000000000000E+00
 0.0000000000000E+00
 0.0000000000000E+00
 0.0000000000000E+00
 0.0000000000000E+00
 0.0000000000000E+00
 0.0000000000000E+00
 0.0000000000000E+00
 0.0000000000000E+00
 0.0000000000000E+00
 0.0000000000000E+00
 0.0000000000000E+00
 0.0000000000000E+00
 0.0000000000000E+00
 0.0000000000000E+00
 0.0000000000000E+00
 0.0000000000000E+00
 0.0000000000000E+00
 0.0000000000000E+00
 0.0000000000000E+00
 0.0000000000000E+00
 0.0000000000000E+00
 0.0000000000000E+00
 0.0000000000000E+00
 0.0000000000000E+00
 0.0000000000000E+00
 0.0000000000000E+00
 0.0000000000000E+00
 0.0000000000000E+00
 0.0000000000000E+00
 0.0000000000000E+00
 0.0000000000000E+00
 0.0000000000000E+00
 0.0000000000000E+00
 0.0000000000000E+00
 0.0000000000000E+00
 0.0000000000000E+00
 0.0000000000000E+00
 0.0000000000000E+00
 0.0000000000000E+00
 0.0000000000000E+00
 0.0000000000000E+00
 0.0000000000000E+00
 0.0000000000000E+00
 0.0000000000000E+00
 0.0000000000000E+00
 0.0000000000000E+00
 0.0000000000000E+00
 0.0000000000000E+00
 0.0000000000000E+00
 0.0000000000000E+00
 0.0000000000000E+00
 0.0000000000000E+00
 0.0000000000000E+00
 0.0000000000000E+00
 0.0000000000000E+00
 0.0000000000000E+00
 0.0000000000000E+00
 0.0000000000000E+00
 0.0000000000000E+00
 0.0000000000000E+00
 0.0000000000000E+00
 0.0000000000000E+00
 0.0000000000000E+00
 0.0000000000000E+00
 0.0000000000000E+00
 0.0000000000000E+00
 0.0000000000000E+00
 0.0000000000000E+00
 0.0000000000000E+00
 0.0000000000000E+00
 0.0000000000000E+00
 0.0000000000000E+00
 0.0000000000000E+00
 0.0000000000000E+00
 0.0000000000000E+00
 0.0000000000000E+00
 0.0000000000000E+00
 0.0000000000000E+00
 0.0000000000000E+00
 0.0000000000000E+00
 0.0000000000000E+00
 0.0000000000000E+00
 0.0000000000000E+00
 0.0000000000000E+00
 0.0000000000000E+00
 0.0000000000000E+00
 0.0000000000000E+00
 0.0000000000000E+00
 0.0000000000000E+00
 0.0000000000000E+00
 0.0000000000000E+00
 0.0000000000000E+00
 0.0000000000000E+00
 0.0000000000000E+00
 0.0000000000000E+00
 0.0000000000000E+00
 0.0000000000000E+00
 0.0000000000000E+00
 0.0000000000000E+00
 0.0000000000000E+00
 0.0000000000000E+00
 0.0000000000000E+00
 0.0000000000000E+00
 0.0000000000000E+00
 0.0000000000000E+00
 0.0000000000000E+00
 0.0000000000000E+00
 0.0000000000000E+00
 0.0000000000000E+00
 0.0000000000000E+00
 0.0000000000000E+00
 0.0000000000000E+00
 0.0000000000000E+00
 0.0000000000000E+00
 0.0000000000000E+00
 0.0000000000000E+00
 0.0000000000000E+00
 0.0000000000000E+00
 0.0000000000000E+00
 0.0000000000000E+00
 0.0000000000000E+00
 0.0000000000000E+00
 0.0000000000000E+00
 0.0000000000000E+00
 0.0000000000000E+00
 0.0000000000000E+00
 0.0000000000000E+00
 0.0000000000000E+00
 0.0000000000000E+00
 0.0000000000000E+00
 0.0000000000000E+00
 0.0000000000000E+00
 0.0000000000000E+00
 0.0000000000000E+00
 0.0000000000000E+00
 0.0000000000000E+00
 0.0000000000000E+00
 0.0000000000000E+00
 0.0000000000000E+00
 0.0000000000000E+00
 0.0000000000000E+00
 0.0000000000000E+00
 0.0000000000000E+00
 0.0000000000000E+00
 0.0000000000000E+00
 0.0000000000000E+00
 0.0000000000000E+00
 0.0000000000000E+00
 0.0000000000000E+00
 0.0000000000000E+00
 0.0000000000000E+00
 0.0000000000000E+00
 0.0000000000000E+00
 0.0000000000000E+00
 0.0000000000000E+00
 0.0000000000000E+00
 0.0000000000000E+00
 0.0000000000000E+00
 0.0000000000000E+00
 0.0000000000000E+00
 0.0000000000000E+00
 0.0000000000000E+00
 0.0000000000000E+00
 0.0000000000000E+00
 0.0000000000000E+00
 0.0000000000000E+00
 0.0000000000000E+00
 0.0000000000000E+00
 0.0000000000000E+00
 0.0000000000000E+00
 0.0000000000000E+00
 0.0000000000000E+00
 0.0000000000000E+00
 0.0000000000000E+00
 0.0000000000000E+00
 0.0000000000000E+00
 0.0000000000000E+00
 0.0000000000000E+00
 0.0000000000000E+00
 0.0000000000000E+00
 0.0000000000000E+00
 0.0000000000000E+00
 0.0000000000000E+00
 0.0000000000000E+00
 0.0000000000000E+00
 0.0000000000000E+00
 0.0000000000000E+00
 0.0000000000000E+00
 0.0000000000000E+00
 0.0000000000000E+00
 0.0000000000000E+00
 0.0000000000000E+00
 0.0000000000000E+00
 0.0000000000000E+00
 0.0000000000000E+00
 0.0000000000000E+00
 0.0000000000000E+00
 0.0000000000000E+00
 0.0000000000000E+00
 0.0000000000000E+00
 0.0000000000000E+00
 0.0000000000000E+00
 0.0000000000000E+00
 0.0000000000000E+00
 0.0000000000000E+00
 0.0000000000000E+00
 0.0000000000000E+00
 0.0000000000000E+00
 0.0000000000000E+00
 0.0000000000000E+00
 0.0000000000000E+00
 0.0000000000000E+00
 0.0000000000000E+00
 0.0000000000000E+00
 0.0000000000000E+00
 0.0000000000000E+00
 0.0000000000000E+00
 0.0000000000000E+00
 0.0000000000000E+00
 0.0000000000000E+00
 0.0000000000000E+00
 0.0000000000000E+00
 0.0000000000000E+00
 0.0000000000000E+00
 0.0000000000000E+00
 0.0000000000000E+00
 0.0000000000000E+00
 0.0000000000000E+00
 0.0000000000000E+00
 0.0000000000000E+00
 0.0000000000000E+00
 0.0000000000000E+00
 0.0000000000000E+00
 0.0000000000000E+00
 0.0000000000000E+00
 0.0000000000000E+00
 0.0000000000000E+00
 0.0000000000000E+00
 0.0000000000000E+00
 0.0000000000000E+00
 0.0000000000000E+00
 0.0000000000000E+00
 0.0000000000000E+00
 0.0000000000000E+00
 0.0000000000000E+00
 0.0000000000000E+00
 0.0000000000000E+00
 0.0000000000000E+00
 0.0000000000000E+00
 0.0000000000000E+00
 0.0000000000000E+00
 0.0000000000000E+00
 0.0000000000000E+00
 0.0000000000000E+00
 0.0000000000000E+00
 0.0000000000000E+00
 0.0000000000000E+00
 0.0000000000000E+00
 0.0000000000000E+00
 0.0000000000000E+00
 0.0000000000000E+00
 0.0000000000000E+00
 0.0000000000000E+00
 0.0000000000000E+00
 0.0000000000000E+00
 0.0000000000000E+00
 0.0000000000000E+00
 0.0000000000000E+00
 0.0000000000000E+00
 0.0000000000000E+00
 0.0000000000000E+00
 0.0000000000000E+00
 0.0000000000000E+00
 0.0000000000000E+00
 0.0000000000000E+00
 0.0000000000000E+00
 0.0000000000000E+00
 0.0000000000000E+00
 0.0000000000000E+00
 0.0000000000000E+00
 0.0000000000000E+00
 0.0000000000000E+00
 0.0000000000000E+00
 0.0000000000000E+00
 0.0000000000000E+00
 0.0000000000000E+00
 0.0000000000000E+00
 0.0000000000000E+00
 0.0000000000000E+00
 0.0000000000000E+00
 0.0000000000000E+00
 0.0000000000000E+00
 0.0000000000000E+00
 0.0000000000000E+00
 0.0000000000000E+00
 0.0000000000000E+00
 0.0000000000000E+00
 0.0000000000000E+00
 0.0000000000000E+00
 0.0000000000000E+00
 0.0000000000000E+00
 0.0000000000000E+00
 0.0000000000000E+00
 0.0000000000000E+00
 0.0000000000000E+00
 0.0000000000000E+00
 0.0000000000000E+00
 0.0000000000000E+00
 0.0000000000000E+00
 0.0000000000000E+00
 0.0000000000000E+00
 0.0000000000000E+00
 0.0000000000000E+00
 0.0000000000000E+00
 0.0000000000000E+00
 0.0000000000000E+00
 0.0000000000000E+00
 0.0000000000000E+00
 0.0000000000000E+00
 0.0000000000000E+00
 0.0000000000000E+00
 0.0000000000000E+00
 0.0000000000000E+00
 0.0000000000000E+00
 0.0000000000000E+00
 0.0000000000000E+00
 0.0000000000000E+00
 0.0000000000000E+00
 0.0000000000000E+00
 0.0000000000000E+00
 0.0000000000000E+00
 0.0000000000000E+00
 0.0000000000000E+00
 0.0000000000000E+00
 0.0000000000000E+00
 0.0000000000000E+00
 0.0000000000000E+00
 0.0000000000000E+00
 0.0000000000000E+00
 0.0000000000000E+00
 0.0000000000000E+00
 0.0000000000000E+00
 0.0000000000000E+00
 0.0000000000000E+00
 0.0000000000000E+00
 0.0000000000000E+00
 0.0000000000000E+00
 0.0000000000000E+00
 0.0000000000000E+00
 0.0000000000000E+00
 0.0000000000000E+00
 0.0000000000000E+00
 0.0000000000000E+00
 0.0000000000000E+00
 0.0000000000000E+00
 0.0000000000000E+00
 0.0000000000000E+00
 0.0000000000000E+00
 0.0000000000000E+00
 0.0000000000000E+00
 0.0000000000000E+00
 0.0000000000000E+00
 0.0000000000000E+00
 0.0000000000000E+00
 0.0000000000000E+00
 0.0000000000000E+00
 0.0000000000000E+00
 0.0000000000000E+00
 0.0000000000000E+00
 0.0000000000000E+00
 0.0000000000000E+00
 0.0000000000000E+00
 0.0000000000000E+00
 0.0000000000000E+00
 0.0000000000000E+00
 0.0000000000000E+00
 0.0000000000000E+00
 0.0000000000000E+00
 0.0000000000000E+00
 0.0000000000000E+00
 0.0000000000000E+00
 0.0000000000000E+00
 0.0000000000000E+00
 0.0000000000000E+00
 0.0000000000000E+00
 0.0000000000000E+00
 0.0000000000000E+00
 0.0000000000000E+00
 0.0000000000000E+00
 0.0000000000000E+00
 0.0000000000000E+00
 0.0000000000000E+00
 0.0000000000000E+00
 0.0000000000000E+00
 0.0000000000000E+00
 0.0000000000000E+00
 0.0000000000000E+00
 0.0000000000000E+00
 0.0000000000000E+00
 0.0000000000000E+00
 0.0000000000000E+00
 0.0000000000000E+00
 0.0000000000000E+00
 0.0000000000000E+00
 0.0000000000000E+00
 0.0000000000000E+00
 0.0000000000000E+00
 0.0000000000000E+00
 0.0000000000000E+00
 0.0000000000000E+00
 0.0000000000000E+00
 0.0000000000000E+00
 0.0000000000000E+00
 0.0000000000000E+00
 0.0000000000000E+00
 0.0000000000000E+00
 0.0000000000000E+00
 0.0000000000000E+00
 0.0000000000000E+00
 0.0000000000000E+00
 0.0000000000000E+00
 0.0000000000000E+00
 0.0000000000000E+00
 0.0000000000000E+00
 0.0000000000000E+00
 0.0000000000000E+00
 0.0000000000000E+00
 0.0000000000000E+00
 0.0000000000000E+00
 0.0000000000000E+00
 0.0000000000000E+00
 0.0000000000000E+00
 0.0000000000000E+00
 0.0000000000000E+00
 0.0000000000000E+00
 0.0000000000000E+00
 0.0000000000000E+00
 0.0000000000000E+00
 0.0000000000000E+00
 0.0000000000000E+00
 0.0000000000000E+00
 0.0000000000000E+00
 0.0000000000000E+00
 0.0000000000000E+00
 0.0000000000000E+00
 0.0000000000000E+00
 0.0000000000000E+00
 0.0000000000000E+00
 0.0000000000000E+00
 0.0000000000000E+00
 0.0000000000000E+00
 0.0000000000000E+00
 0.0000000000000E+00
 0.0000000000000E+00
 0.0000000000000E+00
 0.0000000000000E+00
 0.0000000000000E+00
 0.0000000000000E+00
 0.0000000000000E+00
 0.0000000000000E+00
 0.0000000000000E+00
 0.0000000000000E+00
 0.0000000000000E+00
 0.0000000000000E+00
 0.0000000000000E+00
 0.0000000000000E+00
 0.0000000000000E+00
 0.0000000000000E+00
 0.0000000000000E+00
 0.0000000000000E+00
 0.0000000000000E+00
 0.0000000000000E+00
 0.0000000000000E+00
 0.0000000000000E+00
 0.0000000000000E+00
 0.0000000000000E+00
 0.0000000000000E+00
 0.0000000000000E+00
 0.0000000000000E+00
 0.0000000000000E+00
 0.0000000000000E+00
 0.0000000000000E+00
 0.0000000000000E+00
 0.0000000000000E+00
 0.0000000000000E+00
 0.0000000000000E+00
 0.0000000000000E+00
 0.0000000000000E+00
 0.0000000000000E+00
 0.0000000000000E+00
 0.0000000000000E+00
 0.0000000000000E+00
 0.0000000000000E+00
 0.0000000000000E+00
 0.0000000000000E+00
 0.0000000000000E+00
 0.0000000000000E+00
 0.0000000000000E+00
 0.0000000000000E+00
 0.0000000000000E+00
 0.0000000000000E+00
 0.0000000000000E+00
 0.0000000000000E+00
 0.0000000000000E+00
 0.0000000000000E+00
 0.0000000000000E+00
 0.0000000000000E+00
 0.0000000000000E+00
 0.0000000000000E+00
 0.0000000000000E+00
 0.0000000000000E+00
 0.0000000000000E+00
 0.0000000000000E+00
 0.0000000000000E+00
 0.0000000000000E+00
 0.0000000000000E+00
 0.0000000000000E+00
 0.0000000000000E+00
 0.0000000000000E+00
 0.0000000000000E+00
 0.0000000000000E+00
 0.0000000000000E+00
 0.0000000000000E+00
 0.0000000000000E+00
 0.0000000000000E+00
 0.0000000000000E+00
 0.0000000000000E+00
 0.0000000000000E+00
 0.0000000000000E+00
 0.0000000000000E+00
 0.0000000000000E+00
 0.0000000000000E+00
 0.0000000000000E+00
 0.0000000000000E+00
 0.0000000000000E+00
 0.0000000000000E+00
 0.0000000000000E+00
 0.0000000000000E+00
 0.0000000000000E+00
 0.0000000000000E+00
 0.0000000000000E+00
 0.0000000000000E+00
 0.0000000000000E+00
 0.0000000000000E+00
 0.0000000000000E+00
 0.0000000000000E+00
 0.0000000000000E+00
 0.0000000000000E+00
 0.0000000000000E+00
 0.0000000000000E+00
 0.0000000000000E+00
 0.0000000000000E+00
 0.0000000000000E+00
 0.0000000000000E+00
 0.0000000000000E+00
 0.0000000000000E+00
 0.0000000000000E+00
 0.0000000000000E+00
 0.0000000000000E+00
 0.0000000000000E+00
 0.0000000000000E+00
 0.0000000000000E+00
 0.0000000000000E+00
 0.0000000000000E+00
 0.0000000000000E+00
 0.0000000000000E+00
 0.0000000000000E+00
 0.0000000000000E+00
 0.0000000000000E+00
 0.0000000000000E+00
 0.0000000000000E+00
 0.0000000000000E+00
 0.0000000000000E+00
 0.0000000000000E+00
 0.0000000000000E+00
 0.0000000000000E+00
 0.0000000000000E+00
 0.0000000000000E+00
 0.0000000000000E+00
 0.0000000000000E+00
 0.0000000000000E+00
 0.0000000000000E+00
 0.0000000000000E+00
 0.0000000000000E+00
 0.0000000000000E+00
 0.0000000000000E+00
 0.0000000000000E+00
 0.0000000000000E+00
 0.0000000000000E+00
 0.0000000000000E+00
 0.0000000000000E+00
 0.0000000000000E+00
 0.0000000000000E+00
 0.0000000000000E+00
 0.0000000000000E+00
 0.0000000000000E+00
 0.0000000000000E+00
 0.0000000000000E+00
 0.0000000000000E+00
 0.0000000000000E+00
 0.0000000000000E+00
 0.0000000000000E+00
 0.0000000000000E+00
 0.0000000000000E+00
 0.0000000000000E+00
 0.0000000000000E+00
 0.0000000000000E+00
 0.0000000000000E+00
 0.0000000000000E+00
 0.0000000000000E+00
 0.0000000000000E+00
 0.0000000000000E+00
 0.0000000000000E+00
 0.0000000000000E+00
 0.0000000000000E+00
 0.0000000000000E+00
 0.0000000000000E+00
 0.0000000000000E+00
 0.0000000000000E+00
 0.0000000000000E+00
 0.0000000000000E+00
 0.0000000000000E+00
 0.0000000000000E+00
 0.0000000000000E+00
 0.0000000000000E+00
 0.0000000000000E+00
 0.0000000000000E+00
 0.0000000000000E+00
 0.0000000000000E+00
 0.0000000000000E+00
 0.0000000000000E+00
 0.0000000000000E+00
 0.0000000000000E+00
 0.0000000000000E+00
 0.0000000000000E+00
 0.0000000000000E+00
 0.0000000000000E+00
 0.0000000000000E+00
 0.0000000000000E+00
 0.0000000000000E+00
 0.0000000000000E+00
 0.0000000000000E+00
 0.0000000000000E+00
 0.0000000000000E+00
 0.0000000000000E+00
 0.0000000000000E+00
 0.0000000000000E+00
 0.0000000000000E+00
 0.0000000000000E+00
 0.0000000000000E+00
 0.0000000000000E+00
 0.0000000000000E+00
 0.0000000000000E+00
 0.0000000000000E+00
 0.0000000000000E+00
 0.0000000000000E+00
 0.0000000000000E+00
 0.0000000000000E+00
 0.0000000000000E+00
 0.0000000000000E+00
 0.0000000000000E+00
 0.0000000000000E+00
 0.0000000000000E+00
 0.0000000000000E+00
 0.0000000000000E+00
 0.0000000000000E+00
 0.0000000000000E+00
 0.0000000000000E+00
 0.0000000000000E+00
 0.0000000000000E+00
 0.0000000000000E+00
 0.0000000000000E+00
 0.0000000000000E+00
 0.0000000000000E+00
 0.0000000000000E+00
 0.0000000000000E+00
 0.0000000000000E+00
 0.0000000000000E+00
 0.0000000000000E+00
 0.0000000000000E+00
 0.0000000000000E+00
 0.0000000000000E+00
 0.0000000000000E+00
 0.0000000000000E+00
 0.0000000000000E+00
 0.0000000000000E+00
 0.0000000000000E+00
 0.0000000000000E+00
 0.0000000000000E+00
 0.0000000000000E+00
 0.0000000000000E+00
 0.0000000000000E+00
 0.0000000000000E+00
 0.0000000000000E+00
 0.0000000000000E+00
 0.0000000000000E+00
 0.0000000000000E+00
 0.0000000000000E+00
 0.0000000000000E+00
 0.0000000000000E+00
 0.0000000000000E+00
 0.0000000000000E+00
 0.0000000000000E+00
 0.0000000000000E+00
 0.0000000000000E+00
 0.0000000000000E+00
 0.0000000000000E+00
 0.0000000000000E+00
 0.0000000000000E+00
 0.0000000000000E+00
 0.0000000000000E+00
 0.0000000000000E+00
 0.0000000000000E+00
 0.0000000000000E+00
 0.0000000000000E+00
 0.0000000000000E+00
 0.0000000000000E+00
 0.0000000000000E+00
 0.0000000000000E+00
 0.0000000000000E+00
 0.0000000000000E+00
 0.0000000000000E+00
 0.0000000000000E+00
 0.0000000000000E+00
 0.0000000000000E+00
 0.0000000000000E+00
 0.0000000000000E+00
 0.0000000000000E+00
 0.0000000000000E+00
 0.0000000000000E+00
 0.0000000000000E+00
 0.0000000000000E+00
 0.0000000000000E+00
 0.0000000000000E+00
 0.0000000000000E+00
 0.0000000000000E+00
 0.0000000000000E+00
 0.0000000000000E+00
 0.0000000000000E+00
 0.0000000000000E+00
 0.0000000000000E+00
 0.0000000000000E+00
 0.0000000000000E+00
 0.0000000000000E+00
 0.0000000000000E+00
 0.0000000000000E+00
 0.0000000000000E+00
 0.0000000000000E+00
 0.0000000000000E+00
 0.0000000000000E+00
 0.0000000000000E+00
 0.0000000000000E+00
 0.0000000000000E+00
 0.0000000000000E+00
 0.0000000000000E+00
 0.0000000000000E+00
 0.0000000000000E+00
 0.0000000000000E+00
 0.0000000000000E+00
 0.0000000000000E+00
 0.0000000000000E+00
 0.0000000000000E+00
 0.0000000000000E+00
 0.0000000000000E+00
 0.0000000000000E+00
 0.0000000000000E+00
 0.0000000000000E+00
 0.0000000000000E+00
 0.0000000000000E+00
 0.0000000000000E+00
 0.0000000000000E+00
 0.0000000000000E+00
 0.0000000000000E+00
 0.0000000000000E+00
 0.0000000000000E+00
 0.0000000000000E+00
 0.0000000000000E+00
 0.0000000000000E+00
 0.0000000000000E+00
 0.0000000000000E+00
 0.0000000000000E+00
 0.0000000000000E+00
 0.0000000000000E+00
 0.0000000000000E+00
 0.0000000000000E+00
 0.0000000000000E+00
 0.0000000000000E+00
 0.0000000000000E+00
 0.0000000000000E+00
 0.0000000000000E+00
 0.0000000000000E+00
 0.0000000000000E+00
 0.0000000000000E+00
 0.0000000000000E+00
 0.0000000000000E+00
 0.0000000000000E+00
 0.0000000000000E+00
 0.0000000000000E+00
 0.0000000000000E+00
 0.0000000000000E+00
 0.0000000000000E+00
 0.0000000000000E+00
 0.0000000000000E+00
 0.0000000000000E+00
 0.0000000000000E+00
 0.0000000000000E+00
 0.0000000000000E+00
 0.0000000000000E+00
 0.0000000000000E+00
 0.0000000000000E+00
 0.0000000000000E+00
 0.0000000000000E+00
 0.0000000000000E+00
 0.0000000000000E+00
 0.0000000000000E+00
 0.0000000000000E+00
 0.0000000000000E+00
 0.0000000000000E+00
 0.0000000000000E+00
 0.0000000000000E+00
 0.0000000000000E+00
 0.0000000000000E+00
 0.0000000000000E+00
 0.0000000000000E+00
 0.0000000000000E+00
 0.0000000000000E+00
 0.0000000000000E+00
 0.0000000000000E+00
 0.0000000000000E+00
 0.0000000000000E+00
 0.0000000000000E+00
 0.0000000000000E+00
 0.0000000000000E+00
 0.0000000000000E+00
 0.0000000000000E+00
 0.0000000000000E+00
 0.0000000000000E+00
 0.0000000000000E+00
 0.0000000000000E+00
 0.0000000000000E+00
 0.0000000000000E+00
 0.0000000000000E+00
 0.0000000000000E+00
 0.0000000000000E+00
 0.0000000000000E+00
 0.0000000000000E+00
 0.0000000000000E+00
 0.0000000000000E+00
 0.0000000000000E+00
 0.0000000000000E+00
 0.0000000000000E+00
 0.0000000000000E+00
 0.0000000000000E+00
 0.0000000000000E+00
 0.0000000000000E+00
 0.0000000000000E+00
 0.0000000000000E+00
 0.0000000000000E+00
 0.0000000000000E+00
 0.0000000000000E+00
 0.0000000000000E+00
 0.0000000000000E+00
 0.0000000000000E+00
 0.0000000000000E+00
 0.0000000000000E+00
 0.0000000000000E+00
 0.0000000000000E+00
 0.0000000000000E+00
 0.0000000000000E+00
 0.0000000000000E+00
 0.0000000000000E+00
 0.0000000000000E+00
 0.0000000000000E+00
 0.0000000000000E+00
 0.0000000000000E+00
 0.0000000000000E+00
 0.0000000000000E+00
 0.0000000000000E+00
 0.0000000000000E+00
 0.0000000000000E+00
 0.0000000000000E+00
 0.0000000000000E+00
 0.0000000000000E+00
 0.0000000000000E+00
 0.0000000000000E+00
 0.0000000000000E+00
 0.0000000000000E+00
 0.0000000000000E+00
 0.0000000000000E+00
 0.0000000000000E+00
 0.0000000000000E+00
 0.0000000000000E+00
 0.0000000000000E+00
 0.0000000000000E+00
 0.0000000000000E+00
 0.0000000000000E+00
 0.0000000000000E+00
 0.0000000000000E+00
 0.0000000000000E+00
 0.0000000000000E+00
 0.0000000000000E+00
 0.0000000000000E+00
 0.0000000000000E+00
 0.0000000000000E+00
 0.0000000000000E+00
 0.0000000000000E+00
 0.0000000000000E+00
 0.0000000000000E+00
 0.0000000000000E+00
 0.0000000000000E+00
 0.0000000000000E+00
 0.0000000000000E+00
 0.0000000000000E+00
 0.0000000000000E+00
 0.0000000000000E+00
 0.0000000000000E+00
 0.0000000000000E+00
 0.0000000000000E+00
 0.0000000000000E+00
 0.0000000000000E+00
 0.0000000000000E+00
 0.0000000000000E+00
 0.0000000000000E+00
 0.0000000000000E+00
 0.0000000000000E+00
 0.0000000000000E+00
 0.0000000000000E+00
 0.0000000000000E+00
 0.0000000000000E+00
 0.0000000000000E+00
 0.0000000000000E+00
 0.0000000000000E+00
 0.0000000000000E+00
 0.0000000000000E+00
 0.0000000000000E+00
 0.0000000000000E+00
 0.0000000000000E+00
 0.0000000000000E+00
 0.0000000000000E+00
 0.0000000000000E+00
 0.0000000000000E+00
 0.0000000000000E+00
 0.0000000000000E+00
 0.0000000000000E+00
 0.0000000000000E+00
 0.0000000000000E+00
 0.0000000000000E+00
 0.0000000000000E+00
 0.0000000000000E+00
 0.0000000000000E+00
 0.0000000000000E+00
 0.0000000000000E+00
 0.0000000000000E+00
 0.0000000000000E+00
 0.0000000000000E+00
 0.0000000000000E+00
 0.0000000000000E+00
 0.0000000000000E+00
 0.0000000000000E+00
 0.0000000000000E+00
 0.0000000000000E+00
 0.0000000000000E+00
 0.0000000000000E+00
 0.0000000000000E+00
 0.0000000000000E+00
 0.0000000000000E+00
 0.0000000000000E+00
 0.0000000000000E+00
 0.0000000000000E+00
 0.0000000000000E+00
 0.0000000000000E+00
 0.0000000000000E+00
 0.0000000000000E+00
 0.0000000000000E+00
 0.0000000000000E+00
 0.0000000000000E+00
 0.0000000000000E+00
 0.0000000000000E+00
 0.0000000000000E+00
 0.0000000000000E+00
 0.0000000000000E+00
 0.0000000000000E+00
 0.0000000000000E+00
 0.0000000000000E+00
 0.0000000000000E+00
 0.0000000000000E+00
 0.0000000000000E+00
 0.0000000000000E+00
 0.0000000000000E+00
 0.0000000000000E+00
 0.0000000000000E+00
 0.0000000000000E+00
 0.0000000000000E+00
 0.0000000000000E+00
 0.0000000000000E+00
 0.0000000000000E+00
 0.0000000000000E+00
 0.0000000000000E+00
 0.0000000000000E+00
 0.0000000000000E+00
 0.0000000000000E+00
 0.0000000000000E+00
 0.0000000000000E+00
 0.0000000000000E+00
 0.0000000000000E+00
 0.0000000000000E+00
 0.0000000000000E+00
 0.0000000000000E+00
 0.0000000000000E+00
 0.0000000000000E+00
 0.0000000000000E+00
 0.0000000000000E+00
 0.0000000000000E+00
 0.0000000000000E+00
 0.0000000000000E+00
 0.0000000000000E+00
 0.0000000000000E+00
 0.0000000000000E+00
 0.0000000000000E+00
 0.0000000000000E+00
 0.0000000000000E+00
 0.0000000000000E+00
 0.0000000000000E+00
 0.0000000000000E+00
 0.0000000000000E+00
 0.0000000000000E+00
 0.0000000000000E+00
 0.0000000000000E+00
 0.0000000000000E+00
 0.0000000000000E+00
 0.0000000000000E+00
 0.0000000000000E+00
 0.0000000000000E+00
 0.0000000000000E+00
 0.0000000000000E+00
 0.0000000000000E+00
 0.0000000000000E+00
 0.0000000000000E+00
 0.0000000000000E+00
 0.0000000000000E+00
 0.0000000000000E+00
 0.0000000000000E+00
 0.0000000000000E+00
 0.0000000000000E+00
 0.0000000000000E+00
 0.0000000000000E+00
 0.0000000000000E+00
 0.0000000000000E+00
 0.0000000000000E+00
 0.0000000000000E+00
 0.0000000000000E+00
 0.0000000000000E+00
 0.0000000000000E+00
 0.0000000000000E+00
 0.0000000000000E+00
 0.0000000000000E+00
 0.0000000000000E+00
 0.0000000000000E+00
 0.0000000000000E+00
 0.0000000000000E+00
 0.0000000000000E+00
 0.0000000000000E+00
 0.0000000000000E+00
 0.0000000000000E+00
 0.0000000000000E+00
 0.0000000000000E+00
 0.0000000000000E+00
 0.0000000000000E+00
 0.0000000000000E+00
 0.0000000000000E+00
 0.0000000000000E+00
 0.0000000000000E+00
 0.0000000000000E+00
 0.0000000000000E+00
 0.0000000000000E+00
 0.0000000000000E+00
 0.0000000000000E+00
 0.0000000000000E+00
 0.0000000000000E+00
 0.0000000000000E+00
 0.0000000000000E+00
 0.0000000000000E+00
 0.0000000000000E+00
 0.0000000000000E+00
 0.0000000000000E+00
 0.0000000000000E+00
 0.0000000000000E+00
 0.0000000000000E+00
 0.0000000000000E+00
 0.0000000000000E+00
 0.0000000000000E+00
 0.0000000000000E+00
 0.0000000000000E+00
 0.0000000000000E+00
 0.0000000000000E+00
 0.0000000000000E+00
 0.0000000000000E+00
 0.0000000000000E+00
 0.0000000000000E+00
 0.0000000000000E+00
 0.0000000000000E+00
 0.0000000000000E+00
 0.0000000000000E+00
 0.0000000000000E+00
 0.0000000000000E+00
 0.0000000000000E+00
 0.0000000000000E+00
 0.0000000000000E+00
 0.0000000000000E+00
 0.0000000000000E+00
 0.0000000000000E+00
 0.0000000000000E+00
 0.0000000000000E+00
 0.0000000000000E+00
 0.0000000000000E+00
 0.0000000000000E+00
 0.0000000000000E+00
 0.0000000000000E+00
 0.0000000000000E+00
 0.0000000000000E+00
 0.0000000000000E+00
 0.0000000000000E+00
 0.0000000000000E+00
 0.0000000000000E+00
 0.0000000000000E+00
 0.0000000000000E+00
 0.0000000000000E+00
 0.0000000000000E+00
 0.0000000000000E+00
 0.0000000000000E+00
 0.0000000000000E+00
 0.0000000000000E+00
 0.0000000000000E+00
 0.0000000000000E+00
 0.0000000000000E+00
 0.0000000000000E+00
 0.0000000000000E+00
 0.0000000000000E+00
 0.0000000000000E+00
 0.0000000000000E+00
 0.0000000000000E+00
 0.0000000000000E+00
 0.0000000000000E+00
 0.0000000000000E+00
 0.0000000000000E+00
 0.0000000000000E+00
 0.0000000000000E+00
 0.0000000000000E+00
 0.0000000000000E+00
 0.0000000000000E+00
 0.0000000000000E+00
 0.0000000000000E+00
 0.0000000000000E+00
 0.0000000000000E+00
 0.0000000000000E+00
 0.0000000000000E+00
 0.0000000000000E+00
 0.0000000000000E+00
 0.0000000000000E+00
 0.0000000000000E+00
 0.0000000000000E+00
 0.0000000000000E+00
 0.0000000000000E+00
 0.0000000000000E+00
 0.0000000000000E+00
 0.0000000000000E+00
 0.0000000000000E+00
 0.0000000000000E+00
 0.0000000000000E+00
 0.0000000000000E+00
 0.0000000000000E+00
 0.0000000000000E+00
 0.0000000000000E+00
 0.0000000000000E+00
 0.0000000000000E+00
 0.0000000000000E+00
 0.0000000000000E+00
 0.0000000000000E+00
 0.0000000000000E+00
 0.0000000000000E+00
 0.0000000000000E+00
 0.0000000000000E+00
 0.0000000000000E+00
 0.0000000000000E+00
 0.0000000000000E+00
 0.0000000000000E+00
 0.0000000000000E+00
 0.0000000000000E+00
 0.0000000000000E+00
 0.0000000000000E+00
 0.0000000000000E+00
 0.0000000000000E+00
 0.0000000000000E+00
 0.0000000000000E+00
 0.0000000000000E+00
 0.0000000000000E+00
 0.0000000000000E+00
 0.0000000000000E+00
 0.0000000000000E+00
 0.0000000000000E+00
 0.0000000000000E+00
 0.0000000000000E+00
 0.0000000000000E+00
 0.0000000000000E+00
 0.0000000000000E+00
 0.0000000000000E+00
 0.0000000000000E+00
 0.0000000000000E+00
 0.0000000000000E+00
 0.0000000000000E+00
 0.0000000000000E+00
 0.0000000000000E+00
 0.0000000000000E+00
 0.0000000000000E+00
 0.0000000000000E+00
 0.0000000000000E+00
 0.0000000000000E+00
 0.0000000000000E+00
 0.0000000000000E+00
 0.0000000000000E+00
 0.0000000000000E+00
 0.0000000000000E+00
 0.0000000000000E+00
 0.0000000000000E+00
 0.0000000000000E+00
 0.0000000000000E+00
 0.0000000000000E+00
 0.0000000000000E+00
 0.0000000000000E+00
 0.0000000000000E+00
 0.0000000000000E+00
 0.0000000000000E+00
 0.0000000000000E+00
 0.0000000000000E+00
 0.0000000000000E+00
 0.0000000000000E+00
 0.0000000000000E+00
 0.0000000000000E+00
 0.0000000000000E+00
 0.0000000000000E+00
 0.0000000000000E+00
 0.0000000000000E+00
 0.0000000000000E+00
 0.0000000000000E+00
 0.0000000000000E+00
 0.0000000000000E+00
 0.0000000000000E+00
 0.0000000000000E+00
 0.0000000000000E+00
 0.0000000000000E+00
 0.0000000000000E+00
 0.0000000000000E+00
 0.0000000000000E+00
 0.0000000000000E+00
 0.0000000000000E+00
 0.0000000000000E+00
 0.0000000000000E+00
 0.0000000000000E+00
 0.0000000000000E+00
 0.0000000000000E+00
 0.0000000000000E+00
 0.0000000000000E+00
 0.0000000000000E+00
 0.0000000000000E+00
 0.0000000000000E+00
 0.0000000000000E+00
 0.0000000000000E+00
 0.0000000000000E+00
 0.0000000000000E+00
 0.0000000000000E+00
 0.0000000000000E+00
 0.0000000000000E+00
 0.0000000000000E+00
 0.0000000000000E+00
 0.0000000000000E+00
 0.0000000000000E+00
 0.0000000000000E+00
 0.0000000000000E+00
 0.0000000000000E+00
 0.0000000000000E+00
 0.0000000000000E+00
 0.0000000000000E+00
 0.0000000000000E+00
 0.0000000000000E+00
 0.0000000000000E+00
 0.0000000000000E+00
 0.0000000000000E+00
 0.0000000000000E+00
 0.0000000000000E+00
 0.0000000000000E+00
 0.0000000000000E+00
 0.0000000000000E+00
 0.0000000000000E+00
 0.0000000000000E+00
 0.0000000000000E+00
 0.0000000000000E+00
 0.0000000000000E+00
 0.0000000000000E+00
 0.0000000000000E+00
 0.0000000000000E+00
 0.0000000000000E+00
 0.0000000000000E+00
 0.0000000000000E+00
 0.0000000000000E+00
 0.0000000000000E+00
 0.0000000000000E+00
 0.0000000000000E+00
 0.0000000000000E+00
 0.0000000000000E+00
 0.0000000000000E+00
 0.0000000000000E+00
 0.0000000000000E+00
 0.0000000000000E+00
 0.0000000000000E+00
 0.0000000000000E+00
 0.0000000000000E+00
 0.0000000000000E+00
 0.0000000000000E+00
 0.0000000000000E+00
 0.0000000000000E+00
 0.0000000000000E+00
 0.0000000000000E+00
 0.0000000000000E+00
 0.0000000000000E+00
 0.0000000000000E+00
 0.0000000000000E+00
 0.0000000000000E+00
 0.0000000000000E+00
 0.0000000000000E+00
 0.0000000000000E+00
 0.0000000000000E+00
 0.0000000000000E+00
 0.0000000000000E+00
 0.0000000000000E+00
 0.0000000000000E+00
 0.0000000000000E+00
 0.0000000000000E+00
 0.0000000000000E+00
 0.0000000000000E+00
 0.0000000000000E+00
 0.0000000000000E+00
 0.0000000000000E+00
 0.0000000000000E+00
 0.0000000000000E+00
 0.0000000000000E+00
 0.0000000000000E+00
 0.0000000000000E+00
 0.0000000000000E+00
 0.0000000000000E+00
 0.0000000000000E+00
 0.0000000000000E+00
 0.0000000000000E+00
 0.0000000000000E+00
 0.0000000000000E+00
 0.0000000000000E+00
 0.0000000000000E+00
 0.0000000000000E+00
 0.0000000000000E+00
 0.0000000000000E+00
 0.0000000000000E+00
 0.0000000000000E+00
 0.0000000000000E+00
 0.0000000000000E+00
 0.0000000000000E+00
 0.0000000000000E+00
 0.0000000000000E+00
 0.0000000000000E+00
 0.0000000000000E+00
 0.0000000000000E+00
 0.0000000000000E+00
 0.0000000000000E+00
 0.0000000000000E+00
 0.0000000000000E+00
 0.0000000000000E+00
 0.0000000000000E+00
 0.0000000000000E+00
 0.0000000000000E+00
 0.0000000000000E+00
 0.0000000000000E+00
 0.0000000000000E+00
 0.0000000000000E+00
 0.0000000000000E+00
 0.0000000000000E+00
 0.0000000000000E+00
 0.0000000000000E+00
 0.0000000000000E+00
 0.0000000000000E+00
 0.0000000000000E+00
 0.0000000000000E+00
 0.0000000000000E+00
 0.0000000000000E+00
 0.0000000000000E+00
 0.0000000000000E+00
 0.0000000000000E+00
 0.0000000000000E+00
 0.0000000000000E+00
 0.0000000000000E+00
 0.0000000000000E+00
 0.0000000000000E+00
 0.0000000000000E+00
 0.0000000000000E+00
 0.0000000000000E+00
 0.0000000000000E+00
 0.0000000000000E+00
 0.0000000000000E+00
 0.0000000000000E+00
 0.0000000000000E+00
 0.0000000000000E+00
 0.0000000000000E+00
 0.0000000000000E+00
 0.0000000000000E+00
 0.0000000000000E+00
 0.0000000000000E+00
 0.0000000000000E+00
 0.0000000000000E+00
 0.0000000000000E+00
 0.0000000000000E+00
 0.0000000000000E+00
 0.0000000000000E+00
 0.0000000000000E+00
 0.0000000000000E+00
 0.0000000000000E+00
 0.0000000000000E+00
 0.0000000000000E+00
 0.0000000000000E+00
 0.0000000000000E+00
 0.0000000000000E+00
 0.0000000000000E+00
 0.0000000000000E+00
 0.0000000000000E+00
 0.0000000000000E+00
 0.0000000000000E+00
 0.0000000000000E+00
 0.0000000000000E+00
 0.0000000000000E+00
 0.0000000000000E+00
 0.0000000000000E+00
 0.0000000000000E+00
 0.0000000000000E+00
 0.0000000000000E+00
 0.0000000000000E+00
 0.0000000000000E+00
 0.0000000000000E+00
 0.0000000000000E+00
 0.0000000000000E+00
 0.0000000000000E+00
 0.0000000000000E+00
 0.0000000000000E+00
 0.0000000000000E+00
 0.0000000000000E+00
 0.0000000000000E+00
 0.0000000000000E+00
 0.0000000000000E+00
 0.0000000000000E+00
 0.0000000000000E+00
 0.0000000000000E+00
 0.0000000000000E+00
 0.0000000000000E+00
 0.0000000000000E+00
 0.0000000000000E+00
 0.0000000000000E+00
 0.0000000000000E+00
 0.0000000000000E+00
 0.0000000000000E+00
 0.0000000000000E+00
 0.0000000000000E+00
 0.0000000000000E+00
 0.0000000000000E+00
 0.0000000000000E+00
 0.0000000000000E+00
 0.0000000000000E+00
 0.0000000000000E+00
 0.0000000000000E+00
 0.0000000000000E+00
 0.0000000000000E+00
 0.0000000000000E+00
 0.0000000000000E+00
 0.0000000000000E+00
 0.0000000000000E+00
 0.0000000000000E+00
 0.0000000000000E+00
 0.0000000000000E+00
 0.0000000000000E+00
 0.0000000000000E+00
 0.0000000000000E+00
 0.0000000000000E+00
 0.0000000000000E+00
 0.0000000000000E+00
 0.0000000000000E+00
 0.0000000000000E+00
 0.0000000000000E+00
 0.0000000000000E+00
 0.0000000000000E+00
 0.0000000000000E+00
 0.0000000000000E+00
 0.0000000000000E+00
 0.0000000000000E+00
 0.0000000000000E+00
 0.0000000000000E+00
 0.0000000000000E+00
 0.0000000000000E+00
 0.0000000000000E+00
 0.0000000000000E+00
 0.0000000000000E+00
 0.0000000000000E+00
 0.0000000000000E+00
 0.0000000000000E+00
 0.0000000000000E+00
 0.0000000000000E+00
 0.0000000000000E+00
 0.0000000000000E+00
 0.0000000000000E+00
 0.0000000000000E+00
 0.0000000000000E+00
 0.0000000000000E+00
 0.0000000000000E+00
 0.0000000000000E+00
 0.0000000000000E+00
 0.0000000000000E+00
 0.0000000000000E+00
 0.0000000000000E+00
 0.0000000000000E+00
 0.0000000000000E+00
 0.0000000000000E+00
 0.0000000000000E+00
 0.0000000000000E+00
 0.0000000000000E+00
 0.0000000000000E+00
 0.0000000000000E+00
 0.0000000000000E+00
 0.0000000000000E+00
 0.0000000000000E+00
 0.0000000000000E+00
 0.0000000000000E+00
 0.0000000000000E+00
 0.0000000000000E+00
 0.0000000000000E+00
 0.0000000000000E+00
 0.0000000000000E+00
 0.0000000000000E+00
 0.0000000000000E+00
 0.0000000000000E+00
 0.0000000000000E+00
 0.0000000000000E+00
 0.0000000000000E+00
 0.0000000000000E+00
 0.0000000000000E+00
 0.0000000000000E+00
 0.0000000000000E+00
 0.0000000000000E+00
 0.0000000000000E+00
 0.0000000000000E+00
 0.0000000000000E+00
 0.0000000000000E+00
 0.0000000000000E+00
 0.0000000000000E+00
 0.0000000000000E+00
 0.0000000000000E+00
 0.0000000000000E+00
 0.0000000000000E+00
 0.0000000000000E+00
 0.0000000000000E+00
 0.0000000000000E+00
 0.0000000000000E+00
 0.0000000000000E+00
 0.0000000000000E+00
 0.0000000000000E+00
 0.0000000000000E+00
 0.0000000000000E+00
 0.0000000000000E+00
 0.0000000000000E+00
 0.0000000000000E+00
 0.0000000000000E+00
 0.0000000000000E+00
 0.0000000000000E+00
 0.0000000000000E+00
 0.0000000000000E+00
 0.0000000000000E+00
 0.0000000000000E+00
 0.0000000000000E+00
 0.0000000000000E+00
 0.0000000000000E+00
 0.0000000000000E+00
 0.0000000000000E+00
 0.0000000000000E+00
 0.0000000000000E+00
 0.0000000000000E+00
 0.0000000000000E+00
 0.0000000000000E+00
 0.0000000000000E+00
 0.0000000000000E+00
 0.0000000000000E+00
 0.0000000000000E+00
 0.0000000000000E+00
 0.0000000000000E+00
 0.0000000000000E+00
 0.0000000000000E+00
 0.0000000000000E+00
 0.0000000000000E+00
 0.0000000000000E+00
 0.0000000000000E+00
 0.0000000000000E+00
 0.0000000000000E+00
 0.0000000000000E+00
 0.0000000000000E+00
 0.0000000000000E+00
 0.0000000000000E+00
 0.0000000000000E+00
 0.0000000000000E+00
 0.0000000000000E+00
 0.0000000000000E+00
 0.0000000000000E+00
 0.0000000000000E+00
 0.0000000000000E+00
 0.0000000000000E+00
 0.0000000000000E+00
 0.0000000000000E+00
 0.0000000000000E+00
 0.0000000000000E+00
 0.0000000000000E+00
 0.0000000000000E+00
 0.0000000000000E+00
 0.0000000000000E+00
 0.0000000000000E+00
 0.0000000000000E+00
 0.0000000000000E+00
 0.0000000000000E+00
 0.0000000000000E+00
 0.0000000000000E+00
 0.0000000000000E+00
 0.0000000000000E+00
 0.0000000000000E+00
 0.0000000000000E+00
 0.0000000000000E+00
 0.0000000000000E+00
</DataArray>
<DataArray type="Int32" Name="Region" format="ascii">
           1
           1
           1
           1
           1
           1
           1
           1
           1
           1
           1
           1
           1
           1
           1
           1
           1
           1
           1
           1
           1
           1
           1
           1
           1
           1
           1
           1
           1
           1
           1
           1
           1
           1
           1
           1
           1
           1
           1
           1
           1
           1
           1
           1
           1
           1
           1
           1
           1
           1
           1
           1
           1
           1
           1
           1
           1
           1
           1
           1
           1
           1
           1
           1
           1
           1
           1
           1
           1
           1
           1
           1
           1
           1
           1
           1
           1
           1
           1
           1
           1
           1
           1
           1
           1
           1
           1
           1
           1
           1
           1
           1
           1
           1
           1
           1
           1
           1
           1
           1
           1
           1
           1
           1
           1
           1
           1
           1
           1
           1
           1
           1
           1
           1
           1
           1
           1
           1
           1
           1
           1
           1
           1
           1
           1
           1
           1
           1
           1
           1
           1
           1
           1
           1
           1
           1
           1
           1
           1
           1
           1
           1
           1
           1
           1
           1
           1
           1
           1
           1
           1
           1
           1
           1
           1
           1
           1
           1
           1
           1
           1
           1
           1
           1
           1
           1
           1
           1
           1
           1
           1
           1
           1
           1
           1
           1
           1
           1
           1
           1
           1
           1
           1
           1
           1
           1
           1
           1
           1
           1
           1
           1
           1
           1
           1
           1
           1
           1
           1
           1
           1
           1
           1
           1
           1
           1
           1
           1
           1
           1
           1
           1
           1
           1
           1
           1
           1
           1
           1
           1
           1
           1
           1
           1
           1
           1
           1
           1
           1
           1
           1
           1
           1
           1
           1
           1
           1
           1
           1
           1
           1
           1
           1
           1
           1
           1
           1
           1
           1
           1
           1
           1
           1
           1
           1
           1
           1
           1
           1
           1
           1
           1
           1
           1
           1
           1
           1
           1
           1
           1
           1
           1
           1
           1
           1
           1
           1
           1
           1
           1
           1
           1
           1
           1
           1
           1
           1
           1
           1
           1
           1
           1
           1
           1
           1
           1
           1
           1
           1
           1
           1
           1
           1
           1
           1
           1
           1
           1
           1
           1
           1
           1
           1
           1
           1
           1
           1
           1
           1
           1
           1
           1
           1
           1
           1
           1
           1
           1
           1
           1
           1
           1
           1
           1
           1
           1
           1
           1
           1
           1
           1
           1
           1
           1
           1
           1
           1
           1
           1
           1
           1
           1
           1
           1
           1
           1
           1
           1
           1
           1
           1
           1
           1
           1
           1
           1
           1
           1
           1
           1
           1
           1
           1
           1
           1
           1
           1
           1
           1
           1
           1
           1
           1
           1
           1
           1
           1
           1
           1
           1
           1
           1
           1
           1
           1
           1
           1
           1
           1
           1
           1
           1
           1
           1
           1
           1
           1
           1
           1
           1
           1
           1
           1
           1
           1
           1
           1
           1
           1
           1
           1
           1
           1
           1
           1
           1
           1
           1
           1
           1
           1
           1
           1
           1
           1
           1
           1
           1
           1
           1
           1
           1
           1
           1
           1
           1
           1
           1
           1
           1
           1
           1
           1
           1
           1
           1
           1
           1
           1
           1
           1
           1
           1
           1
           1
           1
           1
           1
           1
           1
           1
           1
           1
           1
           1
           1
           1
           1
           1
           1
           1
           1
           1
           1
           1
           1
           1
           1
           1
           1
           1
           1
           1
           1
           1
           1
           1
           1
           1
           1
           1
           1
           1
           1
           1
           1
           1
           1
           1
           1
           1
           1
           1
           1
           1
           1
           1
           1
           1
           1
           1
           1
           1
           1
           1
           1
           1
           1
           1
           1
           1
           1
           1
           1
           1
           1
           1
           1
           1
           1
           1
           1
           1
           1
           1
           1
           1
           1
           1
           1
           1
           1
           1
           1
           1
           1
           1
           1
           1
           1
           1
           1
           1
           1
           1
           1
           1
           1
           1
           1
           1
           1
           1
           1
           1
           1
           1
           1
           1
           1
           1
           1
           1
           1
           1
           1
           1
           1
           1
           1
           1
           1
           1
           1
           1
           1
           1
           1
           1
           1
           1
           1
           1
           1
           1
           1
           1
           1
           1
           1
           1
           1
           1
           1
           1
           1
           1
           1
           1
           1
           1
           1
           1
           1
           1
           1
           1
           1
           1
           1
           1
           1
           1
           1
           1
           1
           1
           1
           1
           1
           1
           1
           1
           1
           1
           1
           1
           1
           1
           1
           1
           1
           1
           1
           1
           1
           1
           1
           1
           1
           1
           1
           1
           1
           1
           1
           1
           1
           1
           1
           1
           1
           1
           1
           1
           1
           1
           1
           1
           1
           1
           1
           1
           1
           1
           1
           1
           1
           1
           1
           1
           1
           1
           1
           1
           1
           1
           1
           1
           1
           1
           1
           1
           1
           1
           1
           1
           1
           1
           1
           1
           1
           1
           1
           1
           1
           1
           1
           1
           1
           1
           1
           1
           1
           1
           1
           1
           1
           1
           1
           1
           1
           1
           1
           1
           1
           1
           1
           1
           1
           1
           1
           1
           1
           1
           1
           1
           1
           1
           1
           1
           1
           1
           1
           1
           1
           1
           1
           1
           1
           1
           1
           1
           1
           1
           1
           1
           1
           1
           1
           1
           1
           1
           1
           1
           1
           1
           1
           1
           1
           1
           1
           1
           1
           1
           1
           1
           1
           1
           1
           1
           1
           1
           1
           1
           1
           1
           1
           1
           1
           1
           1
           1
           1
           1
           1
           1
           1
           1
           1
           1
           1
           1
           1
           1
           1
           1
           1
           1
           1
           1
           1
           1
           1
           1
           1
           1
           1
           1
           1
           1
           1
           1
           1
           1
           1
           1
           1
           1
           1
           1
           1
           1
           1
           1
           1
           1
           1
           1
           1
           1
           1
           1
           1
           1
           1
           1
           1
           1
           1
           1
           1
           1
           1
           1
           1
           1
           1
           1
           1
           1
           1
           1
           1
           1
           1
           1
           1
           1
           1
           1
           1
           1
           1
           1
           1
           1
           1
           1
           1
           1
           1
           1
           1
           1
           1
           1
           1
           1
           1
           1
           1
           1
           1
           1
           1
           1
           1
           1
           1
           1
           1
           1
           1
           1
           1
           1
           1
           1
           1
           1
           1
           1
           1
           1
           1
           1
           1
           1
           1
           1
           1
           1
           1
           1
           1
           1
           1
           1
           1
           1
           1
           1
           1
           1
           1
           1
           1
           1
           1
           1
           1
           1
           1
           1
           1
           1
           1
           1
           1
           1
           1
           1
           1
           1
           1
           1
           1
           1
           1
           1
           1
           1
           1
           1
           1
           1
           1
           1
           1
           1
           1
           1
           1
           1
           1
           1
           1
           1
           1
           1
           1
           1
           1
           1
           1
           1
           1
           1
           1
           1
           1
           1
           1
           1
           1
           1
           1
           1
           1
           1
           1
           1
           1
           1
           1
           1
           1
           1
           1
           1
           1
           1
           1
           1
           1
           1
           1
           1
           1
           1
           1
           1
           1
           1
           1
           1
           1
           1
           1
           1
           1
           1
           1
           1
           1
           1
           1
           1
           1
           1
           1
           1
           1
           1
           1
           1
           1
           1
           1
           1
           1
           1
           1
           1
           1
           1
           1
           1
           1
           1
           1
           1
           1
           1
           1
           1
           1
           1
           1
           1
           1
           1
           1
           1
           1
           1
           1
           1
           1
           1
           1
           1
           1
           1
           1
           1
           1
           1
           1
           1
           1
           1
           1
           1
           1
           1
           1
           1
           1
           1
           1
           1
           1
           1
           1
           1
           1
           1
           1
           1
           1
           1
           1
           1
           1
           1
           1
           1
           1
           1
           1
           1
           1
           1
           1
           1
           1
           1
           1
           1
           1
           1
           1
           1
           1
           1
           1
           1
           1
           1
           1
           1
           1
           1
           1
           1
           1
           1
           1
           1
           1
           1
           1
           1
           1
           1
           1
           1
           1
           1
           1
           1
           1
           1
           1
           1
           1
           1
           1
           1
           1
           1
           1
           1
           1
           1
           1
           1
           1
           1
           1
           1
           1
           1
           1
           1
           1
           1
           1
           1
           1
           1
           1
           1
           1
           1
           1
           1
           1
           1
           1
           1
           1
           1
           1
           1
           1
           1
           1
           1
           1
           1
           1
           1
           1
           1
           1
           1
           1
           1
           1
           1
           1
           1
           1
           1
           1
           1
           1
           1
           1
           1
           1
           1
           1
           1
           1
           1
           1
           1
           1
           1
           1
           1
           1
           1
           1
           1
           1
           1
           1
           1
           1
           1
           1
           1
           1
           1
           1
           1
           1
           1
           1
           1
           1
           1
           1
           1
           1
           1
           1
           1
           1
           1
           1
           1
           1
           1
           1
           1
           1
           1
           1
           1
           1
           1
           1
           1
           1
           1
           1
           1
           1
           1
           1
           1
           1
           1
           1
           1
           1
           1
           1
           1
           1
           1
           1
           1
           1
           1
           1
           1
           1
           1
           1
           1
           1
           1
           1
           1
           1
           1
           1
           1
           1
           1
           1
           1
           1
           1
           1
           1
           1
           1
           1
           1
           1
           1
           1
           1
           1
           1
           1
           1
           1
           1
           1
           1
           1
           1
           1
           1
           1
           1
           1
           1
           1
           1
           1
           1
           1
           1
           1
           1
           1
           1
           1
           1
           1
           1
           1
           1
           1
           1
           1
           1
           1
           1
           1
           1
           1
           1
           1
           1
           1
           1
           1
           1
           1
           1
           1
           1
           1
           1
           1
           1
           1
           1
           1
           1
           1
           1
           1
           1
           1
           1
           1
           1
           1
           1
           1
           1
           1
           1
           1
           1
           1
           1
           1
           1
           1
           1
           1
           1
           1
           1
           1
           1
           1
           1
           1
           1
           1
           1
           1
           1
           1
           1
           1
           1
           1
           1
           1
           1
           1
           1
           1
           1
           1
           1
           1
           1
           1
           1
           1
           1
           1
           1
           1
           1
           1
           1
           1
           1
           1
           1
           1
           1
           1
           1
           1
           1
           1
           1
           1
           1
           1
           1
           1
           1
           1
           1
           1
           1
           1
           1
           1
           1
           1
           1
           1
           1
           1
           1
           1
           1
           1
           1
           1
           1
           1
           1
           1
           1
           1
           1
           1
           1
           1
           1
           1
           1
           1
           1
           1
           1
           1
           1
           1
           1
           1
           1
           1
           1
           1
           1
           1
           1
           1
           1
           1
           1
           1
           1
           1
           1
           1
           1
           1
           1
           1
           1
           1
           1
           1
           1
           1
           1
           1
           1
           1
           1
           1
           1
           1
           1
           1
           1
           1
           1
           1
           1
           1
           1
           1
           1
           1
           1
           1
           1
           1
           1
           1
           1
           1
           1
           1
           1
           1
           1
           1
           1
           1
           1
           1
           1
           1
           1
           1
           1
           1
           1
           1
           1
           1
           1
           1
           1
           1
           1
           1
           1
           1
           1
           1
           1
           1
           1
           1
           1
           1
           1
           1
           1
           1
           1
           1
           1
           1
           1
           1
           1
           1
           1
           1
           1
           1
           1
           1
           1
           1
           1
           1
           1
           1
           1
           1
           1
           1
           1
           1
           1
           1
           1
           1
           1
           1
           1
           1
           1
           1
           1
           1
           1
           1
           1
           1
           1
           1
           1
           1
           1
           1
           1
           1
           1
           1
           1
           1
           1
           1
           1
           1
           1
           1
           1
           1
           1
           1
           1
           1
           1
           1
           1
           1
           1
           1
           1
           1
           1
           1
           1
           1
           1
           1
           1
           1
           1
           1
           1
           1
           1
           1
           1
           1
           1
           1
           1
           1
           1
           1
           1
           1
           1
           1
           1
           1
           1
           1
           1
           1
           1
           1
           1
           1
           1
           1
           1
           1
           1
           1
           1
           1
           1
           1
           1
           1
           1
           1
           1
           1
           1
           1
           1
           1
           1
           1
           1
           1
           1
           1
           1
           1
           1
           1
           1
           1
           1
           1
           1
           1
           1
           1
           1
           1
           1
           1
           1
           1
           1
           1
           1
           1
           1
           1
           1
           1
           1
           1
           1
           1
           1
           1
           1
           1
           1
           1
           1
           1
           1
           1
           1
           1
           1
           1
           1
           1
           1
           1
           1
           1
           1
           1
           1
           1
           1
           1
           1
           1
           1
           1
           1
           1
           1
           1
           1
           1
           1
           1
           1
           1
           1
           1
           1
           1
           1
           1
           1
           1
           1
           1
           1
           1
           1
           1
           1
           1
           1
           1
           1
           1
           1
           1
           1
           1
           1
           1
           1
           1
           1
           1
           1
           1
           1
           1
           1
           1
           1
           1
           1
           1
           1
           1
           1
           1
           1
           1
           1
           1
           1
           1
           1
           1
           1
           1
           1
           1
           1
           1
           1
           1
           1
           1
           1
           1
           1
           1
           1
           1
           1
           1
           1
           1
           1
           1
           1
           1
           1
           1
           1
           1
           1
           1
           1
           1
           1
           1
           1
           1
           1
           1
           1
           1
           1
           1
           1
           1
           1
           1
           1
           1
           1
           1
           1
           1
           1
           1
           1
           1
           1
           1
           1
           1
           1
           1
           1
           1
           1
           1
           1
           1
           1
           1
           1
           1
           1
           1
           1
           1
           1
           1
           1
           1
           1
           1
           1
           1
           1
           1
           1
           1
           1
           1
           1
           1
           1
           1
           1
           1
           1
           1
           1
           1
           1
           1
           1
           1
           1
           1
           1
           1
           1
           1
           1
           1
           1
           1
           1
           1
           1
           1
           1
           1
           1
           1
           1
           1
           1
           1
           1
           1
           1
           1
           1
           1
           1
           1
           1
           1
           1
           1
           1
           1
           1
           1
           1
           1
           1
           1
           1
           1
           1
           1
           1
           1
           1
           1
           1
           1
           1
           1
           1
           1
           1
           1
           1
           1
           1
           1
           1
           1
           1
           1
           1
           1
           1
           1
           1
           1
           1
           1
           1
           1
           1
           1
           1
           1
           1
           1
           1
           1
           1
           1
           1
           1
           1
           1
           1
           1
           1
           1
           1
           1
           1
           1
           1
           1
           1
           1
           1
           1
           1
           1
           1
           1
           1
           1
           1
           1
           1
           1
           1
           1
           1
           1
           1
           1
           1
           1
           1
           1
           1
           1
           1
           1
           1
           1
           1
           1
           1
           1
           1
           1
           1
           1
           1
           1
           1
           1
           1
           1
           1
           1
           1
           1
           1
           1
           1
           1
           1
           1
           1
           1
           1
           1
           1
           1
           1
           1
           1
           1
           1
           1
           1
           1
           1
           1
           1
           1
           1
           1
           1
           1
           1
           1
           1
           1
           1
           1
           1
           1
           1
           1
           1
           1
           1
           1
           1
           1
           1
           1
           1
           1
           1
           1
           1
           1
           1
           1
           1
           1
           1
           1
           1
           1
           1
           1
           1
           1
           1
           1
           1
           1
           1
           1
           1
           1
           1
           1
           1
           1
           1
           1
           1
           1
           1
           1
           1
           1
           1
           1
           1
           1
           1
           1
           1
           1
           1
           1
           1
           1
           1
           1
           1
           1
           1
           1
           1
           1
           1
           1
           1
           1
           1
           1
           1
           1
           1
           1
           1
           1
           1
           1
           1
           1
           1
           1
           1
           1
           1
           1
           1
           1
           1
           1
           1
           1
           1
           1
           1
           1
           1
           1
           1
           1
           1
           1
           1
           1
           1
           1
           1
           1
           1
           1
           1
           1
           1
           1
           1
           1
           1
           1
           1
           1
           1
           1
           1
           1
           1
           1
           1
           1
           1
           1
           1
           1
           1
           1
           1
           1
           1
           1
           1
           1
           1
           1
           1
           1
           1
           1
           1
           1
           1
           1
           1
           1
           1
           1
           1
           1
           1
           1
           1
           1
           1
           1
           1
           1
           1
           1
           1
           1
           1
           1
           1
           1
           1
           1
           1
           1
           1
           1
           1
           1
           1
           1
           1
           1
           1
           1
           1
           1
           1
           1
           1
           1
           1
           1
           1
           1
           1
           1
           1
           1
           1
           1
           1
           1
           1
           1
           1
           1
           1
           1
           1
           1
           1
           1
           1
           1
           1
           1
           1
           1
           1
           1
           1
           1
           1
           1
           1
           1
           1
           1
           1
           1
           1
           1
           1
           1
           1
           1
           1
           1
           1
           1
           1
           1
           1
           1
           1
           1
           1
           1
           1
           1
           1
           1
           1
           1
           1
           1
           1
           1
           1
           1
           1
           1
           1
           1
           1
           1
           1
           1
           1
           1
           1
           1
           1
           1
           1
           1
           1
           1
           1
           1
           1
           1
           1
           1
           1
           1
           1
           1
           1
           1
           1
           1
           1
           1
           1
           1
           1
           1
           1
           1
           1
           1
           1
           1
           1
           1
           1
           1
           1
           1
           1
           1
           1
           1
           1
           1
           1
           1
           1
           1
           1
           1
           1
           1
           1
           1
           1
           1
           1
           1
           1
           1
           1
           1
           1
           1
           1
           1
           1
           1
           1
           1
           1
           1
           1
           1
           1
           1
           1
           1
           1
           1
           1
           1
           1
           1
           1
           1
           1
           1
           1
           1
           1
           1
           1
           1
           1
           1
           1
           1
           1
           1
           1
           1
           1
           1
           1
           1
           1
           1
           1
           1
           1
           1
           1
           1
           1
           1
           1
           1
           1
           1
           1
           1
           1
           1
           1
           1
           1
           1
           1
           1
           1
           1
           1
           1
           1
           1
           1
           1
           1
           1
           1
           1
           1
           1
           1
           1
           1
           1
           1
           1
           1
           1
           1
           1
           1
           1
           1
           1
           1
           1
           1
           1
           1
           1
           1
           1
           1
           1
           1
           1
           1
           1
           1
           1
           1
           1
           1
           1
           1
           1
           1
           1
           1
           1
           1
           1
           1
           1
           1
           1
           1
           1
           1
           1
           1
           1
           1
           1
           1
           1
           1
           1
           1
           1
           1
           1
           1
           1
           1
           1
           1
           1
           1
           1
           1
           1
           1
           1
           1
           1
           1
           1
           1
           1
           1
           1
           1
           1
           1
           1
           1
           1
           1
           1
           1
           1
           1
           1
           1
           1
           1
           1
           1
           1
           1
           1
           1
           1
           1
           1
           1
           1
           1
           1
           1
           1
           1
           1
           1
           1
           1
           1
           1
           1
           1
           1
           1
           1
           1
           1
           1
           1
           1
           1
           1
           1
           1
           1
           1
           1
           1
           1
           1
           1
           1
           1
           1
           1
           1
           1
           1
           1
           1
           1
           1
           1
           1
           1
           1
           1
           1
           1
           1
           1
           1
           1
           1
           1
           1
           1
           1
           1
           1
           1
           1
           1
           1
           1
           1
           1
           1
           1
           1
           1
           1
           1
           1
           1
           1
           1
           1
           1
           1
           1
           1
           1
           1
           1
           1
           1
           1
           1
           1
           1
           1
           1
           1
           1
           1
           1
           1
           1
           1
           1
           1
           1
           1
           1
           1
           1
           1
           1
           1
           1
           1
           1
           1
           1
           1
           1
           1
           1
           1
           1
           1
           1
           1
           1
           1
           1
           1
           1
           1
           1
           1
           1
           1
           1
           1
           1
           1
           1
           1
           1
           1
           1
           1
           1
           1
           1
           1
           1
           1
           1
           1
           1
           1
           1
           1
           1
           1
           1
           1
           1
           1
           1
           1
           1
           1
           1
           1
           1
           1
           1
           1
           1
           1
           1
           1
           1
           1
           1
           1
           1
           1
           1
           1
           1
           1
           1
           1
           1
           1
           1
           1
           1
           1
           1
           1
           1
           1
           1
           1
           1
           1
           1
           1
           1
           1
           1
           1
           1
           1
           1
           1
           1
           1
           1
           1
           1
           1
           1
           1
           1
           1
           1
           1
           1
           1
           1
           1
           1
           1
           1
           1
           1
           1
           1
           1
           1
           1
           1
           1
           1
           1
           1
           1
           1
           1
           1
           1
           1
           1
           1
           1
           1
           1
           1
           1
           1
           1
           1
           1
           1
           1
           1
           1
           1
           1
           1
           1
           1
           1
           1
           1
           1
           1
           1
           1
           1
           1
           1
           1
           1
           1
           1
           1
           1
           1
           1
           1
           1
           1
           1
           1
           1
           1
           1
           1
           1
           1
           1
           1
           1
           1
           1
           1
           1
           1
           1
           1
           1
           1
           1
           1
           1
           1
           1
           1
           1
           1
           1
           1
           1
           1
           1
           1
           1
           1
           1
           1
           1
           1
           1
           1
           1
           1
           1
           1
           1
           1
           1
           1
           1
           1
           1
           1
           1
           1
           1
           1
           1
           1
           1
           1
           1
           1
           1
           1
           1
           1
           1
           1
           1
           1
           1
           1
           1
           1
           1
           1
           1
           1
           1
           1
           1
           1
           1
           1
           1
           1
           1
           1
           1
           1
           1
           1
           1
           1
           1
           1
           1
           1
           1
           1
           1
           1
           1
           1
           1
           1
           1
           1
           1
           1
           1
           1
           1
           1
           1
           1
           1
           1
           1
           1
           1
           1
           1
           1
           1
           1
           1
           1
           1
           1
           1
           1
           1
           1
           1
           1
           1
           1
           1
           1
           1
           1
           1
           1
           1
           1
           1
           1
           1
           1
           1
           1
           1
           1
           1
           1
           1
           1
           1
           1
           1
           1
           1
           1
           1
           1
           1
           1
           1
           1
           1
           1
           1
           1
           1
           1
           1
           1
           1
           1
           1
           1
           1
           1
           1
           1
           1
           1
           1
           1
           1
           1
           1
           1
           1
           1
           1
           1
           1
           1
           1
           1
           1
           1
           1
           1
           1
           1
           1
           1
           1
           1
           1
           1
           1
           1
           1
           1
           1
           1
           1
           1
           1
           1
           1
           1
           1
           1
           1
           1
           1
           1
           1
           1
           1
           1
           1
           1
           1
           1
           1
           1
           1
           1
           1
           1
           1
           1
           1
           1
           1
           1
           1
           1
           1
           1
           1
           1
           1
           1
           1
           1
           1
           1
           1
           1
           1
           1
           1
           1
           1
           1
           1
           1
           1
           1
           1
           1
           1
           1
           1
           1
           1
           1
           1
           2
           2
           2
           2
           2
           2
           2
           2
           2
           2
           2
           2
           2
           2
           2
           2
           2
           2
           2
           2
           2
           2
           2
           2
           2
           2
           2
           2
           2
           2
           2
           2
           2
           2
           2
           2
           2
           2
           2
           2
           2
           2
           2
           2
           2
           2
           2
           2
           2
           2
           2
           2
           2
           2
           2
           2
           2
           2
           2
           2
           2
           2
           2
           2
           2
           2
           2
           2
           2
           2
           2
           2
           2
           2
           2
           2
           2
           2
           2
           2
           2
           2
           2
           2
           2
           2
           2
           2
           2
           2
           2
           2
           2
           2
           2
           2
           2
           2
           2
           2
           2
           2
           2
           2
           2
           2
           2
           2
           2
           2
           2
           2
           2
           2
           2
           2
           2
           2
           2
           2
           2
           2
           2
           2
           2
           2
           2
           2
           2
           2
           2
           2
           2
           2
           2
           2
           2
           2
           2
           2
           2
           2
           2
           2
           2
           2
           2
           2
           2
           2
           2
           2
           2
           2
           2
           2
           2
           2
           2
           2
           2
           2
           2
           2
           2
           2
           2
           2
           2
           2
           2
           2
           2
           2
           2
           2
           2
           2
           2
           2
           2
           2
           2
           2
           2
           2
           2
           2
           2
           2
           2
           2
           2
           2
           2
           2
           2
           2
           2
           2
           2
           2
           2
           2
           2
           2
           2
           2
           2
           2
           2
           2
           2
           2
           2
           2
           2
           2
           2
           2
           2
           2
           2
           2
           2
           2
           2
           2
           2
           2
           2
           2
           2
           2
           2
           2
           2
           2
           2
           2
           2
           2
           2
           2
           2
           2
           2
           2
           2
           2
           2
           2
           2
           2
           2
           2
           2
           2
           2
           2
           2
           2
           2
           2
           2
           2
           2
           2
           2
           2
           2
           2
           2
           2
           2
           2
           2
           2
           2
           2
           2
           2
           2
           2
           2
           2
           2
           2
           2
           2
           2
           2
           2
           2
           2
           2
           2
           2
           2
           2
           2
           2
           2
           2
           2
           2
           2
           2
           2
           2
           2
           2
           2
           2
           2
           2
           2
           2
           2
           2
           2
           2
           2
           2
           2
           2
           2
           2
           2
           2
           2
           2
           2
           2
           2
           2
           2
           2
           2
           2
           2
           2
           2
           2
           2
           2
           2
           2
           2
           2
           2
           2
           2
           2
           2
           2
           2
           2
           2
           2
           2
           2
           2
           2
           2
           2
           2
           2
           2
           2
           2
           2
           2
           2
           2
           2
           2
           2
           2
           2
           2
           2
           2
           2
           2
           2
           2
           2
           2
           2
           2
           2
           2
           2
           2
           2
           2
           2
           2
           2
           2
           2
           2
           2
           2
           2
           2
           2
           2
           2
           2
           2
           2
           2
           2
           2
           2
           2
           2
           2
           2
           2
           2
           2
           2
           2
           2
           2
           2
           2
           2
           2
           2
           2
           2
           2
           2
           2
           2
           2
           2
           2
           2
           2
           2
           2
           2
           2
           2
           2
           2
           2
           2
           2
           2
           2
           2
           2
           2
           2
           2
           2
           2
           2
           2
           2
           2
           2
           2
           2
           2
           2
           2
           2
           2
           2
           2
           2
           2
           2
           2
           2
           2
           2
           2
           2
           2
           2
           2
           2
           2
           2
           2
           2
           2
           2
           2
           2
           2
           2
           2
           2
           2
           2
           2
           2
           2
           2
           2
           2
           2
           2
           2
           2
           2
           2
           2
           2
           2
           2
           2
           2
           2
           2
           2
           2
           2
           2
           2
           2
           2
           2
           2
           2
           2
           2
           2
           2
           2
           2
           2
           2
           2
           2
           2
           2
           2
           2
           2
           2
           2
           2
           2
           2
           2
           2
           2
           2
           2
           2
           2
           2
           2
           2
           2
           2
           2
           2
           2
           2
           2
           2
           2
           2
           2
           2
           2
           2
           2
           2
           2
           2
           2
           2
           2
           2
           2
           2
           2
           2
           2
           2
           2
           2
           2
           2
           2
           2
           2
           2
           2
           2
           2
           2
           2
           2
           2
           2
           2
           2
           2
           2
           2
           2
           2
           2
           2
           2
           2
           2
           2
           2
           2
           2
           2
           2
           2
           2
           2
           2
           2
           2
           2
           2
           2
           2
           2
           2
           2
           2
           2
           2
           2
           2
           2
           2
           2
           2
           2
           2
           2
           2
           2
           2
           2
           2
           2
           2
           2
           2
           2
           2
           2
           2
           2
           2
           2
           2
           2
           2
           2
           2
           2
           2
           2
           2
           2
           2
           2
           2
           2
           2
           2
           2
           2
           2
           2
           2
           2
           2
           2
           2
           2
           2
           2
           2
           2
           2
           2
           2
           2
           2
           2
           2
           2
           2
           2
           2
           2
           2
           2
           2
           2
           2
           2
           2
           2
           2
           2
           2
           2
           2
           2
           2
           2
           2
           2
           2
           2
           2
           2
           2
           2
           2
           2
           2
           2
           2
           2
           2
           2
           2
           2
           2
           2
           2
           2
           2
           2
           2
           2
           2
           2
           2
           2
           2
           2
           2
           2
           2
           2
           2
           2
           2
           2
           2
           2
           2
           2
           2
           2
           2
           2
           2
           2
           2
           2
           2
           2
           2
           2
           2
           2
           2
           2
           2
           2
           2
           2
           2
           2
           2
           2
           2
           2
           2
           2
           2
           2
           2
           2
           2
           2
           2
           2
           2
           2
           2
           2
           2
           2
           2
           2
           2
           2
           2
           2
           2
           2
           2
           2
           2
           2
           2
           2
           2
           2
           2
           2
           2
           2
           2
           2
           2
           2
           2
           2
           2
           2
           2
           2
           2
           2
           2
           2
           2
           2
           2
           2
           2
           2
           2
           2
           2
           2
           2
           2
           2
           2
           2
           2
           2
           2
           2
           2
           2
           2
           2
           2
           2
           2
           2
           2
           2
           2
           2
           2
           2
           2
           2
           2
           2
           2
           2
           2
           2
           2
           2
           2
           2
           2
           2
           2
           2
           2
           2
           2
           2
           2
           2
           2
           2
           2
           2
           2
           2
           2
           2
           2
           2
           2
           2
           2
           2
           2
           2
           2
           2
           2
           2
           2
           2
           2
           2
           2
           2
           2
           2
           2
           2
           2
           2
           2
           2
           2
           2
           2
           2
           2
           2
           2
           2
           2
           2
           2
           2
           2
           2
           2
           2
           2
           2
           2
           2
           2
           2
           2
           2
           2
           2
           2
           2
           2
           2
           2
           2
           2
           2
           2
           2
           2
           2
           2
           2
           2
           2
           2
           2
           2
           2
           2
           2
           2
           2
           2
           2
           2
           2
           2
           2
           2
           2
           2
           2
           2
           2
           2
           2
           2
           2
           2
           2
           2
           2
           2
           2
           2
           2
           2
           2
           2
           2
           2
           2
           2
           2
           2
           2
           2
           2
           2
           2
           2
           2
           2
           2
           2
           2
           2
           2
           2
           2
           2
           2
           2
           2
           2
           2
           2
           2
           2
           2
           2
           2
           2
           2
           2
           2
           2
           2
           2
           2
           2
           2
           2
           2
           2
           2
           2
           2
           2
           2
           2
           2
           2
           2
           2
           2
           2
           2
           2
           2
           2
           2
           2
           2
           2
           2
           2
           2
           2
           2
           2
           2
           2
           2
           2
           2
           2
           2
           2
           2
           2
           2
           2
           2
           2
           2
           2
           2
           2
           2
           2
           2
           2
           2
           2
           2
           2
           2
           2
           2
           2
           2
           2
           2
           2
           2
           2
           2
           2
           2
           2
           2
           2
           2
           2
           2
           2
           2
           2
           2
           2
           2
           2
           2
           2
           2
           2
           2
           2
           2
           2
           2
           2
           2
           2
           2
           2
           2
           2
           2
           2
           2
           2
           2
           2
           2
           2
           2
           2
           2
           2
           2
           2
           2
           2
           2
           2
           2
           2
           2
           2
           2
           2
           2
           2
           2
           2
           2
           2
           2
           2
           2
           2
           2
           2
           2
           2
           2
           2
           2
           2
           2
           2
           2
           2
           2
           2
           2
           2
           2
           2
           2
           2
           2
           2
           2
           2
           2
           2
           2
           2
           2
           2
           2
           2
           2
           2
           2
           2
           2
           2
           2
           2
           2
           2
           2
           2
           2
           2
           2
           2
           2
           2
           2
           2
           2
           2
           2
           2
           2
           2
           2
           2
           2
           2
           2
           2
           2
           2
           2
           2
           2
           2
           2
           2
           2
           2
           2
           2
           2
           2
           2
           2
           2
           2
           2
           2
           2
           2
           2
           2
           2
           2
           2
           2
           2
           2
           2
           2
           2
           2
           2
           2
           2
           2
           2
           2
           2
           2
           2
           2
           2
           2
           2
           2
           2
           2
           2
           2
           2
           2
           2
           2
           2
           2
           2
           2
           2
           2
           2
           2
           2
           2
           2
           2
           2
           2
           2
           2
           2
           2
           2
           2
           2
           2
           2
           2
           2
           2
           2
           2
           2
           2
           2
           2
           2
           2
           2
           2
           2
           2
           2
           2
           2
           2
           2
           2
           2
           2
           2
           2
           2
           2
           2
           2
           2
           2
           2
           2
           2
           2
           2
           2
           2
           2
           2
           2
           2
           2
           2
           2
           2
           2
           2
           2
           2
           2
           2
           2
           2
           2
           2
           2
           2
           2
           2
           2
           2
           2
           2
           2
           2
           2
           2
           2
           2
           2
           2
           2
           2
           2
           2
           2
           2
           2
           2
           2
           2
           2
           2
           2
           2
           2
           2
           2
           2
           2
           2
           2
           2
           2
           2
           2
           2
           2
           2
           2
           2
           2
           2
           2
           2
           2
           2
           2
           2
           2
           2
           2
           2
           2
           2
           2
           2
           2
           2
           2
           2
           2
           2
           2
           2
           2
           2
           2
           2
           2
           2
           2
           2
           2
           2
           2
           2
           2
           2
           2
           2
           2
           2
           2
           2
           2
           2
           2
           2
           2
           2
           2
           2
           2
           2
           2
           2
           2
           2
           2
           2
           2
           2
           2
           2
           2
           2
           2
           2
           2
           2
           2
           2
           2
           2
           2
           2
           2
           2
           2
           2
           2
           2
           2
           2
           2
           2
           2
           2
           2
           2
           2
           2
           2
           2
           2
           2
           2
           2
           2
           2
           2
           2
           2
           2
           2
           2
           2
           2
           2
           2
           2
           2
           2
           2
           2
           2
           2
           2
           2
           2
           2
           2
           2
           2
           2
           2
           2
           2
           2
           2
           2
           2
           2
           2
           2
           2
           2
           2
           2
           2
           2
           2
           2
           2
           2
           2
           2
           2
           2
           2
           2
           2
           2
           2
           2
           2
           2
           2
           2
           2
           2
           2
           2
           2
           2
           2
           2
           2
           2
           2
           2
           2
           2
           2
           2
           2
           2
           2
           2
           2
           2
           2
           2
           2
           2
           2
           2
           2
           2
           2
           2
           2
           2
           2
           2
           2
           2
           2
           2
           2
           2
           2
           2
           2
           2
           2
           2
           2
           2
           2
           2
           2
           2
           2
           2
           2
           2
           2
           2
           2
           2
           2
           2
           2
           2
           2
           2
           2
           2
           2
           2
           2
           2
           2
           2
           2
           2
           2
           2
           2
           2
           2
           2
           2
           2
           2
           2
           2
           2
           2
           2
           2
           2
           2
           2
           2
           2
           2
           2
           2
           2
           2
           2
           2
           2
           2
           2
           2
           2
           2
           2
           2
           2
           2
           2
           2
           2
           2
           2
           2
           2
           2
           2
           2
           2
           2
           2
           2
           2
           2
           2
           2
           2
           2
           2
           2
           2
           2
           2
           2
           2
           2
           2
           2
           2
           2
           2
           2
           2
           2
           2
           2
           2
           2
           2
           2
           2
           2
           2
           2
           2
           2
           2
           2
           2
           2
           2
           2
           2
           2
           2
           2
           2
           2
           2
           2
           2
           2
           2
           2
           2
           2
           2
           2
           2
           2
           2
           2
           2
           2
           2
           2
           2
           2
           2
           2
           2
           2
           2
           2
           2
           2
           2
           2
           2
           2
           2
           2
           2
           2
           2
           2
           2
           2
           2
           2
           2
           2
           2
           2
           2
           2
           2
           2
           2
           2
           2
           2
           2
           2
           2
           2
           2
           2
           2
           2
           2
           2
           2
           2
           2
           2
           2
           2
           2
           2
           2
           2
           2
           2
           2
           2
           2
           2
           2
           2
           2
           2
           2
           2
           2
           2
           2
           2
           2
           2
           2
           2
           2
           2
           2
           2
           2
           2
           2
           2
           2
           2
           2
           2
           2
           2
           2
           2
           2
           2
           2
           2
           2
           2
           2
           2
           2
           2
           2
           2
           2
           2
           2
           2
           2
           2
           2
           2
           2
           2
           2
           2
           2
           2
           2
           2
           2
           2
           2
           2
           2
           2
           2
           2
           2
           2
           2
           2
           2
           2
           2
           2
           2
           2
           2
           2
           2
           2
           2
           2
           2
           2
           2
           2
           2
           2
           2
           2
           2
           2
           2
           2
           2
           2
           2
           2
           2
           2
           2
           2
           2
           2
           2
           2
           2
           2
           2
           2
           2
           2
           2
           2
           2
           2
           2
           2
           2
           2
           2
           2
           2
           2
           2
           2
           2
           2
           2
           2
           2
           2
           2
           2
           2
           2
           2
           2
           2
           2
           2
           2
           2
           2
           2
           2
           2
           2
           2
           2
           2
           2
           2
           2
           2
           2
           2
           2
           2
           2
           2
           2
           2
           2
           2
           2
           2
           2
           2
           2
           2
           2
           2
           2
           2
           2
           2
           2
           2
           2
           2
           2
           2
           2
           2
           2
           2
           2
           2
           2
           2
           2
           2
           2
           2
           2
           2
           2
           2
           2
           2
           2
           2
           2
           2
           2
           2
           2
           2
           2
           2
           2
           2
           2
           2
           2
           2
           2
           2
           2
           2
           2
           2
           2
           2
           2
           2
           2
           2
           2
           2
           2
           2
           2
           2
           2
           2
           2
           2
           2
           2
           2
           2
           2
           2
           2
           2
           2
           2
           2
           2
           2
           2
           2
           2
           2
           2
           2
           2
           2
           2
           2
           2
           2
           2
           2
           2
           2
           2
           2
           2
           2
           2
           2
           2
           2
           2
           2
           2
           2
           2
           2
           2
           2
           2
           2
           2
           2
           2
           2
           2
           2
           2
           2
           2
           2
           2
           2
           2
           2
           2
           2
           2
           2
           2
           2
           2
           2
           2
           2
           2
           2
           2
           2
           2
           2
           2
           2
           2
           2
           2
           2
           2
           2
           2
           2
           2
           2
           2
           2
           2
           2
           2
           2
           2
           2
           2
           2
           2
           2
           2
           2
           2
           2
           2
           2
           2
           2
           2
           2
           2
           2
           2
           2
           2
           2
           2
           2
           2
           2
           2
           2
           2
           2
           2
           2
           2
           2
           2
           2
           2
           2
           2
           2
           2
           2
           2
           2
           2
           2
           2
           2
           2
           2
           2
           2
           2
           2
           2
           2
           2
           2
           2
           2
           2
           2
           2
           2
           2
           2
           2
           2
           2
           2
           2
           2
           2
           2
           2
           2
           2
           2
           2
           2
           2
           2
           2
           2
           2
           2
           2
           2
           2
           2
           2
           2
           2
           2
           2
           2
           2
           2
           2
           2
           2
           2
           2
           2
           2
           2
           2
           2
           2
           2
           2
           2
           2
           2
           2
           2
           2
           2
           2
           2
           2
           2
           2
           2
           2
           2
           2
           2
           2
           2
           2
           2
           2
           2
           2
           2
           2
           2
           2
           2
           2
           2
           2
           2
           2
           2
           2
           2
           2
           2
           2
           2
           2
           2
           2
           2
           2
           2
           2
           2
           2
           2
           2
           2
           2
           2
           2
           2
           2
           2
           2
           2
           2
           2
           2
           2
           2
           2
           2
           2
           2
           2
           2
           2
           2
           2
           2
           2
           2
           2
           2
           2
           2
           2
           2
           2
           2
           2
           2
           2
           2
           2
           2
           2
           2
           2
           2
           2
           2
           2
           2
           2
           2
           2
           2
           2
           2
           2
           2
           2
           2
           2
</DataArray>
</CellData>
</Piece>
</UnstructuredGrid>
</VTKFile>
