<VTKFile type="UnstructuredGrid" version="1,0" byte_order="LittleEndian">
<UnstructuredGrid>
<Piece NumberOfPoints="1502" NumberOfCells="1440">
<Points>
<DataArray type="Float64" NumberOfComponents="3" format="ascii">
-0.1100000000000E+01 -0.5395955351400E+01  0.0000000000000E+00
 0.0000000000000E+00 -0.5395955351400E+01  0.0000000000000E+00
 0.1100000000000E+01 -0.5395955351400E+01  0.0000000000000E+00
-0.1147096914462E+01 -0.2549637197335E+01  0.0000000000000E+00
-0.5735484517343E+00 -0.2434375812148E+01  0.0000000000000E+00
 0.5735484627289E+00 -0.2434375813621E+01  0.0000000000000E+00
 0.1147096914462E+01 -0.2549637197335E+01  0.0000000000000E+00
-0.1849553131613E+01  0.3526358745087E+00  0.0000000000000E+00
 0.1849553119580E+01  0.3526358820960E+00  0.0000000000000E+00
-0.7500000000000E+00 -0.7469172457236E+00  0.0000000000000E+00
 0.7500000000000E+00 -0.7469172457236E+00  0.0000000000000E+00
-0.1045000000000E+01 -0.5395955351400E+01  0.0000000000000E+00
-0.9900000000000E+00 -0.5395955351400E+01  0.0000000000000E+00
-0.9350000000000E+00 -0.5395955351400E+01  0.0000000000000E+00
-0.8800000000000E+00 -0.5395955351400E+01  0.0000000000000E+00
-0.8250000000000E+00 -0.5395955351400E+01  0.0000000000000E+00
-0.7700000000000E+00 -0.5395955351400E+01  0.0000000000000E+00
-0.7150000000000E+00 -0.5395955351400E+01  0.0000000000000E+00
-0.6600000000000E+00 -0.5395955351400E+01  0.0000000000000E+00
-0.6050000000000E+00 -0.5395955351400E+01  0.0000000000000E+00
-0.5500000000000E+00 -0.5395955351400E+01  0.0000000000000E+00
-0.4950000000000E+00 -0.5395955351400E+01  0.0000000000000E+00
-0.4400000000000E+00 -0.5395955351400E+01  0.0000000000000E+00
-0.3850000000000E+00 -0.5395955351400E+01  0.0000000000000E+00
-0.3300000000000E+00 -0.5395955351400E+01  0.0000000000000E+00
-0.2750000000000E+00 -0.5395955351400E+01  0.0000000000000E+00
-0.2200000000000E+00 -0.5395955351400E+01  0.0000000000000E+00
-0.1650000000000E+00 -0.5395955351400E+01  0.0000000000000E+00
-0.1100000000000E+00 -0.5395955351400E+01  0.0000000000000E+00
-0.5500000000000E-01 -0.5395955351400E+01  0.0000000000000E+00
 0.5500000000000E-01 -0.5395955351400E+01  0.0000000000000E+00
 0.1100000000000E+00 -0.5395955351400E+01  0.0000000000000E+00
 0.1650000000000E+00 -0.5395955351400E+01  0.0000000000000E+00
 0.2200000000000E+00 -0.5395955351400E+01  0.0000000000000E+00
 0.2750000000000E+00 -0.5395955351400E+01  0.0000000000000E+00
 0.3300000000000E+00 -0.5395955351400E+01  0.0000000000000E+00
 0.3850000000000E+00 -0.5395955351400E+01  0.0000000000000E+00
 0.4400000000000E+00 -0.5395955351400E+01  0.0000000000000E+00
 0.4950000000000E+00 -0.5395955351400E+01  0.0000000000000E+00
 0.5500000000000E+00 -0.5395955351400E+01  0.0000000000000E+00
 0.6050000000000E+00 -0.5395955351400E+01  0.0000000000000E+00
 0.6600000000000E+00 -0.5395955351400E+01  0.0000000000000E+00
 0.7150000000000E+00 -0.5395955351400E+01  0.0000000000000E+00
 0.7700000000000E+00 -0.5395955351400E+01  0.0000000000000E+00
 0.8250000000000E+00 -0.5395955351400E+01  0.0000000000000E+00
 0.8800000000000E+00 -0.5395955351400E+01  0.0000000000000E+00
 0.9350000000000E+00 -0.5395955351400E+01  0.0000000000000E+00
 0.9900000000000E+00 -0.5395955351400E+01  0.0000000000000E+00
 0.1045000000000E+01 -0.5395955351400E+01  0.0000000000000E+00
-0.1090457485425E+01 -0.2534835387692E+01  0.0000000000000E+00
-0.1033638287274E+01 -0.2520739528902E+01  0.0000000000000E+00
-0.9766465596125E+00 -0.2507358430428E+01  0.0000000000000E+00
-0.9194898086732E+00 -0.2494700594942E+01  0.0000000000000E+00
-0.8621760033544E+00 -0.2482774237100E+01  0.0000000000000E+00
-0.8047133091664E+00 -0.2471587199656E+01  0.0000000000000E+00
-0.7471102453220E+00 -0.2461146964797E+01  0.0000000000000E+00
-0.6893756470636E+00 -0.2451460621464E+01  0.0000000000000E+00
-0.6315185976533E+00 -0.2442534831257E+01  0.0000000000000E+00
-0.5164834701774E+00 -0.2427110885343E+01  0.0000000000000E+00
-0.4593279369588E+00 -0.2420596903906E+01  0.0000000000000E+00
-0.4020913288847E+00 -0.2414838384764E+01  0.0000000000000E+00
-0.3447834166166E+00 -0.2409839366687E+01  0.0000000000000E+00
-0.2874140476292E+00 -0.2405603374330E+01  0.0000000000000E+00
-0.2299932608336E+00 -0.2402133417728E+01  0.0000000000000E+00
-0.1725311980367E+00 -0.2399431974579E+01  0.0000000000000E+00
-0.1150380789454E+00 -0.2397500981571E+01  0.0000000000000E+00
-0.5752422729595E-01 -0.2396341828649E+01  0.0000000000000E+00
 0.5546389486577E-08 -0.2395955351400E+01  0.0000000000000E+00
 0.5752423838773E-01 -0.2396341828798E+01  0.0000000000000E+00
 0.1150380900341E+00 -0.2397500981869E+01  0.0000000000000E+00
 0.1725312091205E+00 -0.2399431975026E+01  0.0000000000000E+00
 0.2299932719104E+00 -0.2402133418324E+01  0.0000000000000E+00
 0.2874140586971E+00 -0.2405603375073E+01  0.0000000000000E+00
 0.3447834276736E+00 -0.2409839367578E+01  0.0000000000000E+00
 0.4020913399289E+00 -0.2414838385802E+01  0.0000000000000E+00
 0.4593279479883E+00 -0.2420596905089E+01  0.0000000000000E+00
 0.5164834811903E+00 -0.2427110886672E+01  0.0000000000000E+00
 0.6315186075299E+00 -0.2442534832714E+01  0.0000000000000E+00
 0.6893756558250E+00 -0.2451460622875E+01  0.0000000000000E+00
 0.7471102529713E+00 -0.2461146966132E+01  0.0000000000000E+00
 0.8047133157075E+00 -0.2471587200886E+01  0.0000000000000E+00
 0.8621760087916E+00 -0.2482774238195E+01  0.0000000000000E+00
 0.9194898130114E+00 -0.2494700595873E+01  0.0000000000000E+00
 0.9766465628570E+00 -0.2507358431168E+01  0.0000000000000E+00
 0.1033638289431E+01 -0.2520739529423E+01  0.0000000000000E+00
 0.1090457486500E+01 -0.2534835387966E+01  0.0000000000000E+00
-0.1198647869898E+01 -0.2241266161706E+01  0.0000000000000E+00
-0.1268648723815E+01 -0.1936549534840E+01  0.0000000000000E+00
-0.1365030818765E+01 -0.1639273481360E+01  0.0000000000000E+00
-0.1508189012765E+01 -0.1361870542919E+01  0.0000000000000E+00
-0.1680144970038E+01 -0.1100774774047E+01  0.0000000000000E+00
-0.1821952164099E+01 -0.8222867895427E+00  0.0000000000000E+00
-0.1928187353851E+01 -0.5284288672625E+00  0.0000000000000E+00
-0.1990672926479E+01 -0.2223886077276E+00  0.0000000000000E+00
-0.1996515583144E+01  0.8987643251194E-01  0.0000000000000E+00
-0.1668845971660E+01  0.4076601120269E+00  0.0000000000000E+00
-0.1479374895747E+01  0.4126893222261E+00  0.0000000000000E+00
-0.1292461349724E+01  0.3799608398268E+00  0.0000000000000E+00
-0.1110608534610E+01  0.3252966483736E+00  0.0000000000000E+00
-0.9317783393447E+00  0.2612690433592E+00  0.0000000000000E+00
-0.7510710236004E+00  0.2028788600987E+00  0.0000000000000E+00
-0.5663198949570E+00  0.1589527346874E+00  0.0000000000000E+00
-0.3788543841658E+00  0.1285572405255E+00  0.0000000000000E+00
-0.1898129862087E+00  0.1103187294206E+00  0.0000000000000E+00
-0.6960506046538E-08  0.1040446485997E+00  0.0000000000000E+00
 0.1898129723154E+00  0.1103187285161E+00  0.0000000000000E+00
 0.3788543703536E+00  0.1285572387505E+00  0.0000000000000E+00
 0.5663198813106E+00  0.1589527319805E+00  0.0000000000000E+00
 0.7510710102062E+00  0.2028788563284E+00  0.0000000000000E+00
 0.9317783262470E+00  0.2612690386552E+00  0.0000000000000E+00
 0.1110608521435E+01  0.3252966438709E+00  0.0000000000000E+00
 0.1292461336198E+01  0.3799608365176E+00  0.0000000000000E+00
 0.1479374881852E+01  0.4126893211027E+00  0.0000000000000E+00
 0.1668845957876E+01  0.4076601142919E+00  0.0000000000000E+00
 0.1996515582083E+01  0.8987644530927E-01  0.0000000000000E+00
 0.1990672927530E+01 -0.2223885963474E+00  0.0000000000000E+00
 0.1928187356267E+01 -0.5284288576002E+00  0.0000000000000E+00
 0.1821952167306E+01 -0.8222867816656E+00  0.0000000000000E+00
 0.1680144973598E+01 -0.1100774767938E+01  0.0000000000000E+00
 0.1508189015860E+01 -0.1361870538185E+01  0.0000000000000E+00
 0.1365030820349E+01 -0.1639273477422E+01  0.0000000000000E+00
 0.1268648724541E+01 -0.1936549532107E+01  0.0000000000000E+00
 0.1198647870165E+01 -0.2241266160318E+01  0.0000000000000E+00
-0.1100000000000E+01 -0.5260326847403E+01  0.0000000000000E+00
-0.1100000000000E+01 -0.5124698308092E+01  0.0000000000000E+00
-0.1100000000000E+01 -0.4989069644803E+01  0.0000000000000E+00
-0.1100000000000E+01 -0.4853441051447E+01  0.0000000000000E+00
-0.1100000000000E+01 -0.4717812410022E+01  0.0000000000000E+00
-0.1100000000000E+01 -0.4582183772969E+01  0.0000000000000E+00
-0.1100000000000E+01 -0.4446555134429E+01  0.0000000000000E+00
-0.1100000000000E+01 -0.4310926571738E+01  0.0000000000000E+00
-0.1100000000000E+01 -0.4175297944774E+01  0.0000000000000E+00
-0.1100000000000E+01 -0.4039668924534E+01  0.0000000000000E+00
-0.1100000000000E+01 -0.3904040394389E+01  0.0000000000000E+00
-0.1100000000000E+01 -0.3768412205201E+01  0.0000000000000E+00
-0.1100000000000E+01 -0.3632783739069E+01  0.0000000000000E+00
-0.1100000018863E+01 -0.3497155198281E+01  0.0000000000000E+00
-0.1100208704578E+01 -0.3361526970790E+01  0.0000000000000E+00
-0.1101564472129E+01 -0.3225906092204E+01  0.0000000000000E+00
-0.1104969932856E+01 -0.3090322052364E+01  0.0000000000000E+00
-0.1110964274004E+01 -0.2954828383868E+01  0.0000000000000E+00
-0.1119835267851E+01 -0.2819493137297E+01  0.0000000000000E+00
-0.1131791451013E+01 -0.2684395576555E+01  0.0000000000000E+00
 0.1131791451056E+01 -0.2684395576560E+01  0.0000000000000E+00
 0.1119835267905E+01 -0.2819493137302E+01  0.0000000000000E+00
 0.1110964274050E+01 -0.2954828383873E+01  0.0000000000000E+00
 0.1104969932886E+01 -0.3090322052368E+01  0.0000000000000E+00
 0.1101564472142E+01 -0.3225906092208E+01  0.0000000000000E+00
 0.1100208704581E+01 -0.3361526970793E+01  0.0000000000000E+00
 0.1100000018863E+01 -0.3497155198284E+01  0.0000000000000E+00
 0.1100000000000E+01 -0.3632783739071E+01  0.0000000000000E+00
 0.1100000000000E+01 -0.3768412205204E+01  0.0000000000000E+00
 0.1100000000000E+01 -0.3904040394391E+01  0.0000000000000E+00
 0.1100000000000E+01 -0.4039668924536E+01  0.0000000000000E+00
 0.1100000000000E+01 -0.4175297944775E+01  0.0000000000000E+00
 0.1100000000000E+01 -0.4310926571739E+01  0.0000000000000E+00
 0.1100000000000E+01 -0.4446555134431E+01  0.0000000000000E+00
 0.1100000000000E+01 -0.4582183772970E+01  0.0000000000000E+00
 0.1100000000000E+01 -0.4717812410023E+01  0.0000000000000E+00
 0.1100000000000E+01 -0.4853441051448E+01  0.0000000000000E+00
 0.1100000000000E+01 -0.4989069644804E+01  0.0000000000000E+00
 0.1100000000000E+01 -0.5124698308092E+01  0.0000000000000E+00
 0.1100000000000E+01 -0.5260326847403E+01  0.0000000000000E+00
-0.6764636662017E+00 -0.7281792178104E+00  0.0000000000000E+00
-0.6024837198703E+00 -0.7112776152937E+00  0.0000000000000E+00
-0.5280996171512E+00 -0.6962550568471E+00  0.0000000000000E+00
-0.4533537451325E+00 -0.6831506287115E+00  0.0000000000000E+00
-0.3782916751723E+00 -0.6719994717132E+00  0.0000000000000E+00
-0.3029616164712E+00 -0.6628322420235E+00  0.0000000000000E+00
-0.2274141490083E+00 -0.6556746856822E+00  0.0000000000000E+00
-0.1517018295911E+00 -0.6505472545819E+00  0.0000000000000E+00
-0.7587874076697E-01 -0.6474647917591E+00  0.0000000000000E+00
-0.3330669073875E-15 -0.6464362985620E+00  0.0000000000000E+00
 0.7587874076697E-01 -0.6474647917591E+00  0.0000000000000E+00
 0.1517018295911E+00 -0.6505472545819E+00  0.0000000000000E+00
 0.2274141490083E+00 -0.6556746856822E+00  0.0000000000000E+00
 0.3029616164712E+00 -0.6628322420235E+00  0.0000000000000E+00
 0.3782916751723E+00 -0.6719994717132E+00  0.0000000000000E+00
 0.4533537451325E+00 -0.6831506287115E+00  0.0000000000000E+00
 0.5280996171512E+00 -0.6962550568471E+00  0.0000000000000E+00
 0.6024837198703E+00 -0.7112776152937E+00  0.0000000000000E+00
 0.6764636662017E+00 -0.7281792178104E+00  0.0000000000000E+00
-0.7473788500550E+00 -0.9169402675278E+00  0.0000000000000E+00
-0.7384459236249E+00 -0.1086743232815E+01  0.0000000000000E+00
-0.7214100584976E+00 -0.1255918220388E+01  0.0000000000000E+00
-0.6951338833198E+00 -0.1423905296697E+01  0.0000000000000E+00
-0.6617742279509E+00 -0.1590646529104E+01  0.0000000000000E+00
-0.6284145723057E+00 -0.1757387761457E+01  0.0000000000000E+00
-0.6021383964021E+00 -0.1925374837654E+01  0.0000000000000E+00
-0.5851025302978E+00 -0.2094549825130E+01  0.0000000000000E+00
-0.5761696027871E+00 -0.2264352790361E+01  0.0000000000000E+00
 0.7473788500581E+00 -0.9169402675605E+00  0.0000000000000E+00
 0.7384459236621E+00 -0.1086743232882E+01  0.0000000000000E+00
 0.7214100586686E+00 -0.1255918220503E+01  0.0000000000000E+00
 0.6951338838577E+00 -0.1423905296904E+01  0.0000000000000E+00
 0.6617742292803E+00 -0.1590646529503E+01  0.0000000000000E+00
 0.6284145749793E+00 -0.1757387762157E+01  0.0000000000000E+00
 0.6021384008943E+00 -0.1925374838670E+01  0.0000000000000E+00
 0.5851025368780E+00 -0.2094549826388E+01  0.0000000000000E+00
 0.5761696115628E+00 -0.2264352791767E+01  0.0000000000000E+00
-0.8599553131613E+00 -0.6369619337004E+00  0.0000000000000E+00
-0.9699106263225E+00 -0.5270066216772E+00  0.0000000000000E+00
-0.1079865939484E+01 -0.4170513096539E+00  0.0000000000000E+00
-0.1189821252645E+01 -0.3070959976307E+00  0.0000000000000E+00
-0.1299776565806E+01 -0.1971406856075E+00  0.0000000000000E+00
-0.1409731878968E+01 -0.8718537358425E-01  0.0000000000000E+00
-0.1519687192129E+01  0.2276993843898E-01  0.0000000000000E+00
-0.1629642505290E+01  0.1327252504622E+00  0.0000000000000E+00
-0.1739597818451E+01  0.2426805624854E+00  0.0000000000000E+00
 0.8599553119580E+00 -0.6369619329417E+00  0.0000000000000E+00
 0.9699106239161E+00 -0.5270066201597E+00  0.0000000000000E+00
 0.1079865935874E+01 -0.4170513073777E+00  0.0000000000000E+00
 0.1189821247832E+01 -0.3070959945958E+00  0.0000000000000E+00
 0.1299776559790E+01 -0.1971406818138E+00  0.0000000000000E+00
 0.1409731871748E+01 -0.8718536903186E-01  0.0000000000000E+00
 0.1519687183706E+01  0.2276994375010E-01  0.0000000000000E+00
 0.1629642495664E+01  0.1327252565321E+00  0.0000000000000E+00
 0.1739597807622E+01  0.2426805693140E+00  0.0000000000000E+00
-0.1045034571645E+01 -0.5259621996020E+01  0.0000000000000E+00
-0.1045069143298E+01 -0.5123288605144E+01  0.0000000000000E+00
-0.1045103714983E+01 -0.4986955089645E+01  0.0000000000000E+00
-0.1045138286650E+01 -0.4850621644442E+01  0.0000000000000E+00
-0.1045172858330E+01 -0.4714288150920E+01  0.0000000000000E+00
-0.1045207430008E+01 -0.4577954661793E+01  0.0000000000000E+00
-0.1045242001687E+01 -0.4441621171172E+01  0.0000000000000E+00
-0.1045276573347E+01 -0.4305287756794E+01  0.0000000000000E+00
-0.1045311145023E+01 -0.4168954277808E+01  0.0000000000000E+00
-0.1045345716799E+01 -0.4032620403503E+01  0.0000000000000E+00
-0.1045380288450E+01 -0.3896287021840E+01  0.0000000000000E+00
-0.1045414860014E+01 -0.3759953982906E+01  0.0000000000000E+00
-0.1045449431649E+01 -0.3623620665588E+01  0.0000000000000E+00
-0.1045484021218E+01 -0.3487287273226E+01  0.0000000000000E+00
-0.1045716797363E+01 -0.3350954194956E+01  0.0000000000000E+00
-0.1047039043272E+01 -0.3214628469400E+01  0.0000000000000E+00
-0.1050308036838E+01 -0.3078339587030E+01  0.0000000000000E+00
-0.1056035884832E+01 -0.2942141079122E+01  0.0000000000000E+00
-0.1064495906264E+01 -0.2806100995875E+01  0.0000000000000E+00
-0.1075886164167E+01 -0.2670298598883E+01  0.0000000000000E+00
-0.9900605827812E+00 -0.5258950761503E+01  0.0000000000000E+00
-0.9901211655783E+00 -0.5121946135934E+01  0.0000000000000E+00
-0.9901817484307E+00 -0.4984941385130E+01  0.0000000000000E+00
-0.9902423312518E+00 -0.4847936704967E+01  0.0000000000000E+00
-0.9903029140944E+00 -0.4710931976248E+01  0.0000000000000E+00
-0.9903634969351E+00 -0.4573927251945E+01  0.0000000000000E+00
-0.9904240797765E+00 -0.4436922526141E+01  0.0000000000000E+00
-0.9904846625839E+00 -0.4299917876954E+01  0.0000000000000E+00
-0.9905452454201E+00 -0.4162913162843E+01  0.0000000000000E+00
-0.9906058284319E+00 -0.4025908051465E+01  0.0000000000000E+00
-0.9906664112248E+00 -0.3888903435156E+01  0.0000000000000E+00
-0.9907269938655E+00 -0.3751899163262E+01  0.0000000000000E+00
-0.9907875766298E+00 -0.3614894611614E+01  0.0000000000000E+00
-0.9908481763954E+00 -0.3477889984553E+01  0.0000000000000E+00
-0.9910964824723E+00 -0.3340885672339E+01  0.0000000000000E+00
-0.9923766463063E+00 -0.3203888716467E+01  0.0000000000000E+00
-0.9955006123620E+00 -0.3066928608011E+01  0.0000000000000E+00
-0.1000953406929E+01 -0.2930058876984E+01  0.0000000000000E+00
-0.1008993895750E+01 -0.2793347573224E+01  0.0000000000000E+00
-0.1019809668250E+01 -0.2656873956127E+01  0.0000000000000E+00
-0.9350783781571E+00 -0.5258313563351E+01  0.0000000000000E+00
-0.9351567563347E+00 -0.5120671739464E+01  0.0000000000000E+00
-0.9352351345838E+00 -0.4983029789759E+01  0.0000000000000E+00
-0.9353135127926E+00 -0.4845387911024E+01  0.0000000000000E+00
-0.9353918910292E+00 -0.4707745983506E+01  0.0000000000000E+00
-0.9354702692632E+00 -0.4570104060426E+01  0.0000000000000E+00
-0.9355486474980E+00 -0.4432462135838E+01  0.0000000000000E+00
-0.9356270256891E+00 -0.4294820288223E+01  0.0000000000000E+00
-0.9357054039173E+00 -0.4157178375381E+01  0.0000000000000E+00
-0.9357837823727E+00 -0.4019536063426E+01  0.0000000000000E+00
-0.9358621605450E+00 -0.3881894248842E+01  0.0000000000000E+00
-0.9359405385202E+00 -0.3744252780275E+01  0.0000000000000E+00
-0.9360189166554E+00 -0.3606611030652E+01  0.0000000000000E+00
-0.9360973108544E+00 -0.3468969205266E+01  0.0000000000000E+00
-0.9363529311127E+00 -0.3331327695444E+01  0.0000000000000E+00
-0.9375827971807E+00 -0.3193693545409E+01  0.0000000000000E+00
-0.9405535201158E+00 -0.3056096246803E+01  0.0000000000000E+00
-0.9457230457187E+00 -0.2918589328444E+01  0.0000000000000E+00
-0.9533357864639E+00 -0.2781240839827E+01  0.0000000000000E+00
-0.9635688581425E+00 -0.2644130038258E+01  0.0000000000000E+00
-0.8800883152801E+00 -0.5257710806454E+01  0.0000000000000E+00
-0.8801766305832E+00 -0.5119466225514E+01  0.0000000000000E+00
-0.8802649459670E+00 -0.4981221518205E+01  0.0000000000000E+00
-0.8803532613053E+00 -0.4842976882177E+01  0.0000000000000E+00
-0.8804415766749E+00 -0.4704732197152E+01  0.0000000000000E+00
-0.8805298920417E+00 -0.4566487516585E+01  0.0000000000000E+00
-0.8806182074094E+00 -0.4428242834502E+01  0.0000000000000E+00
-0.8807065227277E+00 -0.4289998229730E+01  0.0000000000000E+00
-0.8807948380879E+00 -0.4151753559446E+01  0.0000000000000E+00
-0.8808831537042E+00 -0.4013508488300E+01  0.0000000000000E+00
-0.8809714690013E+00 -0.3875263916703E+01  0.0000000000000E+00
-0.8810597840764E+00 -0.3737019692639E+01  0.0000000000000E+00
-0.8811480993319E+00 -0.3598775186289E+01  0.0000000000000E+00
-0.8812364297092E+00 -0.3460530603843E+01  0.0000000000000E+00
-0.8814915058993E+00 -0.3322286337640E+01  0.0000000000000E+00
-0.8826632159764E+00 -0.3184049434481E+01  0.0000000000000E+00
-0.8854728375831E+00 -0.3045849386549E+01  0.0000000000000E+00
-0.8903512360085E+00 -0.2907739721531E+01  0.0000000000000E+00
-0.8975283704489E+00 -0.2769788488594E+01  0.0000000000000E+00
-0.9071708830346E+00 -0.2632074943069E+01  0.0000000000000E+00
-0.8250907735484E+00 -0.5257142881990E+01  0.0000000000000E+00
-0.8251815471203E+00 -0.5118330376438E+01  0.0000000000000E+00
-0.8252723207753E+00 -0.4979517743998E+01  0.0000000000000E+00
-0.8253630943835E+00 -0.4840705183131E+01  0.0000000000000E+00
-0.8254538680238E+00 -0.4701892573067E+01  0.0000000000000E+00
-0.8255446416612E+00 -0.4563079967478E+01  0.0000000000000E+00
-0.8256354152996E+00 -0.4424267360368E+01  0.0000000000000E+00
-0.8257261888873E+00 -0.4285454830886E+01  0.0000000000000E+00
-0.8258169625179E+00 -0.4146642235623E+01  0.0000000000000E+00
-0.8259077364118E+00 -0.4007829237851E+01  0.0000000000000E+00
-0.8259985099776E+00 -0.3869016741680E+01  0.0000000000000E+00
-0.8260892833153E+00 -0.3730204594471E+01  0.0000000000000E+00
-0.8261800568383E+00 -0.3591392163814E+01  0.0000000000000E+00
-0.8262708445371E+00 -0.3452579656750E+01  0.0000000000000E+00
-0.8265178978146E+00 -0.3313767466569E+01  0.0000000000000E+00
-0.8276239731168E+00 -0.3174962642501E+01  0.0000000000000E+00
-0.8302650146947E+00 -0.3036194677238E+01  0.0000000000000E+00
-0.8348448073209E+00 -0.2897517097400E+01  0.0000000000000E+00
-0.8415788569149E+00 -0.2758997951848E+01  0.0000000000000E+00
-0.8506233319251E+00 -0.2620716494052E+01  0.0000000000000E+00
-0.7700861418435E+00 -0.5256610163424E+01  0.0000000000000E+00
-0.7701722837094E+00 -0.5117264939168E+01  0.0000000000000E+00
-0.7702584256540E+00 -0.4977919587536E+01  0.0000000000000E+00
-0.7703445675543E+00 -0.4838574307752E+01  0.0000000000000E+00
-0.7704307094850E+00 -0.4699228978582E+01  0.0000000000000E+00
-0.7705168514130E+00 -0.4559883653905E+01  0.0000000000000E+00
-0.7706029933419E+00 -0.4420538327700E+01  0.0000000000000E+00
-0.7706891352227E+00 -0.4281193079422E+01  0.0000000000000E+00
-0.7707752771443E+00 -0.4141847765110E+01  0.0000000000000E+00
-0.7708614193156E+00 -0.4002502046745E+01  0.0000000000000E+00
-0.7709475611757E+00 -0.3863156831905E+01  0.0000000000000E+00
-0.7710337028192E+00 -0.3723811967366E+01  0.0000000000000E+00
-0.7711198446387E+00 -0.3584466818293E+01  0.0000000000000E+00
-0.7712059996840E+00 -0.3445121592518E+01  0.0000000000000E+00
-0.7714379400810E+00 -0.3305776684227E+01  0.0000000000000E+00
-0.7724712906759E+00 -0.3166439144927E+01  0.0000000000000E+00
-0.7749366623313E+00 -0.3027138467789E+01  0.0000000000000E+00
-0.7792107592888E+00 -0.2887928178432E+01  0.0000000000000E+00
-0.7854946341866E+00 -0.2748876325429E+01  0.0000000000000E+00
-0.7939339817670E+00 -0.2610062160504E+01  0.0000000000000E+00
-0.7150748258416E+00 -0.5256113007053E+01  0.0000000000000E+00
-0.7151496517027E+00 -0.5116270626295E+01  0.0000000000000E+00
-0.7152244776322E+00 -0.4976428117708E+01  0.0000000000000E+00
-0.7152993035231E+00 -0.4836585681226E+01  0.0000000000000E+00
-0.7153741294406E+00 -0.4696743195181E+01  0.0000000000000E+00
-0.7154489553556E+00 -0.4556900713644E+01  0.0000000000000E+00
-0.7155237812715E+00 -0.4417058230575E+01  0.0000000000000E+00
-0.7155986071455E+00 -0.4277215825710E+01  0.0000000000000E+00
-0.7156734330549E+00 -0.4137373354576E+01  0.0000000000000E+00
-0.7157482591814E+00 -0.3997530477947E+01  0.0000000000000E+00
-0.7158230850374E+00 -0.3857688106641E+01  0.0000000000000E+00
-0.7158979107053E+00 -0.3717846086884E+01  0.0000000000000E+00
-0.7159727365261E+00 -0.3578003781578E+01  0.0000000000000E+00
-0.7160475746191E+00 -0.3438161399297E+01  0.0000000000000E+00
-0.7162577178442E+00 -0.3298319335060E+01  0.0000000000000E+00
-0.7172116594743E+00 -0.3158484642500E+01  0.0000000000000E+00
-0.7194946769885E+00 -0.3018686815235E+01  0.0000000000000E+00
-0.7234563940840E+00 -0.2878979377950E+01  0.0000000000000E+00
-0.7292834101132E+00 -0.2739430378948E+01  0.0000000000000E+00
-0.7371109460907E+00 -0.2600119068326E+01  0.0000000000000E+00
-0.6600572462467E+00 -0.5255651750446E+01  0.0000000000000E+00
-0.6601144925083E+00 -0.5115348112962E+01  0.0000000000000E+00
-0.6601717388222E+00 -0.4975044347227E+01  0.0000000000000E+00
-0.6602289851066E+00 -0.4834740653834E+01  0.0000000000000E+00
-0.6602862314112E+00 -0.4694436910715E+01  0.0000000000000E+00
-0.6603434777141E+00 -0.4554133172119E+01  0.0000000000000E+00
-0.6604007240175E+00 -0.4413829431986E+01  0.0000000000000E+00
-0.6604579702890E+00 -0.4273525770315E+01  0.0000000000000E+00
-0.6605152165876E+00 -0.4133222042156E+01  0.0000000000000E+00
-0.6605724630521E+00 -0.3992917907165E+01  0.0000000000000E+00
-0.6606297093099E+00 -0.3852614279163E+01  0.0000000000000E+00
-0.6606869554237E+00 -0.3712311003870E+01  0.0000000000000E+00
-0.6607442016544E+00 -0.3572007442087E+01  0.0000000000000E+00
-0.6608014592003E+00 -0.3431703803074E+01  0.0000000000000E+00
-0.6609835416675E+00 -0.3291400482624E+01  0.0000000000000E+00
-0.6618518107912E+00 -0.3151104536345E+01  0.0000000000000E+00
-0.6639462106806E+00 -0.3010845458267E+01  0.0000000000000E+00
-0.6675892844813E+00 -0.2870676772208E+01  0.0000000000000E+00
-0.6729531782596E+00 -0.2730666526224E+01  0.0000000000000E+00
-0.6801626392831E+00 -0.2590893968898E+01  0.0000000000000E+00
-0.6050338356071E+00 -0.5255226710825E+01  0.0000000000000E+00
-0.6050676712230E+00 -0.5114498033609E+01  0.0000000000000E+00
-0.6051015068699E+00 -0.4973769227753E+01  0.0000000000000E+00
-0.6051353424993E+00 -0.4833040494459E+01  0.0000000000000E+00
-0.6051691781407E+00 -0.4692311711288E+01  0.0000000000000E+00
-0.6052030137810E+00 -0.4551582932654E+01  0.0000000000000E+00
-0.6052368494217E+00 -0.4410854152478E+01  0.0000000000000E+00
-0.6052706850434E+00 -0.4270125451001E+01  0.0000000000000E+00
-0.6053045206812E+00 -0.4129396682836E+01  0.0000000000000E+00
-0.6053383564171E+00 -0.3988667506606E+01  0.0000000000000E+00
-0.6053721920308E+00 -0.3847938838900E+01  0.0000000000000E+00
-0.6054060275593E+00 -0.3707210524973E+01  0.0000000000000E+00
-0.6054398631570E+00 -0.3566481923687E+01  0.0000000000000E+00
-0.6054737091096E+00 -0.3425753244937E+01  0.0000000000000E+00
-0.6056218997803E+00 -0.3285024885230E+01  0.0000000000000E+00
-0.6063986653955E+00 -0.3144303901990E+01  0.0000000000000E+00
-0.6082986167040E+00 -0.3003619789629E+01  0.0000000000000E+00
-0.6116172162912E+00 -0.2863026071166E+01  0.0000000000000E+00
-0.6165121569353E+00 -0.2722590794429E+01  0.0000000000000E+00
-0.6230977121391E+00 -0.2582393206608E+01  0.0000000000000E+00
-0.5500050393902E+00 -0.5254838184284E+01  0.0000000000000E+00
-0.5500100787816E+00 -0.5113720980426E+01  0.0000000000000E+00
-0.5500151181777E+00 -0.4972603647573E+01  0.0000000000000E+00
-0.5500201575712E+00 -0.4831486387483E+01  0.0000000000000E+00
-0.5500251969664E+00 -0.4690369077377E+01  0.0000000000000E+00
-0.5500302363615E+00 -0.4549251771821E+01  0.0000000000000E+00
-0.5500352757567E+00 -0.4408134464719E+01  0.0000000000000E+00
-0.5500403151490E+00 -0.4267017236534E+01  0.0000000000000E+00
-0.5500453545437E+00 -0.4125899941475E+01  0.0000000000000E+00
-0.5500503939530E+00 -0.3984782237225E+01  0.0000000000000E+00
-0.5500554333442E+00 -0.3843665042904E+01  0.0000000000000E+00
-0.5500604727226E+00 -0.3702548203338E+01  0.0000000000000E+00
-0.5500655121114E+00 -0.3561431075619E+01  0.0000000000000E+00
-0.5500705608919E+00 -0.3420313870224E+01  0.0000000000000E+00
-0.5501794741936E+00 -0.3279196984308E+01  0.0000000000000E+00
-0.5508593507591E+00 -0.3138087476959E+01  0.0000000000000E+00
-0.5525594679831E+00 -0.2997014842937E+01  0.0000000000000E+00
-0.5555482078819E+00 -0.2856032604532E+01  0.0000000000000E+00
-0.5599688099431E+00 -0.2715208809361E+01  0.0000000000000E+00
-0.5659250738873E+00 -0.2574622703340E+01  0.0000000000000E+00
-0.4950183385758E+00 -0.5254492233767E+01  0.0000000000000E+00
-0.4950366771564E+00 -0.5113029079302E+01  0.0000000000000E+00
-0.4950550157537E+00 -0.4971565795525E+01  0.0000000000000E+00
-0.4950733543416E+00 -0.4830102584690E+01  0.0000000000000E+00
-0.4950916929360E+00 -0.4688639323717E+01  0.0000000000000E+00
-0.4951100315298E+00 -0.4547176067304E+01  0.0000000000000E+00
-0.4951283701237E+00 -0.4405712809342E+01  0.0000000000000E+00
-0.4951467087075E+00 -0.4264249630490E+01  0.0000000000000E+00
-0.4951650472999E+00 -0.4122786384600E+01  0.0000000000000E+00
-0.4951833859455E+00 -0.3981322728517E+01  0.0000000000000E+00
-0.4952017245248E+00 -0.3839859583612E+01  0.0000000000000E+00
-0.4952200630581E+00 -0.3698396794331E+01  0.0000000000000E+00
-0.4952384016287E+00 -0.3556933716192E+01  0.0000000000000E+00
-0.4952567486596E+00 -0.3415470560186E+01  0.0000000000000E+00
-0.4953685737410E+00 -0.3274007724048E+01  0.0000000000000E+00
-0.4959942656692E+00 -0.3132552268348E+01  0.0000000000000E+00
-0.4975381740748E+00 -0.2991133688154E+01  0.0000000000000E+00
-0.5002418427914E+00 -0.2849805505107E+01  0.0000000000000E+00
-0.5042341873617E+00 -0.2708635766636E+01  0.0000000000000E+00
-0.5096086275772E+00 -0.2567703717526E+01  0.0000000000000E+00
-0.4400273257198E+00 -0.5254182042721E+01  0.0000000000000E+00
-0.4400546514468E+00 -0.5112408697129E+01  0.0000000000000E+00
-0.4400819771987E+00 -0.4970635221941E+01  0.0000000000000E+00
-0.4401093029366E+00 -0.4828861819855E+01  0.0000000000000E+00
-0.4401366286841E+00 -0.4687088367521E+01  0.0000000000000E+00
-0.4401639544307E+00 -0.4545314919759E+01  0.0000000000000E+00
-0.4401912801777E+00 -0.4403541470442E+01  0.0000000000000E+00
-0.4402186059093E+00 -0.4261768100409E+01  0.0000000000000E+00
-0.4402459316539E+00 -0.4119994663192E+01  0.0000000000000E+00
-0.4402732574778E+00 -0.3978220814882E+01  0.0000000000000E+00
-0.4403005832029E+00 -0.3836447478871E+01  0.0000000000000E+00
-0.4403279088593E+00 -0.3694674499264E+01  0.0000000000000E+00
-0.4403552345715E+00 -0.3552901230165E+01  0.0000000000000E+00
-0.4403825678099E+00 -0.3411127883029E+01  0.0000000000000E+00
-0.4404929926366E+00 -0.3269354856110E+01  0.0000000000000E+00
-0.4410601879356E+00 -0.3127589211305E+01  0.0000000000000E+00
-0.4424435755923E+00 -0.2985860443961E+01  0.0000000000000E+00
-0.4448578612585E+00 -0.2844222075135E+01  0.0000000000000E+00
-0.4484176365346E+00 -0.2702742152090E+01  0.0000000000000E+00
-0.4532059412723E+00 -0.2561499918593E+01  0.0000000000000E+00
-0.3850324521635E+00 -0.5253907826238E+01  0.0000000000000E+00
-0.3850649043355E+00 -0.5111860264092E+01  0.0000000000000E+00
-0.3850973565371E+00 -0.4969812572100E+01  0.0000000000000E+00
-0.3851298087220E+00 -0.4827764953351E+01  0.0000000000000E+00
-0.3851622609184E+00 -0.4685717284256E+01  0.0000000000000E+00
-0.3851947131137E+00 -0.4543669619742E+01  0.0000000000000E+00
-0.3852271653094E+00 -0.4401621953670E+01  0.0000000000000E+00
-0.3852596174870E+00 -0.4259574367037E+01  0.0000000000000E+00
-0.3852920696799E+00 -0.4117526713088E+01  0.0000000000000E+00
-0.3853245219669E+00 -0.3975478647252E+01  0.0000000000000E+00
-0.3853569741367E+00 -0.3833431094705E+01  0.0000000000000E+00
-0.3853894262249E+00 -0.3691383899252E+01  0.0000000000000E+00
-0.3854218783793E+00 -0.3549336413747E+01  0.0000000000000E+00
-0.3854543371239E+00 -0.3407288850054E+01  0.0000000000000E+00
-0.3855595009964E+00 -0.3265241606887E+01  0.0000000000000E+00
-0.3860643389748E+00 -0.3123201747316E+01  0.0000000000000E+00
-0.3872833451925E+00 -0.2981198766933E+01  0.0000000000000E+00
-0.3894043871064E+00 -0.2839286186281E+01  0.0000000000000E+00
-0.3925277323691E+00 -0.2697532052475E+01  0.0000000000000E+00
-0.3967260408775E+00 -0.2556015608382E+01  0.0000000000000E+00
-0.3300341831288E+00 -0.5253669776643E+01  0.0000000000000E+00
-0.3300683662665E+00 -0.5111384164838E+01  0.0000000000000E+00
-0.3301025494355E+00 -0.4969098422971E+01  0.0000000000000E+00
-0.3301367325869E+00 -0.4826812754469E+01  0.0000000000000E+00
-0.3301709157503E+00 -0.4684527035538E+01  0.0000000000000E+00
-0.3302050989127E+00 -0.4542241321194E+01  0.0000000000000E+00
-0.3302392820754E+00 -0.4399955605291E+01  0.0000000000000E+00
-0.3302734652190E+00 -0.4257669968958E+01  0.0000000000000E+00
-0.3303076483788E+00 -0.4115384265199E+01  0.0000000000000E+00
-0.3303418316378E+00 -0.3973098148860E+01  0.0000000000000E+00
-0.3303760147732E+00 -0.3830812546672E+01  0.0000000000000E+00
-0.3304101978226E+00 -0.3688527302176E+01  0.0000000000000E+00
-0.3304443809419E+00 -0.3546241767142E+01  0.0000000000000E+00
-0.3304785697134E+00 -0.3403956153788E+01  0.0000000000000E+00
-0.3305750771586E+00 -0.3261670861228E+01  0.0000000000000E+00
-0.3310141623741E+00 -0.3119392953552E+01  0.0000000000000E+00
-0.3320653917546E+00 -0.2977151926563E+01  0.0000000000000E+00
-0.3338897945613E+00 -0.2835001300358E+01  0.0000000000000E+00
-0.3365733145004E+00 -0.2693009121923E+01  0.0000000000000E+00
-0.3401782315055E+00 -0.2551254633346E+01  0.0000000000000E+00
-0.2750329875798E+00 -0.5253468061775E+01  0.0000000000000E+00
-0.2750659751682E+00 -0.5110980735051E+01  0.0000000000000E+00
-0.2750989627867E+00 -0.4968493278080E+01  0.0000000000000E+00
-0.2751319503883E+00 -0.4826005894578E+01  0.0000000000000E+00
-0.2751649380015E+00 -0.4683518460575E+01  0.0000000000000E+00
-0.2751979256136E+00 -0.4541031031166E+01  0.0000000000000E+00
-0.2752309132262E+00 -0.4398543600195E+01  0.0000000000000E+00
-0.2752639008202E+00 -0.4256056248908E+01  0.0000000000000E+00
-0.2752968884299E+00 -0.4113568830098E+01  0.0000000000000E+00
-0.2753298761353E+00 -0.3971080998124E+01  0.0000000000000E+00
-0.2753628637215E+00 -0.3828593681030E+01  0.0000000000000E+00
-0.2753958512247E+00 -0.3686106722135E+01  0.0000000000000E+00
-0.2754288387953E+00 -0.3543619472290E+01  0.0000000000000E+00
-0.2754618310785E+00 -0.3401132144014E+01  0.0000000000000E+00
-0.2755467555836E+00 -0.3258645136760E+01  0.0000000000000E+00
-0.2759171615343E+00 -0.3116165515478E+01  0.0000000000000E+00
-0.2767976875851E+00 -0.2973722776156E+01  0.0000000000000E+00
-0.2783225247937E+00 -0.2831370438509E+01  0.0000000000000E+00
-0.2805632929172E+00 -0.2689176549415E+01  0.0000000000000E+00
-0.2835718919149E+00 -0.2547220350301E+01  0.0000000000000E+00
-0.2200293435456E+00 -0.5253302824972E+01  0.0000000000000E+00
-0.2200586870988E+00 -0.5110650261402E+01  0.0000000000000E+00
-0.2200880306788E+00 -0.4967997567433E+01  0.0000000000000E+00
-0.2201173742437E+00 -0.4825344947019E+01  0.0000000000000E+00
-0.2201467178190E+00 -0.4682692276045E+01  0.0000000000000E+00
-0.2201760613933E+00 -0.4540039609671E+01  0.0000000000000E+00
-0.2202054049680E+00 -0.4397386941733E+01  0.0000000000000E+00
-0.2202347485263E+00 -0.4254734353571E+01  0.0000000000000E+00
-0.2202640920984E+00 -0.4112081697808E+01  0.0000000000000E+00
-0.2202934357557E+00 -0.3969428628402E+01  0.0000000000000E+00
-0.2203227793069E+00 -0.3826776074473E+01  0.0000000000000E+00
-0.2203521227844E+00 -0.3684123879158E+01  0.0000000000000E+00
-0.2203814663217E+00 -0.3541471392556E+01  0.0000000000000E+00
-0.2204108136308E+00 -0.3398818827432E+01  0.0000000000000E+00
-0.2204817067134E+00 -0.3256166583516E+01  0.0000000000000E+00
-0.2207809849334E+00 -0.3113521726466E+01  0.0000000000000E+00
-0.2214883592102E+00 -0.2970913752415E+01  0.0000000000000E+00
-0.2227111823948E+00 -0.2828396180772E+01  0.0000000000000E+00
-0.2245067502950E+00 -0.2686037058322E+01  0.0000000000000E+00
-0.2269165828884E+00 -0.2543915625953E+01  0.0000000000000E+00
-0.1650237339705E+00 -0.5253174184219E+01  0.0000000000000E+00
-0.1650474679472E+00 -0.5110392979862E+01  0.0000000000000E+00
-0.1650712019455E+00 -0.4967611644990E+01  0.0000000000000E+00
-0.1650949359316E+00 -0.4824830383738E+01  0.0000000000000E+00
-0.1651186699262E+00 -0.4682049071881E+01  0.0000000000000E+00
-0.1651424039200E+00 -0.4539267764627E+01  0.0000000000000E+00
-0.1651661379140E+00 -0.4396486455809E+01  0.0000000000000E+00
-0.1651898718948E+00 -0.4253705226838E+01  0.0000000000000E+00
-0.1652136058868E+00 -0.4110923930206E+01  0.0000000000000E+00
-0.1652373399476E+00 -0.3968142219557E+01  0.0000000000000E+00
-0.1652610739227E+00 -0.3825361024850E+01  0.0000000000000E+00
-0.1652848078381E+00 -0.3682580189081E+01  0.0000000000000E+00
-0.1653085418019E+00 -0.3539799061762E+01  0.0000000000000E+00
-0.1653322785955E+00 -0.3397017855850E+01  0.0000000000000E+00
-0.1653871747171E+00 -0.3254236971291E+01  0.0000000000000E+00
-0.1656133596826E+00 -0.3111463474293E+01  0.0000000000000E+00
-0.1661456166809E+00 -0.2968726861105E+01  0.0000000000000E+00
-0.1670644603550E+00 -0.2826080650893E+01  0.0000000000000E+00
-0.1684128625626E+00 -0.2683592890375E+01  0.0000000000000E+00
-0.1702219632944E+00 -0.2541342820014E+01  0.0000000000000E+00
-0.1100166455261E+00 -0.5253082231740E+01  0.0000000000000E+00
-0.1100332910566E+00 -0.5110209074880E+01  0.0000000000000E+00
-0.1100499366023E+00 -0.4967335787421E+01  0.0000000000000E+00
-0.1100665821393E+00 -0.4824462573629E+01  0.0000000000000E+00
-0.1100832276823E+00 -0.4681589309200E+01  0.0000000000000E+00
-0.1100998732248E+00 -0.4538716049377E+01  0.0000000000000E+00
-0.1101165187674E+00 -0.4395842787989E+01  0.0000000000000E+00
-0.1101331643008E+00 -0.4252969606499E+01  0.0000000000000E+00
-0.1101498098420E+00 -0.4110096357304E+01  0.0000000000000E+00
-0.1101664554315E+00 -0.3967222693827E+01  0.0000000000000E+00
-0.1101831009608E+00 -0.3824349546623E+01  0.0000000000000E+00
-0.1101997464483E+00 -0.3681476758588E+01  0.0000000000000E+00
-0.1102163919698E+00 -0.3538603678815E+01  0.0000000000000E+00
-0.1102330393782E+00 -0.3395730520400E+01  0.0000000000000E+00
-0.1102704596699E+00 -0.3252857683440E+01  0.0000000000000E+00
-0.1104220725155E+00 -0.3109992234539E+01  0.0000000000000E+00
-0.1107777333714E+00 -0.2967163670027E+01  0.0000000000000E+00
-0.1113911186671E+00 -0.2824425508897E+01  0.0000000000000E+00
-0.1122908763089E+00 -0.2681845797819E+01  0.0000000000000E+00
-0.1134977662945E+00 -0.2539503776953E+01  0.0000000000000E+00
-0.5500856980634E-01 -0.5253027033723E+01  0.0000000000000E+00
-0.5501713961491E-01 -0.5110098678832E+01  0.0000000000000E+00
-0.5502570943131E-01 -0.4967170193291E+01  0.0000000000000E+00
-0.5503427924330E-01 -0.4824241781446E+01  0.0000000000000E+00
-0.5504284905832E-01 -0.4681313318944E+01  0.0000000000000E+00
-0.5505141887307E-01 -0.4538384861050E+01  0.0000000000000E+00
-0.5505998868791E-01 -0.4395456401590E+01  0.0000000000000E+00
-0.5506855849796E-01 -0.4252528022059E+01  0.0000000000000E+00
-0.5507712831207E-01 -0.4109599574797E+01  0.0000000000000E+00
-0.5508569815103E-01 -0.3966670713093E+01  0.0000000000000E+00
-0.5509426795902E-01 -0.3823742367861E+01  0.0000000000000E+00
-0.5510283774547E-01 -0.3680814381938E+01  0.0000000000000E+00
-0.5511140754941E-01 -0.3537886104164E+01  0.0000000000000E+00
-0.5511997829697E-01 -0.3394957747716E+01  0.0000000000000E+00
-0.5513893548487E-01 -0.3252029712787E+01  0.0000000000000E+00
-0.5521498894504E-01 -0.3109109066214E+01  0.0000000000000E+00
-0.5539306640466E-01 -0.2966225304378E+01  0.0000000000000E+00
-0.5570000607972E-01 -0.2823431946169E+01  0.0000000000000E+00
-0.5615013192522E-01 -0.2680797038225E+01  0.0000000000000E+00
-0.5675382394310E-01 -0.2538399820527E+01  0.0000000000000E+00
 0.2586130350808E-09 -0.5253008629958E+01  0.0000000000000E+00
 0.5172256601449E-09 -0.5110061871298E+01  0.0000000000000E+00
 0.7758385821472E-09 -0.4967114981970E+01  0.0000000000000E+00
 0.1034451569195E-08 -0.4824168166348E+01  0.0000000000000E+00
 0.1293064691484E-08 -0.4681221300063E+01  0.0000000000000E+00
 0.1551677513824E-08 -0.4538274438386E+01  0.0000000000000E+00
 0.1810290616615E-08 -0.4395327575143E+01  0.0000000000000E+00
 0.2068903405171E-08 -0.4252380791840E+01  0.0000000000000E+00
 0.2327516540931E-08 -0.4109433940796E+01  0.0000000000000E+00
 0.2586130276001E-08 -0.3966486675257E+01  0.0000000000000E+00
 0.2844742917910E-08 -0.3823539926257E+01  0.0000000000000E+00
 0.3103355117904E-08 -0.3680593536612E+01  0.0000000000000E+00
 0.3361968023738E-08 -0.3537646855078E+01  0.0000000000000E+00
 0.3620583073352E-08 -0.3394700094860E+01  0.0000000000000E+00
 0.3881250960952E-08 -0.3251753656182E+01  0.0000000000000E+00
 0.4148364430762E-08 -0.3108814605960E+01  0.0000000000000E+00
 0.4423439533222E-08 -0.2965912440590E+01  0.0000000000000E+00
 0.4704896361906E-08 -0.2823100678929E+01  0.0000000000000E+00
 0.4989327229826E-08 -0.2680447367604E+01  0.0000000000000E+00
 0.5271972088678E-08 -0.2538031746537E+01  0.0000000000000E+00
 0.5500857032352E-01 -0.5253027033730E+01  0.0000000000000E+00
 0.5501714064927E-01 -0.5110098678846E+01  0.0000000000000E+00
 0.5502571098285E-01 -0.4967170193312E+01  0.0000000000000E+00
 0.5503428131201E-01 -0.4824241781474E+01  0.0000000000000E+00
 0.5504285164421E-01 -0.4681313318979E+01  0.0000000000000E+00
 0.5505142197614E-01 -0.4538384861093E+01  0.0000000000000E+00
 0.5505999230816E-01 -0.4395456401639E+01  0.0000000000000E+00
 0.5506856263538E-01 -0.4252528022116E+01  0.0000000000000E+00
 0.5507713296667E-01 -0.4109599574861E+01  0.0000000000000E+00
 0.5508570332281E-01 -0.3966670713164E+01  0.0000000000000E+00
 0.5509427364798E-01 -0.3823742367940E+01  0.0000000000000E+00
 0.5510284395160E-01 -0.3680814382023E+01  0.0000000000000E+00
 0.5511141427273E-01 -0.3537886104256E+01  0.0000000000000E+00
 0.5511998553747E-01 -0.3394957747815E+01  0.0000000000000E+00
 0.5513894324665E-01 -0.3252029712893E+01  0.0000000000000E+00
 0.5521499724101E-01 -0.3109109066327E+01  0.0000000000000E+00
 0.5539307525073E-01 -0.2966225304499E+01  0.0000000000000E+00
 0.5570001548866E-01 -0.2823431946297E+01  0.0000000000000E+00
 0.5615014190297E-01 -0.2680797038360E+01  0.0000000000000E+00
 0.5675383448609E-01 -0.2538399820670E+01  0.0000000000000E+00
 0.1100166460432E+00 -0.5253082231754E+01  0.0000000000000E+00
 0.1100332920907E+00 -0.5110209074909E+01  0.0000000000000E+00
 0.1100499381534E+00 -0.4967335787463E+01  0.0000000000000E+00
 0.1100665842075E+00 -0.4824462573686E+01  0.0000000000000E+00
 0.1100832302675E+00 -0.4681589309271E+01  0.0000000000000E+00
 0.1100998763270E+00 -0.4538716049463E+01  0.0000000000000E+00
 0.1101165223867E+00 -0.4395842788088E+01  0.0000000000000E+00
 0.1101331684370E+00 -0.4252969606613E+01  0.0000000000000E+00
 0.1101498144953E+00 -0.4110096357432E+01  0.0000000000000E+00
 0.1101664606018E+00 -0.3967222693969E+01  0.0000000000000E+00
 0.1101831066482E+00 -0.3824349546779E+01  0.0000000000000E+00
 0.1101997526527E+00 -0.3681476758759E+01  0.0000000000000E+00
 0.1102163986912E+00 -0.3538603679000E+01  0.0000000000000E+00
 0.1102330466167E+00 -0.3395730520598E+01  0.0000000000000E+00
 0.1102704674296E+00 -0.3252857683653E+01  0.0000000000000E+00
 0.1104220808092E+00 -0.3109992234766E+01  0.0000000000000E+00
 0.1107777422150E+00 -0.2967163670268E+01  0.0000000000000E+00
 0.1113911280734E+00 -0.2824425509153E+01  0.0000000000000E+00
 0.1122908862840E+00 -0.2681845798089E+01  0.0000000000000E+00
 0.1134977768347E+00 -0.2539503777237E+01  0.0000000000000E+00
 0.1650237344873E+00 -0.5253174184240E+01  0.0000000000000E+00
 0.1650474689808E+00 -0.5110392979905E+01  0.0000000000000E+00
 0.1650712034959E+00 -0.4967611645054E+01  0.0000000000000E+00
 0.1650949379988E+00 -0.4824830383823E+01  0.0000000000000E+00
 0.1651186725102E+00 -0.4682049071987E+01  0.0000000000000E+00
 0.1651424070207E+00 -0.4539267764755E+01  0.0000000000000E+00
 0.1651661415316E+00 -0.4396486455958E+01  0.0000000000000E+00
 0.1651898760291E+00 -0.4253705227009E+01  0.0000000000000E+00
 0.1652136105379E+00 -0.4110923930397E+01  0.0000000000000E+00
 0.1652373451156E+00 -0.3968142219770E+01  0.0000000000000E+00
 0.1652610796074E+00 -0.3825361025084E+01  0.0000000000000E+00
 0.1652848140396E+00 -0.3682580189336E+01  0.0000000000000E+00
 0.1653085485203E+00 -0.3539799062038E+01  0.0000000000000E+00
 0.1653322858307E+00 -0.3397017856148E+01  0.0000000000000E+00
 0.1653871824732E+00 -0.3254236971610E+01  0.0000000000000E+00
 0.1656133679725E+00 -0.3111463474633E+01  0.0000000000000E+00
 0.1661456255205E+00 -0.2968726861467E+01  0.0000000000000E+00
 0.1670644697571E+00 -0.2826080651276E+01  0.0000000000000E+00
 0.1684128725331E+00 -0.2683592890779E+01  0.0000000000000E+00
 0.1702219738297E+00 -0.2541342820440E+01  0.0000000000000E+00
 0.2200293440620E+00 -0.5253302825001E+01  0.0000000000000E+00
 0.2200586881317E+00 -0.5110650261459E+01  0.0000000000000E+00
 0.2200880322282E+00 -0.4967997567518E+01  0.0000000000000E+00
 0.2201173763095E+00 -0.4825344947132E+01  0.0000000000000E+00
 0.2201467204013E+00 -0.4682692276187E+01  0.0000000000000E+00
 0.2201760644921E+00 -0.4540039609841E+01  0.0000000000000E+00
 0.2202054085833E+00 -0.4397386941932E+01  0.0000000000000E+00
 0.2202347526580E+00 -0.4254734353798E+01  0.0000000000000E+00
 0.2202640967466E+00 -0.4112081698064E+01  0.0000000000000E+00
 0.2202934409203E+00 -0.3969428628686E+01  0.0000000000000E+00
 0.2203227849880E+00 -0.3826776074785E+01  0.0000000000000E+00
 0.2203521289819E+00 -0.3684123879499E+01  0.0000000000000E+00
 0.2203814730358E+00 -0.3541471392925E+01  0.0000000000000E+00
 0.2204108208614E+00 -0.3398818827829E+01  0.0000000000000E+00
 0.2204817144645E+00 -0.3256166583942E+01  0.0000000000000E+00
 0.2207809932180E+00 -0.3113521726920E+01  0.0000000000000E+00
 0.2214883680441E+00 -0.2970913752898E+01  0.0000000000000E+00
 0.2227111917910E+00 -0.2828396181283E+01  0.0000000000000E+00
 0.2245067602592E+00 -0.2686037058862E+01  0.0000000000000E+00
 0.2269165934171E+00 -0.2543915626520E+01  0.0000000000000E+00
 0.2750329880958E+00 -0.5253468061811E+01  0.0000000000000E+00
 0.2750659762003E+00 -0.5110980735122E+01  0.0000000000000E+00
 0.2750989643348E+00 -0.4968493278186E+01  0.0000000000000E+00
 0.2751319524524E+00 -0.4826005894719E+01  0.0000000000000E+00
 0.2751649405817E+00 -0.4683518460752E+01  0.0000000000000E+00
 0.2751979287099E+00 -0.4541031031378E+01  0.0000000000000E+00
 0.2752309168384E+00 -0.4398543600443E+01  0.0000000000000E+00
 0.2752639049485E+00 -0.4256056249192E+01  0.0000000000000E+00
 0.2752968930743E+00 -0.4113568830417E+01  0.0000000000000E+00
 0.2753298812957E+00 -0.3971080998479E+01  0.0000000000000E+00
 0.2753628693979E+00 -0.3828593681420E+01  0.0000000000000E+00
 0.2753958574172E+00 -0.3686106722560E+01  0.0000000000000E+00
 0.2754288455038E+00 -0.3543619472750E+01  0.0000000000000E+00
 0.2754618383031E+00 -0.3401132144510E+01  0.0000000000000E+00
 0.2755467633283E+00 -0.3258645137291E+01  0.0000000000000E+00
 0.2759171698120E+00 -0.3116165516045E+01  0.0000000000000E+00
 0.2767976964118E+00 -0.2973722776758E+01  0.0000000000000E+00
 0.2783225341821E+00 -0.2831370439147E+01  0.0000000000000E+00
 0.2805633028733E+00 -0.2689176550089E+01  0.0000000000000E+00
 0.2835719024352E+00 -0.2547220351010E+01  0.0000000000000E+00
 0.3300341836443E+00 -0.5253669776685E+01  0.0000000000000E+00
 0.3300683672976E+00 -0.5111384164923E+01  0.0000000000000E+00
 0.3301025509821E+00 -0.4969098423099E+01  0.0000000000000E+00
 0.3301367346489E+00 -0.4826812754639E+01  0.0000000000000E+00
 0.3301709183279E+00 -0.4684527035750E+01  0.0000000000000E+00
 0.3302051020058E+00 -0.4542241321449E+01  0.0000000000000E+00
 0.3302392856840E+00 -0.4399955605588E+01  0.0000000000000E+00
 0.3302734693432E+00 -0.4257669969298E+01  0.0000000000000E+00
 0.3303076530185E+00 -0.4115384265581E+01  0.0000000000000E+00
 0.3303418367930E+00 -0.3973098149285E+01  0.0000000000000E+00
 0.3303760204439E+00 -0.3830812547139E+01  0.0000000000000E+00
 0.3304102040089E+00 -0.3688527302685E+01  0.0000000000000E+00
 0.3304443876437E+00 -0.3546241767694E+01  0.0000000000000E+00
 0.3304785769307E+00 -0.3403956154382E+01  0.0000000000000E+00
 0.3305750848955E+00 -0.3261670861865E+01  0.0000000000000E+00
 0.3310141706435E+00 -0.3119392954231E+01  0.0000000000000E+00
 0.3320654005725E+00 -0.2977151927285E+01  0.0000000000000E+00
 0.3338898039404E+00 -0.2835001301123E+01  0.0000000000000E+00
 0.3365733244467E+00 -0.2693009122731E+01  0.0000000000000E+00
 0.3401782420153E+00 -0.2551254634195E+01  0.0000000000000E+00
 0.3850324526784E+00 -0.5253907826288E+01  0.0000000000000E+00
 0.3850649053653E+00 -0.5111860264191E+01  0.0000000000000E+00
 0.3850973580818E+00 -0.4969812572248E+01  0.0000000000000E+00
 0.3851298107816E+00 -0.4827764953548E+01  0.0000000000000E+00
 0.3851622634929E+00 -0.4685717284504E+01  0.0000000000000E+00
 0.3851947162032E+00 -0.4543669620039E+01  0.0000000000000E+00
 0.3852271689138E+00 -0.4401621954017E+01  0.0000000000000E+00
 0.3852596216062E+00 -0.4259574367432E+01  0.0000000000000E+00
 0.3852920743141E+00 -0.4117526713534E+01  0.0000000000000E+00
 0.3853245271160E+00 -0.3975478647746E+01  0.0000000000000E+00
 0.3853569798007E+00 -0.3833431095249E+01  0.0000000000000E+00
 0.3853894324038E+00 -0.3691383899846E+01  0.0000000000000E+00
 0.3854218850732E+00 -0.3549336414390E+01  0.0000000000000E+00
 0.3854543443327E+00 -0.3407288850746E+01  0.0000000000000E+00
 0.3855595087242E+00 -0.3265241607629E+01  0.0000000000000E+00
 0.3860643472344E+00 -0.3123201748107E+01  0.0000000000000E+00
 0.3872833540001E+00 -0.2981198767774E+01  0.0000000000000E+00
 0.3894043964745E+00 -0.2839286187172E+01  0.0000000000000E+00
 0.3925277423038E+00 -0.2697532053416E+01  0.0000000000000E+00
 0.3967260513752E+00 -0.2556015609372E+01  0.0000000000000E+00
 0.4400273262340E+00 -0.5254182042777E+01  0.0000000000000E+00
 0.4400546524752E+00 -0.5112408697241E+01  0.0000000000000E+00
 0.4400819787414E+00 -0.4970635222111E+01  0.0000000000000E+00
 0.4401093049934E+00 -0.4828861820081E+01  0.0000000000000E+00
 0.4401366312551E+00 -0.4687088367803E+01  0.0000000000000E+00
 0.4401639575160E+00 -0.4545314920097E+01  0.0000000000000E+00
 0.4401912837772E+00 -0.4403541470837E+01  0.0000000000000E+00
 0.4402186100230E+00 -0.4261768100861E+01  0.0000000000000E+00
 0.4402459362818E+00 -0.4119994663700E+01  0.0000000000000E+00
 0.4402732626199E+00 -0.3978220815446E+01  0.0000000000000E+00
 0.4403005888592E+00 -0.3836447479492E+01  0.0000000000000E+00
 0.4403279150298E+00 -0.3694674499941E+01  0.0000000000000E+00
 0.4403552412563E+00 -0.3552901230899E+01  0.0000000000000E+00
 0.4403825750089E+00 -0.3411127883819E+01  0.0000000000000E+00
 0.4404930003539E+00 -0.3269354856956E+01  0.0000000000000E+00
 0.4410601961841E+00 -0.3127589212208E+01  0.0000000000000E+00
 0.4424435843879E+00 -0.2985860444920E+01  0.0000000000000E+00
 0.4448578706140E+00 -0.2844222076151E+01  0.0000000000000E+00
 0.4484176464560E+00 -0.2702742153163E+01  0.0000000000000E+00
 0.4532059517560E+00 -0.2561499919722E+01  0.0000000000000E+00
 0.4950183390892E+00 -0.5254492233831E+01  0.0000000000000E+00
 0.4950366781832E+00 -0.5113029079429E+01  0.0000000000000E+00
 0.4950550172940E+00 -0.4971565795715E+01  0.0000000000000E+00
 0.4950733563953E+00 -0.4830102584943E+01  0.0000000000000E+00
 0.4950916955031E+00 -0.4688639324033E+01  0.0000000000000E+00
 0.4951100346103E+00 -0.4547176067685E+01  0.0000000000000E+00
 0.4951283737177E+00 -0.4405712809785E+01  0.0000000000000E+00
 0.4951467128149E+00 -0.4264249630997E+01  0.0000000000000E+00
 0.4951650519207E+00 -0.4122786385170E+01  0.0000000000000E+00
 0.4951833910797E+00 -0.3981322729150E+01  0.0000000000000E+00
 0.4952017301725E+00 -0.3839859584309E+01  0.0000000000000E+00
 0.4952200692191E+00 -0.3698396795092E+01  0.0000000000000E+00
 0.4952384083032E+00 -0.3556933717016E+01  0.0000000000000E+00
 0.4952567558475E+00 -0.3415470561073E+01  0.0000000000000E+00
 0.4953685814465E+00 -0.3274007724999E+01  0.0000000000000E+00
 0.4959942739051E+00 -0.3132552269362E+01  0.0000000000000E+00
 0.4975381828571E+00 -0.2991133689231E+01  0.0000000000000E+00
 0.5002418521327E+00 -0.2849805506248E+01  0.0000000000000E+00
 0.5042341972681E+00 -0.2708635767841E+01  0.0000000000000E+00
 0.5096086380451E+00 -0.2567703718793E+01  0.0000000000000E+00
 0.5500050399027E+00 -0.5254838184355E+01  0.0000000000000E+00
 0.5500100798067E+00 -0.5113720980567E+01  0.0000000000000E+00
 0.5500151197153E+00 -0.4972603647784E+01  0.0000000000000E+00
 0.5500201596213E+00 -0.4831486387763E+01  0.0000000000000E+00
 0.5500251995292E+00 -0.4690369077728E+01  0.0000000000000E+00
 0.5500302394368E+00 -0.4549251772243E+01  0.0000000000000E+00
 0.5500352793445E+00 -0.4408134465210E+01  0.0000000000000E+00
 0.5500403192494E+00 -0.4267017237096E+01  0.0000000000000E+00
 0.5500453591566E+00 -0.4125899942107E+01  0.0000000000000E+00
 0.5500503990785E+00 -0.3984782237928E+01  0.0000000000000E+00
 0.5500554389822E+00 -0.3843665043677E+01  0.0000000000000E+00
 0.5500604788732E+00 -0.3702548204181E+01  0.0000000000000E+00
 0.5500655187745E+00 -0.3561431076532E+01  0.0000000000000E+00
 0.5500705680675E+00 -0.3420313871207E+01  0.0000000000000E+00
 0.5501794818859E+00 -0.3279196985361E+01  0.0000000000000E+00
 0.5508593589810E+00 -0.3138087478083E+01  0.0000000000000E+00
 0.5525594767504E+00 -0.2997014844131E+01  0.0000000000000E+00
 0.5555482172075E+00 -0.2856032605797E+01  0.0000000000000E+00
 0.5599688198328E+00 -0.2715208810696E+01  0.0000000000000E+00
 0.5659250843377E+00 -0.2574622704745E+01  0.0000000000000E+00
 0.6050338360675E+00 -0.5255226710895E+01  0.0000000000000E+00
 0.6050676721439E+00 -0.5114498033748E+01  0.0000000000000E+00
 0.6051015082511E+00 -0.4973769227961E+01  0.0000000000000E+00
 0.6051353443409E+00 -0.4833040494737E+01  0.0000000000000E+00
 0.6051691804428E+00 -0.4692311711635E+01  0.0000000000000E+00
 0.6052030165435E+00 -0.4551582933071E+01  0.0000000000000E+00
 0.6052368526446E+00 -0.4410854152964E+01  0.0000000000000E+00
 0.6052706887267E+00 -0.4270125451557E+01  0.0000000000000E+00
 0.6053045248249E+00 -0.4129396683461E+01  0.0000000000000E+00
 0.6053383610213E+00 -0.3988667507301E+01  0.0000000000000E+00
 0.6053721970953E+00 -0.3847938839665E+01  0.0000000000000E+00
 0.6054060330843E+00 -0.3707210525807E+01  0.0000000000000E+00
 0.6054398691424E+00 -0.3566481924590E+01  0.0000000000000E+00
 0.6054737155554E+00 -0.3425753245910E+01  0.0000000000000E+00
 0.6056219066905E+00 -0.3285024886272E+01  0.0000000000000E+00
 0.6063986727825E+00 -0.3144303903102E+01  0.0000000000000E+00
 0.6082986245826E+00 -0.3003619790810E+01  0.0000000000000E+00
 0.6116172246730E+00 -0.2863026072418E+01  0.0000000000000E+00
 0.6165121658248E+00 -0.2722590795751E+01  0.0000000000000E+00
 0.6230977215312E+00 -0.2582393207998E+01  0.0000000000000E+00
 0.6600572466551E+00 -0.5255651750514E+01  0.0000000000000E+00
 0.6601144933251E+00 -0.5115348113097E+01  0.0000000000000E+00
 0.6601717400474E+00 -0.4975044347428E+01  0.0000000000000E+00
 0.6602289867402E+00 -0.4834740654103E+01  0.0000000000000E+00
 0.6602862334533E+00 -0.4694436911051E+01  0.0000000000000E+00
 0.6603434801645E+00 -0.4554133172523E+01  0.0000000000000E+00
 0.6604007268764E+00 -0.4413829432457E+01  0.0000000000000E+00
 0.6604579735562E+00 -0.4273525770853E+01  0.0000000000000E+00
 0.6605152202632E+00 -0.4133222042762E+01  0.0000000000000E+00
 0.6605724671362E+00 -0.3992917907838E+01  0.0000000000000E+00
 0.6606297138023E+00 -0.3852614279903E+01  0.0000000000000E+00
 0.6606869603245E+00 -0.3712311004678E+01  0.0000000000000E+00
 0.6607442069636E+00 -0.3572007442961E+01  0.0000000000000E+00
 0.6608014649180E+00 -0.3431703804016E+01  0.0000000000000E+00
 0.6609835477975E+00 -0.3291400483634E+01  0.0000000000000E+00
 0.6618518173453E+00 -0.3151104537422E+01  0.0000000000000E+00
 0.6639462176727E+00 -0.3010845459411E+01  0.0000000000000E+00
 0.6675892919216E+00 -0.2870676773420E+01  0.0000000000000E+00
 0.6729531861512E+00 -0.2730666527503E+01  0.0000000000000E+00
 0.6801626476195E+00 -0.2590893970244E+01  0.0000000000000E+00
 0.7150748261982E+00 -0.5256113007117E+01  0.0000000000000E+00
 0.7151496524158E+00 -0.5116270626423E+01  0.0000000000000E+00
 0.7152244787019E+00 -0.4976428117899E+01  0.0000000000000E+00
 0.7152993049494E+00 -0.4836585681481E+01  0.0000000000000E+00
 0.7153741312234E+00 -0.4696743195499E+01  0.0000000000000E+00
 0.7154489574949E+00 -0.4556900714027E+01  0.0000000000000E+00
 0.7155237837673E+00 -0.4417058231021E+01  0.0000000000000E+00
 0.7155986099979E+00 -0.4277215826220E+01  0.0000000000000E+00
 0.7156734362639E+00 -0.4137373355149E+01  0.0000000000000E+00
 0.7157482627469E+00 -0.3997530478585E+01  0.0000000000000E+00
 0.7158230889595E+00 -0.3857688107342E+01  0.0000000000000E+00
 0.7158979149840E+00 -0.3717846087649E+01  0.0000000000000E+00
 0.7159727411613E+00 -0.3578003782406E+01  0.0000000000000E+00
 0.7160475796108E+00 -0.3438161400189E+01  0.0000000000000E+00
 0.7162577231963E+00 -0.3298319336015E+01  0.0000000000000E+00
 0.7172116651979E+00 -0.3158484643520E+01  0.0000000000000E+00
 0.7194946830966E+00 -0.3018686816319E+01  0.0000000000000E+00
 0.7234564005855E+00 -0.2878979379097E+01  0.0000000000000E+00
 0.7292834170099E+00 -0.2739430380160E+01  0.0000000000000E+00
 0.7371109533744E+00 -0.2600119069601E+01  0.0000000000000E+00
 0.7700861421484E+00 -0.5256610163483E+01  0.0000000000000E+00
 0.7701722843191E+00 -0.5117264939285E+01  0.0000000000000E+00
 0.7702584265687E+00 -0.4977919587712E+01  0.0000000000000E+00
 0.7703445687738E+00 -0.4838574307987E+01  0.0000000000000E+00
 0.7704307110094E+00 -0.4699228978876E+01  0.0000000000000E+00
 0.7705168532423E+00 -0.4559883654257E+01  0.0000000000000E+00
 0.7706029954761E+00 -0.4420538328111E+01  0.0000000000000E+00
 0.7706891376617E+00 -0.4281193079892E+01  0.0000000000000E+00
 0.7707752798882E+00 -0.4141847765638E+01  0.0000000000000E+00
 0.7708614223644E+00 -0.4002502047332E+01  0.0000000000000E+00
 0.7709475645294E+00 -0.3863156832551E+01  0.0000000000000E+00
 0.7710337064778E+00 -0.3723811968070E+01  0.0000000000000E+00
 0.7711198486021E+00 -0.3584466819056E+01  0.0000000000000E+00
 0.7712060039523E+00 -0.3445121593340E+01  0.0000000000000E+00
 0.7714379446580E+00 -0.3305776685107E+01  0.0000000000000E+00
 0.7724712955720E+00 -0.3166439145866E+01  0.0000000000000E+00
 0.7749366675585E+00 -0.3027138468787E+01  0.0000000000000E+00
 0.7792107648549E+00 -0.2887928179489E+01  0.0000000000000E+00
 0.7854946400917E+00 -0.2748876326545E+01  0.0000000000000E+00
 0.7939339880016E+00 -0.2610062161679E+01  0.0000000000000E+00
 0.8250907738018E+00 -0.5257142882043E+01  0.0000000000000E+00
 0.8251815476272E+00 -0.5118330376543E+01  0.0000000000000E+00
 0.8252723215356E+00 -0.4979517744154E+01  0.0000000000000E+00
 0.8253630953971E+00 -0.4840705183341E+01  0.0000000000000E+00
 0.8254538692909E+00 -0.4701892573328E+01  0.0000000000000E+00
 0.8255446431817E+00 -0.4563079967792E+01  0.0000000000000E+00
 0.8256354170735E+00 -0.4424267360734E+01  0.0000000000000E+00
 0.8257261909146E+00 -0.4285454831304E+01  0.0000000000000E+00
 0.8258169647987E+00 -0.4146642236093E+01  0.0000000000000E+00
 0.8259077389459E+00 -0.4007829238374E+01  0.0000000000000E+00
 0.8259985127652E+00 -0.3869016742256E+01  0.0000000000000E+00
 0.8260892863563E+00 -0.3730204595098E+01  0.0000000000000E+00
 0.8261800601327E+00 -0.3591392164494E+01  0.0000000000000E+00
 0.8262708480849E+00 -0.3452579657482E+01  0.0000000000000E+00
 0.8265179016194E+00 -0.3313767467354E+01  0.0000000000000E+00
 0.8276239771887E+00 -0.3174962643338E+01  0.0000000000000E+00
 0.8302650190446E+00 -0.3036194678127E+01  0.0000000000000E+00
 0.8348448119551E+00 -0.2897517098343E+01  0.0000000000000E+00
 0.8415788618325E+00 -0.2758997952843E+01  0.0000000000000E+00
 0.8506233371148E+00 -0.2620716495099E+01  0.0000000000000E+00
 0.8800883154823E+00 -0.5257710806499E+01  0.0000000000000E+00
 0.8801766309876E+00 -0.5119466225603E+01  0.0000000000000E+00
 0.8802649465736E+00 -0.4981221518339E+01  0.0000000000000E+00
 0.8803532621141E+00 -0.4842976882355E+01  0.0000000000000E+00
 0.8804415776858E+00 -0.4704732197375E+01  0.0000000000000E+00
 0.8805298932548E+00 -0.4566487516852E+01  0.0000000000000E+00
 0.8806182088247E+00 -0.4428242834814E+01  0.0000000000000E+00
 0.8807065243452E+00 -0.4289998230086E+01  0.0000000000000E+00
 0.8807948399075E+00 -0.4151753559847E+01  0.0000000000000E+00
 0.8808831557260E+00 -0.4013508488746E+01  0.0000000000000E+00
 0.8809714712253E+00 -0.3875263917193E+01  0.0000000000000E+00
 0.8810597865026E+00 -0.3737019693174E+01  0.0000000000000E+00
 0.8811481019602E+00 -0.3598775186867E+01  0.0000000000000E+00
 0.8812364325397E+00 -0.3460530604466E+01  0.0000000000000E+00
 0.8814915089355E+00 -0.3322286338308E+01  0.0000000000000E+00
 0.8826632192278E+00 -0.3184049435194E+01  0.0000000000000E+00
 0.8854728410596E+00 -0.3045849387307E+01  0.0000000000000E+00
 0.8903512397152E+00 -0.2907739722334E+01  0.0000000000000E+00
 0.8975283743833E+00 -0.2769788489441E+01  0.0000000000000E+00
 0.9071708871840E+00 -0.2632074943960E+01  0.0000000000000E+00
 0.9350783783083E+00 -0.5258313563386E+01  0.0000000000000E+00
 0.9351567566371E+00 -0.5120671739534E+01  0.0000000000000E+00
 0.9352351350374E+00 -0.4983029789865E+01  0.0000000000000E+00
 0.9353135133974E+00 -0.4845387911166E+01  0.0000000000000E+00
 0.9353918917851E+00 -0.4707745983683E+01  0.0000000000000E+00
 0.9354702701704E+00 -0.4570104060639E+01  0.0000000000000E+00
 0.9355486485564E+00 -0.4432462136085E+01  0.0000000000000E+00
 0.9356270268987E+00 -0.4294820288506E+01  0.0000000000000E+00
 0.9357054052781E+00 -0.4157178375700E+01  0.0000000000000E+00
 0.9357837838847E+00 -0.4019536063780E+01  0.0000000000000E+00
 0.9358621622082E+00 -0.3881894249231E+01  0.0000000000000E+00
 0.9359405403346E+00 -0.3744252780700E+01  0.0000000000000E+00
 0.9360189186210E+00 -0.3606611031113E+01  0.0000000000000E+00
 0.9360973129712E+00 -0.3468969205762E+01  0.0000000000000E+00
 0.9363529333840E+00 -0.3331327695976E+01  0.0000000000000E+00
 0.9375827996156E+00 -0.3193693545975E+01  0.0000000000000E+00
 0.9405535227231E+00 -0.3056096247405E+01  0.0000000000000E+00
 0.9457230485024E+00 -0.2918589329083E+01  0.0000000000000E+00
 0.9533357894199E+00 -0.2781240840502E+01  0.0000000000000E+00
 0.9635688612567E+00 -0.2644130038967E+01  0.0000000000000E+00
 0.9900605828817E+00 -0.5258950761528E+01  0.0000000000000E+00
 0.9901211657792E+00 -0.5121946135984E+01  0.0000000000000E+00
 0.9901817487321E+00 -0.4984941385205E+01  0.0000000000000E+00
 0.9902423316538E+00 -0.4847936705067E+01  0.0000000000000E+00
 0.9903029145969E+00 -0.4710931976373E+01  0.0000000000000E+00
 0.9903634975381E+00 -0.4573927252095E+01  0.0000000000000E+00
 0.9904240804799E+00 -0.4436922526316E+01  0.0000000000000E+00
 0.9904846633879E+00 -0.4299917877154E+01  0.0000000000000E+00
 0.9905452463245E+00 -0.4162913163067E+01  0.0000000000000E+00
 0.9906058294369E+00 -0.4025908051715E+01  0.0000000000000E+00
 0.9906664123303E+00 -0.3888903435431E+01  0.0000000000000E+00
 0.9907269950714E+00 -0.3751899163562E+01  0.0000000000000E+00
 0.9907875779362E+00 -0.3614894611939E+01  0.0000000000000E+00
 0.9908481778024E+00 -0.3477889984903E+01  0.0000000000000E+00
 0.9910964839831E+00 -0.3340885672714E+01  0.0000000000000E+00
 0.9923766479291E+00 -0.3203888716867E+01  0.0000000000000E+00
 0.9955006141049E+00 -0.3066928608436E+01  0.0000000000000E+00
 0.1000953408795E+01 -0.2930058877435E+01  0.0000000000000E+00
 0.1008993897733E+01 -0.2793347573700E+01  0.0000000000000E+00
 0.1019809670335E+01 -0.2656873956627E+01  0.0000000000000E+00
 0.1045034571695E+01 -0.5259621996034E+01  0.0000000000000E+00
 0.1045069143398E+01 -0.5123288605170E+01  0.0000000000000E+00
 0.1045103715133E+01 -0.4986955089685E+01  0.0000000000000E+00
 0.1045138286851E+01 -0.4850621644495E+01  0.0000000000000E+00
 0.1045172858580E+01 -0.4714288150986E+01  0.0000000000000E+00
 0.1045207430309E+01 -0.4577954661873E+01  0.0000000000000E+00
 0.1045242002038E+01 -0.4441621171265E+01  0.0000000000000E+00
 0.1045276573747E+01 -0.4305287756900E+01  0.0000000000000E+00
 0.1045311145473E+01 -0.4168954277927E+01  0.0000000000000E+00
 0.1045345717299E+01 -0.4032620403635E+01  0.0000000000000E+00
 0.1045380289001E+01 -0.3896287021986E+01  0.0000000000000E+00
 0.1045414860615E+01 -0.3759953983065E+01  0.0000000000000E+00
 0.1045449432300E+01 -0.3623620665760E+01  0.0000000000000E+00
 0.1045484021919E+01 -0.3487287273412E+01  0.0000000000000E+00
 0.1045716798117E+01 -0.3350954195155E+01  0.0000000000000E+00
 0.1047039044088E+01 -0.3214628469612E+01  0.0000000000000E+00
 0.1050308037722E+01 -0.3078339587256E+01  0.0000000000000E+00
 0.1056035885785E+01 -0.2942141079361E+01  0.0000000000000E+00
 0.1064495907279E+01 -0.2806100996127E+01  0.0000000000000E+00
 0.1075886165228E+01 -0.2670298599149E+01  0.0000000000000E+00
-0.5189598939104E+00 -0.2255940513959E+01  0.0000000000000E+00
-0.5271169112493E+00 -0.2084990235915E+01  0.0000000000000E+00
-0.5425665664992E+00 -0.1914667984174E+01  0.0000000000000E+00
-0.5663324978320E+00 -0.1745533649698E+01  0.0000000000000E+00
-0.5964735702733E+00 -0.1577645051729E+01  0.0000000000000E+00
-0.6266146424383E+00 -0.1409756453710E+01  0.0000000000000E+00
-0.6503805730454E+00 -0.1240622119134E+01  0.0000000000000E+00
-0.6658302273182E+00 -0.1070299867305E+01  0.0000000000000E+00
-0.6739872435765E+00 -0.8993495892103E+00  0.0000000000000E+00
-0.4616243249426E+00 -0.2248387734663E+01  0.0000000000000E+00
-0.4689701252857E+00 -0.2076398692064E+01  0.0000000000000E+00
-0.4827982649593E+00 -0.1905037719722E+01  0.0000000000000E+00
-0.5040186478771E+00 -0.1734864670067E+01  0.0000000000000E+00
-0.5309058304983E+00 -0.1565937259735E+01  0.0000000000000E+00
-0.5577930128432E+00 -0.1397009849359E+01  0.0000000000000E+00
-0.5790133950352E+00 -0.1226836799614E+01  0.0000000000000E+00
-0.5928415337318E+00 -0.1055475827195E+01  0.0000000000000E+00
-0.6001873329943E+00 -0.8834867845503E+00  0.0000000000000E+00
-0.4041753703119E+00 -0.2241702779708E+01  0.0000000000000E+00
-0.4106776445357E+00 -0.2068787330996E+01  0.0000000000000E+00
-0.4228519617086E+00 -0.1896499991741E+01  0.0000000000000E+00
-0.4414944904039E+00 -0.1725400580007E+01  0.0000000000000E+00
-0.4650954751018E+00 -0.1555546720924E+01  0.0000000000000E+00
-0.4886964595233E+00 -0.1385692861803E+01  0.0000000000000E+00
-0.5073389874929E+00 -0.1214593449990E+01  0.0000000000000E+00
-0.5195133036886E+00 -0.1042306110667E+01  0.0000000000000E+00
-0.5260155768319E+00 -0.8693906619155E+00  0.0000000000000E+00
-0.3466260636542E+00 -0.2235893192730E+01  0.0000000000000E+00
-0.3522557649928E+00 -0.2062167201102E+01  0.0000000000000E+00
-0.3627472143020E+00 -0.1889069353229E+01  0.0000000000000E+00
-0.3787828437621E+00 -0.1717159437105E+01  0.0000000000000E+00
-0.3990685829584E+00 -0.1546494997801E+01  0.0000000000000E+00
-0.4193543218783E+00 -0.1375830558464E+01  0.0000000000000E+00
-0.4353899506126E+00 -0.1203920642272E+01  0.0000000000000E+00
-0.4458813989447E+00 -0.1030822794340E+01  0.0000000000000E+00
-0.4515110992027E+00 -0.8570968026790E+00  0.0000000000000E+00
-0.2889898247389E+00 -0.2230965660111E+01  0.0000000000000E+00
-0.2937214786972E+00 -0.2056548150390E+01  0.0000000000000E+00
-0.3025045870167E+00 -0.1882758813683E+01  0.0000000000000E+00
-0.3159078445803E+00 -0.1710157412332E+01  0.0000000000000E+00
-0.3328528634846E+00 -0.1538801423106E+01  0.0000000000000E+00
-0.3497978821126E+00 -0.1367445433853E+01  0.0000000000000E+00
-0.3632011389504E+00 -0.1194844032446E+01  0.0000000000000E+00
-0.3719842462928E+00 -0.1021054695690E+01  0.0000000000000E+00
-0.3767158991705E+00 -0.8466371859413E+00  0.0000000000000E+00
-0.2312805095959E+00 -0.2226925956594E+01  0.0000000000000E+00
-0.2350924586929E+00 -0.2051938718222E+01  0.0000000000000E+00
-0.2421455697714E+00 -0.1877579676970E+01  0.0000000000000E+00
-0.2528947996574E+00 -0.1704408574045E+01  0.0000000000000E+00
-0.2664774407363E+00 -0.1532482829943E+01  0.0000000000000E+00
-0.2800600815388E+00 -0.1360557085820E+01  0.0000000000000E+00
-0.2908093106990E+00 -0.1187385982850E+01  0.0000000000000E+00
-0.2978624208004E+00 -0.1013026941559E+01  0.0000000000000E+00
-0.3016743688168E+00 -0.8380397031648E+00  0.0000000000000E+00
-0.1735123040813E+00 -0.2223778886791E+01  0.0000000000000E+00
-0.1763869347164E+00 -0.2048346036051E+01  0.0000000000000E+00
-0.1816924359620E+00 -0.1873541401283E+01  0.0000000000000E+00
-0.1897700259706E+00 -0.1699924707165E+01  0.0000000000000E+00
-0.1999726756064E+00 -0.1527553330181E+01  0.0000000000000E+00
-0.2101753249658E+00 -0.1355181953181E+01  0.0000000000000E+00
-0.2182529142486E+00 -0.1181565259030E+01  0.0000000000000E+00
-0.2235584145172E+00 -0.1006760624233E+01  0.0000000000000E+00
-0.2264330440716E+00 -0.8313277734750E+00  0.0000000000000E+00
-0.1156996620049E+00 -0.2221528238976E+01  0.0000000000000E+00
-0.1176235944410E+00 -0.2045775743673E+01  0.0000000000000E+00
-0.1211681068127E+00 -0.1870651477865E+01  0.0000000000000E+00
-0.1265606781208E+00 -0.1696715154373E+01  0.0000000000000E+00
-0.1333699563521E+00 -0.1524024118110E+01  0.0000000000000E+00
-0.1401792343071E+00 -0.1351333081836E+01  0.0000000000000E+00
-0.1455718048894E+00 -0.1177396758322E+01  0.0000000000000E+00
-0.1491163162840E+00 -0.1002272492495E+01  0.0000000000000E+00
-0.1510402476394E+00 -0.8265199971804E+00  0.0000000000000E+00
-0.5785728304755E-01 -0.2220176748448E+01  0.0000000000000E+00
-0.5882151338833E-01 -0.2044231921702E+01  0.0000000000000E+00
-0.6059603354767E-01 -0.1868915332585E+01  0.0000000000000E+00
-0.6329458306572E-01 -0.1694786686785E+01  0.0000000000000E+00
-0.6670148611539E-01 -0.1521903310221E+01  0.0000000000000E+00
-0.7010838888866E-01 -0.1349019933651E+01  0.0000000000000E+00
-0.7280693768092E-01 -0.1174891287840E+01  0.0000000000000E+00
-0.7458145686313E-01 -0.9995746987137E+00  0.0000000000000E+00
-0.7554568612323E-01 -0.8236298719620E+00  0.0000000000000E+00
 0.4432057586367E-08 -0.2219726067398E+01  0.0000000000000E+00
 0.3329408825871E-08 -0.2043717038906E+01  0.0000000000000E+00
 0.2280456186857E-08 -0.1868336250756E+01  0.0000000000000E+00
 0.1366276625109E-08 -0.1694143406253E+01  0.0000000000000E+00
 0.6892480273810E-09 -0.1521195824981E+01  0.0000000000000E+00
 0.2886134761919E-09 -0.1348248243709E+01  0.0000000000000E+00
 0.1002344035977E-09 -0.1174055399206E+01  0.0000000000000E+00
 0.2841633228733E-10 -0.9986746110560E+00  0.0000000000000E+00
 0.6454389603188E-11 -0.8226655825638E+00  0.0000000000000E+00
 0.5785729191077E-01 -0.2220176748590E+01  0.0000000000000E+00
 0.5882152004635E-01 -0.2044231921829E+01  0.0000000000000E+00
 0.6059603810788E-01 -0.1868915332688E+01  0.0000000000000E+00
 0.6329458579768E-01 -0.1694786686856E+01  0.0000000000000E+00
 0.6670148749338E-01 -0.1521903310262E+01  0.0000000000000E+00
 0.7010838946549E-01 -0.1349019933673E+01  0.0000000000000E+00
 0.7280693788109E-01 -0.1174891287852E+01  0.0000000000000E+00
 0.7458145691976E-01 -0.9995746987208E+00  0.0000000000000E+00
 0.7554568613604E-01 -0.8236298719655E+00  0.0000000000000E+00
 0.1156996708654E+00 -0.2221528239260E+01  0.0000000000000E+00
 0.1176236010966E+00 -0.2045775743927E+01  0.0000000000000E+00
 0.1211681113708E+00 -0.1870651478071E+01  0.0000000000000E+00
 0.1265606808509E+00 -0.1696715154515E+01  0.0000000000000E+00
 0.1333699577286E+00 -0.1524024118192E+01  0.0000000000000E+00
 0.1401792348827E+00 -0.1351333081879E+01  0.0000000000000E+00
 0.1455718050887E+00 -0.1177396758346E+01  0.0000000000000E+00
 0.1491163163400E+00 -0.1002272492509E+01  0.0000000000000E+00
 0.1510402476519E+00 -0.8265199971873E+00  0.0000000000000E+00
 0.1735123129373E+00 -0.2223778887217E+01  0.0000000000000E+00
 0.1763869413680E+00 -0.2048346036432E+01  0.0000000000000E+00
 0.1816924405166E+00 -0.1873541401591E+01  0.0000000000000E+00
 0.1897700286978E+00 -0.1699924707378E+01  0.0000000000000E+00
 0.1999726769804E+00 -0.1527553330303E+01  0.0000000000000E+00
 0.2101753255395E+00 -0.1355181953245E+01  0.0000000000000E+00
 0.2182529144464E+00 -0.1181565259065E+01  0.0000000000000E+00
 0.2235584145722E+00 -0.1006760624254E+01  0.0000000000000E+00
 0.2264330440836E+00 -0.8313277734853E+00  0.0000000000000E+00
 0.2312805184457E+00 -0.2226925957162E+01  0.0000000000000E+00
 0.2350924653390E+00 -0.2051938718730E+01  0.0000000000000E+00
 0.2421455743212E+00 -0.1877579677381E+01  0.0000000000000E+00
 0.2528948023804E+00 -0.1704408574329E+01  0.0000000000000E+00
 0.2664774421068E+00 -0.1532482830106E+01  0.0000000000000E+00
 0.2800600821096E+00 -0.1360557085905E+01  0.0000000000000E+00
 0.2908093108947E+00 -0.1187385982898E+01  0.0000000000000E+00
 0.2978624208541E+00 -0.1013026941587E+01  0.0000000000000E+00
 0.3016743688281E+00 -0.8380397031785E+00  0.0000000000000E+00
 0.2889898335806E+00 -0.2230965660820E+01  0.0000000000000E+00
 0.2937214853361E+00 -0.2056548151024E+01  0.0000000000000E+00
 0.3025045915602E+00 -0.1882758814196E+01  0.0000000000000E+00
 0.3159078472979E+00 -0.1710157412686E+01  0.0000000000000E+00
 0.3328528648507E+00 -0.1538801423309E+01  0.0000000000000E+00
 0.3497978826798E+00 -0.1367445433958E+01  0.0000000000000E+00
 0.3632011391434E+00 -0.1194844032505E+01  0.0000000000000E+00
 0.3719842463447E+00 -0.1021054695725E+01  0.0000000000000E+00
 0.3767158991809E+00 -0.8466371859583E+00  0.0000000000000E+00
 0.3466260724861E+00 -0.2235893193580E+01  0.0000000000000E+00
 0.3522557716230E+00 -0.2062167201863E+01  0.0000000000000E+00
 0.3627472188378E+00 -0.1889069353843E+01  0.0000000000000E+00
 0.3787828464732E+00 -0.1717159437529E+01  0.0000000000000E+00
 0.3990685843190E+00 -0.1546494998043E+01  0.0000000000000E+00
 0.4193543224412E+00 -0.1375830558590E+01  0.0000000000000E+00
 0.4353899508024E+00 -0.1203920642343E+01  0.0000000000000E+00
 0.4458813989944E+00 -0.1030822794382E+01  0.0000000000000E+00
 0.4515110992120E+00 -0.8570968026993E+00  0.0000000000000E+00
 0.4041753791323E+00 -0.2241702780698E+01  0.0000000000000E+00
 0.4106776511557E+00 -0.2068787331882E+01  0.0000000000000E+00
 0.4228519662354E+00 -0.1896499992457E+01  0.0000000000000E+00
 0.4414944931073E+00 -0.1725400580501E+01  0.0000000000000E+00
 0.4650954764560E+00 -0.1555546721206E+01  0.0000000000000E+00
 0.4886964600811E+00 -0.1385692861950E+01  0.0000000000000E+00
 0.5073389876788E+00 -0.1214593450072E+01  0.0000000000000E+00
 0.5195133037358E+00 -0.1042306110716E+01  0.0000000000000E+00
 0.5260155768399E+00 -0.8693906619390E+00  0.0000000000000E+00
 0.4616243337497E+00 -0.2248387735792E+01  0.0000000000000E+00
 0.4689701318939E+00 -0.2076398693074E+01  0.0000000000000E+00
 0.4827982694759E+00 -0.1905037720539E+01  0.0000000000000E+00
 0.5040186505717E+00 -0.1734864670630E+01  0.0000000000000E+00
 0.5309058318452E+00 -0.1565937260056E+01  0.0000000000000E+00
 0.5577930133951E+00 -0.1397009849526E+01  0.0000000000000E+00
 0.5790133952167E+00 -0.1226836799707E+01  0.0000000000000E+00
 0.5928415337759E+00 -0.1055475827250E+01  0.0000000000000E+00
 0.6001873330009E+00 -0.8834867845769E+00  0.0000000000000E+00
 0.5189599027027E+00 -0.2255940515227E+01  0.0000000000000E+00
 0.5271169178442E+00 -0.2084990237049E+01  0.0000000000000E+00
 0.5425665710042E+00 -0.1914667985090E+01  0.0000000000000E+00
 0.5663325005167E+00 -0.1745533650330E+01  0.0000000000000E+00
 0.5964735716119E+00 -0.1577645052089E+01  0.0000000000000E+00
 0.6266146429836E+00 -0.1409756453897E+01  0.0000000000000E+00
 0.6503805732219E+00 -0.1240622119238E+01  0.0000000000000E+00
 0.6658302273591E+00 -0.1070299867367E+01  0.0000000000000E+00
 0.6739872435814E+00 -0.8993495892401E+00  0.0000000000000E+00
-0.1137043722261E+01 -0.2240627620923E+01  0.0000000000000E+00
-0.1200866045342E+01 -0.1949730826226E+01  0.0000000000000E+00
-0.1289241801122E+01 -0.1665593242542E+01  0.0000000000000E+00
-0.1420640127493E+01 -0.1399460017215E+01  0.0000000000000E+00
-0.1578664716082E+01 -0.1148128158616E+01  0.0000000000000E+00
-0.1709555436415E+01 -0.8811432247686E+00  0.0000000000000E+00
-0.1807723014286E+01 -0.6002007233038E+00  0.0000000000000E+00
-0.1865591923994E+01 -0.3081752482533E+00  0.0000000000000E+00
-0.1871671920846E+01 -0.1048465443232E-01  0.0000000000000E+00
-0.1075277831748E+01 -0.2240624241703E+01  0.0000000000000E+00
-0.1132939650349E+01 -0.1963476490237E+01  0.0000000000000E+00
-0.1213327087973E+01 -0.1692406609635E+01  0.0000000000000E+00
-0.1332983555384E+01 -0.1437472381817E+01  0.0000000000000E+00
-0.1477094802420E+01 -0.1195833646979E+01  0.0000000000000E+00
-0.1597087071197E+01 -0.9402809945957E+00  0.0000000000000E+00
-0.1687205056733E+01 -0.6721831530675E+00  0.0000000000000E+00
-0.1740475318172E+01 -0.3941017185236E+00  0.0000000000000E+00
-0.1746810668074E+01 -0.1109148310453E+00  0.0000000000000E+00
-0.1013356712017E+01 -0.2241263950161E+01  0.0000000000000E+00
-0.1064875326537E+01 -0.1977793569638E+01  0.0000000000000E+00
-0.1137291741269E+01 -0.1719719742323E+01  0.0000000000000E+00
-0.1245223633119E+01 -0.1475912913947E+01  0.0000000000000E+00
-0.1375438839709E+01 -0.1243895632984E+01  0.0000000000000E+00
-0.1484549953292E+01 -0.9997036097407E+00  0.0000000000000E+00
-0.1566635640349E+01 -0.7443787842606E+00  0.0000000000000E+00
-0.1615324542692E+01 -0.4801697634612E+00  0.0000000000000E+00
-0.1621932533127E+01 -0.2114149595220E+00  0.0000000000000E+00
-0.9512871167359E+00 -0.2242554396884E+01  0.0000000000000E+00
-0.9966790746309E+00 -0.1992688862829E+01  0.0000000000000E+00
-0.1061141008454E+01 -0.1747538586871E+01  0.0000000000000E+00
-0.1157364854222E+01 -0.1514786707762E+01  0.0000000000000E+00
-0.1273700566120E+01 -0.1292318357351E+01  0.0000000000000E+00
-0.1371947066649E+01 -0.1059414458242E+01  0.0000000000000E+00
-0.1446016995843E+01 -0.8167901527868E+00  0.0000000000000E+00
-0.1490141076288E+01 -0.5663810673862E+00  0.0000000000000E+00
-0.1497038244325E+01 -0.3119858728225E+00  0.0000000000000E+00
-0.8890762155886E+00 -0.2244502972223E+01  0.0000000000000E+00
-0.9283572655331E+00 -0.2008168935977E+01  0.0000000000000E+00
-0.9848804625429E+00 -0.1775868885763E+01  0.0000000000000E+00
-0.1069411995723E+01 -0.1554098683309E+01  0.0000000000000E+00
-0.1171883962657E+01 -0.1341105917398E+01  0.0000000000000E+00
-0.1259281595380E+01 -0.1119416814278E+01  0.0000000000000E+00
-0.1325351509529E+01 -0.8894197092860E+00  0.0000000000000E+00
-0.1364926506448E+01 -0.6527372572094E+00  0.0000000000000E+00
-0.1372128588665E+01 -0.4126283739769E+00  0.0000000000000E+00
-0.8267313553737E+00 -0.2247116732859E+01  0.0000000000000E+00
-0.8599164270712E+00 -0.2024240059622E+01  0.0000000000000E+00
-0.9085158122528E+00 -0.1804716123493E+01  0.0000000000000E+00
-0.9813699470013E+00 -0.1593853539200E+01  0.0000000000000E+00
-0.1069993098069E+01 -0.1390262224735E+01  0.0000000000000E+00
-0.1146556788464E+01 -0.1179713803032E+01  0.0000000000000E+00
-0.1204641611327E+01 -0.9622697929130E+00  0.0000000000000E+00
-0.1239682444981E+01 -0.7392398864861E+00  0.0000000000000E+00
-0.1247204360939E+01 -0.5133432311067E+00  0.0000000000000E+00
-0.7642602010378E+00 -0.2250402410684E+01  0.0000000000000E+00
-0.7913633699434E+00 -0.2040908215370E+01  0.0000000000000E+00
-0.8320530143224E+00 -0.1834085531624E+01  0.0000000000000E+00
-0.8932438114949E+00 -0.1634055757514E+01  0.0000000000000E+00
-0.9680322216625E+00 -0.1439791011221E+01  0.0000000000000E+00
-0.1033776041247E+01 -0.1240308406308E+01  0.0000000000000E+00
-0.1083889842695E+01 -0.1035342635493E+01  0.0000000000000E+00
-0.1114410579620E+01 -0.8258904372291E+00  0.0000000000000E+00
-0.1122266395147E+01 -0.6141311764482E+00  0.0000000000000E+00
-0.7016707018288E+00 -0.2254366383614E+01  0.0000000000000E+00
-0.7227051575437E+00 -0.2058179070148E+01  0.0000000000000E+00
-0.7554982467744E+00 -0.1863982066393E+01  0.0000000000000E+00
-0.8050388829145E+00 -0.1674709584523E+01  0.0000000000000E+00
-0.8660057421888E+00 -0.1489695812617E+01  0.0000000000000E+00
-0.9209428774047E+00 -0.1301203449337E+01  0.0000000000000E+00
-0.9630988420179E+00 -0.1108640351651E+01  0.0000000000000E+00
-0.9891126632824E+00 -0.9126903135057E+00  0.0000000000000E+00
-0.9973155582422E+00 -0.7149929034882E+00  0.0000000000000E+00
-0.6389710302054E+00 -0.2259014645335E+01  0.0000000000000E+00
-0.6539490514732E+00 -0.2076057949719E+01  0.0000000000000E+00
-0.6788578605495E+00 -0.1894410385818E+01  0.0000000000000E+00
-0.7167606020143E+00 -0.1715819010883E+01  0.0000000000000E+00
-0.7639181891965E+00 -0.1539979951479E+01  0.0000000000000E+00
-0.8080609156503E+00 -0.1362401586821E+01  0.0000000000000E+00
-0.8422713174187E+00 -0.1182164928385E+01  0.0000000000000E+00
-0.8637904938888E+00 -0.9996408348251E+00  0.0000000000000E+00
-0.8723527382248E+00 -0.8159290643100E+00  0.0000000000000E+00
 0.6389710381136E+00 -0.2259014646580E+01  0.0000000000000E+00
 0.6539490574532E+00 -0.2076057950683E+01  0.0000000000000E+00
 0.6788578647380E+00 -0.1894410386431E+01  0.0000000000000E+00
 0.7167606047190E+00 -0.1715819011119E+01  0.0000000000000E+00
 0.7639181907397E+00 -0.1539979951293E+01  0.0000000000000E+00
 0.8080609164477E+00 -0.1362401586271E+01  0.0000000000000E+00
 0.8422713178087E+00 -0.1182164927561E+01  0.0000000000000E+00
 0.8637904940237E+00 -0.9996408337740E+00  0.0000000000000E+00
 0.8723527381196E+00 -0.8159290630729E+00  0.0000000000000E+00
 0.7016707088719E+00 -0.2254366384670E+01  0.0000000000000E+00
 0.7227051629256E+00 -0.2058179070793E+01  0.0000000000000E+00
 0.7554982506610E+00 -0.1863982066581E+01  0.0000000000000E+00
 0.8050388856518E+00 -0.1674709584275E+01  0.0000000000000E+00
 0.8660057439471E+00 -0.1489695811831E+01  0.0000000000000E+00
 0.9209428784627E+00 -0.1301203448019E+01  0.0000000000000E+00
 0.9630988426276E+00 -0.1108640349879E+01  0.0000000000000E+00
 0.9891126635156E+00 -0.9126903113302E+00  0.0000000000000E+00
 0.9973155580289E+00 -0.7149929009783E+00  0.0000000000000E+00
 0.7642602072188E+00 -0.2250402411526E+01  0.0000000000000E+00
 0.7913633747298E+00 -0.2040908215674E+01  0.0000000000000E+00
 0.8320530179094E+00 -0.1834085531366E+01  0.0000000000000E+00
 0.8932438142668E+00 -0.1634055756766E+01  0.0000000000000E+00
 0.9680322236376E+00 -0.1439791009820E+01  0.0000000000000E+00
 0.1033776042567E+01 -0.1240308404211E+01  0.0000000000000E+00
 0.1083889843526E+01 -0.1035342632766E+01  0.0000000000000E+00
 0.1114410579952E+01 -0.8258904339232E+00  0.0000000000000E+00
 0.1122266394826E+01 -0.6141311726625E+00  0.0000000000000E+00
 0.8267313606960E+00 -0.2247116733458E+01  0.0000000000000E+00
 0.8599164312651E+00 -0.2024240059561E+01  0.0000000000000E+00
 0.9085158155429E+00 -0.1804716122770E+01  0.0000000000000E+00
 0.9813699498101E+00 -0.1593853537934E+01  0.0000000000000E+00
 0.1069993100263E+01 -0.1390262222704E+01  0.0000000000000E+00
 0.1146556790047E+01 -0.1179713800143E+01  0.0000000000000E+00
 0.1204641612379E+01 -0.9622697892206E+00  0.0000000000000E+00
 0.1239682445412E+01 -0.7392398820437E+00  0.0000000000000E+00
 0.1247204360511E+01 -0.5133432260422E+00  0.0000000000000E+00
 0.8890762200560E+00 -0.2244502972554E+01  0.0000000000000E+00
 0.9283572691381E+00 -0.2008168935527E+01  0.0000000000000E+00
 0.9848804655391E+00 -0.1775868884553E+01  0.0000000000000E+00
 0.1069411998571E+01 -0.1554098681507E+01  0.0000000000000E+00
 0.1171883965071E+01 -0.1341105914723E+01  0.0000000000000E+00
 0.1259281597228E+01 -0.1119416810586E+01  0.0000000000000E+00
 0.1325351510804E+01 -0.8894197046198E+00  0.0000000000000E+00
 0.1364926506981E+01 -0.6527372516249E+00  0.0000000000000E+00
 0.1372128588130E+01 -0.4126283676306E+00  0.0000000000000E+00
 0.9512871203529E+00 -0.2242554396921E+01  0.0000000000000E+00
 0.9966790776507E+00 -0.1992688861966E+01  0.0000000000000E+00
 0.1061141011160E+01 -0.1747538585155E+01  0.0000000000000E+00
 0.1157364857113E+01 -0.1514786705407E+01  0.0000000000000E+00
 0.1273700568758E+01 -0.1292318354017E+01  0.0000000000000E+00
 0.1371947068764E+01 -0.1059414453735E+01  0.0000000000000E+00
 0.1446016997343E+01 -0.8167901471381E+00  0.0000000000000E+00
 0.1490141076922E+01 -0.5663810606538E+00  0.0000000000000E+00
 0.1497038243683E+01 -0.3119858651917E+00  0.0000000000000E+00
 0.1013356714788E+01 -0.2241263949879E+01  0.0000000000000E+00
 0.1064875328976E+01 -0.1977793568342E+01  0.0000000000000E+00
 0.1137291743688E+01 -0.1719719740080E+01  0.0000000000000E+00
 0.1245223636055E+01 -0.1475912911022E+01  0.0000000000000E+00
 0.1375438842573E+01 -0.1243895628978E+01  0.0000000000000E+00
 0.1484549955677E+01 -0.9997036044081E+00  0.0000000000000E+00
 0.1566635642075E+01 -0.7443787776209E+00  0.0000000000000E+00
 0.1615324543429E+01 -0.4801697555751E+00  0.0000000000000E+00
 0.1621932532379E+01 -0.2114149506037E+00  0.0000000000000E+00
 0.1075277833679E+01 -0.2240624241077E+01  0.0000000000000E+00
 0.1132939652212E+01 -0.1963476488483E+01  0.0000000000000E+00
 0.1213327090109E+01 -0.1692406606846E+01  0.0000000000000E+00
 0.1332983558369E+01 -0.1437472378305E+01  0.0000000000000E+00
 0.1477094805513E+01 -0.1195833642285E+01  0.0000000000000E+00
 0.1597087073853E+01 -0.9402809884259E+00  0.0000000000000E+00
 0.1687205058687E+01 -0.6721831454284E+00  0.0000000000000E+00
 0.1740475319012E+01 -0.3941017094782E+00  0.0000000000000E+00
 0.1746810667221E+01 -0.1109148208368E+00  0.0000000000000E+00
 0.1137043723357E+01 -0.2240627619927E+01  0.0000000000000E+00
 0.1200866046634E+01 -0.1949730823994E+01  0.0000000000000E+00
 0.1289241802980E+01 -0.1665593239189E+01  0.0000000000000E+00
 0.1420640130532E+01 -0.1399460013099E+01  0.0000000000000E+00
 0.1578664719407E+01 -0.1148128153222E+01  0.0000000000000E+00
 0.1709555439345E+01 -0.8811432177506E+00  0.0000000000000E+00
 0.1807723016470E+01 -0.6002007146571E+00  0.0000000000000E+00
 0.1865591924940E+01 -0.3081752380433E+00  0.0000000000000E+00
 0.1871671919889E+01 -0.1048464293072E-01  0.0000000000000E+00
-0.7757018967476E+00 -0.6145952848266E+00  0.0000000000000E+00
-0.8749401272934E+00 -0.5010113518429E+00  0.0000000000000E+00
-0.9741783578392E+00 -0.3874274188592E+00  0.0000000000000E+00
-0.1073416588385E+01 -0.2738434858755E+00  0.0000000000000E+00
-0.1172654818931E+01 -0.1602595528918E+00  0.0000000000000E+00
-0.1271893049477E+01 -0.4667561990803E-01  0.0000000000000E+00
-0.1371131280023E+01  0.6690831307570E-01  0.0000000000000E+00
-0.1470369510568E+01  0.1804922460594E+00  0.0000000000000E+00
-0.1569607741114E+01  0.2940761790431E+00  0.0000000000000E+00
-0.6901728374579E+00 -0.5988809215417E+00  0.0000000000000E+00
-0.7778619550456E+00 -0.4864842277897E+00  0.0000000000000E+00
-0.8655510726332E+00 -0.3740875340377E+00  0.0000000000000E+00
-0.9532401902209E+00 -0.2616908402858E+00  0.0000000000000E+00
-0.1040929307809E+01 -0.1492941465338E+00  0.0000000000000E+00
-0.1128618425396E+01 -0.3689745278180E-01  0.0000000000000E+00
-0.1216307542984E+01  0.7549924097018E-01  0.0000000000000E+00
-0.1303996660571E+01  0.1878959347222E+00  0.0000000000000E+00
-0.1391685778159E+01  0.3002926284741E+00  0.0000000000000E+00
-0.6045357904085E+00 -0.5886334671797E+00  0.0000000000000E+00
-0.6809719636658E+00 -0.4810118775123E+00  0.0000000000000E+00
-0.7574081369231E+00 -0.3733902878449E+00  0.0000000000000E+00
-0.8338443101805E+00 -0.2657686981776E+00  0.0000000000000E+00
-0.9102804834378E+00 -0.1581471085102E+00  0.0000000000000E+00
-0.9867166566951E+00 -0.5052551884278E-01  0.0000000000000E+00
-0.1063152829952E+01  0.5709607082460E-01  0.0000000000000E+00
-0.1139589003210E+01  0.1647176604920E+00  0.0000000000000E+00
-0.1216025176467E+01  0.2723392501594E+00  0.0000000000000E+00
-0.5190792240803E+00 -0.5823059010029E+00  0.0000000000000E+00
-0.5848047030280E+00 -0.4814611732944E+00  0.0000000000000E+00
-0.6505301819758E+00 -0.3806164455859E+00  0.0000000000000E+00
-0.7162556609235E+00 -0.2797717178774E+00  0.0000000000000E+00
-0.7819811398712E+00 -0.1789269901689E+00  0.0000000000000E+00
-0.8477066188190E+00 -0.7808226246041E-01  0.0000000000000E+00
-0.9134320977667E+00  0.2276246524810E-01  0.0000000000000E+00
-0.9791575767145E+00  0.1236071929566E+00  0.0000000000000E+00
-0.1044883055662E+01  0.2244519206651E+00  0.0000000000000E+00
-0.4336403415896E+00 -0.5786726202060E+00  0.0000000000000E+00
-0.4889890080068E+00 -0.4853457686987E+00  0.0000000000000E+00
-0.5443376744240E+00 -0.3920189171915E+00  0.0000000000000E+00
-0.5996863408413E+00 -0.2986920656842E+00  0.0000000000000E+00
-0.6550350072585E+00 -0.2053652141770E+00  0.0000000000000E+00
-0.7103836736757E+00 -0.1120383626698E+00  0.0000000000000E+00
-0.7657323400930E+00 -0.1871151116251E-01  0.0000000000000E+00
-0.8210810065102E+00  0.7461534034473E-01  0.0000000000000E+00
-0.8764296729274E+00  0.1679421918520E+00  0.0000000000000E+00
-0.3477725571842E+00 -0.5762611318113E+00  0.0000000000000E+00
-0.3925834978971E+00 -0.4896900215991E+00  0.0000000000000E+00
-0.4373944386100E+00 -0.4031189113868E+00  0.0000000000000E+00
-0.4822053793229E+00 -0.3165478011746E+00  0.0000000000000E+00
-0.5270163200358E+00 -0.2299766909624E+00  0.0000000000000E+00
-0.5718272607487E+00 -0.1434055807502E+00  0.0000000000000E+00
-0.6166382014617E+00 -0.5683447053795E-01  0.0000000000000E+00
-0.6614491421746E+00  0.2973663967428E-01  0.0000000000000E+00
-0.7062600828875E+00  0.1163077498865E+00  0.0000000000000E+00
-0.2613047236032E+00 -0.5742119436453E+00  0.0000000000000E+00
-0.2951952981981E+00 -0.4927492016083E+00  0.0000000000000E+00
-0.3290858727930E+00 -0.4112864595713E+00  0.0000000000000E+00
-0.3629764473878E+00 -0.3298237175344E+00  0.0000000000000E+00
-0.3968670219827E+00 -0.2483609754974E+00  0.0000000000000E+00
-0.4307575965776E+00 -0.1668982334604E+00  0.0000000000000E+00
-0.4646481711724E+00 -0.8543549142347E-01  0.0000000000000E+00
-0.4985387457673E+00 -0.3972749386506E-02  0.0000000000000E+00
-0.5324293203622E+00  0.7748999265046E-01  0.0000000000000E+00
-0.1744170850486E+00 -0.5726368050712E+00  0.0000000000000E+00
-0.1971323405060E+00 -0.4947263555604E+00  0.0000000000000E+00
-0.2198475959635E+00 -0.4168159060497E+00  0.0000000000000E+00
-0.2425628514210E+00 -0.3389054565390E+00  0.0000000000000E+00
-0.2652781068784E+00 -0.2609950070282E+00  0.0000000000000E+00
-0.2879933623359E+00 -0.1830845575175E+00  0.0000000000000E+00
-0.3107086177934E+00 -0.1051741080067E+00  0.0000000000000E+00
-0.3334238732508E+00 -0.2726365849599E-01  0.0000000000000E+00
-0.3561391287083E+00  0.5064679101476E-01  0.0000000000000E+00
-0.8727216531114E-01 -0.5716864396411E+00  0.0000000000000E+00
-0.9866558985531E-01 -0.4959080875231E+00  0.0000000000000E+00
-0.1100590143995E+00 -0.4201297354052E+00  0.0000000000000E+00
-0.1214524389436E+00 -0.3443513832872E+00  0.0000000000000E+00
-0.1328458634878E+00 -0.2685730311692E+00  0.0000000000000E+00
-0.1442392880320E+00 -0.1927946790513E+00  0.0000000000000E+00
-0.1556327125762E+00 -0.1170163269333E+00  0.0000000000000E+00
-0.1670261371203E+00 -0.4123797481532E-01  0.0000000000000E+00
-0.1784195616645E+00  0.3454037730265E-01  0.0000000000000E+00
-0.6960508515560E-09 -0.5713882038458E+00  0.0000000000000E+00
-0.1392101458985E-08 -0.4963401091296E+00  0.0000000000000E+00
-0.2088151997026E-08 -0.4212920144135E+00  0.0000000000000E+00
-0.2784202618333E-08 -0.3462439196973E+00  0.0000000000000E+00
-0.3480253128618E-08 -0.2711958249811E+00  0.0000000000000E+00
-0.4176303749925E-08 -0.1961477302650E+00  0.0000000000000E+00
-0.4872354315721E-08 -0.1210996355488E+00  0.0000000000000E+00
-0.5568404881517E-08 -0.4605154083262E-01  0.0000000000000E+00
-0.6264455447313E-08  0.2899655388355E-01  0.0000000000000E+00
 0.8727216392181E-01 -0.5716864397316E+00  0.0000000000000E+00
 0.9866558707665E-01 -0.4959080877040E+00  0.0000000000000E+00
 0.1100590102315E+00 -0.4201297356765E+00  0.0000000000000E+00
 0.1214524333863E+00 -0.3443513836490E+00  0.0000000000000E+00
 0.1328458565412E+00 -0.2685730316215E+00  0.0000000000000E+00
 0.1442392796960E+00 -0.1927946795940E+00  0.0000000000000E+00
 0.1556327028509E+00 -0.1170163275665E+00  0.0000000000000E+00
 0.1670261260057E+00 -0.4123797553893E-01  0.0000000000000E+00
 0.1784195491605E+00  0.3454037648858E-01  0.0000000000000E+00
 0.1744170836673E+00 -0.5726368052487E+00  0.0000000000000E+00
 0.1971323377436E+00 -0.4947263559154E+00  0.0000000000000E+00
 0.2198475918199E+00 -0.4168159065822E+00  0.0000000000000E+00
 0.2425628458961E+00 -0.3389054572490E+00  0.0000000000000E+00
 0.2652780999724E+00 -0.2609950079157E+00  0.0000000000000E+00
 0.2879933540486E+00 -0.1830845585825E+00  0.0000000000000E+00
 0.3107086081249E+00 -0.1051741092492E+00  0.0000000000000E+00
 0.3334238622011E+00 -0.2726365991598E-01  0.0000000000000E+00
 0.3561391162774E+00  0.5064678941726E-01  0.0000000000000E+00
 0.2613047222386E+00 -0.5742119439159E+00  0.0000000000000E+00
 0.2951952954688E+00 -0.4927492021497E+00  0.0000000000000E+00
 0.3290858686990E+00 -0.4112864603834E+00  0.0000000000000E+00
 0.3629764419293E+00 -0.3298237186171E+00  0.0000000000000E+00
 0.3968670151595E+00 -0.2483609768509E+00  0.0000000000000E+00
 0.4307575883897E+00 -0.1668982350846E+00  0.0000000000000E+00
 0.4646481616199E+00 -0.8543549331833E-01  0.0000000000000E+00
 0.4985387348502E+00 -0.3972751552064E-02  0.0000000000000E+00
 0.5324293080804E+00  0.7748999021421E-01  0.0000000000000E+00
 0.3477725558447E+00 -0.5762611321883E+00  0.0000000000000E+00
 0.3925834952182E+00 -0.4896900223531E+00  0.0000000000000E+00
 0.4373944345917E+00 -0.4031189125179E+00  0.0000000000000E+00
 0.4822053739652E+00 -0.3165478026828E+00  0.0000000000000E+00
 0.5270163133387E+00 -0.2299766928476E+00  0.0000000000000E+00
 0.5718272527122E+00 -0.1434055830124E+00  0.0000000000000E+00
 0.6166381920857E+00 -0.5683447317718E-01  0.0000000000000E+00
 0.6614491314592E+00  0.2973663665801E-01  0.0000000000000E+00
 0.7062600708327E+00  0.1163077464932E+00  0.0000000000000E+00
 0.4336403402798E+00 -0.5786726206764E+00  0.0000000000000E+00
 0.4889890053873E+00 -0.4853457696395E+00  0.0000000000000E+00
 0.5443376704947E+00 -0.3920189186027E+00  0.0000000000000E+00
 0.5996863356022E+00 -0.2986920675659E+00  0.0000000000000E+00
 0.6550350007097E+00 -0.2053652165290E+00  0.0000000000000E+00
 0.7103836658171E+00 -0.1120383654922E+00  0.0000000000000E+00
 0.7657323309246E+00 -0.1871151445534E-01  0.0000000000000E+00
 0.8210809960320E+00  0.7461533658150E-01  0.0000000000000E+00
 0.8764296611395E+00  0.1679421876183E+00  0.0000000000000E+00
 0.5190792227627E+00 -0.5823059014532E+00  0.0000000000000E+00
 0.5848047003929E+00 -0.4814611741950E+00  0.0000000000000E+00
 0.6505301780231E+00 -0.3806164469367E+00  0.0000000000000E+00
 0.7162556556533E+00 -0.2797717196785E+00  0.0000000000000E+00
 0.7819811332836E+00 -0.1789269924203E+00  0.0000000000000E+00
 0.8477066109138E+00 -0.7808226516204E-01  0.0000000000000E+00
 0.9134320885440E+00  0.2276246209620E-01  0.0000000000000E+00
 0.9791575661742E+00  0.1236071893544E+00  0.0000000000000E+00
 0.1044883043804E+01  0.2244519166127E+00  0.0000000000000E+00
 0.6045357890559E+00 -0.5886334675106E+00  0.0000000000000E+00
 0.6809719609606E+00 -0.4810118781742E+00  0.0000000000000E+00
 0.7574081328653E+00 -0.3733902888377E+00  0.0000000000000E+00
 0.8338443047700E+00 -0.2657686995012E+00  0.0000000000000E+00
 0.9102804766747E+00 -0.1581471101648E+00  0.0000000000000E+00
 0.9867166485794E+00 -0.5052552082830E-01  0.0000000000000E+00
 0.1063152820484E+01  0.5709606850817E-01  0.0000000000000E+00
 0.1139588992389E+01  0.1647176578446E+00  0.0000000000000E+00
 0.1216025164294E+01  0.2723392471811E+00  0.0000000000000E+00
 0.6901728360684E+00 -0.5988809216540E+00  0.0000000000000E+00
 0.7778619522666E+00 -0.4864842280144E+00  0.0000000000000E+00
 0.8655510684647E+00 -0.3740875343748E+00  0.0000000000000E+00
 0.9532401846629E+00 -0.2616908407351E+00  0.0000000000000E+00
 0.1040929300861E+01 -0.1492941470955E+00  0.0000000000000E+00
 0.1128618417059E+01 -0.3689745345585E-01  0.0000000000000E+00
 0.1216307533257E+01  0.7549924018379E-01  0.0000000000000E+00
 0.1303996649456E+01  0.1878959338234E+00  0.0000000000000E+00
 0.1391685765654E+01  0.3002926274631E+00  0.0000000000000E+00
 0.7757018953692E+00 -0.6145952846001E+00  0.0000000000000E+00
 0.8749401245367E+00 -0.5010113513899E+00  0.0000000000000E+00
 0.9741783537041E+00 -0.3874274181797E+00  0.0000000000000E+00
 0.1073416582872E+01 -0.2738434849695E+00  0.0000000000000E+00
 0.1172654812039E+01 -0.1602595517592E+00  0.0000000000000E+00
 0.1271893041207E+01 -0.4667561854900E-01  0.0000000000000E+00
 0.1371131270374E+01  0.6690831466122E-01  0.0000000000000E+00
 0.1470369499542E+01  0.1804922478715E+00  0.0000000000000E+00
 0.1569607728709E+01  0.2940761810817E+00  0.0000000000000E+00
</DataArray>
</Points>
<Cells>
<DataArray type="Int64" Name="connectivity" format="ascii">
0 11 218 123
123 218 219 124
124 219 220 125
125 220 221 126
126 221 222 127
127 222 223 128
128 223 224 129
129 224 225 130
130 225 226 131
131 226 227 132
132 227 228 133
133 228 229 134
134 229 230 135
135 230 231 136
136 231 232 137
137 232 233 138
138 233 234 139
139 234 235 140
140 235 236 141
141 236 237 142
142 237 49 3
11 12 238 218
218 238 239 219
219 239 240 220
220 240 241 221
221 241 242 222
222 242 243 223
223 243 244 224
224 244 245 225
225 245 246 226
226 246 247 227
227 247 248 228
228 248 249 229
229 249 250 230
230 250 251 231
231 251 252 232
232 252 253 233
233 253 254 234
234 254 255 235
235 255 256 236
236 256 257 237
237 257 50 49
12 13 258 238
238 258 259 239
239 259 260 240
240 260 261 241
241 261 262 242
242 262 263 243
243 263 264 244
244 264 265 245
245 265 266 246
246 266 267 247
247 267 268 248
248 268 269 249
249 269 270 250
250 270 271 251
251 271 272 252
252 272 273 253
253 273 274 254
254 274 275 255
255 275 276 256
256 276 277 257
257 277 51 50
13 14 278 258
258 278 279 259
259 279 280 260
260 280 281 261
261 281 282 262
262 282 283 263
263 283 284 264
264 284 285 265
265 285 286 266
266 286 287 267
267 287 288 268
268 288 289 269
269 289 290 270
270 290 291 271
271 291 292 272
272 292 293 273
273 293 294 274
274 294 295 275
275 295 296 276
276 296 297 277
277 297 52 51
14 15 298 278
278 298 299 279
279 299 300 280
280 300 301 281
281 301 302 282
282 302 303 283
283 303 304 284
284 304 305 285
285 305 306 286
286 306 307 287
287 307 308 288
288 308 309 289
289 309 310 290
290 310 311 291
291 311 312 292
292 312 313 293
293 313 314 294
294 314 315 295
295 315 316 296
296 316 317 297
297 317 53 52
15 16 318 298
298 318 319 299
299 319 320 300
300 320 321 301
301 321 322 302
302 322 323 303
303 323 324 304
304 324 325 305
305 325 326 306
306 326 327 307
307 327 328 308
308 328 329 309
309 329 330 310
310 330 331 311
311 331 332 312
312 332 333 313
313 333 334 314
314 334 335 315
315 335 336 316
316 336 337 317
317 337 54 53
16 17 338 318
318 338 339 319
319 339 340 320
320 340 341 321
321 341 342 322
322 342 343 323
323 343 344 324
324 344 345 325
325 345 346 326
326 346 347 327
327 347 348 328
328 348 349 329
329 349 350 330
330 350 351 331
331 351 352 332
332 352 353 333
333 353 354 334
334 354 355 335
335 355 356 336
336 356 357 337
337 357 55 54
17 18 358 338
338 358 359 339
339 359 360 340
340 360 361 341
341 361 362 342
342 362 363 343
343 363 364 344
344 364 365 345
345 365 366 346
346 366 367 347
347 367 368 348
348 368 369 349
349 369 370 350
350 370 371 351
351 371 372 352
352 372 373 353
353 373 374 354
354 374 375 355
355 375 376 356
356 376 377 357
357 377 56 55
18 19 378 358
358 378 379 359
359 379 380 360
360 380 381 361
361 381 382 362
362 382 383 363
363 383 384 364
364 384 385 365
365 385 386 366
366 386 387 367
367 387 388 368
368 388 389 369
369 389 390 370
370 390 391 371
371 391 392 372
372 392 393 373
373 393 394 374
374 394 395 375
375 395 396 376
376 396 397 377
377 397 57 56
19 20 398 378
378 398 399 379
379 399 400 380
380 400 401 381
381 401 402 382
382 402 403 383
383 403 404 384
384 404 405 385
385 405 406 386
386 406 407 387
387 407 408 388
388 408 409 389
389 409 410 390
390 410 411 391
391 411 412 392
392 412 413 393
393 413 414 394
394 414 415 395
395 415 416 396
396 416 417 397
397 417 4 57
20 21 418 398
398 418 419 399
399 419 420 400
400 420 421 401
401 421 422 402
402 422 423 403
403 423 424 404
404 424 425 405
405 425 426 406
406 426 427 407
407 427 428 408
408 428 429 409
409 429 430 410
410 430 431 411
411 431 432 412
412 432 433 413
413 433 434 414
414 434 435 415
415 435 436 416
416 436 437 417
417 437 58 4
21 22 438 418
418 438 439 419
419 439 440 420
420 440 441 421
421 441 442 422
422 442 443 423
423 443 444 424
424 444 445 425
425 445 446 426
426 446 447 427
427 447 448 428
428 448 449 429
429 449 450 430
430 450 451 431
431 451 452 432
432 452 453 433
433 453 454 434
434 454 455 435
435 455 456 436
436 456 457 437
437 457 59 58
22 23 458 438
438 458 459 439
439 459 460 440
440 460 461 441
441 461 462 442
442 462 463 443
443 463 464 444
444 464 465 445
445 465 466 446
446 466 467 447
447 467 468 448
448 468 469 449
449 469 470 450
450 470 471 451
451 471 472 452
452 472 473 453
453 473 474 454
454 474 475 455
455 475 476 456
456 476 477 457
457 477 60 59
23 24 478 458
458 478 479 459
459 479 480 460
460 480 481 461
461 481 482 462
462 482 483 463
463 483 484 464
464 484 485 465
465 485 486 466
466 486 487 467
467 487 488 468
468 488 489 469
469 489 490 470
470 490 491 471
471 491 492 472
472 492 493 473
473 493 494 474
474 494 495 475
475 495 496 476
476 496 497 477
477 497 61 60
24 25 498 478
478 498 499 479
479 499 500 480
480 500 501 481
481 501 502 482
482 502 503 483
483 503 504 484
484 504 505 485
485 505 506 486
486 506 507 487
487 507 508 488
488 508 509 489
489 509 510 490
490 510 511 491
491 511 512 492
492 512 513 493
493 513 514 494
494 514 515 495
495 515 516 496
496 516 517 497
497 517 62 61
25 26 518 498
498 518 519 499
499 519 520 500
500 520 521 501
501 521 522 502
502 522 523 503
503 523 524 504
504 524 525 505
505 525 526 506
506 526 527 507
507 527 528 508
508 528 529 509
509 529 530 510
510 530 531 511
511 531 532 512
512 532 533 513
513 533 534 514
514 534 535 515
515 535 536 516
516 536 537 517
517 537 63 62
26 27 538 518
518 538 539 519
519 539 540 520
520 540 541 521
521 541 542 522
522 542 543 523
523 543 544 524
524 544 545 525
525 545 546 526
526 546 547 527
527 547 548 528
528 548 549 529
529 549 550 530
530 550 551 531
531 551 552 532
532 552 553 533
533 553 554 534
534 554 555 535
535 555 556 536
536 556 557 537
537 557 64 63
27 28 558 538
538 558 559 539
539 559 560 540
540 560 561 541
541 561 562 542
542 562 563 543
543 563 564 544
544 564 565 545
545 565 566 546
546 566 567 547
547 567 568 548
548 568 569 549
549 569 570 550
550 570 571 551
551 571 572 552
552 572 573 553
553 573 574 554
554 574 575 555
555 575 576 556
556 576 577 557
557 577 65 64
28 29 578 558
558 578 579 559
559 579 580 560
560 580 581 561
561 581 582 562
562 582 583 563
563 583 584 564
564 584 585 565
565 585 586 566
566 586 587 567
567 587 588 568
568 588 589 569
569 589 590 570
570 590 591 571
571 591 592 572
572 592 593 573
573 593 594 574
574 594 595 575
575 595 596 576
576 596 597 577
577 597 66 65
29 1 598 578
578 598 599 579
579 599 600 580
580 600 601 581
581 601 602 582
582 602 603 583
583 603 604 584
584 604 605 585
585 605 606 586
586 606 607 587
587 607 608 588
588 608 609 589
589 609 610 590
590 610 611 591
591 611 612 592
592 612 613 593
593 613 614 594
594 614 615 595
595 615 616 596
596 616 617 597
597 617 67 66
1 30 618 598
598 618 619 599
599 619 620 600
600 620 621 601
601 621 622 602
602 622 623 603
603 623 624 604
604 624 625 605
605 625 626 606
606 626 627 607
607 627 628 608
608 628 629 609
609 629 630 610
610 630 631 611
611 631 632 612
612 632 633 613
613 633 634 614
614 634 635 615
615 635 636 616
616 636 637 617
617 637 68 67
30 31 638 618
618 638 639 619
619 639 640 620
620 640 641 621
621 641 642 622
622 642 643 623
623 643 644 624
624 644 645 625
625 645 646 626
626 646 647 627
627 647 648 628
628 648 649 629
629 649 650 630
630 650 651 631
631 651 652 632
632 652 653 633
633 653 654 634
634 654 655 635
635 655 656 636
636 656 657 637
637 657 69 68
31 32 658 638
638 658 659 639
639 659 660 640
640 660 661 641
641 661 662 642
642 662 663 643
643 663 664 644
644 664 665 645
645 665 666 646
646 666 667 647
647 667 668 648
648 668 669 649
649 669 670 650
650 670 671 651
651 671 672 652
652 672 673 653
653 673 674 654
654 674 675 655
655 675 676 656
656 676 677 657
657 677 70 69
32 33 678 658
658 678 679 659
659 679 680 660
660 680 681 661
661 681 682 662
662 682 683 663
663 683 684 664
664 684 685 665
665 685 686 666
666 686 687 667
667 687 688 668
668 688 689 669
669 689 690 670
670 690 691 671
671 691 692 672
672 692 693 673
673 693 694 674
674 694 695 675
675 695 696 676
676 696 697 677
677 697 71 70
33 34 698 678
678 698 699 679
679 699 700 680
680 700 701 681
681 701 702 682
682 702 703 683
683 703 704 684
684 704 705 685
685 705 706 686
686 706 707 687
687 707 708 688
688 708 709 689
689 709 710 690
690 710 711 691
691 711 712 692
692 712 713 693
693 713 714 694
694 714 715 695
695 715 716 696
696 716 717 697
697 717 72 71
34 35 718 698
698 718 719 699
699 719 720 700
700 720 721 701
701 721 722 702
702 722 723 703
703 723 724 704
704 724 725 705
705 725 726 706
706 726 727 707
707 727 728 708
708 728 729 709
709 729 730 710
710 730 731 711
711 731 732 712
712 732 733 713
713 733 734 714
714 734 735 715
715 735 736 716
716 736 737 717
717 737 73 72
35 36 738 718
718 738 739 719
719 739 740 720
720 740 741 721
721 741 742 722
722 742 743 723
723 743 744 724
724 744 745 725
725 745 746 726
726 746 747 727
727 747 748 728
728 748 749 729
729 749 750 730
730 750 751 731
731 751 752 732
732 752 753 733
733 753 754 734
734 754 755 735
735 755 756 736
736 756 757 737
737 757 74 73
36 37 758 738
738 758 759 739
739 759 760 740
740 760 761 741
741 761 762 742
742 762 763 743
743 763 764 744
744 764 765 745
745 765 766 746
746 766 767 747
747 767 768 748
748 768 769 749
749 769 770 750
750 770 771 751
751 771 772 752
752 772 773 753
753 773 774 754
754 774 775 755
755 775 776 756
756 776 777 757
757 777 75 74
37 38 778 758
758 778 779 759
759 779 780 760
760 780 781 761
761 781 782 762
762 782 783 763
763 783 784 764
764 784 785 765
765 785 786 766
766 786 787 767
767 787 788 768
768 788 789 769
769 789 790 770
770 790 791 771
771 791 792 772
772 792 793 773
773 793 794 774
774 794 795 775
775 795 796 776
776 796 797 777
777 797 76 75
38 39 798 778
778 798 799 779
779 799 800 780
780 800 801 781
781 801 802 782
782 802 803 783
783 803 804 784
784 804 805 785
785 805 806 786
786 806 807 787
787 807 808 788
788 808 809 789
789 809 810 790
790 810 811 791
791 811 812 792
792 812 813 793
793 813 814 794
794 814 815 795
795 815 816 796
796 816 817 797
797 817 5 76
39 40 818 798
798 818 819 799
799 819 820 800
800 820 821 801
801 821 822 802
802 822 823 803
803 823 824 804
804 824 825 805
805 825 826 806
806 826 827 807
807 827 828 808
808 828 829 809
809 829 830 810
810 830 831 811
811 831 832 812
812 832 833 813
813 833 834 814
814 834 835 815
815 835 836 816
816 836 837 817
817 837 77 5
40 41 838 818
818 838 839 819
819 839 840 820
820 840 841 821
821 841 842 822
822 842 843 823
823 843 844 824
824 844 845 825
825 845 846 826
826 846 847 827
827 847 848 828
828 848 849 829
829 849 850 830
830 850 851 831
831 851 852 832
832 852 853 833
833 853 854 834
834 854 855 835
835 855 856 836
836 856 857 837
837 857 78 77
41 42 858 838
838 858 859 839
839 859 860 840
840 860 861 841
841 861 862 842
842 862 863 843
843 863 864 844
844 864 865 845
845 865 866 846
846 866 867 847
847 867 868 848
848 868 869 849
849 869 870 850
850 870 871 851
851 871 872 852
852 872 873 853
853 873 874 854
854 874 875 855
855 875 876 856
856 876 877 857
857 877 79 78
42 43 878 858
858 878 879 859
859 879 880 860
860 880 881 861
861 881 882 862
862 882 883 863
863 883 884 864
864 884 885 865
865 885 886 866
866 886 887 867
867 887 888 868
868 888 889 869
869 889 890 870
870 890 891 871
871 891 892 872
872 892 893 873
873 893 894 874
874 894 895 875
875 895 896 876
876 896 897 877
877 897 80 79
43 44 898 878
878 898 899 879
879 899 900 880
880 900 901 881
881 901 902 882
882 902 903 883
883 903 904 884
884 904 905 885
885 905 906 886
886 906 907 887
887 907 908 888
888 908 909 889
889 909 910 890
890 910 911 891
891 911 912 892
892 912 913 893
893 913 914 894
894 914 915 895
895 915 916 896
896 916 917 897
897 917 81 80
44 45 918 898
898 918 919 899
899 919 920 900
900 920 921 901
901 921 922 902
902 922 923 903
903 923 924 904
904 924 925 905
905 925 926 906
906 926 927 907
907 927 928 908
908 928 929 909
909 929 930 910
910 930 931 911
911 931 932 912
912 932 933 913
913 933 934 914
914 934 935 915
915 935 936 916
916 936 937 917
917 937 82 81
45 46 938 918
918 938 939 919
919 939 940 920
920 940 941 921
921 941 942 922
922 942 943 923
923 943 944 924
924 944 945 925
925 945 946 926
926 946 947 927
927 947 948 928
928 948 949 929
929 949 950 930
930 950 951 931
931 951 952 932
932 952 953 933
933 953 954 934
934 954 955 935
935 955 956 936
936 956 957 937
937 957 83 82
46 47 958 938
938 958 959 939
939 959 960 940
940 960 961 941
941 961 962 942
942 962 963 943
943 963 964 944
944 964 965 945
945 965 966 946
946 966 967 947
947 967 968 948
948 968 969 949
949 969 970 950
950 970 971 951
951 971 972 952
952 972 973 953
953 973 974 954
954 974 975 955
955 975 976 956
956 976 977 957
957 977 84 83
47 48 978 958
958 978 979 959
959 979 980 960
960 980 981 961
961 981 982 962
962 982 983 963
963 983 984 964
964 984 985 965
965 985 986 966
966 986 987 967
967 987 988 968
968 988 989 969
969 989 990 970
970 990 991 971
971 991 992 972
972 992 993 973
973 993 994 974
974 994 995 975
975 995 996 976
976 996 997 977
977 997 85 84
48 2 162 978
978 162 161 979
979 161 160 980
980 160 159 981
981 159 158 982
982 158 157 983
983 157 156 984
984 156 155 985
985 155 154 986
986 154 153 987
987 153 152 988
988 152 151 989
989 151 150 990
990 150 149 991
991 149 148 992
992 148 147 993
993 147 146 994
994 146 145 995
995 145 144 996
996 144 143 997
997 143 6 85
4 58 998 190
190 998 999 189
189 999 1000 188
188 1000 1001 187
187 1001 1002 186
186 1002 1003 185
185 1003 1004 184
184 1004 1005 183
183 1005 1006 182
182 1006 163 9
58 59 1007 998
998 1007 1008 999
999 1008 1009 1000
1000 1009 1010 1001
1001 1010 1011 1002
1002 1011 1012 1003
1003 1012 1013 1004
1004 1013 1014 1005
1005 1014 1015 1006
1006 1015 164 163
59 60 1016 1007
1007 1016 1017 1008
1008 1017 1018 1009
1009 1018 1019 1010
1010 1019 1020 1011
1011 1020 1021 1012
1012 1021 1022 1013
1013 1022 1023 1014
1014 1023 1024 1015
1015 1024 165 164
60 61 1025 1016
1016 1025 1026 1017
1017 1026 1027 1018
1018 1027 1028 1019
1019 1028 1029 1020
1020 1029 1030 1021
1021 1030 1031 1022
1022 1031 1032 1023
1023 1032 1033 1024
1024 1033 166 165
61 62 1034 1025
1025 1034 1035 1026
1026 1035 1036 1027
1027 1036 1037 1028
1028 1037 1038 1029
1029 1038 1039 1030
1030 1039 1040 1031
1031 1040 1041 1032
1032 1041 1042 1033
1033 1042 167 166
62 63 1043 1034
1034 1043 1044 1035
1035 1044 1045 1036
1036 1045 1046 1037
1037 1046 1047 1038
1038 1047 1048 1039
1039 1048 1049 1040
1040 1049 1050 1041
1041 1050 1051 1042
1042 1051 168 167
63 64 1052 1043
1043 1052 1053 1044
1044 1053 1054 1045
1045 1054 1055 1046
1046 1055 1056 1047
1047 1056 1057 1048
1048 1057 1058 1049
1049 1058 1059 1050
1050 1059 1060 1051
1051 1060 169 168
64 65 1061 1052
1052 1061 1062 1053
1053 1062 1063 1054
1054 1063 1064 1055
1055 1064 1065 1056
1056 1065 1066 1057
1057 1066 1067 1058
1058 1067 1068 1059
1059 1068 1069 1060
1060 1069 170 169
65 66 1070 1061
1061 1070 1071 1062
1062 1071 1072 1063
1063 1072 1073 1064
1064 1073 1074 1065
1065 1074 1075 1066
1066 1075 1076 1067
1067 1076 1077 1068
1068 1077 1078 1069
1069 1078 171 170
66 67 1079 1070
1070 1079 1080 1071
1071 1080 1081 1072
1072 1081 1082 1073
1073 1082 1083 1074
1074 1083 1084 1075
1075 1084 1085 1076
1076 1085 1086 1077
1077 1086 1087 1078
1078 1087 172 171
67 68 1088 1079
1079 1088 1089 1080
1080 1089 1090 1081
1081 1090 1091 1082
1082 1091 1092 1083
1083 1092 1093 1084
1084 1093 1094 1085
1085 1094 1095 1086
1086 1095 1096 1087
1087 1096 173 172
68 69 1097 1088
1088 1097 1098 1089
1089 1098 1099 1090
1090 1099 1100 1091
1091 1100 1101 1092
1092 1101 1102 1093
1093 1102 1103 1094
1094 1103 1104 1095
1095 1104 1105 1096
1096 1105 174 173
69 70 1106 1097
1097 1106 1107 1098
1098 1107 1108 1099
1099 1108 1109 1100
1100 1109 1110 1101
1101 1110 1111 1102
1102 1111 1112 1103
1103 1112 1113 1104
1104 1113 1114 1105
1105 1114 175 174
70 71 1115 1106
1106 1115 1116 1107
1107 1116 1117 1108
1108 1117 1118 1109
1109 1118 1119 1110
1110 1119 1120 1111
1111 1120 1121 1112
1112 1121 1122 1113
1113 1122 1123 1114
1114 1123 176 175
71 72 1124 1115
1115 1124 1125 1116
1116 1125 1126 1117
1117 1126 1127 1118
1118 1127 1128 1119
1119 1128 1129 1120
1120 1129 1130 1121
1121 1130 1131 1122
1122 1131 1132 1123
1123 1132 177 176
72 73 1133 1124
1124 1133 1134 1125
1125 1134 1135 1126
1126 1135 1136 1127
1127 1136 1137 1128
1128 1137 1138 1129
1129 1138 1139 1130
1130 1139 1140 1131
1131 1140 1141 1132
1132 1141 178 177
73 74 1142 1133
1133 1142 1143 1134
1134 1143 1144 1135
1135 1144 1145 1136
1136 1145 1146 1137
1137 1146 1147 1138
1138 1147 1148 1139
1139 1148 1149 1140
1140 1149 1150 1141
1141 1150 179 178
74 75 1151 1142
1142 1151 1152 1143
1143 1152 1153 1144
1144 1153 1154 1145
1145 1154 1155 1146
1146 1155 1156 1147
1147 1156 1157 1148
1148 1157 1158 1149
1149 1158 1159 1150
1150 1159 180 179
75 76 1160 1151
1151 1160 1161 1152
1152 1161 1162 1153
1153 1162 1163 1154
1154 1163 1164 1155
1155 1164 1165 1156
1156 1165 1166 1157
1157 1166 1167 1158
1158 1167 1168 1159
1159 1168 181 180
76 5 199 1160
1160 199 198 1161
1161 198 197 1162
1162 197 196 1163
1163 196 195 1164
1164 195 194 1165
1165 194 193 1166
1166 193 192 1167
1167 192 191 1168
1168 191 10 181
3 49 1169 86
86 1169 1170 87
87 1170 1171 88
88 1171 1172 89
89 1172 1173 90
90 1173 1174 91
91 1174 1175 92
92 1175 1176 93
93 1176 1177 94
94 1177 208 7
49 50 1178 1169
1169 1178 1179 1170
1170 1179 1180 1171
1171 1180 1181 1172
1172 1181 1182 1173
1173 1182 1183 1174
1174 1183 1184 1175
1175 1184 1185 1176
1176 1185 1186 1177
1177 1186 207 208
50 51 1187 1178
1178 1187 1188 1179
1179 1188 1189 1180
1180 1189 1190 1181
1181 1190 1191 1182
1182 1191 1192 1183
1183 1192 1193 1184
1184 1193 1194 1185
1185 1194 1195 1186
1186 1195 206 207
51 52 1196 1187
1187 1196 1197 1188
1188 1197 1198 1189
1189 1198 1199 1190
1190 1199 1200 1191
1191 1200 1201 1192
1192 1201 1202 1193
1193 1202 1203 1194
1194 1203 1204 1195
1195 1204 205 206
52 53 1205 1196
1196 1205 1206 1197
1197 1206 1207 1198
1198 1207 1208 1199
1199 1208 1209 1200
1200 1209 1210 1201
1201 1210 1211 1202
1202 1211 1212 1203
1203 1212 1213 1204
1204 1213 204 205
53 54 1214 1205
1205 1214 1215 1206
1206 1215 1216 1207
1207 1216 1217 1208
1208 1217 1218 1209
1209 1218 1219 1210
1210 1219 1220 1211
1211 1220 1221 1212
1212 1221 1222 1213
1213 1222 203 204
54 55 1223 1214
1214 1223 1224 1215
1215 1224 1225 1216
1216 1225 1226 1217
1217 1226 1227 1218
1218 1227 1228 1219
1219 1228 1229 1220
1220 1229 1230 1221
1221 1230 1231 1222
1222 1231 202 203
55 56 1232 1223
1223 1232 1233 1224
1224 1233 1234 1225
1225 1234 1235 1226
1226 1235 1236 1227
1227 1236 1237 1228
1228 1237 1238 1229
1229 1238 1239 1230
1230 1239 1240 1231
1231 1240 201 202
56 57 1241 1232
1232 1241 1242 1233
1233 1242 1243 1234
1234 1243 1244 1235
1235 1244 1245 1236
1236 1245 1246 1237
1237 1246 1247 1238
1238 1247 1248 1239
1239 1248 1249 1240
1240 1249 200 201
57 4 190 1241
1241 190 189 1242
1242 189 188 1243
1243 188 187 1244
1244 187 186 1245
1245 186 185 1246
1246 185 184 1247
1247 184 183 1248
1248 183 182 1249
1249 182 9 200
5 77 1250 199
199 1250 1251 198
198 1251 1252 197
197 1252 1253 196
196 1253 1254 195
195 1254 1255 194
194 1255 1256 193
193 1256 1257 192
192 1257 1258 191
191 1258 209 10
77 78 1259 1250
1250 1259 1260 1251
1251 1260 1261 1252
1252 1261 1262 1253
1253 1262 1263 1254
1254 1263 1264 1255
1255 1264 1265 1256
1256 1265 1266 1257
1257 1266 1267 1258
1258 1267 210 209
78 79 1268 1259
1259 1268 1269 1260
1260 1269 1270 1261
1261 1270 1271 1262
1262 1271 1272 1263
1263 1272 1273 1264
1264 1273 1274 1265
1265 1274 1275 1266
1266 1275 1276 1267
1267 1276 211 210
79 80 1277 1268
1268 1277 1278 1269
1269 1278 1279 1270
1270 1279 1280 1271
1271 1280 1281 1272
1272 1281 1282 1273
1273 1282 1283 1274
1274 1283 1284 1275
1275 1284 1285 1276
1276 1285 212 211
80 81 1286 1277
1277 1286 1287 1278
1278 1287 1288 1279
1279 1288 1289 1280
1280 1289 1290 1281
1281 1290 1291 1282
1282 1291 1292 1283
1283 1292 1293 1284
1284 1293 1294 1285
1285 1294 213 212
81 82 1295 1286
1286 1295 1296 1287
1287 1296 1297 1288
1288 1297 1298 1289
1289 1298 1299 1290
1290 1299 1300 1291
1291 1300 1301 1292
1292 1301 1302 1293
1293 1302 1303 1294
1294 1303 214 213
82 83 1304 1295
1295 1304 1305 1296
1296 1305 1306 1297
1297 1306 1307 1298
1298 1307 1308 1299
1299 1308 1309 1300
1300 1309 1310 1301
1301 1310 1311 1302
1302 1311 1312 1303
1303 1312 215 214
83 84 1313 1304
1304 1313 1314 1305
1305 1314 1315 1306
1306 1315 1316 1307
1307 1316 1317 1308
1308 1317 1318 1309
1309 1318 1319 1310
1310 1319 1320 1311
1311 1320 1321 1312
1312 1321 216 215
84 85 1322 1313
1313 1322 1323 1314
1314 1323 1324 1315
1315 1324 1325 1316
1316 1325 1326 1317
1317 1326 1327 1318
1318 1327 1328 1319
1319 1328 1329 1320
1320 1329 1330 1321
1321 1330 217 216
85 6 122 1322
1322 122 121 1323
1323 121 120 1324
1324 120 119 1325
1325 119 118 1326
1326 118 117 1327
1327 117 116 1328
1328 116 115 1329
1329 115 114 1330
1330 114 8 217
9 163 1331 200
200 1331 1332 201
201 1332 1333 202
202 1333 1334 203
203 1334 1335 204
204 1335 1336 205
205 1336 1337 206
206 1337 1338 207
207 1338 1339 208
208 1339 95 7
163 164 1340 1331
1331 1340 1341 1332
1332 1341 1342 1333
1333 1342 1343 1334
1334 1343 1344 1335
1335 1344 1345 1336
1336 1345 1346 1337
1337 1346 1347 1338
1338 1347 1348 1339
1339 1348 96 95
164 165 1349 1340
1340 1349 1350 1341
1341 1350 1351 1342
1342 1351 1352 1343
1343 1352 1353 1344
1344 1353 1354 1345
1345 1354 1355 1346
1346 1355 1356 1347
1347 1356 1357 1348
1348 1357 97 96
165 166 1358 1349
1349 1358 1359 1350
1350 1359 1360 1351
1351 1360 1361 1352
1352 1361 1362 1353
1353 1362 1363 1354
1354 1363 1364 1355
1355 1364 1365 1356
1356 1365 1366 1357
1357 1366 98 97
166 167 1367 1358
1358 1367 1368 1359
1359 1368 1369 1360
1360 1369 1370 1361
1361 1370 1371 1362
1362 1371 1372 1363
1363 1372 1373 1364
1364 1373 1374 1365
1365 1374 1375 1366
1366 1375 99 98
167 168 1376 1367
1367 1376 1377 1368
1368 1377 1378 1369
1369 1378 1379 1370
1370 1379 1380 1371
1371 1380 1381 1372
1372 1381 1382 1373
1373 1382 1383 1374
1374 1383 1384 1375
1375 1384 100 99
168 169 1385 1376
1376 1385 1386 1377
1377 1386 1387 1378
1378 1387 1388 1379
1379 1388 1389 1380
1380 1389 1390 1381
1381 1390 1391 1382
1382 1391 1392 1383
1383 1392 1393 1384
1384 1393 101 100
169 170 1394 1385
1385 1394 1395 1386
1386 1395 1396 1387
1387 1396 1397 1388
1388 1397 1398 1389
1389 1398 1399 1390
1390 1399 1400 1391
1391 1400 1401 1392
1392 1401 1402 1393
1393 1402 102 101
170 171 1403 1394
1394 1403 1404 1395
1395 1404 1405 1396
1396 1405 1406 1397
1397 1406 1407 1398
1398 1407 1408 1399
1399 1408 1409 1400
1400 1409 1410 1401
1401 1410 1411 1402
1402 1411 103 102
171 172 1412 1403
1403 1412 1413 1404
1404 1413 1414 1405
1405 1414 1415 1406
1406 1415 1416 1407
1407 1416 1417 1408
1408 1417 1418 1409
1409 1418 1419 1410
1410 1419 1420 1411
1411 1420 104 103
172 173 1421 1412
1412 1421 1422 1413
1413 1422 1423 1414
1414 1423 1424 1415
1415 1424 1425 1416
1416 1425 1426 1417
1417 1426 1427 1418
1418 1427 1428 1419
1419 1428 1429 1420
1420 1429 105 104
173 174 1430 1421
1421 1430 1431 1422
1422 1431 1432 1423
1423 1432 1433 1424
1424 1433 1434 1425
1425 1434 1435 1426
1426 1435 1436 1427
1427 1436 1437 1428
1428 1437 1438 1429
1429 1438 106 105
174 175 1439 1430
1430 1439 1440 1431
1431 1440 1441 1432
1432 1441 1442 1433
1433 1442 1443 1434
1434 1443 1444 1435
1435 1444 1445 1436
1436 1445 1446 1437
1437 1446 1447 1438
1438 1447 107 106
175 176 1448 1439
1439 1448 1449 1440
1440 1449 1450 1441
1441 1450 1451 1442
1442 1451 1452 1443
1443 1452 1453 1444
1444 1453 1454 1445
1445 1454 1455 1446
1446 1455 1456 1447
1447 1456 108 107
176 177 1457 1448
1448 1457 1458 1449
1449 1458 1459 1450
1450 1459 1460 1451
1451 1460 1461 1452
1452 1461 1462 1453
1453 1462 1463 1454
1454 1463 1464 1455
1455 1464 1465 1456
1456 1465 109 108
177 178 1466 1457
1457 1466 1467 1458
1458 1467 1468 1459
1459 1468 1469 1460
1460 1469 1470 1461
1461 1470 1471 1462
1462 1471 1472 1463
1463 1472 1473 1464
1464 1473 1474 1465
1465 1474 110 109
178 179 1475 1466
1466 1475 1476 1467
1467 1476 1477 1468
1468 1477 1478 1469
1469 1478 1479 1470
1470 1479 1480 1471
1471 1480 1481 1472
1472 1481 1482 1473
1473 1482 1483 1474
1474 1483 111 110
179 180 1484 1475
1475 1484 1485 1476
1476 1485 1486 1477
1477 1486 1487 1478
1478 1487 1488 1479
1479 1488 1489 1480
1480 1489 1490 1481
1481 1490 1491 1482
1482 1491 1492 1483
1483 1492 112 111
180 181 1493 1484
1484 1493 1494 1485
1485 1494 1495 1486
1486 1495 1496 1487
1487 1496 1497 1488
1488 1497 1498 1489
1489 1498 1499 1490
1490 1499 1500 1491
1491 1500 1501 1492
1492 1501 113 112
181 10 209 1493
1493 209 210 1494
1494 210 211 1495
1495 211 212 1496
1496 212 213 1497
1497 213 214 1498
1498 214 215 1499
1499 215 216 1500
1500 216 217 1501
1501 217 8 113
</DataArray>
<DataArray type="Int64" Name="offsets" format="ascii">
4
8
12
16
20
24
28
32
36
40
44
48
52
56
60
64
68
72
76
80
84
88
92
96
100
104
108
112
116
120
124
128
132
136
140
144
148
152
156
160
164
168
172
176
180
184
188
192
196
200
204
208
212
216
220
224
228
232
236
240
244
248
252
256
260
264
268
272
276
280
284
288
292
296
300
304
308
312
316
320
324
328
332
336
340
344
348
352
356
360
364
368
372
376
380
384
388
392
396
400
404
408
412
416
420
424
428
432
436
440
444
448
452
456
460
464
468
472
476
480
484
488
492
496
500
504
508
512
516
520
524
528
532
536
540
544
548
552
556
560
564
568
572
576
580
584
588
592
596
600
604
608
612
616
620
624
628
632
636
640
644
648
652
656
660
664
668
672
676
680
684
688
692
696
700
704
708
712
716
720
724
728
732
736
740
744
748
752
756
760
764
768
772
776
780
784
788
792
796
800
804
808
812
816
820
824
828
832
836
840
844
848
852
856
860
864
868
872
876
880
884
888
892
896
900
904
908
912
916
920
924
928
932
936
940
944
948
952
956
960
964
968
972
976
980
984
988
992
996
1000
1004
1008
1012
1016
1020
1024
1028
1032
1036
1040
1044
1048
1052
1056
1060
1064
1068
1072
1076
1080
1084
1088
1092
1096
1100
1104
1108
1112
1116
1120
1124
1128
1132
1136
1140
1144
1148
1152
1156
1160
1164
1168
1172
1176
1180
1184
1188
1192
1196
1200
1204
1208
1212
1216
1220
1224
1228
1232
1236
1240
1244
1248
1252
1256
1260
1264
1268
1272
1276
1280
1284
1288
1292
1296
1300
1304
1308
1312
1316
1320
1324
1328
1332
1336
1340
1344
1348
1352
1356
1360
1364
1368
1372
1376
1380
1384
1388
1392
1396
1400
1404
1408
1412
1416
1420
1424
1428
1432
1436
1440
1444
1448
1452
1456
1460
1464
1468
1472
1476
1480
1484
1488
1492
1496
1500
1504
1508
1512
1516
1520
1524
1528
1532
1536
1540
1544
1548
1552
1556
1560
1564
1568
1572
1576
1580
1584
1588
1592
1596
1600
1604
1608
1612
1616
1620
1624
1628
1632
1636
1640
1644
1648
1652
1656
1660
1664
1668
1672
1676
1680
1684
1688
1692
1696
1700
1704
1708
1712
1716
1720
1724
1728
1732
1736
1740
1744
1748
1752
1756
1760
1764
1768
1772
1776
1780
1784
1788
1792
1796
1800
1804
1808
1812
1816
1820
1824
1828
1832
1836
1840
1844
1848
1852
1856
1860
1864
1868
1872
1876
1880
1884
1888
1892
1896
1900
1904
1908
1912
1916
1920
1924
1928
1932
1936
1940
1944
1948
1952
1956
1960
1964
1968
1972
1976
1980
1984
1988
1992
1996
2000
2004
2008
2012
2016
2020
2024
2028
2032
2036
2040
2044
2048
2052
2056
2060
2064
2068
2072
2076
2080
2084
2088
2092
2096
2100
2104
2108
2112
2116
2120
2124
2128
2132
2136
2140
2144
2148
2152
2156
2160
2164
2168
2172
2176
2180
2184
2188
2192
2196
2200
2204
2208
2212
2216
2220
2224
2228
2232
2236
2240
2244
2248
2252
2256
2260
2264
2268
2272
2276
2280
2284
2288
2292
2296
2300
2304
2308
2312
2316
2320
2324
2328
2332
2336
2340
2344
2348
2352
2356
2360
2364
2368
2372
2376
2380
2384
2388
2392
2396
2400
2404
2408
2412
2416
2420
2424
2428
2432
2436
2440
2444
2448
2452
2456
2460
2464
2468
2472
2476
2480
2484
2488
2492
2496
2500
2504
2508
2512
2516
2520
2524
2528
2532
2536
2540
2544
2548
2552
2556
2560
2564
2568
2572
2576
2580
2584
2588
2592
2596
2600
2604
2608
2612
2616
2620
2624
2628
2632
2636
2640
2644
2648
2652
2656
2660
2664
2668
2672
2676
2680
2684
2688
2692
2696
2700
2704
2708
2712
2716
2720
2724
2728
2732
2736
2740
2744
2748
2752
2756
2760
2764
2768
2772
2776
2780
2784
2788
2792
2796
2800
2804
2808
2812
2816
2820
2824
2828
2832
2836
2840
2844
2848
2852
2856
2860
2864
2868
2872
2876
2880
2884
2888
2892
2896
2900
2904
2908
2912
2916
2920
2924
2928
2932
2936
2940
2944
2948
2952
2956
2960
2964
2968
2972
2976
2980
2984
2988
2992
2996
3000
3004
3008
3012
3016
3020
3024
3028
3032
3036
3040
3044
3048
3052
3056
3060
3064
3068
3072
3076
3080
3084
3088
3092
3096
3100
3104
3108
3112
3116
3120
3124
3128
3132
3136
3140
3144
3148
3152
3156
3160
3164
3168
3172
3176
3180
3184
3188
3192
3196
3200
3204
3208
3212
3216
3220
3224
3228
3232
3236
3240
3244
3248
3252
3256
3260
3264
3268
3272
3276
3280
3284
3288
3292
3296
3300
3304
3308
3312
3316
3320
3324
3328
3332
3336
3340
3344
3348
3352
3356
3360
3364
3368
3372
3376
3380
3384
3388
3392
3396
3400
3404
3408
3412
3416
3420
3424
3428
3432
3436
3440
3444
3448
3452
3456
3460
3464
3468
3472
3476
3480
3484
3488
3492
3496
3500
3504
3508
3512
3516
3520
3524
3528
3532
3536
3540
3544
3548
3552
3556
3560
3564
3568
3572
3576
3580
3584
3588
3592
3596
3600
3604
3608
3612
3616
3620
3624
3628
3632
3636
3640
3644
3648
3652
3656
3660
3664
3668
3672
3676
3680
3684
3688
3692
3696
3700
3704
3708
3712
3716
3720
3724
3728
3732
3736
3740
3744
3748
3752
3756
3760
3764
3768
3772
3776
3780
3784
3788
3792
3796
3800
3804
3808
3812
3816
3820
3824
3828
3832
3836
3840
3844
3848
3852
3856
3860
3864
3868
3872
3876
3880
3884
3888
3892
3896
3900
3904
3908
3912
3916
3920
3924
3928
3932
3936
3940
3944
3948
3952
3956
3960
3964
3968
3972
3976
3980
3984
3988
3992
3996
4000
4004
4008
4012
4016
4020
4024
4028
4032
4036
4040
4044
4048
4052
4056
4060
4064
4068
4072
4076
4080
4084
4088
4092
4096
4100
4104
4108
4112
4116
4120
4124
4128
4132
4136
4140
4144
4148
4152
4156
4160
4164
4168
4172
4176
4180
4184
4188
4192
4196
4200
4204
4208
4212
4216
4220
4224
4228
4232
4236
4240
4244
4248
4252
4256
4260
4264
4268
4272
4276
4280
4284
4288
4292
4296
4300
4304
4308
4312
4316
4320
4324
4328
4332
4336
4340
4344
4348
4352
4356
4360
4364
4368
4372
4376
4380
4384
4388
4392
4396
4400
4404
4408
4412
4416
4420
4424
4428
4432
4436
4440
4444
4448
4452
4456
4460
4464
4468
4472
4476
4480
4484
4488
4492
4496
4500
4504
4508
4512
4516
4520
4524
4528
4532
4536
4540
4544
4548
4552
4556
4560
4564
4568
4572
4576
4580
4584
4588
4592
4596
4600
4604
4608
4612
4616
4620
4624
4628
4632
4636
4640
4644
4648
4652
4656
4660
4664
4668
4672
4676
4680
4684
4688
4692
4696
4700
4704
4708
4712
4716
4720
4724
4728
4732
4736
4740
4744
4748
4752
4756
4760
4764
4768
4772
4776
4780
4784
4788
4792
4796
4800
4804
4808
4812
4816
4820
4824
4828
4832
4836
4840
4844
4848
4852
4856
4860
4864
4868
4872
4876
4880
4884
4888
4892
4896
4900
4904
4908
4912
4916
4920
4924
4928
4932
4936
4940
4944
4948
4952
4956
4960
4964
4968
4972
4976
4980
4984
4988
4992
4996
5000
5004
5008
5012
5016
5020
5024
5028
5032
5036
5040
5044
5048
5052
5056
5060
5064
5068
5072
5076
5080
5084
5088
5092
5096
5100
5104
5108
5112
5116
5120
5124
5128
5132
5136
5140
5144
5148
5152
5156
5160
5164
5168
5172
5176
5180
5184
5188
5192
5196
5200
5204
5208
5212
5216
5220
5224
5228
5232
5236
5240
5244
5248
5252
5256
5260
5264
5268
5272
5276
5280
5284
5288
5292
5296
5300
5304
5308
5312
5316
5320
5324
5328
5332
5336
5340
5344
5348
5352
5356
5360
5364
5368
5372
5376
5380
5384
5388
5392
5396
5400
5404
5408
5412
5416
5420
5424
5428
5432
5436
5440
5444
5448
5452
5456
5460
5464
5468
5472
5476
5480
5484
5488
5492
5496
5500
5504
5508
5512
5516
5520
5524
5528
5532
5536
5540
5544
5548
5552
5556
5560
5564
5568
5572
5576
5580
5584
5588
5592
5596
5600
5604
5608
5612
5616
5620
5624
5628
5632
5636
5640
5644
5648
5652
5656
5660
5664
5668
5672
5676
5680
5684
5688
5692
5696
5700
5704
5708
5712
5716
5720
5724
5728
5732
5736
5740
5744
5748
5752
5756
5760
</DataArray>
<DataArray type="Int64" Name="types" format="ascii">
9
9
9
9
9
9
9
9
9
9
9
9
9
9
9
9
9
9
9
9
9
9
9
9
9
9
9
9
9
9
9
9
9
9
9
9
9
9
9
9
9
9
9
9
9
9
9
9
9
9
9
9
9
9
9
9
9
9
9
9
9
9
9
9
9
9
9
9
9
9
9
9
9
9
9
9
9
9
9
9
9
9
9
9
9
9
9
9
9
9
9
9
9
9
9
9
9
9
9
9
9
9
9
9
9
9
9
9
9
9
9
9
9
9
9
9
9
9
9
9
9
9
9
9
9
9
9
9
9
9
9
9
9
9
9
9
9
9
9
9
9
9
9
9
9
9
9
9
9
9
9
9
9
9
9
9
9
9
9
9
9
9
9
9
9
9
9
9
9
9
9
9
9
9
9
9
9
9
9
9
9
9
9
9
9
9
9
9
9
9
9
9
9
9
9
9
9
9
9
9
9
9
9
9
9
9
9
9
9
9
9
9
9
9
9
9
9
9
9
9
9
9
9
9
9
9
9
9
9
9
9
9
9
9
9
9
9
9
9
9
9
9
9
9
9
9
9
9
9
9
9
9
9
9
9
9
9
9
9
9
9
9
9
9
9
9
9
9
9
9
9
9
9
9
9
9
9
9
9
9
9
9
9
9
9
9
9
9
9
9
9
9
9
9
9
9
9
9
9
9
9
9
9
9
9
9
9
9
9
9
9
9
9
9
9
9
9
9
9
9
9
9
9
9
9
9
9
9
9
9
9
9
9
9
9
9
9
9
9
9
9
9
9
9
9
9
9
9
9
9
9
9
9
9
9
9
9
9
9
9
9
9
9
9
9
9
9
9
9
9
9
9
9
9
9
9
9
9
9
9
9
9
9
9
9
9
9
9
9
9
9
9
9
9
9
9
9
9
9
9
9
9
9
9
9
9
9
9
9
9
9
9
9
9
9
9
9
9
9
9
9
9
9
9
9
9
9
9
9
9
9
9
9
9
9
9
9
9
9
9
9
9
9
9
9
9
9
9
9
9
9
9
9
9
9
9
9
9
9
9
9
9
9
9
9
9
9
9
9
9
9
9
9
9
9
9
9
9
9
9
9
9
9
9
9
9
9
9
9
9
9
9
9
9
9
9
9
9
9
9
9
9
9
9
9
9
9
9
9
9
9
9
9
9
9
9
9
9
9
9
9
9
9
9
9
9
9
9
9
9
9
9
9
9
9
9
9
9
9
9
9
9
9
9
9
9
9
9
9
9
9
9
9
9
9
9
9
9
9
9
9
9
9
9
9
9
9
9
9
9
9
9
9
9
9
9
9
9
9
9
9
9
9
9
9
9
9
9
9
9
9
9
9
9
9
9
9
9
9
9
9
9
9
9
9
9
9
9
9
9
9
9
9
9
9
9
9
9
9
9
9
9
9
9
9
9
9
9
9
9
9
9
9
9
9
9
9
9
9
9
9
9
9
9
9
9
9
9
9
9
9
9
9
9
9
9
9
9
9
9
9
9
9
9
9
9
9
9
9
9
9
9
9
9
9
9
9
9
9
9
9
9
9
9
9
9
9
9
9
9
9
9
9
9
9
9
9
9
9
9
9
9
9
9
9
9
9
9
9
9
9
9
9
9
9
9
9
9
9
9
9
9
9
9
9
9
9
9
9
9
9
9
9
9
9
9
9
9
9
9
9
9
9
9
9
9
9
9
9
9
9
9
9
9
9
9
9
9
9
9
9
9
9
9
9
9
9
9
9
9
9
9
9
9
9
9
9
9
9
9
9
9
9
9
9
9
9
9
9
9
9
9
9
9
9
9
9
9
9
9
9
9
9
9
9
9
9
9
9
9
9
9
9
9
9
9
9
9
9
9
9
9
9
9
9
9
9
9
9
9
9
9
9
9
9
9
9
9
9
9
9
9
9
9
9
9
9
9
9
9
9
9
9
9
9
9
9
9
9
9
9
9
9
9
9
9
9
9
9
9
9
9
9
9
9
9
9
9
9
9
9
9
9
9
9
9
9
9
9
9
9
9
9
9
9
9
9
9
9
9
9
9
9
9
9
9
9
9
9
9
9
9
9
9
9
9
9
9
9
9
9
9
9
9
9
9
9
9
9
9
9
9
9
9
9
9
9
9
9
9
9
9
9
9
9
9
9
9
9
9
9
9
9
9
9
9
9
9
9
9
9
9
9
9
9
9
9
9
9
9
9
9
9
9
9
9
9
9
9
9
9
9
9
9
9
9
9
9
9
9
9
9
9
9
9
9
9
9
9
9
9
9
9
9
9
9
9
9
9
9
9
9
9
9
9
9
9
9
9
9
9
9
9
9
9
9
9
9
9
9
9
9
9
9
9
9
9
9
9
9
9
9
9
9
9
9
9
9
9
9
9
9
9
9
9
9
9
9
9
9
9
9
9
9
9
9
9
9
9
9
9
9
9
9
9
9
9
9
9
9
9
9
9
9
9
9
9
9
9
9
9
9
9
9
9
9
9
9
9
9
9
9
9
9
9
9
9
9
9
9
9
9
9
9
9
9
9
9
9
9
9
9
9
9
9
9
9
9
9
9
9
9
9
9
9
9
9
9
9
9
9
9
9
9
9
9
9
9
9
9
9
9
9
9
9
9
9
9
9
9
9
9
9
9
9
9
9
9
9
9
9
9
9
9
9
9
9
9
9
9
9
9
9
9
9
9
9
9
9
9
9
9
9
9
9
9
9
9
9
9
9
9
9
9
9
9
9
9
9
9
9
9
9
9
9
9
9
9
9
9
9
9
9
9
9
9
9
9
9
9
9
9
9
9
9
9
9
9
9
9
9
9
9
9
9
9
9
9
9
9
9
9
9
9
9
9
9
9
9
9
9
9
9
9
9
9
9
9
9
9
9
9
9
9
9
9
9
9
9
9
9
9
9
9
9
9
9
9
9
9
9
9
9
9
9
9
9
9
9
9
9
9
9
9
9
9
9
9
9
9
9
9
9
9
9
9
9
9
9
9
9
9
9
9
9
9
9
9
9
9
9
9
9
9
9
9
9
9
9
9
9
9
9
9
9
9
9
9
9
9
9
9
9
9
9
9
9
9
9
9
9
9
9
9
9
9
9
9
9
9
9
9
9
9
9
9
9
9
9
9
9
9
9
9
9
9
9
9
9
9
9
9
9
9
9
9
9
9
9
9
9
9
9
9
9
9
9
9
9
9
9
9
9
9
9
9
9
9
9
9
9
9
9
9
9
9
9
9
9
9
9
9
9
9
9
9
9
9
9
9
</DataArray>
</Cells>
<PointData Vectors="'U'">
<DataArray type="Float64" Name="U" NumberOfComponents="2" ComponentName0="U1" ComponentName1="U2" format="ascii">
-0.2411752531372E-50 -0.6118125469195E-50
-0.5340971127793E-37 -0.8671503646023E-37
 0.1712239892403E-50 -0.4197075833817E-50
-0.1031924096548E-01 -0.2795401863858E-01
-0.4444841682578E-02 -0.1807452133237E-01
 0.4444841711569E-02 -0.1807452135826E-01
 0.1031924091752E-01 -0.2795401860970E-01
-0.2228903464244E+00 -0.3829995401247E+00
 0.2228903424885E+00 -0.3829995425465E+00
-0.3447382270136E+00 -0.5825758973742E+00
 0.3447382255648E+00 -0.5825758970122E+00
-0.6453015794050E-37 -0.1481370194030E-36
-0.6412754085672E-37 -0.1376391483125E-36
-0.6344900769591E-37 -0.1301740885843E-36
-0.6269087805720E-37 -0.1244806261640E-36
-0.6193819099993E-37 -0.1198975747215E-36
-0.6122122946049E-37 -0.1160519447465E-36
-0.6054700590934E-37 -0.1127203880417E-36
-0.5991328133394E-37 -0.1097623806664E-36
-0.5931452123693E-37 -0.1070856752479E-36
-0.5874551899986E-37 -0.1046281530195E-36
-0.5820040352477E-37 -0.1024199042160E-36
-0.5767087438033E-37 -0.1003532441999E-36
-0.5715160274613E-37 -0.9840350805089E-37
-0.5663761021213E-37 -0.9655123817875E-37
-0.5612418359873E-37 -0.9478044986928E-37
-0.5560679177067E-37 -0.9307748903437E-37
-0.5508101413450E-37 -0.9143024733299E-37
-0.5454248362161E-37 -0.8982763387884E-37
-0.5398684286949E-37 -0.8825922581814E-37
-0.5280665963724E-37 -0.8518538123457E-37
-0.5217318882516E-37 -0.8366081120904E-37
-0.5150470862030E-37 -0.8213210242418E-37
-0.5079651174163E-37 -0.8059029560164E-37
-0.5004373745594E-37 -0.7902677656855E-37
-0.4924131606798E-37 -0.7743341697109E-37
-0.4838388261046E-37 -0.7580278145538E-37
-0.4746564266170E-37 -0.7412843815442E-37
-0.4648016669451E-37 -0.7240547156046E-37
-0.4541876736758E-37 -0.7063051245441E-37
-0.4427906264507E-37 -0.6872983142084E-37
-0.4304577393528E-37 -0.6678598851142E-37
-0.4170426307964E-37 -0.6481722309597E-37
-0.4023466836402E-37 -0.6286313235895E-37
-0.3861098892763E-37 -0.6100826926082E-37
-0.3680791785155E-37 -0.5944284773694E-37
-0.3485403253629E-37 -0.5864535809784E-37
-0.3316682411255E-37 -0.6006858508651E-37
-0.3499926104035E-37 -0.6971763735367E-37
-0.9112947645043E-02 -0.2459926535684E-01
-0.8322275479971E-02 -0.2277347758395E-01
-0.7693048849025E-02 -0.2156468767466E-01
-0.7149133428985E-02 -0.2068064297176E-01
-0.6653157150379E-02 -0.1999712366565E-01
-0.6184961957619E-02 -0.1945087624883E-01
-0.5733793165575E-02 -0.1900557281875E-01
-0.5294480136014E-02 -0.1863824833394E-01
-0.4865456902432E-02 -0.1833306931860E-01
-0.4038164347612E-02 -0.1786592213787E-01
-0.3611428124847E-02 -0.1769371291934E-01
-0.3174901059342E-02 -0.1755045227314E-01
-0.2731666511784E-02 -0.1743309353369E-01
-0.2283426601120E-02 -0.1733866386847E-01
-0.1831279320735E-02 -0.1726466773548E-01
-0.1376092797253E-02 -0.1720910899799E-01
-0.9186480902472E-03 -0.1717047565118E-01
-0.4597001924090E-03 -0.1714771137154E-01
 0.1519787922667E-10 -0.1714019207819E-01
 0.4597002227901E-03 -0.1714771137250E-01
 0.9186481205863E-03 -0.1717047565319E-01
 0.1376092827528E-02 -0.1720910900121E-01
 0.1831279350931E-02 -0.1726466774017E-01
 0.2283426631235E-02 -0.1733866387498E-01
 0.2731666541826E-02 -0.1743309354248E-01
 0.3174901089322E-02 -0.1755045228479E-01
 0.3611428154759E-02 -0.1769371293457E-01
 0.4038164377359E-02 -0.1786592215757E-01
 0.4865456923147E-02 -0.1833306934647E-01
 0.5294480148304E-02 -0.1863824836334E-01
 0.5733793169731E-02 -0.1900557284926E-01
 0.6184961954123E-02 -0.1945087627998E-01
 0.6653157139835E-02 -0.1999712369685E-01
 0.7149133412060E-02 -0.2068064300222E-01
 0.7693048826330E-02 -0.2156468770321E-01
 0.8322275451794E-02 -0.2277347760838E-01
 0.9112947610934E-02 -0.2459926537103E-01
-0.2598352727117E+00 -0.1873901857128E+00
-0.3624327560601E+00 -0.2952499294822E+00
-0.4213236160283E+00 -0.3666549981544E+00
-0.4594267995432E+00 -0.4109094791456E+00
-0.4789183682199E+00 -0.4255300249059E+00
-0.4727038106828E+00 -0.4118313528336E+00
-0.4387091615872E+00 -0.3852912790284E+00
-0.3791505132597E+00 -0.3599962786256E+00
-0.2996856638003E+00 -0.3494307418711E+00
-0.2039689098745E+00 -0.4275695318316E+00
-0.1958845750737E+00 -0.4770534704412E+00
-0.1960066963940E+00 -0.5317257220029E+00
-0.2010554763987E+00 -0.5959003800788E+00
-0.2077407862756E+00 -0.6785023573880E+00
-0.2005024953333E+00 -0.8038457822765E+00
-0.1674634027611E+00 -0.9769466574776E+00
-0.1173098689956E+00 -0.1152066026813E+01
-0.5992381884115E-01 -0.1278584886096E+01
-0.2859576181040E-08 -0.1324431478898E+01
 0.5992381310624E-01 -0.1278584892768E+01
 0.1173098633287E+00 -0.1152066038358E+01
 0.1674633976709E+00 -0.9769466706212E+00
 0.2005024918952E+00 -0.8038457926385E+00
 0.2077407845824E+00 -0.6785023637812E+00
 0.2010554750940E+00 -0.5959003844920E+00
 0.1960066949130E+00 -0.5317257255445E+00
 0.1958845731831E+00 -0.4770534735504E+00
 0.2039689072850E+00 -0.4275695346624E+00
 0.2996856587242E+00 -0.3494307412838E+00
 0.3791505090747E+00 -0.3599962772452E+00
 0.4387091584330E+00 -0.3852912773939E+00
 0.4727038085477E+00 -0.4118313513595E+00
 0.4789183669530E+00 -0.4255300239221E+00
 0.4594267988656E+00 -0.4109094788022E+00
 0.4213236156699E+00 -0.3666549982278E+00
 0.3624327561307E+00 -0.2952499297294E+00
 0.2598352731867E+00 -0.1873901859260E+00
-0.6206587793218E-03 -0.1161308586877E-02
-0.9564492257643E-03 -0.2023044739342E-02
-0.1182340716389E-02 -0.2851114766799E-02
-0.1331566488279E-02 -0.3666643945213E-02
-0.1427036850798E-02 -0.4483482156409E-02
-0.1481170806836E-02 -0.5308971761224E-02
-0.1503249150609E-02 -0.6148217130129E-02
-0.1500247905067E-02 -0.7005732593730E-02
-0.1478164464196E-02 -0.7886325451036E-02
-0.1442801138536E-02 -0.8795749470857E-02
-0.1400589368089E-02 -0.9741255490539E-02
-0.1359460876015E-02 -0.1073220853753E-01
-0.1329851300211E-02 -0.1178094712562E-01
-0.1326116658445E-02 -0.1290497283095E-01
-0.1371083904022E-02 -0.1413070698553E-01
-0.1501143985729E-02 -0.1548906269619E-01
-0.1772467791694E-02 -0.1701481760476E-01
-0.2252994457403E-02 -0.1875203026639E-01
-0.3134759681270E-02 -0.2081608270742E-01
-0.4398562723607E-02 -0.2345781817332E-01
 0.4398562671985E-02 -0.2345781813846E-01
 0.3134759637713E-02 -0.2081608267504E-01
 0.2252994417494E-02 -0.1875203023651E-01
 0.1772467755527E-02 -0.1701481757657E-01
 0.1501143953050E-02 -0.1548906266946E-01
 0.1371083874720E-02 -0.1413070696016E-01
 0.1326116632386E-02 -0.1290497280695E-01
 0.1329851277232E-02 -0.1178094710306E-01
 0.1359460855929E-02 -0.1073220851648E-01
 0.1400589350703E-02 -0.9741255471038E-02
 0.1442801123656E-02 -0.8795749452938E-02
 0.1478164451623E-02 -0.7886325434734E-02
 0.1500247894602E-02 -0.7005732579074E-02
 0.1503249142048E-02 -0.6148217117152E-02
 0.1481170799976E-02 -0.5308971749954E-02
 0.1427036845435E-02 -0.4483482146873E-02
 0.1331566484216E-02 -0.3666643937438E-02
 0.1182340713437E-02 -0.2851114760810E-02
 0.9564492237728E-03 -0.2023044735172E-02
 0.6206587781633E-03 -0.1161308584564E-02
-0.3230932942282E+00 -0.6111440393681E+00
-0.2993810810618E+00 -0.6415473396463E+00
-0.2728360206803E+00 -0.6728229324449E+00
-0.2430411674857E+00 -0.7038967190476E+00
-0.2097692909780E+00 -0.7335188329091E+00
-0.1730178436951E+00 -0.7603248615568E+00
-0.1330374541646E+00 -0.7829436438526E+00
-0.9034240855578E-01 -0.8001116713658E+00
-0.4568574419632E-01 -0.8108274551777E+00
-0.7952602482880E-09 -0.8144701489068E+00
 0.4568574261314E-01 -0.8108274551712E+00
 0.9034240699341E-01 -0.8001116713541E+00
 0.1330374526331E+00 -0.7829436438348E+00
 0.1730178421993E+00 -0.7603248615263E+00
 0.2097692895167E+00 -0.7335188328571E+00
 0.2430411660523E+00 -0.7038967189631E+00
 0.2728360192636E+00 -0.6728229323147E+00
 0.2993810796477E+00 -0.6415473394559E+00
 0.3230932928022E+00 -0.6111440391016E+00
-0.3420730475369E+00 -0.5270761389569E+00
-0.3335446987285E+00 -0.4698007877524E+00
-0.3177314172982E+00 -0.4100524585609E+00
-0.2944893941801E+00 -0.3480064204606E+00
-0.2641784022544E+00 -0.2839365176258E+00
-0.2281090551924E+00 -0.2188926287432E+00
-0.1871078869019E+00 -0.1557002802162E+00
-0.1397523619036E+00 -0.9837177318477E-01
-0.8183194797915E-01 -0.5088139841307E-01
 0.3420730460841E+00 -0.5270761386425E+00
 0.3335446974433E+00 -0.4698007874707E+00
 0.3177314162185E+00 -0.4100524583186E+00
 0.2944893933726E+00 -0.3480064202514E+00
 0.2641784018255E+00 -0.2839365174409E+00
 0.2281090552456E+00 -0.2188926286047E+00
 0.1871078874419E+00 -0.1557002801903E+00
 0.1397523627735E+00 -0.9837177330594E-01
 0.8183194881200E-01 -0.5088139859260E-01
-0.3738730307445E+00 -0.5834444623993E+00
-0.3916531167471E+00 -0.5738485716649E+00
-0.3970296219477E+00 -0.5562302157586E+00
-0.3905424164712E+00 -0.5332799397150E+00
-0.3737994668601E+00 -0.5075750764277E+00
-0.3492085775535E+00 -0.4812870976903E+00
-0.3195683517231E+00 -0.4558109500101E+00
-0.2875127593842E+00 -0.4314995804038E+00
-0.2550001411180E+00 -0.4077138350042E+00
 0.3738730290025E+00 -0.5834444624071E+00
 0.3916531147588E+00 -0.5738485719864E+00
 0.3970296197208E+00 -0.5562302163300E+00
 0.3905424139782E+00 -0.5332799404843E+00
 0.3737994640585E+00 -0.5075750773649E+00
 0.3492085744144E+00 -0.4812870987972E+00
 0.3195683482595E+00 -0.4558109513249E+00
 0.2875127556627E+00 -0.4314995819966E+00
 0.2550001372441E+00 -0.4077138369635E+00
-0.5105927657833E-03 -0.9932026538359E-03
-0.8764161759763E-03 -0.1931857636645E-02
-0.1100609256440E-02 -0.2792304431962E-02
-0.1250985094568E-02 -0.3635465507885E-02
-0.1345308970774E-02 -0.4474241244890E-02
-0.1397769347872E-02 -0.5318019689913E-02
-0.1417543769633E-02 -0.6172751125511E-02
-0.1411758819868E-02 -0.7043474783920E-02
-0.1386413040885E-02 -0.7935213924074E-02
-0.1347303970343E-02 -0.8853670455547E-02
-0.1300852625065E-02 -0.9805754290604E-02
-0.1255005042462E-02 -0.1080014665486E-01
-0.1220213074883E-02 -0.1184806539076E-01
-0.1211119842835E-02 -0.1296429636647E-01
-0.1251110055269E-02 -0.1416716569735E-01
-0.1379329334694E-02 -0.1547737892734E-01
-0.1649518208594E-02 -0.1691862501217E-01
-0.2157784440373E-02 -0.1851667013526E-01
-0.2983147304353E-02 -0.2035470776083E-01
-0.4823806980004E-02 -0.2226618218404E-01
-0.4340321081599E-03 -0.9203542357491E-03
-0.7892116815578E-03 -0.1851496014399E-02
-0.1018898132828E-02 -0.2740976648870E-02
-0.1168639131666E-02 -0.3605059818107E-02
-0.1262370941402E-02 -0.4462740570075E-02
-0.1313294321281E-02 -0.5322424099748E-02
-0.1331033196303E-02 -0.6190586225319E-02
-0.1322730017985E-02 -0.7072383600948E-02
-0.1294426234712E-02 -0.7972808007722E-02
-0.1251926596923E-02 -0.8897276903861E-02
-0.1201677131375E-02 -0.9852108175453E-02
-0.1151685393681E-02 -0.1084496103740E-01
-0.1112631719532E-02 -0.1188521107558E-01
-0.1099944505717E-02 -0.1298378593779E-01
-0.1138704994551E-02 -0.1415203215036E-01
-0.1268922304552E-02 -0.1540198797644E-01
-0.1551881960444E-02 -0.1674260237424E-01
-0.2071874533285E-02 -0.1819021999035E-01
-0.3004859315142E-02 -0.1968484945684E-01
-0.5037704593644E-02 -0.2111265528558E-01
-0.3774426476391E-03 -0.8822014718996E-03
-0.7079969723754E-03 -0.1795774896985E-02
-0.9367681987186E-03 -0.2696279486850E-02
-0.1086111332279E-02 -0.3577081066424E-02
-0.1178776378632E-02 -0.4449853200404E-02
-0.1228313433232E-02 -0.5322977615129E-02
-0.1244219213007E-02 -0.6202385181788E-02
-0.1233716781067E-02 -0.7093085537295E-02
-0.1202859413529E-02 -0.7999766748362E-02
-0.1157481154487E-02 -0.8927349117441E-02
-0.1104089067962E-02 -0.9881333805209E-02
-0.1050852819799E-02 -0.1086805156260E-01
-0.1008925834180E-02 -0.1189457758348E-01
-0.9949587027696E-03 -0.1296782929541E-01
-0.1035631344013E-02 -0.1409326791778E-01
-0.1173751565836E-02 -0.1527418538066E-01
-0.1472694707058E-02 -0.1651072050959E-01
-0.2029812040067E-02 -0.1778392108262E-01
-0.3079022666468E-02 -0.1900643580427E-01
-0.5076254713907E-02 -0.2018972243278E-01
-0.3328792572163E-03 -0.8602260993334E-03
-0.6352205957455E-03 -0.1758075911286E-02
-0.8567149592017E-03 -0.2660255448676E-02
-0.1004120987752E-02 -0.3551835546423E-02
-0.1095291084708E-02 -0.4436414522824E-02
-0.1143349051447E-02 -0.5320358212562E-02
-0.1157611792777E-02 -0.6208831473496E-02
-0.1145252562384E-02 -0.7106289280781E-02
-0.1112329709442E-02 -0.8016902581088E-02
-0.1064711349115E-02 -0.8944900349930E-02
-0.1009009340355E-02 -0.9894784010262E-02
-0.9536636063553E-03 -0.1087134961061E-01
-0.9105169313527E-03 -0.1187922873230E-01
-0.8975345608749E-03 -0.1292167729692E-01
-0.9433220503020E-03 -0.1399894018423E-01
-0.1092978737027E-02 -0.1510804248443E-01
-0.1413762229667E-02 -0.1623846033270E-01
-0.2019411253277E-02 -0.1735345290328E-01
-0.3134534516990E-02 -0.1839931088363E-01
-0.4994874464542E-02 -0.1945640522641E-01
-0.2959856080495E-03 -0.8468656932231E-03
-0.5703152392802E-03 -0.1732407732101E-02
-0.7802789028624E-03 -0.2632244314482E-02
-0.9235598712400E-03 -0.3529757651659E-02
-0.1012533471858E-02 -0.4422908058164E-02
-0.1058928804229E-02 -0.5315200073653E-02
-0.1071687589699E-02 -0.6210603740519E-02
-0.1057835187143E-02 -0.7112773938780E-02
-0.1023394621269E-02 -0.8025158045856E-02
-0.9742698718807E-03 -0.8951142895563E-02
-0.9172130919004E-03 -0.9894102900543E-02
-0.8610246863162E-03 -0.1085721847143E-01
-0.8183290997286E-03 -0.1184279479496E-01
-0.8084402954236E-03 -0.1285089175039E-01
-0.8617628482506E-03 -0.1387777319755E-01
-0.1025484620307E-02 -0.1491564009194E-01
-0.1371384832487E-02 -0.1594708308110E-01
-0.2017919574987E-02 -0.1693842648187E-01
-0.3145173479696E-02 -0.1787726164563E-01
-0.4835531088180E-02 -0.1886426881997E-01
-0.2642806814006E-03 -0.8384753953238E-03
-0.5120695374605E-03 -0.1714714044326E-02
-0.7080546453883E-03 -0.2610740375133E-02
-0.8451648555416E-03 -0.3510849412226E-02
-0.9310511146145E-03 -0.4409692910954E-02
-0.9755227596898E-03 -0.5308044339037E-02
-0.9868824207726E-03 -0.6208381846404E-02
-0.9719074430066E-03 -0.7113369949139E-02
-0.9365364135161E-03 -0.8025580930307E-02
-0.8866981371508E-03 -0.8947449506500E-02
-0.8293046726947E-03 -0.9881161980469E-02
-0.7735550778757E-03 -0.1082832401502E-01
-0.7328584774118E-03 -0.1178917129674E-01
-0.7277570138993E-03 -0.1276122952132E-01
-0.7901397793855E-03 -0.1373799647924E-01
-0.9689109208634E-03 -0.1470877395348E-01
-0.1337869860734E-02 -0.1565547313304E-01
-0.2007820122943E-02 -0.1655774513774E-01
-0.3106530404082E-02 -0.1743339997209E-01
-0.4624815261688E-02 -0.1837858981731E-01
-0.2362769686780E-03 -0.8331047177091E-03
-0.4593049193568E-03 -0.1702352556914E-02
-0.6400867907054E-03 -0.2594242605550E-02
-0.7694086326596E-03 -0.3494806147376E-02
-0.8512956648536E-03 -0.4396996246878E-02
-0.8935315755304E-03 -0.5299367636704E-02
-0.9035731691258E-03 -0.6202834252178E-02
-0.8878455699277E-03 -0.7108944418368E-02
-0.8521494652433E-03 -0.8019296043569E-02
-0.8024139603963E-03 -0.8935309636293E-02
-0.7457034345154E-03 -0.9857987210263E-02
-0.6915977742987E-03 -0.1078748935121E-01
-0.6542006321516E-03 -0.1172234300907E-01
-0.6550304061469E-03 -0.1265827082061E-01
-0.7270037449666E-03 -0.1358722799139E-01
-0.9197256397211E-03 -0.1449799085895E-01
-0.1305215607988E-02 -0.1537656466193E-01
-0.1978995954143E-02 -0.1621766695465E-01
-0.3022527895214E-02 -0.1705650917317E-01
-0.4378838309104E-02 -0.1797557517976E-01
-0.2110356575007E-03 -0.8296322684861E-03
-0.4110349664481E-03 -0.1693596627171E-02
-0.5761502635454E-03 -0.2581504186514E-02
-0.6965262002538E-03 -0.3481206203689E-02
-0.7735986351644E-03 -0.4384937508978E-02
-0.8132771307289E-03 -0.5289593428551E-02
-0.8220667760026E-03 -0.6194614119248E-02
-0.8059498343251E-03 -0.7100383959230E-02
-0.7705325310266E-03 -0.8007476580392E-02
-0.7217054316888E-03 -0.8916283611618E-02
-0.6666464949855E-03 -0.9826681246988E-02
-0.6152424277941E-03 -0.1073757731240E-01
-0.5821167006292E-03 -0.1164620361113E-01
-0.5894115068958E-03 -0.1254721212511E-01
-0.6704312259071E-03 -0.1343223391375E-01
-0.8740194128641E-03 -0.1429162467717E-01
-0.1267042528058E-02 -0.1511781480274E-01
-0.1926951391507E-02 -0.1591823153258E-01
-0.2899394462845E-02 -0.1673587372258E-01
-0.4107286210142E-02 -0.1763843658209E-01
-0.1879343148511E-03 -0.8273793033017E-03
-0.3664706289317E-03 -0.1687304700723E-02
-0.5159067934782E-03 -0.2571562171692E-02
-0.6265752820249E-03 -0.3469629347675E-02
-0.6981691826630E-03 -0.4373571625974E-02
-0.7349956176499E-03 -0.5279100704899E-02
-0.7425938944740E-03 -0.6184355424582E-02
-0.7264387923491E-03 -0.7088578188404E-02
-0.6918852706841E-03 -0.7991315317745E-02
-0.6447322262297E-03 -0.8891956665600E-02
-0.5922015866645E-03 -0.9789352833617E-02
-0.5443615671181E-03 -0.1068138745765E-01
-0.5161128964211E-03 -0.1156442000908E-01
-0.5297862297252E-03 -0.1243272263578E-01
-0.6182956388933E-03 -0.1327867708408E-01
-0.8282168850559E-03 -0.1409561579848E-01
-0.1219070907870E-02 -0.1488281417835E-01
-0.1850688472305E-02 -0.1565682723308E-01
-0.2743419444440E-02 -0.1646253782198E-01
-0.3815848812986E-02 -0.1735438607506E-01
-0.1665401722440E-03 -0.8259193520636E-03
-0.3249858057980E-03 -0.1682713380576E-02
-0.4589838115980E-03 -0.2563700024401E-02
-0.5594917400974E-03 -0.3459712379653E-02
-0.6251059657764E-03 -0.4362926542285E-02
-0.6588360134949E-03 -0.5268233550028E-02
-0.6653060495838E-03 -0.6172668391968E-02
-0.6494472057388E-03 -0.7074403880385E-02
-0.6163090303215E-03 -0.7971996776988E-02
-0.5715328351814E-03 -0.8863896227384E-02
-0.5222873039789E-03 -0.9748055191017E-02
-0.4786548643559E-03 -0.1062157372485E-01
-0.4555204224511E-03 -0.1148033823985E-01
-0.4749125002126E-03 -0.1231884327955E-01
-0.5685398346496E-03 -0.1313102385405E-01
-0.7794746456216E-03 -0.1391385085090E-01
-0.1158875213639E-02 -0.1467271711639E-01
-0.1751225071160E-02 -0.1543010676784E-01
-0.2560030837484E-02 -0.1622901426694E-01
-0.3508482866022E-02 -0.1711441004976E-01
-0.1465453305294E-03 -0.8249457083858E-03
-0.2861314869675E-03 -0.1679248872854E-02
-0.4051324626167E-03 -0.2557318873496E-02
-0.4953348884102E-03 -0.3451076061149E-02
-0.5547027052254E-03 -0.4352928495880E-02
-0.5852324657826E-03 -0.5257208072030E-02
-0.5907171272856E-03 -0.6160041134253E-02
-0.5755296074610E-03 -0.7058641471118E-02
-0.5443622282475E-03 -0.7950656195686E-02
-0.5026210602115E-03 -0.8833692672435E-02
-0.4573011626073E-03 -0.9704962607271E-02
-0.4183012848020E-03 -0.1056102917627E-01
-0.4001694816363E-03 -0.1139766604238E-01
-0.4241348600899E-03 -0.1221006127747E-01
-0.5199880026094E-03 -0.1299417325182E-01
-0.7265112650489E-03 -0.1375063608299E-01
-0.1086608191055E-02 -0.1448974619134E-01
-0.1632315085622E-02 -0.1523719007755E-01
-0.2357678766160E-02 -0.1603305104904E-01
-0.3192150573864E-02 -0.1691211313048E-01
-0.1277028611400E-03 -0.8243176362514E-03
-0.2494435476306E-03 -0.1676634057548E-02
-0.3538693416543E-03 -0.2552142668302E-02
-0.4336916327760E-03 -0.3443618019823E-02
-0.4865837640343E-03 -0.4343737153182E-02
-0.5137842864637E-03 -0.5246453824328E-02
-0.5183572218979E-03 -0.6147155418878E-02
-0.5041217755819E-03 -0.7042212990243E-02
-0.4753679178875E-03 -0.7928453127048E-02
-0.4371846629403E-03 -0.8802740527999E-02
-0.3962616036291E-03 -0.9661685448822E-02
-0.3621026796794E-03 -0.1050151691241E-01
-0.3485922777681E-03 -0.1131816877998E-01
-0.3756877366690E-03 -0.1210783289961E-01
-0.4706669081593E-03 -0.1286868512394E-01
-0.6675832497360E-03 -0.1360473692471E-01
-0.1001573648453E-02 -0.1432999232390E-01
-0.1495120110158E-02 -0.1507160001392E-01
-0.2136645826400E-02 -0.1586617871733E-01
-0.2867748575863E-02 -0.1674023220610E-01
-0.1098202373436E-03 -0.8239156889967E-03
-0.2145794974566E-03 -0.1674633608379E-02
-0.3048610531801E-03 -0.2547913417137E-02
-0.3743318567522E-03 -0.3437190193241E-02
-0.4206173422655E-03 -0.4335400669472E-02
-0.4444119241726E-03 -0.5236243302655E-02
-0.4481545072336E-03 -0.6134512135094E-02
-0.4351257488513E-03 -0.7025855749034E-02
-0.4091729987296E-03 -0.7906381704235E-02
-0.3749838094359E-03 -0.8772318488414E-02
-0.3388033803957E-03 -0.9619807397095E-02
-0.3095240750729E-03 -0.1044491280998E-01
-0.3000479161592E-03 -0.1124392606628E-01
-0.3286371120181E-03 -0.1201421063758E-01
-0.4196170217122E-03 -0.1275613839203E-01
-0.6021622151054E-03 -0.1347663570129E-01
-0.9044892853250E-03 -0.1419234566290E-01
-0.1341828132662E-02 -0.1493084032465E-01
-0.1900691377811E-02 -0.1572493319103E-01
-0.2532889741488E-02 -0.1659736681826E-01
-0.9273701740290E-04 -0.8236607102842E-03
-0.1812442637600E-03 -0.1673088937954E-02
-0.2577925041161E-03 -0.2544454466236E-02
-0.3170026729053E-03 -0.3431696008694E-02
-0.3566230218272E-03 -0.4327978996117E-02
-0.3769770723199E-03 -0.5226828909487E-02
-0.3799750603372E-03 -0.6122569067116E-02
-0.3683793018857E-03 -0.7010243175913E-02
-0.3455587472053E-03 -0.7885346376712E-02
-0.3157161491880E-03 -0.8743578003475E-02
-0.2845135206350E-03 -0.9580728878934E-02
-0.2600204664835E-03 -0.1039282904356E-01
-0.2538612662424E-03 -0.1117664755801E-01
-0.2822466352289E-03 -0.1193076203975E-01
-0.3662515078901E-03 -0.1265757167958E-01
-0.5302454427321E-03 -0.1336639023794E-01
-0.7964235661727E-03 -0.1407567629889E-01
-0.1174821060522E-02 -0.1481269952248E-01
-0.1652020837796E-02 -0.1560728818804E-01
-0.2188480722128E-02 -0.1647978964431E-01
-0.7631408328474E-04 -0.8235004510210E-03
-0.1491764376037E-03 -0.1671894365008E-02
-0.2123638677210E-03 -0.2541647939583E-02
-0.2614355195132E-03 -0.3427078039898E-02
-0.2943816087908E-03 -0.4321539653365E-02
-0.3112912503998E-03 -0.5218440419127E-02
-0.3136302432595E-03 -0.6111735721897E-02
-0.3036637329504E-03 -0.6995975742921E-02
-0.2842507556325E-03 -0.7866149632492E-02
-0.2590304793719E-03 -0.8717530215036E-02
-0.2329498712855E-03 -0.9545658162879E-02
-0.2130598567180E-03 -0.1034661846476E-01
-0.2094464294517E-03 -0.1111770625284E-01
-0.2359835175970E-03 -0.1185865576917E-01
-0.3103196152216E-03 -0.1257363229537E-01
-0.4522132799457E-03 -0.1327383177907E-01
-0.6787250142918E-03 -0.1397888759374E-01
-0.9962736035599E-03 -0.1471549812867E-01
-0.1392642763378E-02 -0.1551121900234E-01
-0.1835886072629E-02 -0.1638465146855E-01
-0.6042652499631E-04 -0.8234007965037E-03
-0.1181382717120E-03 -0.1670980614360E-02
-0.1682872321610E-03 -0.2539417629804E-02
-0.2073507207713E-03 -0.3423306725621E-02
-0.2336432475229E-03 -0.4316152233136E-02
-0.2471241553055E-03 -0.5211281366026E-02
-0.2488846754069E-03 -0.6102368305416E-02
-0.2407122783016E-03 -0.6983573368237E-02
-0.2249288750047E-03 -0.7849482587570E-02
-0.2045390290266E-03 -0.8695037350321E-02
-0.1836557319486E-03 -0.9515608656911E-02
-0.1681385011631E-03 -0.1030738640463E-01
-0.1663159445068E-03 -0.1106817810894E-01
-0.1895084291043E-03 -0.1179874180067E-01
-0.2518503258329E-03 -0.1250470143798E-01
-0.3687395193025E-03 -0.1319867664248E-01
-0.5528817607418E-03 -0.1390103041034E-01
-0.8082387941316E-03 -0.1463784905896E-01
-0.1124469584065E-02 -0.1543497733323E-01
-0.1476570173874E-02 -0.1630968347715E-01
-0.4495885917748E-04 -0.8233398798837E-03
-0.8790841889296E-04 -0.1670303316149E-02
-0.1252834989903E-03 -0.2537716156193E-02
-0.1544604858729E-03 -0.3420370748456E-02
-0.1741341101010E-03 -0.4311882729924E-02
-0.1842114900230E-03 -0.5205525083714E-02
-0.1854642687662E-03 -0.6094765116825E-02
-0.1792185579707E-03 -0.6973469252181E-02
-0.1672365284205E-03 -0.7835918045907E-02
-0.1518277120280E-03 -0.8676807588694E-02
-0.1361701590282E-03 -0.9491400375036E-02
-0.1247883033170E-03 -0.1027600635755E-01
-0.1240788622313E-03 -0.1102888139987E-01
-0.1426520131756E-03 -0.1175162216158E-01
-0.1910983669072E-03 -0.1245098485081E-01
-0.2807072255651E-03 -0.1314061585337E-01
-0.4204609887029E-03 -0.1384131370210E-01
-0.6126905130305E-03 -0.1457862371886E-01
-0.8493486013888E-03 -0.1537713543728E-01
-0.1111967179082E-02 -0.1625311785872E-01
-0.2980177129931E-04 -0.8233040888812E-03
-0.5827666226495E-04 -0.1669834979131E-02
-0.8307978786463E-04 -0.2536515468241E-02
-0.1024710686611E-03 -0.3418269224965E-02
-0.1155621228239E-03 -0.4308788343376E-02
-0.1222623640129E-03 -0.5201310896514E-02
-0.1230642470054E-03 -0.6089162545994E-02
-0.1188449471217E-03 -0.6966005045713E-02
-0.1107893230300E-03 -0.7825905606365E-02
-0.1004644050662E-03 -0.8663392465219E-02
-0.9003425241935E-04 -0.9473663872546E-02
-0.8257765822802E-04 -0.1025313653177E-01
-0.8243000933779E-04 -0.1100041259247E-01
-0.9538501409196E-04 -0.1171770780287E-01
-0.1284913674446E-03 -0.1241258152036E-01
-0.1891452825689E-03 -0.1309936817173E-01
-0.2830766371683E-03 -0.1379911226686E-01
-0.4115492586709E-03 -0.1453694538929E-01
-0.5690713906470E-03 -0.1533659413227E-01
-0.7434563426353E-03 -0.1621362966612E-01
-0.1484985635976E-04 -0.8232853838937E-03
-0.2904005352917E-04 -0.1669559484796E-02
-0.4140736533374E-04 -0.2535800041383E-02
-0.5108448633554E-04 -0.3417005719965E-02
-0.5762203144866E-04 -0.4306913158111E-02
-0.6096631658324E-04 -0.5198740842371E-02
-0.6135704413440E-04 -0.6085731831081E-02
-0.5923073837239E-04 -0.6961427247302E-02
-0.5518289600614E-04 -0.7819768387530E-02
-0.5000536065805E-04 -0.8655185912541E-02
-0.4479395211002E-04 -0.9462845023807E-02
-0.4110694513247E-04 -0.1023923496709E-01
-0.4113315032836E-04 -0.1098317585480E-01
-0.4778476513572E-04 -0.1169726212833E-01
-0.6458125804441E-04 -0.1238953160092E-01
-0.9518052553341E-04 -0.1307471298143E-01
-0.1423705175861E-03 -0.1377397390312E-01
-0.2066989796067E-03 -0.1451218841813E-01
-0.2853840265902E-03 -0.1531257702995E-01
-0.3723682999190E-03 -0.1619029813708E-01
-0.1165036713541E-13 -0.8232795795538E-03
-0.6171462042645E-13 -0.1669468505909E-02
-0.1630687577968E-12 -0.2535562310790E-02
-0.3455768226782E-12 -0.3416584036944E-02
-0.6473648265996E-12 -0.4306284937783E-02
-0.1106033743645E-11 -0.5197877181195E-02
-0.1752546073117E-11 -0.6084576681863E-02
-0.2607443017709E-11 -0.6959884720907E-02
-0.3677216069046E-11 -0.7817700987413E-02
-0.4948308244404E-11 -0.8652424158553E-02
-0.6376551317043E-11 -0.9459209354872E-02
-0.7870865521216E-11 -0.1023457142623E-01
-0.9272108168676E-11 -0.1097740481298E-01
-0.1033237819965E-10 -0.1169043131321E-01
-0.1070533160897E-10 -0.1238184753909E-01
-0.9968454904788E-11 -0.1306651051056E-01
-0.7711390872004E-11 -0.1376562497991E-01
-0.3698682232804E-11 -0.1450397774294E-01
 0.1935677929052E-11 -0.1530462238859E-01
 0.8573569599944E-11 -0.1618258070598E-01
 0.1484985633518E-04 -0.8232853837685E-03
 0.2904005340432E-04 -0.1669559484548E-02
 0.4140736500709E-04 -0.2535800041018E-02
 0.5108448564549E-04 -0.3417005719495E-02
 0.5762203015710E-04 -0.4306913157547E-02
 0.6096631437690E-04 -0.5198740841732E-02
 0.6135704063826E-04 -0.6085731830390E-02
 0.5923073317046E-04 -0.6961427246593E-02
 0.5518288866920E-04 -0.7819768386847E-02
 0.5000535078318E-04 -0.8655185911944E-02
 0.4479393938090E-04 -0.9462845023367E-02
 0.4110692941206E-04 -0.1023923496688E-01
 0.4113313179411E-04 -0.1098317585488E-01
 0.4778474445708E-04 -0.1169726212873E-01
 0.6458123658221E-04 -0.1238953160161E-01
 0.9518050549817E-04 -0.1307471298234E-01
 0.1423705020222E-03 -0.1377397390413E-01
 0.2066989720494E-03 -0.1451218841914E-01
 0.2853840303223E-03 -0.1531257703091E-01
 0.3723683169844E-03 -0.1619029813802E-01
 0.2980177127086E-04 -0.8233040886308E-03
 0.5827666213580E-04 -0.1669834978634E-02
 0.8307978753639E-04 -0.2536515467511E-02
 0.1024710679742E-03 -0.3418269224023E-02
 0.1155621215418E-03 -0.4308788342247E-02
 0.1222623618235E-03 -0.5201310895233E-02
 0.1230642435358E-03 -0.6089162544608E-02
 0.1188449419583E-03 -0.6966005044286E-02
 0.1107893157452E-03 -0.7825905604988E-02
 0.1004643952564E-03 -0.8663392464011E-02
 0.9003423976232E-04 -0.9473663871646E-02
 0.8257764257238E-04 -0.1025313653133E-01
 0.8242999083514E-04 -0.1100041259261E-01
 0.9538499337434E-04 -0.1171770780365E-01
 0.1284913458310E-03 -0.1241258152175E-01
 0.1891452622413E-03 -0.1309936817357E-01
 0.2830766211820E-03 -0.1379911226892E-01
 0.4115492506317E-03 -0.1453694539136E-01
 0.5690713939580E-03 -0.1533659413426E-01
 0.7434563594538E-03 -0.1621362966807E-01
 0.4495885914252E-04 -0.8233398795080E-03
 0.8790841875655E-04 -0.1670303315403E-02
 0.1252834986594E-03 -0.2537716155097E-02
 0.1544604851912E-03 -0.3420370747041E-02
 0.1741341088340E-03 -0.4311882728228E-02
 0.1842114878613E-03 -0.5205525081786E-02
 0.1854642653400E-03 -0.6094765114732E-02
 0.1792185528704E-03 -0.6973469250020E-02
 0.1672365212217E-03 -0.7835918043813E-02
 0.1518277023261E-03 -0.8676807586842E-02
 0.1361701464919E-03 -0.9491400373637E-02
 0.1247882877718E-03 -0.1027600635683E-01
 0.1240788437869E-03 -0.1102888140003E-01
 0.1426519924020E-03 -0.1175162216272E-01
 0.1910983450522E-03 -0.1245098485290E-01
 0.2807072047592E-03 -0.1314061585618E-01
 0.4204609720150E-03 -0.1384131370530E-01
 0.6126905041822E-03 -0.1457862372210E-01
 0.8493486039870E-03 -0.1537713544041E-01
 0.1111967195482E-02 -0.1625311786183E-01
 0.6042652495207E-04 -0.8234007960026E-03
 0.1181382715652E-03 -0.1670980613365E-02
 0.1682872318260E-03 -0.2539417628343E-02
 0.2073507200964E-03 -0.3423306723732E-02
 0.2336432462763E-03 -0.4316152230869E-02
 0.2471241531811E-03 -0.5211281363442E-02
 0.2488846720396E-03 -0.6102368302603E-02
 0.2407122732876E-03 -0.6983573365318E-02
 0.2249288679241E-03 -0.7849482584722E-02
 0.2045390194744E-03 -0.8695037347776E-02
 0.1836557195821E-03 -0.9515608654952E-02
 0.1681384857777E-03 -0.1030738640356E-01
 0.1663159261554E-03 -0.1106817810905E-01
 0.1895084082708E-03 -0.1179874180212E-01
 0.2518503036628E-03 -0.1250470144075E-01
 0.3687394978468E-03 -0.1319867664631E-01
 0.5528817430778E-03 -0.1390103041476E-01
 0.8082387841381E-03 -0.1463784906352E-01
 0.1124469585642E-02 -0.1543497733768E-01
 0.1476570189674E-02 -0.1630968348163E-01
 0.7631408322830E-04 -0.8235004503944E-03
 0.1491764374434E-03 -0.1671894363765E-02
 0.2123638673804E-03 -0.2541647937755E-02
 0.2614355188463E-03 -0.3427078037533E-02
 0.2943816075691E-03 -0.4321539650521E-02
 0.3112912483209E-03 -0.5218440415877E-02
 0.3136302399646E-03 -0.6111735718342E-02
 0.3036637280434E-03 -0.6995975739212E-02
 0.2842507487001E-03 -0.7866149628844E-02
 0.2590304700097E-03 -0.8717530211736E-02
 0.2329498591382E-03 -0.9545658160281E-02
 0.2130598415458E-03 -0.1034661846326E-01
 0.2094464112384E-03 -0.1111770625281E-01
 0.2359834967180E-03 -0.1185865577087E-01
 0.3103195926869E-03 -0.1257363229881E-01
 0.4522132576905E-03 -0.1327383178397E-01
 0.6787249953859E-03 -0.1397888759954E-01
 0.9962735920740E-03 -0.1471549813475E-01
 0.1392642763601E-02 -0.1551121900839E-01
 0.1835886087628E-02 -0.1638465147469E-01
 0.9273701733113E-04 -0.8236607095321E-03
 0.1812442635827E-03 -0.1673088936461E-02
 0.2577925037683E-03 -0.2544454464041E-02
 0.3170026722471E-03 -0.3431696005853E-02
 0.3566230206335E-03 -0.4327978992691E-02
 0.3769770702929E-03 -0.5226828905557E-02
 0.3799750571259E-03 -0.6122569062796E-02
 0.3683792971037E-03 -0.7010243171375E-02
 0.3455587404481E-03 -0.7885346372207E-02
 0.3157161400536E-03 -0.8743577999340E-02
 0.2845135087563E-03 -0.9580728875594E-02
 0.2600204515826E-03 -0.1039282904151E-01
 0.2538612482249E-03 -0.1117664755772E-01
 0.2822466143417E-03 -0.1193076204159E-01
 0.3662514849726E-03 -0.1265757168366E-01
 0.5302454195588E-03 -0.1336639024397E-01
 0.7964235457740E-03 -0.1407567630622E-01
 0.1174821047185E-02 -0.1481269953034E-01
 0.1652020836302E-02 -0.1560728819600E-01
 0.2188480736099E-02 -0.1647978965249E-01
 0.1098202372531E-03 -0.8239156881188E-03
 0.2145794972586E-03 -0.1674633606637E-02
 0.3048610528231E-03 -0.2547913414576E-02
 0.3743318561026E-03 -0.3437190189920E-02
 0.4206173411015E-03 -0.4335400665458E-02
 0.4444119222017E-03 -0.5236243298030E-02
 0.4481545041139E-03 -0.6134512129980E-02
 0.4351257442085E-03 -0.7025855743622E-02
 0.4091729921705E-03 -0.7906381698804E-02
 0.3749838005639E-03 -0.8772318483350E-02
 0.3388033688338E-03 -0.9619807392893E-02
 0.3095240605052E-03 -0.1044491280722E-01
 0.3000478984081E-03 -0.1124392606557E-01
 0.3286370911860E-03 -0.1201421063943E-01
 0.4196169984334E-03 -0.1275613839667E-01
 0.6021621909379E-03 -0.1347663570850E-01
 0.9044892632063E-03 -0.1419234567195E-01
 0.1341828117102E-02 -0.1493084033462E-01
 0.1900691374197E-02 -0.1572493320133E-01
 0.2532889754163E-02 -0.1659736682899E-01
 0.1277028610270E-03 -0.8243176352475E-03
 0.2494435474081E-03 -0.1676634055557E-02
 0.3538693412860E-03 -0.2552142665376E-02
 0.4336916321343E-03 -0.3443618016023E-02
 0.4865837629001E-03 -0.4343737148573E-02
 0.5137842845504E-03 -0.5246453818992E-02
 0.5183572188745E-03 -0.6147155412940E-02
 0.5041217710884E-03 -0.7042212983905E-02
 0.4753679115450E-03 -0.7928453120616E-02
 0.4371846543608E-03 -0.8802740521899E-02
 0.3962615924295E-03 -0.9661685443613E-02
 0.3621026655091E-03 -0.1050151690877E-01
 0.3485922603664E-03 -0.1131816877865E-01
 0.3756877159838E-03 -0.1210783290127E-01
 0.4706668845879E-03 -0.1286868512901E-01
 0.6675832245551E-03 -0.1360473693310E-01
 0.1001573624425E-02 -0.1432999233489E-01
 0.1495120091997E-02 -0.1507160002636E-01
 0.2136645820224E-02 -0.1586617873048E-01
 0.2867748586922E-02 -0.1674023222002E-01
 0.1465453303897E-03 -0.8249457072558E-03
 0.2861314867165E-03 -0.1679248870615E-02
 0.4051324622349E-03 -0.2557318870206E-02
 0.4953348877747E-03 -0.3451076056870E-02
 0.5547027041191E-03 -0.4352928490671E-02
 0.5852324639254E-03 -0.5257208065966E-02
 0.5907171243590E-03 -0.6160041127458E-02
 0.5755296031219E-03 -0.7058641463800E-02
 0.5443622221342E-03 -0.7950656188168E-02
 0.5026210519487E-03 -0.8833692665179E-02
 0.4573011518111E-03 -0.9704962600894E-02
 0.4183012710934E-03 -0.1056102917154E-01
 0.4001694646769E-03 -0.1139766604019E-01
 0.4241348396716E-03 -0.1221006127870E-01
 0.5199879788679E-03 -0.1299417325713E-01
 0.7265112389091E-03 -0.1375063609253E-01
 0.1086608164988E-02 -0.1448974620444E-01
 0.1632315064471E-02 -0.1523719009290E-01
 0.2357678756939E-02 -0.1603305106561E-01
 0.3192150582936E-02 -0.1691211314847E-01
 0.1665401720726E-03 -0.8259193508070E-03
 0.3249858055146E-03 -0.1682713378091E-02
 0.4589838112001E-03 -0.2563700020751E-02
 0.5594917394652E-03 -0.3459712374897E-02
 0.6251059646935E-03 -0.4362926536471E-02
 0.6588360116886E-03 -0.5268233543218E-02
 0.6653060467502E-03 -0.6172668384280E-02
 0.6494472015536E-03 -0.7074403872028E-02
 0.6163090244435E-03 -0.7971996768296E-02
 0.5715328272521E-03 -0.8863896218842E-02
 0.5222872936202E-03 -0.9748055183293E-02
 0.4786548511697E-03 -0.1062157371880E-01
 0.4555204060324E-03 -0.1148033823650E-01
 0.4749124802058E-03 -0.1231884328002E-01
 0.5685398109177E-03 -0.1313102385931E-01
 0.7794746186697E-03 -0.1391385086145E-01
 0.1158875185495E-02 -0.1467271713176E-01
 0.1751225046650E-02 -0.1543010678657E-01
 0.2560030824608E-02 -0.1622901428764E-01
 0.3508482872888E-02 -0.1711441007262E-01
 0.1879343146360E-03 -0.8273793019603E-03
 0.3664706285514E-03 -0.1687304698070E-02
 0.5159067929190E-03 -0.2571562167787E-02
 0.6265752811543E-03 -0.3469629342564E-02
 0.6981691812635E-03 -0.4373571619683E-02
 0.7349956154614E-03 -0.5279100697469E-02
 0.7425938912156E-03 -0.6184355416112E-02
 0.7264387877260E-03 -0.7088578179079E-02
 0.6918852643882E-03 -0.7991315307869E-02
 0.6447322179363E-03 -0.8891956655626E-02
 0.5922015760241E-03 -0.9789352824180E-02
 0.5443615537449E-03 -0.1068138744959E-01
 0.5161128798852E-03 -0.1156442000345E-01
 0.5297862095703E-03 -0.1243272263380E-01
 0.6182956147352E-03 -0.1327867708698E-01
 0.8282168568997E-03 -0.1409561580715E-01
 0.1219070876947E-02 -0.1488281419276E-01
 0.1850688442684E-02 -0.1565682725186E-01
 0.2743419424280E-02 -0.1646253784343E-01
 0.3815848811711E-02 -0.1735438609922E-01
 0.2110356572379E-03 -0.8296322670675E-03
 0.4110349659629E-03 -0.1693596624365E-02
 0.5761502628105E-03 -0.2581504182375E-02
 0.6965261991231E-03 -0.3481206198245E-02
 0.7735986334205E-03 -0.4384937502234E-02
 0.8132771281251E-03 -0.5289593420528E-02
 0.8220667722795E-03 -0.6194614110023E-02
 0.8059498292149E-03 -0.7100383948962E-02
 0.7705325242518E-03 -0.8007476569348E-02
 0.7217054229575E-03 -0.8916283600204E-02
 0.6666464839802E-03 -0.9826681235787E-02
 0.6152424141540E-03 -0.1073757730220E-01
 0.5821166839269E-03 -0.1164620360297E-01
 0.5894114866252E-03 -0.1254721212027E-01
 0.6704312015188E-03 -0.1343223391366E-01
 0.8740193839487E-03 -0.1429162468316E-01
 0.1267042495021E-02 -0.1511781481535E-01
 0.1926951357374E-02 -0.1591823155077E-01
 0.2899394435604E-02 -0.1673587374434E-01
 0.4107286200807E-02 -0.1763843660717E-01
 0.2362769683627E-03 -0.8331047162201E-03
 0.4593049187573E-03 -0.1702352553969E-02
 0.6400867897777E-03 -0.2594242601198E-02
 0.7694086312444E-03 -0.3494806141621E-02
 0.8512956627356E-03 -0.4396996239706E-02
 0.8935315724767E-03 -0.5299367628119E-02
 0.9035731648969E-03 -0.6202834242236E-02
 0.8878455642791E-03 -0.7108944407200E-02
 0.8521494579244E-03 -0.8019296031402E-02
 0.8024139511452E-03 -0.8935309623476E-02
 0.7457034230478E-03 -0.9857987197308E-02
 0.6915977602873E-03 -0.1078748933883E-01
 0.6542006151944E-03 -0.1172234299824E-01
 0.6550303857354E-03 -0.1265827081259E-01
 0.7270037204760E-03 -0.1358722798775E-01
 0.9197256104626E-03 -0.1449799086139E-01
 0.1305215573605E-02 -0.1537656467173E-01
 0.1978995916341E-02 -0.1621766697139E-01
 0.3022527861270E-02 -0.1705650919467E-01
 0.4378838291703E-02 -0.1797557520522E-01
 0.2642806810274E-03 -0.8384753937706E-03
 0.5120695367350E-03 -0.1714714041255E-02
 0.7080546442474E-03 -0.2610740370582E-02
 0.8451648538148E-03 -0.3510849406180E-02
 0.9310511120921E-03 -0.4409692903378E-02
 0.9755227561527E-03 -0.5308044329924E-02
 0.9868824159980E-03 -0.6208381835794E-02
 0.9719074367692E-03 -0.7113369937135E-02
 0.9365364055871E-03 -0.8025580917092E-02
 0.8866981272943E-03 -0.8947449492361E-02
 0.8293046606576E-03 -0.9881161965834E-02
 0.7735550633681E-03 -0.1082832400050E-01
 0.7328584600733E-03 -0.1178917128321E-01
 0.7277569932570E-03 -0.1276122950996E-01
 0.7901397548212E-03 -0.1373799647161E-01
 0.9689108915764E-03 -0.1470877395154E-01
 0.1337869825806E-02 -0.1565547313881E-01
 0.2007820082586E-02 -0.1655774515186E-01
 0.3106530364066E-02 -0.1743339999249E-01
 0.4624815236212E-02 -0.1837858984245E-01
 0.2959856076115E-03 -0.8468656916100E-03
 0.5703152384133E-03 -0.1732407728913E-02
 0.7802789014838E-03 -0.2632244309744E-02
 0.9235598691731E-03 -0.3529757645333E-02
 0.1012533468903E-02 -0.4422908050207E-02
 0.1058928800178E-02 -0.5315200064052E-02
 0.1071687584342E-02 -0.6210603729302E-02
 0.1057835180270E-02 -0.7112773926024E-02
 0.1023394612667E-02 -0.8025158031702E-02
 0.9742698613342E-03 -0.8951142880231E-02
 0.9172130791828E-03 -0.9894102884373E-02
 0.8610246711741E-03 -0.1085721845491E-01
 0.8183290818510E-03 -0.1184279477883E-01
 0.8084402743988E-03 -0.1285089173568E-01
 0.8617628235262E-03 -0.1387777318571E-01
 0.1025484591127E-02 -0.1491564008496E-01
 0.1371384797703E-02 -0.1594708308153E-01
 0.2017919533436E-02 -0.1693842649174E-01
 0.3145173434654E-02 -0.1787726166370E-01
 0.4835531054649E-02 -0.1886426884390E-01
 0.3328792567035E-03 -0.8602260976620E-03
 0.6352205947165E-03 -0.1758075907984E-02
 0.8567149575567E-03 -0.2660255443749E-02
 0.1004120985317E-02 -0.3551835539821E-02
 0.1095291081293E-02 -0.4436414514507E-02
 0.1143349046856E-02 -0.5320358202517E-02
 0.1157611786807E-02 -0.6208831461744E-02
 0.1145252554834E-02 -0.7106289267374E-02
 0.1112329700111E-02 -0.8016902566130E-02
 0.1064711337800E-02 -0.8944900333581E-02
 0.1009009326849E-02 -0.9894783992770E-02
 0.9536635904369E-03 -0.1087134959235E-01
 0.9105169127587E-03 -0.1187922871382E-01
 0.8975345392659E-03 -0.1292167727906E-01
 0.9433220252249E-03 -0.1399894016823E-01
 0.1092978707866E-02 -0.1510804247206E-01
 0.1413762195414E-02 -0.1623846032659E-01
 0.2019411211974E-02 -0.1735345290683E-01
 0.3134534468593E-02 -0.1839931089749E-01
 0.4994874423099E-02 -0.1945640524780E-01
 0.3774426470360E-03 -0.8822014701654E-03
 0.7079969711555E-03 -0.1795774893558E-02
 0.9367681967757E-03 -0.2696279481719E-02
 0.1086111329451E-02 -0.3577081059542E-02
 0.1178776374738E-02 -0.4449853191745E-02
 0.1228313428080E-02 -0.5322977604689E-02
 0.1244219206401E-02 -0.6202385169582E-02
 0.1233716772808E-02 -0.7093085523359E-02
 0.1202859403421E-02 -0.7999766732767E-02
 0.1157481142337E-02 -0.8927349100293E-02
 0.1104089053573E-02 -0.9881333786673E-02
 0.1050852802971E-02 -0.1086805154293E-01
 0.1008925814689E-02 -0.1189457756306E-01
 0.9949586803452E-03 -0.1296782927483E-01
 0.1035631318314E-02 -0.1409326789799E-01
 0.1173751536404E-02 -0.1527418536307E-01
 0.1472694673227E-02 -0.1651072049633E-01
 0.2029812000111E-02 -0.1778392107756E-01
 0.3079022617158E-02 -0.1900643581099E-01
 0.5076254665103E-02 -0.2018972244941E-01
 0.4340321074400E-03 -0.9203542339339E-03
 0.7892116801076E-03 -0.1851496010810E-02
 0.1018898130558E-02 -0.2740976643497E-02
 0.1168639128429E-02 -0.3605059810935E-02
 0.1262370937018E-02 -0.4462740561097E-02
 0.1313294315559E-02 -0.5322424088967E-02
 0.1331033189046E-02 -0.6190586212751E-02
 0.1322730008996E-02 -0.7072383586620E-02
 0.1294426223796E-02 -0.7972807991678E-02
 0.1251926583886E-02 -0.8897276886166E-02
 0.1201677116027E-02 -0.9852108156207E-02
 0.1151685375831E-02 -0.1084496101675E-01
 0.1112631698983E-02 -0.1188521105374E-01
 0.1099944482248E-02 -0.1298378591515E-01
 0.1138704967918E-02 -0.1415203212751E-01
 0.1268922274463E-02 -0.1540198795433E-01
 0.1551881926460E-02 -0.1674260235428E-01
 0.2071874494715E-02 -0.1819021997513E-01
 0.3004859267809E-02 -0.1968484945216E-01
 0.5037704539160E-02 -0.2111265529325E-01
 0.5105927648946E-03 -0.9932026518845E-03
 0.8764161742535E-03 -0.1931857632810E-02
 0.1100609253830E-02 -0.2792304426302E-02
 0.1250985090915E-02 -0.3635465500412E-02
 0.1345308965897E-02 -0.4474241235617E-02
 0.1397769341577E-02 -0.5318019678852E-02
 0.1417543761721E-02 -0.6172751112683E-02
 0.1411758810139E-02 -0.7043474769348E-02
 0.1386413029141E-02 -0.7935213907790E-02
 0.1347303956389E-02 -0.8853670437589E-02
 0.1300852608707E-02 -0.9805754271027E-02
 0.1255005023512E-02 -0.1080014663373E-01
 0.1220213053151E-02 -0.1184806536819E-01
 0.1211119818130E-02 -0.1296429634263E-01
 0.1251110027407E-02 -0.1416716567254E-01
 0.1379329303506E-02 -0.1547737890199E-01
 0.1649518173826E-02 -0.1691862498697E-01
 0.2157784401756E-02 -0.1851667011096E-01
 0.2983147260528E-02 -0.2035470774084E-01
 0.4823806923788E-02 -0.2226618217434E-01
-0.7468589436938E-01 -0.4974210557033E-01
-0.1277138417901E+00 -0.9677351074493E-01
-0.1712474116452E+00 -0.1545590957091E+00
-0.2091808305052E+00 -0.2191256888532E+00
-0.2428801416089E+00 -0.2866369902644E+00
-0.2715648275995E+00 -0.3543514502325E+00
-0.2939747443260E+00 -0.4211779702660E+00
-0.3097436659790E+00 -0.4867246621489E+00
-0.3190502949320E+00 -0.5503612027169E+00
-0.6727663010562E-01 -0.4852984264375E-01
-0.1152065360022E+00 -0.9549499048795E-01
-0.1546147245719E+00 -0.1539421600576E+00
-0.1891422799363E+00 -0.2199839500704E+00
-0.2201063383000E+00 -0.2899204773029E+00
-0.2468109222143E+00 -0.3612043513173E+00
-0.2680621629005E+00 -0.4327692994375E+00
-0.2835465027136E+00 -0.5040204912951E+00
-0.2936299775701E+00 -0.5740026757272E+00
-0.5960158349938E-01 -0.4746215754086E-01
-0.1021841980440E+00 -0.9446535519133E-01
-0.1372247147511E+00 -0.1537016262052E+00
-0.1680612444091E+00 -0.2212345064625E+00
-0.1959586144560E+00 -0.2935293377944E+00
-0.2203218356452E+00 -0.3682516882992E+00
-0.2400718416877E+00 -0.4443902467804E+00
-0.2549943400032E+00 -0.5212207113627E+00
-0.2655912348066E+00 -0.5977449032521E+00
-0.5166727833942E-01 -0.4655203720620E-01
-0.8865813414031E-01 -0.9366705332862E-01
-0.1191150685674E+00 -0.1537113204367E+00
-0.1460175204555E+00 -0.2226904830608E+00
-0.1705465835463E+00 -0.2972150001875E+00
-0.1922196500182E+00 -0.3751682601641E+00
-0.2101091858976E+00 -0.4556266431822E+00
-0.2240991518011E+00 -0.5378502963421E+00
-0.2347695230765E+00 -0.6209271691817E+00
-0.4348690415754E-01 -0.4579765350039E-01
-0.7466564095874E-01 -0.9306386657249E-01
-0.1003486795399E+00 -0.1538774055176E+00
-0.1231061530271E+00 -0.2241916971147E+00
-0.1439973643454E+00 -0.3007504371415E+00
-0.1626512209762E+00 -0.3816440827348E+00
-0.1783074453193E+00 -0.4660679372749E+00
-0.1909310429299E+00 -0.5533405463380E+00
-0.2011272207349E+00 -0.6427137613597E+00
-0.3508364507920E-01 -0.4519187231287E-01
-0.6026086781580E-01 -0.9262104982316E-01
-0.8100766621297E-01 -0.1541209755536E+00
-0.9943983588719E-01 -0.2256045379151E+00
-0.1164576144087E+00 -0.3039350461300E+00
-0.1317909117415E+00 -0.3873928706034E+00
-0.1448479855612E+00 -0.4753041075216E+00
-0.1556500443225E+00 -0.5670867669474E+00
-0.1647734699026E+00 -0.6621981550623E+00
-0.2649003057658E-01 -0.4472783565524E-01
-0.4551098963385E-01 -0.9230846587183E-01
-0.6118917378999E-01 -0.1543775461148E+00
-0.7514765772660E-01 -0.2268190930555E+00
-0.8809416361886E-01 -0.3065984671687E+00
-0.9984474373833E-01 -0.3921587655331E+00
-0.1099691640375E+00 -0.4829502706657E+00
-0.1185164772155E+00 -0.5785021091975E+00
-0.1259798712572E+00 -0.6784824112536E+00
-0.1774650571545E-01 -0.4440011154802E-01
-0.3049337057552E-01 -0.9210226470089E-01
-0.4100216800695E-01 -0.1545968142229E+00
-0.5037275725216E-01 -0.2277490833422E+00
-0.5909309135542E-01 -0.3086031106995E+00
-0.6705047808761E-01 -0.3957272981366E+00
-0.7396599645562E-01 -0.4886732880237E+00
-0.7988971877702E-01 -0.5870680017385E+00
-0.8518174870647E-01 -0.6907581742110E+00
-0.8899611848239E-02 -0.4420493094833E-01
-0.1529300969446E-01 -0.9198536073631E-01
-0.2056450231448E-01 -0.1547427878760E+00
-0.2526948122800E-01 -0.2283322206664E+00
-0.2965689579628E-01 -0.3098474918585E+00
-0.3367359694053E-01 -0.3979361156432E+00
-0.3718278742139E-01 -0.4922157905171E+00
-0.4021498288787E-01 -0.5923792891618E+00
-0.4296000674809E-01 -0.6983899230118E+00
 0.5520316536631E-09 -0.4414010841191E-01
 0.6459172975141E-09 -0.9194752656465E-01
 0.4772774339240E-09 -0.1547938489353E+00
 0.1822799856718E-09 -0.2285308082868E+00
-0.1203364504138E-09 -0.3102692938160E+00
-0.3564139864544E-09 -0.3986838760199E+00
-0.5183291812766E-09 -0.4934151681474E+00
-0.6304771972851E-09 -0.5941790174973E+00
-0.7156081665655E-09 -0.7009789017310E+00
 0.8899612948464E-02 -0.4420493096480E-01
 0.1529301098093E-01 -0.9198536073821E-01
 0.2056450326401E-01 -0.1547427878572E+00
 0.2526948158881E-01 -0.2283322206357E+00
 0.2965689555326E-01 -0.3098474918276E+00
 0.3367359622634E-01 -0.3979361156166E+00
 0.3718278638385E-01 -0.4922157904933E+00
 0.4021498162639E-01 -0.5923792891380E+00
 0.4296000531786E-01 -0.6983899229893E+00
 0.1774650680431E-01 -0.4440011158115E-01
 0.3049337184603E-01 -0.9210226470541E-01
 0.4100216894147E-01 -0.1545968141862E+00
 0.5037275760182E-01 -0.2277490832819E+00
 0.5909309110548E-01 -0.3086031106384E+00
 0.6705047736946E-01 -0.3957272980841E+00
 0.7396599541556E-01 -0.4886732879768E+00
 0.7988971751413E-01 -0.5870680016922E+00
 0.8518174727925E-01 -0.6907581741679E+00
 0.2649003164702E-01 -0.4472783570542E-01
 0.4551099087823E-01 -0.9230846588043E-01
 0.6118917469985E-01 -0.1543775460624E+00
 0.7514765805795E-01 -0.2268190929674E+00
 0.8809416335767E-01 -0.3065984670790E+00
 0.9984474301395E-01 -0.3921587654559E+00
 0.1099691629937E+00 -0.4829502705970E+00
 0.1185164759506E+00 -0.5785021091306E+00
 0.1259798698348E+00 -0.6784824111920E+00
 0.3508364612492E-01 -0.4519187238072E-01
 0.6026086902455E-01 -0.9262104983804E-01
 0.8100766708900E-01 -0.1541209754885E+00
 0.9943983619344E-01 -0.2256045378023E+00
 0.1164576141324E+00 -0.3039350460140E+00
 0.1317909110091E+00 -0.3873928705029E+00
 0.1448479845129E+00 -0.4753041074325E+00
 0.1556500430554E+00 -0.5670867668613E+00
 0.1647734684859E+00 -0.6621981549825E+00
 0.4348690517330E-01 -0.4579765358680E-01
 0.7466564212333E-01 -0.9306386659655E-01
 0.1003486803737E+00 -0.1538774054439E+00
 0.1231061533020E+00 -0.2241916969810E+00
 0.1439973640504E+00 -0.3007504370018E+00
 0.1626512202344E+00 -0.3816440826125E+00
 0.1783074442664E+00 -0.4660679371663E+00
 0.1909310416604E+00 -0.5533405462332E+00
 0.2011272193230E+00 -0.6427137612598E+00
 0.5166727932130E-01 -0.4655203731229E-01
 0.8865813525343E-01 -0.9366705336538E-01
 0.1191150693512E+00 -0.1537113203593E+00
 0.1460175206934E+00 -0.2226904829110E+00
 0.1705465832296E+00 -0.2972150000273E+00
 0.1922196492663E+00 -0.3751682600214E+00
 0.2101091848403E+00 -0.4556266430539E+00
 0.2240991505292E+00 -0.5378502962172E+00
 0.2347695216666E+00 -0.6209271690577E+00
 0.5960158444497E-01 -0.4746215766789E-01
 0.1021841990998E+00 -0.9446535524475E-01
 0.1372247154786E+00 -0.1537016261300E+00
 0.1680612446051E+00 -0.2212345063025E+00
 0.1959586141151E+00 -0.2935293376177E+00
 0.2203218348824E+00 -0.3682516881373E+00
 0.2400718406263E+00 -0.4443902466310E+00
 0.2549943387286E+00 -0.5212207112140E+00
 0.2655912333947E+00 -0.5977449030969E+00
 0.6727663101401E-01 -0.4852984279267E-01
 0.1152065369966E+00 -0.9549499056188E-01
 0.1546147252383E+00 -0.1539421599912E+00
 0.1891422800866E+00 -0.2199839499074E+00
 0.2201063379324E+00 -0.2899204771149E+00
 0.2468109214396E+00 -0.3612043511370E+00
 0.2680621618351E+00 -0.4327692992638E+00
 0.2835465014357E+00 -0.5040204911154E+00
 0.2936299761509E+00 -0.5740026755308E+00
 0.7468589524077E-01 -0.4974210574081E-01
 0.1277138427211E+00 -0.9677351084152E-01
 0.1712474122480E+00 -0.1545590956591E+00
 0.2091808306071E+00 -0.2191256886964E+00
 0.2428801412121E+00 -0.2866369900723E+00
 0.2715648268106E+00 -0.3543514500359E+00
 0.2939747432559E+00 -0.4211779700615E+00
 0.3097436646967E+00 -0.4867246619297E+00
 0.3190502934996E+00 -0.5503612024632E+00
-0.2396611521951E+00 -0.1485263124637E+00
-0.3476260700601E+00 -0.2651581848456E+00
-0.4098413153817E+00 -0.3449834236394E+00
-0.4517649069359E+00 -0.3976524103716E+00
-0.4769350881026E+00 -0.4215143123129E+00
-0.4777044743692E+00 -0.4212186696507E+00
-0.4520787391329E+00 -0.4060717960227E+00
-0.4011483653337E+00 -0.3883084347103E+00
-0.3292194241110E+00 -0.3797101480046E+00
-0.2186713943672E+00 -0.1257775208457E+00
-0.3289395210417E+00 -0.2352688158687E+00
-0.3953019065799E+00 -0.3216637292706E+00
-0.4408437279321E+00 -0.3821552231305E+00
-0.4708531170930E+00 -0.4153168099938E+00
-0.4787081548983E+00 -0.4259859099748E+00
-0.4617460737863E+00 -0.4219710480604E+00
-0.4202896873739E+00 -0.4122865765401E+00
-0.3572875677146E+00 -0.4070886556600E+00
-0.1985476185682E+00 -0.1094261342788E+00
-0.3074912277734E+00 -0.2097252879592E+00
-0.3772183533867E+00 -0.2975078918324E+00
-0.4263916808979E+00 -0.3644319894440E+00
-0.4607352997230E+00 -0.4063318780998E+00
-0.4750852745639E+00 -0.4272818927890E+00
-0.4667535449629E+00 -0.4337476442847E+00
-0.4353281196867E+00 -0.4327784023782E+00
-0.3825912442780E+00 -0.4325222553921E+00
-0.1794042530114E+00 -0.9659874906010E-01
-0.2844510955344E+00 -0.1878332002369E+00
-0.3557649551124E+00 -0.2739831188109E+00
-0.4080799251121E+00 -0.3448927175029E+00
-0.4463027158699E+00 -0.3944863188189E+00
-0.4664194116501E+00 -0.4251992501680E+00
-0.4662334003808E+00 -0.4419625495876E+00
-0.4449250872424E+00 -0.4503217663142E+00
-0.4034009204056E+00 -0.4567394489590E+00
-0.1611727760040E+00 -0.8602230720034E-01
-0.2605162023678E+00 -0.1687605722376E+00
-0.3314902349353E+00 -0.2516132207719E+00
-0.3858103293581E+00 -0.3243295796918E+00
-0.4272300527273E+00 -0.3800316258911E+00
-0.4522808188157E+00 -0.4197415555965E+00
-0.4594149388207E+00 -0.4466284082546E+00
-0.4477548448217E+00 -0.4649496721699E+00
-0.4177181593332E+00 -0.4797131681953E+00
-0.1437753671445E+00 -0.7702163787025E-01
-0.2361276567282E+00 -0.1518652168974E+00
-0.3049826917074E+00 -0.2304838457772E+00
-0.3597985345850E+00 -0.3033388469023E+00
-0.4033297451234E+00 -0.3634998767337E+00
-0.4323180809633E+00 -0.4110144492421E+00
-0.4456584661603E+00 -0.4475223774151E+00
-0.4426363091106E+00 -0.4761221745081E+00
-0.4235606982632E+00 -0.5005368601051E+00
-0.1271578445468E+00 -0.6919787378569E-01
-0.2116005041439E+00 -0.1366748204528E+00
-0.2767899818487E+00 -0.2104985038937E+00
-0.3304597721756E+00 -0.2822532236625E+00
-0.3746697605623E+00 -0.3453985262732E+00
-0.4063689211466E+00 -0.3992614716483E+00
-0.4245661747673E+00 -0.4443797472888E+00
-0.4287184595344E+00 -0.4829394771591E+00
-0.4192916231382E+00 -0.5175734966729E+00
-0.1112944833325E+00 -0.6230180394291E-01
-0.1871936553167E+00 -0.1228445539068E+00
-0.2474184585920E+00 -0.1914924861970E+00
-0.2983216665045E+00 -0.2611898508863E+00
-0.3415577997915E+00 -0.3260672251253E+00
-0.3745100135250E+00 -0.3847635937848E+00
-0.3960690944803E+00 -0.4370516542335E+00
-0.4056764828034E+00 -0.4843907611442E+00
-0.4039560452772E+00 -0.5287968205705E+00
-0.9618355903037E-01 -0.5617749139865E-01
-0.1631499850370E+00 -0.1101421953888E+00
-0.2173594929623E+00 -0.1732791769561E+00
-0.2639825928977E+00 -0.2401143224055E+00
-0.3044991670664E+00 -0.3056181834978E+00
-0.3370417411096E+00 -0.3677110656340E+00
-0.3603511326424E+00 -0.4256030547403E+00
-0.3738331008745E+00 -0.4798849368970E+00
-0.3776663191961E+00 -0.5320740938177E+00
 0.9618355986002E-01 -0.5617749161179E-01
 0.1631499858668E+00 -0.1101421956196E+00
 0.2173594934724E+00 -0.1732791770898E+00
 0.2639825929696E+00 -0.2401143224377E+00
 0.3044991666838E+00 -0.3056181834794E+00
 0.3370417403405E+00 -0.3677110655881E+00
 0.3603511315630E+00 -0.4256030546693E+00
 0.3738330995305E+00 -0.4798849368218E+00
 0.3776663176342E+00 -0.5320740937855E+00
 0.1112944841584E+00 -0.6230180420703E-01
 0.1871936561042E+00 -0.1228445542539E+00
 0.2474184590595E+00 -0.1914924864889E+00
 0.2983216665692E+00 -0.2611898510682E+00
 0.3415577994164E+00 -0.3260672252260E+00
 0.3745100127468E+00 -0.3847635938282E+00
 0.3960690933497E+00 -0.4370516542345E+00
 0.4056764813554E+00 -0.4843907611404E+00
 0.4039560435551E+00 -0.5287968206121E+00
 0.1271578453688E+00 -0.6919787410535E-01
 0.2116005048832E+00 -0.1366748209210E+00
 0.2767899822569E+00 -0.2104985043344E+00
 0.3304597722025E+00 -0.2822532239668E+00
 0.3746697601543E+00 -0.3453985264405E+00
 0.4063689203127E+00 -0.3992614717023E+00
 0.4245661735322E+00 -0.4443797472564E+00
 0.4287184579149E+00 -0.4829394770899E+00
 0.4192916211617E+00 -0.5175734966381E+00
 0.1437753679622E+00 -0.7702163824697E-01
 0.2361276574105E+00 -0.1518652174841E+00
 0.3049826920357E+00 -0.2304838463479E+00
 0.3597985345421E+00 -0.3033388472918E+00
 0.4033297446449E+00 -0.3634998769066E+00
 0.4323180800296E+00 -0.4110144492252E+00
 0.4456584647642E+00 -0.4475223772540E+00
 0.4426363072428E+00 -0.4761221742740E+00
 0.4235606959324E+00 -0.5005368599027E+00
 0.1611727768151E+00 -0.8602230763331E-01
 0.2605162029808E+00 -0.1687605729320E+00
 0.3314902351610E+00 -0.2516132214410E+00
 0.3858103292163E+00 -0.3243295801161E+00
 0.4272300521475E+00 -0.3800316260003E+00
 0.4522808177434E+00 -0.4197415554332E+00
 0.4594149372098E+00 -0.4466284078944E+00
 0.4477548426345E+00 -0.4649496717167E+00
 0.4177181565647E+00 -0.4797131677974E+00
 0.1794042538090E+00 -0.9659874954607E-01
 0.2844510960614E+00 -0.1878332010169E+00
 0.3557649552135E+00 -0.2739831195288E+00
 0.4080799248509E+00 -0.3448927178970E+00
 0.4463027151682E+00 -0.3944863187937E+00
 0.4664194104067E+00 -0.4251992497987E+00
 0.4662333985090E+00 -0.4419625489877E+00
 0.4449250846810E+00 -0.4503217656304E+00
 0.4034009171485E+00 -0.4567394483913E+00
 0.1985476193375E+00 -0.1094261348107E+00
 0.3074912281930E+00 -0.2097252887835E+00
 0.3772183533477E+00 -0.2975078925262E+00
 0.4263916805118E+00 -0.3644319897326E+00
 0.4607352988885E+00 -0.4063318778797E+00
 0.4750852731236E+00 -0.4272818921749E+00
 0.4667535427950E+00 -0.4337476434298E+00
 0.4353281167180E+00 -0.4327784014816E+00
 0.3825912405192E+00 -0.4325222547142E+00
 0.2186713950811E+00 -0.1257775214077E+00
 0.3289395213319E+00 -0.2352688166599E+00
 0.3953019064030E+00 -0.3216637298410E+00
 0.4408437274322E+00 -0.3821552232434E+00
 0.4708531161194E+00 -0.4153168095396E+00
 0.4787081532399E+00 -0.4259859090948E+00
 0.4617460712990E+00 -0.4219710469482E+00
 0.4202896839868E+00 -0.4122865754606E+00
 0.3572875634734E+00 -0.4070886549414E+00
 0.2396611528045E+00 -0.1485263130132E+00
 0.3476260702178E+00 -0.2651581854435E+00
 0.4098413150938E+00 -0.3449834239927E+00
 0.4517649063400E+00 -0.3976524102641E+00
 0.4769350869841E+00 -0.4215143116039E+00
 0.4777044724769E+00 -0.4212186684882E+00
 0.4520787363148E+00 -0.4060717946493E+00
 0.4011483615353E+00 -0.3883084334784E+00
 0.3292194194257E+00 -0.3797101473079E+00
-0.3546790190812E+00 -0.6150326939424E+00
-0.3751056015977E+00 -0.6093749480285E+00
-0.3826764686502E+00 -0.5945791452629E+00
-0.3774106351255E+00 -0.5731214507628E+00
-0.3604348388493E+00 -0.5478498577357E+00
-0.3341935006100E+00 -0.5214139364787E+00
-0.3021363117126E+00 -0.4957926915812E+00
-0.2679910694955E+00 -0.4719127429978E+00
-0.2346862927155E+00 -0.4495354559110E+00
-0.3315191977806E+00 -0.6504692567302E+00
-0.3547108983926E+00 -0.6491921388561E+00
-0.3661102633314E+00 -0.6383276535455E+00
-0.3647190840269E+00 -0.6196208950463E+00
-0.3508374015438E+00 -0.5957450920676E+00
-0.3262631642550E+00 -0.5695888854680E+00
-0.2943547041118E+00 -0.5436690096727E+00
-0.2595188991795E+00 -0.5195672233486E+00
-0.2259178352147E+00 -0.4975913780177E+00
-0.3047705085966E+00 -0.6876449188778E+00
-0.3300987285026E+00 -0.6921598850893E+00
-0.3458205351087E+00 -0.6866495004531E+00
-0.3501006762180E+00 -0.6723021804319E+00
-0.3421923585092E+00 -0.6512312249021E+00
-0.3227096839140E+00 -0.6261868628994E+00
-0.2939677361034E+00 -0.6000331676329E+00
-0.2600727530958E+00 -0.5750821231636E+00
-0.2261157676798E+00 -0.5524127469383E+00
-0.2740400962956E+00 -0.7250834443809E+00
-0.3005775270951E+00 -0.7366707266523E+00
-0.3200326079445E+00 -0.7384472834159E+00
-0.3303096210249E+00 -0.7308142717538E+00
-0.3299021304566E+00 -0.7150241790737E+00
-0.3181931135291E+00 -0.6931610245491E+00
-0.2959053469088E+00 -0.6679176869524E+00
-0.2656178230129E+00 -0.6421204385959E+00
-0.2320973543444E+00 -0.6179180105355E+00
-0.2389001604863E+00 -0.7611824181231E+00
-0.2653059087826E+00 -0.7808283912061E+00
-0.2870403332906E+00 -0.7918202036041E+00
-0.3022053772127E+00 -0.7938157301282E+00
-0.3090472898479E+00 -0.7870526922998E+00
-0.3061629118466E+00 -0.7725053087625E+00
-0.2928488569085E+00 -0.7519329598757E+00
-0.2696576484720E+00 -0.7277700589057E+00
-0.2392522364240E+00 -0.7027115249135E+00
-0.1989881409089E+00 -0.7945591881384E+00
-0.2235075546978E+00 -0.8230062855101E+00
-0.2453232006791E+00 -0.8448592204683E+00
-0.2629620333201E+00 -0.8593512118359E+00
-0.2748075094664E+00 -0.8659758593060E+00
-0.2791850903377E+00 -0.8646709838831E+00
-0.2745140300752E+00 -0.8559959949537E+00
-0.2596015646757E+00 -0.8413021352609E+00
-0.2342213586515E+00 -0.8228615158999E+00
-0.1543133694768E+00 -0.8235784091410E+00
-0.1749658638378E+00 -0.8609294871804E+00
-0.1942866372133E+00 -0.8942972499958E+00
-0.2112525234355E+00 -0.9229050440019E+00
-0.2245598633230E+00 -0.9460144994985E+00
-0.2326055019980E+00 -0.9630551437298E+00
-0.2334483327228E+00 -0.9737920016619E+00
-0.2247696296256E+00 -0.9785642950437E+00
-0.2038595721957E+00 -0.9786516769849E+00
-0.1054820621352E+00 -0.8461002339232E+00
-0.1204380354172E+00 -0.8910963031287E+00
-0.1348671930174E+00 -0.9346489779912E+00
-0.1481462068983E+00 -0.9762140559290E+00
-0.1593713288874E+00 -0.1015170913460E+01
-0.1672869619448E+00 -0.1050863699921E+01
-0.1701463878558E+00 -0.1082669715957E+01
-0.1654780065171E+00 -0.1110114552889E+01
-0.1496774428734E+00 -0.1133072285822E+01
-0.5356715489479E-01 -0.8603270940790E+00
-0.6142732034638E-01 -0.9104345132617E+00
-0.6913823962574E-01 -0.9609216207241E+00
-0.7641079409851E-01 -0.1011488894487E+01
-0.8278527395682E-01 -0.1061713119328E+01
-0.8757314724862E-01 -0.1111010939815E+01
-0.8974345062630E-01 -0.1158595833912E+01
-0.8772207299516E-01 -0.1203416482529E+01
-0.7905822032070E-01 -0.1244058687430E+01
-0.1231807269783E-08 -0.8651787649099E+00
-0.1672812792457E-08 -0.9170699468575E+00
-0.2115523485513E-08 -0.9700030262484E+00
-0.2550514353358E-08 -0.1023779138606E+01
-0.2960880361447E-08 -0.1078063942568E+01
-0.3319413831724E-08 -0.1132320417011E+01
-0.3582990610044E-08 -0.1185718110612E+01
-0.3682116052936E-08 -0.1236990474610E+01
-0.3503500637851E-08 -0.1284207681496E+01
 0.5356715245676E-01 -0.8603270941828E+00
 0.6142731704978E-01 -0.9104345135720E+00
 0.6913823547616E-01 -0.9609216213554E+00
 0.7641078912304E-01 -0.1011488895574E+01
 0.8278526821680E-01 -0.1061713121025E+01
 0.8757314085579E-01 -0.1111010942288E+01
 0.8974344376600E-01 -0.1158595837329E+01
 0.8772206596169E-01 -0.1203416487026E+01
 0.7905821357590E-01 -0.1244058693067E+01
 0.1054820597677E+00 -0.8461002341216E+00
 0.1204380322565E+00 -0.8910963037119E+00
 0.1348671890949E+00 -0.9346489791622E+00
 0.1481462022740E+00 -0.9762140579210E+00
 0.1593713236555E+00 -0.1015170916531E+01
 0.1672869562386E+00 -0.1050863704341E+01
 0.1701463818485E+00 -0.1082669721986E+01
 0.1654780004148E+00 -0.1110114560736E+01
 0.1496774368925E+00 -0.1133072295583E+01
 0.1543133672114E+00 -0.8235784094028E+00
 0.1749658608757E+00 -0.8609294879435E+00
 0.1942866336256E+00 -0.8942972515080E+00
 0.2112525193297E+00 -0.9229050465322E+00
 0.2245598588397E+00 -0.9460145033246E+00
 0.2326054973002E+00 -0.9630551491178E+00
 0.2334483279715E+00 -0.9737920088415E+00
 0.2247696249296E+00 -0.9785643041781E+00
 0.2038595675080E+00 -0.9786516881453E+00
 0.1989881387593E+00 -0.7945591884106E+00
 0.2235075519642E+00 -0.8230062863161E+00
 0.2453231974813E+00 -0.8448592220465E+00
 0.2629620298202E+00 -0.8593512144156E+00
 0.2748075058555E+00 -0.8659758630834E+00
 0.2791850868106E+00 -0.8646709889948E+00
 0.2745140267875E+00 -0.8559960014536E+00
 0.2596015616713E+00 -0.8413021431126E+00
 0.2342213557497E+00 -0.8228615250078E+00
 0.2389001584451E+00 -0.7611824183673E+00
 0.2653059062672E+00 -0.7808283919574E+00
 0.2870403304666E+00 -0.7918202050567E+00
 0.3022053742854E+00 -0.7938157324332E+00
 0.3090472870363E+00 -0.7870526955379E+00
 0.3061629093443E+00 -0.7725053129221E+00
 0.2928488548296E+00 -0.7519329648474E+00
 0.2696576467851E+00 -0.7277700645063E+00
 0.2392522348910E+00 -0.7027115309570E+00
 0.2740400943312E+00 -0.7250834446144E+00
 0.3005775247440E+00 -0.7366707273710E+00
 0.3200326054045E+00 -0.7384472847516E+00
 0.3303096185139E+00 -0.7308142737766E+00
 0.3299021281738E+00 -0.7150241817749E+00
 0.3181931116080E+00 -0.6931610278414E+00
 0.2959053453674E+00 -0.6679176906941E+00
 0.2656178217234E+00 -0.6421204426407E+00
 0.2320973530936E+00 -0.6179180147900E+00
 0.3047705066839E+00 -0.6876449190904E+00
 0.3300987262719E+00 -0.6921598857561E+00
 0.3458205327657E+00 -0.6866495016449E+00
 0.3501006739562E+00 -0.6723021821607E+00
 0.3421923564705E+00 -0.6512312271193E+00
 0.3227096821515E+00 -0.6261868655138E+00
 0.2939677345616E+00 -0.6000331705451E+00
 0.2600727516415E+00 -0.5750821263038E+00
 0.2261157662058E+00 -0.5524127502809E+00
 0.3315191959066E+00 -0.6504692568966E+00
 0.3547108962524E+00 -0.6491921394354E+00
 0.3661102611031E+00 -0.6383276545633E+00
 0.3647190818465E+00 -0.6196208964843E+00
 0.3508373994823E+00 -0.5957450938736E+00
 0.3262631623059E+00 -0.5695888875788E+00
 0.2943547022095E+00 -0.5436690120389E+00
 0.2595188972583E+00 -0.5195672259504E+00
 0.2259178332766E+00 -0.4975913808624E+00
 0.3546790172533E+00 -0.6150326940331E+00
 0.3751055995339E+00 -0.6093749484892E+00
 0.3826764664582E+00 -0.5945791460816E+00
 0.3774106328657E+00 -0.5731214519038E+00
 0.3604348365302E+00 -0.5478498591574E+00
 0.3341934982031E+00 -0.5214139381501E+00
 0.3021363091884E+00 -0.4957926934946E+00
 0.2679910668684E+00 -0.4719127451729E+00
 0.2346862900584E+00 -0.4495354583899E+00
</DataArray>
</PointData>
   <DataArray type="Float64" Name="Load" NumberOfComponents="1"    ComponentName0="Load" format="ascii">
 0.3462246859608E-01
 0.3128941318534E-01
 0.2896164576978E-01
 0.2852845946345E-01
 0.2846121880105E-01
 0.2870005226879E-01
 0.2912418175007E-01
 0.2971326574207E-01
 0.3047077811327E-01
 0.3142484453184E-01
 0.3262207149906E-01
 0.3412878871059E-01
 0.3603941020777E-01
 0.3849730754415E-01
 0.4170132942994E-01
 0.4568467784048E-01
 0.5050363394061E-01
 0.5565169291298E-01
 0.6499344029450E-01
 0.6281119968378E-01
 0.1289826678175E+00
 0.3014389694764E-01
 0.3153005369482E-01
 0.2990160943625E-01
 0.2915002313154E-01
 0.2899956343892E-01
 0.2912320013455E-01
 0.2945852131545E-01
 0.2996430521958E-01
 0.3063931112903E-01
 0.3150232602679E-01
 0.3258950951234E-01
 0.3395309795374E-01
 0.3566179383493E-01
 0.3778820544790E-01
 0.4036229920646E-01
 0.4336345638250E-01
 0.4654695346927E-01
 0.5013569088344E-01
 0.5158027446590E-01
 0.4643128778990E-01
 0.8221750487274E-01
 0.2793600621017E-01
 0.3040702311554E-01
 0.3022181968103E-01
 0.2958497149334E-01
 0.2938804190268E-01
 0.2945141250758E-01
 0.2970910989587E-01
 0.3013200410576E-01
 0.3071339521422E-01
 0.3146545683571E-01
 0.3241335435877E-01
 0.3359171384598E-01
 0.3503435687879E-01
 0.3674364318301E-01
 0.3866641234436E-01
 0.4066039368129E-01
 0.4249270711199E-01
 0.4359921644784E-01
 0.4048078028512E-01
 0.3922269654480E-01
 0.6732975311723E-01
 0.2667481811035E-01
 0.2931350633628E-01
 0.3002721083800E-01
 0.2979753336658E-01
 0.2964033560137E-01
 0.2967848363998E-01
 0.2987622006669E-01
 0.3021778775357E-01
 0.3069791863005E-01
 0.3132327097356E-01
 0.3210840821211E-01
 0.3306879414452E-01
 0.3420326887350E-01
 0.3546528246189E-01
 0.3674065899189E-01
 0.3783223387998E-01
 0.3842200105844E-01
 0.3742738499024E-01
 0.3386156228324E-01
 0.3734831154936E-01
 0.6052530390496E-01
 0.2588615817079E-01
 0.2842877073296E-01
 0.2962305527000E-01
 0.2979943350429E-01
 0.2976605951788E-01
 0.2980897158524E-01
 0.2996236874320E-01
 0.3022625177018E-01
 0.3060027424122E-01
 0.3108764054264E-01
 0.3169326184826E-01
 0.3241472042412E-01
 0.3322349137412E-01
 0.3404070850538E-01
 0.3472044020853E-01
 0.3504633630578E-01
 0.3461695728189E-01
 0.3271499490054E-01
 0.3066194105637E-01
 0.3739567279268E-01
 0.5664245548681E-01
 0.2536007973125E-01
 0.2773669217393E-01
 0.2916414997720E-01
 0.2965727311601E-01
 0.2977802884231E-01
 0.2985197771754E-01
 0.2997355380118E-01
 0.3016426468027E-01
 0.3043005210946E-01
 0.3077267121557E-01
 0.3118925600115E-01
 0.3166348413546E-01
 0.3214891410550E-01
 0.3255081498149E-01
 0.3271864128463E-01
 0.3244098986432E-01
 0.3140400610953E-01
 0.2959232911476E-01
 0.2953040829182E-01
 0.3796700316022E-01
 0.5410959165504E-01
 0.2499107128964E-01
 0.2719445653241E-01
 0.2871663288576E-01
 0.2943139222674E-01
 0.2969906422277E-01
 0.2981873440807E-01
 0.2991847369908E-01
 0.3004061517909E-01
 0.3019849289519E-01
 0.3039401635550E-01
 0.3061925082998E-01
 0.3084928851827E-01
 0.3102959549455E-01
 0.3106542766443E-01
 0.3082245047337E-01
 0.3013957978792E-01
 0.2892097497357E-01
 0.2776504509500E-01
 0.2951044627859E-01
 0.3860385519667E-01
 0.5231021372716E-01
 0.2472139158531E-01
 0.2676426202383E-01
 0.2830535861507E-01
 0.2916404570887E-01
 0.2955425501339E-01
 0.2972282806237E-01
 0.2980743525260E-01
 0.2986555170942E-01
 0.2991794646740E-01
 0.2996814213349E-01
 0.3000622384583E-01
 0.3000441435766E-01
 0.2990953734832E-01
 0.2964020862174E-01
 0.2909787395211E-01
 0.2821396143066E-01
 0.2714102807860E-01
 0.2686616059617E-01
 0.3002295769914E-01
 0.3918968757837E-01
 0.5095475666230E-01
 0.2451743779505E-01
 0.2641764851426E-01
 0.2793721312718E-01
 0.2888225630837E-01
 0.2936610085158E-01
 0.2957890201900E-01
 0.2965176337695E-01
 0.2965020284366E-01
 0.2960134916258E-01
 0.2951158627679E-01
 0.2937212336358E-01
 0.2915780762237E-01
 0.2882505542440E-01
 0.2831678525021E-01
 0.2758653711443E-01
 0.2667828604685E-01
 0.2595568825169E-01
 0.2658061556407E-01
 0.3074561348480E-01
 0.3970834975246E-01
 0.4989299141115E-01
 0.2435873876066E-01
 0.2613421647292E-01
 0.2761179245065E-01
 0.2860266519313E-01
 0.2915299305486E-01
 0.2940128525564E-01
 0.2946320350659E-01
 0.2940607190239E-01
 0.2926171311291E-01
 0.2904031243501E-01
 0.2873703919345E-01
 0.2833416302399E-01
 0.2780431671636E-01
 0.2712295722617E-01
 0.2630520489603E-01
 0.2550493032696E-01
 0.2523412968729E-01
 0.2667179922143E-01
 0.3150878668276E-01
 0.4016107435343E-01
 0.4903390150057E-01
 0.2423230756335E-01
 0.2589962435279E-01
 0.2732631152521E-01
 0.2833566615618E-01
 0.2892970326859E-01
 0.2920359633687E-01
 0.2925396423165E-01
 0.2914548241573E-01
 0.2891299327111E-01
 0.2857112781379E-01
 0.2812136505154E-01
 0.2755716249760E-01
 0.2687205284444E-01
 0.2607877566405E-01
 0.2525516639908E-01
 0.2464781679642E-01
 0.2485275949897E-01
 0.2697256366745E-01
 0.3222064510119E-01
 0.4053838560538E-01
 0.4847493823049E-01
 0.2413003670343E-01
 0.2570392315430E-01
 0.2707744359678E-01
 0.2808747131323E-01
 0.2870734635781E-01
 0.2899746583831E-01
 0.2903503897657E-01
 0.2887938714496E-01
 0.2856697526085E-01
 0.2811723289403E-01
 0.2753966278806E-01
 0.2684151836565E-01
 0.2604000038893E-01
 0.2518646157868E-01
 0.2441662339588E-01
 0.2404680753673E-01
 0.2470752517257E-01
 0.2736839526385E-01
 0.3287976756537E-01
 0.4073492660164E-01
 0.4883579467735E-01
 0.2404635090831E-01
 0.2553995908294E-01
 0.2686178445035E-01
 0.2786149570236E-01
 0.2849393477651E-01
 0.2879231740959E-01
 0.2881580838047E-01
 0.2861704824667E-01
 0.2823308717085E-01
 0.2768824000654E-01
 0.2700106774066E-01
 0.2619409510039E-01
 0.2530921352316E-01
 0.2443509203076E-01
 0.2375722973739E-01
 0.2364041352546E-01
 0.2471249145079E-01
 0.2780111410715E-01
 0.3343930517806E-01
 0.4101861980895E-01
 0.4904249260886E-01
 0.2397762926705E-01
 0.2540290630840E-01
 0.2667685947378E-01
 0.2766021841102E-01
 0.2829595958307E-01
 0.2859646707016E-01
 0.2860511026589E-01
 0.2836756687660E-01
 0.2792082696784E-01
 0.2729398160624E-01
 0.2651504277836E-01
 0.2562219698595E-01
 0.2468145954286E-01
 0.2381542377210E-01
 0.2325001251243E-01
 0.2337988621719E-01
 0.2480881150396E-01
 0.2822328076843E-01
 0.3392995281408E-01
 0.4132659752843E-01
 0.4917956937037E-01
 0.2392147006359E-01
 0.2528943975994E-01
 0.2652079209699E-01
 0.2748532311526E-01
 0.2811844295435E-01
 0.2841683038369E-01
 0.2841063018880E-01
 0.2813896702953E-01
 0.2763844123187E-01
 0.2694263547023E-01
 0.2608880806102E-01
 0.2513022554090E-01
 0.2415516575033E-01
 0.2331552961506E-01
 0.2286839232369E-01
 0.2322433160282E-01
 0.2495145826598E-01
 0.2861135993996E-01
 0.3436024282272E-01
 0.4161608195431E-01
 0.4928763880390E-01
 0.2387628549465E-01
 0.2519729200569E-01
 0.2639222537238E-01
 0.2733801264569E-01
 0.2796527498958E-01
 0.2825906263940E-01
 0.2823887839276E-01
 0.2793812016574E-01
 0.2739288971988E-01
 0.2664081349065E-01
 0.2572766355435E-01
 0.2472038357893E-01
 0.2372671067388E-01
 0.2292266776606E-01
 0.2258827454459E-01
 0.2314036661006E-01
 0.2510811712970E-01
 0.2895173834851E-01
 0.3472676152128E-01
 0.4186882501223E-01
 0.4937889791164E-01
 0.2384103641601E-01
 0.2512493886797E-01
 0.2629021866391E-01
 0.2721917896943E-01
 0.2783944782491E-01
 0.2812768657271E-01
 0.2809520273008E-01
 0.2777071648254E-01
 0.2718985678663E-01
 0.2639369526052E-01
 0.2543534056334E-01
 0.2439336214886E-01
 0.2339152507928E-01
 0.2262470679648E-01
 0.2238905500237E-01
 0.2310179321251E-01
 0.2525609334027E-01
 0.2923450604627E-01
 0.3502494055719E-01
 0.4207622320804E-01
 0.4945532253981E-01
 0.2381505549280E-01
 0.2507137789536E-01
 0.2621414738258E-01
 0.2712949023465E-01
 0.2774321369020E-01
 0.2802619862942E-01
 0.2798381950236E-01
 0.2764126702991E-01
 0.2703379236433E-01
 0.2620518052117E-01
 0.2521434583048E-01
 0.2414895126808E-01
 0.2314498386898E-01
 0.2241109387157E-01
 0.2225411663385E-01
 0.2308893094636E-01
 0.2537944208403E-01
 0.2945238352265E-01
 0.3525119168502E-01
 0.4223403295355E-01
 0.4951550411428E-01
 0.2379792899315E-01
 0.2503597431836E-01
 0.2616361828110E-01
 0.2706943177364E-01
 0.2767818884433E-01
 0.2795715180164E-01
 0.2790784990039E-01
 0.2755312291462E-01
 0.2692796650102E-01
 0.2607803890521E-01
 0.2506626758725E-01
 0.2398654574744E-01
 0.2298307905177E-01
 0.2227348577749E-01
 0.2217102285281E-01
 0.2308778955824E-01
 0.2546728930097E-01
 0.2960028343210E-01
 0.3540314559898E-01
 0.4234010540663E-01
 0.4955722976398E-01
 0.2378941957225E-01
 0.2501835757468E-01
 0.2613840497634E-01
 0.2703932300325E-01
 0.2764541932310E-01
 0.2792221575083E-01
 0.2786935353457E-01
 0.2750849994315E-01
 0.2687452331682E-01
 0.2601403835064E-01
 0.2499202144564E-01
 0.2390552903124E-01
 0.2290289214249E-01
 0.2220614132997E-01
 0.2213152781096E-01
 0.2308940589633E-01
 0.2551284574164E-01
 0.2967500382065E-01
 0.3547943091511E-01
 0.4239336710868E-01
 0.4957861481910E-01
 0.2378941957101E-01
 0.2501835757343E-01
 0.2613840497516E-01
 0.2703932300222E-01
 0.2764541932224E-01
 0.2792221575021E-01
 0.2786935353428E-01
 0.2750849994332E-01
 0.2687452331762E-01
 0.2601403835221E-01
 0.2499202144806E-01
 0.2390552903437E-01
 0.2290289214591E-01
 0.2220614133282E-01
 0.2213152781201E-01
 0.2308940589426E-01
 0.2551284573583E-01
 0.2967500381215E-01
 0.3547943090679E-01
 0.4239336710379E-01
 0.4957861481880E-01
 0.2379792898944E-01
 0.2503597431462E-01
 0.2616361827757E-01
 0.2706943177053E-01
 0.2767818884176E-01
 0.2795715179977E-01
 0.2790784989948E-01
 0.2755312291508E-01
 0.2692796650337E-01
 0.2607803890989E-01
 0.2506626759448E-01
 0.2398654575685E-01
 0.2298307906210E-01
 0.2227348578624E-01
 0.2217102285627E-01
 0.2308778955239E-01
 0.2546728928382E-01
 0.2960028340670E-01
 0.3540314557397E-01
 0.4234010539192E-01
 0.4955722976323E-01
 0.2381505548662E-01
 0.2507137788911E-01
 0.2621414737669E-01
 0.2712949022944E-01
 0.2774321368588E-01
 0.2802619862622E-01
 0.2798381950073E-01
 0.2764126703055E-01
 0.2703379236808E-01
 0.2620518052883E-01
 0.2521434584244E-01
 0.2414895128384E-01
 0.2314498388653E-01
 0.2241109388683E-01
 0.2225411664068E-01
 0.2308893093786E-01
 0.2537944205648E-01
 0.2945238348070E-01
 0.3525119164315E-01
 0.4223403292886E-01
 0.4951550411361E-01
 0.2384103640733E-01
 0.2512493885919E-01
 0.2629021865564E-01
 0.2721917896209E-01
 0.2783944781876E-01
 0.2812768656807E-01
 0.2809520272757E-01
 0.2777071648314E-01
 0.2718985679155E-01
 0.2639369527093E-01
 0.2543534057988E-01
 0.2439336217102E-01
 0.2339152510448E-01
 0.2262470681925E-01
 0.2238905501414E-01
 0.2310179320329E-01
 0.2525609330393E-01
 0.2923450598845E-01
 0.3502494049821E-01
 0.4207622317310E-01
 0.4945532254004E-01
 0.2387628548347E-01
 0.2519729199437E-01
 0.2639222536171E-01
 0.2733801263617E-01
 0.2796527498150E-01
 0.2825906263314E-01
 0.2823887838913E-01
 0.2793812016601E-01
 0.2739288972563E-01
 0.2664081350348E-01
 0.2572766357525E-01
 0.2472038360753E-01
 0.2372671070727E-01
 0.2292266779764E-01
 0.2258827456350E-01
 0.2314036660290E-01
 0.2510811708707E-01
 0.2895173827599E-01
 0.3472676144495E-01
 0.4186882496657E-01
 0.4937889791383E-01
 0.2392147004990E-01
 0.2528943974607E-01
 0.2652079208389E-01
 0.2748532310350E-01
 0.2811844294421E-01
 0.2841683037561E-01
 0.2841063018374E-01
 0.2813896702908E-01
 0.2763844123801E-01
 0.2694263548502E-01
 0.2608880808593E-01
 0.2513022557590E-01
 0.2415516579249E-01
 0.2331552965702E-01
 0.2286839235253E-01
 0.2322433160146E-01
 0.2495145822060E-01
 0.2861135985464E-01
 0.3436024272899E-01
 0.4161608189727E-01
 0.4928763880920E-01
 0.2397762925082E-01
 0.2540290629194E-01
 0.2667685945823E-01
 0.2766021839695E-01
 0.2829595957071E-01
 0.2859646705998E-01
 0.2860511025904E-01
 0.2836756687496E-01
 0.2792082697383E-01
 0.2729398162242E-01
 0.2651504280678E-01
 0.2562219702714E-01
 0.2468145959428E-01
 0.2381542382611E-01
 0.2325001255449E-01
 0.2337988622639E-01
 0.2480881146071E-01
 0.2822328067319E-01
 0.3392995270336E-01
 0.4132659745930E-01
 0.4917956937963E-01
 0.2404635088951E-01
 0.2553995906387E-01
 0.2686178443231E-01
 0.2786149568589E-01
 0.2849393476173E-01
 0.2879231739699E-01
 0.2881580837137E-01
 0.2861704824328E-01
 0.2823308717602E-01
 0.2768824002337E-01
 0.2700106777189E-01
 0.2619409514736E-01
 0.2530921358412E-01
 0.2443509209845E-01
 0.2375722979634E-01
 0.2364041355106E-01
 0.2471249141624E-01
 0.2780111400624E-01
 0.3343930505156E-01
 0.4101861972750E-01
 0.4904249262194E-01
 0.2413003668202E-01
 0.2570392313259E-01
 0.2707744357623E-01
 0.2808747129425E-01
 0.2870734634037E-01
 0.2899746582290E-01
 0.2903503896471E-01
 0.2887938713919E-01
 0.2856697526444E-01
 0.2811723291063E-01
 0.2753966282119E-01
 0.2684151841766E-01
 0.2604000045934E-01
 0.2518646166140E-01
 0.2441662347551E-01
 0.2404680758561E-01
 0.2470752515549E-01
 0.2736839516351E-01
 0.3287976742485E-01
 0.4073492651021E-01
 0.4883579469138E-01
 0.2423230753929E-01
 0.2589962432843E-01
 0.2732631150213E-01
 0.2833566613458E-01
 0.2892970324819E-01
 0.2920359631819E-01
 0.2925396421646E-01
 0.2914548240688E-01
 0.2891299327226E-01
 0.2857112782913E-01
 0.2812136508540E-01
 0.2755716255355E-01
 0.2687205292369E-01
 0.2607877576256E-01
 0.2525516650294E-01
 0.2464781687632E-01
 0.2485275951060E-01
 0.2697256357755E-01
 0.3222064494766E-01
 0.4053838551048E-01
 0.4847493824393E-01
 0.2435873873376E-01
 0.2613421644570E-01
 0.2761179242465E-01
 0.2860266516826E-01
 0.2915299303067E-01
 0.2940128523271E-01
 0.2946320348685E-01
 0.2940607188882E-01
 0.2926171310930E-01
 0.2904031244581E-01
 0.2873703922351E-01
 0.2833416307796E-01
 0.2780431679730E-01
 0.2712295733295E-01
 0.2630520501842E-01
 0.2550493043778E-01
 0.2523412973663E-01
 0.2667179915679E-01
 0.3150878652672E-01
 0.4016107425159E-01
 0.4903390154291E-01
 0.2451743776535E-01
 0.2641764848406E-01
 0.2793721309792E-01
 0.2888225627964E-01
 0.2936610082282E-01
 0.2957890199095E-01
 0.2965176335160E-01
 0.2965020282389E-01
 0.2960134915201E-01
 0.2951158627975E-01
 0.2937212338503E-01
 0.2915780766766E-01
 0.2882505549829E-01
 0.2831678535483E-01
 0.2758653724509E-01
 0.2667828618313E-01
 0.2595568834450E-01
 0.2658061554298E-01
 0.3074561334222E-01
 0.3970834964869E-01
 0.4989299146332E-01
 0.2472139155275E-01
 0.2676426199053E-01
 0.2830535858233E-01
 0.2916404567595E-01
 0.2955425497976E-01
 0.2972282802897E-01
 0.2980743522145E-01
 0.2986555168320E-01
 0.2991794644940E-01
 0.2996814212772E-01
 0.3000622385715E-01
 0.3000441439176E-01
 0.2990953741127E-01
 0.2964020871858E-01
 0.2909787408393E-01
 0.2821396158656E-01
 0.2714102821704E-01
 0.2686616063315E-01
 0.3002295758436E-01
 0.3918968746991E-01
 0.5095475673404E-01
 0.2499107125410E-01
 0.2719445649583E-01
 0.2871663284926E-01
 0.2943139218928E-01
 0.2969906418404E-01
 0.2981873436928E-01
 0.2991847366216E-01
 0.3004061514640E-01
 0.3019849286959E-01
 0.3039401634052E-01
 0.3061925083010E-01
 0.3084928853914E-01
 0.3102959554297E-01
 0.3106542774764E-01
 0.3082245059748E-01
 0.3013957995281E-01
 0.2892097515311E-01
 0.2776504520255E-01
 0.2951044621199E-01
 0.3860385508473E-01
 0.5231021382714E-01
 0.2536007969256E-01
 0.2773669213383E-01
 0.2916414993656E-01
 0.2965727307368E-01
 0.2977802879842E-01
 0.2985197767353E-01
 0.2997355375877E-01
 0.3016426464140E-01
 0.3043005207645E-01
 0.3077267119136E-01
 0.3118925598959E-01
 0.3166348414175E-01
 0.3214891413652E-01
 0.3255081504573E-01
 0.3271864139161E-01
 0.3244099002317E-01
 0.3140400631576E-01
 0.2959232929802E-01
 0.2953040830064E-01
 0.3796700305330E-01
 0.5410959179385E-01
 0.2588615812867E-01
 0.2842877068894E-01
 0.2962305522474E-01
 0.2979943345683E-01
 0.2976605946902E-01
 0.2980897153643E-01
 0.2996236869581E-01
 0.3022625172567E-01
 0.3060027420135E-01
 0.3108764050965E-01
 0.3169326182521E-01
 0.3241472041540E-01
 0.3322349138600E-01
 0.3404070854649E-01
 0.3472044029005E-01
 0.3504633644185E-01
 0.3461695748867E-01
 0.3271499514832E-01
 0.3066194117016E-01
 0.3739567271167E-01
 0.5664245568003E-01
 0.2667481806436E-01
 0.2931350628770E-01
 0.3002721078757E-01
 0.2979753331405E-01
 0.2964033554808E-01
 0.2967848358706E-01
 0.2987622001506E-01
 0.3021778770423E-01
 0.3069791858417E-01
 0.3132327093272E-01
 0.3210840817851E-01
 0.3306879412144E-01
 0.3420326886606E-01
 0.3546528247769E-01
 0.3674065904203E-01
 0.3783223397944E-01
 0.3842200123183E-01
 0.3742738526299E-01
 0.3386156251730E-01
 0.3734831153489E-01
 0.6052530418090E-01
 0.2793600615943E-01
 0.3040702306145E-01
 0.3022181962511E-01
 0.2958497143638E-01
 0.2938804184586E-01
 0.2945141245143E-01
 0.2970910984092E-01
 0.3013200405257E-01
 0.3071339516350E-01
 0.3146545678839E-01
 0.3241335431623E-01
 0.3359171381035E-01
 0.3503435685359E-01
 0.3674364317404E-01
 0.3866641236069E-01
 0.4066039373651E-01
 0.4249270722464E-01
 0.4359921667337E-01
 0.4048078060565E-01
 0.3922269665131E-01
 0.6732975353439E-01
 0.3014389689024E-01
 0.3153005363401E-01
 0.2990160937574E-01
 0.2915002307156E-01
 0.2899956337970E-01
 0.2912320007621E-01
 0.2945852125823E-01
 0.2996430516371E-01
 0.3063931107485E-01
 0.3150232597476E-01
 0.3258950946313E-01
 0.3395309790846E-01
 0.3566179379546E-01
 0.3778820541775E-01
 0.4036229919156E-01
 0.4336345639197E-01
 0.4654695351410E-01
 0.5013569099232E-01
 0.5158027474700E-01
 0.4643128800100E-01
 0.8221750553983E-01
 0.3462246852679E-01
 0.3128941312032E-01
 0.2896164570734E-01
 0.2852845940212E-01
 0.2846121874066E-01
 0.2870005220935E-01
 0.2912418169164E-01
 0.2971326568475E-01
 0.3047077805716E-01
 0.3142484447710E-01
 0.3262207144592E-01
 0.3412878865941E-01
 0.3603941015921E-01
 0.3849730749966E-01
 0.4170132939221E-01
 0.4568467781104E-01
 0.5050363392396E-01
 0.5565169290069E-01
 0.6499344037855E-01
 0.6281119977554E-01
 0.1289826684123E+00
 0.1118815234113E+01
 0.1735102589363E+01
 0.2159773869965E+01
 0.2434909000821E+01
 0.2581650373634E+01
 0.2631899241900E+01
 0.2619450217752E+01
 0.2560454231885E+01
 0.2452221138516E+01
 0.2307857375231E+01
 0.1063503185377E+01
 0.1713958906498E+01
 0.2177663925783E+01
 0.2495832501343E+01
 0.2685954879151E+01
 0.2775538014466E+01
 0.2797923257394E+01
 0.2769943369239E+01
 0.2682401843497E+01
 0.2530077728699E+01
 0.1012650894614E+01
 0.1703172397036E+01
 0.2201476794512E+01
 0.2554958955490E+01
 0.2782162503737E+01
 0.2909072327965E+01
 0.2966860214071E+01
 0.2971253953619E+01
 0.2915809261049E+01
 0.2795706381324E+01
 0.9687213707815E+00
 0.1697246673690E+01
 0.2227678665570E+01
 0.2610989074864E+01
 0.2870263572050E+01
 0.3031434369873E+01
 0.3124006137854E+01
 0.3164480817965E+01
 0.3151758098091E+01
 0.3082138508820E+01
 0.9317624388957E+00
 0.1694709610891E+01
 0.2253507103300E+01
 0.2662426024850E+01
 0.2949288494365E+01
 0.3141271479269E+01
 0.3267442034935E+01
 0.3346281785620E+01
 0.3381951049011E+01
 0.3373804708369E+01
 0.9015147539842E+00
 0.1694358084253E+01
 0.2277274467872E+01
 0.2707728348089E+01
 0.3017960276675E+01
 0.3236965844993E+01
 0.3394365976714E+01
 0.3511092634008E+01
 0.3596441863184E+01
 0.3654428306240E+01
 0.8776817938844E+00
 0.1695231583256E+01
 0.2297720629938E+01
 0.2745596828570E+01
 0.3074927901081E+01
 0.3316651815410E+01
 0.3501417457701E+01
 0.3652709348275E+01
 0.3784674698344E+01
 0.3906855357026E+01
 0.8600159558617E+00
 0.1696561223033E+01
 0.2313884380370E+01
 0.2774967169659E+01
 0.3118930666276E+01
 0.3378436203079E+01
 0.3585240652268E+01
 0.3765113670055E+01
 0.3936388973041E+01
 0.4114087778964E+01
 0.8483355317809E+00
 0.1697769203353E+01
 0.2325054724726E+01
 0.2795018243664E+01
 0.3148908505636E+01
 0.3420658612943E+01
 0.3642921297487E+01
 0.3843165206514E+01
 0.4042750294558E+01
 0.4261198758023E+01
 0.8425236982113E+00
 0.1698469703623E+01
 0.2330758439695E+01
 0.2805187213304E+01
 0.3164097384622E+01
 0.3442094122101E+01
 0.3672324716766E+01
 0.3883154267441E+01
 0.4097504479767E+01
 0.4337491548064E+01
 0.8425236987004E+00
 0.1698469703548E+01
 0.2330758439374E+01
 0.2805187212956E+01
 0.3164097384346E+01
 0.3442094121905E+01
 0.3672324716617E+01
 0.3883154267319E+01
 0.4097504479720E+01
 0.4337491548352E+01
 0.8483355332526E+00
 0.1697769203140E+01
 0.2325054723773E+01
 0.2795018242628E+01
 0.3148908504815E+01
 0.3420658612364E+01
 0.3642921297053E+01
 0.3843165206161E+01
 0.4042750294434E+01
 0.4261198758865E+01
 0.8600159583296E+00
 0.1696561222719E+01
 0.2313884378816E+01
 0.2774967167958E+01
 0.3118930664931E+01
 0.3378436202141E+01
 0.3585240651578E+01
 0.3765113669505E+01
 0.3936388972863E+01
 0.4114087780270E+01
 0.8776817973720E+00
 0.1695231582904E+01
 0.2297720627836E+01
 0.2745596826243E+01
 0.3074927899245E+01
 0.3316651814148E+01
 0.3501417456798E+01
 0.3652709347567E+01
 0.3784674698099E+01
 0.3906855358595E+01
 0.9015147585265E+00
 0.1694358083950E+01
 0.2277274465295E+01
 0.2707728345189E+01
 0.3017960274389E+01
 0.3236965843448E+01
 0.3394365975639E+01
 0.3511092633170E+01
 0.3596441862817E+01
 0.3654428307799E+01
 0.9317624445398E+00
 0.1694709610745E+01
 0.2253507100343E+01
 0.2662426021446E+01
 0.2949288491675E+01
 0.3141271477474E+01
 0.3267442033719E+01
 0.3346281784663E+01
 0.3381951048448E+01
 0.3373804709648E+01
 0.9687213775846E+00
 0.1697246673828E+01
 0.2227678662357E+01
 0.2610989071046E+01
 0.2870263569004E+01
 0.3031434367843E+01
 0.3124006136498E+01
 0.3164480816876E+01
 0.3151758097242E+01
 0.3082138509565E+01
 0.1012650902632E+01
 0.1703172397598E+01
 0.2201476791202E+01
 0.2554958951381E+01
 0.2782162500379E+01
 0.2909072325680E+01
 0.2966860212533E+01
 0.2971253952346E+01
 0.2915809259823E+01
 0.2795706381329E+01
 0.1063503194631E+01
 0.1713958907611E+01
 0.2177663922616E+01
 0.2495832497124E+01
 0.2685954875525E+01
 0.2775538011838E+01
 0.2797923255549E+01
 0.2769943367715E+01
 0.2682401841747E+01
 0.2530077727876E+01
 0.1118815244297E+01
 0.1735102591238E+01
 0.2159773867328E+01
 0.2434908996770E+01
 0.2581650369794E+01
 0.2631899238749E+01
 0.2619450215282E+01
 0.2560454229956E+01
 0.2452221136377E+01
 0.2307857373429E+01
 0.2425640908308E+01
 0.1782917348235E+01
 0.1051934347988E+01
 0.5729220086010E+00
 0.1404205455731E+00
 0.1051721088841E+00
 0.2087475268039E+00
 0.2328518559834E+00
 0.1731203631602E+00
 0.2065812712362E-01
 0.2222636604638E+01
 0.2087242317483E+01
 0.1364162643743E+01
 0.8394093706138E+00
 0.4141469816956E+00
 0.1494096146597E+00
 0.2962777188935E-01
 0.1198939422073E+00
 0.1261129024735E+00
 0.9310684922999E-02
 0.2029909922263E+01
 0.2159837354469E+01
 0.1658098283221E+01
 0.1131100362866E+01
 0.6948041781848E+00
 0.4072820801040E+00
 0.1931393949435E+00
 0.4032580861365E-01
 0.3763495502876E-01
 0.1874481077992E-01
 0.1864920005211E+01
 0.2155718772738E+01
 0.1867411952451E+01
 0.1424623485883E+01
 0.9933201373694E+00
 0.6856779261034E+00
 0.4471552871945E+00
 0.2500406164332E+00
 0.1049952523406E+00
 0.7994224253060E-01
 0.1721691300594E+01
 0.2120411260658E+01
 0.2009869658213E+01
 0.1687042276120E+01
 0.1300933760584E+01
 0.9878040954363E+00
 0.7350843877616E+00
 0.5103379950180E+00
 0.3137318479960E+00
 0.2061751794690E+00
 0.1594450142953E+01
 0.2070570433178E+01
 0.2103988537773E+01
 0.1907722085983E+01
 0.1598102028769E+01
 0.1305701173501E+01
 0.1053430579036E+01
 0.8200257546448E+00
 0.5946123248408E+00
 0.4169271272591E+00
 0.1478943773043E+01
 0.2012543292454E+01
 0.2162230083008E+01
 0.2086289758779E+01
 0.1870179933575E+01
 0.1623652700648E+01
 0.1390766820657E+01
 0.1169614160155E+01
 0.9436191119325E+00
 0.7195439521921E+00
 0.1372179001701E+01
 0.1948336906918E+01
 0.2191876268764E+01
 0.2225311924835E+01
 0.2109328322104E+01
 0.1927488426756E+01
 0.1731124266733E+01
 0.1539818127310E+01
 0.1343865148841E+01
 0.1107171456941E+01
 0.1272237293997E+01
 0.1878079257906E+01
 0.2196001238286E+01
 0.2327004113983E+01
 0.2311645412212E+01
 0.2207735482728E+01
 0.2062442693434E+01
 0.1906855152320E+01
 0.1759598772785E+01
 0.1559360507215E+01
 0.1180215180550E+01
 0.1798385432555E+01
 0.2174389129129E+01
 0.2391954762984E+01
 0.2473957375405E+01
 0.2457108535545E+01
 0.2379338127374E+01
 0.2266967094173E+01
 0.2143255857067E+01
 0.2019121234346E+01
 0.1180215190745E+01
 0.1798385436041E+01
 0.2174389126847E+01
 0.2391954758364E+01
 0.2473957370491E+01
 0.2457108531193E+01
 0.2379338123715E+01
 0.2266967091285E+01
 0.2143255855416E+01
 0.2019121230920E+01
 0.1272237303860E+01
 0.1878079262068E+01
 0.2196001236077E+01
 0.2327004108513E+01
 0.2311645406046E+01
 0.2207735477110E+01
 0.2062442688734E+01
 0.1906855148707E+01
 0.1759598770073E+01
 0.1559360501896E+01
 0.1372179011204E+01
 0.1948336911282E+01
 0.2191876266206E+01
 0.2225311918164E+01
 0.2109328314522E+01
 0.1927488419969E+01
 0.1731124261121E+01
 0.1539818122598E+01
 0.1343865144221E+01
 0.1107171451100E+01
 0.1478943782030E+01
 0.2012543296730E+01
 0.2162230079669E+01
 0.2086289750612E+01
 0.1870179924557E+01
 0.1623652692910E+01
 0.1390766814303E+01
 0.1169614154481E+01
 0.9436191061521E+00
 0.7195439472214E+00
 0.1594450151176E+01
 0.2070570436961E+01
 0.2103988533223E+01
 0.1907722076148E+01
 0.1598102018525E+01
 0.1305701165248E+01
 0.1053430572389E+01
 0.8200257486943E+00
 0.5946123190794E+00
 0.4169271245440E+00
 0.1721691307707E+01
 0.2120411263379E+01
 0.2009869652027E+01
 0.1687042264711E+01
 0.1300933749672E+01
 0.9878040873252E+00
 0.7350843814519E+00
 0.5103379896577E+00
 0.3137318434904E+00
 0.2061751801359E+00
 0.1864920010712E+01
 0.2155718773597E+01
 0.1867411944333E+01
 0.1424623473487E+01
 0.9933201266848E+00
 0.6856779187905E+00
 0.4471552818112E+00
 0.2500406124606E+00
 0.1049952500721E+00
 0.7994224712362E-01
 0.2029909925357E+01
 0.2159837352390E+01
 0.1658098273393E+01
 0.1131100350756E+01
 0.6948041686106E+00
 0.4072820739996E+00
 0.1931393909315E+00
 0.4032580660987E-01
 0.3763495455321E-01
 0.1874481883307E-01
 0.2222636603848E+01
 0.2087242311308E+01
 0.1364162634009E+01
 0.8394093601069E+00
 0.4141469736002E+00
 0.1494096099483E+00
 0.2962777417164E-01
 0.1198939419120E+00
 0.1261128992911E+00
 0.9310679227380E-02
 0.2425640901266E+01
 0.1782917340728E+01
 0.1051934341049E+01
 0.5729220003389E+00
 0.1404205388320E+00
 0.1051721118891E+00
 0.2087475272428E+00
 0.2328518534944E+00
 0.1731203571388E+00
 0.2065811758798E-01
 0.2012658911370E+01
 0.1490578701108E+01
 0.1038428567414E+01
 0.6707060411108E+00
 0.4049352551003E+00
 0.2468069185448E+00
 0.1797130222352E+00
 0.1670799802133E+00
 0.1643522276552E+00
 0.1331980402943E+00
 0.2267915056774E+01
 0.1806690907829E+01
 0.1315729230669E+01
 0.8851067319828E+00
 0.5542617259725E+00
 0.3432498108808E+00
 0.2480132759069E+00
 0.2346103434633E+00
 0.2467571100656E+00
 0.2387636737353E+00
 0.2550439839508E+01
 0.2135954048383E+01
 0.1662365808340E+01
 0.1195632862393E+01
 0.7974065151736E+00
 0.5104992723481E+00
 0.3548205389977E+00
 0.3143219667467E+00
 0.3309231104080E+00
 0.3347025372815E+00
 0.2870583732145E+01
 0.2508062136881E+01
 0.2075487383885E+01
 0.1611794682312E+01
 0.1169264010035E+01
 0.8016149633930E+00
 0.5527290157029E+00
 0.4407165168674E+00
 0.4322755642354E+00
 0.4397552884834E+00
 0.3216250912421E+01
 0.2920571629893E+01
 0.2556717199531E+01
 0.2138503025506E+01
 0.1699528727298E+01
 0.1284813507185E+01
 0.9448011929383E+00
 0.7241071266239E+00
 0.6368495768665E+00
 0.6070056711792E+00
 0.3568788945209E+01
 0.3356292271210E+01
 0.3085955268268E+01
 0.2755647906370E+01
 0.2381175406841E+01
 0.1992123720586E+01
 0.1631343273724E+01
 0.1354002601890E+01
 0.1221819046163E+01
 0.1275873877831E+01
 0.3903839936404E+01
 0.3785402507929E+01
 0.3623274193971E+01
 0.3408892531470E+01
 0.3146139355112E+01
 0.2850369824775E+01
 0.2551167625221E+01
 0.2298038129502E+01
 0.2169873421032E+01
 0.2297362294464E+01
 0.4190996554707E+01
 0.4162751989908E+01
 0.4103718072838E+01
 0.4004306062731E+01
 0.3859981725251E+01
 0.3671973647276E+01
 0.3449828389289E+01
 0.3216610233244E+01
 0.3018839066876E+01
 0.2943497867917E+01
 0.4401486162056E+01
 0.4444037061459E+01
 0.4464309482803E+01
 0.4454323801721E+01
 0.4404081358263E+01
 0.4302693643600E+01
 0.4138702951202E+01
 0.3900537820642E+01
 0.3577202981753E+01
 0.3157599038346E+01
 0.4513162510446E+01
 0.4594963361794E+01
 0.4658308309129E+01
 0.4697007968620E+01
 0.4698448184280E+01
 0.4644706430215E+01
 0.4510927566366E+01
 0.4261632200473E+01
 0.3844539165214E+01
 0.3181865840231E+01
 0.4513162511827E+01
 0.4594963364508E+01
 0.4658308313353E+01
 0.4697007974640E+01
 0.4698448192318E+01
 0.4644706440237E+01
 0.4510927577787E+01
 0.4261632211644E+01
 0.3844539172567E+01
 0.3181865836913E+01
 0.4401486165886E+01
 0.4444037068978E+01
 0.4464309494605E+01
 0.4454323818631E+01
 0.4404081380890E+01
 0.4302693671856E+01
 0.4138702983589E+01
 0.3900537853082E+01
 0.3577203005529E+01
 0.3157599036820E+01
 0.4190996560201E+01
 0.4162752000704E+01
 0.4103718090004E+01
 0.4004306087483E+01
 0.3859981758392E+01
 0.3671973688649E+01
 0.3449828437078E+01
 0.3216610282999E+01
 0.3018839110003E+01
 0.2943497888588E+01
 0.3903839942611E+01
 0.3785402520240E+01
 0.3623274213848E+01
 0.3408892560268E+01
 0.3146139393568E+01
 0.2850369872626E+01
 0.2551167680943E+01
 0.2298038190306E+01
 0.2169873483689E+01
 0.2297362358079E+01
 0.3568788951011E+01
 0.3356292282904E+01
 0.3085955287319E+01
 0.2755647933595E+01
 0.2381175442041E+01
 0.1992123762418E+01
 0.1631343319969E+01
 0.1354002650558E+01
 0.1221819098277E+01
 0.1275873945983E+01
 0.3216250917114E+01
 0.2920571639902E+01
 0.2556717216084E+01
 0.2138503048443E+01
 0.1699528755026E+01
 0.1284813536911E+01
 0.9448012214323E+00
 0.7241071517690E+00
 0.6368496003900E+00
 0.6070056983043E+00
 0.2870583735472E+01
 0.2508062145100E+01
 0.2075487397587E+01
 0.1611794700269E+01
 0.1169264029786E+01
 0.8016149820755E+00
 0.5527290312126E+00
 0.4407165292524E+00
 0.4322755758309E+00
 0.4397552998653E+00
 0.2550439841394E+01
 0.2135954054947E+01
 0.1662365819193E+01
 0.1195632875503E+01
 0.7974065282106E+00
 0.5104992836036E+00
 0.3548205481327E+00
 0.3143219749942E+00
 0.3309231192569E+00
 0.3347025465631E+00
 0.2267915057513E+01
 0.1806690913050E+01
 0.1315729238547E+01
 0.8851067405139E+00
 0.5542617339258E+00
 0.3432498179439E+00
 0.2480132827307E+00
 0.2346103510955E+00
 0.2467571188569E+00
 0.2387636828358E+00
 0.2012658911700E+01
 0.1490578704224E+01
 0.1038428571077E+01
 0.6707060447022E+00
 0.4049352587175E+00
 0.2468069229368E+00
 0.1797130283467E+00
 0.1670799884086E+00
 0.1643522372124E+00
 0.1331980491378E+00
</DataArray>
<CellData Tensors="'E_Centroid','S_Centroid'">
<DataArray type="Float64" Name="E_Centroid" NumberOfComponents="4" ComponentName0="E11" ComponentName1="E22" ComponentName2="E33" ComponentName3="E12" format="ascii">
 0.1027575851446E-02 -0.7921907284906E-02  0.0000000000000E+00 -0.2579971987915E-02
 0.1779439245554E-02 -0.6619695488399E-02  0.0000000000000E+00 -0.9279158156621E-04
 0.1526000807340E-02 -0.6208446800233E-02  0.0000000000000E+00 -0.8977585168925E-04
 0.1528337793850E-02 -0.6098838059021E-02  0.0000000000000E+00 -0.7390800305838E-05
 0.1520073326760E-02 -0.6087571851557E-02  0.0000000000000E+00  0.2287831861626E-04
 0.1534092026571E-02 -0.6137814128629E-02  0.0000000000000E+00  0.4413578819906E-04
 0.1556497171919E-02 -0.6228695870870E-02  0.0000000000000E+00  0.6074648367652E-04
 0.1587947548121E-02 -0.6354702925573E-02  0.0000000000000E+00  0.7736255612627E-04
 0.1628229698528E-02 -0.6516844288141E-02  0.0000000000000E+00  0.9652538663182E-04
 0.1678921185894E-02 -0.6721085484621E-02  0.0000000000000E+00  0.1204069237323E-03
 0.1742455041251E-02 -0.6977432603499E-02  0.0000000000000E+00  0.1510732352685E-03
 0.1822301656166E-02 -0.7300120997404E-02  0.0000000000000E+00  0.1910157751755E-03
 0.1923448945821E-02 -0.7709381245466E-02  0.0000000000000E+00  0.2443134688276E-03
 0.2051338269637E-02 -0.8237355254320E-02  0.0000000000000E+00  0.3254545230147E-03
 0.2213441787933E-02 -0.8928668195847E-02  0.0000000000000E+00  0.4867985130974E-03
 0.2403503888386E-02 -0.9795745107497E-02  0.0000000000000E+00  0.8100348886645E-03
 0.2652129257399E-02 -0.1083228417778E-01  0.0000000000000E+00  0.1368909768045E-02
 0.2782914151721E-02 -0.1202851404319E-01  0.0000000000000E+00  0.2213794611680E-02
 0.3670750550172E-02 -0.1376746527911E-01  0.0000000000000E+00  0.3518495260177E-02
 0.3642894702855E-03 -0.1520336498665E-01  0.0000000000000E+00  0.7187651320627E-02
 0.1618228586114E-01 -0.2023213102011E-01  0.0000000000000E+00  0.9597462472720E-02
 0.7172623366858E-03 -0.7000454291805E-02  0.0000000000000E+00 -0.2750493872572E-02
 0.1538143535185E-02 -0.6840073822807E-02  0.0000000000000E+00 -0.1118121831306E-02
 0.1588120451266E-02 -0.6401572654320E-02  0.0000000000000E+00 -0.2658110358637E-03
 0.1540855348792E-02 -0.6245553910952E-02  0.0000000000000E+00 -0.8594844573610E-04
 0.1543621568648E-02 -0.6206185309504E-02  0.0000000000000E+00  0.3588628101629E-04
 0.1551323679552E-02 -0.6231898171755E-02  0.0000000000000E+00  0.1063909733836E-03
 0.1570084745874E-02 -0.6303052520306E-02  0.0000000000000E+00  0.1620533769847E-03
 0.1596707449978E-02 -0.6411494797456E-02  0.0000000000000E+00  0.2145857572562E-03
 0.1631736048998E-02 -0.6556552912489E-02  0.0000000000000E+00  0.2727293138954E-03
 0.1676158285529E-02 -0.6742255458749E-02  0.0000000000000E+00  0.3428567120182E-03
 0.1731850365958E-02 -0.6976372978337E-02  0.0000000000000E+00  0.4309258052549E-03
 0.1801363852602E-02 -0.7270236514351E-02  0.0000000000000E+00  0.5438703047771E-03
 0.1887123396919E-02 -0.7639367896009E-02  0.0000000000000E+00  0.6936389938252E-03
 0.1988148140082E-02 -0.8102521842713E-02  0.0000000000000E+00  0.9057316622010E-03
 0.2097060788874E-02 -0.8672035008341E-02  0.0000000000000E+00  0.1220781025349E-02
 0.2214881493744E-02 -0.9342013577466E-02  0.0000000000000E+00  0.1682695473528E-02
 0.2299193742139E-02 -0.1007923117153E-01  0.0000000000000E+00  0.2365588488691E-02
 0.2453829647197E-02 -0.1087110690543E-01  0.0000000000000E+00  0.3231523292252E-02
 0.2001176947219E-02 -0.1151717746429E-01  0.0000000000000E+00  0.5270423029949E-02
 0.1203109101815E-02 -0.1072629441210E-01  0.0000000000000E+00  0.4730012441063E-02
 0.1161065540852E-01 -0.1164880046477E-01  0.0000000000000E+00  0.2557899832457E-02
 0.5316493297746E-03 -0.6562992863219E-02  0.0000000000000E+00 -0.2569424538977E-02
 0.1296772647595E-02 -0.6716199440973E-02  0.0000000000000E+00 -0.1525546678556E-02
 0.1534517870932E-02 -0.6516852419217E-02  0.0000000000000E+00 -0.5659504327033E-03
 0.1542760881586E-02 -0.6352735694268E-02  0.0000000000000E+00 -0.1688694391584E-03
 0.1547798564883E-02 -0.6300296893769E-02  0.0000000000000E+00  0.2309753709438E-04
 0.1558534816359E-02 -0.6308966044776E-02  0.0000000000000E+00  0.1500568031438E-03
 0.1574247380865E-02 -0.6362788708781E-02  0.0000000000000E+00  0.2459245130355E-03
 0.1596283121025E-02 -0.6453607806068E-02  0.0000000000000E+00  0.3352210182419E-03
 0.1624811911858E-02 -0.6579639176478E-02  0.0000000000000E+00  0.4314809663547E-03
 0.1660817035433E-02 -0.6743263998853E-02  0.0000000000000E+00  0.5452074547092E-03
 0.1705543257229E-02 -0.6949929168803E-02  0.0000000000000E+00  0.6856378666643E-03
 0.1760178114601E-02 -0.7207477584234E-02  0.0000000000000E+00  0.8632278577296E-03
 0.1823983645519E-02 -0.7524824378529E-02  0.0000000000000E+00  0.1093669210609E-02
 0.1890124641966E-02 -0.7907058491165E-02  0.0000000000000E+00  0.1400294709629E-02
 0.1948389965123E-02 -0.8347591128963E-02  0.0000000000000E+00  0.1805547875722E-02
 0.1982764810207E-02 -0.8821306896509E-02  0.0000000000000E+00  0.2335031025595E-02
 0.1986468819986E-02 -0.9274355688792E-02  0.0000000000000E+00  0.2979317800950E-02
 0.1880384424203E-02 -0.9616755196914E-02  0.0000000000000E+00  0.3886040593791E-02
 0.1233300823671E-02 -0.9243461580308E-02  0.0000000000000E+00  0.4585019824501E-02
 0.2226086890779E-02 -0.8301151093648E-02  0.0000000000000E+00  0.1594797468464E-02
 0.9978633995331E-02 -0.9061705006851E-02  0.0000000000000E+00  0.2764266118177E-03
 0.4192665132017E-03 -0.6315602801537E-02  0.0000000000000E+00 -0.2340032799215E-02
 0.1104724973075E-02 -0.6565436914637E-02  0.0000000000000E+00 -0.1642778357403E-02
 0.1434699893962E-02 -0.6533634223326E-02  0.0000000000000E+00 -0.7815985334267E-03
 0.1515304463590E-02 -0.6423828555327E-02  0.0000000000000E+00 -0.2707999223710E-03
 0.1538390626566E-02 -0.6369428442117E-02  0.0000000000000E+00  0.9206099949033E-06
 0.1554171055156E-02 -0.6368484990469E-02  0.0000000000000E+00  0.1775632188527E-03
 0.1569308712912E-02 -0.6407742939594E-02  0.0000000000000E+00  0.3137581977214E-03
 0.1586820670890E-02 -0.6481286207329E-02  0.0000000000000E+00  0.4383927602384E-03
 0.1608061071504E-02 -0.6586902845152E-02  0.0000000000000E+00  0.5704519914985E-03
 0.1633966473529E-02 -0.6725627857818E-02  0.0000000000000E+00  0.7236167883714E-03
 0.1665263380389E-02 -0.6900604361249E-02  0.0000000000000E+00  0.9096453046928E-03
 0.1701702807549E-02 -0.7115841954520E-02  0.0000000000000E+00  0.1140714873343E-02
 0.1739706707989E-02 -0.7373394071363E-02  0.0000000000000E+00  0.1431586640082E-02
 0.1770007184553E-02 -0.7667710958529E-02  0.0000000000000E+00  0.1796426476765E-02
 0.1778616885190E-02 -0.7979383669091E-02  0.0000000000000E+00  0.2241424793536E-02
 0.1751569721597E-02 -0.8268145355568E-02  0.0000000000000E+00  0.2752023413496E-02
 0.1670039809083E-02 -0.8466600462431E-02  0.0000000000000E+00  0.3304424871624E-02
 0.1423596515526E-02 -0.8374653127781E-02  0.0000000000000E+00  0.3794946457757E-02
 0.1158783836429E-02 -0.7655770749641E-02  0.0000000000000E+00  0.3068839935465E-02
 0.3123911971291E-02 -0.7179298812230E-02  0.0000000000000E+00 -0.3601602923119E-03
 0.9110372694469E-02 -0.8000336724446E-02  0.0000000000000E+00 -0.5752240427511E-03
 0.3471222886891E-03 -0.6161418966731E-02  0.0000000000000E+00 -0.2116305945141E-02
 0.9577388635956E-03 -0.6436617347904E-02  0.0000000000000E+00 -0.1626265023640E-02
 0.1325248910809E-02 -0.6503702975026E-02  0.0000000000000E+00 -0.9004726389932E-03
 0.1465360629734E-02 -0.6457042423539E-02  0.0000000000000E+00 -0.3594233130775E-03
 0.1515187704472E-02 -0.6416066515802E-02  0.0000000000000E+00 -0.2747249718846E-04
 0.1539482132975E-02 -0.6410732292528E-02  0.0000000000000E+00  0.1939698492765E-03
 0.1555516426740E-02 -0.6438357952223E-02  0.0000000000000E+00  0.3665224334827E-03
 0.1568953133425E-02 -0.6495235513493E-02  0.0000000000000E+00  0.5237210051795E-03
 0.1582375247268E-02 -0.6579571012387E-02  0.0000000000000E+00  0.6878195544570E-03
 0.1597019697646E-02 -0.6691335995343E-02  0.0000000000000E+00  0.8750291241998E-03
 0.1613224203714E-02 -0.6831516799746E-02  0.0000000000000E+00  0.1098482954567E-02
 0.1629591711329E-02 -0.7000409644110E-02  0.0000000000000E+00  0.1370059531648E-02
 0.1641031381392E-02 -0.7194213235389E-02  0.0000000000000E+00  0.1699940114955E-02
 0.1637351952310E-02 -0.7399868196445E-02  0.0000000000000E+00  0.2091082395428E-02
 0.1605407577825E-02 -0.7589416068576E-02  0.0000000000000E+00  0.2528131232105E-02
 0.1533876323639E-02 -0.7716036848016E-02  0.0000000000000E+00  0.2966568070118E-02
 0.1401098613947E-02 -0.7693357663930E-02  0.0000000000000E+00  0.3316471632771E-02
 0.1201093634129E-02 -0.7346845259232E-02  0.0000000000000E+00  0.3216503939788E-02
 0.1433473965375E-02 -0.6692152672271E-02  0.0000000000000E+00  0.1630678190057E-02
 0.3804081924666E-02 -0.6647102974835E-02  0.0000000000000E+00 -0.1394667724584E-02
 0.8554004076666E-02 -0.7457734247621E-02  0.0000000000000E+00 -0.9562207370750E-03
 0.2979677227556E-03 -0.6058874739361E-02  0.0000000000000E+00 -0.1908401079702E-02
 0.8448896610917E-03 -0.6333537685923E-02  0.0000000000000E+00 -0.1547418117776E-02
 0.1221153700518E-02 -0.6455943513713E-02  0.0000000000000E+00 -0.9460798007960E-03
 0.1402994819364E-02 -0.6462225359906E-02  0.0000000000000E+00 -0.4208547401363E-03
 0.1480228432473E-02 -0.6441996978935E-02  0.0000000000000E+00 -0.5509843727546E-04
 0.1515634664374E-02 -0.6437170618210E-02  0.0000000000000E+00  0.2021555302505E-03
 0.1533750803447E-02 -0.6455520485461E-02  0.0000000000000E+00  0.4056746216194E-03
 0.1543542640136E-02 -0.6496572781736E-02  0.0000000000000E+00  0.5910258084981E-03
 0.1548928671403E-02 -0.6559228387818E-02  0.0000000000000E+00  0.7823377379206E-03
 0.1551657538917E-02 -0.6642754701681E-02  0.0000000000000E+00  0.9972191378027E-03
 0.1551955778537E-02 -0.6746260845488E-02  0.0000000000000E+00  0.1249027359349E-02
 0.1547911913344E-02 -0.6866895736227E-02  0.0000000000000E+00  0.1547506358147E-02
 0.1534153069215E-02 -0.6996542484697E-02  0.0000000000000E+00  0.1896350084976E-02
 0.1501611251385E-02 -0.7117402237839E-02  0.0000000000000E+00  0.2285567121149E-02
 0.1440778784899E-02 -0.7197972139942E-02  0.0000000000000E+00  0.2679159860734E-02
 0.1345888136283E-02 -0.7189168796200E-02  0.0000000000000E+00  0.3000672855277E-02
 0.1220919494186E-02 -0.7010522339564E-02  0.0000000000000E+00  0.3079002023940E-02
 0.1182765490012E-02 -0.6586015707181E-02  0.0000000000000E+00  0.2465601848325E-02
 0.1835983228313E-02 -0.6140080087609E-02  0.0000000000000E+00  0.5305217016192E-03
 0.4294494842975E-02 -0.6378808091118E-02  0.0000000000000E+00 -0.1890891054406E-02
 0.8159389878711E-02 -0.7136914991798E-02  0.0000000000000E+00 -0.1155153722807E-02
 0.2626547366314E-03 -0.5987258404585E-02  0.0000000000000E+00 -0.1716880316724E-02
 0.7568833763345E-03 -0.6251878220647E-02  0.0000000000000E+00 -0.1440051443799E-02
 0.1127469588765E-02 -0.6403755831921E-02  0.0000000000000E+00 -0.9420007186927E-03
 0.1335788025869E-02 -0.6449396120108E-02  0.0000000000000E+00 -0.4540323802180E-03
 0.1436822333218E-02 -0.6450673293067E-02  0.0000000000000E+00 -0.7692681006725E-04
 0.1484142177618E-02 -0.6449565423311E-02  0.0000000000000E+00  0.2046507196666E-03
 0.1505171190013E-02 -0.6460605567872E-02  0.0000000000000E+00  0.4324366666965E-03
 0.1511708492737E-02 -0.6486723171859E-02  0.0000000000000E+00  0.6404517867798E-03
 0.1509089031140E-02 -0.6527743918352E-02  0.0000000000000E+00  0.8532896938498E-03
 0.1499741439925E-02 -0.6582519778973E-02  0.0000000000000E+00  0.1088844914945E-02
 0.1484153122592E-02 -0.6648709383237E-02  0.0000000000000E+00  0.1359586328780E-02
 0.1460631226160E-02 -0.6721155745379E-02  0.0000000000000E+00  0.1671876766028E-02
 0.1424775258416E-02 -0.6789060916606E-02  0.0000000000000E+00  0.2021912076878E-02
 0.1370452229784E-02 -0.6832697121796E-02  0.0000000000000E+00  0.2386813590780E-02
 0.1293938362213E-02 -0.6820925462863E-02  0.0000000000000E+00  0.2711604824958E-02
 0.1201540582515E-02 -0.6709742085842E-02  0.0000000000000E+00  0.2887943039719E-02
 0.1137026612038E-02 -0.6448370335441E-02  0.0000000000000E+00  0.2695366504063E-02
 0.1300758094316E-02 -0.6058134758143E-02  0.0000000000000E+00  0.1735359838607E-02
 0.2254854779794E-02 -0.5833928834016E-02  0.0000000000000E+00 -0.2293405011140E-03
 0.4645571719971E-02 -0.6236811802847E-02  0.0000000000000E+00 -0.2094356090153E-02
 0.7859335615015E-02 -0.6929570164850E-02  0.0000000000000E+00 -0.1270194270449E-02
 0.2361236655995E-03 -0.5935226117216E-02  0.0000000000000E+00 -0.1540154977571E-02
 0.6869464843614E-03 -0.6186728120685E-02  0.0000000000000E+00 -0.1320796457284E-02
 0.1045100497946E-02 -0.6352946323981E-02  0.0000000000000E+00 -0.9058712563411E-03
 0.1268534495903E-02 -0.6425964507462E-02  0.0000000000000E+00 -0.4631337883207E-03
 0.1388296497363E-02 -0.6446128380419E-02  0.0000000000000E+00 -0.9091351784728E-04
 0.1446834649455E-02 -0.6450067098277E-02  0.0000000000000E+00  0.2034080590199E-03
 0.1471123146530E-02 -0.6455269489693E-02  0.0000000000000E+00  0.4478812487548E-03
 0.1474745111773E-02 -0.6467363015628E-02  0.0000000000000E+00  0.6723681923331E-03
 0.1464355866893E-02 -0.6487180400845E-02  0.0000000000000E+00  0.9004910313085E-03
 0.1443219065393E-02 -0.6513420796301E-02  0.0000000000000E+00  0.1149433721792E-02
 0.1412481823435E-02 -0.6542799633743E-02  0.0000000000000E+00  0.1429887343877E-02
 0.1371412194141E-02 -0.6568797395527E-02  0.0000000000000E+00  0.1744118170298E-02
 0.1317728261222E-02 -0.6579566924959E-02  0.0000000000000E+00  0.2080717990585E-02
 0.1249668330644E-02 -0.6555919860205E-02  0.0000000000000E+00  0.2405133604312E-02
 0.1171500956920E-02 -0.6470667337942E-02  0.0000000000000E+00  0.2645950599802E-02
 0.1106396037681E-02 -0.6292492137965E-02  0.0000000000000E+00  0.2672007614653E-02
 0.1135373808179E-02 -0.6008766162094E-02  0.0000000000000E+00  0.2256271121743E-02
 0.1494339511540E-02 -0.5706564972553E-02  0.0000000000000E+00  0.1112132931313E-02
 0.2642162691942E-02 -0.5669587150100E-02  0.0000000000000E+00 -0.7164786404595E-03
 0.4901335537383E-02 -0.6161589484910E-02  0.0000000000000E+00 -0.2138669692105E-02
 0.7617579526972E-02 -0.6789677337195E-02  0.0000000000000E+00 -0.1343090985662E-02
 0.2154516405968E-03 -0.5896147797947E-02  0.0000000000000E+00 -0.1376334257947E-02
 0.6303515136037E-03 -0.6134085380117E-02  0.0000000000000E+00 -0.1198050510701E-02
 0.9733806554848E-03 -0.6305818958993E-02  0.0000000000000E+00 -0.8498317511767E-03
 0.1204017975313E-02 -0.6396897635689E-02  0.0000000000000E+00 -0.4536361297308E-03
 0.1337459381348E-02 -0.6432117706146E-02  0.0000000000000E+00 -0.9713974534941E-04
 0.1405633149653E-02 -0.6441041350101E-02  0.0000000000000E+00  0.1996085538395E-03
 0.1433071820917E-02 -0.6441350217836E-02  0.0000000000000E+00  0.4529490661156E-03
 0.1434047685813E-02 -0.6440327658139E-02  0.0000000000000E+00  0.6873398859866E-03
 0.1416293587242E-02 -0.6439711814910E-02  0.0000000000000E+00  0.9242526959688E-03
 0.1384028573256E-02 -0.6438283427968E-02  0.0000000000000E+00  0.1179336050019E-02
 0.1339441770650E-02 -0.6432341329354E-02  0.0000000000000E+00  0.1460904110292E-02
 0.1283439564976E-02 -0.6414944183333E-02  0.0000000000000E+00  0.1766914689708E-02
 0.1216797458268E-02 -0.6374677546253E-02  0.0000000000000E+00  0.2078984050038E-02
 0.1143258460133E-02 -0.6294970051424E-02  0.0000000000000E+00  0.2352855028624E-02
 0.1076714546893E-02 -0.6155711859904E-02  0.0000000000000E+00  0.2505123000573E-02
 0.1058026712254E-02 -0.5942623582441E-02  0.0000000000000E+00  0.2395819448753E-02
 0.1194156516163E-02 -0.5677409789730E-02  0.0000000000000E+00  0.1823027848697E-02
 0.1720416053526E-02 -0.5479313808995E-02  0.0000000000000E+00  0.6201472989202E-03
 0.2981108281889E-02 -0.5585881564328E-02  0.0000000000000E+00 -0.1003325022463E-02
 0.5094576304902E-02 -0.6123269524824E-02  0.0000000000000E+00 -0.2088963527002E-02
 0.7412604382313E-02 -0.6696141775791E-02  0.0000000000000E+00 -0.1398217224796E-02
 0.1988822782454E-03 -0.5865963903622E-02  0.0000000000000E+00 -0.1223679655154E-02
 0.5838366466384E-03 -0.6090969913874E-02  0.0000000000000E+00 -0.1076085600747E-02
 0.9111813351278E-03 -0.6263117292173E-02  0.0000000000000E+00 -0.7819794033264E-03
 0.1143757281510E-02 -0.6365416555585E-02  0.0000000000000E+00 -0.4306778762020E-03
 0.1286500019894E-02 -0.6411801793026E-02  0.0000000000000E+00 -0.9681069970823E-04
 0.1362366955913E-02 -0.6424850055490E-02  0.0000000000000E+00  0.1937611348556E-03
 0.1392520906396E-02 -0.6420774589935E-02  0.0000000000000E+00  0.4484413700469E-03
 0.1391049874211E-02 -0.6407529124065E-02  0.0000000000000E+00  0.6861110886853E-03
 0.1366466528966E-02 -0.6387541401237E-02  0.0000000000000E+00  0.9253334139696E-03
 0.1324019126858E-02 -0.6359863284097E-02  0.0000000000000E+00  0.1179629067666E-02
 0.1267269248751E-02 -0.6320875582697E-02  0.0000000000000E+00  0.1454638227164E-02
 0.1199317981293E-02 -0.6264070721461E-02  0.0000000000000E+00  0.1744238400414E-02
 0.1124701716887E-02 -0.6179712121131E-02  0.0000000000000E+00  0.2024229909029E-02
 0.1053421176381E-02 -0.6055493279866E-02  0.0000000000000E+00  0.2243276680135E-02
 0.1009516222120E-02 -0.5880442365073E-02  0.0000000000000E+00  0.2311860796791E-02
 0.1048987646523E-02 -0.5657825279133E-02  0.0000000000000E+00  0.2094363475816E-02
 0.1292045058789E-02 -0.5434237479155E-02  0.0000000000000E+00  0.1430331877665E-02
 0.1951332766227E-02 -0.5336631326192E-02  0.0000000000000E+00  0.2527679001630E-03
 0.3270177121504E-02 -0.5546310646899E-02  0.0000000000000E+00 -0.1146415529933E-02
 0.5243436379475E-02 -0.6107246101141E-02  0.0000000000000E+00 -0.1985419050471E-02
 0.7245884039866E-02 -0.6621197340213E-02  0.0000000000000E+00 -0.1429402794511E-02
 0.1852781560339E-03 -0.5842107581497E-02  0.0000000000000E+00 -0.1080709011239E-02
 0.5451405878003E-03 -0.6055250702708E-02  0.0000000000000E+00 -0.9571210994527E-03
 0.8573748452169E-03 -0.6224957259669E-02  0.0000000000000E+00 -0.7077382202049E-03
 0.1088578822664E-02 -0.6333640397152E-02  0.0000000000000E+00 -0.3986070321817E-03
 0.1237135990356E-02 -0.6387765423368E-02  0.0000000000000E+00 -0.9159494131115E-04
 0.1318769926666E-02 -0.6403755839580E-02  0.0000000000000E+00  0.1859164998626E-03
 0.1351052845942E-02 -0.6395545094994E-02  0.0000000000000E+00  0.4350637474651E-03
 0.1347314405980E-02 -0.6371010504713E-02  0.0000000000000E+00  0.6696347396575E-03
 0.1316573361661E-02 -0.6333032633916E-02  0.0000000000000E+00  0.9049626222537E-03
 0.1265137343614E-02 -0.6281080077808E-02  0.0000000000000E+00  0.1152125565627E-02
 0.1198187366545E-02 -0.6212051660723E-02  0.0000000000000E+00  0.1414093729074E-02
 0.1121411304769E-02 -0.6120584996840E-02  0.0000000000000E+00  0.1681265167225E-02
 0.1043524660108E-02 -0.5999570228393E-02  0.0000000000000E+00  0.1925185009325E-02
 0.9810296791787E-03 -0.5842047086525E-02  0.0000000000000E+00  0.2090543170905E-02
 0.9673832575833E-03 -0.5646844938358E-02  0.0000000000000E+00  0.2087670370550E-02
 0.1069572470425E-02 -0.5432465333936E-02  0.0000000000000E+00  0.1794683668556E-02
 0.1409919907360E-02 -0.5260282301694E-02  0.0000000000000E+00  0.1095319644427E-02
 0.2170427629340E-02 -0.5250105621381E-02  0.0000000000000E+00 -0.4260101181708E-05
 0.3508260960032E-02 -0.5531830765468E-02  0.0000000000000E+00 -0.1195971252253E-02
 0.5365580292318E-02 -0.6095059109902E-02  0.0000000000000E+00 -0.1829112137682E-02
 0.7124729532489E-02 -0.6585373676116E-02  0.0000000000000E+00 -0.1530931807274E-02
 0.1740397476256E-03 -0.5822917466802E-02  0.0000000000000E+00 -0.9461061976753E-03
 0.5127522308925E-03 -0.6025409545116E-02  0.0000000000000E+00 -0.8420886764874E-03
 0.8110067930974E-03 -0.6191185757047E-02  0.0000000000000E+00 -0.6305178830123E-03
 0.1038861865303E-02 -0.6302933749481E-02  0.0000000000000E+00 -0.3607145758367E-03
 0.1190585911306E-02 -0.6362018721903E-02  0.0000000000000E+00 -0.8310309512570E-04
 0.1276255036757E-02 -0.6379748416627E-02  0.0000000000000E+00  0.1759411866793E-03
 0.1310031631845E-02 -0.6367515635209E-02  0.0000000000000E+00  0.4135136930515E-03
 0.1304174775691E-02 -0.6332634274682E-02  0.0000000000000E+00  0.6391027586922E-03
 0.1267992608241E-02 -0.6278229993840E-02  0.0000000000000E+00  0.8648361573538E-03
 0.1208844552088E-02 -0.6204286319814E-02  0.0000000000000E+00  0.1099290215330E-02
 0.1133684238110E-02 -0.6108561423105E-02  0.0000000000000E+00  0.1343006030630E-02
 0.1051012853723E-02 -0.5987370599007E-02  0.0000000000000E+00  0.1583735536708E-02
 0.9738824018046E-03 -0.5836864145282E-02  0.0000000000000E+00  0.1790512574152E-02
 0.9250671903140E-03 -0.5655923545127E-02  0.0000000000000E+00  0.1907158383477E-02
 0.9459916399265E-03 -0.5452712494973E-02  0.0000000000000E+00  0.1848781765318E-02
 0.1110118497534E-02 -0.5257437725633E-02  0.0000000000000E+00  0.1512029280879E-02
 0.1534987633482E-02 -0.5138082300624E-02  0.0000000000000E+00  0.8204913246004E-03
 0.2368222656433E-02 -0.5199783280309E-02  0.0000000000000E+00 -0.1740340076804E-03
 0.3710350282512E-02 -0.5531755850221E-02  0.0000000000000E+00 -0.1176157836965E-02
 0.5437440048602E-02 -0.6080553943419E-02  0.0000000000000E+00 -0.1678252762845E-02
 0.7209746265570E-02 -0.6601516187966E-02  0.0000000000000E+00 -0.1545024294107E-02
 0.1646631260117E-03 -0.5807298284136E-02  0.0000000000000E+00 -0.8187104230980E-03
 0.4855505735028E-03 -0.6000369619118E-02  0.0000000000000E+00 -0.7312121530525E-03
 0.7712043237020E-03 -0.6161557499892E-02  0.0000000000000E+00 -0.5523940188185E-03
 0.9946640318807E-03 -0.6274164549642E-02  0.0000000000000E+00 -0.3193669394801E-03
 0.1147644949237E-02 -0.6336079120465E-02  0.0000000000000E+00 -0.7270268406952E-04
 0.1235905969036E-02 -0.6354491333955E-02  0.0000000000000E+00  0.1636226396596E-03
 0.1270574932282E-02 -0.6338308237196E-02  0.0000000000000E+00  0.3843897482079E-03
 0.1262723842676E-02 -0.6294007872416E-02  0.0000000000000E+00  0.5956704305585E-03
 0.1221797131002E-02 -0.6224799583196E-02  0.0000000000000E+00  0.8066457287943E-03
 0.1156168882129E-02 -0.6131232899951E-02  0.0000000000000E+00  0.1023533609446E-02
 0.1074628003634E-02 -0.6012156738630E-02  0.0000000000000E+00  0.1244853843580E-02
 0.9885669611126E-03 -0.5865908487907E-02  0.0000000000000E+00  0.1456666696654E-02
 0.9153066655252E-03 -0.5692228904966E-02  0.0000000000000E+00  0.1627251233591E-02
 0.8833498601833E-03 -0.5495843066896E-02  0.0000000000000E+00  0.1702336246318E-02
 0.9403199341107E-03 -0.5293113135356E-02  0.0000000000000E+00  0.1605275920514E-02
 0.1162559973090E-02 -0.5122443495515E-02  0.0000000000000E+00  0.1252571282734E-02
 0.1658211070845E-02 -0.5052684475838E-02  0.0000000000000E+00  0.6000728967445E-03
 0.2544838985875E-02 -0.5172445531759E-02  0.0000000000000E+00 -0.2765323424131E-03
 0.3873775724782E-02 -0.5537373221577E-02  0.0000000000000E+00 -0.1109410467230E-02
 0.5521935250174E-02 -0.6077859602595E-02  0.0000000000000E+00 -0.1539136311009E-02
 0.7239937270519E-02 -0.6629791131128E-02  0.0000000000000E+00 -0.1445961135065E-02
 0.1568460712717E-03 -0.5794525539498E-02  0.0000000000000E+00 -0.6974993735588E-03
 0.4627836320474E-03 -0.5979402425331E-02  0.0000000000000E+00 -0.6244271008492E-03
 0.7373484093757E-03 -0.6135887213748E-02  0.0000000000000E+00 -0.4746779189110E-03
 0.9560280377395E-03 -0.6247972595604E-02  0.0000000000000E+00 -0.2762871652987E-03
 0.1108977481862E-02 -0.6311173861131E-02  0.0000000000000E+00 -0.6149838414404E-04
 0.1198707676344E-02 -0.6329444370169E-02  0.0000000000000E+00  0.1487902607491E-03
 0.1233768458154E-02 -0.6309439316030E-02  0.0000000000000E+00  0.3483217761662E-03
 0.1224067357819E-02 -0.6256699343185E-02  0.0000000000000E+00  0.5406050127427E-03
 0.1179091803455E-02 -0.6174413805265E-02  0.0000000000000E+00  0.7322782850400E-03
 0.1108169271040E-02 -0.6063715648649E-02  0.0000000000000E+00  0.9275020430662E-03
 0.1021897851484E-02 -0.5924672208653E-02  0.0000000000000E+00  0.1123306897621E-02
 0.9344911399976E-03 -0.5757806707662E-02  0.0000000000000E+00  0.1305078123134E-02
 0.8672665694550E-03 -0.5566498596674E-02  0.0000000000000E+00  0.1442009919211E-02
 0.8536695026124E-03 -0.5360917853303E-02  0.0000000000000E+00  0.1484023009116E-02
 0.9457958858800E-03 -0.5164158167604E-02  0.0000000000000E+00  0.1364743992704E-02
 0.1220042654367E-02 -0.5019759502464E-02  0.0000000000000E+00  0.1019554960957E-02
 0.1773703319015E-02 -0.4994006868347E-02  0.0000000000000E+00  0.4277310238852E-03
 0.2697369849343E-02 -0.5159484971802E-02  0.0000000000000E+00 -0.3254816228810E-03
 0.4011116666697E-02 -0.5546692340126E-02  0.0000000000000E+00 -0.1015748119551E-02
 0.5599436568052E-02 -0.6088514925024E-02  0.0000000000000E+00 -0.1378079210972E-02
 0.7255486664701E-02 -0.6653146867538E-02  0.0000000000000E+00 -0.1304248640887E-02
 0.1503862922413E-03 -0.5784119756497E-02  0.0000000000000E+00 -0.5815358665610E-03
 0.4439274211214E-03 -0.5962010014316E-02  0.0000000000000E+00 -0.5214417955281E-03
 0.7089723130628E-03 -0.6114033559132E-02  0.0000000000000E+00 -0.3980965263149E-03
 0.9229514330886E-03 -0.6224822644193E-02  0.0000000000000E+00 -0.2326327418510E-03
 0.1075083189061E-02 -0.6288271421069E-02  0.0000000000000E+00 -0.5028595412305E-04
 0.1165469500857E-02 -0.6305837197477E-02  0.0000000000000E+00  0.1313863079973E-03
 0.1200548928890E-02 -0.6282241446409E-02  0.0000000000000E+00  0.3060027753988E-03
 0.1189173741235E-02 -0.6222104579480E-02  0.0000000000000E+00  0.4752705840000E-03
 0.1140826248060E-02 -0.6128541250594E-02  0.0000000000000E+00  0.6437552731980E-03
 0.1065703953790E-02 -0.6003254686648E-02  0.0000000000000E+00  0.8139571674383E-03
 0.9761067744048E-03 -0.5847558791904E-02  0.0000000000000E+00  0.9820139659425E-03
 0.8888705947169E-03 -0.5664158170001E-02  0.0000000000000E+00  0.1133636737367E-02
 0.8288784429886E-03 -0.5459880240489E-02  0.0000000000000E+00  0.1240415828513E-02
 0.8336397185748E-03 -0.5249678992437E-02  0.0000000000000E+00  0.1258169840033E-02
 0.9581897339027E-03 -0.5061868989436E-02  0.0000000000000E+00  0.1131676817117E-02
 0.1277258655952E-02 -0.4942778799699E-02  0.0000000000000E+00  0.8127891362134E-03
 0.1877105518153E-02 -0.4954446198414E-02  0.0000000000000E+00  0.2965550617291E-03
 0.2826555126697E-02 -0.5155207794143E-02  0.0000000000000E+00 -0.3342680092887E-03
 0.4125696825900E-02 -0.5559556859856E-02  0.0000000000000E+00 -0.8983963110670E-03
 0.5666133157637E-02 -0.6104404840466E-02  0.0000000000000E+00 -0.1196804745469E-02
 0.7264624168466E-02 -0.6674769892909E-02  0.0000000000000E+00 -0.1136018843595E-02
 0.1451478589038E-03 -0.5775765282737E-02  0.0000000000000E+00 -0.4699429024080E-03
 0.4286181155347E-03 -0.5947857682640E-02  0.0000000000000E+00 -0.4218233034987E-03
 0.6857324721636E-03 -0.6095900383223E-02  0.0000000000000E+00 -0.3229712490060E-03
 0.8954171254091E-03 -0.6205063147416E-02  0.0000000000000E+00 -0.1891193852616E-03
 0.1046340539863E-02 -0.6268134931257E-02  0.0000000000000E+00 -0.3957147172656E-04
 0.1136846884655E-02 -0.6284687239079E-02  0.0000000000000E+00  0.1114931005508E-03
 0.1171704450544E-02 -0.6257854558307E-02  0.0000000000000E+00  0.2582056782358E-03
 0.1158867085898E-02 -0.6191430307078E-02  0.0000000000000E+00  0.4011141999946E-03
 0.1107793593487E-02 -0.6088435527688E-02  0.0000000000000E+00  0.5431867960140E-03
 0.1029446958187E-02 -0.5951102001880E-02  0.0000000000000E+00  0.6856998455024E-03
 0.9376509377601E-03 -0.5781927779643E-02  0.0000000000000E+00  0.8245011120464E-03
 0.8515590346735E-03 -0.5585647492893E-02  0.0000000000000E+00  0.9465489920672E-03
 0.7990869844513E-03 -0.5372161357951E-02  0.0000000000000E+00  0.1027060540798E-02
 0.8209280688576E-03 -0.5160408060454E-02  0.0000000000000E+00  0.1028924085050E-02
 0.9738701644963E-03 -0.4982548188117E-02  0.0000000000000E+00  0.9080997064146E-03
 0.1330077362778E-02 -0.4886100983743E-02  0.0000000000000E+00  0.6301056313304E-03
 0.1965791313682E-02 -0.4928327699611E-02  0.0000000000000E+00  0.1990427497997E-03
 0.2933134818672E-02 -0.5156172536070E-02  0.0000000000000E+00 -0.3120258087238E-03
 0.4219231118675E-02 -0.5573846760470E-02  0.0000000000000E+00 -0.7611535817942E-03
 0.5721031124227E-02 -0.6121471277872E-02  0.0000000000000E+00 -0.9990696737411E-03
 0.7270922463661E-02 -0.6694483362533E-02  0.0000000000000E+00 -0.9499020676400E-03
 0.1410396991769E-03 -0.5769256838885E-02  0.0000000000000E+00 -0.3618848717802E-03
 0.4166052497875E-03 -0.5936725023568E-02  0.0000000000000E+00 -0.3250482045637E-03
 0.6673819665072E-03 -0.6081429141638E-02  0.0000000000000E+00 -0.2493402015682E-03
 0.8734073680361E-03 -0.6188959603223E-02  0.0000000000000E+00 -0.1461240929231E-03
 0.1023035901642E-02 -0.6251359790281E-02  0.0000000000000E+00 -0.2960859495917E-04
 0.1113360004681E-02 -0.6266816638659E-02  0.0000000000000E+00  0.8933611457775E-04
 0.1147878737105E-02 -0.6237223476421E-02  0.0000000000000E+00  0.2057875642161E-03
 0.1133825867209E-02 -0.6165684717503E-02  0.0000000000000E+00  0.3196516147814E-03
 0.1080634964362E-02 -0.6055131857159E-02  0.0000000000000E+00  0.4327355867734E-03
 0.9999099359139E-03 -0.5908256930779E-02  0.0000000000000E+00  0.5455164082212E-03
 0.9067616334277E-03 -0.5728601421470E-02  0.0000000000000E+00  0.6541115430153E-03
 0.8222763421124E-03 -0.5522658179624E-02  0.0000000000000E+00  0.7475212956468E-03
 0.7768122495614E-03 -0.5302894944828E-02  0.0000000000000E+00  0.8055539829039E-03
 0.8134363219890E-03 -0.5091388731755E-02  0.0000000000000E+00  0.7988928193828E-03
 0.9898493553034E-03 -0.4922996276819E-02  0.0000000000000E+00  0.6942465446817E-03
 0.1375443292920E-02 -0.4845453762852E-02  0.0000000000000E+00  0.4680277455085E-03
 0.2038126966652E-02 -0.4911593365275E-02  0.0000000000000E+00  0.1281830956141E-03
 0.3017709017698E-02 -0.5159790124668E-02  0.0000000000000E+00 -0.2659484471328E-03
 0.4292820078664E-02 -0.5587555835481E-02  0.0000000000000E+00 -0.6079453626992E-03
 0.5764239852937E-02 -0.6137244129247E-02  0.0000000000000E+00 -0.7888115306900E-03
 0.7275666890137E-02 -0.6711532953508E-02  0.0000000000000E+00 -0.7509424805182E-03
 0.1380015764558E-03 -0.5764463678356E-02  0.0000000000000E+00 -0.2565539198358E-03
 0.4077193924639E-03 -0.5928470806670E-02  0.0000000000000E+00 -0.2305337723257E-03
 0.6537484644968E-03 -0.6070588595051E-02  0.0000000000000E+00 -0.1770438733823E-03
 0.8569088235305E-03 -0.6176712891614E-02  0.0000000000000E+00 -0.1037699403339E-03
 0.1005382457672E-02 -0.6238399267858E-02  0.0000000000000E+00 -0.2044335904400E-04
 0.1095408659336E-02 -0.6252866615037E-02  0.0000000000000E+00  0.6527137948636E-04
 0.1129576952143E-02 -0.6221098976735E-02  0.0000000000000E+00  0.1496842456344E-03
 0.1114585223306E-02 -0.6145673478609E-02  0.0000000000000E+00  0.2324530251506E-03
 0.1059847401029E-02 -0.6029448909652E-02  0.0000000000000E+00  0.3145908307129E-03
 0.9774657732545E-03 -0.5875485639835E-02  0.0000000000000E+00  0.3961467650771E-03
 0.8835554312804E-03 -0.5688164010864E-02  0.0000000000000E+00  0.4739833041375E-03
 0.8006936049148E-03 -0.5475370809066E-02  0.0000000000000E+00  0.5397799918236E-03
 0.7610680309842E-03 -0.5251551792079E-02  0.0000000000000E+00  0.5786442064571E-03
 0.8094061657861E-03 -0.5041087069465E-02  0.0000000000000E+00  0.5694579699509E-03
 0.1003796971346E-02 -0.4880611830350E-02  0.0000000000000E+00  0.4890589035698E-03
 0.1411168391881E-02 -0.4817612725260E-02  0.0000000000000E+00  0.3223808075882E-03
 0.2093084596172E-02 -0.4901340971344E-02  0.0000000000000E+00  0.7749783748448E-04
 0.3080738629635E-02 -0.5164110299902E-02  0.0000000000000E+00 -0.2021490322695E-03
 0.4347286312053E-02 -0.5599109468785E-02  0.0000000000000E+00 -0.4426327167973E-03
 0.5796159125084E-02 -0.6150169425925E-02  0.0000000000000E+00 -0.5694810937751E-03
 0.7279255792100E-02 -0.6725107017351E-02  0.0000000000000E+00 -0.5427119357939E-03
 0.1359949070413E-03 -0.5761305509642E-02  0.0000000000000E+00 -0.1531601979278E-03
 0.4018500215545E-03 -0.5923008204451E-02  0.0000000000000E+00 -0.1376582929836E-03
 0.6447170651007E-03 -0.6063364887396E-02  0.0000000000000E+00 -0.1057873466110E-03
 0.8459132289907E-03 -0.6168468887855E-02  0.0000000000000E+00 -0.6199638191825E-04
 0.9935321571600E-03 -0.6229581422487E-02  0.0000000000000E+00 -0.1196123202922E-04
 0.1083283534713E-02 -0.6243308700966E-02  0.0000000000000E+00  0.3976318642811E-04
 0.1117171711594E-02 -0.6210040436962E-02  0.0000000000000E+00  0.9089812722734E-04
 0.1101541015533E-02 -0.6131999116330E-02  0.0000000000000E+00  0.1411294345449E-03
 0.1045793054423E-02 -0.6011993551650E-02  0.0000000000000E+00  0.1909513047397E-03
 0.9623711859325E-03 -0.5853341198095E-02  0.0000000000000E+00  0.2402722809420E-03
 0.8680781723309E-03 -0.5661008444794E-02  0.0000000000000E+00  0.2870601197369E-03
 0.7865030718701E-03 -0.5443845873010E-02  0.0000000000000E+00  0.3261361503029E-03
 0.7510478445212E-03 -0.5217638533943E-02  0.0000000000000E+00  0.3483834802816E-03
 0.8074834072396E-03 -0.5008270005098E-02  0.0000000000000E+00  0.3410795739678E-03
 0.1014013876178E-02 -0.4853438566804E-02  0.0000000000000E+00  0.2906017890061E-03
 0.1435755709263E-02 -0.4800277807298E-02  0.0000000000000E+00  0.1886328592149E-03
 0.2130026283438E-02 -0.4895559402496E-02  0.0000000000000E+00  0.4093129595742E-04
 0.3122566079809E-02 -0.5167735980952E-02  0.0000000000000E+00 -0.1260883802827E-03
 0.4383247179175E-02 -0.5607392745234E-02  0.0000000000000E+00 -0.2688859052214E-03
 0.5817191227325E-02 -0.6159265398307E-02  0.0000000000000E+00 -0.3440349359614E-03
 0.7281721290544E-02 -0.6734540097517E-02  0.0000000000000E+00 -0.3281192078974E-03
 0.1349968666388E-03 -0.5759736701086E-02  0.0000000000000E+00 -0.5092489269417E-04
 0.3989308466295E-03 -0.5920287965030E-02  0.0000000000000E+00 -0.4577532692058E-04
 0.6402178560539E-03 -0.6059753461584E-02  0.0000000000000E+00 -0.3518768238414E-04
 0.8404162892634E-03 -0.6164323181038E-02  0.0000000000000E+00 -0.2061885414262E-04
 0.9875829708701E-03 -0.6225119825928E-02  0.0000000000000E+00 -0.3934036869595E-05
 0.1077174199430E-02 -0.6238452888917E-02  0.0000000000000E+00  0.1335610818119E-04
 0.1110908268879E-02 -0.6204418765353E-02  0.0000000000000E+00  0.3048168203650E-04
 0.1094954166231E-02 -0.6125062060042E-02  0.0000000000000E+00  0.4731994902193E-04
 0.1038707797909E-02 -0.6003166380308E-02  0.0000000000000E+00  0.6401645006701E-04
 0.9547857818371E-03 -0.5842181289072E-02  0.0000000000000E+00  0.8052012133500E-04
 0.8603400850406E-03 -0.5647374230318E-02  0.0000000000000E+00  0.9612820087275E-04
 0.7794706463814E-03 -0.5428087730783E-02  0.0000000000000E+00  0.1090833276983E-03
 0.7461839906417E-03 -0.5200781770763E-02  0.0000000000000E+00  0.1163170359500E-03
 0.8067524436903E-03 -0.4992080520152E-02  0.0000000000000E+00  0.1135818198429E-03
 0.1019394374086E-02 -0.4840175974115E-02  0.0000000000000E+00  0.9638529560080E-04
 0.1448272928063E-02 -0.4791971497178E-02  0.0000000000000E+00  0.6207611223409E-04
 0.2148582005956E-02 -0.4892976966991E-02  0.0000000000000E+00  0.1272151945471E-04
 0.3143421588168E-02 -0.5169768404943E-02  0.0000000000000E+00 -0.4282191977781E-04
 0.4401121454369E-02 -0.5611703239937E-02  0.0000000000000E+00 -0.9017457278263E-04
 0.5827631208151E-02 -0.6163949556159E-02  0.0000000000000E+00 -0.1150623484210E-03
 0.7282986083921E-02 -0.6739372966958E-02  0.0000000000000E+00 -0.1097853170695E-03
 0.1349968666304E-03 -0.5759736700788E-02  0.0000000000000E+00  0.5092489280553E-04
 0.3989308466140E-03 -0.5920287964732E-02  0.0000000000000E+00  0.4577532702599E-04
 0.6402178560485E-03 -0.6059753461299E-02  0.0000000000000E+00  0.3518768227000E-04
 0.8404162892800E-03 -0.6164323180773E-02  0.0000000000000E+00  0.2061885336060E-04
 0.9875829709142E-03 -0.6225119825691E-02  0.0000000000000E+00  0.3934034858447E-05
 0.1077174199505E-02 -0.6238452888718E-02  0.0000000000000E+00 -0.1335611199896E-04
 0.1110908268992E-02 -0.6204418765211E-02  0.0000000000000E+00 -0.3048168822486E-04
 0.1094954166390E-02 -0.6125062059985E-02  0.0000000000000E+00 -0.4731995815084E-04
 0.1038707798125E-02 -0.6003166380372E-02  0.0000000000000E+00 -0.6401646273148E-04
 0.9547857821116E-03 -0.5842181289292E-02  0.0000000000000E+00 -0.8052013811945E-04
 0.8603400853577E-03 -0.5647374230722E-02  0.0000000000000E+00 -0.9612822220945E-04
 0.7794706466899E-03 -0.5428087731370E-02  0.0000000000000E+00 -0.1090833535796E-03
 0.7461839908405E-03 -0.5200781771485E-02  0.0000000000000E+00 -0.1163170654794E-03
 0.8067524436242E-03 -0.4992080520896E-02  0.0000000000000E+00 -0.1135818506941E-03
 0.1019394373571E-02 -0.4840175974706E-02  0.0000000000000E+00 -0.9638532362040E-04
 0.1448272926962E-02 -0.4791971497425E-02  0.0000000000000E+00 -0.6207613162905E-04
 0.2148582004297E-02 -0.4892976966776E-02  0.0000000000000E+00 -0.1272152409215E-04
 0.3143421586256E-02 -0.5169768404320E-02  0.0000000000000E+00  0.4282193370014E-04
 0.4401121452769E-02 -0.5611703239145E-02  0.0000000000000E+00  0.9017460345817E-04
 0.5827631207457E-02 -0.6163949555470E-02  0.0000000000000E+00  0.1150623866977E-03
 0.7282986084367E-02 -0.6739372966411E-02  0.0000000000000E+00  0.1097853485682E-03
 0.1359949070161E-03 -0.5761305508746E-02  0.0000000000000E+00  0.1531601980286E-03
 0.4018500215075E-03 -0.5923008203557E-02  0.0000000000000E+00  0.1376582930886E-03
 0.6447170650841E-03 -0.6063364886539E-02  0.0000000000000E+00  0.1057873465062E-03
 0.8459132290396E-03 -0.6168468887059E-02  0.0000000000000E+00  0.6199638115438E-04
 0.9935321572909E-03 -0.6229581421772E-02  0.0000000000000E+00  0.1196123004939E-04
 0.1083283534936E-02 -0.6243308700365E-02  0.0000000000000E+00 -0.3976319019024E-04
 0.1117171711927E-02 -0.6210040436529E-02  0.0000000000000E+00 -0.9089813332110E-04
 0.1101541016005E-02 -0.6131999116152E-02  0.0000000000000E+00 -0.1411294435270E-03
 0.1045793055064E-02 -0.6011993551832E-02  0.0000000000000E+00 -0.1909513171979E-03
 0.9623711867524E-03 -0.5853341198749E-02  0.0000000000000E+00 -0.2402722974655E-03
 0.8680781732826E-03 -0.5661008446000E-02  0.0000000000000E+00 -0.2870601407834E-03
 0.7865030728035E-03 -0.5443845874771E-02  0.0000000000000E+00 -0.3261361759209E-03
 0.7510478451372E-03 -0.5217638536123E-02  0.0000000000000E+00 -0.3483835096689E-03
 0.8074834070745E-03 -0.5008270007361E-02  0.0000000000000E+00 -0.3410796049195E-03
 0.1014013874677E-02 -0.4853438568627E-02  0.0000000000000E+00 -0.2906018174735E-03
 0.1435755705998E-02 -0.4800277808099E-02  0.0000000000000E+00 -0.1886328794126E-03
 0.2130026278477E-02 -0.4895559401908E-02  0.0000000000000E+00 -0.4093130159116E-04
 0.3122566074056E-02 -0.5167735979123E-02  0.0000000000000E+00  0.1260883933222E-03
 0.4383247174338E-02 -0.5607392742877E-02  0.0000000000000E+00  0.2688859353958E-03
 0.5817191225215E-02 -0.6159265396252E-02  0.0000000000000E+00  0.3440349740799E-03
 0.7281721291906E-02 -0.6734540095905E-02  0.0000000000000E+00  0.3281192391234E-03
 0.1380015764132E-03 -0.5764463676862E-02  0.0000000000000E+00  0.2565539199153E-03
 0.4077193923843E-03 -0.5928470805179E-02  0.0000000000000E+00  0.2305337724296E-03
 0.6537484644676E-03 -0.6070588593620E-02  0.0000000000000E+00  0.1770438732956E-03
 0.8569088236097E-03 -0.6176712890283E-02  0.0000000000000E+00  0.1037699396051E-03
 0.1005382457885E-02 -0.6238399266659E-02  0.0000000000000E+00  0.2044335712517E-04
 0.1095408659699E-02 -0.6252866614021E-02  0.0000000000000E+00 -0.6527138313896E-04
 0.1129576952685E-02 -0.6221098975995E-02  0.0000000000000E+00 -0.1496842515407E-03
 0.1114585224076E-02 -0.6145673478286E-02  0.0000000000000E+00 -0.2324530338404E-03
 0.1059847402081E-02 -0.6029448909926E-02  0.0000000000000E+00 -0.3145908427592E-03
 0.9774657746089E-03 -0.5875485640895E-02  0.0000000000000E+00 -0.3961467810771E-03
 0.8835554328668E-03 -0.5688164012852E-02  0.0000000000000E+00 -0.4739833245966E-03
 0.8006936064956E-03 -0.5475370812001E-02  0.0000000000000E+00 -0.5397800168995E-03
 0.7610680320745E-03 -0.5251551795751E-02  0.0000000000000E+00 -0.5786442355331E-03
 0.8094061656207E-03 -0.5041087073337E-02  0.0000000000000E+00 -0.5694580010677E-03
 0.1003796968987E-02 -0.4880611833554E-02  0.0000000000000E+00 -0.4890589328988E-03
 0.1411168386572E-02 -0.4817612726801E-02  0.0000000000000E+00 -0.3223808293771E-03
 0.2093084587963E-02 -0.4901340970557E-02  0.0000000000000E+00 -0.7749784512884E-04
 0.3080738619993E-02 -0.5164110296984E-02  0.0000000000000E+00  0.2021490434997E-03
 0.4347286303862E-02 -0.5599109464917E-02  0.0000000000000E+00  0.4426327459259E-03
 0.5796159121479E-02 -0.6150169422542E-02  0.0000000000000E+00  0.5694811315637E-03
 0.7279255794444E-02 -0.6725107014751E-02  0.0000000000000E+00  0.5427119664897E-03
 0.1410396991159E-03 -0.5769256836791E-02  0.0000000000000E+00  0.3618848718273E-03
 0.4166052496735E-03 -0.5936725021477E-02  0.0000000000000E+00  0.3250482046656E-03
 0.6673819664636E-03 -0.6081429139629E-02  0.0000000000000E+00  0.2493402015075E-03
 0.8734073681418E-03 -0.6188959601350E-02  0.0000000000000E+00  0.1461240922440E-03
 0.1023035901929E-02 -0.6251359788584E-02  0.0000000000000E+00  0.2960859312747E-04
 0.1113360005169E-02 -0.6266816637207E-02  0.0000000000000E+00 -0.8933611807076E-04
 0.1147878737835E-02 -0.6237223475342E-02  0.0000000000000E+00 -0.2057875698456E-03
 0.1133825868253E-02 -0.6165684716998E-02  0.0000000000000E+00 -0.3196516230366E-03
 0.1080634965800E-02 -0.6055131857481E-02  0.0000000000000E+00 -0.4327355982033E-03
 0.9999099377833E-03 -0.5908256932198E-02  0.0000000000000E+00 -0.5455164234318E-03
 0.9067616356470E-03 -0.5728601424203E-02  0.0000000000000E+00 -0.6541115625770E-03
 0.8222763443743E-03 -0.5522658183727E-02  0.0000000000000E+00 -0.7475213198715E-03
 0.7768122512172E-03 -0.5302894950046E-02  0.0000000000000E+00 -0.8055540114462E-03
 0.8134363219855E-03 -0.5091388737381E-02  0.0000000000000E+00 -0.7988928506561E-03
 0.9898493523030E-03 -0.4922996281650E-02  0.0000000000000E+00 -0.6942465752143E-03
 0.1375443285775E-02 -0.4845453765447E-02  0.0000000000000E+00 -0.4680277696433E-03
 0.2038126955295E-02 -0.4911593364592E-02  0.0000000000000E+00 -0.1281831063158E-03
 0.3017709004094E-02 -0.5159790120873E-02  0.0000000000000E+00  0.2659484555394E-03
 0.4292820066921E-02 -0.5587555830207E-02  0.0000000000000E+00  0.6079453901463E-03
 0.5764239847690E-02 -0.6137244124600E-02  0.0000000000000E+00  0.7888115679420E-03
 0.7275666893569E-02 -0.6711532950049E-02  0.0000000000000E+00  0.7509425104548E-03
 0.1451478588231E-03 -0.5775765280041E-02  0.0000000000000E+00  0.4699429024108E-03
 0.4286181153837E-03 -0.5947857679946E-02  0.0000000000000E+00  0.4218233035971E-03
 0.6857324721029E-03 -0.6095900380633E-02  0.0000000000000E+00  0.3229712489771E-03
 0.8954171255366E-03 -0.6205063144991E-02  0.0000000000000E+00  0.1891193846427E-03
 0.1046340540213E-02 -0.6268134929043E-02  0.0000000000000E+00  0.3957147000301E-04
 0.1136846885249E-02 -0.6284687237160E-02  0.0000000000000E+00 -0.1114931038395E-03
 0.1171704451436E-02 -0.6257854556848E-02  0.0000000000000E+00 -0.2582056835042E-03
 0.1158867087182E-02 -0.6191430306336E-02  0.0000000000000E+00 -0.4011142076773E-03
 0.1107793595274E-02 -0.6088435527995E-02  0.0000000000000E+00 -0.5431868066259E-03
 0.1029446960542E-02 -0.5951102003594E-02  0.0000000000000E+00 -0.6856998596541E-03
 0.9376509406048E-03 -0.5781927783067E-02  0.0000000000000E+00 -0.8245011303830E-03
 0.8515590376559E-03 -0.5585647498145E-02  0.0000000000000E+00 -0.9465490150890E-03
 0.7990869867907E-03 -0.5372161364779E-02  0.0000000000000E+00 -0.1027060568506E-02
 0.8209280692367E-03 -0.5160408068023E-02  0.0000000000000E+00 -0.1028924116360E-02
 0.9738701611644E-03 -0.4982548194917E-02  0.0000000000000E+00 -0.9080997383770E-03
 0.1330077354110E-02 -0.4886100987845E-02  0.0000000000000E+00 -0.6301056585034E-03
 0.1965791299346E-02 -0.4928327699485E-02  0.0000000000000E+00 -0.1990427646448E-03
 0.2933134801024E-02 -0.5156172531728E-02  0.0000000000000E+00  0.3120258131630E-03
 0.4219231103102E-02 -0.5573846753962E-02  0.0000000000000E+00  0.7611536067784E-03
 0.5721031117109E-02 -0.6121471272056E-02  0.0000000000000E+00  0.9990697101774E-03
 0.7270922468311E-02 -0.6694483358383E-02  0.0000000000000E+00  0.9499020966274E-03
 0.1503862921391E-03 -0.5784119753195E-02  0.0000000000000E+00  0.5815358665065E-03
 0.4439274209303E-03 -0.5962010011017E-02  0.0000000000000E+00  0.5214417956209E-03
 0.7089723129821E-03 -0.6114033555955E-02  0.0000000000000E+00  0.3980965263213E-03
 0.9229514332317E-03 -0.6224822641206E-02  0.0000000000000E+00  0.2326327412976E-03
 0.1075083189460E-02 -0.6288271418315E-02  0.0000000000000E+00  0.5028595252152E-04
 0.1165469501531E-02 -0.6305837195053E-02  0.0000000000000E+00 -0.1313863110441E-03
 0.1200548929906E-02 -0.6282241444517E-02  0.0000000000000E+00 -0.3060027802287E-03
 0.1189173742715E-02 -0.6222104578435E-02  0.0000000000000E+00 -0.4752705909786E-03
 0.1140826250149E-02 -0.6128541250805E-02  0.0000000000000E+00 -0.6437552827944E-03
 0.1065703956589E-02 -0.6003254688566E-02  0.0000000000000E+00 -0.8139571802595E-03
 0.9761067778575E-03 -0.5847558795938E-02  0.0000000000000E+00 -0.9820139827075E-03
 0.8888705984576E-03 -0.5664158176365E-02  0.0000000000000E+00 -0.1133636758783E-02
 0.8288784461466E-03 -0.5459880248982E-02  0.0000000000000E+00 -0.1240415854987E-02
 0.8336397196081E-03 -0.5249679002169E-02  0.0000000000000E+00 -0.1258169871106E-02
 0.9581897306431E-03 -0.5061868998633E-02  0.0000000000000E+00 -0.1131676850564E-02
 0.1277258646195E-02 -0.4942778805912E-02  0.0000000000000E+00 -0.8127891670093E-03
 0.1877105501106E-02 -0.4954446199476E-02  0.0000000000000E+00 -0.2965550818398E-03
 0.2826555104936E-02 -0.5155207789738E-02  0.0000000000000E+00  0.3342680084493E-03
 0.4125696806146E-02 -0.5559556852391E-02  0.0000000000000E+00  0.8983963326001E-03
 0.5666133148311E-02 -0.6104404833623E-02  0.0000000000000E+00  0.1196804780669E-02
 0.7264624174461E-02 -0.6674769888262E-02  0.0000000000000E+00  0.1136018871477E-02
 0.1568460711457E-03 -0.5794525535585E-02  0.0000000000000E+00  0.6974993734327E-03
 0.4627836318124E-03 -0.5979402421421E-02  0.0000000000000E+00  0.6244271009335E-03
 0.7373484092722E-03 -0.6135887209979E-02  0.0000000000000E+00  0.4746779189528E-03
 0.9560280378912E-03 -0.6247972592039E-02  0.0000000000000E+00  0.2762871648086E-03
 0.1108977482291E-02 -0.6311173857807E-02  0.0000000000000E+00  0.6149838266960E-04
 0.1198707677067E-02 -0.6329444367192E-02  0.0000000000000E+00 -0.1487902635248E-03
 0.1233768459250E-02 -0.6309439313637E-02  0.0000000000000E+00 -0.3483217804879E-03
 0.1224067359439E-02 -0.6256699341751E-02  0.0000000000000E+00 -0.5406050188937E-03
 0.1179091805786E-02 -0.6174413805279E-02  0.0000000000000E+00 -0.7322782934305E-03
 0.1108169274226E-02 -0.6063715650661E-02  0.0000000000000E+00 -0.9275020542859E-03
 0.1021897855513E-02 -0.5924672213188E-02  0.0000000000000E+00 -0.1123306912450E-02
 0.9344911445229E-03 -0.5757806715067E-02  0.0000000000000E+00 -0.1305078142487E-02
 0.8672665735700E-03 -0.5566498606867E-02  0.0000000000000E+00 -0.1442009943934E-02
 0.8536695046082E-03 -0.5360917865423E-02  0.0000000000000E+00 -0.1484023039488E-02
 0.9457958831899E-03 -0.5164158179700E-02  0.0000000000000E+00 -0.1364744027452E-02
 0.1220042644106E-02 -0.5019759511555E-02  0.0000000000000E+00 -0.1019554995783E-02
 0.1773703299664E-02 -0.4994006871447E-02  0.0000000000000E+00 -0.4277310503999E-03
 0.2697369823443E-02 -0.5159484968011E-02  0.0000000000000E+00  0.3254816152512E-03
 0.4011116642352E-02 -0.5546692332137E-02  0.0000000000000E+00  0.1015748136386E-02
 0.5599436556062E-02 -0.6088514917390E-02  0.0000000000000E+00  0.1378079244262E-02
 0.7255486672096E-02 -0.6653146862584E-02  0.0000000000000E+00  0.1304248667492E-02
 0.1646631258587E-03 -0.5807298279607E-02  0.0000000000000E+00  0.8187104228844E-03
 0.4855505732196E-03 -0.6000369614593E-02  0.0000000000000E+00  0.7312121531247E-03
 0.7712043235731E-03 -0.6161557495525E-02  0.0000000000000E+00  0.5523940188909E-03
 0.9946640320327E-03 -0.6274164545482E-02  0.0000000000000E+00  0.3193669390417E-03
 0.1147644949675E-02 -0.6336079116533E-02  0.0000000000000E+00  0.7270268271654E-04
 0.1235905969769E-02 -0.6354491330367E-02  0.0000000000000E+00 -0.1636226421442E-03
 0.1270574933404E-02 -0.6338308234226E-02  0.0000000000000E+00 -0.3843897519606E-03
 0.1262723844371E-02 -0.6294007870497E-02  0.0000000000000E+00 -0.5956704357682E-03
 0.1221797133501E-02 -0.6224799582894E-02  0.0000000000000E+00 -0.8066457357988E-03
 0.1156168885630E-02 -0.6131232901918E-02  0.0000000000000E+00 -0.1023533618798E-02
 0.1074628008184E-02 -0.6012156743523E-02  0.0000000000000E+00 -0.1244853856098E-02
 0.9885669664264E-03 -0.5865908496242E-02  0.0000000000000E+00 -0.1456666713436E-02
 0.9153066707204E-03 -0.5692228916845E-02  0.0000000000000E+00 -0.1627251255923E-02
 0.8833498634663E-03 -0.5495843081610E-02  0.0000000000000E+00 -0.1702336275295E-02
 0.9403199325708E-03 -0.5293113150898E-02  0.0000000000000E+00 -0.1605275956062E-02
 0.1162559963082E-02 -0.5122443508418E-02  0.0000000000000E+00 -0.1252571321708E-02
 0.1658211049793E-02 -0.5052684482102E-02  0.0000000000000E+00 -0.6000729307744E-03
 0.2544838955887E-02 -0.5172445529504E-02  0.0000000000000E+00  0.2765323262371E-03
 0.3873775695402E-02 -0.5537373213715E-02  0.0000000000000E+00  0.1109410477861E-02
 0.5521935234970E-02 -0.6077859594632E-02  0.0000000000000E+00  0.1539136341308E-02
 0.7239937279152E-02 -0.6629791125994E-02  0.0000000000000E+00  0.1445961160010E-02
 0.1740397474416E-03 -0.5822917461651E-02  0.0000000000000E+00  0.9461061973557E-03
 0.5127522305568E-03 -0.6025409539973E-02  0.0000000000000E+00  0.8420886765434E-03
 0.8110067929418E-03 -0.6191185752075E-02  0.0000000000000E+00  0.6305178831036E-03
 0.1038861865446E-02 -0.6302933744705E-02  0.0000000000000E+00  0.3607145754259E-03
 0.1190585911725E-02 -0.6362018717319E-02  0.0000000000000E+00  0.8310309387637E-04
 0.1276255037453E-02 -0.6379748412361E-02  0.0000000000000E+00 -0.1759411888625E-03
 0.1310031632931E-02 -0.6367515631572E-02  0.0000000000000E+00 -0.4135136961833E-03
 0.1304174777386E-02 -0.6332634272167E-02  0.0000000000000E+00 -0.6391027628584E-03
 0.1267992610822E-02 -0.6278229993085E-02  0.0000000000000E+00 -0.8648361628065E-03
 0.1208844555812E-02 -0.6204286321573E-02  0.0000000000000E+00 -0.1099290222561E-02
 0.1133684243103E-02 -0.6108561428176E-02  0.0000000000000E+00 -0.1343006040458E-02
 0.1051012859795E-02 -0.5987370608103E-02  0.0000000000000E+00 -0.1583735550368E-02
 0.9738824081676E-03 -0.5836864158768E-02  0.0000000000000E+00 -0.1790512593329E-02
 0.9250671951948E-03 -0.5655923562572E-02  0.0000000000000E+00 -0.1907158410111E-02
 0.9459916401803E-03 -0.5452712514511E-02  0.0000000000000E+00 -0.1848781800754E-02
 0.1110118488728E-02 -0.5257437743435E-02  0.0000000000000E+00 -0.1512029323686E-02
 0.1534987611634E-02 -0.5138082311517E-02  0.0000000000000E+00 -0.8204913670799E-03
 0.2368222622513E-02 -0.5199783280886E-02  0.0000000000000E+00  0.1740339807806E-03
 0.3710350247636E-02 -0.5531755843253E-02  0.0000000000000E+00  0.1176157839794E-02
 0.5437440029696E-02 -0.6080553936228E-02  0.0000000000000E+00  0.1678252788534E-02
 0.7209746274753E-02 -0.6601516182538E-02  0.0000000000000E+00  0.1545024316264E-02
 0.1852781558136E-03 -0.5842107575715E-02  0.0000000000000E+00  0.1080709010793E-02
 0.5451405874080E-03 -0.6055250696946E-02  0.0000000000000E+00  0.9571210994886E-03
 0.8573748450349E-03 -0.6224957254088E-02  0.0000000000000E+00  0.7077382202929E-03
 0.1088578822786E-02 -0.6333640391733E-02  0.0000000000000E+00  0.3986070317587E-03
 0.1237135990723E-02 -0.6387765418078E-02  0.0000000000000E+00  0.9159494013421E-04
 0.1318769927273E-02 -0.6403755834557E-02  0.0000000000000E+00 -0.1859165017427E-03
 0.1351052846923E-02 -0.6395545090592E-02  0.0000000000000E+00 -0.4350637499323E-03
 0.1347314407591E-02 -0.6371010501479E-02  0.0000000000000E+00 -0.6696347426908E-03
 0.1316573364225E-02 -0.6333032632556E-02  0.0000000000000E+00 -0.9049626260075E-03
 0.1265137347451E-02 -0.6281080079169E-02  0.0000000000000E+00 -0.1152125570505E-02
 0.1198187371871E-02 -0.6212051665747E-02  0.0000000000000E+00 -0.1414093735845E-02
 0.1121411311525E-02 -0.6120585006464E-02  0.0000000000000E+00 -0.1681265177191E-02
 0.1043524667667E-02 -0.5999570243309E-02  0.0000000000000E+00 -0.1925185024486E-02
 0.9810296859141E-03 -0.5842047106727E-02  0.0000000000000E+00 -0.2090543193990E-02
 0.9673832602901E-03 -0.5646844962367E-02  0.0000000000000E+00 -0.2087670404473E-02
 0.1069572463972E-02 -0.5432465357840E-02  0.0000000000000E+00 -0.1794683714233E-02
 0.1409919885985E-02 -0.5260282319081E-02  0.0000000000000E+00 -0.1095319695925E-02
 0.2170427592048E-02 -0.5250105626635E-02  0.0000000000000E+00  0.4260061098743E-05
 0.3508260918591E-02 -0.5531830760402E-02  0.0000000000000E+00  0.1195971244515E-02
 0.5365580270459E-02 -0.6095059104547E-02  0.0000000000000E+00  0.1829112159516E-02
 0.7124729539393E-02 -0.6585373672883E-02  0.0000000000000E+00  0.1530931819460E-02
 0.1988822779288E-03 -0.5865963897195E-02  0.0000000000000E+00  0.1223679654538E-02
 0.5838366461406E-03 -0.6090969907469E-02  0.0000000000000E+00  0.1076085600661E-02
 0.9111813348398E-03 -0.6263117285931E-02  0.0000000000000E+00  0.7819794032770E-03
 0.1143757281498E-02 -0.6365416549439E-02  0.0000000000000E+00  0.4306778756390E-03
 0.1286500020062E-02 -0.6411801786918E-02  0.0000000000000E+00  0.9681069852823E-04
 0.1362366956257E-02 -0.6424850049573E-02  0.0000000000000E+00 -0.1937611364445E-03
 0.1392520907072E-02 -0.6420774584593E-02  0.0000000000000E+00 -0.4484413718106E-03
 0.1391049875497E-02 -0.6407529119862E-02  0.0000000000000E+00 -0.6861110905039E-03
 0.1366466531207E-02 -0.6387541398896E-02  0.0000000000000E+00 -0.9253334158871E-03
 0.1324019130415E-02 -0.6359863284497E-02  0.0000000000000E+00 -0.1179629069953E-02
 0.1267269253921E-02 -0.6320875586862E-02  0.0000000000000E+00 -0.1454638230450E-02
 0.1199317988162E-02 -0.6264070730499E-02  0.0000000000000E+00 -0.1744238405910E-02
 0.1124701725071E-02 -0.6179712136051E-02  0.0000000000000E+00 -0.2024229918812E-02
 0.1053421184589E-02 -0.6055493301186E-02  0.0000000000000E+00 -0.2243276697416E-02
 0.1009516227469E-02 -0.5880442392029E-02  0.0000000000000E+00 -0.2311860825834E-02
 0.1048987643697E-02 -0.5657825308349E-02  0.0000000000000E+00 -0.2094363520307E-02
 0.1292045040420E-02 -0.5434237503558E-02  0.0000000000000E+00 -0.1430331935159E-02
 0.1951332728241E-02 -0.5336631337600E-02  0.0000000000000E+00 -0.2527679535640E-03
 0.3270177074985E-02 -0.5546310644950E-02  0.0000000000000E+00  0.1146415508743E-02
 0.5243436353261E-02 -0.6107246097934E-02  0.0000000000000E+00  0.1985419066657E-02
 0.7245884050907E-02 -0.6621197341001E-02  0.0000000000000E+00  0.1429402802009E-02
 0.2154516402293E-03 -0.5896147790862E-02  0.0000000000000E+00  0.1376334257097E-02
 0.6303515129989E-03 -0.6134085373038E-02  0.0000000000000E+00  0.1198050510356E-02
 0.9733806550474E-03 -0.6305818952035E-02  0.0000000000000E+00  0.8498317508219E-03
 0.1204017975064E-02 -0.6396897628729E-02  0.0000000000000E+00  0.4536361288897E-03
 0.1337459381173E-02 -0.6432117699119E-02  0.0000000000000E+00  0.9713974408981E-04
 0.1405633149568E-02 -0.6441041343183E-02  0.0000000000000E+00 -0.1996085551809E-03
 0.1433071821096E-02 -0.6441350211415E-02  0.0000000000000E+00 -0.4529490672344E-03
 0.1434047686534E-02 -0.6440327652756E-02  0.0000000000000E+00 -0.6873398866970E-03
 0.1416293588846E-02 -0.6439711811244E-02  0.0000000000000E+00 -0.9242526962130E-03
 0.1384028576111E-02 -0.6438283426859E-02  0.0000000000000E+00 -0.1179336049912E-02
 0.1339441775105E-02 -0.6432341331822E-02  0.0000000000000E+00 -0.1460904110250E-02
 0.1283439571255E-02 -0.6414944190571E-02  0.0000000000000E+00 -0.1766914690693E-02
 0.1216797466264E-02 -0.6374677559517E-02  0.0000000000000E+00 -0.2078984053917E-02
 0.1143258469038E-02 -0.6294970071757E-02  0.0000000000000E+00 -0.2352855038609E-02
 0.1076714554535E-02 -0.6155711887483E-02  0.0000000000000E+00 -0.2505123021620E-02
 0.1058026713905E-02 -0.5942623615135E-02  0.0000000000000E+00 -0.2395819487023E-02
 0.1194156503578E-02 -0.5677409820864E-02  0.0000000000000E+00 -0.1823027906648E-02
 0.1720416018953E-02 -0.5479313828013E-02  0.0000000000000E+00 -0.6201473631545E-03
 0.2981108232926E-02 -0.5585881567095E-02  0.0000000000000E+00  0.1003324985978E-02
 0.5094576275209E-02 -0.6123269524229E-02  0.0000000000000E+00  0.2088963535144E-02
 0.7412604393455E-02 -0.6696141779285E-02  0.0000000000000E+00  0.1398217226963E-02
 0.2361236651739E-03 -0.5935226109459E-02  0.0000000000000E+00  0.1540154976449E-02
 0.6869464836315E-03 -0.6186728112914E-02  0.0000000000000E+00  0.1320796456641E-02
 0.1045100497325E-02 -0.6352946316272E-02  0.0000000000000E+00  0.9058712556318E-03
 0.1268534495363E-02 -0.6425964499641E-02  0.0000000000000E+00  0.4631337871737E-03
 0.1388296496789E-02 -0.6446128372434E-02  0.0000000000000E+00  0.9091351650466E-04
 0.1446834648891E-02 -0.6450067090336E-02  0.0000000000000E+00 -0.2034080601364E-03
 0.1471123146166E-02 -0.6455269482180E-02  0.0000000000000E+00 -0.4478812493188E-03
 0.1474745111878E-02 -0.6467363009035E-02  0.0000000000000E+00 -0.6723681921248E-03
 0.1464355867785E-02 -0.6487180395786E-02  0.0000000000000E+00 -0.9004910301881E-03
 0.1443219067427E-02 -0.6513420793545E-02  0.0000000000000E+00 -0.1149433719727E-02
 0.1412481826985E-02 -0.6542799634262E-02  0.0000000000000E+00 -0.1429887341057E-02
 0.1371412199535E-02 -0.6568797400532E-02  0.0000000000000E+00 -0.1744118167370E-02
 0.1317728268597E-02 -0.6579566935876E-02  0.0000000000000E+00 -0.2080717989046E-02
 0.1249668339663E-02 -0.6555919878512E-02  0.0000000000000E+00 -0.2405133607043E-02
 0.1171500966242E-02 -0.6470667364748E-02  0.0000000000000E+00 -0.2645950611791E-02
 0.1106396043704E-02 -0.6292492172793E-02  0.0000000000000E+00 -0.2672007643678E-02
 0.1135373802748E-02 -0.6008766199807E-02  0.0000000000000E+00 -0.2256271175639E-02
 0.1494339483078E-02 -0.5706565000967E-02  0.0000000000000E+00 -0.1112133003792E-02
 0.2642162642031E-02 -0.5669587159616E-02  0.0000000000000E+00  0.7164785866653E-03
 0.4901335502775E-02 -0.6161589487362E-02  0.0000000000000E+00  0.2138669690639E-02
 0.7617579540884E-02 -0.6789677343444E-02  0.0000000000000E+00  0.1343090979806E-02
 0.2626547361367E-03 -0.5987258396134E-02  0.0000000000000E+00  0.1716880315282E-02
 0.7568833754537E-03 -0.6251878212158E-02  0.0000000000000E+00  0.1440051442816E-02
 0.1127469587915E-02 -0.6403755823419E-02  0.0000000000000E+00  0.9420007175859E-03
 0.1335788024979E-02 -0.6449396111380E-02  0.0000000000000E+00  0.4540323787662E-03
 0.1436822332192E-02 -0.6450673284103E-02  0.0000000000000E+00  0.7692680867179E-04
 0.1484142176547E-02 -0.6449565414357E-02  0.0000000000000E+00 -0.2046507205650E-03
 0.1505171189090E-02 -0.6460605559286E-02  0.0000000000000E+00 -0.4324366668001E-03
 0.1511708492206E-02 -0.6486723164072E-02  0.0000000000000E+00 -0.6404517858630E-03
 0.1509089031281E-02 -0.6527743911888E-02  0.0000000000000E+00 -0.8532896917135E-03
 0.1499741441062E-02 -0.6582519774503E-02  0.0000000000000E+00 -0.1088844911431E-02
 0.1484153125092E-02 -0.6648709381640E-02  0.0000000000000E+00 -0.1359586323858E-02
 0.1460631230410E-02 -0.6721155747816E-02  0.0000000000000E+00 -0.1671876760000E-02
 0.1424775264741E-02 -0.6789060924564E-02  0.0000000000000E+00 -0.2021912070762E-02
 0.1370452238246E-02 -0.6832697137048E-02  0.0000000000000E+00 -0.2386813586868E-02
 0.1293938372273E-02 -0.6820925487273E-02  0.0000000000000E+00 -0.2711604827628E-02
 0.1201540592080E-02 -0.6709742120684E-02  0.0000000000000E+00 -0.2887943056981E-02
 0.1137026614406E-02 -0.6448370378388E-02  0.0000000000000E+00 -0.2695366548246E-02
 0.1300758075071E-02 -0.6058134797284E-02  0.0000000000000E+00 -0.1735359914165E-02
 0.2254854731396E-02 -0.5833928853026E-02  0.0000000000000E+00  0.2293404288578E-03
 0.4645571679569E-02 -0.6236811809192E-02  0.0000000000000E+00  0.2094356075056E-02
 0.7859335632980E-02 -0.6929570175025E-02  0.0000000000000E+00  0.1270194255899E-02
 0.2979677221748E-03 -0.6058874730184E-02  0.0000000000000E+00  0.1908401077884E-02
 0.8448896600210E-03 -0.6333537676676E-02  0.0000000000000E+00  0.1547418116405E-02
 0.1221153699380E-02 -0.6455943504363E-02  0.0000000000000E+00  0.9460797992697E-03
 0.1402994818060E-02 -0.6462225350229E-02  0.0000000000000E+00  0.4208547384316E-03
 0.1480228430964E-02 -0.6441996969001E-02  0.0000000000000E+00  0.5509843589934E-04
 0.1515634662792E-02 -0.6437170608290E-02  0.0000000000000E+00 -0.2021555309246E-03
 0.1533750801977E-02 -0.6455520475866E-02  0.0000000000000E+00 -0.4056746213621E-03
 0.1543542638981E-02 -0.6496572772815E-02  0.0000000000000E+00 -0.5910258070976E-03
 0.1548928670798E-02 -0.6559228379998E-02  0.0000000000000E+00 -0.7823377351432E-03
 0.1551657539132E-02 -0.6642754695511E-02  0.0000000000000E+00 -0.9972191333960E-03
 0.1551955779904E-02 -0.6746260841715E-02  0.0000000000000E+00 -0.1249027353097E-02
 0.1547911916259E-02 -0.6866895735891E-02  0.0000000000000E+00 -0.1547506350024E-02
 0.1534153074113E-02 -0.6996542489231E-02  0.0000000000000E+00 -0.1896350075476E-02
 0.1501611258624E-02 -0.7117402249134E-02  0.0000000000000E+00 -0.2285567111811E-02
 0.1440778794567E-02 -0.7197972160323E-02  0.0000000000000E+00 -0.2679159854907E-02
 0.1345888147793E-02 -0.7189168828311E-02  0.0000000000000E+00 -0.3000672859687E-02
 0.1220919503682E-02 -0.7010522384688E-02  0.0000000000000E+00 -0.3079002052598E-02
 0.1182765482901E-02 -0.6586015756969E-02  0.0000000000000E+00 -0.2465601918268E-02
 0.1835983185568E-02 -0.6140080119537E-02  0.0000000000000E+00 -0.5305217911350E-03
 0.4294494796351E-02 -0.6378808103466E-02  0.0000000000000E+00  0.1890891020058E-02
 0.8159389901898E-02 -0.7136915007748E-02  0.0000000000000E+00  0.1155153699284E-02
 0.3471222879939E-03 -0.6161418956778E-02  0.0000000000000E+00  0.2116305942877E-02
 0.9577388622737E-03 -0.6436617337839E-02  0.0000000000000E+00  0.1626265021840E-02
 0.1325248909304E-02 -0.6503702964758E-02  0.0000000000000E+00  0.9004726370767E-03
 0.1465360627957E-02 -0.6457042412892E-02  0.0000000000000E+00  0.3594233112496E-03
 0.1515187702472E-02 -0.6416066504951E-02  0.0000000000000E+00  0.2747249594371E-04
 0.1539482130911E-02 -0.6410732281730E-02  0.0000000000000E+00 -0.1939698497175E-03
 0.1555516424765E-02 -0.6438357941720E-02  0.0000000000000E+00 -0.3665224329711E-03
 0.1568953131694E-02 -0.6495235503546E-02  0.0000000000000E+00 -0.5237210035288E-03
 0.1582375245959E-02 -0.6579571003316E-02  0.0000000000000E+00 -0.6878195514241E-03
 0.1597019696971E-02 -0.6691335987568E-02  0.0000000000000E+00 -0.8750291194791E-03
 0.1613224203941E-02 -0.6831516793856E-02  0.0000000000000E+00 -0.1098482947814E-02
 0.1629591712816E-02 -0.7000409640964E-02  0.0000000000000E+00 -0.1370059522571E-02
 0.1641031384597E-02 -0.7194213236251E-02  0.0000000000000E+00 -0.1699940103561E-02
 0.1637351957759E-02 -0.7399868203128E-02  0.0000000000000E+00 -0.2091082382453E-02
 0.1605407586014E-02 -0.7589416083551E-02  0.0000000000000E+00 -0.2528131219716E-02
 0.1533876334997E-02 -0.7716036874543E-02  0.0000000000000E+00 -0.2966568062909E-02
 0.1401098628021E-02 -0.7693357706316E-02  0.0000000000000E+00 -0.3316471642124E-02
 0.1201093640581E-02 -0.7346845316496E-02  0.0000000000000E+00 -0.3216503992006E-02
 0.1433473934458E-02 -0.6692152720482E-02  0.0000000000000E+00 -0.1630678289831E-02
 0.3804081872413E-02 -0.6647102997130E-02  0.0000000000000E+00  0.1394667664480E-02
 0.8554004106470E-02 -0.7457734272408E-02  0.0000000000000E+00  0.9562207033114E-03
 0.4192665123416E-03 -0.6315602790723E-02  0.0000000000000E+00  0.2340032796425E-02
 0.1104724971404E-02 -0.6565436903659E-02  0.0000000000000E+00  0.1642778355167E-02
 0.1434699891995E-02 -0.6533634212067E-02  0.0000000000000E+00  0.7815985312580E-03
 0.1515304461306E-02 -0.6423828543745E-02  0.0000000000000E+00  0.2707999206473E-03
 0.1538390624109E-02 -0.6369428430460E-02  0.0000000000000E+00 -0.9206109820720E-06
 0.1554171052670E-02 -0.6368484978924E-02  0.0000000000000E+00 -0.1775632190672E-03
 0.1569308710500E-02 -0.6407742928322E-02  0.0000000000000E+00 -0.3137581970723E-03
 0.1586820668660E-02 -0.6481286196505E-02  0.0000000000000E+00 -0.4383927585729E-03
 0.1608061069576E-02 -0.6586902834993E-02  0.0000000000000E+00 -0.5704519885891E-03
 0.1633966472050E-02 -0.6725627848617E-02  0.0000000000000E+00 -0.7236167839048E-03
 0.1665263379553E-02 -0.6900604353426E-02  0.0000000000000E+00 -0.9096452982714E-03
 0.1701702807634E-02 -0.7115841948714E-02  0.0000000000000E+00 -0.1140714864514E-02
 0.1739706709402E-02 -0.7373394068578E-02  0.0000000000000E+00 -0.1431586628481E-02
 0.1770007187837E-02 -0.7667710960312E-02  0.0000000000000E+00 -0.1796426462431E-02
 0.1778616891059E-02 -0.7979383677742E-02  0.0000000000000E+00 -0.2241424777423E-02
 0.1751569730862E-02 -0.8268145374305E-02  0.0000000000000E+00 -0.2752023398337E-02
 0.1670039823421E-02 -0.8466600496321E-02  0.0000000000000E+00 -0.3304424863138E-02
 0.1423596533206E-02 -0.8374653184301E-02  0.0000000000000E+00 -0.3794946480073E-02
 0.1158783824774E-02 -0.7655770814467E-02  0.0000000000000E+00 -0.3068840027940E-02
 0.3123911916348E-02 -0.7179298850717E-02  0.0000000000000E+00  0.3601602024355E-03
 0.9110372733172E-02 -0.8000336763877E-02  0.0000000000000E+00  0.5752239943658E-03
 0.5316493286496E-03 -0.6562992851386E-02  0.0000000000000E+00  0.2569424535574E-02
 0.1296772645425E-02 -0.6716199428937E-02  0.0000000000000E+00  0.1525546675998E-02
 0.1534517868421E-02 -0.6516852406942E-02  0.0000000000000E+00  0.5659504306207E-03
 0.1542760878826E-02 -0.6352735681898E-02  0.0000000000000E+00  0.1688694378348E-03
 0.1547798562055E-02 -0.6300296881478E-02  0.0000000000000E+00 -0.2309753774265E-04
 0.1558534813538E-02 -0.6308966032648E-02  0.0000000000000E+00 -0.1500568031683E-03
 0.1574247378111E-02 -0.6362788696908E-02  0.0000000000000E+00 -0.2459245123794E-03
 0.1596283118399E-02 -0.6453607794549E-02  0.0000000000000E+00 -0.3352210167938E-03
 0.1624811909430E-02 -0.6579639165442E-02  0.0000000000000E+00 -0.4314809639240E-03
 0.1660817033290E-02 -0.6743263988478E-02  0.0000000000000E+00 -0.5452074510222E-03
 0.1705543255490E-02 -0.6949929159353E-02  0.0000000000000E+00 -0.6856378613515E-03
 0.1760178113445E-02 -0.7207477576118E-02  0.0000000000000E+00 -0.8632278503138E-03
 0.1823983645242E-02 -0.7524824372432E-02  0.0000000000000E+00 -0.1093669200538E-02
 0.1890124643012E-02 -0.7907058488239E-02  0.0000000000000E+00 -0.1400294696491E-02
 0.1948389968169E-02 -0.8347591131028E-02  0.0000000000000E+00 -0.1805547859503E-02
 0.1982764816255E-02 -0.8821306906301E-02  0.0000000000000E+00 -0.2335031007465E-02
 0.1986468830278E-02 -0.9274355710138E-02  0.0000000000000E+00 -0.2979317783020E-02
 0.1880384444741E-02 -0.9616755239809E-02  0.0000000000000E+00 -0.3886040583727E-02
 0.1233300835941E-02 -0.9243461652009E-02  0.0000000000000E+00 -0.4585019880044E-02
 0.2226086840253E-02 -0.8301151154508E-02  0.0000000000000E+00 -0.1594797578427E-02
 0.9978634047619E-02 -0.9061705072844E-02  0.0000000000000E+00 -0.2764266851077E-03
 0.7172623350749E-03 -0.7000454278616E-02  0.0000000000000E+00  0.2750493868517E-02
 0.1538143532326E-02 -0.6840073809546E-02  0.0000000000000E+00  0.1118121828928E-02
 0.1588120448232E-02 -0.6401572641245E-02  0.0000000000000E+00  0.2658110344550E-03
 0.1540855345689E-02 -0.6245553898056E-02  0.0000000000000E+00  0.8594844500549E-04
 0.1543621565566E-02 -0.6206185296782E-02  0.0000000000000E+00 -0.3588628133516E-04
 0.1551323676503E-02 -0.6231898159232E-02  0.0000000000000E+00 -0.1063909732943E-03
 0.1570084742886E-02 -0.6303052508020E-02  0.0000000000000E+00 -0.1620533764730E-03
 0.1596707447078E-02 -0.6411494785451E-02  0.0000000000000E+00 -0.2145857562459E-03
 0.1631736046217E-02 -0.6556552900825E-02  0.0000000000000E+00 -0.2727293122579E-03
 0.1676158282906E-02 -0.6742255447516E-02  0.0000000000000E+00 -0.3428567095621E-03
 0.1731850363550E-02 -0.6976372967667E-02  0.0000000000000E+00 -0.4309258017147E-03
 0.1801363850497E-02 -0.7270236504457E-02  0.0000000000000E+00 -0.5438702997891E-03
 0.1887123395273E-02 -0.7639367887258E-02  0.0000000000000E+00 -0.6936389868988E-03
 0.1988148139181E-02 -0.8102521835795E-02  0.0000000000000E+00 -0.9057316527732E-03
 0.2097060789155E-02 -0.8672035004440E-02  0.0000000000000E+00 -0.1220781013096E-02
 0.2214881496075E-02 -0.9342013578289E-02  0.0000000000000E+00 -0.1682695458274E-02
 0.2299193747134E-02 -0.1007923117942E-01  0.0000000000000E+00 -0.2365588471883E-02
 0.2453829658539E-02 -0.1087110692512E-01  0.0000000000000E+00 -0.3231523269260E-02
 0.2001176975702E-02 -0.1151717751616E-01  0.0000000000000E+00 -0.5270423026301E-02
 0.1203109065369E-02 -0.1072629448516E-01  0.0000000000000E+00 -0.4730012525216E-02
 0.1161065548465E-01 -0.1164880057735E-01  0.0000000000000E+00 -0.2557899941080E-02
 0.1027575848920E-02 -0.7921907269329E-02  0.0000000000000E+00  0.2579971984007E-02
 0.1779439242048E-02 -0.6619695474513E-02  0.0000000000000E+00  0.9279158078881E-04
 0.1526000804043E-02 -0.6208446786851E-02  0.0000000000000E+00  0.8977585128008E-04
 0.1528337790593E-02 -0.6098838045891E-02  0.0000000000000E+00  0.7390800083031E-05
 0.1520073323548E-02 -0.6087571838631E-02  0.0000000000000E+00 -0.2287831869165E-04
 0.1534092023409E-02 -0.6137814115906E-02  0.0000000000000E+00 -0.4413578814032E-04
 0.1556497168812E-02 -0.6228695858363E-02  0.0000000000000E+00 -0.6074648347624E-04
 0.1587947545077E-02 -0.6354702913299E-02  0.0000000000000E+00 -0.7736255575654E-04
 0.1628229695556E-02 -0.6516844276122E-02  0.0000000000000E+00 -0.9652538604520E-04
 0.1678921183006E-02 -0.6721085472888E-02  0.0000000000000E+00 -0.1204069228572E-03
 0.1742455038465E-02 -0.6977432592099E-02  0.0000000000000E+00 -0.1510732340042E-03
 0.1822301653508E-02 -0.7300120986407E-02  0.0000000000000E+00 -0.1910157733824E-03
 0.1923448943342E-02 -0.7709381235002E-02  0.0000000000000E+00 -0.2443134662977E-03
 0.2051338267443E-02 -0.8237355244683E-02  0.0000000000000E+00 -0.3254545194943E-03
 0.2213441786247E-02 -0.8928668187557E-02  0.0000000000000E+00 -0.4867985085348E-03
 0.2403503887276E-02 -0.9795745100892E-02  0.0000000000000E+00 -0.8100348832473E-03
 0.2652129257877E-02 -0.1083228417331E-01  0.0000000000000E+00 -0.1368909761182E-02
 0.2782914150803E-02 -0.1202851404073E-01  0.0000000000000E+00 -0.2213794603550E-02
 0.3670750568457E-02 -0.1376746528776E-01  0.0000000000000E+00 -0.3518495235852E-02
 0.3642894501524E-03 -0.1520336501956E-01  0.0000000000000E+00 -0.7187651326441E-02
 0.1618228593188E-01 -0.2023213111702E-01  0.0000000000000E+00 -0.9597462553177E-02
 0.1253584229550E+00 -0.1890152356582E+00  0.0000000000000E+00 -0.3942748220916E+00
 0.2156492870200E+00 -0.2740544774401E+00  0.0000000000000E+00 -0.2482615419738E+00
 0.2788751908196E+00 -0.3313760372532E+00  0.0000000000000E+00 -0.1606009949738E+00
 0.3205622336997E+00 -0.3677387888609E+00  0.0000000000000E+00 -0.1108961052891E+00
 0.3437467674607E+00 -0.3861950367726E+00  0.0000000000000E+00 -0.9093711243272E-01
 0.3526569745059E+00 -0.3915725457277E+00  0.0000000000000E+00 -0.9752929160351E-01
 0.3520619307711E+00 -0.3886831235651E+00  0.0000000000000E+00 -0.1263375767987E+00
 0.3443519379277E+00 -0.3797169171069E+00  0.0000000000000E+00 -0.1714436229837E+00
 0.3290483496535E+00 -0.3643888928285E+00  0.0000000000000E+00 -0.2262884652687E+00
 0.3077352959003E+00 -0.3448103400832E+00  0.0000000000000E+00 -0.2827229593348E+00
 0.1163014007895E+00 -0.1821534935447E+00  0.0000000000000E+00 -0.3550611494219E+00
 0.2122780660711E+00 -0.2714007216487E+00  0.0000000000000E+00 -0.2252835829428E+00
 0.2809192607652E+00 -0.3343719635770E+00  0.0000000000000E+00 -0.1509271285973E+00
 0.3286455848361E+00 -0.3768801100672E+00  0.0000000000000E+00 -0.1092937052819E+00
 0.3577749200352E+00 -0.4016634899908E+00  0.0000000000000E+00 -0.9351145456043E-01
 0.3721162817510E+00 -0.4127376265681E+00  0.0000000000000E+00 -0.1017654863075E+00
 0.3763263963239E+00 -0.4148973420762E+00  0.0000000000000E+00 -0.1318271192928E+00
 0.3727784184812E+00 -0.4105397470182E+00  0.0000000000000E+00 -0.1782736451939E+00
 0.3600623992680E+00 -0.3984694161531E+00  0.0000000000000E+00 -0.2358482499659E+00
 0.3377540330556E+00 -0.3776385742784E+00  0.0000000000000E+00 -0.3058128287165E+00
 0.1083103470187E+00 -0.1755293887802E+00  0.0000000000000E+00 -0.3167671581832E+00
 0.2101968169983E+00 -0.2703789760925E+00  0.0000000000000E+00 -0.2024704858579E+00
 0.2838667068224E+00 -0.3381457407773E+00  0.0000000000000E+00 -0.1382366556151E+00
 0.3365005045071E+00 -0.3857422288198E+00  0.0000000000000E+00 -0.1037721670909E+00
 0.3707603396136E+00 -0.4158866432340E+00  0.0000000000000E+00 -0.9201409353581E-01
 0.3902434813991E+00 -0.4323782154951E+00  0.0000000000000E+00 -0.1019986242987E+00
 0.3993089163633E+00 -0.4396967131343E+00  0.0000000000000E+00 -0.1325244245607E+00
 0.4001420983372E+00 -0.4401136413848E+00  0.0000000000000E+00 -0.1798343550005E+00
 0.3918426993052E+00 -0.4327070315483E+00  0.0000000000000E+00 -0.2418157145778E+00
 0.3738761765928E+00 -0.4166481135183E+00  0.0000000000000E+00 -0.3215724853860E+00
 0.1013977852628E+00 -0.1697950824286E+00  0.0000000000000E+00 -0.2774948111573E+00
 0.2088692677853E+00 -0.2699862711982E+00  0.0000000000000E+00 -0.1785770318382E+00
 0.2871545704828E+00 -0.3422559037405E+00  0.0000000000000E+00 -0.1235653208476E+00
 0.3439801730914E+00 -0.3941057524537E+00  0.0000000000000E+00 -0.9519896391152E-01
 0.3826770810086E+00 -0.4288867632842E+00  0.0000000000000E+00 -0.8696865024420E-01
 0.4068836254805E+00 -0.4503469044124E+00  0.0000000000000E+00 -0.9815234702188E-01
 0.4207252261357E+00 -0.4627284352974E+00  0.0000000000000E+00 -0.1284247475708E+00
 0.4265146462581E+00 -0.4683955369858E+00  0.0000000000000E+00 -0.1758475859885E+00
 0.4240874005246E+00 -0.4672025684413E+00  0.0000000000000E+00 -0.2402711408550E+00
 0.4129527810537E+00 -0.4585910174572E+00  0.0000000000000E+00 -0.3255177512021E+00
 0.9555700062411E-01 -0.1649754040166E+00  0.0000000000000E+00 -0.2371237241495E+00
 0.2080791942159E+00 -0.2700212637586E+00  0.0000000000000E+00 -0.1534160986959E+00
 0.2904355688973E+00 -0.3462697519889E+00  0.0000000000000E+00 -0.1072431235365E+00
 0.3508642625322E+00 -0.4017668422557E+00  0.0000000000000E+00 -0.8426398798797E-01
 0.3933889197829E+00 -0.4405256616437E+00  0.0000000000000E+00 -0.7884462051659E-01
 0.4218472735897E+00 -0.4664503650495E+00  0.0000000000000E+00 -0.9048435420857E-01
 0.4403212020860E+00 -0.4837040740055E+00  0.0000000000000E+00 -0.1195068269858E+00
 0.4513984617551E+00 -0.4949363350745E+00  0.0000000000000E+00 -0.1653027388679E+00
 0.4556286674439E+00 -0.5007756756450E+00  0.0000000000000E+00 -0.2289499092613E+00
 0.4528761447212E+00 -0.5011713384669E+00  0.0000000000000E+00 -0.3148577349809E+00
 0.9075014552419E-01 -0.1610404248050E+00  0.0000000000000E+00 -0.1956737463971E+00
 0.2076628030564E+00 -0.2703074102295E+00  0.0000000000000E+00 -0.1271043278217E+00
 0.2934794120496E+00 -0.3499400354824E+00  0.0000000000000E+00 -0.8955033619608E-01
 0.3569417994397E+00 -0.4085003747923E+00  0.0000000000000E+00 -0.7143310967984E-01
 0.4027137702585E+00 -0.4506239201360E+00  0.0000000000000E+00 -0.6812289517869E-01
 0.4349088273140E+00 -0.4804564370534E+00  0.0000000000000E+00 -0.7934449021524E-01
 0.4576979927694E+00 -0.5022294375764E+00  0.0000000000000E+00 -0.1058076183853E+00
 0.4740073630391E+00 -0.5189475392617E+00  0.0000000000000E+00 -0.1477367089333E+00
 0.4850843630130E+00 -0.5319943734331E+00  0.0000000000000E+00 -0.2069174241929E+00
 0.4913909125716E+00 -0.5420391907651E+00  0.0000000000000E+00 -0.2880513246007E+00
 0.8694264745794E-01 -0.1579474193214E+00  0.0000000000000E+00 -0.1532639474855E+00
 0.2074878842842E+00 -0.2707050342372E+00  0.0000000000000E+00 -0.9983780849164E-01
 0.2961132533125E+00 -0.3530829741602E+00  0.0000000000000E+00 -0.7075813598160E-01
 0.3620320041452E+00 -0.4141194406906E+00  0.0000000000000E+00 -0.5709358530238E-01
 0.4104616168121E+00 -0.4589892012246E+00  0.0000000000000E+00 -0.5525934583657E-01
 0.4458030605556E+00 -0.4921023045096E+00  0.0000000000000E+00 -0.6515809362967E-01
 0.4723794452865E+00 -0.5178296376148E+00  0.0000000000000E+00 -0.8763805699363E-01
 0.4934692473711E+00 -0.5395457134350E+00  0.0000000000000E+00 -0.1233372164768E+00
 0.5109817631613E+00 -0.5593447317112E+00  0.0000000000000E+00 -0.1742666136448E+00
 0.5261113691179E+00 -0.5787268498740E+00  0.0000000000000E+00 -0.2449771221788E+00
 0.8410777503758E-01 -0.1556594124385E+00  0.0000000000000E+00 -0.1100643315793E+00
 0.2074490379011E+00 -0.2711018802197E+00  0.0000000000000E+00 -0.7183294786225E-01
 0.2982040053039E+00 -0.3555595527313E+00  0.0000000000000E+00 -0.5112763581706E-01
 0.3659861146134E+00 -0.4184715730445E+00  0.0000000000000E+00 -0.4159872936554E-01
 0.4164539598405E+00 -0.4654431751072E+00  0.0000000000000E+00 -0.4070431348327E-01
 0.4542608776770E+00 -0.5011212400028E+00  0.0000000000000E+00 -0.4845132335901E-01
 0.4838905722740E+00 -0.5300299831508E+00  0.0000000000000E+00 -0.6561333141282E-01
 0.5089373176873E+00 -0.5558747029040E+00  0.0000000000000E+00 -0.9289750661903E-01
 0.5318851741803E+00 -0.5813593006061E+00  0.0000000000000E+00 -0.1320827921823E+00
 0.5546645492479E+00 -0.6087978887795E+00  0.0000000000000E+00 -0.1869843300215E+00
 0.8222712095374E-01 -0.1541488468959E+00  0.0000000000000E+00 -0.6627882717357E-01
 0.2074671370763E+00 -0.2714134917635E+00  0.0000000000000E+00 -0.4330634762954E-01
 0.2996528460478E+00 -0.3572673003220E+00  0.0000000000000E+00 -0.3090877037625E-01
 0.3686886658985E+00 -0.4214398058724E+00  0.0000000000000E+00 -0.2528533124324E-01
 0.4205402897286E+00 -0.4698362995749E+00  0.0000000000000E+00 -0.2492088662822E-01
 0.4600462493905E+00 -0.5072793435822E+00  0.0000000000000E+00 -0.2985417900168E-01
 0.4918190160187E+00 -0.5384181328922E+00  0.0000000000000E+00 -0.4061917578075E-01
 0.5196878455392E+00 -0.5672037080490E+00  0.0000000000000E+00 -0.5773948181078E-01
 0.5465534232353E+00 -0.5967795561375E+00  0.0000000000000E+00 -0.8240649950123E-01
 0.5749657569249E+00 -0.6301137761015E+00  0.0000000000000E+00 -0.1171525824377E+00
 0.8128943319662E-01 -0.1533979027288E+00  0.0000000000000E+00 -0.2213339082279E-01
 0.2074893887419E+00 -0.2715834223489E+00  0.0000000000000E+00 -0.1446970950958E-01
 0.3003938151398E+00 -0.3581381905637E+00  0.0000000000000E+00 -0.1034138783961E-01
 0.3700602255971E+00 -0.4229442427928E+00  0.0000000000000E+00 -0.8482718784845E-02
 0.4226119261051E+00 -0.4720609905705E+00  0.0000000000000E+00 -0.8390558618040E-02
 0.4629850391141E+00 -0.5104040751178E+00  0.0000000000000E+00 -0.1008398397130E-01
 0.4958628650847E+00 -0.5426919246988E+00  0.0000000000000E+00 -0.1375294252594E-01
 0.5251985108477E+00 -0.5730053695118E+00  0.0000000000000E+00 -0.1958802001862E-01
 0.5541083202785E+00 -0.6047141162946E+00  0.0000000000000E+00 -0.2800485769631E-01
 0.5855069917334E+00 -0.6411557575237E+00  0.0000000000000E+00 -0.3989744609356E-01
 0.8128943327640E-01 -0.1533979027913E+00  0.0000000000000E+00  0.2213339739439E-01
 0.2074893887370E+00 -0.2715834223330E+00  0.0000000000000E+00  0.1446971238734E-01
 0.3003938150978E+00 -0.3581381905148E+00  0.0000000000000E+00  0.1034138896273E-01
 0.3700602255500E+00 -0.4229442427414E+00  0.0000000000000E+00  0.8482719091725E-02
 0.4226119260672E+00 -0.4720609905302E+00  0.0000000000000E+00  0.8390558498784E-02
 0.4629850390870E+00 -0.5104040750895E+00  0.0000000000000E+00  0.1008398357739E-01
 0.4958628650640E+00 -0.5426919246775E+00  0.0000000000000E+00  0.1375294196705E-01
 0.5251985108307E+00 -0.5730053694942E+00  0.0000000000000E+00  0.1958801941981E-01
 0.5541083202729E+00 -0.6047141162871E+00  0.0000000000000E+00  0.2800485713755E-01
 0.5855069917778E+00 -0.6411557575609E+00  0.0000000000000E+00  0.3989744542676E-01
 0.8222712119347E-01 -0.1541488470842E+00  0.0000000000000E+00  0.6627883370684E-01
 0.2074671370633E+00 -0.2714134917175E+00  0.0000000000000E+00  0.4330635047954E-01
 0.2996528459234E+00 -0.3572673001769E+00  0.0000000000000E+00  0.3090877147965E-01
 0.3686886657583E+00 -0.4214398057194E+00  0.0000000000000E+00  0.2528533153546E-01
 0.4205402896161E+00 -0.4698362994551E+00  0.0000000000000E+00  0.2492088649733E-01
 0.4600462493105E+00 -0.5072793434983E+00  0.0000000000000E+00  0.2985417859762E-01
 0.4918190159582E+00 -0.5384181328299E+00  0.0000000000000E+00  0.4061917521109E-01
 0.5196878454901E+00 -0.5672037079982E+00  0.0000000000000E+00  0.5773948119972E-01
 0.5465534232203E+00 -0.5967795561175E+00  0.0000000000000E+00  0.8240649893583E-01
 0.5749657570532E+00 -0.6301137762116E+00  0.0000000000000E+00  0.1171525818114E+00
 0.8410777543841E-01 -0.1556594127545E+00  0.0000000000000E+00  0.1100643380374E+00
 0.2074490378849E+00 -0.2711018801494E+00  0.0000000000000E+00  0.7183295065624E-01
 0.2982040051013E+00 -0.3555595524946E+00  0.0000000000000E+00  0.5112763688061E-01
 0.3659861143834E+00 -0.4184715727933E+00  0.0000000000000E+00  0.4159872962854E-01
 0.4164539596564E+00 -0.4654431749109E+00  0.0000000000000E+00  0.4070431332986E-01
 0.4542608775476E+00 -0.5011212398669E+00  0.0000000000000E+00  0.4845132293614E-01
 0.4838905721780E+00 -0.5300299830518E+00  0.0000000000000E+00  0.6561333082430E-01
 0.5089373176106E+00 -0.5558747028253E+00  0.0000000000000E+00  0.9289750598926E-01
 0.5318851741583E+00 -0.5813593005780E+00  0.0000000000000E+00  0.1320827916193E+00
 0.5546645494434E+00 -0.6087978889537E+00  0.0000000000000E+00  0.1869843295008E+00
 0.8694264802206E-01 -0.1579474197690E+00  0.0000000000000E+00  0.1532639538343E+00
 0.2074878842732E+00 -0.2707050341517E+00  0.0000000000000E+00  0.9983781120056E-01
 0.2961132530390E+00 -0.3530829738396E+00  0.0000000000000E+00  0.7075813698431E-01
 0.3620320038308E+00 -0.4141194403468E+00  0.0000000000000E+00  0.5709358552162E-01
 0.4104616165610E+00 -0.4589892009564E+00  0.0000000000000E+00  0.5525934565095E-01
 0.4458030603817E+00 -0.4921023043267E+00  0.0000000000000E+00  0.6515809318200E-01
 0.4723794451608E+00 -0.5178296374851E+00  0.0000000000000E+00  0.8763805638301E-01
 0.4934692472716E+00 -0.5395457133342E+00  0.0000000000000E+00  0.1233372158301E+00
 0.5109817631286E+00 -0.5593447316746E+00  0.0000000000000E+00  0.1742666131070E+00
 0.5261113693489E+00 -0.5787268500875E+00  0.0000000000000E+00  0.2449771218465E+00
 0.9075014625504E-01 -0.1610404253894E+00  0.0000000000000E+00  0.1956737526072E+00
 0.2076628030623E+00 -0.2703074101416E+00  0.0000000000000E+00  0.1271043304156E+00
 0.2934794117152E+00 -0.3499400350886E+00  0.0000000000000E+00  0.8955033711593E-01
 0.3569417990482E+00 -0.4085003743637E+00  0.0000000000000E+00  0.7143310984051E-01
 0.4027137699462E+00 -0.4506239198017E+00  0.0000000000000E+00  0.6812289495222E-01
 0.4349088271015E+00 -0.4804564368289E+00  0.0000000000000E+00  0.7934448973996E-01
 0.4576979926199E+00 -0.5022294374220E+00  0.0000000000000E+00  0.1058076177554E+00
 0.4740073629203E+00 -0.5189475391434E+00  0.0000000000000E+00  0.1477367082793E+00
 0.4850843629602E+00 -0.5319943733821E+00  0.0000000000000E+00  0.2069174237021E+00
 0.4913909127962E+00 -0.5420391909821E+00  0.0000000000000E+00  0.2880513244983E+00
 0.9555700152667E-01 -0.1649754047450E+00  0.0000000000000E+00  0.2371237301976E+00
 0.2080791942534E+00 -0.2700212636844E+00  0.0000000000000E+00  0.1534161011447E+00
 0.2904355685149E+00 -0.3462697515359E+00  0.0000000000000E+00  0.1072431243505E+00
 0.3508642620730E+00 -0.4017668417522E+00  0.0000000000000E+00  0.8426398807420E-01
 0.3933889194160E+00 -0.4405256612498E+00  0.0000000000000E+00  0.7884462024046E-01
 0.4218472733434E+00 -0.4664503647880E+00  0.0000000000000E+00  0.9048435370536E-01
 0.4403212019170E+00 -0.4837040738305E+00  0.0000000000000E+00  0.1195068263453E+00
 0.4513984616181E+00 -0.4949363349405E+00  0.0000000000000E+00  0.1653027382226E+00
 0.4556286673591E+00 -0.5007756755703E+00  0.0000000000000E+00  0.2289499088378E+00
 0.4528761448982E+00 -0.5011713386517E+00  0.0000000000000E+00  0.3148577351331E+00
 0.1013977863436E+00 -0.1697950833095E+00  0.0000000000000E+00  0.2774948170287E+00
 0.2088692678716E+00 -0.2699862711565E+00  0.0000000000000E+00  0.1785770341140E+00
 0.2871545700690E+00 -0.3422559032463E+00  0.0000000000000E+00  0.1235653215333E+00
 0.3439801725768E+00 -0.3941057518884E+00  0.0000000000000E+00  0.9519896390475E-01
 0.3826770805937E+00 -0.4288867628375E+00  0.0000000000000E+00  0.8696864990664E-01
 0.4068836252030E+00 -0.4503469041158E+00  0.0000000000000E+00  0.9815234649052E-01
 0.4207252259478E+00 -0.4627284351017E+00  0.0000000000000E+00  0.1284247469337E+00
 0.4265146461011E+00 -0.4683955368344E+00  0.0000000000000E+00  0.1758475853747E+00
 0.4240874003943E+00 -0.4672025683312E+00  0.0000000000000E+00  0.2402711405193E+00
 0.4129527811452E+00 -0.4585910175763E+00  0.0000000000000E+00  0.3255177516220E+00
 0.1083103482849E+00 -0.1755293898212E+00  0.0000000000000E+00  0.3167671638755E+00
 0.2101968171523E+00 -0.2703789761038E+00  0.0000000000000E+00  0.2024704879411E+00
 0.2838667063987E+00 -0.3381457402657E+00  0.0000000000000E+00  0.1382366561531E+00
 0.3365005039537E+00 -0.3857422282110E+00  0.0000000000000E+00  0.1037721669673E+00
 0.3707603391568E+00 -0.4158866427407E+00  0.0000000000000E+00  0.9201409311570E-01
 0.3902434810884E+00 -0.4323782151596E+00  0.0000000000000E+00  0.1019986237362E+00
 0.3993089161512E+00 -0.4396967129113E+00  0.0000000000000E+00  0.1325244239438E+00
 0.4001420981538E+00 -0.4401136412078E+00  0.0000000000000E+00  0.1798343544493E+00
 0.3918426991156E+00 -0.4327070313904E+00  0.0000000000000E+00  0.2418157143541E+00
 0.3738761765676E+00 -0.4166481135438E+00  0.0000000000000E+00  0.3215724860710E+00
 0.1163014022451E+00 -0.1821534947468E+00  0.0000000000000E+00  0.3550611549496E+00
 0.2122780663106E+00 -0.2714007217313E+00  0.0000000000000E+00  0.2252835848413E+00
 0.2809192603628E+00 -0.3343719630847E+00  0.0000000000000E+00  0.1509271289788E+00
 0.3286455842687E+00 -0.3768801094412E+00  0.0000000000000E+00  0.1092937050045E+00
 0.3577749195427E+00 -0.4016634894578E+00  0.0000000000000E+00  0.9351145402002E-01
 0.3721162813947E+00 -0.4127376261811E+00  0.0000000000000E+00  0.1017654856943E+00
 0.3763263960733E+00 -0.4148973418050E+00  0.0000000000000E+00  0.1318271187253E+00
 0.3727784182603E+00 -0.4105397468076E+00  0.0000000000000E+00  0.1782736447412E+00
 0.3600623990018E+00 -0.3984694159234E+00  0.0000000000000E+00  0.2358482498872E+00
 0.3377540328997E+00 -0.3776385741998E+00  0.0000000000000E+00  0.3058128296742E+00
 0.1253584245765E+00 -0.1890152369589E+00  0.0000000000000E+00  0.3942748275697E+00
 0.2156492873626E+00 -0.2740544776349E+00  0.0000000000000E+00  0.2482615437979E+00
 0.2788751904948E+00 -0.3313760368338E+00  0.0000000000000E+00  0.1606009951829E+00
 0.3205622331551E+00 -0.3677387882599E+00  0.0000000000000E+00  0.1108961048095E+00
 0.3437467669391E+00 -0.3861950362080E+00  0.0000000000000E+00  0.9093711169757E-01
 0.3526569740806E+00 -0.3915725452620E+00  0.0000000000000E+00  0.9752929089493E-01
 0.3520619304366E+00 -0.3886831232010E+00  0.0000000000000E+00  0.1263375762893E+00
 0.3443519376613E+00 -0.3797169168277E+00  0.0000000000000E+00  0.1714436227594E+00
 0.3290483493092E+00 -0.3643888925662E+00  0.0000000000000E+00  0.2262884653032E+00
 0.3077352956190E+00 -0.3448103398535E+00  0.0000000000000E+00  0.2827229604900E+00
 0.2789166347693E+00 -0.4035198179444E+00  0.0000000000000E+00 -0.3415180692765E+00
 0.2413445662934E+00 -0.2628922177335E+00  0.0000000000000E+00  0.2081604935797E+00
 0.1378505021872E+00 -0.1594812851098E+00  0.0000000000000E+00  0.1521708713331E+00
 0.7427855936465E-01 -0.8761890794917E-01  0.0000000000000E+00  0.6984695845842E-01
 0.1668872770816E-01 -0.2287555768643E-01  0.0000000000000E+00  0.4686452238663E-02
-0.1217285456585E-01  0.1742555024617E-01  0.0000000000000E+00 -0.1256507440457E-01
-0.2586251952675E-01  0.3304665610773E-01  0.0000000000000E+00 -0.1648797129116E-01
-0.2927188671318E-01  0.3647102481755E-01  0.0000000000000E+00  0.2322328770146E-02
-0.2163699708979E-01  0.2723237716973E-01  0.0000000000000E+00  0.3362785952361E-01
-0.2368038738841E-03  0.4938682685125E-02  0.0000000000000E+00  0.6304238848073E-01
 0.2700115558444E+00 -0.3567773360584E+00  0.0000000000000E+00 -0.4765525317255E+00
 0.2713677085741E+00 -0.3184894816579E+00  0.0000000000000E+00  0.4597500967664E-01
 0.1812229284807E+00 -0.2044674985013E+00  0.0000000000000E+00  0.1357620800996E+00
 0.1101656020699E+00 -0.1271032461288E+00  0.0000000000000E+00  0.7215634725000E-01
 0.5419896416856E-01 -0.6285720472780E-01  0.0000000000000E+00  0.7460714828851E-02
 0.2036899186552E-01 -0.2189010750635E-01  0.0000000000000E+00 -0.1097003372869E-01
-0.2660976407621E-02  0.5552798842935E-02  0.0000000000000E+00 -0.8922399134007E-02
-0.1498368079183E-01  0.1886057484560E-01  0.0000000000000E+00  0.8910993082051E-02
-0.1593932660025E-01  0.1967303668504E-01  0.0000000000000E+00  0.4116896348276E-01
 0.1167531285183E-02  0.2628552054189E-02  0.0000000000000E+00  0.7371911347351E-01
 0.2493930916588E+00 -0.3232849105750E+00  0.0000000000000E+00 -0.5164372172531E+00
 0.2796627473205E+00 -0.3306492605017E+00  0.0000000000000E+00 -0.6474579655068E-01
 0.2182428161591E+00 -0.2504668038427E+00  0.0000000000000E+00  0.7837125546630E-01
 0.1498497295710E+00 -0.1699303178509E+00  0.0000000000000E+00  0.6593467850338E-01
 0.9200101168923E-01 -0.1044292118599E+00  0.0000000000000E+00  0.1073161762998E-01
 0.5435961408316E-01 -0.6080111589797E-01  0.0000000000000E+00 -0.1412547915473E-01
 0.2621490313241E-01 -0.2840984920966E-01  0.0000000000000E+00 -0.1517235931670E-01
 0.5668272277352E-02 -0.5739889854639E-02  0.0000000000000E+00  0.4432192899730E-03
-0.4965675684873E-02  0.5673469464887E-02  0.0000000000000E+00  0.3013079958281E-01
 0.3411330360100E-02 -0.1810437626963E-02  0.0000000000000E+00  0.6290141468288E-01
 0.2290413325963E+00 -0.2970830225674E+00  0.0000000000000E+00 -0.5270527734033E+00
 0.2785646814885E+00 -0.3305526008940E+00  0.0000000000000E+00 -0.1388172059866E+00
 0.2450250598584E+00 -0.2828180323598E+00  0.0000000000000E+00  0.1731999587313E-01
 0.1887366483823E+00 -0.2140270738966E+00  0.0000000000000E+00  0.4343192712819E-01
 0.1322127253597E+00 -0.1486390849560E+00  0.0000000000000E+00  0.9152313524988E-02
 0.9134850027661E-01 -0.1025235756861E+00  0.0000000000000E+00 -0.1928128445826E-01
 0.5968060284074E-01 -0.6675441366101E-01  0.0000000000000E+00 -0.2828940103240E-01
 0.3304646909875E-01 -0.3764068111227E-01  0.0000000000000E+00 -0.2065161788523E-01
 0.1324221357854E-01 -0.1640493532774E-01  0.0000000000000E+00  0.1278528379345E-02
 0.1029879414942E-01 -0.1228782250880E-01  0.0000000000000E+00  0.2851419472180E-01
 0.2102060003643E+00 -0.2754064473406E+00  0.0000000000000E+00 -0.5239634709224E+00
 0.2732576280264E+00 -0.3258414444914E+00  0.0000000000000E+00 -0.1891620550366E+00
 0.2633591926960E+00 -0.3047342023550E+00  0.0000000000000E+00 -0.3698371003663E-01
 0.2233929437532E+00 -0.2535562430853E+00  0.0000000000000E+00  0.1123270939969E-01
 0.1733966870241E+00 -0.1944390274982E+00  0.0000000000000E+00 -0.1504210511369E-02
 0.1317344213196E+00 -0.1475674197557E+00  0.0000000000000E+00 -0.2757102458218E-01
 0.9797352994231E-01 -0.1098695938165E+00  0.0000000000000E+00 -0.4470985454748E-01
 0.6748477540438E-01 -0.7679067109805E-01  0.0000000000000E+00 -0.4884053345645E-01
 0.4049970455765E-01 -0.4814569937979E-01  0.0000000000000E+00 -0.4045956144637E-01
 0.2576902306877E-01 -0.3243130325936E-01  0.0000000000000E+00 -0.2533589268095E-01
 0.1928325628994E+00 -0.2567289214025E+00  0.0000000000000E+00 -0.5128175839148E+00
 0.2658541106862E+00 -0.3191062294340E+00  0.0000000000000E+00 -0.2230788410776E+00
 0.2753525254862E+00 -0.3193275394842E+00  0.0000000000000E+00 -0.8187556297299E-01
 0.2525185876609E+00 -0.2868157244098E+00  0.0000000000000E+00 -0.2388249369852E-01
 0.2130848211580E+00 -0.2387774384851E+00  0.0000000000000E+00 -0.2039626138521E-01
 0.1743477509319E+00 -0.1948475793323E+00  0.0000000000000E+00 -0.4056437234756E-01
 0.1406005454922E+00 -0.1572614044888E+00  0.0000000000000E+00 -0.6288879529314E-01
 0.1088848226758E+00 -0.1229594401066E+00  0.0000000000000E+00 -0.7911388736816E-01
 0.7781620731261E-01 -0.9024740925811E-01  0.0000000000000E+00 -0.8758815316485E-01
 0.5287862884649E-01 -0.6486746205525E-01  0.0000000000000E+00 -0.9011382945666E-01
 0.1766649994004E+00 -0.2401233898598E+00  0.0000000000000E+00 -0.4960681265696E+00
 0.2572140346765E+00 -0.3112813705249E+00  0.0000000000000E+00 -0.2447887923260E+00
 0.2825169405593E+00 -0.3286025204484E+00  0.0000000000000E+00 -0.1169908951832E+00
 0.2760034254397E+00 -0.3138076435780E+00  0.0000000000000E+00 -0.5709384326233E-01
 0.2493602885617E+00 -0.2794317254132E+00  0.0000000000000E+00 -0.4386875015990E-01
 0.2170278156369E+00 -0.2420784297640E+00  0.0000000000000E+00 -0.5780206226966E-01
 0.1859647134180E+00 -0.2072927518127E+00  0.0000000000000E+00 -0.8189177531954E-01
 0.1559563388667E+00 -0.1747514335530E+00  0.0000000000000E+00 -0.1073594527478E+00
 0.1247574809443E+00 -0.1420080505426E+00  0.0000000000000E+00 -0.1322087595179E+00
 0.9290440975319E-01 -0.1104048367950E+00  0.0000000000000E+00 -0.1552121780775E+00
 0.1614551775667E+00 -0.2249990110907E+00  0.0000000000000E+00 -0.4749097930725E+00
 0.2476332941421E+00 -0.3026387624543E+00  0.0000000000000E+00 -0.2569036641646E+00
 0.2857677634641E+00 -0.3336997853372E+00  0.0000000000000E+00 -0.1426402430161E+00
 0.2941312979438E+00 -0.3349713566358E+00  0.0000000000000E+00 -0.8519133022502E-01
 0.2811531259578E+00 -0.3152544141368E+00  0.0000000000000E+00 -0.6765612834134E-01
 0.2578087614673E+00 -0.2872164674469E+00  0.0000000000000E+00 -0.7711104990753E-01
 0.2318069211605E+00 -0.2577026914965E+00  0.0000000000000E+00 -0.1008042885045E+00
 0.2060450273356E+00 -0.2293639375315E+00  0.0000000000000E+00 -0.1305432137711E+00
 0.1790389956175E+00 -0.2009324606472E+00  0.0000000000000E+00 -0.1670809577015E+00
 0.1451204263656E+00 -0.1678257477391E+00  0.0000000000000E+00 -0.2099392108360E+00
 0.1470251833903E+00 -0.2109929885917E+00  0.0000000000000E+00 -0.4499737902159E+00
 0.2371408483061E+00 -0.2931846547830E+00  0.0000000000000E+00 -0.2613117264221E+00
 0.2855080561990E+00 -0.3350845526297E+00  0.0000000000000E+00 -0.1593394901136E+00
 0.3071540027099E+00 -0.3506794576593E+00  0.0000000000000E+00 -0.1059876331586E+00
 0.3079227562428E+00 -0.3456820401900E+00  0.0000000000000E+00 -0.8766151005207E-01
 0.2953596967376E+00 -0.3289117978633E+00  0.0000000000000E+00 -0.9509317518818E-01
 0.2764108172598E+00 -0.3067938370379E+00  0.0000000000000E+00 -0.1186352701522E+00
 0.2556305102970E+00 -0.2835805134054E+00  0.0000000000000E+00 -0.1489633524318E+00
 0.2358930873820E+00 -0.2616776305409E+00  0.0000000000000E+00 -0.1867009684527E+00
 0.2068344495248E+00 -0.2340316372667E+00  0.0000000000000E+00 -0.2434644102687E+00
 0.1333723017132E+00 -0.1983952835983E+00  0.0000000000000E+00 -0.4227570358005E+00
 0.2254259065989E+00 -0.2822802555930E+00  0.0000000000000E+00 -0.2602071072864E+00
 0.2816364191831E+00 -0.3327923686654E+00  0.0000000000000E+00 -0.1672774729206E+00
 0.3151460100950E+00 -0.3610233078205E+00  0.0000000000000E+00 -0.1180476884317E+00
 0.3292100618642E+00 -0.3702748328898E+00  0.0000000000000E+00 -0.1002422065247E+00
 0.3287122806171E+00 -0.3660729815488E+00  0.0000000000000E+00 -0.1070493585426E+00
 0.3190320991736E+00 -0.3537873855111E+00  0.0000000000000E+00 -0.1321485017767E+00
 0.3041029630879E+00 -0.3369453566258E+00  0.0000000000000E+00 -0.1659791674129E+00
 0.2875570189221E+00 -0.3185101443304E+00  0.0000000000000E+00 -0.1998444319916E+00
 0.2715923069560E+00 -0.2993948033499E+00  0.0000000000000E+00 -0.2482608446692E+00
 0.1333723032492E+00 -0.1983952849752E+00  0.0000000000000E+00  0.4227570406568E+00
 0.2254259071972E+00 -0.2822802559906E+00  0.0000000000000E+00  0.2602071086596E+00
 0.2816364189330E+00 -0.3327923682730E+00  0.0000000000000E+00  0.1672774728425E+00
 0.3151460095004E+00 -0.3610233071097E+00  0.0000000000000E+00  0.1180476879457E+00
 0.3292100612097E+00 -0.3702748321549E+00  0.0000000000000E+00  0.1002422060170E+00
 0.3287122800270E+00 -0.3660729809081E+00  0.0000000000000E+00  0.1070493581634E+00
 0.3190320986738E+00 -0.3537873849759E+00  0.0000000000000E+00  0.1321485015303E+00
 0.3041029626922E+00 -0.3369453562043E+00  0.0000000000000E+00  0.1659791672720E+00
 0.2875570187202E+00 -0.3185101440662E+00  0.0000000000000E+00  0.1998444320162E+00
 0.2715923064156E+00 -0.2993948029192E+00  0.0000000000000E+00  0.2482608457963E+00
 0.1470251848827E+00 -0.2109929899145E+00  0.0000000000000E+00  0.4499737939938E+00
 0.2371408489843E+00 -0.2931846552905E+00  0.0000000000000E+00  0.2613117267655E+00
 0.2855080559613E+00 -0.3350845522456E+00  0.0000000000000E+00  0.1593394894522E+00
 0.3071540020018E+00 -0.3506794568218E+00  0.0000000000000E+00  0.1059876323736E+00
 0.3079227554212E+00 -0.3456820392681E+00  0.0000000000000E+00  0.8766150945493E-01
 0.2953596959787E+00 -0.3289117970332E+00  0.0000000000000E+00  0.9509317486375E-01
 0.2764108166213E+00 -0.3067938363470E+00  0.0000000000000E+00  0.1186352700659E+00
 0.2556305098090E+00 -0.2835805128715E+00  0.0000000000000E+00  0.1489633526344E+00
 0.2358930870134E+00 -0.2616776301424E+00  0.0000000000000E+00  0.1867009692452E+00
 0.2068344487156E+00 -0.2340316365680E+00  0.0000000000000E+00  0.2434644119601E+00
 0.1614551789857E+00 -0.2249990123792E+00  0.0000000000000E+00  0.4749097959424E+00
 0.2476332948398E+00 -0.3026387629982E+00  0.0000000000000E+00  0.2569036636108E+00
 0.2857677631745E+00 -0.3336997849063E+00  0.0000000000000E+00  0.1426402417895E+00
 0.2941312970749E+00 -0.3349713556193E+00  0.0000000000000E+00  0.8519132918422E-01
 0.2811531249458E+00 -0.3152544130049E+00  0.0000000000000E+00  0.6765612770335E-01
 0.2578087605502E+00 -0.2872164664448E+00  0.0000000000000E+00  0.7711104969228E-01
 0.2318069203975E+00 -0.2577026906722E+00  0.0000000000000E+00  0.1008042886338E+00
 0.2060450266895E+00 -0.2293639368448E+00  0.0000000000000E+00  0.1305432142992E+00
 0.1790389949770E+00 -0.2009324599804E+00  0.0000000000000E+00  0.1670809587398E+00
 0.1451204254890E+00 -0.1678257469595E+00  0.0000000000000E+00  0.2099392125300E+00
 0.1766650007144E+00 -0.2401233911016E+00  0.0000000000000E+00  0.4960681285895E+00
 0.2572140353495E+00 -0.3112813710674E+00  0.0000000000000E+00  0.2447887909597E+00
 0.2825169401582E+00 -0.3286025199074E+00  0.0000000000000E+00  0.1169908934726E+00
 0.2760034243697E+00 -0.3138076423396E+00  0.0000000000000E+00  0.5709384207384E-01
 0.2493602873549E+00 -0.2794317240700E+00  0.0000000000000E+00  0.4386874960759E-01
 0.2170278145889E+00 -0.2420784286235E+00  0.0000000000000E+00  0.5780206223431E-01
 0.1859647125499E+00 -0.2072927508832E+00  0.0000000000000E+00  0.8189177562326E-01
 0.1559563380832E+00 -0.1747514327313E+00  0.0000000000000E+00  0.1073594533399E+00
 0.1247574801388E+00 -0.1420080497122E+00  0.0000000000000E+00  0.1322087603626E+00
 0.9290440901367E-01 -0.1104048361246E+00  0.0000000000000E+00  0.1552121793684E+00
 0.1928325640646E+00 -0.2567289225712E+00  0.0000000000000E+00  0.5128175851200E+00
 0.2658541112762E+00 -0.3191062299191E+00  0.0000000000000E+00  0.2230788389659E+00
 0.2753525249160E+00 -0.3193275387698E+00  0.0000000000000E+00  0.8187556090314E-01
 0.2525185863673E+00 -0.2868157229232E+00  0.0000000000000E+00  0.2388249254998E-01
 0.2130848197834E+00 -0.2387774369632E+00  0.0000000000000E+00  0.2039626107822E-01
 0.1743477498116E+00 -0.1948475781185E+00  0.0000000000000E+00  0.4056437251453E-01
 0.1406005445813E+00 -0.1572614035194E+00  0.0000000000000E+00  0.6288879563529E-01
 0.1088848218514E+00 -0.1229594392473E+00  0.0000000000000E+00  0.7911388775653E-01
 0.7781620651104E-01 -0.9024740842897E-01  0.0000000000000E+00  0.8758815350749E-01
 0.5287862844409E-01 -0.6486746168706E-01  0.0000000000000E+00  0.9011383008197E-01
 0.2102060013225E+00 -0.2754064483962E+00  0.0000000000000E+00  0.5239634713178E+00
 0.2732576284546E+00 -0.3258414448364E+00  0.0000000000000E+00  0.1891620522556E+00
 0.2633591919023E+00 -0.3047342014009E+00  0.0000000000000E+00  0.3698370780215E-01
 0.2233929422490E+00 -0.2535562413641E+00  0.0000000000000E+00 -0.1123271024450E-01
 0.1733966855547E+00 -0.1944390258820E+00  0.0000000000000E+00  0.1504210588503E-02
 0.1317344202170E+00 -0.1475674185641E+00  0.0000000000000E+00  0.2757102489182E-01
 0.9797352907669E-01 -0.1098695928971E+00  0.0000000000000E+00  0.4470985475546E-01
 0.6748477466187E-01 -0.7679067032374E-01  0.0000000000000E+00  0.4884053344160E-01
 0.4049970393516E-01 -0.4814569872694E-01  0.0000000000000E+00  0.4045956114810E-01
 0.2576902316402E-01 -0.3243130335325E-01  0.0000000000000E+00  0.2533589258217E-01
 0.2290413332653E+00 -0.2970830234497E+00  0.0000000000000E+00  0.5270527729524E+00
 0.2785646816505E+00 -0.3305526009775E+00  0.0000000000000E+00  0.1388172026545E+00
 0.2450250588089E+00 -0.2828180311152E+00  0.0000000000000E+00 -0.1731999796031E-01
 0.1887366467432E+00 -0.2140270720314E+00  0.0000000000000E+00 -0.4343192735369E-01
 0.1322127239145E+00 -0.1486390833793E+00  0.0000000000000E+00 -0.9152313029039E-02
 0.9134849928437E-01 -0.1025235746100E+00  0.0000000000000E+00  0.1928128476098E-01
 0.5968060210418E-01 -0.6675441287476E-01  0.0000000000000E+00  0.2828940095043E-01
 0.3304646855039E-01 -0.3764068053658E-01  0.0000000000000E+00  0.2065161738595E-01
 0.1324221327146E-01 -0.1640493499285E-01  0.0000000000000E+00 -0.1278529271447E-02
 0.1029879481517E-01 -0.1228782314497E-01  0.0000000000000E+00 -0.2851419538250E-01
 0.2493930919104E+00 -0.3232849111855E+00  0.0000000000000E+00  0.5164372158626E+00
 0.2796627470880E+00 -0.3306492601486E+00  0.0000000000000E+00  0.6474579291261E-01
 0.2182428148926E+00 -0.2504668023321E+00  0.0000000000000E+00 -0.7837125691320E-01
 0.1498497279520E+00 -0.1699303160458E+00  0.0000000000000E+00 -0.6593467785222E-01
 0.9200101039306E-01 -0.1044292104481E+00  0.0000000000000E+00 -0.1073161686970E-01
 0.5435961326233E-01 -0.6080111499254E-01  0.0000000000000E+00  0.1412547926389E-01
 0.2621490258834E-01 -0.2840984861905E-01  0.0000000000000E+00  0.1517235887215E-01
 0.5668272002359E-02 -0.5739889562792E-02  0.0000000000000E+00 -0.4432202180791E-03
-0.4965675610678E-02  0.5673469404151E-02  0.0000000000000E+00 -0.3013080087364E-01
 0.3411331535847E-02 -0.1810438760572E-02  0.0000000000000E+00 -0.6290141558960E-01
 0.2700115554470E+00 -0.3567773362065E+00  0.0000000000000E+00  0.4765525292341E+00
 0.2713677078548E+00 -0.3184894806363E+00  0.0000000000000E+00 -0.4597501295459E-01
 0.1812229272028E+00 -0.2044674970277E+00  0.0000000000000E+00 -0.1357620802379E+00
 0.1101656006435E+00 -0.1271032445832E+00  0.0000000000000E+00 -0.7215634581796E-01
 0.5419896308222E-01 -0.6285720352474E-01  0.0000000000000E+00 -0.7460714090616E-02
 0.2036899124732E-01 -0.2189010679256E-01  0.0000000000000E+00  0.1097003352930E-01
-0.2660976715173E-02  0.5552799189652E-02  0.0000000000000E+00  0.8922398378215E-02
-0.1498368075372E-01  0.1886057480026E-01  0.0000000000000E+00 -0.8910994278947E-02
-0.1593932615810E-01  0.1967303622582E-01  0.0000000000000E+00 -0.4116896493669E-01
 0.1167532768527E-02  0.2628550603934E-02  0.0000000000000E+00 -0.7371911431330E-01
 0.2789166335952E+00 -0.4035198170957E+00  0.0000000000000E+00  0.3415180669549E+00
 0.2413445653863E+00 -0.2628922165206E+00  0.0000000000000E+00 -0.2081604948377E+00
 0.1378505012590E+00 -0.1594812840760E+00  0.0000000000000E+00 -0.1521708700771E+00
 0.7427855821418E-01 -0.8761890676069E-01  0.0000000000000E+00 -0.6984695661285E-01
 0.1668872683858E-01 -0.2287555664989E-01  0.0000000000000E+00 -0.4686451745981E-02
-0.1217285493880E-01  0.1742555072174E-01  0.0000000000000E+00  0.1256507392642E-01
-0.2586251958457E-01  0.3304665617404E-01  0.0000000000000E+00  0.1648797033329E-01
-0.2927188636951E-01  0.3647102445632E-01  0.0000000000000E+00 -0.2322330016430E-02
-0.2163699628569E-01  0.2723237627027E-01  0.0000000000000E+00 -0.3362786094113E-01
-0.2368023394823E-03  0.4938681168061E-02  0.0000000000000E+00 -0.6304238932851E-01
 0.2649813164462E+00 -0.3039583078191E+00  0.0000000000000E+00 -0.3257183240857E+00
 0.1960396180290E+00 -0.2253087987452E+00  0.0000000000000E+00 -0.3011343436567E+00
 0.1350259722238E+00 -0.1584360830238E+00  0.0000000000000E+00 -0.2558084777447E+00
 0.8606689637390E-01 -0.1034124762740E+00  0.0000000000000E+00 -0.1896652592734E+00
 0.5148616968946E-01 -0.6288159406266E-01  0.0000000000000E+00 -0.1118521914627E+00
 0.3195526737460E-01 -0.3778562336743E-01  0.0000000000000E+00 -0.3510902879926E-01
 0.2484614500754E-01 -0.2599066787141E-01  0.0000000000000E+00  0.2722229804652E-01
 0.2472114703946E-01 -0.2252910614445E-01  0.0000000000000E+00  0.6484205402204E-01
 0.2520664498740E-01 -0.2123221151776E-01  0.0000000000000E+00  0.7466265149523E-01
 0.2070961891247E-01 -0.1690835951985E-01  0.0000000000000E+00  0.5922560149411E-01
 0.3006586670092E+00 -0.3405252098343E+00  0.0000000000000E+00 -0.3764244547531E+00
 0.2378917270513E+00 -0.2728259707570E+00  0.0000000000000E+00 -0.3631624179491E+00
 0.1717993901290E+00 -0.2000646563062E+00  0.0000000000000E+00 -0.3209734643026E+00
 0.1140770426008E+00 -0.1360009623082E+00  0.0000000000000E+00 -0.2554603039940E+00
 0.7059220589875E-01 -0.8595817183697E-01  0.0000000000000E+00 -0.1718972936477E+00
 0.4402820128471E-01 -0.5294128335188E-01  0.0000000000000E+00 -0.8406619001616E-01
 0.3355460798528E-01 -0.3658690759534E-01  0.0000000000000E+00 -0.9144902763988E-02
 0.3400259683573E-01 -0.3236229547734E-01  0.0000000000000E+00  0.3756836954741E-01
 0.3714727497537E-01 -0.3261157991236E-01  0.0000000000000E+00  0.5009694527316E-01
 0.3671298704973E-01 -0.3074572793655E-01  0.0000000000000E+00  0.3464880887484E-01
 0.3390853949940E+00 -0.3820124151235E+00  0.0000000000000E+00 -0.4057077289423E+00
 0.2822472717658E+00 -0.3215905280307E+00  0.0000000000000E+00 -0.4213615318672E+00
 0.2178184204916E+00 -0.2520520662330E+00  0.0000000000000E+00 -0.3984426669723E+00
 0.1549382737141E+00 -0.1829221330629E+00  0.0000000000000E+00 -0.3441642843310E+00
 0.1020973607413E+00 -0.1231621750675E+00  0.0000000000000E+00 -0.2637635485965E+00
 0.6529099761817E-01 -0.7891569464217E-01  0.0000000000000E+00 -0.1688040999197E+00
 0.4709430072359E-01 -0.5322263186771E-01  0.0000000000000E+00 -0.7783569822644E-01
 0.4474913524654E-01 -0.4417243873506E-01  0.0000000000000E+00 -0.1232182455738E-01
 0.4951054828020E-01 -0.4405514120160E-01  0.0000000000000E+00  0.1291221494113E-01
 0.5126702141197E-01 -0.4330934490018E-01  0.0000000000000E+00  0.2356747546668E-02
 0.3827618962966E+00 -0.4288940409709E+00  0.0000000000000E+00 -0.4165043220168E+00
 0.3324532047416E+00 -0.3766232390515E+00  0.0000000000000E+00 -0.4610973535920E+00
 0.2730584190478E+00 -0.3136328600437E+00  0.0000000000000E+00 -0.4687086444528E+00
 0.2099940239941E+00 -0.2455236797505E+00  0.0000000000000E+00 -0.4412781004928E+00
 0.1506462214893E+00 -0.1797144667438E+00  0.0000000000000E+00 -0.3802013649726E+00
 0.1025794259880E+00 -0.1238655143298E+00  0.0000000000000E+00 -0.2920181107230E+00
 0.7191504968561E-01 -0.8428959089663E-01  0.0000000000000E+00 -0.1913137250459E+00
 0.6086112574028E-01 -0.6380669728107E-01  0.0000000000000E+00 -0.1011591350181E+00
 0.6379378718718E-01 -0.5845888041907E-01  0.0000000000000E+00 -0.4824334722515E-01
 0.6730644088174E-01 -0.5695748369869E-01  0.0000000000000E+00 -0.4468137491659E-01
 0.4300630613678E+00 -0.4793740605108E+00  0.0000000000000E+00 -0.4068286557770E+00
 0.3884254924262E+00 -0.4373264764891E+00  0.0000000000000E+00 -0.4738526342772E+00
 0.3378137089344E+00 -0.3849731089864E+00  0.0000000000000E+00 -0.5134264658065E+00
 0.2802166294243E+00 -0.3242353314500E+00  0.0000000000000E+00 -0.5228536564280E+00
 0.2204871744836E+00 -0.2597768690281E+00  0.0000000000000E+00 -0.4985449878200E+00
 0.1651471677004E+00 -0.1978382976542E+00  0.0000000000000E+00 -0.4398772439817E+00
 0.1215055768917E+00 -0.1454232770205E+00  0.0000000000000E+00 -0.3525152207085E+00
 0.9597402108625E-01 -0.1087443410918E+00  0.0000000000000E+00 -0.2517748895959E+00
 0.9027550070919E-01 -0.8989014649147E-01  0.0000000000000E+00 -0.1655123471789E+00
 0.9183883047731E-01 -0.7974198058425E-01  0.0000000000000E+00 -0.1302708967606E+00
 0.4784528053097E+00 -0.5307124671969E+00  0.0000000000000E+00 -0.3751356025695E+00
 0.4479276987162E+00 -0.5010768864455E+00  0.0000000000000E+00 -0.4535170919889E+00
 0.4096364321661E+00 -0.4628446989756E+00  0.0000000000000E+00 -0.5174110052377E+00
 0.3633194470483E+00 -0.4156716731602E+00  0.0000000000000E+00 -0.5620469694012E+00
 0.3113362844534E+00 -0.3616748943397E+00  0.0000000000000E+00 -0.5815294231995E+00
 0.2580746143131E+00 -0.3048529429018E+00  0.0000000000000E+00 -0.5704354831750E+00
 0.2099115319625E+00 -0.2509883956330E+00  0.0000000000000E+00 -0.5259669284321E+00
 0.1751191354018E+00 -0.2074746373393E+00  0.0000000000000E+00 -0.4512901804861E+00
 0.1630592930083E+00 -0.1824146244343E+00  0.0000000000000E+00 -0.3610551881393E+00
 0.1801108630658E+00 -0.1808356964797E+00  0.0000000000000E+00 -0.2934872162922E+00
 0.5245305914222E+00 -0.5794173749533E+00  0.0000000000000E+00 -0.3212947730971E+00
 0.5068351857887E+00 -0.5635604554403E+00  0.0000000000000E+00 -0.3986396016683E+00
 0.4830899154341E+00 -0.5413875145839E+00  0.0000000000000E+00 -0.4728041472901E+00
 0.4521043770415E+00 -0.5116636343873E+00  0.0000000000000E+00 -0.5389937895351E+00
 0.4144878437084E+00 -0.4748769588494E+00  0.0000000000000E+00 -0.5916472402548E+00
 0.3725326781044E+00 -0.4330834460377E+00  0.0000000000000E+00 -0.6241752479810E+00
 0.3306479046463E+00 -0.3902604777048E+00  0.0000000000000E+00 -0.6293907944490E+00
 0.2962579573514E+00 -0.3530338653075E+00  0.0000000000000E+00 -0.6006677116234E+00
 0.2813129175194E+00 -0.3318538907482E+00  0.0000000000000E+00 -0.5344949432981E+00
 0.3061876516684E+00 -0.3433849743514E+00  0.0000000000000E+00 -0.4357608774072E+00
 0.5640533532804E+00 -0.6211284039449E+00  0.0000000000000E+00 -0.2466445916235E+00
 0.5587930217065E+00 -0.6183541391278E+00  0.0000000000000E+00 -0.3111809185739E+00
 0.5490634248274E+00 -0.6113284066053E+00  0.0000000000000E+00 -0.3790626181857E+00
 0.5335102369113E+00 -0.5986892787476E+00  0.0000000000000E+00 -0.4462114823255E+00
 0.5114918850748E+00 -0.5797910466235E+00  0.0000000000000E+00 -0.5081916304366E+00
 0.4831979977100E+00 -0.5547867644507E+00  0.0000000000000E+00 -0.5589359718662E+00
 0.4500391798508E+00 -0.5249637700766E+00  0.0000000000000E+00 -0.5898533299048E+00
 0.4154348389246E+00 -0.4934344678254E+00  0.0000000000000E+00 -0.5888109390148E+00
 0.3863485699576E+00 -0.4664333865226E+00  0.0000000000000E+00 -0.5385570924713E+00
 0.3757204235836E+00 -0.4557180731704E+00  0.0000000000000E+00 -0.4127357858552E+00
 0.5930297437074E+00 -0.6516971009698E+00  0.0000000000000E+00 -0.1551024182183E+00
 0.5976022941807E+00 -0.6591212319911E+00  0.0000000000000E+00 -0.1974853394575E+00
 0.5987333514168E+00 -0.6636704894103E+00  0.0000000000000E+00 -0.2445195058544E+00
 0.5952831215442E+00 -0.6642235860917E+00  0.0000000000000E+00 -0.2933636715367E+00
 0.5857919160787E+00 -0.6594047970899E+00  0.0000000000000E+00 -0.3410753531627E+00
 0.5686475551103E+00 -0.6477347792456E+00  0.0000000000000E+00 -0.3832962051478E+00
 0.5421294070594E+00 -0.6276742619945E+00  0.0000000000000E+00 -0.4130332396043E+00
 0.5044674371698E+00 -0.5976877636265E+00  0.0000000000000E+00 -0.4189257355306E+00
 0.4538964675212E+00 -0.5563692481507E+00  0.0000000000000E+00 -0.3823772437852E+00
 0.3884695718334E+00 -0.5023954645243E+00  0.0000000000000E+00 -0.2733013870175E+00
 0.6084014685153E+00 -0.6679171117205E+00  0.0000000000000E+00 -0.5292922750988E-01
 0.6184529420009E+00 -0.6809685142824E+00  0.0000000000000E+00 -0.6766533093192E-01
 0.6255102670792E+00 -0.6917772718190E+00  0.0000000000000E+00 -0.8445683701943E-01
 0.6286808174097E+00 -0.6994815189033E+00  0.0000000000000E+00 -0.1022708055968E+00
 0.6261103166760E+00 -0.7023591459336E+00  0.0000000000000E+00 -0.1200662767579E+00
 0.6151408830434E+00 -0.6979833722172E+00  0.0000000000000E+00 -0.1362458007243E+00
 0.5920598664261E+00 -0.6830081652047E+00  0.0000000000000E+00 -0.1481108623778E+00
 0.5515281033775E+00 -0.6526793455308E+00  0.0000000000000E+00 -0.1510451453156E+00
 0.4856195760274E+00 -0.6000001645502E+00  0.0000000000000E+00 -0.1372775138647E+00
 0.3824287265202E+00 -0.5144913276042E+00  0.0000000000000E+00 -0.9429560425297E-01
 0.6084014687082E+00 -0.6679171119184E+00  0.0000000000000E+00  0.5292922629350E-01
 0.6184529423825E+00 -0.6809685146688E+00  0.0000000000000E+00  0.6766532754809E-01
 0.6255102676714E+00 -0.6917772724221E+00  0.0000000000000E+00  0.8445683097523E-01
 0.6286808182494E+00 -0.6994815197670E+00  0.0000000000000E+00  0.1022707965509E+00
 0.6261103177900E+00 -0.7023591470939E+00  0.0000000000000E+00  0.1200662645189E+00
 0.6151408844202E+00 -0.6979833736759E+00  0.0000000000000E+00  0.1362457853313E+00
 0.5920598679719E+00 -0.6830081668895E+00  0.0000000000000E+00  0.1481108442685E+00
 0.5515281048388E+00 -0.6526793472269E+00  0.0000000000000E+00  0.1510451256325E+00
 0.4856195768654E+00 -0.6000001657826E+00  0.0000000000000E+00  0.1372774949840E+00
 0.3824287256936E+00 -0.5144913274557E+00  0.0000000000000E+00  0.9429559064232E-01
 0.5930297442432E+00 -0.6516971015178E+00  0.0000000000000E+00  0.1551024171028E+00
 0.5976022952366E+00 -0.6591212330627E+00  0.0000000000000E+00  0.1974853363457E+00
 0.5987333530677E+00 -0.6636704910990E+00  0.0000000000000E+00  0.2445195004971E+00
 0.5952831238961E+00 -0.6642235885245E+00  0.0000000000000E+00  0.2933636638196E+00
 0.5857919192043E+00 -0.6594048003665E+00  0.0000000000000E+00  0.3410753431138E+00
 0.5686475589774E+00 -0.6477347833722E+00  0.0000000000000E+00  0.3832961929820E+00
 0.5421294114254E+00 -0.6276742667885E+00  0.0000000000000E+00  0.4130332257898E+00
 0.5044674414043E+00 -0.5976877685604E+00  0.0000000000000E+00  0.4189257208707E+00
 0.4538964702922E+00 -0.5563692520785E+00  0.0000000000000E+00  0.3823772295383E+00
 0.3884695706194E+00 -0.5023954652240E+00  0.0000000000000E+00  0.2733013751441E+00
 0.5640533540510E+00 -0.6211284047289E+00  0.0000000000000E+00  0.2466445907275E+00
 0.5587930232202E+00 -0.6183541406691E+00  0.0000000000000E+00  0.3111809160605E+00
 0.5490634272202E+00 -0.6113284090699E+00  0.0000000000000E+00  0.3790626141950E+00
 0.5335102403381E+00 -0.5986892823243E+00  0.0000000000000E+00  0.4462114771182E+00
 0.5114918896275E+00 -0.5797910514470E+00  0.0000000000000E+00  0.5081916244091E+00
 0.4831980033366E+00 -0.5547867705274E+00  0.0000000000000E+00  0.5589359655361E+00
 0.4500391862503E+00 -0.5249637771917E+00  0.0000000000000E+00  0.5898533238253E+00
 0.4154348453978E+00 -0.4934344754133E+00  0.0000000000000E+00  0.5888109335538E+00
 0.3863485751665E+00 -0.4664333934775E+00  0.0000000000000E+00  0.5385570872975E+00
 0.3757204250498E+00 -0.4557180774702E+00  0.0000000000000E+00  0.4127357790342E+00
 0.5245305922943E+00 -0.5794173758376E+00  0.0000000000000E+00  0.3212947725481E+00
 0.5068351875093E+00 -0.5635604572035E+00  0.0000000000000E+00  0.3986396001089E+00
 0.4830899181890E+00 -0.5413875174531E+00  0.0000000000000E+00  0.4728041453093E+00
 0.4521043809992E+00 -0.5116636385770E+00  0.0000000000000E+00  0.5389937878447E+00
 0.4144878489436E+00 -0.4748769644923E+00  0.0000000000000E+00  0.5916472397055E+00
 0.3725326845420E+00 -0.4330834531335E+00  0.0000000000000E+00  0.6241752494798E+00
 0.3306479120202E+00 -0.3902604860850E+00  0.0000000000000E+00  0.6293907987459E+00
 0.2962579651995E+00 -0.3530338746395E+00  0.0000000000000E+00  0.6006677188862E+00
 0.2813129253086E+00 -0.3318539006471E+00  0.0000000000000E+00  0.5344949523232E+00
 0.3061876591470E+00 -0.3433849848221E+00  0.0000000000000E+00  0.4357608837155E+00
 0.4784528061260E+00 -0.5307124680227E+00  0.0000000000000E+00  0.3751356023710E+00
 0.4479277003410E+00 -0.5010768881294E+00  0.0000000000000E+00  0.4535170914531E+00
 0.4096364347841E+00 -0.4628447017475E+00  0.0000000000000E+00  0.5174110052495E+00
 0.3633194507496E+00 -0.4156716771601E+00  0.0000000000000E+00  0.5620469708943E+00
 0.3113362891800E+00 -0.3616748995679E+00  0.0000000000000E+00  0.5815294271248E+00
 0.2580746198420E+00 -0.3048529491994E+00  0.0000000000000E+00  0.5704354903242E+00
 0.2099115379457E+00 -0.2509884027171E+00  0.0000000000000E+00  0.5259669391349E+00
 0.1751191415370E+00 -0.2074746449472E+00  0.0000000000000E+00  0.4512901941959E+00
 0.1630592994589E+00 -0.1824146327006E+00  0.0000000000000E+00  0.3610552029799E+00
 0.1801108719223E+00 -0.1808357069025E+00  0.0000000000000E+00  0.2934872291460E+00
 0.4300630620248E+00 -0.4793740611820E+00  0.0000000000000E+00  0.4068286559472E+00
 0.3884254937961E+00 -0.4373264779508E+00  0.0000000000000E+00  0.4738526348331E+00
 0.3378137111716E+00 -0.3849731114312E+00  0.0000000000000E+00  0.5134264676426E+00
 0.2802166324883E+00 -0.3242353348721E+00  0.0000000000000E+00  0.5228536603205E+00
 0.2204871781364E+00 -0.2597768732140E+00  0.0000000000000E+00  0.4985449943123E+00
 0.1651471715439E+00 -0.1978383022103E+00  0.0000000000000E+00  0.4398772531508E+00
 0.1215055804864E+00 -0.1454232814720E+00  0.0000000000000E+00  0.3525152319047E+00
 0.9597402418856E-01 -0.1087443450891E+00  0.0000000000000E+00  0.2517749013121E+00
 0.9027550371157E-01 -0.8989015014440E-01  0.0000000000000E+00  0.1655123574327E+00
 0.9183883425995E-01 -0.7974198448447E-01  0.0000000000000E+00  0.1302709052536E+00
 0.3827618967548E+00 -0.4288940414539E+00  0.0000000000000E+00  0.4165043225922E+00
 0.3324532058448E+00 -0.3766232402725E+00  0.0000000000000E+00  0.4610973551599E+00
 0.2730584208697E+00 -0.3136328620958E+00  0.0000000000000E+00  0.4687086475813E+00
 0.2099940263585E+00 -0.2455236824624E+00  0.0000000000000E+00  0.4412781055071E+00
 0.1506462240559E+00 -0.1797144697589E+00  0.0000000000000E+00  0.3802013718292E+00
 0.1025794283734E+00 -0.1238655172217E+00  0.0000000000000E+00  0.2920181188634E+00
 0.7191505163212E-01 -0.8428959332957E-01  0.0000000000000E+00  0.1913137333798E+00
 0.6086112732285E-01 -0.6380669919994E-01  0.0000000000000E+00  0.1011591422276E+00
 0.6379378879932E-01 -0.5845888208918E-01  0.0000000000000E+00  0.4824335268914E-01
 0.6730644260094E-01 -0.5695748519702E-01  0.0000000000000E+00  0.4468137962104E-01
 0.3390853952417E+00 -0.3820124154087E+00  0.0000000000000E+00  0.4057077299431E+00
 0.2822472726290E+00 -0.3215905290231E+00  0.0000000000000E+00  0.4213615341576E+00
 0.2178184219166E+00 -0.2520520678759E+00  0.0000000000000E+00  0.3984426705962E+00
 0.1549382754250E+00 -0.1829221350570E+00  0.0000000000000E+00  0.3441642891757E+00
 0.1020973624261E+00 -0.1231621770664E+00  0.0000000000000E+00  0.2637635542771E+00
 0.6529099905977E-01 -0.7891569638019E-01  0.0000000000000E+00  0.1688041057409E+00
 0.4709430190678E-01 -0.5322263326604E-01  0.0000000000000E+00  0.7783570337402E-01
 0.4474913637669E-01 -0.4417243993832E-01  0.0000000000000E+00  0.1232182853894E-01
 0.4951054957389E-01 -0.4405514241105E-01  0.0000000000000E+00 -0.1291221182759E-01
 0.5126702281287E-01 -0.4330934612314E-01  0.0000000000000E+00 -0.2356744532207E-02
 0.3006586670888E+00 -0.3405252099627E+00  0.0000000000000E+00  0.3764244561641E+00
 0.2378917277225E+00 -0.2728259715609E+00  0.0000000000000E+00  0.3631624204699E+00
 0.1717993911542E+00 -0.2000646575075E+00  0.0000000000000E+00  0.3209734675583E+00
 0.1140770437079E+00 -0.1360009636118E+00  0.0000000000000E+00  0.2554603077535E+00
 0.7059220692750E-01 -0.8595817305562E-01  0.0000000000000E+00  0.1718972975110E+00
 0.4402820220666E-01 -0.5294128442625E-01  0.0000000000000E+00  0.8406619351122E-01
 0.3355460890833E-01 -0.3658690860214E-01  0.0000000000000E+00  0.9144905573247E-02
 0.3400259791700E-01 -0.3236229655541E-01  0.0000000000000E+00 -0.3756836735288E-01
 0.3714727625823E-01 -0.3261158111660E-01  0.0000000000000E+00 -0.5009694327363E-01
 0.3671298841142E-01 -0.3074572914835E-01  0.0000000000000E+00 -0.3464880678769E-01
 0.2649813164349E+00 -0.3039583079210E+00  0.0000000000000E+00  0.3257183257361E+00
 0.1960396184136E+00 -0.2253087992402E+00  0.0000000000000E+00  0.3011343456511E+00
 0.1350259726860E+00 -0.1584360835961E+00  0.0000000000000E+00  0.2558084799858E+00
 0.8606689682915E-01 -0.1034124768330E+00  0.0000000000000E+00  0.1896652615157E+00
 0.5148617015654E-01 -0.6288159461768E-01  0.0000000000000E+00  0.1118521934329E+00
 0.3195526796528E-01 -0.3778562401901E-01  0.0000000000000E+00  0.3510903032466E-01
 0.2484614585852E-01 -0.2599066874932E-01  0.0000000000000E+00 -0.2722229694659E-01
 0.2472114820131E-01 -0.2252910730184E-01  0.0000000000000E+00 -0.6484205312722E-01
 0.2520664635737E-01 -0.2123221285389E-01  0.0000000000000E+00 -0.7466265057365E-01
 0.2070962018986E-01 -0.1690836074686E-01  0.0000000000000E+00 -0.5922560062715E-01
</DataArray>
<DataArray type="Float64" Name="S_Centroid" NumberOfComponents="4" ComponentName0="S11" ComponentName1="S22" ComponentName2="S33" ComponentName3="S12" format="ascii">
-0.2162368178666E+00 -0.2527653204640E+00 -0.2204310050154E+00 -0.5265248954929E-02
-0.1474934747894E+00 -0.1817756573770E+00 -0.1547564921182E+00 -0.1893705746249E-03
-0.1434822835524E+00 -0.1750514574608E+00 -0.1497108582762E+00 -0.1832160238556E-03
-0.1398935276870E+00 -0.1710248576987E+00 -0.1461316411313E+00 -0.1508326593028E-04
-0.1398312861938E+00 -0.1708828991665E+00 -0.1460356671194E+00  0.4669044615562E-04
-0.1409322358077E+00 -0.1722461384820E+00 -0.1471938359161E+00  0.9007303714094E-04
-0.1430301740267E+00 -0.1748064721605E+00 -0.1493832237080E+00  0.1239724156664E-03
-0.1459250458854E+00 -0.1783440274107E+00 -0.1524064644491E+00  0.1578827676046E-03
-0.1496568078372E+00 -0.1829020077827E+00 -0.1563026433414E+00  0.1969905849629E-03
-0.1543593162754E+00 -0.1886450577877E+00 -0.1612120558096E+00  0.2457284157802E-03
-0.1602647722300E+00 -0.1958561503719E+00 -0.1673768336229E+00  0.3083127250378E-03
-0.1677031966675E+00 -0.2049375748453E+00 -0.1751411626110E+00  0.3898281126031E-03
-0.1771415812302E+00 -0.2164592554804E+00 -0.1849923932540E+00  0.4985989159748E-03
-0.1894114072533E+00 -0.2314060746980E+00 -0.1977842165171E+00  0.6641929041116E-03
-0.2056700615268E+00 -0.2511480614606E+00 -0.2147045178041E+00  0.9934663532600E-03
-0.2265403496380E+00 -0.2763332026825E+00 -0.2363505695906E+00  0.1653132425846E-02
-0.2507173508254E+00 -0.3057557730098E+00 -0.2615423682026E+00  0.2793693404174E-02
-0.2842487823051E+00 -0.3447035912639E+00 -0.2956076155774E+00  0.4517948187102E-02
-0.3078374754825E+00 -0.3790138666224E+00 -0.3228201307893E+00  0.7180602571789E-02
-0.4729597363589E+00 -0.5365011831219E+00 -0.4744466321560E+00  0.1466867616454E-01
-0.6343469884662E-01 -0.2120649718313E+00 -0.1294848452186E+00  0.1958665810759E-01
-0.1979635699799E+00 -0.2294644541778E+00 -0.2008911713541E+00 -0.5613252801166E-02
-0.1632393621137E+00 -0.1974361676565E+00 -0.1695174989920E+00 -0.2281881288379E-02
-0.1474173679156E+00 -0.1800283601833E+00 -0.1538994922065E+00 -0.5424715017627E-03
-0.1441331294754E+00 -0.1759143917600E+00 -0.1504223349806E+00 -0.1754049912982E-03
-0.1427746710261E+00 -0.1744065358348E+00 -0.1490751672246E+00  0.7323730819650E-04
-0.1433190877933E+00 -0.1750873402477E+00 -0.1496510211793E+00  0.2171244354767E-03
-0.1449176713763E+00 -0.1770529255239E+00 -0.1513261805431E+00  0.3307211775197E-03
-0.1474250072324E+00 -0.1801115470178E+00 -0.1539421804976E+00  0.4379301168495E-03
-0.1507999838708E+00 -0.1842215714687E+00 -0.1574601310096E+00  0.5565904365212E-03
-0.1551357941688E+00 -0.1894966665945E+00 -0.1619772565587E+00  0.6997075755474E-03
-0.1606132384939E+00 -0.1961570072462E+00 -0.1676820154978E+00  0.8794404188875E-03
-0.1675026067936E+00 -0.2045295470669E+00 -0.1748551123144E+00  0.1109939397504E-02
-0.1762127558338E+00 -0.2150963937641E+00 -0.1839153003110E+00  0.1415589783317E-02
-0.1873786906008E+00 -0.2285650986939E+00 -0.1954935809685E+00  0.1848431963675E-02
-0.2016608323685E+00 -0.2456163254183E+00 -0.2102202641598E+00  0.2491389847650E-02
-0.2188339584847E+00 -0.2660049587753E+00 -0.2278742911122E+00  0.3434072394955E-02
-0.2393650317880E+00 -0.2898892151091E+00 -0.2487494960417E+00  0.4827731609573E-02
-0.2591081994923E+00 -0.3134956956254E+00 -0.2691238307053E+00  0.6594945494391E-02
-0.2960850085843E+00 -0.3512619653660E+00 -0.3042530777566E+00  0.1075596536724E-01
-0.2995721462398E+00 -0.3482635891538E+00 -0.3044827956350E+00  0.9653086614415E-02
 0.4617082639946E-01 -0.4876572818542E-01 -0.1219603839405E-02  0.5220203739709E-02
-0.1906688776144E+00 -0.2196266008512E+00 -0.1928388748788E+00 -0.5243723548932E-02
-0.1679812404103E+00 -0.2006872489351E+00 -0.1732741899924E+00 -0.3113360568482E-02
-0.1530357935672E+00 -0.1858985294454E+00 -0.1592991318159E+00 -0.1155000883068E-02
-0.1474913271473E+00 -0.1797178437835E+00 -0.1537883103375E+00 -0.3446315084865E-03
-0.1456330816791E+00 -0.1776661243675E+00 -0.1519506268419E+00  0.4713783080485E-04
-0.1455231692772E+00 -0.1776354176900E+00 -0.1518845358746E+00  0.3062383737628E-03
-0.1466775225353E+00 -0.1790735882073E+00 -0.1531030220490E+00  0.5018867612969E-03
-0.1487867765108E+00 -0.1816434741724E+00 -0.1553022178211E+00  0.6841245270243E-03
-0.1517877618816E+00 -0.1852753173442E+00 -0.1584196472361E+00  0.8805734007238E-03
-0.1557211599103E+00 -0.1900235314788E+00 -0.1625000049529E+00  0.1112668274917E-02
-0.1607162437419E+00 -0.1960447026237E+00 -0.1676776447918E+00  0.1399260952376E-02
-0.1669809567246E+00 -0.2035836330464E+00 -0.1741653571923E+00  0.1761689505571E-02
-0.1748269473322E+00 -0.2129853474304E+00 -0.1822717785384E+00  0.2231977980835E-02
-0.1846633626263E+00 -0.2246518652105E+00 -0.1923781570833E+00  0.2857744305364E-02
-0.1966476972175E+00 -0.2386721098465E+00 -0.2046003093201E+00  0.3684791583106E-02
-0.2105543463911E+00 -0.2546525982553E+00 -0.2186472639838E+00  0.4765369439990E-02
-0.2249060339551E+00 -0.2708685829705E+00 -0.2330140699550E+00  0.6080240410101E-02
-0.2396783127702E+00 -0.2866054132646E+00 -0.2473533512363E+00  0.7930695089370E-02
-0.2510732997414E+00 -0.2938355952679E+00 -0.2561071806544E+00  0.9357183315309E-02
-0.1851506776804E+00 -0.2281189959842E+00 -0.1942367466224E+00  0.3254688711150E-02
 0.7004589553101E-01 -0.7669773865650E-02  0.2931677718272E-01  0.5641359424852E-03
-0.1868110248112E+00 -0.2143002873204E+00 -0.1885223167019E+00 -0.4775577141254E-02
-0.1700851098061E+00 -0.2013918930213E+00 -0.1745941913289E+00 -0.3352608892660E-02
-0.1571712340927E+00 -0.1896950468164E+00 -0.1630271520273E+00 -0.1595099047810E-02
-0.1507542894762E+00 -0.1831589140433E+00 -0.1569392056542E+00 -0.5526529027979E-03
-0.1481826078718E+00 -0.1804594203970E+00 -0.1544617532863E+00  0.1878795907966E-05
-0.1475834888631E+00 -0.1799208604779E+00 -0.1539270441903E+00  0.3623739160259E-03
-0.1482928954943E+00 -0.1808522899943E+00 -0.1546982371797E+00  0.6403228524928E-03
-0.1500128953655E+00 -0.1829439438480E+00 -0.1564897144304E+00  0.8946791025273E-03
-0.1526239434915E+00 -0.1860727758043E+00 -0.1591874580690E+00  0.1164187737752E-02
-0.1561253647758E+00 -0.1902461579650E+00 -0.1627946156882E+00  0.1476768955860E-02
-0.1605914597402E+00 -0.1955541852163E+00 -0.1673884531295E+00  0.1856418989169E-02
-0.1661594034438E+00 -0.2021493820645E+00 -0.1731051291889E+00  0.2327989537435E-02
-0.1730238543065E+00 -0.2102201840182E+00 -0.1801246980126E+00  0.2921605387922E-02
-0.1813415199112E+00 -0.2198628184544E+00 -0.1885660390319E+00  0.3666176483194E-02
-0.1909961479811E+00 -0.2308247216721E+00 -0.1982558087370E+00  0.4574336313338E-02
-0.2012038343313E+00 -0.2421006305646E+00 -0.2083530985011E+00  0.5616374313257E-02
-0.2104885114645E+00 -0.2518625533891E+00 -0.2173050004812E+00  0.6743724227804E-02
-0.2164340691720E+00 -0.2564269248589E+00 -0.2222446671945E+00  0.7744788689300E-02
-0.2029970625186E+00 -0.2389748363393E+00 -0.2077267924632E+00  0.6262938643806E-02
-0.1169113671404E+00 -0.1589652887058E+00 -0.1296620282477E+00 -0.7350210047182E-03
 0.7267614065166E-01  0.2836510370369E-02  0.3549094598035E-01 -0.1173926617859E-02
-0.1844824558747E+00 -0.2110479303866E+00 -0.1858992815428E+00 -0.4318991724777E-02
-0.1712658881503E+00 -0.2014469339115E+00 -0.1751750263691E+00 -0.3318908211510E-02
-0.1601604405125E+00 -0.1921153461689E+00 -0.1655696197403E+00 -0.1837699263251E-02
-0.1536169255309E+00 -0.1859532645238E+00 -0.1595979893257E+00 -0.7335169654643E-03
-0.1505103251059E+00 -0.1828827913111E+00 -0.1566947647160E+00 -0.5606632079277E-04
-0.1494638535382E+00 -0.1819137083362E+00 -0.1557474540809E+00  0.3958568352582E-03
-0.1497690157396E+00 -0.1823970744293E+00 -0.1561180623794E+00  0.7480049662912E-03
-0.1511030973215E+00 -0.1840181530232E+00 -0.1575069876620E+00  0.1068818377917E-02
-0.1533156118891E+00 -0.1866296782550E+00 -0.1597742863677E+00  0.1403713376443E-02
-0.1563610529292E+00 -0.1901910761658E+00 -0.1628795006746E+00  0.1785773722857E-02
-0.1602587801301E+00 -0.1947271107564E+00 -0.1668433687167E+00  0.2241801948096E-02
-0.1650686344032E+00 -0.2002931297315E+00 -0.1717200291433E+00  0.2796039860505E-02
-0.1708526250677E+00 -0.2069148479933E+00 -0.1775507123387E+00  0.3469265540725E-02
-0.1775606474561E+00 -0.2144472603082E+00 -0.1842437166492E+00  0.4267515092710E-02
-0.1847727575499E+00 -0.2223026499842E+00 -0.1913254415410E+00  0.5159451494092E-02
-0.1914001950367E+00 -0.2291549426761E+00 -0.1976609147250E+00  0.6054220551262E-02
-0.1954623018133E+00 -0.2325825315189E+00 -0.2011810716661E+00  0.6768309454635E-02
-0.1915943976701E+00 -0.2264839441736E+00 -0.1964968206665E+00  0.6564293754669E-02
-0.1622837111781E+00 -0.1954495341889E+00 -0.1681346253225E+00  0.3327914673586E-02
-0.7537244748975E-01 -0.1180303450387E+00 -0.9089931248839E-01 -0.2846260662416E-02
 0.6996510641164E-01  0.4611072434960E-02  0.3505080405790E-01 -0.1951470891990E-02
-0.1829760703700E+00 -0.2089223661338E+00 -0.1841922651568E+00 -0.3894696081025E-02
-0.1720388565990E+00 -0.2013385600562E+00 -0.1754873858279E+00 -0.3157996158727E-02
-0.1623865299435E+00 -0.1937216206139E+00 -0.1673708307620E+00 -0.1930775103665E-02
-0.1560312016934E+00 -0.1881341412006E+00 -0.1617577111602E+00 -0.8588872247679E-03
-0.1525998306727E+00 -0.1849354445968E+00 -0.1586415793767E+00 -0.1124457903581E-03
-0.1511689672408E+00 -0.1836293969657E+00 -0.1573552311771E+00  0.4125623066337E-03
-0.1511024967578E+00 -0.1837117673248E+00 -0.1573627041188E+00  0.8279073910600E-03
-0.1520620141595E+00 -0.1848788117997E+00 -0.1583621882008E+00  0.1206175119384E-02
-0.1538710983967E+00 -0.1869656170057E+00 -0.1601932562391E+00  0.1596607628409E-02
-0.1564432798751E+00 -0.1898898604490E+00 -0.1627765759523E+00  0.2035141097556E-02
-0.1597419071262E+00 -0.1936121790610E+00 -0.1660764205080E+00  0.2549035427243E-02
-0.1637447402690E+00 -0.1980908939407E+00 -0.1700627480786E+00  0.3158176241116E-02
-0.1683859755866E+00 -0.2032051411128E+00 -0.1746478248487E+00  0.3870102214237E-02
-0.1734234754116E+00 -0.2086031223064E+00 -0.1795525009274E+00  0.4664422696222E-02
-0.1781927993045E+00 -0.2134530071610E+00 -0.1840735290388E+00  0.5467673185172E-02
-0.1813325593186E+00 -0.2161695263900E+00 -0.1868259802830E+00  0.6123822153627E-02
-0.1801264059644E+00 -0.2137241277348E+00 -0.1851097508386E+00  0.6283677599877E-02
-0.1679293654877E+00 -0.1996386764966E+00 -0.1727569797326E+00  0.5031840506787E-02
-0.1301201721204E+00 -0.1626755325936E+00 -0.1376139812156E+00  0.1082697350243E-02
-0.4911275755433E-01 -0.9267725932614E-01 -0.6664130793382E-01 -0.3858961335523E-02
 0.6599500609331E-01  0.3561108662664E-02  0.3269137393531E-01 -0.2357456577157E-02
-0.1819594856966E+00 -0.2074693352526E+00 -0.1830315458461E+00 -0.3503837381070E-02
-0.1726009914454E+00 -0.2012081816371E+00 -0.1756903113488E+00 -0.2938880497550E-02
-0.1640956706774E+00 -0.1948353662720E+00 -0.1686975873662E+00 -0.1922450446312E-02
-0.1580441171932E+00 -0.1898203790135E+00 -0.1634963132172E+00 -0.9265966943225E-03
-0.1544422184446E+00 -0.1866360781438E+00 -0.1603067993965E+00 -0.1569934899332E-03
-0.1527007071305E+00 -0.1850831871343E+00 -0.1587584303045E+00  0.4176545299318E-03
-0.1522955024621E+00 -0.1848088769841E+00 -0.1584390583397E+00  0.8825238095846E-03
-0.1528948564369E+00 -0.1855415162924E+00 -0.1590650951828E+00  0.1307044462816E-02
-0.1543008472872E+00 -0.1871042470810E+00 -0.1604603943530E+00  0.1741407538469E-02
-0.1563892063236E+00 -0.1893780276252E+00 -0.1625105999560E+00  0.2222132479480E-02
-0.1590675003502E+00 -0.1922628575168E+00 -0.1651252681975E+00  0.2774665977103E-02
-0.1622318809839E+00 -0.1956269298473E+00 -0.1681936410907E+00  0.3411993400056E-02
-0.1656957648874E+00 -0.1992216268262E+00 -0.1715111741054E+00  0.4126351177301E-02
-0.1690495214598E+00 -0.2025317637111E+00 -0.1746432040303E+00  0.4871048144448E-02
-0.1714318119437E+00 -0.2045537051073E+00 -0.1767131930140E+00  0.5533887397874E-02
-0.1712083177968E+00 -0.2034992674636E+00 -0.1761125650724E+00  0.5893761305549E-02
-0.1651775478420E+00 -0.1961383517093E+00 -0.1698184727891E+00  0.5500747967476E-02
-0.1467973841048E+00 -0.1768336814617E+00 -0.1521066008163E+00  0.3541550691034E-02
-0.1052294910678E+00 -0.1382449343895E+00 -0.1144329799649E+00 -0.4680418390081E-03
-0.3191486637776E-01 -0.7633275830763E-01 -0.5087638360214E-01 -0.4274196102352E-02
 0.6180611554274E-01  0.1443234808593E-02  0.2972719466512E-01 -0.2592233204998E-02
-0.1812524307703E+00 -0.2064416135573E+00 -0.1822162008340E+00 -0.3143173423615E-02
-0.1730394952388E+00 -0.2010953099533E+00 -0.1758433584403E+00 -0.2695502974048E-02
-0.1654409189360E+00 -0.1956370284133E+00 -0.1697066352542E+00 -0.1848716849676E-02
-0.1597197303183E+00 -0.1911258486993E+00 -0.1648974221383E+00 -0.9451709965729E-03
-0.1560464758636E+00 -0.1880237202627E+00 -0.1617129921793E+00 -0.1855377915251E-03
-0.1540618484339E+00 -0.1862941004655E+00 -0.1599672959827E+00  0.4151184877958E-03
-0.1533524756799E+00 -0.1857050986849E+00 -0.1593570599515E+00  0.9140433648058E-03
-0.1536085515718E+00 -0.1860253194387E+00 -0.1596279193749E+00  0.1372179984353E-02
-0.1546167468669E+00 -0.1870719969393E+00 -0.1605937095889E+00  0.1837736798589E-02
-0.1562178006533E+00 -0.1886938817214E+00 -0.1621084907161E+00  0.2345783105697E-02
-0.1582653375128E+00 -0.1907358740727E+00 -0.1640305694452E+00  0.2918137436483E-02
-0.1605773002043E+00 -0.1929863189376E+00 -0.1661749009967E+00  0.3559424837344E-02
-0.1628571752574E+00 -0.1950910331601E+00 -0.1682356579562E+00  0.4246363246093E-02
-0.1645549740854E+00 -0.1964145177215E+00 -0.1696556611492E+00  0.4908435927167E-02
-0.1646474926303E+00 -0.1958400162828E+00 -0.1694291291891E+00  0.5399899183269E-02
-0.1612980547532E+00 -0.1914975983273E+00 -0.1658139569478E+00  0.5453076764597E-02
-0.1511817672006E+00 -0.1803415221813E+00 -0.1558159460095E+00  0.4604634942333E-02
-0.1285772514275E+00 -0.1579686983013E+00 -0.1346765963725E+00  0.2269659043496E-02
-0.8601086624608E-01 -0.1199363758054E+00 -0.9679520376421E-01 -0.1462201307060E-02
-0.2028838252346E-01 -0.6544317853282E-01 -0.4029383369645E-01 -0.4364632024703E-02
 0.5756250345669E-01 -0.1242626601136E-02  0.2647034212211E-01 -0.2741002011554E-02
-0.1807483058176E+00 -0.2056936096484E+00 -0.1816277002690E+00 -0.2808845424381E-02
-0.1733968589418E+00 -0.2010068054468E+00 -0.1759697222627E+00 -0.2445001042247E-02
-0.1665199430830E+00 -0.1962309619176E+00 -0.1704929253503E+00 -0.1734350512605E-02
-0.1611164872012E+00 -0.1921406325523E+00 -0.1660308462841E+00 -0.9257880198588E-03
-0.1574314183520E+00 -0.1891439778928E+00 -0.1628904362350E+00 -0.1982443782641E-03
-0.1552587663423E+00 -0.1872860091984E+00 -0.1609960445041E+00  0.4073643955909E-03
-0.1542793562787E+00 -0.1864198543960E+00 -0.1601286290171E+00  0.9243858492155E-03
-0.1542114779486E+00 -0.1863517854750E+00 -0.1600647338091E+00  0.1402734461197E-02
-0.1548319014809E+00 -0.1868972296530E+00 -0.1606126916329E+00  0.1886229991773E-02
-0.1559495283891E+00 -0.1878773324757E+00 -0.1615986246064E+00  0.2406808265344E-02
-0.1573670943097E+00 -0.1890886579831E+00 -0.1628342035776E+00  0.2981436959779E-02
-0.1588299861721E+00 -0.1902519606550E+00 -0.1640685150087E+00  0.3605948346343E-02
-0.1599452920991E+00 -0.1909309043625E+00 -0.1649118123370E+00  0.4242824591914E-02
-0.1600482272312E+00 -0.1904083436049E+00 -0.1647145882930E+00  0.4801744956376E-02
-0.1579949567552E+00 -0.1875150645381E+00 -0.1623897100079E+00  0.5112495919536E-02
-0.1518557092689E+00 -0.1804297921044E+00 -0.1561741856454E+00  0.4889427446434E-02
-0.1384680032385E+00 -0.1665152126503E+00 -0.1433421114678E+00  0.3720464997342E-02
-0.1131603389020E+00 -0.1425469914021E+00 -0.1201824452429E+00  0.1265606732490E-02
-0.7111407794785E-01 -0.1060813834426E+00 -0.8328186685352E-01 -0.2047602086660E-02
-0.1209600238567E-01 -0.5788312822129E-01 -0.3289019138527E-01 -0.4263190871433E-02
 0.5316283591865E-01 -0.4423883094016E-02  0.2290730782758E-01 -0.2853504540400E-02
-0.1803806413083E+00 -0.2051351155200E+00 -0.1811924057093E+00 -0.2497305418683E-02
-0.1736954038641E+00 -0.2009395122744E+00 -0.1760784105851E+00 -0.2196093062749E-02
-0.1673972122247E+00 -0.1966800637647E+00 -0.1711163197150E+00 -0.1595876333319E-02
-0.1622826137364E+00 -0.1929323028674E+00 -0.1669510108038E+00 -0.8789344412287E-03
-0.1586191722570E+00 -0.1900408123098E+00 -0.1638701927464E+00 -0.1975728565474E-03
-0.1563010230916E+00 -0.1880855823218E+00 -0.1618617045443E+00  0.3954308874604E-03
-0.1550835358422E+00 -0.1869745378680E+00 -0.1607672946438E+00  0.9151864694835E-03
-0.1547130785700E+00 -0.1865440132568E+00 -0.1603908331586E+00  0.1400226711603E-02
-0.1549603536211E+00 -0.1866093655811E+00 -0.1605377680250E+00  0.1888435538713E-02
-0.1556058235572E+00 -0.1869686089080E+00 -0.1610099832587E+00  0.2407406260542E-02
-0.1564053620429E+00 -0.1873773817630E+00 -0.1615778895888E+00  0.2968649443191E-02
-0.1570390958505E+00 -0.1875019068821E+00 -0.1619342712843E+00  0.3559670204927E-02
-0.1570321623797E+00 -0.1868460964124E+00 -0.1616227816323E+00  0.4131081446997E-02
-0.1556305182350E+00 -0.1846464956075E+00 -0.1599301965060E+00  0.4578115673744E-02
-0.1516166199905E+00 -0.1797388999382E+00 -0.1557370943665E+00  0.4718083258757E-02
-0.1430758114650E+00 -0.1704505581003E+00 -0.1473573936957E+00  0.4274211175135E-02
-0.1271637914316E+00 -0.1546180058722E+00 -0.1324374447328E+00  0.2919044648295E-02
-0.1002728134157E+00 -0.1300196056296E+00 -0.1082374369513E+00  0.5158528574754E-03
-0.5942667548609E-01 -0.9541233984691E-01 -0.7277433720651E-01 -0.2339623530476E-02
-0.6216624926157E-02 -0.5254594117357E-01 -0.2761840606687E-01 -0.4051875613207E-02
 0.4954801300878E-01 -0.7052319154813E-02  0.1997297611136E-01 -0.2917148560226E-02
-0.1801083769119E+00 -0.2047099513508E+00 -0.1808646142835E+00 -0.2205528594365E-02
-0.1739485250843E+00 -0.2008888976986E+00 -0.1761735887079E+00 -0.1953308366230E-02
-0.1681170914340E+00 -0.1970245694131E+00 -0.1716165805981E+00 -0.1444363714704E-02
-0.1632560687517E+00 -0.1935508410775E+00 -0.1676992476197E+00 -0.8134837391463E-03
-0.1596304540200E+00 -0.1907525006066E+00 -0.1646799886745E+00 -0.1869284516554E-03
-0.1571984478551E+00 -0.1887189611867E+00 -0.1625811822496E+00  0.3794214282911E-03
-0.1557719854624E+00 -0.1873907525683E+00 -0.1612864868744E+00  0.8878851989083E-03
-0.1551223334725E+00 -0.1866257004549E+00 -0.1606215759459E+00  0.1366601509505E-02
-0.1550164255959E+00 -0.1862393072105E+00 -0.1603901944190E+00  0.1846862494395E-02
-0.1552098533643E+00 -0.1860107407986E+00 -0.1603736792566E+00  0.2351276664545E-02
-0.1554166650525E+00 -0.1856625386331E+00 -0.1603072257322E+00  0.2885905569538E-02
-0.1552603372100E+00 -0.1848195057880E+00 -0.1598375262091E+00  0.3431153402501E-02
-0.1541993154753E+00 -0.1829466415509E+00 -0.1584585998023E+00  0.3928948998623E-02
-0.1514160816804E+00 -0.1792653746017E+00 -0.1554202844526E+00  0.4266414634499E-02
-0.1456669384020E+00 -0.1726637881813E+00 -0.1496154414942E+00  0.4260551776634E-02
-0.1351282515391E+00 -0.1616671813528E+00 -0.1394938534592E+00  0.3662619731747E-02
-0.1173520497208E+00 -0.1445773648598E+00 -0.1231068248528E+00  0.2235346213117E-02
-0.8960700670060E-01 -0.1198948975199E+00 -0.9846589498362E-01 -0.8694084044302E-05
-0.5037973816007E-01 -0.8727807173354E-01 -0.6469917065000E-01 -0.2440757657659E-02
-0.1423144675198E-02 -0.4820126468426E-01 -0.2332347239894E-01 -0.3732881913637E-02
 0.4632523975813E-01 -0.9634365174955E-02  0.1724471105409E-01 -0.3124350627089E-02
-0.1799000097385E+00 -0.2043773861239E+00 -0.1806103760553E+00 -0.1930828974847E-02
-0.1741621635259E+00 -0.2008485381219E+00 -0.1762550297745E+00 -0.1718548319362E-02
-0.1687090956102E+00 -0.1972894733659E+00 -0.1720193274188E+00 -0.1286771189821E-02
-0.1640668077310E+00 -0.1940333204444E+00 -0.1683070602424E+00 -0.7361521955851E-03
-0.1604855963471E+00 -0.1913125540336E+00 -0.1653451306789E+00 -0.1695981533178E-03
-0.1579637133560E+00 -0.1892127070433E+00 -0.1631729175877E+00  0.3590636462843E-03
-0.1563548016102E+00 -0.1876917292309E+00 -0.1617018694953E+00  0.8439054960236E-03
-0.1554507127881E+00 -0.1866213619733E+00 -0.1607738751378E+00  0.1304291344270E-02
-0.1550157833154E+00 -0.1858166918954E+00 -0.1601912633491E+00  0.1764971749702E-02
-0.1547841467827E+00 -0.1850418238109E+00 -0.1597182061790E+00  0.2243449419040E-02
-0.1544334165076E+00 -0.1839936028799E+00 -0.1590606991121E+00  0.2740828633939E-02
-0.1535392768068E+00 -0.1822673725322E+00 -0.1578291251893E+00  0.3232113340221E-02
-0.1515080595460E+00 -0.1793070250443E+00 -0.1554830897575E+00  0.3654107294187E-02
-0.1474828881186E+00 -0.1743440747939E+00 -0.1512586725689E+00  0.3892159966279E-02
-0.1402312451344E+00 -0.1663484048687E+00 -0.1440924355015E+00  0.3773024010853E-02
-0.1280702671670E+00 -0.1540602925677E+00 -0.1326013630753E+00  0.3085774042609E-02
-0.1089357303094E+00 -0.1361727504486E+00 -0.1152009859563E+00  0.1674472091021E-02
-0.8086667577111E-01 -0.1117564959211E+00 -0.9053289069532E-01 -0.3551714442458E-03
-0.4309112924304E-01 -0.8081401141746E-01 -0.5823541611043E-01 -0.2400322116254E-02
 0.1631487915097E-02 -0.4538073246050E-01 -0.2056214493634E-01 -0.3425005638459E-02
 0.4887434778284E-01 -0.7498152027508E-02  0.1944681200501E-01 -0.3153110804300E-02
-0.1797386895753E+00 -0.2041140422698E+00 -0.1804107839672E+00 -0.1670837598159E-02
-0.1743423072809E+00 -0.2008154509242E+00 -0.1763241463564E+00 -0.1492269700107E-02
-0.1691968526114E+00 -0.1974938396465E+00 -0.1723446253612E+00 -0.1127334732283E-02
-0.1647405034990E+00 -0.1944091915868E+00 -0.1688003566903E+00 -0.6517692642452E-03
-0.1612044464981E+00 -0.1917502590275E+00 -0.1658887115971E+00 -0.1483728246317E-03
-0.1586109362837E+00 -0.1895921497653E+00 -0.1636554504430E+00  0.3339237544073E-03
-0.1568435481206E+00 -0.1879002141185E+00 -0.1620295682524E+00  0.7844688738937E-03
-0.1557102083957E+00 -0.1865540113145E+00 -0.1608641832638E+00  0.1215653939915E-02
-0.1549730152838E+00 -0.1853672875866E+00 -0.1599599423491E+00  0.1646215773050E-02
-0.1543476160169E+00 -0.1840921130866E+00 -0.1590666726787E+00  0.2088844100909E-02
-0.1534803282469E+00 -0.1824059802562E+00 -0.1578665649965E+00  0.2540518048123E-02
-0.1519072448930E+00 -0.1798846957053E+00 -0.1559422120812E+00  0.2972789176844E-02
-0.1489955818099E+00 -0.1759651147507E+00 -0.1527315273835E+00  0.3320920884880E-02
-0.1438687629622E+00 -0.1699062851135E+00 -0.1474742725956E+00  0.3474155604730E-02
-0.1353328985400E+00 -0.1607754824970E+00 -0.1391709390874E+00  0.3276073307172E-02
-0.1218633780377E+00 -0.1475164534198E+00 -0.1266085207850E+00  0.2556267923946E-02
-0.1017625738841E+00 -0.1291539842787E+00 -0.1085307823365E+00  0.1224638564785E-02
-0.7362481206891E-01 -0.1051239325490E+00 -0.8401190997044E-01 -0.5643517192105E-03
-0.3737852244944E-01 -0.7579137529172E-01 -0.5318985193834E-01 -0.2264102994346E-02
 0.4764059140999E-02 -0.4258204229888E-01 -0.1777445208420E-01 -0.3141094512262E-02
 0.4905883821392E-01 -0.7552298119335E-02  0.1950807384445E-01 -0.2950941091969E-02
-0.1796121486932E+00 -0.2039034613902E+00 -0.1802523367392E+00 -0.1423468109304E-02
-0.1744927765252E+00 -0.2007874134941E+00 -0.1763816893091E+00 -0.1274341022141E-02
-0.1695967573804E+00 -0.1976507803320E+00 -0.1726063427248E+00 -0.9687304467571E-03
-0.1652960721042E+00 -0.1947001563220E+00 -0.1691982273603E+00 -0.5638513577524E-03
-0.1618022890711E+00 -0.1920886210833E+00 -0.1663287277725E+00 -0.1255069064164E-03
-0.1591512779263E+00 -0.1898784291366E+00 -0.1640439623196E+00  0.3036535933655E-03
-0.1572475643342E+00 -0.1880361674941E+00 -0.1622833539593E+00  0.7108607676860E-03
-0.1559110878676E+00 -0.1864448295043E+00 -0.1609072811648E+00  0.1103275536210E-02
-0.1549017573227E+00 -0.1849160659297E+00 -0.1597143769286E+00  0.1494445479673E-02
-0.1539194994023E+00 -0.1831924990745E+00 -0.1584426392841E+00  0.1892861312380E-02
-0.1525843589646E+00 -0.1809377061489E+00 -0.1567553706033E+00  0.2292463056369E-02
-0.1504006019321E+00 -0.1777161033512E+00 -0.1542148514832E+00  0.2663424741089E-02
-0.1467076910630E+00 -0.1729679570472E+00 -0.1502475546118E+00  0.2942877386144E-02
-0.1406249356917E+00 -0.1659905983689E+00 -0.1441093010085E+00  0.3028618385951E-02
-0.1310124162760E+00 -0.1559510042494E+00 -0.1348728076470E+00  0.2785191821844E-02
-0.1165077795472E+00 -0.1419763597791E+00 -0.1214875454834E+00  0.2080724410116E-02
-0.9572248088743E-01 -0.1233457877746E+00 -0.1029620862712E+00  0.8729204569086E-03
-0.6771101473437E-01 -0.9977980992271E-01 -0.7872068758883E-01 -0.6642482099613E-03
-0.3272473241561E-01 -0.7173619774958E-01 -0.4909663717764E-01 -0.2072955346022E-02
 0.7217643966399E-02 -0.4048828049514E-01 -0.1563719916851E-01 -0.2812406553004E-02
 0.4887271459516E-01 -0.7897218189489E-02  0.1925848331067E-01 -0.2661731920177E-02
-0.1795123503854E+00 -0.2037348240537E+00 -0.1801261719864E+00 -0.1186807890941E-02
-0.1746165424173E+00 -0.2007632258272E+00 -0.1764284910749E+00 -0.1064166929649E-02
-0.1699211188346E+00 -0.1977701223946E+00 -0.1728148833777E+00 -0.8124418904385E-03
-0.1657484614445E+00 -0.1949230495150E+00 -0.1695156101510E+00 -0.4747606976551E-03
-0.1622920733129E+00 -0.1923465819257E+00 -0.1666801679622E+00 -0.1026243961695E-03
-0.1595948739701E+00 -0.1900900033510E+00 -0.1643518923409E+00  0.2681353224435E-03
-0.1575756835034E+00 -0.1881176850353E+00 -0.1624758832132E+00  0.6244954599976E-03
-0.1560630659524E+00 -0.1863131815472E+00 -0.1609168363248E+00  0.9699399673469E-03
-0.1548147262794E+00 -0.1844856140290E+00 -0.1594711599450E+00  0.1313786271833E-02
-0.1535174562732E+00 -0.1823703486831E+00 -0.1578672683295E+00  0.1661137076405E-02
-0.1517697987592E+00 -0.1796214949482E+00 -0.1557539080425E+00  0.2004110134577E-02
-0.1490512193674E+00 -0.1757982755499E+00 -0.1526792626111E+00  0.2313544361973E-02
-0.1446828665473E+00 -0.1703512693370E+00 -0.1480660438657E+00  0.2531460874516E-02
-0.1377904813334E+00 -0.1626203536232E+00 -0.1411930924296E+00  0.2567693551088E-02
-0.1272950929297E+00 -0.1518667611882E+00 -0.1312060714354E+00  0.2309544524728E-02
-0.1119836019187E+00 -0.1373715099009E+00 -0.1171969025552E+00  0.1658753339211E-02
-0.9072950943086E-01 -0.1186133939883E+00 -0.9839116460699E-01  0.6052144116920E-03
-0.6291656095906E-01 -0.9549518512575E-01 -0.7445352065986E-01 -0.6821796107933E-03
-0.2900492560581E-01 -0.6853657330277E-01 -0.4584450448703E-01 -0.1833461859320E-02
 0.9114306022353E-02 -0.3892870621480E-01 -0.1401276809045E-01 -0.2442458664223E-02
 0.4851081357960E-01 -0.8384672385193E-02  0.1885928636137E-01 -0.2318405803255E-02
-0.1794341032427E+00 -0.2036010956576E+00 -0.1800265434831E+00 -0.9590671477715E-03
-0.1747160210617E+00 -0.2007424528910E+00 -0.1764654827578E+00 -0.8608638846912E-03
-0.1701792496509E+00 -0.1978593837545E+00 -0.1729781577005E+00 -0.6591249979714E-03
-0.1661094287632E+00 -0.1950909808971E+00 -0.1697641925403E+00 -0.3859579291053E-03
-0.1626845531676E+00 -0.1925395550905E+00 -0.1669553308813E+00 -0.8075810556440E-04
-0.1599506226871E+00 -0.1902425987023E+00 -0.1645908140530E+00  0.2275369398997E-03
-0.1578359376609E+00 -0.1881606683093E+00 -0.1626184048060E+00  0.5269503637465E-03
-0.1561750128436E+00 -0.1861762266924E+00 -0.1609050825819E+00  0.8186004081523E-03
-0.1547234077187E+00 -0.1840957714786E+00 -0.1592450142228E+00  0.1108544481661E-02
-0.1531572144928E+00 -0.1816492510645E+00 -0.1573590388120E+00  0.1399387439801E-02
-0.1510578951986E+00 -0.1784847471064E+00 -0.1548850418833E+00  0.1682655330707E-02
-0.1478862607675E+00 -0.1741605731250E+00 -0.1513620119295E+00  0.1931732636872E-02
-0.1429523630257E+00 -0.1681411317702E+00 -0.1462139425541E+00  0.2096041919996E-02
-0.1353945518312E+00 -0.1598081686855E+00 -0.1387452786429E+00  0.2099845071531E-02
-0.1241936368185E+00 -0.1485055484618E+00 -0.1281686170818E+00  0.1853264706969E-02
-0.1082671061283E+00 -0.1336392626448E+00 -0.1136959933234E+00  0.1285929859858E-02
-0.8669691309973E-01 -0.1148361743785E+00 -0.9472055111476E-01  0.4062096934687E-03
-0.5910473728275E-01 -0.9212231832252E-01 -0.7107671613448E-01 -0.6367873647424E-03
-0.2608948874306E-01 -0.6606123518854E-01 -0.4331084024785E-01 -0.1553374656723E-02
 0.1054795885990E-01 -0.3778878563847E-01 -0.1280318858593E-01 -0.2038917701512E-02
 0.4810760036395E-01 -0.8894056069499E-02  0.1843036581839E-01 -0.1938575648245E-02
-0.1793741274634E+00 -0.2034977868024E+00 -0.1799497997050E+00 -0.7385405546535E-03
-0.1747931958292E+00 -0.2007251561286E+00 -0.1764936254202E+00 -0.6633636827831E-03
-0.1703781805661E+00 -0.1979243483544E+00 -0.1731021885926E+00 -0.5088575542209E-03
-0.1663881026160E+00 -0.1952140902538E+00 -0.1699530306488E+00 -0.2982124345370E-03
-0.1629884403784E+00 -0.1926798513658E+00 -0.1671640971198E+00 -0.6042570399830E-04
-0.1602260556251E+00 -0.1903492255979E+00 -0.1647703821748E+00  0.1823186011791E-03
-0.1580353267519E+00 -0.1881786010928E+00 -0.1627205460870E+00  0.4199746208492E-03
-0.1562547011977E+00 -0.1860486219516E+00 -0.1608825618802E+00  0.6523502342478E-03
-0.1546377851532E+00 -0.1837633640166E+00 -0.1590485401098E+00  0.8831338505579E-03
-0.1528522783287E+00 -0.1810488777846E+00 -0.1569335433732E+00  0.1113298792288E-02
-0.1504665988010E+00 -0.1775497133108E+00 -0.1541676666925E+00  0.1334921516358E-02
-0.1469280872860E+00 -0.1728257792114E+00 -0.1502843172538E+00  0.1525553664585E-02
-0.1415408252926E+00 -0.1663559566983E+00 -0.1447114875357E+00  0.1643987720212E-02
-0.1334579219912E+00 -0.1575592487412E+00 -0.1367780702442E+00  0.1630393508944E-02
-0.1217134756322E+00 -0.1458475394368E+00 -0.1257536770825E+00  0.1416829683024E-02
-0.1053318587274E+00 -0.1307232752816E+00 -0.1109459129842E+00  0.9551586643030E-03
-0.8355384961589E-01 -0.1119200550523E+00 -0.9187273519406E-01  0.2615981543146E-03
-0.5617112783770E-01 -0.8954867535756E-01 -0.6848830750177E-01 -0.5427519329242E-03
-0.2387459870639E-01 -0.6420266366209E-01 -0.4139631331319E-01 -0.1240704821835E-02
 0.1160152253813E-01 -0.3697596310344E-01 -0.1192598706570E-01 -0.1609819450388E-02
 0.4773353494040E-01 -0.9357076666317E-02  0.1803693538882E-01 -0.1532535674527E-02
-0.1793304145106E+00 -0.2034221094282E+00 -0.1798936862512E+00 -0.5235794282362E-03
-0.1748496599407E+00 -0.2007116607535E+00 -0.1765138207263E+00 -0.4704770863790E-03
-0.1705231260878E+00 -0.1979693998002E+00 -0.1731914871674E+00 -0.3613140273108E-03
-0.1665913865706E+00 -0.1953000466324E+00 -0.1700889736054E+00 -0.2117753884364E-03
-0.1632105410427E+00 -0.1927769970653E+00 -0.1673141429107E+00 -0.4172114090612E-04
-0.1604272598380E+00 -0.1904202201416E+00 -0.1648983155904E+00  0.1332068969109E-03
-0.1581796417979E+00 -0.1881824006913E+00 -0.1627901599700E+00  0.3054780523152E-03
-0.1563085963670E+00 -0.1859423053544E+00 -0.1608579238090E+00  0.4743939288788E-03
-0.1545661132647E+00 -0.1835020165736E+00 -0.1588920210240E+00  0.6420221034958E-03
-0.1526137000611E+00 -0.1805849303186E+00 -0.1566033562784E+00  0.8084627858717E-03
-0.1500103881992E+00 -0.1768337328610E+00 -0.1536167368983E+00  0.9673128655867E-03
-0.1461943312691E+00 -0.1718109207140E+00 -0.1494624684321E+00  0.1101591820048E-02
-0.1404668901943E+00 -0.1650081955945E+00 -0.1435732903207E+00  0.1180906543790E-02
-0.1319949425022E+00 -0.1558745067277E+00 -0.1352986411380E+00  0.1162159122349E-02
-0.1198554534320E+00 -0.1438734485410E+00 -0.1239525839273E+00  0.9980793950404E-03
-0.1031536553180E+00 -0.1285772517145E+00 -0.1089135263053E+00  0.6579200154862E-03
-0.8124458643268E-01 -0.1097932622185E+00 -0.8978778886604E-01  0.1581588520091E-03
-0.5403675967669E-01 -0.8768920428705E-01 -0.6661120306296E-01 -0.4125490454480E-03
-0.2228025203679E-01 -0.6287778583612E-01 -0.4002427780027E-01 -0.9033320750966E-03
 0.1233909565374E-01 -0.3642142904425E-01 -0.1131869669354E-01 -0.1162206313827E-02
 0.4742893004476E-01 -0.9731734483610E-02  0.1771768191374E-01 -0.1107575379171E-02
-0.1793017883537E+00 -0.2033724022994E+00 -0.1798568696070E+00 -0.3125718325056E-03
-0.1748866220863E+00 -0.2007023699475E+00 -0.1765268262559E+00 -0.2809352918032E-03
-0.1706177858893E+00 -0.1979977122260E+00 -0.1732492841142E+00 -0.2158925441041E-03
-0.1667242425801E+00 -0.1953543736692E+00 -0.1701769496372E+00 -0.1265232284046E-03
-0.1633558656649E+00 -0.1928379619084E+00 -0.1674110989594E+00 -0.2441067761065E-04
-0.1605588310242E+00 -0.1904632891290E+00 -0.1649803964720E+00  0.8114936005736E-04
-0.1582733332127E+00 -0.1881803215742E+00 -0.1628332177499E+00  0.1855063820966E-03
-0.1563416902342E+00 -0.1858663438336E+00 -0.1608377760119E+00  0.2880192541733E-03
-0.1545147381246E+00 -0.1833220303943E+00 -0.1587832812039E+00  0.3896965402851E-03
-0.1524499071130E+00 -0.1802691413335E+00 -0.1563779527698E+00  0.4903515937591E-03
-0.1497001726339E+00 -0.1763495057650E+00 -0.1532433488475E+00  0.5858369790549E-03
-0.1456980226002E+00 -0.1711280182936E+00 -0.1489082392201E+00  0.6655839802101E-03
-0.1397438607726E+00 -0.1641058459908E+00 -0.1428093621788E+00  0.7109866944523E-03
-0.1310150133714E+00 -0.1547527824013E+00 -0.1343108640132E+00  0.6960807631995E-03
-0.1186182838111E+00 -0.1425670692927E+00 -0.1227571159588E+00  0.5930648755227E-03
-0.1017129281307E+00 -0.1271661261574E+00 -0.1075731555154E+00  0.3849650188060E-03
-0.7972782237761E-01 -0.1084036823202E+00 -0.8842180720797E-01  0.8353325705596E-04
-0.5264461828223E-01 -0.8648258587718E-01 -0.6538978595492E-01 -0.2573232250667E-03
-0.2124854321753E-01 -0.6202666535797E-01 -0.3913934803049E-01 -0.5487467453499E-03
 0.1280657233184E-01 -0.3607692409931E-01 -0.1093706533071E-01 -0.7021121142069E-03
 0.4721622028267E-01 -0.9993009872680E-02  0.1749490889270E-01 -0.6696310365252E-03
-0.1792876129382E+00 -0.2033477499494E+00 -0.1798386205572E+00 -0.1039283524371E-03
-0.1749048976089E+00 -0.2006976274524E+00 -0.1765331867788E+00 -0.9341903453180E-04
-0.1706645349140E+00 -0.1980113566187E+00 -0.1732776690204E+00 -0.7181159670232E-04
-0.1667898817536E+00 -0.1953806551018E+00 -0.1702201523220E+00 -0.4207929416861E-04
-0.1634277104507E+00 -0.1928673137029E+00 -0.1674586613522E+00 -0.8028646672642E-05
-0.1606238457206E+00 -0.1904835481220E+00 -0.1650204751060E+00  0.2725736363509E-04
-0.1583194174973E+00 -0.1881778951880E+00 -0.1628537369621E+00  0.6220751436020E-04
-0.1563573782393E+00 -0.1858268322240E+00 -0.1608265789177E+00  0.9657132453456E-04
-0.1544879636635E+00 -0.1832303072480E+00 -0.1587275873284E+00  0.1306458164633E-03
-0.1523665810537E+00 -0.1801093037921E+00 -0.1562636658776E+00  0.1643267782347E-03
-0.1495432410325E+00 -0.1761053402789E+00 -0.1530548332164E+00  0.1961800017811E-03
-0.1454477408766E+00 -0.1707847138446E+00 -0.1486292537190E+00  0.2226190361190E-03
-0.1393802664774E+00 -0.1636535961158E+00 -0.1424259154188E+00  0.2373817060204E-03
-0.1305237448514E+00 -0.1541924508263E+00 -0.1338166119685E+00  0.2317996323325E-03
-0.1180002509911E+00 -0.1419168646572E+00 -0.1221610443547E+00  0.1967046848996E-03
-0.1009960511429E+00 -0.1264664365520E+00 -0.1069073692166E+00  0.1266859433349E-03
-0.7897623886591E-01 -0.1077172958984E+00 -0.8774596133920E-01  0.2596228460145E-04
-0.5195766725128E-01 -0.8588905497827E-01 -0.6478795944789E-01 -0.8739167301593E-04
-0.2074191509897E-01 -0.6161058732063E-01 -0.3870567613721E-01 -0.1840297403727E-03
 0.1303321421261E-01 -0.3591201339682E-01 -0.1075303561658E-01 -0.2348211192266E-03
 0.4710730136108E-01 -0.1012681721394E-01  0.1738082754916E-01 -0.2240516674887E-03
-0.1792876129290E+00 -0.2033477499389E+00 -0.1798386205479E+00  0.1039283526643E-03
-0.1749048975999E+00 -0.2006976274421E+00 -0.1765331867698E+00  0.9341903474692E-04
-0.1706645349051E+00 -0.1980113566085E+00 -0.1732776690114E+00  0.7181159646939E-04
-0.1667898817446E+00 -0.1953806550917E+00 -0.1702201523130E+00  0.4207929257266E-04
-0.1634277104415E+00 -0.1928673136930E+00 -0.1674586613432E+00  0.8028642568258E-05
-0.1606238457115E+00 -0.1904835481124E+00 -0.1650204750973E+00 -0.2725737142644E-04
-0.1583194174887E+00 -0.1881778951793E+00 -0.1628537369540E+00 -0.6220752698951E-04
-0.1563573782317E+00 -0.1858268322169E+00 -0.1608265789108E+00 -0.9657134316498E-04
-0.1544879636577E+00 -0.1832303072434E+00 -0.1587275873236E+00 -0.1306458423091E-03
-0.1523665810509E+00 -0.1801093037913E+00 -0.1562636658758E+00 -0.1643268124887E-03
-0.1495432410340E+00 -0.1761053402833E+00 -0.1530548332191E+00 -0.1961800453254E-03
-0.1454477408842E+00 -0.1707847138559E+00 -0.1486292537279E+00 -0.2226190889379E-03
-0.1393802664934E+00 -0.1636535961355E+00 -0.1424259154356E+00 -0.2373817662846E-03
-0.1305237448776E+00 -0.1541924508552E+00 -0.1338166119944E+00 -0.2317996952941E-03
-0.1180002510285E+00 -0.1419168646950E+00 -0.1221610443900E+00 -0.1967047420824E-03
-0.1009960511905E+00 -0.1264664365961E+00 -0.1069073692597E+00 -0.1266859829164E-03
-0.7897623891886E-01 -0.1077172959437E+00 -0.8774596138538E-01 -0.2596229406562E-04
-0.5195766730032E-01 -0.8588905501696E-01 -0.6478795948912E-01  0.8739170142886E-04
-0.2074191513132E-01 -0.6161058734321E-01 -0.3870567616303E-01  0.1840298029759E-03
 0.1303321420959E-01 -0.3591201339419E-01 -0.1075303561676E-01  0.2348211973423E-03
 0.4710730139463E-01 -0.1012681717997E-01  0.1738082758089E-01  0.2240517317718E-03
-0.1793017883260E+00 -0.2033724022679E+00 -0.1798568695791E+00  0.3125718327114E-03
-0.1748866220594E+00 -0.2007023699168E+00 -0.1765268262288E+00  0.2809352920175E-03
-0.1706177858625E+00 -0.1979977121956E+00 -0.1732492840873E+00  0.2158925438903E-03
-0.1667242425528E+00 -0.1953543736389E+00 -0.1701769496101E+00  0.1265232268457E-03
-0.1633558656373E+00 -0.1928379618784E+00 -0.1674110989324E+00  0.2441067357019E-04
-0.1605588309970E+00 -0.1904632891002E+00 -0.1649803964457E+00 -0.8114936773519E-04
-0.1582733331869E+00 -0.1881803215480E+00 -0.1628332177254E+00 -0.1855063945328E-03
-0.1563416902115E+00 -0.1858663438121E+00 -0.1608377759911E+00 -0.2880192725040E-03
-0.1545147381073E+00 -0.1833220303803E+00 -0.1587832811892E+00 -0.3896965657101E-03
-0.1524499071043E+00 -0.1802691413308E+00 -0.1563779527645E+00 -0.4903516274807E-03
-0.1497001726381E+00 -0.1763495057780E+00 -0.1532433488556E+00 -0.5858370220070E-03
-0.1456980226229E+00 -0.1711280183273E+00 -0.1489082392466E+00 -0.6655840324917E-03
-0.1397438608201E+00 -0.1641058460497E+00 -0.1428093622288E+00 -0.7109867544263E-03
-0.1310150134497E+00 -0.1547527824882E+00 -0.1343108640908E+00 -0.6960808263663E-03
-0.1186182839235E+00 -0.1425670694064E+00 -0.1227571160651E+00 -0.5930649336194E-03
-0.1017129282740E+00 -0.1271661262907E+00 -0.1075731556454E+00 -0.3849650600258E-03
-0.7972782253768E-01 -0.1084036824576E+00 -0.8842180734779E-01 -0.8353326855339E-04
-0.5264461843117E-01 -0.8648258599517E-01 -0.6538978608038E-01  0.2573232516779E-03
-0.2124854331653E-01 -0.6202666542761E-01 -0.3913934810975E-01  0.5487468069302E-03
 0.1280657232147E-01 -0.3607692409268E-01 -0.1093706533247E-01  0.7021121919998E-03
 0.4721622038332E-01 -0.9993009771013E-02  0.1749490898778E-01  0.6696311002518E-03
-0.1793304144644E+00 -0.2034221093757E+00 -0.1798936862048E+00  0.5235794283986E-03
-0.1748496598959E+00 -0.2007116607023E+00 -0.1765138206812E+00  0.4704770865910E-03
-0.1705231260431E+00 -0.1979693997496E+00 -0.1731914871225E+00  0.3613140271339E-03
-0.1665913865252E+00 -0.1953000465819E+00 -0.1700889735603E+00  0.2117753869492E-03
-0.1632105409967E+00 -0.1927769970152E+00 -0.1673141428656E+00  0.4172113699015E-04
-0.1604272597925E+00 -0.1904202200934E+00 -0.1648983155464E+00 -0.1332069043652E-03
-0.1581796417547E+00 -0.1881824006473E+00 -0.1627901599290E+00 -0.3054780643688E-03
-0.1563085963289E+00 -0.1859423053181E+00 -0.1608579237741E+00 -0.4743939466131E-03
-0.1545661132355E+00 -0.1835020165498E+00 -0.1588920209991E+00 -0.6420221280801E-03
-0.1526137000461E+00 -0.1805849303135E+00 -0.1566033562690E+00 -0.8084628185247E-03
-0.1500103882055E+00 -0.1768337328819E+00 -0.1536167369111E+00 -0.9673129073401E-03
-0.1461943313060E+00 -0.1718109207692E+00 -0.1494624684754E+00 -0.1101591871224E-02
-0.1404668902723E+00 -0.1650081956920E+00 -0.1435732904033E+00 -0.1180906603129E-02
-0.1319949426319E+00 -0.1558745068726E+00 -0.1352986412671E+00 -0.1162159185852E-02
-0.1198554536196E+00 -0.1438734487320E+00 -0.1239525841052E+00 -0.9980794548955E-03
-0.1031536555587E+00 -0.1285772519398E+00 -0.1089135265243E+00 -0.6579200599533E-03
-0.8124458670351E-01 -0.1097932624526E+00 -0.8978778910336E-01 -0.1581588676099E-03
-0.5403675993105E-01 -0.8768920449014E-01 -0.6661120327796E-01  0.4125490683667E-03
-0.2228025220845E-01 -0.6287778595857E-01 -0.4002427793850E-01  0.9033321345427E-03
 0.1233909563191E-01 -0.3642142903756E-01 -0.1131869670065E-01  0.1162206390946E-02
 0.4742893021239E-01 -0.9731734314937E-02  0.1771768207180E-01  0.1107575441816E-02
-0.1793741273987E+00 -0.2034977867289E+00 -0.1799497996400E+00  0.7385405547496E-03
-0.1747931957665E+00 -0.2007251560569E+00 -0.1764936253570E+00  0.6633636829911E-03
-0.1703781805034E+00 -0.1979243482834E+00 -0.1731021885298E+00  0.5088575540969E-03
-0.1663881025523E+00 -0.1952140901829E+00 -0.1699530305856E+00  0.2982124331510E-03
-0.1629884403138E+00 -0.1926798512954E+00 -0.1671640970563E+00  0.6042570026015E-04
-0.1602260555611E+00 -0.1903492255300E+00 -0.1647703821128E+00 -0.1823186083077E-03
-0.1580353266910E+00 -0.1881786010305E+00 -0.1627205460291E+00 -0.4199746323379E-03
-0.1562547011439E+00 -0.1860486219000E+00 -0.1608825618306E+00 -0.6523502510951E-03
-0.1546377851117E+00 -0.1837633639822E+00 -0.1590485400741E+00 -0.8831338738844E-03
-0.1528522783067E+00 -0.1810488777760E+00 -0.1569335433589E+00 -0.1113298823330E-02
-0.1504665988083E+00 -0.1775497133383E+00 -0.1541676667089E+00 -0.1334921556280E-02
-0.1469280873356E+00 -0.1728257792870E+00 -0.1502843173126E+00 -0.1525553714023E-02
-0.1415408253998E+00 -0.1663559568335E+00 -0.1447114876496E+00 -0.1643987778462E-02
-0.1334579221712E+00 -0.1575592489441E+00 -0.1367780704242E+00 -0.1630393572768E-02
-0.1217134758949E+00 -0.1458475397069E+00 -0.1257536773329E+00 -0.1416829745335E-02
-0.1053318590680E+00 -0.1307232756036E+00 -0.1109459132956E+00 -0.9551587135578E-03
-0.8355385000352E-01 -0.1119200553908E+00 -0.9187273553534E-01 -0.2615981761547E-03
-0.5617112820686E-01 -0.8954867565571E-01 -0.6848830781541E-01  0.5427519500805E-03
-0.2387459896116E-01 -0.6420266384739E-01 -0.4139631352002E-01  0.1240704877850E-02
 0.1160152249752E-01 -0.3697596310366E-01 -0.1192598708489E-01  0.1609819526412E-02
 0.4773353517474E-01 -0.9357076431866E-02  0.1803693560915E-01  0.1532535735622E-02
-0.1794341031594E+00 -0.2036010955629E+00 -0.1800265433995E+00  0.9590671477770E-03
-0.1747160209811E+00 -0.2007424527987E+00 -0.1764654826765E+00  0.8608638848921E-03
-0.1701792495703E+00 -0.1978593836631E+00 -0.1729781576197E+00  0.6591249979124E-03
-0.1661094286811E+00 -0.1950909808057E+00 -0.1697641924588E+00  0.3859579278422E-03
-0.1626845530842E+00 -0.1925395549995E+00 -0.1669553307993E+00  0.8075810204696E-04
-0.1599506226043E+00 -0.1902425986141E+00 -0.1645908139727E+00 -0.2275369466113E-03
-0.1578359375821E+00 -0.1881606682282E+00 -0.1626184047309E+00 -0.5269503744984E-03
-0.1561750127736E+00 -0.1861762266247E+00 -0.1609050825172E+00 -0.8186004238312E-03
-0.1547234076641E+00 -0.1840957714325E+00 -0.1592450141754E+00 -0.1108544503318E-02
-0.1531572144627E+00 -0.1816492510510E+00 -0.1573590387914E+00 -0.1399387468682E-02
-0.1510578952055E+00 -0.1784847471388E+00 -0.1548850419018E+00 -0.1682655368129E-02
-0.1478862608279E+00 -0.1741605732190E+00 -0.1513620120020E+00 -0.1931732683855E-02
-0.1429523631597E+00 -0.1681411319416E+00 -0.1462139426976E+00 -0.2096041976544E-02
-0.1353945520595E+00 -0.1598081689463E+00 -0.1387452788728E+00 -0.2099845135428E-02
-0.1241936371560E+00 -0.1485055488135E+00 -0.1281686174057E+00 -0.1853264772198E-02
-0.1082671065720E+00 -0.1336392630698E+00 -0.1136959937316E+00 -0.1285929915313E-02
-0.8669691361255E-01 -0.1148361748323E+00 -0.9472055156906E-01 -0.4062097237650E-03
-0.5910473778023E-01 -0.9212231873024E-01 -0.7107671655992E-01  0.6367873738020E-03
-0.2608948909644E-01 -0.6606123545180E-01 -0.4331084053767E-01  0.1553374707711E-02
 0.1054795878919E-01 -0.3778878565638E-01 -0.1280318862758E-01  0.2038917775872E-02
 0.4810760066430E-01 -0.8894055771187E-02  0.1843036609976E-01  0.1938575707403E-02
-0.1795123502835E+00 -0.2037348239379E+00 -0.1801261718841E+00  0.1186807890830E-02
-0.1746165423187E+00 -0.2007632257144E+00 -0.1764284909755E+00  0.1064166929839E-02
-0.1699211187359E+00 -0.1977701222826E+00 -0.1728148832787E+00  0.8124418904516E-03
-0.1657484613438E+00 -0.1949230494027E+00 -0.1695156100509E+00  0.4747606965256E-03
-0.1622920732105E+00 -0.1923465818137E+00 -0.1666801678614E+00  0.1026243929011E-03
-0.1595948738683E+00 -0.1900900032421E+00 -0.1643518922419E+00 -0.2681353286614E-03
-0.1575756834063E+00 -0.1881176849346E+00 -0.1624758831202E+00 -0.6244954698545E-03
-0.1560630658657E+00 -0.1863131814622E+00 -0.1609168362441E+00 -0.9699399815889E-03
-0.1548147262108E+00 -0.1844856139698E+00 -0.1594711598849E+00 -0.1313786291417E-02
-0.1535174562336E+00 -0.1823703486628E+00 -0.1578672683013E+00 -0.1661137102570E-02
-0.1517697987637E+00 -0.1796214949833E+00 -0.1557539080611E+00 -0.2004110168791E-02
-0.1490512194360E+00 -0.1757982756598E+00 -0.1526792626950E+00 -0.2313544405680E-02
-0.1446828667050E+00 -0.1703512695423E+00 -0.1480660440362E+00 -0.2531460928544E-02
-0.1377904816073E+00 -0.1626203539411E+00 -0.1411930927077E+00 -0.2567693614503E-02
-0.1272950933413E+00 -0.1518667616240E+00 -0.1312060718337E+00 -0.2309544592988E-02
-0.1119836024691E+00 -0.1373715104369E+00 -0.1171969030658E+00 -0.1658753402060E-02
-0.9072951007941E-01 -0.1186133945716E+00 -0.9839116518597E-01 -0.6052144527343E-03
-0.6291656160277E-01 -0.9549518566267E-01 -0.7445352121476E-01  0.6821796090801E-03
-0.2900492607935E-01 -0.6853657366521E-01 -0.4584450487994E-01  0.1833461903266E-02
 0.9114305904929E-02 -0.3892870626623E-01 -0.1401276816981E-01  0.2442458736060E-02
 0.4851081394427E-01 -0.8384672026031E-02  0.1885928670157E-01  0.2318405860156E-02
-0.1796121485726E+00 -0.2039034612532E+00 -0.1802523366181E+00  0.1423468109046E-02
-0.1744927764087E+00 -0.2007874133606E+00 -0.1763816891916E+00  0.1274341022313E-02
-0.1695967572637E+00 -0.1976507801994E+00 -0.1726063426076E+00  0.9687304468424E-03
-0.1652960719848E+00 -0.1947001561886E+00 -0.1691982272415E+00  0.5638513567522E-03
-0.1618022889493E+00 -0.1920886209497E+00 -0.1663287276525E+00  0.1255069034074E-03
-0.1591512778051E+00 -0.1898784290061E+00 -0.1640439622013E+00 -0.3036535990301E-03
-0.1572475642182E+00 -0.1880361673728E+00 -0.1622833538478E+00 -0.7108607765058E-03
-0.1559110877633E+00 -0.1864448294008E+00 -0.1609072810671E+00 -0.1103275548763E-02
-0.1549017572391E+00 -0.1849160658557E+00 -0.1597143768545E+00 -0.1494445496797E-02
-0.1539194993517E+00 -0.1831924990452E+00 -0.1584426392465E+00 -0.1892861335277E-02
-0.1525843589644E+00 -0.1809377061836E+00 -0.1567553706195E+00 -0.2292463086633E-02
-0.1504006020058E+00 -0.1777161034735E+00 -0.1542148515752E+00 -0.2663424780587E-02
-0.1467076912405E+00 -0.1729679572831E+00 -0.1502475548061E+00 -0.2942877436600E-02
-0.1406249360073E+00 -0.1659905987421E+00 -0.1441093013322E+00 -0.3028618447934E-02
-0.1310124167598E+00 -0.1559510047715E+00 -0.1348728081197E+00 -0.2785191892759E-02
-0.1165077802078E+00 -0.1419763604350E+00 -0.1214875461021E+00 -0.2080724481189E-02
-0.9572248168424E-01 -0.1233457885051E+00 -0.1029620869890E+00 -0.8729205110201E-03
-0.6771101554695E-01 -0.9977981061411E-01 -0.7872068829570E-01  0.6642481943901E-03
-0.3272473303798E-01 -0.7173619823997E-01 -0.4909663770064E-01  0.2072955380380E-02
 0.7217643778209E-02 -0.4048828060323E-01 -0.1563719930776E-01  0.2812406620943E-02
 0.4887271502016E-01 -0.7897217774454E-02  0.1925848370548E-01  0.2661731974474E-02
-0.1797386894361E+00 -0.2041140421114E+00 -0.1804107838273E+00  0.1670837597723E-02
-0.1743423071464E+00 -0.2008154507702E+00 -0.1763241462208E+00  0.1492269700255E-02
-0.1691968524764E+00 -0.1974938394931E+00 -0.1723446252257E+00  0.1127334732430E-02
-0.1647405033605E+00 -0.1944091914320E+00 -0.1688003565525E+00  0.6517692633504E-03
-0.1612044463567E+00 -0.1917502588718E+00 -0.1658887114574E+00  0.1483728218705E-03
-0.1586109361425E+00 -0.1895921496125E+00 -0.1636554503049E+00 -0.3339237594779E-03
-0.1568435479852E+00 -0.1879002139755E+00 -0.1620295681215E+00 -0.7844688815522E-03
-0.1557102082732E+00 -0.1865540111911E+00 -0.1608641831482E+00 -0.1215653950547E-02
-0.1549730151840E+00 -0.1853672874958E+00 -0.1599599422595E+00 -0.1646215787345E-02
-0.1543476159536E+00 -0.1840921130456E+00 -0.1590666726296E+00 -0.2088844119996E-02
-0.1534803282393E+00 -0.1824059802871E+00 -0.1578665650074E+00 -0.2540518073670E-02
-0.1519072449679E+00 -0.1798846958359E+00 -0.1559422121778E+00 -0.2972789211093E-02
-0.1489955820024E+00 -0.1759651150129E+00 -0.1527315275972E+00 -0.3320920930455E-02
-0.1438687633142E+00 -0.1699062855390E+00 -0.1474742729610E+00 -0.3474155663867E-02
-0.1353328990925E+00 -0.1607754831067E+00 -0.1391709396336E+00 -0.3276073379718E-02
-0.1218633788111E+00 -0.1475164542049E+00 -0.1266085215175E+00 -0.2556268003486E-02
-0.1017625748434E+00 -0.1291539851777E+00 -0.1085307832099E+00 -0.1224638634233E-02
-0.7362481307802E-01 -0.1051239334266E+00 -0.8401191085715E-01  0.5643516861982E-03
-0.3737852325732E-01 -0.7579137594759E-01 -0.5318985262631E-01  0.2264103016044E-02
 0.4764058847424E-02 -0.4258204249789E-01 -0.1777445231572E-01  0.3141094574098E-02
 0.4905883868934E-01 -0.7552297658192E-02  0.1950807428464E-01  0.2950941142877E-02
-0.1799000095804E+00 -0.2043773859441E+00 -0.1806103758965E+00  0.1930828974195E-02
-0.1741621633736E+00 -0.2008485379472E+00 -0.1762550296208E+00  0.1718548319476E-02
-0.1687090954569E+00 -0.1972894731917E+00 -0.1720193272648E+00  0.1286771190007E-02
-0.1640668075731E+00 -0.1940333202676E+00 -0.1683070600851E+00  0.7361521947467E-03
-0.1604855961854E+00 -0.1913125538550E+00 -0.1653451305190E+00  0.1695981507681E-03
-0.1579637131945E+00 -0.1892127068672E+00 -0.1631729174290E+00 -0.3590636507398E-03
-0.1563548014548E+00 -0.1876917290650E+00 -0.1617018693443E+00 -0.8439055024148E-03
-0.1554507126465E+00 -0.1866213618284E+00 -0.1607738750032E+00 -0.1304291352772E-02
-0.1550157831983E+00 -0.1858166917856E+00 -0.1601912632424E+00 -0.1764971760830E-02
-0.1547841467047E+00 -0.1850418237552E+00 -0.1597182061162E+00 -0.2243449433798E-02
-0.1544334164897E+00 -0.1839936029030E+00 -0.1590606991146E+00 -0.2740828653997E-02
-0.1535392768787E+00 -0.1822673726660E+00 -0.1578291252860E+00 -0.3232113368099E-02
-0.1515080597478E+00 -0.1793070253271E+00 -0.1554830899852E+00 -0.3654107333325E-02
-0.1474828885004E+00 -0.1743440752668E+00 -0.1512586729706E+00 -0.3892160020635E-02
-0.1402312457500E+00 -0.1663484055650E+00 -0.1440924361180E+00 -0.3773024083171E-02
-0.1280702680537E+00 -0.1540602934911E+00 -0.1326013639260E+00 -0.3085774129972E-02
-0.1089357314454E+00 -0.1361727515399E+00 -0.1152009870031E+00 -0.1674472177714E-02
-0.8086667701254E-01 -0.1117564970264E+00 -0.9053289179831E-01  0.3551713893482E-03
-0.4309113027770E-01 -0.8081401228133E-01 -0.5823541700275E-01  0.2400322122028E-02
 0.1631487463388E-02 -0.4538073280569E-01 -0.2056214531088E-01  0.3425005690887E-02
 0.4887434828749E-01 -0.7498151538192E-02  0.1944681247217E-01  0.3153110849518E-02
-0.1801083767350E+00 -0.2047099511494E+00 -0.1808646141057E+00  0.2205528593455E-02
-0.1739485249142E+00 -0.2008888975034E+00 -0.1761735885363E+00  0.1953308366303E-02
-0.1681170912621E+00 -0.1970245692177E+00 -0.1716165804255E+00  0.1444363714883E-02
-0.1632560685740E+00 -0.1935508408782E+00 -0.1676992474425E+00  0.8134837382830E-03
-0.1596304538377E+00 -0.1907525004042E+00 -0.1646799884937E+00  0.1869284492535E-03
-0.1571984476726E+00 -0.1887189609862E+00 -0.1625811820696E+00 -0.3794214321279E-03
-0.1557719852863E+00 -0.1873907523782E+00 -0.1612864867023E+00 -0.8878852039435E-03
-0.1551223333110E+00 -0.1866257002868E+00 -0.1606215757910E+00 -0.1366601515695E-02
-0.1550164254600E+00 -0.1862393070795E+00 -0.1603901942936E+00 -0.1846862502056E-02
-0.1552098532694E+00 -0.1860107407250E+00 -0.1603736791774E+00 -0.2351276674500E-02
-0.1554166650210E+00 -0.1856625386440E+00 -0.1603072257226E+00 -0.2885905583358E-02
-0.1552603372741E+00 -0.1848195059190E+00 -0.1598375263008E+00 -0.3431153422839E-02
-0.1541993156797E+00 -0.1829466418469E+00 -0.1584586000375E+00 -0.3928949029564E-02
-0.1514160820835E+00 -0.1792653751147E+00 -0.1554202848831E+00 -0.4266414681612E-02
-0.1456669390720E+00 -0.1726637889604E+00 -0.1496154421753E+00 -0.4260551845862E-02
-0.1351282525360E+00 -0.1616671824210E+00 -0.1394938544298E+00 -0.3662619824965E-02
-0.1173520510474E+00 -0.1445773661701E+00 -0.1231068260922E+00 -0.2235346318215E-02
-0.8960700821312E-01 -0.1198948989016E+00 -0.9846589634393E-01  0.8694002242333E-05
-0.5037973949220E-01 -0.8727807287585E-01 -0.6469917181298E-01  0.2440757641867E-02
-0.1423145292075E-02 -0.4820126519006E-01 -0.2332347292660E-01  0.3732881958196E-02
 0.4632524011045E-01 -0.9634364837620E-02  0.1724471137823E-01  0.3124350651959E-02
-0.1803806411143E+00 -0.2051351152984E+00 -0.1811924055140E+00  0.2497305417425E-02
-0.1736954036773E+00 -0.2009395120593E+00 -0.1760784103962E+00  0.2196093062574E-02
-0.1673972120356E+00 -0.1966800635489E+00 -0.1711163195247E+00  0.1595876333218E-02
-0.1622826135403E+00 -0.1929323026462E+00 -0.1669510106076E+00  0.8789344400796E-03
-0.1586191720557E+00 -0.1900408120842E+00 -0.1638701925457E+00  0.1975728541392E-03
-0.1563010228900E+00 -0.1880855820975E+00 -0.1618617043441E+00 -0.3954308907030E-03
-0.1550835356470E+00 -0.1869745376538E+00 -0.1607672944513E+00 -0.9151864730829E-03
-0.1547130783892E+00 -0.1865440130642E+00 -0.1603908329831E+00 -0.1400226715314E-02
-0.1549603534654E+00 -0.1866093654250E+00 -0.1605377678785E+00 -0.1888435542627E-02
-0.1556058234417E+00 -0.1869686088087E+00 -0.1610099831577E+00 -0.2407406265210E-02
-0.1564053619896E+00 -0.1873773817479E+00 -0.1615778895566E+00 -0.2968649449899E-02
-0.1570390958917E+00 -0.1875019069883E+00 -0.1619342713536E+00 -0.3559670216144E-02
-0.1570321625617E+00 -0.1868460966887E+00 -0.1616227818477E+00 -0.4131081466963E-02
-0.1556305186208E+00 -0.1846464961137E+00 -0.1599301969252E+00 -0.4578115709012E-02
-0.1516166206595E+00 -0.1797389007391E+00 -0.1557370950573E+00 -0.4718083318028E-02
-0.1430758125010E+00 -0.1704505592440E+00 -0.1473573947202E+00 -0.4274211265932E-02
-0.1271637928741E+00 -0.1546180073393E+00 -0.1324374461003E+00 -0.2919044765630E-02
-0.1002728151499E+00 -0.1300196072554E+00 -0.1082374385305E+00 -0.5158529664571E-03
-0.5942667710097E-01 -0.9541234126397E-01 -0.7277433863152E-01  0.2339623487230E-02
-0.6216625768729E-02 -0.5254594189606E-01 -0.2761840680245E-01  0.4051875646238E-02
 0.4954801338163E-01 -0.7052318830237E-02  0.1997297643915E-01  0.2917148575528E-02
-0.1807483056043E+00 -0.2056936094047E+00 -0.1816277000543E+00  0.2808845422648E-02
-0.1733968587373E+00 -0.2010068052109E+00 -0.1759697220557E+00  0.2445001041542E-02
-0.1665199428763E+00 -0.1962309616807E+00 -0.1704929251418E+00  0.1734350511881E-02
-0.1611164869877E+00 -0.1921406323093E+00 -0.1660308460696E+00  0.9257880181423E-03
-0.1574314181336E+00 -0.1891439776450E+00 -0.1628904360159E+00  0.1982443756935E-03
-0.1552587661242E+00 -0.1872860089517E+00 -0.1609960442857E+00 -0.4073643983284E-03
-0.1542793560670E+00 -0.1864198541589E+00 -0.1601286288061E+00 -0.9243858514989E-03
-0.1542114777505E+00 -0.1863517852578E+00 -0.1600647336139E+00 -0.1402734462647E-02
-0.1548319013059E+00 -0.1868972294695E+00 -0.1606126914644E+00 -0.1886229992271E-02
-0.1559495282507E+00 -0.1878773323444E+00 -0.1615986244797E+00 -0.2406808265126E-02
-0.1573670942279E+00 -0.1890886579297E+00 -0.1628342035141E+00 -0.2981436959694E-02
-0.1588299861771E+00 -0.1902519607151E+00 -0.1640685150393E+00 -0.3605948348353E-02
-0.1599452922349E+00 -0.1909309045850E+00 -0.1649118125054E+00 -0.4242824599830E-02
-0.1600482275602E+00 -0.1904083440533E+00 -0.1647145886584E+00 -0.4801744976752E-02
-0.1579949573615E+00 -0.1875150652881E+00 -0.1623897106453E+00 -0.5112495962490E-02
-0.1518557102547E+00 -0.1804297932303E+00 -0.1561741866380E+00 -0.4889427524537E-02
-0.1384680046877E+00 -0.1665152141752E+00 -0.1433421128656E+00 -0.3720465115607E-02
-0.1131603407565E+00 -0.1425469931931E+00 -0.1201824469563E+00 -0.1265606863581E-02
-0.7111407980163E-01 -0.1060813851078E+00 -0.8328186850745E-01  0.2047602012199E-02
-0.1209600343719E-01 -0.5788312914918E-01 -0.3289019231560E-01  0.4263190888050E-02
 0.5316283620864E-01 -0.4423882863769E-02  0.2290730807209E-01  0.2853504544823E-02
-0.1812524305377E+00 -0.2064416132913E+00 -0.1822162005996E+00  0.3143173421324E-02
-0.1730394950167E+00 -0.2010953096964E+00 -0.1758433582152E+00  0.2695502972737E-02
-0.1654409187120E+00 -0.1956370281552E+00 -0.1697066350276E+00  0.1848716848228E-02
-0.1597197300877E+00 -0.1911258484346E+00 -0.1648974219055E+00  0.9451709942321E-03
-0.1560464756290E+00 -0.1880237199932E+00 -0.1617129919424E+00  0.1855377887850E-03
-0.1540618482004E+00 -0.1862941001972E+00 -0.1599672957469E+00 -0.4151184900743E-03
-0.1533524754528E+00 -0.1857050984256E+00 -0.1593570597229E+00 -0.9140433659568E-03
-0.1536085513572E+00 -0.1860253191977E+00 -0.1596279191608E+00 -0.1372179983928E-02
-0.1546167466730E+00 -0.1870719967284E+00 -0.1605937093987E+00 -0.1837736796302E-02
-0.1562178004918E+00 -0.1886938815570E+00 -0.1621084905629E+00 -0.2345783101484E-02
-0.1582653374014E+00 -0.1907358739779E+00 -0.1640305693483E+00 -0.2918137430729E-02
-0.1605773001698E+00 -0.1929863189456E+00 -0.1661749009843E+00 -0.3559424831368E-02
-0.1628571753405E+00 -0.1950910333179E+00 -0.1682356580694E+00 -0.4246363242952E-02
-0.1645549743455E+00 -0.1964145180932E+00 -0.1696556614462E+00 -0.4908435932741E-02
-0.1646474931513E+00 -0.1958400169512E+00 -0.1694291297482E+00 -0.5399899207737E-02
-0.1612980556496E+00 -0.1914975993904E+00 -0.1658139578688E+00 -0.5453076823832E-02
-0.1511817686022E+00 -0.1803415237147E+00 -0.1558159473890E+00 -0.4604635052324E-02
-0.1285772533621E+00 -0.1579687002358E+00 -0.1346765981910E+00 -0.2269659191412E-02
-0.8601086834987E-01 -0.1199363777444E+00 -0.9679520566429E-01  0.1462201197276E-02
-0.2028838384963E-01 -0.6544317972774E-01 -0.4029383488136E-01  0.4364632021713E-02
 0.5756250375850E-01 -0.1242626381617E-02  0.2647034236713E-01  0.2741001999604E-02
-0.1819594854443E+00 -0.2074693349637E+00 -0.1830315455918E+00  0.3503837378127E-02
-0.1726009912057E+00 -0.2012081813592E+00 -0.1756903111055E+00  0.2938880495543E-02
-0.1640956704362E+00 -0.1948353659927E+00 -0.1686975871216E+00  0.1922450444053E-02
-0.1580441169462E+00 -0.1898203787273E+00 -0.1634963129666E+00  0.9265966913596E-03
-0.1544422181950E+00 -0.1866360778533E+00 -0.1603067991427E+00  0.1569934870853E-03
-0.1527007068829E+00 -0.1850831868457E+00 -0.1587584300524E+00 -0.4176545317654E-03
-0.1522955022209E+00 -0.1848088767040E+00 -0.1584390580947E+00 -0.8825238097961E-03
-0.1528948562071E+00 -0.1855415160287E+00 -0.1590650949508E+00 -0.1307044460945E-02
-0.1543008470754E+00 -0.1871042468434E+00 -0.1604603941419E+00 -0.1741407534109E-02
-0.1563892061397E+00 -0.1893780274277E+00 -0.1625105997767E+00 -0.2222132472309E-02
-0.1590675002090E+00 -0.1922628573793E+00 -0.1651252680665E+00 -0.2774665967057E-02
-0.1622318809086E+00 -0.1956269297993E+00 -0.1681936410327E+00 -0.3411993387756E-02
-0.1656957649138E+00 -0.1992216269109E+00 -0.1715111741576E+00 -0.4126351164821E-02
-0.1690495216423E+00 -0.2025317639905E+00 -0.1746432042474E+00 -0.4871048136465E-02
-0.1714318123615E+00 -0.2045537056658E+00 -0.1767131934728E+00 -0.5533887403323E-02
-0.1712083185659E+00 -0.2034992684140E+00 -0.1761125658806E+00 -0.5893761340778E-02
-0.1651775491298E+00 -0.1961383531820E+00 -0.1698184740865E+00 -0.5500748057645E-02
-0.1467973860501E+00 -0.1768336834883E+00 -0.1521066026830E+00 -0.3541550845235E-02
-0.1052294934206E+00 -0.1382449366223E+00 -0.1144329821202E+00  0.4680416915465E-03
-0.3191486803733E-01 -0.7633275982819E-01 -0.5087638509680E-01  0.4274196071543E-02
 0.6180611586517E-01  0.1443235016169E-02  0.2972719491423E-01  0.2592233175305E-02
-0.1829760700975E+00 -0.2089223658215E+00 -0.1841922648819E+00  0.3894696077313E-02
-0.1720388563419E+00 -0.2013385597570E+00 -0.1754873855665E+00  0.3157996155929E-02
-0.1623865296857E+00 -0.1937216203132E+00 -0.1673708304994E+00  0.1930775100550E-02
-0.1560312014310E+00 -0.1881341408934E+00 -0.1617577108925E+00  0.8588872212889E-03
-0.1525998304095E+00 -0.1849354442869E+00 -0.1586415791073E+00  0.1124457875497E-03
-0.1511689669807E+00 -0.1836293966586E+00 -0.1573552309105E+00 -0.4125623080094E-03
-0.1511024965040E+00 -0.1837117670258E+00 -0.1573627038590E+00 -0.8279073905350E-03
-0.1520620139159E+00 -0.1848788115150E+00 -0.1583621879525E+00 -0.1206175116526E-02
-0.1538710981685E+00 -0.1869656167431E+00 -0.1601932560084E+00 -0.1596607622741E-02
-0.1564432796701E+00 -0.1898898602196E+00 -0.1627765757482E+00 -0.2035141088563E-02
-0.1597419069563E+00 -0.1936121788812E+00 -0.1660764203436E+00 -0.2549035414483E-02
-0.1637447401532E+00 -0.1980908938354E+00 -0.1700627479746E+00 -0.3158176224539E-02
-0.1683859755550E+00 -0.2032051411197E+00 -0.1746478248371E+00 -0.3870102194848E-02
-0.1734234755117E+00 -0.2086031224822E+00 -0.1795525010571E+00 -0.4664422677166E-02
-0.1781927996076E+00 -0.2134530075867E+00 -0.1840735293813E+00 -0.5467673173281E-02
-0.1813325599303E+00 -0.2161695271797E+00 -0.1868259809417E+00 -0.6123822162627E-02
-0.1801264070647E+00 -0.2137241290581E+00 -0.1851097519777E+00 -0.6283677658364E-02
-0.1679293673359E+00 -0.1996386785191E+00 -0.1727569815518E+00 -0.5031840649527E-02
-0.1301201746824E+00 -0.1626755351114E+00 -0.1376139836031E+00 -0.1082697532929E-02
-0.4911275963013E-01 -0.9267726126203E-01 -0.6664130981932E-01  0.3858961265424E-02
 0.6599500641937E-01  0.3561108828976E-02  0.3269137416672E-01  0.2357456529151E-02
-0.1844824555816E+00 -0.2110479300500E+00 -0.1858992812468E+00  0.4318991720157E-02
-0.1712658878761E+00 -0.2014469335909E+00 -0.1751750260895E+00  0.3318908207836E-02
-0.1601604402385E+00 -0.1921153458469E+00 -0.1655696194601E+00  0.1837699259340E-02
-0.1536169252546E+00 -0.1859532641968E+00 -0.1595979890422E+00  0.7335169617340E-03
-0.1505103248311E+00 -0.1828827909838E+00 -0.1566947644330E+00  0.5606631825247E-04
-0.1494638532674E+00 -0.1819137080129E+00 -0.1557474538017E+00 -0.3958568361582E-03
-0.1497690154750E+00 -0.1823970741138E+00 -0.1561180621067E+00 -0.7480049652472E-03
-0.1511030970659E+00 -0.1840181527200E+00 -0.1575069873994E+00 -0.1068818374548E-02
-0.1533156116463E+00 -0.1866296779698E+00 -0.1597742861196E+00 -0.1403713370253E-02
-0.1563610527049E+00 -0.1901910759071E+00 -0.1628795004477E+00 -0.1785773713223E-02
-0.1602587799336E+00 -0.1947271105368E+00 -0.1668433685211E+00 -0.2241801934314E-02
-0.1650686342490E+00 -0.2002931295706E+00 -0.1717200289952E+00 -0.2796039841981E-02
-0.1708526249797E+00 -0.2069148479219E+00 -0.1775507122638E+00 -0.3469265517471E-02
-0.1775606474733E+00 -0.2144472603749E+00 -0.1842437166887E+00 -0.4267515066231E-02
-0.1847727577334E+00 -0.2223026502623E+00 -0.1913254417580E+00 -0.5159451468808E-02
-0.1914001954753E+00 -0.2291549432693E+00 -0.1976609152100E+00 -0.6054220536550E-02
-0.1954623026611E+00 -0.2325825325971E+00 -0.2011810725714E+00 -0.6768309473722E-02
-0.1915943992684E+00 -0.2264839460320E+00 -0.1964968222912E+00 -0.6564293861237E-02
-0.1622837138343E+00 -0.1954495369157E+00 -0.1681346278525E+00 -0.3327914877206E-02
-0.7537245008655E-01 -0.1180303475133E+00 -0.9089931487191E-01  0.2846260539755E-02
 0.6996510669370E-01  0.4611072494198E-02  0.3505080421831E-01  0.1951470823084E-02
-0.1868110244965E+00 -0.2143002869580E+00 -0.1885223163836E+00  0.4775577135560E-02
-0.1700851095153E+00 -0.2013918926789E+00 -0.1745941910313E+00  0.3352608888097E-02
-0.1571712338037E+00 -0.1896950464733E+00 -0.1630271517302E+00  0.1595099043384E-02
-0.1507542891883E+00 -0.1831589136987E+00 -0.1569392053569E+00  0.5526528992803E-03
-0.1481826075876E+00 -0.1804594200553E+00 -0.1544617529922E+00 -0.1878797922596E-05
-0.1475834885836E+00 -0.1799208601412E+00 -0.1539270439006E+00 -0.3623739164637E-03
-0.1482928952208E+00 -0.1808522896650E+00 -0.1546982368964E+00 -0.6403228511680E-03
-0.1500128950998E+00 -0.1829439435291E+00 -0.1564897141556E+00 -0.8946790991284E-03
-0.1526239432362E+00 -0.1860727754997E+00 -0.1591874578059E+00 -0.1164187731814E-02
-0.1561253645349E+00 -0.1902461576805E+00 -0.1627946154413E+00 -0.1476768946744E-02
-0.1605914595202E+00 -0.1955541849610E+00 -0.1673884529062E+00 -0.1856418976064E-02
-0.1661594032551E+00 -0.2021493818524E+00 -0.1731051290005E+00 -0.2327989519416E-02
-0.1730238541665E+00 -0.2102201838726E+00 -0.1801246978784E+00 -0.2921605364246E-02
-0.1813415198498E+00 -0.2198628184137E+00 -0.1885660389839E+00 -0.3666176453941E-02
-0.1909961480461E+00 -0.2308247217963E+00 -0.1982558088259E+00 -0.4574336280455E-02
-0.2012038345964E+00 -0.2421006309440E+00 -0.2083530988040E+00 -0.5616374282321E-02
-0.2104885120312E+00 -0.2518625541526E+00 -0.2173050011064E+00 -0.6743724210486E-02
-0.2164340703417E+00 -0.2564269263315E+00 -0.2222446684364E+00 -0.7744788734843E-02
-0.2029970650115E+00 -0.2389748390493E+00 -0.2077267949086E+00 -0.6262938832531E-02
-0.1169113703519E+00 -0.1589652918501E+00 -0.1296620312349E+00  0.7350208212970E-03
 0.7267614078635E-01  0.2836510186149E-02  0.3549094595707E-01  0.1173926519114E-02
-0.1906688772767E+00 -0.2196266004605E+00 -0.1928388745365E+00  0.5243723541987E-02
-0.1679812401038E+00 -0.2006872485706E+00 -0.1732741896769E+00  0.3113360563261E-02
-0.1530357932653E+00 -0.1858985290831E+00 -0.1592991315037E+00  0.1155000878818E-02
-0.1474913268513E+00 -0.1797178434257E+00 -0.1537883100302E+00  0.3446315057853E-03
-0.1456330813881E+00 -0.1776661240148E+00 -0.1519506265394E+00 -0.4713783212785E-04
-0.1455231689911E+00 -0.1776354173429E+00 -0.1518845355770E+00 -0.3062383738129E-03
-0.1466775222550E+00 -0.1790735878673E+00 -0.1531030217574E+00 -0.5018867599580E-03
-0.1487867762372E+00 -0.1816434738411E+00 -0.1553022175368E+00 -0.6841245240689E-03
-0.1517877616163E+00 -0.1852753170240E+00 -0.1584196469609E+00 -0.8805733957632E-03
-0.1557211596558E+00 -0.1900235311733E+00 -0.1625000046897E+00 -0.1112668267392E-02
-0.1607162435024E+00 -0.1960447023385E+00 -0.1676776445453E+00 -0.1399260941534E-02
-0.1669809565068E+00 -0.2035836327907E+00 -0.1741653569698E+00 -0.1761689490436E-02
-0.1748269471472E+00 -0.2129853472194E+00 -0.1822717783523E+00 -0.2231977960282E-02
-0.1846633624949E+00 -0.2246518650715E+00 -0.1923781569562E+00 -0.2857744278552E-02
-0.1966476971737E+00 -0.2386721098235E+00 -0.2046003092887E+00 -0.3684791550007E-02
-0.2105543464862E+00 -0.2546525984150E+00 -0.2186472641035E+00 -0.4765369402991E-02
-0.2249060342665E+00 -0.2708685834111E+00 -0.2330140703085E+00 -0.6080240373511E-02
-0.2396783134012E+00 -0.2866054141545E+00 -0.2473533519512E+00 -0.7930695068831E-02
-0.2510733015915E+00 -0.2938355974607E+00 -0.2561071825546E+00 -0.9357183428662E-02
-0.1851506814479E+00 -0.2281189997939E+00 -0.1942367501836E+00 -0.3254688935566E-02
 0.7004589530622E-01 -0.7669774573220E-02  0.2931677674451E-01 -0.5641360920566E-03
-0.1979635696163E+00 -0.2294644537538E+00 -0.2008911709840E+00  0.5613252792892E-02
-0.1632393617928E+00 -0.1974361672698E+00 -0.1695174986594E+00  0.2281881283526E-02
-0.1474173676070E+00 -0.1800283598089E+00 -0.1538994918855E+00  0.5424714988878E-03
-0.1441331291749E+00 -0.1759143913943E+00 -0.1504223346675E+00  0.1754049898071E-03
-0.1427746707304E+00 -0.1744065354747E+00 -0.1490751669164E+00 -0.7323730884726E-04
-0.1433190875029E+00 -0.1750873398937E+00 -0.1496510208764E+00 -0.2171244352944E-03
-0.1449176710911E+00 -0.1770529251765E+00 -0.1513261802458E+00 -0.3307211764755E-03
-0.1474250069531E+00 -0.1801115466777E+00 -0.1539421802065E+00 -0.4379301147876E-03
-0.1507999835982E+00 -0.1842215711371E+00 -0.1574601307256E+00 -0.5565904331794E-03
-0.1551357939042E+00 -0.1894966662733E+00 -0.1619772562834E+00 -0.6997075705349E-03
-0.1606132382396E+00 -0.1961570069384E+00 -0.1676820152337E+00 -0.8794404116626E-03
-0.1675026065531E+00 -0.2045295467774E+00 -0.1748551120654E+00 -0.1109939387325E-02
-0.1762127556134E+00 -0.2150963935012E+00 -0.1839153000839E+00 -0.1415589769181E-02
-0.1873786904121E+00 -0.2285650984732E+00 -0.1954935807761E+00 -0.1848431944435E-02
-0.2016608322337E+00 -0.2456163252687E+00 -0.2102202640261E+00 -0.2491389822645E-02
-0.2188339584270E+00 -0.2660049587305E+00 -0.2278742910640E+00 -0.3434072363824E-02
-0.2393650318602E+00 -0.2898892152339E+00 -0.2487494961343E+00 -0.4827731575272E-02
-0.2591081997128E+00 -0.3134956959727E+00 -0.2691238309722E+00 -0.6594945447470E-02
-0.2960850092158E+00 -0.3512619663254E+00 -0.3042530785043E+00 -0.1075596535980E-01
-0.2995721498899E+00 -0.3482635929533E+00 -0.3044827991363E+00 -0.9653086786155E-02
 0.4617082554484E-01 -0.4876572981025E-01 -0.1219605004744E-02 -0.5220203961388E-02
-0.2162368174596E+00 -0.2527653199831E+00 -0.2204310045981E+00  0.5265248946953E-02
-0.1474934744718E+00 -0.1817756569884E+00 -0.1547564917863E+00  0.1893705730384E-03
-0.1434822832433E+00 -0.1750514570837E+00 -0.1497108579537E+00  0.1832160230206E-03
-0.1398935273847E+00 -0.1710248573295E+00 -0.1461316408156E+00  0.1508326547557E-04
-0.1398312858963E+00 -0.1708828988032E+00 -0.1460356668087E+00 -0.4669044630948E-04
-0.1409322355149E+00 -0.1722461381244E+00 -0.1471938356104E+00 -0.9007303702107E-04
-0.1430301737388E+00 -0.1748064718089E+00 -0.1493832234074E+00 -0.1239724152576E-03
-0.1459250456027E+00 -0.1783440270654E+00 -0.1524064641540E+00 -0.1578827668501E-03
-0.1496568075601E+00 -0.1829020074445E+00 -0.1563026430521E+00 -0.1969905837657E-03
-0.1543593160044E+00 -0.1886450574570E+00 -0.1612120555268E+00 -0.2457284139942E-03
-0.1602647719660E+00 -0.1958561500499E+00 -0.1673768333475E+00 -0.3083127224576E-03
-0.1677031964117E+00 -0.2049375745338E+00 -0.1751411623444E+00 -0.3898281089436E-03
-0.1771415809850E+00 -0.2164592551823E+00 -0.1849923929986E+00 -0.4985989108116E-03
-0.1894114070242E+00 -0.2314060744207E+00 -0.1977842162791E+00 -0.6641928969271E-03
-0.2056700613225E+00 -0.2511480612156E+00 -0.2147045175929E+00 -0.9934663439486E-03
-0.2265403494668E+00 -0.2763332024798E+00 -0.2363505694149E+00 -0.1653132414790E-02
-0.2507173506653E+00 -0.3057557728334E+00 -0.2615423680444E+00 -0.2793693390167E-02
-0.2842487822597E+00 -0.3447035912047E+00 -0.2956076155282E+00 -0.4517948170511E-02
-0.3078374750996E+00 -0.3790138663495E+00 -0.3228201304811E+00 -0.7180602522146E-02
-0.4729597381370E+00 -0.5365011849522E+00 -0.4744466338519E+00 -0.1466867617641E-01
-0.6343469939481E-01 -0.2120649730638E+00 -0.1294848460555E+00 -0.1958665827179E-01
-0.1523618815866E+01 -0.2806776606124E+01 -0.2035285848335E+01 -0.8046424940645E+00
-0.9871756650516E+00 -0.2985966540399E+01 -0.1867376836562E+01 -0.5066562081097E+00
-0.5403324064373E+00 -0.3031153745510E+01 -0.1678598491415E+01 -0.3277571325996E+00
-0.1999487689638E+00 -0.3009340697783E+01 -0.1508366049371E+01 -0.2263185822227E+00
 0.4585846741732E-01 -0.2933495835576E+01 -0.1357189563034E+01 -0.1855859437403E+00
 0.1951768704832E+00 -0.2842494640674E+01 -0.1244239351990E+01 -0.1990393706194E+00
 0.2661057981714E+00 -0.2757343403201E+01 -0.1170881674364E+01 -0.2578317893851E+00
 0.2748010926144E+00 -0.2680581989160E+01 -0.1130717021376E+01 -0.3498849448647E+00
 0.2131187542122E+00 -0.2617237337551E+01 -0.1129935734169E+01 -0.4618131944258E+00
 0.7066986313240E-01 -0.2592781712310E+01 -0.1185392569114E+01 -0.5769856312954E+00
-0.1630775479427E+01 -0.2848958721607E+01 -0.2105475074486E+01 -0.7246145906570E+00
-0.1023875112734E+01 -0.2998074246284E+01 -0.1890316198739E+01 -0.4597624141691E+00
-0.5624227670479E+00 -0.3073815519465E+01 -0.1709031994661E+01 -0.3080145481577E+00
-0.2007817529556E+00 -0.3080478466846E+01 -0.1542192303307E+01 -0.2230483781264E+00
 0.5706580428416E-01 -0.3042682808067E+01 -0.1403239991778E+01 -0.1908397031846E+00
 0.2200642748990E+00 -0.2983421065179E+01 -0.1298777691431E+01 -0.2076846659337E+00
 0.3028053929149E+00 -0.2926679253616E+01 -0.1233220714530E+01 -0.2690349373323E+00
 0.3142095711892E+00 -0.2883007430849E+01 -0.1207334994040E+01 -0.3638237657018E+00
 0.2416629945647E+00 -0.2854385231644E+01 -0.1227979451427E+01 -0.4813229591140E+00
 0.1033678645319E+00 -0.2816601961321E+01 -0.1275220025491E+01 -0.6241078137071E+00
-0.1707097197741E+01 -0.2865626731614E+01 -0.2149180246797E+01 -0.6464635881290E+00
-0.1066245289414E+01 -0.3027779138764E+01 -0.1924191481244E+01 -0.4132050731794E+00
-0.5768124863566E+00 -0.3115638803090E+01 -0.1735452106040E+01 -0.2821156237044E+00
-0.2009238201722E+00 -0.3148853343955E+01 -0.1574395267140E+01 -0.2117799328386E+00
 0.7049371940305E-01 -0.3140310292220E+01 -0.1442813789224E+01 -0.1877838643588E+00
 0.2456655686302E+00 -0.3111974010530E+01 -0.1347164967693E+01 -0.2081604577525E+00
 0.3385218026794E+00 -0.3085990970780E+01 -0.1291310509007E+01 -0.2704580093076E+00
 0.3552313379511E+00 -0.3074383926221E+01 -0.1278001716487E+01 -0.3670088877562E+00
 0.2928112791850E+00 -0.3072697826339E+01 -0.1306546677163E+01 -0.4935014583220E+00
 0.1584870911945E+00 -0.3068142664361E+01 -0.1367538119388E+01 -0.6562703783387E+00
-0.1772983847085E+01 -0.2879893511132E+01 -0.2186852358362E+01 -0.5663159411373E+00
-0.1101553437887E+01 -0.3056065841901E+01 -0.1954081061500E+01 -0.3644429221189E+00
-0.5896838368798E+00 -0.3158706180648E+01 -0.1761743308238E+01 -0.2521741241788E+00
-0.1986538717528E+00 -0.3211249486222E+01 -0.1602654578248E+01 -0.1942835998194E+00
 0.8449484292425E-01 -0.3228010643985E+01 -0.1477452426499E+01 -0.1774870413147E+00
 0.2711072401915E+00 -0.3227792881820E+01 -0.1389642251566E+01 -0.2003109122895E+00
 0.3742860722517E+00 -0.3231647239720E+01 -0.1342959748710E+01 -0.2620913215730E+00
 0.4018272199642E+00 -0.3250867405521E+01 -0.1339048887212E+01 -0.3588726244663E+00
 0.3524568102477E+00 -0.3285461430429E+01 -0.1378512171485E+01 -0.4903492670510E+00
 0.2263398471839E+00 -0.3330981779391E+01 -0.1459181708137E+01 -0.6643219412287E+00
-0.1829471398436E+01 -0.2892868968398E+01 -0.2219499972412E+01 -0.4839259676520E+00
-0.1131157893341E+01 -0.3082588334053E+01 -0.1980460726875E+01 -0.3130940789713E+00
-0.5997232598120E+00 -0.3198520487919E+01 -0.1785174561433E+01 -0.2188635174214E+00
-0.1953984162008E+00 -0.3267362109213E+01 -0.1627497446944E+01 -0.1719673224244E+00
 0.9857595322461E-01 -0.3305157032190E+01 -0.1507093107114E+01 -0.1609073888094E+00
 0.2957403693366E+00 -0.3329964278170E+01 -0.1426085237152E+01 -0.1846619473644E+00
 0.4101579811549E+00 -0.3361373757994E+01 -0.1387071415114E+01 -0.2438914836445E+00
 0.4504154588547E+00 -0.3412175548613E+01 -0.1392027242186E+01 -0.3373525283017E+00
 0.4162330742925E+00 -0.3487458121989E+01 -0.1443475772417E+01 -0.4672447127781E+00
 0.3043420151568E+00 -0.3589729344795E+01 -0.1544132044930E+01 -0.6425668060835E+00
-0.1876967519083E+01 -0.2904684132672E+01 -0.2247376276325E+01 -0.3993341763207E+00
-0.1155319536598E+01 -0.3106218366336E+01 -0.2002922814379E+01 -0.2593965873911E+00
-0.6073284551323E+00 -0.3233530281793E+01 -0.1805203606355E+01 -0.1827557881553E+00
-0.1915661530175E+00 -0.3315819925393E+01 -0.1648471456853E+01 -0.1457818564895E+00
 0.1119085559912E+00 -0.3371102425211E+01 -0.1531821118533E+01 -0.1390263166912E+00
 0.3188539497492E+00 -0.3417330802771E+01 -0.1456284120920E+01 -0.1619275310515E+00
 0.4443605786983E+00 -0.3473710565570E+01 -0.1423794493830E+01 -0.2159339150721E+00
 0.4978611535842E+00 -0.3555015998664E+01 -0.1436862777188E+01 -0.3015034876190E+00
 0.4800923049887E+00 -0.3671249476424E+01 -0.1499843870575E+01 -0.4222804575365E+00
 0.3863104764159E+00 -0.3831771578020E+01 -0.1619366717754E+01 -0.5878598461238E+00
-0.1915352648188E+01 -0.2914903941165E+01 -0.2270220596996E+01 -0.3127835662970E+00
-0.1174339280332E+01 -0.3126147111031E+01 -0.2021228603940E+01 -0.2037506295748E+00
-0.6128553469165E+00 -0.3262635867214E+01 -0.1821480870641E+01 -0.1444043591461E+00
-0.1876989746679E+00 -0.3355664055630E+01 -0.1665380624240E+01 -0.1165175210253E+00
 0.1237913152970E+00 -0.3424987533832E+01 -0.1551562222712E+01 -0.1127741751767E+00
 0.3392883656420E+00 -0.3488896797889E+01 -0.1480315963156E+01 -0.1329757012850E+00
 0.4749099539396E+00 -0.3566759772188E+01 -0.1453169414577E+01 -0.1788531775380E+00
 0.5409670606958E+00 -0.3675420534431E+01 -0.1473193132656E+01 -0.2517086050547E+00
 0.5393408551871E+00 -0.3829338715721E+01 -0.1546298994451E+01 -0.3556461502954E+00
 0.4651296729054E+00 -0.4044414078082E+01 -0.1682263670433E+01 -0.4999533105690E+00
-0.1944408372528E+01 -0.2923049954063E+01 -0.2287705413498E+01 -0.2246210848558E+00
-0.1188428137120E+01 -0.3141697190674E+01 -0.2035158904063E+01 -0.1465978527801E+00
-0.6166576171890E+00 -0.3285080303047E+01 -0.1833816822511E+01 -0.1043421139124E+00
-0.1842856180825E+00 -0.3386153730972E+01 -0.1678106494056E+01 -0.8489536605213E-01
 0.1334902323169E+00 -0.3466089910327E+01 -0.1566321848665E+01 -0.8307002751688E-01
 0.3558695488114E+00 -0.3543649298861E+01 -0.1498256482523E+01 -0.9888025175308E-01
 0.4998579064174E+00 -0.3638593340215E+01 -0.1475205653885E+01 -0.1339047579853E+00
 0.5765760550604E+00 -0.3769595457557E+01 -0.1500719119174E+01 -0.1895867482021E+00
 0.5891340837206E+00 -0.3954720915408E+01 -0.1581825810893E+01 -0.2695567187393E+00
 0.5331430867371E+00 -0.4215683190926E+01 -0.1730793848969E+01 -0.3816006735133E+00
-0.1963917274531E+01 -0.2928717143306E+01 -0.2299538176383E+01 -0.1352629125991E+00
-0.1197738671997E+01 -0.3152353483588E+01 -0.2044543313125E+01 -0.8838030128478E-01
-0.6190219555095E+00 -0.3300328675386E+01 -0.1842094796521E+01 -0.6307912321683E-01
-0.1817493764499E+00 -0.3406763546943E+01 -0.1686601073995E+01 -0.5160271682294E-01
 0.1403600514238E+00 -0.3493830108999E+01 -0.1576130927060E+01 -0.5085895230249E-01
 0.3675660335621E+00 -0.3580701692857E+01 -0.1510173759869E+01 -0.6092689592180E-01
 0.5175208184066E+00 -0.3687528768985E+01 -0.1489903736772E+01 -0.8289627710356E-01
 0.6019602280790E+00 -0.3834331827383E+01 -0.1519214651673E+01 -0.1178356771648E+00
 0.6249607435447E+00 -0.4041704478385E+01 -0.1605869555375E+01 -0.1681765295944E+00
 0.5835630205789E+00 -0.4335128950957E+01 -0.1763235987278E+01 -0.2390869029340E+00
-0.1973715284921E+01 -0.2931622778494E+01 -0.2305508889805E+01 -0.4517018535262E-01
-0.1202369555834E+01 -0.3157768784776E+01 -0.2049265020087E+01 -0.2953001940730E-01
-0.6201515333919E+00 -0.3308037270957E+01 -0.1846248738044E+01 -0.2110487314207E-01
-0.1803996289895E+00 -0.3417152561193E+01 -0.1690849529386E+01 -0.1731167098948E-01
 0.1439221270443E+00 -0.3507804063468E+01 -0.1581024510119E+01 -0.1712358901641E-01
 0.3736160153130E+00 -0.3599400777470E+01 -0.1516118838214E+01 -0.2057955912511E-01
 0.5266744140458E+00 -0.3712324727928E+01 -0.1497255647524E+01 -0.2806722964478E-01
 0.6151487808649E+00 -0.3867316036929E+01 -0.1528518610350E+01 -0.3997555105841E-01
 0.6436581693282E+00 -0.4086229326889E+01 -0.1618008444053E+01 -0.5715277080879E-01
 0.6105782028973E+00 -0.4396208528764E+01 -0.1779246253157E+01 -0.8142335937461E-01
-0.1973715284043E+01 -0.2931622778197E+01 -0.2305508889253E+01  0.4517019876406E-01
-0.1202369555502E+01 -0.3157768784359E+01 -0.2049265019735E+01  0.2953002528029E-01
-0.6201515333420E+00 -0.3308037270537E+01 -0.1846248737823E+01  0.2110487543414E-01
-0.1803996290451E+00 -0.3417152560847E+01 -0.1690849529249E+01  0.1731167161577E-01
 0.1439221269678E+00 -0.3507804063226E+01 -0.1581024510041E+01  0.1712358877303E-01
 0.3736160152431E+00 -0.3599400777314E+01 -0.1516118838173E+01  0.2057955832120E-01
 0.5266744139819E+00 -0.3712324727820E+01 -0.1497255647504E+01  0.2806722850418E-01
 0.6151487808142E+00 -0.3867316036838E+01 -0.1528518610331E+01  0.3997554983634E-01
 0.6436581693664E+00 -0.4086229326797E+01 -0.1618008443992E+01  0.5715276966847E-01
 0.6105782033089E+00 -0.4396208528686E+01 -0.1779246252927E+01  0.8142335801379E-01
-0.1963917271906E+01 -0.2928717142427E+01 -0.2299538174737E+01  0.1352629259323E+00
-0.1197738671001E+01 -0.3152353482352E+01 -0.2044543312076E+01  0.8838030710109E-01
-0.6190219553566E+00 -0.3300328674133E+01 -0.1842094795860E+01  0.6307912546867E-01
-0.1817493766133E+00 -0.3406763545910E+01 -0.1686601073586E+01  0.5160271741931E-01
 0.1403600511988E+00 -0.3493830108276E+01 -0.1576130926826E+01  0.5085895203537E-01
 0.3675660333576E+00 -0.3580701692393E+01 -0.1510173759747E+01  0.6092689509719E-01
 0.5175208182197E+00 -0.3687528768670E+01 -0.1489903736712E+01  0.8289627594100E-01
 0.6019602279297E+00 -0.3834331827125E+01 -0.1519214651622E+01  0.1178356759178E+00
 0.6249607436425E+00 -0.4041704478144E+01 -0.1605869555216E+01  0.1681765284405E+00
 0.5835630216856E+00 -0.4335128950824E+01 -0.1763235986695E+01  0.2390869016560E+00
-0.1944408368181E+01 -0.2923049952642E+01 -0.2287705410787E+01  0.2246210980354E+00
-0.1188428135456E+01 -0.3141697188657E+01 -0.2035158902333E+01  0.1465978584821E+00
-0.6166576169244E+00 -0.3285080300989E+01 -0.1833816821419E+01  0.1043421160829E+00
-0.1842856183441E+00 -0.3386153729270E+01 -0.1678106493378E+01  0.8489536658886E-01
 0.1334902319557E+00 -0.3466089909135E+01 -0.1566321848274E+01  0.8307002720380E-01
 0.3558695484878E+00 -0.3543649298102E+01 -0.1498256482319E+01  0.9888025089008E-01
 0.4998579061213E+00 -0.3638593339715E+01 -0.1475205653789E+01  0.1339047567843E+00
 0.5765760548107E+00 -0.3769595457172E+01 -0.1500719119110E+01  0.1895867469169E+00
 0.5891340838244E+00 -0.3954720915099E+01 -0.1581825810699E+01  0.2695567175904E+00
 0.5331430882166E+00 -0.4215683190955E+01 -0.1730793848287E+01  0.3816006724505E+00
-0.1915352642158E+01 -0.2914903939264E+01 -0.2270220593268E+01  0.3127835792537E+00
-0.1174339277993E+01 -0.3126147108298E+01 -0.2021228601557E+01  0.2037506351032E+00
-0.6128553465263E+00 -0.3262635864398E+01 -0.1821480869135E+01  0.1444043611925E+00
-0.1876989750127E+00 -0.3355664053289E+01 -0.1665380623302E+01  0.1165175214727E+00
 0.1237913148190E+00 -0.3424987532191E+01 -0.1551562222165E+01  0.1127741747979E+00
 0.3392883652230E+00 -0.3488896796852E+01 -0.1480315962866E+01  0.1329757003714E+00
 0.4749099535532E+00 -0.3566759771532E+01 -0.1453169414450E+01  0.1788531762919E+00
 0.5409670603327E+00 -0.3675420533976E+01 -0.1473193132613E+01  0.2517086037350E+00
 0.5393408551770E+00 -0.3829338715449E+01 -0.1546298994328E+01  0.3556461491980E+00
 0.4651296744062E+00 -0.4044414078395E+01 -0.1682263669875E+01  0.4999533098908E+00
-0.1876967511418E+01 -0.2904684130375E+01 -0.2247376271643E+01  0.3993341889943E+00
-0.1155319533574E+01 -0.3106218362977E+01 -0.2002922811379E+01  0.2593965926849E+00
-0.6073284545988E+00 -0.3233530278288E+01 -0.1805203604457E+01  0.1827557900325E+00
-0.1915661534270E+00 -0.3315819922455E+01 -0.1648471455665E+01  0.1457818568174E+00
 0.1119085554206E+00 -0.3371102423142E+01 -0.1531821117829E+01  0.1390263162290E+00
 0.3188539492644E+00 -0.3417330801472E+01 -0.1456284120538E+01  0.1619275300815E+00
 0.4443605782435E+00 -0.3473710564785E+01 -0.1423794493674E+01  0.2159339137866E+00
 0.4978611530852E+00 -0.3555015998195E+01 -0.1436862777202E+01  0.3015034862842E+00
 0.4800923047151E+00 -0.3671249476274E+01 -0.1499843870633E+01  0.4222804565349E+00
 0.3863104775789E+00 -0.3831771578659E+01 -0.1619366717508E+01  0.5878598459150E+00
-0.1829471389184E+01 -0.2892868965803E+01 -0.2219499966844E+01  0.4839259799951E+00
-0.1131157889616E+01 -0.3082588330179E+01 -0.1980460723304E+01  0.3130940839689E+00
-0.5997232591155E+00 -0.3198520483813E+01 -0.1785174559176E+01  0.2188635190827E+00
-0.1953984166547E+00 -0.3267362105737E+01 -0.1627497445524E+01  0.1719673226004E+00
 0.9857595258776E-01 -0.3305157029722E+01 -0.1507093106253E+01  0.1609073882458E+00
 0.2957403688188E+00 -0.3329964276615E+01 -0.1426085236664E+01  0.1846619463375E+00
 0.4101579806557E+00 -0.3361373757089E+01 -0.1387071414924E+01  0.2438914823374E+00
 0.4504154581994E+00 -0.3412175548162E+01 -0.1392027242283E+01  0.3373525269848E+00
 0.4162330736240E+00 -0.3487458122006E+01 -0.1443475772740E+01  0.4672447119139E+00
 0.3043420156273E+00 -0.3589729345801E+01 -0.1544132045182E+01  0.6425668063942E+00
-0.1772983836282E+01 -0.2879893508336E+01 -0.2186852351971E+01  0.5663159531198E+00
-0.1101553433441E+01 -0.3056065837637E+01 -0.1954081057406E+01  0.3644429267632E+00
-0.5896838360014E+00 -0.3158706176064E+01 -0.1761743305671E+01  0.2521741255781E+00
-0.1986538722327E+00 -0.3211249482295E+01 -0.1602654576628E+01  0.1942835998056E+00
 0.8449484224873E-01 -0.3228010641144E+01 -0.1477452425481E+01  0.1774870406258E+00
 0.2711072396709E+00 -0.3227792879998E+01 -0.1389642250954E+01  0.2003109112051E+00
 0.3742860717397E+00 -0.3231647238666E+01 -0.1342959748456E+01  0.2620913202729E+00
 0.4018272191425E+00 -0.3250867405084E+01 -0.1339048887393E+01  0.3588726232136E+00
 0.3524568090696E+00 -0.3285461430626E+01 -0.1378512172132E+01  0.4903492663658E+00
 0.2263398466730E+00 -0.3330981780762E+01 -0.1459181709022E+01  0.6643219420856E+00
-0.1707097185371E+01 -0.2865626728661E+01 -0.2149180239595E+01  0.6464635997460E+00
-0.1066245284224E+01 -0.3027779134249E+01 -0.1924191476682E+01  0.4132050774309E+00
-0.5768124852787E+00 -0.3115638798195E+01 -0.1735452103232E+01  0.2821156248023E+00
-0.2009238206628E+00 -0.3148853339702E+01 -0.1574395265372E+01  0.2117799325863E+00
 0.7049371870586E-01 -0.3140310289039E+01 -0.1442813788057E+01  0.1877838635014E+00
 0.2456655681497E+00 -0.3111974008373E+01 -0.1347164966905E+01  0.2081604566045E+00
 0.3385218021651E+00 -0.3085990969519E+01 -0.1291310508656E+01  0.2704580080486E+00
 0.3552313369963E+00 -0.3074383925704E+01 -0.1278001716693E+01  0.3670088866313E+00
 0.2928112774017E+00 -0.3072697826704E+01 -0.1306546678172E+01  0.4935014578655E+00
 0.1584870894733E+00 -0.3068142666084E+01 -0.1367538121007E+01  0.6562703797367E+00
-0.1630775465382E+01 -0.2848958718410E+01 -0.2105475066382E+01  0.7246146019380E+00
-0.1023875106740E+01 -0.2998074241605E+01 -0.1890316193722E+01  0.4597624180436E+00
-0.5624227658198E+00 -0.3073815514585E+01 -0.1709031991790E+01  0.3080145489364E+00
-0.2007817533975E+00 -0.3080478462417E+01 -0.1542192301433E+01  0.2230483775603E+00
 0.5706580356872E-01 -0.3042682804597E+01 -0.1403239990483E+01  0.1908397020817E+00
 0.2200642744284E+00 -0.2983421062616E+01 -0.1298777690448E+01  0.2076846646822E+00
 0.3028053925523E+00 -0.2926679251849E+01 -0.1233220713869E+01  0.2690349361742E+00
 0.3142095699571E+00 -0.2883007430320E+01 -0.1207334994371E+01  0.3638237647779E+00
 0.2416629923111E+00 -0.2854385231873E+01 -0.1227979452594E+01  0.4813229589534E+00
 0.1033678614247E+00 -0.2816601963472E+01 -0.1275220027962E+01  0.6241078156616E+00
-0.1523618798988E+01 -0.2806776601174E+01 -0.2035285838076E+01  0.8046425052443E+00
-0.9871756589250E+00 -0.2985966536466E+01 -0.1867376831834E+01  0.5066562118325E+00
-0.5403324047381E+00 -0.3031153740773E+01 -0.1678598488390E+01  0.3277571330264E+00
-0.1999487693825E+00 -0.3009340693525E+01 -0.1508366047567E+01  0.2263185812439E+00
 0.4585846666318E-01 -0.2933495831897E+01 -0.1357189561660E+01  0.1855859422399E+00
 0.1951768700390E+00 -0.2842494637482E+01 -0.1244239350698E+01  0.1990393691733E+00
 0.2661057977496E+00 -0.2757343400771E+01 -0.1170881673420E+01  0.2578317883456E+00
 0.2748010919348E+00 -0.2680581987612E+01 -0.1130717020968E+01  0.3498849444069E+00
 0.2131187501865E+00 -0.2617237339101E+01 -0.1129935736790E+01  0.4618131944963E+00
 0.7066986033586E-01 -0.2592781713022E+01 -0.1185392570762E+01  0.5769856336531E+00
-0.2845476054840E+01 -0.5630930963876E+01 -0.3983911298796E+01 -0.6969756515846E+00
 0.2961413469905E+00 -0.1761967975569E+01 -0.6889385154317E+00  0.4248173338362E+00
-0.1289413498241E+00 -0.1342540481648E+01 -0.6915964607921E+00  0.3105527986391E+00
-0.1233503586969E+00 -0.7841563477330E+00 -0.4265281520221E+00  0.1425448131804E+00
-0.1296929542377E+00 -0.2911798333993E+00 -0.1978102101894E+00  0.9564188242170E-02
 0.1182582105988E+00  0.2390680261581E+00  0.1679433312757E+00 -0.2564300898892E-01
 0.1241355796908E+00  0.3645811945254E+00  0.2296968838816E+00 -0.3364892100238E-01
 0.1106994358005E+00  0.3790378502116E+00  0.2301765244257E+00  0.4739446469686E-02
 0.9058563348218E-01  0.2900524671945E+00  0.1788999073180E+00  0.6862828474206E-01
 0.1493656332551E+00  0.1704900681898E+00  0.1503321796791E+00  0.1286579356750E+00
-0.1672056010200E+01 -0.4230378017966E+01 -0.2774143993238E+01 -0.9725561871950E+00
-0.3989912132635E+00 -0.2806571581557E+01 -0.1506614513566E+01  0.9382655036049E-01
-0.3508312982573E-02 -0.1577754953726E+01 -0.7431937353528E+00  0.2770654695911E+00
-0.9188820295755E-01 -0.1060332481320E+01 -0.5415437216104E+00  0.1472578515306E+00
-0.5560783760060E-01 -0.5333881188103E+00 -0.2768280995131E+00  0.1522594863031E-01
 0.3450443270348E-01 -0.1379816871817E+00 -0.4863430960477E-01 -0.2238782393609E-01
 0.8159850068983E-01  0.1151241139574E+00  0.9245962888420E-01 -0.1820897782451E-01
 0.6279723522209E-01  0.2009370541504E+00  0.1239551160051E+00  0.1818570016745E-01
 0.5431864924054E-01  0.1996752340784E+00  0.1193771251599E+00  0.8401829282195E-01
 0.1261368058922E+00  0.1321001559698E+00  0.1213713720752E+00  0.1504471703541E+00
-0.1344596557217E+01 -0.3682057790824E+01 -0.2362527543579E+01 -0.1053953504598E+01
-0.4887004323746E+00 -0.2979769852057E+01 -0.1630181033683E+01 -0.1321342786749E+00
-0.1395037579417E+00 -0.2052604247745E+01 -0.1030290762673E+01  0.1599413376863E+00
-0.3040086512245E-01 -0.1335625548477E+01 -0.6420324143918E+00  0.1345605683743E+00
-0.2184988971743E-01 -0.8236059042036E+00 -0.3973642231429E+00  0.2190126046934E-01
 0.1592319673695E-01 -0.4541205991044E+00 -0.2059527791127E+00 -0.2882750847904E-01
 0.3682105657395E-01 -0.1861371162508E+00 -0.7017854804812E-01 -0.3096399860551E-01
 0.2084599151812E-01 -0.2571793555123E-01 -0.2289813695561E-02  0.9045291632103E-03
 0.2362077245874E-02  0.4578715948979E-01  0.2263014126576E-01  0.6149142772001E-01
 0.6510880314153E-01  0.4379546441883E-01  0.5118500575337E-01  0.1283702340467E+00
-0.1240620022490E+01 -0.3388066370097E+01 -0.2175482604516E+01 -0.1075617904905E+01
-0.5252000837607E+00 -0.3011393073077E+01 -0.1662198783714E+01 -0.2833004203807E+00
-0.2082444547046E+00 -0.2362706055595E+01 -0.1208346739841E+01  0.3534693035332E-01
-0.3825177474980E-01 -0.1682185335072E+01 -0.8086054416161E+00  0.8863658597590E-01
 0.1444724567120E-01 -0.1131886673985E+01 -0.5251965313073E+00  0.1867819086732E-01
 0.1555269211688E-01 -0.7757619036495E+00 -0.3572983294203E+00 -0.3934956011891E-01
 0.1742483570857E-01 -0.4986364561353E+00 -0.2261694616006E+00 -0.5773347149469E-01
-0.1200622451904E-01 -0.3005252049722E+00 -0.1468897718609E+00 -0.4214615894945E-01
-0.4707118417763E-01 -0.1680799552237E+00 -0.1011210355186E+00  0.2609241590501E-02
-0.2155888979207E-01 -0.1137491618665E+00 -0.6359478427951E-01  0.5819223412613E-01
-0.1226656466463E+01 -0.3208748089748E+01 -0.2084640141419E+01 -0.1069313205964E+01
-0.5659140174795E+00 -0.3011216354287E+01 -0.1681251274730E+01 -0.3860450102787E+00
-0.2479389780936E+00 -0.2566687529322E+01 -0.1322874458485E+01 -0.7547695925842E-01
-0.5259687489106E-01 -0.1999328249742E+01 -0.9644048085775E+00  0.2292389673407E-01
 0.3495926521124E-01 -0.1466410998145E+01 -0.6727823144790E+00 -0.3069817370141E-02
 0.3146639552636E-01 -0.1108541119067E+01 -0.5062251200640E+00 -0.5626739710648E-01
 0.1954161739395E-01 -0.8287976632541E+00 -0.3803503415543E+00 -0.9124460111730E-01
-0.2208737767082E-01 -0.6109667511501E+00 -0.2975354405458E+00 -0.9967455807439E-01
-0.7915886346580E-01 -0.4409768387207E+00 -0.2444637800276E+00 -0.8257053356402E-01
-0.1078319935682E+00 -0.3453843459279E+00 -0.2130116795631E+00 -0.5170590343050E-01
-0.1255873110373E+01 -0.3090817944258E+01 -0.2042944795677E+01 -0.1046566497785E+01
-0.6174999435564E+00 -0.3005093168537E+01 -0.1702618762684E+01 -0.4552629409747E+00
-0.2821159897892E+00 -0.2709381561097E+01 -0.1406003848916E+01 -0.1670929856592E+00
-0.6588700763841E-01 -0.2267251546702E+01 -0.1096575120540E+01 -0.4873978305821E-01
 0.4826932828451E-01 -0.1796066425361E+01 -0.8214646356259E+00 -0.4162502323511E-01
 0.5618678284060E-01 -0.1450732932524E+01 -0.6554366903510E+00 -0.8278443336236E-01
 0.4118564633588E-01 -0.1174577414811E+01 -0.5326941311834E+00 -0.1283444801901E+00
-0.5576927343804E-02 -0.9518800407415E+00 -0.4500047750001E+00 -0.1614569129962E+00
-0.7984302555294E-01 -0.7658169707395E+00 -0.3974601982575E+00 -0.1787513329895E+00
-0.1674852977775E+00 -0.6480815871724E+00 -0.3833164359264E+00 -0.1839057744013E+00
-0.1307860105570E+01 -0.3009037204591E+01 -0.2028941735776E+01 -0.1012383931775E+01
-0.6788303243645E+00 -0.2999219733349E+01 -0.1728683527126E+01 -0.4995689639306E+00
-0.3203541574359E+00 -0.2814719304406E+01 -0.1473484527066E+01 -0.2387569289452E+00
-0.8216170058696E-01 -0.2489553819027E+01 -0.1208706294218E+01 -0.1165180474741E+00
 0.5632938731090E-01 -0.2102005363607E+01 -0.9614677088592E+00 -0.8952806155082E-01
 0.8488981622217E-01 -0.1789013226230E+01 -0.8009380027038E+00 -0.1179633923871E+00
 0.7712277275990E-01 -0.1528009738386E+01 -0.6819168738443E+00 -0.1671260720807E+00
 0.3562488635406E-01 -0.1314202756175E+01 -0.6009315988160E+00 -0.2191009239751E+00
-0.4233461595713E-01 -0.1131173519985E+01 -0.5515488238929E+00 -0.2698137949344E+00
-0.1803357907791E+00 -0.1010169450159E+01 -0.5595374632410E+00 -0.3167595470970E+00
-0.1372672864103E+01 -0.2950036899439E+01 -0.2031673588864E+01 -0.9692036593316E+00
-0.7479300991985E+00 -0.2993938493469E+01 -0.1758678238554E+01 -0.5242931921727E+00
-0.3661213926888E+00 -0.2894560367388E+01 -0.1532520427236E+01 -0.2911025367676E+00
-0.1052346740528E+00 -0.2673000611112E+01 -0.1305770584028E+01 -0.1738598576021E+00
 0.5725048390086E-01 -0.2377066006281E+01 -0.1090313295519E+01 -0.1380737313089E+00
 0.1120342773870E+00 -0.2112558493691E+01 -0.9402463816631E+00 -0.1573694896072E+00
 0.1181906946752E+00 -0.1879807724333E+01 -0.8279600039390E+00 -0.2057230377642E+00
 0.9542951347515E-01 -0.1681749934962E+01 -0.7455705980988E+00 -0.2664147219819E+00
 0.3077627027755E-01 -0.1520127632844E+01 -0.6999951404060E+00 -0.3409815463296E+00
-0.1336241811983E+00 -0.1410955504074E+01 -0.7259524520781E+00 -0.4284473690530E+00
-0.1445126356547E+01 -0.2906425017698E+01 -0.2045229145896E+01 -0.9183138575834E+00
-0.8239549759037E+00 -0.2988548866063E+01 -0.1791876805725E+01 -0.5332892375961E+00
-0.4197598605791E+00 -0.2952790917023E+01 -0.1585098865473E+01 -0.3251826328849E+00
-0.1379403852788E+00 -0.2822974917398E+01 -0.1391630192258E+01 -0.2163012921604E+00
 0.4955795369919E-01 -0.2618216725618E+01 -0.1207269622802E+01 -0.1789010409226E+00
 0.1327955289230E+00 -0.2415251387815E+01 -0.1072754253679E+01 -0.1940677044657E+00
 0.1567775333256E+00 -0.2223649627073E+01 -0.9714298840614E+00 -0.2421127962289E+00
 0.1497502827816E+00 -0.2051111038453E+01 -0.8936395551655E+00 -0.3040068416975E+00
 0.1384251672275E+00 -0.1892475722254E+01 -0.8244037608624E+00 -0.3810223845974E+00
-0.2534770525223E-01 -0.1824801120728E+01 -0.8695699482107E+00 -0.4968661434055E+00
-0.1534589345798E+01 -0.2888742755232E+01 -0.2078966087484E+01 -0.8627694608174E+00
-0.8976863694731E+00 -0.2969956419236E+01 -0.1817792110693E+01 -0.5310349128293E+00
-0.4860619799809E+00 -0.2993934583444E+01 -0.1635598384810E+01 -0.3413825977972E+00
-0.1805149200849E+00 -0.2940389687087E+01 -0.1466825165371E+01 -0.2409136498606E+00
 0.3075927413775E-01 -0.2824281112614E+01 -0.1312955264084E+01 -0.2045759316830E+00
 0.1471569659263E+00 -0.2688701246996E+01 -0.1194525812103E+01 -0.2184680786584E+00
 0.1909483926384E+00 -0.2555253585666E+01 -0.1111223440723E+01 -0.2696908199524E+00
 0.1911736613920E+00 -0.2425350092541E+01 -0.1050062922640E+01 -0.3387329947201E+00
 0.1840443668987E+00 -0.2289699156581E+01 -0.9896577511507E+00 -0.4078457795748E+00
 0.2196166743026E+00 -0.2110942959599E+01 -0.8889233540894E+00 -0.5066547850392E+00
-0.1534589334440E+01 -0.2888742755764E+01 -0.2078966082396E+01  0.8627694707282E+00
-0.8976863606157E+00 -0.2969956414444E+01 -0.1817792104278E+01  0.5310349156317E+00
-0.4860619764531E+00 -0.2993934577294E+01 -0.1635598380261E+01  0.3413825976378E+00
-0.1805149188006E+00 -0.2940389680474E+01 -0.1466825161659E+01  0.2409136488689E+00
 0.3075927403959E-01 -0.2824281107040E+01 -0.1312955261510E+01  0.2045759306470E+00
 0.1471569651377E+00 -0.2688701242761E+01 -0.1194525810483E+01  0.2184680778845E+00
 0.1909483917332E+00 -0.2555253582347E+01 -0.1111223439589E+01  0.2696908194496E+00
 0.1911736606013E+00 -0.2425350089997E+01 -0.1050062921816E+01  0.3387329944327E+00
 0.1840443680698E+00 -0.2289699153507E+01 -0.9896577491557E+00  0.4078457796249E+00
 0.2196166685875E+00 -0.2110942961350E+01 -0.8889233575985E+00  0.5066547873393E+00
-0.1445126345035E+01 -0.2906425017676E+01 -0.2045229140474E+01  0.9183138652935E+00
-0.8239549676766E+00 -0.2988548862676E+01 -0.1791876800266E+01  0.5332892382970E+00
-0.4197598568671E+00 -0.2952790910773E+01 -0.1585098860791E+01  0.3251826315351E+00
-0.1379403840352E+00 -0.2822974909846E+01 -0.1391630188124E+01  0.2163012905584E+00
 0.4955795355064E-01 -0.2618216718651E+01 -0.1207269619597E+01  0.1789010397039E+00
 0.1327955281021E+00 -0.2415251382151E+01 -0.1072754251403E+01  0.1940677038036E+00
 0.1567775323955E+00 -0.2223649622577E+01 -0.9714298823855E+00  0.2421127960529E+00
 0.1497502822538E+00 -0.2051111034810E+01 -0.8936395537012E+00  0.3040068421109E+00
 0.1384251666792E+00 -0.1892475719671E+01 -0.8244037599062E+00  0.3810223862148E+00
-0.2534771208681E-01 -0.1824801121408E+01 -0.8695699517425E+00  0.4968661468574E+00
-0.1372672854135E+01 -0.2950036900523E+01 -0.2031673584689E+01  0.9692036651885E+00
-0.7479300914317E+00 -0.2993938490770E+01 -0.1758678233635E+01  0.5242931910424E+00
-0.3661213893516E+00 -0.2894560361110E+01 -0.1532520422717E+01  0.2911025342643E+00
-0.1052346728838E+00 -0.2673000602248E+01 -0.1305770579312E+01  0.1738598554780E+00
 0.5725048360186E-01 -0.2377065997830E+01 -0.1090313291687E+01  0.1380737300068E+00
 0.1120342763618E+00 -0.2112558486883E+01 -0.9402463789449E+00  0.1573694891679E+00
 0.1181906935209E+00 -0.1879807719009E+01 -0.8279600019792E+00  0.2057230380282E+00
 0.9542951213503E-01 -0.1681749930862E+01 -0.7455705968016E+00  0.2664147230595E+00
 0.3077626850593E-01 -0.1520127629280E+01 -0.6999951395636E+00  0.3409815484486E+00
-0.1336241878777E+00 -0.1410955503994E+01 -0.7259524551798E+00  0.4284473725102E+00
-0.1307860097901E+01 -0.3009037207354E+01 -0.2028941733470E+01  0.1012383935897E+01
-0.6788303174483E+00 -0.2999219731395E+01 -0.1728683522956E+01  0.4995689611423E+00
-0.3203541546012E+00 -0.2814719297726E+01 -0.1473484522594E+01  0.2387569254543E+00
-0.8216169956897E-01 -0.2489553808587E+01 -0.1208706288833E+01  0.1165180450486E+00
 0.5632938675077E-01 -0.2102005353759E+01 -0.9614677044939E+00  0.8952806042364E-01
 0.8488981490300E-01 -0.1789013218617E+01 -0.8009379997455E+00  0.1179633923149E+00
 0.7712277117930E-01 -0.1528009732630E+01 -0.6819168718816E+00  0.1671260727005E+00
 0.3562488437850E-01 -0.1314202751599E+01 -0.6009315975936E+00  0.2191009251834E+00
-0.4233461844968E-01 -0.1131173515801E+01 -0.5515488230976E+00  0.2698137966585E+00
-0.1803357960067E+00 -0.1010169449632E+01 -0.5595374654502E+00  0.3167595497314E+00
-0.1255873105732E+01 -0.3090817949143E+01 -0.2042944795791E+01  0.1046566500245E+01
-0.6174999377979E+00 -0.3005093167166E+01 -0.1702618759333E+01  0.4552629366652E+00
-0.2821159875058E+00 -0.2709381553570E+01 -0.1406003844306E+01  0.1670929814350E+00
-0.6588700675160E-01 -0.2267251534468E+01 -0.1096575114373E+01  0.4873978071425E-01
 0.4826932738025E-01 -0.1796066414442E+01 -0.8214646309192E+00  0.4162502260861E-01
 0.5618678125472E-01 -0.1450732924582E+01 -0.6554366873639E+00  0.8278443370313E-01
 0.4118564448706E-01 -0.1174577408985E+01 -0.5326941293142E+00  0.1283444808883E+00
-0.5576929592277E-02 -0.9518800361176E+00 -0.4500047738836E+00  0.1614569137888E+00
-0.7984302794340E-01 -0.7658169664741E+00 -0.3974601973762E+00  0.1787513336888E+00
-0.1674853005134E+00 -0.6480815867630E+00 -0.3833164370199E+00  0.1839057756775E+00
-0.1226656465664E+01 -0.3208748097169E+01 -0.2084640144532E+01  0.1069313206771E+01
-0.5659140130706E+00 -0.3011216353034E+01 -0.1681251272069E+01  0.3860450046033E+00
-0.2479389762058E+00 -0.2566687520300E+01 -0.1322874453358E+01  0.7547695469826E-01
-0.5259687409268E-01 -0.1999328235779E+01 -0.9644048016397E+00 -0.2292389845816E-01
 0.3495926391080E-01 -0.1466410986851E+01 -0.6727823097820E+00  0.3069817527557E-02
 0.3146639386834E-01 -0.1108541111361E+01 -0.5062251172214E+00  0.5626739773841E-01
 0.1954161557842E-01 -0.8287976577840E+00 -0.3803503398366E+00  0.9124460154176E-01
-0.2208737968471E-01 -0.6109667469729E+00 -0.2975354395291E+00  0.9967455804407E-01
-0.7915886503589E-01 -0.4409768350853E+00 -0.2444637790569E+00  0.8257053295530E-01
-0.1078319931357E+00 -0.3453843462674E+00 -0.2130116795195E+00  0.5170590322893E-01
-0.1240620026582E+01 -0.3388066380520E+01 -0.2175482611338E+01  0.1075617903985E+01
-0.5252000805897E+00 -0.3011393070908E+01 -0.1662198781204E+01  0.2833004135807E+00
-0.2082444527471E+00 -0.2362706044274E+01 -0.1208346733600E+01 -0.3534693461288E-01
-0.3825177420659E-01 -0.1682185320225E+01 -0.8086054343831E+00 -0.8863658643610E-01
 0.1444724397201E-01 -0.1131886663350E+01 -0.5251965271076E+00 -0.1867818985518E-01
 0.1555269074812E-01 -0.7757618965760E+00 -0.3572983267391E+00  0.3934956073670E-01
 0.1742483429106E-01 -0.4986364513373E+00 -0.2261694600117E+00  0.5773347132740E-01
-0.1200622588323E-01 -0.3005252017484E+00 -0.1468897709869E+00  0.4214615793052E-01
-0.4707118454181E-01 -0.1680799529676E+00 -0.1011210346294E+00 -0.2609243411117E-02
-0.2155888612900E-01 -0.1137491635174E+00 -0.6359478333379E-01 -0.5819223547449E-01
-0.1344596567667E+01 -0.3682057804793E+01 -0.2362527555056E+01  0.1053953501760E+01
-0.4887004294693E+00 -0.2979769846762E+01 -0.1630181029829E+01  0.1321342712502E+00
-0.1395037553068E+00 -0.2052604233775E+01 -0.1030290754868E+01 -0.1599413406392E+00
-0.3040086578014E-01 -0.1335625535159E+01 -0.6420324084413E+00 -0.1345605670453E+00
-0.2184989131251E-01 -0.8236058947459E+00 -0.3973642194474E+00 -0.2190125891776E-01
 0.1592319609133E-01 -0.4541205927041E+00 -0.2059527764080E+00  0.2882750870181E-01
 0.3682105584131E-01 -0.1861371123521E+00 -0.7017854656008E-01  0.3096399769826E-01
 0.2084599093457E-01 -0.2571793382115E-01 -0.2289813156693E-02 -0.9045310573042E-03
 0.2362077979002E-02  0.4578715967218E-01  0.2263014169606E-01 -0.6149143035437E-01
 0.6510880928774E-01  0.4379546113909E-01  0.5118500710061E-01 -0.1283702358971E+00
-0.1672056029263E+01 -0.4230378036012E+01 -0.2774144010679E+01  0.9725561821105E+00
-0.3989912065292E+00 -0.2806571567717E+01 -0.1506614503896E+01 -0.9382655705018E-01
-0.3508311941705E-02 -0.1577754941454E+01 -0.7431937290960E+00 -0.2770654698733E+00
-0.9188820497095E-01 -0.1060332471202E+01 -0.5415437178014E+00 -0.1472578486081E+00
-0.5560783830296E-01 -0.5333881101681E+00 -0.2768280957814E+00 -0.1522594712371E-01
 0.3450443323639E-01 -0.1379816812121E+00 -0.4863430654857E-01  0.2238782352918E-01
 0.8159850068672E-01  0.1151241166248E+00  0.9245963013640E-01  0.1820897628207E-01
 0.6279723514628E-01  0.2009370537340E+00  0.1239551157737E+00 -0.1818570261010E-01
 0.5431865049925E-01  0.1996752316581E+00  0.1193771246140E+00 -0.8401829578916E-01
 0.1261368130046E+00  0.1321001511083E+00  0.1213713731331E+00 -0.1504471720679E+00
-0.2845476070036E+01 -0.5630930970815E+01 -0.3983911309200E+01  0.6969756468468E+00
 0.2961413530645E+00 -0.1761967960841E+01 -0.6889385056551E+00 -0.4248173364035E+00
-0.1289413502343E+00 -0.1342540474050E+01 -0.6915964574139E+00 -0.3105527960757E+00
-0.1233503621777E+00 -0.7841563416669E+00 -0.4265281508070E+00 -0.1425448094140E+00
-0.1296929524489E+00 -0.2911798238304E+00 -0.1978102048513E+00 -0.9564187236697E-02
 0.1182582123571E+00  0.2390680313797E+00  0.1679433345563E+00  0.2564300801310E-01
 0.1241355797261E+00  0.3645811950674E+00  0.2296968841529E+00  0.3364891904753E-01
 0.1106994366416E+00  0.3790378481756E+00  0.2301765238641E+00 -0.4739449013122E-02
 0.9058563371480E-01  0.2900524604738E+00  0.1788999042687E+00 -0.6862828763497E-01
 0.1493656400723E+00  0.1704900625521E+00  0.1503321802335E+00 -0.1286579374051E+00
-0.1646467318677E+00 -0.2486849279889E+01 -0.1246203125526E+01 -0.6647312736443E+00
-0.1356556363857E+00 -0.1855445092607E+01 -0.9358173426264E+00 -0.6145598850136E+00
-0.1973601185412E+00 -0.1395164425674E+01 -0.7484865357813E+00 -0.5220581178464E+00
-0.2032931136466E+00 -0.9766783081277E+00 -0.5545865682339E+00 -0.3870719577008E+00
-0.1541958689820E+00 -0.6210030679702E+00 -0.3643435003675E+00 -0.2282697784954E+00
-0.5598307987450E-01 -0.3406397767807E+00 -0.1864127426280E+00 -0.7165107918216E-01
 0.6481924860113E-01 -0.1426779468231E+00 -0.3659358816435E-01  0.5555571029903E-01
 0.1709883022466E+00 -0.2186987401430E-01  0.7008566126916E-01  0.1323307224940E+00
 0.2299579884336E+00  0.4041163535128E-01  0.1270737231789E+00  0.1523727581535E+00
 0.2060659217196E+00  0.5252315260806E-01  0.1215368649340E+00  0.1208685744778E+00
-0.4746633382842E-01 -0.2664543382169E+01 -0.1274644566519E+01 -0.7682131729655E+00
-0.1459585658925E+00 -0.2230520597763E+01 -0.1116945206918E+01 -0.7411477917328E+00
-0.2024973942564E+00 -0.1720309828686E+01 -0.9037193947829E+00 -0.6550478863318E+00
-0.2353482793493E+00 -0.1256074829998E+01 -0.7009688613932E+00 -0.5213475591714E+00
-0.2031613358529E+00 -0.8421424694681E+00 -0.4912927885009E+00 -0.3508108033627E+00
-0.1052691492849E+00 -0.5010629641281E+00 -0.2849760933041E+00 -0.1715636530942E+00
 0.4000650764531E-01 -0.2462853926837E+00 -0.9695107596807E-01 -0.1866306686528E-01
 0.1912311189517E+00 -0.7964599253020E-01  0.5244500941812E-01  0.7667014193350E-01
 0.2966403522542E+00  0.1191033230430E-01  0.1450188217425E+00  0.1022386638228E+00
 0.3406388439579E+00  0.6529715013632E-01  0.1907899172243E+00  0.7071185484661E-01
 0.1152545842018E-01 -0.2931730909406E+01 -0.1372496561964E+01 -0.8279749570251E+00
-0.1058839550060E+00 -0.2570528035808E+01 -0.1257913635683E+01 -0.8599214936065E+00
-0.2054903584334E+00 -0.2123329079758E+01 -0.1094545135950E+01 -0.8131482999434E+00
-0.2623209164028E+00 -0.1641342984880E+01 -0.8947220336030E+00 -0.7023760904715E+00
-0.2567769448177E+00 -0.1176203621588E+01 -0.6735008662108E+00 -0.5382929563195E+00
-0.1691256968834E+00 -0.7577244408032E+00 -0.4356195647127E+00 -0.3444981631015E+00
-0.3718203695094E-02 -0.4131750714147E+00 -0.1959398393016E+00 -0.1588483637274E+00
 0.2010881275637E+00 -0.1618570723612E+00  0.1843859594515E-01 -0.2514658072935E-01
 0.3765084505955E+00 -0.5392322799595E-02  0.1744245800641E+00  0.2635145906353E-01
 0.4636822615824E+00  0.7765627663489E-01  0.2544291129621E+00  0.4809688870751E-02
 0.8732012114999E-01 -0.3225561255452E+01 -0.1474973333122E+01 -0.8500088204424E+00
-0.5528733613272E-01 -0.2949476902635E+01 -0.1412239192221E+01 -0.9410150073307E+00
-0.1827538860666E+00 -0.2577412168073E+01 -0.1297278045446E+01 -0.9565482539854E+00
-0.2788637255688E+00 -0.2138119659221E+01 -0.1135982190851E+01 -0.9005675520261E+00
-0.3145103387915E+00 -0.1662921311172E+01 -0.9293928754827E+00 -0.7759211530054E+00
-0.2618840790014E+00 -0.1186149141523E+01 -0.6805756136465E+00 -0.5959553280060E+00
-0.1021177814992E+00 -0.7396877430594E+00 -0.3956485965425E+00 -0.3904361735630E+00
 0.1542346204249E+00 -0.3546136368051E+00 -0.9417813769871E-01 -0.2064472143227E+00
 0.4309546538942E+00 -0.6803582613134E-01  0.1705718490485E+00 -0.9845581066358E-01
 0.6056051924448E+00  0.9840550027982E-01  0.3308850255806E+00 -0.9118647942162E-01
 0.1787492574749E+00 -0.3533238995091E+01 -0.1576610176679E+01 -0.8302625628102E+00
 0.2190932217971E-01 -0.3348506877475E+01 -0.1563500850989E+01 -0.9670461924025E+00
-0.1289860876450E+00 -0.3079136364873E+01 -0.1507817552683E+01 -0.1047809113891E+01
-0.2636593324217E+00 -0.2730810193133E+01 -0.1407400677011E+01 -0.1067048278424E+01
-0.3562534671362E+00 -0.2316514869225E+01 -0.1256201118090E+01 -0.1017438750653E+01
-0.3711565317197E+00 -0.1852729859698E+01 -0.1045226603966E+01 -0.8977086611871E+00
-0.2687744521791E+00 -0.1358279978351E+01 -0.7647155823492E+00 -0.7194188177724E+00
-0.1657205016685E-01 -0.8521572019142E+00 -0.4083027484781E+00 -0.5138263052978E+00
 0.3807922806042E+00 -0.3545777079699E+00  0.1232084913811E-01 -0.3377803003651E+00
 0.7616223998899E+00  0.6129255882227E-01  0.3867700305947E+00 -0.2658589729808E+00
 0.2819814443270E+00 -0.3837060484271E+01 -0.1670887148774E+01 -0.7655828623868E+00
 0.1289485503549E+00 -0.3744539552346E+01 -0.1699327770936E+01 -0.9255450856915E+00
-0.2923125649813E-01 -0.3590378730546E+01 -0.1701216693911E+01 -0.1055940827016E+01
-0.1909101666452E+00 -0.3370465759333E+01 -0.1673846685210E+01 -0.1147034631431E+01
-0.3387054135641E+00 -0.3085689816801E+01 -0.1609465758272E+01 -0.1186794741223E+01
-0.4422678624435E+00 -0.2739931361280E+01 -0.1495633635150E+01 -0.1164154047296E+01
-0.4565601365573E+00 -0.2337784330825E+01 -0.1313341899669E+01 -0.1073401894759E+01
-0.3197236589452E+00 -0.1881330894623E+01 -0.1034495640177E+01 -0.9210003683389E+00
 0.4670420477879E-01 -0.1363393417436E+01 -0.6188439299488E+00 -0.7368473227333E+00
 0.7119714339757E+00 -0.7612798294752E+00 -0.2317494588479E-01 -0.5989535026372E+00
 0.3860576344018E+00 -0.4119852432437E+01 -0.1754883555077E+01 -0.6557036185655E+00
 0.2550499599360E+00 -0.4113911840999E+01 -0.1813665084099E+01 -0.8135502074864E+00
 0.1078587296344E+00 -0.4073681801051E+01 -0.1863936843566E+01 -0.9649064230411E+00
-0.5895158707497E-01 -0.3992698572499E+01 -0.1904275575000E+01 -0.1099987325582E+01
-0.2390213261058E+00 -0.3869081744709E+01 -0.1930808443283E+01 -0.1207443347459E+01
-0.4154353906395E+00 -0.3703664468770E+01 -0.1935976933923E+01 -0.1273827036696E+01
-0.5563969427724E+00 -0.3498880136042E+01 -0.1905980227043E+01 -0.1284471009080E+01
-0.6060679794763E+00 -0.3256238684206E+01 -0.1815284131931E+01 -0.1225852472701E+01
-0.4677198888690E+00 -0.2970441555267E+01 -0.1615935878744E+01 -0.1090806006731E+01
 0.6044336320302E-01 -0.2590873477694E+01 -0.1189302153811E+01 -0.8893079130760E+00
 0.4774100261585E+00 -0.4360066533945E+01 -0.1824848558660E+01 -0.5033563094358E+00
 0.3764527968990E+00 -0.4428229492221E+01 -0.1904335046801E+01 -0.6350630991303E+00
 0.2502900717032E+00 -0.4486003117818E+01 -0.1990785131674E+01 -0.7735971799708E+00
 0.9363704432872E-01 -0.4527585468565E+01 -0.2083955759391E+01 -0.9106356782154E+00
-0.9599270907431E-01 -0.4550208756823E+01 -0.2183714688972E+01 -0.1037125776401E+01
-0.3166558167016E+00 -0.4553328315317E+01 -0.2288892542049E+01 -0.1140685656870E+01
-0.5586535112301E+00 -0.4538257388485E+01 -0.2395548122866E+01 -0.1203782305928E+01
-0.7982132821698E+00 -0.4507883921966E+01 -0.2493865685944E+01 -0.1201654977581E+01
-0.9836020127938E+00 -0.4464344692305E+01 -0.2560534951396E+01 -0.1099096107084E+01
-0.1024195230667E+01 -0.4417821748030E+01 -0.2557747979988E+01 -0.8423179303168E+00
 0.5447705244312E+00 -0.4535747208945E+01 -0.1875759041722E+01 -0.3165355473843E+00
 0.4722610122423E+00 -0.4657222768051E+01 -0.1966932025230E+01 -0.4030313050154E+00
 0.3675881787793E+00 -0.4785080559290E+01 -0.2076221418840E+01 -0.4990193997028E+00
 0.2255080922003E+00 -0.4915335612436E+01 -0.2204218934511E+01 -0.5987013704831E+00
 0.3737829180033E-01 -0.5045057272153E+01 -0.2353609120766E+01 -0.6960721493116E+00
-0.2076287100003E+00 -0.5172454564514E+01 -0.2528639139022E+01 -0.7822371533629E+00
-0.5223345167294E+00 -0.5297043370011E+01 -0.2735107606768E+01 -0.8429249787842E+00
-0.9214630751344E+00 -0.5420055731446E+01 -0.2980513839093E+01 -0.8549504806748E+00
-0.1423701962216E+01 -0.5547235495571E+01 -0.3276340605160E+01 -0.7803617220107E+00
-0.2056938452700E+01 -0.5693122274569E+01 -0.3642528541816E+01 -0.5577579326888E+00
 0.5803901907792E+00 -0.4629073402020E+01 -0.1902881109283E+01 -0.1080188316528E+00
 0.5255005134534E+00 -0.4778260532601E+01 -0.1998797208999E+01 -0.1380925121060E+00
 0.4343621630643E+00 -0.4942321669173E+01 -0.2118740967871E+01 -0.1723608918764E+00
 0.3023482545993E+00 -0.5118722505862E+01 -0.2263695898094E+01 -0.2087159297894E+00
 0.1176645747963E+00 -0.5304659762386E+01 -0.2437887738167E+01 -0.2450332178733E+00
-0.1379263217058E+00 -0.5497617159505E+01 -0.2648705436169E+01 -0.2780526545394E+00
-0.4912998939036E+00 -0.5695659206683E+01 -0.2907870777276E+01 -0.3022670660771E+00
-0.9829522183280E+00 -0.5898084662852E+01 -0.3234087334154E+01 -0.3082553986033E+00
-0.1674945717283E+01 -0.6106046699232E+01 -0.3657066435762E+01 -0.2801581915607E+00
-0.2661476116887E+01 -0.6322374296987E+01 -0.4222409694521E+01 -0.1924400086795E+00
 0.5803901914096E+00 -0.4629073402985E+01 -0.1902881109440E+01  0.1080188291704E+00
 0.5255005148575E+00 -0.4778260534331E+01 -0.1998797209153E+01  0.1380925052002E+00
 0.4343621651345E+00 -0.4942321671982E+01 -0.2118740968218E+01  0.1723608795413E+00
 0.3023482572583E+00 -0.5118722510156E+01 -0.2263695898862E+01  0.2087159113283E+00
 0.1176645778627E+00 -0.5304659768602E+01 -0.2437887739648E+01  0.2450331928958E+00
-0.1379263187030E+00 -0.5497617168075E+01 -0.2648705438786E+01  0.2780526231251E+00
-0.4912998920389E+00 -0.5695659218004E+01 -0.2907870781720E+01  0.3022670291193E+00
-0.9829522198713E+00 -0.5898084677282E+01 -0.3234087341662E+01  0.3082553584337E+00
-0.1674945726475E+01 -0.6106046716875E+01 -0.3657066448374E+01  0.2801581530285E+00
-0.2661476141943E+01 -0.6322374318062E+01 -0.4222409716203E+01  0.1924399809027E+00
 0.5447705262250E+00 -0.4535747211575E+01 -0.1875759042115E+01  0.3165355451077E+00
 0.4722610160519E+00 -0.4657222772925E+01 -0.1966932025730E+01  0.4030312986646E+00
 0.3675881843113E+00 -0.4785080567389E+01 -0.2076221420047E+01  0.4990193887696E+00
 0.2255080992120E+00 -0.4915335624954E+01 -0.2204218937099E+01  0.5987013547338E+00
 0.3737829972829E-01 -0.5045057290356E+01 -0.2353609125595E+01  0.6960721288036E+00
-0.2076287025121E+00 -0.5172454589653E+01 -0.2528639147318E+01  0.7822371285348E+00
-0.5223345125947E+00 -0.5297043403264E+01 -0.2735107620453E+01  0.8429249505914E+00
-0.9214630802135E+00 -0.5420055773947E+01 -0.2980513861455E+01  0.8549504507564E+00
-0.1423701987893E+01 -0.5547235548590E+01 -0.3276340642147E+01  0.7803616929352E+00
-0.2056938518844E+01 -0.5693122338613E+01 -0.3642528603005E+01  0.5577579084574E+00
 0.4774100288729E+00 -0.4360066537576E+01 -0.1824848559090E+01  0.5033563076072E+00
 0.3764528021927E+00 -0.4428229499396E+01 -0.1904335047686E+01  0.6350630940011E+00
 0.2502900791754E+00 -0.4486003130172E+01 -0.1990785133968E+01  0.7735971718266E+00
 0.9363705352202E-01 -0.4527585487957E+01 -0.2083955764185E+01  0.9106356675881E+00
-0.9599269915035E-01 -0.4550208785169E+01 -0.2183714697630E+01  0.1037125764100E+01
-0.3166558081281E+00 -0.4553328354511E+01 -0.2288892556441E+01  0.1140685643951E+01
-0.5586535079868E+00 -0.4538257440403E+01 -0.2395548145743E+01  0.1203782293521E+01
-0.7982132913870E+00 -0.4507883988575E+01 -0.2493865721582E+01  0.1201654966436E+01
-0.9836020473570E+00 -0.4464344776516E+01 -0.2560535007220E+01  0.1099096096526E+01
-0.1024195315279E+01 -0.4417821856177E+01 -0.2557748070584E+01  0.8423179163963E+00
 0.3860576375715E+00 -0.4119852436436E+01 -0.1754883555466E+01  0.6557036174451E+00
 0.2550499655954E+00 -0.4113911849559E+01 -0.1813665085463E+01  0.8135502043039E+00
 0.1078587372259E+00 -0.4073681816415E+01 -0.1863936847219E+01  0.9649064189986E+00
-0.5895157834242E-01 -0.3992698597021E+01 -0.1904275582421E+01  0.1099987322132E+01
-0.2390213177730E+00 -0.3869081780777E+01 -0.1930808456318E+01  0.1207443346338E+01
-0.4154353854052E+00 -0.3703664518775E+01 -0.1935976954964E+01  0.1273827039755E+01
-0.5563969448464E+00 -0.3498880202419E+01 -0.1905980259215E+01  0.1284471017849E+01
-0.6060679948851E+00 -0.3256238769738E+01 -0.1815284179373E+01  0.1225852487523E+01
-0.4677199245289E+00 -0.2970441663123E+01 -0.1615935946197E+01  0.1090806025149E+01
 0.6044329806037E-01 -0.2590873616099E+01 -0.1189302249478E+01  0.8893079259500E+00
 0.2819814473551E+00 -0.3837060487946E+01 -0.1670887149078E+01  0.7655828619815E+00
 0.1289485550963E+00 -0.3744539561110E+01 -0.1699327772826E+01  0.9255450845981E+00
-0.2923125073210E-01 -0.3590378746779E+01 -0.1701216698830E+01  0.1055940827040E+01
-0.1909101610885E+00 -0.3370465785210E+01 -0.1673846694760E+01  0.1147034634478E+01
-0.3387054103066E+00 -0.3085689854175E+01 -0.1609465774307E+01  0.1186794749234E+01
-0.4422678644554E+00 -0.2739931411563E+01 -0.1495633659729E+01  0.1164154061886E+01
-0.4565601473353E+00 -0.2337784394938E+01 -0.1313341934869E+01  0.1073401916602E+01
-0.3197236809925E+00 -0.1881330972765E+01 -0.1034495687266E+01  0.9210003963182E+00
 0.4670417305904E-01 -0.1363393509225E+01 -0.6188439879978E+00  0.7368473530202E+00
 0.7119714200439E+00 -0.7612799220981E+00 -0.2317499596547E-01  0.5989535288694E+00
 0.1787492597006E+00 -0.3533238998286E+01 -0.1576610177135E+01  0.8302625631575E+00
 0.2190932483266E-01 -0.3348506886379E+01 -0.1563500853927E+01  0.9670461935370E+00
-0.1289860851535E+00 -0.3079136381491E+01 -0.1507817559323E+01  0.1047809117638E+01
-0.2636593313656E+00 -0.2730810218551E+01 -0.1407400688461E+01  0.1067048286368E+01
-0.3562534692737E+00 -0.2316514903357E+01 -0.1256201135136E+01  0.1017438763903E+01
-0.3711565388157E+00 -0.1852729901078E+01 -0.1045226626750E+01  0.8977086798995E+00
-0.2687744649007E+00 -0.1358280023914E+01 -0.7647156097431E+00  0.7194188406219E+00
-0.1657206611960E-01 -0.8521572468449E+00 -0.4083027770933E+00  0.5138263292083E+00
 0.3807922720585E+00 -0.3545777436802E+00  0.1232082833780E-01  0.3377803212913E+00
 0.7616224115698E+00  0.6129253914363E-01  0.3867700268353E+00  0.2658589903134E+00
 0.8732012222421E-01 -0.3225561258220E+01 -0.1474973333918E+01  0.8500088216166E+00
-0.5528733539694E-01 -0.2949476911386E+01 -0.1412239195988E+01  0.9410150105303E+00
-0.1827538859912E+00 -0.2577412183809E+01 -0.1297278052806E+01  0.9565482603700E+00
-0.2788637270299E+00 -0.2138119681401E+01 -0.1135982201962E+01  0.9005675622595E+00
-0.3145103426552E+00 -0.1662921337818E+01 -0.9293928898223E+00  0.7759211669983E+00
-0.2618840854628E+00 -0.1186149169524E+01 -0.6805756298438E+00  0.5959553446191E+00
-0.1021177891073E+00 -0.7396877685428E+00 -0.3956486120955E+00  0.3904361905710E+00
 0.1542346161321E+00 -0.3546136553895E+00 -0.9417814845102E-01  0.2064472290359E+00
 0.4309546586208E+00 -0.6803583480163E-01  0.1705718471950E+00  0.9845582181457E-01
 0.6056052065237E+00  0.9840550122593E-01  0.3308850326423E+00  0.9118648902253E-01
 0.1152545823414E-01 -0.2931730911768E+01 -0.1372496563161E+01  0.8279749590676E+00
-0.1058839556116E+00 -0.2570528043987E+01 -0.1257913639811E+01  0.8599214982808E+00
-0.2054903595827E+00 -0.2123329093430E+01 -0.1094545142916E+01  0.8131483073392E+00
-0.2623209184727E+00 -0.1641343002073E+01 -0.8947220426563E+00  0.7023761003585E+00
-0.2567769479844E+00 -0.1176203639791E+01 -0.6735008762543E+00  0.5382929679125E+00
-0.1691257004770E+00 -0.7577244573747E+00 -0.4356195741903E+00  0.3444981749814E+00
-0.3718205744482E-02 -0.4131750840009E+00 -0.1959398461803E+00  0.1588483742327E+00
 0.2010881298392E+00 -0.1618570796098E+00  0.1843859360785E-01  0.2514658885498E-01
 0.3765084585694E+00 -0.5392325042615E-02  0.1744245827576E+00 -0.2635145270937E-01
 0.4636822729896E+00  0.7765627733241E-01  0.2544291186514E+00 -0.4809682718790E-02
-0.4746633506385E-01 -0.2664543384254E+01 -0.1274644568079E+01  0.7682131758450E+00
-0.1459585673942E+00 -0.2230520605286E+01 -0.1116945211160E+01  0.7411477968773E+00
-0.2024973957021E+00 -0.1720309839219E+01 -0.9037194004131E+00  0.6550478929761E+00
-0.2353482811104E+00 -0.1256074841599E+01 -0.7009688676734E+00  0.5213475668439E+00
-0.2031613377256E+00 -0.8421424805138E+00 -0.4912927945725E+00  0.3508108112469E+00
-0.1052691503950E+00 -0.5010629733865E+00 -0.2849760981773E+00  0.1715636602270E+00
 0.4000650873514E-01 -0.2462853994709E+00 -0.9695107864580E-01  0.1866307259846E-01
 0.1912311234673E+00 -0.7964599682822E-01  0.5244500952037E-01 -0.7667013745485E-01
 0.2966403600041E+00  0.1191032990274E-01  0.1450188242562E+00 -0.1022386597421E+00
 0.3406388543080E+00  0.6529714998239E-01  0.1907899220165E+00 -0.7071185058713E-01
-0.1646467355363E+00 -0.2486849283928E+01 -0.1246203129148E+01  0.6647312770125E+00
-0.1356556383455E+00 -0.1855445098157E+01 -0.9358173461561E+00  0.6145598890838E+00
-0.1973601201762E+00 -0.1395164431532E+01 -0.7484865393028E+00  0.5220581224201E+00
-0.2032931151056E+00 -0.9766783137265E+00 -0.5545865715511E+00  0.3870719622769E+00
-0.1541958698871E+00 -0.6210030730472E+00 -0.3643435031791E+00  0.2282697825161E+00
-0.5598307941056E-01 -0.3406397813872E+00 -0.1864127445750E+00  0.7165108229522E-01
 0.6481925121311E-01 -0.1426779512679E+00 -0.3659358902575E-01 -0.5555570805427E-01
 0.1709883071313E+00 -0.2186987859590E-01  0.7008566141162E-01 -0.1323307206678E+00
 0.2299579951074E+00  0.4041163097985E-01  0.1270737242610E+00 -0.1523727562727E+00
 0.2060659285443E+00  0.5252314921073E-01  0.1215368665448E+00 -0.1208685727085E+00
</DataArray>
<DataArray type="Float64" Name="S_Mises" NumberOfComponents="1" ComponentName0="S_Mises" format="ascii">
 0.3462246859608E-01
 0.3128941318534E-01
 0.2896164576978E-01
 0.2852845946345E-01
 0.2846121880105E-01
 0.2870005226879E-01
 0.2912418175007E-01
 0.2971326574207E-01
 0.3047077811327E-01
 0.3142484453184E-01
 0.3262207149906E-01
 0.3412878871059E-01
 0.3603941020777E-01
 0.3849730754415E-01
 0.4170132942994E-01
 0.4568467784048E-01
 0.5050363394061E-01
 0.5565169291298E-01
 0.6499344029450E-01
 0.6281119968378E-01
 0.1289826678175E+00
 0.3014389694764E-01
 0.3153005369482E-01
 0.2990160943625E-01
 0.2915002313154E-01
 0.2899956343892E-01
 0.2912320013455E-01
 0.2945852131545E-01
 0.2996430521958E-01
 0.3063931112903E-01
 0.3150232602679E-01
 0.3258950951234E-01
 0.3395309795374E-01
 0.3566179383493E-01
 0.3778820544790E-01
 0.4036229920646E-01
 0.4336345638250E-01
 0.4654695346927E-01
 0.5013569088344E-01
 0.5158027446590E-01
 0.4643128778990E-01
 0.8221750487274E-01
 0.2793600621017E-01
 0.3040702311554E-01
 0.3022181968103E-01
 0.2958497149334E-01
 0.2938804190268E-01
 0.2945141250758E-01
 0.2970910989587E-01
 0.3013200410576E-01
 0.3071339521422E-01
 0.3146545683571E-01
 0.3241335435877E-01
 0.3359171384598E-01
 0.3503435687879E-01
 0.3674364318301E-01
 0.3866641234436E-01
 0.4066039368129E-01
 0.4249270711199E-01
 0.4359921644784E-01
 0.4048078028512E-01
 0.3922269654480E-01
 0.6732975311723E-01
 0.2667481811035E-01
 0.2931350633628E-01
 0.3002721083800E-01
 0.2979753336658E-01
 0.2964033560137E-01
 0.2967848363998E-01
 0.2987622006669E-01
 0.3021778775357E-01
 0.3069791863005E-01
 0.3132327097356E-01
 0.3210840821211E-01
 0.3306879414452E-01
 0.3420326887350E-01
 0.3546528246189E-01
 0.3674065899189E-01
 0.3783223387998E-01
 0.3842200105844E-01
 0.3742738499024E-01
 0.3386156228324E-01
 0.3734831154936E-01
 0.6052530390496E-01
 0.2588615817079E-01
 0.2842877073296E-01
 0.2962305527000E-01
 0.2979943350429E-01
 0.2976605951788E-01
 0.2980897158524E-01
 0.2996236874320E-01
 0.3022625177018E-01
 0.3060027424122E-01
 0.3108764054264E-01
 0.3169326184826E-01
 0.3241472042412E-01
 0.3322349137412E-01
 0.3404070850538E-01
 0.3472044020853E-01
 0.3504633630578E-01
 0.3461695728189E-01
 0.3271499490054E-01
 0.3066194105637E-01
 0.3739567279268E-01
 0.5664245548681E-01
 0.2536007973125E-01
 0.2773669217393E-01
 0.2916414997720E-01
 0.2965727311601E-01
 0.2977802884231E-01
 0.2985197771754E-01
 0.2997355380118E-01
 0.3016426468027E-01
 0.3043005210946E-01
 0.3077267121557E-01
 0.3118925600115E-01
 0.3166348413546E-01
 0.3214891410550E-01
 0.3255081498149E-01
 0.3271864128463E-01
 0.3244098986432E-01
 0.3140400610953E-01
 0.2959232911476E-01
 0.2953040829182E-01
 0.3796700316022E-01
 0.5410959165504E-01
 0.2499107128964E-01
 0.2719445653241E-01
 0.2871663288576E-01
 0.2943139222674E-01
 0.2969906422277E-01
 0.2981873440807E-01
 0.2991847369908E-01
 0.3004061517909E-01
 0.3019849289519E-01
 0.3039401635550E-01
 0.3061925082998E-01
 0.3084928851827E-01
 0.3102959549455E-01
 0.3106542766443E-01
 0.3082245047337E-01
 0.3013957978792E-01
 0.2892097497357E-01
 0.2776504509500E-01
 0.2951044627859E-01
 0.3860385519667E-01
 0.5231021372716E-01
 0.2472139158531E-01
 0.2676426202383E-01
 0.2830535861507E-01
 0.2916404570887E-01
 0.2955425501339E-01
 0.2972282806237E-01
 0.2980743525260E-01
 0.2986555170942E-01
 0.2991794646740E-01
 0.2996814213349E-01
 0.3000622384583E-01
 0.3000441435766E-01
 0.2990953734832E-01
 0.2964020862174E-01
 0.2909787395211E-01
 0.2821396143066E-01
 0.2714102807860E-01
 0.2686616059617E-01
 0.3002295769914E-01
 0.3918968757837E-01
 0.5095475666230E-01
 0.2451743779505E-01
 0.2641764851426E-01
 0.2793721312718E-01
 0.2888225630837E-01
 0.2936610085158E-01
 0.2957890201900E-01
 0.2965176337695E-01
 0.2965020284366E-01
 0.2960134916258E-01
 0.2951158627679E-01
 0.2937212336358E-01
 0.2915780762237E-01
 0.2882505542440E-01
 0.2831678525021E-01
 0.2758653711443E-01
 0.2667828604685E-01
 0.2595568825169E-01
 0.2658061556407E-01
 0.3074561348480E-01
 0.3970834975246E-01
 0.4989299141115E-01
 0.2435873876066E-01
 0.2613421647292E-01
 0.2761179245065E-01
 0.2860266519313E-01
 0.2915299305486E-01
 0.2940128525564E-01
 0.2946320350659E-01
 0.2940607190239E-01
 0.2926171311291E-01
 0.2904031243501E-01
 0.2873703919345E-01
 0.2833416302399E-01
 0.2780431671636E-01
 0.2712295722617E-01
 0.2630520489603E-01
 0.2550493032696E-01
 0.2523412968729E-01
 0.2667179922143E-01
 0.3150878668276E-01
 0.4016107435343E-01
 0.4903390150057E-01
 0.2423230756335E-01
 0.2589962435279E-01
 0.2732631152521E-01
 0.2833566615618E-01
 0.2892970326859E-01
 0.2920359633687E-01
 0.2925396423165E-01
 0.2914548241573E-01
 0.2891299327111E-01
 0.2857112781379E-01
 0.2812136505154E-01
 0.2755716249760E-01
 0.2687205284444E-01
 0.2607877566405E-01
 0.2525516639908E-01
 0.2464781679642E-01
 0.2485275949897E-01
 0.2697256366745E-01
 0.3222064510119E-01
 0.4053838560538E-01
 0.4847493823049E-01
 0.2413003670343E-01
 0.2570392315430E-01
 0.2707744359678E-01
 0.2808747131323E-01
 0.2870734635781E-01
 0.2899746583831E-01
 0.2903503897657E-01
 0.2887938714496E-01
 0.2856697526085E-01
 0.2811723289403E-01
 0.2753966278806E-01
 0.2684151836565E-01
 0.2604000038893E-01
 0.2518646157868E-01
 0.2441662339588E-01
 0.2404680753673E-01
 0.2470752517257E-01
 0.2736839526385E-01
 0.3287976756537E-01
 0.4073492660164E-01
 0.4883579467735E-01
 0.2404635090831E-01
 0.2553995908294E-01
 0.2686178445035E-01
 0.2786149570236E-01
 0.2849393477651E-01
 0.2879231740959E-01
 0.2881580838047E-01
 0.2861704824667E-01
 0.2823308717085E-01
 0.2768824000654E-01
 0.2700106774066E-01
 0.2619409510039E-01
 0.2530921352316E-01
 0.2443509203076E-01
 0.2375722973739E-01
 0.2364041352546E-01
 0.2471249145079E-01
 0.2780111410715E-01
 0.3343930517806E-01
 0.4101861980895E-01
 0.4904249260886E-01
 0.2397762926705E-01
 0.2540290630840E-01
 0.2667685947378E-01
 0.2766021841102E-01
 0.2829595958307E-01
 0.2859646707016E-01
 0.2860511026589E-01
 0.2836756687660E-01
 0.2792082696784E-01
 0.2729398160624E-01
 0.2651504277836E-01
 0.2562219698595E-01
 0.2468145954286E-01
 0.2381542377210E-01
 0.2325001251243E-01
 0.2337988621719E-01
 0.2480881150396E-01
 0.2822328076843E-01
 0.3392995281408E-01
 0.4132659752843E-01
 0.4917956937037E-01
 0.2392147006359E-01
 0.2528943975994E-01
 0.2652079209699E-01
 0.2748532311526E-01
 0.2811844295435E-01
 0.2841683038369E-01
 0.2841063018880E-01
 0.2813896702953E-01
 0.2763844123187E-01
 0.2694263547023E-01
 0.2608880806102E-01
 0.2513022554090E-01
 0.2415516575033E-01
 0.2331552961506E-01
 0.2286839232369E-01
 0.2322433160282E-01
 0.2495145826598E-01
 0.2861135993996E-01
 0.3436024282272E-01
 0.4161608195431E-01
 0.4928763880390E-01
 0.2387628549465E-01
 0.2519729200569E-01
 0.2639222537238E-01
 0.2733801264569E-01
 0.2796527498958E-01
 0.2825906263940E-01
 0.2823887839276E-01
 0.2793812016574E-01
 0.2739288971988E-01
 0.2664081349065E-01
 0.2572766355435E-01
 0.2472038357893E-01
 0.2372671067388E-01
 0.2292266776606E-01
 0.2258827454459E-01
 0.2314036661006E-01
 0.2510811712970E-01
 0.2895173834851E-01
 0.3472676152128E-01
 0.4186882501223E-01
 0.4937889791164E-01
 0.2384103641601E-01
 0.2512493886797E-01
 0.2629021866391E-01
 0.2721917896943E-01
 0.2783944782491E-01
 0.2812768657271E-01
 0.2809520273008E-01
 0.2777071648254E-01
 0.2718985678663E-01
 0.2639369526052E-01
 0.2543534056334E-01
 0.2439336214886E-01
 0.2339152507928E-01
 0.2262470679648E-01
 0.2238905500237E-01
 0.2310179321251E-01
 0.2525609334027E-01
 0.2923450604627E-01
 0.3502494055719E-01
 0.4207622320804E-01
 0.4945532253981E-01
 0.2381505549280E-01
 0.2507137789536E-01
 0.2621414738258E-01
 0.2712949023465E-01
 0.2774321369020E-01
 0.2802619862942E-01
 0.2798381950236E-01
 0.2764126702991E-01
 0.2703379236433E-01
 0.2620518052117E-01
 0.2521434583048E-01
 0.2414895126808E-01
 0.2314498386898E-01
 0.2241109387157E-01
 0.2225411663385E-01
 0.2308893094636E-01
 0.2537944208403E-01
 0.2945238352265E-01
 0.3525119168502E-01
 0.4223403295355E-01
 0.4951550411428E-01
 0.2379792899315E-01
 0.2503597431836E-01
 0.2616361828110E-01
 0.2706943177364E-01
 0.2767818884433E-01
 0.2795715180164E-01
 0.2790784990039E-01
 0.2755312291462E-01
 0.2692796650102E-01
 0.2607803890521E-01
 0.2506626758725E-01
 0.2398654574744E-01
 0.2298307905177E-01
 0.2227348577749E-01
 0.2217102285281E-01
 0.2308778955824E-01
 0.2546728930097E-01
 0.2960028343210E-01
 0.3540314559898E-01
 0.4234010540663E-01
 0.4955722976398E-01
 0.2378941957225E-01
 0.2501835757468E-01
 0.2613840497634E-01
 0.2703932300325E-01
 0.2764541932310E-01
 0.2792221575083E-01
 0.2786935353457E-01
 0.2750849994315E-01
 0.2687452331682E-01
 0.2601403835064E-01
 0.2499202144564E-01
 0.2390552903124E-01
 0.2290289214249E-01
 0.2220614132997E-01
 0.2213152781096E-01
 0.2308940589633E-01
 0.2551284574164E-01
 0.2967500382065E-01
 0.3547943091511E-01
 0.4239336710868E-01
 0.4957861481910E-01
 0.2378941957101E-01
 0.2501835757343E-01
 0.2613840497516E-01
 0.2703932300222E-01
 0.2764541932224E-01
 0.2792221575021E-01
 0.2786935353428E-01
 0.2750849994332E-01
 0.2687452331762E-01
 0.2601403835221E-01
 0.2499202144806E-01
 0.2390552903437E-01
 0.2290289214591E-01
 0.2220614133282E-01
 0.2213152781201E-01
 0.2308940589426E-01
 0.2551284573583E-01
 0.2967500381215E-01
 0.3547943090679E-01
 0.4239336710379E-01
 0.4957861481880E-01
 0.2379792898944E-01
 0.2503597431462E-01
 0.2616361827757E-01
 0.2706943177053E-01
 0.2767818884176E-01
 0.2795715179977E-01
 0.2790784989948E-01
 0.2755312291508E-01
 0.2692796650337E-01
 0.2607803890989E-01
 0.2506626759448E-01
 0.2398654575685E-01
 0.2298307906210E-01
 0.2227348578624E-01
 0.2217102285627E-01
 0.2308778955239E-01
 0.2546728928382E-01
 0.2960028340670E-01
 0.3540314557397E-01
 0.4234010539192E-01
 0.4955722976323E-01
 0.2381505548662E-01
 0.2507137788911E-01
 0.2621414737669E-01
 0.2712949022944E-01
 0.2774321368588E-01
 0.2802619862622E-01
 0.2798381950073E-01
 0.2764126703055E-01
 0.2703379236808E-01
 0.2620518052883E-01
 0.2521434584244E-01
 0.2414895128384E-01
 0.2314498388653E-01
 0.2241109388683E-01
 0.2225411664068E-01
 0.2308893093786E-01
 0.2537944205648E-01
 0.2945238348070E-01
 0.3525119164315E-01
 0.4223403292886E-01
 0.4951550411361E-01
 0.2384103640733E-01
 0.2512493885919E-01
 0.2629021865564E-01
 0.2721917896209E-01
 0.2783944781876E-01
 0.2812768656807E-01
 0.2809520272757E-01
 0.2777071648314E-01
 0.2718985679155E-01
 0.2639369527093E-01
 0.2543534057988E-01
 0.2439336217102E-01
 0.2339152510448E-01
 0.2262470681925E-01
 0.2238905501414E-01
 0.2310179320329E-01
 0.2525609330393E-01
 0.2923450598845E-01
 0.3502494049821E-01
 0.4207622317310E-01
 0.4945532254004E-01
 0.2387628548347E-01
 0.2519729199437E-01
 0.2639222536171E-01
 0.2733801263617E-01
 0.2796527498150E-01
 0.2825906263314E-01
 0.2823887838913E-01
 0.2793812016601E-01
 0.2739288972563E-01
 0.2664081350348E-01
 0.2572766357525E-01
 0.2472038360753E-01
 0.2372671070727E-01
 0.2292266779764E-01
 0.2258827456350E-01
 0.2314036660290E-01
 0.2510811708707E-01
 0.2895173827599E-01
 0.3472676144495E-01
 0.4186882496657E-01
 0.4937889791383E-01
 0.2392147004990E-01
 0.2528943974607E-01
 0.2652079208389E-01
 0.2748532310350E-01
 0.2811844294421E-01
 0.2841683037561E-01
 0.2841063018374E-01
 0.2813896702908E-01
 0.2763844123801E-01
 0.2694263548502E-01
 0.2608880808593E-01
 0.2513022557590E-01
 0.2415516579249E-01
 0.2331552965702E-01
 0.2286839235253E-01
 0.2322433160146E-01
 0.2495145822060E-01
 0.2861135985464E-01
 0.3436024272899E-01
 0.4161608189727E-01
 0.4928763880920E-01
 0.2397762925082E-01
 0.2540290629194E-01
 0.2667685945823E-01
 0.2766021839695E-01
 0.2829595957071E-01
 0.2859646705998E-01
 0.2860511025904E-01
 0.2836756687496E-01
 0.2792082697383E-01
 0.2729398162242E-01
 0.2651504280678E-01
 0.2562219702714E-01
 0.2468145959428E-01
 0.2381542382611E-01
 0.2325001255449E-01
 0.2337988622639E-01
 0.2480881146071E-01
 0.2822328067319E-01
 0.3392995270336E-01
 0.4132659745930E-01
 0.4917956937963E-01
 0.2404635088951E-01
 0.2553995906387E-01
 0.2686178443231E-01
 0.2786149568589E-01
 0.2849393476173E-01
 0.2879231739699E-01
 0.2881580837137E-01
 0.2861704824328E-01
 0.2823308717602E-01
 0.2768824002337E-01
 0.2700106777189E-01
 0.2619409514736E-01
 0.2530921358412E-01
 0.2443509209845E-01
 0.2375722979634E-01
 0.2364041355106E-01
 0.2471249141624E-01
 0.2780111400624E-01
 0.3343930505156E-01
 0.4101861972750E-01
 0.4904249262194E-01
 0.2413003668202E-01
 0.2570392313259E-01
 0.2707744357623E-01
 0.2808747129425E-01
 0.2870734634037E-01
 0.2899746582290E-01
 0.2903503896471E-01
 0.2887938713919E-01
 0.2856697526444E-01
 0.2811723291063E-01
 0.2753966282119E-01
 0.2684151841766E-01
 0.2604000045934E-01
 0.2518646166140E-01
 0.2441662347551E-01
 0.2404680758561E-01
 0.2470752515549E-01
 0.2736839516351E-01
 0.3287976742485E-01
 0.4073492651021E-01
 0.4883579469138E-01
 0.2423230753929E-01
 0.2589962432843E-01
 0.2732631150213E-01
 0.2833566613458E-01
 0.2892970324819E-01
 0.2920359631819E-01
 0.2925396421646E-01
 0.2914548240688E-01
 0.2891299327226E-01
 0.2857112782913E-01
 0.2812136508540E-01
 0.2755716255355E-01
 0.2687205292369E-01
 0.2607877576256E-01
 0.2525516650294E-01
 0.2464781687632E-01
 0.2485275951060E-01
 0.2697256357755E-01
 0.3222064494766E-01
 0.4053838551048E-01
 0.4847493824393E-01
 0.2435873873376E-01
 0.2613421644570E-01
 0.2761179242465E-01
 0.2860266516826E-01
 0.2915299303067E-01
 0.2940128523271E-01
 0.2946320348685E-01
 0.2940607188882E-01
 0.2926171310930E-01
 0.2904031244581E-01
 0.2873703922351E-01
 0.2833416307796E-01
 0.2780431679730E-01
 0.2712295733295E-01
 0.2630520501842E-01
 0.2550493043778E-01
 0.2523412973663E-01
 0.2667179915679E-01
 0.3150878652672E-01
 0.4016107425159E-01
 0.4903390154291E-01
 0.2451743776535E-01
 0.2641764848406E-01
 0.2793721309792E-01
 0.2888225627964E-01
 0.2936610082282E-01
 0.2957890199095E-01
 0.2965176335160E-01
 0.2965020282389E-01
 0.2960134915201E-01
 0.2951158627975E-01
 0.2937212338503E-01
 0.2915780766766E-01
 0.2882505549829E-01
 0.2831678535483E-01
 0.2758653724509E-01
 0.2667828618313E-01
 0.2595568834450E-01
 0.2658061554298E-01
 0.3074561334222E-01
 0.3970834964869E-01
 0.4989299146332E-01
 0.2472139155275E-01
 0.2676426199053E-01
 0.2830535858233E-01
 0.2916404567595E-01
 0.2955425497976E-01
 0.2972282802897E-01
 0.2980743522145E-01
 0.2986555168320E-01
 0.2991794644940E-01
 0.2996814212772E-01
 0.3000622385715E-01
 0.3000441439176E-01
 0.2990953741127E-01
 0.2964020871858E-01
 0.2909787408393E-01
 0.2821396158656E-01
 0.2714102821704E-01
 0.2686616063315E-01
 0.3002295758436E-01
 0.3918968746991E-01
 0.5095475673404E-01
 0.2499107125410E-01
 0.2719445649583E-01
 0.2871663284926E-01
 0.2943139218928E-01
 0.2969906418404E-01
 0.2981873436928E-01
 0.2991847366216E-01
 0.3004061514640E-01
 0.3019849286959E-01
 0.3039401634052E-01
 0.3061925083010E-01
 0.3084928853914E-01
 0.3102959554297E-01
 0.3106542774764E-01
 0.3082245059748E-01
 0.3013957995281E-01
 0.2892097515311E-01
 0.2776504520255E-01
 0.2951044621199E-01
 0.3860385508473E-01
 0.5231021382714E-01
 0.2536007969256E-01
 0.2773669213383E-01
 0.2916414993656E-01
 0.2965727307368E-01
 0.2977802879842E-01
 0.2985197767353E-01
 0.2997355375877E-01
 0.3016426464140E-01
 0.3043005207645E-01
 0.3077267119136E-01
 0.3118925598959E-01
 0.3166348414175E-01
 0.3214891413652E-01
 0.3255081504573E-01
 0.3271864139161E-01
 0.3244099002317E-01
 0.3140400631576E-01
 0.2959232929802E-01
 0.2953040830064E-01
 0.3796700305330E-01
 0.5410959179385E-01
 0.2588615812867E-01
 0.2842877068894E-01
 0.2962305522474E-01
 0.2979943345683E-01
 0.2976605946902E-01
 0.2980897153643E-01
 0.2996236869581E-01
 0.3022625172567E-01
 0.3060027420135E-01
 0.3108764050965E-01
 0.3169326182521E-01
 0.3241472041540E-01
 0.3322349138600E-01
 0.3404070854649E-01
 0.3472044029005E-01
 0.3504633644185E-01
 0.3461695748867E-01
 0.3271499514832E-01
 0.3066194117016E-01
 0.3739567271167E-01
 0.5664245568003E-01
 0.2667481806436E-01
 0.2931350628770E-01
 0.3002721078757E-01
 0.2979753331405E-01
 0.2964033554808E-01
 0.2967848358706E-01
 0.2987622001506E-01
 0.3021778770423E-01
 0.3069791858417E-01
 0.3132327093272E-01
 0.3210840817851E-01
 0.3306879412144E-01
 0.3420326886606E-01
 0.3546528247769E-01
 0.3674065904203E-01
 0.3783223397944E-01
 0.3842200123183E-01
 0.3742738526299E-01
 0.3386156251730E-01
 0.3734831153489E-01
 0.6052530418090E-01
 0.2793600615943E-01
 0.3040702306145E-01
 0.3022181962511E-01
 0.2958497143638E-01
 0.2938804184586E-01
 0.2945141245143E-01
 0.2970910984092E-01
 0.3013200405257E-01
 0.3071339516350E-01
 0.3146545678839E-01
 0.3241335431623E-01
 0.3359171381035E-01
 0.3503435685359E-01
 0.3674364317404E-01
 0.3866641236069E-01
 0.4066039373651E-01
 0.4249270722464E-01
 0.4359921667337E-01
 0.4048078060565E-01
 0.3922269665131E-01
 0.6732975353439E-01
 0.3014389689024E-01
 0.3153005363401E-01
 0.2990160937574E-01
 0.2915002307156E-01
 0.2899956337970E-01
 0.2912320007621E-01
 0.2945852125823E-01
 0.2996430516371E-01
 0.3063931107485E-01
 0.3150232597476E-01
 0.3258950946313E-01
 0.3395309790846E-01
 0.3566179379546E-01
 0.3778820541775E-01
 0.4036229919156E-01
 0.4336345639197E-01
 0.4654695351410E-01
 0.5013569099232E-01
 0.5158027474700E-01
 0.4643128800100E-01
 0.8221750553983E-01
 0.3462246852679E-01
 0.3128941312032E-01
 0.2896164570734E-01
 0.2852845940212E-01
 0.2846121874066E-01
 0.2870005220935E-01
 0.2912418169164E-01
 0.2971326568475E-01
 0.3047077805716E-01
 0.3142484447710E-01
 0.3262207144592E-01
 0.3412878865941E-01
 0.3603941015921E-01
 0.3849730749966E-01
 0.4170132939221E-01
 0.4568467781104E-01
 0.5050363392396E-01
 0.5565169290069E-01
 0.6499344037855E-01
 0.6281119977554E-01
 0.1289826684123E+00
 0.1118815234113E+01
 0.1735102589363E+01
 0.2159773869965E+01
 0.2434909000821E+01
 0.2581650373634E+01
 0.2631899241900E+01
 0.2619450217752E+01
 0.2560454231885E+01
 0.2452221138516E+01
 0.2307857375231E+01
 0.1063503185377E+01
 0.1713958906498E+01
 0.2177663925783E+01
 0.2495832501343E+01
 0.2685954879151E+01
 0.2775538014466E+01
 0.2797923257394E+01
 0.2769943369239E+01
 0.2682401843497E+01
 0.2530077728699E+01
 0.1012650894614E+01
 0.1703172397036E+01
 0.2201476794512E+01
 0.2554958955490E+01
 0.2782162503737E+01
 0.2909072327965E+01
 0.2966860214071E+01
 0.2971253953619E+01
 0.2915809261049E+01
 0.2795706381324E+01
 0.9687213707815E+00
 0.1697246673690E+01
 0.2227678665570E+01
 0.2610989074864E+01
 0.2870263572050E+01
 0.3031434369873E+01
 0.3124006137854E+01
 0.3164480817965E+01
 0.3151758098091E+01
 0.3082138508820E+01
 0.9317624388957E+00
 0.1694709610891E+01
 0.2253507103300E+01
 0.2662426024850E+01
 0.2949288494365E+01
 0.3141271479269E+01
 0.3267442034935E+01
 0.3346281785620E+01
 0.3381951049011E+01
 0.3373804708369E+01
 0.9015147539842E+00
 0.1694358084253E+01
 0.2277274467872E+01
 0.2707728348089E+01
 0.3017960276675E+01
 0.3236965844993E+01
 0.3394365976714E+01
 0.3511092634008E+01
 0.3596441863184E+01
 0.3654428306240E+01
 0.8776817938844E+00
 0.1695231583256E+01
 0.2297720629938E+01
 0.2745596828570E+01
 0.3074927901081E+01
 0.3316651815410E+01
 0.3501417457701E+01
 0.3652709348275E+01
 0.3784674698344E+01
 0.3906855357026E+01
 0.8600159558617E+00
 0.1696561223033E+01
 0.2313884380370E+01
 0.2774967169659E+01
 0.3118930666276E+01
 0.3378436203079E+01
 0.3585240652268E+01
 0.3765113670055E+01
 0.3936388973041E+01
 0.4114087778964E+01
 0.8483355317809E+00
 0.1697769203353E+01
 0.2325054724726E+01
 0.2795018243664E+01
 0.3148908505636E+01
 0.3420658612943E+01
 0.3642921297487E+01
 0.3843165206514E+01
 0.4042750294558E+01
 0.4261198758023E+01
 0.8425236982113E+00
 0.1698469703623E+01
 0.2330758439695E+01
 0.2805187213304E+01
 0.3164097384622E+01
 0.3442094122101E+01
 0.3672324716766E+01
 0.3883154267441E+01
 0.4097504479767E+01
 0.4337491548064E+01
 0.8425236987004E+00
 0.1698469703548E+01
 0.2330758439374E+01
 0.2805187212956E+01
 0.3164097384346E+01
 0.3442094121905E+01
 0.3672324716617E+01
 0.3883154267319E+01
 0.4097504479720E+01
 0.4337491548352E+01
 0.8483355332526E+00
 0.1697769203140E+01
 0.2325054723773E+01
 0.2795018242628E+01
 0.3148908504815E+01
 0.3420658612364E+01
 0.3642921297053E+01
 0.3843165206161E+01
 0.4042750294434E+01
 0.4261198758865E+01
 0.8600159583296E+00
 0.1696561222719E+01
 0.2313884378816E+01
 0.2774967167958E+01
 0.3118930664931E+01
 0.3378436202141E+01
 0.3585240651578E+01
 0.3765113669505E+01
 0.3936388972863E+01
 0.4114087780270E+01
 0.8776817973720E+00
 0.1695231582904E+01
 0.2297720627836E+01
 0.2745596826243E+01
 0.3074927899245E+01
 0.3316651814148E+01
 0.3501417456798E+01
 0.3652709347567E+01
 0.3784674698099E+01
 0.3906855358595E+01
 0.9015147585265E+00
 0.1694358083950E+01
 0.2277274465295E+01
 0.2707728345189E+01
 0.3017960274389E+01
 0.3236965843448E+01
 0.3394365975639E+01
 0.3511092633170E+01
 0.3596441862817E+01
 0.3654428307799E+01
 0.9317624445398E+00
 0.1694709610745E+01
 0.2253507100343E+01
 0.2662426021446E+01
 0.2949288491675E+01
 0.3141271477474E+01
 0.3267442033719E+01
 0.3346281784663E+01
 0.3381951048448E+01
 0.3373804709648E+01
 0.9687213775846E+00
 0.1697246673828E+01
 0.2227678662357E+01
 0.2610989071046E+01
 0.2870263569004E+01
 0.3031434367843E+01
 0.3124006136498E+01
 0.3164480816876E+01
 0.3151758097242E+01
 0.3082138509565E+01
 0.1012650902632E+01
 0.1703172397598E+01
 0.2201476791202E+01
 0.2554958951381E+01
 0.2782162500379E+01
 0.2909072325680E+01
 0.2966860212533E+01
 0.2971253952346E+01
 0.2915809259823E+01
 0.2795706381329E+01
 0.1063503194631E+01
 0.1713958907611E+01
 0.2177663922616E+01
 0.2495832497124E+01
 0.2685954875525E+01
 0.2775538011838E+01
 0.2797923255549E+01
 0.2769943367715E+01
 0.2682401841747E+01
 0.2530077727876E+01
 0.1118815244297E+01
 0.1735102591238E+01
 0.2159773867328E+01
 0.2434908996770E+01
 0.2581650369794E+01
 0.2631899238749E+01
 0.2619450215282E+01
 0.2560454229956E+01
 0.2452221136377E+01
 0.2307857373429E+01
 0.2425640908308E+01
 0.1782917348235E+01
 0.1051934347988E+01
 0.5729220086010E+00
 0.1404205455731E+00
 0.1051721088841E+00
 0.2087475268039E+00
 0.2328518559834E+00
 0.1731203631602E+00
 0.2065812712362E-01
 0.2222636604638E+01
 0.2087242317483E+01
 0.1364162643743E+01
 0.8394093706138E+00
 0.4141469816956E+00
 0.1494096146597E+00
 0.2962777188935E-01
 0.1198939422073E+00
 0.1261129024735E+00
 0.9310684922999E-02
 0.2029909922263E+01
 0.2159837354469E+01
 0.1658098283221E+01
 0.1131100362866E+01
 0.6948041781848E+00
 0.4072820801040E+00
 0.1931393949435E+00
 0.4032580861365E-01
 0.3763495502876E-01
 0.1874481077992E-01
 0.1864920005211E+01
 0.2155718772738E+01
 0.1867411952451E+01
 0.1424623485883E+01
 0.9933201373694E+00
 0.6856779261034E+00
 0.4471552871945E+00
 0.2500406164332E+00
 0.1049952523406E+00
 0.7994224253060E-01
 0.1721691300594E+01
 0.2120411260658E+01
 0.2009869658213E+01
 0.1687042276120E+01
 0.1300933760584E+01
 0.9878040954363E+00
 0.7350843877616E+00
 0.5103379950180E+00
 0.3137318479960E+00
 0.2061751794690E+00
 0.1594450142953E+01
 0.2070570433178E+01
 0.2103988537773E+01
 0.1907722085983E+01
 0.1598102028769E+01
 0.1305701173501E+01
 0.1053430579036E+01
 0.8200257546448E+00
 0.5946123248408E+00
 0.4169271272591E+00
 0.1478943773043E+01
 0.2012543292454E+01
 0.2162230083008E+01
 0.2086289758779E+01
 0.1870179933575E+01
 0.1623652700648E+01
 0.1390766820657E+01
 0.1169614160155E+01
 0.9436191119325E+00
 0.7195439521921E+00
 0.1372179001701E+01
 0.1948336906918E+01
 0.2191876268764E+01
 0.2225311924835E+01
 0.2109328322104E+01
 0.1927488426756E+01
 0.1731124266733E+01
 0.1539818127310E+01
 0.1343865148841E+01
 0.1107171456941E+01
 0.1272237293997E+01
 0.1878079257906E+01
 0.2196001238286E+01
 0.2327004113983E+01
 0.2311645412212E+01
 0.2207735482728E+01
 0.2062442693434E+01
 0.1906855152320E+01
 0.1759598772785E+01
 0.1559360507215E+01
 0.1180215180550E+01
 0.1798385432555E+01
 0.2174389129129E+01
 0.2391954762984E+01
 0.2473957375405E+01
 0.2457108535545E+01
 0.2379338127374E+01
 0.2266967094173E+01
 0.2143255857067E+01
 0.2019121234346E+01
 0.1180215190745E+01
 0.1798385436041E+01
 0.2174389126847E+01
 0.2391954758364E+01
 0.2473957370491E+01
 0.2457108531193E+01
 0.2379338123715E+01
 0.2266967091285E+01
 0.2143255855416E+01
 0.2019121230920E+01
 0.1272237303860E+01
 0.1878079262068E+01
 0.2196001236077E+01
 0.2327004108513E+01
 0.2311645406046E+01
 0.2207735477110E+01
 0.2062442688734E+01
 0.1906855148707E+01
 0.1759598770073E+01
 0.1559360501896E+01
 0.1372179011204E+01
 0.1948336911282E+01
 0.2191876266206E+01
 0.2225311918164E+01
 0.2109328314522E+01
 0.1927488419969E+01
 0.1731124261121E+01
 0.1539818122598E+01
 0.1343865144221E+01
 0.1107171451100E+01
 0.1478943782030E+01
 0.2012543296730E+01
 0.2162230079669E+01
 0.2086289750612E+01
 0.1870179924557E+01
 0.1623652692910E+01
 0.1390766814303E+01
 0.1169614154481E+01
 0.9436191061521E+00
 0.7195439472214E+00
 0.1594450151176E+01
 0.2070570436961E+01
 0.2103988533223E+01
 0.1907722076148E+01
 0.1598102018525E+01
 0.1305701165248E+01
 0.1053430572389E+01
 0.8200257486943E+00
 0.5946123190794E+00
 0.4169271245440E+00
 0.1721691307707E+01
 0.2120411263379E+01
 0.2009869652027E+01
 0.1687042264711E+01
 0.1300933749672E+01
 0.9878040873252E+00
 0.7350843814519E+00
 0.5103379896577E+00
 0.3137318434904E+00
 0.2061751801359E+00
 0.1864920010712E+01
 0.2155718773597E+01
 0.1867411944333E+01
 0.1424623473487E+01
 0.9933201266848E+00
 0.6856779187905E+00
 0.4471552818112E+00
 0.2500406124606E+00
 0.1049952500721E+00
 0.7994224712362E-01
 0.2029909925357E+01
 0.2159837352390E+01
 0.1658098273393E+01
 0.1131100350756E+01
 0.6948041686106E+00
 0.4072820739996E+00
 0.1931393909315E+00
 0.4032580660987E-01
 0.3763495455321E-01
 0.1874481883307E-01
 0.2222636603848E+01
 0.2087242311308E+01
 0.1364162634009E+01
 0.8394093601069E+00
 0.4141469736002E+00
 0.1494096099483E+00
 0.2962777417164E-01
 0.1198939419120E+00
 0.1261128992911E+00
 0.9310679227380E-02
 0.2425640901266E+01
 0.1782917340728E+01
 0.1051934341049E+01
 0.5729220003389E+00
 0.1404205388320E+00
 0.1051721118891E+00
 0.2087475272428E+00
 0.2328518534944E+00
 0.1731203571388E+00
 0.2065811758798E-01
 0.2012658911370E+01
 0.1490578701108E+01
 0.1038428567414E+01
 0.6707060411108E+00
 0.4049352551003E+00
 0.2468069185448E+00
 0.1797130222352E+00
 0.1670799802133E+00
 0.1643522276552E+00
 0.1331980402943E+00
 0.2267915056774E+01
 0.1806690907829E+01
 0.1315729230669E+01
 0.8851067319828E+00
 0.5542617259725E+00
 0.3432498108808E+00
 0.2480132759069E+00
 0.2346103434633E+00
 0.2467571100656E+00
 0.2387636737353E+00
 0.2550439839508E+01
 0.2135954048383E+01
 0.1662365808340E+01
 0.1195632862393E+01
 0.7974065151736E+00
 0.5104992723481E+00
 0.3548205389977E+00
 0.3143219667467E+00
 0.3309231104080E+00
 0.3347025372815E+00
 0.2870583732145E+01
 0.2508062136881E+01
 0.2075487383885E+01
 0.1611794682312E+01
 0.1169264010035E+01
 0.8016149633930E+00
 0.5527290157029E+00
 0.4407165168674E+00
 0.4322755642354E+00
 0.4397552884834E+00
 0.3216250912421E+01
 0.2920571629893E+01
 0.2556717199531E+01
 0.2138503025506E+01
 0.1699528727298E+01
 0.1284813507185E+01
 0.9448011929383E+00
 0.7241071266239E+00
 0.6368495768665E+00
 0.6070056711792E+00
 0.3568788945209E+01
 0.3356292271210E+01
 0.3085955268268E+01
 0.2755647906370E+01
 0.2381175406841E+01
 0.1992123720586E+01
 0.1631343273724E+01
 0.1354002601890E+01
 0.1221819046163E+01
 0.1275873877831E+01
 0.3903839936404E+01
 0.3785402507929E+01
 0.3623274193971E+01
 0.3408892531470E+01
 0.3146139355112E+01
 0.2850369824775E+01
 0.2551167625221E+01
 0.2298038129502E+01
 0.2169873421032E+01
 0.2297362294464E+01
 0.4190996554707E+01
 0.4162751989908E+01
 0.4103718072838E+01
 0.4004306062731E+01
 0.3859981725251E+01
 0.3671973647276E+01
 0.3449828389289E+01
 0.3216610233244E+01
 0.3018839066876E+01
 0.2943497867917E+01
 0.4401486162056E+01
 0.4444037061459E+01
 0.4464309482803E+01
 0.4454323801721E+01
 0.4404081358263E+01
 0.4302693643600E+01
 0.4138702951202E+01
 0.3900537820642E+01
 0.3577202981753E+01
 0.3157599038346E+01
 0.4513162510446E+01
 0.4594963361794E+01
 0.4658308309129E+01
 0.4697007968620E+01
 0.4698448184280E+01
 0.4644706430215E+01
 0.4510927566366E+01
 0.4261632200473E+01
 0.3844539165214E+01
 0.3181865840231E+01
 0.4513162511827E+01
 0.4594963364508E+01
 0.4658308313353E+01
 0.4697007974640E+01
 0.4698448192318E+01
 0.4644706440237E+01
 0.4510927577787E+01
 0.4261632211644E+01
 0.3844539172567E+01
 0.3181865836913E+01
 0.4401486165886E+01
 0.4444037068978E+01
 0.4464309494605E+01
 0.4454323818631E+01
 0.4404081380890E+01
 0.4302693671856E+01
 0.4138702983589E+01
 0.3900537853082E+01
 0.3577203005529E+01
 0.3157599036820E+01
 0.4190996560201E+01
 0.4162752000704E+01
 0.4103718090004E+01
 0.4004306087483E+01
 0.3859981758392E+01
 0.3671973688649E+01
 0.3449828437078E+01
 0.3216610282999E+01
 0.3018839110003E+01
 0.2943497888588E+01
 0.3903839942611E+01
 0.3785402520240E+01
 0.3623274213848E+01
 0.3408892560268E+01
 0.3146139393568E+01
 0.2850369872626E+01
 0.2551167680943E+01
 0.2298038190306E+01
 0.2169873483689E+01
 0.2297362358079E+01
 0.3568788951011E+01
 0.3356292282904E+01
 0.3085955287319E+01
 0.2755647933595E+01
 0.2381175442041E+01
 0.1992123762418E+01
 0.1631343319969E+01
 0.1354002650558E+01
 0.1221819098277E+01
 0.1275873945983E+01
 0.3216250917114E+01
 0.2920571639902E+01
 0.2556717216084E+01
 0.2138503048443E+01
 0.1699528755026E+01
 0.1284813536911E+01
 0.9448012214323E+00
 0.7241071517690E+00
 0.6368496003900E+00
 0.6070056983043E+00
 0.2870583735472E+01
 0.2508062145100E+01
 0.2075487397587E+01
 0.1611794700269E+01
 0.1169264029786E+01
 0.8016149820755E+00
 0.5527290312126E+00
 0.4407165292524E+00
 0.4322755758309E+00
 0.4397552998653E+00
 0.2550439841394E+01
 0.2135954054947E+01
 0.1662365819193E+01
 0.1195632875503E+01
 0.7974065282106E+00
 0.5104992836036E+00
 0.3548205481327E+00
 0.3143219749942E+00
 0.3309231192569E+00
 0.3347025465631E+00
 0.2267915057513E+01
 0.1806690913050E+01
 0.1315729238547E+01
 0.8851067405139E+00
 0.5542617339258E+00
 0.3432498179439E+00
 0.2480132827307E+00
 0.2346103510955E+00
 0.2467571188569E+00
 0.2387636828358E+00
 0.2012658911700E+01
 0.1490578704224E+01
 0.1038428571077E+01
 0.6707060447022E+00
 0.4049352587175E+00
 0.2468069229368E+00
 0.1797130283467E+00
 0.1670799884086E+00
 0.1643522372124E+00
 0.1331980491378E+00
</DataArray>
<DataArray type="Float64" Name="S_Hyd" NumberOfComponents="1" ComponentName0="S_Hyd" format="ascii">
 0.2298110477820E+00
 0.1613418747615E+00
 0.1560815330964E+00
 0.1523500088390E+00
 0.1522499508266E+00
 0.1534574034019E+00
 0.1557399566317E+00
 0.1588918459151E+00
 0.1629538196538E+00
 0.1680721432909E+00
 0.1744992520749E+00
 0.1825939780412E+00
 0.1928644099882E+00
 0.2062005661561E+00
 0.2238408802638E+00
 0.2464080406370E+00
 0.2726718306793E+00
 0.3081866630488E+00
 0.3365571576314E+00
 0.4946358505456E+00
 0.1349948386322E+00
 0.2094397318373E+00
 0.1767310095874E+00
 0.1604484067685E+00
 0.1568232854053E+00
 0.1554187913618E+00
 0.1560191497401E+00
 0.1577655924811E+00
 0.1604929115826E+00
 0.1641605621163E+00
 0.1688699057740E+00
 0.1748174204126E+00
 0.1822957553916E+00
 0.1917414833030E+00
 0.2038124567544E+00
 0.2191658073155E+00
 0.2375710694574E+00
 0.2593345809796E+00
 0.2805759086077E+00
 0.3172000172356E+00
 0.3174395103429E+00
 0.1271501875125E-02
 0.2010447844481E+00
 0.1806475597793E+00
 0.1660778182762E+00
 0.1603324937561E+00
 0.1584166109628E+00
 0.1583477076139E+00
 0.1596180442638E+00
 0.1619108228347E+00
 0.1651609088207E+00
 0.1694148987807E+00
 0.1748128637191E+00
 0.1815766489878E+00
 0.1900280244337E+00
 0.2005644616400E+00
 0.2133067054613E+00
 0.2279514028767E+00
 0.2429295622935E+00
 0.2578790257570E+00
 0.2670053585546E+00
 0.2025021400957E+00
-0.3056429961603E-01
 0.1965445429445E+00
 0.1820237313854E+00
 0.1699644776455E+00
 0.1636174697246E+00
 0.1610345938517E+00
 0.1604771311771E+00
 0.1612811408894E+00
 0.1631488512146E+00
 0.1659613924549E+00
 0.1697220461430E+00
 0.1745113660287E+00
 0.1804713048990E+00
 0.1877895787791E+00
 0.1965901257992E+00
 0.2066922261300E+00
 0.2172191877990E+00
 0.2265520217783E+00
 0.2317018870751E+00
 0.2165662304404E+00
 0.1351795613646E+00
-0.3700119900079E-01
 0.1938098892681E+00
 0.1826292828103E+00
 0.1726151354739E+00
 0.1663893931268E+00
 0.1633626270443E+00
 0.1623750053184E+00
 0.1627613841827E+00
 0.1642094126689E+00
 0.1665731921706E+00
 0.1698105432565E+00
 0.1739430865344E+00
 0.1790272644260E+00
 0.1851060617999E+00
 0.1920838748045E+00
 0.1994669496917E+00
 0.2060720174792E+00
 0.2097419683328E+00
 0.2048583875034E+00
 0.1752892902299E+00
 0.9476736833896E-01
-0.3654232763483E-01
 0.1920302338868E+00
 0.1829549341610E+00
 0.1744929937731E+00
 0.1686410180181E+00
 0.1653922848821E+00
 0.1640511984612E+00
 0.1640589894005E+00
 0.1651010047200E+00
 0.1670099905472E+00
 0.1697032387588E+00
 0.1731435022317E+00
 0.1772994607628E+00
 0.1820796471827E+00
 0.1871930328818E+00
 0.1919064451681E+00
 0.1947760219972E+00
 0.1929867615126E+00
 0.1801083405723E+00
 0.1434698953099E+00
 0.6947710827143E-01
-0.3408249623043E-01
 0.1908201222651E+00
 0.1831664948104E+00
 0.1758762081052E+00
 0.1704536031413E+00
 0.1671283653283E+00
 0.1655141081898E+00
 0.1651811459286E+00
 0.1658338226374E+00
 0.1672884962404E+00
 0.1694259446349E+00
 0.1721518753548E+00
 0.1753508173073E+00
 0.1788095219397E+00
 0.1820748297338E+00
 0.1842329033550E+00
 0.1836067167776E+00
 0.1770447907801E+00
 0.1585792221276E+00
 0.1193024684741E+00
 0.5304133609584E-01
-0.3099218167215E-01
 0.1899700817205E+00
 0.1833260545441E+00
 0.1769281942012E+00
 0.1719143337186E+00
 0.1685943961019E+00
 0.1667744149607E+00
 0.1661382114388E+00
 0.1664205967952E+00
 0.1674274844651E+00
 0.1690067243636E+00
 0.1710105936769E+00
 0.1732461733795E+00
 0.1753946221246E+00
 0.1768750509854E+00
 0.1766388793674E+00
 0.1728698700095E+00
 0.1624464117972E+00
 0.1404075153671E+00
 0.1009141486052E+00
 0.4200846491758E-01
-0.2759673965922E-01
 0.1893565385783E+00
 0.1834577955504E+00
 0.1777479434503E+00
 0.1730959886792E+00
 0.1698219441599E+00
 0.1678469400149E+00
 0.1669426132306E+00
 0.1668759990775E+00
 0.1674472742556E+00
 0.1684751618237E+00
 0.1697633186235E+00
 0.1710501539453E+00
 0.1719293362662E+00
 0.1717237197097E+00
 0.1692999104337E+00
 0.1628198956729E+00
 0.1494417757855E+00
 0.1252965918490E+00
 0.8682577608132E-01
 0.3428977399741E-01
-0.2388208688407E-01
 0.1889027208459E+00
 0.1835711089079E+00
 0.1783978652348E+00
 0.1740553091358E+00
 0.1708433924377E+00
 0.1687494366526E+00
 0.1676084561180E+00
 0.1672159749951E+00
 0.1673691624090E+00
 0.1678614719080E+00
 0.1684535444649E+00
 0.1688250913390E+00
 0.1685003468081E+00
 0.1667357367828E+00
 0.1623642047651E+00
 0.1536279210870E+00
 0.1380730806789E+00
 0.1128432853322E+00
 0.7587111751317E-01
 0.2879365738887E-01
-0.2082288998844E-01
 0.1885609808488E+00
 0.1836703371636E+00
 0.1789194138151E+00
 0.1748353858163E+00
 0.1716876477670E+00
 0.1694995304305E+00
 0.1681497416350E+00
 0.1674565366244E+00
 0.1672153090751E+00
 0.1671980911398E+00
 0.1671288098059E+00
 0.1666391230690E+00
 0.1652015189428E+00
 0.1620339135782E+00
 0.1559820560258E+00
 0.1454297621170E+00
 0.1283454131445E+00
 0.1026559330680E+00
 0.6745232684787E-01
 0.2431596058613E-01
-0.1797852854575E-01
 0.1882959239725E+00
 0.1837552438074E+00
 0.1793392987983E+00
 0.1754690628059E+00
 0.1723810936866E+00
 0.1701164459957E+00
 0.1685828001121E+00
 0.1676153166330E+00
 0.1670079128533E+00
 0.1665147255909E+00
 0.1658292394998E+00
 0.1645452581761E+00
 0.1620993914493E+00
 0.1576952118271E+00
 0.1502240285016E+00
 0.1382439742700E+00
 0.1201031555714E+00
 0.9438535412917E-01
 0.6071351892364E-01
 0.2143712982725E-01
-0.2027433592011E-01
 0.1880878386041E+00
 0.1838273015205E+00
 0.1796784392063E+00
 0.1759833505920E+00
 0.1729478057076E+00
 0.1706195121640E+00
 0.1689244434971E+00
 0.1677094676580E+00
 0.1667667484065E+00
 0.1658354672607E+00
 0.1645842911665E+00
 0.1625780508932E+00
 0.1592307413147E+00
 0.1537497735571E+00
 0.1450931067082E+00
 0.1319961174142E+00
 0.1131491134998E+00
 0.8758688486280E-01
 0.5545324989317E-01
 0.1853081174736E-01
-0.2033820464635E-01
 0.1879226489409E+00
 0.1838872931094E+00
 0.1799512934791E+00
 0.1763981519288E+00
 0.1734065459756E+00
 0.1710245564608E+00
 0.1691890285959E+00
 0.1677543995122E+00
 0.1665107333937E+00
 0.1651848792536E+00
 0.1634258119056E+00
 0.1607771855888E+00
 0.1566410675740E+00
 0.1502416116897E+00
 0.1406120760575E+00
 0.1266572282699E+00
 0.1073434516444E+00
 0.8207050408197E-01
 0.5118585578094E-01
 0.1630261189908E-01
-0.2007799323878E-01
 0.1877911154752E+00
 0.1839360864398E+00
 0.1801687082023E+00
 0.1767290403702E+00
 0.1737729410669E+00
 0.1713455898873E+00
 0.1693897505840E+00
 0.1677643612748E+00
 0.1662571667512E+00
 0.1645850244286E+00
 0.1623817339167E+00
 0.1591762525095E+00
 0.1543667265833E+00
 0.1472013091287E+00
 0.1367893085178E+00
 0.1221840047916E+00
 0.1025780226754E+00
 0.7762175558156E-01
 0.4779533446520E-01
 0.1460905609430E-01
-0.1966180918526E-01
 0.1876872474611E+00
 0.1839746522368E+00
 0.1803389303686E+00
 0.1769882007336E+00
 0.1740598130465E+00
 0.1715946784808E+00
 0.1695383369254E+00
 0.1677521073726E+00
 0.1660213978067E+00
 0.1640551681231E+00
 0.1614758947294E+00
 0.1578029486073E+00
 0.1524358124500E+00
 0.1446493330532E+00
 0.1336226007874E+00
 0.1185341206988E+00
 0.9875121286432E-01
 0.7410125724658E-01
 0.4515385472648E-01
 0.1334800512150E-01
-0.1921463670428E-01
 0.1876072379903E+00
 0.1840039924593E+00
 0.1804682391710E+00
 0.1771850745062E+00
 0.1742774629546E+00
 0.1717818877993E+00
 0.1696448246439E+00
 0.1677286283432E+00
 0.1658165630932E+00
 0.1636115664955E+00
 0.1607279929347E+00
 0.1566793945837E+00
 0.1508694231755E+00
 0.1425984136589E+00
 0.1311048973838E+00
 0.1156670156644E+00
 0.9578221328742E-01
 0.7140270356568E-01
 0.4315785856056E-01
 0.1243347587700E-01
-0.1880446455430E-01
 0.1875487367300E+00
 0.1840250471402E+00
 0.1805613376851E+00
 0.1773268022695E+00
 0.1744338936729E+00
 0.1719152651900E+00
 0.1697174008197E+00
 0.1677029418435E+00
 0.1656533836208E+00
 0.1632673288860E+00
 0.1601536193195E+00
 0.1558225734717E+00
 0.1496827920365E+00
 0.1410560301226E+00
 0.1292271619668E+00
 0.1135481444460E+00
 0.9360854583906E-01
 0.6944572234223E-01
 0.4172743855773E-01
 0.1180034336135E-01
-0.1847162582496E-01
 0.1875103534200E+00
 0.1840386060965E+00
 0.1806215940765E+00
 0.1774185219621E+00
 0.1745349755109E+00
 0.1720008388751E+00
 0.1697622908456E+00
 0.1676819366932E+00
 0.1655400165742E+00
 0.1630323337388E+00
 0.1597643424154E+00
 0.1552447600380E+00
 0.1488863563141E+00
 0.1400262199286E+00
 0.1279808230208E+00
 0.1121507366012E+00
 0.9218443730193E-01
 0.6817233003811E-01
 0.4080485220200E-01
 0.1140247236606E-01
-0.1823937310090E-01
 0.1874913278149E+00
 0.1840452372800E+00
 0.1806511868510E+00
 0.1774635630592E+00
 0.1745845618353E+00
 0.1720426229829E+00
 0.1697836832158E+00
 0.1676702631270E+00
 0.1654819527466E+00
 0.1629131835745E+00
 0.1595678048426E+00
 0.1549539028134E+00
 0.1484865926707E+00
 0.1395109358820E+00
 0.1273593866676E+00
 0.1114566189705E+00
 0.9147983203449E-01
 0.6754489389248E-01
 0.4035272618560E-01
 0.1121061160026E-01
-0.1812043723210E-01
 0.1874913278053E+00
 0.1840452372706E+00
 0.1806511868417E+00
 0.1774635630498E+00
 0.1745845618259E+00
 0.1720426229738E+00
 0.1697836832073E+00
 0.1676702631198E+00
 0.1654819527416E+00
 0.1629131835727E+00
 0.1595678048455E+00
 0.1549539028227E+00
 0.1484865926882E+00
 0.1395109359091E+00
 0.1273593867045E+00
 0.1114566190154E+00
 0.9147983208263E-01
 0.6754489393547E-01
 0.4035272621252E-01
 0.1121061160045E-01
-0.1812043726518E-01
 0.1875103533910E+00
 0.1840386060683E+00
 0.1806215940485E+00
 0.1774185219340E+00
 0.1745349754827E+00
 0.1720008388476E+00
 0.1697622908201E+00
 0.1676819366716E+00
 0.1655400165589E+00
 0.1630323337332E+00
 0.1597643424239E+00
 0.1552447600656E+00
 0.1488863563662E+00
 0.1400262200096E+00
 0.1279808231317E+00
 0.1121507367367E+00
 0.9218443744769E-01
 0.6817233016890E-01
 0.4080485228463E-01
 0.1140247236789E-01
-0.1823937320003E-01
 0.1875487366816E+00
 0.1840250470932E+00
 0.1805613376384E+00
 0.1773268022224E+00
 0.1744338936258E+00
 0.1719152651441E+00
 0.1697174007770E+00
 0.1677029418070E+00
 0.1656533835948E+00
 0.1632673288762E+00
 0.1601536193328E+00
 0.1558225735169E+00
 0.1496827921226E+00
 0.1410560302572E+00
 0.1292271621523E+00
 0.1135481446743E+00
 0.9360854608648E-01
 0.6944572256638E-01
 0.4172743870184E-01
 0.1180034336877E-01
-0.1847162598975E-01
 0.1876072379225E+00
 0.1840039923935E+00
 0.1804682391055E+00
 0.1771850744403E+00
 0.1742774628885E+00
 0.1717818877346E+00
 0.1696448245836E+00
 0.1677286282915E+00
 0.1658165630560E+00
 0.1636115664805E+00
 0.1607279929519E+00
 0.1566793946451E+00
 0.1508694232943E+00
 0.1425984138465E+00
 0.1311048976449E+00
 0.1156670159891E+00
 0.9578221364323E-01
 0.7140270389266E-01
 0.4315785877619E-01
 0.1243347589701E-01
-0.1880446478401E-01
 0.1876872473739E+00
 0.1839746521521E+00
 0.1803389302843E+00
 0.1769882006485E+00
 0.1740598129610E+00
 0.1715946783970E+00
 0.1695383368471E+00
 0.1677521073051E+00
 0.1660213977574E+00
 0.1640551681017E+00
 0.1614758947487E+00
 0.1578029486830E+00
 0.1524358125996E+00
 0.1446493332929E+00
 0.1336226011251E+00
 0.1185341211245E+00
 0.9875121333796E-01
 0.7410125769013E-01
 0.4515385502864E-01
 0.1334800516492E-01
-0.1921463699762E-01
 0.1877911153685E+00
 0.1839360863362E+00
 0.1801687080991E+00
 0.1767290402658E+00
 0.1737729409618E+00
 0.1713455897841E+00
 0.1693897504870E+00
 0.1677643611906E+00
 0.1662571666885E+00
 0.1645850243993E+00
 0.1623817339360E+00
 0.1591762525969E+00
 0.1543667267612E+00
 0.1472013094187E+00
 0.1367893089330E+00
 0.1221840053239E+00
 0.1025780232790E+00
 0.7762175616007E-01
 0.4779533487484E-01
 0.1460905617704E-01
-0.1966180953994E-01
 0.1879226488146E+00
 0.1838872929870E+00
 0.1799512933569E+00
 0.1763981518049E+00
 0.1734065458505E+00
 0.1710245563375E+00
 0.1691890284796E+00
 0.1677543994104E+00
 0.1665107333164E+00
 0.1651848792145E+00
 0.1634258119225E+00
 0.1607771856848E+00
 0.1566410677766E+00
 0.1502416120272E+00
 0.1406120765503E+00
 0.1266572289150E+00
 0.1073434523928E+00
 0.8207050481892E-01
 0.5118585632620E-01
 0.1630261204426E-01
-0.2007799365040E-01
 0.1880878384583E+00
 0.1838273013791E+00
 0.1796784390651E+00
 0.1759833504483E+00
 0.1729478055619E+00
 0.1706195120200E+00
 0.1689244433607E+00
 0.1677094675375E+00
 0.1667667483131E+00
 0.1658354672096E+00
 0.1645842911780E+00
 0.1625780509938E+00
 0.1592307415375E+00
 0.1537497739381E+00
 0.1450931072776E+00
 0.1319961181778E+00
 0.1131491144103E+00
 0.8758688578724E-01
 0.5545325061041E-01
 0.1853081198873E-01
-0.2033820510526E-01
 0.1882959238070E+00
 0.1837552436472E+00
 0.1793392986378E+00
 0.1754690626419E+00
 0.1723810935198E+00
 0.1701164458302E+00
 0.1685827999547E+00
 0.1676153164927E+00
 0.1670079127421E+00
 0.1665147255254E+00
 0.1658292395024E+00
 0.1645452582769E+00
 0.1620993916867E+00
 0.1576952122459E+00
 0.1502240291443E+00
 0.1382439751569E+00
 0.1201031566628E+00
 0.9438535527909E-01
 0.6071351985393E-01
 0.2143713021773E-01
-0.2027433640715E-01
 0.1885609806634E+00
 0.1836703369846E+00
 0.1789194136351E+00
 0.1748353856316E+00
 0.1716876475785E+00
 0.1694995302428E+00
 0.1681497414556E+00
 0.1674565364629E+00
 0.1672153089444E+00
 0.1671980910573E+00
 0.1671288097959E+00
 0.1666391231646E+00
 0.1652015191881E+00
 0.1620339140271E+00
 0.1559820567359E+00
 0.1454297631289E+00
 0.1283454144365E+00
 0.1026559344862E+00
 0.6745232806034E-01
 0.2431596113624E-01
-0.1797852888368E-01
 0.1889027206422E+00
 0.1835711087109E+00
 0.1783978650364E+00
 0.1740553089314E+00
 0.1708433922285E+00
 0.1687494364439E+00
 0.1676084559174E+00
 0.1672159748122E+00
 0.1673691622563E+00
 0.1678614718027E+00
 0.1684535444314E+00
 0.1688250914112E+00
 0.1685003470327E+00
 0.1667357372199E+00
 0.1623642054853E+00
 0.1536279221551E+00
 0.1380730821046E+00
 0.1128432869786E+00
 0.7587111899882E-01
 0.2879365815574E-01
-0.2082289033018E-01
 0.1893565383544E+00
 0.1834577953346E+00
 0.1777479432329E+00
 0.1730959884555E+00
 0.1698219439315E+00
 0.1678469397872E+00
 0.1669426130107E+00
 0.1668759988741E+00
 0.1674472740799E+00
 0.1684751616916E+00
 0.1697633185572E+00
 0.1710501539772E+00
 0.1719293364418E+00
 0.1717237200906E+00
 0.1692999110983E+00
 0.1628198967077E+00
 0.1494417772428E+00
 0.1252965936353E+00
 0.8682577780564E-01
 0.3428977496732E-01
-0.2388208713899E-01
 0.1899700814762E+00
 0.1833260543094E+00
 0.1769281939649E+00
 0.1719143334759E+00
 0.1685943958549E+00
 0.1667744147148E+00
 0.1661382112004E+00
 0.1664205965719E+00
 0.1674274842667E+00
 0.1690067242039E+00
 0.1710105935759E+00
 0.1732461733666E+00
 0.1753946222426E+00
 0.1768750512950E+00
 0.1766388799502E+00
 0.1728698709696E+00
 0.1624464132353E+00
 0.1404075172630E+00
 0.1009141505862E+00
 0.4200846615291E-01
-0.2759673991467E-01
 0.1908201219999E+00
 0.1831664945568E+00
 0.1758762078501E+00
 0.1704536028800E+00
 0.1671283650637E+00
 0.1655141079270E+00
 0.1651811456732E+00
 0.1658338223955E+00
 0.1672884960202E+00
 0.1694259444480E+00
 0.1721518752183E+00
 0.1753508172469E+00
 0.1788095219941E+00
 0.1820748299601E+00
 0.1842329038334E+00
 0.1836067176202E+00
 0.1770447921327E+00
 0.1585792240738E+00
 0.1193024707210E+00
 0.5304133765411E-01
-0.3099218193186E-01
 0.1920302336003E+00
 0.1829549338885E+00
 0.1744929934994E+00
 0.1686410177390E+00
 0.1653922846012E+00
 0.1640511981833E+00
 0.1640589891296E+00
 0.1651010044611E+00
 0.1670099903067E+00
 0.1697032385460E+00
 0.1731435020604E+00
 0.1772994606544E+00
 0.1820796471706E+00
 0.1871930330170E+00
 0.1919064455252E+00
 0.1947760226839E+00
 0.1929867627002E+00
 0.1801083424689E+00
 0.1434698977990E+00
 0.6947711023716E-01
-0.3408249647169E-01
 0.1938098889595E+00
 0.1826292825189E+00
 0.1726151351818E+00
 0.1663893928312E+00
 0.1633626267493E+00
 0.1623750050273E+00
 0.1627613838985E+00
 0.1642094123951E+00
 0.1665731919119E+00
 0.1698105430199E+00
 0.1739430863305E+00
 0.1790272642716E+00
 0.1851060617218E+00
 0.1920838748456E+00
 0.1994669499179E+00
 0.2060720179849E+00
 0.2097419692765E+00
 0.2048583891972E+00
 0.1752892928675E+00
 0.9476737082391E-01
-0.3654232780207E-01
 0.1965445426127E+00
 0.1820237310752E+00
 0.1699644773357E+00
 0.1636174694146E+00
 0.1610345935450E+00
 0.1604771308751E+00
 0.1612811405941E+00
 0.1631488509282E+00
 0.1659613921806E+00
 0.1697220458856E+00
 0.1745113657958E+00
 0.1804713047027E+00
 0.1877895786392E+00
 0.1965901257491E+00
 0.2066922262227E+00
 0.2172191881148E+00
 0.2265520224300E+00
 0.2317018883698E+00
 0.2165662329898E+00
 0.1351795644790E+00
-0.3700119897652E-01
 0.2010447840912E+00
 0.1806475594504E+00
 0.1660778179507E+00
 0.1603324934357E+00
 0.1584166106474E+00
 0.1583477073037E+00
 0.1596180439599E+00
 0.1619108225383E+00
 0.1651609085337E+00
 0.1694148985063E+00
 0.1748128634621E+00
 0.1815766487558E+00
 0.1900280242396E+00
 0.2005644615075E+00
 0.2133067054286E+00
 0.2279514030016E+00
 0.2429295626620E+00
 0.2578790265023E+00
 0.2670053605356E+00
 0.2025021438085E+00
-0.3056429915917E-01
 0.2094397314514E+00
 0.1767310092407E+00
 0.1604484064338E+00
 0.1568232850789E+00
 0.1554187910405E+00
 0.1560191494243E+00
 0.1577655921711E+00
 0.1604929112791E+00
 0.1641605618203E+00
 0.1688699054870E+00
 0.1748174201372E+00
 0.1822957551320E+00
 0.1917414830662E+00
 0.2038124565538E+00
 0.2191658071762E+00
 0.2375710694071E+00
 0.2593345810761E+00
 0.2805759088859E+00
 0.3172000180152E+00
 0.3174395139932E+00
 0.1271503090052E-02
 0.2298110473470E+00
 0.1613418744155E+00
 0.1560815327603E+00
 0.1523500085099E+00
 0.1522499505027E+00
 0.1534574030832E+00
 0.1557399563183E+00
 0.1588918456074E+00
 0.1629538193522E+00
 0.1680721429961E+00
 0.1744992517878E+00
 0.1825939777633E+00
 0.1928644097220E+00
 0.2062005659080E+00
 0.2238408800437E+00
 0.2464080404538E+00
 0.2726718305144E+00
 0.3081866629975E+00
 0.3365571573101E+00
 0.4946358523137E+00
 0.1349948395047E+00
 0.2121893756775E+01
 0.1946839680671E+01
 0.1750028214454E+01
 0.1572551838706E+01
 0.1414942310398E+01
 0.1297185707394E+01
 0.1220706426464E+01
 0.1178832639307E+01
 0.1178018105836E+01
 0.1235834806097E+01
 0.2195069758507E+01
 0.1970755185919E+01
 0.1781756760391E+01
 0.1607817507703E+01
 0.1462952331854E+01
 0.1354044827237E+01
 0.1285698191744E+01
 0.1258710951233E+01
 0.1280233896169E+01
 0.1329484707427E+01
 0.2240634725384E+01
 0.2006071969807E+01
 0.1809301131829E+01
 0.1641390810422E+01
 0.1504210120680E+01
 0.1404491136531E+01
 0.1346259892369E+01
 0.1332384768252E+01
 0.1362144408106E+01
 0.1425731230852E+01
 0.2279909905526E+01
 0.2037233447096E+01
 0.1836711108589E+01
 0.1670852645408E+01
 0.1540322742520E+01
 0.1448775964398E+01
 0.1400106972060E+01
 0.1396029690923E+01
 0.1437172263889E+01
 0.1521274546782E+01
 0.2313946779748E+01
 0.2064735651423E+01
 0.1861139436388E+01
 0.1696752657453E+01
 0.1571224728693E+01
 0.1486769715328E+01
 0.1446095730651E+01
 0.1451262443981E+01
 0.1504900273371E+01
 0.1609839791523E+01
 0.2343009309360E+01
 0.2088153572438E+01
 0.1882020781094E+01
 0.1718619178421E+01
 0.1597004995918E+01
 0.1518253657981E+01
 0.1484381493567E+01
 0.1498005874089E+01
 0.1563667014003E+01
 0.1688275939786E+01
 0.2366825728783E+01
 0.2107238331768E+01
 0.1898990694924E+01
 0.1736247884846E+01
 0.1617586147082E+01
 0.1543308131801E+01
 0.1515006410942E+01
 0.1535882202130E+01
 0.1612098951662E+01
 0.1753849358537E+01
 0.2385054580030E+01
 0.2121761410619E+01
 0.1911851580916E+01
 0.1749515281037E+01
 0.1632973842225E+01
 0.1562012077524E+01
 0.1537980362561E+01
 0.1564579507224E+01
 0.1649137547527E+01
 0.1804444651052E+01
 0.2397390864740E+01
 0.2131545156237E+01
 0.1920481809139E+01
 0.1758371332463E+01
 0.1643200328212E+01
 0.1574436473055E+01
 0.1553303895783E+01
 0.1583862083659E+01
 0.1674204430072E+01
 0.1838267305885E+01
 0.2403615651074E+01
 0.2136467786899E+01
 0.1924812514131E+01
 0.1762800573190E+01
 0.1648302148848E+01
 0.1580634533457E+01
 0.1560968653802E+01
 0.1593561955471E+01
 0.1686859867205E+01
 0.1854958859675E+01
 0.2403615650498E+01
 0.2136467786532E+01
 0.1924812513900E+01
 0.1762800573047E+01
 0.1648302148767E+01
 0.1580634533415E+01
 0.1560968653781E+01
 0.1593561955452E+01
 0.1686859867141E+01
 0.1854958859435E+01
 0.2397390863023E+01
 0.2131545155143E+01
 0.1920481808450E+01
 0.1758371332037E+01
 0.1643200327968E+01
 0.1574436472927E+01
 0.1553303895721E+01
 0.1583862083606E+01
 0.1674204429906E+01
 0.1838267305278E+01
 0.2385054577203E+01
 0.2121761408815E+01
 0.1911851579778E+01
 0.1749515280331E+01
 0.1632973841818E+01
 0.1562012077311E+01
 0.1537980362461E+01
 0.1564579507157E+01
 0.1649137547325E+01
 0.1804444650342E+01
 0.2366825724897E+01
 0.2107238329283E+01
 0.1898990693353E+01
 0.1736247883868E+01
 0.1617586146512E+01
 0.1543308131498E+01
 0.1515006410810E+01
 0.1535882202085E+01
 0.1612098951533E+01
 0.1753849357955E+01
 0.2343009304478E+01
 0.2088153569310E+01
 0.1882020779114E+01
 0.1718619177182E+01
 0.1597004995184E+01
 0.1518253657582E+01
 0.1484381493405E+01
 0.1498005874104E+01
 0.1563667014064E+01
 0.1688275939529E+01
 0.2313946773944E+01
 0.2064735647700E+01
 0.1861139434035E+01
 0.1696752655972E+01
 0.1571224727796E+01
 0.1486769714820E+01
 0.1446095730452E+01
 0.1451262444082E+01
 0.1504900273707E+01
 0.1609839791785E+01
 0.2279909898863E+01
 0.2037233442828E+01
 0.1836711105912E+01
 0.1670852643719E+01
 0.1540322741459E+01
 0.1448775963760E+01
 0.1400106971794E+01
 0.1396029691111E+01
 0.1437172264563E+01
 0.1521274547703E+01
 0.2240634717876E+01
 0.2006071965052E+01
 0.1809301128902E+01
 0.1641390808579E+01
 0.1504210119463E+01
 0.1404491135709E+01
 0.1346259892003E+01
 0.1332384768467E+01
 0.1362144409158E+01
 0.1425731232539E+01
 0.2195069750058E+01
 0.1970755180689E+01
 0.1781756757398E+01
 0.1607817505749E+01
 0.1462952330504E+01
 0.1354044826212E+01
 0.1285698191055E+01
 0.1258710951578E+01
 0.1280233897385E+01
 0.1329484710003E+01
 0.2121893746079E+01
 0.1946839675741E+01
 0.1750028211300E+01
 0.1572551836825E+01
 0.1414942308964E+01
 0.1297185706047E+01
 0.1220706425481E+01
 0.1178832638882E+01
 0.1178018108568E+01
 0.1235834807816E+01
 0.4153439439171E+01
 0.7182550480033E+00
 0.7210260974216E+00
 0.4446782861507E+00
 0.2062276659422E+00
-0.1750898560109E+00
-0.2394712193659E+00
-0.2399712701459E+00
-0.1865126693316E+00
-0.1567292937080E+00
 0.2892192673801E+01
 0.1570725769462E+01
 0.7748190006870E+00
 0.5645881352959E+00
 0.2886080186413E+00
 0.5070385469433E-01
-0.9639408117715E-01
-0.1292298017925E+00
-0.1244570028263E+00
-0.1265361113124E+00
 0.2463060630540E+01
 0.1699550439371E+01
 0.1074132922786E+01
 0.6693529426638E+00
 0.4142733390213E+00
 0.2147167271601E+00
 0.7316486924166E-01
 0.2387252576223E-02
-0.2359312600048E-01
-0.5336309110458E-01
 0.2268056332368E+01
 0.1732930646850E+01
 0.1259765750047E+01
 0.8430141838126E+00
 0.5475453198736E+00
 0.3725025136510E+00
 0.2357936940091E+00
 0.1531404004507E+00
 0.1054240583066E+00
 0.6630094531268E-01
 0.2173348232543E+01
 0.1752793882166E+01
 0.1379166988634E+01
 0.1005443311070E+01
 0.7014113491377E+00
 0.5277666145348E+00
 0.3965354624715E+00
 0.3101965231223E+00
 0.2548664940714E+00
 0.2220760063531E+00
 0.2129878616770E+01
 0.1775070624926E+01
 0.1465833799934E+01
 0.1143237891627E+01
 0.8564205775674E+00
 0.6833276133447E+00
 0.5553619665529E+00
 0.4691539143618E+00
 0.4143733981833E+00
 0.3996277736254E+00
 0.2115279681979E+01
 0.1802244528280E+01
 0.1536185996302E+01
 0.1260140604611E+01
 0.1002381228385E+01
 0.8350204709040E+00
 0.7109346131568E+00
 0.6265031562125E+00
 0.5750189866117E+00
 0.5833475680598E+00
 0.2118127784135E+01
 0.1833515610407E+01
 0.1597734062438E+01
 0.1361335289731E+01
 0.1136709605966E+01
 0.9802568659892E+00
 0.8631923445322E+00
 0.7772970065285E+00
 0.7297821676573E+00
 0.7568440457836E+00
 0.2132260173380E+01
 0.1868126882564E+01
 0.1652549881025E+01
 0.1450848498312E+01
 0.1258642798240E+01
 0.1118403370857E+01
 0.1012767325936E+01
 0.9316667702789E+00
 0.8594847719629E+00
 0.9065729247303E+00
 0.2167432729504E+01
 0.1895144966468E+01
 0.1705198316078E+01
 0.1529243257514E+01
 0.1368825700853E+01
 0.1245356697724E+01
 0.1158509544584E+01
 0.1094746451263E+01
 0.1031770846944E+01
 0.9267498797953E+00
 0.2167432724200E+01
 0.1895144959779E+01
 0.1705198311336E+01
 0.1529243253645E+01
 0.1368825698170E+01
 0.1245356696035E+01
 0.1158509543401E+01
 0.1094746450404E+01
 0.1031770844864E+01
 0.9267498834538E+00
 0.2132260167728E+01
 0.1868126876873E+01
 0.1652549876144E+01
 0.1450848494002E+01
 0.1258642794899E+01
 0.1118403368484E+01
 0.1012767324189E+01
 0.9316667687523E+00
 0.8594847709660E+00
 0.9065729284124E+00
 0.2118127779782E+01
 0.1833515605279E+01
 0.1597734057726E+01
 0.1361335284815E+01
 0.1136709601972E+01
 0.9802568631554E+00
 0.8631923424890E+00
 0.7772970051761E+00
 0.7297821667791E+00
 0.7568440490172E+00
 0.2115279679575E+01
 0.1802244523933E+01
 0.1536185991640E+01
 0.1260140598996E+01
 0.1002381223834E+01
 0.8350204678198E+00
 0.7109346111106E+00
 0.6265031549380E+00
 0.5750189857827E+00
 0.5833475703630E+00
 0.2129878616889E+01
 0.1775070621433E+01
 0.1465833795127E+01
 0.1143237885198E+01
 0.8564205726604E+00
 0.6833276102304E+00
 0.5553619646042E+00
 0.4691539131978E+00
 0.4143733972645E+00
 0.3996277747654E+00
 0.2173348235788E+01
 0.1752793879391E+01
 0.1379166983288E+01
 0.1005443303837E+01
 0.7014113442408E+00
 0.5277666115713E+00
 0.3965354606808E+00
 0.3101965220622E+00
 0.2548664930594E+00
 0.2220760063076E+00
 0.2268056339480E+01
 0.1732930644234E+01
 0.1259765743540E+01
 0.8430141762717E+00
 0.5475453154951E+00
 0.3725025108557E+00
 0.2357936923526E+00
 0.1531403995395E+00
 0.1054240573796E+00
 0.6630094432671E-01
 0.2463060642505E+01
 0.1699550435353E+01
 0.1074132914650E+01
 0.6693529364600E+00
 0.4142733351686E+00
 0.2147167243402E+00
 0.7316486769030E-01
 0.2387252014424E-02
-0.2359312644908E-01
-0.5336309250915E-01
 0.2892192691984E+01
 0.1570725759381E+01
 0.7748189941639E+00
 0.5645881313248E+00
 0.2886080147508E+00
 0.5070385150809E-01
-0.9639408248263E-01
-0.1292298015513E+00
-0.1244570022571E+00
-0.1265361124153E+00
 0.4153439450017E+01
 0.7182550378106E+00
 0.7210260938996E+00
 0.4446782848839E+00
 0.2062276603768E+00
-0.1750898594311E+00
-0.2394712196488E+00
-0.2399712695604E+00
-0.1865126661524E+00
-0.1567292942859E+00
 0.1299233045761E+01
 0.9756393572062E+00
 0.7803370266656E+00
 0.5781859966694E+00
 0.3798474791066E+00
 0.1943451997611E+00
 0.3815076212879E-01
-0.7306802983380E-01
-0.1324811156546E+00
-0.1267086464205E+00
 0.1328884760839E+01
 0.1164474790191E+01
 0.9421755392417E+00
 0.7307973235801E+00
 0.5121988646073E+00
 0.2971027355724E+00
 0.1010766536688E+00
-0.5467671194655E-01
-0.1511898354337E+00
-0.1989086371062E+00
 0.1430900670983E+01
 0.1311441875499E+01
 0.1141121524714E+01
 0.9327953116286E+00
 0.7021604775389E+00
 0.4541565674665E+00
 0.2042777048038E+00
-0.1922321704920E-01
-0.1818469026200E+00
-0.2652558837265E+00
 0.1537738155808E+01
 0.1472334476996E+01
 0.1352481366528E+01
 0.1184321858547E+01
 0.9689415084819E+00
 0.7095362780570E+00
 0.4124847070337E+00
 0.9818571802631E-01
-0.1778302256038E+00
-0.3449652394351E+00
 0.1643699971432E+01
 0.1630032802094E+01
 0.1571980001734E+01
 0.1467290067522E+01
 0.1309656484817E+01
 0.1089704331795E+01
 0.7972566709598E+00
 0.4256773335197E+00
-0.1284514059079E-01
-0.4032283297689E+00
 0.1741988729573E+01
 0.1771639590975E+01
 0.1773608893652E+01
 0.1745074203729E+01
 0.1677953662879E+01
 0.1559277619624E+01
 0.1369228789017E+01
 0.1078516731248E+01
 0.6451777142020E+00
 0.2416111379478E-01
 0.1829559451037E+01
 0.1890842321721E+01
 0.1943253304994E+01
 0.1985308578191E+01
 0.2012970504699E+01
 0.2018358931111E+01
 0.1987085768619E+01
 0.1892530265205E+01
 0.1684699107627E+01
 0.1239910756101E+01
 0.1902501688815E+01
 0.1985370580708E+01
 0.2075499392596E+01
 0.2172634727876E+01
 0.2276638718289E+01
 0.2386292224689E+01
 0.2497486340860E+01
 0.2599987630027E+01
 0.2669493885498E+01
 0.2666588319562E+01
 0.1955578575412E+01
 0.2050631260346E+01
 0.2164571266450E+01
 0.2298015484915E+01
 0.2453762700373E+01
 0.2636240804512E+01
 0.2851495164503E+01
 0.3107344215224E+01
 0.3415759354316E+01
 0.3797529756362E+01
 0.1983854773508E+01
 0.2083852409382E+01
 0.2208900157993E+01
 0.2360023383119E+01
 0.2541627641919E+01
 0.2761416305793E+01
 0.3031609959287E+01
 0.3371708071778E+01
 0.3812686284093E+01
 0.4402086702799E+01
 0.1983854773672E+01
 0.2083852409542E+01
 0.2208900158355E+01
 0.2360023383920E+01
 0.2541627643462E+01
 0.2761416308521E+01
 0.3031609963921E+01
 0.3371708079605E+01
 0.3812686297241E+01
 0.4402086725403E+01
 0.1955578575822E+01
 0.2050631260868E+01
 0.2164571267708E+01
 0.2298015487613E+01
 0.2453762705408E+01
 0.2636240813161E+01
 0.2851495178771E+01
 0.3107344238539E+01
 0.3415759392877E+01
 0.3797529820154E+01
 0.1902501689264E+01
 0.1985370581630E+01
 0.2075499394988E+01
 0.2172634732873E+01
 0.2276638727316E+01
 0.2386292239693E+01
 0.2497486364711E+01
 0.2599987667182E+01
 0.2669493943698E+01
 0.2666588414013E+01
 0.1829559451444E+01
 0.1890842323142E+01
 0.1943253308803E+01
 0.1985308585928E+01
 0.2012970518289E+01
 0.2018358953048E+01
 0.1987085802160E+01
 0.1892530314666E+01
 0.1684699177950E+01
 0.1239910855839E+01
 0.1741988729889E+01
 0.1771639592947E+01
 0.1773608898781E+01
 0.1745074213686E+01
 0.1677953679596E+01
 0.1559277645249E+01
 0.1369228825714E+01
 0.1078516780341E+01
 0.6451777747211E+00
 0.2416116600655E-01
 0.1643699971907E+01
 0.1630032805158E+01
 0.1571980008656E+01
 0.1467290079459E+01
 0.1309656502589E+01
 0.1089704355548E+01
 0.7972566995194E+00
 0.4256773633526E+00
-0.1284511890537E-01
-0.4032283258496E+00
 0.1537738156638E+01
 0.1472334480924E+01
 0.1352481374202E+01
 0.1184321870131E+01
 0.9689415234318E+00
 0.7095362949436E+00
 0.4124847232485E+00
 0.9818572923617E-01
-0.1778302236714E+00
-0.3449652467973E+00
 0.1430900672231E+01
 0.1311441879803E+01
 0.1141121531976E+01
 0.9327953210672E+00
 0.7021604880098E+00
 0.4541565773473E+00
 0.2042777119752E+00
-0.1922321461244E-01
-0.1818469054281E+00
-0.2652558896578E+00
 0.1328884762466E+01
 0.1164474794613E+01
 0.9421755451115E+00
 0.7307973301276E+00
 0.5121988709373E+00
 0.2971027406529E+00
 0.1010766564605E+00
-0.5467671205315E-01
-0.1511898380544E+00
-0.1989086421023E+00
 0.1299233049538E+01
 0.9756393608862E+00
 0.7803370303370E+00
 0.5781860001278E+00
 0.3798474820378E+00
 0.1943452017909E+00
 0.3815076302684E-01
-0.7306802998232E-01
-0.1324811167828E+00
-0.1267086480999E+00
</DataArray>
<DataArray type="Float64" Name="S_Oct" NumberOfComponents="1" ComponentName0="S_Oct" format="ascii">
 0.1632118821714E-01
 0.1474997082847E-01
 0.1365265074542E-01
 0.1344844476227E-01
 0.1341674721004E-01
 0.1352933438645E-01
 0.1372927094132E-01
 0.1400696779828E-01
 0.1436406255462E-01
 0.1481381377746E-01
 0.1537819198223E-01
 0.1608846528729E-01
 0.1698914089859E-01
 0.1814780481459E-01
 0.1965819521627E-01
 0.2153596366488E-01
 0.2380764135598E-01
 0.2623445962885E-01
 0.3063820157659E-01
 0.2960948348724E-01
 0.6080301271285E-01
 0.1420996929538E-01
 0.1486340985252E-01
 0.1409575386718E-01
 0.1374145268537E-01
 0.1367052530607E-01
 0.1372880820333E-01
 0.1388688012392E-01
 0.1412530894287E-01
 0.1444350978015E-01
 0.1485033890446E-01
 0.1536284211448E-01
 0.1600564387025E-01
 0.1681113083331E-01
 0.1781353088072E-01
 0.1902697031545E-01
 0.2044172937583E-01
 0.2194244429446E-01
 0.2363419133543E-01
 0.2431517456687E-01
 0.2188791897031E-01
 0.3875770348517E-01
 0.1316915962032E-01
 0.1433400816047E-01
 0.1424670242417E-01
 0.1394648930943E-01
 0.1385365581012E-01
 0.1388352899975E-01
 0.1400500871359E-01
 0.1420436295595E-01
 0.1447843335282E-01
 0.1483295860111E-01
 0.1527980177872E-01
 0.1583528576811E-01
 0.1651535421567E-01
 0.1732111950680E-01
 0.1822752158190E-01
 0.1916749339850E-01
 0.2003125423324E-01
 0.2055286773646E-01
 0.1908282283156E-01
 0.1848975646883E-01
 0.3173955000321E-01
 0.1257462984850E-01
 0.1381851940716E-01
 0.1415496293578E-01
 0.1404669193743E-01
 0.1397258820025E-01
 0.1399057135811E-01
 0.1408378520359E-01
 0.1424480175534E-01
 0.1447113762108E-01
 0.1476593154290E-01
 0.1513604878659E-01
 0.1558877905683E-01
 0.1612357557280E-01
 0.1671849448366E-01
 0.1731971274562E-01
 0.1783428608265E-01
 0.1811230499679E-01
 0.1764343848578E-01
 0.1596249354137E-01
 0.1760616290828E-01
 0.2853190188305E-01
 0.1220285198762E-01
 0.1340145104405E-01
 0.1396444217392E-01
 0.1404758767094E-01
 0.1403185502286E-01
 0.1405208396541E-01
 0.1412439607915E-01
 0.1424879173103E-01
 0.1442510761476E-01
 0.1465485429253E-01
 0.1494034691388E-01
 0.1528044574811E-01
 0.1566170403022E-01
 0.1604694388036E-01
 0.1636737247816E-01
 0.1652100137171E-01
 0.1631859015872E-01
 0.1542199649377E-01
 0.1445417763020E-01
 0.1762848921249E-01
 0.2670150958519E-01
 0.1195485623293E-01
 0.1307520208258E-01
 0.1374811214428E-01
 0.1398057262122E-01
 0.1403749741651E-01
 0.1407235725060E-01
 0.1412966876605E-01
 0.1421957073662E-01
 0.1434486413230E-01
 0.1450637632783E-01
 0.1470275627905E-01
 0.1492630956545E-01
 0.1515514344786E-01
 0.1534460133771E-01
 0.1542371541571E-01
 0.1529282928097E-01
 0.1480399045098E-01
 0.1394995772543E-01
 0.1392076796957E-01
 0.1789781693061E-01
 0.2550750612434E-01
 0.1178090398535E-01
 0.1281958974983E-01
 0.1353715056424E-01
 0.1387409134886E-01
 0.1400027313788E-01
 0.1405668620423E-01
 0.1410370375691E-01
 0.1416128180276E-01
 0.1423570607187E-01
 0.1432787671498E-01
 0.1443405326449E-01
 0.1454249407070E-01
 0.1462749159445E-01
 0.1464438304132E-01
 0.1452984249500E-01
 0.1420793416677E-01
 0.1363347834823E-01
 0.1308856777775E-01
 0.1391135778629E-01
 0.1819803185967E-01
 0.2465927123453E-01
 0.1165377575356E-01
 0.1261679411367E-01
 0.1334327401375E-01
 0.1374806299172E-01
 0.1393200942192E-01
 0.1401147551930E-01
 0.1405135973126E-01
 0.1407875609174E-01
 0.1410345521751E-01
 0.1412711768143E-01
 0.1414506957279E-01
 0.1414421657189E-01
 0.1409949112077E-01
 0.1397252834148E-01
 0.1371686932643E-01
 0.1330018896784E-01
 0.1279440333517E-01
 0.1266482956133E-01
 0.1415295798689E-01
 0.1847419589283E-01
 0.2402030264641E-01
 0.1155763101480E-01
 0.1245339893829E-01
 0.1316972856646E-01
 0.1361522619441E-01
 0.1384331269944E-01
 0.1394362813179E-01
 0.1397797530532E-01
 0.1397723966287E-01
 0.1395420981675E-01
 0.1391189518659E-01
 0.1384615173882E-01
 0.1374512232954E-01
 0.1358826143912E-01
 0.1334866058122E-01
 0.1300441830871E-01
 0.1257626464944E-01
 0.1223562878209E-01
 0.1253022234231E-01
 0.1449362119123E-01
 0.1871869558646E-01
 0.2351978170700E-01
 0.1148281957254E-01
 0.1231978779267E-01
 0.1301632378838E-01
 0.1348342567871E-01
 0.1374285272065E-01
 0.1385989878658E-01
 0.1388908732999E-01
 0.1386215523349E-01
 0.1379410384751E-01
 0.1368973456705E-01
 0.1354677018994E-01
 0.1335685254234E-01
 0.1310708059760E-01
 0.1278588465364E-01
 0.1240039250832E-01
 0.1202313945859E-01
 0.1189548281282E-01
 0.1257320673061E-01
 0.1485338448690E-01
 0.1893211201003E-01
 0.2311480283939E-01
 0.1142321933456E-01
 0.1220920000669E-01
 0.1288174678953E-01
 0.1335756112565E-01
 0.1363759290596E-01
 0.1376670733656E-01
 0.1379045098986E-01
 0.1373931217141E-01
 0.1362971573760E-01
 0.1346855881552E-01
 0.1325653861611E-01
 0.1299057098154E-01
 0.1266760719380E-01
 0.1229365274473E-01
 0.1190539961385E-01
 0.1161909226546E-01
 0.1171570318195E-01
 0.1271498845016E-01
 0.1518895776350E-01
 0.1910997823995E-01
 0.2285130502692E-01
 0.1137500838885E-01
 0.1211694557700E-01
 0.1276442932299E-01
 0.1324056095464E-01
 0.1353277285298E-01
 0.1366953648766E-01
 0.1368724863490E-01
 0.1361387365781E-01
 0.1346660128329E-01
 0.1325459069838E-01
 0.1298232153935E-01
 0.1265321310246E-01
 0.1227537390474E-01
 0.1187301185092E-01
 0.1151010665127E-01
 0.1133577378341E-01
 0.1164723906391E-01
 0.1290158525418E-01
 0.1549967107287E-01
 0.1920262855410E-01
 0.2302141438733E-01
 0.1133555852671E-01
 0.1203965217252E-01
 0.1266276662641E-01
 0.1313403503009E-01
 0.1343216966877E-01
 0.1357282859093E-01
 0.1358390234080E-01
 0.1349020591517E-01
 0.1330920492823E-01
 0.1305236151183E-01
 0.1272842539913E-01
 0.1234801484836E-01
 0.1193087767248E-01
 0.1151881284924E-01
 0.1119926549968E-01
 0.1114419780927E-01
 0.1164958018991E-01
 0.1310557087314E-01
 0.1576343963305E-01
 0.1933636281455E-01
 0.2311885272668E-01
 0.1130316283434E-01
 0.1197504487501E-01
 0.1257559215645E-01
 0.1303915200502E-01
 0.1333884326758E-01
 0.1348050385553E-01
 0.1348457829707E-01
 0.1337259926947E-01
 0.1316200405686E-01
 0.1286650631957E-01
 0.1249931103468E-01
 0.1207841949177E-01
 0.1163495160823E-01
 0.1122669843072E-01
 0.1096016100681E-01
 0.1102138405836E-01
 0.1169498589842E-01
 0.1330458214579E-01
 0.1599473314678E-01
 0.1948154490381E-01
 0.2318347133175E-01
 0.1127668913195E-01
 0.1192155623111E-01
 0.1250202128948E-01
 0.1295670557194E-01
 0.1325516112628E-01
 0.1339582230942E-01
 0.1339289950952E-01
 0.1326483626811E-01
 0.1302888614432E-01
 0.1270088016269E-01
 0.1229838206201E-01
 0.1184650192848E-01
 0.1138685433516E-01
 0.1099104606518E-01
 0.1078026352461E-01
 0.1094805490992E-01
 0.1176223022691E-01
 0.1348752442168E-01
 0.1619757380211E-01
 0.1961800917087E-01
 0.2323441575128E-01
 0.1125538892187E-01
 0.1187811736317E-01
 0.1244141435428E-01
 0.1288726275062E-01
 0.1318295705525E-01
 0.1332144988153E-01
 0.1331193493641E-01
 0.1317015614853E-01
 0.1291313205148E-01
 0.1255859991704E-01
 0.1212813690891E-01
 0.1165330057480E-01
 0.1118487867517E-01
 0.1080584921351E-01
 0.1064821473719E-01
 0.1090847343274E-01
 0.1183607992349E-01
 0.1364798034224E-01
 0.1637035237356E-01
 0.1973715339097E-01
 0.2327743570722E-01
 0.1123877234685E-01
 0.1184400976696E-01
 0.1239332793075E-01
 0.1283124401841E-01
 0.1312364156099E-01
 0.1325951860977E-01
 0.1324420557950E-01
 0.1309124129548E-01
 0.1281742140888E-01
 0.1244210726619E-01
 0.1199033452942E-01
 0.1149914119426E-01
 0.1102687067057E-01
 0.1066538906543E-01
 0.1055430174435E-01
 0.1089028975875E-01
 0.1190583657812E-01
 0.1378127831330E-01
 0.1651091531910E-01
 0.1983492183808E-01
 0.2331346262244E-01
 0.1122652482220E-01
 0.1181876088233E-01
 0.1235746758483E-01
 0.1278896434337E-01
 0.1307827635483E-01
 0.1321167673450E-01
 0.1319169902241E-01
 0.1303021823829E-01
 0.1274385193467E-01
 0.1235324056582E-01
 0.1188615661328E-01
 0.1138392480014E-01
 0.1091065002947E-01
 0.1056469096693E-01
 0.1049069118741E-01
 0.1088422642835E-01
 0.1196398373357E-01
 0.1388398674065E-01
 0.1661757112359E-01
 0.1990931406554E-01
 0.2334183248872E-01
 0.1121845131284E-01
 0.1180207147609E-01
 0.1233364793796E-01
 0.1276065251334E-01
 0.1304762334853E-01
 0.1317912774774E-01
 0.1315588660860E-01
 0.1298866670386E-01
 0.1269396514429E-01
 0.1229330543328E-01
 0.1181635185999E-01
 0.1130736610350E-01
 0.1083432736670E-01
 0.1049982188928E-01
 0.1045152040337E-01
 0.1088368837282E-01
 0.1200539530877E-01
 0.1395370742659E-01
 0.1668920288558E-01
 0.1995931709946E-01
 0.2336150214862E-01
 0.1121443993335E-01
 0.1179376686347E-01
 0.1232176227211E-01
 0.1274645910286E-01
 0.1303217564807E-01
 0.1316265873544E-01
 0.1313773924772E-01
 0.1296763123338E-01
 0.1266877178565E-01
 0.1226313528252E-01
 0.1178135189318E-01
 0.1126917445723E-01
 0.1079652689516E-01
 0.1046807541227E-01
 0.1043290226210E-01
 0.1088445032191E-01
 0.1202687082085E-01
 0.1398893095555E-01
 0.1672516412848E-01
 0.1998442490658E-01
 0.2337158316028E-01
 0.1121443993277E-01
 0.1179376686288E-01
 0.1232176227156E-01
 0.1274645910237E-01
 0.1303217564767E-01
 0.1316265873515E-01
 0.1313773924758E-01
 0.1296763123346E-01
 0.1266877178603E-01
 0.1226313528327E-01
 0.1178135189432E-01
 0.1126917445871E-01
 0.1079652689677E-01
 0.1046807541361E-01
 0.1043290226259E-01
 0.1088445032093E-01
 0.1202687081811E-01
 0.1398893095154E-01
 0.1672516412456E-01
 0.1998442490428E-01
 0.2337158316014E-01
 0.1121845131109E-01
 0.1180207147432E-01
 0.1233364793630E-01
 0.1276065251187E-01
 0.1304762334731E-01
 0.1317912774685E-01
 0.1315588660817E-01
 0.1298866670408E-01
 0.1269396514540E-01
 0.1229330543548E-01
 0.1181635186339E-01
 0.1130736610794E-01
 0.1083432737157E-01
 0.1049982189341E-01
 0.1045152040501E-01
 0.1088368837007E-01
 0.1200539530068E-01
 0.1395370741461E-01
 0.1668920287379E-01
 0.1995931709252E-01
 0.2336150214827E-01
 0.1122652481928E-01
 0.1181876087939E-01
 0.1235746758205E-01
 0.1278896434091E-01
 0.1307827635279E-01
 0.1321167673299E-01
 0.1319169902165E-01
 0.1303021823859E-01
 0.1274385193644E-01
 0.1235324056943E-01
 0.1188615661892E-01
 0.1138392480757E-01
 0.1091065003774E-01
 0.1056469097413E-01
 0.1049069119063E-01
 0.1088422642434E-01
 0.1196398372058E-01
 0.1388398672087E-01
 0.1661757110385E-01
 0.1990931405390E-01
 0.2334183248840E-01
 0.1123877234276E-01
 0.1184400976282E-01
 0.1239332792685E-01
 0.1283124401495E-01
 0.1312364155809E-01
 0.1325951860758E-01
 0.1324420557832E-01
 0.1309124129576E-01
 0.1281742141120E-01
 0.1244210727110E-01
 0.1199033453722E-01
 0.1149914120471E-01
 0.1102687068245E-01
 0.1066538907617E-01
 0.1055430174990E-01
 0.1089028975441E-01
 0.1190583656099E-01
 0.1378127828605E-01
 0.1651091529129E-01
 0.1983492182161E-01
 0.2331346262255E-01
 0.1125538891661E-01
 0.1187811735784E-01
 0.1244141434925E-01
 0.1288726274613E-01
 0.1318295705144E-01
 0.1332144987858E-01
 0.1331193493470E-01
 0.1317015614866E-01
 0.1291313205419E-01
 0.1255859992309E-01
 0.1212813691877E-01
 0.1165330058828E-01
 0.1118487869091E-01
 0.1080584922840E-01
 0.1064821474611E-01
 0.1090847342937E-01
 0.1183607990340E-01
 0.1364798030806E-01
 0.1637035233758E-01
 0.1973715336945E-01
 0.2327743570826E-01
 0.1127668912549E-01
 0.1192155622457E-01
 0.1250202128330E-01
 0.1295670556639E-01
 0.1325516112150E-01
 0.1339582230561E-01
 0.1339289950714E-01
 0.1326483626790E-01
 0.1302888614722E-01
 0.1270088016966E-01
 0.1229838207376E-01
 0.1184650194498E-01
 0.1138685435504E-01
 0.1099104608496E-01
 0.1078026353821E-01
 0.1094805490928E-01
 0.1176223020552E-01
 0.1348752438145E-01
 0.1619757375792E-01
 0.1961800914398E-01
 0.2323441575377E-01
 0.1130316282669E-01
 0.1197504486725E-01
 0.1257559214911E-01
 0.1303915199839E-01
 0.1333884326175E-01
 0.1348050385073E-01
 0.1348457829384E-01
 0.1337259926870E-01
 0.1316200405969E-01
 0.1286650632720E-01
 0.1249931104808E-01
 0.1207841951119E-01
 0.1163495163247E-01
 0.1122669845618E-01
 0.1096016102663E-01
 0.1102138406270E-01
 0.1169498587803E-01
 0.1330458210090E-01
 0.1599473309459E-01
 0.1948154487122E-01
 0.2318347133611E-01
 0.1133555851784E-01
 0.1203965216353E-01
 0.1266276661791E-01
 0.1313403502233E-01
 0.1343216966181E-01
 0.1357282858499E-01
 0.1358390233651E-01
 0.1349020591358E-01
 0.1330920493067E-01
 0.1305236151977E-01
 0.1272842541385E-01
 0.1234801487050E-01
 0.1193087770122E-01
 0.1151881288115E-01
 0.1119926552746E-01
 0.1114419782134E-01
 0.1164958017363E-01
 0.1310557082557E-01
 0.1576343957341E-01
 0.1933636277615E-01
 0.2311885273284E-01
 0.1137500837876E-01
 0.1211694556677E-01
 0.1276442931330E-01
 0.1324056094570E-01
 0.1353277284476E-01
 0.1366953648040E-01
 0.1368724862931E-01
 0.1361387365509E-01
 0.1346660128498E-01
 0.1325459070621E-01
 0.1298232155497E-01
 0.1265321312698E-01
 0.1227537393793E-01
 0.1187301188991E-01
 0.1151010668881E-01
 0.1133577380645E-01
 0.1164723905586E-01
 0.1290158520688E-01
 0.1549967100663E-01
 0.1920262851100E-01
 0.2302141439394E-01
 0.1142321932322E-01
 0.1220919999521E-01
 0.1288174677865E-01
 0.1335756111547E-01
 0.1363759289634E-01
 0.1376670732775E-01
 0.1379045098270E-01
 0.1373931216724E-01
 0.1362971573814E-01
 0.1346855882275E-01
 0.1325653863207E-01
 0.1299057100792E-01
 0.1266760723116E-01
 0.1229365279117E-01
 0.1190539966282E-01
 0.1161909230313E-01
 0.1171570318743E-01
 0.1271498840778E-01
 0.1518895769113E-01
 0.1910997819521E-01
 0.2285130503326E-01
 0.1148281955986E-01
 0.1231978777984E-01
 0.1301632377612E-01
 0.1348342566699E-01
 0.1374285270925E-01
 0.1385989877577E-01
 0.1388908732068E-01
 0.1386215522710E-01
 0.1379410384581E-01
 0.1368973457214E-01
 0.1354677020411E-01
 0.1335685256778E-01
 0.1310708063575E-01
 0.1278588470397E-01
 0.1240039256602E-01
 0.1202313951083E-01
 0.1189548283607E-01
 0.1257320670014E-01
 0.1485338441334E-01
 0.1893211196203E-01
 0.2311480285935E-01
 0.1155763100080E-01
 0.1245339892405E-01
 0.1316972855266E-01
 0.1361522618087E-01
 0.1384331268588E-01
 0.1394362811857E-01
 0.1397797529337E-01
 0.1397723965355E-01
 0.1395420981177E-01
 0.1391189518799E-01
 0.1384615174894E-01
 0.1374512235089E-01
 0.1358826147395E-01
 0.1334866063054E-01
 0.1300441837031E-01
 0.1257626471369E-01
 0.1223562882584E-01
 0.1253022233237E-01
 0.1449362112402E-01
 0.1871869553754E-01
 0.2351978173160E-01
 0.1165377573821E-01
 0.1261679409797E-01
 0.1334327399832E-01
 0.1374806297620E-01
 0.1393200940607E-01
 0.1401147550355E-01
 0.1405135971658E-01
 0.1407875607938E-01
 0.1410345520903E-01
 0.1412711767871E-01
 0.1414506957813E-01
 0.1414421658797E-01
 0.1409949115044E-01
 0.1397252838713E-01
 0.1371686938857E-01
 0.1330018904133E-01
 0.1279440340043E-01
 0.1266482957876E-01
 0.1415295793279E-01
 0.1847419584170E-01
 0.2402030268024E-01
 0.1178090396859E-01
 0.1281958973259E-01
 0.1353715054704E-01
 0.1387409133120E-01
 0.1400027311962E-01
 0.1405668618594E-01
 0.1410370373951E-01
 0.1416128178736E-01
 0.1423570605980E-01
 0.1432787670792E-01
 0.1443405326454E-01
 0.1454249408054E-01
 0.1462749161727E-01
 0.1464438308055E-01
 0.1452984255351E-01
 0.1420793424450E-01
 0.1363347843286E-01
 0.1308856782845E-01
 0.1391135775489E-01
 0.1819803180690E-01
 0.2465927128166E-01
 0.1195485621469E-01
 0.1307520206367E-01
 0.1374811212512E-01
 0.1398057260127E-01
 0.1403749739582E-01
 0.1407235722985E-01
 0.1412966874606E-01
 0.1421957071829E-01
 0.1434486411675E-01
 0.1450637631642E-01
 0.1470275627360E-01
 0.1492630956842E-01
 0.1515514346248E-01
 0.1534460136799E-01
 0.1542371546615E-01
 0.1529282935586E-01
 0.1480399054820E-01
 0.1394995781182E-01
 0.1392076797373E-01
 0.1789781688021E-01
 0.2550750618978E-01
 0.1220285196777E-01
 0.1340145102330E-01
 0.1396444215258E-01
 0.1404758764856E-01
 0.1403185499983E-01
 0.1405208394240E-01
 0.1412439605681E-01
 0.1424879171005E-01
 0.1442510759596E-01
 0.1465485427697E-01
 0.1494034690302E-01
 0.1528044574400E-01
 0.1566170403582E-01
 0.1604694389975E-01
 0.1636737251658E-01
 0.1652100143585E-01
 0.1631859025619E-01
 0.1542199661057E-01
 0.1445417768384E-01
 0.1762848917430E-01
 0.2670150967627E-01
 0.1257462982682E-01
 0.1381851938426E-01
 0.1415496291201E-01
 0.1404669191266E-01
 0.1397258817513E-01
 0.1399057133316E-01
 0.1408378517925E-01
 0.1424480173208E-01
 0.1447113759945E-01
 0.1476593152364E-01
 0.1513604877075E-01
 0.1558877904596E-01
 0.1612357556929E-01
 0.1671849449112E-01
 0.1731971276926E-01
 0.1783428612953E-01
 0.1811230507852E-01
 0.1764343861436E-01
 0.1596249365170E-01
 0.1760616290146E-01
 0.2853190201313E-01
 0.1316915959640E-01
 0.1433400813496E-01
 0.1424670239781E-01
 0.1394648928258E-01
 0.1385365578333E-01
 0.1388352897328E-01
 0.1400500868768E-01
 0.1420436293088E-01
 0.1447843332891E-01
 0.1483295857880E-01
 0.1527980175867E-01
 0.1583528575132E-01
 0.1651535420379E-01
 0.1732111950257E-01
 0.1822752158960E-01
 0.1916749342453E-01
 0.2003125428635E-01
 0.2055286784277E-01
 0.1908282298265E-01
 0.1848975651904E-01
 0.3173955019986E-01
 0.1420996926832E-01
 0.1486340982386E-01
 0.1409575383865E-01
 0.1374145265710E-01
 0.1367052527815E-01
 0.1372880817583E-01
 0.1388688009695E-01
 0.1412530891654E-01
 0.1444350975461E-01
 0.1485033887993E-01
 0.1536284209128E-01
 0.1600564384891E-01
 0.1681113081470E-01
 0.1781353086651E-01
 0.1902697030842E-01
 0.2044172938030E-01
 0.2194244431560E-01
 0.2363419138676E-01
 0.2431517469938E-01
 0.2188791906982E-01
 0.3875770379964E-01
 0.1632118818447E-01
 0.1474997079782E-01
 0.1365265071599E-01
 0.1344844473336E-01
 0.1341674718157E-01
 0.1352933435843E-01
 0.1372927091378E-01
 0.1400696777125E-01
 0.1436406252817E-01
 0.1481381375166E-01
 0.1537819195718E-01
 0.1608846526317E-01
 0.1698914087569E-01
 0.1814780479362E-01
 0.1965819519848E-01
 0.2153596365100E-01
 0.2380764134813E-01
 0.2623445962306E-01
 0.3063820161621E-01
 0.2960948353050E-01
 0.6080301299324E-01
 0.5274145592910E+00
 0.8179352046620E+00
 0.1018127166188E+01
 0.1147827110702E+01
 0.1217001657233E+01
 0.1240689200898E+01
 0.1234820674636E+01
 0.1207009700189E+01
 0.1155988130676E+01
 0.1087934400025E+01
 0.5013402094626E+00
 0.8079679769733E+00
 0.1026560619378E+01
 0.1176546724270E+01
 0.1266171272672E+01
 0.1308401167647E+01
 0.1318953672362E+01
 0.1305763826595E+01
 0.1264496355603E+01
 0.1192690079261E+01
 0.4773682097043E+00
 0.8028831676494E+00
 0.1037786113350E+01
 0.1204419202053E+01
 0.1311523981837E+01
 0.1371349846711E+01
 0.1398591317468E+01
 0.1400662546154E+01
 0.1374525667423E+01
 0.1317908626960E+01
 0.4566596335733E+00
 0.8000897548751E+00
 0.1050137793820E+01
 0.1230832053627E+01
 0.1353055223726E+01
 0.1429031866439E+01
 0.1472670616363E+01
 0.1491750563545E+01
 0.1485753015880E+01
 0.1452934026762E+01
 0.4392370259987E+00
 0.7988937720021E+00
 0.1062313436130E+01
 0.1255079664386E+01
 0.1390307929361E+01
 0.1480809576359E+01
 0.1540286946691E+01
 0.1577452361582E+01
 0.1594267013598E+01
 0.1590426791791E+01
 0.4249781305880E+00
 0.7987280607558E+00
 0.1073517479237E+01
 0.1276435384363E+01
 0.1422680117992E+01
 0.1525920332976E+01
 0.1600119466642E+01
 0.1655144940587E+01
 0.1695378953067E+01
 0.1722714024468E+01
 0.4137431654531E+00
 0.7991398321344E+00
 0.1083155892468E+01
 0.1294286757258E+01
 0.1449534913676E+01
 0.1563484659674E+01
 0.1650584018737E+01
 0.1721903699913E+01
 0.1784112762523E+01
 0.1841709277379E+01
 0.4054154095456E+00
 0.7997666303364E+00
 0.1090775557494E+01
 0.1308132068824E+01
 0.1470278016116E+01
 0.1592610099336E+01
 0.1690098651603E+01
 0.1774891605356E+01
 0.1855631557483E+01
 0.1939399577935E+01
 0.3999092048292E+00
 0.8003360777204E+00
 0.1096041308323E+01
 0.1317584235757E+01
 0.1484409705114E+01
 0.1612513934224E+01
 0.1717289568521E+01
 0.1811685452497E+01
 0.1905770765284E+01
 0.2008748358521E+01
 0.3971694802104E+00
 0.8006662967145E+00
 0.1098730065344E+01
 0.1322377934017E+01
 0.1491569811334E+01
 0.1622618730147E+01
 0.1731150473296E+01
 0.1830536476601E+01
 0.1931582135724E+01
 0.2044713124650E+01
 0.3971694804409E+00
 0.8006662966791E+00
 0.1098730065193E+01
 0.1322377933852E+01
 0.1491569811204E+01
 0.1622618730054E+01
 0.1731150473226E+01
 0.1830536476543E+01
 0.1931582135702E+01
 0.2044713124786E+01
 0.3999092055230E+00
 0.8003360776200E+00
 0.1096041307873E+01
 0.1317584235268E+01
 0.1484409704727E+01
 0.1612513933951E+01
 0.1717289568316E+01
 0.1811685452331E+01
 0.1905770765226E+01
 0.2008748358918E+01
 0.4054154107090E+00
 0.7997666301887E+00
 0.1090775556761E+01
 0.1308132068022E+01
 0.1470278015482E+01
 0.1592610098893E+01
 0.1690098651278E+01
 0.1774891605097E+01
 0.1855631557400E+01
 0.1939399578550E+01
 0.4137431670972E+00
 0.7991398319687E+00
 0.1083155891477E+01
 0.1294286756161E+01
 0.1449534912811E+01
 0.1563484659079E+01
 0.1650584018311E+01
 0.1721903699579E+01
 0.1784112762407E+01
 0.1841709278118E+01
 0.4249781327292E+00
 0.7987280606128E+00
 0.1073517478022E+01
 0.1276435382996E+01
 0.1422680116915E+01
 0.1525920332248E+01
 0.1600119466136E+01
 0.1655144940192E+01
 0.1695378952894E+01
 0.1722714025203E+01
 0.4392370286594E+00
 0.7988937719330E+00
 0.1062313434737E+01
 0.1255079662781E+01
 0.1390307928093E+01
 0.1480809575513E+01
 0.1540286946118E+01
 0.1577452361131E+01
 0.1594267013332E+01
 0.1590426792394E+01
 0.4566596367803E+00
 0.8000897549401E+00
 0.1050137792305E+01
 0.1230832051827E+01
 0.1353055222290E+01
 0.1429031865483E+01
 0.1472670615724E+01
 0.1491750563032E+01
 0.1485753015480E+01
 0.1452934027113E+01
 0.4773682134838E+00
 0.8028831679143E+00
 0.1037786111789E+01
 0.1204419200116E+01
 0.1311523980254E+01
 0.1371349845634E+01
 0.1398591316743E+01
 0.1400662545554E+01
 0.1374525666845E+01
 0.1317908626963E+01
 0.5013402138248E+00
 0.8079679774980E+00
 0.1026560617884E+01
 0.1176546722281E+01
 0.1266171270963E+01
 0.1308401166408E+01
 0.1318953671492E+01
 0.1305763825876E+01
 0.1264496354778E+01
 0.1192690078873E+01
 0.5274145640916E+00
 0.8179352055456E+00
 0.1018127164945E+01
 0.1147827108792E+01
 0.1217001655423E+01
 0.1240689199413E+01
 0.1234820673471E+01
 0.1207009699280E+01
 0.1155988129668E+01
 0.1087934399176E+01
 0.1143458089992E+01
 0.8404752981548E+00
 0.4958866072167E+00
 0.2700780249152E+00
 0.6619487999510E-01
 0.4957860758909E-01
 0.9840452783933E-01
 0.1097674175851E+00
 0.8160972183472E-01
 0.9738334517153E-02
 0.1047760943502E+01
 0.9839354644480E+00
 0.6430724373548E+00
 0.3957013721017E+00
 0.1952307594433E+00
 0.7043236780023E-01
 0.1396666560961E-01
 0.5651854637198E-01
 0.5945019235608E-01
 0.4389098964363E-02
 0.9569087141535E+00
 0.1018157093070E+01
 0.7816350266263E+00
 0.5332058245233E+00
 0.3275338306608E+00
 0.1919946137982E+00
 0.9104678391919E-01
 0.1900976848503E-01
 0.1774128794032E-01
 0.8836388543029E-02
 0.8791317213701E+00
 0.1016215575023E+01
 0.8803064365647E+00
 0.6715739516702E+00
 0.4682556033487E+00
 0.3232316741717E+00
 0.2107910238791E+00
 0.1178702769680E+00
 0.4949523661495E-01
 0.3768513453110E-01
 0.8116130625067E+00
 0.9995714542103E+00
 0.9474616430825E+00
 0.7952793557286E+00
 0.6132660559887E+00
 0.4656553162446E+00
 0.3465221035537E+00
 0.2405756379829E+00
 0.1478946114614E+00
 0.9719191167660E-01
 0.7516310055640E+00
 0.9760762628162E+00
 0.9918297083986E+00
 0.8993088157455E+00
 0.7533525210468E+00
 0.6155134359906E+00
 0.4965919372970E+00
 0.3865638479046E+00
 0.2803029380480E+00
 0.1965413326304E+00
 0.6971807806084E+00
 0.9487220063505E+00
 0.1019285036120E+01
 0.9834864239685E+00
 0.8816112753798E+00
 0.7653972232800E+00
 0.6556137666241E+00
 0.5513614026782E+00
 0.4448263152698E+00
 0.3391962719712E+00
 0.6468513847363E+00
 0.9184548259453E+00
 0.1033260382110E+01
 0.1049022101537E+01
 0.9943469068725E+00
 0.9086267581449E+00
 0.8160598053890E+00
 0.7258772264098E+00
 0.6335041064973E+00
 0.5219256300926E+00
 0.5997384119093E+00
 0.8853350525809E+00
 0.1035204911391E+01
 0.1096960259231E+01
 0.1089720097783E+01
 0.1040736487269E+01
 0.9722448095574E+00
 0.8989001392974E+00
 0.8294828162692E+00
 0.7350895926440E+00
 0.5563587716175E+00
 0.8477670230311E+00
 0.1025016865430E+01
 0.1127578288798E+01
 0.1166234691010E+01
 0.1158292071730E+01
 0.1121630749735E+01
 0.1068658536678E+01
 0.1010340500233E+01
 0.9518228778957E+00
 0.5563587764233E+00
 0.8477670246746E+00
 0.1025016864354E+01
 0.1127578286620E+01
 0.1166234688694E+01
 0.1158292069679E+01
 0.1121630748010E+01
 0.1068658535316E+01
 0.1010340499455E+01
 0.9518228762810E+00
 0.5997384165588E+00
 0.8853350545429E+00
 0.1035204910349E+01
 0.1096960256652E+01
 0.1089720094876E+01
 0.1040736484620E+01
 0.9722448073417E+00
 0.8989001375940E+00
 0.8294828149907E+00
 0.7350895901367E+00
 0.6468513892160E+00
 0.9184548280022E+00
 0.1033260380904E+01
 0.1049022098393E+01
 0.9943469032983E+00
 0.9086267549459E+00
 0.8160598027437E+00
 0.7258772241888E+00
 0.6335041043194E+00
 0.5219256273393E+00
 0.6971807848447E+00
 0.9487220083661E+00
 0.1019285034546E+01
 0.9834864201186E+00
 0.8816112711286E+00
 0.7653972196323E+00
 0.6556137636283E+00
 0.5513614000035E+00
 0.4448263125449E+00
 0.3391962696280E+00
 0.7516310094404E+00
 0.9760762645999E+00
 0.9918297062540E+00
 0.8993088111091E+00
 0.7533525162182E+00
 0.6155134321002E+00
 0.4965919341637E+00
 0.3865638450995E+00
 0.2803029353321E+00
 0.1965413313505E+00
 0.8116130658596E+00
 0.9995714554929E+00
 0.9474616401662E+00
 0.7952793503503E+00
 0.6132660508451E+00
 0.4656553124209E+00
 0.3465221005793E+00
 0.2405756354561E+00
 0.1478946093375E+00
 0.9719191199098E-01
 0.8791317239632E+00
 0.1016215575428E+01
 0.8803064327376E+00
 0.6715739458269E+00
 0.4682555983119E+00
 0.3232316707244E+00
 0.2107910213414E+00
 0.1178702750953E+00
 0.4949523554560E-01
 0.3768513669627E-01
 0.9569087156118E+00
 0.1018157092090E+01
 0.7816350219931E+00
 0.5332058188148E+00
 0.3275338261475E+00
 0.1919946109206E+00
 0.9104678202793E-01
 0.1900976754044E-01
 0.1774128771615E-01
 0.8836392339318E-02
 0.1047760943130E+01
 0.9839354615369E+00
 0.6430724327662E+00
 0.3957013671487E+00
 0.1952307556271E+00
 0.7043236557926E-01
 0.1396666668548E-01
 0.5651854623278E-01
 0.5945019085587E-01
 0.4389096279422E-02
 0.1143458086672E+01
 0.8404752946159E+00
 0.4958866039460E+00
 0.2700780210204E+00
 0.6619487681732E-01
 0.4957860900568E-01
 0.9840452804622E-01
 0.1097674164118E+00
 0.8160971899617E-01
 0.9738330022008E-02
 0.9487765096304E+00
 0.7026655382974E+00
 0.4895199211975E+00
 0.3161738599015E+00
 0.1908883098819E+00
 0.1163458971645E+00
 0.8471753112669E-01
 0.7876225800622E-01
 0.7747638311873E-01
 0.6279015835525E-01
 0.1069105410533E+01
 0.8516822616225E+00
 0.6202407074742E+00
 0.4172433148393E+00
 0.2612814833249E+00
 0.1618095126099E+00
 0.1169145794787E+00
 0.1105963765330E+00
 0.1163224172223E+00
 0.1125542751995E+00
 0.1202288870350E+01
 0.1006898394610E+01
 0.7836467572599E+00
 0.5636267365385E+00
 0.3759010361610E+00
 0.2406516648454E+00
 0.1672640061530E+00
 0.1481727961083E+00
 0.1559986502806E+00
 0.1577802891947E+00
 0.1353206148642E+01
 0.1182311829751E+01
 0.9783941356084E+00
 0.7598072998287E+00
 0.5511963403288E+00
 0.3778849176772E+00
 0.2605589567747E+00
 0.2077557584386E+00
 0.2037766552081E+00
 0.2073026310329E+00
 0.1516155220114E+01
 0.1376770669625E+01
 0.1205248046243E+01
 0.1008099993949E+01
 0.8011655252625E+00
 0.6056668956605E+00
 0.4453835535999E+00
 0.3413473730275E+00
 0.3002137695987E+00
 0.2861452175397E+00
 0.1682343242520E+01
 0.1582171349745E+01
 0.1454733264420E+01
 0.1299024880771E+01
 0.1122496851581E+01
 0.9390961278594E+00
 0.7690225941956E+00
 0.6382829476937E+00
 0.5759710219497E+00
 0.6014527139686E+00
 0.1840287794465E+01
 0.1784455855251E+01
 0.1708027835103E+01
 0.1606967350226E+01
 0.1483104315039E+01
 0.1343677221325E+01
 0.1202631951825E+01
 0.1083305563197E+01
 0.1022888140219E+01
 0.1082986971505E+01
 0.1975654722508E+01
 0.1962340106975E+01
 0.1934511251588E+01
 0.1887647980602E+01
 0.1819612835454E+01
 0.1730984977552E+01
 0.1626264698664E+01
 0.1516324605574E+01
 0.1423094383666E+01
 0.1387578201875E+01
 0.2074880474992E+01
 0.2094939161335E+01
 0.2104495672404E+01
 0.2099788377198E+01
 0.2076103862216E+01
 0.2028309235172E+01
 0.1951003281408E+01
 0.1838731162167E+01
 0.1686309657386E+01
 0.1488506461522E+01
 0.2127525210489E+01
 0.2166086501619E+01
 0.2195947596162E+01
 0.2214190790599E+01
 0.2214869714772E+01
 0.2189535608951E+01
 0.2126471647746E+01
 0.2008952685252E+01
 0.1812333142840E+01
 0.1499945941635E+01
 0.2127525211140E+01
 0.2166086502898E+01
 0.2195947598153E+01
 0.2214190793437E+01
 0.2214869718561E+01
 0.2189535613675E+01
 0.2126471653130E+01
 0.2008952690518E+01
 0.1812333146307E+01
 0.1499945940071E+01
 0.2074880476798E+01
 0.2094939164879E+01
 0.2104495677967E+01
 0.2099788385170E+01
 0.2076103872883E+01
 0.2028309248492E+01
 0.1951003296675E+01
 0.1838731177459E+01
 0.1686309668594E+01
 0.1488506460802E+01
 0.1975654725098E+01
 0.1962340112064E+01
 0.1934511259680E+01
 0.1887647992271E+01
 0.1819612851077E+01
 0.1730984997055E+01
 0.1626264721192E+01
 0.1516324629029E+01
 0.1423094403996E+01
 0.1387578211619E+01
 0.1840287797391E+01
 0.1784455861055E+01
 0.1708027844473E+01
 0.1606967363801E+01
 0.1483104333167E+01
 0.1343677243882E+01
 0.1202631978093E+01
 0.1083305591861E+01
 0.1022888169756E+01
 0.1082987001493E+01
 0.1682343245256E+01
 0.1582171355257E+01
 0.1454733273401E+01
 0.1299024893605E+01
 0.1122496868175E+01
 0.9390961475790E+00
 0.7690226159955E+00
 0.6382829706359E+00
 0.5759710465164E+00
 0.6014527460958E+00
 0.1516155222326E+01
 0.1376770674344E+01
 0.1205248054046E+01
 0.1008100004762E+01
 0.8011655383338E+00
 0.6056669096736E+00
 0.4453835670321E+00
 0.3413473848810E+00
 0.3002137806878E+00
 0.2861452303266E+00
 0.1353206150210E+01
 0.1182311833625E+01
 0.9783941420673E+00
 0.7598073082937E+00
 0.5511963496397E+00
 0.3778849264842E+00
 0.2605589640861E+00
 0.2077557642769E+00
 0.2037766606742E+00
 0.2073026363983E+00
 0.1202288871239E+01
 0.1006898397704E+01
 0.7836467623763E+00
 0.5636267427183E+00
 0.3759010423067E+00
 0.2406516701513E+00
 0.1672640104593E+00
 0.1481727999962E+00
 0.1559986544520E+00
 0.1577802935701E+00
 0.1069105410882E+01
 0.8516822640837E+00
 0.6202407111881E+00
 0.4172433188609E+00
 0.2612814870741E+00
 0.1618095159395E+00
 0.1169145826955E+00
 0.1105963801308E+00
 0.1163224213665E+00
 0.1125542794895E+00
 0.9487765097856E+00
 0.7026655397662E+00
 0.4895199229244E+00
 0.3161738615945E+00
 0.1908883115871E+00
 0.1163458992349E+00
 0.8471753400767E-01
 0.7876226186955E-01
 0.7747638762406E-01
 0.6279016252411E-01
</DataArray>
<DataArray type="Float64" Name="OI" NumberOfComponents="1" ComponentName0="OI" format="ascii">
 0.1312267121081E+00
 0.9542090820923E-01
 0.9169341729365E-01
 0.8962344918179E-01
 0.8954172262332E-01
 0.9025803608742E-01
 0.9159924925717E-01
 0.9345289075581E-01
 0.9584097238150E-01
 0.9884988542291E-01
 0.1026278180197E+00
 0.1073854543079E+00
 0.1134213458927E+00
 0.1212480878927E+00
 0.1315786353482E+00
 0.1447399839834E+00
 0.1601435566956E+00
 0.1803277911533E+00
 0.1989167803923E+00
 0.2769274087600E+00
 0.1283004320289E+00
 0.1189298352140E+00
 0.1032289146462E+00
 0.9431995725142E-01
 0.9215309538804E-01
 0.9137992098700E-01
 0.9173838307337E-01
 0.9276967636447E-01
 0.9437176473416E-01
 0.9652379083832E-01
 0.9928529179147E-01
 0.1027715523208E+00
 0.1071535215661E+00
 0.1126818724848E+00
 0.1197197592579E+00
 0.1286098739732E+00
 0.1392272641045E+00
 0.1516097347843E+00
 0.1639221456393E+00
 0.1829151831847E+00
 0.1806076741417E+00
 0.3939345442273E-01
 0.1136915518444E+00
 0.1046577880501E+00
 0.9728561156225E-01
 0.9411273618748E-01
 0.9306196129154E-01
 0.9305738280671E-01
 0.9381403084551E-01
 0.9515977437332E-01
 0.9705888776315E-01
 0.9954040799144E-01
 0.1026862336383E+00
 0.1066236102620E+00
 0.1115293664325E+00
 0.1176033503268E+00
 0.1248808743126E+00
 0.1331431948369E+00
 0.1414960353800E+00
 0.1494923806150E+00
 0.1525855021088E+00
 0.1197408265167E+00
 0.1645740019519E-01
 0.1108469013207E+00
 0.1048303850999E+00
 0.9913720175851E-01
 0.9585542679971E-01
 0.9448988512610E-01
 0.9422913694665E-01
 0.9472435564830E-01
 0.9581922736265E-01
 0.9745183384855E-01
 0.9962695461438E-01
 0.1023917318009E+00
 0.1058244315064E+00
 0.1100183649624E+00
 0.1150135573833E+00
 0.1206658258106E+00
 0.1264438799822E+00
 0.1313883158859E+00
 0.1334943820234E+00
 0.1242456087616E+00
 0.8519594359060E-01
 0.1003130238265E-01
 0.1091077966216E+00
 0.1047160924492E+00
 0.1002720099109E+00
 0.9724228423434E-01
 0.9571316854503E-01
 0.9523958662462E-01
 0.9550508817053E-01
 0.9635349806550E-01
 0.9771170370007E-01
 0.9956012592080E-01
 0.1019118901811E+00
 0.1047940779611E+00
 0.1082147349302E+00
 0.1120888812826E+00
 0.1161008473240E+00
 0.1195570101113E+00
 0.1211895743251E+00
 0.1178511902455E+00
 0.1020988227451E+00
 0.6501217338197E-01
 0.8430345767769E-02
 0.1079699731764E+00
 0.1045526691631E+00
 0.1009946090308E+00
 0.9830108163026E-01
 0.9673363985754E-01
 0.9609795648120E-01
 0.9615916346628E-01
 0.9677007309662E-01
 0.9784985940589E-01
 0.9935799570724E-01
 0.1012745073949E+00
 0.1035760399468E+00
 0.1061949670392E+00
 0.1089411177786E+00
 0.1113769379998E+00
 0.1126808402796E+00
 0.1112973712073E+00
 0.1040041280116E+00
 0.8565571562450E-01
 0.5263637106633E-01
 0.8466258009129E-02
 0.1071909651179E+00
 0.1044028371550E+00
 0.1014752546168E+00
 0.9910089291950E-01
 0.9756445580203E-01
 0.9681374029911E-01
 0.9669427672123E-01
 0.9707819312147E-01
 0.9787995419206E-01
 0.9904084903244E-01
 0.1005099909419E+00
 0.1022179027244E+00
 0.1040322525643E+00
 0.1056817979082E+00
 0.1066462941725E+00
 0.1060112925556E+00
 0.1021558737383E+00
 0.9237817884154E-01
 0.7356259202333E-01
 0.4471869990759E-01
 0.9163180398452E-02
 0.1066388166138E+00
 0.1042798213857E+00
 0.1018073711143E+00
 0.9970522985103E-01
 0.9822920747286E-01
 0.9739868299965E-01
 0.9712046545066E-01
 0.9728905448932E-01
 0.9781719745004E-01
 0.9863047986324E-01
 0.9965036641126E-01
 0.1007673032617E+00
 0.1017968021831E+00
 0.1024100538342E+00
 0.1020363090101E+00
 0.9973512397256E-01
 0.9401760923375E-01
 0.8286858724488E-01
 0.6461003228951E-01
 0.3947842835162E-01
 0.1022193281681E-01
 0.1062359003040E+00
 0.1041822967135E+00
 0.1020437002916E+00
 0.1001632205340E+00
 0.9875428477941E-01
 0.9786709813927E-01
 0.9744928192063E-01
 0.9741523920164E-01
 0.9767784694455E-01
 0.9814947609847E-01
 0.9872781105056E-01
 0.9927019930217E-01
 0.9955292957221E-01
 0.9921052043607E-01
 0.9765437352557E-01
 0.9398621248590E-01
 0.8695651667486E-01
 0.7517851826680E-01
 0.5790650923189E-01
 0.3586358258517E-01
 0.1157873826497E-01
 0.1059341799955E+00
 0.1041053422466E+00
 0.1022152564058E+00
 0.1005110802466E+00
 0.9916454893952E-01
 0.9823461711286E-01
 0.9769331538898E-01
 0.9747014273106E-01
 0.9747868505203E-01
 0.9762047052103E-01
 0.9777354242239E-01
 0.9776939821181E-01
 0.9735725400166E-01
 0.9615375304505E-01
 0.9358249489087E-01
 0.8883710000210E-01
 0.8093202315225E-01
 0.6899484939670E-01
 0.5278894324348E-01
 0.3332894070447E-01
 0.1270335784517E-01
 0.1057037097589E+00
 0.1040443685885E+00
 0.1023414536971E+00
 0.1007752540338E+00
 0.9948141678948E-01
 0.9851647255179E-01
 0.9786532180738E-01
 0.9746758048363E-01
 0.9723737027517E-01
 0.9706760438542E-01
 0.9682094351908E-01
 0.9631013251606E-01
 0.9526836666523E-01
 0.9331060953384E-01
 0.8989642762677E-01
 0.8433397332398E-01
 0.7588840975417E-01
 0.6404295498418E-01
 0.4891512118744E-01
 0.3126795853301E-01
 0.1386204075404E-01
 0.1055229703751E+00
 0.1039945674807E+00
 0.1024340787221E+00
 0.1009750923576E+00
 0.9972331969626E-01
 0.9872775948550E-01
 0.9797864869097E-01
 0.9742153197433E-01
 0.9697055770993E-01
 0.9651195349382E-01
 0.9589694128927E-01
 0.9492584219053E-01
 0.9332506962937E-01
 0.9072061776447E-01
 0.8662212090205E-01
 0.8045776091839E-01
 0.7169881684962E-01
 0.6009426231876E-01
 0.4585643053469E-01
 0.2992119346773E-01
 0.1288424642727E-01
 0.1053794778288E+00
 0.1039533029328E+00
 0.1025019862296E+00
 0.1011257103261E+00
 0.9990607252256E-01
 0.9888258467291E-01
 0.9804612408937E-01
 0.9734493974417E-01
 0.9669257913147E-01
 0.9597009514220E-01
 0.9502057098239E-01
 0.9363704029493E-01
 0.9154624832982E-01
 0.8839369962779E-01
 0.8374581885376E-01
 0.7714225651636E-01
 0.6822413693981E-01
 0.5689901330454E-01
 0.4349006457963E-01
 0.2860176868823E-01
 0.1294975040351E-01
 0.1052644873048E+00
 0.1039186914297E+00
 0.1025512388960E+00
 0.1012382279694E+00
 0.1000421162554E+00
 0.9899278208594E-01
 0.9807909259500E-01
 0.9724979902558E-01
 0.9641737075370E-01
 0.9545894594639E-01
 0.9421221698749E-01
 0.9246701228618E-01
 0.8995548539521E-01
 0.8634750427556E-01
 0.8126619903554E-01
 0.7434999819331E-01
 0.6536671172062E-01
 0.5433983418678E-01
 0.4158766103726E-01
 0.2763285085335E-01
 0.1314447471236E-01
 0.1051722468695E+00
 0.1038895994510E+00
 0.1025863753906E+00
 0.1013212257570E+00
 0.1001416316597E+00
 0.9906861725308E-01
 0.9808777480151E-01
 0.9714701690553E-01
 0.9615746951990E-01
 0.9499339237699E-01
 0.9348924902034E-01
 0.9143462818322E-01
 0.8857021762684E-01
 0.8459170062955E-01
 0.7917491778350E-01
 0.7204005730571E-01
 0.6305124156460E-01
 0.5229840221245E-01
 0.4009524103471E-01
 0.2692253721802E-01
 0.1340351115865E-01
 0.1050990126524E+00
 0.1038654434816E+00
 0.1026108795386E+00
 0.1013813631174E+00
 0.1002128635785E+00
 0.9911878912192E-01
 0.9808110339911E-01
 0.9704620983486E-01
 0.9592383095483E-01
 0.9458618397860E-01
 0.9286608427363E-01
 0.9055477487846E-01
 0.8740278490016E-01
 0.8313051574011E-01
 0.7745951513087E-01
 0.7017553378215E-01
 0.6121168635565E-01
 0.5069860896554E-01
 0.3894727973681E-01
 0.2641115595172E-01
 0.1367011735508E-01
 0.1050423913420E+00
 0.1038460059966E+00
 0.1026274475163E+00
 0.1014237812715E+00
 0.1002623730383E+00
 0.9915046250941E-01
 0.9806661790144E-01
 0.9695555546705E-01
 0.9572570295548E-01
 0.9424789051394E-01
 0.9235433099679E-01
 0.8983883848613E-01
 0.8646158225834E-01
 0.8196459589487E-01
 0.7610675043627E-01
 0.6872379759097E-01
 0.5979694322183E-01
 0.4948263009614E-01
 0.3808984459938E-01
 0.2605165977659E-01
 0.1391123034529E-01
 0.1050008931872E+00
 0.1038312844524E+00
 0.1026381364274E+00
 0.1014523654781E+00
 0.1002952231913E+00
 0.9916930932951E-01
 0.9805039943228E-01
 0.9688168916002E-01
 0.9557054374505E-01
 0.9398690500884E-01
 0.9196296627301E-01
 0.8929521153600E-01
 0.8575204604772E-01
 0.8109270602824E-01
 0.7510427217080E-01
 0.6765829865132E-01
 0.5876825665310E-01
 0.4860684791176E-01
 0.3748129040245E-01
 0.2580948574621E-01
 0.1410601957624E-01
 0.1049736280228E+00
 0.1038213745244E+00
 0.1026444449762E+00
 0.1014699134944E+00
 0.1003151111040E+00
 0.9917954718528E-01
 0.9803703203140E-01
 0.9682963505048E-01
 0.9546397343141E-01
 0.9380947230266E-01
 0.9169852306771E-01
 0.8892974612249E-01
 0.8527750552374E-01
 0.8051293185359E-01
 0.7444193191380E-01
 0.6695905667341E-01
 0.5809761395973E-01
 0.4803987244565E-01
 0.3709162898658E-01
 0.2566055328248E-01
 0.1424181559817E-01
 0.1049601038408E+00
 0.1038163855035E+00
 0.1026473556976E+00
 0.1014782406324E+00
 0.1003244565657E+00
 0.9918397022689E-01
 0.9802958085562E-01
 0.9680276279689E-01
 0.9540974815897E-01
 0.9371972706976E-01
 0.9156525431447E-01
 0.8874612586392E-01
 0.8503982323051E-01
 0.8022354335329E-01
 0.7411259559592E-01
 0.6661275980716E-01
 0.5776678683810E-01
 0.4776137790179E-01
 0.3690152722128E-01
 0.2558973070672E-01
 0.1431136454423E-01
 0.1049601038354E+00
 0.1038163854982E+00
 0.1026473556924E+00
 0.1014782406273E+00
 0.1003244565606E+00
 0.9918397022203E-01
 0.9802958085124E-01
 0.9680276279337E-01
 0.9540974815682E-01
 0.9371972706961E-01
 0.9156525431706E-01
 0.8874612587004E-01
 0.8503982324084E-01
 0.8022354336814E-01
 0.7411259561485E-01
 0.6661275982865E-01
 0.5776678685943E-01
 0.4776137791927E-01
 0.3690152723082E-01
 0.2558973070450E-01
 0.1431136452754E-01
 0.1049736280066E+00
 0.1038213745085E+00
 0.1026444449605E+00
 0.1014699134789E+00
 0.1003151110887E+00
 0.9917954717066E-01
 0.9803703201822E-01
 0.9682963503986E-01
 0.9546397342487E-01
 0.9380947230209E-01
 0.9169852307535E-01
 0.8892974614074E-01
 0.8527750555467E-01
 0.8051293189819E-01
 0.7444193197085E-01
 0.6695905673842E-01
 0.5809761402453E-01
 0.4803987249907E-01
 0.3709162901611E-01
 0.2566055327646E-01
 0.1424181554825E-01
 0.1050008931601E+00
 0.1038312844260E+00
 0.1026381364013E+00
 0.1014523654521E+00
 0.1002952231657E+00
 0.9916930930502E-01
 0.9805039941015E-01
 0.9688168914210E-01
 0.9557054373386E-01
 0.9398690500753E-01
 0.9196296628534E-01
 0.8929521156600E-01
 0.8575204609902E-01
 0.8109270610273E-01
 0.7510427226675E-01
 0.6765829876148E-01
 0.5876825676382E-01
 0.4860684800406E-01
 0.3748129045477E-01
 0.2580948573828E-01
 0.1410601949353E-01
 0.1050423913040E+00
 0.1038460059596E+00
 0.1026274474796E+00
 0.1014237812351E+00
 0.1002623730023E+00
 0.9915046247488E-01
 0.9806661787010E-01
 0.9695555544151E-01
 0.9572570293920E-01
 0.9424789051135E-01
 0.9235433101315E-01
 0.8983883852725E-01
 0.8646158232960E-01
 0.8196459599943E-01
 0.7610675057235E-01
 0.6872379774894E-01
 0.5979694338260E-01
 0.4948263023238E-01
 0.3808984467939E-01
 0.2605165977012E-01
 0.1391123023055E-01
 0.1050990126036E+00
 0.1038654434339E+00
 0.1026108794914E+00
 0.1013813630704E+00
 0.1002128635319E+00
 0.9911878907710E-01
 0.9808110335824E-01
 0.9704620980122E-01
 0.9592383093287E-01
 0.9458618397395E-01
 0.9286608429313E-01
 0.9055477492977E-01
 0.8740278499071E-01
 0.8313051587484E-01
 0.7745951530865E-01
 0.7017553399161E-01
 0.6121168657238E-01
 0.5069860915313E-01
 0.3894727985190E-01
 0.2641115595191E-01
 0.1367011720945E-01
 0.1051722468097E+00
 0.1038895993927E+00
 0.1025863753329E+00
 0.1013212256993E+00
 0.1001416316024E+00
 0.9906861719764E-01
 0.9808777475065E-01
 0.9714701686322E-01
 0.9615746949148E-01
 0.9499339236929E-01
 0.9348924904176E-01
 0.9143462824343E-01
 0.8857021773563E-01
 0.8459170079430E-01
 0.7917491800471E-01
 0.7204005757123E-01
 0.6305124184502E-01
 0.5229840246149E-01
 0.4009524119534E-01
 0.2692253723250E-01
 0.1340351098380E-01
 0.1052644872340E+00
 0.1039186913607E+00
 0.1025512388276E+00
 0.1012382279009E+00
 0.1000421161870E+00
 0.9899278201948E-01
 0.9807909253363E-01
 0.9724979897391E-01
 0.9641737071790E-01
 0.9545894593444E-01
 0.9421221700934E-01
 0.9246701235360E-01
 0.8995548552074E-01
 0.8634750446977E-01
 0.8126619930180E-01
 0.7434999852019E-01
 0.6536671207442E-01
 0.5433983451036E-01
 0.4158766125769E-01
 0.2763285089335E-01
 0.1314447451092E-01
 0.1053794777470E+00
 0.1039533028531E+00
 0.1025019861504E+00
 0.1011257102465E+00
 0.9990607244278E-01
 0.9888258459497E-01
 0.9804612401688E-01
 0.9734493968234E-01
 0.9669257908723E-01
 0.9597009512457E-01
 0.9502057100284E-01
 0.9363704036741E-01
 0.9154624846997E-01
 0.8839369985021E-01
 0.8374581916626E-01
 0.7714225691026E-01
 0.6822413737878E-01
 0.5689901371919E-01
 0.4349006487862E-01
 0.2860176877052E-01
 0.1294975018021E-01
 0.1055229702822E+00
 0.1039945673904E+00
 0.1024340786322E+00
 0.1009750922667E+00
 0.9972331960467E-01
 0.9872775939552E-01
 0.9797864860666E-01
 0.9742153190143E-01
 0.9697055765604E-01
 0.9651195346888E-01
 0.9589694130618E-01
 0.9492584226544E-01
 0.9332506978127E-01
 0.9072061801287E-01
 0.8662212126098E-01
 0.8045776138490E-01
 0.7169881738724E-01
 0.6009426284642E-01
 0.4585643093359E-01
 0.2992119361987E-01
 0.1288424619036E-01
 0.1057037096549E+00
 0.1040443684875E+00
 0.1023414535962E+00
 0.1007752539313E+00
 0.9948141668559E-01
 0.9851647244916E-01
 0.9786532171051E-01
 0.9746758039871E-01
 0.9723737021033E-01
 0.9706760435139E-01
 0.9682094353000E-01
 0.9631013259024E-01
 0.9526836682519E-01
 0.9331060980471E-01
 0.8989642803077E-01
 0.8433397386759E-01
 0.7588841040570E-01
 0.6404295565089E-01
 0.4891512172130E-01
 0.3126795876333E-01
 0.1386204059141E-01
 0.1059341798810E+00
 0.1041053421353E+00
 0.1022152562943E+00
 0.1005110801327E+00
 0.9916454882351E-01
 0.9823461699770E-01
 0.9769331527937E-01
 0.9747014263319E-01
 0.9747868497397E-01
 0.9762047047350E-01
 0.9777354241980E-01
 0.9776939827338E-01
 0.9735725415209E-01
 0.9615375331392E-01
 0.9358249530868E-01
 0.8883710058836E-01
 0.8093202388837E-01
 0.6899485018945E-01
 0.5278894391275E-01
 0.3332894103990E-01
 0.1270335769426E-01
 0.1062359001780E+00
 0.1041822965914E+00
 0.1020437001691E+00
 0.1001632204086E+00
 0.9875428465164E-01
 0.9786709801216E-01
 0.9744928179870E-01
 0.9741523909059E-01
 0.9767784685174E-01
 0.9814947603378E-01
 0.9872781102755E-01
 0.9927019933948E-01
 0.9955292969484E-01
 0.9921052067585E-01
 0.9765437391945E-01
 0.9398621306751E-01
 0.8695651744726E-01
 0.7517851915003E-01
 0.5790651002683E-01
 0.3586358302120E-01
 0.1157873816211E-01
 0.1066388164763E+00
 0.1042798212527E+00
 0.1018073709808E+00
 0.9970522971416E-01
 0.9822920733350E-01
 0.9739868286096E-01
 0.9712046531680E-01
 0.9728905436533E-01
 0.9781719734238E-01
 0.9863047978067E-01
 0.9965036636607E-01
 0.1007673032713E+00
 0.1017968022717E+00
 0.1024100540346E+00
 0.1020363093637E+00
 0.9973512452614E-01
 0.9401761001808E-01
 0.8286858821024E-01
 0.6461003322587E-01
 0.3947842891816E-01
 0.1022193272290E-01
 0.1071909649686E+00
 0.1044028370110E+00
 0.1014752544721E+00
 0.9910089277121E-01
 0.9756445565146E-01
 0.9681374014945E-01
 0.9669427657611E-01
 0.9707819298512E-01
 0.9787995406992E-01
 0.9904084893193E-01
 0.1005099908737E+00
 0.1022179027040E+00
 0.1040322526143E+00
 0.1056817980606E+00
 0.1066462944702E+00
 0.1060112930546E+00
 0.1021558744992E+00
 0.9237817986535E-01
 0.7356259311540E-01
 0.4471870063396E-01
 0.9163180315732E-02
 0.1079699730148E+00
 0.1045526690079E+00
 0.1009946088748E+00
 0.9830108147075E-01
 0.9673363969644E-01
 0.9609795632148E-01
 0.9615916331087E-01
 0.9677007294886E-01
 0.9784985927008E-01
 0.9935799558940E-01
 0.1012745073038E+00
 0.1035760398956E+00
 0.1061949670478E+00
 0.1089411178765E+00
 0.1113769382287E+00
 0.1126808406978E+00
 0.1112973718983E+00
 0.1040041290463E+00
 0.8565571687321E-01
 0.5263637199879E-01
 0.8466257953935E-02
 0.1091077964475E+00
 0.1047160922827E+00
 0.1002720097435E+00
 0.9724228406415E-01
 0.9571316837448E-01
 0.9523958645607E-01
 0.9550508800607E-01
 0.9635349790759E-01
 0.9771170355190E-01
 0.9956012578693E-01
 0.1019118900683E+00
 0.1047940778798E+00
 0.1082147348967E+00
 0.1120888813226E+00
 0.1161008474755E+00
 0.1195570104283E+00
 0.1211895748945E+00
 0.1178511912092E+00
 0.1020988241176E+00
 0.6501217458625E-01
 0.8430345775237E-02
 0.1108469011332E+00
 0.1048303849218E+00
 0.9913720157988E-01
 0.9585542661997E-01
 0.9448988494765E-01
 0.9422913677073E-01
 0.9472435547628E-01
 0.9581922719616E-01
 0.9745183368974E-01
 0.9962695446643E-01
 0.1023917316686E+00
 0.1058244313973E+00
 0.1100183648889E+00
 0.1150135573657E+00
 0.1206658258806E+00
 0.1264438801869E+00
 0.1313883162935E+00
 0.1334943827993E+00
 0.1242456101466E+00
 0.8519594514094E-01
 0.1003130252487E-01
 0.1136915516420E+00
 0.1046577878602E+00
 0.9728561137316E-01
 0.9411273600044E-01
 0.9306196110705E-01
 0.9305738262512E-01
 0.9381403066763E-01
 0.9515977420004E-01
 0.9705888759578E-01
 0.9954040783194E-01
 0.1026862334897E+00
 0.1066236101292E+00
 0.1115293663236E+00
 0.1176033502563E+00
 0.1248808743039E+00
 0.1331431949253E+00
 0.1414960356174E+00
 0.1494923810939E+00
 0.1525855032505E+00
 0.1197408284233E+00
 0.1645740062027E-01
 0.1189298349940E+00
 0.1032289144442E+00
 0.9431995705555E-01
 0.9215309519655E-01
 0.9137992079842E-01
 0.9173838288799E-01
 0.9276967618251E-01
 0.9437176455607E-01
 0.9652379066475E-01
 0.9928529162343E-01
 0.1027715521599E+00
 0.1071535214149E+00
 0.1126818723478E+00
 0.1197197591434E+00
 0.1286098738965E+00
 0.1392272640839E+00
 0.1516097348537E+00
 0.1639221458297E+00
 0.1829151837070E+00
 0.1806076760664E+00
 0.3939345534466E-01
 0.1312267118579E+00
 0.9542090800556E-01
 0.9169341709612E-01
 0.8962344898833E-01
 0.8954172243294E-01
 0.9025803590004E-01
 0.9159924907295E-01
 0.9345289057495E-01
 0.9584097220427E-01
 0.9884988524969E-01
 0.1026278178511E+00
 0.1073854541448E+00
 0.1134213457367E+00
 0.1212480877476E+00
 0.1315786352203E+00
 0.1447399838779E+00
 0.1601435566053E+00
 0.1803277911218E+00
 0.1989167802712E+00
 0.2769274096873E+00
 0.1283004327456E+00
 0.1588361437678E+01
 0.1791355044997E+01
 0.1893141273415E+01
 0.1934103030055E+01
 0.1924472812432E+01
 0.1889282054595E+01
 0.1845173887868E+01
 0.1796426019843E+01
 0.1744997183594E+01
 0.1705851803073E+01
 0.1598875088716E+01
 0.1793345569933E+01
 0.1917438999574E+01
 0.1980455478122E+01
 0.1997647438599E+01
 0.1985423581265E+01
 0.1961802768234E+01
 0.1935119302211E+01
 0.1904613303687E+01
 0.1857432432975E+01
 0.1597685572396E+01
 0.1805919152553E+01
 0.1942436679264E+01
 0.2025114607265E+01
 0.2063629042177E+01
 0.2073595414976E+01
 0.2071721263653E+01
 0.2066854930280E+01
 0.2055597871476E+01
 0.2030774242386E+01
 0.1596614586336E+01
 0.1818706478423E+01
 0.1968493348114E+01
 0.2066258376331E+01
 0.2123216594986E+01
 0.2153419848638E+01
 0.2172724102393E+01
 0.2189765409006E+01
 0.2204339147824E+01
 0.2213571300152E+01
 0.1596210415873E+01
 0.1831261597714E+01
 0.1992883154324E+01
 0.2103455993112E+01
 0.2175920293707E+01
 0.2224194434024E+01
 0.2263334812017E+01
 0.2303083583573E+01
 0.2346717150283E+01
 0.2395346687553E+01
 0.1596482785268E+01
 0.1842804846975E+01
 0.2014527869784E+01
 0.2135744973574E+01
 0.2221182615951E+01
 0.2285047161966E+01
 0.2342310213426E+01
 0.2404147877632E+01
 0.2477212460069E+01
 0.2566851994361E+01
 0.1597156029845E+01
 0.1852758998018E+01
 0.2032651239930E+01
 0.2162410699681E+01
 0.2258327987217E+01
 0.2335138725575E+01
 0.2408087224208E+01
 0.2489844800978E+01
 0.2590162238354E+01
 0.2718633956647E+01
 0.1597942699560E+01
 0.1860647335646E+01
 0.2046701347952E+01
 0.2182889709342E+01
 0.2286764937229E+01
 0.2373616138098E+01
 0.2459088832883E+01
 0.2557181358968E+01
 0.2680200331247E+01
 0.2841621903461E+01
 0.1598604637199E+01
 0.1866108655839E+01
 0.2056282212892E+01
 0.2196769901988E+01
 0.2306009869220E+01
 0.2399732170751E+01
 0.2493941516413E+01
 0.2603616494327E+01
 0.2742872980320E+01
 0.2927882011464E+01
 0.1598977305747E+01
 0.1868900190164E+01
 0.2061136322410E+01
 0.2203778220611E+01
 0.2315720885758E+01
 0.2412935996875E+01
 0.2511634800197E+01
 0.2627317454336E+01
 0.2775012069326E+01
 0.2972192554487E+01
 0.1598977305690E+01
 0.1868900189945E+01
 0.2061136322143E+01
 0.2203778220376E+01
 0.2315720885587E+01
 0.2412935996762E+01
 0.2511634800116E+01
 0.2627317454269E+01
 0.2775012069272E+01
 0.2972192554503E+01
 0.1598604637035E+01
 0.1866108655191E+01
 0.2056282212098E+01
 0.2196769901286E+01
 0.2306009868711E+01
 0.2399732170415E+01
 0.2493941516177E+01
 0.2603616494134E+01
 0.2742872980179E+01
 0.2927882011557E+01
 0.1597942699310E+01
 0.1860647334596E+01
 0.2046701346650E+01
 0.2182889708187E+01
 0.2286764936391E+01
 0.2373616137549E+01
 0.2459088832508E+01
 0.2557181358675E+01
 0.2680200331062E+01
 0.2841621903721E+01
 0.1597156029546E+01
 0.1852758996610E+01
 0.2032651238153E+01
 0.2162410698094E+01
 0.2258327986067E+01
 0.2335138724828E+01
 0.2408087223716E+01
 0.2489844800621E+01
 0.2590162238174E+01
 0.2718633957096E+01
 0.1596482784968E+01
 0.1842804845268E+01
 0.2014527867579E+01
 0.2135744971587E+01
 0.2221182614507E+01
 0.2285047161038E+01
 0.2342310212838E+01
 0.2404147877244E+01
 0.2477212459926E+01
 0.2566851994968E+01
 0.1596210415631E+01
 0.1831261595783E+01
 0.1992883151754E+01
 0.2103455990767E+01
 0.2175920291991E+01
 0.2224194432923E+01
 0.2263334811344E+01
 0.2303083583172E+01
 0.2346717150186E+01
 0.2395346688286E+01
 0.1596614586212E+01
 0.1818706476354E+01
 0.1968493345261E+01
 0.2066258373686E+01
 0.2123216593019E+01
 0.2153419847363E+01
 0.2172724101621E+01
 0.2189765408587E+01
 0.2204339147761E+01
 0.2213571300965E+01
 0.1597685572422E+01
 0.1805919150440E+01
 0.1942436676240E+01
 0.2025114604406E+01
 0.2063629039985E+01
 0.2073595413488E+01
 0.2071721262745E+01
 0.2066854929787E+01
 0.2055597871424E+01
 0.2030774243232E+01
 0.1598875088854E+01
 0.1793345567843E+01
 0.1917438996584E+01
 0.1980455475156E+01
 0.1997647436215E+01
 0.1985423579514E+01
 0.1961802767020E+01
 0.1935119301665E+01
 0.1904613303470E+01
 0.1857432433875E+01
 0.1588361437131E+01
 0.1791355043416E+01
 0.1893141270595E+01
 0.1934103027204E+01
 0.1924472809905E+01
 0.1889282052437E+01
 0.1845173886211E+01
 0.1796426018721E+01
 0.1744997183952E+01
 0.1705851803084E+01
 0.3220177809577E+01
 0.1199602822156E+01
 0.8563996559275E+00
 0.4924171679905E+00
 0.1693087129662E+00
-0.3796632041634E-01
-0.2133108184364E-01
-0.1021821748781E-01
-0.1164661283107E-01
-0.6862631233685E-01
 0.2493857280403E+01
 0.1769298349179E+01
 0.1030481937698E+01
 0.6779954397497E+00
 0.3395347687639E+00
 0.9578429514739E-01
-0.3423037497897E-01
-0.8096354524279E-02
-0.2778309057066E-02
-0.5887895669184E-01
 0.2188439029424E+01
 0.1867932312756E+01
 0.1318701488019E+01
 0.8678822958552E+00
 0.5346705001714E+00
 0.2993529773782E+00
 0.1276292185400E+00
 0.2020339477314E-01
 0.5944724940086E-02
-0.1784515700926E-01
 0.2013159887554E+01
 0.1882680898448E+01
 0.1510189311588E+01
 0.1093081043576E+01
 0.7420282632855E+00
 0.5094829309972E+00
 0.3286878708836E+00
 0.1944404771933E+00
 0.1022072657683E+00
 0.7083560718744E-01
 0.1898287178778E+01
 0.1875968395293E+01
 0.1637045137399E+01
 0.1298001011264E+01
 0.9639717305576E+00
 0.7295386235120E+00
 0.5447898347894E+00
 0.3956738995441E+00
 0.2753278584971E+00
 0.2082299148531E+00
 0.1816570313949E+01
 0.1863611575279E+01
 0.1724746608366E+01
 0.1470927761559E+01
 0.1181562809831E+01
 0.9571772426630E+00
 0.7742729205735E+00
 0.6211408050855E+00
 0.4874896371396E+00
 0.3963552194431E+00
 0.1754820621598E+01
 0.1849844270490E+01
 0.1787378034271E+01
 0.1613556726274E+01
 0.1382801889572E+01
 0.1182907458732E+01
 0.1011081073203E+01
 0.8646129807844E+00
 0.7323358085756E+00
 0.6308700560011E+00
 0.1705915276804E+01
 0.1835212631149E+01
 0.1832127413329E+01
 0.1729689746403E+01
 0.1562701709856E+01
 0.1398755191140E+01
 0.1247655977655E+01
 0.1114525729674E+01
 0.9983951903260E+00
 0.9003476529843E+00
 0.1665868498600E+01
 0.1819398493863E+01
 0.1861479851903E+01
 0.1822384508387E+01
 0.1719041496903E+01
 0.1599938172697E+01
 0.1478628472526E+01
 0.1364733524437E+01
 0.1259225202251E+01
 0.1188376055009E+01
 0.1640075136370E+01
 0.1795339506265E+01
 0.1877616023470E+01
 0.1892199917555E+01
 0.1850647541437E+01
 0.1780970420592E+01
 0.1700885522026E+01
 0.1616031762309E+01
 0.1526225923705E+01
 0.1415197817793E+01
 0.1640075138523E+01
 0.1795339504564E+01
 0.1877616020022E+01
 0.1892199913443E+01
 0.1850647537779E+01
 0.1780970417696E+01
 0.1700885519710E+01
 0.1616031760518E+01
 0.1526225921887E+01
 0.1415197818008E+01
 0.1665868500423E+01
 0.1819398492979E+01
 0.1861479848421E+01
 0.1822384503653E+01
 0.1719041492326E+01
 0.1599938168862E+01
 0.1478628469436E+01
 0.1364733521970E+01
 0.1259225200474E+01
 0.1188376054343E+01
 0.1705915279107E+01
 0.1835212630642E+01
 0.1832127409767E+01
 0.1729689740800E+01
 0.1562701704284E+01
 0.1398755186524E+01
 0.1247655973988E+01
 0.1114525726777E+01
 0.9983951877090E+00
 0.9003476518480E+00
 0.1754820624632E+01
 0.1849844270333E+01
 0.1787378030366E+01
 0.1613556719617E+01
 0.1382801883046E+01
 0.1182907453542E+01
 0.1011081069184E+01
 0.8646129774725E+00
 0.7323358054362E+00
 0.6308700548095E+00
 0.1816570317885E+01
 0.1863611575316E+01
 0.1724746603818E+01
 0.1470927753708E+01
 0.1181562802548E+01
 0.9571772372154E+00
 0.7742729164658E+00
 0.6211408016984E+00
 0.4874896339643E+00
 0.3963552187332E+00
 0.1898287183754E+01
 0.1875968395189E+01
 0.1637045131810E+01
 0.1298001002269E+01
 0.9639717229655E+00
 0.7295386182066E+00
 0.5447898309197E+00
 0.3956738964872E+00
 0.2753278558672E+00
 0.2082299151448E+00
 0.2013159893703E+01
 0.1882680897545E+01
 0.1510189304508E+01
 0.1093081033963E+01
 0.7420282560595E+00
 0.5094829261523E+00
 0.3286878675177E+00
 0.1944404748650E+00
 0.1022072642354E+00
 0.7083560885963E-01
 0.2188439036864E+01
 0.1867932309767E+01
 0.1318701479318E+01
 0.8678822870449E+00
 0.5346704937318E+00
 0.2993529730907E+00
 0.1276292158731E+00
 0.2020339354765E-01
 0.5944724491609E-02
-0.1784515391526E-01
 0.2493857289122E+01
 0.1769298341227E+01
 0.1030481929848E+01
 0.6779954328111E+00
 0.3395347630025E+00
 0.9578429133331E-01
-0.3423037455583E-01
-0.8096354542886E-02
-0.2778310272680E-02
-0.5887895992825E-01
 0.3220177811681E+01
 0.1199602813521E+01
 0.8563996508957E+00
 0.4924171634623E+00
 0.1693087070057E+00
-0.3796632070985E-01
-0.2133108177819E-01
-0.1021821836840E-01
-0.1164661408004E-01
-0.6862631712096E-01
 0.1598393032511E+01
 0.1190485216900E+01
 0.8796884345302E+00
 0.6052668582362E+00
 0.3808120494352E+00
 0.2135184970450E+00
 0.1037929121911E+00
 0.4222824308932E-01
 0.1123582529144E-01
-0.5641648550200E-03
 0.1733547790953E+01
 0.1433919656718E+01
 0.1091328477095E+01
 0.7826419766293E+00
 0.5173809156285E+00
 0.3103608803961E+00
 0.1674529063131E+00
 0.8325802055968E-01
 0.4072749950544E-01
 0.1309995664641E-01
 0.1917739205841E+01
 0.1662619332359E+01
 0.1354207519617E+01
 0.1030024392353E+01
 0.7269812749305E+00
 0.4677299485786E+00
 0.2694028585549E+00
 0.1385611875837E+00
 0.6507519897056E-01
 0.2515234733151E-01
 0.2122075226546E+01
 0.1918479068249E+01
 0.1654634818873E+01
 0.1351968229102E+01
 0.1035667094570E+01
 0.7326530567057E+00
 0.4668013102916E+00
 0.2568486174517E+00
 0.1148615424062E+00
 0.3482001131531E-01
 0.2338005205829E+01
 0.2191787070673E+01
 0.1991238047110E+01
 0.1741745027710E+01
 0.1455993767671E+01
 0.1150519061558E+01
 0.8440118890798E+00
 0.5541860397874E+00
 0.2937911993033E+00
 0.8453105265518E-01
 0.2553337607307E+01
 0.2467991145232E+01
 0.2341537711246E+01
 0.2171561982636E+01
 0.1961473683021E+01
 0.1718734937672E+01
 0.1453636988704E+01
 0.1177541313318E+01
 0.8985598790507E+00
 0.6135332708660E+00
 0.2755067519984E+01
 0.2729877016112E+01
 0.2679654487601E+01
 0.2599621639321E+01
 0.2489589567388E+01
 0.2352856686881E+01
 0.2196174836134E+01
 0.2029570695800E+01
 0.1865237694032E+01
 0.1702942349556E+01
 0.2926905566916E+01
 0.2955025397328E+01
 0.2972260947886E+01
 0.2973965344540E+01
 0.2957932194599E+01
 0.2924131089896E+01
 0.2875007869094E+01
 0.2816318420587E+01
 0.2757841326415E+01
 0.2720872361655E+01
 0.3052669762698E+01
 0.3120254791508E+01
 0.3186781305629E+01
 0.3248796119656E+01
 0.3302985212403E+01
 0.3346429637428E+01
 0.3376750863659E+01
 0.3392403269779E+01
 0.3394189334544E+01
 0.3387271339702E+01
 0.3119452597243E+01
 0.3208012706310E+01
 0.3300397675158E+01
 0.3394202482158E+01
 0.3485683535731E+01
 0.3570243761847E+01
 0.3642276627390E+01
 0.3694806721141E+01
 0.3718676284886E+01
 0.3700989293034E+01
 0.3119452597976E+01
 0.3208012707670E+01
 0.3300397677331E+01
 0.3394202485397E+01
 0.3485683540292E+01
 0.3570243767936E+01
 0.3642276635090E+01
 0.3694806730320E+01
 0.3718676294927E+01
 0.3700989302773E+01
 0.3052669764709E+01
 0.3120254795313E+01
 0.3186781311821E+01
 0.3248796128976E+01
 0.3302985225587E+01
 0.3346429655072E+01
 0.3376750886061E+01
 0.3392403296729E+01
 0.3394189365032E+01
 0.3387271370879E+01
 0.2926905569730E+01
 0.2955025402879E+01
 0.2972260957174E+01
 0.2973965358707E+01
 0.2957932214735E+01
 0.2924131116901E+01
 0.2875007903548E+01
 0.2816318462619E+01
 0.2757841375845E+01
 0.2720872418626E+01
 0.2755067523113E+01
 0.2729877022626E+01
 0.2679654498875E+01
 0.2599621656765E+01
 0.2489589592311E+01
 0.2352856720406E+01
 0.2196174879173E+01
 0.2029570749193E+01
 0.1865237758730E+01
 0.1702942429413E+01
 0.2553337610201E+01
 0.2467991151730E+01
 0.2341537722791E+01
 0.2171562000448E+01
 0.1961473707973E+01
 0.1718734970204E+01
 0.1453637028853E+01
 0.1177541360806E+01
 0.8985599338769E+00
 0.6135333290991E+00
 0.2338005208279E+01
 0.2191787076923E+01
 0.1991238058374E+01
 0.1741745044491E+01
 0.1455993789628E+01
 0.1150519087447E+01
 0.8440119167918E+00
 0.5541860665573E+00
 0.2937912212351E+00
 0.8453106740176E-01
 0.2122075228529E+01
 0.1918479074087E+01
 0.1654634829168E+01
 0.1351968243359E+01
 0.1035667111356E+01
 0.7326530739560E+00
 0.4668013257103E+00
 0.2568486288950E+00
 0.1148615488385E+00
 0.3482001299964E-01
 0.1917739207354E+01
 0.1662619337606E+01
 0.1354207528364E+01
 0.1030024403252E+01
 0.7269812863116E+00
 0.4677299588250E+00
 0.2694028664469E+00
 0.1385611926900E+00
 0.6507520173790E-01
 0.2515234874121E-01
 0.1733547792114E+01
 0.1433919661390E+01
 0.1091328483744E+01
 0.7826419839247E+00
 0.5173809225427E+00
 0.3103608862659E+00
 0.1674529109257E+00
 0.8325802410420E-01
 0.4072750233934E-01
 0.1309995843836E-01
 0.1598393034554E+01
 0.1190485220209E+01
 0.8796884380929E+00
 0.6052668616584E+00
 0.3808120526060E+00
 0.2135185001304E+00
 0.1037929155211E+00
 0.4222824687839E-01
 0.1123582923267E-01
-0.5641615258590E-03
</DataArray>
<DataArray type="Float64" Name="CK" NumberOfComponents="1" ComponentName0="CK" format="ascii">
 0.0000000000000E+00
 0.0000000000000E+00
 0.0000000000000E+00
 0.0000000000000E+00
 0.0000000000000E+00
 0.0000000000000E+00
 0.0000000000000E+00
 0.0000000000000E+00
 0.0000000000000E+00
 0.0000000000000E+00
 0.0000000000000E+00
 0.0000000000000E+00
 0.0000000000000E+00
 0.0000000000000E+00
 0.0000000000000E+00
 0.0000000000000E+00
 0.0000000000000E+00
 0.0000000000000E+00
 0.0000000000000E+00
 0.0000000000000E+00
 0.0000000000000E+00
 0.0000000000000E+00
 0.0000000000000E+00
 0.0000000000000E+00
 0.0000000000000E+00
 0.0000000000000E+00
 0.0000000000000E+00
 0.0000000000000E+00
 0.0000000000000E+00
 0.0000000000000E+00
 0.0000000000000E+00
 0.0000000000000E+00
 0.0000000000000E+00
 0.0000000000000E+00
 0.0000000000000E+00
 0.0000000000000E+00
 0.0000000000000E+00
 0.0000000000000E+00
 0.0000000000000E+00
 0.0000000000000E+00
 0.0000000000000E+00
 0.0000000000000E+00
 0.0000000000000E+00
 0.0000000000000E+00
 0.0000000000000E+00
 0.0000000000000E+00
 0.0000000000000E+00
 0.0000000000000E+00
 0.0000000000000E+00
 0.0000000000000E+00
 0.0000000000000E+00
 0.0000000000000E+00
 0.0000000000000E+00
 0.0000000000000E+00
 0.0000000000000E+00
 0.0000000000000E+00
 0.0000000000000E+00
 0.0000000000000E+00
 0.0000000000000E+00
 0.0000000000000E+00
 0.0000000000000E+00
 0.0000000000000E+00
 0.0000000000000E+00
 0.0000000000000E+00
 0.0000000000000E+00
 0.0000000000000E+00
 0.0000000000000E+00
 0.0000000000000E+00
 0.0000000000000E+00
 0.0000000000000E+00
 0.0000000000000E+00
 0.0000000000000E+00
 0.0000000000000E+00
 0.0000000000000E+00
 0.0000000000000E+00
 0.0000000000000E+00
 0.0000000000000E+00
 0.0000000000000E+00
 0.0000000000000E+00
 0.0000000000000E+00
 0.0000000000000E+00
 0.0000000000000E+00
 0.0000000000000E+00
 0.0000000000000E+00
 0.0000000000000E+00
 0.0000000000000E+00
 0.0000000000000E+00
 0.0000000000000E+00
 0.0000000000000E+00
 0.0000000000000E+00
 0.0000000000000E+00
 0.0000000000000E+00
 0.0000000000000E+00
 0.0000000000000E+00
 0.0000000000000E+00
 0.0000000000000E+00
 0.0000000000000E+00
 0.0000000000000E+00
 0.0000000000000E+00
 0.0000000000000E+00
 0.0000000000000E+00
 0.0000000000000E+00
 0.0000000000000E+00
 0.0000000000000E+00
 0.0000000000000E+00
 0.0000000000000E+00
 0.0000000000000E+00
 0.0000000000000E+00
 0.0000000000000E+00
 0.0000000000000E+00
 0.0000000000000E+00
 0.0000000000000E+00
 0.0000000000000E+00
 0.0000000000000E+00
 0.0000000000000E+00
 0.0000000000000E+00
 0.0000000000000E+00
 0.0000000000000E+00
 0.0000000000000E+00
 0.0000000000000E+00
 0.0000000000000E+00
 0.0000000000000E+00
 0.0000000000000E+00
 0.0000000000000E+00
 0.0000000000000E+00
 0.0000000000000E+00
 0.0000000000000E+00
 0.0000000000000E+00
 0.0000000000000E+00
 0.0000000000000E+00
 0.0000000000000E+00
 0.0000000000000E+00
 0.0000000000000E+00
 0.0000000000000E+00
 0.0000000000000E+00
 0.0000000000000E+00
 0.0000000000000E+00
 0.0000000000000E+00
 0.0000000000000E+00
 0.0000000000000E+00
 0.0000000000000E+00
 0.0000000000000E+00
 0.0000000000000E+00
 0.0000000000000E+00
 0.0000000000000E+00
 0.0000000000000E+00
 0.0000000000000E+00
 0.0000000000000E+00
 0.0000000000000E+00
 0.0000000000000E+00
 0.0000000000000E+00
 0.0000000000000E+00
 0.0000000000000E+00
 0.0000000000000E+00
 0.0000000000000E+00
 0.0000000000000E+00
 0.0000000000000E+00
 0.0000000000000E+00
 0.0000000000000E+00
 0.0000000000000E+00
 0.0000000000000E+00
 0.0000000000000E+00
 0.0000000000000E+00
 0.0000000000000E+00
 0.0000000000000E+00
 0.0000000000000E+00
 0.0000000000000E+00
 0.0000000000000E+00
 0.0000000000000E+00
 0.0000000000000E+00
 0.0000000000000E+00
 0.0000000000000E+00
 0.0000000000000E+00
 0.0000000000000E+00
 0.0000000000000E+00
 0.0000000000000E+00
 0.0000000000000E+00
 0.0000000000000E+00
 0.0000000000000E+00
 0.0000000000000E+00
 0.0000000000000E+00
 0.0000000000000E+00
 0.0000000000000E+00
 0.0000000000000E+00
 0.0000000000000E+00
 0.0000000000000E+00
 0.0000000000000E+00
 0.0000000000000E+00
 0.0000000000000E+00
 0.0000000000000E+00
 0.0000000000000E+00
 0.0000000000000E+00
 0.0000000000000E+00
 0.0000000000000E+00
 0.0000000000000E+00
 0.0000000000000E+00
 0.0000000000000E+00
 0.0000000000000E+00
 0.0000000000000E+00
 0.0000000000000E+00
 0.0000000000000E+00
 0.0000000000000E+00
 0.0000000000000E+00
 0.0000000000000E+00
 0.0000000000000E+00
 0.0000000000000E+00
 0.0000000000000E+00
 0.0000000000000E+00
 0.0000000000000E+00
 0.0000000000000E+00
 0.0000000000000E+00
 0.0000000000000E+00
 0.0000000000000E+00
 0.0000000000000E+00
 0.0000000000000E+00
 0.0000000000000E+00
 0.0000000000000E+00
 0.0000000000000E+00
 0.0000000000000E+00
 0.0000000000000E+00
 0.0000000000000E+00
 0.0000000000000E+00
 0.0000000000000E+00
 0.0000000000000E+00
 0.0000000000000E+00
 0.0000000000000E+00
 0.0000000000000E+00
 0.0000000000000E+00
 0.0000000000000E+00
 0.0000000000000E+00
 0.0000000000000E+00
 0.0000000000000E+00
 0.0000000000000E+00
 0.0000000000000E+00
 0.0000000000000E+00
 0.0000000000000E+00
 0.0000000000000E+00
 0.0000000000000E+00
 0.0000000000000E+00
 0.0000000000000E+00
 0.0000000000000E+00
 0.0000000000000E+00
 0.0000000000000E+00
 0.0000000000000E+00
 0.0000000000000E+00
 0.0000000000000E+00
 0.0000000000000E+00
 0.0000000000000E+00
 0.0000000000000E+00
 0.0000000000000E+00
 0.0000000000000E+00
 0.0000000000000E+00
 0.0000000000000E+00
 0.0000000000000E+00
 0.0000000000000E+00
 0.0000000000000E+00
 0.0000000000000E+00
 0.0000000000000E+00
 0.0000000000000E+00
 0.0000000000000E+00
 0.0000000000000E+00
 0.0000000000000E+00
 0.0000000000000E+00
 0.0000000000000E+00
 0.0000000000000E+00
 0.0000000000000E+00
 0.0000000000000E+00
 0.0000000000000E+00
 0.0000000000000E+00
 0.0000000000000E+00
 0.0000000000000E+00
 0.0000000000000E+00
 0.0000000000000E+00
 0.0000000000000E+00
 0.0000000000000E+00
 0.0000000000000E+00
 0.0000000000000E+00
 0.0000000000000E+00
 0.0000000000000E+00
 0.0000000000000E+00
 0.0000000000000E+00
 0.0000000000000E+00
 0.0000000000000E+00
 0.0000000000000E+00
 0.0000000000000E+00
 0.0000000000000E+00
 0.0000000000000E+00
 0.0000000000000E+00
 0.0000000000000E+00
 0.0000000000000E+00
 0.0000000000000E+00
 0.0000000000000E+00
 0.0000000000000E+00
 0.0000000000000E+00
 0.0000000000000E+00
 0.0000000000000E+00
 0.0000000000000E+00
 0.0000000000000E+00
 0.0000000000000E+00
 0.0000000000000E+00
 0.0000000000000E+00
 0.0000000000000E+00
 0.0000000000000E+00
 0.0000000000000E+00
 0.0000000000000E+00
 0.0000000000000E+00
 0.0000000000000E+00
 0.0000000000000E+00
 0.0000000000000E+00
 0.0000000000000E+00
 0.0000000000000E+00
 0.0000000000000E+00
 0.0000000000000E+00
 0.0000000000000E+00
 0.0000000000000E+00
 0.0000000000000E+00
 0.0000000000000E+00
 0.0000000000000E+00
 0.0000000000000E+00
 0.0000000000000E+00
 0.0000000000000E+00
 0.0000000000000E+00
 0.0000000000000E+00
 0.0000000000000E+00
 0.0000000000000E+00
 0.0000000000000E+00
 0.0000000000000E+00
 0.0000000000000E+00
 0.0000000000000E+00
 0.0000000000000E+00
 0.0000000000000E+00
 0.0000000000000E+00
 0.0000000000000E+00
 0.0000000000000E+00
 0.0000000000000E+00
 0.0000000000000E+00
 0.0000000000000E+00
 0.0000000000000E+00
 0.0000000000000E+00
 0.0000000000000E+00
 0.0000000000000E+00
 0.0000000000000E+00
 0.0000000000000E+00
 0.0000000000000E+00
 0.0000000000000E+00
 0.0000000000000E+00
 0.0000000000000E+00
 0.0000000000000E+00
 0.0000000000000E+00
 0.0000000000000E+00
 0.0000000000000E+00
 0.0000000000000E+00
 0.0000000000000E+00
 0.0000000000000E+00
 0.0000000000000E+00
 0.0000000000000E+00
 0.0000000000000E+00
 0.0000000000000E+00
 0.0000000000000E+00
 0.0000000000000E+00
 0.0000000000000E+00
 0.0000000000000E+00
 0.0000000000000E+00
 0.0000000000000E+00
 0.0000000000000E+00
 0.0000000000000E+00
 0.0000000000000E+00
 0.0000000000000E+00
 0.0000000000000E+00
 0.0000000000000E+00
 0.0000000000000E+00
 0.0000000000000E+00
 0.0000000000000E+00
 0.0000000000000E+00
 0.0000000000000E+00
 0.0000000000000E+00
 0.0000000000000E+00
 0.0000000000000E+00
 0.0000000000000E+00
 0.0000000000000E+00
 0.0000000000000E+00
 0.0000000000000E+00
 0.0000000000000E+00
 0.0000000000000E+00
 0.0000000000000E+00
 0.0000000000000E+00
 0.0000000000000E+00
 0.0000000000000E+00
 0.0000000000000E+00
 0.0000000000000E+00
 0.0000000000000E+00
 0.0000000000000E+00
 0.0000000000000E+00
 0.0000000000000E+00
 0.0000000000000E+00
 0.0000000000000E+00
 0.0000000000000E+00
 0.0000000000000E+00
 0.0000000000000E+00
 0.0000000000000E+00
 0.0000000000000E+00
 0.0000000000000E+00
 0.0000000000000E+00
 0.0000000000000E+00
 0.0000000000000E+00
 0.0000000000000E+00
 0.0000000000000E+00
 0.0000000000000E+00
 0.0000000000000E+00
 0.0000000000000E+00
 0.0000000000000E+00
 0.0000000000000E+00
 0.0000000000000E+00
 0.0000000000000E+00
 0.0000000000000E+00
 0.0000000000000E+00
 0.0000000000000E+00
 0.0000000000000E+00
 0.0000000000000E+00
 0.0000000000000E+00
 0.0000000000000E+00
 0.0000000000000E+00
 0.0000000000000E+00
 0.0000000000000E+00
 0.0000000000000E+00
 0.0000000000000E+00
 0.0000000000000E+00
 0.0000000000000E+00
 0.0000000000000E+00
 0.0000000000000E+00
 0.0000000000000E+00
 0.0000000000000E+00
 0.0000000000000E+00
 0.0000000000000E+00
 0.0000000000000E+00
 0.0000000000000E+00
 0.0000000000000E+00
 0.0000000000000E+00
 0.0000000000000E+00
 0.0000000000000E+00
 0.0000000000000E+00
 0.0000000000000E+00
 0.0000000000000E+00
 0.0000000000000E+00
 0.0000000000000E+00
 0.0000000000000E+00
 0.0000000000000E+00
 0.0000000000000E+00
 0.0000000000000E+00
 0.0000000000000E+00
 0.0000000000000E+00
 0.0000000000000E+00
 0.0000000000000E+00
 0.0000000000000E+00
 0.0000000000000E+00
 0.0000000000000E+00
 0.0000000000000E+00
 0.0000000000000E+00
 0.0000000000000E+00
 0.0000000000000E+00
 0.0000000000000E+00
 0.0000000000000E+00
 0.0000000000000E+00
 0.0000000000000E+00
 0.0000000000000E+00
 0.0000000000000E+00
 0.0000000000000E+00
 0.0000000000000E+00
 0.0000000000000E+00
 0.0000000000000E+00
 0.0000000000000E+00
 0.0000000000000E+00
 0.0000000000000E+00
 0.0000000000000E+00
 0.0000000000000E+00
 0.0000000000000E+00
 0.0000000000000E+00
 0.0000000000000E+00
 0.0000000000000E+00
 0.0000000000000E+00
 0.0000000000000E+00
 0.0000000000000E+00
 0.0000000000000E+00
 0.0000000000000E+00
 0.0000000000000E+00
 0.0000000000000E+00
 0.0000000000000E+00
 0.0000000000000E+00
 0.0000000000000E+00
 0.0000000000000E+00
 0.0000000000000E+00
 0.0000000000000E+00
 0.0000000000000E+00
 0.0000000000000E+00
 0.0000000000000E+00
 0.0000000000000E+00
 0.0000000000000E+00
 0.0000000000000E+00
 0.0000000000000E+00
 0.0000000000000E+00
 0.0000000000000E+00
 0.0000000000000E+00
 0.0000000000000E+00
 0.0000000000000E+00
 0.0000000000000E+00
 0.0000000000000E+00
 0.0000000000000E+00
 0.0000000000000E+00
 0.0000000000000E+00
 0.0000000000000E+00
 0.0000000000000E+00
 0.0000000000000E+00
 0.0000000000000E+00
 0.0000000000000E+00
 0.0000000000000E+00
 0.0000000000000E+00
 0.0000000000000E+00
 0.0000000000000E+00
 0.0000000000000E+00
 0.0000000000000E+00
 0.0000000000000E+00
 0.0000000000000E+00
 0.0000000000000E+00
 0.0000000000000E+00
 0.0000000000000E+00
 0.0000000000000E+00
 0.0000000000000E+00
 0.0000000000000E+00
 0.0000000000000E+00
 0.0000000000000E+00
 0.0000000000000E+00
 0.0000000000000E+00
 0.0000000000000E+00
 0.0000000000000E+00
 0.0000000000000E+00
 0.0000000000000E+00
 0.0000000000000E+00
 0.0000000000000E+00
 0.0000000000000E+00
 0.0000000000000E+00
 0.0000000000000E+00
 0.0000000000000E+00
 0.0000000000000E+00
 0.0000000000000E+00
 0.0000000000000E+00
 0.0000000000000E+00
 0.0000000000000E+00
 0.0000000000000E+00
 0.0000000000000E+00
 0.0000000000000E+00
 0.0000000000000E+00
 0.0000000000000E+00
 0.0000000000000E+00
 0.0000000000000E+00
 0.0000000000000E+00
 0.0000000000000E+00
 0.0000000000000E+00
 0.0000000000000E+00
 0.0000000000000E+00
 0.0000000000000E+00
 0.0000000000000E+00
 0.0000000000000E+00
 0.0000000000000E+00
 0.0000000000000E+00
 0.0000000000000E+00
 0.0000000000000E+00
 0.0000000000000E+00
 0.0000000000000E+00
 0.0000000000000E+00
 0.0000000000000E+00
 0.0000000000000E+00
 0.0000000000000E+00
 0.0000000000000E+00
 0.0000000000000E+00
 0.0000000000000E+00
 0.0000000000000E+00
 0.0000000000000E+00
 0.0000000000000E+00
 0.0000000000000E+00
 0.0000000000000E+00
 0.0000000000000E+00
 0.0000000000000E+00
 0.0000000000000E+00
 0.0000000000000E+00
 0.0000000000000E+00
 0.0000000000000E+00
 0.0000000000000E+00
 0.0000000000000E+00
 0.0000000000000E+00
 0.0000000000000E+00
 0.0000000000000E+00
 0.0000000000000E+00
 0.0000000000000E+00
 0.0000000000000E+00
 0.0000000000000E+00
 0.0000000000000E+00
 0.0000000000000E+00
 0.0000000000000E+00
 0.0000000000000E+00
 0.0000000000000E+00
 0.0000000000000E+00
 0.0000000000000E+00
 0.0000000000000E+00
 0.0000000000000E+00
 0.0000000000000E+00
 0.0000000000000E+00
 0.0000000000000E+00
 0.0000000000000E+00
 0.0000000000000E+00
 0.0000000000000E+00
 0.0000000000000E+00
 0.0000000000000E+00
 0.0000000000000E+00
 0.0000000000000E+00
 0.0000000000000E+00
 0.0000000000000E+00
 0.0000000000000E+00
 0.0000000000000E+00
 0.0000000000000E+00
 0.0000000000000E+00
 0.0000000000000E+00
 0.0000000000000E+00
 0.0000000000000E+00
 0.0000000000000E+00
 0.0000000000000E+00
 0.0000000000000E+00
 0.0000000000000E+00
 0.0000000000000E+00
 0.0000000000000E+00
 0.0000000000000E+00
 0.0000000000000E+00
 0.0000000000000E+00
 0.0000000000000E+00
 0.0000000000000E+00
 0.0000000000000E+00
 0.0000000000000E+00
 0.0000000000000E+00
 0.0000000000000E+00
 0.0000000000000E+00
 0.0000000000000E+00
 0.0000000000000E+00
 0.0000000000000E+00
 0.0000000000000E+00
 0.0000000000000E+00
 0.0000000000000E+00
 0.0000000000000E+00
 0.0000000000000E+00
 0.0000000000000E+00
 0.0000000000000E+00
 0.0000000000000E+00
 0.0000000000000E+00
 0.0000000000000E+00
 0.0000000000000E+00
 0.0000000000000E+00
 0.0000000000000E+00
 0.0000000000000E+00
 0.0000000000000E+00
 0.0000000000000E+00
 0.0000000000000E+00
 0.0000000000000E+00
 0.0000000000000E+00
 0.0000000000000E+00
 0.0000000000000E+00
 0.0000000000000E+00
 0.0000000000000E+00
 0.0000000000000E+00
 0.0000000000000E+00
 0.0000000000000E+00
 0.0000000000000E+00
 0.0000000000000E+00
 0.0000000000000E+00
 0.0000000000000E+00
 0.0000000000000E+00
 0.0000000000000E+00
 0.0000000000000E+00
 0.0000000000000E+00
 0.0000000000000E+00
 0.0000000000000E+00
 0.0000000000000E+00
 0.0000000000000E+00
 0.0000000000000E+00
 0.0000000000000E+00
 0.0000000000000E+00
 0.0000000000000E+00
 0.0000000000000E+00
 0.0000000000000E+00
 0.0000000000000E+00
 0.0000000000000E+00
 0.0000000000000E+00
 0.0000000000000E+00
 0.0000000000000E+00
 0.0000000000000E+00
 0.0000000000000E+00
 0.0000000000000E+00
 0.0000000000000E+00
 0.0000000000000E+00
 0.0000000000000E+00
 0.0000000000000E+00
 0.0000000000000E+00
 0.0000000000000E+00
 0.0000000000000E+00
 0.0000000000000E+00
 0.0000000000000E+00
 0.0000000000000E+00
 0.0000000000000E+00
 0.0000000000000E+00
 0.0000000000000E+00
 0.0000000000000E+00
 0.0000000000000E+00
 0.0000000000000E+00
 0.0000000000000E+00
 0.0000000000000E+00
 0.0000000000000E+00
 0.0000000000000E+00
 0.0000000000000E+00
 0.0000000000000E+00
 0.0000000000000E+00
 0.0000000000000E+00
 0.0000000000000E+00
 0.0000000000000E+00
 0.0000000000000E+00
 0.0000000000000E+00
 0.0000000000000E+00
 0.0000000000000E+00
 0.0000000000000E+00
 0.0000000000000E+00
 0.0000000000000E+00
 0.0000000000000E+00
 0.0000000000000E+00
 0.0000000000000E+00
 0.0000000000000E+00
 0.0000000000000E+00
 0.0000000000000E+00
 0.0000000000000E+00
 0.0000000000000E+00
 0.0000000000000E+00
 0.0000000000000E+00
 0.0000000000000E+00
 0.0000000000000E+00
 0.0000000000000E+00
 0.0000000000000E+00
 0.0000000000000E+00
 0.0000000000000E+00
 0.0000000000000E+00
 0.0000000000000E+00
 0.0000000000000E+00
 0.0000000000000E+00
 0.0000000000000E+00
 0.0000000000000E+00
 0.0000000000000E+00
 0.0000000000000E+00
 0.0000000000000E+00
 0.0000000000000E+00
 0.0000000000000E+00
 0.0000000000000E+00
 0.0000000000000E+00
 0.0000000000000E+00
 0.0000000000000E+00
 0.0000000000000E+00
 0.0000000000000E+00
 0.0000000000000E+00
 0.0000000000000E+00
 0.0000000000000E+00
 0.0000000000000E+00
 0.0000000000000E+00
 0.0000000000000E+00
 0.0000000000000E+00
 0.0000000000000E+00
 0.0000000000000E+00
 0.0000000000000E+00
 0.0000000000000E+00
 0.0000000000000E+00
 0.0000000000000E+00
 0.0000000000000E+00
 0.0000000000000E+00
 0.0000000000000E+00
 0.0000000000000E+00
 0.0000000000000E+00
 0.0000000000000E+00
 0.0000000000000E+00
 0.0000000000000E+00
 0.0000000000000E+00
 0.0000000000000E+00
 0.0000000000000E+00
 0.0000000000000E+00
 0.0000000000000E+00
 0.0000000000000E+00
 0.0000000000000E+00
 0.0000000000000E+00
 0.0000000000000E+00
 0.0000000000000E+00
 0.0000000000000E+00
 0.0000000000000E+00
 0.0000000000000E+00
 0.0000000000000E+00
 0.0000000000000E+00
 0.0000000000000E+00
 0.0000000000000E+00
 0.0000000000000E+00
 0.0000000000000E+00
 0.0000000000000E+00
 0.0000000000000E+00
 0.0000000000000E+00
 0.0000000000000E+00
 0.0000000000000E+00
 0.0000000000000E+00
 0.0000000000000E+00
 0.0000000000000E+00
 0.0000000000000E+00
 0.0000000000000E+00
 0.0000000000000E+00
 0.0000000000000E+00
 0.0000000000000E+00
 0.0000000000000E+00
 0.0000000000000E+00
 0.0000000000000E+00
 0.0000000000000E+00
 0.0000000000000E+00
 0.0000000000000E+00
 0.0000000000000E+00
 0.0000000000000E+00
 0.0000000000000E+00
 0.0000000000000E+00
 0.0000000000000E+00
 0.0000000000000E+00
 0.0000000000000E+00
 0.0000000000000E+00
 0.0000000000000E+00
 0.0000000000000E+00
 0.0000000000000E+00
 0.0000000000000E+00
 0.0000000000000E+00
 0.0000000000000E+00
 0.0000000000000E+00
 0.0000000000000E+00
 0.0000000000000E+00
 0.0000000000000E+00
 0.0000000000000E+00
 0.0000000000000E+00
 0.0000000000000E+00
 0.0000000000000E+00
 0.0000000000000E+00
 0.0000000000000E+00
 0.0000000000000E+00
 0.0000000000000E+00
 0.0000000000000E+00
 0.0000000000000E+00
 0.0000000000000E+00
 0.0000000000000E+00
 0.0000000000000E+00
 0.0000000000000E+00
 0.0000000000000E+00
 0.0000000000000E+00
 0.0000000000000E+00
 0.0000000000000E+00
 0.0000000000000E+00
 0.0000000000000E+00
 0.0000000000000E+00
 0.0000000000000E+00
 0.0000000000000E+00
 0.0000000000000E+00
 0.0000000000000E+00
 0.0000000000000E+00
 0.0000000000000E+00
 0.0000000000000E+00
 0.0000000000000E+00
 0.0000000000000E+00
 0.0000000000000E+00
 0.0000000000000E+00
 0.0000000000000E+00
 0.0000000000000E+00
 0.0000000000000E+00
 0.0000000000000E+00
 0.0000000000000E+00
 0.0000000000000E+00
 0.0000000000000E+00
 0.0000000000000E+00
 0.0000000000000E+00
 0.0000000000000E+00
 0.0000000000000E+00
 0.0000000000000E+00
 0.0000000000000E+00
 0.0000000000000E+00
 0.0000000000000E+00
 0.0000000000000E+00
 0.0000000000000E+00
 0.0000000000000E+00
 0.0000000000000E+00
 0.0000000000000E+00
 0.0000000000000E+00
 0.0000000000000E+00
 0.0000000000000E+00
 0.0000000000000E+00
 0.0000000000000E+00
 0.0000000000000E+00
 0.0000000000000E+00
 0.0000000000000E+00
 0.0000000000000E+00
 0.0000000000000E+00
 0.0000000000000E+00
 0.0000000000000E+00
 0.0000000000000E+00
 0.0000000000000E+00
 0.0000000000000E+00
 0.0000000000000E+00
 0.0000000000000E+00
 0.0000000000000E+00
 0.0000000000000E+00
 0.0000000000000E+00
 0.0000000000000E+00
 0.0000000000000E+00
 0.0000000000000E+00
 0.0000000000000E+00
 0.0000000000000E+00
 0.0000000000000E+00
 0.0000000000000E+00
 0.0000000000000E+00
 0.0000000000000E+00
 0.0000000000000E+00
 0.0000000000000E+00
 0.0000000000000E+00
 0.0000000000000E+00
 0.0000000000000E+00
 0.0000000000000E+00
 0.0000000000000E+00
 0.0000000000000E+00
 0.0000000000000E+00
 0.0000000000000E+00
 0.0000000000000E+00
 0.0000000000000E+00
 0.0000000000000E+00
 0.0000000000000E+00
 0.0000000000000E+00
 0.0000000000000E+00
 0.0000000000000E+00
 0.0000000000000E+00
 0.0000000000000E+00
 0.0000000000000E+00
 0.0000000000000E+00
 0.0000000000000E+00
 0.0000000000000E+00
 0.0000000000000E+00
 0.0000000000000E+00
 0.0000000000000E+00
 0.0000000000000E+00
 0.0000000000000E+00
 0.0000000000000E+00
 0.0000000000000E+00
 0.0000000000000E+00
 0.0000000000000E+00
 0.0000000000000E+00
 0.0000000000000E+00
 0.0000000000000E+00
 0.0000000000000E+00
 0.0000000000000E+00
 0.0000000000000E+00
 0.0000000000000E+00
 0.0000000000000E+00
 0.0000000000000E+00
 0.0000000000000E+00
 0.0000000000000E+00
 0.0000000000000E+00
 0.0000000000000E+00
 0.0000000000000E+00
 0.0000000000000E+00
 0.0000000000000E+00
 0.0000000000000E+00
 0.0000000000000E+00
 0.0000000000000E+00
 0.0000000000000E+00
 0.0000000000000E+00
 0.0000000000000E+00
 0.0000000000000E+00
 0.0000000000000E+00
 0.0000000000000E+00
 0.0000000000000E+00
 0.0000000000000E+00
 0.0000000000000E+00
 0.0000000000000E+00
 0.0000000000000E+00
 0.0000000000000E+00
 0.0000000000000E+00
 0.0000000000000E+00
 0.0000000000000E+00
 0.0000000000000E+00
 0.0000000000000E+00
 0.0000000000000E+00
 0.0000000000000E+00
 0.0000000000000E+00
 0.0000000000000E+00
 0.0000000000000E+00
 0.0000000000000E+00
 0.0000000000000E+00
 0.0000000000000E+00
 0.0000000000000E+00
 0.0000000000000E+00
 0.0000000000000E+00
 0.0000000000000E+00
 0.0000000000000E+00
 0.0000000000000E+00
 0.0000000000000E+00
 0.0000000000000E+00
 0.0000000000000E+00
 0.0000000000000E+00
 0.0000000000000E+00
 0.0000000000000E+00
 0.0000000000000E+00
 0.0000000000000E+00
 0.0000000000000E+00
 0.0000000000000E+00
 0.0000000000000E+00
 0.0000000000000E+00
 0.0000000000000E+00
 0.0000000000000E+00
 0.0000000000000E+00
 0.0000000000000E+00
 0.0000000000000E+00
 0.0000000000000E+00
 0.0000000000000E+00
 0.0000000000000E+00
 0.0000000000000E+00
 0.0000000000000E+00
 0.0000000000000E+00
 0.0000000000000E+00
 0.0000000000000E+00
 0.0000000000000E+00
 0.0000000000000E+00
 0.0000000000000E+00
 0.0000000000000E+00
 0.0000000000000E+00
 0.0000000000000E+00
 0.0000000000000E+00
 0.0000000000000E+00
 0.0000000000000E+00
 0.0000000000000E+00
 0.0000000000000E+00
 0.0000000000000E+00
 0.0000000000000E+00
 0.0000000000000E+00
 0.0000000000000E+00
 0.0000000000000E+00
 0.0000000000000E+00
 0.0000000000000E+00
 0.0000000000000E+00
 0.0000000000000E+00
 0.0000000000000E+00
 0.0000000000000E+00
 0.0000000000000E+00
 0.0000000000000E+00
 0.0000000000000E+00
 0.0000000000000E+00
 0.0000000000000E+00
 0.0000000000000E+00
 0.0000000000000E+00
 0.0000000000000E+00
 0.0000000000000E+00
 0.0000000000000E+00
 0.0000000000000E+00
 0.0000000000000E+00
 0.0000000000000E+00
 0.0000000000000E+00
 0.0000000000000E+00
 0.0000000000000E+00
 0.0000000000000E+00
 0.0000000000000E+00
 0.0000000000000E+00
 0.0000000000000E+00
 0.0000000000000E+00
 0.0000000000000E+00
 0.0000000000000E+00
 0.0000000000000E+00
 0.0000000000000E+00
 0.0000000000000E+00
 0.0000000000000E+00
 0.0000000000000E+00
 0.0000000000000E+00
 0.0000000000000E+00
 0.0000000000000E+00
 0.0000000000000E+00
 0.0000000000000E+00
 0.0000000000000E+00
 0.0000000000000E+00
 0.0000000000000E+00
 0.0000000000000E+00
 0.0000000000000E+00
 0.0000000000000E+00
 0.0000000000000E+00
 0.0000000000000E+00
 0.0000000000000E+00
 0.0000000000000E+00
 0.0000000000000E+00
 0.0000000000000E+00
 0.0000000000000E+00
 0.0000000000000E+00
 0.0000000000000E+00
 0.0000000000000E+00
 0.0000000000000E+00
 0.0000000000000E+00
 0.0000000000000E+00
 0.0000000000000E+00
 0.0000000000000E+00
 0.0000000000000E+00
 0.0000000000000E+00
 0.0000000000000E+00
 0.0000000000000E+00
 0.0000000000000E+00
 0.0000000000000E+00
 0.0000000000000E+00
 0.0000000000000E+00
 0.0000000000000E+00
 0.0000000000000E+00
 0.0000000000000E+00
 0.0000000000000E+00
 0.0000000000000E+00
 0.0000000000000E+00
 0.0000000000000E+00
 0.0000000000000E+00
 0.0000000000000E+00
 0.0000000000000E+00
 0.0000000000000E+00
 0.0000000000000E+00
 0.0000000000000E+00
 0.0000000000000E+00
 0.0000000000000E+00
 0.0000000000000E+00
 0.0000000000000E+00
 0.0000000000000E+00
 0.0000000000000E+00
 0.0000000000000E+00
 0.0000000000000E+00
 0.0000000000000E+00
 0.0000000000000E+00
 0.0000000000000E+00
 0.0000000000000E+00
 0.0000000000000E+00
 0.0000000000000E+00
 0.0000000000000E+00
 0.0000000000000E+00
 0.0000000000000E+00
 0.0000000000000E+00
 0.0000000000000E+00
 0.0000000000000E+00
 0.0000000000000E+00
 0.0000000000000E+00
 0.0000000000000E+00
 0.0000000000000E+00
 0.0000000000000E+00
 0.0000000000000E+00
 0.0000000000000E+00
 0.0000000000000E+00
 0.0000000000000E+00
 0.0000000000000E+00
 0.0000000000000E+00
 0.0000000000000E+00
 0.0000000000000E+00
 0.0000000000000E+00
 0.0000000000000E+00
 0.0000000000000E+00
 0.0000000000000E+00
 0.0000000000000E+00
 0.0000000000000E+00
 0.0000000000000E+00
 0.0000000000000E+00
 0.0000000000000E+00
 0.0000000000000E+00
 0.0000000000000E+00
 0.0000000000000E+00
 0.0000000000000E+00
 0.0000000000000E+00
 0.0000000000000E+00
 0.0000000000000E+00
 0.0000000000000E+00
 0.0000000000000E+00
 0.0000000000000E+00
 0.0000000000000E+00
 0.0000000000000E+00
 0.0000000000000E+00
 0.0000000000000E+00
 0.0000000000000E+00
 0.0000000000000E+00
 0.0000000000000E+00
 0.0000000000000E+00
 0.0000000000000E+00
 0.0000000000000E+00
 0.0000000000000E+00
 0.0000000000000E+00
 0.0000000000000E+00
 0.0000000000000E+00
 0.0000000000000E+00
 0.0000000000000E+00
 0.0000000000000E+00
 0.0000000000000E+00
 0.0000000000000E+00
 0.0000000000000E+00
 0.0000000000000E+00
 0.0000000000000E+00
 0.0000000000000E+00
 0.0000000000000E+00
 0.0000000000000E+00
 0.0000000000000E+00
 0.0000000000000E+00
 0.0000000000000E+00
 0.0000000000000E+00
 0.0000000000000E+00
 0.0000000000000E+00
 0.0000000000000E+00
 0.0000000000000E+00
 0.0000000000000E+00
 0.0000000000000E+00
 0.0000000000000E+00
 0.0000000000000E+00
 0.0000000000000E+00
 0.0000000000000E+00
 0.0000000000000E+00
 0.0000000000000E+00
 0.0000000000000E+00
 0.0000000000000E+00
 0.0000000000000E+00
 0.0000000000000E+00
 0.0000000000000E+00
 0.0000000000000E+00
 0.0000000000000E+00
 0.0000000000000E+00
 0.0000000000000E+00
 0.0000000000000E+00
 0.0000000000000E+00
 0.0000000000000E+00
 0.0000000000000E+00
 0.0000000000000E+00
 0.0000000000000E+00
 0.0000000000000E+00
 0.0000000000000E+00
 0.0000000000000E+00
 0.0000000000000E+00
 0.0000000000000E+00
 0.0000000000000E+00
 0.0000000000000E+00
 0.0000000000000E+00
 0.0000000000000E+00
 0.0000000000000E+00
 0.0000000000000E+00
 0.0000000000000E+00
 0.0000000000000E+00
 0.0000000000000E+00
 0.0000000000000E+00
 0.0000000000000E+00
 0.0000000000000E+00
 0.0000000000000E+00
 0.0000000000000E+00
 0.0000000000000E+00
 0.0000000000000E+00
 0.0000000000000E+00
 0.0000000000000E+00
 0.0000000000000E+00
 0.0000000000000E+00
 0.0000000000000E+00
 0.0000000000000E+00
 0.0000000000000E+00
 0.0000000000000E+00
 0.0000000000000E+00
 0.0000000000000E+00
 0.0000000000000E+00
 0.0000000000000E+00
 0.0000000000000E+00
 0.0000000000000E+00
 0.0000000000000E+00
 0.0000000000000E+00
 0.0000000000000E+00
 0.0000000000000E+00
 0.0000000000000E+00
 0.0000000000000E+00
 0.0000000000000E+00
 0.0000000000000E+00
 0.0000000000000E+00
 0.0000000000000E+00
 0.0000000000000E+00
 0.0000000000000E+00
 0.0000000000000E+00
 0.0000000000000E+00
 0.0000000000000E+00
 0.0000000000000E+00
 0.0000000000000E+00
 0.0000000000000E+00
 0.0000000000000E+00
 0.0000000000000E+00
 0.0000000000000E+00
 0.0000000000000E+00
 0.0000000000000E+00
 0.0000000000000E+00
 0.0000000000000E+00
 0.0000000000000E+00
 0.0000000000000E+00
 0.0000000000000E+00
 0.0000000000000E+00
 0.0000000000000E+00
 0.0000000000000E+00
 0.0000000000000E+00
 0.0000000000000E+00
 0.0000000000000E+00
 0.0000000000000E+00
 0.0000000000000E+00
 0.0000000000000E+00
 0.0000000000000E+00
 0.0000000000000E+00
 0.0000000000000E+00
 0.0000000000000E+00
 0.0000000000000E+00
 0.0000000000000E+00
 0.0000000000000E+00
 0.0000000000000E+00
 0.0000000000000E+00
 0.0000000000000E+00
 0.0000000000000E+00
 0.0000000000000E+00
 0.0000000000000E+00
 0.0000000000000E+00
 0.0000000000000E+00
 0.0000000000000E+00
 0.0000000000000E+00
 0.0000000000000E+00
 0.0000000000000E+00
 0.0000000000000E+00
 0.0000000000000E+00
 0.0000000000000E+00
 0.0000000000000E+00
 0.0000000000000E+00
 0.0000000000000E+00
 0.0000000000000E+00
 0.0000000000000E+00
 0.0000000000000E+00
 0.0000000000000E+00
 0.0000000000000E+00
 0.0000000000000E+00
 0.0000000000000E+00
 0.0000000000000E+00
 0.0000000000000E+00
 0.0000000000000E+00
 0.0000000000000E+00
 0.0000000000000E+00
 0.0000000000000E+00
 0.0000000000000E+00
 0.0000000000000E+00
 0.0000000000000E+00
 0.0000000000000E+00
 0.0000000000000E+00
 0.0000000000000E+00
 0.0000000000000E+00
 0.0000000000000E+00
 0.0000000000000E+00
 0.0000000000000E+00
 0.0000000000000E+00
 0.0000000000000E+00
 0.0000000000000E+00
 0.0000000000000E+00
 0.0000000000000E+00
 0.0000000000000E+00
 0.0000000000000E+00
 0.0000000000000E+00
 0.0000000000000E+00
 0.0000000000000E+00
 0.0000000000000E+00
 0.0000000000000E+00
 0.0000000000000E+00
 0.0000000000000E+00
 0.0000000000000E+00
 0.0000000000000E+00
 0.0000000000000E+00
 0.0000000000000E+00
 0.0000000000000E+00
 0.0000000000000E+00
 0.0000000000000E+00
 0.0000000000000E+00
 0.0000000000000E+00
 0.0000000000000E+00
 0.0000000000000E+00
 0.0000000000000E+00
 0.0000000000000E+00
 0.0000000000000E+00
 0.0000000000000E+00
 0.0000000000000E+00
 0.0000000000000E+00
 0.0000000000000E+00
 0.0000000000000E+00
 0.0000000000000E+00
 0.0000000000000E+00
 0.0000000000000E+00
 0.0000000000000E+00
 0.0000000000000E+00
 0.0000000000000E+00
 0.0000000000000E+00
 0.0000000000000E+00
 0.0000000000000E+00
 0.0000000000000E+00
 0.0000000000000E+00
 0.0000000000000E+00
 0.0000000000000E+00
 0.0000000000000E+00
 0.0000000000000E+00
 0.0000000000000E+00
 0.0000000000000E+00
 0.0000000000000E+00
 0.0000000000000E+00
 0.0000000000000E+00
 0.0000000000000E+00
 0.0000000000000E+00
 0.0000000000000E+00
 0.0000000000000E+00
 0.0000000000000E+00
 0.0000000000000E+00
 0.0000000000000E+00
 0.0000000000000E+00
 0.0000000000000E+00
 0.0000000000000E+00
 0.0000000000000E+00
 0.0000000000000E+00
 0.0000000000000E+00
 0.0000000000000E+00
 0.0000000000000E+00
 0.0000000000000E+00
 0.0000000000000E+00
 0.0000000000000E+00
 0.0000000000000E+00
 0.0000000000000E+00
 0.0000000000000E+00
 0.0000000000000E+00
 0.0000000000000E+00
 0.0000000000000E+00
 0.0000000000000E+00
 0.0000000000000E+00
 0.0000000000000E+00
 0.0000000000000E+00
 0.0000000000000E+00
 0.0000000000000E+00
 0.0000000000000E+00
 0.0000000000000E+00
 0.0000000000000E+00
 0.0000000000000E+00
 0.0000000000000E+00
 0.0000000000000E+00
 0.0000000000000E+00
</DataArray>
<DataArray type="Int32" Name="Region" format="ascii">
           1
           1
           1
           1
           1
           1
           1
           1
           1
           1
           1
           1
           1
           1
           1
           1
           1
           1
           1
           1
           1
           1
           1
           1
           1
           1
           1
           1
           1
           1
           1
           1
           1
           1
           1
           1
           1
           1
           1
           1
           1
           1
           1
           1
           1
           1
           1
           1
           1
           1
           1
           1
           1
           1
           1
           1
           1
           1
           1
           1
           1
           1
           1
           1
           1
           1
           1
           1
           1
           1
           1
           1
           1
           1
           1
           1
           1
           1
           1
           1
           1
           1
           1
           1
           1
           1
           1
           1
           1
           1
           1
           1
           1
           1
           1
           1
           1
           1
           1
           1
           1
           1
           1
           1
           1
           1
           1
           1
           1
           1
           1
           1
           1
           1
           1
           1
           1
           1
           1
           1
           1
           1
           1
           1
           1
           1
           1
           1
           1
           1
           1
           1
           1
           1
           1
           1
           1
           1
           1
           1
           1
           1
           1
           1
           1
           1
           1
           1
           1
           1
           1
           1
           1
           1
           1
           1
           1
           1
           1
           1
           1
           1
           1
           1
           1
           1
           1
           1
           1
           1
           1
           1
           1
           1
           1
           1
           1
           1
           1
           1
           1
           1
           1
           1
           1
           1
           1
           1
           1
           1
           1
           1
           1
           1
           1
           1
           1
           1
           1
           1
           1
           1
           1
           1
           1
           1
           1
           1
           1
           1
           1
           1
           1
           1
           1
           1
           1
           1
           1
           1
           1
           1
           1
           1
           1
           1
           1
           1
           1
           1
           1
           1
           1
           1
           1
           1
           1
           1
           1
           1
           1
           1
           1
           1
           1
           1
           1
           1
           1
           1
           1
           1
           1
           1
           1
           1
           1
           1
           1
           1
           1
           1
           1
           1
           1
           1
           1
           1
           1
           1
           1
           1
           1
           1
           1
           1
           1
           1
           1
           1
           1
           1
           1
           1
           1
           1
           1
           1
           1
           1
           1
           1
           1
           1
           1
           1
           1
           1
           1
           1
           1
           1
           1
           1
           1
           1
           1
           1
           1
           1
           1
           1
           1
           1
           1
           1
           1
           1
           1
           1
           1
           1
           1
           1
           1
           1
           1
           1
           1
           1
           1
           1
           1
           1
           1
           1
           1
           1
           1
           1
           1
           1
           1
           1
           1
           1
           1
           1
           1
           1
           1
           1
           1
           1
           1
           1
           1
           1
           1
           1
           1
           1
           1
           1
           1
           1
           1
           1
           1
           1
           1
           1
           1
           1
           1
           1
           1
           1
           1
           1
           1
           1
           1
           1
           1
           1
           1
           1
           1
           1
           1
           1
           1
           1
           1
           1
           1
           1
           1
           1
           1
           1
           1
           1
           1
           1
           1
           1
           1
           1
           1
           1
           1
           1
           1
           1
           1
           1
           1
           1
           1
           1
           1
           1
           1
           1
           1
           1
           1
           1
           1
           1
           1
           1
           1
           1
           1
           1
           1
           1
           1
           1
           1
           1
           1
           1
           1
           1
           1
           1
           1
           1
           1
           1
           1
           1
           1
           1
           1
           1
           1
           1
           1
           1
           1
           1
           1
           1
           1
           1
           1
           1
           1
           1
           1
           1
           1
           1
           1
           1
           1
           1
           1
           1
           1
           1
           1
           1
           1
           1
           1
           1
           1
           1
           1
           1
           1
           1
           1
           1
           1
           1
           1
           1
           1
           1
           1
           1
           1
           1
           1
           1
           1
           1
           1
           1
           1
           1
           1
           1
           1
           1
           1
           1
           1
           1
           1
           1
           1
           1
           1
           1
           1
           1
           1
           1
           1
           1
           1
           1
           1
           1
           1
           1
           1
           1
           1
           1
           1
           1
           1
           1
           1
           1
           1
           1
           1
           1
           1
           1
           1
           1
           1
           1
           1
           1
           1
           1
           1
           1
           1
           1
           1
           1
           1
           1
           1
           1
           1
           1
           1
           1
           1
           1
           1
           1
           1
           1
           1
           1
           1
           1
           1
           1
           1
           1
           1
           1
           1
           1
           1
           1
           1
           1
           1
           1
           1
           1
           1
           1
           1
           1
           1
           1
           1
           1
           1
           1
           1
           1
           1
           1
           1
           1
           1
           1
           1
           1
           1
           1
           1
           1
           1
           1
           1
           1
           1
           1
           1
           1
           1
           1
           1
           1
           1
           1
           1
           1
           1
           1
           1
           1
           1
           1
           1
           1
           1
           1
           1
           1
           1
           1
           1
           1
           1
           1
           1
           1
           1
           1
           1
           1
           1
           1
           1
           1
           1
           1
           1
           1
           1
           1
           1
           1
           1
           1
           1
           1
           1
           1
           1
           1
           1
           1
           1
           1
           1
           1
           1
           1
           1
           1
           1
           1
           1
           1
           1
           1
           1
           1
           1
           1
           1
           1
           1
           1
           1
           1
           1
           1
           1
           1
           1
           1
           1
           1
           1
           1
           1
           1
           1
           1
           1
           1
           1
           1
           1
           1
           1
           1
           1
           1
           1
           1
           1
           1
           1
           1
           1
           1
           1
           1
           1
           1
           1
           1
           1
           1
           1
           1
           1
           1
           1
           1
           1
           1
           1
           1
           1
           1
           1
           1
           1
           1
           1
           1
           1
           1
           1
           1
           1
           1
           1
           1
           1
           1
           1
           1
           1
           1
           1
           1
           1
           1
           1
           1
           1
           1
           1
           1
           1
           1
           1
           1
           1
           1
           1
           1
           1
           1
           1
           1
           1
           1
           1
           1
           1
           1
           1
           1
           1
           1
           1
           1
           1
           1
           1
           1
           1
           1
           1
           1
           1
           1
           1
           1
           1
           1
           1
           1
           2
           2
           2
           2
           2
           2
           2
           2
           2
           2
           2
           2
           2
           2
           2
           2
           2
           2
           2
           2
           2
           2
           2
           2
           2
           2
           2
           2
           2
           2
           2
           2
           2
           2
           2
           2
           2
           2
           2
           2
           2
           2
           2
           2
           2
           2
           2
           2
           2
           2
           2
           2
           2
           2
           2
           2
           2
           2
           2
           2
           2
           2
           2
           2
           2
           2
           2
           2
           2
           2
           2
           2
           2
           2
           2
           2
           2
           2
           2
           2
           2
           2
           2
           2
           2
           2
           2
           2
           2
           2
           2
           2
           2
           2
           2
           2
           2
           2
           2
           2
           2
           2
           2
           2
           2
           2
           2
           2
           2
           2
           2
           2
           2
           2
           2
           2
           2
           2
           2
           2
           2
           2
           2
           2
           2
           2
           2
           2
           2
           2
           2
           2
           2
           2
           2
           2
           2
           2
           2
           2
           2
           2
           2
           2
           2
           2
           2
           2
           2
           2
           2
           2
           2
           2
           2
           2
           2
           2
           2
           2
           2
           2
           2
           2
           2
           2
           2
           2
           2
           2
           2
           2
           2
           2
           2
           2
           2
           2
           2
           2
           2
           2
           2
           2
           2
           2
           2
           2
           2
           2
           2
           2
           2
           2
           2
           2
           2
           2
           2
           2
           2
           2
           2
           2
           2
           2
           2
           2
           2
           2
           2
           2
           2
           2
           2
           2
           2
           2
           2
           2
           2
           2
           2
           2
           2
           2
           2
           2
           2
           2
           2
           2
           2
           2
           2
           2
           2
           2
           2
           2
           2
           2
           2
           2
           2
           2
           2
           2
           2
           2
           2
           2
           2
           2
           2
           2
           2
           2
           2
           2
           2
           2
           2
           2
           2
           2
           2
           2
           2
           2
           2
           2
           2
           2
           2
           2
           2
           2
           2
           2
           2
           2
           2
           2
           2
           2
           2
           2
           2
           2
           2
           2
           2
           2
           2
           2
           2
           2
           2
           2
           2
           2
           2
           2
           2
           2
           2
           2
           2
           2
           2
           2
           2
           2
           2
           2
           2
           2
           2
           2
           2
           2
           2
           2
           2
           2
           2
           2
           2
           2
           2
           2
           2
           2
           2
           2
           2
           2
           2
           2
           2
           2
           2
           2
           2
           2
           2
           2
           2
           2
           2
           2
           2
           2
           2
           2
           2
           2
           2
           2
           2
           2
           2
           2
           2
           2
           2
           2
           2
           2
           2
           2
           2
           2
           2
           2
           2
           2
           2
           2
           2
           2
           2
           2
           2
           2
           2
           2
           2
           2
           2
           2
           2
           2
           2
           2
           2
           2
           2
           2
           2
           2
           2
           2
           2
           2
           2
           2
           2
           2
           2
           2
           2
           2
           2
           2
           2
           2
           2
           2
           2
           2
           2
           2
           2
           2
           2
           2
           2
           2
           2
           2
           2
           2
           2
           2
           2
           2
           2
           2
           2
           2
           2
           2
           2
           2
           2
           2
           2
           2
           2
           2
           2
           2
           2
           2
           2
           2
           2
           2
           2
           2
           2
           2
           2
           2
           2
           2
           2
           2
           2
           2
           2
           2
           2
           2
           2
           2
           2
           2
           2
           2
           2
           2
           2
           2
           2
           2
           2
           2
           2
           2
           2
           2
           2
           2
           2
           2
           2
           2
           2
           2
           2
           2
           2
           2
           2
           2
           2
           2
           2
           2
           2
           2
           2
           2
           2
           2
           2
           2
           2
           2
           2
           2
           2
           2
           2
           2
           2
           2
           2
           2
           2
           2
           2
           2
           2
           2
           2
           2
           2
           2
           2
           2
           2
           2
           2
           2
           2
           2
           2
           2
           2
           2
           2
           2
           2
           2
           2
           2
           2
           2
           2
           2
           2
           2
           2
           2
           2
           2
           2
           2
           2
           2
           2
           2
           2
           2
           2
           2
           2
           2
           2
           2
           2
           2
           2
           2
           2
           2
           2
           2
           2
           2
           2
           2
           2
           2
           2
           2
</DataArray>
</CellData>
</Piece>
</UnstructuredGrid>
</VTKFile>
