<VTKFile type="UnstructuredGrid" version="1,0" byte_order="LittleEndian">
<UnstructuredGrid>
<Piece NumberOfPoints="566" NumberOfCells="528">
<Points>
<DataArray type="Float64" NumberOfComponents="3" format="ascii">
-0.1100000000000E+01 -0.5395955351400E+01  0.0000000000000E+00
 0.0000000000000E+00 -0.5395955351400E+01  0.0000000000000E+00
 0.1100000000000E+01 -0.5395955351400E+01  0.0000000000000E+00
-0.1147096914462E+01 -0.2549637197335E+01  0.0000000000000E+00
-0.5735484517343E+00 -0.2434375812148E+01  0.0000000000000E+00
 0.5735484627289E+00 -0.2434375813621E+01  0.0000000000000E+00
 0.1147096914462E+01 -0.2549637197335E+01  0.0000000000000E+00
-0.1849553131613E+01  0.3526358745087E+00  0.0000000000000E+00
 0.1849553119580E+01  0.3526358820960E+00  0.0000000000000E+00
-0.7500000000000E+00 -0.7469172457236E+00  0.0000000000000E+00
 0.7500000000000E+00 -0.7469172457236E+00  0.0000000000000E+00
-0.1008333333333E+01 -0.5395955351400E+01  0.0000000000000E+00
-0.9166666666667E+00 -0.5395955351400E+01  0.0000000000000E+00
-0.8250000000000E+00 -0.5395955351400E+01  0.0000000000000E+00
-0.7333333333333E+00 -0.5395955351400E+01  0.0000000000000E+00
-0.6416666666667E+00 -0.5395955351400E+01  0.0000000000000E+00
-0.5500000000000E+00 -0.5395955351400E+01  0.0000000000000E+00
-0.4583333333333E+00 -0.5395955351400E+01  0.0000000000000E+00
-0.3666666666667E+00 -0.5395955351400E+01  0.0000000000000E+00
-0.2750000000000E+00 -0.5395955351400E+01  0.0000000000000E+00
-0.1833333333333E+00 -0.5395955351400E+01  0.0000000000000E+00
-0.9166666666667E-01 -0.5395955351400E+01  0.0000000000000E+00
 0.9166666666667E-01 -0.5395955351400E+01  0.0000000000000E+00
 0.1833333333333E+00 -0.5395955351400E+01  0.0000000000000E+00
 0.2750000000000E+00 -0.5395955351400E+01  0.0000000000000E+00
 0.3666666666667E+00 -0.5395955351400E+01  0.0000000000000E+00
 0.4583333333333E+00 -0.5395955351400E+01  0.0000000000000E+00
 0.5500000000000E+00 -0.5395955351400E+01  0.0000000000000E+00
 0.6416666666667E+00 -0.5395955351400E+01  0.0000000000000E+00
 0.7333333333333E+00 -0.5395955351400E+01  0.0000000000000E+00
 0.8250000000000E+00 -0.5395955351400E+01  0.0000000000000E+00
 0.9166666666667E+00 -0.5395955351400E+01  0.0000000000000E+00
 0.1008333333333E+01 -0.5395955351400E+01  0.0000000000000E+00
-0.1052597566997E+01 -0.2525359163065E+01  0.0000000000000E+00
-0.9576122427306E+00 -0.2503058373331E+01  0.0000000000000E+00
-0.8621760033544E+00 -0.2482774237100E+01  0.0000000000000E+00
-0.7663263414926E+00 -0.2464543622143E+01  0.0000000000000E+00
-0.6701031214270E+00 -0.2448400537052E+01  0.0000000000000E+00
-0.4783892518804E+00 -0.2422684502899E+01  0.0000000000000E+00
-0.3829961397004E+00 -0.2413087472616E+01  0.0000000000000E+00
-0.2874140476292E+00 -0.2405603374330E+01  0.0000000000000E+00
-0.1916891717559E+00 -0.2400246934309E+01  0.0000000000000E+00
-0.9586858937425E-01 -0.2397028784591E+01  0.0000000000000E+00
 0.5546389486577E-08 -0.2395955351400E+01  0.0000000000000E+00
 0.9586860046425E-01 -0.2397028784839E+01  0.0000000000000E+00
 0.1916891828375E+00 -0.2400246934805E+01  0.0000000000000E+00
 0.2874140586971E+00 -0.2405603375073E+01  0.0000000000000E+00
 0.3829961507491E+00 -0.2413087473604E+01  0.0000000000000E+00
 0.4783892629046E+00 -0.2422684504131E+01  0.0000000000000E+00
 0.6701031305598E+00 -0.2448400538481E+01  0.0000000000000E+00
 0.7663263487720E+00 -0.2464543623446E+01  0.0000000000000E+00
 0.8621760087916E+00 -0.2482774238195E+01  0.0000000000000E+00
 0.9576122463390E+00 -0.2503058374138E+01  0.0000000000000E+00
 0.1052597568792E+01 -0.2525359163506E+01  0.0000000000000E+00
-0.1243131161036E+01 -0.2037610559518E+01  0.0000000000000E+00
-0.1406537509160E+01 -0.1543675335298E+01  0.0000000000000E+00
-0.1680144970038E+01 -0.1100774774047E+01  0.0000000000000E+00
-0.1897231924415E+01 -0.6279519832455E+00  0.0000000000000E+00
-0.1998599493545E+01 -0.1184785758543E+00  0.0000000000000E+00
-0.1542600023501E+01  0.4158036957262E+00  0.0000000000000E+00
-0.1231313400754E+01  0.3635443025863E+00  0.0000000000000E+00
-0.9317783393447E+00  0.2612690433592E+00  0.0000000000000E+00
-0.6282763739427E+00  0.1719988208541E+00  0.0000000000000E+00
-0.3159718680769E+00  0.1211633805885E+00  0.0000000000000E+00
-0.6960506046538E-08  0.1040446485997E+00  0.0000000000000E+00
 0.3159718542389E+00  0.1211633791072E+00  0.0000000000000E+00
 0.6282763603577E+00  0.1719988178054E+00  0.0000000000000E+00
 0.9317783262470E+00  0.2612690386552E+00  0.0000000000000E+00
 0.1231313387360E+01  0.3635442987769E+00  0.0000000000000E+00
 0.1542600009557E+01  0.4158036956212E+00  0.0000000000000E+00
 0.1998599493920E+01 -0.1184785639515E+00  0.0000000000000E+00
 0.1897231927146E+01 -0.6279519741738E+00  0.0000000000000E+00
 0.1680144973598E+01 -0.1100774767938E+01  0.0000000000000E+00
 0.1406537511171E+01 -0.1543675331034E+01  0.0000000000000E+00
 0.1243131161584E+01 -0.2037610557226E+01  0.0000000000000E+00
-0.1100000000000E+01 -0.5176863099545E+01  0.0000000000000E+00
-0.1100000000000E+01 -0.4957770754270E+01  0.0000000000000E+00
-0.1100000000000E+01 -0.4738678354999E+01  0.0000000000000E+00
-0.1100000000000E+01 -0.4519585936506E+01  0.0000000000000E+00
-0.1100000000000E+01 -0.4300493542565E+01  0.0000000000000E+00
-0.1100000000000E+01 -0.4081400872064E+01  0.0000000000000E+00
-0.1100000000000E+01 -0.3862308883724E+01  0.0000000000000E+00
-0.1100000000000E+01 -0.3643216671679E+01  0.0000000000000E+00
-0.1100035806624E+01 -0.3424124477674E+01  0.0000000000000E+00
-0.1101937402719E+01 -0.3205043502260E+01  0.0000000000000E+00
-0.1109333708784E+01 -0.2986084852631E+01  0.0000000000000E+00
-0.1124056733736E+01 -0.2767499395959E+01  0.0000000000000E+00
 0.1124056733789E+01 -0.2767499395965E+01  0.0000000000000E+00
 0.1109333708827E+01 -0.2986084852636E+01  0.0000000000000E+00
 0.1101937402735E+01 -0.3205043502263E+01  0.0000000000000E+00
 0.1100035806625E+01 -0.3424124477677E+01  0.0000000000000E+00
 0.1100000000000E+01 -0.3643216671682E+01  0.0000000000000E+00
 0.1100000000000E+01 -0.3862308883726E+01  0.0000000000000E+00
 0.1100000000000E+01 -0.4081400872066E+01  0.0000000000000E+00
 0.1100000000000E+01 -0.4300493542567E+01  0.0000000000000E+00
 0.1100000000000E+01 -0.4519585936507E+01  0.0000000000000E+00
 0.1100000000000E+01 -0.4738678355000E+01  0.0000000000000E+00
 0.1100000000000E+01 -0.4957770754271E+01  0.0000000000000E+00
 0.1100000000000E+01 -0.5176863099545E+01  0.0000000000000E+00
-0.6271906632745E+00 -0.7167047467301E+00  0.0000000000000E+00
-0.5032223282799E+00 -0.6916719656231E+00  0.0000000000000E+00
-0.3782916751723E+00 -0.6719994717132E+00  0.0000000000000E+00
-0.2526175835472E+00 -0.6578358653252E+00  0.0000000000000E+00
-0.1264370694116E+00 -0.6492919818213E+00  0.0000000000000E+00
-0.3330669073875E-15 -0.6464362985620E+00  0.0000000000000E+00
 0.1264370694116E+00 -0.6492919818213E+00  0.0000000000000E+00
 0.2526175835472E+00 -0.6578358653252E+00  0.0000000000000E+00
 0.3782916751723E+00 -0.6719994717132E+00  0.0000000000000E+00
 0.5032223282799E+00 -0.6916719656231E+00  0.0000000000000E+00
 0.6271906632745E+00 -0.7167047467301E+00  0.0000000000000E+00
-0.7422338203668E+00 -0.1030186986488E+01  0.0000000000000E+00
-0.7136730888562E+00 -0.1312070331021E+01  0.0000000000000E+00
-0.6617742279509E+00 -0.1590646529104E+01  0.0000000000000E+00
-0.6098753663230E+00 -0.1869222727060E+01  0.0000000000000E+00
-0.5813146332022E+00 -0.2151106071433E+01  0.0000000000000E+00
 0.7422338203860E+00 -0.1030186986543E+01  0.0000000000000E+00
 0.7136730891148E+00 -0.1312070331158E+01  0.0000000000000E+00
 0.6617742292803E+00 -0.1590646529503E+01  0.0000000000000E+00
 0.6098753701687E+00 -0.1869222727976E+01  0.0000000000000E+00
 0.5813146405079E+00 -0.2151106072751E+01  0.0000000000000E+00
-0.9332588552688E+00 -0.5636583923516E+00  0.0000000000000E+00
-0.1116517710538E+01 -0.3803995389795E+00  0.0000000000000E+00
-0.1299776565806E+01 -0.1971406856075E+00  0.0000000000000E+00
-0.1483035421075E+01 -0.1388183223543E-01  0.0000000000000E+00
-0.1666294276344E+01  0.1693770211366E+00  0.0000000000000E+00
 0.9332588532634E+00 -0.5636583910870E+00  0.0000000000000E+00
 0.1116517706527E+01 -0.3803995364504E+00  0.0000000000000E+00
 0.1299776559790E+01 -0.1971406818138E+00  0.0000000000000E+00
 0.1483035413054E+01 -0.1388182717722E-01  0.0000000000000E+00
 0.1666294266317E+01  0.1693770274594E+00  0.0000000000000E+00
-0.1008418696358E+01 -0.5174995533681E+01  0.0000000000000E+00
-0.1008504059419E+01 -0.4954035621747E+01  0.0000000000000E+00
-0.1008589422501E+01 -0.4733075655355E+01  0.0000000000000E+00
-0.1008674785591E+01 -0.4512115669579E+01  0.0000000000000E+00
-0.1008760148671E+01 -0.4291155708563E+01  0.0000000000000E+00
-0.1008845511858E+01 -0.4070195468630E+01  0.0000000000000E+00
-0.1008930874780E+01 -0.3849235916673E+01  0.0000000000000E+00
-0.1009016237789E+01 -0.3628276139104E+01  0.0000000000000E+00
-0.1009134410119E+01 -0.3407316379703E+01  0.0000000000000E+00
-0.1010962189379E+01 -0.3186367864201E+01  0.0000000000000E+00
-0.1017824725572E+01 -0.2965541723007E+01  0.0000000000000E+00
-0.1031400675063E+01 -0.2745088798625E+01  0.0000000000000E+00
-0.9168000092861E+00 -0.5173280065568E+01  0.0000000000000E+00
-0.9169333519624E+00 -0.4950604684790E+01  0.0000000000000E+00
-0.9170666946716E+00 -0.4727929249131E+01  0.0000000000000E+00
-0.9172000373924E+00 -0.4505253793937E+01  0.0000000000000E+00
-0.9173333800983E+00 -0.4282578363696E+01  0.0000000000000E+00
-0.9174667229726E+00 -0.4059902652372E+01  0.0000000000000E+00
-0.9176000654316E+00 -0.3837227634365E+01  0.0000000000000E+00
-0.9177334080268E+00 -0.3614552388995E+01  0.0000000000000E+00
-0.9178965626411E+00 -0.3391877161911E+01  0.0000000000000E+00
-0.9196131422075E+00 -0.3169213201972E+01  0.0000000000000E+00
-0.9259045267972E+00 -0.2946671660912E+01  0.0000000000000E+00
-0.9382960197803E+00 -0.2724503358577E+01  0.0000000000000E+00
-0.8251466358527E+00 -0.5171719726705E+01  0.0000000000000E+00
-0.8252932717680E+00 -0.4947484006398E+01  0.0000000000000E+00
-0.8254399077194E+00 -0.4723248230826E+01  0.0000000000000E+00
-0.8255865436837E+00 -0.4499012435582E+01  0.0000000000000E+00
-0.8257331796315E+00 -0.4274776665466E+01  0.0000000000000E+00
-0.8258798157645E+00 -0.4050540612298E+01  0.0000000000000E+00
-0.8260264514408E+00 -0.3826305257304E+01  0.0000000000000E+00
-0.8261730872669E+00 -0.3602069673354E+01  0.0000000000000E+00
-0.8263465378149E+00 -0.3377834107799E+01  0.0000000000000E+00
-0.8279172318695E+00 -0.3153609830531E+01  0.0000000000000E+00
-0.8336027801269E+00 -0.2929508012684E+01  0.0000000000000E+00
-0.8447751325675E+00 -0.2705779453492E+01  0.0000000000000E+00
-0.7334614601943E+00 -0.5170317353111E+01  0.0000000000000E+00
-0.7335895871100E+00 -0.4944679258613E+01  0.0000000000000E+00
-0.7337177140572E+00 -0.4719041108504E+01  0.0000000000000E+00
-0.7338458410157E+00 -0.4493402938600E+01  0.0000000000000E+00
-0.7339739679598E+00 -0.4267764793981E+01  0.0000000000000E+00
-0.7341020950656E+00 -0.4042126364539E+01  0.0000000000000E+00
-0.7342302217725E+00 -0.3816488637639E+01  0.0000000000000E+00
-0.7343583486102E+00 -0.3590850680350E+01  0.0000000000000E+00
-0.7345102928754E+00 -0.3365212741553E+01  0.0000000000000E+00
-0.7359032996708E+00 -0.3139586110047E+01  0.0000000000000E+00
-0.7409512107864E+00 -0.2914081974396E+01  0.0000000000000E+00
-0.7508726224302E+00 -0.2688951115316E+01  0.0000000000000E+00
-0.6417475488614E+00 -0.5169075560868E+01  0.0000000000000E+00
-0.6418284310907E+00 -0.4942195673596E+01  0.0000000000000E+00
-0.6419093133398E+00 -0.4715315730408E+01  0.0000000000000E+00
-0.6419901955961E+00 -0.4488435767316E+01  0.0000000000000E+00
-0.6420710778433E+00 -0.4261555829648E+01  0.0000000000000E+00
-0.6421519601926E+00 -0.4034675605590E+01  0.0000000000000E+00
-0.6422328422901E+00 -0.3807796087940E+01  0.0000000000000E+00
-0.6423137244702E+00 -0.3580916338633E+01  0.0000000000000E+00
-0.6424154267858E+00 -0.3354036607903E+01  0.0000000000000E+00
-0.6436020110686E+00 -0.3127168201292E+01  0.0000000000000E+00
-0.6479835506072E+00 -0.2900422322801E+01  0.0000000000000E+00
-0.6566252874810E+00 -0.2674049736742E+01  0.0000000000000E+00
-0.5500081409821E+00 -0.5167996721569E+01  0.0000000000000E+00
-0.5500162819676E+00 -0.4940037994538E+01  0.0000000000000E+00
-0.5500244229551E+00 -0.4712079211325E+01  0.0000000000000E+00
-0.5500325639433E+00 -0.4484120408113E+01  0.0000000000000E+00
-0.5500407049307E+00 -0.4256161630447E+01  0.0000000000000E+00
-0.5500488459283E+00 -0.4028202565028E+01  0.0000000000000E+00
-0.5500569869005E+00 -0.3800244209376E+01  0.0000000000000E+00
-0.5500651278811E+00 -0.3572285620967E+01  0.0000000000000E+00
-0.5500910917080E+00 -0.3344327051208E+01  0.0000000000000E+00
-0.5510457573274E+00 -0.3116379820188E+01  0.0000000000000E+00
-0.5547354299265E+00 -0.2888555145317E+01  0.0000000000000E+00
-0.5620719971619E+00 -0.2661103776660E+01  0.0000000000000E+00
-0.4583733648668E+00 -0.5167097378162E+01  0.0000000000000E+00
-0.4584133964173E+00 -0.4938239307341E+01  0.0000000000000E+00
-0.4584534279776E+00 -0.4709381180116E+01  0.0000000000000E+00
-0.4584934595415E+00 -0.4480523032814E+01  0.0000000000000E+00
-0.4585334911009E+00 -0.4251664911157E+01  0.0000000000000E+00
-0.4585735227108E+00 -0.4022806500613E+01  0.0000000000000E+00
-0.4586135541961E+00 -0.3793948802636E+01  0.0000000000000E+00
-0.4586535857223E+00 -0.3565090870983E+01  0.0000000000000E+00
-0.4587084696169E+00 -0.3336232958043E+01  0.0000000000000E+00
-0.4595372711623E+00 -0.3107386396028E+01  0.0000000000000E+00
-0.4626452441553E+00 -0.2878662413530E+01  0.0000000000000E+00
-0.4687922953612E+00 -0.2650311748732E+01  0.0000000000000E+00
-0.3667205951635E+00 -0.5166359135273E+01  0.0000000000000E+00
-0.3667745236834E+00 -0.4936762821250E+01  0.0000000000000E+00
-0.3668284522165E+00 -0.4707166450639E+01  0.0000000000000E+00
-0.3668823807544E+00 -0.4477570059886E+01  0.0000000000000E+00
-0.3669363092862E+00 -0.4247973694863E+01  0.0000000000000E+00
-0.3669902378861E+00 -0.4018377040020E+01  0.0000000000000E+00
-0.3670441663181E+00 -0.3788781100042E+01  0.0000000000000E+00
-0.3670980948052E+00 -0.3559184925635E+01  0.0000000000000E+00
-0.3671639051849E+00 -0.3329588769992E+01  0.0000000000000E+00
-0.3678488493658E+00 -0.3100003975277E+01  0.0000000000000E+00
-0.3703571300716E+00 -0.2870541779260E+01  0.0000000000000E+00
-0.3752966729856E+00 -0.2641452910374E+01  0.0000000000000E+00
-0.2750532883462E+00 -0.5165783427771E+01  0.0000000000000E+00
-0.2751065767151E+00 -0.4935611405999E+01  0.0000000000000E+00
-0.2751598650971E+00 -0.4705439327499E+01  0.0000000000000E+00
-0.2752131534839E+00 -0.4475267228806E+01  0.0000000000000E+00
-0.2752664418646E+00 -0.4245095155906E+01  0.0000000000000E+00
-0.2753197303126E+00 -0.4014922792460E+01  0.0000000000000E+00
-0.2753730185947E+00 -0.3784751145673E+01  0.0000000000000E+00
-0.2754263069312E+00 -0.3554579263867E+01  0.0000000000000E+00
-0.2754885066858E+00 -0.3324407400866E+01  0.0000000000000E+00
-0.2760150565922E+00 -0.3094246906594E+01  0.0000000000000E+00
-0.2779091084884E+00 -0.2864209025978E+01  0.0000000000000E+00
-0.2816266067873E+00 -0.2634544479847E+01  0.0000000000000E+00
-0.1833749979742E+00 -0.5165371388459E+01  0.0000000000000E+00
-0.1834166626328E+00 -0.4934787327200E+01  0.0000000000000E+00
-0.1834583273017E+00 -0.4704203209110E+01  0.0000000000000E+00
-0.1834999919742E+00 -0.4473619070792E+01  0.0000000000000E+00
-0.1835416566421E+00 -0.4243034958313E+01  0.0000000000000E+00
-0.1835833213626E+00 -0.4012450554768E+01  0.0000000000000E+00
-0.1836249859533E+00 -0.3781866869165E+01  0.0000000000000E+00
-0.1836666505866E+00 -0.3551282948122E+01  0.0000000000000E+00
-0.1837142561645E+00 -0.3320699045912E+01  0.0000000000000E+00
-0.1840714284141E+00 -0.3090126518015E+01  0.0000000000000E+00
-0.1853402684639E+00 -0.2859676614480E+01  0.0000000000000E+00
-0.1878247393313E+00 -0.2629600050693E+01  0.0000000000000E+00
-0.9168934544193E-01 -0.5165123835198E+01  0.0000000000000E+00
-0.9171202422686E-01 -0.4934292220572E+01  0.0000000000000E+00
-0.9173470301738E-01 -0.4703460549055E+01  0.0000000000000E+00
-0.9175738180989E-01 -0.4472628857287E+01  0.0000000000000E+00
-0.9178006059986E-01 -0.4241797191387E+01  0.0000000000000E+00
-0.9180273941846E-01 -0.4010965234108E+01  0.0000000000000E+00
-0.9182541816644E-01 -0.3780133995541E+01  0.0000000000000E+00
-0.9184809693758E-01 -0.3549302521282E+01  0.0000000000000E+00
-0.9187374618062E-01 -0.3318471065873E+01  0.0000000000000E+00
-0.9205417872710E-01 -0.3087650988132E+01  0.0000000000000E+00
-0.9269044511122E-01 -0.2856953541183E+01  0.0000000000000E+00
-0.9393452686946E-01 -0.2626629437146E+01  0.0000000000000E+00
 0.4177628962889E-09 -0.5165041262319E+01  0.0000000000000E+00
 0.8355261549080E-09 -0.4934127074779E+01  0.0000000000000E+00
 0.1253289053774E-08 -0.4703212830328E+01  0.0000000000000E+00
 0.1671052267625E-08 -0.4472298565618E+01  0.0000000000000E+00
 0.2088815683466E-08 -0.4241384326785E+01  0.0000000000000E+00
 0.2506579443579E-08 -0.4010469796470E+01  0.0000000000000E+00
 0.2924341930792E-08 -0.3779555985123E+01  0.0000000000000E+00
 0.3342104742616E-08 -0.3548641938001E+01  0.0000000000000E+00
 0.3760390162497E-08 -0.3317727909734E+01  0.0000000000000E+00
 0.4190208237814E-08 -0.3086825260253E+01  0.0000000000000E+00
 0.4639581909553E-08 -0.2856045243711E+01  0.0000000000000E+00
 0.5098553005415E-08 -0.2625638571134E+01  0.0000000000000E+00
 0.9168934627724E-01 -0.5165123835217E+01  0.0000000000000E+00
 0.9171202589748E-01 -0.4934292220610E+01  0.0000000000000E+00
 0.9173470552332E-01 -0.4703460549112E+01  0.0000000000000E+00
 0.9175738515114E-01 -0.4472628857364E+01  0.0000000000000E+00
 0.9178006477642E-01 -0.4241797191482E+01  0.0000000000000E+00
 0.9180274443033E-01 -0.4010965234222E+01  0.0000000000000E+00
 0.9182542401363E-01 -0.3780133995675E+01  0.0000000000000E+00
 0.9184810362008E-01 -0.3549302521435E+01  0.0000000000000E+00
 0.9187375369948E-01 -0.3318471066045E+01  0.0000000000000E+00
 0.9205418710537E-01 -0.3087650988323E+01  0.0000000000000E+00
 0.9269045438803E-01 -0.2856953541394E+01  0.0000000000000E+00
 0.9393453706400E-01 -0.2626629437376E+01  0.0000000000000E+00
 0.1833749988089E+00 -0.5165371388497E+01  0.0000000000000E+00
 0.1834166643022E+00 -0.4934787327276E+01  0.0000000000000E+00
 0.1834583298057E+00 -0.4704203209225E+01  0.0000000000000E+00
 0.1834999953129E+00 -0.4473619070945E+01  0.0000000000000E+00
 0.1835416608155E+00 -0.4243034958504E+01  0.0000000000000E+00
 0.1835833263706E+00 -0.4012450554998E+01  0.0000000000000E+00
 0.1836249917960E+00 -0.3781866869432E+01  0.0000000000000E+00
 0.1836666572640E+00 -0.3551282948428E+01  0.0000000000000E+00
 0.1837142636776E+00 -0.3320699046256E+01  0.0000000000000E+00
 0.1840714367860E+00 -0.3090126518398E+01  0.0000000000000E+00
 0.1853402777337E+00 -0.2859676614900E+01  0.0000000000000E+00
 0.1878247495182E+00 -0.2629600051151E+01  0.0000000000000E+00
 0.2750532891798E+00 -0.5165783427828E+01  0.0000000000000E+00
 0.2751065783823E+00 -0.4935611406113E+01  0.0000000000000E+00
 0.2751598675980E+00 -0.4705439327670E+01  0.0000000000000E+00
 0.2752131568183E+00 -0.4475267229034E+01  0.0000000000000E+00
 0.2752664460327E+00 -0.4245095156192E+01  0.0000000000000E+00
 0.2753197353143E+00 -0.4014922792803E+01  0.0000000000000E+00
 0.2753730244300E+00 -0.3784751146073E+01  0.0000000000000E+00
 0.2754263136001E+00 -0.3554579264325E+01  0.0000000000000E+00
 0.2754885141894E+00 -0.3324407401381E+01  0.0000000000000E+00
 0.2760150649535E+00 -0.3094246907166E+01  0.0000000000000E+00
 0.2779091177465E+00 -0.2864209026608E+01  0.0000000000000E+00
 0.2816266169614E+00 -0.2634544480534E+01  0.0000000000000E+00
 0.3667205959957E+00 -0.5166359135350E+01  0.0000000000000E+00
 0.3667745253476E+00 -0.4936762821402E+01  0.0000000000000E+00
 0.3668284547129E+00 -0.4707166450868E+01  0.0000000000000E+00
 0.3668823840829E+00 -0.4477570060191E+01  0.0000000000000E+00
 0.3669363134469E+00 -0.4247973695243E+01  0.0000000000000E+00
 0.3669902428789E+00 -0.4018377040476E+01  0.0000000000000E+00
 0.3670441721430E+00 -0.3788781100575E+01  0.0000000000000E+00
 0.3670981014622E+00 -0.3559184926244E+01  0.0000000000000E+00
 0.3671639126752E+00 -0.3329588770677E+01  0.0000000000000E+00
 0.3678488577123E+00 -0.3100003976038E+01  0.0000000000000E+00
 0.3703571393134E+00 -0.2870541780097E+01  0.0000000000000E+00
 0.3752966831420E+00 -0.2641452911288E+01  0.0000000000000E+00
 0.4583733656970E+00 -0.5167097378257E+01  0.0000000000000E+00
 0.4584133980778E+00 -0.4938239307531E+01  0.0000000000000E+00
 0.4584534304684E+00 -0.4709381180401E+01  0.0000000000000E+00
 0.4584934628625E+00 -0.4480523033193E+01  0.0000000000000E+00
 0.4585334952521E+00 -0.4251664911631E+01  0.0000000000000E+00
 0.4585735276923E+00 -0.4022806501182E+01  0.0000000000000E+00
 0.4586135600078E+00 -0.3793948803301E+01  0.0000000000000E+00
 0.4586535923642E+00 -0.3565090871743E+01  0.0000000000000E+00
 0.4587084770901E+00 -0.3336232958898E+01  0.0000000000000E+00
 0.4595372794899E+00 -0.3107386396977E+01  0.0000000000000E+00
 0.4626452533764E+00 -0.2878662414574E+01  0.0000000000000E+00
 0.4687923054949E+00 -0.2650311749872E+01  0.0000000000000E+00
 0.5500081418100E+00 -0.5167996721682E+01  0.0000000000000E+00
 0.5500162836235E+00 -0.4940037994765E+01  0.0000000000000E+00
 0.5500244254390E+00 -0.4712079211666E+01  0.0000000000000E+00
 0.5500325672552E+00 -0.4484120408567E+01  0.0000000000000E+00
 0.5500407090705E+00 -0.4256161631014E+01  0.0000000000000E+00
 0.5500488508961E+00 -0.4028202565709E+01  0.0000000000000E+00
 0.5500569926963E+00 -0.3800244210171E+01  0.0000000000000E+00
 0.5500651345049E+00 -0.3572285621875E+01  0.0000000000000E+00
 0.5500910991607E+00 -0.3344327052230E+01  0.0000000000000E+00
 0.5510457656322E+00 -0.3116379821322E+01  0.0000000000000E+00
 0.5547354391225E+00 -0.2888555146566E+01  0.0000000000000E+00
 0.5620720072683E+00 -0.2661103778022E+01  0.0000000000000E+00
 0.6417475495491E+00 -0.5169075560978E+01  0.0000000000000E+00
 0.6418284324661E+00 -0.4942195673817E+01  0.0000000000000E+00
 0.6419093154030E+00 -0.4715315730739E+01  0.0000000000000E+00
 0.6419901983470E+00 -0.4488435767757E+01  0.0000000000000E+00
 0.6420710812819E+00 -0.4261555830199E+01  0.0000000000000E+00
 0.6421519643189E+00 -0.4034675606251E+01  0.0000000000000E+00
 0.6422328471041E+00 -0.3807796088711E+01  0.0000000000000E+00
 0.6423137299719E+00 -0.3580916339514E+01  0.0000000000000E+00
 0.6424154329763E+00 -0.3354036608895E+01  0.0000000000000E+00
 0.6436020179694E+00 -0.3127168202394E+01  0.0000000000000E+00
 0.6479835582528E+00 -0.2900422324013E+01  0.0000000000000E+00
 0.6566252958847E+00 -0.2674049738065E+01  0.0000000000000E+00
 0.7334614607425E+00 -0.5170317353212E+01  0.0000000000000E+00
 0.7335895882062E+00 -0.4944679258814E+01  0.0000000000000E+00
 0.7337177157015E+00 -0.4719041108805E+01  0.0000000000000E+00
 0.7338458432081E+00 -0.4493402939002E+01  0.0000000000000E+00
 0.7339739707003E+00 -0.4267764794483E+01  0.0000000000000E+00
 0.7341020983543E+00 -0.4042126365142E+01  0.0000000000000E+00
 0.7342302256093E+00 -0.3816488638342E+01  0.0000000000000E+00
 0.7343583529951E+00 -0.3590850681154E+01  0.0000000000000E+00
 0.7345102978095E+00 -0.3365212742457E+01  0.0000000000000E+00
 0.7359033051739E+00 -0.3139586111051E+01  0.0000000000000E+00
 0.7409512168888E+00 -0.2914081975502E+01  0.0000000000000E+00
 0.7508726291391E+00 -0.2688951116522E+01  0.0000000000000E+00
 0.8251466362621E+00 -0.5171719726789E+01  0.0000000000000E+00
 0.8252932725867E+00 -0.4947484006567E+01  0.0000000000000E+00
 0.8254399089475E+00 -0.4723248231080E+01  0.0000000000000E+00
 0.8255865453212E+00 -0.4499012435920E+01  0.0000000000000E+00
 0.8257331816784E+00 -0.4274776665888E+01  0.0000000000000E+00
 0.8258798182207E+00 -0.4050540612805E+01  0.0000000000000E+00
 0.8260264543064E+00 -0.3826305257896E+01  0.0000000000000E+00
 0.8261730905419E+00 -0.3602069674030E+01  0.0000000000000E+00
 0.8263465415001E+00 -0.3377834108559E+01  0.0000000000000E+00
 0.8279172359835E+00 -0.3153609831376E+01  0.0000000000000E+00
 0.8336027846954E+00 -0.2929508013613E+01  0.0000000000000E+00
 0.8447751375917E+00 -0.2705779454507E+01  0.0000000000000E+00
 0.9168000095578E+00 -0.5173280065631E+01  0.0000000000000E+00
 0.9169333525057E+00 -0.4950604684915E+01  0.0000000000000E+00
 0.9170666954865E+00 -0.4727929249318E+01  0.0000000000000E+00
 0.9172000384790E+00 -0.4505253794186E+01  0.0000000000000E+00
 0.9173333814566E+00 -0.4282578364008E+01  0.0000000000000E+00
 0.9174667246025E+00 -0.4059902652746E+01  0.0000000000000E+00
 0.9176000673332E+00 -0.3837227634802E+01  0.0000000000000E+00
 0.9177334102000E+00 -0.3614552389494E+01  0.0000000000000E+00
 0.9178965650869E+00 -0.3391877162473E+01  0.0000000000000E+00
 0.9196131449428E+00 -0.3169213202596E+01  0.0000000000000E+00
 0.9259045298433E+00 -0.2946671661599E+01  0.0000000000000E+00
 0.9382960231323E+00 -0.2724503359327E+01  0.0000000000000E+00
 0.1008418696493E+01 -0.5174995533715E+01  0.0000000000000E+00
 0.1008504059689E+01 -0.4954035621816E+01  0.0000000000000E+00
 0.1008589422906E+01 -0.4733075655458E+01  0.0000000000000E+00
 0.1008674786131E+01 -0.4512115669716E+01  0.0000000000000E+00
 0.1008760149346E+01 -0.4291155708735E+01  0.0000000000000E+00
 0.1008845512669E+01 -0.4070195468836E+01  0.0000000000000E+00
 0.1008930875726E+01 -0.3849235916913E+01  0.0000000000000E+00
 0.1009016238871E+01 -0.3628276139378E+01  0.0000000000000E+00
 0.1009134411336E+01 -0.3407316380011E+01  0.0000000000000E+00
 0.1010962190748E+01 -0.3186367864544E+01  0.0000000000000E+00
 0.1017824727109E+01 -0.2965541723384E+01  0.0000000000000E+00
 0.1031400676757E+01 -0.2745088799037E+01  0.0000000000000E+00
-0.4851541832137E+00 -0.2136327692227E+01  0.0000000000000E+00
-0.5092478388736E+00 -0.1851357818517E+01  0.0000000000000E+00
-0.5527899596612E+00 -0.1569694624955E+01  0.0000000000000E+00
-0.5963320797261E+00 -0.1288031431288E+01  0.0000000000000E+00
-0.6204257337759E+00 -0.1003061557444E+01  0.0000000000000E+00
-0.3886056197379E+00 -0.2124157865959E+01  0.0000000000000E+00
-0.4080780333230E+00 -0.1836615646818E+01  0.0000000000000E+00
-0.4431092360740E+00 -0.1552379719232E+01  0.0000000000000E+00
-0.4781404381023E+00 -0.1268143791561E+01  0.0000000000000E+00
-0.4976128500772E+00 -0.9806015723138E+00  0.0000000000000E+00
-0.2917391707853E+00 -0.2114642233498E+01  0.0000000000000E+00
-0.3064614663203E+00 -0.1825068835947E+01  0.0000000000000E+00
-0.3328528634846E+00 -0.1538801423106E+01  0.0000000000000E+00
-0.3592442599262E+00 -0.1252534010201E+01  0.0000000000000E+00
-0.3739665538510E+00 -0.9629606125699E+00  0.0000000000000E+00
-0.1946298160855E+00 -0.2107817834939E+01  0.0000000000000E+00
-0.2045018950950E+00 -0.1816776735913E+01  0.0000000000000E+00
-0.2221533797354E+00 -0.1529041399873E+01  0.0000000000000E+00
-0.2398048636531E+00 -0.1241306063791E+01  0.0000000000000E+00
-0.2496769410523E+00 -0.9502649647122E+00  0.0000000000000E+00
-0.9735629325945E-01 -0.2103712003981E+01  0.0000000000000E+00
-0.1023097103472E+00 -0.1811783379155E+01  0.0000000000000E+00
-0.1111528314768E+00 -0.1523160383234E+01  0.0000000000000E+00
-0.1199959518837E+00 -0.1234537387292E+01  0.0000000000000E+00
-0.1249493673612E+00 -0.9426087624397E+00  0.0000000000000E+00
 0.3693741643122E-08 -0.2102341509392E+01  0.0000000000000E+00
 0.1955577819094E-08 -0.1810115875173E+01  0.0000000000000E+00
 0.6892481200859E-09 -0.1521195824981E+01  0.0000000000000E+00
 0.1456734852091E-09 -0.1232275774790E+01  0.0000000000000E+00
 0.1778418601346E-10 -0.9400501405700E+00  0.0000000000000E+00
 0.9735630064462E-01 -0.2103712004203E+01  0.0000000000000E+00
 0.1023097142565E+00 -0.1811783379310E+01  0.0000000000000E+00
 0.1111528328539E+00 -0.1523160383302E+01  0.0000000000000E+00
 0.1199959521741E+00 -0.1234537387316E+01  0.0000000000000E+00
 0.1249493673963E+00 -0.9426087624494E+00  0.0000000000000E+00
 0.1946298234638E+00 -0.2107817835382E+01  0.0000000000000E+00
 0.2045018989987E+00 -0.1816776736222E+01  0.0000000000000E+00
 0.2221533811083E+00 -0.1529041400009E+01  0.0000000000000E+00
 0.2398048639408E+00 -0.1241306063839E+01  0.0000000000000E+00
 0.2496769410860E+00 -0.9502649647315E+00  0.0000000000000E+00
 0.2917391781520E+00 -0.2114642234163E+01  0.0000000000000E+00
 0.3064614702149E+00 -0.1825068836409E+01  0.0000000000000E+00
 0.3328528648507E+00 -0.1538801423309E+01  0.0000000000000E+00
 0.3592442602093E+00 -0.1252534010272E+01  0.0000000000000E+00
 0.3739665538824E+00 -0.9629606125987E+00  0.0000000000000E+00
 0.3886056270886E+00 -0.2124157866843E+01  0.0000000000000E+00
 0.4080780372047E+00 -0.1836615647433E+01  0.0000000000000E+00
 0.4431092374304E+00 -0.1552379719501E+01  0.0000000000000E+00
 0.4781404383790E+00 -0.1268143791655E+01  0.0000000000000E+00
 0.4976128501055E+00 -0.9806015723517E+00  0.0000000000000E+00
 0.4851541905440E+00 -0.2136327693329E+01  0.0000000000000E+00
 0.5092478427390E+00 -0.1851357819283E+01  0.0000000000000E+00
 0.5527899610054E+00 -0.1569694625290E+01  0.0000000000000E+00
 0.5963320799946E+00 -0.1288031431404E+01  0.0000000000000E+00
 0.6204257338001E+00 -0.1003061557491E+01  0.0000000000000E+00
-0.1133737314259E+01 -0.2052308622102E+01  0.0000000000000E+00
-0.1274486403702E+01 -0.1594564540690E+01  0.0000000000000E+00
-0.1510959349965E+01 -0.1179900931720E+01  0.0000000000000E+00
-0.1700331950920E+01 -0.7403017946010E+00  0.0000000000000E+00
-0.1789382244740E+01 -0.2696083795159E+00  0.0000000000000E+00
-0.1023938996184E+01 -0.2068652315303E+01  0.0000000000000E+00
-0.1142112258732E+01 -0.1646768068914E+01  0.0000000000000E+00
-0.1341532163024E+01 -0.1260009950269E+01  0.0000000000000E+00
-0.1503271849004E+01 -0.8533031361939E+00  0.0000000000000E+00
-0.1580086216045E+01 -0.4210587363028E+00  0.0000000000000E+00
-0.9137653881372E+00 -0.2086674438468E+01  0.0000000000000E+00
-0.1009438380911E+01 -0.1700312115893E+01  0.0000000000000E+00
-0.1171880838976E+01 -0.1341121419376E+01  0.0000000000000E+00
-0.1306063173532E+01 -0.9669689939217E+00  0.0000000000000E+00
-0.1370717093159E+01 -0.5728360351920E+00  0.0000000000000E+00
-0.8032476946747E+00 -0.2106405676464E+01  0.0000000000000E+00
-0.8764896918390E+00 -0.1755221189044E+01  0.0000000000000E+00
-0.1002024012244E+01 -0.1423253665411E+01  0.0000000000000E+00
-0.1108718275083E+01 -0.1081311516010E+01  0.0000000000000E+00
-0.1161280950892E+01 -0.7249462533666E+00  0.0000000000000E+00
-0.6924190942478E+00 -0.2127874334334E+01  0.0000000000000E+00
-0.7432926899379E+00 -0.1811517894989E+01  0.0000000000000E+00
-0.8319814974067E+00 -0.1506423593525E+01  0.0000000000000E+00
-0.9112502874979E+00 -0.1196341908649E+01  0.0000000000000E+00
-0.9517842502118E+00 -0.8773949044136E+00  0.0000000000000E+00
 0.6924191004027E+00 -0.2127874335219E+01  0.0000000000000E+00
 0.7432926934581E+00 -0.1811517895177E+01  0.0000000000000E+00
 0.8319814990929E+00 -0.1506423592942E+01  0.0000000000000E+00
 0.9112502881585E+00 -0.1196341907320E+01  0.0000000000000E+00
 0.9517842502851E+00 -0.8773949025109E+00  0.0000000000000E+00
 0.8032476996858E+00 -0.2106405676847E+01  0.0000000000000E+00
 0.8764896950395E+00 -0.1755221188447E+01  0.0000000000000E+00
 0.1002024014292E+01 -0.1423253663802E+01  0.0000000000000E+00
 0.1108718276148E+01 -0.1081311513186E+01  0.0000000000000E+00
 0.1161280951021E+01 -0.7249462494916E+00  0.0000000000000E+00
 0.9137653920139E+00 -0.2086674438280E+01  0.0000000000000E+00
 0.1009438383799E+01 -0.1700312114458E+01  0.0000000000000E+00
 0.1171880841391E+01 -0.1341121416702E+01  0.0000000000000E+00
 0.1306063175006E+01 -0.9669689895761E+00  0.0000000000000E+00
 0.1370717093346E+01 -0.5728360293306E+00  0.0000000000000E+00
 0.1023938998937E+01 -0.2068652314478E+01  0.0000000000000E+00
 0.1142112261317E+01 -0.1646768066588E+01  0.0000000000000E+00
 0.1341532165812E+01 -0.1260009946489E+01  0.0000000000000E+00
 0.1503271850892E+01 -0.8533031302991E+00  0.0000000000000E+00
 0.1580086216292E+01 -0.4210587284410E+00  0.0000000000000E+00
 0.1133737315902E+01 -0.2052308620576E+01  0.0000000000000E+00
 0.1274486405994E+01 -0.1594564537420E+01  0.0000000000000E+00
 0.1510959353135E+01 -0.1179900926795E+01  0.0000000000000E+00
 0.1700331953226E+01 -0.7403017871305E+00  0.0000000000000E+00
 0.1789382245050E+01 -0.2696083696401E+00  0.0000000000000E+00
-0.7797588899790E+00 -0.5279533396540E+00  0.0000000000000E+00
-0.9323271166835E+00 -0.3392019325780E+00  0.0000000000000E+00
-0.1084895343388E+01 -0.1504505255019E+00  0.0000000000000E+00
-0.1237463570092E+01  0.3830088157410E-01  0.0000000000000E+00
-0.1390031796797E+01  0.2270522886501E+00  0.0000000000000E+00
-0.6245708403589E+00 -0.5158025875882E+00  0.0000000000000E+00
-0.7459193524378E+00 -0.3399332095533E+00  0.0000000000000E+00
-0.8672678645167E+00 -0.1640638315184E+00  0.0000000000000E+00
-0.9886163765957E+00  0.1180554651654E-01  0.0000000000000E+00
-0.1109964888675E+01  0.1876749245514E+00  0.0000000000000E+00
-0.4705394525344E+00 -0.5164547192011E+00  0.0000000000000E+00
-0.5627872298964E+00 -0.3609099666891E+00  0.0000000000000E+00
-0.6550350072585E+00 -0.2053652141770E+00  0.0000000000000E+00
-0.7472827846206E+00 -0.4982046166492E-01  0.0000000000000E+00
-0.8395305619826E+00  0.1057242908471E+00  0.0000000000000E+00
-0.3152273819464E+00 -0.5195300842953E+00  0.0000000000000E+00
-0.3778371803457E+00 -0.3812243032654E+00  0.0000000000000E+00
-0.4404469787449E+00 -0.2429185222355E+00  0.0000000000000E+00
-0.5030567771442E+00 -0.1046127412057E+00  0.0000000000000E+00
-0.5656665755435E+00  0.3369303982424E-01  0.0000000000000E+00
-0.1580262025224E+00 -0.5208827547530E+00  0.0000000000000E+00
-0.1896153356333E+00 -0.3924735276847E+00  0.0000000000000E+00
-0.2212044687442E+00 -0.2640643006164E+00  0.0000000000000E+00
-0.2527936018551E+00 -0.1356550735481E+00  0.0000000000000E+00
-0.2843827349660E+00 -0.7245846479776E-02  0.0000000000000E+00
-0.1160084765117E-08 -0.5213561407017E+00  0.0000000000000E+00
-0.2320169053009E-08 -0.3962759828414E+00  0.0000000000000E+00
-0.3480253340900E-08 -0.2711958249811E+00  0.0000000000000E+00
-0.4640337628792E-08 -0.1461156671208E+00  0.0000000000000E+00
-0.5800421805661E-08 -0.2103550926056E-01  0.0000000000000E+00
 0.1580262002161E+00 -0.5208827549999E+00  0.0000000000000E+00
 0.1896153310207E+00 -0.3924735281785E+00  0.0000000000000E+00
 0.2212044618252E+00 -0.2640643013571E+00  0.0000000000000E+00
 0.2527935926298E+00 -0.1356550745356E+00  0.0000000000000E+00
 0.2843827234343E+00 -0.7245847714223E-02  0.0000000000000E+00
 0.3152273796822E+00 -0.5195300848035E+00  0.0000000000000E+00
 0.3778371758173E+00 -0.3812243042817E+00  0.0000000000000E+00
 0.4404469719524E+00 -0.2429185237599E+00  0.0000000000000E+00
 0.5030567680875E+00 -0.1046127432382E+00  0.0000000000000E+00
 0.5656665642226E+00  0.3369303728360E-01  0.0000000000000E+00
 0.4705394503514E+00 -0.5164547199851E+00  0.0000000000000E+00
 0.5627872255305E+00 -0.3609099682571E+00  0.0000000000000E+00
 0.6550350007097E+00 -0.2053652165290E+00  0.0000000000000E+00
 0.7472827758888E+00 -0.4982046480095E-01  0.0000000000000E+00
 0.8395305510679E+00  0.1057242869271E+00  0.0000000000000E+00
 0.6245708381267E+00 -0.5158025882231E+00  0.0000000000000E+00
 0.7459193479734E+00 -0.3399332108231E+00  0.0000000000000E+00
 0.8672678578201E+00 -0.1640638334231E+00  0.0000000000000E+00
 0.9886163676669E+00  0.1180554397689E-01  0.0000000000000E+00
 0.1109964877514E+01  0.1876749213769E+00  0.0000000000000E+00
 0.7797588876550E+00 -0.5279533396715E+00  0.0000000000000E+00
 0.9323271120354E+00 -0.3392019326130E+00  0.0000000000000E+00
 0.1084895336416E+01 -0.1504505255544E+00  0.0000000000000E+00
 0.1237463560796E+01  0.3830088150411E-01  0.0000000000000E+00
 0.1390031785177E+01  0.2270522885627E+00  0.0000000000000E+00
</DataArray>
</Points>
<Cells>
<DataArray type="Int64" Name="connectivity" format="ascii">
0 11 130 75
75 130 131 76
76 131 132 77
77 132 133 78
78 133 134 79
79 134 135 80
80 135 136 81
81 136 137 82
82 137 138 83
83 138 139 84
84 139 140 85
85 140 141 86
86 141 33 3
11 12 142 130
130 142 143 131
131 143 144 132
132 144 145 133
133 145 146 134
134 146 147 135
135 147 148 136
136 148 149 137
137 149 150 138
138 150 151 139
139 151 152 140
140 152 153 141
141 153 34 33
12 13 154 142
142 154 155 143
143 155 156 144
144 156 157 145
145 157 158 146
146 158 159 147
147 159 160 148
148 160 161 149
149 161 162 150
150 162 163 151
151 163 164 152
152 164 165 153
153 165 35 34
13 14 166 154
154 166 167 155
155 167 168 156
156 168 169 157
157 169 170 158
158 170 171 159
159 171 172 160
160 172 173 161
161 173 174 162
162 174 175 163
163 175 176 164
164 176 177 165
165 177 36 35
14 15 178 166
166 178 179 167
167 179 180 168
168 180 181 169
169 181 182 170
170 182 183 171
171 183 184 172
172 184 185 173
173 185 186 174
174 186 187 175
175 187 188 176
176 188 189 177
177 189 37 36
15 16 190 178
178 190 191 179
179 191 192 180
180 192 193 181
181 193 194 182
182 194 195 183
183 195 196 184
184 196 197 185
185 197 198 186
186 198 199 187
187 199 200 188
188 200 201 189
189 201 4 37
16 17 202 190
190 202 203 191
191 203 204 192
192 204 205 193
193 205 206 194
194 206 207 195
195 207 208 196
196 208 209 197
197 209 210 198
198 210 211 199
199 211 212 200
200 212 213 201
201 213 38 4
17 18 214 202
202 214 215 203
203 215 216 204
204 216 217 205
205 217 218 206
206 218 219 207
207 219 220 208
208 220 221 209
209 221 222 210
210 222 223 211
211 223 224 212
212 224 225 213
213 225 39 38
18 19 226 214
214 226 227 215
215 227 228 216
216 228 229 217
217 229 230 218
218 230 231 219
219 231 232 220
220 232 233 221
221 233 234 222
222 234 235 223
223 235 236 224
224 236 237 225
225 237 40 39
19 20 238 226
226 238 239 227
227 239 240 228
228 240 241 229
229 241 242 230
230 242 243 231
231 243 244 232
232 244 245 233
233 245 246 234
234 246 247 235
235 247 248 236
236 248 249 237
237 249 41 40
20 21 250 238
238 250 251 239
239 251 252 240
240 252 253 241
241 253 254 242
242 254 255 243
243 255 256 244
244 256 257 245
245 257 258 246
246 258 259 247
247 259 260 248
248 260 261 249
249 261 42 41
21 1 262 250
250 262 263 251
251 263 264 252
252 264 265 253
253 265 266 254
254 266 267 255
255 267 268 256
256 268 269 257
257 269 270 258
258 270 271 259
259 271 272 260
260 272 273 261
261 273 43 42
1 22 274 262
262 274 275 263
263 275 276 264
264 276 277 265
265 277 278 266
266 278 279 267
267 279 280 268
268 280 281 269
269 281 282 270
270 282 283 271
271 283 284 272
272 284 285 273
273 285 44 43
22 23 286 274
274 286 287 275
275 287 288 276
276 288 289 277
277 289 290 278
278 290 291 279
279 291 292 280
280 292 293 281
281 293 294 282
282 294 295 283
283 295 296 284
284 296 297 285
285 297 45 44
23 24 298 286
286 298 299 287
287 299 300 288
288 300 301 289
289 301 302 290
290 302 303 291
291 303 304 292
292 304 305 293
293 305 306 294
294 306 307 295
295 307 308 296
296 308 309 297
297 309 46 45
24 25 310 298
298 310 311 299
299 311 312 300
300 312 313 301
301 313 314 302
302 314 315 303
303 315 316 304
304 316 317 305
305 317 318 306
306 318 319 307
307 319 320 308
308 320 321 309
309 321 47 46
25 26 322 310
310 322 323 311
311 323 324 312
312 324 325 313
313 325 326 314
314 326 327 315
315 327 328 316
316 328 329 317
317 329 330 318
318 330 331 319
319 331 332 320
320 332 333 321
321 333 48 47
26 27 334 322
322 334 335 323
323 335 336 324
324 336 337 325
325 337 338 326
326 338 339 327
327 339 340 328
328 340 341 329
329 341 342 330
330 342 343 331
331 343 344 332
332 344 345 333
333 345 5 48
27 28 346 334
334 346 347 335
335 347 348 336
336 348 349 337
337 349 350 338
338 350 351 339
339 351 352 340
340 352 353 341
341 353 354 342
342 354 355 343
343 355 356 344
344 356 357 345
345 357 49 5
28 29 358 346
346 358 359 347
347 359 360 348
348 360 361 349
349 361 362 350
350 362 363 351
351 363 364 352
352 364 365 353
353 365 366 354
354 366 367 355
355 367 368 356
356 368 369 357
357 369 50 49
29 30 370 358
358 370 371 359
359 371 372 360
360 372 373 361
361 373 374 362
362 374 375 363
363 375 376 364
364 376 377 365
365 377 378 366
366 378 379 367
367 379 380 368
368 380 381 369
369 381 51 50
30 31 382 370
370 382 383 371
371 383 384 372
372 384 385 373
373 385 386 374
374 386 387 375
375 387 388 376
376 388 389 377
377 389 390 378
378 390 391 379
379 391 392 380
380 392 393 381
381 393 52 51
31 32 394 382
382 394 395 383
383 395 396 384
384 396 397 385
385 397 398 386
386 398 399 387
387 399 400 388
388 400 401 389
389 401 402 390
390 402 403 391
391 403 404 392
392 404 405 393
393 405 53 52
32 2 98 394
394 98 97 395
395 97 96 396
396 96 95 397
397 95 94 398
398 94 93 399
399 93 92 400
400 92 91 401
401 91 90 402
402 90 89 403
403 89 88 404
404 88 87 405
405 87 6 53
4 38 406 114
114 406 407 113
113 407 408 112
112 408 409 111
111 409 410 110
110 410 99 9
38 39 411 406
406 411 412 407
407 412 413 408
408 413 414 409
409 414 415 410
410 415 100 99
39 40 416 411
411 416 417 412
412 417 418 413
413 418 419 414
414 419 420 415
415 420 101 100
40 41 421 416
416 421 422 417
417 422 423 418
418 423 424 419
419 424 425 420
420 425 102 101
41 42 426 421
421 426 427 422
422 427 428 423
423 428 429 424
424 429 430 425
425 430 103 102
42 43 431 426
426 431 432 427
427 432 433 428
428 433 434 429
429 434 435 430
430 435 104 103
43 44 436 431
431 436 437 432
432 437 438 433
433 438 439 434
434 439 440 435
435 440 105 104
44 45 441 436
436 441 442 437
437 442 443 438
438 443 444 439
439 444 445 440
440 445 106 105
45 46 446 441
441 446 447 442
442 447 448 443
443 448 449 444
444 449 450 445
445 450 107 106
46 47 451 446
446 451 452 447
447 452 453 448
448 453 454 449
449 454 455 450
450 455 108 107
47 48 456 451
451 456 457 452
452 457 458 453
453 458 459 454
454 459 460 455
455 460 109 108
48 5 119 456
456 119 118 457
457 118 117 458
458 117 116 459
459 116 115 460
460 115 10 109
3 33 461 54
54 461 462 55
55 462 463 56
56 463 464 57
57 464 465 58
58 465 124 7
33 34 466 461
461 466 467 462
462 467 468 463
463 468 469 464
464 469 470 465
465 470 123 124
34 35 471 466
466 471 472 467
467 472 473 468
468 473 474 469
469 474 475 470
470 475 122 123
35 36 476 471
471 476 477 472
472 477 478 473
473 478 479 474
474 479 480 475
475 480 121 122
36 37 481 476
476 481 482 477
477 482 483 478
478 483 484 479
479 484 485 480
480 485 120 121
37 4 114 481
481 114 113 482
482 113 112 483
483 112 111 484
484 111 110 485
485 110 9 120
5 49 486 119
119 486 487 118
118 487 488 117
117 488 489 116
116 489 490 115
115 490 125 10
49 50 491 486
486 491 492 487
487 492 493 488
488 493 494 489
489 494 495 490
490 495 126 125
50 51 496 491
491 496 497 492
492 497 498 493
493 498 499 494
494 499 500 495
495 500 127 126
51 52 501 496
496 501 502 497
497 502 503 498
498 503 504 499
499 504 505 500
500 505 128 127
52 53 506 501
501 506 507 502
502 507 508 503
503 508 509 504
504 509 510 505
505 510 129 128
53 6 74 506
506 74 73 507
507 73 72 508
508 72 71 509
509 71 70 510
510 70 8 129
9 99 511 120
120 511 512 121
121 512 513 122
122 513 514 123
123 514 515 124
124 515 59 7
99 100 516 511
511 516 517 512
512 517 518 513
513 518 519 514
514 519 520 515
515 520 60 59
100 101 521 516
516 521 522 517
517 522 523 518
518 523 524 519
519 524 525 520
520 525 61 60
101 102 526 521
521 526 527 522
522 527 528 523
523 528 529 524
524 529 530 525
525 530 62 61
102 103 531 526
526 531 532 527
527 532 533 528
528 533 534 529
529 534 535 530
530 535 63 62
103 104 536 531
531 536 537 532
532 537 538 533
533 538 539 534
534 539 540 535
535 540 64 63
104 105 541 536
536 541 542 537
537 542 543 538
538 543 544 539
539 544 545 540
540 545 65 64
105 106 546 541
541 546 547 542
542 547 548 543
543 548 549 544
544 549 550 545
545 550 66 65
106 107 551 546
546 551 552 547
547 552 553 548
548 553 554 549
549 554 555 550
550 555 67 66
107 108 556 551
551 556 557 552
552 557 558 553
553 558 559 554
554 559 560 555
555 560 68 67
108 109 561 556
556 561 562 557
557 562 563 558
558 563 564 559
559 564 565 560
560 565 69 68
109 10 125 561
561 125 126 562
562 126 127 563
563 127 128 564
564 128 129 565
565 129 8 69
</DataArray>
<DataArray type="Int64" Name="offsets" format="ascii">
4
8
12
16
20
24
28
32
36
40
44
48
52
56
60
64
68
72
76
80
84
88
92
96
100
104
108
112
116
120
124
128
132
136
140
144
148
152
156
160
164
168
172
176
180
184
188
192
196
200
204
208
212
216
220
224
228
232
236
240
244
248
252
256
260
264
268
272
276
280
284
288
292
296
300
304
308
312
316
320
324
328
332
336
340
344
348
352
356
360
364
368
372
376
380
384
388
392
396
400
404
408
412
416
420
424
428
432
436
440
444
448
452
456
460
464
468
472
476
480
484
488
492
496
500
504
508
512
516
520
524
528
532
536
540
544
548
552
556
560
564
568
572
576
580
584
588
592
596
600
604
608
612
616
620
624
628
632
636
640
644
648
652
656
660
664
668
672
676
680
684
688
692
696
700
704
708
712
716
720
724
728
732
736
740
744
748
752
756
760
764
768
772
776
780
784
788
792
796
800
804
808
812
816
820
824
828
832
836
840
844
848
852
856
860
864
868
872
876
880
884
888
892
896
900
904
908
912
916
920
924
928
932
936
940
944
948
952
956
960
964
968
972
976
980
984
988
992
996
1000
1004
1008
1012
1016
1020
1024
1028
1032
1036
1040
1044
1048
1052
1056
1060
1064
1068
1072
1076
1080
1084
1088
1092
1096
1100
1104
1108
1112
1116
1120
1124
1128
1132
1136
1140
1144
1148
1152
1156
1160
1164
1168
1172
1176
1180
1184
1188
1192
1196
1200
1204
1208
1212
1216
1220
1224
1228
1232
1236
1240
1244
1248
1252
1256
1260
1264
1268
1272
1276
1280
1284
1288
1292
1296
1300
1304
1308
1312
1316
1320
1324
1328
1332
1336
1340
1344
1348
1352
1356
1360
1364
1368
1372
1376
1380
1384
1388
1392
1396
1400
1404
1408
1412
1416
1420
1424
1428
1432
1436
1440
1444
1448
1452
1456
1460
1464
1468
1472
1476
1480
1484
1488
1492
1496
1500
1504
1508
1512
1516
1520
1524
1528
1532
1536
1540
1544
1548
1552
1556
1560
1564
1568
1572
1576
1580
1584
1588
1592
1596
1600
1604
1608
1612
1616
1620
1624
1628
1632
1636
1640
1644
1648
1652
1656
1660
1664
1668
1672
1676
1680
1684
1688
1692
1696
1700
1704
1708
1712
1716
1720
1724
1728
1732
1736
1740
1744
1748
1752
1756
1760
1764
1768
1772
1776
1780
1784
1788
1792
1796
1800
1804
1808
1812
1816
1820
1824
1828
1832
1836
1840
1844
1848
1852
1856
1860
1864
1868
1872
1876
1880
1884
1888
1892
1896
1900
1904
1908
1912
1916
1920
1924
1928
1932
1936
1940
1944
1948
1952
1956
1960
1964
1968
1972
1976
1980
1984
1988
1992
1996
2000
2004
2008
2012
2016
2020
2024
2028
2032
2036
2040
2044
2048
2052
2056
2060
2064
2068
2072
2076
2080
2084
2088
2092
2096
2100
2104
2108
2112
</DataArray>
<DataArray type="Int64" Name="types" format="ascii">
9
9
9
9
9
9
9
9
9
9
9
9
9
9
9
9
9
9
9
9
9
9
9
9
9
9
9
9
9
9
9
9
9
9
9
9
9
9
9
9
9
9
9
9
9
9
9
9
9
9
9
9
9
9
9
9
9
9
9
9
9
9
9
9
9
9
9
9
9
9
9
9
9
9
9
9
9
9
9
9
9
9
9
9
9
9
9
9
9
9
9
9
9
9
9
9
9
9
9
9
9
9
9
9
9
9
9
9
9
9
9
9
9
9
9
9
9
9
9
9
9
9
9
9
9
9
9
9
9
9
9
9
9
9
9
9
9
9
9
9
9
9
9
9
9
9
9
9
9
9
9
9
9
9
9
9
9
9
9
9
9
9
9
9
9
9
9
9
9
9
9
9
9
9
9
9
9
9
9
9
9
9
9
9
9
9
9
9
9
9
9
9
9
9
9
9
9
9
9
9
9
9
9
9
9
9
9
9
9
9
9
9
9
9
9
9
9
9
9
9
9
9
9
9
9
9
9
9
9
9
9
9
9
9
9
9
9
9
9
9
9
9
9
9
9
9
9
9
9
9
9
9
9
9
9
9
9
9
9
9
9
9
9
9
9
9
9
9
9
9
9
9
9
9
9
9
9
9
9
9
9
9
9
9
9
9
9
9
9
9
9
9
9
9
9
9
9
9
9
9
9
9
9
9
9
9
9
9
9
9
9
9
9
9
9
9
9
9
9
9
9
9
9
9
9
9
9
9
9
9
9
9
9
9
9
9
9
9
9
9
9
9
9
9
9
9
9
9
9
9
9
9
9
9
9
9
9
9
9
9
9
9
9
9
9
9
9
9
9
9
9
9
9
9
9
9
9
9
9
9
9
9
9
9
9
9
9
9
9
9
9
9
9
9
9
9
9
9
9
9
9
9
9
9
9
9
9
9
9
9
9
9
9
9
9
9
9
9
9
9
9
9
9
9
9
9
9
9
9
9
9
9
9
9
9
9
9
9
9
9
9
9
9
9
9
9
9
9
9
9
9
9
9
9
9
9
9
9
9
9
9
9
9
9
9
9
9
9
9
9
9
9
9
9
9
9
9
9
9
9
9
9
9
9
9
9
9
9
9
9
9
9
9
9
9
9
9
9
9
9
9
9
9
9
9
9
9
9
9
9
9
9
9
9
9
9
9
9
9
9
9
9
9
9
9
9
9
9
</DataArray>
</Cells>
<PointData Vectors="'U'">
<DataArray type="Float64" Name="U" NumberOfComponents="2" ComponentName0="U1" ComponentName1="U2" format="ascii">
-0.9460783283528E-37 -0.2438970210601E-36
 0.1721578207963E-46 -0.2891447915168E-36
 0.9460783168633E-37 -0.2438970179036E-36
-0.1115088668339E-01 -0.2840215393779E-01
-0.4734407806683E-02 -0.1798086725083E-01
 0.4734407525695E-02 -0.1798086718768E-01
 0.1115088630693E-01 -0.2840215368075E-01
-0.3041650006051E+00 -0.4269167453421E+00
 0.3041649873180E+00 -0.4269167414729E+00
-0.3179945286450E+00 -0.5361329158190E+00
 0.3179945217488E+00 -0.5361329134137E+00
-0.4261354597579E-37 -0.3357694663626E-36
-0.4236645273869E-37 -0.3107731476980E-36
-0.3695441274357E-37 -0.3011097925679E-36
-0.3136106358833E-37 -0.2963552900166E-36
-0.2621947895753E-37 -0.2936920739628E-36
-0.2156938372637E-37 -0.2920638402814E-36
-0.1733285659280E-37 -0.2909961805714E-36
-0.1345217388653E-37 -0.2902611806120E-36
-0.9848463782501E-38 -0.2897500721331E-36
-0.6451237859305E-38 -0.2894081285290E-36
-0.3191316705921E-38 -0.2892099145449E-36
 0.3191316737842E-38 -0.2892099142070E-36
 0.6451237883588E-38 -0.2894081278521E-36
 0.9848463793700E-38 -0.2897500711155E-36
 0.1345217387863E-37 -0.2902611792507E-36
 0.1733285655894E-37 -0.2909961788616E-36
 0.2156938365210E-37 -0.2920638382197E-36
 0.2621947884511E-37 -0.2936920715410E-36
 0.3136106342046E-37 -0.2963552872164E-36
 0.3695441250563E-37 -0.3011097893637E-36
 0.4236645241707E-37 -0.3107731440365E-36
 0.4261354561284E-37 -0.3357694620721E-36
-0.9482804948269E-02 -0.2390961393364E-01
-0.8273728110827E-02 -0.2163386595207E-01
-0.7253240225768E-02 -0.2021109201985E-01
-0.6342402326211E-02 -0.1923106472633E-01
-0.5509462324045E-02 -0.1852124868603E-01
-0.4021042726229E-02 -0.1760040911674E-01
-0.3249345685139E-02 -0.1732481258395E-01
-0.2454641881392E-02 -0.1712423653086E-01
-0.1644464278802E-02 -0.1698907541397E-01
-0.8246019976836E-03 -0.1691116644507E-01
-0.1424134555876E-09 -0.1688572345347E-01
 0.8246017129465E-03 -0.1691116643171E-01
 0.1644463994354E-02 -0.1698907538763E-01
 0.2454641597492E-02 -0.1712423649234E-01
 0.3249345402144E-02 -0.1732481253454E-01
 0.4021042444594E-02 -0.1760040905823E-01
 0.5509462030932E-02 -0.1852124860958E-01
 0.6342402020479E-02 -0.1923106463510E-01
 0.7253239907716E-02 -0.2021109191155E-01
 0.8273727779855E-02 -0.2163386582201E-01
 0.9482804601564E-02 -0.2390961376950E-01
-0.3267053250321E+00 -0.2200052063730E+00
-0.4062325753156E+00 -0.3532866150178E+00
-0.4527168436021E+00 -0.4264491649551E+00
-0.4543024265353E+00 -0.4331503039680E+00
-0.4009817401995E+00 -0.4148278640841E+00
-0.2752989142299E+00 -0.4862502490620E+00
-0.2692479633994E+00 -0.5603344568753E+00
-0.2633205386067E+00 -0.6702394526478E+00
-0.2072854165141E+00 -0.8748599740141E+00
-0.1016650205781E+00 -0.1136153895213E+01
-0.6609879351876E-08 -0.1256949572651E+01
 0.1016650063449E+00 -0.1136153903300E+01
 0.2072854023026E+00 -0.8748599818128E+00
 0.2633205267483E+00 -0.6702394550754E+00
 0.2692479523239E+00 -0.5603344560145E+00
 0.2752989024664E+00 -0.4862502466380E+00
 0.4009817288960E+00 -0.4148278575525E+00
 0.4543024179105E+00 -0.4331502975831E+00
 0.4527168374901E+00 -0.4264491599854E+00
 0.4062325711166E+00 -0.3532866118960E+00
 0.3267053228978E+00 -0.2200052045668E+00
-0.8410547109445E-03 -0.1711062304877E-02
-0.1210813646263E-02 -0.3034795723001E-02
-0.1401855753380E-02 -0.4350345094879E-02
-0.1473879359014E-02 -0.5686527107679E-02
-0.1468441545672E-02 -0.7067723201948E-02
-0.1411706851187E-02 -0.8516655584997E-02
-0.1331470719761E-02 -0.1006392836647E-01
-0.1264155457620E-02 -0.1175460854876E-01
-0.1276662222004E-02 -0.1366651305838E-01
-0.1479217503138E-02 -0.1591164214972E-01
-0.2184408416995E-02 -0.1867997531346E-01
-0.3468491125356E-02 -0.2230493411308E-01
 0.3468490815744E-02 -0.2230493388431E-01
 0.2184408154810E-02 -0.1867997510799E-01
 0.1479217280962E-02 -0.1591164196391E-01
 0.1276662036618E-02 -0.1366651288960E-01
 0.1264155305873E-02 -0.1175460839673E-01
 0.1331470598433E-02 -0.1006392823150E-01
 0.1411706756928E-02 -0.8516655467517E-02
 0.1468441475012E-02 -0.7067723102444E-02
 0.1473879308394E-02 -0.5686527026625E-02
 0.1401855719199E-02 -0.4350345032711E-02
 0.1210813625123E-02 -0.3034795680127E-02
 0.8410546997561E-03 -0.1711062281545E-02
-0.2833898549092E+00 -0.5797901460019E+00
-0.2429746562982E+00 -0.6284717958618E+00
-0.1945289808298E+00 -0.6777155600349E+00
-0.1370895051421E+00 -0.7217983607644E+00
-0.7121032815668E-01 -0.7539383400261E+00
-0.3487507647866E-08 -0.7661256357615E+00
 0.7121032121856E-01 -0.7539383397490E+00
 0.1370894982769E+00 -0.7217983600575E+00
 0.1945289740073E+00 -0.6777155588994E+00
 0.2429746494780E+00 -0.6284717943155E+00
 0.2833898480585E+00 -0.5797901440395E+00
-0.3083715928016E+00 -0.4478502644310E+00
-0.2840917206493E+00 -0.3575382517680E+00
-0.2422281769755E+00 -0.2629984230729E+00
-0.1867971974892E+00 -0.1657455665583E+00
-0.1175173412046E+00 -0.7679330669862E-01
 0.3083715868126E+00 -0.4478502624152E+00
 0.2840917159414E+00 -0.3575382501821E+00
 0.2422281737234E+00 -0.2629984219472E+00
 0.1867971958474E+00 -0.1657455658920E+00
 0.1175173409013E+00 -0.7679330650692E-01
-0.3654019132619E+00 -0.5409252100079E+00
-0.3902387508820E+00 -0.5280765784806E+00
-0.3917321970076E+00 -0.5050064681399E+00
-0.3738885453486E+00 -0.4785802515297E+00
-0.3430219696930E+00 -0.4528433468894E+00
 0.3654019051878E+00 -0.5409252074476E+00
 0.3902387417074E+00 -0.5280765756641E+00
 0.3917321867508E+00 -0.5050064649901E+00
 0.3738885340232E+00 -0.4785802480446E+00
 0.3430219573766E+00 -0.4528433431618E+00
-0.6715500905128E-03 -0.1500107670594E-02
-0.1081006519789E-02 -0.2955169774257E-02
-0.1264392306812E-02 -0.4329784294871E-02
-0.1332654114744E-02 -0.5713746769700E-02
-0.1319294432286E-02 -0.7130855906678E-02
-0.1252782664358E-02 -0.8605753804364E-02
-0.1160080976108E-02 -0.1016665805095E-01
-0.1079604876212E-02 -0.1185244179146E-01
-0.1074464720597E-02 -0.1371667362383E-01
-0.1294924987446E-02 -0.1581697097034E-01
-0.1914229354372E-02 -0.1827437109308E-01
-0.3964764648433E-02 -0.2084103365541E-01
-0.5498697288111E-03 -0.1419340006032E-02
-0.9394418411817E-03 -0.2879607593465E-02
-0.1126477203256E-02 -0.4306302977615E-02
-0.1189274690897E-02 -0.5725167598174E-02
-0.1170023906379E-02 -0.7168149450951E-02
-0.1095522720844E-02 -0.8656004428851E-02
-0.9936832437520E-03 -0.1021221088363E-01
-0.9035747703639E-03 -0.1186456241479E-01
-0.9005684409101E-03 -0.1363723314836E-01
-0.1123749144017E-02 -0.1555830805353E-01
-0.1878283925601E-02 -0.1754489462165E-01
-0.4181632376192E-02 -0.1942329714811E-01
-0.4566532262118E-03 -0.1382059105568E-02
-0.8059605304803E-03 -0.2830173031881E-02
-0.9880402138073E-03 -0.4280272063384E-02
-0.1047033017561E-02 -0.5724674769852E-02
-0.1023135564561E-02 -0.7182904345061E-02
-0.9436750598559E-03 -0.8671984385022E-02
-0.8368106888750E-03 -0.1020796516113E-01
-0.7456825459912E-03 -0.1180457748023E-01
-0.7513318467577E-03 -0.1346692720521E-01
-0.1012614693263E-02 -0.1516790422211E-01
-0.1911993023997E-02 -0.1678860253677E-01
-0.4138669711441E-02 -0.1834942447812E-01
-0.3807647861828E-03 -0.1363341923238E-02
-0.6844902673530E-03 -0.2798745941509E-02
-0.8532490099881E-03 -0.4256351080494E-02
-0.9077981173998E-03 -0.5714772719624E-02
-0.8811163955191E-03 -0.7179314051671E-02
-0.7999976130898E-03 -0.8659724867349E-02
-0.6934633689975E-03 -0.1016355802936E-01
-0.6080147139484E-03 -0.1169273934417E-01
-0.6316479491193E-03 -0.1323370218798E-01
-0.9451815136734E-03 -0.1473434224626E-01
-0.1912601572338E-02 -0.1612931495148E-01
-0.3916414931226E-02 -0.1754616509744E-01
-0.3162035484899E-03 -0.1353499833748E-02
-0.5745427517029E-03 -0.2778246198470E-02
-0.7246993335538E-03 -0.4235364881141E-02
-0.7734363163518E-03 -0.5698533008153E-02
-0.7457218270016E-03 -0.7161798021799E-02
-0.6665164496121E-03 -0.8626147290513E-02
-0.5653356076383E-03 -0.1009078134089E-01
-0.4910881432042E-03 -0.1154782278211E-01
-0.5378490619302E-03 -0.1297257236651E-01
-0.8899437414959E-03 -0.1431967816086E-01
-0.1844872516615E-02 -0.1558737707534E-01
-0.3576447977884E-02 -0.1693741826436E-01
-0.2595462964611E-03 -0.1348138648098E-02
-0.4745897973016E-03 -0.2764263498447E-02
-0.6034359910926E-03 -0.4217023034036E-02
-0.6452533078099E-03 -0.5678635428263E-02
-0.6180797682181E-03 -0.7134977034331E-02
-0.5441793256371E-03 -0.8578683103308E-02
-0.4525977537020E-03 -0.1000140671717E-01
-0.3930882322552E-03 -0.1138841092034E-01
-0.4603770784641E-03 -0.1271367982982E-01
-0.8242248381660E-03 -0.1395375232455E-01
-0.1705219224986E-02 -0.1515155164144E-01
-0.3159286565144E-02 -0.1647288537129E-01
-0.2087143281860E-03 -0.1345026080869E-02
-0.3832076217854E-03 -0.2754134461212E-02
-0.4899383430221E-03 -0.4200885683210E-02
-0.5244747046004E-03 -0.5657252735379E-02
-0.4994241608508E-03 -0.7103345691909E-02
-0.4338558755271E-03 -0.8524795135450E-02
-0.3550993172884E-03 -0.9907181818057E-02
-0.3111110554806E-03 -0.1123241474964E-01
-0.3905905623869E-03 -0.1248017414229E-01
-0.7373181639830E-03 -0.1365023201717E-01
-0.1507781549183E-02 -0.1481285629018E-01
-0.2691927124595E-02 -0.1611334810885E-01
-0.1622194205572E-03 -0.1343176747375E-02
-0.2986035733995E-03 -0.2746663091836E-02
-0.3831343951277E-03 -0.4187137286410E-02
-0.4102752675741E-03 -0.5636651549995E-02
-0.3885856422073E-03 -0.7071258920162E-02
-0.3336647596547E-03 -0.8471091206433E-02
-0.2697216328940E-03 -0.9817274953723E-02
-0.2398371225744E-03 -0.1109113629487E-01
-0.3206248141682E-03 -0.1228095057536E-01
-0.6260206345299E-03 -0.1340593226364E-01
-0.1259961800438E-02 -0.1455018531610E-01
-0.2198423373409E-02 -0.1583605999116E-01
-0.1189671809386E-03 -0.1342035866466E-02
-0.2193362078076E-03 -0.2741159913116E-02
-0.2820514498241E-03 -0.4175964652963E-02
-0.3019848687486E-03 -0.5618599805553E-02
-0.2847190158524E-03 -0.7042314988326E-02
-0.2421806473158E-03 -0.8423223404552E-02
-0.1940492349699E-03 -0.9739534443056E-02
-0.1755053531353E-03 -0.1097366022735E-01
-0.2469111916011E-03 -0.1212241402980E-01
-0.4914759657409E-03 -0.1321942147781E-01
-0.9760324595905E-03 -0.1435308546104E-01
-0.1675104294847E-02 -0.1563508527137E-01
-0.7804849636745E-04 -0.1341332401826E-02
-0.1440333948357E-03 -0.2737318185233E-02
-0.1854569479430E-03 -0.4167666365368E-02
-0.1984952425210E-03 -0.5604573726205E-02
-0.1864960081923E-03 -0.7019452862862E-02
-0.1575365378435E-03 -0.8385731173979E-02
-0.1255131544092E-03 -0.9679928915313E-02
-0.1152796909970E-03 -0.1088606869212E-01
-0.1682259260160E-03 -0.1200786751888E-01
-0.3383997015257E-03 -0.1308804149569E-01
-0.6653630690158E-03 -0.1421666546985E-01
-0.1129250349659E-02 -0.1549837094549E-01
-0.3864899976239E-04 -0.1340942742433E-02
-0.7136060426810E-04 -0.2735028557227E-02
-0.9194473494405E-04 -0.4162542489189E-02
-0.9837874863568E-04 -0.5595691401687E-02
-0.9223007090724E-04 -0.7004845779069E-02
-0.7757947051863E-04 -0.8361910033002E-02
-0.6161920575084E-04 -0.9642571661864E-02
-0.5719667867224E-04 -0.1083216570330E-01
-0.8530413868687E-04 -0.1193873840489E-01
-0.1724773022937E-03 -0.1301001340802E-01
-0.3370632064418E-03 -0.1413657140539E-01
-0.5683668329060E-03 -0.1541897734497E-01
-0.1181030972456E-11 -0.1340817130593E-02
-0.4937764214576E-11 -0.2734265977465E-02
-0.1110773717063E-10 -0.4160808590794E-02
-0.1964553439115E-10 -0.5592651383241E-02
-0.3055122881134E-10 -0.6999827055195E-02
-0.4379234288917E-10 -0.8353748267957E-02
-0.5919749521342E-10 -0.9629858156314E-02
-0.7626838421954E-10 -0.1081398501179E-01
-0.9392112181347E-10 -0.1191564029294E-01
-0.1103689837075E-09 -0.1298414298952E-01
-0.1236881728843E-09 -0.1411016737536E-01
-0.1334991690955E-09 -0.1539294168805E-01
 0.3864899737021E-04 -0.1340942740755E-02
 0.7136059434778E-04 -0.2735028553823E-02
 0.9194471268764E-04 -0.4162542484078E-02
 0.9837870932398E-04 -0.5595691394963E-02
 0.9223000981906E-04 -0.7004845770915E-02
 0.7757938299274E-04 -0.8361910023711E-02
 0.6161908745047E-04 -0.9642571651839E-02
 0.5719652621610E-04 -0.1083216569296E-01
 0.8530395081196E-04 -0.1193873839443E-01
 0.1724770813219E-03 -0.1301001339727E-01
 0.3370629586995E-03 -0.1413657139389E-01
 0.5683665656845E-03 -0.1541897733249E-01
 0.7804849388371E-04 -0.1341332398468E-02
 0.1440333847793E-03 -0.2737318178418E-02
 0.1854569255619E-03 -0.4167666355132E-02
 0.1984952031449E-03 -0.5604573712731E-02
 0.1864959471435E-03 -0.7019452846505E-02
 0.1575364504908E-03 -0.8385731155316E-02
 0.1255130363945E-03 -0.9679928895148E-02
 0.1152795387965E-03 -0.1088606867132E-01
 0.1682257380691E-03 -0.1200786749793E-01
 0.3383994798713E-03 -0.1308804147428E-01
 0.6653628201619E-03 -0.1421666544705E-01
 0.1129250081743E-02 -0.1549837092082E-01
 0.1189671782982E-03 -0.1342035861423E-02
 0.2193361975193E-03 -0.2741159902877E-02
 0.2820514272292E-03 -0.4175964637578E-02
 0.3019848292566E-03 -0.5618599785281E-02
 0.2847189548576E-03 -0.7042314963673E-02
 0.2421805602409E-03 -0.8423223376356E-02
 0.1940491174353E-03 -0.9739534412518E-02
 0.1755052014044E-03 -0.1097366019584E-01
 0.2469110036218E-03 -0.1212241399824E-01
 0.4914757430181E-03 -0.1321942144591E-01
 0.9760322088417E-03 -0.1435308542738E-01
 0.1675104025682E-02 -0.1563508523511E-01
 0.1622194176883E-03 -0.1343176740639E-02
 0.2986035627749E-03 -0.2746663078153E-02
 0.3831343722208E-03 -0.4187137265838E-02
 0.4102752279026E-03 -0.5636651522854E-02
 0.3885855812641E-03 -0.7071258887081E-02
 0.3336646729437E-03 -0.8471091168471E-02
 0.2697215160330E-03 -0.9817274912457E-02
 0.2398369715845E-03 -0.1109113625225E-01
 0.3206246263289E-03 -0.1228095053296E-01
 0.6260204104791E-03 -0.1340593222141E-01
 0.1259961546969E-02 -0.1455018527225E-01
 0.2198423102279E-02 -0.1583605994430E-01
 0.2087143250068E-03 -0.1345026072427E-02
 0.3832076107091E-03 -0.2754134444056E-02
 0.4899383196930E-03 -0.4200885657405E-02
 0.5244746646691E-03 -0.5657252701283E-02
 0.4994240999334E-03 -0.7103345650235E-02
 0.4338557892378E-03 -0.8524795087426E-02
 0.3550992012811E-03 -0.9907181765588E-02
 0.3111109055599E-03 -0.1123241469528E-01
 0.3905903750549E-03 -0.1248017408856E-01
 0.7373179385448E-03 -0.1365023196475E-01
 0.1507781292186E-02 -0.1481285623692E-01
 0.2691926850490E-02 -0.1611334805303E-01
 0.2595462928744E-03 -0.1348138637929E-02
 0.4745897856436E-03 -0.2764263477783E-02
 0.6034359672160E-03 -0.4217023002943E-02
 0.6452532675185E-03 -0.5678635387114E-02
 0.6180797072716E-03 -0.7134976983879E-02
 0.5441792397891E-03 -0.8578683044883E-02
 0.4525976386924E-03 -0.1000140665292E-01
 0.3930880837649E-03 -0.1138841085339E-01
 0.4603768922306E-03 -0.1271367976390E-01
 0.8242246116777E-03 -0.1395375226180E-01
 0.1705218963548E-02 -0.1515155157983E-01
 0.3159286287227E-02 -0.1647288530821E-01
 0.3162035443319E-03 -0.1353499821935E-02
 0.5745427390423E-03 -0.2778246174429E-02
 0.7246993084500E-03 -0.4235364844914E-02
 0.7734362747947E-03 -0.5698532960081E-02
 0.7457217649431E-03 -0.7161797962562E-02
 0.6665163630115E-03 -0.8626147221305E-02
 0.5653354924383E-03 -0.1009078126367E-01
 0.4910879952090E-03 -0.1154782269991E-01
 0.5378488765281E-03 -0.1297257228366E-01
 0.8899435141050E-03 -0.1431967808140E-01
 0.1844872248512E-02 -0.1558737699869E-01
 0.3576447687531E-02 -0.1693741818716E-01
 0.3807647813037E-03 -0.1363341909762E-02
 0.6844902534776E-03 -0.2798745914062E-02
 0.8532489834431E-03 -0.4256351039133E-02
 0.9077980743677E-03 -0.5714772664685E-02
 0.8811163321186E-03 -0.7179313983755E-02
 0.7999975254575E-03 -0.8659724787456E-02
 0.6934632532805E-03 -0.1016355793912E-01
 0.6080145661821E-03 -0.1169273924620E-01
 0.6316477648693E-03 -0.1323370208654E-01
 0.9451812872276E-03 -0.1473434214714E-01
 0.1912601300040E-02 -0.1612931485706E-01
 0.3916414628902E-02 -0.1754616500414E-01
 0.4566532204094E-03 -0.1382059090362E-02
 0.8059605151392E-03 -0.2830173000937E-02
 0.9880401856024E-03 -0.4280272016866E-02
 0.1047032972853E-02 -0.5724674708139E-02
 0.1023135499593E-02 -0.7182904268681E-02
 0.9436749708972E-03 -0.8671984294763E-02
 0.8368105722528E-03 -0.1020796505822E-01
 0.7456823979812E-03 -0.1180457736668E-01
 0.7513316633913E-03 -0.1346692708437E-01
 0.1012614469207E-02 -0.1516790410016E-01
 0.1911992751244E-02 -0.1678860242026E-01
 0.4138669398238E-02 -0.1834942436521E-01
 0.5498697217898E-03 -0.1419339988922E-02
 0.9394418240888E-03 -0.2879607558828E-02
 0.1126477173194E-02 -0.4306302925893E-02
 0.1189274644339E-02 -0.5725167529820E-02
 0.1170023839645E-02 -0.7168149366427E-02
 0.1095522630291E-02 -0.8656004328761E-02
 0.9936831258276E-03 -0.1021221076881E-01
 0.9035746215677E-03 -0.1186456228655E-01
 0.9005682576101E-03 -0.1363723300889E-01
 0.1123748922338E-02 -0.1555830790688E-01
 0.1878283656775E-02 -0.1754489447681E-01
 0.4181632055382E-02 -0.1942329700909E-01
 0.6715500818003E-03 -0.1500107651135E-02
 0.1081006500675E-02 -0.2955169735571E-02
 0.1264392274755E-02 -0.4329784237927E-02
 0.1332654066196E-02 -0.5713746694882E-02
 0.1319294363635E-02 -0.7130855814424E-02
 0.1252782572008E-02 -0.8605753695159E-02
 0.1160080856565E-02 -0.1016665792536E-01
 0.1079604726099E-02 -0.1185244165018E-01
 0.1074464536580E-02 -0.1371667346798E-01
 0.1294924766183E-02 -0.1581697080120E-01
 0.1914229091536E-02 -0.1827437091475E-01
 0.3964764327577E-02 -0.2084103347703E-01
-0.1001483212124E+00 -0.7512297666070E-01
-0.1603077959754E+00 -0.1649738197177E+00
-0.2094796013608E+00 -0.2685899666278E+00
-0.2476628842737E+00 -0.3743321447258E+00
-0.2715458750883E+00 -0.4789263574462E+00
-0.8176623361529E-01 -0.7319124396238E-01
-0.1315853499895E+00 -0.1655388837843E+00
-0.1728519074172E+00 -0.2751223155306E+00
-0.2060588498275E+00 -0.3913764702230E+00
-0.2288940502382E+00 -0.5102614881227E+00
-0.6235616145106E-01 -0.7178745183497E-01
-0.1007548210331E+00 -0.1664363841564E+00
-0.1329081846584E+00 -0.2814875993904E+00
-0.1597069522998E+00 -0.4072187638548E+00
-0.1798271667206E+00 -0.5402688004758E+00
-0.4208796262828E-01 -0.7083166672666E-01
-0.6819291137020E-01 -0.1673264664727E+00
-0.9025023758602E-01 -0.2867079941566E+00
-0.1091794075628E+00 -0.4202784763502E+00
-0.1244525678065E+00 -0.5657805615106E+00
-0.2120408974067E-01 -0.7027665475191E-01
-0.3441150187602E-01 -0.1679511922107E+00
-0.4563854945411E-01 -0.2901214544374E+00
-0.5546168633999E-01 -0.4289208161817E+00
-0.6380052063618E-01 -0.5833107346627E+00
 0.7555213718159E-10 -0.7009422243989E-01
-0.5830306108207E-09 -0.1681739329009E+00
-0.1463832399461E-08 -0.2913068763580E+00
-0.2243986830361E-08 -0.4319485509052E+00
-0.2902949555560E-08 -0.5896470263795E+00
 0.2120408987695E-01 -0.7027665472321E-01
 0.3441150069412E-01 -0.1679511920822E+00
 0.4563854651518E-01 -0.2901214542363E+00
 0.5546168184349E-01 -0.4289208159169E+00
 0.6380051483292E-01 -0.5833107343398E+00
 0.4208796272095E-01 -0.7083166666980E-01
 0.6819291014165E-01 -0.1673264662186E+00
 0.9025023461443E-01 -0.2867079937581E+00
 0.1091794030422E+00 -0.4202784758253E+00
 0.1244525619966E+00 -0.5657805608471E+00
 0.6235616147392E-01 -0.7178745175121E-01
 0.1007548197295E+00 -0.1664363837822E+00
 0.1329081816360E+00 -0.2814875987998E+00
 0.1597069477423E+00 -0.4072187630748E+00
 0.1798271608852E+00 -0.5402687994806E+00
 0.8176623354632E-01 -0.7319124385388E-01
 0.1315853485865E+00 -0.1655388832974E+00
 0.1728519043298E+00 -0.2751223147532E+00
 0.2060588452247E+00 -0.3913764691883E+00
 0.2288940443631E+00 -0.5102614868015E+00
 0.1001483210352E+00 -0.7512297652977E-01
 0.1603077944534E+00 -0.1649738191275E+00
 0.2094795981987E+00 -0.2685899656684E+00
 0.2476628796189E+00 -0.3743321434328E+00
 0.2715458691628E+00 -0.4789263557808E+00
-0.2943416268149E+00 -0.1728653961713E+00
-0.3861245794302E+00 -0.3179001300499E+00
-0.4428236550074E+00 -0.4006255517949E+00
-0.4576792718374E+00 -0.4315149826874E+00
-0.4228566493578E+00 -0.4335150868220E+00
-0.2586171749088E+00 -0.1440550983951E+00
-0.3576684568774E+00 -0.2813319609095E+00
-0.4229139598501E+00 -0.3744521163390E+00
-0.4500065596475E+00 -0.4239095480396E+00
-0.4335753245592E+00 -0.4474499709591E+00
-0.2225486177616E+00 -0.1225126087613E+00
-0.3217734189237E+00 -0.2485886321672E+00
-0.3926658711633E+00 -0.3461842264258E+00
-0.4294573256085E+00 -0.4128311295816E+00
-0.4294550802931E+00 -0.4579154489016E+00
-0.1867718179272E+00 -0.1049076901256E+00
-0.2802964048250E+00 -0.2193218501261E+00
-0.3517298885651E+00 -0.3182467764754E+00
-0.3948782789594E+00 -0.3979524780296E+00
-0.4074319307006E+00 -0.4636886334259E+00
-0.1516248192661E+00 -0.8970737590268E-01
-0.2347508333793E+00 -0.1923471105220E+00
-0.3011049310599E+00 -0.2909575657011E+00
-0.3462429336058E+00 -0.3795423855766E+00
-0.3663415542773E+00 -0.4609705611861E+00
 0.1516248187478E+00 -0.8970737563808E-01
 0.2347508313768E+00 -0.1923471097935E+00
 0.3011049274058E+00 -0.2909575642907E+00
 0.3462429283219E+00 -0.3795423835866E+00
 0.3663415475058E+00 -0.4609705588194E+00
 0.1867718171616E+00 -0.1049076898004E+00
 0.2802964024111E+00 -0.2193218492346E+00
 0.3517298844322E+00 -0.3182467746296E+00
 0.3948782730458E+00 -0.3979524753995E+00
 0.4074319230941E+00 -0.4636886303302E+00
 0.2225486167152E+00 -0.1225126083259E+00
 0.3217734160510E+00 -0.2485886310076E+00
 0.3926658665089E+00 -0.3461842239825E+00
 0.4294573190227E+00 -0.4128311261047E+00
 0.4294550717767E+00 -0.4579154448864E+00
 0.2586171735397E+00 -0.1440550977725E+00
 0.3576684535158E+00 -0.2813319593259E+00
 0.4229139546736E+00 -0.3744521131234E+00
 0.4500065523703E+00 -0.4239095436065E+00
 0.4335753150966E+00 -0.4474499659932E+00
 0.2943416250640E+00 -0.1728653952261E+00
 0.3861245755977E+00 -0.3179001278037E+00
 0.4428236493523E+00 -0.4006255476832E+00
 0.4576792638678E+00 -0.4315149773002E+00
 0.4228566389567E+00 -0.4335150809668E+00
-0.3354050820120E+00 -0.5901990086992E+00
-0.3654284364154E+00 -0.5832284925909E+00
-0.3692227951085E+00 -0.5629369822170E+00
-0.3492452392714E+00 -0.5367428417659E+00
-0.3143552145735E+00 -0.5105889817306E+00
-0.2935576851386E+00 -0.6497705913513E+00
-0.3294736412656E+00 -0.6519225803930E+00
-0.3433715147431E+00 -0.6380422046094E+00
-0.3329467642165E+00 -0.6140204178057E+00
-0.3038486527459E+00 -0.5868659703540E+00
-0.2402286204816E+00 -0.7136041267990E+00
-0.2782190606263E+00 -0.7321612759309E+00
-0.3021922912247E+00 -0.7335524972362E+00
-0.3070502540030E+00 -0.7201132172073E+00
-0.2909638987926E+00 -0.6971408551827E+00
-0.1730811645987E+00 -0.7762224591530E+00
-0.2058539982617E+00 -0.8199048940687E+00
-0.2315718700159E+00 -0.8510748555707E+00
-0.2450058832957E+00 -0.8687618927183E+00
-0.2394315776660E+00 -0.8743610663639E+00
-0.9104352061890E-01 -0.8275700175722E+00
-0.1097699455981E+00 -0.8995497946051E+00
-0.1255763283990E+00 -0.9683387881668E+00
-0.1350533157355E+00 -0.1032018636162E+01
-0.1319861499477E+00 -0.1088434720508E+01
-0.4312551101096E-08 -0.8483771106053E+00
-0.5133537788417E-08 -0.9333069419601E+00
-0.5914160218984E-08 -0.1019797833211E+01
-0.6578207437651E-08 -0.1105835826344E+01
-0.6969164137777E-08 -0.1187620457310E+01
 0.9104351204714E-01 -0.8275700177142E+00
 0.1097699354119E+00 -0.8995497955684E+00
 0.1255763166946E+00 -0.9683387904068E+00
 0.1350533027338E+00 -0.1032018640149E+01
 0.1319861360418E+00 -0.1088434726608E+01
 0.1730811562110E+00 -0.7762224588279E+00
 0.2058539884311E+00 -0.8199048945948E+00
 0.2315718589446E+00 -0.8510748574235E+00
 0.2450058712477E+00 -0.8687618963174E+00
 0.2394315648230E+00 -0.8743610719767E+00
 0.2402286122035E+00 -0.7136041258092E+00
 0.2782190511151E+00 -0.7321612754186E+00
 0.3021922808498E+00 -0.7335524974411E+00
 0.3070502431493E+00 -0.7201132181986E+00
 0.2909638875956E+00 -0.6971408568790E+00
 0.2935576768341E+00 -0.6497705898182E+00
 0.3294736318454E+00 -0.6519225790392E+00
 0.3433715046237E+00 -0.6380422035121E+00
 0.3329467537019E+00 -0.6140204169164E+00
 0.3038486419064E+00 -0.5868659695590E+00
 0.3354050737163E+00 -0.5901990066332E+00
 0.3654284270629E+00 -0.5832284904742E+00
 0.3692227849745E+00 -0.5629369800636E+00
 0.3492452284949E+00 -0.5367428395561E+00
 0.3143552032067E+00 -0.5105889794375E+00
</DataArray>
</PointData>
   <DataArray type="Float64" Name="Load" NumberOfComponents="1"    ComponentName0="Load" format="ascii">
 0.3258892872265E+01
 0.3044501121968E+01
 0.2911673700515E+01
 0.2951362524235E+01
 0.3034611481105E+01
 0.3170675784149E+01
 0.3370137995341E+01
 0.3658617262837E+01
 0.4091707598501E+01
 0.4663069083081E+01
 0.5642332638841E+01
 0.5635428620539E+01
 0.1112120259360E+02
 0.2896260446285E+01
 0.3094716733109E+01
 0.3010470191738E+01
 0.3009484659698E+01
 0.3072506312173E+01
 0.3180883845405E+01
 0.3343396358007E+01
 0.3575291900335E+01
 0.3876166870370E+01
 0.4261562246905E+01
 0.4489685625000E+01
 0.4102394873742E+01
 0.7211959190646E+01
 0.2728330729488E+01
 0.3013403136102E+01
 0.3048034880523E+01
 0.3043540262584E+01
 0.3084492594783E+01
 0.3161407941704E+01
 0.3276564933358E+01
 0.3429169447926E+01
 0.3602636202137E+01
 0.3740394831176E+01
 0.3525276090443E+01
 0.3457045737999E+01
 0.6050723374642E+01
 0.2636438285919E+01
 0.2929190748831E+01
 0.3034200436995E+01
 0.3051248970984E+01
 0.3074234286745E+01
 0.3117216648762E+01
 0.3178539808954E+01
 0.3248634363868E+01
 0.3299139039270E+01
 0.3232268860507E+01
 0.2960992554570E+01
 0.3328317114829E+01
 0.5520849417635E+01
 0.2580415516240E+01
 0.2858691553841E+01
 0.2997608747378E+01
 0.3035439978666E+01
 0.3045982754084E+01
 0.3054763542049E+01
 0.3061830352029E+01
 0.3055214310074E+01
 0.3001611588853E+01
 0.2841902412364E+01
 0.2701845246683E+01
 0.3378265220961E+01
 0.5200885265401E+01
 0.2543373662056E+01
 0.2801720860933E+01
 0.2953391342454E+01
 0.3004312026015E+01
 0.3004676101159E+01
 0.2981465339539E+01
 0.2938434109619E+01
 0.2866359437763E+01
 0.2744806115052E+01
 0.2582700788928E+01
 0.2619290102132E+01
 0.3472321585995E+01
 0.4971564258276E+01
 0.2517342442298E+01
 0.2755953119241E+01
 0.2909090518931E+01
 0.2965721289356E+01
 0.2956394467963E+01
 0.2904934864294E+01
 0.2818966962829E+01
 0.2697338403984E+01
 0.2544123968149E+01
 0.2428579686677E+01
 0.2621812805771E+01
 0.3562873564200E+01
 0.4824106425433E+01
 0.2498411717477E+01
 0.2719493321915E+01
 0.2868645253220E+01
 0.2925799910012E+01
 0.2906992280047E+01
 0.2831692683369E+01
 0.2711422497140E+01
 0.2556515155583E+01
 0.2398076127096E+01
 0.2344531270111E+01
 0.2663560476641E+01
 0.3607904683287E+01
 0.4900424935569E+01
 0.2484514917165E+01
 0.2691086265091E+01
 0.2834245051482E+01
 0.2889034378181E+01
 0.2861405321764E+01
 0.2766918628167E+01
 0.2620954335536E+01
 0.2446163458622E+01
 0.2296562761247E+01
 0.2304119453443E+01
 0.2707796539559E+01
 0.3662590743485E+01
 0.4941928960298E+01
 0.2474616075732E+01
 0.2670082543814E+01
 0.2807341190269E+01
 0.2858769646292E+01
 0.2823714427163E+01
 0.2714871031541E+01
 0.2551152256830E+01
 0.2365922536043E+01
 0.2230230795622E+01
 0.2287105681380E+01
 0.2747372773533E+01
 0.3711365994674E+01
 0.4969874797876E+01
 0.2468204012722E+01
 0.2656173899726E+01
 0.2788899433958E+01
 0.2837353095006E+01
 0.2796942076031E+01
 0.2678594186766E+01
 0.2503931394306E+01
 0.2314042834173E+01
 0.2190768859176E+01
 0.2281402791254E+01
 0.2777015846597E+01
 0.3746151688670E+01
 0.4988575060430E+01
 0.2465042946553E+01
 0.2649238018523E+01
 0.2779529369371E+01
 0.2826280404580E+01
 0.2783068234413E+01
 0.2659999491109E+01
 0.2480167026257E+01
 0.2288664099739E+01
 0.2172452431584E+01
 0.2280168264118E+01
 0.2792758491572E+01
 0.3764092213078E+01
 0.4998095922899E+01
 0.2465042945099E+01
 0.2649238016953E+01
 0.2779529367766E+01
 0.2826280403033E+01
 0.2783068233027E+01
 0.2659999489990E+01
 0.2480167025477E+01
 0.2288664099223E+01
 0.2172452430976E+01
 0.2280168262833E+01
 0.2792758489409E+01
 0.3764092210972E+01
 0.4998095921904E+01
 0.2468204008356E+01
 0.2656173895006E+01
 0.2788899429129E+01
 0.2837353090350E+01
 0.2796942071848E+01
 0.2678594183380E+01
 0.2503931391949E+01
 0.2314042832657E+01
 0.2190768857469E+01
 0.2281402787574E+01
 0.2777015840200E+01
 0.3746151682325E+01
 0.4988575057510E+01
 0.2474616068432E+01
 0.2670082535911E+01
 0.2807341182179E+01
 0.2858769638477E+01
 0.2823714420111E+01
 0.2714871025797E+01
 0.2551152252832E+01
 0.2365922533603E+01
 0.2230230793162E+01
 0.2287105675849E+01
 0.2747372763218E+01
 0.3711365984020E+01
 0.4969874793228E+01
 0.2484514906896E+01
 0.2691086253949E+01
 0.2834245040068E+01
 0.2889034367126E+01
 0.2861405311726E+01
 0.2766918619910E+01
 0.2620954329762E+01
 0.2446163455337E+01
 0.2296562758573E+01
 0.2304119447012E+01
 0.2707796526017E+01
 0.3662590728463E+01
 0.4941928954210E+01
 0.2498411704183E+01
 0.2719493307455E+01
 0.2868645238396E+01
 0.2925799895606E+01
 0.2906992266864E+01
 0.2831692672377E+01
 0.2711422489354E+01
 0.2556515151436E+01
 0.2398076124869E+01
 0.2344531264199E+01
 0.2663560461109E+01
 0.3607904664205E+01
 0.4900424928066E+01
 0.2517342425898E+01
 0.2755953101355E+01
 0.2909090500589E+01
 0.2965721271464E+01
 0.2956394451439E+01
 0.2904934850286E+01
 0.2818966952671E+01
 0.2697338398750E+01
 0.2544123966943E+01
 0.2428579683293E+01
 0.2621812790149E+01
 0.3562873542335E+01
 0.4824106416559E+01
 0.2543373642394E+01
 0.2801720839414E+01
 0.2953391320371E+01
 0.3004312004382E+01
 0.3004676080923E+01
 0.2981465321873E+01
 0.2938434095995E+01
 0.2866359429820E+01
 0.2744806113434E+01
 0.2582700788681E+01
 0.2619290089545E+01
 0.3472321561700E+01
 0.4971564252388E+01
 0.2580415493165E+01
 0.2858691528442E+01
 0.2997608721341E+01
 0.3035439953098E+01
 0.3045982729845E+01
 0.3054763520139E+01
 0.3061830333798E+01
 0.3055214297357E+01
 0.3001611583876E+01
 0.2841902413970E+01
 0.2701845240486E+01
 0.3378265197368E+01
 0.5200885259821E+01
 0.2636438259156E+01
 0.2929190719262E+01
 0.3034200406906E+01
 0.3051248941513E+01
 0.3074234258541E+01
 0.3117216622538E+01
 0.3178539785787E+01
 0.3248634345421E+01
 0.3299139028303E+01
 0.3232268860556E+01
 0.2960992556029E+01
 0.3328317095346E+01
 0.5520849415315E+01
 0.2728330698551E+01
 0.3013403102004E+01
 0.3048034846427E+01
 0.3043540229398E+01
 0.3084492562788E+01
 0.3161407911310E+01
 0.3276564905255E+01
 0.3429169423380E+01
 0.3602636183254E+01
 0.3740394823549E+01
 0.3525276095776E+01
 0.3457045727633E+01
 0.6050723378677E+01
 0.2896260410214E+01
 0.3094716694204E+01
 0.3010470154074E+01
 0.3009484623108E+01
 0.3072506276667E+01
 0.3180883811182E+01
 0.3343396325379E+01
 0.3575291869951E+01
 0.3876166843519E+01
 0.4261562226424E+01
 0.4489685621753E+01
 0.4102394870173E+01
 0.7211959205706E+01
 0.3258892828649E+01
 0.3044501079558E+01
 0.2911673659976E+01
 0.2951362484548E+01
 0.3034611442440E+01
 0.3170675746573E+01
 0.3370137958952E+01
 0.3658617227715E+01
 0.4091707565059E+01
 0.4663069051065E+01
 0.5642332613187E+01
 0.5635428600656E+01
 0.1112120257551E+02
 0.1235831153703E+01
 0.2004652831974E+01
 0.2330648661711E+01
 0.2423336998822E+01
 0.2382031556326E+01
 0.2252635178105E+01
 0.1174358410494E+01
 0.2039378304575E+01
 0.2479181892012E+01
 0.2664782060951E+01
 0.2685677493991E+01
 0.2581973556992E+01
 0.1124872764402E+01
 0.2086714656684E+01
 0.2608106876068E+01
 0.2876688650852E+01
 0.2986463064684E+01
 0.2984511299048E+01
 0.1089413731201E+01
 0.2127694517640E+01
 0.2714245918917E+01
 0.3055350111284E+01
 0.3264346347301E+01
 0.3400494799537E+01
 0.1066517911449E+01
 0.2157495914996E+01
 0.2789973981762E+01
 0.3187846817683E+01
 0.3485758982884E+01
 0.3766574239988E+01
 0.1055269183029E+01
 0.2173101774981E+01
 0.2829522935312E+01
 0.3258898865231E+01
 0.3612390125115E+01
 0.3991806241086E+01
 0.1055269183212E+01
 0.2173101773998E+01
 0.2829522934175E+01
 0.3258898864170E+01
 0.3612390124348E+01
 0.3991806241589E+01
 0.1066517912003E+01
 0.2157495912088E+01
 0.2789973978404E+01
 0.3187846814568E+01
 0.3485758980295E+01
 0.3766574240024E+01
 0.1089413732148E+01
 0.2127694512921E+01
 0.2714245913487E+01
 0.3055350106281E+01
 0.3264346342724E+01
 0.3400494797275E+01
 0.1124872765786E+01
 0.2086714650344E+01
 0.2608106868773E+01
 0.2876688644177E+01
 0.2986463058358E+01
 0.2984511294481E+01
 0.1174358412385E+01
 0.2039378296873E+01
 0.2479181883121E+01
 0.2664782052761E+01
 0.2685677486001E+01
 0.2581973550441E+01
 0.1235831155545E+01
 0.2004652823679E+01
 0.2330648651500E+01
 0.2423336988949E+01
 0.2382031546837E+01
 0.2252635169715E+01
 0.1750437868956E+01
 0.1361522482615E+01
 0.5176552871899E+00
 0.7449339868056E-01
 0.5104921765473E-01
 0.3548393689957E-01
 0.1667530672734E+01
 0.1718373171953E+01
 0.9284597299204E+00
 0.4792122708559E+00
 0.2432952040170E+00
 0.1967261310939E+00
 0.1563588367596E+01
 0.1883675037839E+01
 0.1332414181235E+01
 0.8992398344306E+00
 0.6229333101675E+00
 0.4513128406929E+00
 0.1465757420895E+01
 0.1976170018055E+01
 0.1676717159741E+01
 0.1341778551010E+01
 0.1073063642137E+01
 0.8336055731724E+00
 0.1372945882633E+01
 0.2029142083167E+01
 0.1956677902041E+01
 0.1754328241490E+01
 0.1553483863290E+01
 0.1334174867325E+01
 0.1285534726052E+01
 0.2036320555703E+01
 0.2179031931744E+01
 0.2131128827255E+01
 0.1998612674343E+01
 0.1875172848281E+01
 0.1285534725714E+01
 0.2036320547066E+01
 0.2179031918439E+01
 0.2131128815183E+01
 0.1998612664761E+01
 0.1875172837964E+01
 0.1372945879523E+01
 0.2029142073395E+01
 0.1956677886831E+01
 0.1754328228841E+01
 0.1553483853589E+01
 0.1334174856693E+01
 0.1465757414663E+01
 0.1976170006531E+01
 0.1676717143187E+01
 0.1341778538582E+01
 0.1073063632742E+01
 0.8336055655139E+00
 0.1563588357487E+01
 0.1883675024320E+01
 0.1332414164221E+01
 0.8992398237537E+00
 0.6229333028832E+00
 0.4513128385894E+00
 0.1667530657515E+01
 0.1718373156416E+01
 0.9284597145478E+00
 0.4792122635001E+00
 0.2432951999654E+00
 0.1967261356977E+00
 0.1750437847189E+01
 0.1361522469273E+01
 0.5176552749567E+00
 0.7449339461949E-01
 0.5104921728626E-01
 0.3548394544103E-01
 0.1868989359199E+01
 0.1237669073417E+01
 0.7700046477802E+00
 0.4937566609237E+00
 0.3742366057206E+00
 0.3022268426871E+00
 0.2284445905536E+01
 0.1734722531158E+01
 0.1180866322948E+01
 0.7757909217340E+00
 0.5632417085614E+00
 0.4436294844864E+00
 0.2772926551012E+01
 0.2338565487935E+01
 0.1829386776934E+01
 0.1347164914238E+01
 0.1015318374541E+01
 0.8103248276209E+00
 0.3332281711342E+01
 0.3075953040662E+01
 0.2738074892213E+01
 0.2361962304222E+01
 0.2069814650195E+01
 0.2080448313277E+01
 0.3895570809179E+01
 0.3855760910915E+01
 0.3744723295708E+01
 0.3558681063106E+01
 0.3331886153785E+01
 0.3214358340750E+01
 0.4240574715690E+01
 0.4304270174199E+01
 0.4292229379122E+01
 0.4164985425136E+01
 0.3854012625990E+01
 0.3219906998652E+01
 0.4240574717486E+01
 0.4304270176445E+01
 0.4292229381836E+01
 0.4164985427607E+01
 0.3854012624966E+01
 0.3219906980962E+01
 0.3895570814570E+01
 0.3855760921461E+01
 0.3744723312214E+01
 0.3558681084841E+01
 0.3331886175161E+01
 0.3214358344980E+01
 0.3332281713412E+01
 0.3075953049734E+01
 0.2738074911115E+01
 0.2361962333695E+01
 0.2069814688823E+01
 0.2080448366307E+01
 0.2772926548714E+01
 0.2338565491816E+01
 0.1829386788818E+01
 0.1347164932217E+01
 0.1015318397285E+01
 0.8103248609223E+00
 0.2284445901199E+01
 0.1734722533348E+01
 0.1180866330295E+01
 0.7757909315656E+00
 0.5632417192920E+00
 0.4436294931835E+00
 0.1868989354260E+01
 0.1237669072558E+01
 0.7700046489552E+00
 0.4937566648328E+00
 0.3742366127930E+00
 0.3022268493404E+00
</DataArray>
<CellData Tensors="'E_Centroid','S_Centroid'">
<DataArray type="Float64" Name="E_Centroid" NumberOfComponents="4" ComponentName0="E11" ComponentName1="E22" ComponentName2="E33" ComponentName3="E12" format="ascii">
 0.9600309086267E-03 -0.7297012284574E-02  0.0000000000000E+00 -0.2211580254094E-02
 0.1689072824751E-02 -0.6314349017640E-02  0.0000000000000E+00  0.1003354947601E-04
 0.1504665569402E-02 -0.6113114492657E-02  0.0000000000000E+00  0.9258720138332E-05
 0.1547875905829E-02 -0.6181331639360E-02  0.0000000000000E+00  0.8728200129036E-04
 0.1586553266941E-02 -0.6359010400581E-02  0.0000000000000E+00  0.1335701845901E-03
 0.1657458845063E-02 -0.6644286575491E-02  0.0000000000000E+00  0.1941201059240E-03
 0.1760278863487E-02 -0.7063232993559E-02  0.0000000000000E+00  0.2816922419086E-03
 0.1903412019021E-02 -0.7672859706322E-02  0.0000000000000E+00  0.4152110271502E-03
 0.2129123205113E-02 -0.8580875434440E-02  0.0000000000000E+00  0.6681574607236E-03
 0.2308748977559E-02 -0.9856934593111E-02  0.0000000000000E+00  0.1226029270864E-02
 0.3116018422380E-02 -0.1171198356283E-01  0.0000000000000E+00  0.2347903683018E-02
 0.5357567074219E-03 -0.1324918957975E-01  0.0000000000000E+00  0.5680676821796E-02
 0.1344739200844E-01 -0.1729253074194E-01  0.0000000000000E+00  0.7333378582751E-02
 0.6896504102292E-03 -0.6580493308324E-02  0.0000000000000E+00 -0.2250611577238E-02
 0.1487588418540E-02 -0.6570944032658E-02  0.0000000000000E+00 -0.7623817849160E-03
 0.1565511974032E-02 -0.6314029251360E-02  0.0000000000000E+00  0.2541489447380E-05
 0.1556484930114E-02 -0.6317624237296E-02  0.0000000000000E+00  0.1858134565004E-03
 0.1593769848732E-02 -0.6446803565823E-02  0.0000000000000E+00  0.3521434091326E-03
 0.1643916963252E-02 -0.6678238848549E-02  0.0000000000000E+00  0.5291388218919E-03
 0.1717804587850E-02 -0.7026138244910E-02  0.0000000000000E+00  0.7726090089422E-03
 0.1820840844243E-02 -0.7524141003635E-02  0.0000000000000E+00  0.1129815359551E-02
 0.1914059670871E-02 -0.8196897138720E-02  0.0000000000000E+00  0.1698102807549E-02
 0.2065483449051E-02 -0.9037372065701E-02  0.0000000000000E+00  0.2481453953506E-02
 0.1729155421266E-02 -0.9806103256802E-02  0.0000000000000E+00  0.4271950050676E-02
 0.1105934414066E-02 -0.9246085298078E-02  0.0000000000000E+00  0.3804964705712E-02
 0.1003187255330E-01 -0.9954445088257E-02  0.0000000000000E+00  0.1044661484123E-02
 0.5276572475922E-03 -0.6268200597272E-02  0.0000000000000E+00 -0.1995130258011E-02
 0.1279004772409E-02 -0.6507340097534E-02  0.0000000000000E+00 -0.1013218386975E-02
 0.1518847872877E-02 -0.6436630671852E-02  0.0000000000000E+00 -0.1391858212460E-03
 0.1547937975052E-02 -0.6406461870346E-02  0.0000000000000E+00  0.2550716010916E-03
 0.1570626989409E-02 -0.6491432558636E-02  0.0000000000000E+00  0.5172463789156E-03
 0.1598397884565E-02 -0.6660838888679E-02  0.0000000000000E+00  0.8018123221200E-03
 0.1633686016791E-02 -0.6918592255254E-02  0.0000000000000E+00  0.1170161816641E-02
 0.1666806466498E-02 -0.7269024017875E-02  0.0000000000000E+00  0.1686310782910E-02
 0.1677961798859E-02 -0.7684357773121E-02  0.0000000000000E+00  0.2366184760093E-02
 0.1594373751726E-02 -0.8072935320325E-02  0.0000000000000E+00  0.3293600652158E-02
 0.1075103053017E-02 -0.7871724741064E-02  0.0000000000000E+00  0.3959795364686E-02
 0.1991528404436E-02 -0.7119904165455E-02  0.0000000000000E+00  0.1169927916322E-02
 0.8824854747857E-02 -0.7935539033135E-02  0.0000000000000E+00 -0.6347776308637E-03
 0.4281305441047E-03 -0.6102514162184E-02  0.0000000000000E+00 -0.1712431470321E-02
 0.1109461455800E-02 -0.6409358181351E-02  0.0000000000000E+00 -0.1030445001809E-02
 0.1426863165744E-02 -0.6463040446907E-02  0.0000000000000E+00 -0.2301773333719E-03
 0.1507087544227E-02 -0.6452204519812E-02  0.0000000000000E+00  0.2781339726488E-03
 0.1524923316548E-02 -0.6496548996094E-02  0.0000000000000E+00  0.6337301066599E-03
 0.1526537430001E-02 -0.6600318127263E-02  0.0000000000000E+00  0.9989833610498E-03
 0.1516337241083E-02 -0.6756449503093E-02  0.0000000000000E+00  0.1454952815334E-02
 0.1485420644099E-02 -0.6947154810700E-02  0.0000000000000E+00  0.2040277855121E-02
 0.1409626023061E-02 -0.7118446549180E-02  0.0000000000000E+00  0.2738905950801E-02
 0.1201810196665E-02 -0.7086402397152E-02  0.0000000000000E+00  0.3383940070151E-02
 0.1020142201513E-02 -0.6541180536982E-02  0.0000000000000E+00  0.2833435314187E-02
 0.2794935094224E-02 -0.6214941784129E-02  0.0000000000000E+00 -0.3792946425188E-03
 0.8148881705076E-02 -0.7139849987842E-02  0.0000000000000E+00 -0.1068009392439E-02
 0.3624900745723E-03 -0.6003790589275E-02  0.0000000000000E+00 -0.1445707571691E-02
 0.9763413743892E-03 -0.6320387500726E-02  0.0000000000000E+00 -0.9479259567306E-03
 0.1323036416480E-02 -0.6440916056373E-02  0.0000000000000E+00 -0.2602959568142E-03
 0.1442251460666E-02 -0.6456058500539E-02  0.0000000000000E+00  0.2806593037381E-03
 0.1460641651402E-02 -0.6469765128230E-02  0.0000000000000E+00  0.6980676961831E-03
 0.1436077150124E-02 -0.6507137173434E-02  0.0000000000000E+00  0.1116321451812E-02
 0.1381853397564E-02 -0.6559365609910E-02  0.0000000000000E+00  0.1613489450197E-02
 0.1295734896546E-02 -0.6598274296341E-02  0.0000000000000E+00  0.2204161087183E-02
 0.1162138959440E-02 -0.6552147642148E-02  0.0000000000000E+00  0.2801356401603E-02
 0.9957365086724E-03 -0.6267964992671E-02  0.0000000000000E+00  0.3001566085921E-02
 0.1258326296281E-02 -0.5763041133105E-02  0.0000000000000E+00  0.1750096085066E-02
 0.3418389160100E-02 -0.5838849881351E-02  0.0000000000000E+00 -0.1095592006141E-02
 0.7656338495861E-02 -0.6747217121094E-02  0.0000000000000E+00 -0.1170891357353E-02
 0.3163625666036E-03 -0.5939763767172E-02  0.0000000000000E+00 -0.1201601504519E-02
 0.8715705299115E-03 -0.6245846196060E-02  0.0000000000000E+00 -0.8250820212685E-03
 0.1222250853514E-02 -0.6397533147946E-02  0.0000000000000E+00 -0.2493432080885E-03
 0.1365015239771E-02 -0.6430275311054E-02  0.0000000000000E+00  0.2733198513982E-03
 0.1384061579773E-02 -0.6418877198523E-02  0.0000000000000E+00  0.7136105045656E-03
 0.1335886211255E-02 -0.6393429081523E-02  0.0000000000000E+00  0.1152358594096E-02
 0.1243374320216E-02 -0.6347863095638E-02  0.0000000000000E+00  0.1649728189724E-02
 0.1116854700895E-02 -0.6252500011832E-02  0.0000000000000E+00  0.2191917949928E-02
 0.9755799867384E-03 -0.6045340656770E-02  0.0000000000000E+00  0.2616563872191E-02
 0.9485361746242E-03 -0.5669540773489E-02  0.0000000000000E+00  0.2438494924836E-02
 0.1594323628266E-02 -0.5335628725574E-02  0.0000000000000E+00  0.9551149934433E-03
 0.3874343616678E-02 -0.5691099001753E-02  0.0000000000000E+00 -0.1337010837488E-02
 0.7276228991145E-02 -0.6493969605027E-02  0.0000000000000E+00 -0.1178675139555E-02
 0.2823426492410E-03 -0.5895500512588E-02  0.0000000000000E+00 -0.9791158438840E-03
 0.7886729321642E-03 -0.6184591670146E-02  0.0000000000000E+00 -0.6893088789886E-03
 0.1131155867795E-02 -0.6347173840383E-02  0.0000000000000E+00 -0.2163608109216E-03
 0.1285170129669E-02 -0.6387589149790E-02  0.0000000000000E+00  0.2575051279421E-03
 0.1302991341692E-02 -0.6353545766850E-02  0.0000000000000E+00  0.6850263584351E-03
 0.1234858009318E-02 -0.6271906865584E-02  0.0000000000000E+00  0.1111883517878E-02
 0.1112302475737E-02 -0.6140441785253E-02  0.0000000000000E+00  0.1575191614508E-02
 0.9647966571185E-03 -0.5937066624835E-02  0.0000000000000E+00  0.2033085671105E-02
 0.8571031390124E-03 -0.5632060232134E-02  0.0000000000000E+00  0.2280752357456E-02
 0.1001728377757E-02 -0.5262804894110E-02  0.0000000000000E+00  0.1876359047724E-02
 0.1917885789511E-02 -0.5110238559794E-02  0.0000000000000E+00  0.4348945314800E-03
 0.4218272712508E-02 -0.5622128982222E-02  0.0000000000000E+00 -0.1269229338335E-02
 0.6989793388681E-02 -0.6374441079998E-02  0.0000000000000E+00 -0.1380267482445E-02
 0.2568859011446E-03 -0.5863616745198E-02  0.0000000000000E+00 -0.7753426819216E-03
 0.7234396032380E-03 -0.6134924377638E-02  0.0000000000000E+00 -0.5529701115608E-03
 0.1052837921031E-02 -0.6297686318646E-02  0.0000000000000E+00 -0.1743387006805E-03
 0.1209900148771E-02 -0.6338353456409E-02  0.0000000000000E+00  0.2319328446390E-03
 0.1224611279089E-02 -0.6283397759147E-02  0.0000000000000E+00  0.6176599148645E-03
 0.1140369928020E-02 -0.6153737420982E-02  0.0000000000000E+00  0.1004193974343E-02
 0.9968710494491E-03 -0.5951457743498E-02  0.0000000000000E+00  0.1407426835793E-02
 0.8456816589381E-03 -0.5668928272554E-02  0.0000000000000E+00  0.1766556855119E-02
 0.7953266388545E-03 -0.5316356447692E-02  0.0000000000000E+00  0.1874673900750E-02
 0.1097866881881E-02 -0.4997032588376E-02  0.0000000000000E+00  0.1384183870672E-02
 0.2207981142571E-02 -0.4995865826681E-02  0.0000000000000E+00  0.1385361356953E-03
 0.4404577935294E-02 -0.5571227174653E-02  0.0000000000000E+00 -0.1117881036187E-02
 0.7181492901504E-02 -0.6391297842347E-02  0.0000000000000E+00 -0.1395544056573E-02
 0.2378408107348E-03 -0.5840356797464E-02  0.0000000000000E+00 -0.5869650994793E-03
 0.6731313068023E-03 -0.6095679346467E-02  0.0000000000000E+00 -0.4211184609036E-03
 0.9887365476732E-03 -0.6253710232491E-02  0.0000000000000E+00 -0.1308848593584E-03
 0.1144253214700E-02 -0.6290377803648E-02  0.0000000000000E+00  0.1955506837557E-03
 0.1154781639207E-02 -0.6216773481573E-02  0.0000000000000E+00  0.5170228088535E-03
 0.1058178197336E-02 -0.6047979038326E-02  0.0000000000000E+00  0.8400822648542E-03
 0.9017621291342E-03 -0.5790743113180E-02  0.0000000000000E+00  0.1165463213893E-02
 0.7586495246151E-03 -0.5454588211261E-02  0.0000000000000E+00  0.1427187051167E-02
 0.7705764230543E-03 -0.5085914042751E-02  0.0000000000000E+00  0.1446086630523E-02
 0.1205979948552E-02 -0.4827374305374E-02  0.0000000000000E+00  0.9749672347797E-03
 0.2429003905289E-02 -0.4934336061551E-02  0.0000000000000E+00 -0.5520854320609E-05
 0.4585086436145E-02 -0.5549692806186E-02  0.0000000000000E+00 -0.9493490308276E-03
 0.7252511146589E-02 -0.6434825109133E-02  0.0000000000000E+00 -0.1177664809352E-02
 0.2241395184611E-03 -0.5823835873668E-02  0.0000000000000E+00 -0.4106211234571E-03
 0.6362478747829E-03 -0.6066341164734E-02  0.0000000000000E+00 -0.2952328703955E-03
 0.9398614489290E-03 -0.6218342851393E-02  0.0000000000000E+00 -0.8977006103804E-04
 0.1092005594903E-02 -0.6249555389996E-02  0.0000000000000E+00  0.1486572959458E-03
 0.1098334671900E-02 -0.6160662600540E-02  0.0000000000000E+00  0.3893784155278E-03
 0.9929231671028E-03 -0.5962237997181E-02  0.0000000000000E+00  0.6316535151795E-03
 0.8297566412172E-03 -0.5665572687964E-02  0.0000000000000E+00  0.8687195617539E-03
 0.6995610494462E-03 -0.5296021112412E-02  0.0000000000000E+00  0.1043102741788E-02
 0.7671613398271E-03 -0.4927580324195E-02  0.0000000000000E+00  0.1019725637776E-02
 0.1299760386670E-02 -0.4722519378915E-02  0.0000000000000E+00  0.6421714595524E-03
 0.2595164946591E-02 -0.4901260048807E-02  0.0000000000000E+00 -0.6324058244096E-04
 0.4721194370975E-02 -0.5552831366352E-02  0.0000000000000E+00 -0.7180047434909E-03
 0.7300022085198E-02 -0.6464447647374E-02  0.0000000000000E+00 -0.8855695928095E-03
 0.2152255206248E-03 -0.5813143736507E-02  0.0000000000000E+00 -0.2429081387524E-03
 0.6119793892661E-03 -0.6046758331786E-02  0.0000000000000E+00 -0.1747171955568E-03
 0.9069005110442E-03 -0.6193669325436E-02  0.0000000000000E+00 -0.5204822996663E-04
 0.1055788721603E-02 -0.6220089112481E-02  0.0000000000000E+00  0.9303805758154E-04
 0.1058801199638E-02 -0.6120337944229E-02  0.0000000000000E+00  0.2417922051717E-03
 0.9478217927397E-03 -0.5902095570084E-02  0.0000000000000E+00  0.3915809417273E-03
 0.7817620673841E-03 -0.5580295518181E-02  0.0000000000000E+00  0.5351767291301E-03
 0.6636527505640E-03 -0.5192057107950E-02  0.0000000000000E+00  0.6338654701467E-03
 0.7717753939972E-03 -0.4829302519340E-02  0.0000000000000E+00  0.6050130953357E-03
 0.1367688409217E-02 -0.4661874825513E-02  0.0000000000000E+00  0.3634800584840E-03
 0.2705980379417E-02 -0.4886266084150E-02  0.0000000000000E+00 -0.6093806180360E-04
 0.4811614853442E-02 -0.5561005645729E-02  0.0000000000000E+00 -0.4462879773152E-03
 0.7329974432446E-02 -0.6486184250951E-02  0.0000000000000E+00 -0.5475149426551E-03
 0.2108243340567E-03 -0.5807872922857E-02  0.0000000000000E+00 -0.8039098238717E-04
 0.5999253946361E-03 -0.6036945769377E-02  0.0000000000000E+00 -0.5781692523472E-04
 0.8903059256707E-03 -0.6181009560648E-02  0.0000000000000E+00 -0.1701550561791E-04
 0.1037273485611E-02 -0.6204690331297E-02  0.0000000000000E+00  0.3167896887393E-04
 0.1038473834398E-02 -0.6099303674659E-02  0.0000000000000E+00  0.8197153976977E-04
 0.9248175883892E-03 -0.5871150626032E-02  0.0000000000000E+00  0.1326182986129E-03
 0.7578436076117E-03 -0.5537185954663E-02  0.0000000000000E+00  0.1806536995353E-03
 0.6468207595197E-03 -0.5140745684127E-02  0.0000000000000E+00  0.2124776435259E-03
 0.7760973190329E-03 -0.4782334339581E-02  0.0000000000000E+00  0.2003916032532E-03
 0.1403139683530E-02 -0.4634215305823E-02  0.0000000000000E+00  0.1175153885899E-03
 0.2761390712353E-02 -0.4880786990584E-02  0.0000000000000E+00 -0.2407610863370E-04
 0.4856575564788E-02 -0.5566722113101E-02  0.0000000000000E+00 -0.1512839141691E-03
 0.7344749301295E-02 -0.6497745310911E-02  0.0000000000000E+00 -0.1850817257642E-03
 0.2108243338964E-03 -0.5807872919452E-02  0.0000000000000E+00  0.8039097987899E-04
 0.5999253942049E-03 -0.6036945765843E-02  0.0000000000000E+00  0.5781691631800E-04
 0.8903059251043E-03 -0.6181009557109E-02  0.0000000000000E+00  0.1701549216142E-04
 0.1037273485050E-02 -0.6204690327899E-02  0.0000000000000E+00 -0.3167898656027E-04
 0.1038473833964E-02 -0.6099303671569E-02  0.0000000000000E+00 -0.8197156256813E-04
 0.9248175881791E-03 -0.5871150623454E-02  0.0000000000000E+00 -0.1326183282594E-03
 0.7578436076161E-03 -0.5537185952779E-02  0.0000000000000E+00 -0.1806537379550E-03
 0.6468207594568E-03 -0.5140745682920E-02  0.0000000000000E+00 -0.2124776909086E-03
 0.7760973182253E-03 -0.4782334338604E-02  0.0000000000000E+00 -0.2003916544971E-03
 0.1403139681221E-02 -0.4634215304270E-02  0.0000000000000E+00 -0.1175154305969E-03
 0.2761390708754E-02 -0.4880786988017E-02  0.0000000000000E+00  0.2407609206119E-04
 0.4856575561853E-02 -0.5566722110195E-02  0.0000000000000E+00  0.1512839254049E-03
 0.7344749300978E-02 -0.6497745308422E-02  0.0000000000000E+00  0.1850817399882E-03
 0.2152255201372E-03 -0.5813143726280E-02  0.0000000000000E+00  0.2429081360104E-03
 0.6119793879571E-03 -0.6046758321167E-02  0.0000000000000E+00  0.1747171865564E-03
 0.9069005093262E-03 -0.6193669314802E-02  0.0000000000000E+00  0.5204821663261E-04
 0.1055788719895E-02 -0.6220089102260E-02  0.0000000000000E+00 -0.9303807491129E-04
 0.1058801198308E-02 -0.6120337934918E-02  0.0000000000000E+00 -0.2417922273168E-03
 0.9478217920792E-03 -0.5902095562296E-02  0.0000000000000E+00 -0.3915809703677E-03
 0.7817620673946E-03 -0.5580295512484E-02  0.0000000000000E+00 -0.5351767662978E-03
 0.6636527504529E-03 -0.5192057104357E-02  0.0000000000000E+00 -0.6338655165419E-03
 0.7717753917554E-03 -0.4829302516581E-02  0.0000000000000E+00 -0.6050131467734E-03
 0.1367688402469E-02 -0.4661874821135E-02  0.0000000000000E+00 -0.3634801023792E-03
 0.2705980368602E-02 -0.4886266076674E-02  0.0000000000000E+00  0.6093804282048E-04
 0.4811614844471E-02 -0.5561005637093E-02  0.0000000000000E+00  0.4462879876831E-03
 0.7329974431576E-02 -0.6486184243593E-02  0.0000000000000E+00  0.5475149566015E-03
 0.2241395176255E-03 -0.5823835856580E-02  0.0000000000000E+00  0.4106211202380E-03
 0.6362478725485E-03 -0.6066341146980E-02  0.0000000000000E+00  0.2952328612266E-03
 0.9398614460036E-03 -0.6218342833605E-02  0.0000000000000E+00  0.8977004794675E-04
 0.1092005591983E-02 -0.6249555372872E-02  0.0000000000000E+00 -0.1486573125739E-03
 0.1098334669587E-02 -0.6160662584888E-02  0.0000000000000E+00 -0.3893784363875E-03
 0.9929231658990E-03 -0.5962237984016E-02  0.0000000000000E+00 -0.6316535418224E-03
 0.8297566412138E-03 -0.5665572678304E-02  0.0000000000000E+00 -0.8687195963639E-03
 0.6995610495010E-03 -0.5296021106492E-02  0.0000000000000E+00 -0.1043102786004E-02
 0.7671613366925E-03 -0.4927580320152E-02  0.0000000000000E+00 -0.1019725689286E-02
 0.1299760376058E-02 -0.4722519372584E-02  0.0000000000000E+00 -0.6421715070758E-03
 0.2595164928546E-02 -0.4901260037162E-02  0.0000000000000E+00  0.6324055835702E-04
 0.4721194355452E-02 -0.5552831352279E-02  0.0000000000000E+00  0.7180047517802E-03
 0.7300022083999E-02 -0.6464447635467E-02  0.0000000000000E+00  0.8855696062563E-03
 0.2378408095142E-03 -0.5840356773450E-02  0.0000000000000E+00  0.5869650955207E-03
 0.6731313035610E-03 -0.6095679321493E-02  0.0000000000000E+00  0.4211184514809E-03
 0.9887365434480E-03 -0.6253710207454E-02  0.0000000000000E+00  0.1308848466267E-03
 0.1144253210458E-02 -0.6290377779492E-02  0.0000000000000E+00 -0.1955506993591E-03
 0.1154781635766E-02 -0.6216773459382E-02  0.0000000000000E+00 -0.5170228278371E-03
 0.1058178195426E-02 -0.6047979019502E-02  0.0000000000000E+00 -0.8400822885455E-03
 0.9017621290429E-03 -0.5790743099268E-02  0.0000000000000E+00 -0.1165463244564E-02
 0.7586495251287E-03 -0.5454588203019E-02  0.0000000000000E+00 -0.1427187091616E-02
 0.7705764199141E-03 -0.5085914038189E-02  0.0000000000000E+00 -0.1446086681324E-02
 0.1205979935153E-02 -0.4827374298588E-02  0.0000000000000E+00 -0.9749672872583E-03
 0.2429003880162E-02 -0.4934336047209E-02  0.0000000000000E+00  0.5520821977398E-05
 0.4585086413153E-02 -0.5549692787352E-02  0.0000000000000E+00  0.9493490349663E-03
 0.7252511145366E-02 -0.6434825093182E-02  0.0000000000000E+00  0.1177664822143E-02
 0.2568858994815E-03 -0.5863616714156E-02  0.0000000000000E+00  0.7753426769304E-03
 0.7234395988696E-03 -0.6134924345322E-02  0.0000000000000E+00  0.5529701018028E-03
 0.1052837915378E-02 -0.6297686286233E-02  0.0000000000000E+00  0.1743386884222E-03
 0.1209900143058E-02 -0.6338353425047E-02  0.0000000000000E+00 -0.2319328589248E-03
 0.1224611274326E-02 -0.6283397730152E-02  0.0000000000000E+00 -0.6176599314412E-03
 0.1140369925162E-02 -0.6153737396110E-02  0.0000000000000E+00 -0.1004193994203E-02
 0.9968710490932E-03 -0.5951457724865E-02  0.0000000000000E+00 -0.1407426861103E-02
 0.8456816601571E-03 -0.5668928261793E-02  0.0000000000000E+00 -0.1766556889719E-02
 0.7953266369207E-03 -0.5316356443477E-02  0.0000000000000E+00 -0.1874673948895E-02
 0.1097866867373E-02 -0.4997032583387E-02  0.0000000000000E+00 -0.1384183928740E-02
 0.2207981111022E-02 -0.4995865811954E-02  0.0000000000000E+00 -0.1385361795369E-03
 0.4404577903524E-02 -0.5571227153026E-02  0.0000000000000E+00  0.1117881032080E-02
 0.7181492900303E-02 -0.6391297822379E-02  0.0000000000000E+00  0.1395544068698E-02
 0.2823426470497E-03 -0.5895500474370E-02  0.0000000000000E+00  0.9791158375256E-03
 0.7886729265033E-03 -0.6184591630330E-02  0.0000000000000E+00  0.6893088688298E-03
 0.1131155860552E-02 -0.6347173800435E-02  0.0000000000000E+00  0.2163607992474E-03
 0.1285170122300E-02 -0.6387589111009E-02  0.0000000000000E+00 -0.2575051406515E-03
 0.1302991335364E-02 -0.6353545730728E-02  0.0000000000000E+00 -0.6850263721486E-03
 0.1234858005199E-02 -0.6271906834175E-02  0.0000000000000E+00 -0.1111883533146E-02
 0.1112302474785E-02 -0.6140441761218E-02  0.0000000000000E+00 -0.1575191633100E-02
 0.9647966590828E-03 -0.5937066610965E-02  0.0000000000000E+00 -0.2033085697322E-02
 0.8571031395746E-03 -0.5632060228878E-02  0.0000000000000E+00 -0.2280752399385E-02
 0.1001728364946E-02 -0.5262804893973E-02  0.0000000000000E+00 -0.1876359110081E-02
 0.1917885752195E-02 -0.5110238548423E-02  0.0000000000000E+00 -0.4348945914315E-03
 0.4218272672543E-02 -0.5622128960520E-02  0.0000000000000E+00  0.1269229324016E-02
 0.6989793383239E-02 -0.6374441060625E-02  0.0000000000000E+00  0.1380267483037E-02
 0.3163625636047E-03 -0.5939763721551E-02  0.0000000000000E+00  0.1201601496349E-02
 0.8715705225930E-03 -0.6245846148459E-02  0.0000000000000E+00  0.8250820104745E-03
 0.1222250844283E-02 -0.6397533100168E-02  0.0000000000000E+00  0.2493431970261E-03
 0.1365015230325E-02 -0.6430275264506E-02  0.0000000000000E+00 -0.2733198623165E-03
 0.1384061571344E-02 -0.6418877154716E-02  0.0000000000000E+00 -0.7136105150597E-03
 0.1335886205084E-02 -0.6393429042522E-02  0.0000000000000E+00 -0.1152358604207E-02
 0.1243374317504E-02 -0.6347863064272E-02  0.0000000000000E+00 -0.1649728200427E-02
 0.1116854702242E-02 -0.6252499991739E-02  0.0000000000000E+00 -0.2191917964678E-02
 0.9755799897226E-03 -0.6045340651029E-02  0.0000000000000E+00 -0.2616563900814E-02
 0.9485361670648E-03 -0.5669540777546E-02  0.0000000000000E+00 -0.2438494982476E-02
 0.1594323590713E-02 -0.5335628720708E-02  0.0000000000000E+00 -0.9551150684915E-03
 0.3874343566824E-02 -0.5691098981972E-02  0.0000000000000E+00  0.1337010807171E-02
 0.7276228990167E-02 -0.6493969589404E-02  0.0000000000000E+00  0.1178675137548E-02
 0.3624900706981E-03 -0.6003790535933E-02  0.0000000000000E+00  0.1445707561124E-02
 0.9763413650430E-03 -0.6320387444980E-02  0.0000000000000E+00  0.9479259450705E-03
 0.1323036404868E-02 -0.6440916000505E-02  0.0000000000000E+00  0.2602959464640E-03
 0.1442251448751E-02 -0.6456058446007E-02  0.0000000000000E+00 -0.2806593127571E-03
 0.1460641640377E-02 -0.6469765076354E-02  0.0000000000000E+00 -0.6980677036605E-03
 0.1436077141103E-02 -0.6507137125931E-02  0.0000000000000E+00 -0.1116321457407E-02
 0.1381853391750E-02 -0.6559365569302E-02  0.0000000000000E+00 -0.1613489453914E-02
 0.1295734895125E-02 -0.6598274266356E-02  0.0000000000000E+00 -0.2204161090611E-02
 0.1162138962703E-02 -0.6552147628056E-02  0.0000000000000E+00 -0.2801356412038E-02
 0.9957365088341E-03 -0.6267964996457E-02  0.0000000000000E+00 -0.3001566125179E-02
 0.1258326266970E-02 -0.5763041137000E-02  0.0000000000000E+00 -0.1750096164613E-02
 0.3418389104886E-02 -0.5838849866888E-02  0.0000000000000E+00  0.1095591954524E-02
 0.7656338492542E-02 -0.6747217108749E-02  0.0000000000000E+00  0.1170891349192E-02
 0.4281305390479E-03 -0.6102514100627E-02  0.0000000000000E+00  0.1712431456764E-02
 0.1109461443926E-02 -0.6409358117069E-02  0.0000000000000E+00  0.1030444989551E-02
 0.1426863151488E-02 -0.6463040382883E-02  0.0000000000000E+00  0.2301773242694E-03
 0.1507087529779E-02 -0.6452204457419E-02  0.0000000000000E+00 -0.2781339795722E-03
 0.1524923302899E-02 -0.6496548936267E-02  0.0000000000000E+00 -0.6337301115441E-03
 0.1526537417975E-02 -0.6600318071200E-02  0.0000000000000E+00 -0.9989833633337E-03
 0.1516337231717E-02 -0.6756449452750E-02  0.0000000000000E+00 -0.1454952814152E-02
 0.1485420638657E-02 -0.6947154769323E-02  0.0000000000000E+00 -0.2040277850398E-02
 0.1409626023438E-02 -0.7118446522301E-02  0.0000000000000E+00 -0.2738905944974E-02
 0.1201810202594E-02 -0.7086402393611E-02  0.0000000000000E+00 -0.3383940081459E-02
 0.1020142187043E-02 -0.6541180549315E-02  0.0000000000000E+00 -0.2833435381829E-02
 0.2794935036240E-02 -0.6214941780023E-02  0.0000000000000E+00  0.3792945681495E-03
 0.8148881703620E-02 -0.7139849982785E-02  0.0000000000000E+00  0.1068009370880E-02
 0.5276572408228E-03 -0.6268200526638E-02  0.0000000000000E+00  0.1995130240805E-02
 0.1279004757329E-02 -0.6507340024286E-02  0.0000000000000E+00  0.1013218375015E-02
 0.1518847855845E-02 -0.6436630599879E-02  0.0000000000000E+00  0.1391858143300E-03
 0.1547937958200E-02 -0.6406461800475E-02  0.0000000000000E+00 -0.2550716057396E-03
 0.1570626973282E-02 -0.6491432491190E-02  0.0000000000000E+00 -0.5172463817332E-03
 0.1598397869636E-02 -0.6660838824353E-02  0.0000000000000E+00 -0.8018123224150E-03
 0.1633686003752E-02 -0.6918592195274E-02  0.0000000000000E+00 -0.1170161813093E-02
 0.1666806456488E-02 -0.7269023964587E-02  0.0000000000000E+00 -0.1686310774136E-02
 0.1677961793357E-02 -0.7684357730711E-02  0.0000000000000E+00 -0.2366184745458E-02
 0.1594373756395E-02 -0.8072935298837E-02  0.0000000000000E+00 -0.3293600635281E-02
 0.1075103056619E-02 -0.7871724751797E-02  0.0000000000000E+00 -0.3959795394158E-02
 0.1991528351847E-02 -0.7119904175994E-02  0.0000000000000E+00 -0.1169928003422E-02
 0.8824854748650E-02 -0.7935539043702E-02  0.0000000000000E+00  0.6347775878057E-03
 0.6896504007618E-03 -0.6580493226875E-02  0.0000000000000E+00  0.2250611555957E-02
 0.1487588399446E-02 -0.6570943950307E-02  0.0000000000000E+00  0.7623817757469E-03
 0.1565511954500E-02 -0.6314029172329E-02  0.0000000000000E+00 -0.2541493034160E-05
 0.1556484911188E-02 -0.6317624160485E-02  0.0000000000000E+00 -0.1858134590256E-03
 0.1593769830398E-02 -0.6446803491267E-02  0.0000000000000E+00 -0.3521434104404E-03
 0.1643916945759E-02 -0.6678238776569E-02  0.0000000000000E+00 -0.5291388214193E-03
 0.1717804571499E-02 -0.7026138176069E-02  0.0000000000000E+00 -0.7726090055611E-03
 0.1820840829712E-02 -0.7524140939068E-02  0.0000000000000E+00 -0.1129815351299E-02
 0.1914059659193E-02 -0.8196897080900E-02  0.0000000000000E+00 -0.1698102792947E-02
 0.2065483443132E-02 -0.9037372019647E-02  0.0000000000000E+00 -0.2481453927493E-02
 0.1729155433899E-02 -0.9806103241082E-02  0.0000000000000E+00 -0.4271950027129E-02
 0.1105934378657E-02 -0.9246085310174E-02  0.0000000000000E+00 -0.3804964760126E-02
 0.1003187255697E-01 -0.9954445126374E-02  0.0000000000000E+00 -0.1044661555466E-02
 0.9600308947259E-03 -0.7297012187535E-02  0.0000000000000E+00  0.2211580231422E-02
 0.1689072801490E-02 -0.6314348929499E-02  0.0000000000000E+00 -0.1003354981323E-04
 0.1504665548447E-02 -0.6113114407549E-02  0.0000000000000E+00 -0.9258721279271E-05
 0.1547875885075E-02 -0.6181331556198E-02  0.0000000000000E+00 -0.8728200197641E-04
 0.1586553246782E-02 -0.6359010319522E-02  0.0000000000000E+00 -0.1335701849471E-03
 0.1657458825501E-02 -0.6644286496695E-02  0.0000000000000E+00 -0.1941201056518E-03
 0.1760278844632E-02 -0.7063232917192E-02  0.0000000000000E+00 -0.2816922405246E-03
 0.1903412000950E-02 -0.7672859632530E-02  0.0000000000000E+00 -0.4152110238154E-03
 0.2129123188539E-02 -0.8580875363758E-02  0.0000000000000E+00 -0.6681574537319E-03
 0.2308748961334E-02 -0.9856934525681E-02  0.0000000000000E+00 -0.1226029259480E-02
 0.3116018418114E-02 -0.1171198350289E-01  0.0000000000000E+00 -0.2347903652849E-02
 0.5357566934009E-03 -0.1324918953943E-01  0.0000000000000E+00 -0.5680676799543E-02
 0.1344739197390E-01 -0.1729253072548E-01  0.0000000000000E+00 -0.7333378606537E-02
 0.1447441041191E+00 -0.2032395559817E+00  0.0000000000000E+00 -0.3242190038080E+00
 0.2567930060475E+00 -0.3095092608931E+00  0.0000000000000E+00 -0.1407427118384E+00
 0.3074836040053E+00 -0.3513735942799E+00  0.0000000000000E+00 -0.9225378081157E-01
 0.3231152997325E+00 -0.3620814657317E+00  0.0000000000000E+00 -0.1147652783248E+00
 0.3181681349511E+00 -0.3553700994355E+00  0.0000000000000E+00 -0.1795499526732E+00
 0.2990539394162E+00 -0.3378269359550E+00  0.0000000000000E+00 -0.2563820663339E+00
 0.1338897891330E+00 -0.1963736988900E+00  0.0000000000000E+00 -0.2669283350410E+00
 0.2616772159309E+00 -0.3144608242587E+00  0.0000000000000E+00 -0.1224712717718E+00
 0.3273236760243E+00 -0.3735333197558E+00  0.0000000000000E+00 -0.9123570412402E-01
 0.3558433714787E+00 -0.3976414759272E+00  0.0000000000000E+00 -0.1152911449744E+00
 0.3591392678984E+00 -0.4002720484794E+00  0.0000000000000E+00 -0.1846807905748E+00
 0.3438509639642E+00 -0.3861845402477E+00  0.0000000000000E+00 -0.2875885548183E+00
 0.1258825115293E+00 -0.1901736439927E+00  0.0000000000000E+00 -0.2114053996678E+00
 0.2676610298744E+00 -0.3218445034122E+00  0.0000000000000E+00 -0.1002965846452E+00
 0.3448987360659E+00 -0.3924284859226E+00  0.0000000000000E+00 -0.7930264479727E-01
 0.3847074230054E+00 -0.4287157590754E+00  0.0000000000000E+00 -0.1060657251781E+00
 0.4003624668758E+00 -0.4441347548115E+00  0.0000000000000E+00 -0.1788592256033E+00
 0.3987083655060E+00 -0.4451881920606E+00  0.0000000000000E+00 -0.2947962646138E+00
 0.1200788037117E+00 -0.1857751985638E+00  0.0000000000000E+00 -0.1531153750260E+00
 0.2729442049116E+00 -0.3281398969975E+00  0.0000000000000E+00 -0.7428602966956E-01
 0.3593872855967E+00 -0.4079649453892E+00  0.0000000000000E+00 -0.6097019216782E-01
 0.4093108774064E+00 -0.4546560890116E+00  0.0000000000000E+00 -0.8622634633483E-01
 0.4386673183214E+00 -0.4844433369646E+00  0.0000000000000E+00 -0.1530811678934E+00
 0.4557473452931E+00 -0.5058236381299E+00  0.0000000000000E+00 -0.2652524035336E+00
 0.1163049829249E+00 -0.1829510691445E+00  0.0000000000000E+00 -0.9274218965185E-01
 0.2768136366506E+00 -0.3326922631630E+00  0.0000000000000E+00 -0.4556782020536E-01
 0.3697885673726E+00 -0.4189883198284E+00  0.0000000000000E+00 -0.3832068286268E-01
 0.4276764174748E+00 -0.4737777884781E+00  0.0000000000000E+00 -0.5649324892165E-01
 0.4693852927016E+00 -0.5163684617896E+00  0.0000000000000E+00 -0.1051352120643E+00
 0.5062557287448E+00 -0.5588810141579E+00  0.0000000000000E+00 -0.1922738532752E+00
 0.1144409549721E+00 -0.1815699609861E+00  0.0000000000000E+00 -0.3105972894197E-01
 0.2788511439827E+00 -0.3350655953801E+00  0.0000000000000E+00 -0.1534862429168E-01
 0.3752404721239E+00 -0.4247261510174E+00  0.0000000000000E+00 -0.1306384342544E-01
 0.4375701056963E+00 -0.4839881113310E+00  0.0000000000000E+00 -0.1968670280254E-01
 0.4870928004846E+00 -0.5344917932539E+00  0.0000000000000E+00 -0.3785556811318E-01
 0.5373075178913E+00 -0.5915467169730E+00  0.0000000000000E+00 -0.7220785891186E-01
 0.1144409550194E+00 -0.1815699609938E+00  0.0000000000000E+00  0.3105973162071E-01
 0.2788511438549E+00 -0.3350655952301E+00  0.0000000000000E+00  0.1534862325529E-01
 0.3752404719693E+00 -0.4247261508504E+00  0.0000000000000E+00  0.1306384172841E-01
 0.4375701055506E+00 -0.4839881111764E+00  0.0000000000000E+00  0.1968670087902E-01
 0.4870928003847E+00 -0.5344917931370E+00  0.0000000000000E+00  0.3785556637559E-01
 0.5373075179668E+00 -0.5915467170400E+00  0.0000000000000E+00  0.7220785741315E-01
 0.1163049830669E+00 -0.1829510691690E+00  0.0000000000000E+00  0.9274219223701E-01
 0.2768136362727E+00 -0.3326922627190E+00  0.0000000000000E+00  0.4556781913018E-01
 0.3697885669160E+00 -0.4189883193351E+00  0.0000000000000E+00  0.3832068114493E-01
 0.4276764170475E+00 -0.4737777880243E+00  0.0000000000000E+00  0.5649324697628E-01
 0.4693852923498E+00 -0.5163684614092E+00  0.0000000000000E+00  0.1051352104377E+00
 0.5062557287750E+00 -0.5588810141385E+00  0.0000000000000E+00  0.1922738526449E+00
 0.1200788039495E+00 -0.1857751986098E+00  0.0000000000000E+00  0.1531153774279E+00
 0.2729442042988E+00 -0.3281398962765E+00  0.0000000000000E+00  0.7428602851709E-01
 0.3593872848592E+00 -0.4079649445906E+00  0.0000000000000E+00  0.6097019042272E-01
 0.4093108767187E+00 -0.4546560882842E+00  0.0000000000000E+00  0.8622634437443E-01
 0.4386673176889E+00 -0.4844433363024E+00  0.0000000000000E+00  0.1530811662861E+00
 0.4557473449973E+00 -0.5058236377865E+00  0.0000000000000E+00  0.2652524031455E+00
 0.1258825118654E+00 -0.1901736440684E+00  0.0000000000000E+00  0.2114054018060E+00
 0.2676610290520E+00 -0.3218445024430E+00  0.0000000000000E+00  0.1002965833777E+00
 0.3448987350764E+00 -0.3924284848486E+00  0.0000000000000E+00  0.7930264303108E-01
 0.3847074220883E+00 -0.4287157581041E+00  0.0000000000000E+00  0.1060657232403E+00
 0.4003624659954E+00 -0.4441347539019E+00  0.0000000000000E+00  0.1788592240403E+00
 0.3987083648689E+00 -0.4451881914055E+00  0.0000000000000E+00  0.2947962643782E+00
 0.1338897895734E+00 -0.1963736990081E+00  0.0000000000000E+00  0.2669283368538E+00
 0.2616772149322E+00 -0.3144608230808E+00  0.0000000000000E+00  0.1224712703556E+00
 0.3273236748202E+00 -0.3735333184450E+00  0.0000000000000E+00  0.9123570234325E-01
 0.3558433703550E+00 -0.3976414747339E+00  0.0000000000000E+00  0.1152911430937E+00
 0.3591392667861E+00 -0.4002720473309E+00  0.0000000000000E+00  0.1846807891714E+00
 0.3438509630267E+00 -0.3861845393303E+00  0.0000000000000E+00  0.2875885548611E+00
 0.1447441046241E+00 -0.2032395560263E+00  0.0000000000000E+00  0.3242190054725E+00
 0.2567930049439E+00 -0.3095092596509E+00  0.0000000000000E+00  0.1407427103904E+00
 0.3074836026309E+00 -0.3513735927668E+00  0.0000000000000E+00  0.9225377885246E-01
 0.3231152983982E+00 -0.3620814642737E+00  0.0000000000000E+00  0.1147652766370E+00
 0.3181681336086E+00 -0.3553700980923E+00  0.0000000000000E+00  0.1795499514931E+00
 0.2990539382349E+00 -0.3378269347616E+00  0.0000000000000E+00  0.2563820666795E+00
 0.1939090983388E+00 -0.2976566654337E+00  0.0000000000000E+00 -0.3074149436685E+00
 0.1844376898155E+00 -0.2006258333399E+00  0.0000000000000E+00  0.1662404433574E+00
 0.6412386147667E-01 -0.8195919327891E-01  0.0000000000000E+00  0.8564151984203E-01
 0.1091955304762E-01 -0.1015006776978E-01  0.0000000000000E+00  0.5654309208452E-01
-0.4389205508252E-02  0.9720835297252E-02  0.0000000000000E+00  0.5339317148512E-01
 0.8474415711210E-02 -0.4228643606392E-03  0.0000000000000E+00  0.7753416136805E-01
 0.1965812250711E+00 -0.2730931449520E+00  0.0000000000000E+00 -0.3980936253331E+00
 0.2221188639003E+00 -0.2634263609465E+00  0.0000000000000E+00  0.4383631789870E-01
 0.1228398721484E+00 -0.1396436693242E+00  0.0000000000000E+00  0.6132154744403E-01
 0.6289285308765E-01 -0.7256209182298E-01  0.0000000000000E+00  0.3046118981276E-01
 0.3344317244677E-01 -0.3537638733150E-01  0.0000000000000E+00  0.2430812324069E-01
 0.2836346725212E-01 -0.2728720726815E-01  0.0000000000000E+00  0.3318153101714E-01
 0.1862627943324E+00 -0.2543297712527E+00  0.0000000000000E+00 -0.4197317185069E+00
 0.2429844284897E+00 -0.2892407038055E+00  0.0000000000000E+00 -0.4272673191409E-01
 0.1753902703107E+00 -0.2012559434852E+00  0.0000000000000E+00  0.1474663154129E-01
 0.1189648913372E+00 -0.1352575566158E+00  0.0000000000000E+00 -0.1289275825814E-02
 0.8292747717075E-01 -0.9320151599980E-01  0.0000000000000E+00 -0.2525847668932E-01
 0.6019919847833E-01 -0.6741004771721E-01  0.0000000000000E+00 -0.3997482961896E-01
 0.1741116907269E+00 -0.2388647573759E+00  0.0000000000000E+00 -0.4159156310393E+00
 0.2550996238886E+00 -0.3032699225766E+00  0.0000000000000E+00 -0.1033712221851E+00
 0.2205599355844E+00 -0.2534068430416E+00  0.0000000000000E+00 -0.3979645273876E-01
 0.1779466301462E+00 -0.2014030570346E+00  0.0000000000000E+00 -0.4293779550041E-01
 0.1428011961069E+00 -0.1605963526265E+00  0.0000000000000E+00 -0.7723150734146E-01
 0.1099207473344E+00 -0.1257309085386E+00  0.0000000000000E+00 -0.1222378384933E+00
 0.1617599353440E+00 -0.2249324595002E+00  0.0000000000000E+00 -0.3959830679623E+00
 0.2618568109090E+00 -0.3114755373344E+00  0.0000000000000E+00 -0.1423716122381E+00
 0.2574918991586E+00 -0.2956176450874E+00  0.0000000000000E+00 -0.8671358490345E-01
 0.2328857051957E+00 -0.2631097555606E+00  0.0000000000000E+00 -0.8653069825731E-01
 0.2074970445672E+00 -0.2317627170959E+00  0.0000000000000E+00 -0.1201568576831E+00
 0.1768681879927E+00 -0.2003289369552E+00  0.0000000000000E+00 -0.1864833814973E+00
 0.1492984860431E+00 -0.2125436508485E+00  0.0000000000000E+00 -0.3659786469123E+00
 0.2628251004488E+00 -0.3125378680621E+00  0.0000000000000E+00 -0.1617054268900E+00
 0.2865832488816E+00 -0.3293732089355E+00  0.0000000000000E+00 -0.1138909985925E+00
 0.2830052131365E+00 -0.3195257917049E+00  0.0000000000000E+00 -0.1226013260478E+00
 0.2665467895199E+00 -0.2985617879159E+00  0.0000000000000E+00 -0.1538516939506E+00
 0.2519384515009E+00 -0.2783320995444E+00  0.0000000000000E+00 -0.2115988582739E+00
 0.1492984861153E+00 -0.2125436506936E+00  0.0000000000000E+00  0.3659786477512E+00
 0.2628250993995E+00 -0.3125378666746E+00  0.0000000000000E+00  0.1617054258109E+00
 0.2865832471118E+00 -0.3293732069433E+00  0.0000000000000E+00  0.1138909973276E+00
 0.2830052115130E+00 -0.3195257899144E+00  0.0000000000000E+00  0.1226013249799E+00
 0.2665467882534E+00 -0.2985617864737E+00  0.0000000000000E+00  0.1538516930985E+00
 0.2519384500213E+00 -0.2783320981035E+00  0.0000000000000E+00  0.2115988587444E+00
 0.1617599350313E+00 -0.2249324589422E+00  0.0000000000000E+00  0.3959830672262E+00
 0.2618568096825E+00 -0.3114755358019E+00  0.0000000000000E+00  0.1423716106035E+00
 0.2574918971489E+00 -0.2956176427971E+00  0.0000000000000E+00  0.8671358382172E-01
 0.2328857035079E+00 -0.2631097536718E+00  0.0000000000000E+00  0.8653069769225E-01
 0.2074970432663E+00 -0.2317627156536E+00  0.0000000000000E+00  0.1201568578501E+00
 0.1768681864806E+00 -0.2003289354572E+00  0.0000000000000E+00  0.1864833824867E+00
 0.1741116899310E+00 -0.2388647564104E+00  0.0000000000000E+00  0.4159156292046E+00
 0.2550996224248E+00 -0.3032699207859E+00  0.0000000000000E+00  0.1033712203333E+00
 0.2205599334045E+00 -0.2534068405423E+00  0.0000000000000E+00  0.3979645206448E-01
 0.1779466284856E+00 -0.2014030551811E+00  0.0000000000000E+00  0.4293779552373E-01
 0.1428011948459E+00 -0.1605963512307E+00  0.0000000000000E+00  0.7723150787073E-01
 0.1099207462524E+00 -0.1257309074525E+00  0.0000000000000E+00  0.1222378392273E+00
 0.1862627929359E+00 -0.2543297697820E+00  0.0000000000000E+00  0.4197317157780E+00
 0.2429844267734E+00 -0.2892407017035E+00  0.0000000000000E+00  0.4272673028129E-01
 0.1753902680748E+00 -0.2012559409119E+00  0.0000000000000E+00 -0.1474663139970E-01
 0.1189648899079E+00 -0.1352575550260E+00  0.0000000000000E+00  0.1289276228501E-02
 0.8292747620196E-01 -0.9320151490906E-01  0.0000000000000E+00  0.2525847703430E-01
 0.6019919819434E-01 -0.6741004740630E-01  0.0000000000000E+00  0.3997482969523E-01
 0.1965812229013E+00 -0.2730931427965E+00  0.0000000000000E+00  0.3980936219475E+00
 0.2221188619793E+00 -0.2634263584823E+00  0.0000000000000E+00 -0.4383631861627E-01
 0.1228398700929E+00 -0.1396436670328E+00  0.0000000000000E+00 -0.6132154619143E-01
 0.6289285211669E-01 -0.7256209071449E-01  0.0000000000000E+00 -0.3046118950419E-01
 0.3344317192910E-01 -0.3537638670385E-01  0.0000000000000E+00 -0.2430812342468E-01
 0.2836346792712E-01 -0.2728720789533E-01  0.0000000000000E+00 -0.3318153160511E-01
 0.1939090954144E+00 -0.2976566621780E+00  0.0000000000000E+00  0.3074149412257E+00
 0.1844376881576E+00 -0.2006258312286E+00  0.0000000000000E+00 -0.1662404416232E+00
 0.6412385979794E-01 -0.8195919149260E-01  0.0000000000000E+00 -0.8564151807895E-01
 0.1091955257321E-01 -0.1015006709258E-01  0.0000000000000E+00 -0.5654309227575E-01
-0.4389205448291E-02  0.9720835249040E-02  0.0000000000000E+00 -0.5339317223016E-01
 0.8474417111272E-02 -0.4228656550263E-03  0.0000000000000E+00 -0.7753416292341E-01
 0.2448323274359E+00 -0.2834378121901E+00  0.0000000000000E+00 -0.3149502948858E+00
 0.1624804132054E+00 -0.1873633415503E+00  0.0000000000000E+00 -0.2673590868881E+00
 0.1015213641630E+00 -0.1161504066492E+00  0.0000000000000E+00 -0.1803508869469E+00
 0.6749130249209E-01 -0.7216717302753E-01  0.0000000000000E+00 -0.7403761690906E-01
 0.5457513301049E-01 -0.5127991836370E-01  0.0000000000000E+00  0.1470580598570E-01
 0.4654544831700E-01 -0.3883917739733E-01  0.0000000000000E+00  0.5875666780434E-01
 0.3019486592042E+00 -0.3438714119598E+00  0.0000000000000E+00 -0.3965318583290E+00
 0.2280786262455E+00 -0.2622797962212E+00  0.0000000000000E+00 -0.3762239851118E+00
 0.1553938619346E+00 -0.1784107380143E+00  0.0000000000000E+00 -0.2940266218340E+00
 0.1042619678258E+00 -0.1151209847864E+00  0.0000000000000E+00 -0.1748612523555E+00
 0.8002282274655E-01 -0.7931865698847E-01  0.0000000000000E+00 -0.6459060779340E-01
 0.6711616429130E-01 -0.5828369863676E-01  0.0000000000000E+00 -0.1086785505839E-01
 0.3684510231485E+00 -0.4155431183049E+00  0.0000000000000E+00 -0.4300714688713E+00
 0.3086417707849E+00 -0.3524583832816E+00  0.0000000000000E+00 -0.4740004018924E+00
 0.2401767491432E+00 -0.2769246878447E+00  0.0000000000000E+00 -0.4476221702618E+00
 0.1776841965264E+00 -0.2031473095134E+00  0.0000000000000E+00 -0.3592696821299E+00
 0.1391977632258E+00 -0.1479925769055E+00  0.0000000000000E+00 -0.2382528442456E+00
 0.1183688920293E+00 -0.1108320214806E+00  0.0000000000000E+00 -0.1580222258396E+00
 0.4451057124478E+00 -0.4971237129643E+00  0.0000000000000E+00 -0.4035552926110E+00
 0.4082504020398E+00 -0.4614005082386E+00  0.0000000000000E+00 -0.4992853084132E+00
 0.3609340301988E+00 -0.4130863876609E+00  0.0000000000000E+00 -0.5524812889618E+00
 0.3094400425603E+00 -0.3581703878173E+00  0.0000000000000E+00 -0.5513934739767E+00
 0.2724077045476E+00 -0.3126843252794E+00  0.0000000000000E+00 -0.4882528875104E+00
 0.2851308758654E+00 -0.3033374718835E+00  0.0000000000000E+00 -0.3923628922018E+00
 0.5225979139245E+00 -0.5789844870922E+00  0.0000000000000E+00 -0.3046521505352E+00
 0.5152572550930E+00 -0.5749983440271E+00  0.0000000000000E+00 -0.4113083211415E+00
 0.4975369559619E+00 -0.5612132867662E+00  0.0000000000000E+00 -0.5078394238460E+00
 0.4688038225789E+00 -0.5371786033206E+00  0.0000000000000E+00 -0.5775188399408E+00
 0.4341424700667E+00 -0.5075015306866E+00  0.0000000000000E+00 -0.5928661845478E+00
 0.4179803957983E+00 -0.4904049447733E+00  0.0000000000000E+00 -0.4948252931581E+00
 0.5704458153511E+00 -0.6287473730609E+00  0.0000000000000E+00 -0.1178760163181E+00
 0.5776218968769E+00 -0.6395383278986E+00  0.0000000000000E+00 -0.1667144949160E+00
 0.5731110633330E+00 -0.6405433537964E+00  0.0000000000000E+00 -0.2154134122894E+00
 0.5510147187066E+00 -0.6264610304605E+00  0.0000000000000E+00 -0.2562678421758E+00
 0.5004787212908E+00 -0.5886390097491E+00  0.0000000000000E+00 -0.2741653052633E+00
 0.3978996161450E+00 -0.5106868457296E+00  0.0000000000000E+00 -0.2235110030713E+00
 0.5704458156253E+00 -0.6287473732958E+00  0.0000000000000E+00  0.1178760136699E+00
 0.5776218972270E+00 -0.6395383281854E+00  0.0000000000000E+00  0.1667144880119E+00
 0.5731110637544E+00 -0.6405433541445E+00  0.0000000000000E+00  0.2154134007893E+00
 0.5510147190820E+00 -0.6264610307857E+00  0.0000000000000E+00  0.2562678263310E+00
 0.5004787211054E+00 -0.5886390096423E+00  0.0000000000000E+00  0.2741652863986E+00
 0.3978996131807E+00 -0.5106868436402E+00  0.0000000000000E+00  0.2235109859330E+00
 0.5225979146981E+00 -0.5789844878445E+00  0.0000000000000E+00  0.3046521500249E+00
 0.5152572566066E+00 -0.5749983454991E+00  0.0000000000000E+00  0.4113083192258E+00
 0.4975369582809E+00 -0.5612132891189E+00  0.0000000000000E+00  0.5078394212898E+00
 0.4688038255499E+00 -0.5371786064984E+00  0.0000000000000E+00  0.5775188376721E+00
 0.4341424727857E+00 -0.5075015340056E+00  0.0000000000000E+00  0.5928661834244E+00
 0.4179803954753E+00 -0.4904049462466E+00  0.0000000000000E+00  0.4948252914719E+00
 0.4451057127708E+00 -0.4971237132281E+00  0.0000000000000E+00  0.4035552925220E+00
 0.4082504033100E+00 -0.4614005095358E+00  0.0000000000000E+00  0.4992853085609E+00
 0.3609340327562E+00 -0.4130863904499E+00  0.0000000000000E+00  0.5524812909404E+00
 0.3094400464270E+00 -0.3581703922816E+00  0.0000000000000E+00  0.5513934790842E+00
 0.2724077094036E+00 -0.3126843313325E+00  0.0000000000000E+00  0.4882528958248E+00
 0.2851308826488E+00 -0.3033374800899E+00  0.0000000000000E+00  0.3923629001092E+00
 0.3684510228567E+00 -0.4155431179473E+00  0.0000000000000E+00  0.4300714690579E+00
 0.3086417712846E+00 -0.3524583838785E+00  0.0000000000000E+00  0.4740004035083E+00
 0.2401767506666E+00 -0.2769246896788E+00  0.0000000000000E+00  0.4476221741276E+00
 0.1776841987953E+00 -0.2031473123227E+00  0.0000000000000E+00  0.3592696883300E+00
 0.1391977661453E+00 -0.1479925804156E+00  0.0000000000000E+00  0.2382528515521E+00
 0.1183688965820E+00 -0.1108320263542E+00  0.0000000000000E+00  0.1580222330799E+00
 0.3019486586103E+00 -0.3438714113271E+00  0.0000000000000E+00  0.3965318589692E+00
 0.2280786264926E+00 -0.2622797965914E+00  0.0000000000000E+00  0.3762239873334E+00
 0.1553938628683E+00 -0.1784107391559E+00  0.0000000000000E+00  0.2940266252084E+00
 0.1042619691159E+00 -0.1151209862754E+00  0.0000000000000E+00  0.1748612563069E+00
 0.8002282423471E-01 -0.7931865853609E-01  0.0000000000000E+00  0.6459061156811E-01
 0.6711616561275E-01 -0.5828369977344E-01  0.0000000000000E+00  0.1086785918912E-01
 0.2448323266959E+00 -0.2834378115294E+00  0.0000000000000E+00  0.3149502957524E+00
 0.1624804130584E+00 -0.1873633414526E+00  0.0000000000000E+00  0.2673590880474E+00
 0.1015213643219E+00 -0.1161504068226E+00  0.0000000000000E+00  0.1803508882833E+00
 0.6749130306273E-01 -0.7216717356336E-01  0.0000000000000E+00  0.7403761820368E-01
 0.5457513403947E-01 -0.5127991933524E-01  0.0000000000000E+00 -0.1470580481166E-01
 0.4654544923130E-01 -0.3883917836958E-01  0.0000000000000E+00 -0.5875666640380E-01
</DataArray>
<DataArray type="Float64" Name="S_Centroid" NumberOfComponents="4" ComponentName0="S11" ComponentName1="S22" ComponentName2="S33" ComponentName3="S12" format="ascii">
-0.4801234442865E+00 -0.3920558099576E+01 -0.8801363218875E+00 -0.4607458851254E+00
 0.6138085630499E-01 -0.3273378236409E+01 -0.6423994855934E+00  0.2090322802311E-02
-0.1311837906465E-01 -0.3187193397040E+01 -0.6400623647586E+00  0.1928900024029E-02
 0.1412759563561E-02 -0.3219090376267E+01 -0.6435355329301E+00  0.1818375022367E-01
-0.1777423793107E-02 -0.3312428943705E+01 -0.6628412833768E+00  0.2782712172050E-01
-0.2007127646357E-02 -0.3461067710953E+01 -0.6926149780407E+00  0.4044168863373E-01
-0.3071898785747E-02 -0.3679535163424E+01 -0.7365214234170E+00  0.5868588358520E-01
-0.8223857413633E-02 -0.3998337066397E+01 -0.8013121967026E+00  0.8650229710813E-01
-0.8942051952576E-02 -0.4471441474017E+01 -0.8960767185465E+00  0.1391994706384E+00
-0.8638039844353E-01 -0.5155415206967E+01 -0.1048359136704E+01  0.2554227641290E+00
 0.1044569321298E+00 -0.6073877213032E+01 -0.1193884073971E+01  0.4891465994138E+00
-0.1542522644197E+01 -0.7286250249585E+01 -0.1765754605068E+01  0.1183474334935E+01
 0.5069032931346E+01 -0.7739268182838E+01 -0.5340470582562E+00  0.1527787200946E+01
-0.5308183061412E+00 -0.3560044848015E+01 -0.8181726430230E+00 -0.4688774107601E+00
-0.8619312266720E-01 -0.3443914968994E+01 -0.7060216288528E+00 -0.1588295381297E+00
-0.7219649032150E-02 -0.3290361818125E+01 -0.6595163032590E+00  0.5294769668892E-03
-0.1273397706358E-01 -0.3293612788669E+01 -0.6612693630003E+00  0.3871113667477E-01
-0.9961707116858E-02 -0.3360200621528E+01 -0.6740324757728E+00  0.7336321005375E-01
-0.1424598893283E-01 -0.3481810901905E+01 -0.6992113885865E+00  0.1102372542870E+00
-0.2151667013331E-01 -0.3664826174735E+01 -0.7372685799598E+00  0.1609602097965E+00
-0.3344135662613E-01 -0.3927183783572E+01 -0.7921250398432E+00  0.2353781993219E+00
-0.7509147360123E-01 -0.4287990133801E+01 -0.8726163344835E+00  0.3537714173607E+00
-0.1076997834335E+00 -0.4733889569757E+01 -0.9683178850672E+00  0.5169695723632E+00
-0.4013169118271E+00 -0.5207674682419E+01 -0.1121798335565E+01  0.8899895916806E+00
-0.6697705322222E+00 -0.4983112068237E+01 -0.1130576536939E+01  0.7927009783880E+00
 0.4190700701659E+01 -0.4136931628310E+01  0.1075381483001E-01  0.2176378086518E+00
-0.5774405193258E+00 -0.3409047947654E+01 -0.7972977052765E+00 -0.4156521360533E+00
-0.1932390464293E+00 -0.3437549400848E+01 -0.7261577002760E+00 -0.2110871634289E+00
-0.5017212521987E-01 -0.3364954843958E+01 -0.6830254040134E+00 -0.2899704602090E-01
-0.2982084587038E-01 -0.3344154106555E+01 -0.6747950005403E+00  0.5313991676211E-01
-0.2901732259617E-01 -0.3388208792605E+01 -0.6834452332244E+00  0.1077596620065E+00
-0.3711770492838E-01 -0.3478466351900E+01 -0.7031168218429E+00  0.1670442333602E+00
-0.5331226644297E-01 -0.3616761537612E+01 -0.7340147717486E+00  0.2437837111948E+00
-0.8358309576678E-01 -0.3806845788342E+01 -0.7780857884162E+00  0.3513147455670E+00
-0.1350709339502E+00 -0.4036037412587E+01 -0.8342216817383E+00  0.4929551571284E+00
-0.2354778430703E+00 -0.4263523279754E+01 -0.8998002379730E+00  0.6861668008288E+00
-0.4960156512393E+00 -0.4223860556182E+01 -0.9439752555505E+00  0.8249573655941E+00
 0.1175290726141E+00 -0.3678901155412E+01 -0.7122744271733E+00  0.2437349819617E+00
 0.3800538876725E+01 -0.3182958514678E+01  0.1235160742499E+00 -0.1322453394348E+00
-0.6097211271927E+00 -0.3330823081388E+01 -0.7881088534599E+00 -0.3567565554309E+00
-0.2738211784556E+00 -0.3406662686155E+01 -0.7360967838907E+00 -0.2146760415104E+00
-0.1049427648793E+00 -0.3392402595319E+01 -0.6994690824626E+00 -0.4795361100004E-01
-0.5886867564779E-01 -0.3375240360761E+01 -0.6868218175162E+00  0.5794457749126E-01
-0.5511886838727E-01 -0.3397398990354E+01 -0.6905035820376E+00  0.1320271052263E+00
-0.6863451833921E-01 -0.3454824325456E+01 -0.7046917792598E+00  0.2081215330352E+00
-0.9598620377569E-01 -0.3542980671955E+01 -0.7277933859911E+00  0.3031151691084E+00
-0.1396489399235E+00 -0.3653222037364E+01 -0.7585742067611E+00  0.4250578854278E+00
-0.2055475826447E+00 -0.3758911145587E+01 -0.7928917574613E+00  0.5706054049998E+00
-0.3165502431911E+00 -0.3769972148705E+01 -0.8173044905580E+00  0.7049875128638E+00
-0.3417516474912E+00 -0.3492302780706E+01 -0.7668108970658E+00  0.5902990223230E+00
 0.6895553465974E+00 -0.3064560010060E+01 -0.4750009397705E+00 -0.7901971699516E-01
 0.3535510665875E+01 -0.2834794190353E+01  0.1401432971926E+00 -0.2225019562055E+00
-0.6324764471916E+00 -0.3285093383874E+01 -0.7835139778883E+00 -0.3011890766876E+00
-0.3354197402629E+00 -0.3375723430677E+01 -0.7422286452480E+00 -0.1974845738284E+00
-0.1595514603758E+00 -0.3394531649364E+01 -0.7108166325399E+00 -0.5422832420161E-01
-0.9542399731761E-01 -0.3386386472980E+01 -0.6963621044361E+00  0.5847068813356E-01
-0.8711092298174E-01 -0.3391447072955E+01 -0.6957116095543E+00  0.1454307696770E+00
-0.1059484301367E+00 -0.3415621056733E+01 -0.7043139078691E+00  0.2325669685500E+00
-0.1433266868996E+00 -0.3452167931796E+01 -0.7190989344545E+00  0.3361436346228E+00
-0.1965742831015E+00 -0.3485744771969E+01 -0.7364638219883E+00  0.4592002253561E+00
-0.2643877685446E+00 -0.3478673844557E+01 -0.7486123337755E+00  0.5836159155513E+00
-0.3173637615616E+00 -0.3343906046271E+01 -0.7322539724780E+00  0.6253262663472E+00
-0.1013522302837E+00 -0.3026921985262E+01 -0.6256548524322E+00  0.3646033501499E+00
 0.1088153705483E+01 -0.2769029218875E+01 -0.3361751076878E+00 -0.2282483340459E+00
 0.3316407892448E+01 -0.2685073599712E+01  0.1262668604288E+00 -0.2439356988428E+00
-0.6492102262233E+00 -0.3255929525489E+01 -0.7810279619807E+00 -0.2503336461532E+00
-0.3832728059767E+00 -0.3348863101100E+01 -0.7464271925379E+00 -0.1718920873374E+00
-0.2095180359268E+00 -0.3384428028650E+01 -0.7187892236262E+00 -0.5194650155610E-01
-0.1347520104663E+00 -0.3382789731910E+01 -0.7035083589584E+00  0.5694163556654E-01
-0.1225876392056E+00 -0.3373812122088E+01 -0.6992799626787E+00  0.1486688547486E+00
-0.1458172721532E+00 -0.3366365302812E+01 -0.7024365254602E+00  0.2400747065071E+00
-0.1908841580740E+00 -0.3353899740158E+01 -0.7089567902106E+00  0.3436933720056E+00
-0.2479279626894E+00 -0.3318492418700E+01 -0.7132840869067E+00  0.4566495717677E+00
-0.2976417820005E+00 -0.3223025376197E+01 -0.7041334421320E+00  0.5451174720193E+00
-0.2604716927198E+00 -0.3018003747585E+01 -0.6556950978316E+00  0.5080197747458E+00
 0.1446757905534E+00 -0.2742804349709E+01 -0.5196257195741E+00  0.1989822898065E+00
 0.1361982693817E+01 -0.2623618387297E+01 -0.2523271424560E+00 -0.2785439237848E+00
 0.3140409211504E+01 -0.2597173522652E+01  0.1086471393893E+00 -0.2455573201308E+00
-0.6619625059988E+00 -0.3236063817035E+01 -0.7796052762237E+00 -0.2039824669692E+00
-0.4208194538852E+00 -0.3326346364299E+01 -0.7494331748042E+00 -0.1436060160993E+00
-0.2531320130861E+00 -0.3369102717088E+01 -0.7244469568300E+00 -0.4507516883005E-01
-0.1731817714913E+00 -0.3370164796659E+01 -0.7086693241902E+00  0.5364690152137E-01
-0.1585528503723E+00 -0.3348776637675E+01 -0.7014659080621E+00  0.1427138243195E+00
-0.1850659652913E+00 -0.3312884655399E+01 -0.6995901345628E+00  0.2316423989827E+00
-0.2348933337472E+00 -0.3256870101654E+01 -0.6983526974866E+00  0.3281649188741E+00
-0.2885944603733E+00 -0.3164370820712E+01 -0.6905930665077E+00  0.4235595137616E+00
-0.3060621929443E+00 -0.3009880257540E+01 -0.6631884999792E+00  0.4751567399566E+00
-0.1744293730260E+00 -0.2784651563155E+01 -0.5918161960549E+00  0.3909081339716E+00
 0.3557367378620E+00 -0.2572648400409E+01 -0.4433823391163E+00  0.9060302716666E-01
 0.1562633584028E+01 -0.2537533778593E+01 -0.1949800418185E+00 -0.2644227781631E+00
 0.2997879505056E+01 -0.2570551509731E+01  0.8546560033852E-01 -0.2875557247953E+00
-0.6716768427574E+00 -0.3221886272400E+01 -0.7787126346352E+00 -0.1615297249992E+00
-0.4501619570878E+00 -0.3307813608689E+01 -0.7515951243551E+00 -0.1152021062891E+00
-0.2897687166106E+00 -0.3352487142203E+01 -0.7284511826175E+00 -0.3632056255157E-01
-0.2081601368013E+00 -0.3353265797815E+01 -0.7122851975372E+00  0.4831934251312E-01
-0.1923545506927E+00 -0.3320691642189E+01 -0.7026092490459E+00  0.1286791486105E+00
-0.2211469207579E+00 -0.3260358308627E+01 -0.6963010562527E+00  0.2092070774685E+00
-0.2727741199823E+00 -0.3167911109854E+01 -0.6881370562212E+00  0.2932139233954E+00
-0.3175280209598E+00 -0.3031948819007E+01 -0.6698953779755E+00  0.3680326772357E+00
-0.2965347221185E+00 -0.2843069335189E+01 -0.6279208208182E+00  0.3905570616864E+00
-0.8410627169240E-01 -0.2623647711326E+01 -0.5415508046734E+00  0.2883716390072E+00
 0.5327859256719E+00 -0.2468816970729E+01 -0.3872062147812E+00  0.2886169486484E-01
 0.1673206181615E+01 -0.2483379270540E+01 -0.1620346201995E+00 -0.2328918819607E+00
 0.3102038017754E+01 -0.2553291444806E+01  0.1097493162249E+00 -0.2907383443974E+00
-0.6790269002115E+00 -0.3211609230671E+01 -0.7781272377716E+00 -0.1222843954212E+00
-0.4726603118717E+00 -0.3292998077063E+01 -0.7531316890094E+00 -0.8773301247035E-01
-0.3192728009508E+00 -0.3336958951858E+01 -0.7312463614582E+00 -0.2726767896527E-01
-0.2379673706107E+00 -0.3335730287229E+01 -0.7147395422184E+00  0.4073972568126E-01
-0.2218954231243E+00 -0.3293376715821E+01 -0.7030544382654E+00  0.1077130849103E+00
-0.2521203289439E+00 -0.3213019169783E+01 -0.6930279100723E+00  0.1750171380766E+00
-0.3032909323109E+00 -0.3091834776350E+01 -0.6790251518504E+00  0.2428048356246E+00
-0.3361097532522E+00 -0.2924958803438E+01 -0.6522137210567E+00  0.2973306349213E+00
-0.2782789517681E+00 -0.2718483306460E+01 -0.5993524605767E+00  0.3012680472775E+00
-0.4798057077813E-03 -0.2514377405267E+01 -0.5029714496898E+00  0.2031181734080E+00
 0.6641221507651E+00 -0.2403936161132E+01 -0.3479628072584E+00 -0.1150177980604E-02
 0.1776479567038E+01 -0.2446345106779E+01 -0.1339731099447E+00 -0.1977810475979E+00
 0.3135447144648E+01 -0.2567609614406E+01  0.1135675077407E+00 -0.2453468346723E+00
-0.6843441564801E+00 -0.3204333896942E+01 -0.7777356222736E+00 -0.8554606717443E-01
-0.4890763599604E+00 -0.3281821786156E+01 -0.7541796404615E+00 -0.6150684784630E-01
-0.3415134973143E+00 -0.3324098615041E+01 -0.7331224333955E+00 -0.1870209600314E-01
-0.2613240463613E+00 -0.3320307782472E+01 -0.7163263764407E+00  0.3097026991179E-01
-0.2454616714269E+00 -0.3270043860765E+01 -0.7031011169155E+00  0.8112050303350E-01
-0.2764646454501E+00 -0.3174448456705E+01 -0.6901826307155E+00  0.1315944820023E+00
-0.3259091996342E+00 -0.3032296413405E+01 -0.6716411326161E+00  0.1809832415826E+00
-0.3469134753581E+00 -0.2845072703261E+01 -0.6383972452368E+00  0.2173130706661E+00
-0.2581854254993E+00 -0.2630994446282E+01 -0.5778359829668E+00  0.2124428406758E+00
 0.6618362244132E-01 -0.2443099606987E+01 -0.4753832039930E+00  0.1337857204078E+00
 0.7610277314829E+00 -0.2362482675509E+01 -0.3202909935780E+00 -0.1317512130915E-01
 0.1851659175526E+01 -0.2429184871062E+01 -0.1155051408285E+00 -0.1495843211891E+00
 0.3157727869126E+01 -0.2577467838536E+01  0.1160520078474E+00 -0.1844936647105E+00
-0.6878113584354E+00 -0.3199631876002E+01 -0.7774886584730E+00 -0.5060586211440E-01
-0.4998390139941E+00 -0.3274313057542E+01 -0.7548304255551E+00 -0.3639941565061E-01
-0.3563982508590E+00 -0.3314969008712E+01 -0.7342734628556E+00 -0.1084338121612E-01
-0.2773519929677E+00 -0.3308967749640E+01 -0.7172639592096E+00  0.1938292861468E-01
-0.2618240648193E+00 -0.3253132034001E+01 -0.7029912302395E+00  0.5037337595233E-01
-0.2931678495728E+00 -0.3147300076995E+01 -0.6880935955669E+00  0.8157936265724E-01
-0.3407288002395E+00 -0.2991586120975E+01 -0.6664629941739E+00  0.1114951516252E+00
-0.3524230849801E+00 -0.2792302186635E+01 -0.6289450636950E+00  0.1320553059526E+00
-0.2419723666381E+00 -0.2575754824733E+01 -0.5635454466717E+00  0.1260443945486E+00
 0.1123442677132E+00 -0.2399973740518E+01 -0.4575259013787E+00  0.7572501199609E-01
 0.8246743561977E+00 -0.2338761662432E+01 -0.3028174657592E+00 -0.1269542951089E-01
 0.1900757460478E+01 -0.2421167736777E+01 -0.1040820568107E+00 -0.9297666170976E-01
 0.3171349089317E+01 -0.2585383681135E+01  0.1171930833827E+00 -0.1140656127699E+00
-0.6895244046257E+00 -0.3197314922112E+01 -0.7773678769312E+00 -0.1674812128907E-01
-0.5051728217819E+00 -0.3270535799920E+01 -0.7551417355928E+00 -0.1204519272732E-01
-0.3638591642853E+00 -0.3310240609601E+01 -0.7348199657269E+00 -0.3544896994927E-02
-0.2854995155667E+00 -0.3302984431784E+01 -0.7176968001647E+00  0.6599785165677E-02
-0.2701956191559E+00 -0.3244269573877E+01 -0.7028930490804E+00  0.1707740407629E-01
-0.3016500541562E+00 -0.3133303469799E+01 -0.6869907150280E+00  0.2762881214240E-01
-0.3480293939846E+00 -0.2970958371752E+01 -0.6637975630386E+00  0.3763618730972E-01
-0.3546476043493E+00 -0.2766133616546E+01 -0.6241562534798E+00  0.4426617562463E-01
-0.2330479387191E+00 -0.2549061124056E+01 -0.5564218208464E+00  0.4174825057407E-01
 0.1358810202253E+00 -0.2379683552424E+01 -0.4487605131269E+00  0.2448237256210E-01
 0.8562188598446E+00 -0.2328021841804E+01 -0.2943606007782E+00 -0.5015855952897E-02
 0.1924941679721E+01 -0.2418099008613E+01 -0.9863146724807E-01 -0.3151748204029E-01
 0.3177951647011E+01 -0.2589754427084E+01  0.1176394457383E+00 -0.3855869277179E-01
-0.6895244042418E+00 -0.3197314920242E+01 -0.7773678764805E+00  0.1674812076653E-01
-0.5051728215306E+00 -0.3270535798016E+01 -0.7551417351618E+00  0.1204519086967E-01
-0.3638591641086E+00 -0.3310240607714E+01 -0.7348199653141E+00  0.3544894191493E-02
-0.2854995154067E+00 -0.3302984429975E+01 -0.7176967997708E+00 -0.6599788850333E-02
-0.2701956189677E+00 -0.3244269572220E+01 -0.7028930487115E+00 -0.1707740882595E-01
-0.3016500539149E+00 -0.3133303468396E+01 -0.6869907146992E+00 -0.2762881831875E-01
-0.3480293937206E+00 -0.2970958370705E+01 -0.6637975627764E+00 -0.3763619531383E-01
-0.3546476042165E+00 -0.2766133615884E+01 -0.6241562533208E+00 -0.4426618549601E-01
-0.2330479390321E+00 -0.2549061123626E+01 -0.5564218208229E+00 -0.4174826124989E-01
 0.1358810191581E+00 -0.2379683551882E+01 -0.4487605132318E+00 -0.2448238131356E-01
 0.8562188582018E+00 -0.2328021840878E+01 -0.2943606009216E+00  0.5015852500291E-02
 0.1924941678494E+01 -0.2418099007406E+01 -0.9863146725210E-01  0.3151748438109E-01
 0.3177951647180E+01 -0.2589754425746E+01  0.1176394460399E+00  0.3855869573510E-01
-0.6878113572858E+00 -0.3199631870388E+01 -0.7774886571203E+00  0.5060586154314E-01
-0.4998390132466E+00 -0.3274313051825E+01 -0.7548304242621E+00  0.3639941377552E-01
-0.3563982503365E+00 -0.3314969003042E+01 -0.7342734616173E+00  0.1084337843820E-01
-0.2773519924965E+00 -0.3308967744199E+01 -0.7172639580271E+00 -0.1938293222505E-01
-0.2618240642652E+00 -0.3253132029014E+01 -0.7029912291312E+00 -0.5037338056590E-01
-0.2931678488580E+00 -0.3147300072759E+01 -0.6880935945769E+00 -0.8157936862400E-01
-0.3407287994424E+00 -0.2991586117808E+01 -0.6664629933812E+00 -0.1114951593685E+00
-0.3524230845427E+00 -0.2792302184654E+01 -0.6289450632113E+00 -0.1320553156183E+00
-0.2419723675003E+00 -0.2575754823511E+01 -0.5635454465998E+00 -0.1260444052648E+00
 0.1123442645719E+00 -0.2399973739024E+01 -0.4575259017080E+00 -0.7572502114093E-01
 0.8246743512275E+00 -0.2338761659781E+01 -0.3028174662230E+00  0.1269542555607E-01
 0.1900757456693E+01 -0.2421167733225E+01 -0.1040820568574E+00  0.9297666386975E-01
 0.3171349089856E+01 -0.2585383677168E+01  0.1171930842839E+00  0.1140656156754E+00
-0.6843441545710E+00 -0.3204333887565E+01 -0.7777356200164E+00  0.8554606650379E-01
-0.4890763587359E+00 -0.3281821776604E+01 -0.7541796383060E+00  0.6150684593611E-01
-0.3415134964689E+00 -0.3324098605565E+01 -0.7331224313312E+00  0.1870209327579E-01
-0.2613240456052E+00 -0.3320307773364E+01 -0.7163263744679E+00 -0.3097027337597E-01
-0.2454616705385E+00 -0.3270043852391E+01 -0.7031011150630E+00 -0.8112050737926E-01
-0.2764646442903E+00 -0.3174448449557E+01 -0.6901826290541E+00 -0.1315944875529E+00
-0.3259091982944E+00 -0.3032296408039E+01 -0.6716411312748E+00 -0.1809832487930E+00
-0.3469134745054E+00 -0.2845072699965E+01 -0.6383972444069E+00 -0.2173130798777E+00
-0.2581854266792E+00 -0.2630994444472E+01 -0.5778359828406E+00 -0.2124428514071E+00
 0.6618361742507E-01 -0.2443099604944E+01 -0.4753832045875E+00 -0.1337857303085E+00
 0.7610277230751E+00 -0.2362482671546E+01 -0.3202909944668E+00  0.1317511629166E-01
 0.1851659168856E+01 -0.2429184865400E+01 -0.1155051410299E+00  0.1495843229160E+00
 0.3157727870113E+01 -0.2577467832087E+01  0.1160520093344E+00  0.1844936675119E+00
-0.6790268975544E+00 -0.3211609217500E+01 -0.7781272346058E+00  0.1222843945965E+00
-0.4726603102038E+00 -0.3292998063638E+01 -0.7531316859910E+00  0.8773301050730E-01
-0.3192727998209E+00 -0.3336958938536E+01 -0.7312463585677E+00  0.2726767631284E-01
-0.2379673696126E+00 -0.3335730274398E+01 -0.7147395394526E+00 -0.4073972893197E-01
-0.2218954219539E+00 -0.3293376703971E+01 -0.7030544356612E+00 -0.1077130888652E+00
-0.2521203273909E+00 -0.3213019159591E+01 -0.6930279077233E+00 -0.1750171430123E+00
-0.3032909304295E+00 -0.3091834768633E+01 -0.6790251499308E+00 -0.2428048420145E+00
-0.3361097518221E+00 -0.2924958798788E+01 -0.6522137198407E+00 -0.2973306433482E+00
-0.2782789528791E+00 -0.2718483304362E+01 -0.5993524603792E+00 -0.3012680578610E+00
-0.4798122089767E-03 -0.2514377403358E+01 -0.5029714506082E+00 -0.2031181843410E+00
 0.6641221387974E+00 -0.2403936156654E+01 -0.3479628087564E+00  0.1150171242435E-02
 0.1776479556880E+01 -0.2446345099509E+01 -0.1339731105221E+00  0.1977810484601E+00
 0.3135447146183E+01 -0.2567609605714E+01  0.1135675097861E+00  0.2453468373371E+00
-0.6716768393701E+00 -0.3221886255386E+01 -0.7787126305549E+00  0.1615297239593E+00
-0.4501619550263E+00 -0.3307813591342E+01 -0.7515951204734E+00  0.1152021042561E+00
-0.2897687152493E+00 -0.3352487124981E+01 -0.7284511789008E+00  0.3632055999776E-01
-0.2081601356196E+00 -0.3353265781186E+01 -0.7122851939749E+00 -0.4831934548934E-01
-0.1923545493119E+00 -0.3320691626742E+01 -0.7026092456804E+00 -0.1286791520640E+00
-0.2211469188909E+00 -0.3260358295207E+01 -0.6963010531952E+00 -0.2092070816060E+00
-0.2727741175921E+00 -0.3167911099551E+01 -0.6881370536827E+00 -0.2932139286683E+00
-0.3175280187880E+00 -0.3031948812859E+01 -0.6698953763116E+00 -0.3680326844441E+00
-0.2965347226074E+00 -0.2843069333116E+01 -0.6279208205013E+00 -0.3905570717165E+00
-0.8410627905954E-01 -0.2623647710569E+01 -0.5415508059954E+00 -0.2883716511046E+00
 0.5327859101903E+00 -0.2468816966929E+01 -0.3872062171175E+00 -0.2886170399851E-01
 0.1673206166969E+01 -0.2483379262937E+01 -0.1620346216081E+00  0.2328918811050E+00
 0.3102038019860E+01 -0.2553291433879E+01  0.1097493188315E+00  0.2907383469234E+00
-0.6619625019081E+00 -0.3236063796107E+01 -0.7796052712200E+00  0.2039824656446E+00
-0.4208194515001E+00 -0.3326346342965E+01 -0.7494331700604E+00  0.1436060139829E+00
-0.2531320115614E+00 -0.3369102695901E+01 -0.7244469522875E+00  0.4507516639792E-01
-0.1731817701990E+00 -0.3370164776138E+01 -0.7086693198274E+00 -0.5364690416916E-01
-0.1585528488707E+00 -0.3348776618486E+01 -0.7014659039240E+00 -0.1427138271765E+00
-0.1850659632173E+00 -0.3312884638522E+01 -0.6995901307726E+00 -0.2316424021635E+00
-0.2348933309382E+00 -0.3256870088434E+01 -0.6983526942807E+00 -0.3281649227476E+00
-0.2885944573557E+00 -0.3164370812733E+01 -0.6905930643085E+00 -0.4235595192234E+00
-0.3060621921798E+00 -0.3009880255654E+01 -0.6631884994490E+00 -0.4751567486917E+00
-0.1744293801241E+00 -0.2784651564858E+01 -0.5918161978151E+00 -0.3909081469628E+00
 0.3557367187102E+00 -0.2572648399275E+01 -0.4433823427198E+00 -0.9060303965655E-01
 0.1562633564840E+01 -0.2537533772087E+01 -0.1949800443550E+00  0.2644227751799E+00
 0.2997879504723E+01 -0.2570551499724E+01  0.8546560227331E-01  0.2875557249186E+00
-0.6492102215531E+00 -0.3255929500561E+01 -0.7810279560611E+00  0.2503336444509E+00
-0.3832728034313E+00 -0.3348863075671E+01 -0.7464271869432E+00  0.1718920850886E+00
-0.2095180344194E+00 -0.3384428003389E+01 -0.7187892182724E+00  0.5194649925143E-01
-0.1347520092493E+00 -0.3382789707362E+01 -0.7035083538054E+00 -0.5694163784119E-01
-0.1225876378039E+00 -0.3373812098921E+01 -0.6992799577651E+00 -0.1486688569349E+00
-0.1458172701642E+00 -0.3366365282002E+01 -0.7024365209003E+00 -0.2400747086135E+00
-0.1908841552244E+00 -0.3353899723109E+01 -0.7089567862309E+00 -0.3436933742353E+00
-0.2479279591506E+00 -0.3318492407350E+01 -0.7132840839289E+00 -0.4566495748404E+00
-0.2976417795451E+00 -0.3223025372593E+01 -0.7041334409200E+00 -0.5451174779825E+00
-0.2604716974829E+00 -0.3018003750889E+01 -0.6556950994450E+00 -0.5080197867541E+00
 0.1446757703670E+00 -0.2742804352221E+01 -0.5196257241138E+00 -0.1989823054415E+00
 0.1361982668868E+01 -0.2623618383232E+01 -0.2523271466327E+00  0.2785439174688E+00
 0.3140409213130E+01 -0.2597173514109E+01  0.1086471414232E+00  0.2455573197127E+00
-0.6324764419353E+00 -0.3285093354777E+01 -0.7835139710177E+00  0.3011890744862E+00
-0.3354197377126E+00 -0.3375723401005E+01 -0.7422286388036E+00  0.1974845713992E+00
-0.1595514590672E+00 -0.3394531619939E+01 -0.7108166263932E+00  0.5422832204532E-01
-0.9542399636313E-01 -0.3386386444339E+01 -0.6963620985171E+00 -0.5847069001252E-01
-0.8711092190168E-01 -0.3391447045667E+01 -0.6957116038806E+00 -0.1454307712348E+00
-0.1059484285510E+00 -0.3415621031595E+01 -0.7043139025244E+00 -0.2325669697155E+00
-0.1433266844895E+00 -0.3452167910043E+01 -0.7190989296220E+00 -0.3361436353972E+00
-0.1965742797265E+00 -0.3485744755508E+01 -0.7364638180211E+00 -0.4592002260703E+00
-0.2643877647748E+00 -0.3478673836275E+01 -0.7486123313651E+00 -0.5836159177251E+00
-0.3173637619976E+00 -0.3343906048352E+01 -0.7322539729814E+00 -0.6253262745259E+00
-0.1013522471089E+00 -0.3026921991497E+01 -0.6256548570442E+00 -0.3646033667223E+00
 0.1088153676817E+01 -0.2769029218509E+01 -0.3361751133477E+00  0.2282483232924E+00
 0.3316407892319E+01 -0.2685073593314E+01  0.1262668616825E+00  0.2439356971426E+00
-0.6097211214524E+00 -0.3330823047892E+01 -0.7881088456126E+00  0.3567565526066E+00
-0.2738211761240E+00 -0.3406662652092E+01 -0.7360967766118E+00  0.2146760389565E+00
-0.1049427639069E+00 -0.3392402561730E+01 -0.6994690755504E+00  0.4795360910369E-01
-0.5886867500866E-01 -0.3375240328105E+01 -0.6868218108572E+00 -0.5794457893363E-01
-0.5511886766051E-01 -0.3397398959012E+01 -0.6905035756239E+00 -0.1320271062438E+00
-0.6863451723351E-01 -0.3454824295980E+01 -0.7046917731435E+00 -0.2081215335110E+00
-0.9598620198657E-01 -0.3542980645287E+01 -0.7277933802997E+00 -0.3031151688621E+00
-0.1396489372002E+00 -0.3653222015133E+01 -0.7585742017702E+00 -0.4250578844439E+00
-0.2055475787018E+00 -0.3758911130602E+01 -0.7928917536757E+00 -0.5706054037857E+00
-0.3165502394058E+00 -0.3769972145914E+01 -0.8173044892428E+00 -0.7049875152198E+00
-0.3417516572428E+00 -0.3492302789568E+01 -0.7668109007885E+00 -0.5902990364151E+00
 0.6895553149539E+00 -0.3064560015832E+01 -0.4750009472537E+00  0.7901970150156E-01
 0.3535510665769E+01 -0.2834794187746E+01  0.1401432976929E+00  0.2225019517140E+00
-0.5774405132762E+00 -0.3409047909352E+01 -0.7972976964064E+00  0.4156521324687E+00
-0.1932390446336E+00 -0.3437549362249E+01 -0.7261576921971E+00  0.2110871609371E+00
-0.5017212468566E-01 -0.3364954806338E+01 -0.6830253963827E+00  0.2899704458006E-01
-0.2982084552827E-01 -0.3344154070079E+01 -0.6747949931766E+00 -0.5313991773044E-01
-0.2901732218790E-01 -0.3388208757375E+01 -0.6834452260967E+00 -0.1077596625935E+00
-0.3711770428768E-01 -0.3478466318237E+01 -0.7031168149821E+00 -0.1670442334216E+00
-0.5331226535592E-01 -0.3616761506100E+01 -0.7340147652289E+00 -0.2437837104555E+00
-0.8358309392705E-01 -0.3806845760128E+01 -0.7780857824054E+00 -0.3513147437391E+00
-0.1350709311164E+00 -0.4036037389790E+01 -0.8342216766121E+00 -0.4929551540796E+00
-0.2354778374921E+00 -0.4263523267168E+01 -0.8998002343401E+00 -0.6861667973129E+00
-0.4960156507285E+00 -0.4223860561644E+01 -0.9439752565408E+00 -0.8249573717341E+00
 0.1175290419342E+00 -0.3678901168571E+01 -0.7122744359411E+00 -0.2437350001076E+00
 0.3800538875698E+01 -0.3182958520438E+01  0.1235160728924E+00  0.1322453304644E+00
-0.5308183000884E+00 -0.3560044804080E+01 -0.8181726330255E+00  0.4688774063265E+00
-0.8619312183736E-01 -0.3443914925896E+01 -0.7060216200671E+00  0.1588295362195E+00
-0.7219648907012E-02 -0.3290361776932E+01 -0.6595162949953E+00 -0.5294777141351E-03
-0.1273397690967E-01 -0.3293612748625E+01 -0.6612693549607E+00 -0.3871113720086E-01
-0.9961706947554E-02 -0.3360200582655E+01 -0.6740324679643E+00 -0.7336321032621E-01
-0.1424598865405E-01 -0.3481810864345E+01 -0.6992113810190E+00 -0.1102372541886E+00
-0.2151666965565E-01 -0.3664826138761E+01 -0.7372685726695E+00 -0.1609602090921E+00
-0.3344135573114E-01 -0.3927183749720E+01 -0.7921250328937E+00 -0.2353781976028E+00
-0.7509147205875E-01 -0.4287990103301E+01 -0.8726163280750E+00 -0.3537714143187E+00
-0.1076997803251E+00 -0.4733889544994E+01 -0.9683178794928E+00 -0.5169695669437E+00
-0.4013169026252E+00 -0.5207674671931E+01 -0.1121798331627E+01 -0.8899895867749E+00
-0.6697705535742E+00 -0.4983112079875E+01 -0.1130576543537E+01 -0.7927009897243E+00
 0.4190700698401E+01 -0.4136931648976E+01  0.1075381004520E-01 -0.2176378235149E+00
-0.4801234385315E+00 -0.3920558047596E+01 -0.8801363103406E+00  0.4607458804020E+00
 0.6138085562408E-01 -0.3273378190673E+01 -0.6423994765822E+00 -0.2090322872565E-02
-0.1311837888576E-01 -0.3187193352668E+01 -0.6400623558484E+00 -0.1928900261724E-02
 0.1412759583795E-02 -0.3219090332949E+01 -0.6435355242624E+00 -0.1818375036659E-01
-0.1777423734495E-02 -0.3312428901472E+01 -0.6628412749185E+00 -0.2782712179487E-01
-0.2007127569858E-02 -0.3461067669894E+01 -0.6926149698136E+00 -0.4044168857703E-01
-0.3071898654091E-02 -0.3679535123617E+01 -0.7365214154292E+00 -0.5868588329689E-01
-0.8223857204129E-02 -0.3998337027911E+01 -0.8013121889635E+00 -0.8650229641338E-01
-0.8942051343477E-02 -0.4471441437051E+01 -0.8960767110316E+00 -0.1391994691818E+00
-0.8638039809198E-01 -0.5155415171759E+01 -0.1048359129592E+01 -0.2554227617574E+00
 0.1044569380860E+00 -0.6073877180320E+01 -0.1193884066237E+01 -0.4891465931288E+00
-0.1542522646386E+01 -0.7286250229132E+01 -0.1765754601415E+01 -0.1183474330299E+01
 0.5069032914444E+01 -0.7739268178488E+01 -0.5340470607667E+00 -0.1527787205901E+01
-0.1279470406891E+01 -0.2699811877842E+01 -0.1870262669081E+01 -0.6616714368794E+00
-0.6373509098513E+00 -0.2948788735973E+01 -0.1685485629262E+01 -0.2872300243930E+00
-0.1482502257489E+00 -0.2837463282155E+01 -0.1403285345156E+01 -0.1882730222171E+00
 0.7298100267803E-01 -0.2723740491280E+01 -0.1245856956483E+01 -0.2342148539141E+00
 0.1091949340026E+00 -0.2639940718785E+01 -0.1189450515831E+01 -0.3664284751404E+00
-0.1905246517868E-01 -0.2618566244312E+01 -0.1239680790316E+01 -0.5232287072281E+00
-0.1451295851271E+01 -0.2799310089193E+01 -0.1997784786951E+01 -0.5447517046070E+00
-0.6195688378819E+00 -0.2971152677298E+01 -0.1687639107854E+01 -0.2499413711656E+00
-0.1414361276129E+00 -0.3002076929035E+01 -0.1477451132877E+01 -0.1861953146898E+00
 0.1160200020231E+00 -0.2959428357230E+01 -0.1336401923557E+01 -0.2352880511589E+00
 0.1507448993081E+00 -0.2948893129237E+01 -0.1315129664731E+01 -0.3768995729073E+00
 0.4995087253760E-01 -0.2929785881764E+01 -0.1353522450903E+01 -0.5869154184724E+00
-0.1541760565106E+01 -0.2831785690731E+01 -0.2055566735030E+01 -0.4314395915087E+00
-0.6399027007758E+00 -0.3046047736550E+01 -0.1732396701149E+01 -0.2046869076051E+00
-0.1119086616116E+00 -0.3121407529311E+01 -0.1519658605879E+01 -0.1618421323706E+00
 0.1631651907285E+00 -0.3156929432702E+01 -0.1407069190159E+01 -0.2164606638043E+00
 0.2346104459363E+00 -0.3212316992318E+01 -0.1399522073250E+01 -0.3650188280579E+00
 0.1412914540704E+00 -0.3303184293893E+01 -0.1486089630947E+01 -0.6016250303121E+00
-0.1610379324609E+01 -0.2858763008379E+01 -0.2100496891177E+01 -0.3124803574493E+00
-0.6507021698488E+00 -0.3104106669426E+01 -0.1764760149983E+01 -0.1516041423057E+00
-0.8627632670483E-01 -0.3218326251636E+01 -0.1553163207881E+01 -0.1244289637087E+00
 0.2208438158834E+00 -0.3305551968274E+01 -0.1449812827946E+01 -0.1759721355199E+00
 0.3268919217936E+00 -0.3440906674266E+01 -0.1463586929950E+01 -0.3124105469746E+00
 0.2591145634223E+00 -0.3665664963936E+01 -0.1601078684181E+01 -0.5413314362218E+00
-0.1656146955327E+01 -0.2877600230070E+01 -0.2130861171732E+01 -0.1892697749532E+00
-0.6567438883966E+00 -0.3144523073327E+01 -0.1786595467479E+01 -0.9299555151492E-01
-0.6371215204757E-01 -0.3283209653438E+01 -0.1573053244588E+01 -0.7820547529338E-01
 0.2716286800095E+00 -0.3407776245231E+01 -0.1473989351916E+01 -0.1152923448316E+00
 0.4136754441583E+00 -0.3609809271314E+01 -0.1502182894953E+01 -0.2145616574480E+00
 0.3837728320181E+00 -0.3963724081314E+01 -0.1682577082901E+01 -0.3923956192472E+00
-0.1679195524796E+01 -0.2887403346013E+01 -0.2146301463836E+01 -0.6338720197379E-01
-0.6591647897135E+00 -0.3164947401389E+01 -0.1797332725260E+01 -0.3132372306965E-01
-0.5060134489159E-01 -0.3315771237912E+01 -0.1582195109905E+01 -0.2666090497150E-01
 0.3018873890677E+00 -0.3459574724298E+01 -0.1484113043794E+01 -0.4017694452756E-01
 0.4726559438699E+00 -0.3697077095179E+01 -0.1515477937271E+01 -0.7725626151812E-01
 0.4589135094000E+00 -0.4148654799905E+01 -0.1734178402139E+01 -0.1473629774906E+00
-0.1679195523337E+01 -0.2887403344779E+01 -0.2146301462571E+01  0.6338720744060E-01
-0.6591647895258E+00 -0.3164947400068E+01 -0.1797332724551E+01  0.3132372095456E-01
-0.5060134512738E-01 -0.3315771236835E+01 -0.1582195109509E+01  0.2666090150818E-01
 0.3018873887571E+00 -0.3459574723383E+01 -0.1484113043510E+01  0.4017694060201E-01
 0.4726559440035E+00 -0.3697077094160E+01 -0.1515477936730E+01  0.7725625797201E-01
 0.4589135099805E+00 -0.4148654799906E+01 -0.1734178401867E+01  0.1473629744321E+00
-0.1656146950990E+01 -0.2877600226413E+01 -0.2130861167975E+01  0.1892697802290E+00
-0.6567438878246E+00 -0.3144523069400E+01 -0.1786595465364E+01  0.9299554932067E-01
-0.6371215274019E-01 -0.3283209650253E+01 -0.1573053243417E+01  0.7820547178776E-01
 0.2716286791127E+00 -0.3407776242531E+01 -0.1473989351068E+01  0.1152923408614E+00
 0.4136754436369E+00 -0.3609809268846E+01 -0.1502182894038E+01  0.2145616541286E+00
 0.3837728337283E+00 -0.3963724079648E+01 -0.1682577081315E+01  0.3923956179608E+00
-0.1610379317504E+01 -0.2858763002431E+01 -0.2100496885042E+01  0.3124803623512E+00
-0.6507021688913E+00 -0.3104106663025E+01 -0.1764760146525E+01  0.1516041399537E+00
-0.8627632776016E-01 -0.3218326246422E+01 -0.1553163205926E+01  0.1244289601473E+00
 0.2208438143472E+00 -0.3305551964034E+01 -0.1449812826676E+01  0.1759721315191E+00
 0.3268919201619E+00 -0.3440906670613E+01 -0.1463586929000E+01  0.3124105436943E+00
 0.2591145637350E+00 -0.3665664961014E+01 -0.1601078682660E+01  0.5413314354298E+00
-0.1541760555411E+01 -0.2831785682718E+01 -0.2055566726707E+01  0.4314395958722E+00
-0.6399026994378E+00 -0.3046047727899E+01 -0.1732396696454E+01  0.2046869050185E+00
-0.1119086629488E+00 -0.3121407522226E+01 -0.1519658603178E+01  0.1618421287661E+00
 0.1631651887197E+00 -0.3156929427003E+01 -0.1407069188424E+01  0.2164606598497E+00
 0.2346104432727E+00 -0.3212316987675E+01 -0.1399522072319E+01  0.3650188248680E+00
 0.1412914520452E+00 -0.3303184290644E+01 -0.1486089630372E+01  0.6016250298312E+00
-0.1451295839169E+01 -0.2799310079370E+01 -0.1997784776646E+01  0.5447517083067E+00
-0.6195688362282E+00 -0.2971152666760E+01 -0.1687639102124E+01  0.2499413682753E+00
-0.1414361291167E+00 -0.3002076920274E+01 -0.1477451129466E+01  0.1861953110556E+00
 0.1160199996655E+00 -0.2959428350130E+01 -0.1336401921329E+01  0.2352880473208E+00
 0.1507448959274E+00 -0.2948893123390E+01 -0.1315129663572E+01  0.3768995700432E+00
 0.4995086806675E-01 -0.2929785878664E+01 -0.1353522451548E+01  0.5869154185599E+00
-0.1279470390114E+01 -0.2699811863308E+01 -0.1870262654364E+01  0.6616714402764E+00
-0.6373509099239E+00 -0.2948788726471E+01 -0.1685485624831E+01  0.2872300214378E+00
-0.1482502269252E+00 -0.2837463271546E+01 -0.1403285340722E+01  0.1882730182189E+00
 0.7298100118978E-01 -0.2723740481372E+01 -0.1245856952526E+01  0.2342148504696E+00
 0.1091949285442E+00 -0.2639940713281E+01 -0.1189450515809E+01  0.3664284727320E+00
-0.1905246961500E-01 -0.2618566239055E+01 -0.1239680789931E+01  0.5232287079334E+00
-0.2525633238304E+01 -0.4532024112472E+01 -0.3317098946451E+01 -0.6273774365670E+00
 0.2352268201998E+00 -0.1336461030689E+01 -0.5175800776170E+00  0.3392662112086E+00
-0.3085152318213E+00 -0.9047725986541E+00 -0.5702452788771E+00  0.1747786120643E+00
 0.6917219380819E-01 -0.1682625857745E-01  0.2460258949605E-01  0.1153940655722E+00
 0.1525519432805E+00  0.2101439466150E+00  0.1704670678185E+00  0.1089656561805E+00
 0.2920199946226E+00  0.2557045657284E+00  0.2574305427120E+00  0.1582329825121E+00
-0.1643927029879E+01 -0.3560965276426E+01 -0.2446299377759E+01 -0.8124359707264E+00
-0.4141082287010E+00 -0.2395925474581E+01 -0.1320715837193E+01  0.8946187333519E-01
-0.3587700750403E-01 -0.1107238402138E+01 -0.5372642411692E+00  0.1251460152934E+00
-0.5244699516052E-01 -0.6053243217747E+00 -0.3091525181754E+00  0.6216569354584E-01
 0.7469247552966E-01 -0.2062036870584E+00 -0.6181026926174E-01  0.4960841481715E-01
 0.1501802862586E+00 -0.7696532421241E-01  0.3441103207444E-01  0.6771741029398E-01
-0.1416034704566E+01 -0.3214371708413E+01 -0.2176291008580E+01 -0.8565953445864E+00
-0.4871688963143E+00 -0.2659516376832E+01 -0.1478942074627E+01 -0.8719741214028E-01
-0.1111190245429E+00 -0.1648450510671E+01 -0.8269976794529E+00  0.3009516643521E-01
-0.3535094404412E-01 -0.1072993589592E+01 -0.5209219294876E+00 -0.2631175156856E-02
 0.9989835703536E-02 -0.7089040145552E+00 -0.3284896632271E+00 -0.5154791165265E-01
 0.1516006189612E-01 -0.5056940046305E+00 -0.2305509525004E+00 -0.8158128500280E-01
-0.1359676095992E+01 -0.3045294252880E+01 -0.2070336058719E+01 -0.8488074109726E+00
-0.4989157822400E+00 -0.2777975157416E+01 -0.1540138737732E+01 -0.2109616780999E+00
-0.1499625659185E+00 -0.2084520847594E+01 -0.1050207201687E+01 -0.8121725055312E-01
-0.2365458251773E-01 -0.1572020653899E+01 -0.7499673592138E+00 -0.8762815415354E-01
 0.1390126231008E-01 -0.1224456080463E+01 -0.5689607630888E+00 -0.1576153212328E+00
-0.5683881717410E-01 -0.1018682311313E+01 -0.5054949291069E+00 -0.2494649767192E+00
-0.1359557074412E+01 -0.2937893381179E+01 -0.2019801709005E+01 -0.8081287107825E+00
-0.5176456997100E+00 -0.2857777735254E+01 -0.1586449010409E+01 -0.2905543109256E+00
-0.1679990395580E+00 -0.2425589017903E+01 -0.1218986383915E+01 -0.1769664999465E+00
-0.1579324894231E-01 -0.2040264518977E+01 -0.9663471484710E+00 -0.1765932618928E+00
 0.7108551486570E-01 -0.1721811472968E+01 -0.7758411983403E+00 -0.2452180771031E+00
-0.2819457598672E-01 -0.1567774679063E+01 -0.7501055479711E+00 -0.3805783298950E+00
-0.1412742656887E+01 -0.2889649339275E+01 -0.2022124233067E+01 -0.7468951983860E+00
-0.5167002564465E+00 -0.2865120537987E+01 -0.1589455769353E+01 -0.3300110755534E+00
-0.1983867649420E+00 -0.2712494758071E+01 -0.1368114312346E+01 -0.2324306095609E+00
-0.1254138867426E-01 -0.2471851614511E+01 -0.1167664708535E+01 -0.2502067880555E+00
 0.6433733074165E-01 -0.2242228293316E+01 -0.1023608749814E+01 -0.3139830491335E+00
 0.1844417031404E+00 -0.1979927894718E+01 -0.8438785079010E+00 -0.4318344049907E+00
-0.1412742649328E+01 -0.2889649331378E+01 -0.2022124225803E+01  0.7468952000979E+00
-0.5167002499147E+00 -0.2865120521509E+01 -0.1589455758538E+01  0.3300110733510E+00
-0.1983867650557E+00 -0.2712494742830E+01 -0.1368114305236E+01  0.2324306069796E+00
-0.1254138996076E-01 -0.2471851601863E+01 -0.1167664703196E+01  0.2502067858761E+00
 0.6433733119163E-01 -0.2242228281810E+01 -0.1023608744194E+01  0.3139830473944E+00
 0.1844416958655E+00 -0.1979927890072E+01 -0.8438785091368E+00  0.4318344059509E+00
-0.1359557067845E+01 -0.2937893371058E+01 -0.2019801701161E+01  0.8081287092802E+00
-0.5176456949329E+00 -0.2857777719216E+01 -0.1586449000626E+01  0.2905543075896E+00
-0.1679990387901E+00 -0.2425588999584E+01 -0.1218986374944E+01  0.1769664977388E+00
-0.1579324940373E-01 -0.2040264504840E+01 -0.9663471420436E+00  0.1765932607396E+00
 0.7108551407542E-01 -0.1721811462562E+01 -0.7758411938208E+00  0.2452180774440E+00
-0.2819458261049E-01 -0.1567774673401E+01 -0.7501055484230E+00  0.3805783319141E+00
-0.1359676093819E+01 -0.3045294243518E+01 -0.2070336053297E+01  0.8488074072284E+00
-0.4989157777649E+00 -0.2777975139657E+01 -0.1540138727282E+01  0.2109616743207E+00
-0.1499625646039E+00 -0.2084520827180E+01 -0.1050207191475E+01  0.8121724917704E-01
-0.2365458313114E-01 -0.1572020640169E+01 -0.7499673530489E+00  0.8762815420113E-01
 0.1390126146873E-01 -0.1224456070460E+01 -0.5689607587829E+00  0.1576153223130E+00
-0.5683882146046E-01 -0.1018682306750E+01 -0.5054949289768E+00  0.2494649782173E+00
-0.1416034707893E+01 -0.3214371700036E+01 -0.2176291006207E+01  0.8565953390171E+00
-0.4871688909888E+00 -0.2659516355921E+01 -0.1478942062297E+01  0.8719740880803E-01
-0.1111190228849E+00 -0.1648450489383E+01 -0.8269976686685E+00 -0.3009516614624E-01
-0.3535094474352E-01 -0.1072993577968E+01 -0.5209219243532E+00  0.2631175978666E-02
 0.9989835648236E-02 -0.7089040062042E+00 -0.3284896593281E+00  0.5154791235670E-01
 0.1516006159780E-01 -0.5056940025007E+00 -0.2305509516396E+00  0.8158128515846E-01
-0.1643927039190E+01 -0.3560965268083E+01 -0.2446299378214E+01  0.8124359638170E+00
-0.4141082191785E+00 -0.2395925447160E+01 -0.1320715819829E+01 -0.8946187479962E-01
-0.3587700835021E-01 -0.1107238385242E+01 -0.5372642336257E+00 -0.1251460127371E+00
-0.5244699472657E-01 -0.6053243128532E+00 -0.3091525137784E+00 -0.6216569291611E-01
 0.7469247693276E-01 -0.2062036809806E+00 -0.6181026574569E-01 -0.4960841519264E-01
 0.1501802905427E+00 -0.7696532524338E-01  0.3441103360339E-01 -0.6771741149392E-01
-0.2525633239651E+01 -0.4532024088593E+01 -0.3317098935861E+01  0.6273774315817E+00
 0.2352268279264E+00 -0.1336461007577E+01 -0.5175800631231E+00 -0.3392662076693E+00
-0.3085152352337E+00 -0.9047725879235E+00 -0.5702452754375E+00 -0.1747786084661E+00
 0.6917219835528E-01 -0.1682624932991E-01  0.2460259597952E-01 -0.1153940659625E+00
 0.1525519439009E+00  0.2101439467939E+00  0.1704670681942E+00 -0.1089656577009E+00
 0.2920200037158E+00  0.2557045638239E+00  0.2574305460908E+00 -0.1582329856863E+00
-0.2350093485770E+00 -0.2391214001860E+01 -0.1234324971575E+01 -0.6427557043699E+00
-0.1323912270048E+00 -0.1560324921043E+01 -0.7955765875646E+00 -0.5456307900100E+00
-0.5335835569420E-01 -0.9418145638114E+00 -0.4677312709813E+00 -0.3680630348839E+00
 0.1259740879094E+00 -0.4440605065105E+00 -0.1495006163633E+00 -0.1510971774880E+00
 0.3281128437455E+00 -0.1039485907852E+00  0.1053571986241E+00  0.3001184897475E-01
 0.4363723866229E+00  0.8786370995525E-01  0.2463909647668E+00  0.1199115670449E+00
-0.1079437694714E+00 -0.2743944062075E+01 -0.1340387277427E+01 -0.8092486911236E+00
-0.1625735806992E+00 -0.2164036531166E+01 -0.1093506749803E+01 -0.7678040518712E+00
-0.1016530330127E+00 -0.1464120789011E+01 -0.7359136944848E+00 -0.6000543307601E+00
 0.7836600780555E-01 -0.8170746158273E+00 -0.3471930448896E+00 -0.3568596989740E+00
 0.3491379089295E+00 -0.3012354782714E+00  0.2251414235221E-01 -0.1318175670322E+00
 0.5563420779767E+00  0.4450590234507E-01  0.2823985500350E+00 -0.2217929605552E-01
-0.1783836666307E-02 -0.3201759926826E+01 -0.1505665565022E+01 -0.8776968759592E+00
-0.1411769222787E+00 -0.2839544900248E+01 -0.1400939253034E+01 -0.9673477597486E+00
-0.1946207832187E+00 -0.2305238895085E+01 -0.1174934045823E+01 -0.9135146339283E+00
-0.8888508894161E-01 -0.1643299400569E+01 -0.8141267080050E+00 -0.7332034335127E+00
 0.2869594246442E+00 -0.8852460462303E+00 -0.2811947114323E+00 -0.4862302947732E+00
 0.7241130978609E+00 -0.2114008355914E+00  0.2409747626555E+00 -0.3224943387097E+00
 0.1535975196893E+00 -0.3692236872867E+01 -0.1663160491775E+01 -0.8235822304863E+00
-0.3302889356818E-01 -0.3582624448603E+01 -0.1699357066510E+01 -0.1018949609833E+01
-0.1942561334281E+00 -0.3353523147662E+01 -0.1667456257883E+01 -0.1127512835530E+01
-0.2950244049314E+00 -0.3019964939295E+01 -0.1558044987834E+01 -0.1125292804947E+01
-0.1758876648286E+00 -0.2564018400753E+01 -0.1287755847557E+01 -0.9964344651150E+00
 0.5816838634045E+00 -0.1820227762008E+01 -0.5821156308673E+00 -0.8007405969796E+00
 0.3302167735302E+00 -0.4166037928143E+01 -0.1802835938096E+01 -0.6217390832291E+00
 0.1930016799877E+00 -0.4257021177172E+01 -0.1910089158832E+01 -0.8394047377042E+00
-0.5146724847823E-02 -0.4326576290508E+01 -0.2035909812053E+01 -0.1036406988281E+01
-0.2726473631717E+00 -0.4378698084459E+01 -0.2186132354842E+01 -0.1178609878386E+01
-0.5734835943325E+00 -0.4416928498483E+01 -0.2345493677674E+01 -0.1209930989854E+01
-0.6095723019513E+00 -0.4317267572597E+01 -0.2315614735165E+01 -0.1009847537876E+01
 0.4642869361428E+00 -0.4430379142978E+01 -0.1864063332484E+01 -0.2405632988034E+00
 0.3779994875581E+00 -0.4590001433922E+01 -0.1979640909770E+01 -0.3402336633697E+00
 0.1832305186504E+00 -0.4770460983854E+01 -0.2155998313177E+01 -0.4396192091104E+00
-0.1631892452295E+00 -0.4969212715115E+01 -0.2412228915244E+01 -0.5229955967013E+00
-0.7759599017413E+00 -0.5221338399387E+01 -0.2818730194381E+01 -0.5595210316034E+00
-0.1982042089715E+01 -0.5690558263639E+01 -0.3606122156930E+01 -0.4561449045970E+00
 0.4642869385210E+00 -0.4430379142677E+01 -0.1864063331225E+01  0.2405632933989E+00
 0.3779994910083E+00 -0.4590001433071E+01 -0.1979640907748E+01  0.3402336492798E+00
 0.1832305227119E+00 -0.4770460982933E+01 -0.2155998310836E+01  0.4396191856408E+00
-0.1631892420959E+00 -0.4969212714841E+01 -0.2412228913642E+01  0.5229955643650E+00
-0.7759599050151E+00 -0.5221338401468E+01 -0.2818730196898E+01  0.5595209931039E+00
-0.1982042129787E+01 -0.5690558283084E+01 -0.3606122184903E+01  0.4561448696210E+00
 0.3302167773701E+00 -0.4166037930532E+01 -0.1802835937413E+01  0.6217390821877E+00
 0.1930016874953E+00 -0.4257021181851E+01 -0.1910089157502E+01  0.8394047337946E+00
-0.5146716457748E-02 -0.4326576301186E+01 -0.2035909813129E+01  0.1036406983065E+01
-0.2726473576559E+00 -0.4378698104040E+01 -0.2186132361452E+01  0.1178609873756E+01
-0.5734836024170E+00 -0.4416928531213E+01 -0.2345493696857E+01  0.1209930987562E+01
-0.6095723607000E+00 -0.4317267636041E+01 -0.2315614792595E+01  0.1009847534435E+01
 0.1535975229013E+00 -0.3692236872050E+01 -0.1663160489882E+01  0.8235822303046E+00
-0.3302888924760E-01 -0.3582624454762E+01 -0.1699357067374E+01  0.1018949610134E+01
-0.1942561303963E+00 -0.3353523166453E+01 -0.1667456265290E+01  0.1127512839568E+01
-0.2950244082591E+00 -0.3019964976626E+01 -0.1558045006944E+01  0.1125292815370E+01
-0.1758876832821E+00 -0.2564018463733E+01 -0.1287755885831E+01  0.9964344820831E+00
 0.5816838455983E+00 -0.1820227840997E+01 -0.5821156763610E+00  0.8007406131170E+00
-0.1783835753583E-02 -0.3201759923263E+01 -0.1505665562919E+01  0.8776968763402E+00
-0.1411769233473E+00 -0.2839544905793E+01 -0.1400939256143E+01  0.9673477630464E+00
-0.1946207869378E+00 -0.2305238912508E+01 -0.1174934055760E+01  0.9135146418176E+00
-0.8888509695991E-01 -0.1643299429314E+01 -0.8141267252840E+00  0.7332034461660E+00
 0.2869594176746E+00 -0.8852460794427E+00 -0.2811947303178E+00  0.4862303096843E+00
 0.7241131061799E+00 -0.2114008657469E+00  0.2409747523923E+00  0.3224943534858E+00
-0.1079437706552E+00 -0.2743944058251E+01 -0.1340387276186E+01  0.8092486924301E+00
-0.1625735836263E+00 -0.2164036536612E+01 -0.1093506753739E+01  0.7678040564051E+00
-0.1016530358490E+00 -0.1464120800318E+01 -0.7359137011321E+00  0.6000543376466E+00
 0.7836600671323E-01 -0.8170746282634E+00 -0.3471930512480E+00  0.3568597070382E+00
 0.3491379131022E+00 -0.3012354864897E+00  0.2251414045079E-01  0.1318175747357E+00
 0.5563420892781E+00  0.4450590361325E-01  0.2823985559427E+00  0.2217930448558E-01
-0.2350093541328E+00 -0.2391214001699E+01 -0.1234324974110E+01  0.6427557061384E+00
-0.1323912291790E+00 -0.1560324922219E+01 -0.7955765891390E+00  0.5456307923760E+00
-0.5335835551113E-01 -0.9418145649848E+00 -0.4677312714467E+00  0.3680630376114E+00
 0.1259740913515E+00 -0.4440605075846E+00 -0.1495006152504E+00  0.1510971801300E+00
 0.3281128497822E+00 -0.1039485929139E+00  0.1053572004609E+00 -0.3001184657875E-01
 0.4363723885019E+00  0.8786370413407E-01  0.2463909629140E+00 -0.1199115641866E+00
</DataArray>
<DataArray type="Float64" Name="S_Mises" NumberOfComponents="1" ComponentName0="S_Mises" format="ascii">
 0.3258892872265E+01
 0.3044501121968E+01
 0.2911673700515E+01
 0.2951362524235E+01
 0.3034611481105E+01
 0.3170675784149E+01
 0.3370137995341E+01
 0.3658617262837E+01
 0.4091707598501E+01
 0.4663069083081E+01
 0.5642332638841E+01
 0.5635428620539E+01
 0.1112120259360E+02
 0.2896260446285E+01
 0.3094716733109E+01
 0.3010470191738E+01
 0.3009484659698E+01
 0.3072506312173E+01
 0.3180883845405E+01
 0.3343396358007E+01
 0.3575291900335E+01
 0.3876166870370E+01
 0.4261562246905E+01
 0.4489685625000E+01
 0.4102394873742E+01
 0.7211959190646E+01
 0.2728330729488E+01
 0.3013403136102E+01
 0.3048034880523E+01
 0.3043540262584E+01
 0.3084492594783E+01
 0.3161407941704E+01
 0.3276564933358E+01
 0.3429169447926E+01
 0.3602636202137E+01
 0.3740394831176E+01
 0.3525276090443E+01
 0.3457045737999E+01
 0.6050723374642E+01
 0.2636438285919E+01
 0.2929190748831E+01
 0.3034200436995E+01
 0.3051248970984E+01
 0.3074234286745E+01
 0.3117216648762E+01
 0.3178539808954E+01
 0.3248634363868E+01
 0.3299139039270E+01
 0.3232268860507E+01
 0.2960992554570E+01
 0.3328317114829E+01
 0.5520849417635E+01
 0.2580415516240E+01
 0.2858691553841E+01
 0.2997608747378E+01
 0.3035439978666E+01
 0.3045982754084E+01
 0.3054763542049E+01
 0.3061830352029E+01
 0.3055214310074E+01
 0.3001611588853E+01
 0.2841902412364E+01
 0.2701845246683E+01
 0.3378265220961E+01
 0.5200885265401E+01
 0.2543373662056E+01
 0.2801720860933E+01
 0.2953391342454E+01
 0.3004312026015E+01
 0.3004676101159E+01
 0.2981465339539E+01
 0.2938434109619E+01
 0.2866359437763E+01
 0.2744806115052E+01
 0.2582700788928E+01
 0.2619290102132E+01
 0.3472321585995E+01
 0.4971564258276E+01
 0.2517342442298E+01
 0.2755953119241E+01
 0.2909090518931E+01
 0.2965721289356E+01
 0.2956394467963E+01
 0.2904934864294E+01
 0.2818966962829E+01
 0.2697338403984E+01
 0.2544123968149E+01
 0.2428579686677E+01
 0.2621812805771E+01
 0.3562873564200E+01
 0.4824106425433E+01
 0.2498411717477E+01
 0.2719493321915E+01
 0.2868645253220E+01
 0.2925799910012E+01
 0.2906992280047E+01
 0.2831692683369E+01
 0.2711422497140E+01
 0.2556515155583E+01
 0.2398076127096E+01
 0.2344531270111E+01
 0.2663560476641E+01
 0.3607904683287E+01
 0.4900424935569E+01
 0.2484514917165E+01
 0.2691086265091E+01
 0.2834245051482E+01
 0.2889034378181E+01
 0.2861405321764E+01
 0.2766918628167E+01
 0.2620954335536E+01
 0.2446163458622E+01
 0.2296562761247E+01
 0.2304119453443E+01
 0.2707796539559E+01
 0.3662590743485E+01
 0.4941928960298E+01
 0.2474616075732E+01
 0.2670082543814E+01
 0.2807341190269E+01
 0.2858769646292E+01
 0.2823714427163E+01
 0.2714871031541E+01
 0.2551152256830E+01
 0.2365922536043E+01
 0.2230230795622E+01
 0.2287105681380E+01
 0.2747372773533E+01
 0.3711365994674E+01
 0.4969874797876E+01
 0.2468204012722E+01
 0.2656173899726E+01
 0.2788899433958E+01
 0.2837353095006E+01
 0.2796942076031E+01
 0.2678594186766E+01
 0.2503931394306E+01
 0.2314042834173E+01
 0.2190768859176E+01
 0.2281402791254E+01
 0.2777015846597E+01
 0.3746151688670E+01
 0.4988575060430E+01
 0.2465042946553E+01
 0.2649238018523E+01
 0.2779529369371E+01
 0.2826280404580E+01
 0.2783068234413E+01
 0.2659999491109E+01
 0.2480167026257E+01
 0.2288664099739E+01
 0.2172452431584E+01
 0.2280168264118E+01
 0.2792758491572E+01
 0.3764092213078E+01
 0.4998095922899E+01
 0.2465042945099E+01
 0.2649238016953E+01
 0.2779529367766E+01
 0.2826280403033E+01
 0.2783068233027E+01
 0.2659999489990E+01
 0.2480167025477E+01
 0.2288664099223E+01
 0.2172452430976E+01
 0.2280168262833E+01
 0.2792758489409E+01
 0.3764092210972E+01
 0.4998095921904E+01
 0.2468204008356E+01
 0.2656173895006E+01
 0.2788899429129E+01
 0.2837353090350E+01
 0.2796942071848E+01
 0.2678594183380E+01
 0.2503931391949E+01
 0.2314042832657E+01
 0.2190768857469E+01
 0.2281402787574E+01
 0.2777015840200E+01
 0.3746151682325E+01
 0.4988575057510E+01
 0.2474616068432E+01
 0.2670082535911E+01
 0.2807341182179E+01
 0.2858769638477E+01
 0.2823714420111E+01
 0.2714871025797E+01
 0.2551152252832E+01
 0.2365922533603E+01
 0.2230230793162E+01
 0.2287105675849E+01
 0.2747372763218E+01
 0.3711365984020E+01
 0.4969874793228E+01
 0.2484514906896E+01
 0.2691086253949E+01
 0.2834245040068E+01
 0.2889034367126E+01
 0.2861405311726E+01
 0.2766918619910E+01
 0.2620954329762E+01
 0.2446163455337E+01
 0.2296562758573E+01
 0.2304119447012E+01
 0.2707796526017E+01
 0.3662590728463E+01
 0.4941928954210E+01
 0.2498411704183E+01
 0.2719493307455E+01
 0.2868645238396E+01
 0.2925799895606E+01
 0.2906992266864E+01
 0.2831692672377E+01
 0.2711422489354E+01
 0.2556515151436E+01
 0.2398076124869E+01
 0.2344531264199E+01
 0.2663560461109E+01
 0.3607904664205E+01
 0.4900424928066E+01
 0.2517342425898E+01
 0.2755953101355E+01
 0.2909090500589E+01
 0.2965721271464E+01
 0.2956394451439E+01
 0.2904934850286E+01
 0.2818966952671E+01
 0.2697338398750E+01
 0.2544123966943E+01
 0.2428579683293E+01
 0.2621812790149E+01
 0.3562873542335E+01
 0.4824106416559E+01
 0.2543373642394E+01
 0.2801720839414E+01
 0.2953391320371E+01
 0.3004312004382E+01
 0.3004676080923E+01
 0.2981465321873E+01
 0.2938434095995E+01
 0.2866359429820E+01
 0.2744806113434E+01
 0.2582700788681E+01
 0.2619290089545E+01
 0.3472321561700E+01
 0.4971564252388E+01
 0.2580415493165E+01
 0.2858691528442E+01
 0.2997608721341E+01
 0.3035439953098E+01
 0.3045982729845E+01
 0.3054763520139E+01
 0.3061830333798E+01
 0.3055214297357E+01
 0.3001611583876E+01
 0.2841902413970E+01
 0.2701845240486E+01
 0.3378265197368E+01
 0.5200885259821E+01
 0.2636438259156E+01
 0.2929190719262E+01
 0.3034200406906E+01
 0.3051248941513E+01
 0.3074234258541E+01
 0.3117216622538E+01
 0.3178539785787E+01
 0.3248634345421E+01
 0.3299139028303E+01
 0.3232268860556E+01
 0.2960992556029E+01
 0.3328317095346E+01
 0.5520849415315E+01
 0.2728330698551E+01
 0.3013403102004E+01
 0.3048034846427E+01
 0.3043540229398E+01
 0.3084492562788E+01
 0.3161407911310E+01
 0.3276564905255E+01
 0.3429169423380E+01
 0.3602636183254E+01
 0.3740394823549E+01
 0.3525276095776E+01
 0.3457045727633E+01
 0.6050723378677E+01
 0.2896260410214E+01
 0.3094716694204E+01
 0.3010470154074E+01
 0.3009484623108E+01
 0.3072506276667E+01
 0.3180883811182E+01
 0.3343396325379E+01
 0.3575291869951E+01
 0.3876166843519E+01
 0.4261562226424E+01
 0.4489685621753E+01
 0.4102394870173E+01
 0.7211959205706E+01
 0.3258892828649E+01
 0.3044501079558E+01
 0.2911673659976E+01
 0.2951362484548E+01
 0.3034611442440E+01
 0.3170675746573E+01
 0.3370137958952E+01
 0.3658617227715E+01
 0.4091707565059E+01
 0.4663069051065E+01
 0.5642332613187E+01
 0.5635428600656E+01
 0.1112120257551E+02
 0.1235831153703E+01
 0.2004652831974E+01
 0.2330648661711E+01
 0.2423336998822E+01
 0.2382031556326E+01
 0.2252635178105E+01
 0.1174358410494E+01
 0.2039378304575E+01
 0.2479181892012E+01
 0.2664782060951E+01
 0.2685677493991E+01
 0.2581973556992E+01
 0.1124872764402E+01
 0.2086714656684E+01
 0.2608106876068E+01
 0.2876688650852E+01
 0.2986463064684E+01
 0.2984511299048E+01
 0.1089413731201E+01
 0.2127694517640E+01
 0.2714245918917E+01
 0.3055350111284E+01
 0.3264346347301E+01
 0.3400494799537E+01
 0.1066517911449E+01
 0.2157495914996E+01
 0.2789973981762E+01
 0.3187846817683E+01
 0.3485758982884E+01
 0.3766574239988E+01
 0.1055269183029E+01
 0.2173101774981E+01
 0.2829522935312E+01
 0.3258898865231E+01
 0.3612390125115E+01
 0.3991806241086E+01
 0.1055269183212E+01
 0.2173101773998E+01
 0.2829522934175E+01
 0.3258898864170E+01
 0.3612390124348E+01
 0.3991806241589E+01
 0.1066517912003E+01
 0.2157495912088E+01
 0.2789973978404E+01
 0.3187846814568E+01
 0.3485758980295E+01
 0.3766574240024E+01
 0.1089413732148E+01
 0.2127694512921E+01
 0.2714245913487E+01
 0.3055350106281E+01
 0.3264346342724E+01
 0.3400494797275E+01
 0.1124872765786E+01
 0.2086714650344E+01
 0.2608106868773E+01
 0.2876688644177E+01
 0.2986463058358E+01
 0.2984511294481E+01
 0.1174358412385E+01
 0.2039378296873E+01
 0.2479181883121E+01
 0.2664782052761E+01
 0.2685677486001E+01
 0.2581973550441E+01
 0.1235831155545E+01
 0.2004652823679E+01
 0.2330648651500E+01
 0.2423336988949E+01
 0.2382031546837E+01
 0.2252635169715E+01
 0.1750437868956E+01
 0.1361522482615E+01
 0.5176552871899E+00
 0.7449339868056E-01
 0.5104921765473E-01
 0.3548393689957E-01
 0.1667530672734E+01
 0.1718373171953E+01
 0.9284597299204E+00
 0.4792122708559E+00
 0.2432952040170E+00
 0.1967261310939E+00
 0.1563588367596E+01
 0.1883675037839E+01
 0.1332414181235E+01
 0.8992398344306E+00
 0.6229333101675E+00
 0.4513128406929E+00
 0.1465757420895E+01
 0.1976170018055E+01
 0.1676717159741E+01
 0.1341778551010E+01
 0.1073063642137E+01
 0.8336055731724E+00
 0.1372945882633E+01
 0.2029142083167E+01
 0.1956677902041E+01
 0.1754328241490E+01
 0.1553483863290E+01
 0.1334174867325E+01
 0.1285534726052E+01
 0.2036320555703E+01
 0.2179031931744E+01
 0.2131128827255E+01
 0.1998612674343E+01
 0.1875172848281E+01
 0.1285534725714E+01
 0.2036320547066E+01
 0.2179031918439E+01
 0.2131128815183E+01
 0.1998612664761E+01
 0.1875172837964E+01
 0.1372945879523E+01
 0.2029142073395E+01
 0.1956677886831E+01
 0.1754328228841E+01
 0.1553483853589E+01
 0.1334174856693E+01
 0.1465757414663E+01
 0.1976170006531E+01
 0.1676717143187E+01
 0.1341778538582E+01
 0.1073063632742E+01
 0.8336055655139E+00
 0.1563588357487E+01
 0.1883675024320E+01
 0.1332414164221E+01
 0.8992398237537E+00
 0.6229333028832E+00
 0.4513128385894E+00
 0.1667530657515E+01
 0.1718373156416E+01
 0.9284597145478E+00
 0.4792122635001E+00
 0.2432951999654E+00
 0.1967261356977E+00
 0.1750437847189E+01
 0.1361522469273E+01
 0.5176552749567E+00
 0.7449339461949E-01
 0.5104921728626E-01
 0.3548394544103E-01
 0.1868989359199E+01
 0.1237669073417E+01
 0.7700046477802E+00
 0.4937566609237E+00
 0.3742366057206E+00
 0.3022268426871E+00
 0.2284445905536E+01
 0.1734722531158E+01
 0.1180866322948E+01
 0.7757909217340E+00
 0.5632417085614E+00
 0.4436294844864E+00
 0.2772926551012E+01
 0.2338565487935E+01
 0.1829386776934E+01
 0.1347164914238E+01
 0.1015318374541E+01
 0.8103248276209E+00
 0.3332281711342E+01
 0.3075953040662E+01
 0.2738074892213E+01
 0.2361962304222E+01
 0.2069814650195E+01
 0.2080448313277E+01
 0.3895570809179E+01
 0.3855760910915E+01
 0.3744723295708E+01
 0.3558681063106E+01
 0.3331886153785E+01
 0.3214358340750E+01
 0.4240574715690E+01
 0.4304270174199E+01
 0.4292229379122E+01
 0.4164985425136E+01
 0.3854012625990E+01
 0.3219906998652E+01
 0.4240574717486E+01
 0.4304270176445E+01
 0.4292229381836E+01
 0.4164985427607E+01
 0.3854012624966E+01
 0.3219906980962E+01
 0.3895570814570E+01
 0.3855760921461E+01
 0.3744723312214E+01
 0.3558681084841E+01
 0.3331886175161E+01
 0.3214358344980E+01
 0.3332281713412E+01
 0.3075953049734E+01
 0.2738074911115E+01
 0.2361962333695E+01
 0.2069814688823E+01
 0.2080448366307E+01
 0.2772926548714E+01
 0.2338565491816E+01
 0.1829386788818E+01
 0.1347164932217E+01
 0.1015318397285E+01
 0.8103248609223E+00
 0.2284445901199E+01
 0.1734722533348E+01
 0.1180866330295E+01
 0.7757909315656E+00
 0.5632417192920E+00
 0.4436294931835E+00
 0.1868989354260E+01
 0.1237669072558E+01
 0.7700046489552E+00
 0.4937566648328E+00
 0.3742366127930E+00
 0.3022268493404E+00
</DataArray>
<DataArray type="Float64" Name="S_Hyd" NumberOfComponents="1" ComponentName0="S_Hyd" format="ascii">
 0.1760272621916E+01
 0.1284798955233E+01
 0.1280124713621E+01
 0.1287071049878E+01
 0.1325682550292E+01
 0.1385229938880E+01
 0.1473042828542E+01
 0.1602624373504E+01
 0.1792153414839E+01
 0.2096718247371E+01
 0.2387768118291E+01
 0.3531509166283E+01
 0.1068094103249E+01
 0.1636345265726E+01
 0.1412043240171E+01
 0.1319032590139E+01
 0.1322538709578E+01
 0.1348064934806E+01
 0.1398422759808E+01
 0.1474537141609E+01
 0.1584250060014E+01
 0.1745232647295E+01
 0.1936635746086E+01
 0.2243596643270E+01
 0.2261153045799E+01
-0.2150762939294E-01
 0.1594595390752E+01
 0.1452315382518E+01
 0.1366050791064E+01
 0.1349589984322E+01
 0.1366890449475E+01
 0.1406233626224E+01
 0.1468029525268E+01
 0.1556171557508E+01
 0.1668443342759E+01
 0.1799600453599E+01
 0.1887950487657E+01
 0.1424548836657E+01
-0.2470321454323E+00
 0.1576217687347E+01
 0.1472193549500E+01
 0.1398938147554E+01
 0.1373643617975E+01
 0.1381007146926E+01
 0.1409383541018E+01
 0.1455586753907E+01
 0.1517148394683E+01
 0.1585783495231E+01
 0.1634608960818E+01
 0.1533621775088E+01
 0.9500018677442E+00
-0.2802865909048E+00
 0.1567027936318E+01
 0.1484457272063E+01
 0.1421633247427E+01
 0.1392724191578E+01
 0.1391423201830E+01
 0.1408627798246E+01
 0.1438197851050E+01
 0.1472927625686E+01
 0.1497224648959E+01
 0.1464507926770E+01
 0.1251309689326E+01
 0.6723502070266E+00
-0.2525337177218E+00
 0.1562055904564E+01
 0.1492854366538E+01
 0.1437578429401E+01
 0.1407016700445E+01
 0.1398559907991E+01
 0.1404873033475E+01
 0.1417913562814E+01
 0.1426568156099E+01
 0.1408266866777E+01
 0.1311390179379E+01
 0.1039251426243E+01
 0.5046542786453E+00
-0.2172942760803E+00
 0.1559210533086E+01
 0.1498866330996E+01
 0.1448893895668E+01
 0.1417338630780E+01
 0.1402931798703E+01
 0.1399180251751E+01
 0.1396705377629E+01
 0.1381186115864E+01
 0.1326376983488E+01
 0.1183632377412E+01
 0.8867646672211E+00
 0.3899600787946E+00
-0.1709311985545E+00
 0.1557425249931E+01
 0.1503190230044E+01
 0.1456902347144E+01
 0.1424570377385E+01
 0.1405218480642E+01
 0.1392602095213E+01
 0.1376274095352E+01
 0.1339790739314E+01
 0.1255841626042E+01
 0.1083101595897E+01
 0.7744124199460E+00
 0.3240692363748E+00
-0.2194986297242E+00
 0.1556254456218E+01
 0.1506263359315E+01
 0.1462492704756E+01
 0.1429479066686E+01
 0.1406108859070E+01
 0.1386055802933E+01
 0.1358050286837E+01
 0.1304427425916E+01
 0.1198704906268E+01
 0.1005942886888E+01
 0.6959256058750E+00
 0.2679462165621E+00
-0.2271350126609E+00
 0.1555471225232E+01
 0.1508359262193E+01
 0.1466244848584E+01
 0.1432652735091E+01
 0.1406202216369E+01
 0.1380365244290E+01
 0.1343282248552E+01
 0.1276794474619E+01
 0.1155671951583E+01
 0.9507663961797E+00
 0.6405819792014E+00
 0.2310102787884E+00
-0.2321040128126E+00
 0.1554977297637E+01
 0.1509660832364E+01
 0.1468546907475E+01
 0.1434527900606E+01
 0.1405982443020E+01
 0.1376187174045E+01
 0.1332925971796E+01
 0.1257890111770E+01
 0.1127090879348E+01
 0.9150517913946E+00
 0.6056349239978E+00
 0.2081641110365E+00
-0.2343861638549E+00
 0.1554735734556E+01
 0.1510283452431E+01
 0.1469639913204E+01
 0.1435393582505E+01
 0.1405786080704E+01
 0.1373981412994E+01
 0.1327595109592E+01
 0.1248312491459E+01
 0.1112843627874E+01
 0.8975210151087E+00
 0.5887211942459E+00
 0.1972629320466E+00
-0.2352788885549E+00
 0.1554735733655E+01
 0.1510283451569E+01
 0.1469639912379E+01
 0.1435393581717E+01
 0.1405786079967E+01
 0.1373981412337E+01
 0.1327595109067E+01
 0.1248312491141E+01
 0.1112843627827E+01
 0.8975210153186E+00
 0.5887211945326E+00
 0.1972629320547E+00
-0.2352788891583E+00
 0.1554977294931E+01
 0.1509660829778E+01
 0.1468546904999E+01
 0.1434527898241E+01
 0.1405982440803E+01
 0.1376187172065E+01
 0.1332925970211E+01
 0.1257890110803E+01
 0.1127090879204E+01
 0.9150517920532E+00
 0.6056349249254E+00
 0.2081641111298E+00
-0.2343861656572E+00
 0.1555471220717E+01
 0.1508359257882E+01
 0.1466244844455E+01
 0.1432652731146E+01
 0.1406202212664E+01
 0.1380365240967E+01
 0.1343282245869E+01
 0.1276794472959E+01
 0.1155671951330E+01
 0.9507663973688E+00
 0.6405819809791E+00
 0.2310102791913E+00
-0.2321040157867E+00
 0.1556254449887E+01
 0.1506263353278E+01
 0.1462492698975E+01
 0.1429479061154E+01
 0.1406108853862E+01
 0.1386055798235E+01
 0.1358050282998E+01
 0.1304427423483E+01
 0.1198704905873E+01
 0.1005942888725E+01
 0.6959256088710E+00
 0.2679462177170E+00
-0.2271350167517E+00
 0.1557425241770E+01
 0.1503190222281E+01
 0.1456902339710E+01
 0.1424570370260E+01
 0.1405218473911E+01
 0.1392602089098E+01
 0.1376274090275E+01
 0.1339790735986E+01
 0.1255841625408E+01
 0.1083101598541E+01
 0.7744124246187E+00
 0.3240692391920E+00
-0.2194986349373E+00
 0.1559210523078E+01
 0.1498866321508E+01
 0.1448893886583E+01
 0.1417338622055E+01
 0.1402931790427E+01
 0.1399180244171E+01
 0.1396705371218E+01
 0.1381186111466E+01
 0.1326376982427E+01
 0.1183632380932E+01
 0.8867646744281E+00
 0.3899600838675E+00
-0.1709312024241E+00
 0.1562055892725E+01
 0.1492854355349E+01
 0.1437578418694E+01
 0.1407016690139E+01
 0.1398559898163E+01
 0.1404873024355E+01
 0.1417913554855E+01
 0.1426568150143E+01
 0.1408266864353E+01
 0.1311390182606E+01
 0.1039251435323E+01
 0.5046542869988E+00
-0.2172942801482E+00
 0.1567027922577E+01
 0.1484457259174E+01
 0.1421633235133E+01
 0.1392724179740E+01
 0.1391423190483E+01
 0.1408627787557E+01
 0.1438197841385E+01
 0.1472927617752E+01
 0.1497224644138E+01
 0.1464507927777E+01
 0.1251309698550E+01
 0.6723502183465E+00
-0.2525337202292E+00
 0.1576217671652E+01
 0.1472193534942E+01
 0.1398938133729E+01
 0.1373643604657E+01
 0.1381007134099E+01
 0.1409383528786E+01
 0.1455586742524E+01
 0.1517148384701E+01
 0.1585783487660E+01
 0.1634608958188E+01
 0.1533621782533E+01
 0.9500018827106E+00
-0.2802865919052E+00
 0.1594595373012E+01
 0.1452315366360E+01
 0.1366050775802E+01
 0.1349589969594E+01
 0.1366890435220E+01
 0.1406233612502E+01
 0.1468029512228E+01
 0.1556171545487E+01
 0.1668443332506E+01
 0.1799600446333E+01
 0.1887950489638E+01
 0.1424548854193E+01
-0.2470321427173E+00
 0.1636345245731E+01
 0.1412043222600E+01
 0.1319032573611E+01
 0.1322538693499E+01
 0.1348064919189E+01
 0.1398422744673E+01
 0.1474537127029E+01
 0.1584250046115E+01
 0.1745232634478E+01
 0.1936635734937E+01
 0.2243596635394E+01
 0.2261153058995E+01
-0.2150761982332E-01
 0.1760272598823E+01
 0.1284798937210E+01
 0.1280124695801E+01
 0.1287071032542E+01
 0.1325682533375E+01
 0.1385229922426E+01
 0.1473042812567E+01
 0.1602624358026E+01
 0.1792153399809E+01
 0.2096718233148E+01
 0.2387768102824E+01
 0.3531509158978E+01
 0.1068094108270E+01
 0.1949848317938E+01
 0.1757208425029E+01
 0.1462999617687E+01
 0.1298872148362E+01
 0.1240065433538E+01
 0.1292433166602E+01
 0.2082796909138E+01
 0.1759453541011E+01
 0.1540321396508E+01
 0.1393270092921E+01
 0.1371092631553E+01
 0.1411119153377E+01
 0.2143037663622E+01
 0.1806115712825E+01
 0.1584324932267E+01
 0.1466944477377E+01
 0.1459076206544E+01
 0.1549327490257E+01
 0.2189879741388E+01
 0.1839856329753E+01
 0.1619255262074E+01
 0.1511506993446E+01
 0.1525867227474E+01
 0.1669209694898E+01
 0.2221536119043E+01
 0.1862620809734E+01
 0.1639991683358E+01
 0.1536712305712E+01
 0.1566105574036E+01
 0.1754176110732E+01
 0.2237633444882E+01
 0.1873814972121E+01
 0.1649522564236E+01
 0.1547266793008E+01
 0.1579966362860E+01
 0.1807973230881E+01
 0.2237633443562E+01
 0.1873814971382E+01
 0.1649522563824E+01
 0.1547266792712E+01
 0.1579966362296E+01
 0.1807973230598E+01
 0.2221536115126E+01
 0.1862620807530E+01
 0.1639991682137E+01
 0.1536712304829E+01
 0.1566105573083E+01
 0.1754176109078E+01
 0.2189879734992E+01
 0.1839856326147E+01
 0.1619255260036E+01
 0.1511506992121E+01
 0.1525867226484E+01
 0.1669209693313E+01
 0.2143037654945E+01
 0.1806115707930E+01
 0.1584324929451E+01
 0.1466944475569E+01
 0.1459076205574E+01
 0.1549327489657E+01
 0.2082796898395E+01
 0.1759453535037E+01
 0.1540321392952E+01
 0.1393270090598E+01
 0.1371092630345E+01
 0.1411119154048E+01
 0.1949848302595E+01
 0.1757208420408E+01
 0.1462999613064E+01
 0.1298872144236E+01
 0.1240065433515E+01
 0.1292433166200E+01
 0.3458252099076E+01
 0.5396047627019E+00
 0.5945110364508E+00
-0.2564950824226E-01
-0.1777209859047E+00
-0.2683850343544E+00
 0.2550397228021E+01
 0.1376916513491E+01
 0.5601265502705E+00
 0.3223079450369E+00
 0.6444049359683E-01
-0.3587533137355E-01
 0.2268899140520E+01
 0.1541875782591E+01
 0.8621890715555E+00
 0.5430888210411E+00
 0.3424679473596E+00
 0.2403616317449E+00
 0.2158435469197E+01
 0.1605676559129E+01
 0.1094896871733E+01
 0.7818808652103E+00
 0.5931718604139E+00
 0.5270053525314E+00
 0.2105750721532E+01
 0.1653957481791E+01
 0.1270858147125E+01
 0.1007468305463E+01
 0.8088557188142E+00
 0.7820249343404E+00
 0.2108172076410E+01
 0.1657092187929E+01
 0.1426331945120E+01
 0.1217352570574E+01
 0.1067166570796E+01
 0.8797882331595E+00
 0.2108172068837E+01
 0.1657092176654E+01
 0.1426331937707E+01
 0.1217352565007E+01
 0.1067166564937E+01
 0.8797882344479E+00
 0.2105750713355E+01
 0.1653957471591E+01
 0.1270858137773E+01
 0.1007468298762E+01
 0.8088557141024E+00
 0.7820249348116E+00
 0.2158435463545E+01
 0.1605676548234E+01
 0.1094896861086E+01
 0.7818808587831E+00
 0.5931718559248E+00
 0.5270053523958E+00
 0.2268899138045E+01
 0.1541875769736E+01
 0.8621890603123E+00
 0.5430888156883E+00
 0.3424679432947E+00
 0.2403616308475E+00
 0.2550397228496E+01
 0.1376916495389E+01
 0.5601265424060E+00
 0.3223079404527E+00
 0.6444048993116E-01
-0.3587533296756E-01
 0.3458252088035E+01
 0.5396047475913E+00
 0.5945110328649E+00
-0.2564951500163E-01
-0.1777209862963E+00
-0.2683850378768E+00
 0.1286849440671E+01
 0.8294309118708E+00
 0.4876347301623E+00
 0.1558623449882E+00
-0.1098404838615E+00
-0.2568756871150E+00
 0.1397425036324E+01
 0.1140038953889E+01
 0.7672291721696E+00
 0.3619672176371E+00
-0.2347219100344E-01
-0.2944155101189E+00
 0.1569736442838E+01
 0.1460553691854E+01
 0.1224931241375E+01
 0.8487703991718E+00
 0.2931604443395E+00
-0.2512290083084E+00
 0.1733933281651E+01
 0.1771670136227E+01
 0.1738411846325E+01
 0.1624344777353E+01
 0.1342553971046E+01
 0.6068865098236E+00
 0.1879552364236E+01
 0.1991369552006E+01
 0.2122544275803E+01
 0.2279159267491E+01
 0.2445301923497E+01
 0.2414151536571E+01
 0.1943385179773E+01
 0.2063880952045E+01
 0.2247742926127E+01
 0.2514876958529E+01
 0.2938676165170E+01
 0.3759574170095E+01
 0.1943385178460E+01
 0.2063880949937E+01
 0.2247742923686E+01
 0.2514876956860E+01
 0.2938676167793E+01
 0.3759574199258E+01
 0.1879552363525E+01
 0.1991369550619E+01
 0.2122544276924E+01
 0.2279159274383E+01
 0.2445301943495E+01
 0.2414151596445E+01
 0.1733933279677E+01
 0.1771670137128E+01
 0.1738411854046E+01
 0.1624344797277E+01
 0.1342554010949E+01
 0.6068865572533E+00
 0.1569736440645E+01
 0.1460553695094E+01
 0.1224931251735E+01
 0.8487704171861E+00
 0.2931604640286E+00
-0.2512289976084E+00
 0.1397425035031E+01
 0.1140038957992E+01
 0.7672291790998E+00
 0.3619672242661E+00
-0.2347218902111E-01
-0.2944155162780E+00
 0.1286849443314E+01
 0.8294309135122E+00
 0.4876347306475E+00
 0.1558623438278E+00
-0.1098404857764E+00
-0.2568756851833E+00
</DataArray>
<DataArray type="Float64" Name="S_Oct" NumberOfComponents="1" ComponentName0="S_Oct" format="ascii">
 0.1536256832759E+01
 0.1435191592449E+01
 0.1372576145491E+01
 0.1391285636418E+01
 0.1430529571037E+01
 0.1494670898611E+01
 0.1588698286694E+01
 0.1724688717546E+01
 0.1928849459688E+01
 0.2198191846525E+01
 0.2659821113757E+01
 0.2656566528317E+01
 0.5242585179254E+01
 0.1365310267767E+01
 0.1458863458555E+01
 0.1419149258092E+01
 0.1418684673833E+01
 0.1448393365717E+01
 0.1499483024835E+01
 0.1576092157961E+01
 0.1685408764966E+01
 0.1827242586033E+01
 0.2008919708823E+01
 0.2116458100555E+01
 0.1933887489552E+01
 0.3399750166231E+01
 0.1286147440094E+01
 0.1420531861324E+01
 0.1436857422207E+01
 0.1434738638991E+01
 0.1454043753527E+01
 0.1490301995784E+01
 0.1544587522250E+01
 0.1616525980311E+01
 0.1698298992453E+01
 0.1763239032960E+01
 0.1661831086071E+01
 0.1629666989474E+01
 0.2852338352862E+01
 0.1242828926769E+01
 0.1380833761258E+01
 0.1430335802986E+01
 0.1438372558981E+01
 0.1449207940743E+01
 0.1469470020511E+01
 0.1498378035455E+01
 0.1531420925524E+01
 0.1555229057830E+01
 0.1523706153255E+01
 0.1395825276253E+01
 0.1568983734556E+01
 0.2602553374080E+01
 0.1216419539875E+01
 0.1347600122028E+01
 0.1413086315077E+01
 0.1430920128533E+01
 0.1435890040527E+01
 0.1440029343670E+01
 0.1443360669842E+01
 0.1440241837754E+01
 0.1414973272644E+01
 0.1339685644835E+01
 0.1273662063764E+01
 0.1592529497592E+01
 0.2451720826226E+01
 0.1198957842354E+01
 0.1320743879839E+01
 0.1392242030498E+01
 0.1416246270930E+01
 0.1416417897599E+01
 0.1405476239640E+01
 0.1385191123321E+01
 0.1351214797174E+01
 0.1293914011330E+01
 0.1217496827751E+01
 0.1234745195408E+01
 0.1636868093278E+01
 0.2343617866754E+01
 0.1186686607678E+01
 0.1299168759498E+01
 0.1371358422014E+01
 0.1398054423209E+01
 0.1393657717439E+01
 0.1369399427632E+01
 0.1328873770238E+01
 0.1271537517741E+01
 0.1199311540038E+01
 0.1144843443401E+01
 0.1235934409308E+01
 0.1679554705171E+01
 0.2274105577726E+01
 0.1177762578416E+01
 0.1281981446212E+01
 0.1352292340914E+01
 0.1379235304510E+01
 0.1370369302719E+01
 0.1334872732431E+01
 0.1278176822926E+01
 0.1205152801813E+01
 0.1130463927514E+01
 0.1105222639866E+01
 0.1255614450089E+01
 0.1700782578285E+01
 0.2310082468424E+01
 0.1171211563924E+01
 0.1268590231202E+01
 0.1336075930298E+01
 0.1361903866595E+01
 0.1348879404495E+01
 0.1304337949979E+01
 0.1235529722559E+01
 0.1153132512988E+01
 0.1082610067932E+01
 0.1086172326796E+01
 0.1276467530130E+01
 0.1726561834286E+01
 0.2329647653313E+01
 0.1166545205322E+01
 0.1258688982039E+01
 0.1323393328496E+01
 0.1347636935162E+01
 0.1331111746387E+01
 0.1279802477633E+01
 0.1202624707096E+01
 0.1115306579332E+01
 0.1051340879464E+01
 0.1078151957729E+01
 0.1295123945742E+01
 0.1749554708199E+01
 0.2342821447484E+01
 0.1163522529832E+01
 0.1252132384338E+01
 0.1314699801199E+01
 0.1337541076066E+01
 0.1318491139032E+01
 0.1262701409006E+01
 0.1180364579026E+01
 0.1090850253333E+01
 0.1032738344224E+01
 0.1075463589542E+01
 0.1309097824394E+01
 0.1765952841608E+01
 0.2351636835792E+01
 0.1162032388949E+01
 0.1248862778583E+01
 0.1310282710393E+01
 0.1332321359742E+01
 0.1311950947372E+01
 0.1253935785411E+01
 0.1169161948494E+01
 0.1078886603189E+01
 0.1024103897452E+01
 0.1074881627869E+01
 0.1316518978405E+01
 0.1774410085919E+01
 0.2356125013402E+01
 0.1162032388264E+01
 0.1248862777843E+01
 0.1310282709636E+01
 0.1332321359013E+01
 0.1311950946719E+01
 0.1253935784883E+01
 0.1169161948127E+01
 0.1078886602946E+01
 0.1024103897166E+01
 0.1074881627263E+01
 0.1316518977385E+01
 0.1774410084927E+01
 0.2356125012933E+01
 0.1163522527773E+01
 0.1252132382113E+01
 0.1314699798923E+01
 0.1337541073872E+01
 0.1318491137060E+01
 0.1262701407410E+01
 0.1180364577916E+01
 0.1090850252619E+01
 0.1032738343419E+01
 0.1075463587807E+01
 0.1309097821379E+01
 0.1765952838617E+01
 0.2351636834416E+01
 0.1166545201881E+01
 0.1258688978314E+01
 0.1323393324682E+01
 0.1347636931478E+01
 0.1331111743063E+01
 0.1279802474926E+01
 0.1202624705211E+01
 0.1115306578182E+01
 0.1051340878304E+01
 0.1078151955122E+01
 0.1295123940879E+01
 0.1749554703177E+01
 0.2342821445293E+01
 0.1171211559083E+01
 0.1268590225950E+01
 0.1336075924918E+01
 0.1361903861384E+01
 0.1348879399763E+01
 0.1304337946086E+01
 0.1235529719837E+01
 0.1153132511439E+01
 0.1082610066672E+01
 0.1086172323764E+01
 0.1276467523747E+01
 0.1726561827205E+01
 0.2329647650443E+01
 0.1177762572149E+01
 0.1281981439395E+01
 0.1352292333926E+01
 0.1379235297719E+01
 0.1370369296504E+01
 0.1334872727249E+01
 0.1278176819256E+01
 0.1205152799858E+01
 0.1130463926464E+01
 0.1105222637079E+01
 0.1255614442767E+01
 0.1700782569289E+01
 0.2310082464888E+01
 0.1186686599947E+01
 0.1299168751067E+01
 0.1371358413368E+01
 0.1398054414774E+01
 0.1393657709650E+01
 0.1369399421028E+01
 0.1328873765450E+01
 0.1271537515274E+01
 0.1199311539470E+01
 0.1144843441806E+01
 0.1235934401944E+01
 0.1679554694863E+01
 0.2274105573543E+01
 0.1198957833085E+01
 0.1320743869694E+01
 0.1392242020088E+01
 0.1416246260733E+01
 0.1416417888060E+01
 0.1405476231313E+01
 0.1385191116899E+01
 0.1351214793429E+01
 0.1293914010568E+01
 0.1217496827635E+01
 0.1234745189475E+01
 0.1636868081826E+01
 0.2343617863979E+01
 0.1216419528997E+01
 0.1347600110055E+01
 0.1413086302803E+01
 0.1430920116480E+01
 0.1435890029100E+01
 0.1440029333341E+01
 0.1443360661247E+01
 0.1440241831759E+01
 0.1414973270298E+01
 0.1339685645592E+01
 0.1273662060843E+01
 0.1592529486470E+01
 0.2451720823595E+01
 0.1242828914152E+01
 0.1380833747319E+01
 0.1430335788801E+01
 0.1438372545088E+01
 0.1449207927447E+01
 0.1469470008149E+01
 0.1498378024534E+01
 0.1531420916829E+01
 0.1555229052660E+01
 0.1523706153278E+01
 0.1395825276941E+01
 0.1568983725372E+01
 0.2602553372986E+01
 0.1286147425510E+01
 0.1420531845250E+01
 0.1436857406134E+01
 0.1434738623348E+01
 0.1454043738444E+01
 0.1490301981456E+01
 0.1544587509002E+01
 0.1616525968740E+01
 0.1698298983551E+01
 0.1763239029364E+01
 0.1661831088586E+01
 0.1629666984587E+01
 0.2852338354764E+01
 0.1365310250763E+01
 0.1458863440215E+01
 0.1419149240337E+01
 0.1418684656584E+01
 0.1448393348980E+01
 0.1499483008702E+01
 0.1576092142580E+01
 0.1685408750643E+01
 0.1827242573375E+01
 0.2008919699168E+01
 0.2116458099025E+01
 0.1933887487869E+01
 0.3399750173330E+01
 0.1536256812198E+01
 0.1435191572457E+01
 0.1372576126381E+01
 0.1391285617709E+01
 0.1430529552810E+01
 0.1494670880897E+01
 0.1588698269540E+01
 0.1724688700989E+01
 0.1928849443924E+01
 0.2198191831433E+01
 0.2659821101663E+01
 0.2656566518944E+01
 0.5242585170728E+01
 0.5825763927898E+00
 0.9450024076092E+00
 0.1098678315506E+01
 0.1142372016645E+01
 0.1122900444319E+01
 0.1061902406652E+01
 0.5535978637358E+00
 0.9613721523800E+00
 0.1168697551758E+01
 0.1256190310455E+01
 0.1266040512054E+01
 0.1217154007329E+01
 0.5302701064539E+00
 0.9836867227618E+00
 0.1229473372085E+01
 0.1356084034920E+01
 0.1407832189868E+01
 0.1406912118723E+01
 0.5135545578998E+00
 0.1003004814478E+01
 0.1279507796716E+01
 0.1440305855058E+01
 0.1538827625545E+01
 0.1603008621428E+01
 0.5027613649619E+00
 0.1017053327917E+01
 0.1315206347892E+01
 0.1502765401445E+01
 0.1643202542919E+01
 0.1775580124626E+01
 0.4974586635316E+00
 0.1024410000865E+01
 0.1333849903388E+01
 0.1536259657871E+01
 0.1702897035840E+01
 0.1881755508170E+01
 0.4974586636175E+00
 0.1024410000402E+01
 0.1333849902852E+01
 0.1536259657370E+01
 0.1702897035479E+01
 0.1881755508407E+01
 0.5027613652227E+00
 0.1017053326546E+01
 0.1315206346309E+01
 0.1502765399977E+01
 0.1643202541699E+01
 0.1775580124642E+01
 0.5135545583462E+00
 0.1003004812253E+01
 0.1279507794156E+01
 0.1440305852700E+01
 0.1538827623388E+01
 0.1603008620362E+01
 0.5302701071063E+00
 0.9836867197731E+00
 0.1229473368646E+01
 0.1356084031773E+01
 0.1407832186885E+01
 0.1406912116570E+01
 0.5535978646272E+00
 0.9613721487490E+00
 0.1168697547566E+01
 0.1256190306594E+01
 0.1266040508288E+01
 0.1217154004241E+01
 0.5825763936584E+00
 0.9450024036988E+00
 0.1098678310693E+01
 0.1142372011991E+01
 0.1122900439846E+01
 0.1061902402697E+01
 0.8251643247895E+00
 0.6418278534635E+00
 0.2440250425927E+00
 0.3511652490711E-01
 0.2406483198529E-01
 0.1672728826992E-01
 0.7860814976844E+00
 0.8100488816645E+00
 0.4376801140569E+00
 0.2259028309000E+00
 0.1146904590604E+00
 0.9273758755540E-01
 0.7370826251409E+00
 0.8879729285385E+00
 0.6281060686003E+00
 0.4239057232260E+00
 0.2936535785643E+00
 0.2127509133937E+00
 0.6909646745929E+00
 0.9315754803626E+00
 0.7904120491896E+00
 0.6325204748466E+00
 0.5058470519998E+00
 0.3929654357500E+00
 0.6472128958748E+00
 0.9565467513323E+00
 0.9223868087539E+00
 0.8269982639897E+00
 0.7323193161308E+00
 0.6289360639827E+00
 0.6060068814948E+00
 0.9599307157382E+00
 0.1027205503572E+01
 0.1004623763556E+01
 0.9421550499954E+00
 0.8839649579440E+00
 0.6060068813356E+00
 0.9599307116665E+00
 0.1027205497300E+01
 0.1004623757865E+01
 0.9421550454785E+00
 0.8839649530806E+00
 0.6472128944084E+00
 0.9565467467258E+00
 0.9223868015838E+00
 0.8269982580269E+00
 0.7323193115579E+00
 0.6289360589707E+00
 0.6909646716553E+00
 0.9315754749305E+00
 0.7904120413863E+00
 0.6325204689879E+00
 0.5058470475708E+00
 0.3929654321398E+00
 0.7370826203758E+00
 0.8879729221655E+00
 0.6281060605800E+00
 0.4239057181928E+00
 0.2936535751304E+00
 0.2127509124021E+00
 0.7860814905102E+00
 0.8100488743406E+00
 0.4376801068102E+00
 0.2259028274325E+00
 0.1146904571504E+00
 0.9273758972563E-01
 0.8251643145284E+00
 0.6418278471740E+00
 0.2440250368259E+00
 0.3511652299270E-01
 0.2406483181159E-01
 0.1672729229640E-01
 0.8810500332369E+00
 0.5834427964523E+00
 0.3629836719937E+00
 0.2327591221301E+00
 0.1764168277822E+00
 0.1424710999471E+00
 0.1076898127372E+01
 0.8177560435058E+00
 0.5566657230876E+00
 0.3657113476940E+00
 0.2655146877139E+00
 0.2091289445431E+00
 0.1307170111969E+01
 0.1102410343178E+01
 0.8623811969220E+00
 0.6350596308228E+00
 0.4786256718007E+00
 0.3819907870497E+00
 0.1570852663276E+01
 0.1450018169109E+01
 0.1290740882454E+01
 0.1113439708148E+01
 0.9757199833013E+00
 0.9807327401511E+00
 0.1836389690509E+01
 0.1817623124495E+01
 0.1765279490708E+01
 0.1677578341202E+01
 0.1570666195655E+01
 0.1515263053272E+01
 0.1999026091728E+01
 0.2029052418823E+01
 0.2023376333590E+01
 0.1963392958438E+01
 0.1816798975077E+01
 0.1517878715691E+01
 0.1999026092575E+01
 0.2029052419882E+01
 0.2023376334870E+01
 0.1963392959603E+01
 0.1816798974595E+01
 0.1517878707352E+01
 0.1836389693050E+01
 0.1817623129466E+01
 0.1765279498489E+01
 0.1677578351447E+01
 0.1570666205732E+01
 0.1515263055266E+01
 0.1570852664252E+01
 0.1450018173386E+01
 0.1290740891364E+01
 0.1113439722042E+01
 0.9757200015107E+00
 0.9807327651493E+00
 0.1307170110885E+01
 0.1102410345008E+01
 0.8623812025242E+00
 0.6350596392984E+00
 0.4786256825227E+00
 0.3819908027481E+00
 0.1076898125328E+01
 0.8177560445383E+00
 0.5566657265510E+00
 0.3657113523287E+00
 0.2655146927723E+00
 0.2091289486430E+00
 0.8810500309083E+00
 0.5834427960469E+00
 0.3629836725476E+00
 0.2327591239729E+00
 0.1764168311161E+00
 0.1424711030835E+00
</DataArray>
<DataArray type="Float64" Name="OI" NumberOfComponents="1" ComponentName0="OI" format="ascii">
 0.1536256832759E+01
 0.1435191592449E+01
 0.1372576145491E+01
 0.1391285636418E+01
 0.1430529571037E+01
 0.1494670898611E+01
 0.1588698286694E+01
 0.1724688717546E+01
 0.1928849459688E+01
 0.2198191846525E+01
 0.2659821113757E+01
 0.2656566528317E+01
 0.5242585179254E+01
 0.1365310267767E+01
 0.1458863458555E+01
 0.1419149258092E+01
 0.1418684673833E+01
 0.1448393365717E+01
 0.1499483024835E+01
 0.1576092157961E+01
 0.1685408764966E+01
 0.1827242586033E+01
 0.2008919708823E+01
 0.2116458100555E+01
 0.1933887489552E+01
 0.3399750166231E+01
 0.1286147440094E+01
 0.1420531861324E+01
 0.1436857422207E+01
 0.1434738638991E+01
 0.1454043753527E+01
 0.1490301995784E+01
 0.1544587522250E+01
 0.1616525980311E+01
 0.1698298992453E+01
 0.1763239032960E+01
 0.1661831086071E+01
 0.1629666989474E+01
 0.2852338352862E+01
 0.1242828926769E+01
 0.1380833761258E+01
 0.1430335802986E+01
 0.1438372558981E+01
 0.1449207940743E+01
 0.1469470020511E+01
 0.1498378035455E+01
 0.1531420925524E+01
 0.1555229057830E+01
 0.1523706153255E+01
 0.1395825276253E+01
 0.1568983734556E+01
 0.2602553374080E+01
 0.1216419539875E+01
 0.1347600122028E+01
 0.1413086315077E+01
 0.1430920128533E+01
 0.1435890040527E+01
 0.1440029343670E+01
 0.1443360669842E+01
 0.1440241837754E+01
 0.1414973272644E+01
 0.1339685644835E+01
 0.1273662063764E+01
 0.1592529497592E+01
 0.2451720826226E+01
 0.1198957842354E+01
 0.1320743879839E+01
 0.1392242030498E+01
 0.1416246270930E+01
 0.1416417897599E+01
 0.1405476239640E+01
 0.1385191123321E+01
 0.1351214797174E+01
 0.1293914011330E+01
 0.1217496827751E+01
 0.1234745195408E+01
 0.1636868093278E+01
 0.2343617866754E+01
 0.1186686607678E+01
 0.1299168759498E+01
 0.1371358422014E+01
 0.1398054423209E+01
 0.1393657717439E+01
 0.1369399427632E+01
 0.1328873770238E+01
 0.1271537517741E+01
 0.1199311540038E+01
 0.1144843443401E+01
 0.1235934409308E+01
 0.1679554705171E+01
 0.2274105577726E+01
 0.1177762578416E+01
 0.1281981446212E+01
 0.1352292340914E+01
 0.1379235304510E+01
 0.1370369302719E+01
 0.1334872732431E+01
 0.1278176822926E+01
 0.1205152801813E+01
 0.1130463927514E+01
 0.1105222639866E+01
 0.1255614450089E+01
 0.1700782578285E+01
 0.2310082468424E+01
 0.1171211563924E+01
 0.1268590231202E+01
 0.1336075930298E+01
 0.1361903866595E+01
 0.1348879404495E+01
 0.1304337949979E+01
 0.1235529722559E+01
 0.1153132512988E+01
 0.1082610067932E+01
 0.1086172326796E+01
 0.1276467530130E+01
 0.1726561834286E+01
 0.2329647653313E+01
 0.1166545205322E+01
 0.1258688982039E+01
 0.1323393328496E+01
 0.1347636935162E+01
 0.1331111746387E+01
 0.1279802477633E+01
 0.1202624707096E+01
 0.1115306579332E+01
 0.1051340879464E+01
 0.1078151957729E+01
 0.1295123945742E+01
 0.1749554708199E+01
 0.2342821447484E+01
 0.1163522529832E+01
 0.1252132384338E+01
 0.1314699801199E+01
 0.1337541076066E+01
 0.1318491139032E+01
 0.1262701409006E+01
 0.1180364579026E+01
 0.1090850253333E+01
 0.1032738344224E+01
 0.1075463589542E+01
 0.1309097824394E+01
 0.1765952841608E+01
 0.2351636835792E+01
 0.1162032388949E+01
 0.1248862778583E+01
 0.1310282710393E+01
 0.1332321359742E+01
 0.1311950947372E+01
 0.1253935785411E+01
 0.1169161948494E+01
 0.1078886603189E+01
 0.1024103897452E+01
 0.1074881627869E+01
 0.1316518978405E+01
 0.1774410085919E+01
 0.2356125013402E+01
 0.1162032388264E+01
 0.1248862777843E+01
 0.1310282709636E+01
 0.1332321359013E+01
 0.1311950946719E+01
 0.1253935784883E+01
 0.1169161948127E+01
 0.1078886602946E+01
 0.1024103897166E+01
 0.1074881627263E+01
 0.1316518977385E+01
 0.1774410084927E+01
 0.2356125012933E+01
 0.1163522527773E+01
 0.1252132382113E+01
 0.1314699798923E+01
 0.1337541073872E+01
 0.1318491137060E+01
 0.1262701407410E+01
 0.1180364577916E+01
 0.1090850252619E+01
 0.1032738343419E+01
 0.1075463587807E+01
 0.1309097821379E+01
 0.1765952838617E+01
 0.2351636834416E+01
 0.1166545201881E+01
 0.1258688978314E+01
 0.1323393324682E+01
 0.1347636931478E+01
 0.1331111743063E+01
 0.1279802474926E+01
 0.1202624705211E+01
 0.1115306578182E+01
 0.1051340878304E+01
 0.1078151955122E+01
 0.1295123940879E+01
 0.1749554703177E+01
 0.2342821445293E+01
 0.1171211559083E+01
 0.1268590225950E+01
 0.1336075924918E+01
 0.1361903861384E+01
 0.1348879399763E+01
 0.1304337946086E+01
 0.1235529719837E+01
 0.1153132511439E+01
 0.1082610066672E+01
 0.1086172323764E+01
 0.1276467523747E+01
 0.1726561827205E+01
 0.2329647650443E+01
 0.1177762572149E+01
 0.1281981439395E+01
 0.1352292333926E+01
 0.1379235297719E+01
 0.1370369296504E+01
 0.1334872727249E+01
 0.1278176819256E+01
 0.1205152799858E+01
 0.1130463926464E+01
 0.1105222637079E+01
 0.1255614442767E+01
 0.1700782569289E+01
 0.2310082464888E+01
 0.1186686599947E+01
 0.1299168751067E+01
 0.1371358413368E+01
 0.1398054414774E+01
 0.1393657709650E+01
 0.1369399421028E+01
 0.1328873765450E+01
 0.1271537515274E+01
 0.1199311539470E+01
 0.1144843441806E+01
 0.1235934401944E+01
 0.1679554694863E+01
 0.2274105573543E+01
 0.1198957833085E+01
 0.1320743869694E+01
 0.1392242020088E+01
 0.1416246260733E+01
 0.1416417888060E+01
 0.1405476231313E+01
 0.1385191116899E+01
 0.1351214793429E+01
 0.1293914010568E+01
 0.1217496827635E+01
 0.1234745189475E+01
 0.1636868081826E+01
 0.2343617863979E+01
 0.1216419528997E+01
 0.1347600110055E+01
 0.1413086302803E+01
 0.1430920116480E+01
 0.1435890029100E+01
 0.1440029333341E+01
 0.1443360661247E+01
 0.1440241831759E+01
 0.1414973270298E+01
 0.1339685645592E+01
 0.1273662060843E+01
 0.1592529486470E+01
 0.2451720823595E+01
 0.1242828914152E+01
 0.1380833747319E+01
 0.1430335788801E+01
 0.1438372545088E+01
 0.1449207927447E+01
 0.1469470008149E+01
 0.1498378024534E+01
 0.1531420916829E+01
 0.1555229052660E+01
 0.1523706153278E+01
 0.1395825276941E+01
 0.1568983725372E+01
 0.2602553372986E+01
 0.1286147425510E+01
 0.1420531845250E+01
 0.1436857406134E+01
 0.1434738623348E+01
 0.1454043738444E+01
 0.1490301981456E+01
 0.1544587509002E+01
 0.1616525968740E+01
 0.1698298983551E+01
 0.1763239029364E+01
 0.1661831088586E+01
 0.1629666984587E+01
 0.2852338354764E+01
 0.1365310250763E+01
 0.1458863440215E+01
 0.1419149240337E+01
 0.1418684656584E+01
 0.1448393348980E+01
 0.1499483008702E+01
 0.1576092142580E+01
 0.1685408750643E+01
 0.1827242573375E+01
 0.2008919699168E+01
 0.2116458099025E+01
 0.1933887487869E+01
 0.3399750173330E+01
 0.1536256812198E+01
 0.1435191572457E+01
 0.1372576126381E+01
 0.1391285617709E+01
 0.1430529552810E+01
 0.1494670880897E+01
 0.1588698269540E+01
 0.1724688700989E+01
 0.1928849443924E+01
 0.2198191831433E+01
 0.2659821101663E+01
 0.2656566518944E+01
 0.5242585170728E+01
 0.5825763927898E+00
 0.9450024076092E+00
 0.1098678315506E+01
 0.1142372016645E+01
 0.1122900444319E+01
 0.1061902406652E+01
 0.5535978637358E+00
 0.9613721523800E+00
 0.1168697551758E+01
 0.1256190310455E+01
 0.1266040512054E+01
 0.1217154007329E+01
 0.5302701064539E+00
 0.9836867227618E+00
 0.1229473372085E+01
 0.1356084034920E+01
 0.1407832189868E+01
 0.1406912118723E+01
 0.5135545578998E+00
 0.1003004814478E+01
 0.1279507796716E+01
 0.1440305855058E+01
 0.1538827625545E+01
 0.1603008621428E+01
 0.5027613649619E+00
 0.1017053327917E+01
 0.1315206347892E+01
 0.1502765401445E+01
 0.1643202542919E+01
 0.1775580124626E+01
 0.4974586635316E+00
 0.1024410000865E+01
 0.1333849903388E+01
 0.1536259657871E+01
 0.1702897035840E+01
 0.1881755508170E+01
 0.4974586636175E+00
 0.1024410000402E+01
 0.1333849902852E+01
 0.1536259657370E+01
 0.1702897035479E+01
 0.1881755508407E+01
 0.5027613652227E+00
 0.1017053326546E+01
 0.1315206346309E+01
 0.1502765399977E+01
 0.1643202541699E+01
 0.1775580124642E+01
 0.5135545583462E+00
 0.1003004812253E+01
 0.1279507794156E+01
 0.1440305852700E+01
 0.1538827623388E+01
 0.1603008620362E+01
 0.5302701071063E+00
 0.9836867197731E+00
 0.1229473368646E+01
 0.1356084031773E+01
 0.1407832186885E+01
 0.1406912116570E+01
 0.5535978646272E+00
 0.9613721487490E+00
 0.1168697547566E+01
 0.1256190306594E+01
 0.1266040508288E+01
 0.1217154004241E+01
 0.5825763936584E+00
 0.9450024036988E+00
 0.1098678310693E+01
 0.1142372011991E+01
 0.1122900439846E+01
 0.1061902402697E+01
 0.8251643247895E+00
 0.6418278534635E+00
 0.2440250425927E+00
 0.3511652490711E-01
 0.2406483198529E-01
 0.1672728826992E-01
 0.7860814976844E+00
 0.8100488816645E+00
 0.4376801140569E+00
 0.2259028309000E+00
 0.1146904590604E+00
 0.9273758755540E-01
 0.7370826251409E+00
 0.8879729285385E+00
 0.6281060686003E+00
 0.4239057232260E+00
 0.2936535785643E+00
 0.2127509133937E+00
 0.6909646745929E+00
 0.9315754803626E+00
 0.7904120491896E+00
 0.6325204748466E+00
 0.5058470519998E+00
 0.3929654357500E+00
 0.6472128958748E+00
 0.9565467513323E+00
 0.9223868087539E+00
 0.8269982639897E+00
 0.7323193161308E+00
 0.6289360639827E+00
 0.6060068814948E+00
 0.9599307157382E+00
 0.1027205503572E+01
 0.1004623763556E+01
 0.9421550499954E+00
 0.8839649579440E+00
 0.6060068813356E+00
 0.9599307116665E+00
 0.1027205497300E+01
 0.1004623757865E+01
 0.9421550454785E+00
 0.8839649530806E+00
 0.6472128944084E+00
 0.9565467467258E+00
 0.9223868015838E+00
 0.8269982580269E+00
 0.7323193115579E+00
 0.6289360589707E+00
 0.6909646716553E+00
 0.9315754749305E+00
 0.7904120413863E+00
 0.6325204689879E+00
 0.5058470475708E+00
 0.3929654321398E+00
 0.7370826203758E+00
 0.8879729221655E+00
 0.6281060605800E+00
 0.4239057181928E+00
 0.2936535751304E+00
 0.2127509124021E+00
 0.7860814905102E+00
 0.8100488743406E+00
 0.4376801068102E+00
 0.2259028274325E+00
 0.1146904571504E+00
 0.9273758972563E-01
 0.8251643145284E+00
 0.6418278471740E+00
 0.2440250368259E+00
 0.3511652299270E-01
 0.2406483181159E-01
 0.1672729229640E-01
 0.8810500332369E+00
 0.5834427964523E+00
 0.3629836719937E+00
 0.2327591221301E+00
 0.1764168277822E+00
 0.1424710999471E+00
 0.1076898127372E+01
 0.8177560435058E+00
 0.5566657230876E+00
 0.3657113476940E+00
 0.2655146877139E+00
 0.2091289445431E+00
 0.1307170111969E+01
 0.1102410343178E+01
 0.8623811969220E+00
 0.6350596308228E+00
 0.4786256718007E+00
 0.3819907870497E+00
 0.1570852663276E+01
 0.1450018169109E+01
 0.1290740882454E+01
 0.1113439708148E+01
 0.9757199833013E+00
 0.9807327401511E+00
 0.1836389690509E+01
 0.1817623124495E+01
 0.1765279490708E+01
 0.1677578341202E+01
 0.1570666195655E+01
 0.1515263053272E+01
 0.1999026091728E+01
 0.2029052418823E+01
 0.2023376333590E+01
 0.1963392958438E+01
 0.1816798975077E+01
 0.1517878715691E+01
 0.1999026092575E+01
 0.2029052419882E+01
 0.2023376334870E+01
 0.1963392959603E+01
 0.1816798974595E+01
 0.1517878707352E+01
 0.1836389693050E+01
 0.1817623129466E+01
 0.1765279498489E+01
 0.1677578351447E+01
 0.1570666205732E+01
 0.1515263055266E+01
 0.1570852664252E+01
 0.1450018173386E+01
 0.1290740891364E+01
 0.1113439722042E+01
 0.9757200015107E+00
 0.9807327651493E+00
 0.1307170110885E+01
 0.1102410345008E+01
 0.8623812025242E+00
 0.6350596392984E+00
 0.4786256825227E+00
 0.3819908027481E+00
 0.1076898125328E+01
 0.8177560445383E+00
 0.5566657265510E+00
 0.3657113523287E+00
 0.2655146927723E+00
 0.2091289486430E+00
 0.8810500309083E+00
 0.5834427960469E+00
 0.3629836725476E+00
 0.2327591239729E+00
 0.1764168311161E+00
 0.1424711030835E+00
</DataArray>
<DataArray type="Float64" Name="CK" NumberOfComponents="1" ComponentName0="CK" format="ascii">
 0.0000000000000E+00
 0.0000000000000E+00
 0.0000000000000E+00
 0.0000000000000E+00
 0.0000000000000E+00
 0.0000000000000E+00
 0.0000000000000E+00
 0.0000000000000E+00
 0.0000000000000E+00
 0.0000000000000E+00
 0.0000000000000E+00
 0.0000000000000E+00
 0.0000000000000E+00
 0.0000000000000E+00
 0.0000000000000E+00
 0.0000000000000E+00
 0.0000000000000E+00
 0.0000000000000E+00
 0.0000000000000E+00
 0.0000000000000E+00
 0.0000000000000E+00
 0.0000000000000E+00
 0.0000000000000E+00
 0.0000000000000E+00
 0.0000000000000E+00
 0.0000000000000E+00
 0.0000000000000E+00
 0.0000000000000E+00
 0.0000000000000E+00
 0.0000000000000E+00
 0.0000000000000E+00
 0.0000000000000E+00
 0.0000000000000E+00
 0.0000000000000E+00
 0.0000000000000E+00
 0.0000000000000E+00
 0.0000000000000E+00
 0.0000000000000E+00
 0.0000000000000E+00
 0.0000000000000E+00
 0.0000000000000E+00
 0.0000000000000E+00
 0.0000000000000E+00
 0.0000000000000E+00
 0.0000000000000E+00
 0.0000000000000E+00
 0.0000000000000E+00
 0.0000000000000E+00
 0.0000000000000E+00
 0.0000000000000E+00
 0.0000000000000E+00
 0.0000000000000E+00
 0.0000000000000E+00
 0.0000000000000E+00
 0.0000000000000E+00
 0.0000000000000E+00
 0.0000000000000E+00
 0.0000000000000E+00
 0.0000000000000E+00
 0.0000000000000E+00
 0.0000000000000E+00
 0.0000000000000E+00
 0.0000000000000E+00
 0.0000000000000E+00
 0.0000000000000E+00
 0.0000000000000E+00
 0.0000000000000E+00
 0.0000000000000E+00
 0.0000000000000E+00
 0.0000000000000E+00
 0.0000000000000E+00
 0.0000000000000E+00
 0.0000000000000E+00
 0.0000000000000E+00
 0.0000000000000E+00
 0.0000000000000E+00
 0.0000000000000E+00
 0.0000000000000E+00
 0.0000000000000E+00
 0.0000000000000E+00
 0.0000000000000E+00
 0.0000000000000E+00
 0.0000000000000E+00
 0.0000000000000E+00
 0.0000000000000E+00
 0.0000000000000E+00
 0.0000000000000E+00
 0.0000000000000E+00
 0.0000000000000E+00
 0.0000000000000E+00
 0.0000000000000E+00
 0.0000000000000E+00
 0.0000000000000E+00
 0.0000000000000E+00
 0.0000000000000E+00
 0.0000000000000E+00
 0.0000000000000E+00
 0.0000000000000E+00
 0.0000000000000E+00
 0.0000000000000E+00
 0.0000000000000E+00
 0.0000000000000E+00
 0.0000000000000E+00
 0.0000000000000E+00
 0.0000000000000E+00
 0.0000000000000E+00
 0.0000000000000E+00
 0.0000000000000E+00
 0.0000000000000E+00
 0.0000000000000E+00
 0.0000000000000E+00
 0.0000000000000E+00
 0.0000000000000E+00
 0.0000000000000E+00
 0.0000000000000E+00
 0.0000000000000E+00
 0.0000000000000E+00
 0.0000000000000E+00
 0.0000000000000E+00
 0.0000000000000E+00
 0.0000000000000E+00
 0.0000000000000E+00
 0.0000000000000E+00
 0.0000000000000E+00
 0.0000000000000E+00
 0.0000000000000E+00
 0.0000000000000E+00
 0.0000000000000E+00
 0.0000000000000E+00
 0.0000000000000E+00
 0.0000000000000E+00
 0.0000000000000E+00
 0.0000000000000E+00
 0.0000000000000E+00
 0.0000000000000E+00
 0.0000000000000E+00
 0.0000000000000E+00
 0.0000000000000E+00
 0.0000000000000E+00
 0.0000000000000E+00
 0.0000000000000E+00
 0.0000000000000E+00
 0.0000000000000E+00
 0.0000000000000E+00
 0.0000000000000E+00
 0.0000000000000E+00
 0.0000000000000E+00
 0.0000000000000E+00
 0.0000000000000E+00
 0.0000000000000E+00
 0.0000000000000E+00
 0.0000000000000E+00
 0.0000000000000E+00
 0.0000000000000E+00
 0.0000000000000E+00
 0.0000000000000E+00
 0.0000000000000E+00
 0.0000000000000E+00
 0.0000000000000E+00
 0.0000000000000E+00
 0.0000000000000E+00
 0.0000000000000E+00
 0.0000000000000E+00
 0.0000000000000E+00
 0.0000000000000E+00
 0.0000000000000E+00
 0.0000000000000E+00
 0.0000000000000E+00
 0.0000000000000E+00
 0.0000000000000E+00
 0.0000000000000E+00
 0.0000000000000E+00
 0.0000000000000E+00
 0.0000000000000E+00
 0.0000000000000E+00
 0.0000000000000E+00
 0.0000000000000E+00
 0.0000000000000E+00
 0.0000000000000E+00
 0.0000000000000E+00
 0.0000000000000E+00
 0.0000000000000E+00
 0.0000000000000E+00
 0.0000000000000E+00
 0.0000000000000E+00
 0.0000000000000E+00
 0.0000000000000E+00
 0.0000000000000E+00
 0.0000000000000E+00
 0.0000000000000E+00
 0.0000000000000E+00
 0.0000000000000E+00
 0.0000000000000E+00
 0.0000000000000E+00
 0.0000000000000E+00
 0.0000000000000E+00
 0.0000000000000E+00
 0.0000000000000E+00
 0.0000000000000E+00
 0.0000000000000E+00
 0.0000000000000E+00
 0.0000000000000E+00
 0.0000000000000E+00
 0.0000000000000E+00
 0.0000000000000E+00
 0.0000000000000E+00
 0.0000000000000E+00
 0.0000000000000E+00
 0.0000000000000E+00
 0.0000000000000E+00
 0.0000000000000E+00
 0.0000000000000E+00
 0.0000000000000E+00
 0.0000000000000E+00
 0.0000000000000E+00
 0.0000000000000E+00
 0.0000000000000E+00
 0.0000000000000E+00
 0.0000000000000E+00
 0.0000000000000E+00
 0.0000000000000E+00
 0.0000000000000E+00
 0.0000000000000E+00
 0.0000000000000E+00
 0.0000000000000E+00
 0.0000000000000E+00
 0.0000000000000E+00
 0.0000000000000E+00
 0.0000000000000E+00
 0.0000000000000E+00
 0.0000000000000E+00
 0.0000000000000E+00
 0.0000000000000E+00
 0.0000000000000E+00
 0.0000000000000E+00
 0.0000000000000E+00
 0.0000000000000E+00
 0.0000000000000E+00
 0.0000000000000E+00
 0.0000000000000E+00
 0.0000000000000E+00
 0.0000000000000E+00
 0.0000000000000E+00
 0.0000000000000E+00
 0.0000000000000E+00
 0.0000000000000E+00
 0.0000000000000E+00
 0.0000000000000E+00
 0.0000000000000E+00
 0.0000000000000E+00
 0.0000000000000E+00
 0.0000000000000E+00
 0.0000000000000E+00
 0.0000000000000E+00
 0.0000000000000E+00
 0.0000000000000E+00
 0.0000000000000E+00
 0.0000000000000E+00
 0.0000000000000E+00
 0.0000000000000E+00
 0.0000000000000E+00
 0.0000000000000E+00
 0.0000000000000E+00
 0.0000000000000E+00
 0.0000000000000E+00
 0.0000000000000E+00
 0.0000000000000E+00
 0.0000000000000E+00
 0.0000000000000E+00
 0.0000000000000E+00
 0.0000000000000E+00
 0.0000000000000E+00
 0.0000000000000E+00
 0.0000000000000E+00
 0.0000000000000E+00
 0.0000000000000E+00
 0.0000000000000E+00
 0.0000000000000E+00
 0.0000000000000E+00
 0.0000000000000E+00
 0.0000000000000E+00
 0.0000000000000E+00
 0.0000000000000E+00
 0.0000000000000E+00
 0.0000000000000E+00
 0.0000000000000E+00
 0.0000000000000E+00
 0.0000000000000E+00
 0.0000000000000E+00
 0.0000000000000E+00
 0.0000000000000E+00
 0.0000000000000E+00
 0.0000000000000E+00
 0.0000000000000E+00
 0.0000000000000E+00
 0.0000000000000E+00
 0.0000000000000E+00
 0.0000000000000E+00
 0.0000000000000E+00
 0.0000000000000E+00
 0.0000000000000E+00
 0.0000000000000E+00
 0.0000000000000E+00
 0.0000000000000E+00
 0.0000000000000E+00
 0.0000000000000E+00
 0.0000000000000E+00
 0.0000000000000E+00
 0.0000000000000E+00
 0.0000000000000E+00
 0.0000000000000E+00
 0.0000000000000E+00
 0.0000000000000E+00
 0.0000000000000E+00
 0.0000000000000E+00
 0.0000000000000E+00
 0.0000000000000E+00
 0.0000000000000E+00
 0.0000000000000E+00
 0.0000000000000E+00
 0.0000000000000E+00
 0.0000000000000E+00
 0.0000000000000E+00
 0.0000000000000E+00
 0.0000000000000E+00
 0.0000000000000E+00
 0.0000000000000E+00
 0.0000000000000E+00
 0.0000000000000E+00
 0.0000000000000E+00
 0.0000000000000E+00
 0.0000000000000E+00
 0.0000000000000E+00
 0.0000000000000E+00
 0.0000000000000E+00
 0.0000000000000E+00
 0.0000000000000E+00
 0.0000000000000E+00
 0.0000000000000E+00
 0.0000000000000E+00
 0.0000000000000E+00
 0.0000000000000E+00
 0.0000000000000E+00
 0.0000000000000E+00
 0.0000000000000E+00
 0.0000000000000E+00
 0.0000000000000E+00
 0.0000000000000E+00
 0.0000000000000E+00
 0.0000000000000E+00
 0.0000000000000E+00
 0.0000000000000E+00
 0.0000000000000E+00
 0.0000000000000E+00
 0.0000000000000E+00
 0.0000000000000E+00
 0.0000000000000E+00
 0.0000000000000E+00
 0.0000000000000E+00
 0.0000000000000E+00
 0.0000000000000E+00
 0.0000000000000E+00
 0.0000000000000E+00
 0.0000000000000E+00
 0.0000000000000E+00
 0.0000000000000E+00
 0.0000000000000E+00
 0.0000000000000E+00
 0.0000000000000E+00
 0.0000000000000E+00
 0.0000000000000E+00
 0.0000000000000E+00
 0.0000000000000E+00
 0.0000000000000E+00
 0.0000000000000E+00
 0.0000000000000E+00
 0.0000000000000E+00
 0.0000000000000E+00
 0.0000000000000E+00
 0.0000000000000E+00
 0.0000000000000E+00
 0.0000000000000E+00
 0.0000000000000E+00
 0.0000000000000E+00
 0.0000000000000E+00
 0.0000000000000E+00
 0.0000000000000E+00
 0.0000000000000E+00
 0.0000000000000E+00
 0.0000000000000E+00
 0.0000000000000E+00
 0.0000000000000E+00
 0.0000000000000E+00
 0.0000000000000E+00
 0.0000000000000E+00
 0.0000000000000E+00
 0.0000000000000E+00
 0.0000000000000E+00
 0.0000000000000E+00
 0.0000000000000E+00
 0.0000000000000E+00
 0.0000000000000E+00
 0.0000000000000E+00
 0.0000000000000E+00
 0.0000000000000E+00
 0.0000000000000E+00
 0.0000000000000E+00
 0.0000000000000E+00
 0.0000000000000E+00
 0.0000000000000E+00
 0.0000000000000E+00
 0.0000000000000E+00
 0.0000000000000E+00
 0.0000000000000E+00
 0.0000000000000E+00
 0.0000000000000E+00
 0.0000000000000E+00
 0.0000000000000E+00
 0.0000000000000E+00
 0.0000000000000E+00
 0.0000000000000E+00
 0.0000000000000E+00
 0.0000000000000E+00
 0.0000000000000E+00
 0.0000000000000E+00
 0.0000000000000E+00
 0.0000000000000E+00
 0.0000000000000E+00
 0.0000000000000E+00
 0.0000000000000E+00
 0.0000000000000E+00
 0.0000000000000E+00
 0.0000000000000E+00
 0.0000000000000E+00
 0.0000000000000E+00
 0.0000000000000E+00
 0.0000000000000E+00
 0.0000000000000E+00
 0.0000000000000E+00
 0.0000000000000E+00
 0.0000000000000E+00
 0.0000000000000E+00
 0.0000000000000E+00
 0.0000000000000E+00
 0.0000000000000E+00
 0.0000000000000E+00
 0.0000000000000E+00
 0.0000000000000E+00
 0.0000000000000E+00
 0.0000000000000E+00
 0.0000000000000E+00
 0.0000000000000E+00
 0.0000000000000E+00
 0.0000000000000E+00
 0.0000000000000E+00
 0.0000000000000E+00
 0.0000000000000E+00
 0.0000000000000E+00
 0.0000000000000E+00
 0.0000000000000E+00
 0.0000000000000E+00
 0.0000000000000E+00
 0.0000000000000E+00
 0.0000000000000E+00
 0.0000000000000E+00
 0.0000000000000E+00
 0.0000000000000E+00
 0.0000000000000E+00
 0.0000000000000E+00
 0.0000000000000E+00
 0.0000000000000E+00
 0.0000000000000E+00
 0.0000000000000E+00
 0.0000000000000E+00
 0.0000000000000E+00
 0.0000000000000E+00
 0.0000000000000E+00
 0.0000000000000E+00
 0.0000000000000E+00
 0.0000000000000E+00
 0.0000000000000E+00
 0.0000000000000E+00
 0.0000000000000E+00
 0.0000000000000E+00
 0.0000000000000E+00
 0.0000000000000E+00
 0.0000000000000E+00
 0.0000000000000E+00
 0.0000000000000E+00
 0.0000000000000E+00
 0.0000000000000E+00
 0.0000000000000E+00
 0.0000000000000E+00
 0.0000000000000E+00
 0.0000000000000E+00
 0.0000000000000E+00
 0.0000000000000E+00
 0.0000000000000E+00
 0.0000000000000E+00
 0.0000000000000E+00
 0.0000000000000E+00
 0.0000000000000E+00
 0.0000000000000E+00
 0.0000000000000E+00
 0.0000000000000E+00
 0.0000000000000E+00
 0.0000000000000E+00
 0.0000000000000E+00
 0.0000000000000E+00
 0.0000000000000E+00
 0.0000000000000E+00
 0.0000000000000E+00
 0.0000000000000E+00
 0.0000000000000E+00
 0.0000000000000E+00
 0.0000000000000E+00
 0.0000000000000E+00
 0.0000000000000E+00
 0.0000000000000E+00
 0.0000000000000E+00
 0.0000000000000E+00
 0.0000000000000E+00
 0.0000000000000E+00
 0.0000000000000E+00
 0.0000000000000E+00
 0.0000000000000E+00
 0.0000000000000E+00
 0.0000000000000E+00
</DataArray>
<DataArray type="Int32" Name="Region" format="ascii">
           1
           1
           1
           1
           1
           1
           1
           1
           1
           1
           1
           1
           1
           1
           1
           1
           1
           1
           1
           1
           1
           1
           1
           1
           1
           1
           1
           1
           1
           1
           1
           1
           1
           1
           1
           1
           1
           1
           1
           1
           1
           1
           1
           1
           1
           1
           1
           1
           1
           1
           1
           1
           1
           1
           1
           1
           1
           1
           1
           1
           1
           1
           1
           1
           1
           1
           1
           1
           1
           1
           1
           1
           1
           1
           1
           1
           1
           1
           1
           1
           1
           1
           1
           1
           1
           1
           1
           1
           1
           1
           1
           1
           1
           1
           1
           1
           1
           1
           1
           1
           1
           1
           1
           1
           1
           1
           1
           1
           1
           1
           1
           1
           1
           1
           1
           1
           1
           1
           1
           1
           1
           1
           1
           1
           1
           1
           1
           1
           1
           1
           1
           1
           1
           1
           1
           1
           1
           1
           1
           1
           1
           1
           1
           1
           1
           1
           1
           1
           1
           1
           1
           1
           1
           1
           1
           1
           1
           1
           1
           1
           1
           1
           1
           1
           1
           1
           1
           1
           1
           1
           1
           1
           1
           1
           1
           1
           1
           1
           1
           1
           1
           1
           1
           1
           1
           1
           1
           1
           1
           1
           1
           1
           1
           1
           1
           1
           1
           1
           1
           1
           1
           1
           1
           1
           1
           1
           1
           1
           1
           1
           1
           1
           1
           1
           1
           1
           1
           1
           1
           1
           1
           1
           1
           1
           1
           1
           1
           1
           1
           1
           1
           1
           1
           1
           1
           1
           1
           1
           1
           1
           1
           1
           1
           1
           1
           1
           1
           1
           1
           1
           1
           1
           1
           1
           1
           1
           1
           1
           1
           1
           1
           1
           1
           1
           1
           1
           1
           1
           1
           1
           1
           1
           1
           1
           1
           1
           1
           1
           1
           1
           1
           1
           1
           1
           1
           1
           1
           1
           1
           1
           1
           1
           1
           1
           1
           1
           1
           1
           1
           1
           1
           1
           1
           1
           1
           1
           1
           1
           1
           1
           1
           1
           2
           2
           2
           2
           2
           2
           2
           2
           2
           2
           2
           2
           2
           2
           2
           2
           2
           2
           2
           2
           2
           2
           2
           2
           2
           2
           2
           2
           2
           2
           2
           2
           2
           2
           2
           2
           2
           2
           2
           2
           2
           2
           2
           2
           2
           2
           2
           2
           2
           2
           2
           2
           2
           2
           2
           2
           2
           2
           2
           2
           2
           2
           2
           2
           2
           2
           2
           2
           2
           2
           2
           2
           2
           2
           2
           2
           2
           2
           2
           2
           2
           2
           2
           2
           2
           2
           2
           2
           2
           2
           2
           2
           2
           2
           2
           2
           2
           2
           2
           2
           2
           2
           2
           2
           2
           2
           2
           2
           2
           2
           2
           2
           2
           2
           2
           2
           2
           2
           2
           2
           2
           2
           2
           2
           2
           2
           2
           2
           2
           2
           2
           2
           2
           2
           2
           2
           2
           2
           2
           2
           2
           2
           2
           2
           2
           2
           2
           2
           2
           2
           2
           2
           2
           2
           2
           2
           2
           2
           2
           2
           2
           2
           2
           2
           2
           2
           2
           2
           2
           2
           2
           2
           2
           2
           2
           2
           2
           2
           2
           2
           2
           2
           2
           2
           2
           2
           2
           2
           2
           2
           2
           2
           2
           2
           2
           2
           2
           2
           2
           2
           2
           2
           2
           2
           2
           2
           2
           2
           2
           2
           2
           2
           2
           2
           2
           2
</DataArray>
</CellData>
</Piece>
</UnstructuredGrid>
</VTKFile>
