<VTKFile type="UnstructuredGrid" version="1,0" byte_order="LittleEndian">
<UnstructuredGrid>
<Piece NumberOfPoints="5802" NumberOfCells="5680">
<Points>
<DataArray type="Float64" NumberOfComponents="3" format="ascii">
-0.1100000000000E+01 -0.4731587125634E+01  0.0000000000000E+00
 0.0000000000000E+00 -0.4731587125634E+01  0.0000000000000E+00
 0.1100000000000E+01 -0.4731587125634E+01  0.0000000000000E+00
-0.1191315091097E+01 -0.1825930012610E+01  0.0000000000000E+00
-0.5956575398395E+00 -0.1755172846926E+01  0.0000000000000E+00
 0.5956575512579E+00 -0.1755172847830E+01  0.0000000000000E+00
 0.1191315091097E+01 -0.1825930012610E+01  0.0000000000000E+00
-0.1487255332335E+01  0.3711246317436E+00  0.0000000000000E+00
 0.1487255329206E+01  0.3711246337271E+00  0.0000000000000E+00
-0.6187500000000E+00 -0.4973806884503E+00  0.0000000000000E+00
 0.6187500000000E+00 -0.4973806884503E+00  0.0000000000000E+00
-0.1072500000000E+01 -0.4731587125634E+01  0.0000000000000E+00
-0.1045000000000E+01 -0.4731587125634E+01  0.0000000000000E+00
-0.1017500000000E+01 -0.4731587125634E+01  0.0000000000000E+00
-0.9900000000000E+00 -0.4731587125634E+01  0.0000000000000E+00
-0.9625000000000E+00 -0.4731587125634E+01  0.0000000000000E+00
-0.9350000000000E+00 -0.4731587125634E+01  0.0000000000000E+00
-0.9075000000000E+00 -0.4731587125634E+01  0.0000000000000E+00
-0.8800000000000E+00 -0.4731587125634E+01  0.0000000000000E+00
-0.8525000000000E+00 -0.4731587125634E+01  0.0000000000000E+00
-0.8250000000000E+00 -0.4731587125634E+01  0.0000000000000E+00
-0.7975000000000E+00 -0.4731587125634E+01  0.0000000000000E+00
-0.7700000000000E+00 -0.4731587125634E+01  0.0000000000000E+00
-0.7425000000000E+00 -0.4731587125634E+01  0.0000000000000E+00
-0.7150000000000E+00 -0.4731587125634E+01  0.0000000000000E+00
-0.6875000000000E+00 -0.4731587125634E+01  0.0000000000000E+00
-0.6600000000000E+00 -0.4731587125634E+01  0.0000000000000E+00
-0.6325000000000E+00 -0.4731587125634E+01  0.0000000000000E+00
-0.6050000000000E+00 -0.4731587125634E+01  0.0000000000000E+00
-0.5775000000000E+00 -0.4731587125634E+01  0.0000000000000E+00
-0.5500000000000E+00 -0.4731587125634E+01  0.0000000000000E+00
-0.5225000000000E+00 -0.4731587125634E+01  0.0000000000000E+00
-0.4950000000000E+00 -0.4731587125634E+01  0.0000000000000E+00
-0.4675000000000E+00 -0.4731587125634E+01  0.0000000000000E+00
-0.4400000000000E+00 -0.4731587125634E+01  0.0000000000000E+00
-0.4125000000000E+00 -0.4731587125634E+01  0.0000000000000E+00
-0.3850000000000E+00 -0.4731587125634E+01  0.0000000000000E+00
-0.3575000000000E+00 -0.4731587125634E+01  0.0000000000000E+00
-0.3300000000000E+00 -0.4731587125634E+01  0.0000000000000E+00
-0.3025000000000E+00 -0.4731587125634E+01  0.0000000000000E+00
-0.2750000000000E+00 -0.4731587125634E+01  0.0000000000000E+00
-0.2475000000000E+00 -0.4731587125634E+01  0.0000000000000E+00
-0.2200000000000E+00 -0.4731587125634E+01  0.0000000000000E+00
-0.1925000000000E+00 -0.4731587125634E+01  0.0000000000000E+00
-0.1650000000000E+00 -0.4731587125634E+01  0.0000000000000E+00
-0.1375000000000E+00 -0.4731587125634E+01  0.0000000000000E+00
-0.1100000000000E+00 -0.4731587125634E+01  0.0000000000000E+00
-0.8250000000000E-01 -0.4731587125634E+01  0.0000000000000E+00
-0.5500000000000E-01 -0.4731587125634E+01  0.0000000000000E+00
-0.2750000000000E-01 -0.4731587125634E+01  0.0000000000000E+00
 0.2750000000000E-01 -0.4731587125634E+01  0.0000000000000E+00
 0.5500000000000E-01 -0.4731587125634E+01  0.0000000000000E+00
 0.8250000000000E-01 -0.4731587125634E+01  0.0000000000000E+00
 0.1100000000000E+00 -0.4731587125634E+01  0.0000000000000E+00
 0.1375000000000E+00 -0.4731587125634E+01  0.0000000000000E+00
 0.1650000000000E+00 -0.4731587125634E+01  0.0000000000000E+00
 0.1925000000000E+00 -0.4731587125634E+01  0.0000000000000E+00
 0.2200000000000E+00 -0.4731587125634E+01  0.0000000000000E+00
 0.2475000000000E+00 -0.4731587125634E+01  0.0000000000000E+00
 0.2750000000000E+00 -0.4731587125634E+01  0.0000000000000E+00
 0.3025000000000E+00 -0.4731587125634E+01  0.0000000000000E+00
 0.3300000000000E+00 -0.4731587125634E+01  0.0000000000000E+00
 0.3575000000000E+00 -0.4731587125634E+01  0.0000000000000E+00
 0.3850000000000E+00 -0.4731587125634E+01  0.0000000000000E+00
 0.4125000000000E+00 -0.4731587125634E+01  0.0000000000000E+00
 0.4400000000000E+00 -0.4731587125634E+01  0.0000000000000E+00
 0.4675000000000E+00 -0.4731587125634E+01  0.0000000000000E+00
 0.4950000000000E+00 -0.4731587125634E+01  0.0000000000000E+00
 0.5225000000000E+00 -0.4731587125634E+01  0.0000000000000E+00
 0.5500000000000E+00 -0.4731587125634E+01  0.0000000000000E+00
 0.5775000000000E+00 -0.4731587125634E+01  0.0000000000000E+00
 0.6050000000000E+00 -0.4731587125634E+01  0.0000000000000E+00
 0.6325000000000E+00 -0.4731587125634E+01  0.0000000000000E+00
 0.6600000000000E+00 -0.4731587125634E+01  0.0000000000000E+00
 0.6875000000000E+00 -0.4731587125634E+01  0.0000000000000E+00
 0.7150000000000E+00 -0.4731587125634E+01  0.0000000000000E+00
 0.7425000000000E+00 -0.4731587125634E+01  0.0000000000000E+00
 0.7700000000000E+00 -0.4731587125634E+01  0.0000000000000E+00
 0.7975000000000E+00 -0.4731587125634E+01  0.0000000000000E+00
 0.8250000000000E+00 -0.4731587125634E+01  0.0000000000000E+00
 0.8525000000000E+00 -0.4731587125634E+01  0.0000000000000E+00
 0.8800000000000E+00 -0.4731587125634E+01  0.0000000000000E+00
 0.9075000000000E+00 -0.4731587125634E+01  0.0000000000000E+00
 0.9350000000000E+00 -0.4731587125634E+01  0.0000000000000E+00
 0.9625000000000E+00 -0.4731587125634E+01  0.0000000000000E+00
 0.9900000000000E+00 -0.4731587125634E+01  0.0000000000000E+00
 0.1017500000000E+01 -0.4731587125634E+01  0.0000000000000E+00
 0.1045000000000E+01 -0.4731587125634E+01  0.0000000000000E+00
 0.1072500000000E+01 -0.4731587125634E+01  0.0000000000000E+00
-0.1161675590434E+01 -0.1821293974842E+01  0.0000000000000E+00
-0.1132018469080E+01 -0.1816772081031E+01  0.0000000000000E+00
-0.1102344135527E+01 -0.1812364599475E+01  0.0000000000000E+00
-0.1072653001422E+01 -0.1808071792594E+01  0.0000000000000E+00
-0.1042945459471E+01 -0.1803893913795E+01  0.0000000000000E+00
-0.1013221952450E+01 -0.1799831217138E+01  0.0000000000000E+00
-0.9834829017084E+00 -0.1795883946982E+01  0.0000000000000E+00
-0.9537287316532E+00 -0.1792052341512E+01  0.0000000000000E+00
-0.9239598612408E+00 -0.1788336631619E+01  0.0000000000000E+00
-0.8941767210493E+00 -0.1784737043031E+01  0.0000000000000E+00
-0.8643797539566E+00 -0.1781253796152E+01  0.0000000000000E+00
-0.8345693957871E+00 -0.1777887103664E+01  0.0000000000000E+00
-0.8047460850418E+00 -0.1774637171701E+01  0.0000000000000E+00
-0.7749102599775E+00 -0.1771504199483E+01  0.0000000000000E+00
-0.7450623578572E+00 -0.1768488379244E+01  0.0000000000000E+00
-0.7152028352234E+00 -0.1765589898169E+01  0.0000000000000E+00
-0.6853321404180E+00 -0.1762808935500E+01  0.0000000000000E+00
-0.6554507240472E+00 -0.1760145663610E+01  0.0000000000000E+00
-0.6255590388957E+00 -0.1757600247935E+01  0.0000000000000E+00
-0.5659320403842E+00 -0.1752877555980E+01  0.0000000000000E+00
-0.5361977827764E+00 -0.1750699115345E+01  0.0000000000000E+00
-0.5064551822954E+00 -0.1748637656849E+01  0.0000000000000E+00
-0.4767046834532E+00 -0.1746693307634E+01  0.0000000000000E+00
-0.4469467825907E+00 -0.1744866190914E+01  0.0000000000000E+00
-0.4171818756954E+00 -0.1743156416506E+01  0.0000000000000E+00
-0.3874104734057E+00 -0.1741564093885E+01  0.0000000000000E+00
-0.3576330176963E+00 -0.1740089321191E+01  0.0000000000000E+00
-0.3278499563594E+00 -0.1738732189839E+01  0.0000000000000E+00
-0.2980617833702E+00 -0.1737492785992E+01  0.0000000000000E+00
-0.2682689204519E+00 -0.1736371185422E+01  0.0000000000000E+00
-0.2384718656336E+00 -0.1735367459648E+01  0.0000000000000E+00
-0.2086710716336E+00 -0.1734481671049E+01  0.0000000000000E+00
-0.1788669979735E+00 -0.1733713874997E+01  0.0000000000000E+00
-0.1490601279746E+00 -0.1733064120054E+01  0.0000000000000E+00
-0.1192509059245E+00 -0.1732532446511E+01  0.0000000000000E+00
-0.8943981808141E-01 -0.1732118888112E+01  0.0000000000000E+00
-0.5962732433722E-01 -0.1731823470688E+01  0.0000000000000E+00
-0.2981389296327E-01 -0.1731646212812E+01  0.0000000000000E+00
 0.5727055635285E-08 -0.1731587125634E+01  0.0000000000000E+00
 0.2981390441730E-01 -0.1731646212857E+01  0.0000000000000E+00
 0.5962733579097E-01 -0.1731823470779E+01  0.0000000000000E+00
 0.8943982953471E-01 -0.1732118888248E+01  0.0000000000000E+00
 0.1192509173772E+00 -0.1732532446692E+01  0.0000000000000E+00
 0.1490601394265E+00 -0.1733064120281E+01  0.0000000000000E+00
 0.1788670094244E+00 -0.1733713875269E+01  0.0000000000000E+00
 0.2086710830833E+00 -0.1734481671367E+01  0.0000000000000E+00
 0.2384718770819E+00 -0.1735367460011E+01  0.0000000000000E+00
 0.2682689318987E+00 -0.1736371185830E+01  0.0000000000000E+00
 0.2980617948153E+00 -0.1737492786445E+01  0.0000000000000E+00
 0.3278499678026E+00 -0.1738732190338E+01  0.0000000000000E+00
 0.3576330291375E+00 -0.1740089321735E+01  0.0000000000000E+00
 0.3874104848446E+00 -0.1741564094474E+01  0.0000000000000E+00
 0.4171818871319E+00 -0.1743156417141E+01  0.0000000000000E+00
 0.4469467940246E+00 -0.1744866191594E+01  0.0000000000000E+00
 0.4767046948843E+00 -0.1746693308359E+01  0.0000000000000E+00
 0.5064551937236E+00 -0.1748637657619E+01  0.0000000000000E+00
 0.5361977942015E+00 -0.1750699116160E+01  0.0000000000000E+00
 0.5659320518060E+00 -0.1752877556840E+01  0.0000000000000E+00
 0.6255590497397E+00 -0.1757600248837E+01  0.0000000000000E+00
 0.6554507343169E+00 -0.1760145664505E+01  0.0000000000000E+00
 0.6853321501138E+00 -0.1762808936384E+01  0.0000000000000E+00
 0.7152028443456E+00 -0.1765589899036E+01  0.0000000000000E+00
 0.7450623664059E+00 -0.1768488380091E+01  0.0000000000000E+00
 0.7749102679531E+00 -0.1771504200305E+01  0.0000000000000E+00
 0.8047460924447E+00 -0.1774637172493E+01  0.0000000000000E+00
 0.8345694026177E+00 -0.1777887104422E+01  0.0000000000000E+00
 0.8643797602152E+00 -0.1781253796871E+01  0.0000000000000E+00
 0.8941767267363E+00 -0.1784737043707E+01  0.0000000000000E+00
 0.9239598663567E+00 -0.1788336632248E+01  0.0000000000000E+00
 0.9537287361985E+00 -0.1792052342089E+01  0.0000000000000E+00
 0.9834829056835E+00 -0.1795883947502E+01  0.0000000000000E+00
 0.1013221955855E+01 -0.1799831217596E+01  0.0000000000000E+00
 0.1042945462307E+01 -0.1803893914188E+01  0.0000000000000E+00
 0.1072653003690E+01 -0.1808071792917E+01  0.0000000000000E+00
 0.1102344137227E+01 -0.1812364599724E+01  0.0000000000000E+00
 0.1132018470213E+01 -0.1816772081202E+01  0.0000000000000E+00
 0.1161675591000E+01 -0.1821293974929E+01  0.0000000000000E+00
-0.1213355268613E+01 -0.1711966308233E+01  0.0000000000000E+00
-0.1238854526170E+01 -0.1598727811073E+01  0.0000000000000E+00
-0.1268466688037E+01 -0.1486497481512E+01  0.0000000000000E+00
-0.1303342965295E+01 -0.1375796643044E+01  0.0000000000000E+00
-0.1345040310075E+01 -0.1267489592785E+01  0.0000000000000E+00
-0.1392581470401E+01 -0.1161597043208E+01  0.0000000000000E+00
-0.1439083524730E+01 -0.1055246799568E+01  0.0000000000000E+00
-0.1480944100518E+01 -0.9469891138312E+00  0.0000000000000E+00
-0.1518131836329E+01 -0.8370360644333E+00  0.0000000000000E+00
-0.1551041415331E+01 -0.7257267337723E+00  0.0000000000000E+00
-0.1579720048034E+01 -0.6132533876738E+00  0.0000000000000E+00
-0.1603836412081E+01 -0.4997150980206E+00  0.0000000000000E+00
-0.1623384157755E+01 -0.3853015140723E+00  0.0000000000000E+00
-0.1638101487121E+01 -0.2701686503839E+00  0.0000000000000E+00
-0.1647164985397E+01 -0.1544579176162E+00  0.0000000000000E+00
-0.1649971232607E+01 -0.3842453929912E-01  0.0000000000000E+00
-0.1647980696334E+01  0.7761284988695E-01  0.0000000000000E+00
-0.1626874369891E+01  0.1914362508587E+00  0.0000000000000E+00
-0.1572796829836E+01  0.2935193328390E+00  0.0000000000000E+00
-0.1418305908641E+01  0.4022416062919E+00  0.0000000000000E+00
-0.1345676864211E+01  0.4236315892164E+00  0.0000000000000E+00
-0.1271121572232E+01  0.4368480112286E+00  0.0000000000000E+00
-0.1195563418735E+01  0.4416990799735E+00  0.0000000000000E+00
-0.1119906317278E+01  0.4384406277265E+00  0.0000000000000E+00
-0.1044756289719E+01  0.4290110284082E+00  0.0000000000000E+00
-0.9703274447726E+00  0.4149459401020E+00  0.0000000000000E+00
-0.8965853652262E+00  0.3976148229097E+00  0.0000000000000E+00
-0.8232882160705E+00  0.3784769972153E+00  0.0000000000000E+00
-0.7500778072402E+00  0.3590082550316E+00  0.0000000000000E+00
-0.6765282087393E+00  0.3408715871599E+00  0.0000000000000E+00
-0.6024721689929E+00  0.3249314759684E+00  0.0000000000000E+00
-0.5279626734789E+00  0.3112660660816E+00  0.0000000000000E+00
-0.4530942500529E+00  0.2997252351383E+00  0.0000000000000E+00
-0.3779502175627E+00  0.2901382908398E+00  0.0000000000000E+00
-0.3025960047097E+00  0.2823699994777E+00  0.0000000000000E+00
-0.2270833670538E+00  0.2763314545000E+00  0.0000000000000E+00
-0.1514548639988E+00  0.2719804032214E+00  0.0000000000000E+00
-0.7574795049362E-01  0.2693218404769E+00  0.0000000000000E+00
-0.1822076423075E-08  0.2684128743665E+00  0.0000000000000E+00
 0.7574794685078E-01  0.2693218403904E+00  0.0000000000000E+00
 0.1514548603582E+00  0.2719804030525E+00  0.0000000000000E+00
 0.2270833634172E+00  0.2763314542500E+00  0.0000000000000E+00
 0.3025960010827E+00  0.2823699991460E+00  0.0000000000000E+00
 0.3779502139414E+00  0.2901382904224E+00  0.0000000000000E+00
 0.4530942464462E+00  0.2997252346305E+00  0.0000000000000E+00
 0.5279626698826E+00  0.3112660654745E+00  0.0000000000000E+00
 0.6024721654224E+00  0.3249314752557E+00  0.0000000000000E+00
 0.6765282051910E+00  0.3408715863362E+00  0.0000000000000E+00
 0.7500778037128E+00  0.3590082541141E+00  0.0000000000000E+00
 0.8232882125500E+00  0.3784769962749E+00  0.0000000000000E+00
 0.8965853616918E+00  0.3976148220208E+00  0.0000000000000E+00
 0.9703274412081E+00  0.4149459393403E+00  0.0000000000000E+00
 0.1044756286115E+01  0.4290110278460E+00  0.0000000000000E+00
 0.1119906313643E+01  0.4384406274322E+00  0.0000000000000E+00
 0.1195563415086E+01  0.4416990800252E+00  0.0000000000000E+00
 0.1271121568610E+01  0.4368480116963E+00  0.0000000000000E+00
 0.1345676860666E+01  0.4236315901228E+00  0.0000000000000E+00
 0.1418305905243E+01  0.4022416076848E+00  0.0000000000000E+00
 0.1572796827692E+01  0.2935193356292E+00  0.0000000000000E+00
 0.1626874368892E+01  0.1914362540528E+00  0.0000000000000E+00
 0.1647980696148E+01  0.7761285305478E-01  0.0000000000000E+00
 0.1649971232614E+01 -0.3842453631130E-01  0.0000000000000E+00
 0.1647164985510E+01 -0.1544579148168E+00  0.0000000000000E+00
 0.1638101487343E+01 -0.2701686477783E+00  0.0000000000000E+00
 0.1623384158054E+01 -0.3853015116666E+00  0.0000000000000E+00
 0.1603836412438E+01 -0.4997150958130E+00  0.0000000000000E+00
 0.1579720048441E+01 -0.6132533856674E+00  0.0000000000000E+00
 0.1551041415774E+01 -0.7257267319674E+00  0.0000000000000E+00
 0.1518131836796E+01 -0.8370360628288E+00  0.0000000000000E+00
 0.1480944100999E+01 -0.9469891124298E+00  0.0000000000000E+00
 0.1439083525216E+01 -0.1055246798366E+01  0.0000000000000E+00
 0.1392581470861E+01 -0.1161597042198E+01  0.0000000000000E+00
 0.1345040310428E+01 -0.1267489591933E+01  0.0000000000000E+00
 0.1303342965506E+01 -0.1375796642335E+01  0.0000000000000E+00
 0.1268466688140E+01 -0.1486497480965E+01  0.0000000000000E+00
 0.1238854526204E+01 -0.1598727810699E+01  0.0000000000000E+00
 0.1213355268613E+01 -0.1711966308043E+01  0.0000000000000E+00
-0.1100000000000E+01 -0.4660595750534E+01  0.0000000000000E+00
-0.1100000000000E+01 -0.4589604523337E+01  0.0000000000000E+00
-0.1100000000000E+01 -0.4518612860194E+01  0.0000000000000E+00
-0.1100000000000E+01 -0.4447621396074E+01  0.0000000000000E+00
-0.1100000000000E+01 -0.4376629946073E+01  0.0000000000000E+00
-0.1100000000000E+01 -0.4305638469395E+01  0.0000000000000E+00
-0.1100000000000E+01 -0.4234647034675E+01  0.0000000000000E+00
-0.1100000000000E+01 -0.4163655573930E+01  0.0000000000000E+00
-0.1100000000000E+01 -0.4092664118400E+01  0.0000000000000E+00
-0.1100000000000E+01 -0.4021672670707E+01  0.0000000000000E+00
-0.1100000000000E+01 -0.3950681208157E+01  0.0000000000000E+00
-0.1100000000000E+01 -0.3879689768887E+01  0.0000000000000E+00
-0.1100000000000E+01 -0.3808698298634E+01  0.0000000000000E+00
-0.1100000000000E+01 -0.3737706770464E+01  0.0000000000000E+00
-0.1100000000000E+01 -0.3666715262498E+01  0.0000000000000E+00
-0.1100000000000E+01 -0.3595723839456E+01  0.0000000000000E+00
-0.1100000000000E+01 -0.3524731789668E+01  0.0000000000000E+00
-0.1100000000000E+01 -0.3453740926047E+01  0.0000000000000E+00
-0.1100000000000E+01 -0.3382749460249E+01  0.0000000000000E+00
-0.1100000000000E+01 -0.3311758072240E+01  0.0000000000000E+00
-0.1100000000000E+01 -0.3240766774652E+01  0.0000000000000E+00
-0.1100000000000E+01 -0.3169775441240E+01  0.0000000000000E+00
-0.1100000000000E+01 -0.3098784076079E+01  0.0000000000000E+00
-0.1100019380481E+01 -0.3027792649889E+01  0.0000000000000E+00
-0.1100182969515E+01 -0.2956801452749E+01  0.0000000000000E+00
-0.1100664097718E+01 -0.2885811820573E+01  0.0000000000000E+00
-0.1101620767933E+01 -0.2814827030427E+01  0.0000000000000E+00
-0.1103169283693E+01 -0.2743852764288E+01  0.0000000000000E+00
-0.1105384238767E+01 -0.2672896168192E+01  0.0000000000000E+00
-0.1108313328915E+01 -0.2601965572023E+01  0.0000000000000E+00
-0.1111994457710E+01 -0.2531069964563E+01  0.0000000000000E+00
-0.1116470504631E+01 -0.2460220060781E+01  0.0000000000000E+00
-0.1121800458045E+01 -0.2389429442476E+01  0.0000000000000E+00
-0.1127980999498E+01 -0.2318707927775E+01  0.0000000000000E+00
-0.1134925652832E+01 -0.2248057274554E+01  0.0000000000000E+00
-0.1142572685777E+01 -0.2177479159635E+01  0.0000000000000E+00
-0.1150886195216E+01 -0.2106976362838E+01  0.0000000000000E+00
-0.1159854464778E+01 -0.2036553785977E+01  0.0000000000000E+00
-0.1169495475345E+01 -0.1966220321347E+01  0.0000000000000E+00
-0.1179881536539E+01 -0.1895993177716E+01  0.0000000000000E+00
 0.1179881536541E+01 -0.1895993177715E+01  0.0000000000000E+00
 0.1169495475345E+01 -0.1966220321347E+01  0.0000000000000E+00
 0.1159854464777E+01 -0.2036553785977E+01  0.0000000000000E+00
 0.1150886195214E+01 -0.2106976362838E+01  0.0000000000000E+00
 0.1142572685775E+01 -0.2177479159635E+01  0.0000000000000E+00
 0.1134925652830E+01 -0.2248057274554E+01  0.0000000000000E+00
 0.1127980999496E+01 -0.2318707927775E+01  0.0000000000000E+00
 0.1121800458043E+01 -0.2389429442476E+01  0.0000000000000E+00
 0.1116470504629E+01 -0.2460220060781E+01  0.0000000000000E+00
 0.1111994457707E+01 -0.2531069964563E+01  0.0000000000000E+00
 0.1108313328912E+01 -0.2601965572023E+01  0.0000000000000E+00
 0.1105384238765E+01 -0.2672896168191E+01  0.0000000000000E+00
 0.1103169283691E+01 -0.2743852764287E+01  0.0000000000000E+00
 0.1101620767933E+01 -0.2814827030427E+01  0.0000000000000E+00
 0.1100664097717E+01 -0.2885811820573E+01  0.0000000000000E+00
 0.1100182969515E+01 -0.2956801452748E+01  0.0000000000000E+00
 0.1100019380481E+01 -0.3027792649889E+01  0.0000000000000E+00
 0.1100000000000E+01 -0.3098784076079E+01  0.0000000000000E+00
 0.1100000000000E+01 -0.3169775441240E+01  0.0000000000000E+00
 0.1100000000000E+01 -0.3240766774652E+01  0.0000000000000E+00
 0.1100000000000E+01 -0.3311758072240E+01  0.0000000000000E+00
 0.1100000000000E+01 -0.3382749460249E+01  0.0000000000000E+00
 0.1100000000000E+01 -0.3453740926047E+01  0.0000000000000E+00
 0.1100000000000E+01 -0.3524731789668E+01  0.0000000000000E+00
 0.1100000000000E+01 -0.3595723839456E+01  0.0000000000000E+00
 0.1100000000000E+01 -0.3666715262498E+01  0.0000000000000E+00
 0.1100000000000E+01 -0.3737706770464E+01  0.0000000000000E+00
 0.1100000000000E+01 -0.3808698298633E+01  0.0000000000000E+00
 0.1100000000000E+01 -0.3879689768887E+01  0.0000000000000E+00
 0.1100000000000E+01 -0.3950681208157E+01  0.0000000000000E+00
 0.1100000000000E+01 -0.4021672670707E+01  0.0000000000000E+00
 0.1100000000000E+01 -0.4092664118399E+01  0.0000000000000E+00
 0.1100000000000E+01 -0.4163655573930E+01  0.0000000000000E+00
 0.1100000000000E+01 -0.4234647034675E+01  0.0000000000000E+00
 0.1100000000000E+01 -0.4305638469395E+01  0.0000000000000E+00
 0.1100000000000E+01 -0.4376629946073E+01  0.0000000000000E+00
 0.1100000000000E+01 -0.4447621396074E+01  0.0000000000000E+00
 0.1100000000000E+01 -0.4518612860194E+01  0.0000000000000E+00
 0.1100000000000E+01 -0.4589604523337E+01  0.0000000000000E+00
 0.1100000000000E+01 -0.4660595750534E+01  0.0000000000000E+00
-0.5884638695905E+00 -0.4894641513885E+00  0.0000000000000E+00
-0.5580825246164E+00 -0.4819218154218E+00  0.0000000000000E+00
-0.5276095633171E+00 -0.4747582607812E+00  0.0000000000000E+00
-0.4970490688930E+00 -0.4679779933456E+00  0.0000000000000E+00
-0.4664052113280E+00 -0.4615853306416E+00  0.0000000000000E+00
-0.4356821841498E+00 -0.4555843826271E+00  0.0000000000000E+00
-0.4048845338533E+00 -0.4499791064130E+00  0.0000000000000E+00
-0.3740168397343E+00 -0.4447732294152E+00  0.0000000000000E+00
-0.3430839130773E+00 -0.4399702753278E+00  0.0000000000000E+00
-0.3120906320172E+00 -0.4355735248917E+00  0.0000000000000E+00
-0.2810420500145E+00 -0.4315860232937E+00  0.0000000000000E+00
-0.2499433335888E+00 -0.4280105603977E+00  0.0000000000000E+00
-0.2187997508610E+00 -0.4248496608797E+00  0.0000000000000E+00
-0.1876166729319E+00 -0.4221055764161E+00  0.0000000000000E+00
-0.1563995773423E+00 -0.4197802779940E+00  0.0000000000000E+00
-0.1251540094126E+00 -0.4178754457584E+00  0.0000000000000E+00
-0.9388558172344E-01 -0.4163924636598E+00  0.0000000000000E+00
-0.6259996113275E-01 -0.4153324139295E+00  0.0000000000000E+00
-0.3130285547239E-01 -0.4146960727333E+00  0.0000000000000E+00
-0.2220446049250E-15 -0.4144839070419E+00  0.0000000000000E+00
 0.3130285547239E-01 -0.4146960727333E+00  0.0000000000000E+00
 0.6259996113275E-01 -0.4153324139295E+00  0.0000000000000E+00
 0.9388558172344E-01 -0.4163924636598E+00  0.0000000000000E+00
 0.1251540094126E+00 -0.4178754457584E+00  0.0000000000000E+00
 0.1563995773423E+00 -0.4197802779940E+00  0.0000000000000E+00
 0.1876166729319E+00 -0.4221055764161E+00  0.0000000000000E+00
 0.2187997508610E+00 -0.4248496608797E+00  0.0000000000000E+00
 0.2499433335888E+00 -0.4280105603977E+00  0.0000000000000E+00
 0.2810420500145E+00 -0.4315860232937E+00  0.0000000000000E+00
 0.3120906320172E+00 -0.4355735248917E+00  0.0000000000000E+00
 0.3430839130773E+00 -0.4399702753278E+00  0.0000000000000E+00
 0.3740168397343E+00 -0.4447732294152E+00  0.0000000000000E+00
 0.4048845338533E+00 -0.4499791064130E+00  0.0000000000000E+00
 0.4356821841498E+00 -0.4555843826271E+00  0.0000000000000E+00
 0.4664052113280E+00 -0.4615853306416E+00  0.0000000000000E+00
 0.4970490688930E+00 -0.4679779933456E+00  0.0000000000000E+00
 0.5276095633171E+00 -0.4747582607812E+00  0.0000000000000E+00
 0.5580825246164E+00 -0.4819218154218E+00  0.0000000000000E+00
 0.5884638695905E+00 -0.4894641513885E+00  0.0000000000000E+00
-0.6186694182519E+00 -0.5602854202626E+00  0.0000000000000E+00
-0.6184121778050E+00 -0.6231895804302E+00  0.0000000000000E+00
-0.6179522181120E+00 -0.6860925653381E+00  0.0000000000000E+00
-0.6172599449830E+00 -0.7489933811583E+00  0.0000000000000E+00
-0.6163035973388E+00 -0.8118907743073E+00  0.0000000000000E+00
-0.6150531470475E+00 -0.8747829429232E+00  0.0000000000000E+00
-0.6134887983150E+00 -0.9376681601377E+00  0.0000000000000E+00
-0.6116160329111E+00 -0.1000544889820E+01  0.0000000000000E+00
-0.6094851916442E+00 -0.1063413466424E+01  0.0000000000000E+00
-0.6072037720657E+00 -0.1126276767718E+01  0.0000000000000E+00
-0.6049223524117E+00 -0.1189140069010E+01  0.0000000000000E+00
-0.6027915109277E+00 -0.1252008645607E+01  0.0000000000000E+00
-0.6009187451903E+00 -0.1314885375279E+01  0.0000000000000E+00
-0.5993543960372E+00 -0.1377770592483E+01  0.0000000000000E+00
-0.5981039452651E+00 -0.1440662761090E+01  0.0000000000000E+00
-0.5971475971003E+00 -0.1503560154231E+01  0.0000000000000E+00
-0.5964553234260E+00 -0.1566460970045E+01  0.0000000000000E+00
-0.5959953631729E+00 -0.1629363954949E+01  0.0000000000000E+00
-0.5957381221583E+00 -0.1692268115114E+01  0.0000000000000E+00
 0.6186694182523E+00 -0.5602854202973E+00  0.0000000000000E+00
 0.6184121778088E+00 -0.6231895804997E+00  0.0000000000000E+00
 0.6179522181269E+00 -0.6860925654424E+00  0.0000000000000E+00
 0.6172599450237E+00 -0.7489933812976E+00  0.0000000000000E+00
 0.6163035974300E+00 -0.8118907744820E+00  0.0000000000000E+00
 0.6150531472289E+00 -0.8747829431345E+00  0.0000000000000E+00
 0.6134887986468E+00 -0.9376681603875E+00  0.0000000000000E+00
 0.6116160334801E+00 -0.1000544890112E+01  0.0000000000000E+00
 0.6094851925666E+00 -0.1063413466762E+01  0.0000000000000E+00
 0.6072037734828E+00 -0.1126276768110E+01  0.0000000000000E+00
 0.6049223544747E+00 -0.1189140069460E+01  0.0000000000000E+00
 0.6027915137782E+00 -0.1252008646118E+01  0.0000000000000E+00
 0.6009187489451E+00 -0.1314885375852E+01  0.0000000000000E+00
 0.5993544007835E+00 -0.1377770593115E+01  0.0000000000000E+00
 0.5981039510633E+00 -0.1440662761777E+01  0.0000000000000E+00
 0.5971476039902E+00 -0.1503560154969E+01  0.0000000000000E+00
 0.5964553314325E+00 -0.1566460970831E+01  0.0000000000000E+00
 0.5959953723106E+00 -0.1629363955777E+01  0.0000000000000E+00
 0.5957381324349E+00 -0.1692268115982E+01  0.0000000000000E+00
-0.6621752666167E+00 -0.4539554224406E+00  0.0000000000000E+00
-0.7056005332335E+00 -0.4105301564309E+00  0.0000000000000E+00
-0.7490257998502E+00 -0.3671048904212E+00  0.0000000000000E+00
-0.7924510664670E+00 -0.3236796244115E+00  0.0000000000000E+00
-0.8358763330837E+00 -0.2802543584018E+00  0.0000000000000E+00
-0.8793015997004E+00 -0.2368290923921E+00  0.0000000000000E+00
-0.9227268663172E+00 -0.1934038263824E+00  0.0000000000000E+00
-0.9661521329339E+00 -0.1499785603727E+00  0.0000000000000E+00
-0.1009577399551E+01 -0.1065532943630E+00  0.0000000000000E+00
-0.1053002666167E+01 -0.6312802835334E-01  0.0000000000000E+00
-0.1096427932784E+01 -0.1970276234365E-01  0.0000000000000E+00
-0.1139853199401E+01  0.2372250366604E-01  0.0000000000000E+00
-0.1183278466018E+01  0.6714776967573E-01  0.0000000000000E+00
-0.1226703732634E+01  0.1105730356854E+00  0.0000000000000E+00
-0.1270128999251E+01  0.1539983016951E+00  0.0000000000000E+00
-0.1313554265868E+01  0.1974235677048E+00  0.0000000000000E+00
-0.1356979532485E+01  0.2408488337145E+00  0.0000000000000E+00
-0.1400404799101E+01  0.2842740997242E+00  0.0000000000000E+00
-0.1443830065718E+01  0.3276993657339E+00  0.0000000000000E+00
 0.6621752664603E+00 -0.4539554223414E+00  0.0000000000000E+00
 0.7056005329206E+00 -0.4105301562325E+00  0.0000000000000E+00
 0.7490257993809E+00 -0.3671048901237E+00  0.0000000000000E+00
 0.7924510658412E+00 -0.3236796240148E+00  0.0000000000000E+00
 0.8358763323015E+00 -0.2802543579059E+00  0.0000000000000E+00
 0.8793015987618E+00 -0.2368290917971E+00  0.0000000000000E+00
 0.9227268652221E+00 -0.1934038256882E+00  0.0000000000000E+00
 0.9661521316824E+00 -0.1499785595793E+00  0.0000000000000E+00
 0.1009577398143E+01 -0.1065532934705E+00  0.0000000000000E+00
 0.1053002664603E+01 -0.6312802736160E-01  0.0000000000000E+00
 0.1096427931063E+01 -0.1970276125273E-01  0.0000000000000E+00
 0.1139853197524E+01  0.2372250485614E-01  0.0000000000000E+00
 0.1183278463984E+01  0.6714777096501E-01  0.0000000000000E+00
 0.1226703730444E+01  0.1105730370739E+00  0.0000000000000E+00
 0.1270128996905E+01  0.1539983031827E+00  0.0000000000000E+00
 0.1313554263365E+01  0.1974235692916E+00  0.0000000000000E+00
 0.1356979529825E+01  0.2408488354005E+00  0.0000000000000E+00
 0.1400404796285E+01  0.2842741015093E+00  0.0000000000000E+00
 0.1443830062746E+01  0.3276993676182E+00  0.0000000000000E+00
-0.1072503587165E+01 -0.4660482676314E+01  0.0000000000000E+00
-0.1072507174322E+01 -0.4589378375132E+01  0.0000000000000E+00
-0.1072510761501E+01 -0.4518273637310E+01  0.0000000000000E+00
-0.1072514348670E+01 -0.4447169098828E+01  0.0000000000000E+00
-0.1072517935839E+01 -0.4376064574487E+01  0.0000000000000E+00
-0.1072521523008E+01 -0.4304960023427E+01  0.0000000000000E+00
-0.1072525110176E+01 -0.4233855514392E+01  0.0000000000000E+00
-0.1072528697345E+01 -0.4162750979291E+01  0.0000000000000E+00
-0.1072532284514E+01 -0.4091646449412E+01  0.0000000000000E+00
-0.1072535871682E+01 -0.4020541927384E+01  0.0000000000000E+00
-0.1072539458851E+01 -0.3949437390474E+01  0.0000000000000E+00
-0.1072543046019E+01 -0.3878332876881E+01  0.0000000000000E+00
-0.1072546633189E+01 -0.3807228332256E+01  0.0000000000000E+00
-0.1072550220361E+01 -0.3736123729622E+01  0.0000000000000E+00
-0.1072553807532E+01 -0.3665019147225E+01  0.0000000000000E+00
-0.1072557394699E+01 -0.3593914649887E+01  0.0000000000000E+00
-0.1072560981898E+01 -0.3522809524803E+01  0.0000000000000E+00
-0.1072564569037E+01 -0.3451705587777E+01  0.0000000000000E+00
-0.1072568156206E+01 -0.3380601047615E+01  0.0000000000000E+00
-0.1072571743371E+01 -0.3309496585365E+01  0.0000000000000E+00
-0.1072575330532E+01 -0.3238392213680E+01  0.0000000000000E+00
-0.1072578917695E+01 -0.3167287806114E+01  0.0000000000000E+00
-0.1072582504859E+01 -0.3096183366749E+01  0.0000000000000E+00
-0.1072604987210E+01 -0.3025078866253E+01  0.0000000000000E+00
-0.1072768067061E+01 -0.2953974594875E+01  0.0000000000000E+00
-0.1073240734738E+01 -0.2882871888659E+01  0.0000000000000E+00
-0.1074177036625E+01 -0.2811774024513E+01  0.0000000000000E+00
-0.1075690363951E+01 -0.2740686684501E+01  0.0000000000000E+00
-0.1077853442627E+01 -0.2669617014531E+01  0.0000000000000E+00
-0.1080712774083E+01 -0.2598573344661E+01  0.0000000000000E+00
-0.1084305312776E+01 -0.2527564663401E+01  0.0000000000000E+00
-0.1088672864462E+01 -0.2456601685752E+01  0.0000000000000E+00
-0.1093872940397E+01 -0.2385697993847E+01  0.0000000000000E+00
-0.1099902305238E+01 -0.2314863405415E+01  0.0000000000000E+00
-0.1106676648231E+01 -0.2244099678337E+01  0.0000000000000E+00
-0.1114135782912E+01 -0.2173408489510E+01  0.0000000000000E+00
-0.1122244705194E+01 -0.2102792618679E+01  0.0000000000000E+00
-0.1130991992091E+01 -0.2032256967667E+01  0.0000000000000E+00
-0.1140395174223E+01 -0.1961810429153E+01  0.0000000000000E+00
-0.1150524750544E+01 -0.1891470211900E+01  0.0000000000000E+00
-0.1045006744548E+01 -0.4660372386096E+01  0.0000000000000E+00
-0.1045013489082E+01 -0.4589157794926E+01  0.0000000000000E+00
-0.1045020233658E+01 -0.4517942766438E+01  0.0000000000000E+00
-0.1045026978215E+01 -0.4446727937600E+01  0.0000000000000E+00
-0.1045033722770E+01 -0.4375513122924E+01  0.0000000000000E+00
-0.1045040467328E+01 -0.4304298281489E+01  0.0000000000000E+00
-0.1045047211882E+01 -0.4233083482143E+01  0.0000000000000E+00
-0.1045053956438E+01 -0.4161868656690E+01  0.0000000000000E+00
-0.1045060700994E+01 -0.4090653836468E+01  0.0000000000000E+00
-0.1045067445549E+01 -0.4019439024110E+01  0.0000000000000E+00
-0.1045074190105E+01 -0.3948224196846E+01  0.0000000000000E+00
-0.1045080934660E+01 -0.3877009392935E+01  0.0000000000000E+00
-0.1045087679217E+01 -0.3805794557944E+01  0.0000000000000E+00
-0.1045094423780E+01 -0.3734579664855E+01  0.0000000000000E+00
-0.1045101168341E+01 -0.3663364792032E+01  0.0000000000000E+00
-0.1045107912893E+01 -0.3592150004402E+01  0.0000000000000E+00
-0.1045114657506E+01 -0.3520934588052E+01  0.0000000000000E+00
-0.1045121402005E+01 -0.3449720361602E+01  0.0000000000000E+00
-0.1045128146562E+01 -0.3378505531081E+01  0.0000000000000E+00
-0.1045134891112E+01 -0.3307290778593E+01  0.0000000000000E+00
-0.1045141635652E+01 -0.3236076116811E+01  0.0000000000000E+00
-0.1045148380197E+01 -0.3164861419091E+01  0.0000000000000E+00
-0.1045155124744E+01 -0.3093646689524E+01  0.0000000000000E+00
-0.1045180279185E+01 -0.3022431898726E+01  0.0000000000000E+00
-0.1045342420071E+01 -0.2951217337114E+01  0.0000000000000E+00
-0.1045806197445E+01 -0.2880004340854E+01  0.0000000000000E+00
-0.1046721701225E+01 -0.2808796186706E+01  0.0000000000000E+00
-0.1048199410343E+01 -0.2737598556815E+01  0.0000000000000E+00
-0.1050310182850E+01 -0.2666418596963E+01  0.0000000000000E+00
-0.1053099325844E+01 -0.2595264637382E+01  0.0000000000000E+00
-0.1056602844668E+01 -0.2524145666314E+01  0.0000000000000E+00
-0.1060861471353E+01 -0.2453072398792E+01  0.0000000000000E+00
-0.1065931240050E+01 -0.2382058417274E+01  0.0000000000000E+00
-0.1071808998522E+01 -0.2311113539101E+01  0.0000000000000E+00
-0.1078412601419E+01 -0.2240239522158E+01  0.0000000000000E+00
-0.1085683408080E+01 -0.2169438043419E+01  0.0000000000000E+00
-0.1093587313453E+01 -0.2098711882551E+01  0.0000000000000E+00
-0.1102113187936E+01 -0.2028065941388E+01  0.0000000000000E+00
-0.1111278111887E+01 -0.1957509112984E+01  0.0000000000000E+00
-0.1121150773592E+01 -0.1887058606097E+01  0.0000000000000E+00
-0.1017509482115E+01 -0.4660264886424E+01  0.0000000000000E+00
-0.1017518964210E+01 -0.4588942795806E+01  0.0000000000000E+00
-0.1017528446364E+01 -0.4517620267209E+01  0.0000000000000E+00
-0.1017537928491E+01 -0.4446297938565E+01  0.0000000000000E+00
-0.1017547410616E+01 -0.4374975624103E+01  0.0000000000000E+00
-0.1017556892744E+01 -0.4303653282842E+01  0.0000000000000E+00
-0.1017566374867E+01 -0.4232330983734E+01  0.0000000000000E+00
-0.1017575856993E+01 -0.4161008658479E+01  0.0000000000000E+00
-0.1017585339119E+01 -0.4089686338463E+01  0.0000000000000E+00
-0.1017594821244E+01 -0.4018364026323E+01  0.0000000000000E+00
-0.1017604303371E+01 -0.3947041699254E+01  0.0000000000000E+00
-0.1017613785494E+01 -0.3875719395574E+01  0.0000000000000E+00
-0.1017623267622E+01 -0.3804397060767E+01  0.0000000000000E+00
-0.1017632749757E+01 -0.3733074667774E+01  0.0000000000000E+00
-0.1017642231890E+01 -0.3661752295078E+01  0.0000000000000E+00
-0.1017651714011E+01 -0.3590430007703E+01  0.0000000000000E+00
-0.1017661196216E+01 -0.3519107090659E+01  0.0000000000000E+00
-0.1017670678263E+01 -0.3447785365312E+01  0.0000000000000E+00
-0.1017680160390E+01 -0.3376463034981E+01  0.0000000000000E+00
-0.1017689642507E+01 -0.3305140782802E+01  0.0000000000000E+00
-0.1017699124612E+01 -0.3233818621464E+01  0.0000000000000E+00
-0.1017708606721E+01 -0.3162496424136E+01  0.0000000000000E+00
-0.1017718088835E+01 -0.3091174194911E+01  0.0000000000000E+00
-0.1017745495548E+01 -0.3019851904360E+01  0.0000000000000E+00
-0.1017906277653E+01 -0.2948529843060E+01  0.0000000000000E+00
-0.1018360744909E+01 -0.2877209347299E+01  0.0000000000000E+00
-0.1019255030769E+01 -0.2805893693688E+01  0.0000000000000E+00
-0.1020696701869E+01 -0.2734588564456E+01  0.0000000000000E+00
-0.1022754748397E+01 -0.2663301105260E+01  0.0000000000000E+00
-0.1025473283124E+01 -0.2592039646501E+01  0.0000000000000E+00
-0.1028887362274E+01 -0.2520813176160E+01  0.0000000000000E+00
-0.1033036644157E+01 -0.2449632409301E+01  0.0000000000000E+00
-0.1037975685816E+01 -0.2378510928701E+01  0.0000000000000E+00
-0.1043701418122E+01 -0.2307458551321E+01  0.0000000000000E+00
-0.1050133861127E+01 -0.2236477035050E+01  0.0000000000000E+00
-0.1057215919976E+01 -0.2165568056937E+01  0.0000000000000E+00
-0.1064914388649E+01 -0.2094734396573E+01  0.0000000000000E+00
-0.1073218430927E+01 -0.2023980955804E+01  0.0000000000000E+00
-0.1082144676909E+01 -0.1953316628048E+01  0.0000000000000E+00
-0.1091760004215E+01 -0.1882758622058E+01  0.0000000000000E+00
-0.9900118099064E+00 -0.4660160183698E+01  0.0000000000000E+00
-0.9900236197882E+00 -0.4588733390572E+01  0.0000000000000E+00
-0.9900354297426E+00 -0.4517306158826E+01  0.0000000000000E+00
-0.9900472396638E+00 -0.4445879127324E+01  0.0000000000000E+00
-0.9900590495827E+00 -0.4374452110027E+01  0.0000000000000E+00
-0.9900708595060E+00 -0.4303025065890E+01  0.0000000000000E+00
-0.9900826694223E+00 -0.4231598063968E+01  0.0000000000000E+00
-0.9900944793430E+00 -0.4160171035861E+01  0.0000000000000E+00
-0.9901062892628E+00 -0.4088744013001E+01  0.0000000000000E+00
-0.9901180991813E+00 -0.4017316998028E+01  0.0000000000000E+00
-0.9901299091023E+00 -0.3945889968104E+01  0.0000000000000E+00
-0.9901417190194E+00 -0.3874462961605E+01  0.0000000000000E+00
-0.9901535289416E+00 -0.3803035923932E+01  0.0000000000000E+00
-0.9901653388735E+00 -0.3731608827986E+01  0.0000000000000E+00
-0.9901771488020E+00 -0.3660181752369E+01  0.0000000000000E+00
-0.9901889587164E+00 -0.3588754762198E+01  0.0000000000000E+00
-0.9902007687351E+00 -0.3517327141434E+01  0.0000000000000E+00
-0.9902125785564E+00 -0.3445900714115E+01  0.0000000000000E+00
-0.9902243884779E+00 -0.3374473680925E+01  0.0000000000000E+00
-0.9902361983865E+00 -0.3303046726000E+01  0.0000000000000E+00
-0.9902480082800E+00 -0.3231619862052E+01  0.0000000000000E+00
-0.9902598181795E+00 -0.3160192962059E+01  0.0000000000000E+00
-0.9902716280843E+00 -0.3088766030123E+01  0.0000000000000E+00
-0.9903008772941E+00 -0.3017339036768E+01  0.0000000000000E+00
-0.9904598908441E+00 -0.2945912272726E+01  0.0000000000000E+00
-0.9909046382074E+00 -0.2874487074405E+01  0.0000000000000E+00
-0.9917772963762E+00 -0.2803066718274E+01  0.0000000000000E+00
-0.9931825196868E+00 -0.2731656886637E+01  0.0000000000000E+00
-0.9951874304676E+00 -0.2660264725035E+01  0.0000000000000E+00
-0.9978349471605E+00 -0.2588898564031E+01  0.0000000000000E+00
-0.1001159176873E+01 -0.2517567391354E+01  0.0000000000000E+00
-0.1005198704189E+01 -0.2446281922097E+01  0.0000000000000E+00
-0.1010006609051E+01 -0.2375055739345E+01  0.0000000000000E+00
-0.1015579905431E+01 -0.2303898659692E+01  0.0000000000000E+00
-0.1021840778788E+01 -0.2232812441032E+01  0.0000000000000E+00
-0.1028733680069E+01 -0.2161798760483E+01  0.0000000000000E+00
-0.1036226302287E+01 -0.2090860397566E+01  0.0000000000000E+00
-0.1044308102607E+01 -0.2020002254134E+01  0.0000000000000E+00
-0.1052995260869E+01 -0.1949233223964E+01  0.0000000000000E+00
-0.1062352844026E+01 -0.1878570515803E+01  0.0000000000000E+00
-0.9625137375235E+00 -0.4660058284100E+01  0.0000000000000E+00
-0.9625274750185E+00 -0.4588529591588E+01  0.0000000000000E+00
-0.9625412125977E+00 -0.4517000459829E+01  0.0000000000000E+00
-0.9625549501385E+00 -0.4445471528601E+01  0.0000000000000E+00
-0.9625686876766E+00 -0.4373942611598E+01  0.0000000000000E+00
-0.9625824252198E+00 -0.4302413667716E+01  0.0000000000000E+00
-0.9625961627548E+00 -0.4230884766111E+01  0.0000000000000E+00
-0.9626099002950E+00 -0.4159355838283E+01  0.0000000000000E+00
-0.9626236378341E+00 -0.4087826915708E+01  0.0000000000000E+00
-0.9626373753717E+00 -0.4016298001032E+01  0.0000000000000E+00
-0.9626511129121E+00 -0.3944769071385E+01  0.0000000000000E+00
-0.9626648504481E+00 -0.3873240165195E+01  0.0000000000000E+00
-0.9626785879900E+00 -0.3801711227786E+01  0.0000000000000E+00
-0.9626923255432E+00 -0.3730182232023E+01  0.0000000000000E+00
-0.9627060630925E+00 -0.3658653256616E+01  0.0000000000000E+00
-0.9627198006253E+00 -0.3587124366778E+01  0.0000000000000E+00
-0.9627335382794E+00 -0.3515594845447E+01  0.0000000000000E+00
-0.9627472757039E+00 -0.3444066519263E+01  0.0000000000000E+00
-0.9627610132450E+00 -0.3372537586345E+01  0.0000000000000E+00
-0.9627747507711E+00 -0.3301008731803E+01  0.0000000000000E+00
-0.9627884882796E+00 -0.3229479968367E+01  0.0000000000000E+00
-0.9628022257951E+00 -0.3157951168836E+01  0.0000000000000E+00
-0.9628159633167E+00 -0.3086422337316E+01  0.0000000000000E+00
-0.9628466548485E+00 -0.3014893444285E+01  0.0000000000000E+00
-0.9630034996671E+00 -0.2943364780630E+01  0.0000000000000E+00
-0.9634381269610E+00 -0.2871837682872E+01  0.0000000000000E+00
-0.9642887572571E+00 -0.2800315427341E+01  0.0000000000000E+00
-0.9656571325932E+00 -0.2728803696419E+01  0.0000000000000E+00
-0.9676085074361E+00 -0.2657309635530E+01  0.0000000000000E+00
-0.9701846058996E+00 -0.2585841575395E+01  0.0000000000000E+00
-0.9734185859714E+00 -0.2514408503499E+01  0.0000000000000E+00
-0.9773479585130E+00 -0.2443021134961E+01  0.0000000000000E+00
-0.9820243263633E+00 -0.2371693053170E+01  0.0000000000000E+00
-0.9874447865971E+00 -0.2300434074359E+01  0.0000000000000E+00
-0.9935336900779E+00 -0.2229245956427E+01  0.0000000000000E+00
-0.1000237033557E+01 -0.2158130376562E+01  0.0000000000000E+00
-0.1007523409081E+01 -0.2087090114213E+01  0.0000000000000E+00
-0.1015382567198E+01 -0.2016130071245E+01  0.0000000000000E+00
-0.1023830237492E+01 -0.1945259141781E+01  0.0000000000000E+00
-0.1032929676247E+01 -0.1874494534560E+01  0.0000000000000E+00
-0.9350152757427E+00 -0.4659959193825E+01  0.0000000000000E+00
-0.9350305514535E+00 -0.4588331411245E+01  0.0000000000000E+00
-0.9350458272582E+00 -0.4516703188809E+01  0.0000000000000E+00
-0.9350611030201E+00 -0.4445075167182E+01  0.0000000000000E+00
-0.9350763787789E+00 -0.4373447159799E+01  0.0000000000000E+00
-0.9350916545434E+00 -0.4301819125501E+01  0.0000000000000E+00
-0.9351069302989E+00 -0.4230191133537E+01  0.0000000000000E+00
-0.9351222060600E+00 -0.4158563115315E+01  0.0000000000000E+00
-0.9351374818200E+00 -0.4086935102354E+01  0.0000000000000E+00
-0.9351527575783E+00 -0.4015307097302E+01  0.0000000000000E+00
-0.9351680333398E+00 -0.3943679077257E+01  0.0000000000000E+00
-0.9351833090963E+00 -0.3872051080703E+01  0.0000000000000E+00
-0.9351985848595E+00 -0.3800423052887E+01  0.0000000000000E+00
-0.9352138606351E+00 -0.3728794966635E+01  0.0000000000000E+00
-0.9352291364064E+00 -0.3657166900768E+01  0.0000000000000E+00
-0.9352444121594E+00 -0.3585538920588E+01  0.0000000000000E+00
-0.9352596880473E+00 -0.3513910308040E+01  0.0000000000000E+00
-0.9352749636799E+00 -0.3442282892296E+01  0.0000000000000E+00
-0.9352902394421E+00 -0.3370654868976E+01  0.0000000000000E+00
-0.9353055151876E+00 -0.3299026924142E+01  0.0000000000000E+00
-0.9353207909136E+00 -0.3227399070539E+01  0.0000000000000E+00
-0.9353360666473E+00 -0.3155771180791E+01  0.0000000000000E+00
-0.9353513423878E+00 -0.3084143259010E+01  0.0000000000000E+00
-0.9353830868434E+00 -0.3012515275629E+01  0.0000000000000E+00
-0.9355373735330E+00 -0.2940887521685E+01  0.0000000000000E+00
-0.9359614913613E+00 -0.2869261333809E+01  0.0000000000000E+00
-0.9367897043898E+00 -0.2797639988196E+01  0.0000000000000E+00
-0.9381208423587E+00 -0.2726029167304E+01  0.0000000000000E+00
-0.9400182918724E+00 -0.2654436016443E+01  0.0000000000000E+00
-0.9425225827175E+00 -0.2582868866489E+01  0.0000000000000E+00
-0.9456659237619E+00 -0.2511336704686E+01  0.0000000000000E+00
-0.9494847521435E+00 -0.2439850246183E+01  0.0000000000000E+00
-0.9540291935997E+00 -0.2368423074660E+01  0.0000000000000E+00
-0.9592964283062E+00 -0.2297065006004E+01  0.0000000000000E+00
-0.9652129725315E+00 -0.2225777798115E+01  0.0000000000000E+00
-0.9717263688312E+00 -0.2154563128249E+01  0.0000000000000E+00
-0.9788061082853E+00 -0.2083423775788E+01  0.0000000000000E+00
-0.9864422348236E+00 -0.2012364642606E+01  0.0000000000000E+00
-0.9946500277763E+00 -0.1941394623162E+01  0.0000000000000E+00
-0.1003490932759E+01 -0.1870530926191E+01  0.0000000000000E+00
-0.9075164348415E+00 -0.4659862918834E+01  0.0000000000000E+00
-0.9075328696488E+00 -0.4588138861463E+01  0.0000000000000E+00
-0.9075493045571E+00 -0.4516414363646E+01  0.0000000000000E+00
-0.9075657394192E+00 -0.4444690066907E+01  0.0000000000000E+00
-0.9075821742781E+00 -0.4372965784431E+01  0.0000000000000E+00
-0.9075986091431E+00 -0.4301241475005E+01  0.0000000000000E+00
-0.9076150439985E+00 -0.4229517207969E+01  0.0000000000000E+00
-0.9076314788598E+00 -0.4157792914640E+01  0.0000000000000E+00
-0.9076479137200E+00 -0.4086068626578E+01  0.0000000000000E+00
-0.9076643485783E+00 -0.4014344346436E+01  0.0000000000000E+00
-0.9076807834401E+00 -0.3942620051282E+01  0.0000000000000E+00
-0.9076972182965E+00 -0.3870895779649E+01  0.0000000000000E+00
-0.9077136531601E+00 -0.3799171476713E+01  0.0000000000000E+00
-0.9077300880371E+00 -0.3727447115263E+01  0.0000000000000E+00
-0.9077465229094E+00 -0.3655722774225E+01  0.0000000000000E+00
-0.9077629577620E+00 -0.3583998518988E+01  0.0000000000000E+00
-0.9077793927597E+00 -0.3512273630535E+01  0.0000000000000E+00
-0.9077958274829E+00 -0.3440549940493E+01  0.0000000000000E+00
-0.9078122623454E+00 -0.3368825642059E+01  0.0000000000000E+00
-0.9078286971899E+00 -0.3297101422216E+01  0.0000000000000E+00
-0.9078451320135E+00 -0.3225377293728E+01  0.0000000000000E+00
-0.9078615668454E+00 -0.3153653129045E+01  0.0000000000000E+00
-0.9078780016846E+00 -0.3081928932287E+01  0.0000000000000E+00
-0.9079104199434E+00 -0.3010204673842E+01  0.0000000000000E+00
-0.9080617693840E+00 -0.2938480644892E+01  0.0000000000000E+00
-0.9084749986280E+00 -0.2866758182177E+01  0.0000000000000E+00
-0.9092804152714E+00 -0.2795040561762E+01  0.0000000000000E+00
-0.9105739367573E+00 -0.2723333466175E+01  0.0000000000000E+00
-0.9124170818274E+00 -0.2651644040617E+01  0.0000000000000E+00
-0.9148491859419E+00 -0.2579980616114E+01  0.0000000000000E+00
-0.9179015088477E+00 -0.2508352179677E+01  0.0000000000000E+00
-0.9216094139598E+00 -0.2436769446484E+01  0.0000000000000E+00
-0.9260215499149E+00 -0.2365246000499E+01  0.0000000000000E+00
-0.9311351799888E+00 -0.2293791657267E+01  0.0000000000000E+00
-0.9368789858541E+00 -0.2222408174696E+01  0.0000000000000E+00
-0.9432020558717E+00 -0.2151097230106E+01  0.0000000000000E+00
-0.9500747801533E+00 -0.2079861602812E+01  0.0000000000000E+00
-0.9574874960124E+00 -0.2008706194698E+01  0.0000000000000E+00
-0.9654550325253E+00 -0.1937639900549E+01  0.0000000000000E+00
-0.9740370246404E+00 -0.1866679929097E+01  0.0000000000000E+00
-0.8800172251723E+00 -0.4659769464936E+01  0.0000000000000E+00
-0.8800344503086E+00 -0.4587951953862E+01  0.0000000000000E+00
-0.8800516755508E+00 -0.4516134001767E+01  0.0000000000000E+00
-0.8800689007447E+00 -0.4444316251013E+01  0.0000000000000E+00
-0.8800861259351E+00 -0.4372498514541E+01  0.0000000000000E+00
-0.8801033511320E+00 -0.4300680751083E+01  0.0000000000000E+00
-0.8801205763187E+00 -0.4228863030071E+01  0.0000000000000E+00
-0.8801378015118E+00 -0.4157045282730E+01  0.0000000000000E+00
-0.8801550267036E+00 -0.4085227540665E+01  0.0000000000000E+00
-0.8801722518934E+00 -0.4013409806530E+01  0.0000000000000E+00
-0.8801894770869E+00 -0.3941592057363E+01  0.0000000000000E+00
-0.8802067022748E+00 -0.3869774331747E+01  0.0000000000000E+00
-0.8802239274701E+00 -0.3797956574788E+01  0.0000000000000E+00
-0.8802411526795E+00 -0.3726138759238E+01  0.0000000000000E+00
-0.8802583778840E+00 -0.3654320964127E+01  0.0000000000000E+00
-0.8802756030679E+00 -0.3582503254930E+01  0.0000000000000E+00
-0.8802928284039E+00 -0.3510684911690E+01  0.0000000000000E+00
-0.8803100534520E+00 -0.3438867768424E+01  0.0000000000000E+00
-0.8803272786463E+00 -0.3367050015972E+01  0.0000000000000E+00
-0.8803445038217E+00 -0.3295232342214E+01  0.0000000000000E+00
-0.8803617289752E+00 -0.3223414759930E+01  0.0000000000000E+00
-0.8803789541373E+00 -0.3151597141404E+01  0.0000000000000E+00
-0.8803961793072E+00 -0.3079779490761E+01  0.0000000000000E+00
-0.8804289026007E+00 -0.3007961778347E+01  0.0000000000000E+00
-0.8805769460245E+00 -0.2936144295485E+01  0.0000000000000E+00
-0.8809789179176E+00 -0.2864328379021E+01  0.0000000000000E+00
-0.8817611694101E+00 -0.2792517304890E+01  0.0000000000000E+00
-0.8830167056487E+00 -0.2720716755693E+01  0.0000000000000E+00
-0.8848051775121E+00 -0.2648933876522E+01  0.0000000000000E+00
-0.8871647261348E+00 -0.2577176998550E+01  0.0000000000000E+00
-0.8901256621418E+00 -0.2505455108563E+01  0.0000000000000E+00
-0.8937222752253E+00 -0.2433778921763E+01  0.0000000000000E+00
-0.8980017369228E+00 -0.2362162022393E+01  0.0000000000000E+00
-0.9029613936084E+00 -0.2290614225668E+01  0.0000000000000E+00
-0.9085320923593E+00 -0.2219137289498E+01  0.0000000000000E+00
-0.9146644673410E+00 -0.2147732891269E+01  0.0000000000000E+00
-0.9213298076975E+00 -0.2076403810231E+01  0.0000000000000E+00
-0.9285187441254E+00 -0.2005154948275E+01  0.0000000000000E+00
-0.9362456554485E+00 -0.1933995200506E+01  0.0000000000000E+00
-0.9445683659478E+00 -0.1862941775651E+01  0.0000000000000E+00
-0.8525176569623E+00 -0.4659678837762E+01  0.0000000000000E+00
-0.8525353138878E+00 -0.4587770699704E+01  0.0000000000000E+00
-0.8525529709217E+00 -0.4515862120068E+01  0.0000000000000E+00
-0.8525706279061E+00 -0.4443953742027E+01  0.0000000000000E+00
-0.8525882848871E+00 -0.4372045378286E+01  0.0000000000000E+00
-0.8526059418746E+00 -0.4300136987525E+01  0.0000000000000E+00
-0.8526235988517E+00 -0.4228228639263E+01  0.0000000000000E+00
-0.8526412558353E+00 -0.4156320264640E+01  0.0000000000000E+00
-0.8526589128176E+00 -0.4084411895299E+01  0.0000000000000E+00
-0.8526765697980E+00 -0.4012503533897E+01  0.0000000000000E+00
-0.8526942267820E+00 -0.3940595157445E+01  0.0000000000000E+00
-0.8527118837602E+00 -0.3868686804574E+01  0.0000000000000E+00
-0.8527295407462E+00 -0.3796778420320E+01  0.0000000000000E+00
-0.8527471977466E+00 -0.3724869977402E+01  0.0000000000000E+00
-0.8527648547419E+00 -0.3652961554948E+01  0.0000000000000E+00
-0.8527825117161E+00 -0.3581053218515E+01  0.0000000000000E+00
-0.8528001688462E+00 -0.3509144247241E+01  0.0000000000000E+00
-0.8528178256813E+00 -0.3437236477454E+01  0.0000000000000E+00
-0.8528354826661E+00 -0.3365328097713E+01  0.0000000000000E+00
-0.8528531396316E+00 -0.3293419796766E+01  0.0000000000000E+00
-0.8528707965746E+00 -0.3221511587407E+01  0.0000000000000E+00
-0.8528884535265E+00 -0.3149603341761E+01  0.0000000000000E+00
-0.8529061104864E+00 -0.3077695063957E+01  0.0000000000000E+00
-0.8529387802737E+00 -0.3005786724301E+01  0.0000000000000E+00
-0.8530831591395E+00 -0.2933878614253E+01  0.0000000000000E+00
-0.8534735151404E+00 -0.2861972070759E+01  0.0000000000000E+00
-0.8542322429400E+00 -0.2790070369632E+01  0.0000000000000E+00
-0.8554494353881E+00 -0.2718179193539E+01  0.0000000000000E+00
-0.8571828755004E+00 -0.2646305687471E+01  0.0000000000000E+00
-0.8594695100855E+00 -0.2574458182743E+01  0.0000000000000E+00
-0.8623387006461E+00 -0.2502645665919E+01  0.0000000000000E+00
-0.8658236631514E+00 -0.2430878852229E+01  0.0000000000000E+00
-0.8699700920406E+00 -0.2359171326182E+01  0.0000000000000E+00
-0.8747754167849E+00 -0.2287532902676E+01  0.0000000000000E+00
-0.8801726498660E+00 -0.2215965339624E+01  0.0000000000000E+00
-0.8861139712552E+00 -0.2144470314473E+01  0.0000000000000E+00
-0.8925715691276E+00 -0.2073050606409E+01  0.0000000000000E+00
-0.8995363675637E+00 -0.2001711117336E+01  0.0000000000000E+00
-0.9070222951358E+00 -0.1930460742663E+01  0.0000000000000E+00
-0.9150853654571E+00 -0.1859316691115E+01  0.0000000000000E+00
-0.8250177407139E+00 -0.4659591042819E+01  0.0000000000000E+00
-0.8250354813908E+00 -0.4587595110000E+01  0.0000000000000E+00
-0.8250532221767E+00 -0.4515598735065E+01  0.0000000000000E+00
-0.8250709629128E+00 -0.4443602561971E+01  0.0000000000000E+00
-0.8250887036454E+00 -0.4371606403194E+01  0.0000000000000E+00
-0.8251064443847E+00 -0.4299610217364E+01  0.0000000000000E+00
-0.8251241851135E+00 -0.4227614074085E+01  0.0000000000000E+00
-0.8251419258488E+00 -0.4155617904413E+01  0.0000000000000E+00
-0.8251596665828E+00 -0.4083621740029E+01  0.0000000000000E+00
-0.8251774073148E+00 -0.4011625583594E+01  0.0000000000000E+00
-0.8251951480505E+00 -0.3939629412091E+01  0.0000000000000E+00
-0.8252128887805E+00 -0.3867633264198E+01  0.0000000000000E+00
-0.8252306295181E+00 -0.3795637084882E+01  0.0000000000000E+00
-0.8252483702703E+00 -0.3723640846831E+01  0.0000000000000E+00
-0.8252661110174E+00 -0.3651644629270E+01  0.0000000000000E+00
-0.8252838517432E+00 -0.3579648497835E+01  0.0000000000000E+00
-0.8253015926257E+00 -0.3507651730783E+01  0.0000000000000E+00
-0.8253193332118E+00 -0.3435656166686E+01  0.0000000000000E+00
-0.8253370739484E+00 -0.3363659991889E+01  0.0000000000000E+00
-0.8253548146655E+00 -0.3291663895982E+01  0.0000000000000E+00
-0.8253725553600E+00 -0.3219667891776E+01  0.0000000000000E+00
-0.8253902960635E+00 -0.3147671851239E+01  0.0000000000000E+00
-0.8254080367749E+00 -0.3075675778504E+01  0.0000000000000E+00
-0.8254403050173E+00 -0.3003679643838E+01  0.0000000000000E+00
-0.8255806712862E+00 -0.2931683738833E+01  0.0000000000000E+00
-0.8259590633559E+00 -0.2859689400535E+01  0.0000000000000E+00
-0.8266939194225E+00 -0.2787699904637E+01  0.0000000000000E+00
-0.8278724200392E+00 -0.2715720933871E+01  0.0000000000000E+00
-0.8295504803575E+00 -0.2643759633128E+01  0.0000000000000E+00
-0.8317638528612E+00 -0.2571824333859E+01  0.0000000000000E+00
-0.8345409499295E+00 -0.2499924022419E+01  0.0000000000000E+00
-0.8379139138084E+00 -0.2428069414060E+01  0.0000000000000E+00
-0.8419269618398E+00 -0.2356274093551E+01  0.0000000000000E+00
-0.8465776065910E+00 -0.2284547875482E+01  0.0000000000000E+00
-0.8518010259485E+00 -0.2212892517768E+01  0.0000000000000E+00
-0.8575509456891E+00 -0.2141309697916E+01  0.0000000000000E+00
-0.8638004530197E+00 -0.2069802195054E+01  0.0000000000000E+00
-0.8705407654042E+00 -0.1998374911091E+01  0.0000000000000E+00
-0.8777853611645E+00 -0.1927036741736E+01  0.0000000000000E+00
-0.8855884432463E+00 -0.1855804895709E+01  0.0000000000000E+00
-0.7975174872200E+00 -0.4659506085482E+01  0.0000000000000E+00
-0.7975349744037E+00 -0.4587425195502E+01  0.0000000000000E+00
-0.7975524616947E+00 -0.4515343862885E+01  0.0000000000000E+00
-0.7975699489366E+00 -0.4443262732347E+01  0.0000000000000E+00
-0.7975874361751E+00 -0.4371181616143E+01  0.0000000000000E+00
-0.7976049234202E+00 -0.4299100472854E+01  0.0000000000000E+00
-0.7976224106549E+00 -0.4227019372167E+01  0.0000000000000E+00
-0.7976398978961E+00 -0.4154938245055E+01  0.0000000000000E+00
-0.7976573851359E+00 -0.4082857123237E+01  0.0000000000000E+00
-0.7976748723739E+00 -0.4010776009378E+01  0.0000000000000E+00
-0.7976923596155E+00 -0.3938694880433E+01  0.0000000000000E+00
-0.7977098468513E+00 -0.3866613775126E+01  0.0000000000000E+00
-0.7977273340948E+00 -0.3794532638359E+01  0.0000000000000E+00
-0.7977448213526E+00 -0.3722451442787E+01  0.0000000000000E+00
-0.7977623086053E+00 -0.3650370267730E+01  0.0000000000000E+00
-0.7977797958372E+00 -0.3578289178900E+01  0.0000000000000E+00
-0.7977972832234E+00 -0.3506207453703E+01  0.0000000000000E+00
-0.7978147703175E+00 -0.3434126932881E+01  0.0000000000000E+00
-0.7978322575599E+00 -0.3362045800638E+01  0.0000000000000E+00
-0.7978497447831E+00 -0.3289964747379E+01  0.0000000000000E+00
-0.7978672319841E+00 -0.3217883785928E+01  0.0000000000000E+00
-0.7978847191938E+00 -0.3145802788103E+01  0.0000000000000E+00
-0.7979022064114E+00 -0.3073721758043E+01  0.0000000000000E+00
-0.7979337358632E+00 -0.3001640665976E+01  0.0000000000000E+00
-0.7980697522901E+00 -0.2929559803621E+01  0.0000000000000E+00
-0.7984358431845E+00 -0.2857480508120E+01  0.0000000000000E+00
-0.7991464902748E+00 -0.2785406055050E+01  0.0000000000000E+00
-0.8002859618180E+00 -0.2713342127208E+01  0.0000000000000E+00
-0.8019083051015E+00 -0.2641295869387E+01  0.0000000000000E+00
-0.8040480782847E+00 -0.2569275613171E+01  0.0000000000000E+00
-0.8067327446223E+00 -0.2497290344709E+01  0.0000000000000E+00
-0.8099933726376E+00 -0.2425350779278E+01  0.0000000000000E+00
-0.8138727025763E+00 -0.2353470501899E+01  0.0000000000000E+00
-0.8183683301003E+00 -0.2281659326859E+01  0.0000000000000E+00
-0.8234175985009E+00 -0.2209919012080E+01  0.0000000000000E+00
-0.8289757793607E+00 -0.2138251235127E+01  0.0000000000000E+00
-0.8350168589179E+00 -0.2066658775066E+01  0.0000000000000E+00
-0.8415323480198E+00 -0.1995146533818E+01  0.0000000000000E+00
-0.8485352747396E+00 -0.1923723407379E+01  0.0000000000000E+00
-0.8560780313548E+00 -0.1852406604464E+01  0.0000000000000E+00
-0.7700169071112E+00 -0.4659423970938E+01  0.0000000000000E+00
-0.7700338141872E+00 -0.4587260966585E+01  0.0000000000000E+00
-0.7700507213671E+00 -0.4515097519091E+01  0.0000000000000E+00
-0.7700676284995E+00 -0.4442934273906E+01  0.0000000000000E+00
-0.7700845356285E+00 -0.4370771043071E+01  0.0000000000000E+00
-0.7701014427640E+00 -0.4298607785120E+01  0.0000000000000E+00
-0.7701183498894E+00 -0.4226444569820E+01  0.0000000000000E+00
-0.7701352570210E+00 -0.4154281328065E+01  0.0000000000000E+00
-0.7701521641514E+00 -0.4082118091610E+01  0.0000000000000E+00
-0.7701690712799E+00 -0.4009954863123E+01  0.0000000000000E+00
-0.7701859784119E+00 -0.3937791619533E+01  0.0000000000000E+00
-0.7702028855385E+00 -0.3865628399607E+01  0.0000000000000E+00
-0.7702197926723E+00 -0.3793465148187E+01  0.0000000000000E+00
-0.7702366998200E+00 -0.3721301837894E+01  0.0000000000000E+00
-0.7702536069629E+00 -0.3649138548138E+01  0.0000000000000E+00
-0.7702705140855E+00 -0.3576975344709E+01  0.0000000000000E+00
-0.7702874213574E+00 -0.3504811504187E+01  0.0000000000000E+00
-0.7703043283468E+00 -0.3432648869413E+01  0.0000000000000E+00
-0.7703212354797E+00 -0.3360485622521E+01  0.0000000000000E+00
-0.7703381425940E+00 -0.3288322454703E+01  0.0000000000000E+00
-0.7703550496867E+00 -0.3216159378797E+01  0.0000000000000E+00
-0.7703719567880E+00 -0.3143996266477E+01  0.0000000000000E+00
-0.7703888638969E+00 -0.3071833121884E+01  0.0000000000000E+00
-0.7704193279429E+00 -0.2999669915210E+01  0.0000000000000E+00
-0.7705506679129E+00 -0.2927506938299E+01  0.0000000000000E+00
-0.7709041310181E+00 -0.2855345528385E+01  0.0000000000000E+00
-0.7715902425191E+00 -0.2783188960931E+01  0.0000000000000E+00
-0.7726903583770E+00 -0.2711042918797E+01  0.0000000000000E+00
-0.7742566580147E+00 -0.2638914546683E+01  0.0000000000000E+00
-0.7763225052677E+00 -0.2566812176300E+01  0.0000000000000E+00
-0.7789144142657E+00 -0.2494744793600E+01  0.0000000000000E+00
-0.7820623798096E+00 -0.2422723113881E+01  0.0000000000000E+00
-0.7858076650495E+00 -0.2350760722408E+01  0.0000000000000E+00
-0.7901479487410E+00 -0.2278867433179E+01  0.0000000000000E+00
-0.7950227395800E+00 -0.2207045004120E+01  0.0000000000000E+00
-0.8003888549551E+00 -0.2135295112850E+01  0.0000000000000E+00
-0.8062211801355E+00 -0.2063620538380E+01  0.0000000000000E+00
-0.8125115193522E+00 -0.1992026182637E+01  0.0000000000000E+00
-0.8192724504302E+00 -0.1920520941899E+01  0.0000000000000E+00
-0.8265545549795E+00 -0.1849122024875E+01  0.0000000000000E+00
-0.7425160110831E+00 -0.4659344704214E+01  0.0000000000000E+00
-0.7425320221329E+00 -0.4587102433304E+01  0.0000000000000E+00
-0.7425480332810E+00 -0.4514859718765E+01  0.0000000000000E+00
-0.7425640443842E+00 -0.4442617206757E+01  0.0000000000000E+00
-0.7425800554842E+00 -0.4370374709116E+01  0.0000000000000E+00
-0.7425960665902E+00 -0.4298132184328E+01  0.0000000000000E+00
-0.7426120776868E+00 -0.4225889702238E+01  0.0000000000000E+00
-0.7426280887892E+00 -0.4153647193664E+01  0.0000000000000E+00
-0.7426440998905E+00 -0.4081404690396E+01  0.0000000000000E+00
-0.7426601109900E+00 -0.4009162195105E+01  0.0000000000000E+00
-0.7426761220928E+00 -0.3936919684694E+01  0.0000000000000E+00
-0.7426921331904E+00 -0.3864677197973E+01  0.0000000000000E+00
-0.7427081442950E+00 -0.3792434679724E+01  0.0000000000000E+00
-0.7427241554126E+00 -0.3720192102536E+01  0.0000000000000E+00
-0.7427401665257E+00 -0.3647949545909E+01  0.0000000000000E+00
-0.7427561776197E+00 -0.3575707075704E+01  0.0000000000000E+00
-0.7427721888549E+00 -0.3503463967706E+01  0.0000000000000E+00
-0.7427881998227E+00 -0.3431222066779E+01  0.0000000000000E+00
-0.7428042109263E+00 -0.3358979553063E+01  0.0000000000000E+00
-0.7428202220123E+00 -0.3286737118507E+01  0.0000000000000E+00
-0.7428362330780E+00 -0.3214494775965E+01  0.0000000000000E+00
-0.7428522441517E+00 -0.3142252396968E+01  0.0000000000000E+00
-0.7428682552326E+00 -0.3070009985662E+01  0.0000000000000E+00
-0.7428973379532E+00 -0.2997767512206E+01  0.0000000000000E+00
-0.7430236855472E+00 -0.2925525268560E+01  0.0000000000000E+00
-0.7433642049450E+00 -0.2853284592048E+01  0.0000000000000E+00
-0.7440254649391E+00 -0.2781048758026E+01  0.0000000000000E+00
-0.7450859091951E+00 -0.2708823449412E+01  0.0000000000000E+00
-0.7465958492710E+00 -0.2636615810817E+01  0.0000000000000E+00
-0.7485874546793E+00 -0.2564434174075E+01  0.0000000000000E+00
-0.7510862904237E+00 -0.2492287524946E+01  0.0000000000000E+00
-0.7541212775826E+00 -0.2420186578752E+01  0.0000000000000E+00
-0.7577322022120E+00 -0.2348144920990E+01  0.0000000000000E+00
-0.7619168261599E+00 -0.2276172365381E+01  0.0000000000000E+00
-0.7666168235266E+00 -0.2204270669853E+01  0.0000000000000E+00
-0.7717905575071E+00 -0.2132441512079E+01  0.0000000000000E+00
-0.7774138124011E+00 -0.2060687671016E+01  0.0000000000000E+00
-0.7834786858233E+00 -0.1989014048599E+01  0.0000000000000E+00
-0.7899973053517E+00 -0.1917429541373E+01  0.0000000000000E+00
-0.7970184419288E+00 -0.1845951358046E+01  0.0000000000000E+00
-0.7150148098282E+00 -0.4659268290171E+01  0.0000000000000E+00
-0.7150296196255E+00 -0.4586949605377E+01  0.0000000000000E+00
-0.7150444295138E+00 -0.4514630476484E+01  0.0000000000000E+00
-0.7150592393606E+00 -0.4442311550338E+01  0.0000000000000E+00
-0.7150740492044E+00 -0.4369992638572E+01  0.0000000000000E+00
-0.7150888590538E+00 -0.4297673699632E+01  0.0000000000000E+00
-0.7151036688944E+00 -0.4225354803435E+01  0.0000000000000E+00
-0.7151184787405E+00 -0.4153035880725E+01  0.0000000000000E+00
-0.7151332885855E+00 -0.4080716963328E+01  0.0000000000000E+00
-0.7151480984288E+00 -0.4008398053915E+01  0.0000000000000E+00
-0.7151629082753E+00 -0.3936079129367E+01  0.0000000000000E+00
-0.7151777181168E+00 -0.3863760228534E+01  0.0000000000000E+00
-0.7151925279649E+00 -0.3791441296138E+01  0.0000000000000E+00
-0.7152073378250E+00 -0.3719122304743E+01  0.0000000000000E+00
-0.7152221476809E+00 -0.3646803333930E+01  0.0000000000000E+00
-0.7152369575191E+00 -0.3574484449629E+01  0.0000000000000E+00
-0.7152517674881E+00 -0.3502164926862E+01  0.0000000000000E+00
-0.7152665772096E+00 -0.3429846612442E+01  0.0000000000000E+00
-0.7152813870567E+00 -0.3357527684586E+01  0.0000000000000E+00
-0.7152961968876E+00 -0.3285208835972E+01  0.0000000000000E+00
-0.7153110066996E+00 -0.3212890079470E+01  0.0000000000000E+00
-0.7153258165191E+00 -0.3140571286475E+01  0.0000000000000E+00
-0.7153406263452E+00 -0.3068252461137E+01  0.0000000000000E+00
-0.7153680225135E+00 -0.2995933573580E+01  0.0000000000000E+00
-0.7154890725045E+00 -0.2923614915879E+01  0.0000000000000E+00
-0.7158163429684E+00 -0.2851297825445E+01  0.0000000000000E+00
-0.7164524462290E+00 -0.2778985577529E+01  0.0000000000000E+00
-0.7174729136566E+00 -0.2706683855107E+01  0.0000000000000E+00
-0.7189261889441E+00 -0.2634399802702E+01  0.0000000000000E+00
-0.7208432472812E+00 -0.2562141752268E+01  0.0000000000000E+00
-0.7232487045449E+00 -0.2489918689380E+01  0.0000000000000E+00
-0.7261704080913E+00 -0.2417741329381E+01  0.0000000000000E+00
-0.7296466668831E+00 -0.2345623257995E+01  0.0000000000000E+00
-0.7336753258596E+00 -0.2273574288674E+01  0.0000000000000E+00
-0.7382002245257E+00 -0.2201596179347E+01  0.0000000000000E+00
-0.7431812718828E+00 -0.2129690607742E+01  0.0000000000000E+00
-0.7485951512610E+00 -0.2057860352761E+01  0.0000000000000E+00
-0.7544342536587E+00 -0.1986110316347E+01  0.0000000000000E+00
-0.7607102564081E+00 -0.1914449395305E+01  0.0000000000000E+00
-0.7674701197840E+00 -0.1842894798340E+01  0.0000000000000E+00
-0.6875133140180E+00 -0.4659194733497E+01  0.0000000000000E+00
-0.6875266280083E+00 -0.4586802492181E+01  0.0000000000000E+00
-0.6875399420804E+00 -0.4514409806315E+01  0.0000000000000E+00
-0.6875532561151E+00 -0.4442017323401E+01  0.0000000000000E+00
-0.6875665701472E+00 -0.4369624854884E+01  0.0000000000000E+00
-0.6875798841843E+00 -0.4297232359164E+01  0.0000000000000E+00
-0.6875931982135E+00 -0.4224839906230E+01  0.0000000000000E+00
-0.6876065122476E+00 -0.4152447426757E+01  0.0000000000000E+00
-0.6876198262808E+00 -0.4080054952602E+01  0.0000000000000E+00
-0.6876331403124E+00 -0.4007662486439E+01  0.0000000000000E+00
-0.6876464543469E+00 -0.3935270005125E+01  0.0000000000000E+00
-0.6876597683769E+00 -0.3862877547551E+01  0.0000000000000E+00
-0.6876730824128E+00 -0.3790485058383E+01  0.0000000000000E+00
-0.6876863964596E+00 -0.3718092510154E+01  0.0000000000000E+00
-0.6876997105025E+00 -0.3645699982529E+01  0.0000000000000E+00
-0.6877130245296E+00 -0.3573307541504E+01  0.0000000000000E+00
-0.6877263386741E+00 -0.3500914461363E+01  0.0000000000000E+00
-0.6877396525963E+00 -0.3428522590798E+01  0.0000000000000E+00
-0.6877529666313E+00 -0.3356130106173E+01  0.0000000000000E+00
-0.6877662806518E+00 -0.3283737700872E+01  0.0000000000000E+00
-0.6877795946553E+00 -0.3211345387775E+01  0.0000000000000E+00
-0.6877929086655E+00 -0.3138953038149E+01  0.0000000000000E+00
-0.6878062226817E+00 -0.3066560656146E+01  0.0000000000000E+00
-0.6878316377421E+00 -0.2994168211858E+01  0.0000000000000E+00
-0.6879470955743E+00 -0.2921775997472E+01  0.0000000000000E+00
-0.6882608225479E+00 -0.2849385350480E+01  0.0000000000000E+00
-0.6888714745171E+00 -0.2776999546033E+01  0.0000000000000E+00
-0.6898516705568E+00 -0.2704624267162E+01  0.0000000000000E+00
-0.6912479864942E+00 -0.2632266658308E+01  0.0000000000000E+00
-0.6930902031963E+00 -0.2559935051537E+01  0.0000000000000E+00
-0.6954019874130E+00 -0.2487638432247E+01  0.0000000000000E+00
-0.6982101127777E+00 -0.2415387515803E+01  0.0000000000000E+00
-0.7015514111604E+00 -0.2343195888146E+01  0.0000000000000E+00
-0.7054238105909E+00 -0.2271073362469E+01  0.0000000000000E+00
-0.7097733159789E+00 -0.2199021696703E+01  0.0000000000000E+00
-0.7145613821325E+00 -0.2127042568627E+01  0.0000000000000E+00
-0.7197655914124E+00 -0.2055138757093E+01  0.0000000000000E+00
-0.7253786282006E+00 -0.1983315164049E+01  0.0000000000000E+00
-0.7314117195845E+00 -0.1911580686551E+01  0.0000000000000E+00
-0.7379100151708E+00 -0.1839952533300E+01  0.0000000000000E+00
-0.6600115347780E+00 -0.4659124038756E+01  0.0000000000000E+00
-0.6600230695320E+00 -0.4586661102847E+01  0.0000000000000E+00
-0.6600346043568E+00 -0.4514197721954E+01  0.0000000000000E+00
-0.6600461391493E+00 -0.4441734544211E+01  0.0000000000000E+00
-0.6600576739395E+00 -0.4369271380878E+01  0.0000000000000E+00
-0.6600692087340E+00 -0.4296808190316E+01  0.0000000000000E+00
-0.6600807435217E+00 -0.4224345042582E+01  0.0000000000000E+00
-0.6600922783136E+00 -0.4151881868284E+01  0.0000000000000E+00
-0.6601038131047E+00 -0.4079418699308E+01  0.0000000000000E+00
-0.6601153478945E+00 -0.4006955538333E+01  0.0000000000000E+00
-0.6601268826867E+00 -0.3934492362191E+01  0.0000000000000E+00
-0.6601384174751E+00 -0.3862029209812E+01  0.0000000000000E+00
-0.6601499522686E+00 -0.3789566025808E+01  0.0000000000000E+00
-0.6601614870715E+00 -0.3717102782687E+01  0.0000000000000E+00
-0.6601730218711E+00 -0.3644639560188E+01  0.0000000000000E+00
-0.6601845566569E+00 -0.3572176424375E+01  0.0000000000000E+00
-0.6601960915445E+00 -0.3499712648821E+01  0.0000000000000E+00
-0.6602076262394E+00 -0.3427250084026E+01  0.0000000000000E+00
-0.6602191610322E+00 -0.3354786904570E+01  0.0000000000000E+00
-0.6602306958123E+00 -0.3282323804515E+01  0.0000000000000E+00
-0.6602422305777E+00 -0.3209860796755E+01  0.0000000000000E+00
-0.6602537653490E+00 -0.3137397752429E+01  0.0000000000000E+00
-0.6602653001253E+00 -0.3064934675696E+01  0.0000000000000E+00
-0.6602884506478E+00 -0.2992471536614E+01  0.0000000000000E+00
-0.6603980328915E+00 -0.2920008627477E+01  0.0000000000000E+00
-0.6606979329459E+00 -0.2847547285856E+01  0.0000000000000E+00
-0.6612828501955E+00 -0.2775090786807E+01  0.0000000000000E+00
-0.6622224914199E+00 -0.2702644813413E+01  0.0000000000000E+00
-0.6635615645806E+00 -0.2630216510033E+01  0.0000000000000E+00
-0.6653286562223E+00 -0.2557814208847E+01  0.0000000000000E+00
-0.6675464839670E+00 -0.2485446895079E+01  0.0000000000000E+00
-0.6702407477259E+00 -0.2413125284116E+01  0.0000000000000E+00
-0.6734468022770E+00 -0.2340862962106E+01  0.0000000000000E+00
-0.6771626587394E+00 -0.2268669741993E+01  0.0000000000000E+00
-0.6813364874278E+00 -0.2196547381714E+01  0.0000000000000E+00
-0.6859312889571E+00 -0.2124497559093E+01  0.0000000000000E+00
-0.6909255447183E+00 -0.2052523052934E+01  0.0000000000000E+00
-0.6963122324769E+00 -0.1980628765193E+01  0.0000000000000E+00
-0.7021021290765E+00 -0.1908823593166E+01  0.0000000000000E+00
-0.7083385734561E+00 -0.1837124745548E+01  0.0000000000000E+00
-0.6325094830437E+00 -0.4659056210321E+01  0.0000000000000E+00
-0.6325189660676E+00 -0.4586525446119E+01  0.0000000000000E+00
-0.6325284491498E+00 -0.4513994236516E+01  0.0000000000000E+00
-0.6325379322054E+00 -0.4441463230253E+01  0.0000000000000E+00
-0.6325474152591E+00 -0.4368932238414E+01  0.0000000000000E+00
-0.6325568983163E+00 -0.4296401219321E+01  0.0000000000000E+00
-0.6325663813680E+00 -0.4223870243095E+01  0.0000000000000E+00
-0.6325758644231E+00 -0.4151339240280E+01  0.0000000000000E+00
-0.6325853474776E+00 -0.4078808242792E+01  0.0000000000000E+00
-0.6325948305309E+00 -0.4006277253313E+01  0.0000000000000E+00
-0.6326043135863E+00 -0.3933746248653E+01  0.0000000000000E+00
-0.6326137966386E+00 -0.3861215267778E+01  0.0000000000000E+00
-0.6326232796950E+00 -0.3788684255248E+01  0.0000000000000E+00
-0.6326327627591E+00 -0.3716153183546E+01  0.0000000000000E+00
-0.6326422458206E+00 -0.3643622132486E+01  0.0000000000000E+00
-0.6326517288707E+00 -0.3571091168192E+01  0.0000000000000E+00
-0.6326612120045E+00 -0.3498559563559E+01  0.0000000000000E+00
-0.6326706949798E+00 -0.3426029170817E+01  0.0000000000000E+00
-0.6326801780356E+00 -0.3353498162840E+01  0.0000000000000E+00
-0.6326896610811E+00 -0.3280967234338E+01  0.0000000000000E+00
-0.6326991441144E+00 -0.3208436398218E+01  0.0000000000000E+00
-0.6327086271525E+00 -0.3135905525497E+01  0.0000000000000E+00
-0.6327181101949E+00 -0.3063374620339E+01  0.0000000000000E+00
-0.6327387236849E+00 -0.2990843652771E+01  0.0000000000000E+00
-0.6328421578459E+00 -0.2918312915189E+01  0.0000000000000E+00
-0.6331279584877E+00 -0.2845783745241E+01  0.0000000000000E+00
-0.6336868685247E+00 -0.2773259417889E+01  0.0000000000000E+00
-0.6345856824418E+00 -0.2700745616269E+01  0.0000000000000E+00
-0.6358672403342E+00 -0.2628249484662E+01  0.0000000000000E+00
-0.6375589344252E+00 -0.2555779355352E+01  0.0000000000000E+00
-0.6396825332080E+00 -0.2483344213402E+01  0.0000000000000E+00
-0.6422626628715E+00 -0.2410954774215E+01  0.0000000000000E+00
-0.6453332011029E+00 -0.2338624624143E+01  0.0000000000000E+00
-0.6488922421098E+00 -0.2266363575889E+01  0.0000000000000E+00
-0.6528901216113E+00 -0.2194173387393E+01  0.0000000000000E+00
-0.6572913860296E+00 -0.2122055736525E+01  0.0000000000000E+00
-0.6620754157856E+00 -0.2050013402043E+01  0.0000000000000E+00
-0.6672354820285E+00 -0.1978051285908E+01  0.0000000000000E+00
-0.6727819113590E+00 -0.1906178285648E+01  0.0000000000000E+00
-0.6787562320482E+00 -0.1834411609955E+01  0.0000000000000E+00
-0.6050071698059E+00 -0.4658991252397E+01  0.0000000000000E+00
-0.6050143395968E+00 -0.4586395530405E+01  0.0000000000000E+00
-0.6050215094317E+00 -0.4513799362613E+01  0.0000000000000E+00
-0.6050286792466E+00 -0.4441203398345E+01  0.0000000000000E+00
-0.6050358490600E+00 -0.4368607448512E+01  0.0000000000000E+00
-0.6050430188761E+00 -0.4296011471401E+01  0.0000000000000E+00
-0.6050501886880E+00 -0.4223415537196E+01  0.0000000000000E+00
-0.6050573585025E+00 -0.4150819576378E+01  0.0000000000000E+00
-0.6050645283165E+00 -0.4078223620892E+01  0.0000000000000E+00
-0.6050716981297E+00 -0.4005627673422E+01  0.0000000000000E+00
-0.6050788679444E+00 -0.3933031710757E+01  0.0000000000000E+00
-0.6050860377568E+00 -0.3860435771899E+01  0.0000000000000E+00
-0.6050932075722E+00 -0.3787839801358E+01  0.0000000000000E+00
-0.6051003773936E+00 -0.3715243771590E+01  0.0000000000000E+00
-0.6051075472128E+00 -0.3642647762484E+01  0.0000000000000E+00
-0.6051147170236E+00 -0.3570051840222E+01  0.0000000000000E+00
-0.6051218868976E+00 -0.3497455277047E+01  0.0000000000000E+00
-0.6051290566518E+00 -0.3424859926848E+01  0.0000000000000E+00
-0.6051362264668E+00 -0.3352263960863E+01  0.0000000000000E+00
-0.6051433962740E+00 -0.3279668074425E+01  0.0000000000000E+00
-0.6051505660720E+00 -0.3207072280451E+01  0.0000000000000E+00
-0.6051577358736E+00 -0.3134476449843E+01  0.0000000000000E+00
-0.6051649056785E+00 -0.3061880586770E+01  0.0000000000000E+00
-0.6051827206324E+00 -0.2989284661228E+01  0.0000000000000E+00
-0.6052797452072E+00 -0.2916688965711E+01  0.0000000000000E+00
-0.6055511849337E+00 -0.2844094837942E+01  0.0000000000000E+00
-0.6060838262558E+00 -0.2771505552792E+01  0.0000000000000E+00
-0.6069415513641E+00 -0.2698926793447E+01  0.0000000000000E+00
-0.6081653324871E+00 -0.2626365704114E+01  0.0000000000000E+00
-0.6097813675272E+00 -0.2553830617177E+01  0.0000000000000E+00
-0.6118104758481E+00 -0.2481330517544E+01  0.0000000000000E+00
-0.6142762099169E+00 -0.2408876120636E+01  0.0000000000000E+00
-0.6172109703304E+00 -0.2336481012995E+01  0.0000000000000E+00
-0.6206129343837E+00 -0.2264155007098E+01  0.0000000000000E+00
-0.6244346032008E+00 -0.2191899860885E+01  0.0000000000000E+00
-0.6286420690109E+00 -0.2119717252272E+01  0.0000000000000E+00
-0.6332156112646E+00 -0.2047609959972E+01  0.0000000000000E+00
-0.6381487944950E+00 -0.1975582885952E+01  0.0000000000000E+00
-0.6434514950607E+00 -0.1903644927961E+01  0.0000000000000E+00
-0.6491634305650E+00 -0.1831813294687E+01  0.0000000000000E+00
-0.5775046061084E+00 -0.4658929169017E+01  0.0000000000000E+00
-0.5775092122072E+00 -0.4586271363775E+01  0.0000000000000E+00
-0.5775138183343E+00 -0.4513613112352E+01  0.0000000000000E+00
-0.5775184244485E+00 -0.4440955064626E+01  0.0000000000000E+00
-0.5775230305618E+00 -0.4368297031349E+01  0.0000000000000E+00
-0.5775276366768E+00 -0.4295638970769E+01  0.0000000000000E+00
-0.5775322427890E+00 -0.4222980953132E+01  0.0000000000000E+00
-0.5775368489030E+00 -0.4150322908860E+01  0.0000000000000E+00
-0.5775414550166E+00 -0.4077664869924E+01  0.0000000000000E+00
-0.5775460611297E+00 -0.4005006839010E+01  0.0000000000000E+00
-0.5775506672438E+00 -0.3932348792890E+01  0.0000000000000E+00
-0.5775552733564E+00 -0.3859690770596E+01  0.0000000000000E+00
-0.5775598794710E+00 -0.3787032716592E+01  0.0000000000000E+00
-0.5775644855893E+00 -0.3714374603311E+01  0.0000000000000E+00
-0.5775690917063E+00 -0.3641716510709E+01  0.0000000000000E+00
-0.5775736978178E+00 -0.3569058505025E+01  0.0000000000000E+00
-0.5775783039700E+00 -0.3496399857880E+01  0.0000000000000E+00
-0.5775829100452E+00 -0.3423742424750E+01  0.0000000000000E+00
-0.5775875161595E+00 -0.3351084375306E+01  0.0000000000000E+00
-0.5775921222688E+00 -0.3278426405476E+01  0.0000000000000E+00
-0.5775967283721E+00 -0.3205768528191E+01  0.0000000000000E+00
-0.5776013344778E+00 -0.3133110614240E+01  0.0000000000000E+00
-0.5776059405856E+00 -0.3060452667796E+01  0.0000000000000E+00
-0.5776207065436E+00 -0.2987794658827E+01  0.0000000000000E+00
-0.5777110710727E+00 -0.2915136879922E+01  0.0000000000000E+00
-0.5779678994248E+00 -0.2842480668871E+01  0.0000000000000E+00
-0.5784740215735E+00 -0.2769829300463E+01  0.0000000000000E+00
-0.5792904074149E+00 -0.2697188457929E+01  0.0000000000000E+00
-0.5804561613110E+00 -0.2624565285406E+01  0.0000000000000E+00
-0.5819962868433E+00 -0.2551968115375E+01  0.0000000000000E+00
-0.5839306542459E+00 -0.2479405932593E+01  0.0000000000000E+00
-0.5862817422636E+00 -0.2406889452499E+01  0.0000000000000E+00
-0.5890804744040E+00 -0.2334432261820E+01  0.0000000000000E+00
-0.5923251110489E+00 -0.2262044172811E+01  0.0000000000000E+00
-0.5959703187267E+00 -0.2189726943418E+01  0.0000000000000E+00
-0.5999837354740E+00 -0.2117482251598E+01  0.0000000000000E+00
-0.6043465397710E+00 -0.2045312876019E+01  0.0000000000000E+00
-0.6090525895346E+00 -0.1973223718658E+01  0.0000000000000E+00
-0.6141113108821E+00 -0.1901223677472E+01  0.0000000000000E+00
-0.6195606107491E+00 -0.1829329961147E+01  0.0000000000000E+00
-0.5500018030462E+00 -0.4658869964047E+01  0.0000000000000E+00
-0.5500036060886E+00 -0.4586152953959E+01  0.0000000000000E+00
-0.5500054091420E+00 -0.4513435497326E+01  0.0000000000000E+00
-0.5500072121905E+00 -0.4440718244555E+01  0.0000000000000E+00
-0.5500090152385E+00 -0.4368001006246E+01  0.0000000000000E+00
-0.5500108182873E+00 -0.4295283740612E+01  0.0000000000000E+00
-0.5500126213350E+00 -0.4222566517955E+01  0.0000000000000E+00
-0.5500144243833E+00 -0.4149849268642E+01  0.0000000000000E+00
-0.5500162274315E+00 -0.4077132024669E+01  0.0000000000000E+00
-0.5500180304795E+00 -0.4004414788725E+01  0.0000000000000E+00
-0.5500198335279E+00 -0.3931697537561E+01  0.0000000000000E+00
-0.5500216365757E+00 -0.3858980310244E+01  0.0000000000000E+00
-0.5500234396243E+00 -0.3786263051191E+01  0.0000000000000E+00
-0.5500252426743E+00 -0.3713545732813E+01  0.0000000000000E+00
-0.5500270457239E+00 -0.3640828435130E+01  0.0000000000000E+00
-0.5500288487712E+00 -0.3568111224436E+01  0.0000000000000E+00
-0.5500306518345E+00 -0.3495393371759E+01  0.0000000000000E+00
-0.5500324548677E+00 -0.3422676734085E+01  0.0000000000000E+00
-0.5500342579162E+00 -0.3349959479596E+01  0.0000000000000E+00
-0.5500360609627E+00 -0.3277242304786E+01  0.0000000000000E+00
-0.5500378640069E+00 -0.3204525222595E+01  0.0000000000000E+00
-0.5500396670520E+00 -0.3131808103709E+01  0.0000000000000E+00
-0.5500414700979E+00 -0.3059090952303E+01  0.0000000000000E+00
-0.5500529476950E+00 -0.2986373738320E+01  0.0000000000000E+00
-0.5501364128136E+00 -0.2913656754436E+01  0.0000000000000E+00
-0.5503783904272E+00 -0.2840941338509E+01  0.0000000000000E+00
-0.5508577540385E+00 -0.2768230765247E+01  0.0000000000000E+00
-0.5516325612498E+00 -0.2695530717925E+01  0.0000000000000E+00
-0.5527400485558E+00 -0.2622848340613E+01  0.0000000000000E+00
-0.5542040252180E+00 -0.2550191965884E+01  0.0000000000000E+00
-0.5560434123399E+00 -0.2477570578353E+01  0.0000000000000E+00
-0.5582796149445E+00 -0.2404994893474E+01  0.0000000000000E+00
-0.5609420794508E+00 -0.2332478498149E+01  0.0000000000000E+00
-0.5640291493261E+00 -0.2260031204427E+01  0.0000000000000E+00
-0.5674976565036E+00 -0.2187654770253E+01  0.0000000000000E+00
-0.5713167848275E+00 -0.2115350873628E+01  0.0000000000000E+00
-0.5754686118071E+00 -0.2043122293177E+01  0.0000000000000E+00
-0.5799472887431E+00 -0.1970973930881E+01  0.0000000000000E+00
-0.5847617915126E+00 -0.1898914684902E+01  0.0000000000000E+00
-0.5899482163835E+00 -0.1826961763921E+01  0.0000000000000E+00
-0.5225031123729E+00 -0.4658813981278E+01  0.0000000000000E+00
-0.5225062247393E+00 -0.4586040988536E+01  0.0000000000000E+00
-0.5225093371249E+00 -0.4513267548907E+01  0.0000000000000E+00
-0.5225124495017E+00 -0.4440494313297E+01  0.0000000000000E+00
-0.5225155618779E+00 -0.4367721092158E+01  0.0000000000000E+00
-0.5225186742552E+00 -0.4294947843675E+01  0.0000000000000E+00
-0.5225217866308E+00 -0.4222174638202E+01  0.0000000000000E+00
-0.5225248990074E+00 -0.4149401406051E+01  0.0000000000000E+00
-0.5225280113839E+00 -0.4076628179245E+01  0.0000000000000E+00
-0.5225311237600E+00 -0.4003854960475E+01  0.0000000000000E+00
-0.5225342361367E+00 -0.3931081726473E+01  0.0000000000000E+00
-0.5225373485124E+00 -0.3858308516336E+01  0.0000000000000E+00
-0.5225404608895E+00 -0.3785535274437E+01  0.0000000000000E+00
-0.5225435732691E+00 -0.3712761973169E+01  0.0000000000000E+00
-0.5225466856479E+00 -0.3639988692612E+01  0.0000000000000E+00
-0.5225497980229E+00 -0.3567215499111E+01  0.0000000000000E+00
-0.5225529104254E+00 -0.3494441663132E+01  0.0000000000000E+00
-0.5225560227759E+00 -0.3421669043092E+01  0.0000000000000E+00
-0.5225591351527E+00 -0.3348895805762E+01  0.0000000000000E+00
-0.5225622475262E+00 -0.3276122648172E+01  0.0000000000000E+00
-0.5225653598957E+00 -0.3203349583273E+01  0.0000000000000E+00
-0.5225684722668E+00 -0.3130576481651E+01  0.0000000000000E+00
-0.5225715846393E+00 -0.3057803347483E+01  0.0000000000000E+00
-0.5225838878364E+00 -0.2985030150688E+01  0.0000000000000E+00
-0.5226645791765E+00 -0.2912257184026E+01  0.0000000000000E+00
-0.5228958573808E+00 -0.2839485785418E+01  0.0000000000000E+00
-0.5233526522770E+00 -0.2766719229496E+01  0.0000000000000E+00
-0.5240901185848E+00 -0.2693963199577E+01  0.0000000000000E+00
-0.5251436309752E+00 -0.2621224839666E+01  0.0000000000000E+00
-0.5265358082435E+00 -0.2548512482425E+01  0.0000000000000E+00
-0.5282846254413E+00 -0.2475835112332E+01  0.0000000000000E+00
-0.5304104173394E+00 -0.2403203444858E+01  0.0000000000000E+00
-0.5329411580310E+00 -0.2330631067071E+01  0.0000000000000E+00
-0.5358752738152E+00 -0.2258127790822E+01  0.0000000000000E+00
-0.5391717550294E+00 -0.2185695374059E+01  0.0000000000000E+00
-0.5428013263252E+00 -0.2113335494818E+01  0.0000000000000E+00
-0.5467469613379E+00 -0.2041050931690E+01  0.0000000000000E+00
-0.5510031038032E+00 -0.1968846586659E+01  0.0000000000000E+00
-0.5555782807994E+00 -0.1896731358076E+01  0.0000000000000E+00
-0.5605067837800E+00 -0.1824722454622E+01  0.0000000000000E+00
-0.4950042080534E+00 -0.4658760848519E+01  0.0000000000000E+00
-0.4950084160981E+00 -0.4585934723130E+01  0.0000000000000E+00
-0.4950126241686E+00 -0.4513108150526E+01  0.0000000000000E+00
-0.4950168322273E+00 -0.4440281782090E+01  0.0000000000000E+00
-0.4950210402851E+00 -0.4367455428137E+01  0.0000000000000E+00
-0.4950252483446E+00 -0.4294629046819E+01  0.0000000000000E+00
-0.4950294564015E+00 -0.4221802708543E+01  0.0000000000000E+00
-0.4950336644600E+00 -0.4148976343569E+01  0.0000000000000E+00
-0.4950378725182E+00 -0.4076149983944E+01  0.0000000000000E+00
-0.4950420805759E+00 -0.4003323632361E+01  0.0000000000000E+00
-0.4950462886345E+00 -0.3930497265535E+01  0.0000000000000E+00
-0.4950504966917E+00 -0.3857670922591E+01  0.0000000000000E+00
-0.4950547047508E+00 -0.3784844547863E+01  0.0000000000000E+00
-0.4950589128133E+00 -0.3712018113721E+01  0.0000000000000E+00
-0.4950631208746E+00 -0.3639191700306E+01  0.0000000000000E+00
-0.4950673289308E+00 -0.3566365374010E+01  0.0000000000000E+00
-0.4950715370242E+00 -0.3493538404768E+01  0.0000000000000E+00
-0.4950757450473E+00 -0.3420712652352E+01  0.0000000000000E+00
-0.4950799531061E+00 -0.3347886282195E+01  0.0000000000000E+00
-0.4950841611603E+00 -0.3275059991837E+01  0.0000000000000E+00
-0.4950883692091E+00 -0.3202233794237E+01  0.0000000000000E+00
-0.4950925772601E+00 -0.3129407559887E+01  0.0000000000000E+00
-0.4950967853129E+00 -0.3056581292968E+01  0.0000000000000E+00
-0.4951097004640E+00 -0.2983754963374E+01  0.0000000000000E+00
-0.4951874043817E+00 -0.2910928863946E+01  0.0000000000000E+00
-0.4954077695377E+00 -0.2838104332664E+01  0.0000000000000E+00
-0.4958417820870E+00 -0.2765284644087E+01  0.0000000000000E+00
-0.4965416938684E+00 -0.2692475481572E+01  0.0000000000000E+00
-0.4975410177298E+00 -0.2619683989065E+01  0.0000000000000E+00
-0.4988611820019E+00 -0.2546918499309E+01  0.0000000000000E+00
-0.5005192156838E+00 -0.2474187996655E+01  0.0000000000000E+00
-0.5025343832951E+00 -0.2401503196589E+01  0.0000000000000E+00
-0.5049331866049E+00 -0.2328877686334E+01  0.0000000000000E+00
-0.5077141347430E+00 -0.2256321277556E+01  0.0000000000000E+00
-0.5108383764496E+00 -0.2183835728204E+01  0.0000000000000E+00
-0.5142781771833E+00 -0.2111422716353E+01  0.0000000000000E+00
-0.5180174067047E+00 -0.2039085020552E+01  0.0000000000000E+00
-0.5220508011842E+00 -0.1966827542795E+01  0.0000000000000E+00
-0.5263864389021E+00 -0.1894659181612E+01  0.0000000000000E+00
-0.5310568064991E+00 -0.1822597145681E+01  0.0000000000000E+00
-0.4675051002525E+00 -0.4658710568986E+01  0.0000000000000E+00
-0.4675102004944E+00 -0.4585834164169E+01  0.0000000000000E+00
-0.4675153007675E+00 -0.4512957311829E+01  0.0000000000000E+00
-0.4675204010264E+00 -0.4440080663798E+01  0.0000000000000E+00
-0.4675255012843E+00 -0.4367204030259E+01  0.0000000000000E+00
-0.4675306015441E+00 -0.4294327369336E+01  0.0000000000000E+00
-0.4675357018008E+00 -0.4221450751485E+01  0.0000000000000E+00
-0.4675408020595E+00 -0.4148574106919E+01  0.0000000000000E+00
-0.4675459023178E+00 -0.4075697467704E+01  0.0000000000000E+00
-0.4675510025755E+00 -0.4002820836537E+01  0.0000000000000E+00
-0.4675561028342E+00 -0.3929944190116E+01  0.0000000000000E+00
-0.4675612030913E+00 -0.3857067567594E+01  0.0000000000000E+00
-0.4675663033506E+00 -0.3784190913266E+01  0.0000000000000E+00
-0.4675714036141E+00 -0.3711314199484E+01  0.0000000000000E+00
-0.4675765038762E+00 -0.3638437506442E+01  0.0000000000000E+00
-0.4675816041321E+00 -0.3565560900580E+01  0.0000000000000E+00
-0.4675867044331E+00 -0.3492683651327E+01  0.0000000000000E+00
-0.4675918046488E+00 -0.3419807619741E+01  0.0000000000000E+00
-0.4675969049078E+00 -0.3346930969987E+01  0.0000000000000E+00
-0.4676020051612E+00 -0.3274054400087E+01  0.0000000000000E+00
-0.4676071054081E+00 -0.3201177923009E+01  0.0000000000000E+00
-0.4676122056576E+00 -0.3128301409157E+01  0.0000000000000E+00
-0.4676173059094E+00 -0.3055424862712E+01  0.0000000000000E+00
-0.4676306295327E+00 -0.2982548253547E+01  0.0000000000000E+00
-0.4677051425463E+00 -0.2909671874579E+01  0.0000000000000E+00
-0.4679143911723E+00 -0.2836797063844E+01  0.0000000000000E+00
-0.4683254178920E+00 -0.2763927095833E+01  0.0000000000000E+00
-0.4689875716638E+00 -0.2691067653940E+01  0.0000000000000E+00
-0.4699325035119E+00 -0.2618225882054E+01  0.0000000000000E+00
-0.4711804513026E+00 -0.2545410112997E+01  0.0000000000000E+00
-0.4727474979822E+00 -0.2472629330997E+01  0.0000000000000E+00
-0.4746518378190E+00 -0.2399894251555E+01  0.0000000000000E+00
-0.4769185002582E+00 -0.2327218462044E+01  0.0000000000000E+00
-0.4795460772598E+00 -0.2254611773950E+01  0.0000000000000E+00
-0.4824978759672E+00 -0.2182075945228E+01  0.0000000000000E+00
-0.4857477026460E+00 -0.2109612653982E+01  0.0000000000000E+00
-0.4892803231818E+00 -0.2037224678732E+01  0.0000000000000E+00
-0.4930907661800E+00 -0.1964916921473E+01  0.0000000000000E+00
-0.4971866611237E+00 -0.1892698280907E+01  0.0000000000000E+00
-0.5015986898404E+00 -0.1820585965710E+01  0.0000000000000E+00
-0.4400057998211E+00 -0.4658663145781E+01  0.0000000000000E+00
-0.4400115996301E+00 -0.4585739317857E+01  0.0000000000000E+00
-0.4400173994747E+00 -0.4512815042119E+01  0.0000000000000E+00
-0.4400231993031E+00 -0.4439890970823E+01  0.0000000000000E+00
-0.4400289991303E+00 -0.4366966914029E+01  0.0000000000000E+00
-0.4400347989596E+00 -0.4294042829833E+01  0.0000000000000E+00
-0.4400405987856E+00 -0.4221118788737E+01  0.0000000000000E+00
-0.4400463986137E+00 -0.4148194720907E+01  0.0000000000000E+00
-0.4400521984413E+00 -0.4075270658434E+01  0.0000000000000E+00
-0.4400579982683E+00 -0.4002346604013E+01  0.0000000000000E+00
-0.4400637980966E+00 -0.3929422534328E+01  0.0000000000000E+00
-0.4400695979229E+00 -0.3856498488558E+01  0.0000000000000E+00
-0.4400753977517E+00 -0.3783574410961E+01  0.0000000000000E+00
-0.4400811975853E+00 -0.3710650273871E+01  0.0000000000000E+00
-0.4400869974173E+00 -0.3637726157535E+01  0.0000000000000E+00
-0.4400927972423E+00 -0.3564802128435E+01  0.0000000000000E+00
-0.4400985971185E+00 -0.3491877455526E+01  0.0000000000000E+00
-0.4401043968978E+00 -0.3418954001076E+01  0.0000000000000E+00
-0.4401101967263E+00 -0.3346029928056E+01  0.0000000000000E+00
-0.4401159965484E+00 -0.3273105934943E+01  0.0000000000000E+00
-0.4401217963631E+00 -0.3200182034711E+01  0.0000000000000E+00
-0.4401275961808E+00 -0.3127258097681E+01  0.0000000000000E+00
-0.4401333960011E+00 -0.3054334128038E+01  0.0000000000000E+00
-0.4401469354660E+00 -0.2981410095632E+01  0.0000000000000E+00
-0.4402180649440E+00 -0.2908486293451E+01  0.0000000000000E+00
-0.4404160044070E+00 -0.2835564059586E+01  0.0000000000000E+00
-0.4408038526617E+00 -0.2762646668462E+01  0.0000000000000E+00
-0.4414280557851E+00 -0.2689739803510E+01  0.0000000000000E+00
-0.4423184029774E+00 -0.2616850608563E+01  0.0000000000000E+00
-0.4434939416404E+00 -0.2543987416518E+01  0.0000000000000E+00
-0.4449698086669E+00 -0.2471159211489E+01  0.0000000000000E+00
-0.4467631280738E+00 -0.2398376708990E+01  0.0000000000000E+00
-0.4488974569826E+00 -0.2325653496533E+01  0.0000000000000E+00
-0.4513714701828E+00 -0.2252999385440E+01  0.0000000000000E+00
-0.4541506332215E+00 -0.2180416133664E+01  0.0000000000000E+00
-0.4572102931718E+00 -0.2107905419345E+01  0.0000000000000E+00
-0.4605361120445E+00 -0.2035470020967E+01  0.0000000000000E+00
-0.4641234108799E+00 -0.1963114840532E+01  0.0000000000000E+00
-0.4679793703646E+00 -0.1890848776901E+01  0.0000000000000E+00
-0.4721328675123E+00 -0.1818689038749E+01  0.0000000000000E+00
-0.4125063188255E+00 -0.4658618581908E+01  0.0000000000000E+00
-0.4125126376377E+00 -0.4585650190204E+01  0.0000000000000E+00
-0.4125189564888E+00 -0.4512681350412E+01  0.0000000000000E+00
-0.4125252753222E+00 -0.4439712715187E+01  0.0000000000000E+00
-0.4125315941543E+00 -0.4366744094473E+01  0.0000000000000E+00
-0.4125379129888E+00 -0.4293775446340E+01  0.0000000000000E+00
-0.4125442318196E+00 -0.4220806841334E+01  0.0000000000000E+00
-0.4125505506527E+00 -0.4147838209578E+01  0.0000000000000E+00
-0.4125568694853E+00 -0.4074869583181E+01  0.0000000000000E+00
-0.4125631883172E+00 -0.4001900964841E+01  0.0000000000000E+00
-0.4125695071504E+00 -0.3928932331228E+01  0.0000000000000E+00
-0.4125758259816E+00 -0.3855963721545E+01  0.0000000000000E+00
-0.4125821448155E+00 -0.3782995080015E+01  0.0000000000000E+00
-0.4125884636546E+00 -0.3710026378956E+01  0.0000000000000E+00
-0.4125947824919E+00 -0.3637057698663E+01  0.0000000000000E+00
-0.4126011013216E+00 -0.3564089105661E+01  0.0000000000000E+00
-0.4126074202071E+00 -0.3491119868455E+01  0.0000000000000E+00
-0.4126137389871E+00 -0.3418151850454E+01  0.0000000000000E+00
-0.4126200578206E+00 -0.3345183213504E+01  0.0000000000000E+00
-0.4126263766472E+00 -0.3272214656509E+01  0.0000000000000E+00
-0.4126326954657E+00 -0.3199246192453E+01  0.0000000000000E+00
-0.4126390142875E+00 -0.3126277691576E+01  0.0000000000000E+00
-0.4126453331121E+00 -0.3053309158066E+01  0.0000000000000E+00
-0.4126589078544E+00 -0.2980340561753E+01  0.0000000000000E+00
-0.4127264732346E+00 -0.2907372195693E+01  0.0000000000000E+00
-0.4129129229765E+00 -0.2834405398026E+01  0.0000000000000E+00
-0.4132774122137E+00 -0.2761443443115E+01  0.0000000000000E+00
-0.4138634841439E+00 -0.2688492014427E+01  0.0000000000000E+00
-0.4146990661436E+00 -0.2615558255743E+01  0.0000000000000E+00
-0.4158020151508E+00 -0.2542650500030E+01  0.0000000000000E+00
-0.4171865220053E+00 -0.2469777731294E+01  0.0000000000000E+00
-0.4188686404727E+00 -0.2396950665061E+01  0.0000000000000E+00
-0.4208704553524E+00 -0.2324182888976E+01  0.0000000000000E+00
-0.4231907242625E+00 -0.2251484214202E+01  0.0000000000000E+00
-0.4257970711529E+00 -0.2178856398696E+01  0.0000000000000E+00
-0.4286663839034E+00 -0.2106301120627E+01  0.0000000000000E+00
-0.4317852206497E+00 -0.2033821158450E+01  0.0000000000000E+00
-0.4351491948666E+00 -0.1961421414169E+01  0.0000000000000E+00
-0.4387650384451E+00 -0.1889110786798E+01  0.0000000000000E+00
-0.4426598235861E+00 -0.1816906485009E+01  0.0000000000000E+00
-0.3850066669832E+00 -0.4658576880046E+01  0.0000000000000E+00
-0.3850133339525E+00 -0.4585566786567E+01  0.0000000000000E+00
-0.3850200009627E+00 -0.4512556244743E+01  0.0000000000000E+00
-0.3850266679543E+00 -0.4439545907604E+01  0.0000000000000E+00
-0.3850333349445E+00 -0.4366535584984E+01  0.0000000000000E+00
-0.3850400019372E+00 -0.4293525234929E+01  0.0000000000000E+00
-0.3850466689260E+00 -0.4220514928026E+01  0.0000000000000E+00
-0.3850533359172E+00 -0.4147504594357E+01  0.0000000000000E+00
-0.3850600029079E+00 -0.4074494266050E+01  0.0000000000000E+00
-0.3850666698979E+00 -0.4001483945806E+01  0.0000000000000E+00
-0.3850733368893E+00 -0.3928473610280E+01  0.0000000000000E+00
-0.3850800038785E+00 -0.3855463298697E+01  0.0000000000000E+00
-0.3850866708707E+00 -0.3782452955249E+01  0.0000000000000E+00
-0.3850933378682E+00 -0.3709442552238E+01  0.0000000000000E+00
-0.3851000048639E+00 -0.3636432170005E+01  0.0000000000000E+00
-0.3851066718516E+00 -0.3563421875112E+01  0.0000000000000E+00
-0.3851133388981E+00 -0.3490410935648E+01  0.0000000000000E+00
-0.3851200058333E+00 -0.3417401216084E+01  0.0000000000000E+00
-0.3851266728250E+00 -0.3344390877219E+01  0.0000000000000E+00
-0.3851333398094E+00 -0.3271380618355E+01  0.0000000000000E+00
-0.3851400067853E+00 -0.3198370452482E+01  0.0000000000000E+00
-0.3851466737645E+00 -0.3125360249768E+01  0.0000000000000E+00
-0.3851533407468E+00 -0.3052350014401E+01  0.0000000000000E+00
-0.3851667799195E+00 -0.2979339716195E+01  0.0000000000000E+00
-0.3852306103528E+00 -0.2906329648266E+01  0.0000000000000E+00
-0.3854053995203E+00 -0.2833321148803E+01  0.0000000000000E+00
-0.3857463588799E+00 -0.2760317492112E+01  0.0000000000000E+00
-0.3862941287481E+00 -0.2687324361690E+01  0.0000000000000E+00
-0.3870747746768E+00 -0.2614348901271E+01  0.0000000000000E+00
-0.3881049631399E+00 -0.2541399443887E+01  0.0000000000000E+00
-0.3893979389227E+00 -0.2468484973444E+01  0.0000000000000E+00
-0.3909686855394E+00 -0.2395616205479E+01  0.0000000000000E+00
-0.3928378154667E+00 -0.2322806727761E+01  0.0000000000000E+00
-0.3950041691510E+00 -0.2250066351305E+01  0.0000000000000E+00
-0.3974375289459E+00 -0.2177396834071E+01  0.0000000000000E+00
-0.4001163235393E+00 -0.2104799854255E+01  0.0000000000000E+00
-0.4030280071917E+00 -0.2032278190284E+01  0.0000000000000E+00
-0.4061684858133E+00 -0.1959836744166E+01  0.0000000000000E+00
-0.4095440424992E+00 -0.1887484415058E+01  0.0000000000000E+00
-0.4131799446368E+00 -0.1815238411627E+01  0.0000000000000E+00
-0.3575068566982E+00 -0.4658538042865E+01  0.0000000000000E+00
-0.3575137133821E+00 -0.4585489112285E+01  0.0000000000000E+00
-0.3575205701081E+00 -0.4512439733123E+01  0.0000000000000E+00
-0.3575274268148E+00 -0.4439390558754E+01  0.0000000000000E+00
-0.3575342835202E+00 -0.4366341398912E+01  0.0000000000000E+00
-0.3575411402282E+00 -0.4293292211620E+01  0.0000000000000E+00
-0.3575479969321E+00 -0.4220243067503E+01  0.0000000000000E+00
-0.3575548536386E+00 -0.4147193896606E+01  0.0000000000000E+00
-0.3575617103445E+00 -0.4074144731074E+01  0.0000000000000E+00
-0.3575685670497E+00 -0.4001095573609E+01  0.0000000000000E+00
-0.3575754237563E+00 -0.3928046400854E+01  0.0000000000000E+00
-0.3575822804607E+00 -0.3854997252054E+01  0.0000000000000E+00
-0.3575891371681E+00 -0.3781948071373E+01  0.0000000000000E+00
-0.3575959938810E+00 -0.3708898831097E+01  0.0000000000000E+00
-0.3576028505920E+00 -0.3635849611611E+01  0.0000000000000E+00
-0.3576097072948E+00 -0.3562800479510E+01  0.0000000000000E+00
-0.3576165640582E+00 -0.3489750702496E+01  0.0000000000000E+00
-0.3576234207069E+00 -0.3416702146031E+01  0.0000000000000E+00
-0.3576302774139E+00 -0.3343652969935E+01  0.0000000000000E+00
-0.3576371341133E+00 -0.3270603873882E+01  0.0000000000000E+00
-0.3576439908040E+00 -0.3197554870871E+01  0.0000000000000E+00
-0.3576508474981E+00 -0.3124505830998E+01  0.0000000000000E+00
-0.3576577041953E+00 -0.3051456758456E+01  0.0000000000000E+00
-0.3576708493558E+00 -0.2978407623039E+01  0.0000000000000E+00
-0.3577307864007E+00 -0.2905358717923E+01  0.0000000000000E+00
-0.3578937565552E+00 -0.2832311381340E+01  0.0000000000000E+00
-0.3582110276026E+00 -0.2759268887544E+01  0.0000000000000E+00
-0.3587203369794E+00 -0.2686236920060E+01  0.0000000000000E+00
-0.3594458884130E+00 -0.2613222622579E+01  0.0000000000000E+00
-0.3604031579141E+00 -0.2540234328192E+01  0.0000000000000E+00
-0.3616044442134E+00 -0.2467281020712E+01  0.0000000000000E+00
-0.3630636605739E+00 -0.2394373415687E+01  0.0000000000000E+00
-0.3647999471507E+00 -0.2321525101001E+01  0.0000000000000E+00
-0.3668122272178E+00 -0.2248745887532E+01  0.0000000000000E+00
-0.3690724415322E+00 -0.2176037533241E+01  0.0000000000000E+00
-0.3715605595890E+00 -0.2103401716352E+01  0.0000000000000E+00
-0.3742649317735E+00 -0.2030841215263E+01  0.0000000000000E+00
-0.3771817564307E+00 -0.1958360931988E+01  0.0000000000000E+00
-0.3803168678611E+00 -0.1885969765814E+01  0.0000000000000E+00
-0.3836937286386E+00 -0.1813684925408E+01  0.0000000000000E+00
-0.3300068987676E+00 -0.4658502072758E+01  0.0000000000000E+00
-0.3300137975208E+00 -0.4585417172147E+01  0.0000000000000E+00
-0.3300206963164E+00 -0.4512331822732E+01  0.0000000000000E+00
-0.3300275950926E+00 -0.4439246678212E+01  0.0000000000000E+00
-0.3300344938675E+00 -0.4366161548225E+01  0.0000000000000E+00
-0.3300413926450E+00 -0.4293076390776E+01  0.0000000000000E+00
-0.3300482914184E+00 -0.4219991276521E+01  0.0000000000000E+00
-0.3300551901943E+00 -0.4146906135475E+01  0.0000000000000E+00
-0.3300620889697E+00 -0.4073820999796E+01  0.0000000000000E+00
-0.3300689877443E+00 -0.4000735872187E+01  0.0000000000000E+00
-0.3300758865204E+00 -0.3927650729281E+01  0.0000000000000E+00
-0.3300827852943E+00 -0.3854565610343E+01  0.0000000000000E+00
-0.3300896840711E+00 -0.3781480459507E+01  0.0000000000000E+00
-0.3300965828536E+00 -0.3708395249047E+01  0.0000000000000E+00
-0.3301034816341E+00 -0.3635310059386E+01  0.0000000000000E+00
-0.3301103804063E+00 -0.3562224957155E+01  0.0000000000000E+00
-0.3301172792395E+00 -0.3489139209693E+01  0.0000000000000E+00
-0.3301241779574E+00 -0.3416054683381E+01  0.0000000000000E+00
-0.3301310767338E+00 -0.3342969537132E+01  0.0000000000000E+00
-0.3301379755026E+00 -0.3269884470966E+01  0.0000000000000E+00
-0.3301448742627E+00 -0.3196799497888E+01  0.0000000000000E+00
-0.3301517730262E+00 -0.3123714487929E+01  0.0000000000000E+00
-0.3301586717929E+00 -0.3050629445286E+01  0.0000000000000E+00
-0.3301713752953E+00 -0.2977544339735E+01  0.0000000000000E+00
-0.3302272713064E+00 -0.2904459464508E+01  0.0000000000000E+00
-0.3303782748028E+00 -0.2831376157875E+01  0.0000000000000E+00
-0.3306717098932E+00 -0.2758297694042E+01  0.0000000000000E+00
-0.3311424111341E+00 -0.2685229756563E+01  0.0000000000000E+00
-0.3318127204285E+00 -0.2612179489085E+01  0.0000000000000E+00
-0.3326969233240E+00 -0.2539155224757E+01  0.0000000000000E+00
-0.3338063724964E+00 -0.2466165947304E+01  0.0000000000000E+00
-0.3351539109577E+00 -0.2393222372285E+01  0.0000000000000E+00
-0.3367572065418E+00 -0.2320338087689E+01  0.0000000000000E+00
-0.3386152653497E+00 -0.2247522904270E+01  0.0000000000000E+00
-0.3407021865415E+00 -0.2174778579988E+01  0.0000000000000E+00
-0.3429994804201E+00 -0.2102106793092E+01  0.0000000000000E+00
-0.3454963934951E+00 -0.2029510321956E+01  0.0000000000000E+00
-0.3481894165466E+00 -0.1956994068596E+01  0.0000000000000E+00
-0.3510839350807E+00 -0.1884566932422E+01  0.0000000000000E+00
-0.3542016068581E+00 -0.1812246122100E+01  0.0000000000000E+00
-0.3025068041260E+00 -0.4658468971956E+01  0.0000000000000E+00
-0.3025136082379E+00 -0.4585350970612E+01  0.0000000000000E+00
-0.3025204123915E+00 -0.4512232520260E+01  0.0000000000000E+00
-0.3025272165261E+00 -0.4439114274896E+01  0.0000000000000E+00
-0.3025340206593E+00 -0.4365996044072E+01  0.0000000000000E+00
-0.3025408247951E+00 -0.4292877785773E+01  0.0000000000000E+00
-0.3025476289268E+00 -0.4219759570689E+01  0.0000000000000E+00
-0.3025544330610E+00 -0.4146641328800E+01  0.0000000000000E+00
-0.3025612371948E+00 -0.4073523092281E+01  0.0000000000000E+00
-0.3025680413278E+00 -0.4000404863836E+01  0.0000000000000E+00
-0.3025748454622E+00 -0.3927286620088E+01  0.0000000000000E+00
-0.3025816495944E+00 -0.3854168400317E+01  0.0000000000000E+00
-0.3025884537295E+00 -0.3781050148635E+01  0.0000000000000E+00
-0.3025952578702E+00 -0.3707931837301E+01  0.0000000000000E+00
-0.3026020620090E+00 -0.3634813546776E+01  0.0000000000000E+00
-0.3026088661396E+00 -0.3561695343720E+01  0.0000000000000E+00
-0.3026156703303E+00 -0.3488576495141E+01  0.0000000000000E+00
-0.3026224744073E+00 -0.3415458868265E+01  0.0000000000000E+00
-0.3026292785420E+00 -0.3342340621172E+01  0.0000000000000E+00
-0.3026360826693E+00 -0.3269222454198E+01  0.0000000000000E+00
-0.3026428867879E+00 -0.3196104380354E+01  0.0000000000000E+00
-0.3026496909099E+00 -0.3122986269612E+01  0.0000000000000E+00
-0.3026564950350E+00 -0.3049868126171E+01  0.0000000000000E+00
-0.3026686201683E+00 -0.2976749919793E+01  0.0000000000000E+00
-0.3027203384337E+00 -0.2903631943759E+01  0.0000000000000E+00
-0.3028592385586E+00 -0.2830515536376E+01  0.0000000000000E+00
-0.3031287009763E+00 -0.2757403971806E+01  0.0000000000000E+00
-0.3035606573625E+00 -0.2684302933626E+01  0.0000000000000E+00
-0.3041755877955E+00 -0.2611219565447E+01  0.0000000000000E+00
-0.3049865873595E+00 -0.2538162200469E+01  0.0000000000000E+00
-0.3060040626750E+00 -0.2465139822337E+01  0.0000000000000E+00
-0.3072397865029E+00 -0.2392163146619E+01  0.0000000000000E+00
-0.3087099543557E+00 -0.2319245761402E+01  0.0000000000000E+00
-0.3104136551612E+00 -0.2246397477324E+01  0.0000000000000E+00
-0.3123271464832E+00 -0.2173620052345E+01  0.0000000000000E+00
-0.3144334794324E+00 -0.2100915164739E+01  0.0000000000000E+00
-0.3167227966432E+00 -0.2028285592855E+01  0.0000000000000E+00
-0.3191918813306E+00 -0.1955736238713E+01  0.0000000000000E+00
-0.3218456702067E+00 -0.1883276001836E+01  0.0000000000000E+00
-0.3247040162189E+00 -0.1810922090887E+01  0.0000000000000E+00
-0.2750065847907E+00 -0.4658438742560E+01  0.0000000000000E+00
-0.2750131695678E+00 -0.4585290511882E+01  0.0000000000000E+00
-0.2750197543852E+00 -0.4512141832011E+01  0.0000000000000E+00
-0.2750263391843E+00 -0.4438993357213E+01  0.0000000000000E+00
-0.2750329239819E+00 -0.4365844896960E+01  0.0000000000000E+00
-0.2750395087821E+00 -0.4292696409222E+01  0.0000000000000E+00
-0.2750460935784E+00 -0.4219547964716E+01  0.0000000000000E+00
-0.2750526783771E+00 -0.4146399493394E+01  0.0000000000000E+00
-0.2750592631753E+00 -0.4073251027445E+01  0.0000000000000E+00
-0.2750658479728E+00 -0.4000102569572E+01  0.0000000000000E+00
-0.2750724327716E+00 -0.3926954096390E+01  0.0000000000000E+00
-0.2750790175683E+00 -0.3853805647195E+01  0.0000000000000E+00
-0.2750856023679E+00 -0.3780657166076E+01  0.0000000000000E+00
-0.2750921871729E+00 -0.3707508625281E+01  0.0000000000000E+00
-0.2750987719759E+00 -0.3634360105303E+01  0.0000000000000E+00
-0.2751053567711E+00 -0.3561211672831E+01  0.0000000000000E+00
-0.2751119416245E+00 -0.3488062594568E+01  0.0000000000000E+00
-0.2751185263678E+00 -0.3414914738513E+01  0.0000000000000E+00
-0.2751251111669E+00 -0.3341766261985E+01  0.0000000000000E+00
-0.2751316959589E+00 -0.3268617865609E+01  0.0000000000000E+00
-0.2751382807424E+00 -0.3195469562401E+01  0.0000000000000E+00
-0.2751448655293E+00 -0.3122321222281E+01  0.0000000000000E+00
-0.2751514503191E+00 -0.3049172849447E+01  0.0000000000000E+00
-0.2751628723896E+00 -0.2976024413650E+01  0.0000000000000E+00
-0.2752102882170E+00 -0.2902876208215E+01  0.0000000000000E+00
-0.2753369602811E+00 -0.2829729571484E+01  0.0000000000000E+00
-0.2755823253407E+00 -0.2756587777576E+01  0.0000000000000E+00
-0.2759754121923E+00 -0.2683456510093E+01  0.0000000000000E+00
-0.2765348390895E+00 -0.2610342912610E+01  0.0000000000000E+00
-0.2772725106540E+00 -0.2537255318374E+01  0.0000000000000E+00
-0.2781978874511E+00 -0.2464202710958E+01  0.0000000000000E+00
-0.2793216719906E+00 -0.2391195805938E+01  0.0000000000000E+00
-0.2806585874648E+00 -0.2318248191491E+01  0.0000000000000E+00
-0.2822078056280E+00 -0.2245369678147E+01  0.0000000000000E+00
-0.2839477424465E+00 -0.2172562023869E+01  0.0000000000000E+00
-0.2858629898386E+00 -0.2099826906950E+01  0.0000000000000E+00
-0.2879445865631E+00 -0.2027167105719E+01  0.0000000000000E+00
-0.2901896082697E+00 -0.1954587522199E+01  0.0000000000000E+00
-0.2926025428774E+00 -0.1882097056015E+01  0.0000000000000E+00
-0.2952014385204E+00 -0.1809712915830E+01  0.0000000000000E+00
-0.2475062510879E+00 -0.4658411386417E+01  0.0000000000000E+00
-0.2475125021628E+00 -0.4585235799654E+01  0.0000000000000E+00
-0.2475187532761E+00 -0.4512059763530E+01  0.0000000000000E+00
-0.2475250043718E+00 -0.4438883932554E+01  0.0000000000000E+00
-0.2475312554664E+00 -0.4365708116131E+01  0.0000000000000E+00
-0.2475375065632E+00 -0.4292532272210E+01  0.0000000000000E+00
-0.2475437576564E+00 -0.4219356471539E+01  0.0000000000000E+00
-0.2475500087518E+00 -0.4146180644042E+01  0.0000000000000E+00
-0.2475562598468E+00 -0.4073004821919E+01  0.0000000000000E+00
-0.2475625109411E+00 -0.3999829007876E+01  0.0000000000000E+00
-0.2475687620368E+00 -0.3926653178517E+01  0.0000000000000E+00
-0.2475750131303E+00 -0.3853477373156E+01  0.0000000000000E+00
-0.2475812642266E+00 -0.3780301535857E+01  0.0000000000000E+00
-0.2475875153280E+00 -0.3707125638860E+01  0.0000000000000E+00
-0.2475937664276E+00 -0.3633949762689E+01  0.0000000000000E+00
-0.2476000175198E+00 -0.3560773974055E+01  0.0000000000000E+00
-0.2476062686671E+00 -0.3487597539390E+01  0.0000000000000E+00
-0.2476125197100E+00 -0.3414422327390E+01  0.0000000000000E+00
-0.2476187708059E+00 -0.3341246494684E+01  0.0000000000000E+00
-0.2476250218949E+00 -0.3268070742161E+01  0.0000000000000E+00
-0.2476312729760E+00 -0.3194895082840E+01  0.0000000000000E+00
-0.2476375240603E+00 -0.3121719386594E+01  0.0000000000000E+00
-0.2476437751473E+00 -0.3048543657622E+01  0.0000000000000E+00
-0.2476543797871E+00 -0.2975367865661E+01  0.0000000000000E+00
-0.2476973788073E+00 -0.2902192304079E+01  0.0000000000000E+00
-0.2478117084387E+00 -0.2829018311249E+01  0.0000000000000E+00
-0.2480328617639E+00 -0.2755849161253E+01  0.0000000000000E+00
-0.2483869646989E+00 -0.2682690537711E+01  0.0000000000000E+00
-0.2488907736722E+00 -0.2609549584168E+01  0.0000000000000E+00
-0.2495550028424E+00 -0.2536434633916E+01  0.0000000000000E+00
-0.2503881667191E+00 -0.2463354670459E+01  0.0000000000000E+00
-0.2513998975606E+00 -0.2390320409382E+01  0.0000000000000E+00
-0.2526034462390E+00 -0.2317345438943E+01  0.0000000000000E+00
-0.2539980673341E+00 -0.2244439569574E+01  0.0000000000000E+00
-0.2555643352162E+00 -0.2171604559242E+01  0.0000000000000E+00
-0.2572883826116E+00 -0.2098842086256E+01  0.0000000000000E+00
-0.2591621444036E+00 -0.2026154928927E+01  0.0000000000000E+00
-0.2611829886770E+00 -0.1953547989281E+01  0.0000000000000E+00
-0.2633549545578E+00 -0.1881030167037E+01  0.0000000000000E+00
-0.2656942853663E+00 -0.1808618670854E+01  0.0000000000000E+00
-0.2200058151317E+00 -0.4658386905273E+01  0.0000000000000E+00
-0.2200116302512E+00 -0.4585186837416E+01  0.0000000000000E+00
-0.2200174454065E+00 -0.4511986320049E+01  0.0000000000000E+00
-0.2200232605455E+00 -0.4438786007899E+01  0.0000000000000E+00
-0.2200290756833E+00 -0.4365585710305E+01  0.0000000000000E+00
-0.2200348908233E+00 -0.4292385385205E+01  0.0000000000000E+00
-0.2200407059598E+00 -0.4219185103369E+01  0.0000000000000E+00
-0.2200465210985E+00 -0.4145984794698E+01  0.0000000000000E+00
-0.2200523362367E+00 -0.4072784491403E+01  0.0000000000000E+00
-0.2200581513744E+00 -0.3999584196191E+01  0.0000000000000E+00
-0.2200639665132E+00 -0.3926383885658E+01  0.0000000000000E+00
-0.2200697816501E+00 -0.3853183599130E+01  0.0000000000000E+00
-0.2200755967896E+00 -0.3779983280655E+01  0.0000000000000E+00
-0.2200814119338E+00 -0.3706782902461E+01  0.0000000000000E+00
-0.2200872270764E+00 -0.3633582545100E+01  0.0000000000000E+00
-0.2200930422120E+00 -0.3560382275305E+01  0.0000000000000E+00
-0.2200988573989E+00 -0.3487181359263E+01  0.0000000000000E+00
-0.2201046724887E+00 -0.3413981666295E+01  0.0000000000000E+00
-0.2201104876278E+00 -0.3340781352414E+01  0.0000000000000E+00
-0.2201163027605E+00 -0.3267581118742E+01  0.0000000000000E+00
-0.2201221178858E+00 -0.3194380978304E+01  0.0000000000000E+00
-0.2201279330141E+00 -0.3121180800927E+01  0.0000000000000E+00
-0.2201337481449E+00 -0.3047980590815E+01  0.0000000000000E+00
-0.2201434331007E+00 -0.2974780317691E+01  0.0000000000000E+00
-0.2201819130612E+00 -0.2901580274962E+01  0.0000000000000E+00
-0.2202837980092E+00 -0.2828381801026E+01  0.0000000000000E+00
-0.2204806373518E+00 -0.2755188169933E+01  0.0000000000000E+00
-0.2207956541254E+00 -0.2682005065322E+01  0.0000000000000E+00
-0.2212437429334E+00 -0.2608839630710E+01  0.0000000000000E+00
-0.2218344274720E+00 -0.2535700199426E+01  0.0000000000000E+00
-0.2225752761947E+00 -0.2462595754916E+01  0.0000000000000E+00
-0.2234748511090E+00 -0.2389537012771E+01  0.0000000000000E+00
-0.2245449307669E+00 -0.2316537561322E+01  0.0000000000000E+00
-0.2257848525739E+00 -0.2243607210915E+01  0.0000000000000E+00
-0.2271773493033E+00 -0.2170747719517E+01  0.0000000000000E+00
-0.2287100944895E+00 -0.2097960765455E+01  0.0000000000000E+00
-0.2303759191400E+00 -0.2025249127022E+01  0.0000000000000E+00
-0.2321724837746E+00 -0.1952617706247E+01  0.0000000000000E+00
-0.2341033787265E+00 -0.1880075402931E+01  0.0000000000000E+00
-0.2361830425028E+00 -0.1807639425734E+01  0.0000000000000E+00
-0.1925052879758E+00 -0.4658365300648E+01  0.0000000000000E+00
-0.1925105759406E+00 -0.4585143628212E+01  0.0000000000000E+00
-0.1925158639379E+00 -0.4511921506133E+01  0.0000000000000E+00
-0.1925211519204E+00 -0.4438699589331E+01  0.0000000000000E+00
-0.1925264399018E+00 -0.4365477687090E+01  0.0000000000000E+00
-0.1925317278851E+00 -0.4292255757335E+01  0.0000000000000E+00
-0.1925370158654E+00 -0.4219033870856E+01  0.0000000000000E+00
-0.1925423038476E+00 -0.4145811957534E+01  0.0000000000000E+00
-0.1925475918294E+00 -0.4072590049591E+01  0.0000000000000E+00
-0.1925528798106E+00 -0.3999368149732E+01  0.0000000000000E+00
-0.1925581677930E+00 -0.3926146234548E+01  0.0000000000000E+00
-0.1925634557736E+00 -0.3852924343376E+01  0.0000000000000E+00
-0.1925687437565E+00 -0.3779702420247E+01  0.0000000000000E+00
-0.1925740317437E+00 -0.3706480437382E+01  0.0000000000000E+00
-0.1925793197294E+00 -0.3633258475356E+01  0.0000000000000E+00
-0.1925846077088E+00 -0.3560036600922E+01  0.0000000000000E+00
-0.1925898957349E+00 -0.3486814080050E+01  0.0000000000000E+00
-0.1925951836726E+00 -0.3413592782614E+01  0.0000000000000E+00
-0.1926004716552E+00 -0.3340370864080E+01  0.0000000000000E+00
-0.1926057596320E+00 -0.3267149025780E+01  0.0000000000000E+00
-0.1926110476020E+00 -0.3193927280741E+01  0.0000000000000E+00
-0.1926163355748E+00 -0.3120705498753E+01  0.0000000000000E+00
-0.1926216235498E+00 -0.3047483684019E+01  0.0000000000000E+00
-0.1926302976219E+00 -0.2974261806254E+01  0.0000000000000E+00
-0.1926641673231E+00 -0.2901040158897E+01  0.0000000000000E+00
-0.1927535163882E+00 -0.2827820080371E+01  0.0000000000000E+00
-0.1929259505487E+00 -0.2754604844696E+01  0.0000000000000E+00
-0.1932017899616E+00 -0.2681400135527E+01  0.0000000000000E+00
-0.1935940674049E+00 -0.2608213096357E+01  0.0000000000000E+00
-0.1941111161126E+00 -0.2535052060547E+01  0.0000000000000E+00
-0.1947595584820E+00 -0.2461926011493E+01  0.0000000000000E+00
-0.1955468862697E+00 -0.2388845664791E+01  0.0000000000000E+00
-0.1964834057080E+00 -0.2315824608836E+01  0.0000000000000E+00
-0.1975685370274E+00 -0.2242872653898E+01  0.0000000000000E+00
-0.1987871714047E+00 -0.2169991557945E+01  0.0000000000000E+00
-0.2001285231822E+00 -0.2097182999318E+01  0.0000000000000E+00
-0.2015863194915E+00 -0.2024449756296E+01  0.0000000000000E+00
-0.2031585132875E+00 -0.1951796730910E+01  0.0000000000000E+00
-0.2048482461110E+00 -0.1879232823034E+01  0.0000000000000E+00
-0.2066681516558E+00 -0.1806775241326E+01  0.0000000000000E+00
-0.1650046808342E+00 -0.4658346573894E+01  0.0000000000000E+00
-0.1650093616587E+00 -0.4585106174743E+01  0.0000000000000E+00
-0.1650140425120E+00 -0.4511865325833E+01  0.0000000000000E+00
-0.1650187233521E+00 -0.4438624682253E+01  0.0000000000000E+00
-0.1650234041912E+00 -0.4365384053239E+01  0.0000000000000E+00
-0.1650280850322E+00 -0.4292143396702E+01  0.0000000000000E+00
-0.1650327658704E+00 -0.4218902783454E+01  0.0000000000000E+00
-0.1650374467102E+00 -0.4145662143355E+01  0.0000000000000E+00
-0.1650421275498E+00 -0.4072421508636E+01  0.0000000000000E+00
-0.1650468083888E+00 -0.3999180882004E+01  0.0000000000000E+00
-0.1650514892288E+00 -0.3925940240043E+01  0.0000000000000E+00
-0.1650561700673E+00 -0.3852699622099E+01  0.0000000000000E+00
-0.1650608509078E+00 -0.3779458972191E+01  0.0000000000000E+00
-0.1650655317521E+00 -0.3706218262532E+01  0.0000000000000E+00
-0.1650702125951E+00 -0.3632977573716E+01  0.0000000000000E+00
-0.1650748934325E+00 -0.3559736972516E+01  0.0000000000000E+00
-0.1650795743113E+00 -0.3486495724711E+01  0.0000000000000E+00
-0.1650842551118E+00 -0.3413255700655E+01  0.0000000000000E+00
-0.1650889359520E+00 -0.3340015055344E+01  0.0000000000000E+00
-0.1650936167871E+00 -0.3266774490286E+01  0.0000000000000E+00
-0.1650982976162E+00 -0.3193534018513E+01  0.0000000000000E+00
-0.1651029784477E+00 -0.3120293509782E+01  0.0000000000000E+00
-0.1651076592813E+00 -0.3047052968296E+01  0.0000000000000E+00
-0.1651152424838E+00 -0.2973812363763E+01  0.0000000000000E+00
-0.1651444219395E+00 -0.2900571989649E+01  0.0000000000000E+00
-0.1652211551347E+00 -0.2827333184399E+01  0.0000000000000E+00
-0.1653691041251E+00 -0.2754099222006E+01  0.0000000000000E+00
-0.1656056861875E+00 -0.2680875786140E+01  0.0000000000000E+00
-0.1659420722746E+00 -0.2607670020273E+01  0.0000000000000E+00
-0.1663854051581E+00 -0.2534490257795E+01  0.0000000000000E+00
-0.1669413611788E+00 -0.2461345482056E+01  0.0000000000000E+00
-0.1676163618420E+00 -0.2388246408658E+01  0.0000000000000E+00
-0.1684192410609E+00 -0.2315206626052E+01  0.0000000000000E+00
-0.1693495018906E+00 -0.2242235944441E+01  0.0000000000000E+00
-0.1703941939114E+00 -0.2169336121793E+01  0.0000000000000E+00
-0.1715440722738E+00 -0.2096508836464E+01  0.0000000000000E+00
-0.1727937602337E+00 -0.2023756866719E+01  0.0000000000000E+00
-0.1741415031809E+00 -0.1951085114590E+01  0.0000000000000E+00
-0.1755899938642E+00 -0.1878502480015E+01  0.0000000000000E+00
-0.1771500611639E+00 -0.1806026171652E+01  0.0000000000000E+00
-0.1375040054788E+00 -0.4658330726195E+01  0.0000000000000E+00
-0.1375080109493E+00 -0.4585074479377E+01  0.0000000000000E+00
-0.1375120164444E+00 -0.4511817782703E+01  0.0000000000000E+00
-0.1375160219283E+00 -0.4438561291404E+01  0.0000000000000E+00
-0.1375200274113E+00 -0.4365304814673E+01  0.0000000000000E+00
-0.1375240328959E+00 -0.4292048310415E+01  0.0000000000000E+00
-0.1375280383781E+00 -0.4218791849453E+01  0.0000000000000E+00
-0.1375320438618E+00 -0.4145535361636E+01  0.0000000000000E+00
-0.1375360493451E+00 -0.4072278879200E+01  0.0000000000000E+00
-0.1375400548281E+00 -0.3999022404852E+01  0.0000000000000E+00
-0.1375440603118E+00 -0.3925765915171E+01  0.0000000000000E+00
-0.1375480657943E+00 -0.3852509449514E+01  0.0000000000000E+00
-0.1375520712785E+00 -0.3779252951886E+01  0.0000000000000E+00
-0.1375560767660E+00 -0.3705996394492E+01  0.0000000000000E+00
-0.1375600822523E+00 -0.3632739857948E+01  0.0000000000000E+00
-0.1375640877338E+00 -0.3559483409037E+01  0.0000000000000E+00
-0.1375680932507E+00 -0.3486226313383E+01  0.0000000000000E+00
-0.1375720987007E+00 -0.3412970441741E+01  0.0000000000000E+00
-0.1375761041846E+00 -0.3339713948710E+01  0.0000000000000E+00
-0.1375801096642E+00 -0.3266457535950E+01  0.0000000000000E+00
-0.1375841151387E+00 -0.3193201216495E+01  0.0000000000000E+00
-0.1375881206152E+00 -0.3119944860073E+01  0.0000000000000E+00
-0.1375921260934E+00 -0.3046688470890E+01  0.0000000000000E+00
-0.1375985502126E+00 -0.2973432018646E+01  0.0000000000000E+00
-0.1376229712097E+00 -0.2900175796830E+01  0.0000000000000E+00
-0.1376870203236E+00 -0.2826921143905E+01  0.0000000000000E+00
-0.1378104159346E+00 -0.2753671333843E+01  0.0000000000000E+00
-0.1380076724401E+00 -0.2680432050327E+01  0.0000000000000E+00
-0.1382880989677E+00 -0.2607210436809E+01  0.0000000000000E+00
-0.1386576478271E+00 -0.2534014826704E+01  0.0000000000000E+00
-0.1391210493026E+00 -0.2460854203325E+01  0.0000000000000E+00
-0.1396836546487E+00 -0.2387739282277E+01  0.0000000000000E+00
-0.1403528254594E+00 -0.2314683652058E+01  0.0000000000000E+00
-0.1411281476146E+00 -0.2241697122816E+01  0.0000000000000E+00
-0.1419988290975E+00 -0.2168781452520E+01  0.0000000000000E+00
-0.1429571658668E+00 -0.2095938319535E+01  0.0000000000000E+00
-0.1439986773022E+00 -0.2023170502116E+01  0.0000000000000E+00
-0.1451219012286E+00 -0.1950482902297E+01  0.0000000000000E+00
-0.1463290816030E+00 -0.1877884420070E+01  0.0000000000000E+00
-0.1476292424924E+00 -0.1805392264092E+01  0.0000000000000E+00
-0.1100032727679E+00 -0.4658317758532E+01  0.0000000000000E+00
-0.1100065455290E+00 -0.4585048544080E+01  0.0000000000000E+00
-0.1100098183102E+00 -0.4511778879691E+01  0.0000000000000E+00
-0.1100130910822E+00 -0.4438509420714E+01  0.0000000000000E+00
-0.1100163638535E+00 -0.4365239976307E+01  0.0000000000000E+00
-0.1100196366261E+00 -0.4291970504368E+01  0.0000000000000E+00
-0.1100229093967E+00 -0.4218701075733E+01  0.0000000000000E+00
-0.1100261821686E+00 -0.4145431620239E+01  0.0000000000000E+00
-0.1100294549402E+00 -0.4072162170125E+01  0.0000000000000E+00
-0.1100327277114E+00 -0.3998892728102E+01  0.0000000000000E+00
-0.1100360004834E+00 -0.3925623270744E+01  0.0000000000000E+00
-0.1100392732542E+00 -0.3852353837413E+01  0.0000000000000E+00
-0.1100425460265E+00 -0.3779084372104E+01  0.0000000000000E+00
-0.1100458188015E+00 -0.3705814847021E+01  0.0000000000000E+00
-0.1100490915755E+00 -0.3632545342790E+01  0.0000000000000E+00
-0.1100523643456E+00 -0.3559275926208E+01  0.0000000000000E+00
-0.1100556371446E+00 -0.3486005862769E+01  0.0000000000000E+00
-0.1100589098889E+00 -0.3412737023558E+01  0.0000000000000E+00
-0.1100621826610E+00 -0.3339467562849E+01  0.0000000000000E+00
-0.1100654554295E+00 -0.3266198182424E+01  0.0000000000000E+00
-0.1100687281938E+00 -0.3192928895321E+01  0.0000000000000E+00
-0.1100720009598E+00 -0.3119659571245E+01  0.0000000000000E+00
-0.1100752737272E+00 -0.3046390214401E+01  0.0000000000000E+00
-0.1100804814074E+00 -0.2973120794485E+01  0.0000000000000E+00
-0.1101000865895E+00 -0.2899851605005E+01  0.0000000000000E+00
-0.1101513942642E+00 -0.2826583984439E+01  0.0000000000000E+00
-0.1102501791352E+00 -0.2753321206740E+01  0.0000000000000E+00
-0.1104080527204E+00 -0.2680068955602E+01  0.0000000000000E+00
-0.1106324623216E+00 -0.2606834374461E+01  0.0000000000000E+00
-0.1109281697863E+00 -0.2533625796754E+01  0.0000000000000E+00
-0.1112989593421E+00 -0.2460452205761E+01  0.0000000000000E+00
-0.1117491119923E+00 -0.2387324317091E+01  0.0000000000000E+00
-0.1122845170118E+00 -0.2314255719281E+01  0.0000000000000E+00
-0.1129048431049E+00 -0.2241256222433E+01  0.0000000000000E+00
-0.1136014566584E+00 -0.2168327584516E+01  0.0000000000000E+00
-0.1143681944392E+00 -0.2095471483905E+01  0.0000000000000E+00
-0.1152014719513E+00 -0.2022690698846E+01  0.0000000000000E+00
-0.1161001194546E+00 -0.1949990131373E+01  0.0000000000000E+00
-0.1170659321143E+00 -0.1877378681522E+01  0.0000000000000E+00
-0.1181061291839E+00 -0.1804873557950E+01  0.0000000000000E+00
-0.8250249454314E-01 -0.4658307671731E+01  0.0000000000000E+00
-0.8250498908109E-01 -0.4585028370497E+01  0.0000000000000E+00
-0.8250748363435E-01 -0.4511748619267E+01  0.0000000000000E+00
-0.8250997818062E-01 -0.4438469073475E+01  0.0000000000000E+00
-0.8251247272640E-01 -0.4365189542255E+01  0.0000000000000E+00
-0.8251496727311E-01 -0.4291909983500E+01  0.0000000000000E+00
-0.8251746181835E-01 -0.4218630468056E+01  0.0000000000000E+00
-0.8251995636450E-01 -0.4145350925747E+01  0.0000000000000E+00
-0.8252245091047E-01 -0.4072071388821E+01  0.0000000000000E+00
-0.8252494545616E-01 -0.3998791859985E+01  0.0000000000000E+00
-0.8252744000238E-01 -0.3925512315813E+01  0.0000000000000E+00
-0.8252993454778E-01 -0.3852232795671E+01  0.0000000000000E+00
-0.8253242909426E-01 -0.3778953243548E+01  0.0000000000000E+00
-0.8253492364278E-01 -0.3705673631641E+01  0.0000000000000E+00
-0.8253741819059E-01 -0.3632394040589E+01  0.0000000000000E+00
-0.8253991273542E-01 -0.3559114537199E+01  0.0000000000000E+00
-0.8254240730227E-01 -0.3485834386862E+01  0.0000000000000E+00
-0.8254490182744E-01 -0.3412555460923E+01  0.0000000000000E+00
-0.8254739637377E-01 -0.3339275913399E+01  0.0000000000000E+00
-0.8254989091737E-01 -0.3265996446170E+01  0.0000000000000E+00
-0.8255238545779E-01 -0.3192717072277E+01  0.0000000000000E+00
-0.8255487999946E-01 -0.3119437661405E+01  0.0000000000000E+00
-0.8255737454226E-01 -0.3046158217761E+01  0.0000000000000E+00
-0.8256132026964E-01 -0.2972878711036E+01  0.0000000000000E+00
-0.8257606412342E-01 -0.2899599434752E+01  0.0000000000000E+00
-0.8261458484651E-01 -0.2826321727400E+01  0.0000000000000E+00
-0.8268871346684E-01 -0.2753048862920E+01  0.0000000000000E+00
-0.8280715862262E-01 -0.2679786525011E+01  0.0000000000000E+00
-0.8297550579031E-01 -0.2606541857099E+01  0.0000000000000E+00
-0.8319732635544E-01 -0.2533323192637E+01  0.0000000000000E+00
-0.8347545848869E-01 -0.2460139514879E+01  0.0000000000000E+00
-0.8381311294265E-01 -0.2387001539440E+01  0.0000000000000E+00
-0.8421470667327E-01 -0.2313922854883E+01  0.0000000000000E+00
-0.8467999120903E-01 -0.2240913271277E+01  0.0000000000000E+00
-0.8520249134003E-01 -0.2167974546591E+01  0.0000000000000E+00
-0.8577758464144E-01 -0.2095108359206E+01  0.0000000000000E+00
-0.8640258274117E-01 -0.2022317487362E+01  0.0000000000000E+00
-0.8707660833415E-01 -0.1949606833093E+01  0.0000000000000E+00
-0.8780100779414E-01 -0.1876985296471E+01  0.0000000000000E+00
-0.8858119556126E-01 -0.1804470086151E+01  0.0000000000000E+00
-0.5500168202915E-01 -0.4658300466420E+01  0.0000000000000E+00
-0.5500336405479E-01 -0.4585013959890E+01  0.0000000000000E+00
-0.5500504609076E-01 -0.4511727003319E+01  0.0000000000000E+00
-0.5500672812202E-01 -0.4438440252207E+01  0.0000000000000E+00
-0.5500841015294E-01 -0.4365153515669E+01  0.0000000000000E+00
-0.5501009218450E-01 -0.4291866751592E+01  0.0000000000000E+00
-0.5501177421506E-01 -0.4218580030830E+01  0.0000000000000E+00
-0.5501345624623E-01 -0.4145293283201E+01  0.0000000000000E+00
-0.5501513827729E-01 -0.4072006540956E+01  0.0000000000000E+00
-0.5501682030815E-01 -0.3998719806802E+01  0.0000000000000E+00
-0.5501850233937E-01 -0.3925433057309E+01  0.0000000000000E+00
-0.5502018437004E-01 -0.3852146331850E+01  0.0000000000000E+00
-0.5502186640144E-01 -0.3778859574406E+01  0.0000000000000E+00
-0.5502354843422E-01 -0.3705572757172E+01  0.0000000000000E+00
-0.5502523046651E-01 -0.3632285960796E+01  0.0000000000000E+00
-0.5502691249680E-01 -0.3558999252090E+01  0.0000000000000E+00
-0.5502859454193E-01 -0.3485711896373E+01  0.0000000000000E+00
-0.5503027655896E-01 -0.3412425765174E+01  0.0000000000000E+00
-0.5503195859026E-01 -0.3339139012330E+01  0.0000000000000E+00
-0.5503364061971E-01 -0.3265852339789E+01  0.0000000000000E+00
-0.5503532264702E-01 -0.3192565760592E+01  0.0000000000000E+00
-0.5503700467518E-01 -0.3119279144413E+01  0.0000000000000E+00
-0.5503868670409E-01 -0.3045992495459E+01  0.0000000000000E+00
-0.5504133618940E-01 -0.2972705783417E+01  0.0000000000000E+00
-0.5505118442552E-01 -0.2899419301821E+01  0.0000000000000E+00
-0.5507688390763E-01 -0.2826134389170E+01  0.0000000000000E+00
-0.5512632198758E-01 -0.2752854319392E+01  0.0000000000000E+00
-0.5520530442408E-01 -0.2679584776194E+01  0.0000000000000E+00
-0.5531755486806E-01 -0.2606332902993E+01  0.0000000000000E+00
-0.5546545424311E-01 -0.2533107033253E+01  0.0000000000000E+00
-0.5565089466302E-01 -0.2459916150211E+01  0.0000000000000E+00
-0.5587601662944E-01 -0.2386770969482E+01  0.0000000000000E+00
-0.5614376477954E-01 -0.2313685079654E+01  0.0000000000000E+00
-0.5645397346590E-01 -0.2240668290768E+01  0.0000000000000E+00
-0.5680232588196E-01 -0.2167722360794E+01  0.0000000000000E+00
-0.5718574041112E-01 -0.2094848968118E+01  0.0000000000000E+00
-0.5760242480531E-01 -0.2022050890974E+01  0.0000000000000E+00
-0.5805179419448E-01 -0.1949333031399E+01  0.0000000000000E+00
-0.5853474616100E-01 -0.1876704289487E+01  0.0000000000000E+00
-0.5905489033159E-01 -0.1804181873893E+01  0.0000000000000E+00
-0.2750084664702E-01 -0.4658296143052E+01  0.0000000000000E+00
-0.2750169329227E-01 -0.4585005313163E+01  0.0000000000000E+00
-0.2750253994273E-01 -0.4511714033207E+01  0.0000000000000E+00
-0.2750338659081E-01 -0.4438422958722E+01  0.0000000000000E+00
-0.2750423323872E-01 -0.4365131898811E+01  0.0000000000000E+00
-0.2750507988695E-01 -0.4291840811361E+01  0.0000000000000E+00
-0.2750592653468E-01 -0.4218549767228E+01  0.0000000000000E+00
-0.2750677318272E-01 -0.4145258696226E+01  0.0000000000000E+00
-0.2750761983069E-01 -0.4071967630608E+01  0.0000000000000E+00
-0.2750846647858E-01 -0.3998676573082E+01  0.0000000000000E+00
-0.2750931312664E-01 -0.3925385500216E+01  0.0000000000000E+00
-0.2751015977442E-01 -0.3852094451385E+01  0.0000000000000E+00
-0.2751100642257E-01 -0.3778803370567E+01  0.0000000000000E+00
-0.2751185307142E-01 -0.3705512229957E+01  0.0000000000000E+00
-0.2751269972002E-01 -0.3632221110204E+01  0.0000000000000E+00
-0.2751354636761E-01 -0.3558930078128E+01  0.0000000000000E+00
-0.2751439302267E-01 -0.3485638399002E+01  0.0000000000000E+00
-0.2751523966359E-01 -0.3412347944467E+01  0.0000000000000E+00
-0.2751608631169E-01 -0.3339056868249E+01  0.0000000000000E+00
-0.2751693295887E-01 -0.3265765872339E+01  0.0000000000000E+00
-0.2751777960496E-01 -0.3192474969780E+01  0.0000000000000E+00
-0.2751862625148E-01 -0.3119184030236E+01  0.0000000000000E+00
-0.2751947289838E-01 -0.3045893057915E+01  0.0000000000000E+00
-0.2752080327345E-01 -0.2972602022502E+01  0.0000000000000E+00
-0.2752573302372E-01 -0.2899311217538E+01  0.0000000000000E+00
-0.2753858839655E-01 -0.2826021981525E+01  0.0000000000000E+00
-0.2756331306764E-01 -0.2752737588388E+01  0.0000000000000E+00
-0.2760280991616E-01 -0.2679463721835E+01  0.0000000000000E+00
-0.2765894076745E-01 -0.2606207525280E+01  0.0000000000000E+00
-0.2773289608320E-01 -0.2532977332192E+01  0.0000000000000E+00
-0.2782562192022E-01 -0.2459782125798E+01  0.0000000000000E+00
-0.2793818852921E-01 -0.2386632621716E+01  0.0000000000000E+00
-0.2807206822860E-01 -0.2313542408544E+01  0.0000000000000E+00
-0.2822717819500E-01 -0.2240521296308E+01  0.0000000000000E+00
-0.2840136002522E-01 -0.2167571042980E+01  0.0000000000000E+00
-0.2859307291094E-01 -0.2094693326949E+01  0.0000000000000E+00
-0.2880142072809E-01 -0.2021890926444E+01  0.0000000000000E+00
-0.2902611104167E-01 -0.1949168743503E+01  0.0000000000000E+00
-0.2926759264271E-01 -0.1876535678237E+01  0.0000000000000E+00
-0.2952767034453E-01 -0.1804008939299E+01  0.0000000000000E+00
 0.1341298275034E-09 -0.4658294701900E+01  0.0000000000000E+00
 0.2682591870488E-09 -0.4585002430862E+01  0.0000000000000E+00
 0.4023893957001E-09 -0.4511709709747E+01  0.0000000000000E+00
 0.5365190323347E-09 -0.4438417194108E+01  0.0000000000000E+00
 0.6706488701749E-09 -0.4365124693044E+01  0.0000000000000E+00
 0.8047787882590E-09 -0.4291832164439E+01  0.0000000000000E+00
 0.9389088597081E-09 -0.4218539679152E+01  0.0000000000000E+00
 0.1073038524398E-08 -0.4145247166996E+01  0.0000000000000E+00
 0.1207168262094E-08 -0.4071954660224E+01  0.0000000000000E+00
 0.1341298234168E-08 -0.3998662161544E+01  0.0000000000000E+00
 0.1475428013433E-08 -0.3925369647524E+01  0.0000000000000E+00
 0.1609557830157E-08 -0.3852077157540E+01  0.0000000000000E+00
 0.1743687652334E-08 -0.3778784635568E+01  0.0000000000000E+00
 0.1877817310913E-08 -0.3705492053802E+01  0.0000000000000E+00
 0.2011947706894E-08 -0.3632199492894E+01  0.0000000000000E+00
 0.2146077408419E-08 -0.3558907019664E+01  0.0000000000000E+00
 0.2280208426415E-08 -0.3485613899373E+01  0.0000000000000E+00
 0.2414336888433E-08 -0.3412322003696E+01  0.0000000000000E+00
 0.2548466840620E-08 -0.3339029486324E+01  0.0000000000000E+00
 0.2682596584237E-08 -0.3265737049261E+01  0.0000000000000E+00
 0.2816726205452E-08 -0.3192444705551E+01  0.0000000000000E+00
 0.2950855619598E-08 -0.3119152324855E+01  0.0000000000000E+00
 0.3084985484792E-08 -0.3045859911382E+01  0.0000000000000E+00
 0.3219175371806E-08 -0.2972567434816E+01  0.0000000000000E+00
 0.3353698962349E-08 -0.2899275188699E+01  0.0000000000000E+00
 0.3488929411804E-08 -0.2825984511537E+01  0.0000000000000E+00
 0.3625244941819E-08 -0.2752698677250E+01  0.0000000000000E+00
 0.3762956809338E-08 -0.2679423369550E+01  0.0000000000000E+00
 0.3902297487834E-08 -0.2606165731846E+01  0.0000000000000E+00
 0.4043435735482E-08 -0.2532934097612E+01  0.0000000000000E+00
 0.4186557962945E-08 -0.2459737450072E+01  0.0000000000000E+00
 0.4331879569796E-08 -0.2386586504841E+01  0.0000000000000E+00
 0.4479654772516E-08 -0.2313494850525E+01  0.0000000000000E+00
 0.4629287928948E-08 -0.2240472297144E+01  0.0000000000000E+00
 0.4780639145247E-08 -0.2167520602668E+01  0.0000000000000E+00
 0.4933757342576E-08 -0.2094641445488E+01  0.0000000000000E+00
 0.5088733100688E-08 -0.2021837603833E+01  0.0000000000000E+00
 0.5245556969086E-08 -0.1949113979741E+01  0.0000000000000E+00
 0.5404454514473E-08 -0.1876479473326E+01  0.0000000000000E+00
 0.5565503903438E-08 -0.1803951293244E+01  0.0000000000000E+00
 0.2750084691528E-01 -0.4658296143053E+01  0.0000000000000E+00
 0.2750169382879E-01 -0.4585005313166E+01  0.0000000000000E+00
 0.2750254074750E-01 -0.4511714033210E+01  0.0000000000000E+00
 0.2750338766384E-01 -0.4438422958726E+01  0.0000000000000E+00
 0.2750423458000E-01 -0.4365131898817E+01  0.0000000000000E+00
 0.2750508149649E-01 -0.4291840811368E+01  0.0000000000000E+00
 0.2750592841248E-01 -0.4218549767235E+01  0.0000000000000E+00
 0.2750677532877E-01 -0.4145258696235E+01  0.0000000000000E+00
 0.2750762224501E-01 -0.4071967630618E+01  0.0000000000000E+00
 0.2750846916115E-01 -0.3998676573093E+01  0.0000000000000E+00
 0.2750931607747E-01 -0.3925385500228E+01  0.0000000000000E+00
 0.2751016299351E-01 -0.3852094451398E+01  0.0000000000000E+00
 0.2751100990992E-01 -0.3778803370582E+01  0.0000000000000E+00
 0.2751185682702E-01 -0.3705512229972E+01  0.0000000000000E+00
 0.2751270374388E-01 -0.3632221110221E+01  0.0000000000000E+00
 0.2751355065973E-01 -0.3558930078145E+01  0.0000000000000E+00
 0.2751439758305E-01 -0.3485638399021E+01  0.0000000000000E+00
 0.2751524449223E-01 -0.3412347944487E+01  0.0000000000000E+00
 0.2751609140858E-01 -0.3339056868270E+01  0.0000000000000E+00
 0.2751693832401E-01 -0.3265765872362E+01  0.0000000000000E+00
 0.2751778523836E-01 -0.3192474969803E+01  0.0000000000000E+00
 0.2751863215314E-01 -0.3119184030260E+01  0.0000000000000E+00
 0.2751947906830E-01 -0.3045893057940E+01  0.0000000000000E+00
 0.2752080971174E-01 -0.2972602022528E+01  0.0000000000000E+00
 0.2752573973106E-01 -0.2899311217565E+01  0.0000000000000E+00
 0.2753859537435E-01 -0.2826021981554E+01  0.0000000000000E+00
 0.2756332031807E-01 -0.2752737588418E+01  0.0000000000000E+00
 0.2760281744201E-01 -0.2679463721866E+01  0.0000000000000E+00
 0.2765894857198E-01 -0.2606207525312E+01  0.0000000000000E+00
 0.2773290417001E-01 -0.2532977332225E+01  0.0000000000000E+00
 0.2782563029327E-01 -0.2459782125833E+01  0.0000000000000E+00
 0.2793819719290E-01 -0.2386632621751E+01  0.0000000000000E+00
 0.2807207718784E-01 -0.2313542408580E+01  0.0000000000000E+00
 0.2822718745350E-01 -0.2240521296346E+01  0.0000000000000E+00
 0.2840136958642E-01 -0.2167571043019E+01  0.0000000000000E+00
 0.2859308277837E-01 -0.2094693326988E+01  0.0000000000000E+00
 0.2880143090548E-01 -0.2021890926485E+01  0.0000000000000E+00
 0.2902612153270E-01 -0.1949168743545E+01  0.0000000000000E+00
 0.2926760345153E-01 -0.1876535678280E+01  0.0000000000000E+00
 0.2952768147545E-01 -0.1804008939343E+01  0.0000000000000E+00
 0.5500168229740E-01 -0.4658300466422E+01  0.0000000000000E+00
 0.5500336459129E-01 -0.4585013959894E+01  0.0000000000000E+00
 0.5500504689552E-01 -0.4511727003325E+01  0.0000000000000E+00
 0.5500672919502E-01 -0.4438440252216E+01  0.0000000000000E+00
 0.5500841149420E-01 -0.4365153515680E+01  0.0000000000000E+00
 0.5501009379400E-01 -0.4291866751605E+01  0.0000000000000E+00
 0.5501177609281E-01 -0.4218580030846E+01  0.0000000000000E+00
 0.5501345839224E-01 -0.4145293283219E+01  0.0000000000000E+00
 0.5501514069154E-01 -0.4072006540976E+01  0.0000000000000E+00
 0.5501682299066E-01 -0.3998719806824E+01  0.0000000000000E+00
 0.5501850529013E-01 -0.3925433057334E+01  0.0000000000000E+00
 0.5502018758905E-01 -0.3852146331877E+01  0.0000000000000E+00
 0.5502186988871E-01 -0.3778859574434E+01  0.0000000000000E+00
 0.5502355218973E-01 -0.3705572757203E+01  0.0000000000000E+00
 0.5502523449028E-01 -0.3632285960829E+01  0.0000000000000E+00
 0.5502691678881E-01 -0.3558999252125E+01  0.0000000000000E+00
 0.5502859910220E-01 -0.3485711896410E+01  0.0000000000000E+00
 0.5503028138748E-01 -0.3412425765214E+01  0.0000000000000E+00
 0.5503196368702E-01 -0.3339139012372E+01  0.0000000000000E+00
 0.5503364598473E-01 -0.3265852339833E+01  0.0000000000000E+00
 0.5503532828029E-01 -0.3192565760638E+01  0.0000000000000E+00
 0.5503701057670E-01 -0.3119279144462E+01  0.0000000000000E+00
 0.5503869287386E-01 -0.3045992495510E+01  0.0000000000000E+00
 0.5504134262754E-01 -0.2972705783470E+01  0.0000000000000E+00
 0.5505119113270E-01 -0.2899419301877E+01  0.0000000000000E+00
 0.5507689088526E-01 -0.2826134389227E+01  0.0000000000000E+00
 0.5512632923783E-01 -0.2752854319452E+01  0.0000000000000E+00
 0.5520531194975E-01 -0.2679584776256E+01  0.0000000000000E+00
 0.5531756267240E-01 -0.2606332903057E+01  0.0000000000000E+00
 0.5546546232972E-01 -0.2533107033319E+01  0.0000000000000E+00
 0.5565090303586E-01 -0.2459916150279E+01  0.0000000000000E+00
 0.5587602529292E-01 -0.2386770969553E+01  0.0000000000000E+00
 0.5614377373856E-01 -0.2313685079727E+01  0.0000000000000E+00
 0.5645398272418E-01 -0.2240668290843E+01  0.0000000000000E+00
 0.5680233544293E-01 -0.2167722360871E+01  0.0000000000000E+00
 0.5718575027832E-01 -0.2094848968198E+01  0.0000000000000E+00
 0.5760243498245E-01 -0.2022050891056E+01  0.0000000000000E+00
 0.5805180468526E-01 -0.1949333031483E+01  0.0000000000000E+00
 0.5853475696956E-01 -0.1876704289573E+01  0.0000000000000E+00
 0.5905490146225E-01 -0.1804181873982E+01  0.0000000000000E+00
 0.8250249481138E-01 -0.4658307671734E+01  0.0000000000000E+00
 0.8250498961757E-01 -0.4585028370504E+01  0.0000000000000E+00
 0.8250748443907E-01 -0.4511748619277E+01  0.0000000000000E+00
 0.8250997925358E-01 -0.4438469073488E+01  0.0000000000000E+00
 0.8251247406760E-01 -0.4365189542272E+01  0.0000000000000E+00
 0.8251496888255E-01 -0.4291909983520E+01  0.0000000000000E+00
 0.8251746369603E-01 -0.4218630468079E+01  0.0000000000000E+00
 0.8251995851042E-01 -0.4145350925774E+01  0.0000000000000E+00
 0.8252245332463E-01 -0.4072071388851E+01  0.0000000000000E+00
 0.8252494813856E-01 -0.3998791860019E+01  0.0000000000000E+00
 0.8252744295302E-01 -0.3925512315849E+01  0.0000000000000E+00
 0.8252993776665E-01 -0.3852232795711E+01  0.0000000000000E+00
 0.8253243258138E-01 -0.3778953243591E+01  0.0000000000000E+00
 0.8253492739814E-01 -0.3705673631687E+01  0.0000000000000E+00
 0.8253742221419E-01 -0.3632394040639E+01  0.0000000000000E+00
 0.8253991702726E-01 -0.3559114537252E+01  0.0000000000000E+00
 0.8254241186235E-01 -0.3485834386918E+01  0.0000000000000E+00
 0.8254490665576E-01 -0.3412555460983E+01  0.0000000000000E+00
 0.8254740147033E-01 -0.3339275913462E+01  0.0000000000000E+00
 0.8254989628217E-01 -0.3265996446236E+01  0.0000000000000E+00
 0.8255239109082E-01 -0.3192717072346E+01  0.0000000000000E+00
 0.8255488590074E-01 -0.3119437661478E+01  0.0000000000000E+00
 0.8255738071177E-01 -0.3046158217837E+01  0.0000000000000E+00
 0.8256132670752E-01 -0.2972878711115E+01  0.0000000000000E+00
 0.8257607083032E-01 -0.2899599434835E+01  0.0000000000000E+00
 0.8261459182386E-01 -0.2826321727487E+01  0.0000000000000E+00
 0.8268872071680E-01 -0.2753048863010E+01  0.0000000000000E+00
 0.8280716614798E-01 -0.2679786525104E+01  0.0000000000000E+00
 0.8297551359434E-01 -0.2606541857195E+01  0.0000000000000E+00
 0.8319733444172E-01 -0.2533323192736E+01  0.0000000000000E+00
 0.8347546686119E-01 -0.2460139514982E+01  0.0000000000000E+00
 0.8381312160577E-01 -0.2387001539546E+01  0.0000000000000E+00
 0.8421471563193E-01 -0.2313922854993E+01  0.0000000000000E+00
 0.8468000046694E-01 -0.2240913271390E+01  0.0000000000000E+00
 0.8520250090062E-01 -0.2167974546707E+01  0.0000000000000E+00
 0.8577759450824E-01 -0.2095108359326E+01  0.0000000000000E+00
 0.8640259291791E-01 -0.2022317487484E+01  0.0000000000000E+00
 0.8707661882451E-01 -0.1949606833219E+01  0.0000000000000E+00
 0.8780101860228E-01 -0.1876985296600E+01  0.0000000000000E+00
 0.8858120669148E-01 -0.1804470086283E+01  0.0000000000000E+00
 0.1100032730361E+00 -0.4658317758537E+01  0.0000000000000E+00
 0.1100065460654E+00 -0.4585048544088E+01  0.0000000000000E+00
 0.1100098191148E+00 -0.4511778879705E+01  0.0000000000000E+00
 0.1100130921551E+00 -0.4438509420732E+01  0.0000000000000E+00
 0.1100163651946E+00 -0.4365239976329E+01  0.0000000000000E+00
 0.1100196382354E+00 -0.4291970504395E+01  0.0000000000000E+00
 0.1100229112743E+00 -0.4218701075764E+01  0.0000000000000E+00
 0.1100261843144E+00 -0.4145431620274E+01  0.0000000000000E+00
 0.1100294573542E+00 -0.4072162170165E+01  0.0000000000000E+00
 0.1100327303937E+00 -0.3998892728146E+01  0.0000000000000E+00
 0.1100360034338E+00 -0.3925623270792E+01  0.0000000000000E+00
 0.1100392764729E+00 -0.3852353837466E+01  0.0000000000000E+00
 0.1100425495134E+00 -0.3779084372162E+01  0.0000000000000E+00
 0.1100458225566E+00 -0.3705814847083E+01  0.0000000000000E+00
 0.1100490955988E+00 -0.3632545342856E+01  0.0000000000000E+00
 0.1100523686372E+00 -0.3559275926279E+01  0.0000000000000E+00
 0.1100556417044E+00 -0.3486005862844E+01  0.0000000000000E+00
 0.1100589147169E+00 -0.3412737023638E+01  0.0000000000000E+00
 0.1100621877572E+00 -0.3339467562933E+01  0.0000000000000E+00
 0.1100654607940E+00 -0.3266198182512E+01  0.0000000000000E+00
 0.1100687338265E+00 -0.3192928895414E+01  0.0000000000000E+00
 0.1100720068607E+00 -0.3119659571342E+01  0.0000000000000E+00
 0.1100752798964E+00 -0.3046390214503E+01  0.0000000000000E+00
 0.1100804878449E+00 -0.2973120794592E+01  0.0000000000000E+00
 0.1101000932960E+00 -0.2899851605116E+01  0.0000000000000E+00
 0.1101514012411E+00 -0.2826583984554E+01  0.0000000000000E+00
 0.1102501863848E+00 -0.2753321206860E+01  0.0000000000000E+00
 0.1104080602454E+00 -0.2680068955726E+01  0.0000000000000E+00
 0.1106324701252E+00 -0.2606834374589E+01  0.0000000000000E+00
 0.1109281778722E+00 -0.2533625796887E+01  0.0000000000000E+00
 0.1112989677141E+00 -0.2460452205898E+01  0.0000000000000E+00
 0.1117491206549E+00 -0.2387324317233E+01  0.0000000000000E+00
 0.1122845259700E+00 -0.2314255719427E+01  0.0000000000000E+00
 0.1129048523623E+00 -0.2241256222584E+01  0.0000000000000E+00
 0.1136014662184E+00 -0.2168327584671E+01  0.0000000000000E+00
 0.1143682043055E+00 -0.2095471484065E+01  0.0000000000000E+00
 0.1152014821275E+00 -0.2022690699010E+01  0.0000000000000E+00
 0.1161001299444E+00 -0.1949990131541E+01  0.0000000000000E+00
 0.1170659429218E+00 -0.1877378681695E+01  0.0000000000000E+00
 0.1181061403135E+00 -0.1804873558127E+01  0.0000000000000E+00
 0.1375040057470E+00 -0.4658330726200E+01  0.0000000000000E+00
 0.1375080114857E+00 -0.4585074479388E+01  0.0000000000000E+00
 0.1375120172490E+00 -0.4511817782720E+01  0.0000000000000E+00
 0.1375160230011E+00 -0.4438561291426E+01  0.0000000000000E+00
 0.1375200287523E+00 -0.4365304814701E+01  0.0000000000000E+00
 0.1375240345051E+00 -0.4292048310448E+01  0.0000000000000E+00
 0.1375280402555E+00 -0.4218791849492E+01  0.0000000000000E+00
 0.1375320460074E+00 -0.4145535361680E+01  0.0000000000000E+00
 0.1375360517590E+00 -0.4072278879250E+01  0.0000000000000E+00
 0.1375400575101E+00 -0.3999022404907E+01  0.0000000000000E+00
 0.1375440632621E+00 -0.3925765915232E+01  0.0000000000000E+00
 0.1375480690127E+00 -0.3852509449581E+01  0.0000000000000E+00
 0.1375520747651E+00 -0.3779252951958E+01  0.0000000000000E+00
 0.1375560805208E+00 -0.3705996394570E+01  0.0000000000000E+00
 0.1375600862754E+00 -0.3632739858031E+01  0.0000000000000E+00
 0.1375640920251E+00 -0.3559483409126E+01  0.0000000000000E+00
 0.1375680978102E+00 -0.3486226313477E+01  0.0000000000000E+00
 0.1375721035284E+00 -0.3412970441841E+01  0.0000000000000E+00
 0.1375761092805E+00 -0.3339713948815E+01  0.0000000000000E+00
 0.1375801150283E+00 -0.3266457536060E+01  0.0000000000000E+00
 0.1375841207710E+00 -0.3193201216611E+01  0.0000000000000E+00
 0.1375881265157E+00 -0.3119944860195E+01  0.0000000000000E+00
 0.1375921322621E+00 -0.3046688471017E+01  0.0000000000000E+00
 0.1375985566497E+00 -0.2973432018779E+01  0.0000000000000E+00
 0.1376229779157E+00 -0.2900175796968E+01  0.0000000000000E+00
 0.1376870273001E+00 -0.2826921144049E+01  0.0000000000000E+00
 0.1378104231836E+00 -0.2753671333993E+01  0.0000000000000E+00
 0.1380076799644E+00 -0.2680432050482E+01  0.0000000000000E+00
 0.1382881067707E+00 -0.2607210436969E+01  0.0000000000000E+00
 0.1386576559123E+00 -0.2534014826870E+01  0.0000000000000E+00
 0.1391210576740E+00 -0.2460854203496E+01  0.0000000000000E+00
 0.1396836633107E+00 -0.2387739282454E+01  0.0000000000000E+00
 0.1403528344169E+00 -0.2314683652241E+01  0.0000000000000E+00
 0.1411281568713E+00 -0.2241697123004E+01  0.0000000000000E+00
 0.1419988386569E+00 -0.2168781452713E+01  0.0000000000000E+00
 0.1429571757323E+00 -0.2095938319734E+01  0.0000000000000E+00
 0.1439986874777E+00 -0.2023170502321E+01  0.0000000000000E+00
 0.1451219117177E+00 -0.1950482902508E+01  0.0000000000000E+00
 0.1463290924098E+00 -0.1877884420286E+01  0.0000000000000E+00
 0.1476292536212E+00 -0.1805392264313E+01  0.0000000000000E+00
 0.1650046811024E+00 -0.4658346573901E+01  0.0000000000000E+00
 0.1650093621951E+00 -0.4585106174756E+01  0.0000000000000E+00
 0.1650140433165E+00 -0.4511865325853E+01  0.0000000000000E+00
 0.1650187244248E+00 -0.4438624682280E+01  0.0000000000000E+00
 0.1650234055322E+00 -0.4365384053272E+01  0.0000000000000E+00
 0.1650280866413E+00 -0.4292143396742E+01  0.0000000000000E+00
 0.1650327677476E+00 -0.4218902783500E+01  0.0000000000000E+00
 0.1650374488557E+00 -0.4145662143408E+01  0.0000000000000E+00
 0.1650421299634E+00 -0.4072421508696E+01  0.0000000000000E+00
 0.1650468110706E+00 -0.3999180882070E+01  0.0000000000000E+00
 0.1650514921788E+00 -0.3925940240116E+01  0.0000000000000E+00
 0.1650561732855E+00 -0.3852699622179E+01  0.0000000000000E+00
 0.1650608543942E+00 -0.3779458972278E+01  0.0000000000000E+00
 0.1650655355067E+00 -0.3706218262625E+01  0.0000000000000E+00
 0.1650702166179E+00 -0.3632977573816E+01  0.0000000000000E+00
 0.1650748977234E+00 -0.3559736972622E+01  0.0000000000000E+00
 0.1650795788703E+00 -0.3486495724824E+01  0.0000000000000E+00
 0.1650842599390E+00 -0.3413255700775E+01  0.0000000000000E+00
 0.1650889410474E+00 -0.3340015055470E+01  0.0000000000000E+00
 0.1650936221507E+00 -0.3266774490419E+01  0.0000000000000E+00
 0.1650983032480E+00 -0.3193534018653E+01  0.0000000000000E+00
 0.1651029843477E+00 -0.3120293509928E+01  0.0000000000000E+00
 0.1651076654495E+00 -0.3047052968449E+01  0.0000000000000E+00
 0.1651152489203E+00 -0.2973812363923E+01  0.0000000000000E+00
 0.1651444286449E+00 -0.2900571989815E+01  0.0000000000000E+00
 0.1652211621105E+00 -0.2827333184571E+01  0.0000000000000E+00
 0.1653691113735E+00 -0.2754099222185E+01  0.0000000000000E+00
 0.1656056937112E+00 -0.2680875786326E+01  0.0000000000000E+00
 0.1659420800769E+00 -0.2607670020465E+01  0.0000000000000E+00
 0.1663854132426E+00 -0.2534490257994E+01  0.0000000000000E+00
 0.1669413695495E+00 -0.2461345482262E+01  0.0000000000000E+00
 0.1676163705033E+00 -0.2388246408871E+01  0.0000000000000E+00
 0.1684192500176E+00 -0.2315206626271E+01  0.0000000000000E+00
 0.1693495111465E+00 -0.2242235944667E+01  0.0000000000000E+00
 0.1703942034699E+00 -0.2169336122026E+01  0.0000000000000E+00
 0.1715440821385E+00 -0.2096508836703E+01  0.0000000000000E+00
 0.1727937704082E+00 -0.2023756866964E+01  0.0000000000000E+00
 0.1741415136690E+00 -0.1951085114842E+01  0.0000000000000E+00
 0.1755900046701E+00 -0.1878502480274E+01  0.0000000000000E+00
 0.1771500722917E+00 -0.1806026171918E+01  0.0000000000000E+00
 0.1925052882440E+00 -0.4658365300656E+01  0.0000000000000E+00
 0.1925105764769E+00 -0.4585143628228E+01  0.0000000000000E+00
 0.1925158647424E+00 -0.4511921506156E+01  0.0000000000000E+00
 0.1925211529930E+00 -0.4438699589362E+01  0.0000000000000E+00
 0.1925264412425E+00 -0.4365477687129E+01  0.0000000000000E+00
 0.1925317294941E+00 -0.4292255757381E+01  0.0000000000000E+00
 0.1925370177425E+00 -0.4219033870910E+01  0.0000000000000E+00
 0.1925423059928E+00 -0.4145811957596E+01  0.0000000000000E+00
 0.1925475942428E+00 -0.4072590049661E+01  0.0000000000000E+00
 0.1925528824922E+00 -0.3999368149810E+01  0.0000000000000E+00
 0.1925581707427E+00 -0.3926146234633E+01  0.0000000000000E+00
 0.1925634589914E+00 -0.3852924343469E+01  0.0000000000000E+00
 0.1925687472425E+00 -0.3779702420348E+01  0.0000000000000E+00
 0.1925740354978E+00 -0.3706480437491E+01  0.0000000000000E+00
 0.1925793237517E+00 -0.3633258475472E+01  0.0000000000000E+00
 0.1925846119993E+00 -0.3560036601046E+01  0.0000000000000E+00
 0.1925899002935E+00 -0.3486814080182E+01  0.0000000000000E+00
 0.1925951884994E+00 -0.3413592782753E+01  0.0000000000000E+00
 0.1926004767501E+00 -0.3340370864228E+01  0.0000000000000E+00
 0.1926057649950E+00 -0.3267149025935E+01  0.0000000000000E+00
 0.1926110532332E+00 -0.3193927280904E+01  0.0000000000000E+00
 0.1926163414741E+00 -0.3120705498923E+01  0.0000000000000E+00
 0.1926216297173E+00 -0.3047483684197E+01  0.0000000000000E+00
 0.1926303040577E+00 -0.2974261806440E+01  0.0000000000000E+00
 0.1926641740278E+00 -0.2901040159091E+01  0.0000000000000E+00
 0.1927535233632E+00 -0.2827820080573E+01  0.0000000000000E+00
 0.1929259577963E+00 -0.2754604844905E+01  0.0000000000000E+00
 0.1932017974845E+00 -0.2681400135744E+01  0.0000000000000E+00
 0.1935940752064E+00 -0.2608213096582E+01  0.0000000000000E+00
 0.1941111241963E+00 -0.2535052060780E+01  0.0000000000000E+00
 0.1947595668518E+00 -0.2461926011733E+01  0.0000000000000E+00
 0.1955468949300E+00 -0.2388845665039E+01  0.0000000000000E+00
 0.1964834146637E+00 -0.2315824609092E+01  0.0000000000000E+00
 0.1975685462823E+00 -0.2242872654162E+01  0.0000000000000E+00
 0.1987871809622E+00 -0.2169991558216E+01  0.0000000000000E+00
 0.2001285330459E+00 -0.2097182999597E+01  0.0000000000000E+00
 0.2015863296650E+00 -0.2024449756583E+01  0.0000000000000E+00
 0.2031585237745E+00 -0.1951796731204E+01  0.0000000000000E+00
 0.2048482569157E+00 -0.1879232823336E+01  0.0000000000000E+00
 0.2066681627825E+00 -0.1806775241636E+01  0.0000000000000E+00
 0.2200058153998E+00 -0.4658386905282E+01  0.0000000000000E+00
 0.2200116307875E+00 -0.4585186837434E+01  0.0000000000000E+00
 0.2200174462108E+00 -0.4511986320076E+01  0.0000000000000E+00
 0.2200232616179E+00 -0.4438786007934E+01  0.0000000000000E+00
 0.2200290770239E+00 -0.4365585710349E+01  0.0000000000000E+00
 0.2200348924320E+00 -0.4292385385258E+01  0.0000000000000E+00
 0.2200407078366E+00 -0.4219185103431E+01  0.0000000000000E+00
 0.2200465232434E+00 -0.4145984794769E+01  0.0000000000000E+00
 0.2200523386498E+00 -0.4072784491483E+01  0.0000000000000E+00
 0.2200581540556E+00 -0.3999584196280E+01  0.0000000000000E+00
 0.2200639694625E+00 -0.3926383885756E+01  0.0000000000000E+00
 0.2200697848676E+00 -0.3853183599236E+01  0.0000000000000E+00
 0.2200756002751E+00 -0.3779983280770E+01  0.0000000000000E+00
 0.2200814156875E+00 -0.3706782902585E+01  0.0000000000000E+00
 0.2200872310981E+00 -0.3633582545232E+01  0.0000000000000E+00
 0.2200930465019E+00 -0.3560382275447E+01  0.0000000000000E+00
 0.2200988619569E+00 -0.3487181359413E+01  0.0000000000000E+00
 0.2201046773148E+00 -0.3413981666454E+01  0.0000000000000E+00
 0.2201104927220E+00 -0.3340781352582E+01  0.0000000000000E+00
 0.2201163081229E+00 -0.3267581118919E+01  0.0000000000000E+00
 0.2201221235163E+00 -0.3194380978490E+01  0.0000000000000E+00
 0.2201279389127E+00 -0.3121180801122E+01  0.0000000000000E+00
 0.2201337543117E+00 -0.3047980591018E+01  0.0000000000000E+00
 0.2201434395357E+00 -0.2974780317904E+01  0.0000000000000E+00
 0.2201819197651E+00 -0.2901580275183E+01  0.0000000000000E+00
 0.2202838049834E+00 -0.2828381801256E+01  0.0000000000000E+00
 0.2204806445985E+00 -0.2755188170172E+01  0.0000000000000E+00
 0.2207956616474E+00 -0.2682005065570E+01  0.0000000000000E+00
 0.2212437507339E+00 -0.2608839630967E+01  0.0000000000000E+00
 0.2218344355546E+00 -0.2535700199692E+01  0.0000000000000E+00
 0.2225752845634E+00 -0.2462595755191E+01  0.0000000000000E+00
 0.2234748597682E+00 -0.2389537013054E+01  0.0000000000000E+00
 0.2245449397216E+00 -0.2316537561614E+01  0.0000000000000E+00
 0.2257848618277E+00 -0.2243607211216E+01  0.0000000000000E+00
 0.2271773588597E+00 -0.2170747719827E+01  0.0000000000000E+00
 0.2287101043520E+00 -0.2097960765773E+01  0.0000000000000E+00
 0.2303759293123E+00 -0.2025249127350E+01  0.0000000000000E+00
 0.2321724942604E+00 -0.1952617706584E+01  0.0000000000000E+00
 0.2341033895299E+00 -0.1880075403276E+01  0.0000000000000E+00
 0.2361830536282E+00 -0.1807639426087E+01  0.0000000000000E+00
 0.2475062513560E+00 -0.4658411386427E+01  0.0000000000000E+00
 0.2475125026990E+00 -0.4585235799674E+01  0.0000000000000E+00
 0.2475187540803E+00 -0.4512059763560E+01  0.0000000000000E+00
 0.2475250054442E+00 -0.4438883932594E+01  0.0000000000000E+00
 0.2475312568068E+00 -0.4365708116181E+01  0.0000000000000E+00
 0.2475375081717E+00 -0.4292532272270E+01  0.0000000000000E+00
 0.2475437595330E+00 -0.4219356471609E+01  0.0000000000000E+00
 0.2475500108965E+00 -0.4146180644121E+01  0.0000000000000E+00
 0.2475562622596E+00 -0.4073004822009E+01  0.0000000000000E+00
 0.2475625136220E+00 -0.3999829007976E+01  0.0000000000000E+00
 0.2475687649857E+00 -0.3926653178627E+01  0.0000000000000E+00
 0.2475750163473E+00 -0.3853477373275E+01  0.0000000000000E+00
 0.2475812677117E+00 -0.3780301535987E+01  0.0000000000000E+00
 0.2475875190812E+00 -0.3707125639000E+01  0.0000000000000E+00
 0.2475937704489E+00 -0.3633949762838E+01  0.0000000000000E+00
 0.2476000218091E+00 -0.3560773974215E+01  0.0000000000000E+00
 0.2476062732245E+00 -0.3487597539559E+01  0.0000000000000E+00
 0.2476125245354E+00 -0.3414422327569E+01  0.0000000000000E+00
 0.2476187758994E+00 -0.3341246494873E+01  0.0000000000000E+00
 0.2476250272566E+00 -0.3268070742360E+01  0.0000000000000E+00
 0.2476312786057E+00 -0.3194895083049E+01  0.0000000000000E+00
 0.2476375299581E+00 -0.3121719386813E+01  0.0000000000000E+00
 0.2476437813132E+00 -0.3048543657851E+01  0.0000000000000E+00
 0.2476543862212E+00 -0.2975367865900E+01  0.0000000000000E+00
 0.2476973855103E+00 -0.2902192304328E+01  0.0000000000000E+00
 0.2478117154120E+00 -0.2829018311508E+01  0.0000000000000E+00
 0.2480328690096E+00 -0.2755849161521E+01  0.0000000000000E+00
 0.2483869722199E+00 -0.2682690537989E+01  0.0000000000000E+00
 0.2488907814716E+00 -0.2609549584457E+01  0.0000000000000E+00
 0.2495550109240E+00 -0.2536434634215E+01  0.0000000000000E+00
 0.2503881750867E+00 -0.2463354670768E+01  0.0000000000000E+00
 0.2513999062187E+00 -0.2390320409700E+01  0.0000000000000E+00
 0.2526034551925E+00 -0.2317345439271E+01  0.0000000000000E+00
 0.2539980765867E+00 -0.2244439569913E+01  0.0000000000000E+00
 0.2555643447712E+00 -0.2171604559590E+01  0.0000000000000E+00
 0.2572883924727E+00 -0.2098842086614E+01  0.0000000000000E+00
 0.2591621545745E+00 -0.2026154929295E+01  0.0000000000000E+00
 0.2611829991614E+00 -0.1953547989660E+01  0.0000000000000E+00
 0.2633549653598E+00 -0.1881030167425E+01  0.0000000000000E+00
 0.2656942964902E+00 -0.1808618671252E+01  0.0000000000000E+00
 0.2750065850588E+00 -0.4658438742571E+01  0.0000000000000E+00
 0.2750131701039E+00 -0.4585290511904E+01  0.0000000000000E+00
 0.2750197551894E+00 -0.4512141832045E+01  0.0000000000000E+00
 0.2750263402564E+00 -0.4438993357257E+01  0.0000000000000E+00
 0.2750329253222E+00 -0.4365844897016E+01  0.0000000000000E+00
 0.2750395103904E+00 -0.4292696409288E+01  0.0000000000000E+00
 0.2750460954547E+00 -0.4219547964793E+01  0.0000000000000E+00
 0.2750526805214E+00 -0.4146399493482E+01  0.0000000000000E+00
 0.2750592655877E+00 -0.4073251027544E+01  0.0000000000000E+00
 0.2750658506532E+00 -0.4000102569683E+01  0.0000000000000E+00
 0.2750724357201E+00 -0.3926954096512E+01  0.0000000000000E+00
 0.2750790207848E+00 -0.3853805647328E+01  0.0000000000000E+00
 0.2750856058524E+00 -0.3780657166220E+01  0.0000000000000E+00
 0.2750921909254E+00 -0.3707508625436E+01  0.0000000000000E+00
 0.2750987759965E+00 -0.3634360105469E+01  0.0000000000000E+00
 0.2751053610598E+00 -0.3561211673007E+01  0.0000000000000E+00
 0.2751119461812E+00 -0.3488062594756E+01  0.0000000000000E+00
 0.2751185311925E+00 -0.3414914738712E+01  0.0000000000000E+00
 0.2751251162597E+00 -0.3341766262195E+01  0.0000000000000E+00
 0.2751317013197E+00 -0.3268617865830E+01  0.0000000000000E+00
 0.2751382863713E+00 -0.3195469562633E+01  0.0000000000000E+00
 0.2751448714262E+00 -0.3122321222524E+01  0.0000000000000E+00
 0.2751514564841E+00 -0.3049172849702E+01  0.0000000000000E+00
 0.2751628788227E+00 -0.2976024413916E+01  0.0000000000000E+00
 0.2752102949189E+00 -0.2902876208491E+01  0.0000000000000E+00
 0.2753369672533E+00 -0.2829729571771E+01  0.0000000000000E+00
 0.2755823325853E+00 -0.2756587777875E+01  0.0000000000000E+00
 0.2759754197121E+00 -0.2683456510402E+01  0.0000000000000E+00
 0.2765348468877E+00 -0.2610342912930E+01  0.0000000000000E+00
 0.2772725187343E+00 -0.2537255318706E+01  0.0000000000000E+00
 0.2781978958174E+00 -0.2464202711301E+01  0.0000000000000E+00
 0.2793216806473E+00 -0.2391195806292E+01  0.0000000000000E+00
 0.2806585964169E+00 -0.2318248191856E+01  0.0000000000000E+00
 0.2822078148791E+00 -0.2245369678523E+01  0.0000000000000E+00
 0.2839477520001E+00 -0.2172562024256E+01  0.0000000000000E+00
 0.2858629996983E+00 -0.2099826907348E+01  0.0000000000000E+00
 0.2879445967325E+00 -0.2027167106128E+01  0.0000000000000E+00
 0.2901896187525E+00 -0.1954587522619E+01  0.0000000000000E+00
 0.2926025536778E+00 -0.1882097056446E+01  0.0000000000000E+00
 0.2952014496426E+00 -0.1809712916272E+01  0.0000000000000E+00
 0.3025068043940E+00 -0.4658468971968E+01  0.0000000000000E+00
 0.3025136087739E+00 -0.4585350970636E+01  0.0000000000000E+00
 0.3025204131955E+00 -0.4512232520297E+01  0.0000000000000E+00
 0.3025272175981E+00 -0.4439114274945E+01  0.0000000000000E+00
 0.3025340219993E+00 -0.4365996044133E+01  0.0000000000000E+00
 0.3025408264030E+00 -0.4292877785846E+01  0.0000000000000E+00
 0.3025476308028E+00 -0.4219759570774E+01  0.0000000000000E+00
 0.3025544352050E+00 -0.4146641328897E+01  0.0000000000000E+00
 0.3025612396067E+00 -0.4073523092391E+01  0.0000000000000E+00
 0.3025680440077E+00 -0.4000404863958E+01  0.0000000000000E+00
 0.3025748484101E+00 -0.3927286620221E+01  0.0000000000000E+00
 0.3025816528103E+00 -0.3854168400463E+01  0.0000000000000E+00
 0.3025884572134E+00 -0.3781050148793E+01  0.0000000000000E+00
 0.3025952616221E+00 -0.3707931837471E+01  0.0000000000000E+00
 0.3026020660289E+00 -0.3634813546959E+01  0.0000000000000E+00
 0.3026088704275E+00 -0.3561695343915E+01  0.0000000000000E+00
 0.3026156748862E+00 -0.3488576495348E+01  0.0000000000000E+00
 0.3026224792312E+00 -0.3415458868484E+01  0.0000000000000E+00
 0.3026292836339E+00 -0.3342340621403E+01  0.0000000000000E+00
 0.3026360880292E+00 -0.3269222454441E+01  0.0000000000000E+00
 0.3026428924158E+00 -0.3196104380609E+01  0.0000000000000E+00
 0.3026496968058E+00 -0.3122986269880E+01  0.0000000000000E+00
 0.3026565011989E+00 -0.3049868126451E+01  0.0000000000000E+00
 0.3026686266003E+00 -0.2976749920085E+01  0.0000000000000E+00
 0.3027203451345E+00 -0.2903631944063E+01  0.0000000000000E+00
 0.3028592455296E+00 -0.2830515536692E+01  0.0000000000000E+00
 0.3031287082196E+00 -0.2757403972134E+01  0.0000000000000E+00
 0.3035606648810E+00 -0.2684302933966E+01  0.0000000000000E+00
 0.3041755955924E+00 -0.2611219565799E+01  0.0000000000000E+00
 0.3049865954384E+00 -0.2538162200834E+01  0.0000000000000E+00
 0.3060040710399E+00 -0.2465139822714E+01  0.0000000000000E+00
 0.3072397951582E+00 -0.2392163147008E+01  0.0000000000000E+00
 0.3087099633062E+00 -0.2319245761804E+01  0.0000000000000E+00
 0.3104136644108E+00 -0.2246397477737E+01  0.0000000000000E+00
 0.3123271560352E+00 -0.2173620052771E+01  0.0000000000000E+00
 0.3144334892904E+00 -0.2100915165177E+01  0.0000000000000E+00
 0.3167228068109E+00 -0.2028285593305E+01  0.0000000000000E+00
 0.3191918918116E+00 -0.1955736239175E+01  0.0000000000000E+00
 0.3218456810053E+00 -0.1883276002310E+01  0.0000000000000E+00
 0.3247040273393E+00 -0.1810922091373E+01  0.0000000000000E+00
 0.3300068990355E+00 -0.4658502072771E+01  0.0000000000000E+00
 0.3300137980567E+00 -0.4585417172174E+01  0.0000000000000E+00
 0.3300206971202E+00 -0.4512331822772E+01  0.0000000000000E+00
 0.3300275961644E+00 -0.4439246678265E+01  0.0000000000000E+00
 0.3300344952072E+00 -0.4366161548291E+01  0.0000000000000E+00
 0.3300413942526E+00 -0.4293076390855E+01  0.0000000000000E+00
 0.3300482932940E+00 -0.4219991276614E+01  0.0000000000000E+00
 0.3300551923378E+00 -0.4146906135581E+01  0.0000000000000E+00
 0.3300620913812E+00 -0.4073820999915E+01  0.0000000000000E+00
 0.3300689904238E+00 -0.4000735872320E+01  0.0000000000000E+00
 0.3300758894678E+00 -0.3927650729427E+01  0.0000000000000E+00
 0.3300827885096E+00 -0.3854565610502E+01  0.0000000000000E+00
 0.3300896875544E+00 -0.3781480459680E+01  0.0000000000000E+00
 0.3300965866048E+00 -0.3708395249233E+01  0.0000000000000E+00
 0.3301034856532E+00 -0.3635310059585E+01  0.0000000000000E+00
 0.3301103846934E+00 -0.3562224957367E+01  0.0000000000000E+00
 0.3301172837945E+00 -0.3489139209918E+01  0.0000000000000E+00
 0.3301241827804E+00 -0.3416054683619E+01  0.0000000000000E+00
 0.3301310818247E+00 -0.3342969537384E+01  0.0000000000000E+00
 0.3301379808615E+00 -0.3269884471232E+01  0.0000000000000E+00
 0.3301448798895E+00 -0.3196799498167E+01  0.0000000000000E+00
 0.3301517789210E+00 -0.3123714488221E+01  0.0000000000000E+00
 0.3301586779556E+00 -0.3050629445591E+01  0.0000000000000E+00
 0.3301713817261E+00 -0.2977544340053E+01  0.0000000000000E+00
 0.3302272780059E+00 -0.2904459464839E+01  0.0000000000000E+00
 0.3303782817725E+00 -0.2831376158220E+01  0.0000000000000E+00
 0.3306717171352E+00 -0.2758297694401E+01  0.0000000000000E+00
 0.3311424186512E+00 -0.2685229756934E+01  0.0000000000000E+00
 0.3318127282240E+00 -0.2612179489470E+01  0.0000000000000E+00
 0.3326969314014E+00 -0.2539155225155E+01  0.0000000000000E+00
 0.3338063808598E+00 -0.2466165947716E+01  0.0000000000000E+00
 0.3351539196114E+00 -0.2393222372710E+01  0.0000000000000E+00
 0.3367572154907E+00 -0.2320338088127E+01  0.0000000000000E+00
 0.3386152745975E+00 -0.2247522904721E+01  0.0000000000000E+00
 0.3407021960918E+00 -0.2174778580452E+01  0.0000000000000E+00
 0.3429994902762E+00 -0.2102106793569E+01  0.0000000000000E+00
 0.3454964036609E+00 -0.2029510322446E+01  0.0000000000000E+00
 0.3481894270257E+00 -0.1956994069100E+01  0.0000000000000E+00
 0.3510839458773E+00 -0.1884566932939E+01  0.0000000000000E+00
 0.3542016179765E+00 -0.1812246122631E+01  0.0000000000000E+00
 0.3575068569661E+00 -0.4658538042879E+01  0.0000000000000E+00
 0.3575137139178E+00 -0.4585489112314E+01  0.0000000000000E+00
 0.3575205709117E+00 -0.4512439733166E+01  0.0000000000000E+00
 0.3575274278864E+00 -0.4439390558811E+01  0.0000000000000E+00
 0.3575342848597E+00 -0.4366341398983E+01  0.0000000000000E+00
 0.3575411418356E+00 -0.4293292211706E+01  0.0000000000000E+00
 0.3575479988074E+00 -0.4220243067603E+01  0.0000000000000E+00
 0.3575548557817E+00 -0.4147193896721E+01  0.0000000000000E+00
 0.3575617127555E+00 -0.4074144731204E+01  0.0000000000000E+00
 0.3575685697286E+00 -0.4001095573752E+01  0.0000000000000E+00
 0.3575754267031E+00 -0.3928046401012E+01  0.0000000000000E+00
 0.3575822836754E+00 -0.3854997252227E+01  0.0000000000000E+00
 0.3575891406506E+00 -0.3781948071560E+01  0.0000000000000E+00
 0.3575959976315E+00 -0.3708898831298E+01  0.0000000000000E+00
 0.3576028546104E+00 -0.3635849611826E+01  0.0000000000000E+00
 0.3576097115811E+00 -0.3562800479740E+01  0.0000000000000E+00
 0.3576165686123E+00 -0.3489750702740E+01  0.0000000000000E+00
 0.3576234255290E+00 -0.3416702146290E+01  0.0000000000000E+00
 0.3576302825038E+00 -0.3343652970208E+01  0.0000000000000E+00
 0.3576371394711E+00 -0.3270603874170E+01  0.0000000000000E+00
 0.3576439964297E+00 -0.3197554871173E+01  0.0000000000000E+00
 0.3576508533917E+00 -0.3124505831314E+01  0.0000000000000E+00
 0.3576577103568E+00 -0.3051456758786E+01  0.0000000000000E+00
 0.3576708557852E+00 -0.2978407623384E+01  0.0000000000000E+00
 0.3577307930988E+00 -0.2905358718283E+01  0.0000000000000E+00
 0.3578937635234E+00 -0.2832311381714E+01  0.0000000000000E+00
 0.3582110348432E+00 -0.2759268887932E+01  0.0000000000000E+00
 0.3587203444949E+00 -0.2686236920463E+01  0.0000000000000E+00
 0.3594458962068E+00 -0.2613222622996E+01  0.0000000000000E+00
 0.3604031659898E+00 -0.2540234328623E+01  0.0000000000000E+00
 0.3616044525750E+00 -0.2467281021158E+01  0.0000000000000E+00
 0.3630636692258E+00 -0.2394373416147E+01  0.0000000000000E+00
 0.3647999560978E+00 -0.2321525101475E+01  0.0000000000000E+00
 0.3668122364638E+00 -0.2248745888021E+01  0.0000000000000E+00
 0.3690724510805E+00 -0.2176037533744E+01  0.0000000000000E+00
 0.3715605694432E+00 -0.2103401716869E+01  0.0000000000000E+00
 0.3742649419373E+00 -0.2030841215795E+01  0.0000000000000E+00
 0.3771817669077E+00 -0.1958360932534E+01  0.0000000000000E+00
 0.3803168786556E+00 -0.1885969766374E+01  0.0000000000000E+00
 0.3836937397548E+00 -0.1813684925983E+01  0.0000000000000E+00
 0.3850066672510E+00 -0.4658576880061E+01  0.0000000000000E+00
 0.3850133344881E+00 -0.4585566786598E+01  0.0000000000000E+00
 0.3850200017662E+00 -0.4512556244790E+01  0.0000000000000E+00
 0.3850266690256E+00 -0.4439545907666E+01  0.0000000000000E+00
 0.3850333362836E+00 -0.4366535585061E+01  0.0000000000000E+00
 0.3850400035442E+00 -0.4293525235022E+01  0.0000000000000E+00
 0.3850466708008E+00 -0.4220514928134E+01  0.0000000000000E+00
 0.3850533380599E+00 -0.4147504594480E+01  0.0000000000000E+00
 0.3850600053184E+00 -0.4074494266190E+01  0.0000000000000E+00
 0.3850666725763E+00 -0.4001483945960E+01  0.0000000000000E+00
 0.3850733398355E+00 -0.3928473610450E+01  0.0000000000000E+00
 0.3850800070925E+00 -0.3855463298882E+01  0.0000000000000E+00
 0.3850866743525E+00 -0.3782452955450E+01  0.0000000000000E+00
 0.3850933416179E+00 -0.3709442552454E+01  0.0000000000000E+00
 0.3851000088814E+00 -0.3636432170237E+01  0.0000000000000E+00
 0.3851066761369E+00 -0.3563421875359E+01  0.0000000000000E+00
 0.3851133434512E+00 -0.3490410935911E+01  0.0000000000000E+00
 0.3851200106542E+00 -0.3417401216363E+01  0.0000000000000E+00
 0.3851266779138E+00 -0.3344390877513E+01  0.0000000000000E+00
 0.3851333451660E+00 -0.3271380618664E+01  0.0000000000000E+00
 0.3851400124097E+00 -0.3198370452807E+01  0.0000000000000E+00
 0.3851466796568E+00 -0.3125360250108E+01  0.0000000000000E+00
 0.3851533469069E+00 -0.3052350014757E+01  0.0000000000000E+00
 0.3851667863476E+00 -0.2979339716566E+01  0.0000000000000E+00
 0.3852306170495E+00 -0.2906329648653E+01  0.0000000000000E+00
 0.3854054064870E+00 -0.2833321149205E+01  0.0000000000000E+00
 0.3857463661188E+00 -0.2760317492529E+01  0.0000000000000E+00
 0.3862941362620E+00 -0.2687324362123E+01  0.0000000000000E+00
 0.3870747824689E+00 -0.2614348901720E+01  0.0000000000000E+00
 0.3881049712139E+00 -0.2541399444351E+01  0.0000000000000E+00
 0.3893979472826E+00 -0.2468484973924E+01  0.0000000000000E+00
 0.3909686941895E+00 -0.2395616205974E+01  0.0000000000000E+00
 0.3928378244118E+00 -0.2322806728271E+01  0.0000000000000E+00
 0.3950041783950E+00 -0.2250066351831E+01  0.0000000000000E+00
 0.3974375384922E+00 -0.2177396834612E+01  0.0000000000000E+00
 0.4001163333914E+00 -0.2104799854812E+01  0.0000000000000E+00
 0.4030280173533E+00 -0.2032278190856E+01  0.0000000000000E+00
 0.4061684962881E+00 -0.1959836744754E+01  0.0000000000000E+00
 0.4095440532914E+00 -0.1887484415661E+01  0.0000000000000E+00
 0.4131799557506E+00 -0.1815238412246E+01  0.0000000000000E+00
 0.4125063190932E+00 -0.4658618581925E+01  0.0000000000000E+00
 0.4125126381733E+00 -0.4585650190237E+01  0.0000000000000E+00
 0.4125189572921E+00 -0.4512681350462E+01  0.0000000000000E+00
 0.4125252763933E+00 -0.4439712715254E+01  0.0000000000000E+00
 0.4125315954932E+00 -0.4366744094556E+01  0.0000000000000E+00
 0.4125379145954E+00 -0.4293775446440E+01  0.0000000000000E+00
 0.4125442336940E+00 -0.4220806841450E+01  0.0000000000000E+00
 0.4125505527948E+00 -0.4147838209710E+01  0.0000000000000E+00
 0.4125568718952E+00 -0.4074869583330E+01  0.0000000000000E+00
 0.4125631909949E+00 -0.4001900965006E+01  0.0000000000000E+00
 0.4125695100959E+00 -0.3928932331410E+01  0.0000000000000E+00
 0.4125758291948E+00 -0.3855963721744E+01  0.0000000000000E+00
 0.4125821482965E+00 -0.3782995080231E+01  0.0000000000000E+00
 0.4125884674034E+00 -0.3710026379188E+01  0.0000000000000E+00
 0.4125947865084E+00 -0.3637057698912E+01  0.0000000000000E+00
 0.4126011056059E+00 -0.3564089105926E+01  0.0000000000000E+00
 0.4126074247592E+00 -0.3491119868737E+01  0.0000000000000E+00
 0.4126137438069E+00 -0.3418151850752E+01  0.0000000000000E+00
 0.4126200629082E+00 -0.3345183213819E+01  0.0000000000000E+00
 0.4126263820025E+00 -0.3272214656840E+01  0.0000000000000E+00
 0.4126327010889E+00 -0.3199246192801E+01  0.0000000000000E+00
 0.4126390201784E+00 -0.3126277691941E+01  0.0000000000000E+00
 0.4126453392707E+00 -0.3053309158447E+01  0.0000000000000E+00
 0.4126589142810E+00 -0.2980340562151E+01  0.0000000000000E+00
 0.4127264799297E+00 -0.2907372196107E+01  0.0000000000000E+00
 0.4129129299416E+00 -0.2834405398456E+01  0.0000000000000E+00
 0.4132774194510E+00 -0.2761443443563E+01  0.0000000000000E+00
 0.4138634916560E+00 -0.2688492014891E+01  0.0000000000000E+00
 0.4146990739339E+00 -0.2615558256224E+01  0.0000000000000E+00
 0.4158020232230E+00 -0.2542650500527E+01  0.0000000000000E+00
 0.4171865303632E+00 -0.2469777731808E+01  0.0000000000000E+00
 0.4188686491207E+00 -0.2396950665591E+01  0.0000000000000E+00
 0.4208704642954E+00 -0.2324182889523E+01  0.0000000000000E+00
 0.4231907335043E+00 -0.2251484214766E+01  0.0000000000000E+00
 0.4257970806970E+00 -0.2178856399276E+01  0.0000000000000E+00
 0.4286663937532E+00 -0.2106301121224E+01  0.0000000000000E+00
 0.4317852308089E+00 -0.2033821159063E+01  0.0000000000000E+00
 0.4351492053391E+00 -0.1961421414798E+01  0.0000000000000E+00
 0.4387650492349E+00 -0.1889110787444E+01  0.0000000000000E+00
 0.4426598346975E+00 -0.1816906485672E+01  0.0000000000000E+00
 0.4400058000888E+00 -0.4658663145799E+01  0.0000000000000E+00
 0.4400116001655E+00 -0.4585739317892E+01  0.0000000000000E+00
 0.4400174002778E+00 -0.4512815042172E+01  0.0000000000000E+00
 0.4400232003739E+00 -0.4439890970894E+01  0.0000000000000E+00
 0.4400290004688E+00 -0.4366966914117E+01  0.0000000000000E+00
 0.4400348005658E+00 -0.4294042829939E+01  0.0000000000000E+00
 0.4400406006595E+00 -0.4221118788861E+01  0.0000000000000E+00
 0.4400464007553E+00 -0.4148194721049E+01  0.0000000000000E+00
 0.4400522008506E+00 -0.4075270658593E+01  0.0000000000000E+00
 0.4400580009453E+00 -0.4002346604189E+01  0.0000000000000E+00
 0.4400638010413E+00 -0.3929422534522E+01  0.0000000000000E+00
 0.4400696011353E+00 -0.3856498488770E+01  0.0000000000000E+00
 0.4400754012318E+00 -0.3783574411191E+01  0.0000000000000E+00
 0.4400812013331E+00 -0.3710650274118E+01  0.0000000000000E+00
 0.4400870014328E+00 -0.3637726157800E+01  0.0000000000000E+00
 0.4400928015255E+00 -0.3564802128718E+01  0.0000000000000E+00
 0.4400986016694E+00 -0.3491877455827E+01  0.0000000000000E+00
 0.4401044017164E+00 -0.3418954001394E+01  0.0000000000000E+00
 0.4401102018126E+00 -0.3346029928392E+01  0.0000000000000E+00
 0.4401160019024E+00 -0.3273105935296E+01  0.0000000000000E+00
 0.4401218019848E+00 -0.3200182035083E+01  0.0000000000000E+00
 0.4401276020702E+00 -0.3127258098070E+01  0.0000000000000E+00
 0.4401334021582E+00 -0.3054334128444E+01  0.0000000000000E+00
 0.4401469418909E+00 -0.2981410096056E+01  0.0000000000000E+00
 0.4402180716374E+00 -0.2908486293893E+01  0.0000000000000E+00
 0.4404160113703E+00 -0.2835564060045E+01  0.0000000000000E+00
 0.4408038598970E+00 -0.2762646668939E+01  0.0000000000000E+00
 0.4414280632953E+00 -0.2689739804005E+01  0.0000000000000E+00
 0.4423184107658E+00 -0.2616850609075E+01  0.0000000000000E+00
 0.4434939497105E+00 -0.2543987417048E+01  0.0000000000000E+00
 0.4449698170227E+00 -0.2471159212037E+01  0.0000000000000E+00
 0.4467631367197E+00 -0.2398376709555E+01  0.0000000000000E+00
 0.4488974659235E+00 -0.2325653497116E+01  0.0000000000000E+00
 0.4513714794224E+00 -0.2252999386040E+01  0.0000000000000E+00
 0.4541506427632E+00 -0.2180416134282E+01  0.0000000000000E+00
 0.4572103030192E+00 -0.2107905419981E+01  0.0000000000000E+00
 0.4605361222013E+00 -0.2035470021620E+01  0.0000000000000E+00
 0.4641234213498E+00 -0.1963114841203E+01  0.0000000000000E+00
 0.4679793811517E+00 -0.1890848777590E+01  0.0000000000000E+00
 0.4721328786209E+00 -0.1818689039456E+01  0.0000000000000E+00
 0.4675051005201E+00 -0.4658710569005E+01  0.0000000000000E+00
 0.4675102010296E+00 -0.4585834164207E+01  0.0000000000000E+00
 0.4675153015704E+00 -0.4512957311885E+01  0.0000000000000E+00
 0.4675204020969E+00 -0.4440080663873E+01  0.0000000000000E+00
 0.4675255026224E+00 -0.4367204030353E+01  0.0000000000000E+00
 0.4675306031498E+00 -0.4294327369449E+01  0.0000000000000E+00
 0.4675357036742E+00 -0.4221450751617E+01  0.0000000000000E+00
 0.4675408042005E+00 -0.4148574107069E+01  0.0000000000000E+00
 0.4675459047264E+00 -0.4075697467873E+01  0.0000000000000E+00
 0.4675510052517E+00 -0.4002820836724E+01  0.0000000000000E+00
 0.4675561057781E+00 -0.3929944190322E+01  0.0000000000000E+00
 0.4675612063029E+00 -0.3857067567819E+01  0.0000000000000E+00
 0.4675663068298E+00 -0.3784190913510E+01  0.0000000000000E+00
 0.4675714073609E+00 -0.3711314199746E+01  0.0000000000000E+00
 0.4675765078906E+00 -0.3638437506723E+01  0.0000000000000E+00
 0.4675816084142E+00 -0.3565560900880E+01  0.0000000000000E+00
 0.4675867089827E+00 -0.3492683651646E+01  0.0000000000000E+00
 0.4675918094661E+00 -0.3419807620078E+01  0.0000000000000E+00
 0.4675969099927E+00 -0.3346930970343E+01  0.0000000000000E+00
 0.4676020105138E+00 -0.3274054400462E+01  0.0000000000000E+00
 0.4676071110283E+00 -0.3201177923403E+01  0.0000000000000E+00
 0.4676122115455E+00 -0.3128301409569E+01  0.0000000000000E+00
 0.4676173120649E+00 -0.3055424863144E+01  0.0000000000000E+00
 0.4676306359560E+00 -0.2982548253998E+01  0.0000000000000E+00
 0.4677051492379E+00 -0.2909671875048E+01  0.0000000000000E+00
 0.4679143981338E+00 -0.2836797064332E+01  0.0000000000000E+00
 0.4683254251255E+00 -0.2763927096339E+01  0.0000000000000E+00
 0.4689875791721E+00 -0.2691067654466E+01  0.0000000000000E+00
 0.4699325112982E+00 -0.2618225882598E+01  0.0000000000000E+00
 0.4711804593705E+00 -0.2545410113560E+01  0.0000000000000E+00
 0.4727475063358E+00 -0.2472629331579E+01  0.0000000000000E+00
 0.4746518464626E+00 -0.2399894252155E+01  0.0000000000000E+00
 0.4769185091967E+00 -0.2327218462663E+01  0.0000000000000E+00
 0.4795460864969E+00 -0.2254611774588E+01  0.0000000000000E+00
 0.4824978855064E+00 -0.2182075945884E+01  0.0000000000000E+00
 0.4857477124908E+00 -0.2109612654658E+01  0.0000000000000E+00
 0.4892803333359E+00 -0.2037224679426E+01  0.0000000000000E+00
 0.4930907766471E+00 -0.1964916922187E+01  0.0000000000000E+00
 0.4971866719080E+00 -0.1892698281639E+01  0.0000000000000E+00
 0.5015987009462E+00 -0.1820585966460E+01  0.0000000000000E+00
 0.4950042083210E+00 -0.4658760848539E+01  0.0000000000000E+00
 0.4950084166332E+00 -0.4585934723169E+01  0.0000000000000E+00
 0.4950126249712E+00 -0.4513108150585E+01  0.0000000000000E+00
 0.4950168332975E+00 -0.4440281782170E+01  0.0000000000000E+00
 0.4950210416229E+00 -0.4367455428237E+01  0.0000000000000E+00
 0.4950252499499E+00 -0.4294629046938E+01  0.0000000000000E+00
 0.4950294582744E+00 -0.4221802708682E+01  0.0000000000000E+00
 0.4950336666004E+00 -0.4148976343728E+01  0.0000000000000E+00
 0.4950378749262E+00 -0.4076149984123E+01  0.0000000000000E+00
 0.4950420832514E+00 -0.4003323632559E+01  0.0000000000000E+00
 0.4950462915776E+00 -0.3930497265753E+01  0.0000000000000E+00
 0.4950504999024E+00 -0.3857670922829E+01  0.0000000000000E+00
 0.4950547082290E+00 -0.3784844548121E+01  0.0000000000000E+00
 0.4950589165590E+00 -0.3712018113999E+01  0.0000000000000E+00
 0.4950631248879E+00 -0.3639191700604E+01  0.0000000000000E+00
 0.4950673332117E+00 -0.3566365374328E+01  0.0000000000000E+00
 0.4950715415726E+00 -0.3493538405106E+01  0.0000000000000E+00
 0.4950757498633E+00 -0.3420712652710E+01  0.0000000000000E+00
 0.4950799581896E+00 -0.3347886282572E+01  0.0000000000000E+00
 0.4950841665114E+00 -0.3275059992234E+01  0.0000000000000E+00
 0.4950883748277E+00 -0.3202233794654E+01  0.0000000000000E+00
 0.4950925831462E+00 -0.3129407560324E+01  0.0000000000000E+00
 0.4950967914666E+00 -0.3056581293425E+01  0.0000000000000E+00
 0.4951097068853E+00 -0.2983754963851E+01  0.0000000000000E+00
 0.4951874110714E+00 -0.2910928864443E+01  0.0000000000000E+00
 0.4954077764972E+00 -0.2838104333180E+01  0.0000000000000E+00
 0.4958417893184E+00 -0.2765284644623E+01  0.0000000000000E+00
 0.4965417013745E+00 -0.2692475482128E+01  0.0000000000000E+00
 0.4975410255139E+00 -0.2619683989641E+01  0.0000000000000E+00
 0.4988611900675E+00 -0.2546918499905E+01  0.0000000000000E+00
 0.5005192240350E+00 -0.2474187997271E+01  0.0000000000000E+00
 0.5025343919363E+00 -0.2401503197224E+01  0.0000000000000E+00
 0.5049331955409E+00 -0.2328877686990E+01  0.0000000000000E+00
 0.5077141439775E+00 -0.2256321278231E+01  0.0000000000000E+00
 0.5108383859861E+00 -0.2183835728900E+01  0.0000000000000E+00
 0.5142781870254E+00 -0.2111422717068E+01  0.0000000000000E+00
 0.5180174168560E+00 -0.2039085021287E+01  0.0000000000000E+00
 0.5220508116484E+00 -0.1966827543550E+01  0.0000000000000E+00
 0.5263864496834E+00 -0.1894659182387E+01  0.0000000000000E+00
 0.5310568176018E+00 -0.1822597146475E+01  0.0000000000000E+00
 0.5225031126404E+00 -0.4658813981299E+01  0.0000000000000E+00
 0.5225062252743E+00 -0.4586040988578E+01  0.0000000000000E+00
 0.5225093379273E+00 -0.4513267548970E+01  0.0000000000000E+00
 0.5225124505716E+00 -0.4440494313380E+01  0.0000000000000E+00
 0.5225155632152E+00 -0.4367721092263E+01  0.0000000000000E+00
 0.5225186758601E+00 -0.4294947843801E+01  0.0000000000000E+00
 0.5225217885031E+00 -0.4222174638349E+01  0.0000000000000E+00
 0.5225249011472E+00 -0.4149401406219E+01  0.0000000000000E+00
 0.5225280137911E+00 -0.4076628179434E+01  0.0000000000000E+00
 0.5225311264347E+00 -0.4003854960684E+01  0.0000000000000E+00
 0.5225342390789E+00 -0.3931081726703E+01  0.0000000000000E+00
 0.5225373517221E+00 -0.3858308516587E+01  0.0000000000000E+00
 0.5225404643666E+00 -0.3785535274710E+01  0.0000000000000E+00
 0.5225435770137E+00 -0.3712761973463E+01  0.0000000000000E+00
 0.5225466896599E+00 -0.3639988692926E+01  0.0000000000000E+00
 0.5225498023024E+00 -0.3567215499446E+01  0.0000000000000E+00
 0.5225529149724E+00 -0.3494441663489E+01  0.0000000000000E+00
 0.5225560275903E+00 -0.3421669043470E+01  0.0000000000000E+00
 0.5225591402347E+00 -0.3348895806160E+01  0.0000000000000E+00
 0.5225622528757E+00 -0.3276122648591E+01  0.0000000000000E+00
 0.5225653655126E+00 -0.3203349583713E+01  0.0000000000000E+00
 0.5225684781512E+00 -0.3130576482112E+01  0.0000000000000E+00
 0.5225715907911E+00 -0.3057803347965E+01  0.0000000000000E+00
 0.5225838942559E+00 -0.2985030151191E+01  0.0000000000000E+00
 0.5226645858642E+00 -0.2912257184550E+01  0.0000000000000E+00
 0.5228958643382E+00 -0.2839485785963E+01  0.0000000000000E+00
 0.5233526595062E+00 -0.2766719230062E+01  0.0000000000000E+00
 0.5240901260887E+00 -0.2693963200164E+01  0.0000000000000E+00
 0.5251436387569E+00 -0.2621224840274E+01  0.0000000000000E+00
 0.5265358163068E+00 -0.2548512483054E+01  0.0000000000000E+00
 0.5282846337900E+00 -0.2475835112982E+01  0.0000000000000E+00
 0.5304104259779E+00 -0.2403203445529E+01  0.0000000000000E+00
 0.5329411669643E+00 -0.2330631067763E+01  0.0000000000000E+00
 0.5358752830470E+00 -0.2258127791534E+01  0.0000000000000E+00
 0.5391717645631E+00 -0.2185695374792E+01  0.0000000000000E+00
 0.5428013361643E+00 -0.2113335495573E+01  0.0000000000000E+00
 0.5467469714862E+00 -0.2041050932465E+01  0.0000000000000E+00
 0.5510031142644E+00 -0.1968846587455E+01  0.0000000000000E+00
 0.5555782915776E+00 -0.1896731358894E+01  0.0000000000000E+00
 0.5605067948795E+00 -0.1824722455461E+01  0.0000000000000E+00
 0.5500018033136E+00 -0.4658869964069E+01  0.0000000000000E+00
 0.5500036066233E+00 -0.4586152954003E+01  0.0000000000000E+00
 0.5500054099442E+00 -0.4513435497392E+01  0.0000000000000E+00
 0.5500072132600E+00 -0.4440718244644E+01  0.0000000000000E+00
 0.5500090165755E+00 -0.4368001006356E+01  0.0000000000000E+00
 0.5500108198916E+00 -0.4295283740744E+01  0.0000000000000E+00
 0.5500126232067E+00 -0.4222566518110E+01  0.0000000000000E+00
 0.5500144265224E+00 -0.4149849268818E+01  0.0000000000000E+00
 0.5500162298380E+00 -0.4077132024867E+01  0.0000000000000E+00
 0.5500180331534E+00 -0.4004414788945E+01  0.0000000000000E+00
 0.5500198364692E+00 -0.3931697537804E+01  0.0000000000000E+00
 0.5500216397843E+00 -0.3858980310509E+01  0.0000000000000E+00
 0.5500234431003E+00 -0.3786263051477E+01  0.0000000000000E+00
 0.5500252464177E+00 -0.3713545733121E+01  0.0000000000000E+00
 0.5500270497347E+00 -0.3640828435461E+01  0.0000000000000E+00
 0.5500288530494E+00 -0.3568111224789E+01  0.0000000000000E+00
 0.5500306563801E+00 -0.3495393372134E+01  0.0000000000000E+00
 0.5500324596807E+00 -0.3422676734482E+01  0.0000000000000E+00
 0.5500342629965E+00 -0.3349959480015E+01  0.0000000000000E+00
 0.5500360663104E+00 -0.3277242305227E+01  0.0000000000000E+00
 0.5500378696220E+00 -0.3204525223058E+01  0.0000000000000E+00
 0.5500396729345E+00 -0.3131808104194E+01  0.0000000000000E+00
 0.5500414762478E+00 -0.3059090952810E+01  0.0000000000000E+00
 0.5500529541124E+00 -0.2986373738849E+01  0.0000000000000E+00
 0.5501364194992E+00 -0.2913656754987E+01  0.0000000000000E+00
 0.5503783973824E+00 -0.2840941339082E+01  0.0000000000000E+00
 0.5508577612655E+00 -0.2768230765842E+01  0.0000000000000E+00
 0.5516325687513E+00 -0.2695530718543E+01  0.0000000000000E+00
 0.5527400563351E+00 -0.2622848341252E+01  0.0000000000000E+00
 0.5542040332787E+00 -0.2550191966546E+01  0.0000000000000E+00
 0.5560434206860E+00 -0.2477570579036E+01  0.0000000000000E+00
 0.5582796235804E+00 -0.2404994894179E+01  0.0000000000000E+00
 0.5609420883813E+00 -0.2332478498877E+01  0.0000000000000E+00
 0.5640291585551E+00 -0.2260031205176E+01  0.0000000000000E+00
 0.5674976660344E+00 -0.2187654771025E+01  0.0000000000000E+00
 0.5713167946636E+00 -0.2115350874421E+01  0.0000000000000E+00
 0.5754686219523E+00 -0.2043122293992E+01  0.0000000000000E+00
 0.5799472992011E+00 -0.1970973931719E+01  0.0000000000000E+00
 0.5847618022875E+00 -0.1898914685761E+01  0.0000000000000E+00
 0.5899482274796E+00 -0.1826961764802E+01  0.0000000000000E+00
 0.5775046063623E+00 -0.4658929169039E+01  0.0000000000000E+00
 0.5775092127151E+00 -0.4586271363819E+01  0.0000000000000E+00
 0.5775138190961E+00 -0.4513613112418E+01  0.0000000000000E+00
 0.5775184254642E+00 -0.4440955064714E+01  0.0000000000000E+00
 0.5775230318314E+00 -0.4368297031459E+01  0.0000000000000E+00
 0.5775276382004E+00 -0.4295638970901E+01  0.0000000000000E+00
 0.5775322445666E+00 -0.4222980953286E+01  0.0000000000000E+00
 0.5775368509345E+00 -0.4150322909036E+01  0.0000000000000E+00
 0.5775414573020E+00 -0.4077664870122E+01  0.0000000000000E+00
 0.5775460636691E+00 -0.4005006839230E+01  0.0000000000000E+00
 0.5775506700371E+00 -0.3932348793131E+01  0.0000000000000E+00
 0.5775552764036E+00 -0.3859690770860E+01  0.0000000000000E+00
 0.5775598827721E+00 -0.3787032716878E+01  0.0000000000000E+00
 0.5775644891444E+00 -0.3714374603619E+01  0.0000000000000E+00
 0.5775690955153E+00 -0.3641716511039E+01  0.0000000000000E+00
 0.5775737018808E+00 -0.3569058505377E+01  0.0000000000000E+00
 0.5775783082869E+00 -0.3496399858254E+01  0.0000000000000E+00
 0.5775829146160E+00 -0.3423742425146E+01  0.0000000000000E+00
 0.5775875209843E+00 -0.3351084375724E+01  0.0000000000000E+00
 0.5775921273474E+00 -0.3278426405916E+01  0.0000000000000E+00
 0.5775967337047E+00 -0.3205768528653E+01  0.0000000000000E+00
 0.5776013400644E+00 -0.3133110614724E+01  0.0000000000000E+00
 0.5776059464261E+00 -0.3060452668301E+01  0.0000000000000E+00
 0.5776207126381E+00 -0.2987794659355E+01  0.0000000000000E+00
 0.5777110774219E+00 -0.2915136880472E+01  0.0000000000000E+00
 0.5779679060300E+00 -0.2842480669443E+01  0.0000000000000E+00
 0.5784740284367E+00 -0.2769829301057E+01  0.0000000000000E+00
 0.5792904145389E+00 -0.2697188458545E+01  0.0000000000000E+00
 0.5804561686988E+00 -0.2624565286044E+01  0.0000000000000E+00
 0.5819962944983E+00 -0.2551968116035E+01  0.0000000000000E+00
 0.5839306621719E+00 -0.2479405933275E+01  0.0000000000000E+00
 0.5862817504648E+00 -0.2406889453203E+01  0.0000000000000E+00
 0.5890804828851E+00 -0.2334432262545E+01  0.0000000000000E+00
 0.5923251198134E+00 -0.2262044173559E+01  0.0000000000000E+00
 0.5959703277778E+00 -0.2189726944188E+01  0.0000000000000E+00
 0.5999837448152E+00 -0.2117482252390E+01  0.0000000000000E+00
 0.6043465494057E+00 -0.2045312876833E+01  0.0000000000000E+00
 0.6090525994664E+00 -0.1973223719494E+01  0.0000000000000E+00
 0.6141113211150E+00 -0.1901223678329E+01  0.0000000000000E+00
 0.6195606212872E+00 -0.1829329962027E+01  0.0000000000000E+00
 0.6050071700463E+00 -0.4658991252418E+01  0.0000000000000E+00
 0.6050143400778E+00 -0.4586395530448E+01  0.0000000000000E+00
 0.6050215101532E+00 -0.4513799362679E+01  0.0000000000000E+00
 0.6050286802085E+00 -0.4441203398432E+01  0.0000000000000E+00
 0.6050358502624E+00 -0.4368607448621E+01  0.0000000000000E+00
 0.6050430203191E+00 -0.4296011471532E+01  0.0000000000000E+00
 0.6050501903714E+00 -0.4223415537349E+01  0.0000000000000E+00
 0.6050573604264E+00 -0.4150819576553E+01  0.0000000000000E+00
 0.6050645304809E+00 -0.4078223621089E+01  0.0000000000000E+00
 0.6050717005346E+00 -0.4005627673640E+01  0.0000000000000E+00
 0.6050788705898E+00 -0.3933031710997E+01  0.0000000000000E+00
 0.6050860406426E+00 -0.3860435772161E+01  0.0000000000000E+00
 0.6050932106985E+00 -0.3787839801641E+01  0.0000000000000E+00
 0.6051003807603E+00 -0.3715243771896E+01  0.0000000000000E+00
 0.6051075508201E+00 -0.3642647762811E+01  0.0000000000000E+00
 0.6051147208713E+00 -0.3570051840571E+01  0.0000000000000E+00
 0.6051218909858E+00 -0.3497455277418E+01  0.0000000000000E+00
 0.6051290609805E+00 -0.3424859927241E+01  0.0000000000000E+00
 0.6051362310360E+00 -0.3352263961278E+01  0.0000000000000E+00
 0.6051434010836E+00 -0.3279668074861E+01  0.0000000000000E+00
 0.6051505711222E+00 -0.3207072280909E+01  0.0000000000000E+00
 0.6051577411643E+00 -0.3134476450324E+01  0.0000000000000E+00
 0.6051649112096E+00 -0.3061880587272E+01  0.0000000000000E+00
 0.6051827264041E+00 -0.2989284661751E+01  0.0000000000000E+00
 0.6052797512201E+00 -0.2916688966257E+01  0.0000000000000E+00
 0.6055511911890E+00 -0.2844094838509E+01  0.0000000000000E+00
 0.6060838327555E+00 -0.2771505553381E+01  0.0000000000000E+00
 0.6069415581107E+00 -0.2698926794058E+01  0.0000000000000E+00
 0.6081653394835E+00 -0.2626365704746E+01  0.0000000000000E+00
 0.6097813747766E+00 -0.2553830617832E+01  0.0000000000000E+00
 0.6118104833542E+00 -0.2481330518221E+01  0.0000000000000E+00
 0.6142762176836E+00 -0.2408876121334E+01  0.0000000000000E+00
 0.6172109783622E+00 -0.2336481013715E+01  0.0000000000000E+00
 0.6206129426840E+00 -0.2264155007840E+01  0.0000000000000E+00
 0.6244346117725E+00 -0.2191899861649E+01  0.0000000000000E+00
 0.6286420778573E+00 -0.2119717253058E+01  0.0000000000000E+00
 0.6332156203890E+00 -0.2047609960779E+01  0.0000000000000E+00
 0.6381488039008E+00 -0.1975582886781E+01  0.0000000000000E+00
 0.6434515047517E+00 -0.1903644928812E+01  0.0000000000000E+00
 0.6491634405451E+00 -0.1831813295560E+01  0.0000000000000E+00
 0.6325094832707E+00 -0.4659056210343E+01  0.0000000000000E+00
 0.6325189665217E+00 -0.4586525446162E+01  0.0000000000000E+00
 0.6325284498309E+00 -0.4513994236580E+01  0.0000000000000E+00
 0.6325379331135E+00 -0.4441463230339E+01  0.0000000000000E+00
 0.6325474163943E+00 -0.4368932238522E+01  0.0000000000000E+00
 0.6325568996786E+00 -0.4296401219450E+01  0.0000000000000E+00
 0.6325663829573E+00 -0.4223870243246E+01  0.0000000000000E+00
 0.6325758662394E+00 -0.4151339240452E+01  0.0000000000000E+00
 0.6325853495209E+00 -0.4078808242986E+01  0.0000000000000E+00
 0.6325948328014E+00 -0.4006277253528E+01  0.0000000000000E+00
 0.6326043160838E+00 -0.3933746248890E+01  0.0000000000000E+00
 0.6326137993631E+00 -0.3861215268037E+01  0.0000000000000E+00
 0.6326232826465E+00 -0.3788684255529E+01  0.0000000000000E+00
 0.6326327659377E+00 -0.3716153183848E+01  0.0000000000000E+00
 0.6326422492262E+00 -0.3643622132809E+01  0.0000000000000E+00
 0.6326517325033E+00 -0.3571091168537E+01  0.0000000000000E+00
 0.6326612158642E+00 -0.3498559563925E+01  0.0000000000000E+00
 0.6326706990666E+00 -0.3426029171205E+01  0.0000000000000E+00
 0.6326801823494E+00 -0.3353498163249E+01  0.0000000000000E+00
 0.6326896656219E+00 -0.3280967234769E+01  0.0000000000000E+00
 0.6326991488823E+00 -0.3208436398670E+01  0.0000000000000E+00
 0.6327086321474E+00 -0.3135905525971E+01  0.0000000000000E+00
 0.6327181154168E+00 -0.3063374620834E+01  0.0000000000000E+00
 0.6327387291340E+00 -0.2990843653288E+01  0.0000000000000E+00
 0.6328421635227E+00 -0.2918312915727E+01  0.0000000000000E+00
 0.6331279643934E+00 -0.2845783745801E+01  0.0000000000000E+00
 0.6336868746610E+00 -0.2773259418471E+01  0.0000000000000E+00
 0.6345856888113E+00 -0.2700745616872E+01  0.0000000000000E+00
 0.6358672469395E+00 -0.2628249485287E+01  0.0000000000000E+00
 0.6375589412693E+00 -0.2555779355998E+01  0.0000000000000E+00
 0.6396825402943E+00 -0.2483344214070E+01  0.0000000000000E+00
 0.6422626702039E+00 -0.2410954774905E+01  0.0000000000000E+00
 0.6453332086857E+00 -0.2338624624854E+01  0.0000000000000E+00
 0.6488922499460E+00 -0.2266363576622E+01  0.0000000000000E+00
 0.6528901297038E+00 -0.2194173388147E+01  0.0000000000000E+00
 0.6572913943814E+00 -0.2122055737301E+01  0.0000000000000E+00
 0.6620754243999E+00 -0.2050013402840E+01  0.0000000000000E+00
 0.6672354909085E+00 -0.1978051286727E+01  0.0000000000000E+00
 0.6727819205084E+00 -0.1906178286488E+01  0.0000000000000E+00
 0.6787562414707E+00 -0.1834411610816E+01  0.0000000000000E+00
 0.6600115349916E+00 -0.4659124038777E+01  0.0000000000000E+00
 0.6600230699592E+00 -0.4586661102889E+01  0.0000000000000E+00
 0.6600346049976E+00 -0.4514197722017E+01  0.0000000000000E+00
 0.6600461400037E+00 -0.4441734544296E+01  0.0000000000000E+00
 0.6600576750075E+00 -0.4369271380984E+01  0.0000000000000E+00
 0.6600692100156E+00 -0.4296808190443E+01  0.0000000000000E+00
 0.6600807450169E+00 -0.4224345042731E+01  0.0000000000000E+00
 0.6600922800224E+00 -0.4151881868453E+01  0.0000000000000E+00
 0.6601038150271E+00 -0.4079418699498E+01  0.0000000000000E+00
 0.6601153500305E+00 -0.4006955538544E+01  0.0000000000000E+00
 0.6601268850364E+00 -0.3934492362423E+01  0.0000000000000E+00
 0.6601384200384E+00 -0.3862029210066E+01  0.0000000000000E+00
 0.6601499550455E+00 -0.3789566026083E+01  0.0000000000000E+00
 0.6601614900620E+00 -0.3717102782983E+01  0.0000000000000E+00
 0.6601730250752E+00 -0.3644639560506E+01  0.0000000000000E+00
 0.6601845600746E+00 -0.3572176424713E+01  0.0000000000000E+00
 0.6601960951758E+00 -0.3499712649181E+01  0.0000000000000E+00
 0.6602076300843E+00 -0.3427250084407E+01  0.0000000000000E+00
 0.6602191650907E+00 -0.3354786904972E+01  0.0000000000000E+00
 0.6602307000844E+00 -0.3282323804938E+01  0.0000000000000E+00
 0.6602422350634E+00 -0.3209860797199E+01  0.0000000000000E+00
 0.6602537700482E+00 -0.3137397752895E+01  0.0000000000000E+00
 0.6602653050382E+00 -0.3064934676183E+01  0.0000000000000E+00
 0.6602884557744E+00 -0.2992471537122E+01  0.0000000000000E+00
 0.6603980382323E+00 -0.2920008628006E+01  0.0000000000000E+00
 0.6606979385021E+00 -0.2847547286406E+01  0.0000000000000E+00
 0.6612828559686E+00 -0.2775090787378E+01  0.0000000000000E+00
 0.6622224974123E+00 -0.2702644814005E+01  0.0000000000000E+00
 0.6635615707948E+00 -0.2630216510647E+01  0.0000000000000E+00
 0.6653286626613E+00 -0.2557814209481E+01  0.0000000000000E+00
 0.6675464906339E+00 -0.2485446895735E+01  0.0000000000000E+00
 0.6702407546242E+00 -0.2413125284793E+01  0.0000000000000E+00
 0.6734468094109E+00 -0.2340862962804E+01  0.0000000000000E+00
 0.6771626661118E+00 -0.2268669742713E+01  0.0000000000000E+00
 0.6813364950413E+00 -0.2196547382455E+01  0.0000000000000E+00
 0.6859312968146E+00 -0.2124497559855E+01  0.0000000000000E+00
 0.6909255528227E+00 -0.2052523053717E+01  0.0000000000000E+00
 0.6963122408314E+00 -0.1980628765997E+01  0.0000000000000E+00
 0.7021021376845E+00 -0.1908823593990E+01  0.0000000000000E+00
 0.7083385823212E+00 -0.1837124746394E+01  0.0000000000000E+00
 0.6875133142182E+00 -0.4659194733517E+01  0.0000000000000E+00
 0.6875266284087E+00 -0.4586802492222E+01  0.0000000000000E+00
 0.6875399426809E+00 -0.4514409806377E+01  0.0000000000000E+00
 0.6875532569158E+00 -0.4442017323484E+01  0.0000000000000E+00
 0.6875665711481E+00 -0.4369624854987E+01  0.0000000000000E+00
 0.6875798853854E+00 -0.4297232359288E+01  0.0000000000000E+00
 0.6875931996148E+00 -0.4224839906374E+01  0.0000000000000E+00
 0.6876065138490E+00 -0.4152447426922E+01  0.0000000000000E+00
 0.6876198280823E+00 -0.4080054952788E+01  0.0000000000000E+00
 0.6876331423142E+00 -0.4007662486646E+01  0.0000000000000E+00
 0.6876464565488E+00 -0.3935270005352E+01  0.0000000000000E+00
 0.6876597707790E+00 -0.3862877547799E+01  0.0000000000000E+00
 0.6876730850151E+00 -0.3790485058651E+01  0.0000000000000E+00
 0.6876863992620E+00 -0.3718092510443E+01  0.0000000000000E+00
 0.6876997135052E+00 -0.3645699982838E+01  0.0000000000000E+00
 0.6877130277324E+00 -0.3573307541834E+01  0.0000000000000E+00
 0.6877263420771E+00 -0.3500914461714E+01  0.0000000000000E+00
 0.6877396561994E+00 -0.3428522591170E+01  0.0000000000000E+00
 0.6877529704346E+00 -0.3356130106565E+01  0.0000000000000E+00
 0.6877662846553E+00 -0.3283737701285E+01  0.0000000000000E+00
 0.6877795988589E+00 -0.3211345388209E+01  0.0000000000000E+00
 0.6877929130693E+00 -0.3138953038603E+01  0.0000000000000E+00
 0.6878062272857E+00 -0.3066560656621E+01  0.0000000000000E+00
 0.6878316425464E+00 -0.2994168212354E+01  0.0000000000000E+00
 0.6879471005793E+00 -0.2921775997988E+01  0.0000000000000E+00
 0.6882608277547E+00 -0.2849385351017E+01  0.0000000000000E+00
 0.6888714799273E+00 -0.2776999546590E+01  0.0000000000000E+00
 0.6898516761724E+00 -0.2704624267741E+01  0.0000000000000E+00
 0.6912479923176E+00 -0.2632266658906E+01  0.0000000000000E+00
 0.6930902092303E+00 -0.2559935052156E+01  0.0000000000000E+00
 0.6954019936605E+00 -0.2487638432887E+01  0.0000000000000E+00
 0.6982101192422E+00 -0.2415387516464E+01  0.0000000000000E+00
 0.7015514178457E+00 -0.2343195888828E+01  0.0000000000000E+00
 0.7054238174997E+00 -0.2271073363171E+01  0.0000000000000E+00
 0.7097733231136E+00 -0.2199021697426E+01  0.0000000000000E+00
 0.7145613894959E+00 -0.2127042569371E+01  0.0000000000000E+00
 0.7197655990073E+00 -0.2055138757856E+01  0.0000000000000E+00
 0.7253786360298E+00 -0.1983315164833E+01  0.0000000000000E+00
 0.7314117276514E+00 -0.1911580687357E+01  0.0000000000000E+00
 0.7379100234788E+00 -0.1839952534126E+01  0.0000000000000E+00
 0.7150148100149E+00 -0.4659268290191E+01  0.0000000000000E+00
 0.7150296199990E+00 -0.4586949605417E+01  0.0000000000000E+00
 0.7150444300741E+00 -0.4514630476544E+01  0.0000000000000E+00
 0.7150592401076E+00 -0.4442311550418E+01  0.0000000000000E+00
 0.7150740501382E+00 -0.4369992638672E+01  0.0000000000000E+00
 0.7150888601743E+00 -0.4297673699752E+01  0.0000000000000E+00
 0.7151036702017E+00 -0.4225354803575E+01  0.0000000000000E+00
 0.7151184802345E+00 -0.4153035880886E+01  0.0000000000000E+00
 0.7151332902662E+00 -0.4080716963508E+01  0.0000000000000E+00
 0.7151481002963E+00 -0.4008398054116E+01  0.0000000000000E+00
 0.7151629103295E+00 -0.3936079129587E+01  0.0000000000000E+00
 0.7151777203579E+00 -0.3863760228774E+01  0.0000000000000E+00
 0.7151925303927E+00 -0.3791441296399E+01  0.0000000000000E+00
 0.7152073404395E+00 -0.3719122305024E+01  0.0000000000000E+00
 0.7152221504822E+00 -0.3646803334230E+01  0.0000000000000E+00
 0.7152369605072E+00 -0.3574484449950E+01  0.0000000000000E+00
 0.7152517706629E+00 -0.3502164927202E+01  0.0000000000000E+00
 0.7152665805711E+00 -0.3429846612803E+01  0.0000000000000E+00
 0.7152813906050E+00 -0.3357527684966E+01  0.0000000000000E+00
 0.7152962006226E+00 -0.3285208836373E+01  0.0000000000000E+00
 0.7153110106214E+00 -0.3212890079891E+01  0.0000000000000E+00
 0.7153258206276E+00 -0.3140571286916E+01  0.0000000000000E+00
 0.7153406306405E+00 -0.3068252461598E+01  0.0000000000000E+00
 0.7153680269957E+00 -0.2995933574060E+01  0.0000000000000E+00
 0.7154890771739E+00 -0.2923614916380E+01  0.0000000000000E+00
 0.7158163478261E+00 -0.2851297825966E+01  0.0000000000000E+00
 0.7164524512764E+00 -0.2778985578070E+01  0.0000000000000E+00
 0.7174729188955E+00 -0.2706683855668E+01  0.0000000000000E+00
 0.7189261943769E+00 -0.2634399803283E+01  0.0000000000000E+00
 0.7208432529104E+00 -0.2562141752869E+01  0.0000000000000E+00
 0.7232487103733E+00 -0.2489918690001E+01  0.0000000000000E+00
 0.7261704141222E+00 -0.2417741330022E+01  0.0000000000000E+00
 0.7296466731201E+00 -0.2345623258656E+01  0.0000000000000E+00
 0.7336753323051E+00 -0.2273574289355E+01  0.0000000000000E+00
 0.7382002311820E+00 -0.2201596180048E+01  0.0000000000000E+00
 0.7431812787523E+00 -0.2129690608463E+01  0.0000000000000E+00
 0.7485951583465E+00 -0.2057860353502E+01  0.0000000000000E+00
 0.7544342609629E+00 -0.1986110317108E+01  0.0000000000000E+00
 0.7607102639342E+00 -0.1914449396087E+01  0.0000000000000E+00
 0.7674701275352E+00 -0.1842894799141E+01  0.0000000000000E+00
 0.7425160112565E+00 -0.4659344704234E+01  0.0000000000000E+00
 0.7425320224796E+00 -0.4587102433343E+01  0.0000000000000E+00
 0.7425480338010E+00 -0.4514859718823E+01  0.0000000000000E+00
 0.7425640450775E+00 -0.4442617206834E+01  0.0000000000000E+00
 0.7425800563509E+00 -0.4370374709212E+01  0.0000000000000E+00
 0.7425960676302E+00 -0.4298132184444E+01  0.0000000000000E+00
 0.7426120789002E+00 -0.4225889702373E+01  0.0000000000000E+00
 0.7426280901759E+00 -0.4153647193819E+01  0.0000000000000E+00
 0.7426441014505E+00 -0.4081404690570E+01  0.0000000000000E+00
 0.7426601127234E+00 -0.4009162195299E+01  0.0000000000000E+00
 0.7426761239995E+00 -0.3936919684906E+01  0.0000000000000E+00
 0.7426921352705E+00 -0.3864677198205E+01  0.0000000000000E+00
 0.7427081465484E+00 -0.3792434679975E+01  0.0000000000000E+00
 0.7427241578394E+00 -0.3720192102807E+01  0.0000000000000E+00
 0.7427401691258E+00 -0.3647949546199E+01  0.0000000000000E+00
 0.7427561803931E+00 -0.3575707076013E+01  0.0000000000000E+00
 0.7427721918017E+00 -0.3503463968034E+01  0.0000000000000E+00
 0.7427882029428E+00 -0.3431222067126E+01  0.0000000000000E+00
 0.7428042142197E+00 -0.3358979553430E+01  0.0000000000000E+00
 0.7428202254791E+00 -0.3286737118893E+01  0.0000000000000E+00
 0.7428362367181E+00 -0.3214494776370E+01  0.0000000000000E+00
 0.7428522479651E+00 -0.3142252397393E+01  0.0000000000000E+00
 0.7428682592193E+00 -0.3070009986107E+01  0.0000000000000E+00
 0.7428973421134E+00 -0.2997767512669E+01  0.0000000000000E+00
 0.7430236898812E+00 -0.2925525269043E+01  0.0000000000000E+00
 0.7433642094537E+00 -0.2853284592550E+01  0.0000000000000E+00
 0.7440254696239E+00 -0.2781048758547E+01  0.0000000000000E+00
 0.7450859140576E+00 -0.2708823449953E+01  0.0000000000000E+00
 0.7465958543135E+00 -0.2636615811377E+01  0.0000000000000E+00
 0.7485874599040E+00 -0.2564434174655E+01  0.0000000000000E+00
 0.7510862958333E+00 -0.2492287525545E+01  0.0000000000000E+00
 0.7541212831801E+00 -0.2420186579370E+01  0.0000000000000E+00
 0.7577322080008E+00 -0.2348144921627E+01  0.0000000000000E+00
 0.7619168321423E+00 -0.2276172366038E+01  0.0000000000000E+00
 0.7666168297047E+00 -0.2204270670529E+01  0.0000000000000E+00
 0.7717905638831E+00 -0.2132441512775E+01  0.0000000000000E+00
 0.7774138189777E+00 -0.2060687671731E+01  0.0000000000000E+00
 0.7834786926029E+00 -0.1989014049333E+01  0.0000000000000E+00
 0.7899973123374E+00 -0.1917429542126E+01  0.0000000000000E+00
 0.7970184491235E+00 -0.1845951358818E+01  0.0000000000000E+00
 0.7700169072712E+00 -0.4659423970956E+01  0.0000000000000E+00
 0.7700338145071E+00 -0.4587260966622E+01  0.0000000000000E+00
 0.7700507218469E+00 -0.4515097519146E+01  0.0000000000000E+00
 0.7700676291392E+00 -0.4442934273980E+01  0.0000000000000E+00
 0.7700845364282E+00 -0.4370771043164E+01  0.0000000000000E+00
 0.7701014437236E+00 -0.4298607785231E+01  0.0000000000000E+00
 0.7701183510089E+00 -0.4226444569949E+01  0.0000000000000E+00
 0.7701352583005E+00 -0.4154281328213E+01  0.0000000000000E+00
 0.7701521655908E+00 -0.4082118091776E+01  0.0000000000000E+00
 0.7701690728792E+00 -0.4009954863308E+01  0.0000000000000E+00
 0.7701859801712E+00 -0.3937791619736E+01  0.0000000000000E+00
 0.7702028874577E+00 -0.3865628399829E+01  0.0000000000000E+00
 0.7702197947515E+00 -0.3793465148427E+01  0.0000000000000E+00
 0.7702367020591E+00 -0.3721301838152E+01  0.0000000000000E+00
 0.7702536093619E+00 -0.3649138548415E+01  0.0000000000000E+00
 0.7702705166445E+00 -0.3576975345005E+01  0.0000000000000E+00
 0.7702874240763E+00 -0.3504811504502E+01  0.0000000000000E+00
 0.7703043312257E+00 -0.3432648869745E+01  0.0000000000000E+00
 0.7703212385184E+00 -0.3360485622873E+01  0.0000000000000E+00
 0.7703381457926E+00 -0.3288322455072E+01  0.0000000000000E+00
 0.7703550530453E+00 -0.3216159379186E+01  0.0000000000000E+00
 0.7703719603066E+00 -0.3143996266884E+01  0.0000000000000E+00
 0.7703888675754E+00 -0.3071833122309E+01  0.0000000000000E+00
 0.7704193317813E+00 -0.2999669915654E+01  0.0000000000000E+00
 0.7705506719117E+00 -0.2927506938761E+01  0.0000000000000E+00
 0.7709041351781E+00 -0.2855345528865E+01  0.0000000000000E+00
 0.7715902468416E+00 -0.2783188961430E+01  0.0000000000000E+00
 0.7726903628635E+00 -0.2711042919314E+01  0.0000000000000E+00
 0.7742566626671E+00 -0.2638914547219E+01  0.0000000000000E+00
 0.7763225100882E+00 -0.2566812176855E+01  0.0000000000000E+00
 0.7789144192568E+00 -0.2494744794173E+01  0.0000000000000E+00
 0.7820623849740E+00 -0.2422723114472E+01  0.0000000000000E+00
 0.7858076703905E+00 -0.2350760723017E+01  0.0000000000000E+00
 0.7901479542606E+00 -0.2278867433808E+01  0.0000000000000E+00
 0.7950227452801E+00 -0.2207045004767E+01  0.0000000000000E+00
 0.8003888608380E+00 -0.2135295113515E+01  0.0000000000000E+00
 0.8062211862034E+00 -0.2063620539063E+01  0.0000000000000E+00
 0.8125115256075E+00 -0.1992026183340E+01  0.0000000000000E+00
 0.8192724568757E+00 -0.1920520942619E+01  0.0000000000000E+00
 0.8265545616180E+00 -0.1849122025614E+01  0.0000000000000E+00
 0.7975174873666E+00 -0.4659506085499E+01  0.0000000000000E+00
 0.7975349746967E+00 -0.4587425195538E+01  0.0000000000000E+00
 0.7975524621343E+00 -0.4515343862938E+01  0.0000000000000E+00
 0.7975699495228E+00 -0.4443262732417E+01  0.0000000000000E+00
 0.7975874369078E+00 -0.4371181616231E+01  0.0000000000000E+00
 0.7976049242994E+00 -0.4299100472959E+01  0.0000000000000E+00
 0.7976224116807E+00 -0.4227019372289E+01  0.0000000000000E+00
 0.7976398990684E+00 -0.4154938245195E+01  0.0000000000000E+00
 0.7976573864548E+00 -0.4082857123395E+01  0.0000000000000E+00
 0.7976748738393E+00 -0.4010776009554E+01  0.0000000000000E+00
 0.7976923612274E+00 -0.3938694880626E+01  0.0000000000000E+00
 0.7977098486098E+00 -0.3866613775336E+01  0.0000000000000E+00
 0.7977273359998E+00 -0.3794532638587E+01  0.0000000000000E+00
 0.7977448234041E+00 -0.3722451443033E+01  0.0000000000000E+00
 0.7977623108034E+00 -0.3650370267993E+01  0.0000000000000E+00
 0.7977797981818E+00 -0.3578289179181E+01  0.0000000000000E+00
 0.7977972857146E+00 -0.3506207454001E+01  0.0000000000000E+00
 0.7978147729552E+00 -0.3434126933196E+01  0.0000000000000E+00
 0.7978322603441E+00 -0.3362045800972E+01  0.0000000000000E+00
 0.7978497477139E+00 -0.3289964747730E+01  0.0000000000000E+00
 0.7978672350614E+00 -0.3217883786296E+01  0.0000000000000E+00
 0.7978847224177E+00 -0.3145802788489E+01  0.0000000000000E+00
 0.7979022097818E+00 -0.3073721758446E+01  0.0000000000000E+00
 0.7979337393802E+00 -0.3001640666396E+01  0.0000000000000E+00
 0.7980697559540E+00 -0.2929559804059E+01  0.0000000000000E+00
 0.7984358469961E+00 -0.2857480508576E+01  0.0000000000000E+00
 0.7991464942352E+00 -0.2785406055523E+01  0.0000000000000E+00
 0.8002859659286E+00 -0.2713342127699E+01  0.0000000000000E+00
 0.8019083093641E+00 -0.2641295869896E+01  0.0000000000000E+00
 0.8040480827013E+00 -0.2569275613697E+01  0.0000000000000E+00
 0.8067327491951E+00 -0.2497290345253E+01  0.0000000000000E+00
 0.8099933773693E+00 -0.2425350779840E+01  0.0000000000000E+00
 0.8138727074699E+00 -0.2353470502477E+01  0.0000000000000E+00
 0.8183683351576E+00 -0.2281659327455E+01  0.0000000000000E+00
 0.8234176037235E+00 -0.2209919012694E+01  0.0000000000000E+00
 0.8289757847507E+00 -0.2138251235758E+01  0.0000000000000E+00
 0.8350168644774E+00 -0.2066658775715E+01  0.0000000000000E+00
 0.8415323537512E+00 -0.1995146534484E+01  0.0000000000000E+00
 0.8485352806454E+00 -0.1923723408063E+01  0.0000000000000E+00
 0.8560780374376E+00 -0.1852406605166E+01  0.0000000000000E+00
 0.8250177408470E+00 -0.4659591042836E+01  0.0000000000000E+00
 0.8250354816571E+00 -0.4587595110033E+01  0.0000000000000E+00
 0.8250532225761E+00 -0.4515598735114E+01  0.0000000000000E+00
 0.8250709634454E+00 -0.4443602562037E+01  0.0000000000000E+00
 0.8250887043112E+00 -0.4371606403276E+01  0.0000000000000E+00
 0.8251064451836E+00 -0.4299610217462E+01  0.0000000000000E+00
 0.8251241860456E+00 -0.4227614074200E+01  0.0000000000000E+00
 0.8251419269140E+00 -0.4155617904545E+01  0.0000000000000E+00
 0.8251596677812E+00 -0.4083621740177E+01  0.0000000000000E+00
 0.8251774086463E+00 -0.4011625583759E+01  0.0000000000000E+00
 0.8251951495152E+00 -0.3939629412272E+01  0.0000000000000E+00
 0.8252128903783E+00 -0.3867633264395E+01  0.0000000000000E+00
 0.8252306312491E+00 -0.3795637085097E+01  0.0000000000000E+00
 0.8252483721344E+00 -0.3723640847062E+01  0.0000000000000E+00
 0.8252661130147E+00 -0.3651644629517E+01  0.0000000000000E+00
 0.8252838538737E+00 -0.3579648498099E+01  0.0000000000000E+00
 0.8253015948893E+00 -0.3507651731063E+01  0.0000000000000E+00
 0.8253193356086E+00 -0.3435656166982E+01  0.0000000000000E+00
 0.8253370764783E+00 -0.3363659992202E+01  0.0000000000000E+00
 0.8253548173285E+00 -0.3291663896312E+01  0.0000000000000E+00
 0.8253725581562E+00 -0.3219667892122E+01  0.0000000000000E+00
 0.8253902989928E+00 -0.3147671851602E+01  0.0000000000000E+00
 0.8254080398374E+00 -0.3075675778883E+01  0.0000000000000E+00
 0.8254403082130E+00 -0.3003679644234E+01  0.0000000000000E+00
 0.8255806746155E+00 -0.2931683739246E+01  0.0000000000000E+00
 0.8259590668194E+00 -0.2859689400964E+01  0.0000000000000E+00
 0.8266939230211E+00 -0.2787699905082E+01  0.0000000000000E+00
 0.8278724237742E+00 -0.2715720934332E+01  0.0000000000000E+00
 0.8295504842306E+00 -0.2643759633606E+01  0.0000000000000E+00
 0.8317638568742E+00 -0.2571824334354E+01  0.0000000000000E+00
 0.8345409540844E+00 -0.2499924022930E+01  0.0000000000000E+00
 0.8379139181077E+00 -0.2428069414587E+01  0.0000000000000E+00
 0.8419269662863E+00 -0.2356274094095E+01  0.0000000000000E+00
 0.8465776111862E+00 -0.2284547876042E+01  0.0000000000000E+00
 0.8518010306940E+00 -0.2212892518345E+01  0.0000000000000E+00
 0.8575509505866E+00 -0.2141309698510E+01  0.0000000000000E+00
 0.8638004580713E+00 -0.2069802195663E+01  0.0000000000000E+00
 0.8705407706120E+00 -0.1998374911717E+01  0.0000000000000E+00
 0.8777853665310E+00 -0.1927036742379E+01  0.0000000000000E+00
 0.8855884487738E+00 -0.1855804896368E+01  0.0000000000000E+00
 0.8525176570821E+00 -0.4659678837778E+01  0.0000000000000E+00
 0.8525353141273E+00 -0.4587770699734E+01  0.0000000000000E+00
 0.8525529712811E+00 -0.4515862120114E+01  0.0000000000000E+00
 0.8525706283853E+00 -0.4443953742088E+01  0.0000000000000E+00
 0.8525882854860E+00 -0.4372045378363E+01  0.0000000000000E+00
 0.8526059425933E+00 -0.4300136987617E+01  0.0000000000000E+00
 0.8526235996902E+00 -0.4228228639370E+01  0.0000000000000E+00
 0.8526412567936E+00 -0.4156320264763E+01  0.0000000000000E+00
 0.8526589138956E+00 -0.4084411895437E+01  0.0000000000000E+00
 0.8526765709957E+00 -0.4012503534050E+01  0.0000000000000E+00
 0.8526942280996E+00 -0.3940595157614E+01  0.0000000000000E+00
 0.8527118851976E+00 -0.3868686804758E+01  0.0000000000000E+00
 0.8527295423033E+00 -0.3796778420520E+01  0.0000000000000E+00
 0.8527471994235E+00 -0.3724869977616E+01  0.0000000000000E+00
 0.8527648565386E+00 -0.3652961555178E+01  0.0000000000000E+00
 0.8527825136326E+00 -0.3581053218760E+01  0.0000000000000E+00
 0.8528001708824E+00 -0.3509144247501E+01  0.0000000000000E+00
 0.8528178278373E+00 -0.3437236477730E+01  0.0000000000000E+00
 0.8528354849419E+00 -0.3365328098005E+01  0.0000000000000E+00
 0.8528531420272E+00 -0.3293419797072E+01  0.0000000000000E+00
 0.8528707990900E+00 -0.3221511587729E+01  0.0000000000000E+00
 0.8528884561617E+00 -0.3149603342098E+01  0.0000000000000E+00
 0.8529061132413E+00 -0.3077695064310E+01  0.0000000000000E+00
 0.8529387831484E+00 -0.3005786724669E+01  0.0000000000000E+00
 0.8530831621344E+00 -0.2933878614636E+01  0.0000000000000E+00
 0.8534735182559E+00 -0.2861972071157E+01  0.0000000000000E+00
 0.8542322461771E+00 -0.2790070370046E+01  0.0000000000000E+00
 0.8554494387479E+00 -0.2718179193968E+01  0.0000000000000E+00
 0.8571828789842E+00 -0.2646305687916E+01  0.0000000000000E+00
 0.8594695136951E+00 -0.2574458183202E+01  0.0000000000000E+00
 0.8623387043834E+00 -0.2502645666394E+01  0.0000000000000E+00
 0.8658236670186E+00 -0.2430878852720E+01  0.0000000000000E+00
 0.8699700960402E+00 -0.2359171326688E+01  0.0000000000000E+00
 0.8747754209183E+00 -0.2287532903197E+01  0.0000000000000E+00
 0.8801726541347E+00 -0.2215965340160E+01  0.0000000000000E+00
 0.8861139756606E+00 -0.2144470315024E+01  0.0000000000000E+00
 0.8925715736717E+00 -0.2073050606976E+01  0.0000000000000E+00
 0.8995363722484E+00 -0.2001711117918E+01  0.0000000000000E+00
 0.9070222999633E+00 -0.1930460743261E+01  0.0000000000000E+00
 0.9150853704297E+00 -0.1859316691727E+01  0.0000000000000E+00
 0.8800172252787E+00 -0.4659769464950E+01  0.0000000000000E+00
 0.8800344505215E+00 -0.4587951953890E+01  0.0000000000000E+00
 0.8800516758700E+00 -0.4516134001809E+01  0.0000000000000E+00
 0.8800689011703E+00 -0.4444316251069E+01  0.0000000000000E+00
 0.8800861264672E+00 -0.4372498514612E+01  0.0000000000000E+00
 0.8801033517705E+00 -0.4300680751167E+01  0.0000000000000E+00
 0.8801205770637E+00 -0.4228863030169E+01  0.0000000000000E+00
 0.8801378023631E+00 -0.4157045282843E+01  0.0000000000000E+00
 0.8801550276613E+00 -0.4085227540792E+01  0.0000000000000E+00
 0.8801722529576E+00 -0.4013409806670E+01  0.0000000000000E+00
 0.8801894782575E+00 -0.3941592057517E+01  0.0000000000000E+00
 0.8802067035518E+00 -0.3869774331916E+01  0.0000000000000E+00
 0.8802239288535E+00 -0.3797956574971E+01  0.0000000000000E+00
 0.8802411541693E+00 -0.3726138759435E+01  0.0000000000000E+00
 0.8802583794803E+00 -0.3654320964338E+01  0.0000000000000E+00
 0.8802756047706E+00 -0.3582503255154E+01  0.0000000000000E+00
 0.8802928302130E+00 -0.3510684911929E+01  0.0000000000000E+00
 0.8803100553675E+00 -0.3438867768677E+01  0.0000000000000E+00
 0.8803272806682E+00 -0.3367050016239E+01  0.0000000000000E+00
 0.8803445059500E+00 -0.3295232342495E+01  0.0000000000000E+00
 0.8803617312099E+00 -0.3223414760225E+01  0.0000000000000E+00
 0.8803789564785E+00 -0.3151597141714E+01  0.0000000000000E+00
 0.8803961817547E+00 -0.3079779491084E+01  0.0000000000000E+00
 0.8804289051548E+00 -0.3007961778684E+01  0.0000000000000E+00
 0.8805769486853E+00 -0.2936144295837E+01  0.0000000000000E+00
 0.8809789206855E+00 -0.2864328379386E+01  0.0000000000000E+00
 0.8817611722860E+00 -0.2792517305270E+01  0.0000000000000E+00
 0.8830167086335E+00 -0.2720716756086E+01  0.0000000000000E+00
 0.8848051806072E+00 -0.2648933876929E+01  0.0000000000000E+00
 0.8871647293415E+00 -0.2577176998972E+01  0.0000000000000E+00
 0.8901256654619E+00 -0.2505455108999E+01  0.0000000000000E+00
 0.8937222786608E+00 -0.2433778922213E+01  0.0000000000000E+00
 0.8980017404761E+00 -0.2362162022856E+01  0.0000000000000E+00
 0.9029613972806E+00 -0.2290614226146E+01  0.0000000000000E+00
 0.9085320961515E+00 -0.2219137289990E+01  0.0000000000000E+00
 0.9146644712548E+00 -0.2147732891775E+01  0.0000000000000E+00
 0.9213298117345E+00 -0.2076403810750E+01  0.0000000000000E+00
 0.9285187482873E+00 -0.2005154948809E+01  0.0000000000000E+00
 0.9362456597375E+00 -0.1933995201054E+01  0.0000000000000E+00
 0.9445683703660E+00 -0.1862941776213E+01  0.0000000000000E+00
 0.9075164349346E+00 -0.4659862918846E+01  0.0000000000000E+00
 0.9075328698350E+00 -0.4588138861488E+01  0.0000000000000E+00
 0.9075493048363E+00 -0.4516414363684E+01  0.0000000000000E+00
 0.9075657397915E+00 -0.4444690066958E+01  0.0000000000000E+00
 0.9075821747434E+00 -0.4372965784495E+01  0.0000000000000E+00
 0.9075986097015E+00 -0.4301241475081E+01  0.0000000000000E+00
 0.9076150446499E+00 -0.4229517208058E+01  0.0000000000000E+00
 0.9076314796044E+00 -0.4157792914741E+01  0.0000000000000E+00
 0.9076479145576E+00 -0.4086068626692E+01  0.0000000000000E+00
 0.9076643495090E+00 -0.4014344346563E+01  0.0000000000000E+00
 0.9076807844639E+00 -0.3942620051422E+01  0.0000000000000E+00
 0.9076972194133E+00 -0.3870895779802E+01  0.0000000000000E+00
 0.9077136543699E+00 -0.3799171476878E+01  0.0000000000000E+00
 0.9077300893400E+00 -0.3727447115440E+01  0.0000000000000E+00
 0.9077465243053E+00 -0.3655722774415E+01  0.0000000000000E+00
 0.9077629592511E+00 -0.3583998519191E+01  0.0000000000000E+00
 0.9077793943419E+00 -0.3512273630750E+01  0.0000000000000E+00
 0.9077958291580E+00 -0.3440549940721E+01  0.0000000000000E+00
 0.9078122641136E+00 -0.3368825642300E+01  0.0000000000000E+00
 0.9078286990512E+00 -0.3297101422470E+01  0.0000000000000E+00
 0.9078451339679E+00 -0.3225377293994E+01  0.0000000000000E+00
 0.9078615688929E+00 -0.3153653129324E+01  0.0000000000000E+00
 0.9078780038252E+00 -0.3081928932578E+01  0.0000000000000E+00
 0.9079104221770E+00 -0.3010204674146E+01  0.0000000000000E+00
 0.9080617717110E+00 -0.2938480645209E+01  0.0000000000000E+00
 0.9084750010487E+00 -0.2866758182507E+01  0.0000000000000E+00
 0.9092804177864E+00 -0.2795040562104E+01  0.0000000000000E+00
 0.9105739393675E+00 -0.2723333466530E+01  0.0000000000000E+00
 0.9124170845339E+00 -0.2651644040984E+01  0.0000000000000E+00
 0.9148491887460E+00 -0.2579980616494E+01  0.0000000000000E+00
 0.9179015117509E+00 -0.2508352180070E+01  0.0000000000000E+00
 0.9216094169639E+00 -0.2436769446890E+01  0.0000000000000E+00
 0.9260215530222E+00 -0.2365246000917E+01  0.0000000000000E+00
 0.9311351832001E+00 -0.2293791657698E+01  0.0000000000000E+00
 0.9368789891704E+00 -0.2222408175140E+01  0.0000000000000E+00
 0.9432020592942E+00 -0.2151097230562E+01  0.0000000000000E+00
 0.9500747836836E+00 -0.2079861603281E+01  0.0000000000000E+00
 0.9574874996521E+00 -0.2008706195179E+01  0.0000000000000E+00
 0.9654550362763E+00 -0.1937639901043E+01  0.0000000000000E+00
 0.9740370285046E+00 -0.1866679929603E+01  0.0000000000000E+00
 0.9350152758224E+00 -0.4659959193836E+01  0.0000000000000E+00
 0.9350305516130E+00 -0.4588331411267E+01  0.0000000000000E+00
 0.9350458274974E+00 -0.4516703188842E+01  0.0000000000000E+00
 0.9350611033390E+00 -0.4445075167227E+01  0.0000000000000E+00
 0.9350763791775E+00 -0.4373447159855E+01  0.0000000000000E+00
 0.9350916550218E+00 -0.4301819125568E+01  0.0000000000000E+00
 0.9351069308570E+00 -0.4230191133616E+01  0.0000000000000E+00
 0.9351222066979E+00 -0.4158563115405E+01  0.0000000000000E+00
 0.9351374825376E+00 -0.4086935102455E+01  0.0000000000000E+00
 0.9351527583756E+00 -0.4015307097413E+01  0.0000000000000E+00
 0.9351680342168E+00 -0.3943679077380E+01  0.0000000000000E+00
 0.9351833100531E+00 -0.3872051080837E+01  0.0000000000000E+00
 0.9351985858960E+00 -0.3800423053032E+01  0.0000000000000E+00
 0.9352138617513E+00 -0.3728794966791E+01  0.0000000000000E+00
 0.9352291376023E+00 -0.3657166900936E+01  0.0000000000000E+00
 0.9352444134350E+00 -0.3585538920767E+01  0.0000000000000E+00
 0.9352596894026E+00 -0.3513910308230E+01  0.0000000000000E+00
 0.9352749651150E+00 -0.3442282892497E+01  0.0000000000000E+00
 0.9352902409569E+00 -0.3370654869188E+01  0.0000000000000E+00
 0.9353055167821E+00 -0.3299026924365E+01  0.0000000000000E+00
 0.9353207925879E+00 -0.3227399070774E+01  0.0000000000000E+00
 0.9353360684013E+00 -0.3155771181037E+01  0.0000000000000E+00
 0.9353513442216E+00 -0.3084143259268E+01  0.0000000000000E+00
 0.9353830887569E+00 -0.3012515275898E+01  0.0000000000000E+00
 0.9355373755264E+00 -0.2940887521964E+01  0.0000000000000E+00
 0.9359614934350E+00 -0.2869261334099E+01  0.0000000000000E+00
 0.9367897065442E+00 -0.2797639988499E+01  0.0000000000000E+00
 0.9381208445946E+00 -0.2726029167618E+01  0.0000000000000E+00
 0.9400182941908E+00 -0.2654436016767E+01  0.0000000000000E+00
 0.9425225851194E+00 -0.2582868866825E+01  0.0000000000000E+00
 0.9456659262486E+00 -0.2511336705033E+01  0.0000000000000E+00
 0.9494847547168E+00 -0.2439850246541E+01  0.0000000000000E+00
 0.9540291962613E+00 -0.2368423075029E+01  0.0000000000000E+00
 0.9592964310570E+00 -0.2297065006384E+01  0.0000000000000E+00
 0.9652129753722E+00 -0.2225777798506E+01  0.0000000000000E+00
 0.9717263717630E+00 -0.2154563128652E+01  0.0000000000000E+00
 0.9788061113094E+00 -0.2083423776202E+01  0.0000000000000E+00
 0.9864422379415E+00 -0.2012364643031E+01  0.0000000000000E+00
 0.9946500309898E+00 -0.1941394623598E+01  0.0000000000000E+00
 0.1003490936070E+01 -0.1870530926638E+01  0.0000000000000E+00
 0.9625137375899E+00 -0.4660058284109E+01  0.0000000000000E+00
 0.9625274751513E+00 -0.4588529591607E+01  0.0000000000000E+00
 0.9625412127970E+00 -0.4517000459858E+01  0.0000000000000E+00
 0.9625549504041E+00 -0.4445471528639E+01  0.0000000000000E+00
 0.9625686880086E+00 -0.4373942611646E+01  0.0000000000000E+00
 0.9625824256182E+00 -0.4302413667774E+01  0.0000000000000E+00
 0.9625961632197E+00 -0.4230884766178E+01  0.0000000000000E+00
 0.9626099008262E+00 -0.4159355838359E+01  0.0000000000000E+00
 0.9626236384317E+00 -0.4087826915795E+01  0.0000000000000E+00
 0.9626373760357E+00 -0.4016298001128E+01  0.0000000000000E+00
 0.9626511136426E+00 -0.3944769071490E+01  0.0000000000000E+00
 0.9626648512449E+00 -0.3873240165310E+01  0.0000000000000E+00
 0.9626785888533E+00 -0.3801711227911E+01  0.0000000000000E+00
 0.9626923264728E+00 -0.3730182232157E+01  0.0000000000000E+00
 0.9627060640885E+00 -0.3658653256760E+01  0.0000000000000E+00
 0.9627198016877E+00 -0.3587124366931E+01  0.0000000000000E+00
 0.9627335394082E+00 -0.3515594845610E+01  0.0000000000000E+00
 0.9627472768992E+00 -0.3444066519436E+01  0.0000000000000E+00
 0.9627610145067E+00 -0.3372537586527E+01  0.0000000000000E+00
 0.9627747520991E+00 -0.3301008731995E+01  0.0000000000000E+00
 0.9627884896741E+00 -0.3229479968569E+01  0.0000000000000E+00
 0.9628022272560E+00 -0.3157951169047E+01  0.0000000000000E+00
 0.9628159648440E+00 -0.3086422337537E+01  0.0000000000000E+00
 0.9628466564423E+00 -0.3014893444515E+01  0.0000000000000E+00
 0.9630035013274E+00 -0.2943364780869E+01  0.0000000000000E+00
 0.9634381286881E+00 -0.2871837683121E+01  0.0000000000000E+00
 0.9642887590514E+00 -0.2800315427600E+01  0.0000000000000E+00
 0.9656571344553E+00 -0.2728803696687E+01  0.0000000000000E+00
 0.9676085093668E+00 -0.2657309635808E+01  0.0000000000000E+00
 0.9701846078996E+00 -0.2585841575683E+01  0.0000000000000E+00
 0.9734185880421E+00 -0.2514408503796E+01  0.0000000000000E+00
 0.9773479606558E+00 -0.2443021135268E+01  0.0000000000000E+00
 0.9820243285798E+00 -0.2371693053486E+01  0.0000000000000E+00
 0.9874447888878E+00 -0.2300434074685E+01  0.0000000000000E+00
 0.9935336924435E+00 -0.2229245956763E+01  0.0000000000000E+00
 0.1000237035998E+01 -0.2158130376907E+01  0.0000000000000E+00
 0.1007523411600E+01 -0.2087090114568E+01  0.0000000000000E+00
 0.1015382569795E+01 -0.2016130071610E+01  0.0000000000000E+00
 0.1023830240168E+01 -0.1945259142154E+01  0.0000000000000E+00
 0.1032929679005E+01 -0.1874494534943E+01  0.0000000000000E+00
 0.9900118099595E+00 -0.4660160183706E+01  0.0000000000000E+00
 0.9900236198944E+00 -0.4588733390588E+01  0.0000000000000E+00
 0.9900354299019E+00 -0.4517306158849E+01  0.0000000000000E+00
 0.9900472398762E+00 -0.4445879127356E+01  0.0000000000000E+00
 0.9900590498481E+00 -0.4374452110066E+01  0.0000000000000E+00
 0.9900708598246E+00 -0.4303025065937E+01  0.0000000000000E+00
 0.9900826697940E+00 -0.4231598064023E+01  0.0000000000000E+00
 0.9900944797677E+00 -0.4160171035925E+01  0.0000000000000E+00
 0.9901062897406E+00 -0.4088744013072E+01  0.0000000000000E+00
 0.9901180997122E+00 -0.4017316998107E+01  0.0000000000000E+00
 0.9901299096863E+00 -0.3945889968191E+01  0.0000000000000E+00
 0.9901417196565E+00 -0.3874462961699E+01  0.0000000000000E+00
 0.9901535296318E+00 -0.3803035924034E+01  0.0000000000000E+00
 0.9901653396168E+00 -0.3731608828097E+01  0.0000000000000E+00
 0.9901771495984E+00 -0.3660181752487E+01  0.0000000000000E+00
 0.9901889595659E+00 -0.3588754762324E+01  0.0000000000000E+00
 0.9902007696377E+00 -0.3517327141568E+01  0.0000000000000E+00
 0.9902125795121E+00 -0.3445900714257E+01  0.0000000000000E+00
 0.9902243894867E+00 -0.3374473681074E+01  0.0000000000000E+00
 0.9902361994483E+00 -0.3303046726158E+01  0.0000000000000E+00
 0.9902480093950E+00 -0.3231619862217E+01  0.0000000000000E+00
 0.9902598193475E+00 -0.3160192962233E+01  0.0000000000000E+00
 0.9902716293054E+00 -0.3088766030305E+01  0.0000000000000E+00
 0.9903008785684E+00 -0.3017339036957E+01  0.0000000000000E+00
 0.9904598921716E+00 -0.2945912272923E+01  0.0000000000000E+00
 0.9909046395882E+00 -0.2874487074610E+01  0.0000000000000E+00
 0.9917772978107E+00 -0.2803066718486E+01  0.0000000000000E+00
 0.9931825211753E+00 -0.2731656886858E+01  0.0000000000000E+00
 0.9951874320109E+00 -0.2660264725264E+01  0.0000000000000E+00
 0.9978349487592E+00 -0.2588898564268E+01  0.0000000000000E+00
 0.1001159178528E+01 -0.2517567391599E+01  0.0000000000000E+00
 0.1005198705901E+01 -0.2446281922349E+01  0.0000000000000E+00
 0.1010006610822E+01 -0.2375055739605E+01  0.0000000000000E+00
 0.1015579907262E+01 -0.2303898659960E+01  0.0000000000000E+00
 0.1021840780679E+01 -0.2232812441308E+01  0.0000000000000E+00
 0.1028733682020E+01 -0.2161798760767E+01  0.0000000000000E+00
 0.1036226304300E+01 -0.2090860397857E+01  0.0000000000000E+00
 0.1044308104682E+01 -0.2020002254434E+01  0.0000000000000E+00
 0.1052995263009E+01 -0.1949233224272E+01  0.0000000000000E+00
 0.1062352846232E+01 -0.1878570516118E+01  0.0000000000000E+00
 0.1017509482155E+01 -0.4660264886430E+01  0.0000000000000E+00
 0.1017518964290E+01 -0.4588942795818E+01  0.0000000000000E+00
 0.1017528446483E+01 -0.4517620267227E+01  0.0000000000000E+00
 0.1017537928650E+01 -0.4446297938589E+01  0.0000000000000E+00
 0.1017547410815E+01 -0.4374975624134E+01  0.0000000000000E+00
 0.1017556892983E+01 -0.4303653282878E+01  0.0000000000000E+00
 0.1017566375146E+01 -0.4232330983776E+01  0.0000000000000E+00
 0.1017575857312E+01 -0.4161008658528E+01  0.0000000000000E+00
 0.1017585339477E+01 -0.4089686338518E+01  0.0000000000000E+00
 0.1017594821642E+01 -0.4018364026383E+01  0.0000000000000E+00
 0.1017604303808E+01 -0.3947041699321E+01  0.0000000000000E+00
 0.1017613785972E+01 -0.3875719395647E+01  0.0000000000000E+00
 0.1017623268139E+01 -0.3804397060846E+01  0.0000000000000E+00
 0.1017632750314E+01 -0.3733074667859E+01  0.0000000000000E+00
 0.1017642232487E+01 -0.3661752295169E+01  0.0000000000000E+00
 0.1017651714648E+01 -0.3590430007800E+01  0.0000000000000E+00
 0.1017661196893E+01 -0.3519107090763E+01  0.0000000000000E+00
 0.1017670678979E+01 -0.3447785365421E+01  0.0000000000000E+00
 0.1017680161146E+01 -0.3376463035097E+01  0.0000000000000E+00
 0.1017689643303E+01 -0.3305140782923E+01  0.0000000000000E+00
 0.1017699125447E+01 -0.3233818621592E+01  0.0000000000000E+00
 0.1017708607596E+01 -0.3162496424270E+01  0.0000000000000E+00
 0.1017718089750E+01 -0.3091174195051E+01  0.0000000000000E+00
 0.1017745496503E+01 -0.3019851904506E+01  0.0000000000000E+00
 0.1017906278648E+01 -0.2948529843212E+01  0.0000000000000E+00
 0.1018360745944E+01 -0.2877209347457E+01  0.0000000000000E+00
 0.1019255031844E+01 -0.2805893693852E+01  0.0000000000000E+00
 0.1020696702984E+01 -0.2734588564626E+01  0.0000000000000E+00
 0.1022754749553E+01 -0.2663301105436E+01  0.0000000000000E+00
 0.1025473284322E+01 -0.2592039646683E+01  0.0000000000000E+00
 0.1028887363514E+01 -0.2520813176348E+01  0.0000000000000E+00
 0.1033036645440E+01 -0.2449632409496E+01  0.0000000000000E+00
 0.1037975687144E+01 -0.2378510928901E+01  0.0000000000000E+00
 0.1043701419494E+01 -0.2307458551527E+01  0.0000000000000E+00
 0.1050133862544E+01 -0.2236477035263E+01  0.0000000000000E+00
 0.1057215921438E+01 -0.2165568057156E+01  0.0000000000000E+00
 0.1064914390158E+01 -0.2094734396797E+01  0.0000000000000E+00
 0.1073218432483E+01 -0.2023980956034E+01  0.0000000000000E+00
 0.1082144678514E+01 -0.1953316628284E+01  0.0000000000000E+00
 0.1091760005868E+01 -0.1882758622300E+01  0.0000000000000E+00
 0.1045006744575E+01 -0.4660372386100E+01  0.0000000000000E+00
 0.1045013489135E+01 -0.4589157794934E+01  0.0000000000000E+00
 0.1045020233737E+01 -0.4517942766450E+01  0.0000000000000E+00
 0.1045026978321E+01 -0.4446727937617E+01  0.0000000000000E+00
 0.1045033722903E+01 -0.4375513122945E+01  0.0000000000000E+00
 0.1045040467487E+01 -0.4304298281514E+01  0.0000000000000E+00
 0.1045047212067E+01 -0.4233083482172E+01  0.0000000000000E+00
 0.1045053956650E+01 -0.4161868656724E+01  0.0000000000000E+00
 0.1045060701232E+01 -0.4090653836506E+01  0.0000000000000E+00
 0.1045067445814E+01 -0.4019439024151E+01  0.0000000000000E+00
 0.1045074190397E+01 -0.3948224196891E+01  0.0000000000000E+00
 0.1045080934978E+01 -0.3877009392985E+01  0.0000000000000E+00
 0.1045087679562E+01 -0.3805794557998E+01  0.0000000000000E+00
 0.1045094424151E+01 -0.3734579664913E+01  0.0000000000000E+00
 0.1045101168738E+01 -0.3663364792095E+01  0.0000000000000E+00
 0.1045107913318E+01 -0.3592150004468E+01  0.0000000000000E+00
 0.1045114657956E+01 -0.3520934588123E+01  0.0000000000000E+00
 0.1045121402483E+01 -0.3449720361677E+01  0.0000000000000E+00
 0.1045128147066E+01 -0.3378505531160E+01  0.0000000000000E+00
 0.1045134891642E+01 -0.3307290778676E+01  0.0000000000000E+00
 0.1045141636209E+01 -0.3236076116898E+01  0.0000000000000E+00
 0.1045148380780E+01 -0.3164861419183E+01  0.0000000000000E+00
 0.1045155125354E+01 -0.3093646689619E+01  0.0000000000000E+00
 0.1045180279821E+01 -0.3022431898826E+01  0.0000000000000E+00
 0.1045342420734E+01 -0.2951217337218E+01  0.0000000000000E+00
 0.1045806198134E+01 -0.2880004340962E+01  0.0000000000000E+00
 0.1046721701941E+01 -0.2808796186818E+01  0.0000000000000E+00
 0.1048199411086E+01 -0.2737598556931E+01  0.0000000000000E+00
 0.1050310183620E+01 -0.2666418597083E+01  0.0000000000000E+00
 0.1053099326642E+01 -0.2595264637507E+01  0.0000000000000E+00
 0.1056602845493E+01 -0.2524145666443E+01  0.0000000000000E+00
 0.1060861472207E+01 -0.2453072398925E+01  0.0000000000000E+00
 0.1065931240934E+01 -0.2382058417411E+01  0.0000000000000E+00
 0.1071808999436E+01 -0.2311113539242E+01  0.0000000000000E+00
 0.1078412602362E+01 -0.2240239522303E+01  0.0000000000000E+00
 0.1085683409054E+01 -0.2169438043568E+01  0.0000000000000E+00
 0.1093587314458E+01 -0.2098711882704E+01  0.0000000000000E+00
 0.1102113188972E+01 -0.2028065941545E+01  0.0000000000000E+00
 0.1111278112956E+01 -0.1957509113146E+01  0.0000000000000E+00
 0.1121150774694E+01 -0.1887058606262E+01  0.0000000000000E+00
 0.1072503587178E+01 -0.4660482676316E+01  0.0000000000000E+00
 0.1072507174348E+01 -0.4589378375137E+01  0.0000000000000E+00
 0.1072510761541E+01 -0.4518273637316E+01  0.0000000000000E+00
 0.1072514348723E+01 -0.4447169098837E+01  0.0000000000000E+00
 0.1072517935905E+01 -0.4376064574498E+01  0.0000000000000E+00
 0.1072521523088E+01 -0.4304960023440E+01  0.0000000000000E+00
 0.1072525110269E+01 -0.4233855514407E+01  0.0000000000000E+00
 0.1072528697451E+01 -0.4162750979308E+01  0.0000000000000E+00
 0.1072532284633E+01 -0.4091646449431E+01  0.0000000000000E+00
 0.1072535871815E+01 -0.4020541927405E+01  0.0000000000000E+00
 0.1072539458997E+01 -0.3949437390497E+01  0.0000000000000E+00
 0.1072543046178E+01 -0.3878332876907E+01  0.0000000000000E+00
 0.1072546633361E+01 -0.3807228332284E+01  0.0000000000000E+00
 0.1072550220546E+01 -0.3736123729652E+01  0.0000000000000E+00
 0.1072553807731E+01 -0.3665019147257E+01  0.0000000000000E+00
 0.1072557394911E+01 -0.3593914649921E+01  0.0000000000000E+00
 0.1072560982123E+01 -0.3522809524840E+01  0.0000000000000E+00
 0.1072564569275E+01 -0.3451705587815E+01  0.0000000000000E+00
 0.1072568156458E+01 -0.3380601047655E+01  0.0000000000000E+00
 0.1072571743636E+01 -0.3309496585407E+01  0.0000000000000E+00
 0.1072575330810E+01 -0.3238392213725E+01  0.0000000000000E+00
 0.1072578917986E+01 -0.3167287806161E+01  0.0000000000000E+00
 0.1072582505164E+01 -0.3096183366798E+01  0.0000000000000E+00
 0.1072604987528E+01 -0.3025078866304E+01  0.0000000000000E+00
 0.1072768067392E+01 -0.2953974594929E+01  0.0000000000000E+00
 0.1073240735083E+01 -0.2882871888714E+01  0.0000000000000E+00
 0.1074177036982E+01 -0.2811774024571E+01  0.0000000000000E+00
 0.1075690364322E+01 -0.2740686684561E+01  0.0000000000000E+00
 0.1077853443011E+01 -0.2669617014592E+01  0.0000000000000E+00
 0.1080712774480E+01 -0.2598573344725E+01  0.0000000000000E+00
 0.1084305313187E+01 -0.2527564663467E+01  0.0000000000000E+00
 0.1088672864887E+01 -0.2456601685821E+01  0.0000000000000E+00
 0.1093872940837E+01 -0.2385697993918E+01  0.0000000000000E+00
 0.1099902305694E+01 -0.2314863405488E+01  0.0000000000000E+00
 0.1106676648702E+01 -0.2244099678411E+01  0.0000000000000E+00
 0.1114135783397E+01 -0.2173408489587E+01  0.0000000000000E+00
 0.1122244705695E+01 -0.2102792618758E+01  0.0000000000000E+00
 0.1130991992608E+01 -0.2032256967748E+01  0.0000000000000E+00
 0.1140395174757E+01 -0.1961810429236E+01  0.0000000000000E+00
 0.1150524751096E+01 -0.1891470211985E+01  0.0000000000000E+00
-0.5660382933727E+00 -0.1689691761343E+01  0.0000000000000E+00
-0.5663123720575E+00 -0.1626506538788E+01  0.0000000000000E+00
-0.5667790339879E+00 -0.1563322491581E+01  0.0000000000000E+00
-0.5674663936241E+00 -0.1500140613648E+01  0.0000000000000E+00
-0.5684046240156E+00 -0.1436962158218E+01  0.0000000000000E+00
-0.5696222518212E+00 -0.1373788927613E+01  0.0000000000000E+00
-0.5711380830886E+00 -0.1310622648082E+01  0.0000000000000E+00
-0.5729469100487E+00 -0.1247464856343E+01  0.0000000000000E+00
-0.5750009089678E+00 -0.1184315217396E+01  0.0000000000000E+00
-0.5771979571333E+00 -0.1121170853713E+01  0.0000000000000E+00
-0.5793950052231E+00 -0.1058026490028E+01  0.0000000000000E+00
-0.5814490039253E+00 -0.9948768510738E+00  0.0000000000000E+00
-0.5832578305519E+00 -0.9317190593259E+00  0.0000000000000E+00
-0.5847736613987E+00 -0.8685527797851E+00  0.0000000000000E+00
-0.5859912887235E+00 -0.8053795491707E+00  0.0000000000000E+00
-0.5869295185944E+00 -0.7422010937332E+00  0.0000000000000E+00
-0.5876168776851E+00 -0.6790192157949E+00  0.0000000000000E+00
-0.5880835390555E+00 -0.6158351685841E+00  0.0000000000000E+00
-0.5883576171726E+00 -0.5526499460259E+00  0.0000000000000E+00
-0.5363253834601E+00 -0.1687245125446E+01  0.0000000000000E+00
-0.5366119768712E+00 -0.1623791708043E+01  0.0000000000000E+00
-0.5370810175640E+00 -0.1560339466072E+01  0.0000000000000E+00
-0.5377591402814E+00 -0.1496889393551E+01  0.0000000000000E+00
-0.5386749300523E+00 -0.1433442743371E+01  0.0000000000000E+00
-0.5398554120886E+00 -0.1370001318292E+01  0.0000000000000E+00
-0.5413184027050E+00 -0.1306566843974E+01  0.0000000000000E+00
-0.5430589681685E+00 -0.1243140857698E+01  0.0000000000000E+00
-0.5450318018343E+00 -0.1179723023941E+01  0.0000000000000E+00
-0.5471401558424E+00 -0.1116310465411E+01  0.0000000000000E+00
-0.5492485097748E+00 -0.1052897906879E+01  0.0000000000000E+00
-0.5512213432236E+00 -0.9894800731148E+00  0.0000000000000E+00
-0.5529619083535E+00 -0.9260540868295E+00  0.0000000000000E+00
-0.5544248985495E+00 -0.8626196125025E+00  0.0000000000000E+00
-0.5556053801049E+00 -0.7991781874149E+00  0.0000000000000E+00
-0.5565211693552E+00 -0.7357315372274E+00  0.0000000000000E+00
-0.5571992915272E+00 -0.6722814647015E+00  0.0000000000000E+00
-0.5576683316600E+00 -0.6088292227269E+00  0.0000000000000E+00
-0.5579549245034E+00 -0.5453758053214E+00  0.0000000000000E+00
-0.5065999670663E+00 -0.1684928561672E+01  0.0000000000000E+00
-0.5068949115904E+00 -0.1621220039384E+01  0.0000000000000E+00
-0.5073621674199E+00 -0.1557512692609E+01  0.0000000000000E+00
-0.5080268895799E+00 -0.1493807515451E+01  0.0000000000000E+00
-0.5089160750712E+00 -0.1430105760479E+01  0.0000000000000E+00
-0.5100552476636E+00 -0.1366409230871E+01  0.0000000000000E+00
-0.5114612339286E+00 -0.1302719651727E+01  0.0000000000000E+00
-0.5131293741780E+00 -0.1239038560861E+01  0.0000000000000E+00
-0.5150168788513E+00 -0.1175365622255E+01  0.0000000000000E+00
-0.5170323749522E+00 -0.1111697958841E+01  0.0000000000000E+00
-0.5190478709775E+00 -0.1048030295425E+01  0.0000000000000E+00
-0.5209353754338E+00 -0.9843573568131E+00  0.0000000000000E+00
-0.5226035153497E+00 -0.9206762659386E+00  0.0000000000000E+00
-0.5240095011942E+00 -0.8569866867857E+00  0.0000000000000E+00
-0.5251486733057E+00 -0.7932901571698E+00  0.0000000000000E+00
-0.5260378582764E+00 -0.7295884021909E+00  0.0000000000000E+00
-0.5267025798910E+00 -0.6658832250280E+00  0.0000000000000E+00
-0.5271698351604E+00 -0.6021758782489E+00  0.0000000000000E+00
-0.5274647791169E+00 -0.5384673559593E+00  0.0000000000000E+00
-0.4768626705487E+00 -0.1682742416099E+01  0.0000000000000E+00
-0.4771619844321E+00 -0.1618792097827E+01  0.0000000000000E+00
-0.4776234736490E+00 -0.1554842955143E+01  0.0000000000000E+00
-0.4782708135087E+00 -0.1490895982235E+01  0.0000000000000E+00
-0.4791294129793E+00 -0.1426952431367E+01  0.0000000000000E+00
-0.4802232943955E+00 -0.1363014106112E+01  0.0000000000000E+00
-0.4815682945772E+00 -0.1299082731039E+01  0.0000000000000E+00
-0.4831600278892E+00 -0.1235159844468E+01  0.0000000000000E+00
-0.4849582218467E+00 -0.1171245109912E+01  0.0000000000000E+00
-0.4868768783191E+00 -0.1107335650514E+01  0.0000000000000E+00
-0.4887955347158E+00 -0.1043426191114E+01  0.0000000000000E+00
-0.4905937284563E+00 -0.9795114565527E+00  0.0000000000000E+00
-0.4921854614348E+00 -0.9155885699739E+00  0.0000000000000E+00
-0.4935304611959E+00 -0.8516571948924E+00  0.0000000000000E+00
-0.4946243421312E+00 -0.7877188696299E+00  0.0000000000000E+00
-0.4954829410813E+00 -0.7237753187550E+00  0.0000000000000E+00
-0.4961302803955E+00 -0.6598283458425E+00  0.0000000000000E+00
-0.4965917690524E+00 -0.5958792031548E+00  0.0000000000000E+00
-0.4968910823681E+00 -0.5319288848814E+00  0.0000000000000E+00
-0.4471141738714E+00 -0.1680687021658E+01  0.0000000000000E+00
-0.4474140589931E+00 -0.1616508426019E+01  0.0000000000000E+00
-0.4478659834921E+00 -0.1552331006037E+01  0.0000000000000E+00
-0.4484921429651E+00 -0.1488155755982E+01  0.0000000000000E+00
-0.4493163583450E+00 -0.1423983927828E+01  0.0000000000000E+00
-0.4503611505400E+00 -0.1359817325524E+01  0.0000000000000E+00
-0.4516413666112E+00 -0.1295657673134E+01  0.0000000000000E+00
-0.4531528949840E+00 -0.1231506509458E+01  0.0000000000000E+00
-0.4548579802386E+00 -0.1167363497567E+01  0.0000000000000E+00
-0.4566759991053E+00 -0.1103225760801E+01  0.0000000000000E+00
-0.4584940178964E+00 -0.1039088024033E+01  0.0000000000000E+00
-0.4601991029340E+00 -0.9749450121357E+00  0.0000000000000E+00
-0.4617106309733E+00 -0.9107938484529E+00  0.0000000000000E+00
-0.4629908466239E+00 -0.8466341960555E+00  0.0000000000000E+00
-0.4640356383381E+00 -0.7824675937435E+00  0.0000000000000E+00
-0.4648598531975E+00 -0.7182957655835E+00  0.0000000000000E+00
-0.4654860121251E+00 -0.6541205155242E+00  0.0000000000000E+00
-0.4659379360640E+00 -0.5899430955397E+00  0.0000000000000E+00
-0.4662378206180E+00 -0.5257644998984E+00  0.0000000000000E+00
-0.4173550630559E+00 -0.1678762688173E+01  0.0000000000000E+00
-0.4176519113029E+00 -0.1614369533789E+01  0.0000000000000E+00
-0.4180906629569E+00 -0.1549977555129E+01  0.0000000000000E+00
-0.4186920339012E+00 -0.1485587746537E+01  0.0000000000000E+00
-0.4194782570266E+00 -0.1421201359716E+01  0.0000000000000E+00
-0.4204703518181E+00 -0.1356820198965E+01  0.0000000000000E+00
-0.4216821755688E+00 -0.1292445987879E+01  0.0000000000000E+00
-0.4231098907729E+00 -0.1228080265706E+01  0.0000000000000E+00
-0.4247182590719E+00 -0.1163722695099E+01  0.0000000000000E+00
-0.4264320320686E+00 -0.1099370399588E+01  0.0000000000000E+00
-0.4281458049896E+00 -0.1035018104075E+01  0.0000000000000E+00
-0.4297541730716E+00 -0.9706605334635E+00  0.0000000000000E+00
-0.4311818879422E+00 -0.9062948112837E+00  0.0000000000000E+00
-0.4323937112723E+00 -0.8419206001903E+00  0.0000000000000E+00
-0.4333858055829E+00 -0.7775394394327E+00  0.0000000000000E+00
-0.4341720281878E+00 -0.7131530526057E+00  0.0000000000000E+00
-0.4347733985867E+00 -0.6487632440093E+00  0.0000000000000E+00
-0.4352121496806E+00 -0.5843712653468E+00  0.0000000000000E+00
-0.4355089973599E+00 -0.5199781109607E+00  0.0000000000000E+00
-0.3875860504174E+00 -0.1676969717501E+01  0.0000000000000E+00
-0.3878764553724E+00 -0.1612375915377E+01  0.0000000000000E+00
-0.3882986277719E+00 -0.1547783289039E+01  0.0000000000000E+00
-0.3888718037880E+00 -0.1483192832901E+01  0.0000000000000E+00
-0.3896166282662E+00 -0.1418605798412E+01  0.0000000000000E+00
-0.3905526192750E+00 -0.1354023990201E+01  0.0000000000000E+00
-0.3916926443324E+00 -0.1289449131420E+01  0.0000000000000E+00
-0.3930331400086E+00 -0.1224882761738E+01  0.0000000000000E+00
-0.3945413849981E+00 -0.1160324543420E+01  0.0000000000000E+00
-0.3961475057755E+00 -0.1095771600169E+01  0.0000000000000E+00
-0.3977536264772E+00 -0.1031218656915E+01  0.0000000000000E+00
-0.3992618712497E+00 -0.9666604385923E+00  0.0000000000000E+00
-0.4006023665923E+00 -0.9020940689044E+00  0.0000000000000E+00
-0.4017423912293E+00 -0.8375192101168E+00  0.0000000000000E+00
-0.4026783817572E+00 -0.7729374018990E+00  0.0000000000000E+00
-0.4034232057148E+00 -0.7083503674049E+00  0.0000000000000E+00
-0.4039963811855E+00 -0.6437599112629E+00  0.0000000000000E+00
-0.4044185530250E+00 -0.5791672849229E+00  0.0000000000000E+00
-0.4047089574122E+00 -0.5145734827968E+00  0.0000000000000E+00
-0.3578077848507E+00 -0.1675308389248E+01  0.0000000000000E+00
-0.3580885470070E+00 -0.1610528031852E+01  0.0000000000000E+00
-0.3584909406433E+00 -0.1545748850301E+01  0.0000000000000E+00
-0.3590327222207E+00 -0.1480971839072E+01  0.0000000000000E+00
-0.3597329485350E+00 -0.1416198249379E+01  0.0000000000000E+00
-0.3606096362428E+00 -0.1351429886156E+01  0.0000000000000E+00
-0.3616746630801E+00 -0.1286668472146E+01  0.0000000000000E+00
-0.3629247396993E+00 -0.1221915547408E+01  0.0000000000000E+00
-0.3643296618428E+00 -0.1157170773845E+01  0.0000000000000E+00
-0.3658249308613E+00 -0.1092431275322E+01  0.0000000000000E+00
-0.3673201998042E+00 -0.1027691776797E+01  0.0000000000000E+00
-0.3687251217307E+00 -0.9629470032288E+00  0.0000000000000E+00
-0.3699751980164E+00 -0.8981940784852E+00  0.0000000000000E+00
-0.3710402244331E+00 -0.8334326644688E+00  0.0000000000000E+00
-0.3719169116601E+00 -0.7686643012399E+00  0.0000000000000E+00
-0.3726171374538E+00 -0.7038907115421E+00  0.0000000000000E+00
-0.3731589184858E+00 -0.6391137003095E+00  0.0000000000000E+00
-0.3735613115620E+00 -0.5743345187563E+00  0.0000000000000E+00
-0.3738420731506E+00 -0.5095541613588E+00  0.0000000000000E+00
-0.3280209322967E+00 -0.1673778966441E+01  0.0000000000000E+00
-0.3282890703009E+00 -0.1608826317856E+01  0.0000000000000E+00
-0.3286687038227E+00 -0.1543874845170E+01  0.0000000000000E+00
-0.3291761096142E+00 -0.1478925542919E+01  0.0000000000000E+00
-0.3298287564176E+00 -0.1413979662100E+01  0.0000000000000E+00
-0.3306431594830E+00 -0.1349039007928E+01  0.0000000000000E+00
-0.3316302067577E+00 -0.1284105302768E+01  0.0000000000000E+00
-0.3327868829826E+00 -0.1219180087040E+01  0.0000000000000E+00
-0.3340855009420E+00 -0.1154263022312E+01  0.0000000000000E+00
-0.3354669368643E+00 -0.1089351232600E+01  0.0000000000000E+00
-0.3368483727111E+00 -0.1024439442887E+01  0.0000000000000E+00
-0.3381469904534E+00 -0.9595223781546E+00  0.0000000000000E+00
-0.3393036663448E+00 -0.8945971624215E+00  0.0000000000000E+00
-0.3402907131989E+00 -0.8296634572558E+00  0.0000000000000E+00
-0.3411051157835E+00 -0.7647228030786E+00  0.0000000000000E+00
-0.3417577620663E+00 -0.6997769222548E+00  0.0000000000000E+00
-0.3422651673124E+00 -0.6348276200005E+00  0.0000000000000E+00
-0.3426448002742E+00 -0.5698761473125E+00  0.0000000000000E+00
-0.3429129377106E+00 -0.5049234987264E+00  0.0000000000000E+00
-0.2982262059385E+00 -0.1672381694973E+01  0.0000000000000E+00
-0.2984789576442E+00 -0.1607271179011E+01  0.0000000000000E+00
-0.2988330689080E+00 -0.1542161838997E+01  0.0000000000000E+00
-0.2993033367739E+00 -0.1477054669522E+01  0.0000000000000E+00
-0.2999056419273E+00 -0.1411950921383E+01  0.0000000000000E+00
-0.3006549982166E+00 -0.1346852400053E+01  0.0000000000000E+00
-0.3015613037944E+00 -0.1281760827552E+01  0.0000000000000E+00
-0.3026218174963E+00 -0.1216677744629E+01  0.0000000000000E+00
-0.3038113691420E+00 -0.1151602812546E+01  0.0000000000000E+00
-0.3050762098397E+00 -0.1086533155457E+01  0.0000000000000E+00
-0.3063410504618E+00 -0.1021463498367E+01  0.0000000000000E+00
-0.3075306018905E+00 -0.9563885662797E+00  0.0000000000000E+00
-0.3085911152588E+00 -0.8913054833521E+00  0.0000000000000E+00
-0.3094974204161E+00 -0.8262139108455E+00  0.0000000000000E+00
-0.3102467762245E+00 -0.7611153895116E+00  0.0000000000000E+00
-0.3108490808573E+00 -0.6960116413682E+00  0.0000000000000E+00
-0.3113193481778E+00 -0.6309044718900E+00  0.0000000000000E+00
-0.3116734588816E+00 -0.5657951318742E+00  0.0000000000000E+00
-0.3119262100196E+00 -0.5006846159113E+00  0.0000000000000E+00
-0.2684242591111E+00 -0.1671116799086E+01  0.0000000000000E+00
-0.2686590939796E+00 -0.1605862988030E+01  0.0000000000000E+00
-0.2689851524448E+00 -0.1540610352966E+01  0.0000000000000E+00
-0.2694157518426E+00 -0.1475359888535E+01  0.0000000000000E+00
-0.2699651847983E+00 -0.1410112845353E+01  0.0000000000000E+00
-0.2706469637623E+00 -0.1344871029129E+01  0.0000000000000E+00
-0.2714699970866E+00 -0.1279636161565E+01  0.0000000000000E+00
-0.2724318177065E+00 -0.1214409783713E+01  0.0000000000000E+00
-0.2735097724737E+00 -0.1149191556555E+01  0.0000000000000E+00
-0.2746554873792E+00 -0.1083978604371E+01  0.0000000000000E+00
-0.2758012022091E+00 -0.1018765652186E+01  0.0000000000000E+00
-0.2768791567593E+00 -0.9535474250252E+00  0.0000000000000E+00
-0.2778409770457E+00 -0.8883210471688E+00  0.0000000000000E+00
-0.2786640099495E+00 -0.8230861796004E+00  0.0000000000000E+00
-0.2793457884325E+00 -0.7578443633719E+00  0.0000000000000E+00
-0.2798952208677E+00 -0.6925973201861E+00  0.0000000000000E+00
-0.2803258197201E+00 -0.6273468557523E+00  0.0000000000000E+00
-0.2806518776252E+00 -0.5620942206867E+00  0.0000000000000E+00
-0.2808867119260E+00 -0.4968404096294E+00  0.0000000000000E+00
-0.2386158232353E+00 -0.1669984486219E+01  0.0000000000000E+00
-0.2388304441249E+00 -0.1604602088268E+01  0.0000000000000E+00
-0.2391261526536E+00 -0.1539220866350E+01  0.0000000000000E+00
-0.2395147864510E+00 -0.1473841815148E+01  0.0000000000000E+00
-0.2400090500797E+00 -0.1408466185117E+01  0.0000000000000E+00
-0.2406209545962E+00 -0.1343095782177E+01  0.0000000000000E+00
-0.2413584185475E+00 -0.1277732327748E+01  0.0000000000000E+00
-0.2422192489735E+00 -0.1212377363149E+01  0.0000000000000E+00
-0.2431833097518E+00 -0.1147030549114E+01  0.0000000000000E+00
-0.2442076017572E+00 -0.1081689010035E+01  0.0000000000000E+00
-0.2452318936869E+00 -0.1016347470955E+01  0.0000000000000E+00
-0.2461959542483E+00 -0.9510006569173E+00  0.0000000000000E+00
-0.2470567843406E+00 -0.8856456923147E+00  0.0000000000000E+00
-0.2477942478714E+00 -0.8202822378808E+00  0.0000000000000E+00
-0.2484061519071E+00 -0.7549118349370E+00  0.0000000000000E+00
-0.2489004150152E+00 -0.6895362049032E+00  0.0000000000000E+00
-0.2492890482672E+00 -0.6241571536992E+00  0.0000000000000E+00
-0.2495847562358E+00 -0.5587759317790E+00  0.0000000000000E+00
-0.2497993765577E+00 -0.4933935338269E+00  0.0000000000000E+00
-0.2088015918171E+00 -0.1668984941864E+01  0.0000000000000E+00
-0.2089939423704E+00 -0.1603488788333E+01  0.0000000000000E+00
-0.2092572446060E+00 -0.1537993810870E+01  0.0000000000000E+00
-0.2096018564480E+00 -0.1472501004198E+01  0.0000000000000E+00
-0.2100388943936E+00 -0.1407011618628E+01  0.0000000000000E+00
-0.2105788681090E+00 -0.1341527460266E+01  0.0000000000000E+00
-0.2112287063315E+00 -0.1276050250282E+01  0.0000000000000E+00
-0.2119864902098E+00 -0.1210581530234E+01  0.0000000000000E+00
-0.2128346006438E+00 -0.1145120960635E+01  0.0000000000000E+00
-0.2137354133933E+00 -0.1079665665975E+01  0.0000000000000E+00
-0.2146362260672E+00 -0.1014210371315E+01  0.0000000000000E+00
-0.2154843362842E+00 -0.9487498017129E+00  0.0000000000000E+00
-0.2162421198289E+00 -0.8832810816616E+00  0.0000000000000E+00
-0.2168919576308E+00 -0.8178038716736E+00  0.0000000000000E+00
-0.2174319308654E+00 -0.7523197133084E+00  0.0000000000000E+00
-0.2178689682905E+00 -0.6868303277357E+00  0.0000000000000E+00
-0.2182135795869E+00 -0.6213375210618E+00  0.0000000000000E+00
-0.2184768812625E+00 -0.5558425435970E+00  0.0000000000000E+00
-0.2186692312481E+00 -0.4903463900649E+00  0.0000000000000E+00
-0.1789822699684E+00 -0.1668118331209E+01  0.0000000000000E+00
-0.1791505394161E+00 -0.1602523363227E+01  0.0000000000000E+00
-0.1793796245881E+00 -0.1536929571344E+01  0.0000000000000E+00
-0.1796784037030E+00 -0.1471337950318E+01  0.0000000000000E+00
-0.1800564051905E+00 -0.1405749750333E+01  0.0000000000000E+00
-0.1805226373288E+00 -0.1340166777658E+01  0.0000000000000E+00
-0.1810830390415E+00 -0.1274590753246E+01  0.0000000000000E+00
-0.1817359655899E+00 -0.1209023218861E+01  0.0000000000000E+00
-0.1824663148931E+00 -0.1143463834825E+01  0.0000000000000E+00
-0.1832418375987E+00 -0.1077909725716E+01  0.0000000000000E+00
-0.1840173602287E+00 -0.1012355616605E+01  0.0000000000000E+00
-0.1847477093150E+00 -0.9467962325665E+00  0.0000000000000E+00
-0.1854006355298E+00 -0.8812286981792E+00  0.0000000000000E+00
-0.1859610368220E+00 -0.8156526737635E+00  0.0000000000000E+00
-0.1864272684794E+00 -0.7500697010859E+00  0.0000000000000E+00
-0.1868052694463E+00 -0.6844815010990E+00  0.0000000000000E+00
-0.1871040480158E+00 -0.6188898800707E+00  0.0000000000000E+00
-0.1873331326277E+00 -0.5532960881865E+00  0.0000000000000E+00
-0.1875014015077E+00 -0.4877011202043E+00  0.0000000000000E+00
-0.1491585906986E+00 -0.1667384798938E+01  0.0000000000000E+00
-0.1493012179629E+00 -0.1601706053757E+01  0.0000000000000E+00
-0.1494945249966E+00 -0.1536028484701E+01  0.0000000000000E+00
-0.1497459103137E+00 -0.1470353086556E+01  0.0000000000000E+00
-0.1500633142746E+00 -0.1404681109403E+01  0.0000000000000E+00
-0.1504542437727E+00 -0.1339014359645E+01  0.0000000000000E+00
-0.1509236479144E+00 -0.1273354558052E+01  0.0000000000000E+00
-0.1514701560771E+00 -0.1207703246565E+01  0.0000000000000E+00
-0.1520811831954E+00 -0.1142060085341E+01  0.0000000000000E+00
-0.1527298548045E+00 -0.1076422199032E+01  0.0000000000000E+00
-0.1533785263379E+00 -0.1010784312722E+01  0.0000000000000E+00
-0.1539895532392E+00 -0.9451411514961E+00  0.0000000000000E+00
-0.1545360610683E+00 -0.8794898400065E+00  0.0000000000000E+00
-0.1550054647896E+00 -0.8138300384108E+00  0.0000000000000E+00
-0.1553963938067E+00 -0.7481632886510E+00  0.0000000000000E+00
-0.1557137972470E+00 -0.6824913114955E+00  0.0000000000000E+00
-0.1559651820187E+00 -0.6168159133492E+00  0.0000000000000E+00
-0.1561584884923E+00 -0.5511383442921E+00  0.0000000000000E+00
-0.1563011151890E+00 -0.4854595991108E+00  0.0000000000000E+00
-0.1193312533689E+00 -0.1666784467333E+01  0.0000000000000E+00
-0.1194469324420E+00 -0.1601037064197E+01  0.0000000000000E+00
-0.1196031553282E+00 -0.1535290837207E+01  0.0000000000000E+00
-0.1198058408375E+00 -0.1469546781173E+01  0.0000000000000E+00
-0.1200613412589E+00 -0.1403806146089E+01  0.0000000000000E+00
-0.1203756621029E+00 -0.1338070738472E+01  0.0000000000000E+00
-0.1207527626561E+00 -0.1272342278939E+01  0.0000000000000E+00
-0.1211915464142E+00 -0.1206622309575E+01  0.0000000000000E+00
-0.1216819453254E+00 -0.1140910490406E+01  0.0000000000000E+00
-0.1222024598146E+00 -0.1075203946141E+01  0.0000000000000E+00
-0.1227229742282E+00 -0.1009497401875E+01  0.0000000000000E+00
-0.1232133729224E+00 -0.9437855827039E+00  0.0000000000000E+00
-0.1236521563469E+00 -0.8780656133384E+00  0.0000000000000E+00
-0.1240292564796E+00 -0.8123371538032E+00  0.0000000000000E+00
-0.1243435768427E+00 -0.7466017461841E+00  0.0000000000000E+00
-0.1245990767436E+00 -0.6808611110984E+00  0.0000000000000E+00
-0.1248017617074E+00 -0.6151170550636E+00  0.0000000000000E+00
-0.1249579840336E+00 -0.5493708280728E+00  0.0000000000000E+00
-0.1250736625389E+00 -0.4836234249364E+00  0.0000000000000E+00
-0.8950100053862E-01 -0.1666317437650E+01  0.0000000000000E+00
-0.8958868171560E-01 -0.1600516563313E+01  0.0000000000000E+00
-0.8970677075129E-01 -0.1534716865139E+01  0.0000000000000E+00
-0.8985970675196E-01 -0.1468919337956E+01  0.0000000000000E+00
-0.9005225393426E-01 -0.1403125231690E+01  0.0000000000000E+00
-0.9028891642774E-01 -0.1337336352946E+01  0.0000000000000E+00
-0.9057266369673E-01 -0.1271554422224E+01  0.0000000000000E+00
-0.9090267335780E-01 -0.1205780981720E+01  0.0000000000000E+00
-0.9127139437015E-01 -0.1140015691357E+01  0.0000000000000E+00
-0.9166270204846E-01 -0.1074255675890E+01  0.0000000000000E+00
-0.9205400965113E-01 -0.1008495660424E+01  0.0000000000000E+00
-0.9242273044648E-01 -0.9427303700588E+00  0.0000000000000E+00
-0.9275273977399E-01 -0.8769569295541E+00  0.0000000000000E+00
-0.9303648662245E-01 -0.8111749988302E+00  0.0000000000000E+00
-0.9327314863504E-01 -0.7453861200848E+00  0.0000000000000E+00
-0.9346569529677E-01 -0.6795920138176E+00  0.0000000000000E+00
-0.9361863075200E-01 -0.6137944866337E+00  0.0000000000000E+00
-0.9373671922766E-01 -0.5479947884587E+00  0.0000000000000E+00
-0.9382439983693E-01 -0.4821939141214E+00  0.0000000000000E+00
-0.5966855245610E-01 -0.1665983788540E+01  0.0000000000000E+00
-0.5972744638703E-01 -0.1600144682577E+01  0.0000000000000E+00
-0.5980661222241E-01 -0.1534306752788E+01  0.0000000000000E+00
-0.5990900936510E-01 -0.1468470994015E+01  0.0000000000000E+00
-0.6003781395841E-01 -0.1402638656136E+01  0.0000000000000E+00
-0.6019602875215E-01 -0.1336811545818E+01  0.0000000000000E+00
-0.6038563338675E-01 -0.1270991383477E+01  0.0000000000000E+00
-0.6060607960119E-01 -0.1205179711391E+01  0.0000000000000E+00
-0.6085233336420E-01 -0.1139376189405E+01  0.0000000000000E+00
-0.6111364488103E-01 -0.1073577942312E+01  0.0000000000000E+00
-0.6137495632221E-01 -0.1007779695218E+01  0.0000000000000E+00
-0.6162120986821E-01 -0.9419761732318E+00  0.0000000000000E+00
-0.6184165574910E-01 -0.8761645011445E+00  0.0000000000000E+00
-0.6203125996316E-01 -0.8103443388026E+00  0.0000000000000E+00
-0.6218947427602E-01 -0.7445172284838E+00  0.0000000000000E+00
-0.6231827834875E-01 -0.6786848906039E+00  0.0000000000000E+00
-0.6242067494601E-01 -0.6128491318304E+00  0.0000000000000E+00
-0.6249984022135E-01 -0.5470112020407E+00  0.0000000000000E+00
-0.6255873358457E-01 -0.4811720960768E+00  0.0000000000000E+00
-0.2983463937156E-01 -0.1665783576456E+01  0.0000000000000E+00
-0.2986421868488E-01 -0.1599921516320E+01  0.0000000000000E+00
-0.2990393394841E-01 -0.1534060632365E+01  0.0000000000000E+00
-0.2995526486180E-01 -0.1468201919441E+01  0.0000000000000E+00
-0.3001979949427E-01 -0.1402346627397E+01  0.0000000000000E+00
-0.3009903921680E-01 -0.1336496562938E+01  0.0000000000000E+00
-0.3019397384468E-01 -0.1270653446429E+01  0.0000000000000E+00
-0.3030432924049E-01 -0.1204818820196E+01  0.0000000000000E+00
-0.3042758838143E-01 -0.1138992344041E+01  0.0000000000000E+00
-0.3055837636388E-01 -0.1073171142774E+01  0.0000000000000E+00
-0.3068916427068E-01 -0.1007349941507E+01  0.0000000000000E+00
-0.3081242319462E-01 -0.9415234653514E+00  0.0000000000000E+00
-0.3092277825687E-01 -0.8756888391178E+00  0.0000000000000E+00
-0.3101771246422E-01 -0.8098457226084E+00  0.0000000000000E+00
-0.3109695170586E-01 -0.7439956581489E+00  0.0000000000000E+00
-0.3116148581776E-01 -0.6781403661046E+00  0.0000000000000E+00
-0.3121281618571E-01 -0.6122816531806E+00  0.0000000000000E+00
-0.3125253088920E-01 -0.5464207692254E+00  0.0000000000000E+00
-0.3128210963481E-01 -0.4805587090888E+00  0.0000000000000E+00
 0.5155270087001E-08 -0.1665716835338E+01  0.0000000000000E+00
 0.4584959248036E-08 -0.1599847121274E+01  0.0000000000000E+00
 0.4018463788390E-08 -0.1533978583394E+01  0.0000000000000E+00
 0.3459266960008E-08 -0.1468112216549E+01  0.0000000000000E+00
 0.2912509139835E-08 -0.1402249270580E+01  0.0000000000000E+00
 0.2385637097306E-08 -0.1336391552204E+01  0.0000000000000E+00
 0.1889015036877E-08 -0.1270540781768E+01  0.0000000000000E+00
 0.1435985996629E-08 -0.1204698501615E+01  0.0000000000000E+00
 0.1041351357948E-08 -0.1138864371533E+01  0.0000000000000E+00
 0.7174784364422E-09 -0.1073035516338E+01  0.0000000000000E+00
 0.4692480349616E-09 -0.1007206661143E+01  0.0000000000000E+00
 0.2916179217409E-09 -0.9413725310599E+00  0.0000000000000E+00
 0.1721480478919E-09 -0.8755302509073E+00  0.0000000000000E+00
 0.9605795782101E-10 -0.8096794804718E+00  0.0000000000000E+00
 0.5007320361460E-10 -0.7438217620953E+00  0.0000000000000E+00
 0.2389664209818E-10 -0.6779588161260E+00  0.0000000000000E+00
 0.1013582257418E-10 -0.6120924492818E+00  0.0000000000000E+00
 0.3684745325373E-11 -0.5462239114012E+00  0.0000000000000E+00
 0.1082611060245E-11 -0.4803541973369E+00  0.0000000000000E+00
 0.2983464968201E-01 -0.1665783576500E+01  0.0000000000000E+00
 0.2986422785471E-01 -0.1599921516362E+01  0.0000000000000E+00
 0.2990394198526E-01 -0.1534060632404E+01  0.0000000000000E+00
 0.2995527178026E-01 -0.1468201919478E+01  0.0000000000000E+00
 0.3001980531922E-01 -0.1402346627432E+01  0.0000000000000E+00
 0.3009904398801E-01 -0.1336496562970E+01  0.0000000000000E+00
 0.3019397762265E-01 -0.1270653446458E+01  0.0000000000000E+00
 0.3030433211240E-01 -0.1204818820222E+01  0.0000000000000E+00
 0.3042759046408E-01 -0.1138992344063E+01  0.0000000000000E+00
 0.3055837779879E-01 -0.1073171142794E+01  0.0000000000000E+00
 0.3068916520914E-01 -0.1007349941524E+01  0.0000000000000E+00
 0.3081242377782E-01 -0.9415234653661E+00  0.0000000000000E+00
 0.3092277860113E-01 -0.8756888391304E+00  0.0000000000000E+00
 0.3101771265631E-01 -0.8098457226190E+00  0.0000000000000E+00
 0.3109695180599E-01 -0.7439956581577E+00  0.0000000000000E+00
 0.3116148586553E-01 -0.6781403661116E+00  0.0000000000000E+00
 0.3121281620596E-01 -0.6122816531859E+00  0.0000000000000E+00
 0.3125253089656E-01 -0.5464207692289E+00  0.0000000000000E+00
 0.3128210963697E-01 -0.4805587090906E+00  0.0000000000000E+00
 0.5966856276630E-01 -0.1665983788628E+01  0.0000000000000E+00
 0.5972745555662E-01 -0.1600144682660E+01  0.0000000000000E+00
 0.5980662025903E-01 -0.1534306752866E+01  0.0000000000000E+00
 0.5990901628335E-01 -0.1468470994089E+01  0.0000000000000E+00
 0.6003781978316E-01 -0.1402638656205E+01  0.0000000000000E+00
 0.6019603352318E-01 -0.1336811545881E+01  0.0000000000000E+00
 0.6038563716454E-01 -0.1270991383534E+01  0.0000000000000E+00
 0.6060608247295E-01 -0.1205179711442E+01  0.0000000000000E+00
 0.6085233544670E-01 -0.1139376189450E+01  0.0000000000000E+00
 0.6111364631580E-01 -0.1073577942351E+01  0.0000000000000E+00
 0.6137495726055E-01 -0.1007779695252E+01  0.0000000000000E+00
 0.6162121045131E-01 -0.9419761732611E+00  0.0000000000000E+00
 0.6184165609327E-01 -0.8761645011696E+00  0.0000000000000E+00
 0.6203126015517E-01 -0.8103443388238E+00  0.0000000000000E+00
 0.6218947437608E-01 -0.7445172285014E+00  0.0000000000000E+00
 0.6231827839647E-01 -0.6786848906179E+00  0.0000000000000E+00
 0.6242067496623E-01 -0.6128491318409E+00  0.0000000000000E+00
 0.6249984022868E-01 -0.5470112020477E+00  0.0000000000000E+00
 0.6255873358672E-01 -0.4811720960803E+00  0.0000000000000E+00
 0.8950101084839E-01 -0.1666317437781E+01  0.0000000000000E+00
 0.8958869088479E-01 -0.1600516563438E+01  0.0000000000000E+00
 0.8970677878753E-01 -0.1534716865257E+01  0.0000000000000E+00
 0.8985971366985E-01 -0.1468919338067E+01  0.0000000000000E+00
 0.9005225975868E-01 -0.1403125231793E+01  0.0000000000000E+00
 0.9028892119845E-01 -0.1337336353041E+01  0.0000000000000E+00
 0.9057266747424E-01 -0.1271554422310E+01  0.0000000000000E+00
 0.9090267622929E-01 -0.1205780981797E+01  0.0000000000000E+00
 0.9127139645241E-01 -0.1140015691424E+01  0.0000000000000E+00
 0.9166270348301E-01 -0.1074255675949E+01  0.0000000000000E+00
 0.9205401058927E-01 -0.1008495660475E+01  0.0000000000000E+00
 0.9242273102939E-01 -0.9427303701028E+00  0.0000000000000E+00
 0.9275274011800E-01 -0.8769569295918E+00  0.0000000000000E+00
 0.9303648681432E-01 -0.8111749988621E+00  0.0000000000000E+00
 0.9327314873499E-01 -0.7453861201111E+00  0.0000000000000E+00
 0.9346569534440E-01 -0.6795920138386E+00  0.0000000000000E+00
 0.9361863077215E-01 -0.6137944866494E+00  0.0000000000000E+00
 0.9373671923494E-01 -0.5479947884691E+00  0.0000000000000E+00
 0.9382439983905E-01 -0.4821939141266E+00  0.0000000000000E+00
 0.1193312636781E+00 -0.1666784467507E+01  0.0000000000000E+00
 0.1194469416106E+00 -0.1601037064363E+01  0.0000000000000E+00
 0.1196031633639E+00 -0.1535290837365E+01  0.0000000000000E+00
 0.1198058477548E+00 -0.1469546781322E+01  0.0000000000000E+00
 0.1200613470828E+00 -0.1403806146227E+01  0.0000000000000E+00
 0.1203756668731E+00 -0.1338070738599E+01  0.0000000000000E+00
 0.1207527664332E+00 -0.1272342279054E+01  0.0000000000000E+00
 0.1211915492853E+00 -0.1206622309678E+01  0.0000000000000E+00
 0.1216819474073E+00 -0.1140910490496E+01  0.0000000000000E+00
 0.1222024612488E+00 -0.1075203946219E+01  0.0000000000000E+00
 0.1227229751660E+00 -0.1009497401943E+01  0.0000000000000E+00
 0.1232133735050E+00 -0.9437855827625E+00  0.0000000000000E+00
 0.1236521566907E+00 -0.8780656133886E+00  0.0000000000000E+00
 0.1240292566713E+00 -0.8123371538457E+00  0.0000000000000E+00
 0.1243435769425E+00 -0.7466017462192E+00  0.0000000000000E+00
 0.1245990767911E+00 -0.6808611111264E+00  0.0000000000000E+00
 0.1248017617275E+00 -0.6151170550845E+00  0.0000000000000E+00
 0.1249579840408E+00 -0.5493708280868E+00  0.0000000000000E+00
 0.1250736625410E+00 -0.4836234249434E+00  0.0000000000000E+00
 0.1491586010070E+00 -0.1667384799156E+01  0.0000000000000E+00
 0.1493012271308E+00 -0.1601706053965E+01  0.0000000000000E+00
 0.1494945330316E+00 -0.1536028484898E+01  0.0000000000000E+00
 0.1497459172305E+00 -0.1470353086742E+01  0.0000000000000E+00
 0.1500633200979E+00 -0.1404681109575E+01  0.0000000000000E+00
 0.1504542485424E+00 -0.1339014359804E+01  0.0000000000000E+00
 0.1509236516910E+00 -0.1273354558196E+01  0.0000000000000E+00
 0.1514701589477E+00 -0.1207703246693E+01  0.0000000000000E+00
 0.1520811852768E+00 -0.1142060085454E+01  0.0000000000000E+00
 0.1527298562383E+00 -0.1076422199130E+01  0.0000000000000E+00
 0.1533785272754E+00 -0.1010784312807E+01  0.0000000000000E+00
 0.1539895538216E+00 -0.9451411515694E+00  0.0000000000000E+00
 0.1545360614118E+00 -0.8794898400693E+00  0.0000000000000E+00
 0.1550054649810E+00 -0.8138300384639E+00  0.0000000000000E+00
 0.1553963939063E+00 -0.7481632886949E+00  0.0000000000000E+00
 0.1557137972944E+00 -0.6824913115305E+00  0.0000000000000E+00
 0.1559651820386E+00 -0.6168159133754E+00  0.0000000000000E+00
 0.1561584884995E+00 -0.5511383443096E+00  0.0000000000000E+00
 0.1563011151911E+00 -0.4854595991195E+00  0.0000000000000E+00
 0.1789822802759E+00 -0.1668118331470E+01  0.0000000000000E+00
 0.1791505485831E+00 -0.1602523363477E+01  0.0000000000000E+00
 0.1793796326223E+00 -0.1536929571581E+01  0.0000000000000E+00
 0.1796784106189E+00 -0.1471337950540E+01  0.0000000000000E+00
 0.1800564110131E+00 -0.1405749750540E+01  0.0000000000000E+00
 0.1805226420978E+00 -0.1340166777849E+01  0.0000000000000E+00
 0.1810830428174E+00 -0.1274590753418E+01  0.0000000000000E+00
 0.1817359684599E+00 -0.1209023219015E+01  0.0000000000000E+00
 0.1824663169740E+00 -0.1143463834961E+01  0.0000000000000E+00
 0.1832418390321E+00 -0.1077909725833E+01  0.0000000000000E+00
 0.1840173611658E+00 -0.1012355616707E+01  0.0000000000000E+00
 0.1847477098969E+00 -0.9467962326544E+00  0.0000000000000E+00
 0.1854006358730E+00 -0.8812286982545E+00  0.0000000000000E+00
 0.1859610370131E+00 -0.8156526738272E+00  0.0000000000000E+00
 0.1864272685787E+00 -0.7500697011386E+00  0.0000000000000E+00
 0.1868052694934E+00 -0.6844815011410E+00  0.0000000000000E+00
 0.1871040480356E+00 -0.6188898801021E+00  0.0000000000000E+00
 0.1873331326348E+00 -0.5532960882075E+00  0.0000000000000E+00
 0.1875014015097E+00 -0.4877011202147E+00  0.0000000000000E+00
 0.2088016021235E+00 -0.1668984942169E+01  0.0000000000000E+00
 0.2089939515364E+00 -0.1603488788624E+01  0.0000000000000E+00
 0.2092572526392E+00 -0.1537993811146E+01  0.0000000000000E+00
 0.2096018633630E+00 -0.1472501004457E+01  0.0000000000000E+00
 0.2100389002153E+00 -0.1407011618869E+01  0.0000000000000E+00
 0.2105788728772E+00 -0.1341527460488E+01  0.0000000000000E+00
 0.2112287101067E+00 -0.1276050250483E+01  0.0000000000000E+00
 0.2119864930791E+00 -0.1210581530413E+01  0.0000000000000E+00
 0.2128346027241E+00 -0.1145120960792E+01  0.0000000000000E+00
 0.2137354148261E+00 -0.1079665666113E+01  0.0000000000000E+00
 0.2146362270037E+00 -0.1014210371434E+01  0.0000000000000E+00
 0.2154843368657E+00 -0.9487498018155E+00  0.0000000000000E+00
 0.2162421201716E+00 -0.8832810817495E+00  0.0000000000000E+00
 0.2168919578216E+00 -0.8178038717479E+00  0.0000000000000E+00
 0.2174319309644E+00 -0.7523197133698E+00  0.0000000000000E+00
 0.2178689683374E+00 -0.6868303277847E+00  0.0000000000000E+00
 0.2182135796066E+00 -0.6213375210985E+00  0.0000000000000E+00
 0.2184768812695E+00 -0.5558425436214E+00  0.0000000000000E+00
 0.2186692312501E+00 -0.4903463900771E+00  0.0000000000000E+00
 0.2386158335404E+00 -0.1669984486568E+01  0.0000000000000E+00
 0.2388304532896E+00 -0.1604602088601E+01  0.0000000000000E+00
 0.2391261606856E+00 -0.1539220866665E+01  0.0000000000000E+00
 0.2395147933649E+00 -0.1473841815444E+01  0.0000000000000E+00
 0.2400090559004E+00 -0.1408466185393E+01  0.0000000000000E+00
 0.2406209593635E+00 -0.1343095782431E+01  0.0000000000000E+00
 0.2413584223218E+00 -0.1277732327977E+01  0.0000000000000E+00
 0.2422192518420E+00 -0.1212377363354E+01  0.0000000000000E+00
 0.2431833118313E+00 -0.1147030549294E+01  0.0000000000000E+00
 0.2442076031893E+00 -0.1081689010192E+01  0.0000000000000E+00
 0.2452318946228E+00 -0.1016347471091E+01  0.0000000000000E+00
 0.2461959548292E+00 -0.9510006570345E+00  0.0000000000000E+00
 0.2470567846829E+00 -0.8856456924151E+00  0.0000000000000E+00
 0.2477942480618E+00 -0.8202822379657E+00  0.0000000000000E+00
 0.2484061520058E+00 -0.7549118350073E+00  0.0000000000000E+00
 0.2489004150619E+00 -0.6895362049592E+00  0.0000000000000E+00
 0.2492890482866E+00 -0.6241571537411E+00  0.0000000000000E+00
 0.2495847562426E+00 -0.5587759318069E+00  0.0000000000000E+00
 0.2497993765596E+00 -0.4933935338409E+00  0.0000000000000E+00
 0.2684242694147E+00 -0.1671116799478E+01  0.0000000000000E+00
 0.2686591031430E+00 -0.1605862988404E+01  0.0000000000000E+00
 0.2689851604755E+00 -0.1540610353321E+01  0.0000000000000E+00
 0.2694157587553E+00 -0.1475359888869E+01  0.0000000000000E+00
 0.2699651906179E+00 -0.1410112845663E+01  0.0000000000000E+00
 0.2706469685284E+00 -0.1344871029414E+01  0.0000000000000E+00
 0.2714700008599E+00 -0.1279636161824E+01  0.0000000000000E+00
 0.2724318205741E+00 -0.1214409783944E+01  0.0000000000000E+00
 0.2735097745524E+00 -0.1149191556758E+01  0.0000000000000E+00
 0.2746554888105E+00 -0.1083978604548E+01  0.0000000000000E+00
 0.2758012031444E+00 -0.1018765652339E+01  0.0000000000000E+00
 0.2768791573396E+00 -0.9535474251570E+00  0.0000000000000E+00
 0.2778409773874E+00 -0.8883210472817E+00  0.0000000000000E+00
 0.2786640101394E+00 -0.8230861796958E+00  0.0000000000000E+00
 0.2793457885309E+00 -0.7578443634509E+00  0.0000000000000E+00
 0.2798952209140E+00 -0.6925973202491E+00  0.0000000000000E+00
 0.2803258197392E+00 -0.6273468557994E+00  0.0000000000000E+00
 0.2806518776318E+00 -0.5620942207181E+00  0.0000000000000E+00
 0.2808867119278E+00 -0.4968404096451E+00  0.0000000000000E+00
 0.2982262162405E+00 -0.1672381695408E+01  0.0000000000000E+00
 0.2984789668060E+00 -0.1607271179427E+01  0.0000000000000E+00
 0.2988330769373E+00 -0.1542161839391E+01  0.0000000000000E+00
 0.2993033436852E+00 -0.1477054669892E+01  0.0000000000000E+00
 0.2999056477456E+00 -0.1411950921727E+01  0.0000000000000E+00
 0.3006550029816E+00 -0.1346852400370E+01  0.0000000000000E+00
 0.3015613075666E+00 -0.1281760827839E+01  0.0000000000000E+00
 0.3026218203629E+00 -0.1216677744886E+01  0.0000000000000E+00
 0.3038113712198E+00 -0.1151602812772E+01  0.0000000000000E+00
 0.3050762112702E+00 -0.1086533155653E+01  0.0000000000000E+00
 0.3063410513962E+00 -0.1021463498536E+01  0.0000000000000E+00
 0.3075306024701E+00 -0.9563885664261E+00  0.0000000000000E+00
 0.3085911155999E+00 -0.8913054834775E+00  0.0000000000000E+00
 0.3094974206055E+00 -0.8262139109515E+00  0.0000000000000E+00
 0.3102467763224E+00 -0.7611153895993E+00  0.0000000000000E+00
 0.3108490809033E+00 -0.6960116414382E+00  0.0000000000000E+00
 0.3113193481967E+00 -0.6309044719423E+00  0.0000000000000E+00
 0.3116734588881E+00 -0.5657951319091E+00  0.0000000000000E+00
 0.3119262100213E+00 -0.5006846159287E+00  0.0000000000000E+00
 0.3280209425970E+00 -0.1673778966920E+01  0.0000000000000E+00
 0.3282890794610E+00 -0.1608826318313E+01  0.0000000000000E+00
 0.3286687118504E+00 -0.1543874845604E+01  0.0000000000000E+00
 0.3291761165241E+00 -0.1478925543327E+01  0.0000000000000E+00
 0.3298287622345E+00 -0.1413979662479E+01  0.0000000000000E+00
 0.3306431642467E+00 -0.1349039008277E+01  0.0000000000000E+00
 0.3316302105286E+00 -0.1284105303084E+01  0.0000000000000E+00
 0.3327868858481E+00 -0.1219180087322E+01  0.0000000000000E+00
 0.3340855030187E+00 -0.1154263022560E+01  0.0000000000000E+00
 0.3354669382939E+00 -0.1089351232816E+01  0.0000000000000E+00
 0.3368483736447E+00 -0.1024439443074E+01  0.0000000000000E+00
 0.3381469910323E+00 -0.9595223783156E+00  0.0000000000000E+00
 0.3393036666853E+00 -0.8945971625594E+00  0.0000000000000E+00
 0.3402907133878E+00 -0.8296634573724E+00  0.0000000000000E+00
 0.3411051158809E+00 -0.7647228031751E+00  0.0000000000000E+00
 0.3417577621119E+00 -0.6997769223317E+00  0.0000000000000E+00
 0.3422651673310E+00 -0.6348276200581E+00  0.0000000000000E+00
 0.3426448002805E+00 -0.5698761473508E+00  0.0000000000000E+00
 0.3429129377122E+00 -0.5049234987456E+00  0.0000000000000E+00
 0.3578077951490E+00 -0.1675308389770E+01  0.0000000000000E+00
 0.3580885561653E+00 -0.1610528032351E+01  0.0000000000000E+00
 0.3584909486692E+00 -0.1545748850774E+01  0.0000000000000E+00
 0.3590327291289E+00 -0.1480971839517E+01  0.0000000000000E+00
 0.3597329543503E+00 -0.1416198249793E+01  0.0000000000000E+00
 0.3606096410050E+00 -0.1351429886536E+01  0.0000000000000E+00
 0.3616746668497E+00 -0.1286668472490E+01  0.0000000000000E+00
 0.3629247425635E+00 -0.1221915547716E+01  0.0000000000000E+00
 0.3643296639184E+00 -0.1157170774115E+01  0.0000000000000E+00
 0.3658249322898E+00 -0.1092431275557E+01  0.0000000000000E+00
 0.3673202007369E+00 -0.1027691777001E+01  0.0000000000000E+00
 0.3687251223088E+00 -0.9629470034044E+00  0.0000000000000E+00
 0.3699751983561E+00 -0.8981940786356E+00  0.0000000000000E+00
 0.3710402246213E+00 -0.8334326645960E+00  0.0000000000000E+00
 0.3719169117570E+00 -0.7686643013451E+00  0.0000000000000E+00
 0.3726171374990E+00 -0.7038907116260E+00  0.0000000000000E+00
 0.3731589185041E+00 -0.6391137003723E+00  0.0000000000000E+00
 0.3735613115680E+00 -0.5743345187982E+00  0.0000000000000E+00
 0.3738420731521E+00 -0.5095541613797E+00  0.0000000000000E+00
 0.3875860607136E+00 -0.1676969718067E+01  0.0000000000000E+00
 0.3878764645286E+00 -0.1612375915917E+01  0.0000000000000E+00
 0.3882986357959E+00 -0.1547783289551E+01  0.0000000000000E+00
 0.3888718106944E+00 -0.1483192833383E+01  0.0000000000000E+00
 0.3896166340798E+00 -0.1418605798860E+01  0.0000000000000E+00
 0.3905526240356E+00 -0.1354023990612E+01  0.0000000000000E+00
 0.3916926481006E+00 -0.1289449131793E+01  0.0000000000000E+00
 0.3930331428715E+00 -0.1224882762071E+01  0.0000000000000E+00
 0.3945413870725E+00 -0.1160324543713E+01  0.0000000000000E+00
 0.3961475072028E+00 -0.1095771600424E+01  0.0000000000000E+00
 0.3977536274088E+00 -0.1031218657136E+01  0.0000000000000E+00
 0.3992618718269E+00 -0.9666604387825E+00  0.0000000000000E+00
 0.4006023669313E+00 -0.9020940690673E+00  0.0000000000000E+00
 0.4017423914168E+00 -0.8375192102545E+00  0.0000000000000E+00
 0.4026783818535E+00 -0.7729374020130E+00  0.0000000000000E+00
 0.4034232057596E+00 -0.7083503674957E+00  0.0000000000000E+00
 0.4039963812035E+00 -0.6437599113309E+00  0.0000000000000E+00
 0.4044185530308E+00 -0.5791672849682E+00  0.0000000000000E+00
 0.4047089574136E+00 -0.5145734828194E+00  0.0000000000000E+00
 0.4173550733497E+00 -0.1678762688782E+01  0.0000000000000E+00
 0.4176519204570E+00 -0.1614369534370E+01  0.0000000000000E+00
 0.4180906709789E+00 -0.1549977555680E+01  0.0000000000000E+00
 0.4186920408057E+00 -0.1485587747055E+01  0.0000000000000E+00
 0.4194782628384E+00 -0.1421201360198E+01  0.0000000000000E+00
 0.4204703565771E+00 -0.1356820199408E+01  0.0000000000000E+00
 0.4216821793354E+00 -0.1292445988280E+01  0.0000000000000E+00
 0.4231098936343E+00 -0.1228080266064E+01  0.0000000000000E+00
 0.4247182611449E+00 -0.1163722695415E+01  0.0000000000000E+00
 0.4264320334947E+00 -0.1099370399863E+01  0.0000000000000E+00
 0.4281458059202E+00 -0.1035018104312E+01  0.0000000000000E+00
 0.4297541736479E+00 -0.9706605336683E+00  0.0000000000000E+00
 0.4311818882803E+00 -0.9062948114591E+00  0.0000000000000E+00
 0.4323937114591E+00 -0.8419206003386E+00  0.0000000000000E+00
 0.4333858056787E+00 -0.7775394395554E+00  0.0000000000000E+00
 0.4341720282321E+00 -0.7131530527035E+00  0.0000000000000E+00
 0.4347733986043E+00 -0.6487632440825E+00  0.0000000000000E+00
 0.4352121496862E+00 -0.5843712653956E+00  0.0000000000000E+00
 0.4355089973612E+00 -0.5199781109850E+00  0.0000000000000E+00
 0.4471141841628E+00 -0.1680687022310E+01  0.0000000000000E+00
 0.4474140681448E+00 -0.1616508426641E+01  0.0000000000000E+00
 0.4478659915118E+00 -0.1552331006628E+01  0.0000000000000E+00
 0.4484921498675E+00 -0.1488155756537E+01  0.0000000000000E+00
 0.4493163641549E+00 -0.1423983928345E+01  0.0000000000000E+00
 0.4503611552972E+00 -0.1359817325998E+01  0.0000000000000E+00
 0.4516413703761E+00 -0.1295657673564E+01  0.0000000000000E+00
 0.4531528978439E+00 -0.1231506509842E+01  0.0000000000000E+00
 0.4548579823102E+00 -0.1167363497905E+01  0.0000000000000E+00
 0.4566760005302E+00 -0.1103225761095E+01  0.0000000000000E+00
 0.4584940188258E+00 -0.1039088024287E+01  0.0000000000000E+00
 0.4601991035092E+00 -0.9749450123550E+00  0.0000000000000E+00
 0.4617106313106E+00 -0.9107938486407E+00  0.0000000000000E+00
 0.4629908468100E+00 -0.8466341962143E+00  0.0000000000000E+00
 0.4640356384332E+00 -0.7824675938748E+00  0.0000000000000E+00
 0.4648598532412E+00 -0.7182957656882E+00  0.0000000000000E+00
 0.4654860121423E+00 -0.6541205156026E+00  0.0000000000000E+00
 0.4659379360693E+00 -0.5899430955919E+00  0.0000000000000E+00
 0.4662378206191E+00 -0.5257644999245E+00  0.0000000000000E+00
 0.4768626808375E+00 -0.1682742416794E+01  0.0000000000000E+00
 0.4771619935814E+00 -0.1618792098491E+01  0.0000000000000E+00
 0.4776234816665E+00 -0.1554842955773E+01  0.0000000000000E+00
 0.4782708204089E+00 -0.1490895982827E+01  0.0000000000000E+00
 0.4791294187871E+00 -0.1426952431917E+01  0.0000000000000E+00
 0.4802232991507E+00 -0.1363014106618E+01  0.0000000000000E+00
 0.4815682983403E+00 -0.1299082731497E+01  0.0000000000000E+00
 0.4831600307474E+00 -0.1235159844877E+01  0.0000000000000E+00
 0.4849582239168E+00 -0.1171245110272E+01  0.0000000000000E+00
 0.4868768797426E+00 -0.1107335650828E+01  0.0000000000000E+00
 0.4887955356439E+00 -0.1043426191385E+01  0.0000000000000E+00
 0.4905937290304E+00 -0.9795114567866E+00  0.0000000000000E+00
 0.4921854617710E+00 -0.9155885701742E+00  0.0000000000000E+00
 0.4935304613811E+00 -0.8516571950617E+00  0.0000000000000E+00
 0.4946243422257E+00 -0.7877188697700E+00  0.0000000000000E+00
 0.4954829411245E+00 -0.7237753188667E+00  0.0000000000000E+00
 0.4961302804124E+00 -0.6598283459261E+00  0.0000000000000E+00
 0.4965917690575E+00 -0.5958792032105E+00  0.0000000000000E+00
 0.4968910823691E+00 -0.5319288849093E+00  0.0000000000000E+00
 0.5065999773523E+00 -0.1684928562411E+01  0.0000000000000E+00
 0.5068949207371E+00 -0.1621220040089E+01  0.0000000000000E+00
 0.5073621754349E+00 -0.1557512693277E+01  0.0000000000000E+00
 0.5080268964777E+00 -0.1493807516079E+01  0.0000000000000E+00
 0.5089160808768E+00 -0.1430105761064E+01  0.0000000000000E+00
 0.5100552524167E+00 -0.1366409231408E+01  0.0000000000000E+00
 0.5114612376898E+00 -0.1302719652214E+01  0.0000000000000E+00
 0.5131293770345E+00 -0.1239038561295E+01  0.0000000000000E+00
 0.5150168809198E+00 -0.1175365622638E+01  0.0000000000000E+00
 0.5170323763743E+00 -0.1111697959174E+01  0.0000000000000E+00
 0.5190478719044E+00 -0.1048030295713E+01  0.0000000000000E+00
 0.5209353760067E+00 -0.9843573570614E+00  0.0000000000000E+00
 0.5226035156849E+00 -0.9206762661513E+00  0.0000000000000E+00
 0.5240095013785E+00 -0.8569866869656E+00  0.0000000000000E+00
 0.5251486733994E+00 -0.7932901573186E+00  0.0000000000000E+00
 0.5260378583190E+00 -0.7295884023095E+00  0.0000000000000E+00
 0.5267025799074E+00 -0.6658832251168E+00  0.0000000000000E+00
 0.5271698351652E+00 -0.6021758783080E+00  0.0000000000000E+00
 0.5274647791177E+00 -0.5384673559889E+00  0.0000000000000E+00
 0.5363253937430E+00 -0.1687245126228E+01  0.0000000000000E+00
 0.5366119860150E+00 -0.1623791708789E+01  0.0000000000000E+00
 0.5370810255763E+00 -0.1560339466780E+01  0.0000000000000E+00
 0.5377591471768E+00 -0.1496889394217E+01  0.0000000000000E+00
 0.5386749358556E+00 -0.1433442743990E+01  0.0000000000000E+00
 0.5398554168395E+00 -0.1370001318861E+01  0.0000000000000E+00
 0.5413184064642E+00 -0.1306566844490E+01  0.0000000000000E+00
 0.5430589710231E+00 -0.1243140858158E+01  0.0000000000000E+00
 0.5450318039010E+00 -0.1179723024346E+01  0.0000000000000E+00
 0.5471401572628E+00 -0.1116310465763E+01  0.0000000000000E+00
 0.5492485107003E+00 -0.1052897907183E+01  0.0000000000000E+00
 0.5512213437952E+00 -0.9894800733776E+00  0.0000000000000E+00
 0.5529619086877E+00 -0.9260540870546E+00  0.0000000000000E+00
 0.5544248987329E+00 -0.8626196126929E+00  0.0000000000000E+00
 0.5556053801978E+00 -0.7991781875723E+00  0.0000000000000E+00
 0.5565211693972E+00 -0.7357315373529E+00  0.0000000000000E+00
 0.5571992915431E+00 -0.6722814647954E+00  0.0000000000000E+00
 0.5576683316644E+00 -0.6088292227895E+00  0.0000000000000E+00
 0.5579549245041E+00 -0.5453758053527E+00  0.0000000000000E+00
 0.5660383036526E+00 -0.1689691762168E+01  0.0000000000000E+00
 0.5663123811983E+00 -0.1626506539575E+01  0.0000000000000E+00
 0.5667790419974E+00 -0.1563322492327E+01  0.0000000000000E+00
 0.5674664005168E+00 -0.1500140614350E+01  0.0000000000000E+00
 0.5684046298164E+00 -0.1436962158871E+01  0.0000000000000E+00
 0.5696222565698E+00 -0.1373788928213E+01  0.0000000000000E+00
 0.5711380868456E+00 -0.1310622648626E+01  0.0000000000000E+00
 0.5729469129013E+00 -0.1247464856829E+01  0.0000000000000E+00
 0.5750009110328E+00 -0.1184315217823E+01  0.0000000000000E+00
 0.5771979585521E+00 -0.1121170854085E+01  0.0000000000000E+00
 0.5793950061471E+00 -0.1058026490350E+01  0.0000000000000E+00
 0.5814490044956E+00 -0.9948768513511E+00  0.0000000000000E+00
 0.5832578308849E+00 -0.9317190595634E+00  0.0000000000000E+00
 0.5847736615812E+00 -0.8685527799859E+00  0.0000000000000E+00
 0.5859912888156E+00 -0.8053795493368E+00  0.0000000000000E+00
 0.5869295186357E+00 -0.7422010938657E+00  0.0000000000000E+00
 0.5876168777006E+00 -0.6790192158940E+00  0.0000000000000E+00
 0.5880835390597E+00 -0.6158351686501E+00  0.0000000000000E+00
 0.5883576171732E+00 -0.5526499460589E+00  0.0000000000000E+00
-0.1182610616184E+01 -0.1709938151910E+01  0.0000000000000E+00
-0.1206840600949E+01 -0.1599271303952E+01  0.0000000000000E+00
-0.1234987980858E+01 -0.1489562273115E+01  0.0000000000000E+00
-0.1268147886288E+01 -0.1381306365269E+01  0.0000000000000E+00
-0.1307801009883E+01 -0.1275324724782E+01  0.0000000000000E+00
-0.1353020462603E+01 -0.1171637126831E+01  0.0000000000000E+00
-0.1397268459649E+01 -0.1067515066351E+01  0.0000000000000E+00
-0.1437122473078E+01 -0.9615813592161E+00  0.0000000000000E+00
-0.1472550192246E+01 -0.8540374650362E+00  0.0000000000000E+00
-0.1503921191345E+01 -0.7452053677059E+00  0.0000000000000E+00
-0.1531272791497E+01 -0.6352674555980E+00  0.0000000000000E+00
-0.1554282707568E+01 -0.5243175831196E+00  0.0000000000000E+00
-0.1572939532414E+01 -0.4125357734460E+00  0.0000000000000E+00
-0.1586992041029E+01 -0.3000702231276E+00  0.0000000000000E+00
-0.1595657715404E+01 -0.1870553481994E+00  0.0000000000000E+00
-0.1598364296081E+01 -0.7373369945448E-01  0.0000000000000E+00
-0.1596500729268E+01  0.3959193470411E-01  0.0000000000000E+00
-0.1576465557885E+01  0.1508144777421E+00  0.0000000000000E+00
-0.1525097607493E+01  0.2508838507572E+00  0.0000000000000E+00
-0.1151849224518E+01 -0.1708018429854E+01  0.0000000000000E+00
-0.1174810817950E+01 -0.1599917521458E+01  0.0000000000000E+00
-0.1201494297363E+01 -0.1492724079797E+01  0.0000000000000E+00
-0.1232938712419E+01 -0.1386907393241E+01  0.0000000000000E+00
-0.1270548496269E+01 -0.1283245453469E+01  0.0000000000000E+00
-0.1313447122937E+01 -0.1181757097507E+01  0.0000000000000E+00
-0.1355441944237E+01 -0.1079857510625E+01  0.0000000000000E+00
-0.1393290276807E+01 -0.9762420726324E+00  0.0000000000000E+00
-0.1426958860821E+01 -0.8711016241228E+00  0.0000000000000E+00
-0.1456792161492E+01 -0.7647410505408E+00  0.0000000000000E+00
-0.1482817610549E+01 -0.6573328628486E+00  0.0000000000000E+00
-0.1504721960076E+01 -0.5489656979899E+00  0.0000000000000E+00
-0.1522488745507E+01 -0.4398099530286E+00  0.0000000000000E+00
-0.1535877314757E+01 -0.3300060065687E+00  0.0000000000000E+00
-0.1544146046571E+01 -0.2196812801132E+00  0.0000000000000E+00
-0.1546753842042E+01 -0.1090656515018E+00  0.0000000000000E+00
-0.1545018125930E+01  0.1553936656996E-02  0.0000000000000E+00
-0.1526054989336E+01  0.1101813215066E+00  0.0000000000000E+00
-0.1477397507004E+01  0.2082426775406E+00  0.0000000000000E+00
-0.1121071481666E+01 -0.1706207396943E+01  0.0000000000000E+00
-0.1142765544784E+01 -0.1600666705050E+01  0.0000000000000E+00
-0.1167985984722E+01 -0.1495983129601E+01  0.0000000000000E+00
-0.1197715770410E+01 -0.1392599941581E+01  0.0000000000000E+00
-0.1233283075506E+01 -0.1291251980047E+01  0.0000000000000E+00
-0.1273861737223E+01 -0.1191957143015E+01  0.0000000000000E+00
-0.1313604243862E+01 -0.1092274306747E+01  0.0000000000000E+00
-0.1349447756621E+01 -0.9909714150146E+00  0.0000000000000E+00
-0.1381358066526E+01 -0.8882286892072E+00  0.0000000000000E+00
-0.1409654529800E+01 -0.7843339163719E+00  0.0000000000000E+00
-0.1434354688775E+01 -0.6794497301018E+00  0.0000000000000E+00
-0.1455154332752E+01 -0.5736595498896E+00  0.0000000000000E+00
-0.1472031939748E+01 -0.4671241466607E+00  0.0000000000000E+00
-0.1484757430585E+01 -0.3599760811308E+00  0.0000000000000E+00
-0.1492630080751E+01 -0.2523357803654E+00  0.0000000000000E+00
-0.1495139951914E+01 -0.1444204490327E+00  0.0000000000000E+00
-0.1493532947327E+01 -0.3650118443096E-01  0.0000000000000E+00
-0.1475642704875E+01  0.6953675537040E-01  0.0000000000000E+00
-0.1429696548673E+01  0.1655957997913E+00  0.0000000000000E+00
-0.1090277778680E+01 -0.1704505302474E+01  0.0000000000000E+00
-0.1110705151904E+01 -0.1601519090901E+01  0.0000000000000E+00
-0.1134463392784E+01 -0.1499339645572E+01  0.0000000000000E+00
-0.1162479389508E+01 -0.1398384220211E+01  0.0000000000000E+00
-0.1196005056235E+01 -0.1299344501311E+01  0.0000000000000E+00
-0.1234264593488E+01 -0.1202237447020E+01  0.0000000000000E+00
-0.1271755625938E+01 -0.1104765625254E+01  0.0000000000000E+00
-0.1305595159327E+01 -0.1005769543773E+01  0.0000000000000E+00
-0.1335748035559E+01 -0.9054188045732E+00  0.0000000000000E+00
-0.1362508501866E+01 -0.8039840963573E+00  0.0000000000000E+00
-0.1385884211173E+01 -0.7016181753908E+00  0.0000000000000E+00
-0.1405579989997E+01 -0.5983992437282E+00  0.0000000000000E+00
-0.1421569258942E+01 -0.4944784461285E+00  0.0000000000000E+00
-0.1433632511731E+01 -0.3899805254777E+00  0.0000000000000E+00
-0.1441109920573E+01 -0.2850189144976E+00  0.0000000000000E+00
-0.1443522707747E+01 -0.1797981444669E+00  0.0000000000000E+00
-0.1442045254927E+01 -0.7457346785855E-01  0.0000000000000E+00
-0.1425228745440E+01  0.2888075313570E-01  0.0000000000000E+00
-0.1381994752957E+01  0.1229432044031E+00  0.0000000000000E+00
-0.1059468488513E+01 -0.1702912387231E+01  0.0000000000000E+00
-0.1078629992469E+01 -0.1602474907163E+01  0.0000000000000E+00
-0.1100926854868E+01 -0.1502793843219E+01  0.0000000000000E+00
-0.1127229883123E+01 -0.1404260431974E+01  0.0000000000000E+00
-0.1158714731872E+01 -0.1307523207410E+01  0.0000000000000E+00
-0.1194655965084E+01 -0.1212598186943E+01  0.0000000000000E+00
-0.1229896343770E+01 -0.1117331630845E+01  0.0000000000000E+00
-0.1261732718247E+01 -0.1020636610909E+01  0.0000000000000E+00
-0.1290128981326E+01 -0.9226721095494E+00  0.0000000000000E+00
-0.1315354271230E+01 -0.8236917171689E+00  0.0000000000000E+00
-0.1337406351476E+01 -0.7238383127460E+00  0.0000000000000E+00
-0.1355999085795E+01 -0.6231848809079E+00  0.0000000000000E+00
-0.1371100837377E+01 -0.5218729402175E+00  0.0000000000000E+00
-0.1382502672845E+01 -0.4200194157871E+00  0.0000000000000E+00
-0.1389585661121E+01 -0.3177307460877E+00  0.0000000000000E+00
-0.1391902185134E+01 -0.2151987887865E+00  0.0000000000000E+00
-0.1390555104895E+01 -0.1126629520127E+00  0.0000000000000E+00
-0.1374813148038E+01 -0.1178671098245E-01  0.0000000000000E+00
-0.1334292138156E+01  0.8028487832643E-01  0.0000000000000E+00
-0.1028644031902E+01 -0.1701428892511E+01  0.0000000000000E+00
-0.1046540465220E+01 -0.1603534382381E+01  0.0000000000000E+00
-0.1067376747767E+01 -0.1506345938346E+01  0.0000000000000E+00
-0.1091967606169E+01 -0.1410228779957E+01  0.0000000000000E+00
-0.1121412435542E+01 -0.1315788288743E+01  0.0000000000000E+00
-0.1155036163413E+01 -0.1223039540529E+01  0.0000000000000E+00
-0.1188026687019E+01 -0.1129972488601E+01  0.0000000000000E+00
-0.1217860701239E+01 -0.1035572768820E+01  0.0000000000000E+00
-0.1244501149814E+01 -0.9399887438216E+00  0.0000000000000E+00
-0.1268192061956E+01 -0.8434569057652E+00  0.0000000000000E+00
-0.1288921311765E+01 -0.7461102563833E+00  0.0000000000000E+00
-0.1306411800184E+01 -0.6480165628883E+00  0.0000000000000E+00
-0.1320626833000E+01 -0.5493077176197E+00  0.0000000000000E+00
-0.1331368049718E+01 -0.4500928279743E+00  0.0000000000000E+00
-0.1338057415963E+01 -0.3504713382674E+00  0.0000000000000E+00
-0.1340278475341E+01 -0.2506224323349E+00  0.0000000000000E+00
-0.1339062566136E+01 -0.1507696744498E+00  0.0000000000000E+00
-0.1324395959008E+01 -0.5246566180157E-01  0.0000000000000E+00
-0.1286588727643E+01  0.3762080931293E-01  0.0000000000000E+00
-0.9978048091164E+00 -0.1700055050454E+01  0.0000000000000E+00
-0.1014436949344E+01 -0.1604697736472E+01  0.0000000000000E+00
-0.1033813429585E+01 -0.1509996138651E+01  0.0000000000000E+00
-0.1056692895666E+01 -0.1416289459633E+01  0.0000000000000E+00
-0.1084098483174E+01 -0.1324139928563E+01  0.0000000000000E+00
-0.1115405483312E+01 -0.1233561678802E+01  0.0000000000000E+00
-0.1146146929431E+01 -0.1142688357325E+01  0.0000000000000E+00
-0.1173979360959E+01 -0.1050578164083E+01  0.0000000000000E+00
-0.1198864772593E+01 -0.9573688417442E+00  0.0000000000000E+00
-0.1221022084529E+01 -0.8632797842780E+00  0.0000000000000E+00
-0.1240429281443E+01 -0.7684341162128E+00  0.0000000000000E+00
-0.1256818301491E+01 -0.6728943873585E+00  0.0000000000000E+00
-0.1270147393055E+01 -0.5767828638030E+00  0.0000000000000E+00
-0.1280228768520E+01 -0.4802008352871E+00  0.0000000000000E+00
-0.1286525290197E+01 -0.3832407520642E+00  0.0000000000000E+00
-0.1288651662395E+01 -0.2860691239199E+00  0.0000000000000E+00
-0.1287567701612E+01 -0.1888936717586E+00  0.0000000000000E+00
-0.1273977220288E+01 -0.9315612371048E-01  0.0000000000000E+00
-0.1238884542376E+01 -0.5049014836916E-02  0.0000000000000E+00
-0.9669512233292E+00 -0.1698791087330E+01  0.0000000000000E+00
-0.9823198267800E+00 -0.1605965183794E+01  0.0000000000000E+00
-0.1000237261024E+01 -0.1513744646577E+01  0.0000000000000E+00
-0.1021406091078E+01 -0.1422442661535E+01  0.0000000000000E+00
-0.1046773192995E+01 -0.1332578305487E+01  0.0000000000000E+00
-0.1075764221763E+01 -0.1244164768467E+01  0.0000000000000E+00
-0.1104257346747E+01 -0.1155479391803E+01  0.0000000000000E+00
-0.1130088951907E+01 -0.1065652939568E+01  0.0000000000000E+00
-0.1153220082925E+01 -0.9748125342746E+00  0.0000000000000E+00
-0.1173844550973E+01 -0.8831604717515E+00  0.0000000000000E+00
-0.1191930451300E+01 -0.7908099993657E+00  0.0000000000000E+00
-0.1207218759270E+01 -0.6978184495369E+00  0.0000000000000E+00
-0.1219662665868E+01 -0.6042984620743E+00  0.0000000000000E+00
-0.1229084956349E+01 -0.5103435091204E+00  0.0000000000000E+00
-0.1234989389694E+01 -0.4160390469624E+00  0.0000000000000E+00
-0.1237021830944E+01 -0.3215389111147E+00  0.0000000000000E+00
-0.1236070574753E+01 -0.2270349796020E+00  0.0000000000000E+00
-0.1223556974129E+01 -0.1338581204802E+00  0.0000000000000E+00
-0.1191179603475E+01 -0.4772460601326E-01  0.0000000000000E+00
-0.9360836724979E+00 -0.1697637222502E+01  0.0000000000000E+00
-0.9501894744693E+00 -0.1607336932178E+01  0.0000000000000E+00
-0.9666485979921E+00 -0.1517591658418E+01  0.0000000000000E+00
-0.9861075272542E+00 -0.1428688570411E+01  0.0000000000000E+00
-0.1009436878761E+01 -0.1341103592706E+01  0.0000000000000E+00
-0.1036112671401E+01 -0.1254848971143E+01  0.0000000000000E+00
-0.1062358210486E+01 -0.1168345742088E+01  0.0000000000000E+00
-0.1086189724515E+01 -0.1080797233774E+01  0.0000000000000E+00
-0.1107567310176E+01 -0.9923199483614E+00  0.0000000000000E+00
-0.1126659669612E+01 -0.9030990835921E+00  0.0000000000000E+00
-0.1143425008638E+01 -0.8132380097123E+00  0.0000000000000E+00
-0.1157613339827E+01 -0.7227888417635E+00  0.0000000000000E+00
-0.1169172796767E+01 -0.6318545932468E+00  0.0000000000000E+00
-0.1177936737578E+01 -0.5405209187650E+00  0.0000000000000E+00
-0.1183449817901E+01 -0.4488662807332E+00  0.0000000000000E+00
-0.1185389063541E+01 -0.3570318401726E+00  0.0000000000000E+00
-0.1184571247236E+01 -0.2651936327164E+00  0.0000000000000E+00
-0.1173135261469E+01 -0.1745716753379E+00  0.0000000000000E+00
-0.1143473931327E+01 -0.9040597589074E-01  0.0000000000000E+00
-0.9052025656608E+00 -0.1696593670407E+01  0.0000000000000E+00
-0.9180462799102E+00 -0.1608813184770E+01  0.0000000000000E+00
-0.9330478064465E+00 -0.1521537366029E+01  0.0000000000000E+00
-0.9507975486092E+00 -0.1435027366826E+01  0.0000000000000E+00
-0.9720898633460E+00 -0.1349715959497E+01  0.0000000000000E+00
-0.9964511335561E+00 -0.1265614444814E+01  0.0000000000000E+00
-0.1020449800433E+01 -0.1181287554874E+01  0.0000000000000E+00
-0.1042281937024E+01 -0.1096011182100E+01  0.0000000000000E+00
-0.1061906691047E+01 -0.1009891208114E+01  0.0000000000000E+00
-0.1079467655605E+01 -0.9230957326186E+00  0.0000000000000E+00
-0.1094913147077E+01 -0.8357182487808E+00  0.0000000000000E+00
-0.1108002215241E+01 -0.7478056542760E+00  0.0000000000000E+00
-0.1118677936293E+01 -0.6594513362685E+00  0.0000000000000E+00
-0.1126784241210E+01 -0.5707331318790E+00  0.0000000000000E+00
-0.1131906682287E+01 -0.4817225097452E+00  0.0000000000000E+00
-0.1133753446117E+01 -0.3925479561725E+00  0.0000000000000E+00
-0.1133069783463E+01 -0.3033696648919E+00  0.0000000000000E+00
-0.1122712125213E+01 -0.2152968108032E+00  0.0000000000000E+00
-0.1095767547380E+01 -0.1330931357309E+00  0.0000000000000E+00
-0.8743083235843E+00 -0.1695660640404E+01  0.0000000000000E+00
-0.8858906417741E+00 -0.1610394139888E+01  0.0000000000000E+00
-0.8994352629835E+00 -0.1525581956693E+01  0.0000000000000E+00
-0.9154765096915E+00 -0.1441459227032E+01  0.0000000000000E+00
-0.9347324792844E+00 -0.1358415571095E+01  0.0000000000000E+00
-0.9567799187723E+00 -0.1276461343713E+01  0.0000000000000E+00
-0.9785324051374E+00 -0.1194304973383E+01  0.0000000000000E+00
-0.9983658559628E+00 -0.1111294916756E+01  0.0000000000000E+00
-0.1016238470020E+01 -0.1027526434715E+01  0.0000000000000E+00
-0.1032268731369E+01 -0.9431505289813E+00  0.0000000000000E+00
-0.1046395066944E+01 -0.8582508156835E+00  0.0000000000000E+00
-0.1058385563728E+01 -0.7728689751435E+00  0.0000000000000E+00
-0.1068178240529E+01 -0.6870887681605E+00  0.0000000000000E+00
-0.1075627601174E+01 -0.6009802144323E+00  0.0000000000000E+00
-0.1080360094597E+01 -0.5146077889146E+00  0.0000000000000E+00
-0.1082115068208E+01 -0.4280873029753E+00  0.0000000000000E+00
-0.1081566250735E+01 -0.3415631089346E+00  0.0000000000000E+00
-0.1072287610372E+01 -0.2560335486556E+00  0.0000000000000E+00
-0.1048060474216E+01 -0.1757860963612E+00  0.0000000000000E+00
-0.8434013602891E+00 -0.1694838334539E+01  0.0000000000000E+00
-0.8537229522776E+00 -0.1612079988939E+01  0.0000000000000E+00
-0.8658113380143E+00 -0.1529725611177E+01  0.0000000000000E+00
-0.8801447591061E+00 -0.1447984321162E+01  0.0000000000000E+00
-0.8973650533733E+00 -0.1367202586994E+01  0.0000000000000E+00
-0.9170993320358E+00 -0.1287389816692E+01  0.0000000000000E+00
-0.9366063077746E+00 -0.1207398135830E+01  0.0000000000000E+00
-0.9544417426990E+00 -0.1126648565315E+01  0.0000000000000E+00
-0.9705628866563E+00 -0.1045225745102E+01  0.0000000000000E+00
-0.9850631146560E+00 -0.9632635789787E+00  0.0000000000000E+00
-0.9978709641868E+00 -0.8808358060813E+00  0.0000000000000E+00
-0.1008763559434E+01 -0.7979788893896E+00  0.0000000000000E+00
-0.1017673861820E+01 -0.7147669633096E+00  0.0000000000000E+00
-0.1024466948015E+01 -0.6312622301750E+00  0.0000000000000E+00
-0.1028810163580E+01 -0.5475221713554E+00  0.0000000000000E+00
-0.1030474016764E+01 -0.4636499230587E+00  0.0000000000000E+00
-0.1030060714210E+01 -0.3797739966868E+00  0.0000000000000E+00
-0.1021861760353E+01 -0.2967819101190E+00  0.0000000000000E+00
-0.1000352733534E+01 -0.2184848683968E+00  0.0000000000000E+00
-0.8124820923393E+00 -0.1694126948634E+01  0.0000000000000E+00
-0.8215436060466E+00 -0.1613870917436E+01  0.0000000000000E+00
-0.8321764042262E+00 -0.1533968504685E+01  0.0000000000000E+00
-0.8448026476007E+00 -0.1454602814107E+01  0.0000000000000E+00
-0.8599879144201E+00 -0.1376077161776E+01  0.0000000000000E+00
-0.8774096802096E+00 -0.1298400008021E+01  0.0000000000000E+00
-0.8946717932639E+00 -0.1220567176174E+01  0.0000000000000E+00
-0.9105098602098E+00 -0.1142072251424E+01  0.0000000000000E+00
-0.9248801819917E+00 -0.1062989252608E+01  0.0000000000000E+00
-0.9378510245649E+00 -0.9834349856361E+00  0.0000000000000E+00
-0.9493410359662E+00 -0.9034733126893E+00  0.0000000000000E+00
-0.9591363775820E+00 -0.8231354794195E+00  0.0000000000000E+00
-0.9671649534541E+00 -0.7424859938115E+00  0.0000000000000E+00
-0.9733024130866E+00 -0.6615792408938E+00  0.0000000000000E+00
-0.9772569986568E+00 -0.5804657085455E+00  0.0000000000000E+00
-0.9788303792791E+00 -0.4992358575917E+00  0.0000000000000E+00
-0.9785532394554E+00 -0.4180023590096E+00  0.0000000000000E+00
-0.9714346188367E+00 -0.3375419157624E+00  0.0000000000000E+00
-0.9526443471667E+00 -0.2611894621254E+00  0.0000000000000E+00
-0.7815509360540E+00 -0.1693526671952E+01  0.0000000000000E+00
-0.7893529974569E+00 -0.1615767104683E+01  0.0000000000000E+00
-0.7985308340446E+00 -0.1538310806561E+01  0.0000000000000E+00
-0.8094505256421E+00 -0.1461314865248E+01  0.0000000000000E+00
-0.8226013909215E+00 -0.1385039444855E+01  0.0000000000000E+00
-0.8377112698082E+00 -0.1309492057141E+01  0.0000000000000E+00
-0.8527291461403E+00 -0.1233812223881E+01  0.0000000000000E+00
-0.8665704710604E+00 -0.1157566094584E+01  0.0000000000000E+00
-0.8791905966306E+00 -0.1080817066771E+01  0.0000000000000E+00
-0.8906326797461E+00 -0.1003664848526E+01  0.0000000000000E+00
-0.9008054789872E+00 -0.9261634251201E+00  0.0000000000000E+00
-0.9095041929406E+00 -0.8483388248877E+00  0.0000000000000E+00
-0.9166516682694E+00 -0.7702459293638E+00  0.0000000000000E+00
-0.9221341273071E+00 -0.6919313063309E+00  0.0000000000000E+00
-0.9257007088365E+00 -0.6134384502728E+00  0.0000000000000E+00
-0.9271842428608E+00 -0.5348451464090E+00  0.0000000000000E+00
-0.9270438916883E+00 -0.4562482257846E+00  0.0000000000000E+00
-0.9210062292211E+00 -0.3783135855268E+00  0.0000000000000E+00
-0.9049353367833E+00 -0.3038998875393E+00  0.0000000000000E+00
-0.7506083067926E+00 -0.1693037687126E+01  0.0000000000000E+00
-0.7571515199521E+00 -0.1617768723708E+01  0.0000000000000E+00
-0.7648749989831E+00 -0.1542752680226E+01  0.0000000000000E+00
-0.7740887427956E+00 -0.1468120628396E+01  0.0000000000000E+00
-0.7852058104717E+00 -0.1394089580419E+01  0.0000000000000E+00
-0.7980044064311E+00 -0.1320666098610E+01  0.0000000000000E+00
-0.8107786500141E+00 -0.1247133403882E+01  0.0000000000000E+00
-0.8226238368907E+00 -0.1173130210103E+01  0.0000000000000E+00
-0.8334943702607E+00 -0.1098709293284E+01  0.0000000000000E+00
-0.8434082979516E+00 -0.1023953263733E+01  0.0000000000000E+00
-0.8522644890822E+00 -0.9489062298512E+00  0.0000000000000E+00
-0.8598671794387E+00 -0.8735890026696E+00  0.0000000000000E+00
-0.8661341583082E+00 -0.7980468372435E+00  0.0000000000000E+00
-0.8709622208482E+00 -0.7223184841673E+00  0.0000000000000E+00
-0.8741414024410E+00 -0.6464404446253E+00  0.0000000000000E+00
-0.8755356940038E+00 -0.5704778280057E+00  0.0000000000000E+00
-0.8755327355947E+00 -0.4945116259155E+00  0.0000000000000E+00
-0.8705766344891E+00 -0.4190969387318E+00  0.0000000000000E+00
-0.8572257238154E+00 -0.3466161543434E+00  0.0000000000000E+00
-0.7196546383067E+00 -0.1692660171955E+01  0.0000000000000E+00
-0.7249395845113E+00 -0.1619875942931E+01  0.0000000000000E+00
-0.7312092872703E+00 -0.1547294284722E+01  0.0000000000000E+00
-0.7387176645684E+00 -0.1475020253223E+01  0.0000000000000E+00
-0.7478015158933E+00 -0.1403227708788E+01  0.0000000000000E+00
-0.7582894102453E+00 -0.1331922263408E+01  0.0000000000000E+00
-0.7688206023893E+00 -0.1260530837814E+01  0.0000000000000E+00
-0.7786702325147E+00 -0.1188764710264E+01  0.0000000000000E+00
-0.7877917549782E+00 -0.1116666035064E+01  0.0000000000000E+00
-0.7961781085352E+00 -0.1044300324802E+01  0.0000000000000E+00
-0.8037182728390E+00 -0.9717018110512E+00  0.0000000000000E+00
-0.8102255208740E+00 -0.8988860875506E+00  0.0000000000000E+00
-0.8156125845540E+00 -0.8258887828474E+00  0.0000000000000E+00
-0.8197868318547E+00 -0.7527408304077E+00  0.0000000000000E+00
-0.8225791947468E+00 -0.6794717382122E+00  0.0000000000000E+00
-0.8238848250832E+00 -0.6061339395944E+00  0.0000000000000E+00
-0.8240198406246E+00 -0.5327925872182E+00  0.0000000000000E+00
-0.8201458810983E+00 -0.4598919938240E+00  0.0000000000000E+00
-0.8095155315770E+00 -0.3893382716925E+00  0.0000000000000E+00
-0.6886903565093E+00 -0.1692394296717E+01  0.0000000000000E+00
-0.6927175946182E+00 -0.1622088923663E+01  0.0000000000000E+00
-0.6975340799601E+00 -0.1551935772397E+01  0.0000000000000E+00
-0.7033376495840E+00 -0.1482013883113E+01  0.0000000000000E+00
-0.7103888433793E+00 -0.1412453964381E+01  0.0000000000000E+00
-0.7185665950094E+00 -0.1343260676984E+01  0.0000000000000E+00
-0.7268552945909E+00 -0.1274004642159E+01  0.0000000000000E+00
-0.7347099268254E+00 -0.1204469702582E+01  0.0000000000000E+00
-0.7420829972449E+00 -0.1134687390663E+01  0.0000000000000E+00
-0.7489423355285E+00 -0.1064706121319E+01  0.0000000000000E+00
-0.7551670318599E+00 -0.9945502493410E+00  0.0000000000000E+00
-0.7605793964204E+00 -0.9242301511863E+00  0.0000000000000E+00
-0.7650871037535E+00 -0.8537718288664E+00  0.0000000000000E+00
-0.7686080946470E+00 -0.7831983987784E+00  0.0000000000000E+00
-0.7710141976503E+00 -0.7125323757957E+00  0.0000000000000E+00
-0.7722317255725E+00 -0.6418135169728E+00  0.0000000000000E+00
-0.7725052738312E+00 -0.5710911365270E+00  0.0000000000000E+00
-0.7697140137222E+00 -0.5006987686882E+00  0.0000000000000E+00
-0.7618047823999E+00 -0.4320662485312E+00  0.0000000000000E+00
-0.6577158894649E+00 -0.1692240225162E+01  0.0000000000000E+00
-0.6604859557950E+00 -0.1624407821033E+01  0.0000000000000E+00
-0.6638497600319E+00 -0.1556677289756E+01  0.0000000000000E+00
-0.6679490582789E+00 -0.1489101655950E+01  0.0000000000000E+00
-0.6729681308228E+00 -0.1421768476460E+01  0.0000000000000E+00
-0.6788362760697E+00 -0.1354681459979E+01  0.0000000000000E+00
-0.6848830194189E+00 -0.1287554928934E+01  0.0000000000000E+00
-0.6907431900779E+00 -0.1220245290453E+01  0.0000000000000E+00
-0.6963683447720E+00 -0.1152773454854E+01  0.0000000000000E+00
-0.7017012040992E+00 -0.1085170739436E+01  0.0000000000000E+00
-0.7066109687703E+00 -0.1017451622250E+01  0.0000000000000E+00
-0.7109289861621E+00 -0.9496212624844E+00  0.0000000000000E+00
-0.7145578734505E+00 -0.8816960355872E+00  0.0000000000000E+00
-0.7174261442299E+00 -0.8136912409452E+00  0.0000000000000E+00
-0.7194465236187E+00 -0.7456224004210E+00  0.0000000000000E+00
-0.7205764854021E+00 -0.6775165945656E+00  0.0000000000000E+00
-0.7209891026108E+00 -0.6094072996466E+00  0.0000000000000E+00
-0.7192810772636E+00 -0.5415172805228E+00  0.0000000000000E+00
-0.7140934987308E+00 -0.4748000934607E+00  0.0000000000000E+00
-0.6267316673077E+00 -0.1692198114453E+01  0.0000000000000E+00
-0.6282450755248E+00 -0.1626832783928E+01  0.0000000000000E+00
-0.6301567123173E+00 -0.1561518977415E+01  0.0000000000000E+00
-0.6325522528331E+00 -0.1496283704073E+01  0.0000000000000E+00
-0.6355397177521E+00 -0.1431171369089E+01  0.0000000000000E+00
-0.6390987702994E+00 -0.1366184728180E+01  0.0000000000000E+00
-0.6429040710920E+00 -0.1301181805651E+01  0.0000000000000E+00
-0.6467702938377E+00 -0.1236091573113E+01  0.0000000000000E+00
-0.6506480464722E+00 -0.1170924318597E+01  0.0000000000000E+00
-0.6544549405083E+00 -0.1105694261838E+01  0.0000000000000E+00
-0.6580502871802E+00 -0.1040406004188E+01  0.0000000000000E+00
-0.6612744710591E+00 -0.9750594875815E+00  0.0000000000000E+00
-0.6640250519556E+00 -0.9096614608717E+00  0.0000000000000E+00
-0.6662411162656E+00 -0.8442194064959E+00  0.0000000000000E+00
-0.6678762856675E+00 -0.7787418534021E+00  0.0000000000000E+00
-0.6689191949418E+00 -0.7132432054128E+00  0.0000000000000E+00
-0.6694713946900E+00 -0.6477411013437E+00  0.0000000000000E+00
-0.6688471168461E+00 -0.5823475458340E+00  0.0000000000000E+00
-0.6663817031269E+00 -0.5175398147359E+00  0.0000000000000E+00
 0.6267316770671E+00 -0.1692198115309E+01  0.0000000000000E+00
 0.6282450842043E+00 -0.1626832784735E+01  0.0000000000000E+00
 0.6301567199257E+00 -0.1561518978170E+01  0.0000000000000E+00
 0.6325522593862E+00 -0.1496283704774E+01  0.0000000000000E+00
 0.6355397232755E+00 -0.1431171369731E+01  0.0000000000000E+00
 0.6390987748289E+00 -0.1366184728759E+01  0.0000000000000E+00
 0.6429040746811E+00 -0.1301181806162E+01  0.0000000000000E+00
 0.6467702965677E+00 -0.1236091573554E+01  0.0000000000000E+00
 0.6506480484535E+00 -0.1170924318967E+01  0.0000000000000E+00
 0.6544549418750E+00 -0.1105694262141E+01  0.0000000000000E+00
 0.6580502880753E+00 -0.1040406004428E+01  0.0000000000000E+00
 0.6612744716160E+00 -0.9750594877654E+00  0.0000000000000E+00
 0.6640250522846E+00 -0.9096614610038E+00  0.0000000000000E+00
 0.6662411164480E+00 -0.8442194065791E+00  0.0000000000000E+00
 0.6678762857589E+00 -0.7787418534389E+00  0.0000000000000E+00
 0.6689191949800E+00 -0.7132432054044E+00  0.0000000000000E+00
 0.6694713946944E+00 -0.6477411012908E+00  0.0000000000000E+00
 0.6688471167994E+00 -0.5823475457445E+00  0.0000000000000E+00
 0.6663817030200E+00 -0.5175398146315E+00  0.0000000000000E+00
 0.6577158987074E+00 -0.1692240226002E+01  0.0000000000000E+00
 0.6604859640163E+00 -0.1624407821814E+01  0.0000000000000E+00
 0.6638497672423E+00 -0.1556677290478E+01  0.0000000000000E+00
 0.6679490644955E+00 -0.1489101656609E+01  0.0000000000000E+00
 0.6729681360715E+00 -0.1421768477054E+01  0.0000000000000E+00
 0.6788362803826E+00 -0.1354681460503E+01  0.0000000000000E+00
 0.6848830228425E+00 -0.1287554929381E+01  0.0000000000000E+00
 0.6907431926874E+00 -0.1220245290822E+01  0.0000000000000E+00
 0.6963683466717E+00 -0.1152773455142E+01  0.0000000000000E+00
 0.7017012054155E+00 -0.1085170739648E+01  0.0000000000000E+00
 0.7066109696382E+00 -0.1017451622390E+01  0.0000000000000E+00
 0.7109289867072E+00 -0.9496212625587E+00  0.0000000000000E+00
 0.7145578737767E+00 -0.8816960355999E+00  0.0000000000000E+00
 0.7174261444133E+00 -0.8136912408991E+00  0.0000000000000E+00
 0.7194465237104E+00 -0.7456224003186E+00  0.0000000000000E+00
 0.7205764854380E+00 -0.6775165944084E+00  0.0000000000000E+00
 0.7209891026047E+00 -0.6094072994359E+00  0.0000000000000E+00
 0.7192810771664E+00 -0.5415172802740E+00  0.0000000000000E+00
 0.7140934985165E+00 -0.4748000932170E+00  0.0000000000000E+00
 0.6886903652351E+00 -0.1692394297536E+01  0.0000000000000E+00
 0.6927176023816E+00 -0.1622088924415E+01  0.0000000000000E+00
 0.6975340867727E+00 -0.1551935773080E+01  0.0000000000000E+00
 0.7033376554643E+00 -0.1482013883727E+01  0.0000000000000E+00
 0.7103888483534E+00 -0.1412453964924E+01  0.0000000000000E+00
 0.7185665991058E+00 -0.1343260677450E+01  0.0000000000000E+00
 0.7268552978490E+00 -0.1274004642540E+01  0.0000000000000E+00
 0.7347099293146E+00 -0.1204469702875E+01  0.0000000000000E+00
 0.7420829990631E+00 -0.1134687390868E+01  0.0000000000000E+00
 0.7489423367946E+00 -0.1064706121439E+01  0.0000000000000E+00
 0.7551670327006E+00 -0.9945502493794E+00  0.0000000000000E+00
 0.7605793969537E+00 -0.9242301511490E+00  0.0000000000000E+00
 0.7650871040769E+00 -0.8537718287581E+00  0.0000000000000E+00
 0.7686080948315E+00 -0.7831983986016E+00  0.0000000000000E+00
 0.7710141977424E+00 -0.7125323755530E+00  0.0000000000000E+00
 0.7722317256061E+00 -0.6418135166660E+00  0.0000000000000E+00
 0.7725052738146E+00 -0.5710911361576E+00  0.0000000000000E+00
 0.7697140135745E+00 -0.5006987682796E+00  0.0000000000000E+00
 0.7618047820783E+00 -0.4320662481480E+00  0.0000000000000E+00
 0.7196546465161E+00 -0.1692660172748E+01  0.0000000000000E+00
 0.7249395918170E+00 -0.1619875943648E+01  0.0000000000000E+00
 0.7312092936854E+00 -0.1547294285363E+01  0.0000000000000E+00
 0.7387176701125E+00 -0.1475020253788E+01  0.0000000000000E+00
 0.7478015205931E+00 -0.1403227709276E+01  0.0000000000000E+00
 0.7582894141255E+00 -0.1331922263812E+01  0.0000000000000E+00
 0.7688206054822E+00 -0.1260530838125E+01  0.0000000000000E+00
 0.7786702348837E+00 -0.1188764710478E+01  0.0000000000000E+00
 0.7877917567151E+00 -0.1116666035182E+01  0.0000000000000E+00
 0.7961781097513E+00 -0.1044300324826E+01  0.0000000000000E+00
 0.8037182736528E+00 -0.9717018109855E+00  0.0000000000000E+00
 0.8102255213957E+00 -0.8988860874001E+00  0.0000000000000E+00
 0.8156125848748E+00 -0.8258887826165E+00  0.0000000000000E+00
 0.8197868320404E+00 -0.7527408300988E+00  0.0000000000000E+00
 0.8225791948393E+00 -0.6794717378281E+00  0.0000000000000E+00
 0.8238848251146E+00 -0.6061339391370E+00  0.0000000000000E+00
 0.8240198405976E+00 -0.5327925866896E+00  0.0000000000000E+00
 0.8201458809002E+00 -0.4598919932551E+00  0.0000000000000E+00
 0.8095155311481E+00 -0.3893382711694E+00  0.0000000000000E+00
 0.7506083144858E+00 -0.1693037687890E+01  0.0000000000000E+00
 0.7571515268004E+00 -0.1617768724388E+01  0.0000000000000E+00
 0.7648750050008E+00 -0.1542752680822E+01  0.0000000000000E+00
 0.7740887480037E+00 -0.1468120628908E+01  0.0000000000000E+00
 0.7852058148974E+00 -0.1394089580847E+01  0.0000000000000E+00
 0.7980044100952E+00 -0.1320666098949E+01  0.0000000000000E+00
 0.8107786529419E+00 -0.1247133404121E+01  0.0000000000000E+00
 0.8226238391398E+00 -0.1173130210237E+01  0.0000000000000E+00
 0.8334943719163E+00 -0.1098709293313E+01  0.0000000000000E+00
 0.8434082991177E+00 -0.1023953263659E+01  0.0000000000000E+00
 0.8522644898690E+00 -0.9489062296793E+00  0.0000000000000E+00
 0.8598671799488E+00 -0.8735890024040E+00  0.0000000000000E+00
 0.8661341586265E+00 -0.7980468368884E+00  0.0000000000000E+00
 0.8709622210352E+00 -0.7223184837249E+00  0.0000000000000E+00
 0.8741414025340E+00 -0.6464404440986E+00  0.0000000000000E+00
 0.8755356940330E+00 -0.5704778273969E+00  0.0000000000000E+00
 0.8755327355573E+00 -0.4945116252270E+00  0.0000000000000E+00
 0.8705766342406E+00 -0.4190969380022E+00  0.0000000000000E+00
 0.8572257232791E+00 -0.3466161536803E+00  0.0000000000000E+00
 0.7815509432313E+00 -0.1693526672682E+01  0.0000000000000E+00
 0.7893530038481E+00 -0.1615767105320E+01  0.0000000000000E+00
 0.7985308396653E+00 -0.1538310807107E+01  0.0000000000000E+00
 0.8094505305145E+00 -0.1461314865704E+01  0.0000000000000E+00
 0.8226013950733E+00 -0.1385039445222E+01  0.0000000000000E+00
 0.8377112732565E+00 -0.1309492057412E+01  0.0000000000000E+00
 0.8527291489033E+00 -0.1233812224044E+01  0.0000000000000E+00
 0.8665704731897E+00 -0.1157566094634E+01  0.0000000000000E+00
 0.8791905982052E+00 -0.1080817066708E+01  0.0000000000000E+00
 0.8906326808624E+00 -0.1003664848353E+01  0.0000000000000E+00
 0.9008054797473E+00 -0.9261634248400E+00  0.0000000000000E+00
 0.9095041934393E+00 -0.8483388245051E+00  0.0000000000000E+00
 0.9166516685853E+00 -0.7702459288830E+00  0.0000000000000E+00
 0.9221341274954E+00 -0.6919313057536E+00  0.0000000000000E+00
 0.9257007089301E+00 -0.6134384496025E+00  0.0000000000000E+00
 0.9271842428878E+00 -0.5348451456479E+00  0.0000000000000E+00
 0.9270438916406E+00 -0.4562482249355E+00  0.0000000000000E+00
 0.9210062289222E+00 -0.3783135846360E+00  0.0000000000000E+00
 0.9049353361397E+00 -0.3038998867360E+00  0.0000000000000E+00
 0.8124820990011E+00 -0.1694126949326E+01  0.0000000000000E+00
 0.8215436119809E+00 -0.1613870918028E+01  0.0000000000000E+00
 0.8321764094502E+00 -0.1533968505178E+01  0.0000000000000E+00
 0.8448026521377E+00 -0.1454602814503E+01  0.0000000000000E+00
 0.8599879182983E+00 -0.1376077162078E+01  0.0000000000000E+00
 0.8774096834423E+00 -0.1298400008221E+01  0.0000000000000E+00
 0.8946717958622E+00 -0.1220567176258E+01  0.0000000000000E+00
 0.9105098622195E+00 -0.1142072251388E+01  0.0000000000000E+00
 0.9248801834856E+00 -0.1062989252451E+01  0.0000000000000E+00
 0.9378510256317E+00 -0.9834349853607E+00  0.0000000000000E+00
 0.9493410366997E+00 -0.9034733122990E+00  0.0000000000000E+00
 0.9591363780693E+00 -0.8231354789182E+00  0.0000000000000E+00
 0.9671649537677E+00 -0.7424859932034E+00  0.0000000000000E+00
 0.9733024132764E+00 -0.6615792401804E+00  0.0000000000000E+00
 0.9772569987510E+00 -0.5804657077303E+00  0.0000000000000E+00
 0.9788303793041E+00 -0.4992358566774E+00  0.0000000000000E+00
 0.9785532393974E+00 -0.4180023579992E+00  0.0000000000000E+00
 0.9714346184875E+00 -0.3375419147100E+00  0.0000000000000E+00
 0.9526443464158E+00 -0.2611894611816E+00  0.0000000000000E+00
 0.8434013664357E+00 -0.1694838335189E+01  0.0000000000000E+00
 0.8537229577554E+00 -0.1612079989481E+01  0.0000000000000E+00
 0.8658113428418E+00 -0.1529725611613E+01  0.0000000000000E+00
 0.8801447633080E+00 -0.1447984321494E+01  0.0000000000000E+00
 0.8973650569782E+00 -0.1367202587227E+01  0.0000000000000E+00
 0.9170993350532E+00 -0.1287389816818E+01  0.0000000000000E+00
 0.9366063102086E+00 -0.1207398135833E+01  0.0000000000000E+00
 0.9544417445893E+00 -0.1126648565190E+01  0.0000000000000E+00
 0.9705628880695E+00 -0.1045225744848E+01  0.0000000000000E+00
 0.9850631156734E+00 -0.9632635785991E+00  0.0000000000000E+00
 0.9978709648940E+00 -0.8808358055787E+00  0.0000000000000E+00
 0.1008763559910E+01 -0.7979788887677E+00  0.0000000000000E+00
 0.1017673862132E+01 -0.7147669625726E+00  0.0000000000000E+00
 0.1024466948207E+01 -0.6312622293241E+00  0.0000000000000E+00
 0.1028810163675E+01 -0.5475221703943E+00  0.0000000000000E+00
 0.1030474016787E+01 -0.4636499219902E+00  0.0000000000000E+00
 0.1030060714142E+01 -0.3797739955145E+00  0.0000000000000E+00
 0.1021861759954E+01 -0.2967819089046E+00  0.0000000000000E+00
 0.1000352732676E+01 -0.2184848673123E+00  0.0000000000000E+00
 0.8743083292160E+00 -0.1695660641007E+01  0.0000000000000E+00
 0.8858906467958E+00 -0.1610394140375E+01  0.0000000000000E+00
 0.8994352674149E+00 -0.1525581957067E+01  0.0000000000000E+00
 0.9154765135586E+00 -0.1441459227297E+01  0.0000000000000E+00
 0.9347324826162E+00 -0.1358415571256E+01  0.0000000000000E+00
 0.9567799215746E+00 -0.1276461343761E+01  0.0000000000000E+00
 0.9785324074072E+00 -0.1194304973301E+01  0.0000000000000E+00
 0.9983658577340E+00 -0.1111294916539E+01  0.0000000000000E+00
 0.1016238471353E+01 -0.1027526434362E+01  0.0000000000000E+00
 0.1032268732337E+01 -0.9431505284951E+00  0.0000000000000E+00
 0.1046395067625E+01 -0.8582508150666E+00  0.0000000000000E+00
 0.1058385564193E+01 -0.7728689743992E+00  0.0000000000000E+00
 0.1068178240839E+01 -0.6870887672930E+00  0.0000000000000E+00
 0.1075627601367E+01 -0.6009802134425E+00  0.0000000000000E+00
 0.1080360094693E+01 -0.5146077878065E+00  0.0000000000000E+00
 0.1082115068229E+01 -0.4280873017517E+00  0.0000000000000E+00
 0.1081566250656E+01 -0.3415631075997E+00  0.0000000000000E+00
 0.1072287609923E+01 -0.2560335472787E+00  0.0000000000000E+00
 0.1048060473251E+01 -0.1757860951357E+00  0.0000000000000E+00
 0.9052025707781E+00 -0.1696593670959E+01  0.0000000000000E+00
 0.9180462844761E+00 -0.1608813185199E+01  0.0000000000000E+00
 0.9330478104822E+00 -0.1521537366339E+01  0.0000000000000E+00
 0.9507975521418E+00 -0.1435027367020E+01  0.0000000000000E+00
 0.9720898664051E+00 -0.1349715959582E+01  0.0000000000000E+00
 0.9964511361435E+00 -0.1265614444782E+01  0.0000000000000E+00
 0.1020449802539E+01 -0.1181287554705E+01  0.0000000000000E+00
 0.1042281938676E+01 -0.1096011181789E+01  0.0000000000000E+00
 0.1061906692299E+01 -0.1009891207660E+01  0.0000000000000E+00
 0.1079467656524E+01 -0.9230957320237E+00  0.0000000000000E+00
 0.1094913147732E+01 -0.8357182480476E+00  0.0000000000000E+00
 0.1108002215695E+01 -0.7478056534076E+00  0.0000000000000E+00
 0.1118677936601E+01 -0.6594513352690E+00  0.0000000000000E+00
 0.1126784241405E+01 -0.5707331307489E+00  0.0000000000000E+00
 0.1131906682383E+01 -0.4817225084889E+00  0.0000000000000E+00
 0.1133753446136E+01 -0.3925479547930E+00  0.0000000000000E+00
 0.1133069783374E+01 -0.3033696633937E+00  0.0000000000000E+00
 0.1122712124713E+01 -0.2152968092632E+00  0.0000000000000E+00
 0.1095767546307E+01 -0.1330931343643E+00  0.0000000000000E+00
 0.9360836771012E+00 -0.1697637222998E+01  0.0000000000000E+00
 0.9501894785799E+00 -0.1607336932545E+01  0.0000000000000E+00
 0.9666486016325E+00 -0.1517591658659E+01  0.0000000000000E+00
 0.9861075304526E+00 -0.1428688570531E+01  0.0000000000000E+00
 0.1009436881547E+01 -0.1341103592713E+01  0.0000000000000E+00
 0.1036112673774E+01 -0.1254848971027E+01  0.0000000000000E+00
 0.1062358212428E+01 -0.1168345741829E+01  0.0000000000000E+00
 0.1086189726049E+01 -0.1080797233366E+01  0.0000000000000E+00
 0.1107567311349E+01 -0.9923199478029E+00  0.0000000000000E+00
 0.1126659670482E+01 -0.9030990828862E+00  0.0000000000000E+00
 0.1143425009267E+01 -0.8132380088607E+00  0.0000000000000E+00
 0.1157613340271E+01 -0.7227888407692E+00  0.0000000000000E+00
 0.1169172797073E+01 -0.6318545921137E+00  0.0000000000000E+00
 0.1177936737775E+01 -0.5405209174934E+00  0.0000000000000E+00
 0.1183449817999E+01 -0.4488662793275E+00  0.0000000000000E+00
 0.1185389063559E+01 -0.3570318386362E+00  0.0000000000000E+00
 0.1184571247138E+01 -0.2651936310542E+00  0.0000000000000E+00
 0.1173135260919E+01 -0.1745716736346E+00  0.0000000000000E+00
 0.1143473930147E+01 -0.9040597438278E-01  0.0000000000000E+00
 0.9669512274189E+00 -0.1698791087767E+01  0.0000000000000E+00
 0.9823198304356E+00 -0.1605965184095E+01  0.0000000000000E+00
 0.1000237264269E+01 -0.1513744646745E+01  0.0000000000000E+00
 0.1021406093943E+01 -0.1422442661578E+01  0.0000000000000E+00
 0.1046773195509E+01 -0.1332578305411E+01  0.0000000000000E+00
 0.1075764223922E+01 -0.1244164768264E+01  0.0000000000000E+00
 0.1104257348526E+01 -0.1155479391450E+01  0.0000000000000E+00
 0.1130088953323E+01 -0.1065652939060E+01  0.0000000000000E+00
 0.1153220084018E+01 -0.9748125336096E+00  0.0000000000000E+00
 0.1173844551794E+01 -0.8831604709323E+00  0.0000000000000E+00
 0.1191930451903E+01 -0.7908099983938E+00  0.0000000000000E+00
 0.1207218759703E+01 -0.6978184484149E+00  0.0000000000000E+00
 0.1219662666172E+01 -0.6042984608059E+00  0.0000000000000E+00
 0.1229084956548E+01 -0.5103435077058E+00  0.0000000000000E+00
 0.1234989389793E+01 -0.4160390454063E+00  0.0000000000000E+00
 0.1237021830960E+01 -0.3215389094206E+00  0.0000000000000E+00
 0.1236070574644E+01 -0.2270349777752E+00  0.0000000000000E+00
 0.1223556973529E+01 -0.1338581186130E+00  0.0000000000000E+00
 0.1191179602188E+01 -0.4772460436371E-01  0.0000000000000E+00
 0.9978048126931E+00 -0.1700055050828E+01  0.0000000000000E+00
 0.1014436952546E+01 -0.1604697736702E+01  0.0000000000000E+00
 0.1033813432435E+01 -0.1509996138743E+01  0.0000000000000E+00
 0.1056692898198E+01 -0.1416289459594E+01  0.0000000000000E+00
 0.1084098485417E+01 -0.1324139928402E+01  0.0000000000000E+00
 0.1115405485257E+01 -0.1233561678510E+01  0.0000000000000E+00
 0.1146146931048E+01 -0.1142688356877E+01  0.0000000000000E+00
 0.1173979362256E+01 -0.1050578163472E+01  0.0000000000000E+00
 0.1198864773607E+01 -0.9573688409702E+00  0.0000000000000E+00
 0.1221022085302E+01 -0.8632797833433E+00  0.0000000000000E+00
 0.1240429282021E+01 -0.7684341151186E+00  0.0000000000000E+00
 0.1256818301914E+01 -0.6728943861069E+00  0.0000000000000E+00
 0.1270147393358E+01 -0.5767828623979E+00  0.0000000000000E+00
 0.1280228768722E+01 -0.4802008337283E+00  0.0000000000000E+00
 0.1286525290297E+01 -0.3832407503566E+00  0.0000000000000E+00
 0.1288651662409E+01 -0.2860691220672E+00  0.0000000000000E+00
 0.1287567701494E+01 -0.1888936697665E+00  0.0000000000000E+00
 0.1273977219637E+01 -0.9315612167893E-01  0.0000000000000E+00
 0.1238884540982E+01 -0.5049013045557E-02  0.0000000000000E+00
 0.1028644034966E+01 -0.1701428892817E+01  0.0000000000000E+00
 0.1046540467967E+01 -0.1603534382536E+01  0.0000000000000E+00
 0.1067376750223E+01 -0.1506345938358E+01  0.0000000000000E+00
 0.1091967608368E+01 -0.1410228779832E+01  0.0000000000000E+00
 0.1121412437513E+01 -0.1315788288493E+01  0.0000000000000E+00
 0.1155036165145E+01 -0.1223039540143E+01  0.0000000000000E+00
 0.1188026688472E+01 -0.1129972488054E+01  0.0000000000000E+00
 0.1217860702418E+01 -0.1035572768105E+01  0.0000000000000E+00
 0.1244501150748E+01 -0.9399887429363E+00  0.0000000000000E+00
 0.1268192062681E+01 -0.8434569047128E+00  0.0000000000000E+00
 0.1288921312318E+01 -0.7461102551647E+00  0.0000000000000E+00
 0.1306411800597E+01 -0.6480165615055E+00  0.0000000000000E+00
 0.1320626833301E+01 -0.5493077160762E+00  0.0000000000000E+00
 0.1331368049922E+01 -0.4500928262700E+00  0.0000000000000E+00
 0.1338057416065E+01 -0.3504713364071E+00  0.0000000000000E+00
 0.1340278475353E+01 -0.2506224303227E+00  0.0000000000000E+00
 0.1339062566007E+01 -0.1507696722917E+00  0.0000000000000E+00
 0.1324395958307E+01 -0.5246565960526E-01  0.0000000000000E+00
 0.1286588726141E+01  0.3762081124632E-01  0.0000000000000E+00
 0.1059468491065E+01 -0.1702912387465E+01  0.0000000000000E+00
 0.1078629994763E+01 -0.1602474907241E+01  0.0000000000000E+00
 0.1100926856931E+01 -0.1502793843147E+01  0.0000000000000E+00
 0.1127229884989E+01 -0.1404260431761E+01  0.0000000000000E+00
 0.1158714733573E+01 -0.1307523207068E+01  0.0000000000000E+00
 0.1194655966603E+01 -0.1212598186461E+01  0.0000000000000E+00
 0.1229896345061E+01 -0.1117331630195E+01  0.0000000000000E+00
 0.1261732719309E+01 -0.1020636610086E+01  0.0000000000000E+00
 0.1290128982182E+01 -0.9226721085503E+00  0.0000000000000E+00
 0.1315354271908E+01 -0.8236917159966E+00  0.0000000000000E+00
 0.1337406352004E+01 -0.7238383114011E+00  0.0000000000000E+00
 0.1355999086198E+01 -0.6231848793920E+00  0.0000000000000E+00
 0.1371100837678E+01 -0.5218729385342E+00  0.0000000000000E+00
 0.1382502673051E+01 -0.4200194139358E+00  0.0000000000000E+00
 0.1389585661224E+01 -0.3177307440737E+00  0.0000000000000E+00
 0.1391902185146E+01 -0.2151987866139E+00  0.0000000000000E+00
 0.1390555104757E+01 -0.1126629496880E+00  0.0000000000000E+00
 0.1374813147288E+01 -0.1178670862095E-01  0.0000000000000E+00
 0.1334292136548E+01  0.8028488040207E-01  0.0000000000000E+00
 0.1090277780720E+01 -0.1704505302632E+01  0.0000000000000E+00
 0.1110705153744E+01 -0.1601519090897E+01  0.0000000000000E+00
 0.1134463394454E+01 -0.1499339645413E+01  0.0000000000000E+00
 0.1162479391042E+01 -0.1398384219907E+01  0.0000000000000E+00
 0.1196005057665E+01 -0.1299344500874E+01  0.0000000000000E+00
 0.1234264594794E+01 -0.1202237446439E+01  0.0000000000000E+00
 0.1271755627067E+01 -0.1104765624500E+01  0.0000000000000E+00
 0.1305595160272E+01 -0.1005769542839E+01  0.0000000000000E+00
 0.1335748036337E+01 -0.9054188034578E+00  0.0000000000000E+00
 0.1362508502496E+01 -0.8039840950629E+00  0.0000000000000E+00
 0.1385884211676E+01 -0.7016181739175E+00  0.0000000000000E+00
 0.1405579990391E+01 -0.5983992420775E+00  0.0000000000000E+00
 0.1421569259242E+01 -0.4944784443039E+00  0.0000000000000E+00
 0.1433632511940E+01 -0.3899805234782E+00  0.0000000000000E+00
 0.1441109920678E+01 -0.2850189123287E+00  0.0000000000000E+00
 0.1443522707758E+01 -0.1797981421330E+00  0.0000000000000E+00
 0.1442045254780E+01 -0.7457346536650E-01  0.0000000000000E+00
 0.1425228744639E+01  0.2888075566284E-01  0.0000000000000E+00
 0.1381994751242E+01  0.1229432066213E+00  0.0000000000000E+00
 0.1121071483195E+01 -0.1706207397020E+01  0.0000000000000E+00
 0.1142765546172E+01 -0.1600666704959E+01  0.0000000000000E+00
 0.1167985985999E+01 -0.1495983129350E+01  0.0000000000000E+00
 0.1197715771612E+01 -0.1392599941181E+01  0.0000000000000E+00
 0.1233283076667E+01 -0.1291251979511E+01  0.0000000000000E+00
 0.1273861738317E+01 -0.1191957142331E+01  0.0000000000000E+00
 0.1313604244830E+01 -0.1092274305885E+01  0.0000000000000E+00
 0.1349447757450E+01 -0.9909714139681E+00  0.0000000000000E+00
 0.1381358067225E+01 -0.8882286879731E+00  0.0000000000000E+00
 0.1409654530383E+01 -0.7843339149532E+00  0.0000000000000E+00
 0.1434354689253E+01 -0.6794497284982E+00  0.0000000000000E+00
 0.1455154333136E+01 -0.5736595481023E+00  0.0000000000000E+00
 0.1472031940047E+01 -0.4671241446931E+00  0.0000000000000E+00
 0.1484757430797E+01 -0.3599760789818E+00  0.0000000000000E+00
 0.1492630080857E+01 -0.2523357780405E+00  0.0000000000000E+00
 0.1495139951924E+01 -0.1444204465366E+00  0.0000000000000E+00
 0.1493532947170E+01 -0.3650118177095E-01  0.0000000000000E+00
 0.1475642704025E+01  0.6953675806361E-01  0.0000000000000E+00
 0.1429696546851E+01  0.1655958021522E+00  0.0000000000000E+00
 0.1151849225537E+01 -0.1708018429846E+01  0.0000000000000E+00
 0.1174810818886E+01 -0.1599917521276E+01  0.0000000000000E+00
 0.1201494298248E+01 -0.1492724079452E+01  0.0000000000000E+00
 0.1232938713290E+01 -0.1386907392741E+01  0.0000000000000E+00
 0.1270548497160E+01 -0.1283245452831E+01  0.0000000000000E+00
 0.1313447123819E+01 -0.1181757096718E+01  0.0000000000000E+00
 0.1355441945044E+01 -0.1079857509653E+01  0.0000000000000E+00
 0.1393290277519E+01 -0.9762420714703E+00  0.0000000000000E+00
 0.1426958861442E+01 -0.8711016227676E+00  0.0000000000000E+00
 0.1456792162028E+01 -0.7647410489956E+00  0.0000000000000E+00
 0.1482817611003E+01 -0.6573328611127E+00  0.0000000000000E+00
 0.1504721960451E+01 -0.5489656960643E+00  0.0000000000000E+00
 0.1522488745806E+01 -0.4398099509165E+00  0.0000000000000E+00
 0.1535877314972E+01 -0.3300060042687E+00  0.0000000000000E+00
 0.1544146046680E+01 -0.2196812776313E+00  0.0000000000000E+00
 0.1546753842050E+01 -0.1090656488427E+00  0.0000000000000E+00
 0.1545018125764E+01  0.1553939485620E-02  0.0000000000000E+00
 0.1526054988436E+01  0.1101813243664E+00  0.0000000000000E+00
 0.1477397505075E+01  0.2082426800443E+00  0.0000000000000E+00
 0.1182610616693E+01 -0.1709938151813E+01  0.0000000000000E+00
 0.1206840601434E+01 -0.1599271303676E+01  0.0000000000000E+00
 0.1234987981351E+01 -0.1489562272670E+01  0.0000000000000E+00
 0.1268147886829E+01 -0.1381306364667E+01  0.0000000000000E+00
 0.1307801010505E+01 -0.1275324724039E+01  0.0000000000000E+00
 0.1353020463274E+01 -0.1171637125933E+01  0.0000000000000E+00
 0.1397268460295E+01 -0.1067515065265E+01  0.0000000000000E+00
 0.1437122473674E+01 -0.9615813579356E+00  0.0000000000000E+00
 0.1472550192790E+01 -0.8540374635575E+00  0.0000000000000E+00
 0.1503921191834E+01 -0.7452053660319E+00  0.0000000000000E+00
 0.1531272791928E+01 -0.6352674537278E+00  0.0000000000000E+00
 0.1554282707934E+01 -0.5243175810539E+00  0.0000000000000E+00
 0.1572939532713E+01 -0.4125357711880E+00  0.0000000000000E+00
 0.1586992041247E+01 -0.3000702206755E+00  0.0000000000000E+00
 0.1595657715515E+01 -0.1870553455593E+00  0.0000000000000E+00
 0.1598364296089E+01 -0.7373369663145E-01  0.0000000000000E+00
 0.1596500729092E+01  0.3959193770200E-01  0.0000000000000E+00
 0.1576465556935E+01  0.1508144807688E+00  0.0000000000000E+00
 0.1525097605457E+01  0.2508838534040E+00  0.0000000000000E+00
-0.6299559715430E+00 -0.4448788635045E+00  0.0000000000000E+00
-0.6714480734955E+00 -0.4002935756204E+00  0.0000000000000E+00
-0.7129401754481E+00 -0.3557082877364E+00  0.0000000000000E+00
-0.7544322774006E+00 -0.3111229998524E+00  0.0000000000000E+00
-0.7959243793531E+00 -0.2665377119684E+00  0.0000000000000E+00
-0.8374164813057E+00 -0.2219524240844E+00  0.0000000000000E+00
-0.8789085832582E+00 -0.1773671362004E+00  0.0000000000000E+00
-0.9204006852108E+00 -0.1327818483163E+00  0.0000000000000E+00
-0.9618927871633E+00 -0.8819656043232E-01  0.0000000000000E+00
-0.1003384889116E+01 -0.4361127254831E-01  0.0000000000000E+00
-0.1044876991068E+01  0.9740153357094E-03  0.0000000000000E+00
-0.1086369093021E+01  0.4555930321973E-01  0.0000000000000E+00
-0.1127861194973E+01  0.9014459110374E-01  0.0000000000000E+00
-0.1169353296926E+01  0.1347298789878E+00  0.0000000000000E+00
-0.1210845398879E+01  0.1793151668718E+00  0.0000000000000E+00
-0.1252337500831E+01  0.2239004547558E+00  0.0000000000000E+00
-0.1293829602784E+01  0.2684857426398E+00  0.0000000000000E+00
-0.1335321704736E+01  0.3130710305238E+00  0.0000000000000E+00
-0.1376813806689E+01  0.3576563184078E+00  0.0000000000000E+00
-0.5974622415961E+00 -0.4366441451899E+00  0.0000000000000E+00
-0.6368419585758E+00 -0.3913664749580E+00  0.0000000000000E+00
-0.6762216755556E+00 -0.3460888047261E+00  0.0000000000000E+00
-0.7156013925353E+00 -0.3008111344942E+00  0.0000000000000E+00
-0.7549811095150E+00 -0.2555334642623E+00  0.0000000000000E+00
-0.7943608264947E+00 -0.2102557940303E+00  0.0000000000000E+00
-0.8337405434744E+00 -0.1649781237984E+00  0.0000000000000E+00
-0.8731202604541E+00 -0.1197004535665E+00  0.0000000000000E+00
-0.9124999774338E+00 -0.7442278333461E-01  0.0000000000000E+00
-0.9518796944135E+00 -0.2914511310269E-01  0.0000000000000E+00
-0.9912594113932E+00  0.1613255712922E-01  0.0000000000000E+00
-0.1030639128373E+01  0.6141022736114E-01  0.0000000000000E+00
-0.1070018845353E+01  0.1066878975930E+00  0.0000000000000E+00
-0.1109398562332E+01  0.1519655678250E+00  0.0000000000000E+00
-0.1148778279312E+01  0.1972432380569E+00  0.0000000000000E+00
-0.1188157996292E+01  0.2425209082888E+00  0.0000000000000E+00
-0.1227537713272E+01  0.2877985785207E+00  0.0000000000000E+00
-0.1266917430251E+01  0.3330762487526E+00  0.0000000000000E+00
-0.1306297147231E+01  0.3783539189845E+00  0.0000000000000E+00
-0.5647851637629E+00 -0.4291779471807E+00  0.0000000000000E+00
-0.6019607642087E+00 -0.3835976335802E+00  0.0000000000000E+00
-0.6391363646544E+00 -0.3380173199797E+00  0.0000000000000E+00
-0.6763119651002E+00 -0.2924370063792E+00  0.0000000000000E+00
-0.7134875655459E+00 -0.2468566927788E+00  0.0000000000000E+00
-0.7506631659917E+00 -0.2012763791783E+00  0.0000000000000E+00
-0.7878387664375E+00 -0.1556960655778E+00  0.0000000000000E+00
-0.8250143668832E+00 -0.1101157519773E+00  0.0000000000000E+00
-0.8621899673290E+00 -0.6453543837680E-01  0.0000000000000E+00
-0.8993655677748E+00 -0.1895512477632E-01  0.0000000000000E+00
-0.9365411682205E+00  0.2662518882417E-01  0.0000000000000E+00
-0.9737167686663E+00  0.7220550242466E-01  0.0000000000000E+00
-0.1010892369112E+01  0.1177858160251E+00  0.0000000000000E+00
-0.1048067969558E+01  0.1633661296256E+00  0.0000000000000E+00
-0.1085243570004E+01  0.2089464432261E+00  0.0000000000000E+00
-0.1122419170449E+01  0.2545267568266E+00  0.0000000000000E+00
-0.1159594770895E+01  0.3001070704271E+00  0.0000000000000E+00
-0.1196770371341E+01  0.3456873840276E+00  0.0000000000000E+00
-0.1233945971787E+01  0.3912676976281E+00  0.0000000000000E+00
-0.5319747863850E+00 -0.4224941396796E+00  0.0000000000000E+00
-0.5669005038771E+00 -0.3770102860137E+00  0.0000000000000E+00
-0.6018262213692E+00 -0.3315264323477E+00  0.0000000000000E+00
-0.6367519388613E+00 -0.2860425786818E+00  0.0000000000000E+00
-0.6716776563534E+00 -0.2405587250158E+00  0.0000000000000E+00
-0.7066033738455E+00 -0.1950748713499E+00  0.0000000000000E+00
-0.7415290913375E+00 -0.1495910176839E+00  0.0000000000000E+00
-0.7764548088296E+00 -0.1041071640180E+00  0.0000000000000E+00
-0.8113805263217E+00 -0.5862331035200E-01  0.0000000000000E+00
-0.8463062438138E+00 -0.1313945668605E-01  0.0000000000000E+00
-0.8812319613059E+00  0.3234439697990E-01  0.0000000000000E+00
-0.9161576787979E+00  0.7782825064585E-01  0.0000000000000E+00
-0.9510833962900E+00  0.1233121043118E+00  0.0000000000000E+00
-0.9860091137821E+00  0.1687959579778E+00  0.0000000000000E+00
-0.1020934831274E+01  0.2142798116437E+00  0.0000000000000E+00
-0.1055860548766E+01  0.2597636653097E+00  0.0000000000000E+00
-0.1090786266258E+01  0.3052475189756E+00  0.0000000000000E+00
-0.1125711983750E+01  0.3507313726416E+00  0.0000000000000E+00
-0.1160637701243E+01  0.3962152263075E+00  0.0000000000000E+00
-0.4990802666255E+00 -0.4165840327232E+00  0.0000000000000E+00
-0.5317553219230E+00 -0.3715827348048E+00  0.0000000000000E+00
-0.5644303772205E+00 -0.3265814368864E+00  0.0000000000000E+00
-0.5971054325179E+00 -0.2815801389680E+00  0.0000000000000E+00
-0.6297804878154E+00 -0.2365788410496E+00  0.0000000000000E+00
-0.6624555431129E+00 -0.1915775431312E+00  0.0000000000000E+00
-0.6951305984104E+00 -0.1465762452128E+00  0.0000000000000E+00
-0.7278056537078E+00 -0.1015749472944E+00  0.0000000000000E+00
-0.7604807090053E+00 -0.5657364937598E-01  0.0000000000000E+00
-0.7931557643028E+00 -0.1157235145757E-01  0.0000000000000E+00
-0.8258308196003E+00  0.3342894646083E-01  0.0000000000000E+00
-0.8585058748978E+00  0.7843024437923E-01  0.0000000000000E+00
-0.8911809301952E+00  0.1234315422976E+00  0.0000000000000E+00
-0.9238559854927E+00  0.1684328402160E+00  0.0000000000000E+00
-0.9565310407902E+00  0.2134341381344E+00  0.0000000000000E+00
-0.9892060960877E+00  0.2584354360528E+00  0.0000000000000E+00
-0.1021881151385E+01  0.3034367339713E+00  0.0000000000000E+00
-0.1054556206683E+01  0.3484380318897E+00  0.0000000000000E+00
-0.1087231261980E+01  0.3934393298081E+00  0.0000000000000E+00
-0.4661358894282E+00 -0.4113546120754E+00  0.0000000000000E+00
-0.4965895947067E+00 -0.3671248415236E+00  0.0000000000000E+00
-0.5270432999851E+00 -0.3228950709718E+00  0.0000000000000E+00
-0.5574970052636E+00 -0.2786653004201E+00  0.0000000000000E+00
-0.5879507105420E+00 -0.2344355298683E+00  0.0000000000000E+00
-0.6184044158205E+00 -0.1902057593165E+00  0.0000000000000E+00
-0.6488581210989E+00 -0.1459759887648E+00  0.0000000000000E+00
-0.6793118263774E+00 -0.1017462182130E+00  0.0000000000000E+00
-0.7097655316558E+00 -0.5751644766124E-01  0.0000000000000E+00
-0.7402192369343E+00 -0.1328667710947E-01  0.0000000000000E+00
-0.7706729422127E+00  0.3094309344230E-01  0.0000000000000E+00
-0.8011266474912E+00  0.7517286399407E-01  0.0000000000000E+00
-0.8315803527696E+00  0.1194026345458E+00  0.0000000000000E+00
-0.8620340580481E+00  0.1636324050976E+00  0.0000000000000E+00
-0.8924877633265E+00  0.2078621756494E+00  0.0000000000000E+00
-0.9229414686050E+00  0.2520919462011E+00  0.0000000000000E+00
-0.9533951738834E+00  0.2963217167529E+00  0.0000000000000E+00
-0.9838488791619E+00  0.3405514873047E+00  0.0000000000000E+00
-0.1014302584440E+01  0.3847812578564E+00  0.0000000000000E+00
-0.4331566793992E+00 -0.4067328540872E+00  0.0000000000000E+00
-0.4614288249452E+00 -0.3634866017615E+00  0.0000000000000E+00
-0.4897009704912E+00 -0.3202403494357E+00  0.0000000000000E+00
-0.5179731160371E+00 -0.2769940971100E+00  0.0000000000000E+00
-0.5462452615831E+00 -0.2337478447842E+00  0.0000000000000E+00
-0.5745174071291E+00 -0.1905015924585E+00  0.0000000000000E+00
-0.6027895526750E+00 -0.1472553401327E+00  0.0000000000000E+00
-0.6310616982210E+00 -0.1040090878070E+00  0.0000000000000E+00
-0.6593338437670E+00 -0.6076283548125E-01  0.0000000000000E+00
-0.6876059893129E+00 -0.1751658315551E-01  0.0000000000000E+00
-0.7158781348589E+00  0.2572966917024E-01  0.0000000000000E+00
-0.7441502804048E+00  0.6897592149599E-01  0.0000000000000E+00
-0.7724224259508E+00  0.1122221738217E+00  0.0000000000000E+00
-0.8006945714968E+00  0.1554684261475E+00  0.0000000000000E+00
-0.8289667170427E+00  0.1987146784732E+00  0.0000000000000E+00
-0.8572388625887E+00  0.2419609307990E+00  0.0000000000000E+00
-0.8855110081347E+00  0.2852071831247E+00  0.0000000000000E+00
-0.9137831536806E+00  0.3284534354505E+00  0.0000000000000E+00
-0.9420552992266E+00  0.3716996877762E+00  0.0000000000000E+00
-0.4001452660089E+00 -0.4026538267990E+00  0.0000000000000E+00
-0.4262736922835E+00 -0.3605344241827E+00  0.0000000000000E+00
-0.4524021185581E+00 -0.3184150215665E+00  0.0000000000000E+00
-0.4785305448327E+00 -0.2762956189502E+00  0.0000000000000E+00
-0.5046589711073E+00 -0.2341762163340E+00  0.0000000000000E+00
-0.5307873973819E+00 -0.1920568137177E+00  0.0000000000000E+00
-0.5569158236565E+00 -0.1499374111015E+00  0.0000000000000E+00
-0.5830442499311E+00 -0.1078180084852E+00  0.0000000000000E+00
-0.6091726762057E+00 -0.6569860586900E-01  0.0000000000000E+00
-0.6353011024803E+00 -0.2357920325275E-01  0.0000000000000E+00
-0.6614295287548E+00  0.1854019936350E-01  0.0000000000000E+00
-0.6875579550294E+00  0.6065960197974E-01  0.0000000000000E+00
-0.7136863813040E+00  0.1027790045960E+00  0.0000000000000E+00
-0.7398148075786E+00  0.1448984072122E+00  0.0000000000000E+00
-0.7659432338532E+00  0.1870178098285E+00  0.0000000000000E+00
-0.7920716601278E+00  0.2291372124447E+00  0.0000000000000E+00
-0.8182000864024E+00  0.2712566150610E+00  0.0000000000000E+00
-0.8443285126770E+00  0.3133760176772E+00  0.0000000000000E+00
-0.8704569389516E+00  0.3554954202935E+00  0.0000000000000E+00
-0.3670941282270E+00 -0.3990479117006E+00  0.0000000000000E+00
-0.3911043433766E+00 -0.3581255480735E+00  0.0000000000000E+00
-0.4151145585263E+00 -0.3172031844463E+00  0.0000000000000E+00
-0.4391247736759E+00 -0.2762808208192E+00  0.0000000000000E+00
-0.4631349888256E+00 -0.2353584571920E+00  0.0000000000000E+00
-0.4871452039753E+00 -0.1944360935648E+00  0.0000000000000E+00
-0.5111554191249E+00 -0.1535137299377E+00  0.0000000000000E+00
-0.5351656342746E+00 -0.1125913663105E+00  0.0000000000000E+00
-0.5591758494243E+00 -0.7166900268338E-01  0.0000000000000E+00
-0.5831860645739E+00 -0.3074663905622E-01  0.0000000000000E+00
-0.6071962797236E+00  0.1017572457094E-01  0.0000000000000E+00
-0.6312064948732E+00  0.5109808819809E-01  0.0000000000000E+00
-0.6552167100229E+00  0.9202045182525E-01  0.0000000000000E+00
-0.6792269251726E+00  0.1329428154524E+00  0.0000000000000E+00
-0.7032371403222E+00  0.1738651790796E+00  0.0000000000000E+00
-0.7272473554719E+00  0.2147875427067E+00  0.0000000000000E+00
-0.7512575706216E+00  0.2557099063339E+00  0.0000000000000E+00
-0.7752677857712E+00  0.2966322699610E+00  0.0000000000000E+00
-0.7992780009209E+00  0.3375546335882E+00  0.0000000000000E+00
-0.3339899907783E+00 -0.3958444358955E+00  0.0000000000000E+00
-0.3558893495395E+00 -0.3561153468993E+00  0.0000000000000E+00
-0.3777887083006E+00 -0.3163862579032E+00  0.0000000000000E+00
-0.3996880670618E+00 -0.2766571689070E+00  0.0000000000000E+00
-0.4215874258230E+00 -0.2369280799109E+00  0.0000000000000E+00
-0.4434867845841E+00 -0.1971989909147E+00  0.0000000000000E+00
-0.4653861433453E+00 -0.1574699019185E+00  0.0000000000000E+00
-0.4872855021064E+00 -0.1177408129224E+00  0.0000000000000E+00
-0.5091848608676E+00 -0.7801172392620E-01  0.0000000000000E+00
-0.5310842196287E+00 -0.3828263493003E-01  0.0000000000000E+00
-0.5529835783899E+00  0.1446454066132E-02  0.0000000000000E+00
-0.5748829371510E+00  0.4117554306230E-01  0.0000000000000E+00
-0.5967822959122E+00  0.8090463205846E-01  0.0000000000000E+00
-0.6186816546733E+00  0.1206337210546E+00  0.0000000000000E+00
-0.6405810134345E+00  0.1603628100508E+00  0.0000000000000E+00
-0.6624803721956E+00  0.2000918990470E+00  0.0000000000000E+00
-0.6843797309568E+00  0.2398209880431E+00  0.0000000000000E+00
-0.7062790897179E+00  0.2795500770393E+00  0.0000000000000E+00
-0.7281784484791E+00  0.3192791660354E+00  0.0000000000000E+00
-0.3008163579508E+00 -0.3929631427710E+00  0.0000000000000E+00
-0.3205906658870E+00 -0.3543402622484E+00  0.0000000000000E+00
-0.3403649738232E+00 -0.3157173817257E+00  0.0000000000000E+00
-0.3601392817595E+00 -0.2770945012030E+00  0.0000000000000E+00
-0.3799135896957E+00 -0.2384716206803E+00  0.0000000000000E+00
-0.3996878976320E+00 -0.1998487401576E+00  0.0000000000000E+00
-0.4194622055682E+00 -0.1612258596350E+00  0.0000000000000E+00
-0.4392365135044E+00 -0.1226029791123E+00  0.0000000000000E+00
-0.4590108214407E+00 -0.8398009858960E-01  0.0000000000000E+00
-0.4787851293769E+00 -0.4535721806692E-01  0.0000000000000E+00
-0.4985594373131E+00 -0.6734337544235E-02  0.0000000000000E+00
-0.5183337452494E+00  0.3188854297845E-01  0.0000000000000E+00
-0.5381080531856E+00  0.7051142350113E-01  0.0000000000000E+00
-0.5578823611218E+00  0.1091343040238E+00  0.0000000000000E+00
-0.5776566690581E+00  0.1477571845465E+00  0.0000000000000E+00
-0.5974309769943E+00  0.1863800650692E+00  0.0000000000000E+00
-0.6172052849306E+00  0.2250029455919E+00  0.0000000000000E+00
-0.6369795928668E+00  0.2636258261145E+00  0.0000000000000E+00
-0.6567539008030E+00  0.3022487066372E+00  0.0000000000000E+00
-0.2675697753590E+00 -0.3903634585794E+00  0.0000000000000E+00
-0.2851962171292E+00 -0.3527163567611E+00  0.0000000000000E+00
-0.3028226588994E+00 -0.3150692549428E+00  0.0000000000000E+00
-0.3204491006696E+00 -0.2774221531245E+00  0.0000000000000E+00
-0.3380755424398E+00 -0.2397750513062E+00  0.0000000000000E+00
-0.3557019842100E+00 -0.2021279494878E+00  0.0000000000000E+00
-0.3733284259802E+00 -0.1644808476695E+00  0.0000000000000E+00
-0.3909548677504E+00 -0.1268337458512E+00  0.0000000000000E+00
-0.4085813095206E+00 -0.8918664403293E-01  0.0000000000000E+00
-0.4262077512908E+00 -0.5153954221463E-01  0.0000000000000E+00
-0.4438341930610E+00 -0.1389244039632E-01  0.0000000000000E+00
-0.4614606348312E+00  0.2375466142199E-01  0.0000000000000E+00
-0.4790870766014E+00  0.6140176324029E-01  0.0000000000000E+00
-0.4967135183717E+00  0.9904886505860E-01  0.0000000000000E+00
-0.5143399601419E+00  0.1366959668769E+00  0.0000000000000E+00
-0.5319664019121E+00  0.1743430686952E+00  0.0000000000000E+00
-0.5495928436823E+00  0.2119901705135E+00  0.0000000000000E+00
-0.5672192854525E+00  0.2496372723318E+00  0.0000000000000E+00
-0.5848457272227E+00  0.2872843741501E+00  0.0000000000000E+00
-0.2342578969919E+00 -0.3880438745316E+00  0.0000000000000E+00
-0.2497160431228E+00 -0.3512380881835E+00  0.0000000000000E+00
-0.2651741892537E+00 -0.3144323018355E+00  0.0000000000000E+00
-0.2806323353846E+00 -0.2776265154874E+00  0.0000000000000E+00
-0.2960904815155E+00 -0.2408207291393E+00  0.0000000000000E+00
-0.3115486276463E+00 -0.2040149427913E+00  0.0000000000000E+00
-0.3270067737772E+00 -0.1672091564432E+00  0.0000000000000E+00
-0.3424649199081E+00 -0.1304033700952E+00  0.0000000000000E+00
-0.3579230660390E+00 -0.9359758374711E-01  0.0000000000000E+00
-0.3733812121699E+00 -0.5679179739905E-01  0.0000000000000E+00
-0.3888393583008E+00 -0.1998601105098E-01  0.0000000000000E+00
-0.4042975044317E+00  0.1681977529708E-01  0.0000000000000E+00
-0.4197556505626E+00  0.5362556164514E-01  0.0000000000000E+00
-0.4352137966935E+00  0.9043134799320E-01  0.0000000000000E+00
-0.4506719428244E+00  0.1272371343413E+00  0.0000000000000E+00
-0.4661300889553E+00  0.1640429206893E+00  0.0000000000000E+00
-0.4815882350862E+00  0.2008487070374E+00  0.0000000000000E+00
-0.4970463812171E+00  0.2376544933854E+00  0.0000000000000E+00
-0.5125045273480E+00  0.2744602797335E+00  0.0000000000000E+00
-0.2008905517879E+00 -0.3860140358384E+00  0.0000000000000E+00
-0.2141644306440E+00 -0.3499224952607E+00  0.0000000000000E+00
-0.2274383095000E+00 -0.3138309546829E+00  0.0000000000000E+00
-0.2407121883561E+00 -0.2777394141052E+00  0.0000000000000E+00
-0.2539860672121E+00 -0.2416478735275E+00  0.0000000000000E+00
-0.2672599460682E+00 -0.2055563329498E+00  0.0000000000000E+00
-0.2805338249242E+00 -0.1694647923721E+00  0.0000000000000E+00
-0.2938077037803E+00 -0.1333732517943E+00  0.0000000000000E+00
-0.3070815826363E+00 -0.9728171121661E-01  0.0000000000000E+00
-0.3203554614924E+00 -0.6119017063889E-01  0.0000000000000E+00
-0.3336293403484E+00 -0.2509863006116E-01  0.0000000000000E+00
-0.3469032192045E+00  0.1099291051656E-01  0.0000000000000E+00
-0.3601770980605E+00  0.4708445109428E-01  0.0000000000000E+00
-0.3734509769166E+00  0.8317599167200E-01  0.0000000000000E+00
-0.3867248557726E+00  0.1192675322497E+00  0.0000000000000E+00
-0.3999987346287E+00  0.1553590728274E+00  0.0000000000000E+00
-0.4132726134847E+00  0.1914506134052E+00  0.0000000000000E+00
-0.4265464923408E+00  0.2275421539829E+00  0.0000000000000E+00
-0.4398203711968E+00  0.2636336945606E+00  0.0000000000000E+00
-0.1674771093533E+00 -0.3842843495524E+00  0.0000000000000E+00
-0.1785546413643E+00 -0.3487884211107E+00  0.0000000000000E+00
-0.1896321733754E+00 -0.3132924926690E+00  0.0000000000000E+00
-0.2007097053864E+00 -0.2777965642273E+00  0.0000000000000E+00
-0.2117872373974E+00 -0.2423006357856E+00  0.0000000000000E+00
-0.2228647694084E+00 -0.2068047073439E+00  0.0000000000000E+00
-0.2339423014194E+00 -0.1713087789022E+00  0.0000000000000E+00
-0.2450198334305E+00 -0.1358128504605E+00  0.0000000000000E+00
-0.2560973654415E+00 -0.1003169220188E+00  0.0000000000000E+00
-0.2671748974525E+00 -0.6482099357711E-01  0.0000000000000E+00
-0.2782524294635E+00 -0.2932506513542E-01  0.0000000000000E+00
-0.2893299614745E+00  0.6170863306275E-02  0.0000000000000E+00
-0.3004074934856E+00  0.4166679174797E-01  0.0000000000000E+00
-0.3114850254966E+00  0.7716272018966E-01  0.0000000000000E+00
-0.3225625575076E+00  0.1126586486314E+00  0.0000000000000E+00
-0.3336400895186E+00  0.1481545770730E+00  0.0000000000000E+00
-0.3447176215296E+00  0.1836505055147E+00  0.0000000000000E+00
-0.3557951535407E+00  0.2191464339564E+00  0.0000000000000E+00
-0.3668726855517E+00  0.2546423623981E+00  0.0000000000000E+00
-0.1340261091775E+00 -0.3828631734966E+00  0.0000000000000E+00
-0.1428982089424E+00 -0.3478509012348E+00  0.0000000000000E+00
-0.1517703087072E+00 -0.3128386289729E+00  0.0000000000000E+00
-0.1606424084721E+00 -0.2778263567111E+00  0.0000000000000E+00
-0.1695145082369E+00 -0.2428140844493E+00  0.0000000000000E+00
-0.1783866080018E+00 -0.2078018121875E+00  0.0000000000000E+00
-0.1872587077666E+00 -0.1727895399257E+00  0.0000000000000E+00
-0.1961308075315E+00 -0.1377772676639E+00  0.0000000000000E+00
-0.2050029072963E+00 -0.1027649954021E+00  0.0000000000000E+00
-0.2138750070612E+00 -0.6775272314032E-01  0.0000000000000E+00
-0.2227471068260E+00 -0.3274045087851E-01  0.0000000000000E+00
-0.2316192065909E+00  0.2271821383293E-02  0.0000000000000E+00
-0.2404913063557E+00  0.3728409364510E-01  0.0000000000000E+00
-0.2493634061206E+00  0.7229636590690E-01  0.0000000000000E+00
-0.2582355058855E+00  0.1073086381687E+00  0.0000000000000E+00
-0.2671076056503E+00  0.1423209104305E+00  0.0000000000000E+00
-0.2759797054152E+00  0.1773331826923E+00  0.0000000000000E+00
-0.2848518051800E+00  0.2123454549541E+00  0.0000000000000E+00
-0.2937239049449E+00  0.2473577272159E+00  0.0000000000000E+00
-0.1005454709900E+00 -0.3817562677518E+00  0.0000000000000E+00
-0.1072053602565E+00 -0.3471200718438E+00  0.0000000000000E+00
-0.1138652495230E+00 -0.3124838759358E+00  0.0000000000000E+00
-0.1205251387895E+00 -0.2778476800278E+00  0.0000000000000E+00
-0.1271850280560E+00 -0.2432114841198E+00  0.0000000000000E+00
-0.1338449173226E+00 -0.2085752882118E+00  0.0000000000000E+00
-0.1405048065891E+00 -0.1739390923039E+00  0.0000000000000E+00
-0.1471646958556E+00 -0.1393028963959E+00  0.0000000000000E+00
-0.1538245851221E+00 -0.1046667004879E+00  0.0000000000000E+00
-0.1604844743886E+00 -0.7003050457989E-01  0.0000000000000E+00
-0.1671443636552E+00 -0.3539430867190E-01  0.0000000000000E+00
-0.1738042529217E+00 -0.7581127639063E-03  0.0000000000000E+00
-0.1804641421882E+00  0.3387808314408E-01  0.0000000000000E+00
-0.1871240314547E+00  0.6851427905207E-01  0.0000000000000E+00
-0.1937839207212E+00  0.1031504749601E+00  0.0000000000000E+00
-0.2004438099878E+00  0.1377866708681E+00  0.0000000000000E+00
-0.2071036992543E+00  0.1724228667760E+00  0.0000000000000E+00
-0.2137635885208E+00  0.2070590626840E+00  0.0000000000000E+00
-0.2204234777873E+00  0.2416952585920E+00  0.0000000000000E+00
-0.6704270627605E-01 -0.3809667730720E+00  0.0000000000000E+00
-0.7148545141935E-01 -0.3466011322144E+00  0.0000000000000E+00
-0.7592819656265E-01 -0.3122354913569E+00  0.0000000000000E+00
-0.8037094170595E-01 -0.2778698504993E+00  0.0000000000000E+00
-0.8481368684925E-01 -0.2435042096418E+00  0.0000000000000E+00
-0.8925643199255E-01 -0.2091385687842E+00  0.0000000000000E+00
-0.9369917713585E-01 -0.1747729279267E+00  0.0000000000000E+00
-0.9814192227916E-01 -0.1404072870692E+00  0.0000000000000E+00
-0.1025846674225E+00 -0.1060416462116E+00  0.0000000000000E+00
-0.1070274125658E+00 -0.7167600535406E-01  0.0000000000000E+00
-0.1114701577091E+00 -0.3731036449652E-01  0.0000000000000E+00
-0.1159129028524E+00 -0.2944723638973E-02  0.0000000000000E+00
-0.1203556479957E+00  0.3142091721857E-01  0.0000000000000E+00
-0.1247983931390E+00  0.6578655807612E-01  0.0000000000000E+00
-0.1292411382823E+00  0.1001521989337E+00  0.0000000000000E+00
-0.1336838834256E+00  0.1345178397912E+00  0.0000000000000E+00
-0.1381266285689E+00  0.1688834806488E+00  0.0000000000000E+00
-0.1425693737122E+00  0.2032491215063E+00  0.0000000000000E+00
-0.1470121188555E+00  0.2376147623638E+00  0.0000000000000E+00
-0.3352511022345E-01 -0.3804951770728E+00  0.0000000000000E+00
-0.3574736497451E-01 -0.3462942814123E+00  0.0000000000000E+00
-0.3796961972557E-01 -0.3120933857518E+00  0.0000000000000E+00
-0.4019187447663E-01 -0.2778924900913E+00  0.0000000000000E+00
-0.4241412922770E-01 -0.2436915944307E+00  0.0000000000000E+00
-0.4463638397876E-01 -0.2094906987702E+00  0.0000000000000E+00
-0.4685863872982E-01 -0.1752898031097E+00  0.0000000000000E+00
-0.4908089348088E-01 -0.1410889074492E+00  0.0000000000000E+00
-0.5130314823194E-01 -0.1068880117887E+00  0.0000000000000E+00
-0.5352540298300E-01 -0.7268711612818E-01  0.0000000000000E+00
-0.5574765773406E-01 -0.3848622046767E-01  0.0000000000000E+00
-0.5796991248513E-01 -0.4285324807156E-02  0.0000000000000E+00
-0.6019216723619E-01  0.2991557085336E-01  0.0000000000000E+00
-0.6241442198725E-01  0.6411646651387E-01  0.0000000000000E+00
-0.6463667673831E-01  0.9831736217438E-01  0.0000000000000E+00
-0.6685893148937E-01  0.1325182578349E+00  0.0000000000000E+00
-0.6908118624043E-01  0.1667191534954E+00  0.0000000000000E+00
-0.7130344099149E-01  0.2009200491559E+00  0.0000000000000E+00
-0.7352569574256E-01  0.2351209448164E+00  0.0000000000000E+00
-0.9110412026432E-10 -0.3803390679715E+00  0.0000000000000E+00
-0.1822078997847E-09 -0.3461942289011E+00  0.0000000000000E+00
-0.2733118597163E-09 -0.3120493898306E+00  0.0000000000000E+00
-0.3644157225034E-09 -0.2779045507602E+00  0.0000000000000E+00
-0.4555196408017E-09 -0.2437597116898E+00  0.0000000000000E+00
-0.5466234480776E-09 -0.2096148726194E+00  0.0000000000000E+00
-0.6377270888201E-09 -0.1754700335490E+00  0.0000000000000E+00
-0.7288309516072E-09 -0.1413251944785E+00  0.0000000000000E+00
-0.8199347588832E-09 -0.1071803554081E+00  0.0000000000000E+00
-0.9110384551368E-09 -0.7303551633770E-01  0.0000000000000E+00
-0.1002142373435E-08 -0.3889067726728E-01  0.0000000000000E+00
-0.1093246125200E-08 -0.4745838196866E-02  0.0000000000000E+00
-0.1184349710431E-08  0.2939900087355E-01  0.0000000000000E+00
-0.1275453573218E-08  0.6354383994397E-01  0.0000000000000E+00
-0.1366557602539E-08  0.9768867901439E-01  0.0000000000000E+00
-0.1457661298793E-08  0.1318335180848E+00  0.0000000000000E+00
-0.1548765106068E-08  0.1659783571552E+00  0.0000000000000E+00
-0.1639868913344E-08  0.2001231962256E+00  0.0000000000000E+00
-0.1730972498576E-08  0.2342680352961E+00  0.0000000000000E+00
 0.3352511004131E-01 -0.3804951770771E+00  0.0000000000000E+00
 0.3574736461023E-01 -0.3462942814209E+00  0.0000000000000E+00
 0.3796961917915E-01 -0.3120933857647E+00  0.0000000000000E+00
 0.4019187374807E-01 -0.2778924901086E+00  0.0000000000000E+00
 0.4241412831699E-01 -0.2436915944524E+00  0.0000000000000E+00
 0.4463638288591E-01 -0.2094906987962E+00  0.0000000000000E+00
 0.4685863745483E-01 -0.1752898031400E+00  0.0000000000000E+00
 0.4908089202375E-01 -0.1410889074838E+00  0.0000000000000E+00
 0.5130314659267E-01 -0.1068880118276E+00  0.0000000000000E+00
 0.5352540116158E-01 -0.7268711617143E-01  0.0000000000000E+00
 0.5574765573050E-01 -0.3848622051524E-01  0.0000000000000E+00
 0.5796991029942E-01 -0.4285324859053E-02  0.0000000000000E+00
 0.6019216486834E-01  0.2991557079713E-01  0.0000000000000E+00
 0.6241441943726E-01  0.6411646645332E-01  0.0000000000000E+00
 0.6463667400618E-01  0.9831736210951E-01  0.0000000000000E+00
 0.6685892857510E-01  0.1325182577657E+00  0.0000000000000E+00
 0.6908118314402E-01  0.1667191534219E+00  0.0000000000000E+00
 0.7130343771294E-01  0.2009200490781E+00  0.0000000000000E+00
 0.7352569228186E-01  0.2351209447343E+00  0.0000000000000E+00
 0.6704270609402E-01 -0.3809667730804E+00  0.0000000000000E+00
 0.7148545105530E-01 -0.3466011322313E+00  0.0000000000000E+00
 0.7592819601657E-01 -0.3122354913822E+00  0.0000000000000E+00
 0.8037094097785E-01 -0.2778698505331E+00  0.0000000000000E+00
 0.8481368593912E-01 -0.2435042096840E+00  0.0000000000000E+00
 0.8925643090040E-01 -0.2091385688349E+00  0.0000000000000E+00
 0.9369917586167E-01 -0.1747729279858E+00  0.0000000000000E+00
 0.9814192082294E-01 -0.1404072871367E+00  0.0000000000000E+00
 0.1025846657842E+00 -0.1060416462876E+00  0.0000000000000E+00
 0.1070274107455E+00 -0.7167600543851E-01  0.0000000000000E+00
 0.1114701557068E+00 -0.3731036458941E-01  0.0000000000000E+00
 0.1159129006680E+00 -0.2944723740310E-02  0.0000000000000E+00
 0.1203556456293E+00  0.3142091710879E-01  0.0000000000000E+00
 0.1247983905906E+00  0.6578655795789E-01  0.0000000000000E+00
 0.1292411355519E+00  0.1001521988070E+00  0.0000000000000E+00
 0.1336838805131E+00  0.1345178396561E+00  0.0000000000000E+00
 0.1381266254744E+00  0.1688834805052E+00  0.0000000000000E+00
 0.1425693704357E+00  0.2032491213543E+00  0.0000000000000E+00
 0.1470121153970E+00  0.2376147622034E+00  0.0000000000000E+00
 0.1005454708081E+00 -0.3817562677643E+00  0.0000000000000E+00
 0.1072053598928E+00 -0.3471200718688E+00  0.0000000000000E+00
 0.1138652489775E+00 -0.3124838759733E+00  0.0000000000000E+00
 0.1205251380622E+00 -0.2778476800778E+00  0.0000000000000E+00
 0.1271850271469E+00 -0.2432114841823E+00  0.0000000000000E+00
 0.1338449162316E+00 -0.2085752882868E+00  0.0000000000000E+00
 0.1405048053162E+00 -0.1739390923913E+00  0.0000000000000E+00
 0.1471646944009E+00 -0.1393028964959E+00  0.0000000000000E+00
 0.1538245834856E+00 -0.1046667006004E+00  0.0000000000000E+00
 0.1604844725703E+00 -0.7003050470487E-01  0.0000000000000E+00
 0.1671443616550E+00 -0.3539430880938E-01  0.0000000000000E+00
 0.1738042507397E+00 -0.7581129138917E-03  0.0000000000000E+00
 0.1804641398244E+00  0.3387808298160E-01  0.0000000000000E+00
 0.1871240289091E+00  0.6851427887709E-01  0.0000000000000E+00
 0.1937839179937E+00  0.1031504747726E+00  0.0000000000000E+00
 0.2004438070784E+00  0.1377866706681E+00  0.0000000000000E+00
 0.2071036961631E+00  0.1724228665636E+00  0.0000000000000E+00
 0.2137635852478E+00  0.2070590624591E+00  0.0000000000000E+00
 0.2204234743325E+00  0.2416952583545E+00  0.0000000000000E+00
 0.1340261089962E+00 -0.3828631735131E+00  0.0000000000000E+00
 0.1428982085797E+00 -0.3478509012679E+00  0.0000000000000E+00
 0.1517703081632E+00 -0.3128386290227E+00  0.0000000000000E+00
 0.1606424077467E+00 -0.2778263567775E+00  0.0000000000000E+00
 0.1695145073302E+00 -0.2428140845323E+00  0.0000000000000E+00
 0.1783866069137E+00 -0.2078018122871E+00  0.0000000000000E+00
 0.1872587064972E+00 -0.1727895400418E+00  0.0000000000000E+00
 0.1961308060807E+00 -0.1377772677966E+00  0.0000000000000E+00
 0.2050029056642E+00 -0.1027649955514E+00  0.0000000000000E+00
 0.2138750052477E+00 -0.6775272330619E-01  0.0000000000000E+00
 0.2227471048312E+00 -0.3274045106098E-01  0.0000000000000E+00
 0.2316192044147E+00  0.2271821184241E-02  0.0000000000000E+00
 0.2404913039982E+00  0.3728409342946E-01  0.0000000000000E+00
 0.2493634035817E+00  0.7229636567468E-01  0.0000000000000E+00
 0.2582355031652E+00  0.1073086379199E+00  0.0000000000000E+00
 0.2671076027487E+00  0.1423209101651E+00  0.0000000000000E+00
 0.2759797023322E+00  0.1773331824103E+00  0.0000000000000E+00
 0.2848518019157E+00  0.2123454546555E+00  0.0000000000000E+00
 0.2937239014992E+00  0.2473577269008E+00  0.0000000000000E+00
 0.1674771091722E+00 -0.3842843495732E+00  0.0000000000000E+00
 0.1785546410022E+00 -0.3487884211524E+00  0.0000000000000E+00
 0.1896321728322E+00 -0.3132924927316E+00  0.0000000000000E+00
 0.2007097046621E+00 -0.2777965643107E+00  0.0000000000000E+00
 0.2117872364921E+00 -0.2423006358899E+00  0.0000000000000E+00
 0.2228647683220E+00 -0.2068047074691E+00  0.0000000000000E+00
 0.2339423001520E+00 -0.1713087790483E+00  0.0000000000000E+00
 0.2450198319819E+00 -0.1358128506275E+00  0.0000000000000E+00
 0.2560973638119E+00 -0.1003169222066E+00  0.0000000000000E+00
 0.2671748956418E+00 -0.6482099378580E-01  0.0000000000000E+00
 0.2782524274718E+00 -0.2932506536498E-01  0.0000000000000E+00
 0.2893299593017E+00  0.6170863055847E-02  0.0000000000000E+00
 0.3004074911317E+00  0.4166679147667E-01  0.0000000000000E+00
 0.3114850229616E+00  0.7716271989750E-01  0.0000000000000E+00
 0.3225625547916E+00  0.1126586483183E+00  0.0000000000000E+00
 0.3336400866215E+00  0.1481545767391E+00  0.0000000000000E+00
 0.3447176184515E+00  0.1836505051600E+00  0.0000000000000E+00
 0.3557951502814E+00  0.2191464335808E+00  0.0000000000000E+00
 0.3668726821114E+00  0.2546423620016E+00  0.0000000000000E+00
 0.2008905516076E+00 -0.3860140358638E+00  0.0000000000000E+00
 0.2141644302833E+00 -0.3499224953114E+00  0.0000000000000E+00
 0.2274383089590E+00 -0.3138309547591E+00  0.0000000000000E+00
 0.2407121876348E+00 -0.2777394142068E+00  0.0000000000000E+00
 0.2539860663105E+00 -0.2416478736544E+00  0.0000000000000E+00
 0.2672599449862E+00 -0.2055563331021E+00  0.0000000000000E+00
 0.2805338236619E+00 -0.1694647925498E+00  0.0000000000000E+00
 0.2938077023376E+00 -0.1333732519975E+00  0.0000000000000E+00
 0.3070815810133E+00 -0.9728171144512E-01  0.0000000000000E+00
 0.3203554596891E+00 -0.6119017089279E-01  0.0000000000000E+00
 0.3336293383648E+00 -0.2509863034046E-01  0.0000000000000E+00
 0.3469032170405E+00  0.1099291021187E-01  0.0000000000000E+00
 0.3601770957162E+00  0.4708445076420E-01  0.0000000000000E+00
 0.3734509743919E+00  0.8317599131653E-01  0.0000000000000E+00
 0.3867248530677E+00  0.1192675318689E+00  0.0000000000000E+00
 0.3999987317434E+00  0.1553590724212E+00  0.0000000000000E+00
 0.4132726104191E+00  0.1914506129735E+00  0.0000000000000E+00
 0.4265464890948E+00  0.2275421535259E+00  0.0000000000000E+00
 0.4398203677705E+00  0.2636336940782E+00  0.0000000000000E+00
 0.2342578968120E+00 -0.3880438745619E+00  0.0000000000000E+00
 0.2497160427631E+00 -0.3512380882442E+00  0.0000000000000E+00
 0.2651741887142E+00 -0.3144323019265E+00  0.0000000000000E+00
 0.2806323346653E+00 -0.2776265156088E+00  0.0000000000000E+00
 0.2960904806164E+00 -0.2408207292911E+00  0.0000000000000E+00
 0.3115486265674E+00 -0.2040149429734E+00  0.0000000000000E+00
 0.3270067725185E+00 -0.1672091566557E+00  0.0000000000000E+00
 0.3424649184696E+00 -0.1304033703380E+00  0.0000000000000E+00
 0.3579230644207E+00 -0.9359758402027E-01  0.0000000000000E+00
 0.3733812103718E+00 -0.5679179770256E-01  0.0000000000000E+00
 0.3888393563228E+00 -0.1998601138485E-01  0.0000000000000E+00
 0.4042975022739E+00  0.1681977493286E-01  0.0000000000000E+00
 0.4197556482250E+00  0.5362556125056E-01  0.0000000000000E+00
 0.4352137941761E+00  0.9043134756827E-01  0.0000000000000E+00
 0.4506719401272E+00  0.1272371338860E+00  0.0000000000000E+00
 0.4661300860782E+00  0.1640429202037E+00  0.0000000000000E+00
 0.4815882320293E+00  0.2008487065214E+00  0.0000000000000E+00
 0.4970463779804E+00  0.2376544928391E+00  0.0000000000000E+00
 0.5125045239315E+00  0.2744602791568E+00  0.0000000000000E+00
 0.2675697751805E+00 -0.3903634586150E+00  0.0000000000000E+00
 0.2851962167721E+00 -0.3527163568323E+00  0.0000000000000E+00
 0.3028226583638E+00 -0.3150692550497E+00  0.0000000000000E+00
 0.3204490999555E+00 -0.2774221532670E+00  0.0000000000000E+00
 0.3380755415472E+00 -0.2397750514843E+00  0.0000000000000E+00
 0.3557019831389E+00 -0.2021279497017E+00  0.0000000000000E+00
 0.3733284247305E+00 -0.1644808479190E+00  0.0000000000000E+00
 0.3909548663222E+00 -0.1268337461363E+00  0.0000000000000E+00
 0.4085813079139E+00 -0.8918664435365E-01  0.0000000000000E+00
 0.4262077495056E+00 -0.5153954257098E-01  0.0000000000000E+00
 0.4438341910973E+00 -0.1389244078831E-01  0.0000000000000E+00
 0.4614606326889E+00  0.2375466099436E-01  0.0000000000000E+00
 0.4790870742806E+00  0.6140176277703E-01  0.0000000000000E+00
 0.4967135158723E+00  0.9904886455970E-01  0.0000000000000E+00
 0.5143399574640E+00  0.1366959663424E+00  0.0000000000000E+00
 0.5319663990557E+00  0.1743430681250E+00  0.0000000000000E+00
 0.5495928406473E+00  0.2119901699077E+00  0.0000000000000E+00
 0.5672192822390E+00  0.2496372716904E+00  0.0000000000000E+00
 0.5848457238307E+00  0.2872843734730E+00  0.0000000000000E+00
 0.3008163577734E+00 -0.3929631428122E+00  0.0000000000000E+00
 0.3205906655322E+00 -0.3543402623307E+00  0.0000000000000E+00
 0.3403649732910E+00 -0.3157173818492E+00  0.0000000000000E+00
 0.3601392810498E+00 -0.2770945013677E+00  0.0000000000000E+00
 0.3799135888087E+00 -0.2384716208863E+00  0.0000000000000E+00
 0.3996878965675E+00 -0.1998487404048E+00  0.0000000000000E+00
 0.4194622043263E+00 -0.1612258599233E+00  0.0000000000000E+00
 0.4392365120851E+00 -0.1226029794418E+00  0.0000000000000E+00
 0.4590108198439E+00 -0.8398009896027E-01  0.0000000000000E+00
 0.4787851276028E+00 -0.4535721847878E-01  0.0000000000000E+00
 0.4985594353616E+00 -0.6734337997284E-02  0.0000000000000E+00
 0.5183337431204E+00  0.3188854248421E-01  0.0000000000000E+00
 0.5381080508792E+00  0.7051142296571E-01  0.0000000000000E+00
 0.5578823586381E+00  0.1091343034472E+00  0.0000000000000E+00
 0.5776566663969E+00  0.1477571839287E+00  0.0000000000000E+00
 0.5974309741557E+00  0.1863800644102E+00  0.0000000000000E+00
 0.6172052819145E+00  0.2250029448917E+00  0.0000000000000E+00
 0.6369795896734E+00  0.2636258253732E+00  0.0000000000000E+00
 0.6567538974322E+00  0.3022487058547E+00  0.0000000000000E+00
 0.3339899906020E+00 -0.3958444359414E+00  0.0000000000000E+00
 0.3558893491867E+00 -0.3561153469911E+00  0.0000000000000E+00
 0.3777887077715E+00 -0.3163862580408E+00  0.0000000000000E+00
 0.3996880663563E+00 -0.2766571690905E+00  0.0000000000000E+00
 0.4215874249411E+00 -0.2369280801402E+00  0.0000000000000E+00
 0.4434867835259E+00 -0.1971989911899E+00  0.0000000000000E+00
 0.4653861421107E+00 -0.1574699022396E+00  0.0000000000000E+00
 0.4872855006954E+00 -0.1177408132894E+00  0.0000000000000E+00
 0.5091848592802E+00 -0.7801172433906E-01  0.0000000000000E+00
 0.5310842178650E+00 -0.3828263538877E-01  0.0000000000000E+00
 0.5529835764498E+00  0.1446453561517E-02  0.0000000000000E+00
 0.5748829350346E+00  0.4117554251181E-01  0.0000000000000E+00
 0.5967822936193E+00  0.8090463146210E-01  0.0000000000000E+00
 0.6186816522041E+00  0.1206337204124E+00  0.0000000000000E+00
 0.6405810107889E+00  0.1603628093627E+00  0.0000000000000E+00
 0.6624803693737E+00  0.2000918983130E+00  0.0000000000000E+00
 0.6843797279585E+00  0.2398209872633E+00  0.0000000000000E+00
 0.7062790865433E+00  0.2795500762135E+00  0.0000000000000E+00
 0.7281784451280E+00  0.3192791651638E+00  0.0000000000000E+00
 0.3670941280509E+00 -0.3990479117477E+00  0.0000000000000E+00
 0.3911043430246E+00 -0.3581255481675E+00  0.0000000000000E+00
 0.4151145579982E+00 -0.3172031845874E+00  0.0000000000000E+00
 0.4391247729718E+00 -0.2762808210073E+00  0.0000000000000E+00
 0.4631349879455E+00 -0.2353584574271E+00  0.0000000000000E+00
 0.4871452029191E+00 -0.1944360938470E+00  0.0000000000000E+00
 0.5111554178927E+00 -0.1535137302669E+00  0.0000000000000E+00
 0.5351656328664E+00 -0.1125913666867E+00  0.0000000000000E+00
 0.5591758478400E+00 -0.7166900310660E-01  0.0000000000000E+00
 0.5831860628136E+00 -0.3074663952647E-01  0.0000000000000E+00
 0.6071962777873E+00  0.1017572405366E-01  0.0000000000000E+00
 0.6312064927609E+00  0.5109808763380E-01  0.0000000000000E+00
 0.6552167077345E+00  0.9202045121393E-01  0.0000000000000E+00
 0.6792269227082E+00  0.1329428147941E+00  0.0000000000000E+00
 0.7032371376818E+00  0.1738651783742E+00  0.0000000000000E+00
 0.7272473526555E+00  0.2147875419543E+00  0.0000000000000E+00
 0.7512575676291E+00  0.2557099055345E+00  0.0000000000000E+00
 0.7752677826027E+00  0.2966322691146E+00  0.0000000000000E+00
 0.7992779975764E+00  0.3375546326947E+00  0.0000000000000E+00
 0.4001452658322E+00 -0.4026538268434E+00  0.0000000000000E+00
 0.4262736919301E+00 -0.3605344242716E+00  0.0000000000000E+00
 0.4524021180279E+00 -0.3184150216998E+00  0.0000000000000E+00
 0.4785305441258E+00 -0.2762956191280E+00  0.0000000000000E+00
 0.5046589702237E+00 -0.2341762165562E+00  0.0000000000000E+00
 0.5307873963216E+00 -0.1920568139844E+00  0.0000000000000E+00
 0.5569158224194E+00 -0.1499374114126E+00  0.0000000000000E+00
 0.5830442485173E+00 -0.1078180088408E+00  0.0000000000000E+00
 0.6091726746152E+00 -0.6569860626900E-01  0.0000000000000E+00
 0.6353011007131E+00 -0.2357920369720E-01  0.0000000000000E+00
 0.6614295268109E+00  0.1854019887460E-01  0.0000000000000E+00
 0.6875579529088E+00  0.6065960144641E-01  0.0000000000000E+00
 0.7136863790067E+00  0.1027790040182E+00  0.0000000000000E+00
 0.7398148051046E+00  0.1448984065900E+00  0.0000000000000E+00
 0.7659432312024E+00  0.1870178091618E+00  0.0000000000000E+00
 0.7920716573003E+00  0.2291372117336E+00  0.0000000000000E+00
 0.8182000833982E+00  0.2712566143054E+00  0.0000000000000E+00
 0.8443285094961E+00  0.3133760168772E+00  0.0000000000000E+00
 0.8704569355939E+00  0.3554954194490E+00  0.0000000000000E+00
 0.4331566792210E+00 -0.4067328541253E+00  0.0000000000000E+00
 0.4614288245888E+00 -0.3634866018376E+00  0.0000000000000E+00
 0.4897009699565E+00 -0.3202403495500E+00  0.0000000000000E+00
 0.5179731153242E+00 -0.2769940972623E+00  0.0000000000000E+00
 0.5462452606920E+00 -0.2337478449747E+00  0.0000000000000E+00
 0.5745174060597E+00 -0.1905015926870E+00  0.0000000000000E+00
 0.6027895514275E+00 -0.1472553403993E+00  0.0000000000000E+00
 0.6310616967952E+00 -0.1040090881117E+00  0.0000000000000E+00
 0.6593338421629E+00 -0.6076283582400E-01  0.0000000000000E+00
 0.6876059875307E+00 -0.1751658353633E-01  0.0000000000000E+00
 0.7158781328984E+00  0.2572966875133E-01  0.0000000000000E+00
 0.7441502782662E+00  0.6897592103899E-01  0.0000000000000E+00
 0.7724224236339E+00  0.1122221733267E+00  0.0000000000000E+00
 0.8006945690017E+00  0.1554684256143E+00  0.0000000000000E+00
 0.8289667143694E+00  0.1987146779020E+00  0.0000000000000E+00
 0.8572388597371E+00  0.2419609301896E+00  0.0000000000000E+00
 0.8855110051049E+00  0.2852071824773E+00  0.0000000000000E+00
 0.9137831504726E+00  0.3284534347650E+00  0.0000000000000E+00
 0.9420552958404E+00  0.3716996870526E+00  0.0000000000000E+00
 0.4661358892480E+00 -0.4113546121035E+00  0.0000000000000E+00
 0.4965895943463E+00 -0.3671248415798E+00  0.0000000000000E+00
 0.5270432994446E+00 -0.3228950710562E+00  0.0000000000000E+00
 0.5574970045428E+00 -0.2786653005325E+00  0.0000000000000E+00
 0.5879507096411E+00 -0.2344355300089E+00  0.0000000000000E+00
 0.6184044147394E+00 -0.1902057594852E+00  0.0000000000000E+00
 0.6488581198376E+00 -0.1459759889615E+00  0.0000000000000E+00
 0.6793118249359E+00 -0.1017462184379E+00  0.0000000000000E+00
 0.7097655300342E+00 -0.5751644791423E-01  0.0000000000000E+00
 0.7402192351324E+00 -0.1328667739058E-01  0.0000000000000E+00
 0.7706729402307E+00  0.3094309313308E-01  0.0000000000000E+00
 0.8011266453290E+00  0.7517286365674E-01  0.0000000000000E+00
 0.8315803504272E+00  0.1194026341804E+00  0.0000000000000E+00
 0.8620340555255E+00  0.1636324047041E+00  0.0000000000000E+00
 0.8924877606238E+00  0.2078621752277E+00  0.0000000000000E+00
 0.9229414657220E+00  0.2520919457514E+00  0.0000000000000E+00
 0.9533951708203E+00  0.2963217162750E+00  0.0000000000000E+00
 0.9838488759186E+00  0.3405514867987E+00  0.0000000000000E+00
 0.1014302581017E+01  0.3847812573223E+00  0.0000000000000E+00
 0.4990802664438E+00 -0.4165840327379E+00  0.0000000000000E+00
 0.5317553215595E+00 -0.3715827348342E+00  0.0000000000000E+00
 0.5644303766752E+00 -0.3265814369305E+00  0.0000000000000E+00
 0.5971054317909E+00 -0.2815801390268E+00  0.0000000000000E+00
 0.6297804869067E+00 -0.2365788411232E+00  0.0000000000000E+00
 0.6624555420224E+00 -0.1915775432195E+00  0.0000000000000E+00
 0.6951305971381E+00 -0.1465762453158E+00  0.0000000000000E+00
 0.7278056522539E+00 -0.1015749474121E+00  0.0000000000000E+00
 0.7604807073696E+00 -0.5657364950839E-01  0.0000000000000E+00
 0.7931557624853E+00 -0.1157235160470E-01  0.0000000000000E+00
 0.8258308176011E+00  0.3342894629900E-01  0.0000000000000E+00
 0.8585058727168E+00  0.7843024420269E-01  0.0000000000000E+00
 0.8911809278325E+00  0.1234315421064E+00  0.0000000000000E+00
 0.9238559829483E+00  0.1684328400101E+00  0.0000000000000E+00
 0.9565310380640E+00  0.2134341379138E+00  0.0000000000000E+00
 0.9892060931797E+00  0.2584354358175E+00  0.0000000000000E+00
 0.1021881148295E+01  0.3034367337211E+00  0.0000000000000E+00
 0.1054556203411E+01  0.3484380316248E+00  0.0000000000000E+00
 0.1087231258527E+01  0.3934393295285E+00  0.0000000000000E+00
 0.5319747862026E+00 -0.4224941396770E+00  0.0000000000000E+00
 0.5669005035122E+00 -0.3770102860085E+00  0.0000000000000E+00
 0.6018262208219E+00 -0.3315264323400E+00  0.0000000000000E+00
 0.6367519381315E+00 -0.2860425786714E+00  0.0000000000000E+00
 0.6716776554412E+00 -0.2405587250029E+00  0.0000000000000E+00
 0.7066033727508E+00 -0.1950748713344E+00  0.0000000000000E+00
 0.7415290900604E+00 -0.1495910176658E+00  0.0000000000000E+00
 0.7764548073701E+00 -0.1041071639973E+00  0.0000000000000E+00
 0.8113805246797E+00 -0.5862331032874E-01  0.0000000000000E+00
 0.8463062419894E+00 -0.1313945666021E-01  0.0000000000000E+00
 0.8812319592990E+00  0.3234439700833E-01  0.0000000000000E+00
 0.9161576766086E+00  0.7782825067687E-01  0.0000000000000E+00
 0.9510833939183E+00  0.1233121043454E+00  0.0000000000000E+00
 0.9860091112279E+00  0.1687959580139E+00  0.0000000000000E+00
 0.1020934828538E+01  0.2142798116825E+00  0.0000000000000E+00
 0.1055860545847E+01  0.2597636653510E+00  0.0000000000000E+00
 0.1090786263157E+01  0.3052475190195E+00  0.0000000000000E+00
 0.1125711980466E+01  0.3507313726881E+00  0.0000000000000E+00
 0.1160637697776E+01  0.3962152263566E+00  0.0000000000000E+00
 0.5647851635818E+00 -0.4291779471573E+00  0.0000000000000E+00
 0.6019607638464E+00 -0.3835976335334E+00  0.0000000000000E+00
 0.6391363641111E+00 -0.3380173199096E+00  0.0000000000000E+00
 0.6763119643757E+00 -0.2924370062857E+00  0.0000000000000E+00
 0.7134875646404E+00 -0.2468566926618E+00  0.0000000000000E+00
 0.7506631649050E+00 -0.2012763790380E+00  0.0000000000000E+00
 0.7878387651697E+00 -0.1556960654141E+00  0.0000000000000E+00
 0.8250143654344E+00 -0.1101157517902E+00  0.0000000000000E+00
 0.8621899656990E+00 -0.6453543816633E-01  0.0000000000000E+00
 0.8993655659637E+00 -0.1895512454246E-01  0.0000000000000E+00
 0.9365411662283E+00  0.2662518908141E-01  0.0000000000000E+00
 0.9737167664930E+00  0.7220550270529E-01  0.0000000000000E+00
 0.1010892366758E+01  0.1177858163292E+00  0.0000000000000E+00
 0.1048067967022E+01  0.1633661299530E+00  0.0000000000000E+00
 0.1085243567287E+01  0.2089464435769E+00  0.0000000000000E+00
 0.1122419167552E+01  0.2545267572008E+00  0.0000000000000E+00
 0.1159594767816E+01  0.3001070708247E+00  0.0000000000000E+00
 0.1196770368081E+01  0.3456873844485E+00  0.0000000000000E+00
 0.1233945968346E+01  0.3912676980724E+00  0.0000000000000E+00
 0.5974622414189E+00 -0.4366441451446E+00  0.0000000000000E+00
 0.6368419582214E+00 -0.3913664748674E+00  0.0000000000000E+00
 0.6762216750239E+00 -0.3460888045901E+00  0.0000000000000E+00
 0.7156013918264E+00 -0.3008111343129E+00  0.0000000000000E+00
 0.7549811086289E+00 -0.2555334640357E+00  0.0000000000000E+00
 0.7943608254314E+00 -0.2102557937584E+00  0.0000000000000E+00
 0.8337405422339E+00 -0.1649781234812E+00  0.0000000000000E+00
 0.8731202590364E+00 -0.1197004532040E+00  0.0000000000000E+00
 0.9124999758389E+00 -0.7442278292673E-01  0.0000000000000E+00
 0.9518796926414E+00 -0.2914511264950E-01  0.0000000000000E+00
 0.9912594094439E+00  0.1613255762773E-01  0.0000000000000E+00
 0.1030639126246E+01  0.6141022790496E-01  0.0000000000000E+00
 0.1070018843049E+01  0.1066878981822E+00  0.0000000000000E+00
 0.1109398559851E+01  0.1519655684594E+00  0.0000000000000E+00
 0.1148778276654E+01  0.1972432387367E+00  0.0000000000000E+00
 0.1188157993456E+01  0.2425209090139E+00  0.0000000000000E+00
 0.1227537710259E+01  0.2877985792911E+00  0.0000000000000E+00
 0.1266917427061E+01  0.3330762495684E+00  0.0000000000000E+00
 0.1306297143864E+01  0.3783539198456E+00  0.0000000000000E+00
 0.6299559713731E+00 -0.4448788634348E+00  0.0000000000000E+00
 0.6714480731557E+00 -0.4002935754811E+00  0.0000000000000E+00
 0.7129401749383E+00 -0.3557082875275E+00  0.0000000000000E+00
 0.7544322767209E+00 -0.3111229995738E+00  0.0000000000000E+00
 0.7959243785035E+00 -0.2665377116201E+00  0.0000000000000E+00
 0.8374164802861E+00 -0.2219524236665E+00  0.0000000000000E+00
 0.8789085820687E+00 -0.1773671357128E+00  0.0000000000000E+00
 0.9204006838513E+00 -0.1327818477591E+00  0.0000000000000E+00
 0.9618927856339E+00 -0.8819655980548E-01  0.0000000000000E+00
 0.1003384887417E+01 -0.4361127185182E-01  0.0000000000000E+00
 0.1044876989199E+01  0.9740161018480E-03  0.0000000000000E+00
 0.1086369090982E+01  0.4555930405551E-01  0.0000000000000E+00
 0.1127861192764E+01  0.9014459200918E-01  0.0000000000000E+00
 0.1169353294547E+01  0.1347298799628E+00  0.0000000000000E+00
 0.1210845396330E+01  0.1793151679165E+00  0.0000000000000E+00
 0.1252337498112E+01  0.2239004558702E+00  0.0000000000000E+00
 0.1293829599895E+01  0.2684857438238E+00  0.0000000000000E+00
 0.1335321701677E+01  0.3130710317775E+00  0.0000000000000E+00
 0.1376813803460E+01  0.3576563197312E+00  0.0000000000000E+00
</DataArray>
</Points>
<Cells>
<DataArray type="Int64" Name="connectivity" format="ascii">
0 11 438 243
243 438 439 244
244 439 440 245
245 440 441 246
246 441 442 247
247 442 443 248
248 443 444 249
249 444 445 250
250 445 446 251
251 446 447 252
252 447 448 253
253 448 449 254
254 449 450 255
255 450 451 256
256 451 452 257
257 452 453 258
258 453 454 259
259 454 455 260
260 455 456 261
261 456 457 262
262 457 458 263
263 458 459 264
264 459 460 265
265 460 461 266
266 461 462 267
267 462 463 268
268 463 464 269
269 464 465 270
270 465 466 271
271 466 467 272
272 467 468 273
273 468 469 274
274 469 470 275
275 470 471 276
276 471 472 277
277 472 473 278
278 473 474 279
279 474 475 280
280 475 476 281
281 476 477 282
282 477 89 3
11 12 478 438
438 478 479 439
439 479 480 440
440 480 481 441
441 481 482 442
442 482 483 443
443 483 484 444
444 484 485 445
445 485 486 446
446 486 487 447
447 487 488 448
448 488 489 449
449 489 490 450
450 490 491 451
451 491 492 452
452 492 493 453
453 493 494 454
454 494 495 455
455 495 496 456
456 496 497 457
457 497 498 458
458 498 499 459
459 499 500 460
460 500 501 461
461 501 502 462
462 502 503 463
463 503 504 464
464 504 505 465
465 505 506 466
466 506 507 467
467 507 508 468
468 508 509 469
469 509 510 470
470 510 511 471
471 511 512 472
472 512 513 473
473 513 514 474
474 514 515 475
475 515 516 476
476 516 517 477
477 517 90 89
12 13 518 478
478 518 519 479
479 519 520 480
480 520 521 481
481 521 522 482
482 522 523 483
483 523 524 484
484 524 525 485
485 525 526 486
486 526 527 487
487 527 528 488
488 528 529 489
489 529 530 490
490 530 531 491
491 531 532 492
492 532 533 493
493 533 534 494
494 534 535 495
495 535 536 496
496 536 537 497
497 537 538 498
498 538 539 499
499 539 540 500
500 540 541 501
501 541 542 502
502 542 543 503
503 543 544 504
504 544 545 505
505 545 546 506
506 546 547 507
507 547 548 508
508 548 549 509
509 549 550 510
510 550 551 511
511 551 552 512
512 552 553 513
513 553 554 514
514 554 555 515
515 555 556 516
516 556 557 517
517 557 91 90
13 14 558 518
518 558 559 519
519 559 560 520
520 560 561 521
521 561 562 522
522 562 563 523
523 563 564 524
524 564 565 525
525 565 566 526
526 566 567 527
527 567 568 528
528 568 569 529
529 569 570 530
530 570 571 531
531 571 572 532
532 572 573 533
533 573 574 534
534 574 575 535
535 575 576 536
536 576 577 537
537 577 578 538
538 578 579 539
539 579 580 540
540 580 581 541
541 581 582 542
542 582 583 543
543 583 584 544
544 584 585 545
545 585 586 546
546 586 587 547
547 587 588 548
548 588 589 549
549 589 590 550
550 590 591 551
551 591 592 552
552 592 593 553
553 593 594 554
554 594 595 555
555 595 596 556
556 596 597 557
557 597 92 91
14 15 598 558
558 598 599 559
559 599 600 560
560 600 601 561
561 601 602 562
562 602 603 563
563 603 604 564
564 604 605 565
565 605 606 566
566 606 607 567
567 607 608 568
568 608 609 569
569 609 610 570
570 610 611 571
571 611 612 572
572 612 613 573
573 613 614 574
574 614 615 575
575 615 616 576
576 616 617 577
577 617 618 578
578 618 619 579
579 619 620 580
580 620 621 581
581 621 622 582
582 622 623 583
583 623 624 584
584 624 625 585
585 625 626 586
586 626 627 587
587 627 628 588
588 628 629 589
589 629 630 590
590 630 631 591
591 631 632 592
592 632 633 593
593 633 634 594
594 634 635 595
595 635 636 596
596 636 637 597
597 637 93 92
15 16 638 598
598 638 639 599
599 639 640 600
600 640 641 601
601 641 642 602
602 642 643 603
603 643 644 604
604 644 645 605
605 645 646 606
606 646 647 607
607 647 648 608
608 648 649 609
609 649 650 610
610 650 651 611
611 651 652 612
612 652 653 613
613 653 654 614
614 654 655 615
615 655 656 616
616 656 657 617
617 657 658 618
618 658 659 619
619 659 660 620
620 660 661 621
621 661 662 622
622 662 663 623
623 663 664 624
624 664 665 625
625 665 666 626
626 666 667 627
627 667 668 628
628 668 669 629
629 669 670 630
630 670 671 631
631 671 672 632
632 672 673 633
633 673 674 634
634 674 675 635
635 675 676 636
636 676 677 637
637 677 94 93
16 17 678 638
638 678 679 639
639 679 680 640
640 680 681 641
641 681 682 642
642 682 683 643
643 683 684 644
644 684 685 645
645 685 686 646
646 686 687 647
647 687 688 648
648 688 689 649
649 689 690 650
650 690 691 651
651 691 692 652
652 692 693 653
653 693 694 654
654 694 695 655
655 695 696 656
656 696 697 657
657 697 698 658
658 698 699 659
659 699 700 660
660 700 701 661
661 701 702 662
662 702 703 663
663 703 704 664
664 704 705 665
665 705 706 666
666 706 707 667
667 707 708 668
668 708 709 669
669 709 710 670
670 710 711 671
671 711 712 672
672 712 713 673
673 713 714 674
674 714 715 675
675 715 716 676
676 716 717 677
677 717 95 94
17 18 718 678
678 718 719 679
679 719 720 680
680 720 721 681
681 721 722 682
682 722 723 683
683 723 724 684
684 724 725 685
685 725 726 686
686 726 727 687
687 727 728 688
688 728 729 689
689 729 730 690
690 730 731 691
691 731 732 692
692 732 733 693
693 733 734 694
694 734 735 695
695 735 736 696
696 736 737 697
697 737 738 698
698 738 739 699
699 739 740 700
700 740 741 701
701 741 742 702
702 742 743 703
703 743 744 704
704 744 745 705
705 745 746 706
706 746 747 707
707 747 748 708
708 748 749 709
709 749 750 710
710 750 751 711
711 751 752 712
712 752 753 713
713 753 754 714
714 754 755 715
715 755 756 716
716 756 757 717
717 757 96 95
18 19 758 718
718 758 759 719
719 759 760 720
720 760 761 721
721 761 762 722
722 762 763 723
723 763 764 724
724 764 765 725
725 765 766 726
726 766 767 727
727 767 768 728
728 768 769 729
729 769 770 730
730 770 771 731
731 771 772 732
732 772 773 733
733 773 774 734
734 774 775 735
735 775 776 736
736 776 777 737
737 777 778 738
738 778 779 739
739 779 780 740
740 780 781 741
741 781 782 742
742 782 783 743
743 783 784 744
744 784 785 745
745 785 786 746
746 786 787 747
747 787 788 748
748 788 789 749
749 789 790 750
750 790 791 751
751 791 792 752
752 792 793 753
753 793 794 754
754 794 795 755
755 795 796 756
756 796 797 757
757 797 97 96
19 20 798 758
758 798 799 759
759 799 800 760
760 800 801 761
761 801 802 762
762 802 803 763
763 803 804 764
764 804 805 765
765 805 806 766
766 806 807 767
767 807 808 768
768 808 809 769
769 809 810 770
770 810 811 771
771 811 812 772
772 812 813 773
773 813 814 774
774 814 815 775
775 815 816 776
776 816 817 777
777 817 818 778
778 818 819 779
779 819 820 780
780 820 821 781
781 821 822 782
782 822 823 783
783 823 824 784
784 824 825 785
785 825 826 786
786 826 827 787
787 827 828 788
788 828 829 789
789 829 830 790
790 830 831 791
791 831 832 792
792 832 833 793
793 833 834 794
794 834 835 795
795 835 836 796
796 836 837 797
797 837 98 97
20 21 838 798
798 838 839 799
799 839 840 800
800 840 841 801
801 841 842 802
802 842 843 803
803 843 844 804
804 844 845 805
805 845 846 806
806 846 847 807
807 847 848 808
808 848 849 809
809 849 850 810
810 850 851 811
811 851 852 812
812 852 853 813
813 853 854 814
814 854 855 815
815 855 856 816
816 856 857 817
817 857 858 818
818 858 859 819
819 859 860 820
820 860 861 821
821 861 862 822
822 862 863 823
823 863 864 824
824 864 865 825
825 865 866 826
826 866 867 827
827 867 868 828
828 868 869 829
829 869 870 830
830 870 871 831
831 871 872 832
832 872 873 833
833 873 874 834
834 874 875 835
835 875 876 836
836 876 877 837
837 877 99 98
21 22 878 838
838 878 879 839
839 879 880 840
840 880 881 841
841 881 882 842
842 882 883 843
843 883 884 844
844 884 885 845
845 885 886 846
846 886 887 847
847 887 888 848
848 888 889 849
849 889 890 850
850 890 891 851
851 891 892 852
852 892 893 853
853 893 894 854
854 894 895 855
855 895 896 856
856 896 897 857
857 897 898 858
858 898 899 859
859 899 900 860
860 900 901 861
861 901 902 862
862 902 903 863
863 903 904 864
864 904 905 865
865 905 906 866
866 906 907 867
867 907 908 868
868 908 909 869
869 909 910 870
870 910 911 871
871 911 912 872
872 912 913 873
873 913 914 874
874 914 915 875
875 915 916 876
876 916 917 877
877 917 100 99
22 23 918 878
878 918 919 879
879 919 920 880
880 920 921 881
881 921 922 882
882 922 923 883
883 923 924 884
884 924 925 885
885 925 926 886
886 926 927 887
887 927 928 888
888 928 929 889
889 929 930 890
890 930 931 891
891 931 932 892
892 932 933 893
893 933 934 894
894 934 935 895
895 935 936 896
896 936 937 897
897 937 938 898
898 938 939 899
899 939 940 900
900 940 941 901
901 941 942 902
902 942 943 903
903 943 944 904
904 944 945 905
905 945 946 906
906 946 947 907
907 947 948 908
908 948 949 909
909 949 950 910
910 950 951 911
911 951 952 912
912 952 953 913
913 953 954 914
914 954 955 915
915 955 956 916
916 956 957 917
917 957 101 100
23 24 958 918
918 958 959 919
919 959 960 920
920 960 961 921
921 961 962 922
922 962 963 923
923 963 964 924
924 964 965 925
925 965 966 926
926 966 967 927
927 967 968 928
928 968 969 929
929 969 970 930
930 970 971 931
931 971 972 932
932 972 973 933
933 973 974 934
934 974 975 935
935 975 976 936
936 976 977 937
937 977 978 938
938 978 979 939
939 979 980 940
940 980 981 941
941 981 982 942
942 982 983 943
943 983 984 944
944 984 985 945
945 985 986 946
946 986 987 947
947 987 988 948
948 988 989 949
949 989 990 950
950 990 991 951
951 991 992 952
952 992 993 953
953 993 994 954
954 994 995 955
955 995 996 956
956 996 997 957
957 997 102 101
24 25 998 958
958 998 999 959
959 999 1000 960
960 1000 1001 961
961 1001 1002 962
962 1002 1003 963
963 1003 1004 964
964 1004 1005 965
965 1005 1006 966
966 1006 1007 967
967 1007 1008 968
968 1008 1009 969
969 1009 1010 970
970 1010 1011 971
971 1011 1012 972
972 1012 1013 973
973 1013 1014 974
974 1014 1015 975
975 1015 1016 976
976 1016 1017 977
977 1017 1018 978
978 1018 1019 979
979 1019 1020 980
980 1020 1021 981
981 1021 1022 982
982 1022 1023 983
983 1023 1024 984
984 1024 1025 985
985 1025 1026 986
986 1026 1027 987
987 1027 1028 988
988 1028 1029 989
989 1029 1030 990
990 1030 1031 991
991 1031 1032 992
992 1032 1033 993
993 1033 1034 994
994 1034 1035 995
995 1035 1036 996
996 1036 1037 997
997 1037 103 102
25 26 1038 998
998 1038 1039 999
999 1039 1040 1000
1000 1040 1041 1001
1001 1041 1042 1002
1002 1042 1043 1003
1003 1043 1044 1004
1004 1044 1045 1005
1005 1045 1046 1006
1006 1046 1047 1007
1007 1047 1048 1008
1008 1048 1049 1009
1009 1049 1050 1010
1010 1050 1051 1011
1011 1051 1052 1012
1012 1052 1053 1013
1013 1053 1054 1014
1014 1054 1055 1015
1015 1055 1056 1016
1016 1056 1057 1017
1017 1057 1058 1018
1018 1058 1059 1019
1019 1059 1060 1020
1020 1060 1061 1021
1021 1061 1062 1022
1022 1062 1063 1023
1023 1063 1064 1024
1024 1064 1065 1025
1025 1065 1066 1026
1026 1066 1067 1027
1027 1067 1068 1028
1028 1068 1069 1029
1029 1069 1070 1030
1030 1070 1071 1031
1031 1071 1072 1032
1032 1072 1073 1033
1033 1073 1074 1034
1034 1074 1075 1035
1035 1075 1076 1036
1036 1076 1077 1037
1037 1077 104 103
26 27 1078 1038
1038 1078 1079 1039
1039 1079 1080 1040
1040 1080 1081 1041
1041 1081 1082 1042
1042 1082 1083 1043
1043 1083 1084 1044
1044 1084 1085 1045
1045 1085 1086 1046
1046 1086 1087 1047
1047 1087 1088 1048
1048 1088 1089 1049
1049 1089 1090 1050
1050 1090 1091 1051
1051 1091 1092 1052
1052 1092 1093 1053
1053 1093 1094 1054
1054 1094 1095 1055
1055 1095 1096 1056
1056 1096 1097 1057
1057 1097 1098 1058
1058 1098 1099 1059
1059 1099 1100 1060
1060 1100 1101 1061
1061 1101 1102 1062
1062 1102 1103 1063
1063 1103 1104 1064
1064 1104 1105 1065
1065 1105 1106 1066
1066 1106 1107 1067
1067 1107 1108 1068
1068 1108 1109 1069
1069 1109 1110 1070
1070 1110 1111 1071
1071 1111 1112 1072
1072 1112 1113 1073
1073 1113 1114 1074
1074 1114 1115 1075
1075 1115 1116 1076
1076 1116 1117 1077
1077 1117 105 104
27 28 1118 1078
1078 1118 1119 1079
1079 1119 1120 1080
1080 1120 1121 1081
1081 1121 1122 1082
1082 1122 1123 1083
1083 1123 1124 1084
1084 1124 1125 1085
1085 1125 1126 1086
1086 1126 1127 1087
1087 1127 1128 1088
1088 1128 1129 1089
1089 1129 1130 1090
1090 1130 1131 1091
1091 1131 1132 1092
1092 1132 1133 1093
1093 1133 1134 1094
1094 1134 1135 1095
1095 1135 1136 1096
1096 1136 1137 1097
1097 1137 1138 1098
1098 1138 1139 1099
1099 1139 1140 1100
1100 1140 1141 1101
1101 1141 1142 1102
1102 1142 1143 1103
1103 1143 1144 1104
1104 1144 1145 1105
1105 1145 1146 1106
1106 1146 1147 1107
1107 1147 1148 1108
1108 1148 1149 1109
1109 1149 1150 1110
1110 1150 1151 1111
1111 1151 1152 1112
1112 1152 1153 1113
1113 1153 1154 1114
1114 1154 1155 1115
1115 1155 1156 1116
1116 1156 1157 1117
1117 1157 106 105
28 29 1158 1118
1118 1158 1159 1119
1119 1159 1160 1120
1120 1160 1161 1121
1121 1161 1162 1122
1122 1162 1163 1123
1123 1163 1164 1124
1124 1164 1165 1125
1125 1165 1166 1126
1126 1166 1167 1127
1127 1167 1168 1128
1128 1168 1169 1129
1129 1169 1170 1130
1130 1170 1171 1131
1131 1171 1172 1132
1132 1172 1173 1133
1133 1173 1174 1134
1134 1174 1175 1135
1135 1175 1176 1136
1136 1176 1177 1137
1137 1177 1178 1138
1138 1178 1179 1139
1139 1179 1180 1140
1140 1180 1181 1141
1141 1181 1182 1142
1142 1182 1183 1143
1143 1183 1184 1144
1144 1184 1185 1145
1145 1185 1186 1146
1146 1186 1187 1147
1147 1187 1188 1148
1148 1188 1189 1149
1149 1189 1190 1150
1150 1190 1191 1151
1151 1191 1192 1152
1152 1192 1193 1153
1153 1193 1194 1154
1154 1194 1195 1155
1155 1195 1196 1156
1156 1196 1197 1157
1157 1197 107 106
29 30 1198 1158
1158 1198 1199 1159
1159 1199 1200 1160
1160 1200 1201 1161
1161 1201 1202 1162
1162 1202 1203 1163
1163 1203 1204 1164
1164 1204 1205 1165
1165 1205 1206 1166
1166 1206 1207 1167
1167 1207 1208 1168
1168 1208 1209 1169
1169 1209 1210 1170
1170 1210 1211 1171
1171 1211 1212 1172
1172 1212 1213 1173
1173 1213 1214 1174
1174 1214 1215 1175
1175 1215 1216 1176
1176 1216 1217 1177
1177 1217 1218 1178
1178 1218 1219 1179
1179 1219 1220 1180
1180 1220 1221 1181
1181 1221 1222 1182
1182 1222 1223 1183
1183 1223 1224 1184
1184 1224 1225 1185
1185 1225 1226 1186
1186 1226 1227 1187
1187 1227 1228 1188
1188 1228 1229 1189
1189 1229 1230 1190
1190 1230 1231 1191
1191 1231 1232 1192
1192 1232 1233 1193
1193 1233 1234 1194
1194 1234 1235 1195
1195 1235 1236 1196
1196 1236 1237 1197
1197 1237 4 107
30 31 1238 1198
1198 1238 1239 1199
1199 1239 1240 1200
1200 1240 1241 1201
1201 1241 1242 1202
1202 1242 1243 1203
1203 1243 1244 1204
1204 1244 1245 1205
1205 1245 1246 1206
1206 1246 1247 1207
1207 1247 1248 1208
1208 1248 1249 1209
1209 1249 1250 1210
1210 1250 1251 1211
1211 1251 1252 1212
1212 1252 1253 1213
1213 1253 1254 1214
1214 1254 1255 1215
1215 1255 1256 1216
1216 1256 1257 1217
1217 1257 1258 1218
1218 1258 1259 1219
1219 1259 1260 1220
1220 1260 1261 1221
1221 1261 1262 1222
1222 1262 1263 1223
1223 1263 1264 1224
1224 1264 1265 1225
1225 1265 1266 1226
1226 1266 1267 1227
1227 1267 1268 1228
1228 1268 1269 1229
1229 1269 1270 1230
1230 1270 1271 1231
1231 1271 1272 1232
1232 1272 1273 1233
1233 1273 1274 1234
1234 1274 1275 1235
1235 1275 1276 1236
1236 1276 1277 1237
1237 1277 108 4
31 32 1278 1238
1238 1278 1279 1239
1239 1279 1280 1240
1240 1280 1281 1241
1241 1281 1282 1242
1242 1282 1283 1243
1243 1283 1284 1244
1244 1284 1285 1245
1245 1285 1286 1246
1246 1286 1287 1247
1247 1287 1288 1248
1248 1288 1289 1249
1249 1289 1290 1250
1250 1290 1291 1251
1251 1291 1292 1252
1252 1292 1293 1253
1253 1293 1294 1254
1254 1294 1295 1255
1255 1295 1296 1256
1256 1296 1297 1257
1257 1297 1298 1258
1258 1298 1299 1259
1259 1299 1300 1260
1260 1300 1301 1261
1261 1301 1302 1262
1262 1302 1303 1263
1263 1303 1304 1264
1264 1304 1305 1265
1265 1305 1306 1266
1266 1306 1307 1267
1267 1307 1308 1268
1268 1308 1309 1269
1269 1309 1310 1270
1270 1310 1311 1271
1271 1311 1312 1272
1272 1312 1313 1273
1273 1313 1314 1274
1274 1314 1315 1275
1275 1315 1316 1276
1276 1316 1317 1277
1277 1317 109 108
32 33 1318 1278
1278 1318 1319 1279
1279 1319 1320 1280
1280 1320 1321 1281
1281 1321 1322 1282
1282 1322 1323 1283
1283 1323 1324 1284
1284 1324 1325 1285
1285 1325 1326 1286
1286 1326 1327 1287
1287 1327 1328 1288
1288 1328 1329 1289
1289 1329 1330 1290
1290 1330 1331 1291
1291 1331 1332 1292
1292 1332 1333 1293
1293 1333 1334 1294
1294 1334 1335 1295
1295 1335 1336 1296
1296 1336 1337 1297
1297 1337 1338 1298
1298 1338 1339 1299
1299 1339 1340 1300
1300 1340 1341 1301
1301 1341 1342 1302
1302 1342 1343 1303
1303 1343 1344 1304
1304 1344 1345 1305
1305 1345 1346 1306
1306 1346 1347 1307
1307 1347 1348 1308
1308 1348 1349 1309
1309 1349 1350 1310
1310 1350 1351 1311
1311 1351 1352 1312
1312 1352 1353 1313
1313 1353 1354 1314
1314 1354 1355 1315
1315 1355 1356 1316
1316 1356 1357 1317
1317 1357 110 109
33 34 1358 1318
1318 1358 1359 1319
1319 1359 1360 1320
1320 1360 1361 1321
1321 1361 1362 1322
1322 1362 1363 1323
1323 1363 1364 1324
1324 1364 1365 1325
1325 1365 1366 1326
1326 1366 1367 1327
1327 1367 1368 1328
1328 1368 1369 1329
1329 1369 1370 1330
1330 1370 1371 1331
1331 1371 1372 1332
1332 1372 1373 1333
1333 1373 1374 1334
1334 1374 1375 1335
1335 1375 1376 1336
1336 1376 1377 1337
1337 1377 1378 1338
1338 1378 1379 1339
1339 1379 1380 1340
1340 1380 1381 1341
1341 1381 1382 1342
1342 1382 1383 1343
1343 1383 1384 1344
1344 1384 1385 1345
1345 1385 1386 1346
1346 1386 1387 1347
1347 1387 1388 1348
1348 1388 1389 1349
1349 1389 1390 1350
1350 1390 1391 1351
1351 1391 1392 1352
1352 1392 1393 1353
1353 1393 1394 1354
1354 1394 1395 1355
1355 1395 1396 1356
1356 1396 1397 1357
1357 1397 111 110
34 35 1398 1358
1358 1398 1399 1359
1359 1399 1400 1360
1360 1400 1401 1361
1361 1401 1402 1362
1362 1402 1403 1363
1363 1403 1404 1364
1364 1404 1405 1365
1365 1405 1406 1366
1366 1406 1407 1367
1367 1407 1408 1368
1368 1408 1409 1369
1369 1409 1410 1370
1370 1410 1411 1371
1371 1411 1412 1372
1372 1412 1413 1373
1373 1413 1414 1374
1374 1414 1415 1375
1375 1415 1416 1376
1376 1416 1417 1377
1377 1417 1418 1378
1378 1418 1419 1379
1379 1419 1420 1380
1380 1420 1421 1381
1381 1421 1422 1382
1382 1422 1423 1383
1383 1423 1424 1384
1384 1424 1425 1385
1385 1425 1426 1386
1386 1426 1427 1387
1387 1427 1428 1388
1388 1428 1429 1389
1389 1429 1430 1390
1390 1430 1431 1391
1391 1431 1432 1392
1392 1432 1433 1393
1393 1433 1434 1394
1394 1434 1435 1395
1395 1435 1436 1396
1396 1436 1437 1397
1397 1437 112 111
35 36 1438 1398
1398 1438 1439 1399
1399 1439 1440 1400
1400 1440 1441 1401
1401 1441 1442 1402
1402 1442 1443 1403
1403 1443 1444 1404
1404 1444 1445 1405
1405 1445 1446 1406
1406 1446 1447 1407
1407 1447 1448 1408
1408 1448 1449 1409
1409 1449 1450 1410
1410 1450 1451 1411
1411 1451 1452 1412
1412 1452 1453 1413
1413 1453 1454 1414
1414 1454 1455 1415
1415 1455 1456 1416
1416 1456 1457 1417
1417 1457 1458 1418
1418 1458 1459 1419
1419 1459 1460 1420
1420 1460 1461 1421
1421 1461 1462 1422
1422 1462 1463 1423
1423 1463 1464 1424
1424 1464 1465 1425
1425 1465 1466 1426
1426 1466 1467 1427
1427 1467 1468 1428
1428 1468 1469 1429
1429 1469 1470 1430
1430 1470 1471 1431
1431 1471 1472 1432
1432 1472 1473 1433
1433 1473 1474 1434
1434 1474 1475 1435
1435 1475 1476 1436
1436 1476 1477 1437
1437 1477 113 112
36 37 1478 1438
1438 1478 1479 1439
1439 1479 1480 1440
1440 1480 1481 1441
1441 1481 1482 1442
1442 1482 1483 1443
1443 1483 1484 1444
1444 1484 1485 1445
1445 1485 1486 1446
1446 1486 1487 1447
1447 1487 1488 1448
1448 1488 1489 1449
1449 1489 1490 1450
1450 1490 1491 1451
1451 1491 1492 1452
1452 1492 1493 1453
1453 1493 1494 1454
1454 1494 1495 1455
1455 1495 1496 1456
1456 1496 1497 1457
1457 1497 1498 1458
1458 1498 1499 1459
1459 1499 1500 1460
1460 1500 1501 1461
1461 1501 1502 1462
1462 1502 1503 1463
1463 1503 1504 1464
1464 1504 1505 1465
1465 1505 1506 1466
1466 1506 1507 1467
1467 1507 1508 1468
1468 1508 1509 1469
1469 1509 1510 1470
1470 1510 1511 1471
1471 1511 1512 1472
1472 1512 1513 1473
1473 1513 1514 1474
1474 1514 1515 1475
1475 1515 1516 1476
1476 1516 1517 1477
1477 1517 114 113
37 38 1518 1478
1478 1518 1519 1479
1479 1519 1520 1480
1480 1520 1521 1481
1481 1521 1522 1482
1482 1522 1523 1483
1483 1523 1524 1484
1484 1524 1525 1485
1485 1525 1526 1486
1486 1526 1527 1487
1487 1527 1528 1488
1488 1528 1529 1489
1489 1529 1530 1490
1490 1530 1531 1491
1491 1531 1532 1492
1492 1532 1533 1493
1493 1533 1534 1494
1494 1534 1535 1495
1495 1535 1536 1496
1496 1536 1537 1497
1497 1537 1538 1498
1498 1538 1539 1499
1499 1539 1540 1500
1500 1540 1541 1501
1501 1541 1542 1502
1502 1542 1543 1503
1503 1543 1544 1504
1504 1544 1545 1505
1505 1545 1546 1506
1506 1546 1547 1507
1507 1547 1548 1508
1508 1548 1549 1509
1509 1549 1550 1510
1510 1550 1551 1511
1511 1551 1552 1512
1512 1552 1553 1513
1513 1553 1554 1514
1514 1554 1555 1515
1515 1555 1556 1516
1516 1556 1557 1517
1517 1557 115 114
38 39 1558 1518
1518 1558 1559 1519
1519 1559 1560 1520
1520 1560 1561 1521
1521 1561 1562 1522
1522 1562 1563 1523
1523 1563 1564 1524
1524 1564 1565 1525
1525 1565 1566 1526
1526 1566 1567 1527
1527 1567 1568 1528
1528 1568 1569 1529
1529 1569 1570 1530
1530 1570 1571 1531
1531 1571 1572 1532
1532 1572 1573 1533
1533 1573 1574 1534
1534 1574 1575 1535
1535 1575 1576 1536
1536 1576 1577 1537
1537 1577 1578 1538
1538 1578 1579 1539
1539 1579 1580 1540
1540 1580 1581 1541
1541 1581 1582 1542
1542 1582 1583 1543
1543 1583 1584 1544
1544 1584 1585 1545
1545 1585 1586 1546
1546 1586 1587 1547
1547 1587 1588 1548
1548 1588 1589 1549
1549 1589 1590 1550
1550 1590 1591 1551
1551 1591 1592 1552
1552 1592 1593 1553
1553 1593 1594 1554
1554 1594 1595 1555
1555 1595 1596 1556
1556 1596 1597 1557
1557 1597 116 115
39 40 1598 1558
1558 1598 1599 1559
1559 1599 1600 1560
1560 1600 1601 1561
1561 1601 1602 1562
1562 1602 1603 1563
1563 1603 1604 1564
1564 1604 1605 1565
1565 1605 1606 1566
1566 1606 1607 1567
1567 1607 1608 1568
1568 1608 1609 1569
1569 1609 1610 1570
1570 1610 1611 1571
1571 1611 1612 1572
1572 1612 1613 1573
1573 1613 1614 1574
1574 1614 1615 1575
1575 1615 1616 1576
1576 1616 1617 1577
1577 1617 1618 1578
1578 1618 1619 1579
1579 1619 1620 1580
1580 1620 1621 1581
1581 1621 1622 1582
1582 1622 1623 1583
1583 1623 1624 1584
1584 1624 1625 1585
1585 1625 1626 1586
1586 1626 1627 1587
1587 1627 1628 1588
1588 1628 1629 1589
1589 1629 1630 1590
1590 1630 1631 1591
1591 1631 1632 1592
1592 1632 1633 1593
1593 1633 1634 1594
1594 1634 1635 1595
1595 1635 1636 1596
1596 1636 1637 1597
1597 1637 117 116
40 41 1638 1598
1598 1638 1639 1599
1599 1639 1640 1600
1600 1640 1641 1601
1601 1641 1642 1602
1602 1642 1643 1603
1603 1643 1644 1604
1604 1644 1645 1605
1605 1645 1646 1606
1606 1646 1647 1607
1607 1647 1648 1608
1608 1648 1649 1609
1609 1649 1650 1610
1610 1650 1651 1611
1611 1651 1652 1612
1612 1652 1653 1613
1613 1653 1654 1614
1614 1654 1655 1615
1615 1655 1656 1616
1616 1656 1657 1617
1617 1657 1658 1618
1618 1658 1659 1619
1619 1659 1660 1620
1620 1660 1661 1621
1621 1661 1662 1622
1622 1662 1663 1623
1623 1663 1664 1624
1624 1664 1665 1625
1625 1665 1666 1626
1626 1666 1667 1627
1627 1667 1668 1628
1628 1668 1669 1629
1629 1669 1670 1630
1630 1670 1671 1631
1631 1671 1672 1632
1632 1672 1673 1633
1633 1673 1674 1634
1634 1674 1675 1635
1635 1675 1676 1636
1636 1676 1677 1637
1637 1677 118 117
41 42 1678 1638
1638 1678 1679 1639
1639 1679 1680 1640
1640 1680 1681 1641
1641 1681 1682 1642
1642 1682 1683 1643
1643 1683 1684 1644
1644 1684 1685 1645
1645 1685 1686 1646
1646 1686 1687 1647
1647 1687 1688 1648
1648 1688 1689 1649
1649 1689 1690 1650
1650 1690 1691 1651
1651 1691 1692 1652
1652 1692 1693 1653
1653 1693 1694 1654
1654 1694 1695 1655
1655 1695 1696 1656
1656 1696 1697 1657
1657 1697 1698 1658
1658 1698 1699 1659
1659 1699 1700 1660
1660 1700 1701 1661
1661 1701 1702 1662
1662 1702 1703 1663
1663 1703 1704 1664
1664 1704 1705 1665
1665 1705 1706 1666
1666 1706 1707 1667
1667 1707 1708 1668
1668 1708 1709 1669
1669 1709 1710 1670
1670 1710 1711 1671
1671 1711 1712 1672
1672 1712 1713 1673
1673 1713 1714 1674
1674 1714 1715 1675
1675 1715 1716 1676
1676 1716 1717 1677
1677 1717 119 118
42 43 1718 1678
1678 1718 1719 1679
1679 1719 1720 1680
1680 1720 1721 1681
1681 1721 1722 1682
1682 1722 1723 1683
1683 1723 1724 1684
1684 1724 1725 1685
1685 1725 1726 1686
1686 1726 1727 1687
1687 1727 1728 1688
1688 1728 1729 1689
1689 1729 1730 1690
1690 1730 1731 1691
1691 1731 1732 1692
1692 1732 1733 1693
1693 1733 1734 1694
1694 1734 1735 1695
1695 1735 1736 1696
1696 1736 1737 1697
1697 1737 1738 1698
1698 1738 1739 1699
1699 1739 1740 1700
1700 1740 1741 1701
1701 1741 1742 1702
1702 1742 1743 1703
1703 1743 1744 1704
1704 1744 1745 1705
1705 1745 1746 1706
1706 1746 1747 1707
1707 1747 1748 1708
1708 1748 1749 1709
1709 1749 1750 1710
1710 1750 1751 1711
1711 1751 1752 1712
1712 1752 1753 1713
1713 1753 1754 1714
1714 1754 1755 1715
1715 1755 1756 1716
1716 1756 1757 1717
1717 1757 120 119
43 44 1758 1718
1718 1758 1759 1719
1719 1759 1760 1720
1720 1760 1761 1721
1721 1761 1762 1722
1722 1762 1763 1723
1723 1763 1764 1724
1724 1764 1765 1725
1725 1765 1766 1726
1726 1766 1767 1727
1727 1767 1768 1728
1728 1768 1769 1729
1729 1769 1770 1730
1730 1770 1771 1731
1731 1771 1772 1732
1732 1772 1773 1733
1733 1773 1774 1734
1734 1774 1775 1735
1735 1775 1776 1736
1736 1776 1777 1737
1737 1777 1778 1738
1738 1778 1779 1739
1739 1779 1780 1740
1740 1780 1781 1741
1741 1781 1782 1742
1742 1782 1783 1743
1743 1783 1784 1744
1744 1784 1785 1745
1745 1785 1786 1746
1746 1786 1787 1747
1747 1787 1788 1748
1748 1788 1789 1749
1749 1789 1790 1750
1750 1790 1791 1751
1751 1791 1792 1752
1752 1792 1793 1753
1753 1793 1794 1754
1754 1794 1795 1755
1755 1795 1796 1756
1756 1796 1797 1757
1757 1797 121 120
44 45 1798 1758
1758 1798 1799 1759
1759 1799 1800 1760
1760 1800 1801 1761
1761 1801 1802 1762
1762 1802 1803 1763
1763 1803 1804 1764
1764 1804 1805 1765
1765 1805 1806 1766
1766 1806 1807 1767
1767 1807 1808 1768
1768 1808 1809 1769
1769 1809 1810 1770
1770 1810 1811 1771
1771 1811 1812 1772
1772 1812 1813 1773
1773 1813 1814 1774
1774 1814 1815 1775
1775 1815 1816 1776
1776 1816 1817 1777
1777 1817 1818 1778
1778 1818 1819 1779
1779 1819 1820 1780
1780 1820 1821 1781
1781 1821 1822 1782
1782 1822 1823 1783
1783 1823 1824 1784
1784 1824 1825 1785
1785 1825 1826 1786
1786 1826 1827 1787
1787 1827 1828 1788
1788 1828 1829 1789
1789 1829 1830 1790
1790 1830 1831 1791
1791 1831 1832 1792
1792 1832 1833 1793
1793 1833 1834 1794
1794 1834 1835 1795
1795 1835 1836 1796
1796 1836 1837 1797
1797 1837 122 121
45 46 1838 1798
1798 1838 1839 1799
1799 1839 1840 1800
1800 1840 1841 1801
1801 1841 1842 1802
1802 1842 1843 1803
1803 1843 1844 1804
1804 1844 1845 1805
1805 1845 1846 1806
1806 1846 1847 1807
1807 1847 1848 1808
1808 1848 1849 1809
1809 1849 1850 1810
1810 1850 1851 1811
1811 1851 1852 1812
1812 1852 1853 1813
1813 1853 1854 1814
1814 1854 1855 1815
1815 1855 1856 1816
1816 1856 1857 1817
1817 1857 1858 1818
1818 1858 1859 1819
1819 1859 1860 1820
1820 1860 1861 1821
1821 1861 1862 1822
1822 1862 1863 1823
1823 1863 1864 1824
1824 1864 1865 1825
1825 1865 1866 1826
1826 1866 1867 1827
1827 1867 1868 1828
1828 1868 1869 1829
1829 1869 1870 1830
1830 1870 1871 1831
1831 1871 1872 1832
1832 1872 1873 1833
1833 1873 1874 1834
1834 1874 1875 1835
1835 1875 1876 1836
1836 1876 1877 1837
1837 1877 123 122
46 47 1878 1838
1838 1878 1879 1839
1839 1879 1880 1840
1840 1880 1881 1841
1841 1881 1882 1842
1842 1882 1883 1843
1843 1883 1884 1844
1844 1884 1885 1845
1845 1885 1886 1846
1846 1886 1887 1847
1847 1887 1888 1848
1848 1888 1889 1849
1849 1889 1890 1850
1850 1890 1891 1851
1851 1891 1892 1852
1852 1892 1893 1853
1853 1893 1894 1854
1854 1894 1895 1855
1855 1895 1896 1856
1856 1896 1897 1857
1857 1897 1898 1858
1858 1898 1899 1859
1859 1899 1900 1860
1860 1900 1901 1861
1861 1901 1902 1862
1862 1902 1903 1863
1863 1903 1904 1864
1864 1904 1905 1865
1865 1905 1906 1866
1866 1906 1907 1867
1867 1907 1908 1868
1868 1908 1909 1869
1869 1909 1910 1870
1870 1910 1911 1871
1871 1911 1912 1872
1872 1912 1913 1873
1873 1913 1914 1874
1874 1914 1915 1875
1875 1915 1916 1876
1876 1916 1917 1877
1877 1917 124 123
47 48 1918 1878
1878 1918 1919 1879
1879 1919 1920 1880
1880 1920 1921 1881
1881 1921 1922 1882
1882 1922 1923 1883
1883 1923 1924 1884
1884 1924 1925 1885
1885 1925 1926 1886
1886 1926 1927 1887
1887 1927 1928 1888
1888 1928 1929 1889
1889 1929 1930 1890
1890 1930 1931 1891
1891 1931 1932 1892
1892 1932 1933 1893
1893 1933 1934 1894
1894 1934 1935 1895
1895 1935 1936 1896
1896 1936 1937 1897
1897 1937 1938 1898
1898 1938 1939 1899
1899 1939 1940 1900
1900 1940 1941 1901
1901 1941 1942 1902
1902 1942 1943 1903
1903 1943 1944 1904
1904 1944 1945 1905
1905 1945 1946 1906
1906 1946 1947 1907
1907 1947 1948 1908
1908 1948 1949 1909
1909 1949 1950 1910
1910 1950 1951 1911
1911 1951 1952 1912
1912 1952 1953 1913
1913 1953 1954 1914
1914 1954 1955 1915
1915 1955 1956 1916
1916 1956 1957 1917
1917 1957 125 124
48 49 1958 1918
1918 1958 1959 1919
1919 1959 1960 1920
1920 1960 1961 1921
1921 1961 1962 1922
1922 1962 1963 1923
1923 1963 1964 1924
1924 1964 1965 1925
1925 1965 1966 1926
1926 1966 1967 1927
1927 1967 1968 1928
1928 1968 1969 1929
1929 1969 1970 1930
1930 1970 1971 1931
1931 1971 1972 1932
1932 1972 1973 1933
1933 1973 1974 1934
1934 1974 1975 1935
1935 1975 1976 1936
1936 1976 1977 1937
1937 1977 1978 1938
1938 1978 1979 1939
1939 1979 1980 1940
1940 1980 1981 1941
1941 1981 1982 1942
1942 1982 1983 1943
1943 1983 1984 1944
1944 1984 1985 1945
1945 1985 1986 1946
1946 1986 1987 1947
1947 1987 1988 1948
1948 1988 1989 1949
1949 1989 1990 1950
1950 1990 1991 1951
1951 1991 1992 1952
1952 1992 1993 1953
1953 1993 1994 1954
1954 1994 1995 1955
1955 1995 1996 1956
1956 1996 1997 1957
1957 1997 126 125
49 1 1998 1958
1958 1998 1999 1959
1959 1999 2000 1960
1960 2000 2001 1961
1961 2001 2002 1962
1962 2002 2003 1963
1963 2003 2004 1964
1964 2004 2005 1965
1965 2005 2006 1966
1966 2006 2007 1967
1967 2007 2008 1968
1968 2008 2009 1969
1969 2009 2010 1970
1970 2010 2011 1971
1971 2011 2012 1972
1972 2012 2013 1973
1973 2013 2014 1974
1974 2014 2015 1975
1975 2015 2016 1976
1976 2016 2017 1977
1977 2017 2018 1978
1978 2018 2019 1979
1979 2019 2020 1980
1980 2020 2021 1981
1981 2021 2022 1982
1982 2022 2023 1983
1983 2023 2024 1984
1984 2024 2025 1985
1985 2025 2026 1986
1986 2026 2027 1987
1987 2027 2028 1988
1988 2028 2029 1989
1989 2029 2030 1990
1990 2030 2031 1991
1991 2031 2032 1992
1992 2032 2033 1993
1993 2033 2034 1994
1994 2034 2035 1995
1995 2035 2036 1996
1996 2036 2037 1997
1997 2037 127 126
1 50 2038 1998
1998 2038 2039 1999
1999 2039 2040 2000
2000 2040 2041 2001
2001 2041 2042 2002
2002 2042 2043 2003
2003 2043 2044 2004
2004 2044 2045 2005
2005 2045 2046 2006
2006 2046 2047 2007
2007 2047 2048 2008
2008 2048 2049 2009
2009 2049 2050 2010
2010 2050 2051 2011
2011 2051 2052 2012
2012 2052 2053 2013
2013 2053 2054 2014
2014 2054 2055 2015
2015 2055 2056 2016
2016 2056 2057 2017
2017 2057 2058 2018
2018 2058 2059 2019
2019 2059 2060 2020
2020 2060 2061 2021
2021 2061 2062 2022
2022 2062 2063 2023
2023 2063 2064 2024
2024 2064 2065 2025
2025 2065 2066 2026
2026 2066 2067 2027
2027 2067 2068 2028
2028 2068 2069 2029
2029 2069 2070 2030
2030 2070 2071 2031
2031 2071 2072 2032
2032 2072 2073 2033
2033 2073 2074 2034
2034 2074 2075 2035
2035 2075 2076 2036
2036 2076 2077 2037
2037 2077 128 127
50 51 2078 2038
2038 2078 2079 2039
2039 2079 2080 2040
2040 2080 2081 2041
2041 2081 2082 2042
2042 2082 2083 2043
2043 2083 2084 2044
2044 2084 2085 2045
2045 2085 2086 2046
2046 2086 2087 2047
2047 2087 2088 2048
2048 2088 2089 2049
2049 2089 2090 2050
2050 2090 2091 2051
2051 2091 2092 2052
2052 2092 2093 2053
2053 2093 2094 2054
2054 2094 2095 2055
2055 2095 2096 2056
2056 2096 2097 2057
2057 2097 2098 2058
2058 2098 2099 2059
2059 2099 2100 2060
2060 2100 2101 2061
2061 2101 2102 2062
2062 2102 2103 2063
2063 2103 2104 2064
2064 2104 2105 2065
2065 2105 2106 2066
2066 2106 2107 2067
2067 2107 2108 2068
2068 2108 2109 2069
2069 2109 2110 2070
2070 2110 2111 2071
2071 2111 2112 2072
2072 2112 2113 2073
2073 2113 2114 2074
2074 2114 2115 2075
2075 2115 2116 2076
2076 2116 2117 2077
2077 2117 129 128
51 52 2118 2078
2078 2118 2119 2079
2079 2119 2120 2080
2080 2120 2121 2081
2081 2121 2122 2082
2082 2122 2123 2083
2083 2123 2124 2084
2084 2124 2125 2085
2085 2125 2126 2086
2086 2126 2127 2087
2087 2127 2128 2088
2088 2128 2129 2089
2089 2129 2130 2090
2090 2130 2131 2091
2091 2131 2132 2092
2092 2132 2133 2093
2093 2133 2134 2094
2094 2134 2135 2095
2095 2135 2136 2096
2096 2136 2137 2097
2097 2137 2138 2098
2098 2138 2139 2099
2099 2139 2140 2100
2100 2140 2141 2101
2101 2141 2142 2102
2102 2142 2143 2103
2103 2143 2144 2104
2104 2144 2145 2105
2105 2145 2146 2106
2106 2146 2147 2107
2107 2147 2148 2108
2108 2148 2149 2109
2109 2149 2150 2110
2110 2150 2151 2111
2111 2151 2152 2112
2112 2152 2153 2113
2113 2153 2154 2114
2114 2154 2155 2115
2115 2155 2156 2116
2116 2156 2157 2117
2117 2157 130 129
52 53 2158 2118
2118 2158 2159 2119
2119 2159 2160 2120
2120 2160 2161 2121
2121 2161 2162 2122
2122 2162 2163 2123
2123 2163 2164 2124
2124 2164 2165 2125
2125 2165 2166 2126
2126 2166 2167 2127
2127 2167 2168 2128
2128 2168 2169 2129
2129 2169 2170 2130
2130 2170 2171 2131
2131 2171 2172 2132
2132 2172 2173 2133
2133 2173 2174 2134
2134 2174 2175 2135
2135 2175 2176 2136
2136 2176 2177 2137
2137 2177 2178 2138
2138 2178 2179 2139
2139 2179 2180 2140
2140 2180 2181 2141
2141 2181 2182 2142
2142 2182 2183 2143
2143 2183 2184 2144
2144 2184 2185 2145
2145 2185 2186 2146
2146 2186 2187 2147
2147 2187 2188 2148
2148 2188 2189 2149
2149 2189 2190 2150
2150 2190 2191 2151
2151 2191 2192 2152
2152 2192 2193 2153
2153 2193 2194 2154
2154 2194 2195 2155
2155 2195 2196 2156
2156 2196 2197 2157
2157 2197 131 130
53 54 2198 2158
2158 2198 2199 2159
2159 2199 2200 2160
2160 2200 2201 2161
2161 2201 2202 2162
2162 2202 2203 2163
2163 2203 2204 2164
2164 2204 2205 2165
2165 2205 2206 2166
2166 2206 2207 2167
2167 2207 2208 2168
2168 2208 2209 2169
2169 2209 2210 2170
2170 2210 2211 2171
2171 2211 2212 2172
2172 2212 2213 2173
2173 2213 2214 2174
2174 2214 2215 2175
2175 2215 2216 2176
2176 2216 2217 2177
2177 2217 2218 2178
2178 2218 2219 2179
2179 2219 2220 2180
2180 2220 2221 2181
2181 2221 2222 2182
2182 2222 2223 2183
2183 2223 2224 2184
2184 2224 2225 2185
2185 2225 2226 2186
2186 2226 2227 2187
2187 2227 2228 2188
2188 2228 2229 2189
2189 2229 2230 2190
2190 2230 2231 2191
2191 2231 2232 2192
2192 2232 2233 2193
2193 2233 2234 2194
2194 2234 2235 2195
2195 2235 2236 2196
2196 2236 2237 2197
2197 2237 132 131
54 55 2238 2198
2198 2238 2239 2199
2199 2239 2240 2200
2200 2240 2241 2201
2201 2241 2242 2202
2202 2242 2243 2203
2203 2243 2244 2204
2204 2244 2245 2205
2205 2245 2246 2206
2206 2246 2247 2207
2207 2247 2248 2208
2208 2248 2249 2209
2209 2249 2250 2210
2210 2250 2251 2211
2211 2251 2252 2212
2212 2252 2253 2213
2213 2253 2254 2214
2214 2254 2255 2215
2215 2255 2256 2216
2216 2256 2257 2217
2217 2257 2258 2218
2218 2258 2259 2219
2219 2259 2260 2220
2220 2260 2261 2221
2221 2261 2262 2222
2222 2262 2263 2223
2223 2263 2264 2224
2224 2264 2265 2225
2225 2265 2266 2226
2226 2266 2267 2227
2227 2267 2268 2228
2228 2268 2269 2229
2229 2269 2270 2230
2230 2270 2271 2231
2231 2271 2272 2232
2232 2272 2273 2233
2233 2273 2274 2234
2234 2274 2275 2235
2235 2275 2276 2236
2236 2276 2277 2237
2237 2277 133 132
55 56 2278 2238
2238 2278 2279 2239
2239 2279 2280 2240
2240 2280 2281 2241
2241 2281 2282 2242
2242 2282 2283 2243
2243 2283 2284 2244
2244 2284 2285 2245
2245 2285 2286 2246
2246 2286 2287 2247
2247 2287 2288 2248
2248 2288 2289 2249
2249 2289 2290 2250
2250 2290 2291 2251
2251 2291 2292 2252
2252 2292 2293 2253
2253 2293 2294 2254
2254 2294 2295 2255
2255 2295 2296 2256
2256 2296 2297 2257
2257 2297 2298 2258
2258 2298 2299 2259
2259 2299 2300 2260
2260 2300 2301 2261
2261 2301 2302 2262
2262 2302 2303 2263
2263 2303 2304 2264
2264 2304 2305 2265
2265 2305 2306 2266
2266 2306 2307 2267
2267 2307 2308 2268
2268 2308 2309 2269
2269 2309 2310 2270
2270 2310 2311 2271
2271 2311 2312 2272
2272 2312 2313 2273
2273 2313 2314 2274
2274 2314 2315 2275
2275 2315 2316 2276
2276 2316 2317 2277
2277 2317 134 133
56 57 2318 2278
2278 2318 2319 2279
2279 2319 2320 2280
2280 2320 2321 2281
2281 2321 2322 2282
2282 2322 2323 2283
2283 2323 2324 2284
2284 2324 2325 2285
2285 2325 2326 2286
2286 2326 2327 2287
2287 2327 2328 2288
2288 2328 2329 2289
2289 2329 2330 2290
2290 2330 2331 2291
2291 2331 2332 2292
2292 2332 2333 2293
2293 2333 2334 2294
2294 2334 2335 2295
2295 2335 2336 2296
2296 2336 2337 2297
2297 2337 2338 2298
2298 2338 2339 2299
2299 2339 2340 2300
2300 2340 2341 2301
2301 2341 2342 2302
2302 2342 2343 2303
2303 2343 2344 2304
2304 2344 2345 2305
2305 2345 2346 2306
2306 2346 2347 2307
2307 2347 2348 2308
2308 2348 2349 2309
2309 2349 2350 2310
2310 2350 2351 2311
2311 2351 2352 2312
2312 2352 2353 2313
2313 2353 2354 2314
2314 2354 2355 2315
2315 2355 2356 2316
2316 2356 2357 2317
2317 2357 135 134
57 58 2358 2318
2318 2358 2359 2319
2319 2359 2360 2320
2320 2360 2361 2321
2321 2361 2362 2322
2322 2362 2363 2323
2323 2363 2364 2324
2324 2364 2365 2325
2325 2365 2366 2326
2326 2366 2367 2327
2327 2367 2368 2328
2328 2368 2369 2329
2329 2369 2370 2330
2330 2370 2371 2331
2331 2371 2372 2332
2332 2372 2373 2333
2333 2373 2374 2334
2334 2374 2375 2335
2335 2375 2376 2336
2336 2376 2377 2337
2337 2377 2378 2338
2338 2378 2379 2339
2339 2379 2380 2340
2340 2380 2381 2341
2341 2381 2382 2342
2342 2382 2383 2343
2343 2383 2384 2344
2344 2384 2385 2345
2345 2385 2386 2346
2346 2386 2387 2347
2347 2387 2388 2348
2348 2388 2389 2349
2349 2389 2390 2350
2350 2390 2391 2351
2351 2391 2392 2352
2352 2392 2393 2353
2353 2393 2394 2354
2354 2394 2395 2355
2355 2395 2396 2356
2356 2396 2397 2357
2357 2397 136 135
58 59 2398 2358
2358 2398 2399 2359
2359 2399 2400 2360
2360 2400 2401 2361
2361 2401 2402 2362
2362 2402 2403 2363
2363 2403 2404 2364
2364 2404 2405 2365
2365 2405 2406 2366
2366 2406 2407 2367
2367 2407 2408 2368
2368 2408 2409 2369
2369 2409 2410 2370
2370 2410 2411 2371
2371 2411 2412 2372
2372 2412 2413 2373
2373 2413 2414 2374
2374 2414 2415 2375
2375 2415 2416 2376
2376 2416 2417 2377
2377 2417 2418 2378
2378 2418 2419 2379
2379 2419 2420 2380
2380 2420 2421 2381
2381 2421 2422 2382
2382 2422 2423 2383
2383 2423 2424 2384
2384 2424 2425 2385
2385 2425 2426 2386
2386 2426 2427 2387
2387 2427 2428 2388
2388 2428 2429 2389
2389 2429 2430 2390
2390 2430 2431 2391
2391 2431 2432 2392
2392 2432 2433 2393
2393 2433 2434 2394
2394 2434 2435 2395
2395 2435 2436 2396
2396 2436 2437 2397
2397 2437 137 136
59 60 2438 2398
2398 2438 2439 2399
2399 2439 2440 2400
2400 2440 2441 2401
2401 2441 2442 2402
2402 2442 2443 2403
2403 2443 2444 2404
2404 2444 2445 2405
2405 2445 2446 2406
2406 2446 2447 2407
2407 2447 2448 2408
2408 2448 2449 2409
2409 2449 2450 2410
2410 2450 2451 2411
2411 2451 2452 2412
2412 2452 2453 2413
2413 2453 2454 2414
2414 2454 2455 2415
2415 2455 2456 2416
2416 2456 2457 2417
2417 2457 2458 2418
2418 2458 2459 2419
2419 2459 2460 2420
2420 2460 2461 2421
2421 2461 2462 2422
2422 2462 2463 2423
2423 2463 2464 2424
2424 2464 2465 2425
2425 2465 2466 2426
2426 2466 2467 2427
2427 2467 2468 2428
2428 2468 2469 2429
2429 2469 2470 2430
2430 2470 2471 2431
2431 2471 2472 2432
2432 2472 2473 2433
2433 2473 2474 2434
2434 2474 2475 2435
2435 2475 2476 2436
2436 2476 2477 2437
2437 2477 138 137
60 61 2478 2438
2438 2478 2479 2439
2439 2479 2480 2440
2440 2480 2481 2441
2441 2481 2482 2442
2442 2482 2483 2443
2443 2483 2484 2444
2444 2484 2485 2445
2445 2485 2486 2446
2446 2486 2487 2447
2447 2487 2488 2448
2448 2488 2489 2449
2449 2489 2490 2450
2450 2490 2491 2451
2451 2491 2492 2452
2452 2492 2493 2453
2453 2493 2494 2454
2454 2494 2495 2455
2455 2495 2496 2456
2456 2496 2497 2457
2457 2497 2498 2458
2458 2498 2499 2459
2459 2499 2500 2460
2460 2500 2501 2461
2461 2501 2502 2462
2462 2502 2503 2463
2463 2503 2504 2464
2464 2504 2505 2465
2465 2505 2506 2466
2466 2506 2507 2467
2467 2507 2508 2468
2468 2508 2509 2469
2469 2509 2510 2470
2470 2510 2511 2471
2471 2511 2512 2472
2472 2512 2513 2473
2473 2513 2514 2474
2474 2514 2515 2475
2475 2515 2516 2476
2476 2516 2517 2477
2477 2517 139 138
61 62 2518 2478
2478 2518 2519 2479
2479 2519 2520 2480
2480 2520 2521 2481
2481 2521 2522 2482
2482 2522 2523 2483
2483 2523 2524 2484
2484 2524 2525 2485
2485 2525 2526 2486
2486 2526 2527 2487
2487 2527 2528 2488
2488 2528 2529 2489
2489 2529 2530 2490
2490 2530 2531 2491
2491 2531 2532 2492
2492 2532 2533 2493
2493 2533 2534 2494
2494 2534 2535 2495
2495 2535 2536 2496
2496 2536 2537 2497
2497 2537 2538 2498
2498 2538 2539 2499
2499 2539 2540 2500
2500 2540 2541 2501
2501 2541 2542 2502
2502 2542 2543 2503
2503 2543 2544 2504
2504 2544 2545 2505
2505 2545 2546 2506
2506 2546 2547 2507
2507 2547 2548 2508
2508 2548 2549 2509
2509 2549 2550 2510
2510 2550 2551 2511
2511 2551 2552 2512
2512 2552 2553 2513
2513 2553 2554 2514
2514 2554 2555 2515
2515 2555 2556 2516
2516 2556 2557 2517
2517 2557 140 139
62 63 2558 2518
2518 2558 2559 2519
2519 2559 2560 2520
2520 2560 2561 2521
2521 2561 2562 2522
2522 2562 2563 2523
2523 2563 2564 2524
2524 2564 2565 2525
2525 2565 2566 2526
2526 2566 2567 2527
2527 2567 2568 2528
2528 2568 2569 2529
2529 2569 2570 2530
2530 2570 2571 2531
2531 2571 2572 2532
2532 2572 2573 2533
2533 2573 2574 2534
2534 2574 2575 2535
2535 2575 2576 2536
2536 2576 2577 2537
2537 2577 2578 2538
2538 2578 2579 2539
2539 2579 2580 2540
2540 2580 2581 2541
2541 2581 2582 2542
2542 2582 2583 2543
2543 2583 2584 2544
2544 2584 2585 2545
2545 2585 2586 2546
2546 2586 2587 2547
2547 2587 2588 2548
2548 2588 2589 2549
2549 2589 2590 2550
2550 2590 2591 2551
2551 2591 2592 2552
2552 2592 2593 2553
2553 2593 2594 2554
2554 2594 2595 2555
2555 2595 2596 2556
2556 2596 2597 2557
2557 2597 141 140
63 64 2598 2558
2558 2598 2599 2559
2559 2599 2600 2560
2560 2600 2601 2561
2561 2601 2602 2562
2562 2602 2603 2563
2563 2603 2604 2564
2564 2604 2605 2565
2565 2605 2606 2566
2566 2606 2607 2567
2567 2607 2608 2568
2568 2608 2609 2569
2569 2609 2610 2570
2570 2610 2611 2571
2571 2611 2612 2572
2572 2612 2613 2573
2573 2613 2614 2574
2574 2614 2615 2575
2575 2615 2616 2576
2576 2616 2617 2577
2577 2617 2618 2578
2578 2618 2619 2579
2579 2619 2620 2580
2580 2620 2621 2581
2581 2621 2622 2582
2582 2622 2623 2583
2583 2623 2624 2584
2584 2624 2625 2585
2585 2625 2626 2586
2586 2626 2627 2587
2587 2627 2628 2588
2588 2628 2629 2589
2589 2629 2630 2590
2590 2630 2631 2591
2591 2631 2632 2592
2592 2632 2633 2593
2593 2633 2634 2594
2594 2634 2635 2595
2595 2635 2636 2596
2596 2636 2637 2597
2597 2637 142 141
64 65 2638 2598
2598 2638 2639 2599
2599 2639 2640 2600
2600 2640 2641 2601
2601 2641 2642 2602
2602 2642 2643 2603
2603 2643 2644 2604
2604 2644 2645 2605
2605 2645 2646 2606
2606 2646 2647 2607
2607 2647 2648 2608
2608 2648 2649 2609
2609 2649 2650 2610
2610 2650 2651 2611
2611 2651 2652 2612
2612 2652 2653 2613
2613 2653 2654 2614
2614 2654 2655 2615
2615 2655 2656 2616
2616 2656 2657 2617
2617 2657 2658 2618
2618 2658 2659 2619
2619 2659 2660 2620
2620 2660 2661 2621
2621 2661 2662 2622
2622 2662 2663 2623
2623 2663 2664 2624
2624 2664 2665 2625
2625 2665 2666 2626
2626 2666 2667 2627
2627 2667 2668 2628
2628 2668 2669 2629
2629 2669 2670 2630
2630 2670 2671 2631
2631 2671 2672 2632
2632 2672 2673 2633
2633 2673 2674 2634
2634 2674 2675 2635
2635 2675 2676 2636
2636 2676 2677 2637
2637 2677 143 142
65 66 2678 2638
2638 2678 2679 2639
2639 2679 2680 2640
2640 2680 2681 2641
2641 2681 2682 2642
2642 2682 2683 2643
2643 2683 2684 2644
2644 2684 2685 2645
2645 2685 2686 2646
2646 2686 2687 2647
2647 2687 2688 2648
2648 2688 2689 2649
2649 2689 2690 2650
2650 2690 2691 2651
2651 2691 2692 2652
2652 2692 2693 2653
2653 2693 2694 2654
2654 2694 2695 2655
2655 2695 2696 2656
2656 2696 2697 2657
2657 2697 2698 2658
2658 2698 2699 2659
2659 2699 2700 2660
2660 2700 2701 2661
2661 2701 2702 2662
2662 2702 2703 2663
2663 2703 2704 2664
2664 2704 2705 2665
2665 2705 2706 2666
2666 2706 2707 2667
2667 2707 2708 2668
2668 2708 2709 2669
2669 2709 2710 2670
2670 2710 2711 2671
2671 2711 2712 2672
2672 2712 2713 2673
2673 2713 2714 2674
2674 2714 2715 2675
2675 2715 2716 2676
2676 2716 2717 2677
2677 2717 144 143
66 67 2718 2678
2678 2718 2719 2679
2679 2719 2720 2680
2680 2720 2721 2681
2681 2721 2722 2682
2682 2722 2723 2683
2683 2723 2724 2684
2684 2724 2725 2685
2685 2725 2726 2686
2686 2726 2727 2687
2687 2727 2728 2688
2688 2728 2729 2689
2689 2729 2730 2690
2690 2730 2731 2691
2691 2731 2732 2692
2692 2732 2733 2693
2693 2733 2734 2694
2694 2734 2735 2695
2695 2735 2736 2696
2696 2736 2737 2697
2697 2737 2738 2698
2698 2738 2739 2699
2699 2739 2740 2700
2700 2740 2741 2701
2701 2741 2742 2702
2702 2742 2743 2703
2703 2743 2744 2704
2704 2744 2745 2705
2705 2745 2746 2706
2706 2746 2747 2707
2707 2747 2748 2708
2708 2748 2749 2709
2709 2749 2750 2710
2710 2750 2751 2711
2711 2751 2752 2712
2712 2752 2753 2713
2713 2753 2754 2714
2714 2754 2755 2715
2715 2755 2756 2716
2716 2756 2757 2717
2717 2757 145 144
67 68 2758 2718
2718 2758 2759 2719
2719 2759 2760 2720
2720 2760 2761 2721
2721 2761 2762 2722
2722 2762 2763 2723
2723 2763 2764 2724
2724 2764 2765 2725
2725 2765 2766 2726
2726 2766 2767 2727
2727 2767 2768 2728
2728 2768 2769 2729
2729 2769 2770 2730
2730 2770 2771 2731
2731 2771 2772 2732
2732 2772 2773 2733
2733 2773 2774 2734
2734 2774 2775 2735
2735 2775 2776 2736
2736 2776 2777 2737
2737 2777 2778 2738
2738 2778 2779 2739
2739 2779 2780 2740
2740 2780 2781 2741
2741 2781 2782 2742
2742 2782 2783 2743
2743 2783 2784 2744
2744 2784 2785 2745
2745 2785 2786 2746
2746 2786 2787 2747
2747 2787 2788 2748
2748 2788 2789 2749
2749 2789 2790 2750
2750 2790 2791 2751
2751 2791 2792 2752
2752 2792 2793 2753
2753 2793 2794 2754
2754 2794 2795 2755
2755 2795 2796 2756
2756 2796 2797 2757
2757 2797 146 145
68 69 2798 2758
2758 2798 2799 2759
2759 2799 2800 2760
2760 2800 2801 2761
2761 2801 2802 2762
2762 2802 2803 2763
2763 2803 2804 2764
2764 2804 2805 2765
2765 2805 2806 2766
2766 2806 2807 2767
2767 2807 2808 2768
2768 2808 2809 2769
2769 2809 2810 2770
2770 2810 2811 2771
2771 2811 2812 2772
2772 2812 2813 2773
2773 2813 2814 2774
2774 2814 2815 2775
2775 2815 2816 2776
2776 2816 2817 2777
2777 2817 2818 2778
2778 2818 2819 2779
2779 2819 2820 2780
2780 2820 2821 2781
2781 2821 2822 2782
2782 2822 2823 2783
2783 2823 2824 2784
2784 2824 2825 2785
2785 2825 2826 2786
2786 2826 2827 2787
2787 2827 2828 2788
2788 2828 2829 2789
2789 2829 2830 2790
2790 2830 2831 2791
2791 2831 2832 2792
2792 2832 2833 2793
2793 2833 2834 2794
2794 2834 2835 2795
2795 2835 2836 2796
2796 2836 2837 2797
2797 2837 5 146
69 70 2838 2798
2798 2838 2839 2799
2799 2839 2840 2800
2800 2840 2841 2801
2801 2841 2842 2802
2802 2842 2843 2803
2803 2843 2844 2804
2804 2844 2845 2805
2805 2845 2846 2806
2806 2846 2847 2807
2807 2847 2848 2808
2808 2848 2849 2809
2809 2849 2850 2810
2810 2850 2851 2811
2811 2851 2852 2812
2812 2852 2853 2813
2813 2853 2854 2814
2814 2854 2855 2815
2815 2855 2856 2816
2816 2856 2857 2817
2817 2857 2858 2818
2818 2858 2859 2819
2819 2859 2860 2820
2820 2860 2861 2821
2821 2861 2862 2822
2822 2862 2863 2823
2823 2863 2864 2824
2824 2864 2865 2825
2825 2865 2866 2826
2826 2866 2867 2827
2827 2867 2868 2828
2828 2868 2869 2829
2829 2869 2870 2830
2830 2870 2871 2831
2831 2871 2872 2832
2832 2872 2873 2833
2833 2873 2874 2834
2834 2874 2875 2835
2835 2875 2876 2836
2836 2876 2877 2837
2837 2877 147 5
70 71 2878 2838
2838 2878 2879 2839
2839 2879 2880 2840
2840 2880 2881 2841
2841 2881 2882 2842
2842 2882 2883 2843
2843 2883 2884 2844
2844 2884 2885 2845
2845 2885 2886 2846
2846 2886 2887 2847
2847 2887 2888 2848
2848 2888 2889 2849
2849 2889 2890 2850
2850 2890 2891 2851
2851 2891 2892 2852
2852 2892 2893 2853
2853 2893 2894 2854
2854 2894 2895 2855
2855 2895 2896 2856
2856 2896 2897 2857
2857 2897 2898 2858
2858 2898 2899 2859
2859 2899 2900 2860
2860 2900 2901 2861
2861 2901 2902 2862
2862 2902 2903 2863
2863 2903 2904 2864
2864 2904 2905 2865
2865 2905 2906 2866
2866 2906 2907 2867
2867 2907 2908 2868
2868 2908 2909 2869
2869 2909 2910 2870
2870 2910 2911 2871
2871 2911 2912 2872
2872 2912 2913 2873
2873 2913 2914 2874
2874 2914 2915 2875
2875 2915 2916 2876
2876 2916 2917 2877
2877 2917 148 147
71 72 2918 2878
2878 2918 2919 2879
2879 2919 2920 2880
2880 2920 2921 2881
2881 2921 2922 2882
2882 2922 2923 2883
2883 2923 2924 2884
2884 2924 2925 2885
2885 2925 2926 2886
2886 2926 2927 2887
2887 2927 2928 2888
2888 2928 2929 2889
2889 2929 2930 2890
2890 2930 2931 2891
2891 2931 2932 2892
2892 2932 2933 2893
2893 2933 2934 2894
2894 2934 2935 2895
2895 2935 2936 2896
2896 2936 2937 2897
2897 2937 2938 2898
2898 2938 2939 2899
2899 2939 2940 2900
2900 2940 2941 2901
2901 2941 2942 2902
2902 2942 2943 2903
2903 2943 2944 2904
2904 2944 2945 2905
2905 2945 2946 2906
2906 2946 2947 2907
2907 2947 2948 2908
2908 2948 2949 2909
2909 2949 2950 2910
2910 2950 2951 2911
2911 2951 2952 2912
2912 2952 2953 2913
2913 2953 2954 2914
2914 2954 2955 2915
2915 2955 2956 2916
2916 2956 2957 2917
2917 2957 149 148
72 73 2958 2918
2918 2958 2959 2919
2919 2959 2960 2920
2920 2960 2961 2921
2921 2961 2962 2922
2922 2962 2963 2923
2923 2963 2964 2924
2924 2964 2965 2925
2925 2965 2966 2926
2926 2966 2967 2927
2927 2967 2968 2928
2928 2968 2969 2929
2929 2969 2970 2930
2930 2970 2971 2931
2931 2971 2972 2932
2932 2972 2973 2933
2933 2973 2974 2934
2934 2974 2975 2935
2935 2975 2976 2936
2936 2976 2977 2937
2937 2977 2978 2938
2938 2978 2979 2939
2939 2979 2980 2940
2940 2980 2981 2941
2941 2981 2982 2942
2942 2982 2983 2943
2943 2983 2984 2944
2944 2984 2985 2945
2945 2985 2986 2946
2946 2986 2987 2947
2947 2987 2988 2948
2948 2988 2989 2949
2949 2989 2990 2950
2950 2990 2991 2951
2951 2991 2992 2952
2952 2992 2993 2953
2953 2993 2994 2954
2954 2994 2995 2955
2955 2995 2996 2956
2956 2996 2997 2957
2957 2997 150 149
73 74 2998 2958
2958 2998 2999 2959
2959 2999 3000 2960
2960 3000 3001 2961
2961 3001 3002 2962
2962 3002 3003 2963
2963 3003 3004 2964
2964 3004 3005 2965
2965 3005 3006 2966
2966 3006 3007 2967
2967 3007 3008 2968
2968 3008 3009 2969
2969 3009 3010 2970
2970 3010 3011 2971
2971 3011 3012 2972
2972 3012 3013 2973
2973 3013 3014 2974
2974 3014 3015 2975
2975 3015 3016 2976
2976 3016 3017 2977
2977 3017 3018 2978
2978 3018 3019 2979
2979 3019 3020 2980
2980 3020 3021 2981
2981 3021 3022 2982
2982 3022 3023 2983
2983 3023 3024 2984
2984 3024 3025 2985
2985 3025 3026 2986
2986 3026 3027 2987
2987 3027 3028 2988
2988 3028 3029 2989
2989 3029 3030 2990
2990 3030 3031 2991
2991 3031 3032 2992
2992 3032 3033 2993
2993 3033 3034 2994
2994 3034 3035 2995
2995 3035 3036 2996
2996 3036 3037 2997
2997 3037 151 150
74 75 3038 2998
2998 3038 3039 2999
2999 3039 3040 3000
3000 3040 3041 3001
3001 3041 3042 3002
3002 3042 3043 3003
3003 3043 3044 3004
3004 3044 3045 3005
3005 3045 3046 3006
3006 3046 3047 3007
3007 3047 3048 3008
3008 3048 3049 3009
3009 3049 3050 3010
3010 3050 3051 3011
3011 3051 3052 3012
3012 3052 3053 3013
3013 3053 3054 3014
3014 3054 3055 3015
3015 3055 3056 3016
3016 3056 3057 3017
3017 3057 3058 3018
3018 3058 3059 3019
3019 3059 3060 3020
3020 3060 3061 3021
3021 3061 3062 3022
3022 3062 3063 3023
3023 3063 3064 3024
3024 3064 3065 3025
3025 3065 3066 3026
3026 3066 3067 3027
3027 3067 3068 3028
3028 3068 3069 3029
3029 3069 3070 3030
3030 3070 3071 3031
3031 3071 3072 3032
3032 3072 3073 3033
3033 3073 3074 3034
3034 3074 3075 3035
3035 3075 3076 3036
3036 3076 3077 3037
3037 3077 152 151
75 76 3078 3038
3038 3078 3079 3039
3039 3079 3080 3040
3040 3080 3081 3041
3041 3081 3082 3042
3042 3082 3083 3043
3043 3083 3084 3044
3044 3084 3085 3045
3045 3085 3086 3046
3046 3086 3087 3047
3047 3087 3088 3048
3048 3088 3089 3049
3049 3089 3090 3050
3050 3090 3091 3051
3051 3091 3092 3052
3052 3092 3093 3053
3053 3093 3094 3054
3054 3094 3095 3055
3055 3095 3096 3056
3056 3096 3097 3057
3057 3097 3098 3058
3058 3098 3099 3059
3059 3099 3100 3060
3060 3100 3101 3061
3061 3101 3102 3062
3062 3102 3103 3063
3063 3103 3104 3064
3064 3104 3105 3065
3065 3105 3106 3066
3066 3106 3107 3067
3067 3107 3108 3068
3068 3108 3109 3069
3069 3109 3110 3070
3070 3110 3111 3071
3071 3111 3112 3072
3072 3112 3113 3073
3073 3113 3114 3074
3074 3114 3115 3075
3075 3115 3116 3076
3076 3116 3117 3077
3077 3117 153 152
76 77 3118 3078
3078 3118 3119 3079
3079 3119 3120 3080
3080 3120 3121 3081
3081 3121 3122 3082
3082 3122 3123 3083
3083 3123 3124 3084
3084 3124 3125 3085
3085 3125 3126 3086
3086 3126 3127 3087
3087 3127 3128 3088
3088 3128 3129 3089
3089 3129 3130 3090
3090 3130 3131 3091
3091 3131 3132 3092
3092 3132 3133 3093
3093 3133 3134 3094
3094 3134 3135 3095
3095 3135 3136 3096
3096 3136 3137 3097
3097 3137 3138 3098
3098 3138 3139 3099
3099 3139 3140 3100
3100 3140 3141 3101
3101 3141 3142 3102
3102 3142 3143 3103
3103 3143 3144 3104
3104 3144 3145 3105
3105 3145 3146 3106
3106 3146 3147 3107
3107 3147 3148 3108
3108 3148 3149 3109
3109 3149 3150 3110
3110 3150 3151 3111
3111 3151 3152 3112
3112 3152 3153 3113
3113 3153 3154 3114
3114 3154 3155 3115
3115 3155 3156 3116
3116 3156 3157 3117
3117 3157 154 153
77 78 3158 3118
3118 3158 3159 3119
3119 3159 3160 3120
3120 3160 3161 3121
3121 3161 3162 3122
3122 3162 3163 3123
3123 3163 3164 3124
3124 3164 3165 3125
3125 3165 3166 3126
3126 3166 3167 3127
3127 3167 3168 3128
3128 3168 3169 3129
3129 3169 3170 3130
3130 3170 3171 3131
3131 3171 3172 3132
3132 3172 3173 3133
3133 3173 3174 3134
3134 3174 3175 3135
3135 3175 3176 3136
3136 3176 3177 3137
3137 3177 3178 3138
3138 3178 3179 3139
3139 3179 3180 3140
3140 3180 3181 3141
3141 3181 3182 3142
3142 3182 3183 3143
3143 3183 3184 3144
3144 3184 3185 3145
3145 3185 3186 3146
3146 3186 3187 3147
3147 3187 3188 3148
3148 3188 3189 3149
3149 3189 3190 3150
3150 3190 3191 3151
3151 3191 3192 3152
3152 3192 3193 3153
3153 3193 3194 3154
3154 3194 3195 3155
3155 3195 3196 3156
3156 3196 3197 3157
3157 3197 155 154
78 79 3198 3158
3158 3198 3199 3159
3159 3199 3200 3160
3160 3200 3201 3161
3161 3201 3202 3162
3162 3202 3203 3163
3163 3203 3204 3164
3164 3204 3205 3165
3165 3205 3206 3166
3166 3206 3207 3167
3167 3207 3208 3168
3168 3208 3209 3169
3169 3209 3210 3170
3170 3210 3211 3171
3171 3211 3212 3172
3172 3212 3213 3173
3173 3213 3214 3174
3174 3214 3215 3175
3175 3215 3216 3176
3176 3216 3217 3177
3177 3217 3218 3178
3178 3218 3219 3179
3179 3219 3220 3180
3180 3220 3221 3181
3181 3221 3222 3182
3182 3222 3223 3183
3183 3223 3224 3184
3184 3224 3225 3185
3185 3225 3226 3186
3186 3226 3227 3187
3187 3227 3228 3188
3188 3228 3229 3189
3189 3229 3230 3190
3190 3230 3231 3191
3191 3231 3232 3192
3192 3232 3233 3193
3193 3233 3234 3194
3194 3234 3235 3195
3195 3235 3236 3196
3196 3236 3237 3197
3197 3237 156 155
79 80 3238 3198
3198 3238 3239 3199
3199 3239 3240 3200
3200 3240 3241 3201
3201 3241 3242 3202
3202 3242 3243 3203
3203 3243 3244 3204
3204 3244 3245 3205
3205 3245 3246 3206
3206 3246 3247 3207
3207 3247 3248 3208
3208 3248 3249 3209
3209 3249 3250 3210
3210 3250 3251 3211
3211 3251 3252 3212
3212 3252 3253 3213
3213 3253 3254 3214
3214 3254 3255 3215
3215 3255 3256 3216
3216 3256 3257 3217
3217 3257 3258 3218
3218 3258 3259 3219
3219 3259 3260 3220
3220 3260 3261 3221
3221 3261 3262 3222
3222 3262 3263 3223
3223 3263 3264 3224
3224 3264 3265 3225
3225 3265 3266 3226
3226 3266 3267 3227
3227 3267 3268 3228
3228 3268 3269 3229
3229 3269 3270 3230
3230 3270 3271 3231
3231 3271 3272 3232
3232 3272 3273 3233
3233 3273 3274 3234
3234 3274 3275 3235
3235 3275 3276 3236
3236 3276 3277 3237
3237 3277 157 156
80 81 3278 3238
3238 3278 3279 3239
3239 3279 3280 3240
3240 3280 3281 3241
3241 3281 3282 3242
3242 3282 3283 3243
3243 3283 3284 3244
3244 3284 3285 3245
3245 3285 3286 3246
3246 3286 3287 3247
3247 3287 3288 3248
3248 3288 3289 3249
3249 3289 3290 3250
3250 3290 3291 3251
3251 3291 3292 3252
3252 3292 3293 3253
3253 3293 3294 3254
3254 3294 3295 3255
3255 3295 3296 3256
3256 3296 3297 3257
3257 3297 3298 3258
3258 3298 3299 3259
3259 3299 3300 3260
3260 3300 3301 3261
3261 3301 3302 3262
3262 3302 3303 3263
3263 3303 3304 3264
3264 3304 3305 3265
3265 3305 3306 3266
3266 3306 3307 3267
3267 3307 3308 3268
3268 3308 3309 3269
3269 3309 3310 3270
3270 3310 3311 3271
3271 3311 3312 3272
3272 3312 3313 3273
3273 3313 3314 3274
3274 3314 3315 3275
3275 3315 3316 3276
3276 3316 3317 3277
3277 3317 158 157
81 82 3318 3278
3278 3318 3319 3279
3279 3319 3320 3280
3280 3320 3321 3281
3281 3321 3322 3282
3282 3322 3323 3283
3283 3323 3324 3284
3284 3324 3325 3285
3285 3325 3326 3286
3286 3326 3327 3287
3287 3327 3328 3288
3288 3328 3329 3289
3289 3329 3330 3290
3290 3330 3331 3291
3291 3331 3332 3292
3292 3332 3333 3293
3293 3333 3334 3294
3294 3334 3335 3295
3295 3335 3336 3296
3296 3336 3337 3297
3297 3337 3338 3298
3298 3338 3339 3299
3299 3339 3340 3300
3300 3340 3341 3301
3301 3341 3342 3302
3302 3342 3343 3303
3303 3343 3344 3304
3304 3344 3345 3305
3305 3345 3346 3306
3306 3346 3347 3307
3307 3347 3348 3308
3308 3348 3349 3309
3309 3349 3350 3310
3310 3350 3351 3311
3311 3351 3352 3312
3312 3352 3353 3313
3313 3353 3354 3314
3314 3354 3355 3315
3315 3355 3356 3316
3316 3356 3357 3317
3317 3357 159 158
82 83 3358 3318
3318 3358 3359 3319
3319 3359 3360 3320
3320 3360 3361 3321
3321 3361 3362 3322
3322 3362 3363 3323
3323 3363 3364 3324
3324 3364 3365 3325
3325 3365 3366 3326
3326 3366 3367 3327
3327 3367 3368 3328
3328 3368 3369 3329
3329 3369 3370 3330
3330 3370 3371 3331
3331 3371 3372 3332
3332 3372 3373 3333
3333 3373 3374 3334
3334 3374 3375 3335
3335 3375 3376 3336
3336 3376 3377 3337
3337 3377 3378 3338
3338 3378 3379 3339
3339 3379 3380 3340
3340 3380 3381 3341
3341 3381 3382 3342
3342 3382 3383 3343
3343 3383 3384 3344
3344 3384 3385 3345
3345 3385 3386 3346
3346 3386 3387 3347
3347 3387 3388 3348
3348 3388 3389 3349
3349 3389 3390 3350
3350 3390 3391 3351
3351 3391 3392 3352
3352 3392 3393 3353
3353 3393 3394 3354
3354 3394 3395 3355
3355 3395 3396 3356
3356 3396 3397 3357
3357 3397 160 159
83 84 3398 3358
3358 3398 3399 3359
3359 3399 3400 3360
3360 3400 3401 3361
3361 3401 3402 3362
3362 3402 3403 3363
3363 3403 3404 3364
3364 3404 3405 3365
3365 3405 3406 3366
3366 3406 3407 3367
3367 3407 3408 3368
3368 3408 3409 3369
3369 3409 3410 3370
3370 3410 3411 3371
3371 3411 3412 3372
3372 3412 3413 3373
3373 3413 3414 3374
3374 3414 3415 3375
3375 3415 3416 3376
3376 3416 3417 3377
3377 3417 3418 3378
3378 3418 3419 3379
3379 3419 3420 3380
3380 3420 3421 3381
3381 3421 3422 3382
3382 3422 3423 3383
3383 3423 3424 3384
3384 3424 3425 3385
3385 3425 3426 3386
3386 3426 3427 3387
3387 3427 3428 3388
3388 3428 3429 3389
3389 3429 3430 3390
3390 3430 3431 3391
3391 3431 3432 3392
3392 3432 3433 3393
3393 3433 3434 3394
3394 3434 3435 3395
3395 3435 3436 3396
3396 3436 3437 3397
3397 3437 161 160
84 85 3438 3398
3398 3438 3439 3399
3399 3439 3440 3400
3400 3440 3441 3401
3401 3441 3442 3402
3402 3442 3443 3403
3403 3443 3444 3404
3404 3444 3445 3405
3405 3445 3446 3406
3406 3446 3447 3407
3407 3447 3448 3408
3408 3448 3449 3409
3409 3449 3450 3410
3410 3450 3451 3411
3411 3451 3452 3412
3412 3452 3453 3413
3413 3453 3454 3414
3414 3454 3455 3415
3415 3455 3456 3416
3416 3456 3457 3417
3417 3457 3458 3418
3418 3458 3459 3419
3419 3459 3460 3420
3420 3460 3461 3421
3421 3461 3462 3422
3422 3462 3463 3423
3423 3463 3464 3424
3424 3464 3465 3425
3425 3465 3466 3426
3426 3466 3467 3427
3427 3467 3468 3428
3428 3468 3469 3429
3429 3469 3470 3430
3430 3470 3471 3431
3431 3471 3472 3432
3432 3472 3473 3433
3433 3473 3474 3434
3434 3474 3475 3435
3435 3475 3476 3436
3436 3476 3477 3437
3437 3477 162 161
85 86 3478 3438
3438 3478 3479 3439
3439 3479 3480 3440
3440 3480 3481 3441
3441 3481 3482 3442
3442 3482 3483 3443
3443 3483 3484 3444
3444 3484 3485 3445
3445 3485 3486 3446
3446 3486 3487 3447
3447 3487 3488 3448
3448 3488 3489 3449
3449 3489 3490 3450
3450 3490 3491 3451
3451 3491 3492 3452
3452 3492 3493 3453
3453 3493 3494 3454
3454 3494 3495 3455
3455 3495 3496 3456
3456 3496 3497 3457
3457 3497 3498 3458
3458 3498 3499 3459
3459 3499 3500 3460
3460 3500 3501 3461
3461 3501 3502 3462
3462 3502 3503 3463
3463 3503 3504 3464
3464 3504 3505 3465
3465 3505 3506 3466
3466 3506 3507 3467
3467 3507 3508 3468
3468 3508 3509 3469
3469 3509 3510 3470
3470 3510 3511 3471
3471 3511 3512 3472
3472 3512 3513 3473
3473 3513 3514 3474
3474 3514 3515 3475
3475 3515 3516 3476
3476 3516 3517 3477
3477 3517 163 162
86 87 3518 3478
3478 3518 3519 3479
3479 3519 3520 3480
3480 3520 3521 3481
3481 3521 3522 3482
3482 3522 3523 3483
3483 3523 3524 3484
3484 3524 3525 3485
3485 3525 3526 3486
3486 3526 3527 3487
3487 3527 3528 3488
3488 3528 3529 3489
3489 3529 3530 3490
3490 3530 3531 3491
3491 3531 3532 3492
3492 3532 3533 3493
3493 3533 3534 3494
3494 3534 3535 3495
3495 3535 3536 3496
3496 3536 3537 3497
3497 3537 3538 3498
3498 3538 3539 3499
3499 3539 3540 3500
3500 3540 3541 3501
3501 3541 3542 3502
3502 3542 3543 3503
3503 3543 3544 3504
3504 3544 3545 3505
3505 3545 3546 3506
3506 3546 3547 3507
3507 3547 3548 3508
3508 3548 3549 3509
3509 3549 3550 3510
3510 3550 3551 3511
3511 3551 3552 3512
3512 3552 3553 3513
3513 3553 3554 3514
3514 3554 3555 3515
3515 3555 3556 3516
3516 3556 3557 3517
3517 3557 164 163
87 88 3558 3518
3518 3558 3559 3519
3519 3559 3560 3520
3520 3560 3561 3521
3521 3561 3562 3522
3522 3562 3563 3523
3523 3563 3564 3524
3524 3564 3565 3525
3525 3565 3566 3526
3526 3566 3567 3527
3527 3567 3568 3528
3528 3568 3569 3529
3529 3569 3570 3530
3530 3570 3571 3531
3531 3571 3572 3532
3532 3572 3573 3533
3533 3573 3574 3534
3534 3574 3575 3535
3535 3575 3576 3536
3536 3576 3577 3537
3537 3577 3578 3538
3538 3578 3579 3539
3539 3579 3580 3540
3540 3580 3581 3541
3541 3581 3582 3542
3542 3582 3583 3543
3543 3583 3584 3544
3544 3584 3585 3545
3545 3585 3586 3546
3546 3586 3587 3547
3547 3587 3588 3548
3548 3588 3589 3549
3549 3589 3590 3550
3550 3590 3591 3551
3551 3591 3592 3552
3552 3592 3593 3553
3553 3593 3594 3554
3554 3594 3595 3555
3555 3595 3596 3556
3556 3596 3597 3557
3557 3597 165 164
88 2 322 3558
3558 322 321 3559
3559 321 320 3560
3560 320 319 3561
3561 319 318 3562
3562 318 317 3563
3563 317 316 3564
3564 316 315 3565
3565 315 314 3566
3566 314 313 3567
3567 313 312 3568
3568 312 311 3569
3569 311 310 3570
3570 310 309 3571
3571 309 308 3572
3572 308 307 3573
3573 307 306 3574
3574 306 305 3575
3575 305 304 3576
3576 304 303 3577
3577 303 302 3578
3578 302 301 3579
3579 301 300 3580
3580 300 299 3581
3581 299 298 3582
3582 298 297 3583
3583 297 296 3584
3584 296 295 3585
3585 295 294 3586
3586 294 293 3587
3587 293 292 3588
3588 292 291 3589
3589 291 290 3590
3590 290 289 3591
3591 289 288 3592
3592 288 287 3593
3593 287 286 3594
3594 286 285 3595
3595 285 284 3596
3596 284 283 3597
3597 283 6 165
4 108 3598 380
380 3598 3599 379
379 3599 3600 378
378 3600 3601 377
377 3601 3602 376
376 3602 3603 375
375 3603 3604 374
374 3604 3605 373
373 3605 3606 372
372 3606 3607 371
371 3607 3608 370
370 3608 3609 369
369 3609 3610 368
368 3610 3611 367
367 3611 3612 366
366 3612 3613 365
365 3613 3614 364
364 3614 3615 363
363 3615 3616 362
362 3616 323 9
108 109 3617 3598
3598 3617 3618 3599
3599 3618 3619 3600
3600 3619 3620 3601
3601 3620 3621 3602
3602 3621 3622 3603
3603 3622 3623 3604
3604 3623 3624 3605
3605 3624 3625 3606
3606 3625 3626 3607
3607 3626 3627 3608
3608 3627 3628 3609
3609 3628 3629 3610
3610 3629 3630 3611
3611 3630 3631 3612
3612 3631 3632 3613
3613 3632 3633 3614
3614 3633 3634 3615
3615 3634 3635 3616
3616 3635 324 323
109 110 3636 3617
3617 3636 3637 3618
3618 3637 3638 3619
3619 3638 3639 3620
3620 3639 3640 3621
3621 3640 3641 3622
3622 3641 3642 3623
3623 3642 3643 3624
3624 3643 3644 3625
3625 3644 3645 3626
3626 3645 3646 3627
3627 3646 3647 3628
3628 3647 3648 3629
3629 3648 3649 3630
3630 3649 3650 3631
3631 3650 3651 3632
3632 3651 3652 3633
3633 3652 3653 3634
3634 3653 3654 3635
3635 3654 325 324
110 111 3655 3636
3636 3655 3656 3637
3637 3656 3657 3638
3638 3657 3658 3639
3639 3658 3659 3640
3640 3659 3660 3641
3641 3660 3661 3642
3642 3661 3662 3643
3643 3662 3663 3644
3644 3663 3664 3645
3645 3664 3665 3646
3646 3665 3666 3647
3647 3666 3667 3648
3648 3667 3668 3649
3649 3668 3669 3650
3650 3669 3670 3651
3651 3670 3671 3652
3652 3671 3672 3653
3653 3672 3673 3654
3654 3673 326 325
111 112 3674 3655
3655 3674 3675 3656
3656 3675 3676 3657
3657 3676 3677 3658
3658 3677 3678 3659
3659 3678 3679 3660
3660 3679 3680 3661
3661 3680 3681 3662
3662 3681 3682 3663
3663 3682 3683 3664
3664 3683 3684 3665
3665 3684 3685 3666
3666 3685 3686 3667
3667 3686 3687 3668
3668 3687 3688 3669
3669 3688 3689 3670
3670 3689 3690 3671
3671 3690 3691 3672
3672 3691 3692 3673
3673 3692 327 326
112 113 3693 3674
3674 3693 3694 3675
3675 3694 3695 3676
3676 3695 3696 3677
3677 3696 3697 3678
3678 3697 3698 3679
3679 3698 3699 3680
3680 3699 3700 3681
3681 3700 3701 3682
3682 3701 3702 3683
3683 3702 3703 3684
3684 3703 3704 3685
3685 3704 3705 3686
3686 3705 3706 3687
3687 3706 3707 3688
3688 3707 3708 3689
3689 3708 3709 3690
3690 3709 3710 3691
3691 3710 3711 3692
3692 3711 328 327
113 114 3712 3693
3693 3712 3713 3694
3694 3713 3714 3695
3695 3714 3715 3696
3696 3715 3716 3697
3697 3716 3717 3698
3698 3717 3718 3699
3699 3718 3719 3700
3700 3719 3720 3701
3701 3720 3721 3702
3702 3721 3722 3703
3703 3722 3723 3704
3704 3723 3724 3705
3705 3724 3725 3706
3706 3725 3726 3707
3707 3726 3727 3708
3708 3727 3728 3709
3709 3728 3729 3710
3710 3729 3730 3711
3711 3730 329 328
114 115 3731 3712
3712 3731 3732 3713
3713 3732 3733 3714
3714 3733 3734 3715
3715 3734 3735 3716
3716 3735 3736 3717
3717 3736 3737 3718
3718 3737 3738 3719
3719 3738 3739 3720
3720 3739 3740 3721
3721 3740 3741 3722
3722 3741 3742 3723
3723 3742 3743 3724
3724 3743 3744 3725
3725 3744 3745 3726
3726 3745 3746 3727
3727 3746 3747 3728
3728 3747 3748 3729
3729 3748 3749 3730
3730 3749 330 329
115 116 3750 3731
3731 3750 3751 3732
3732 3751 3752 3733
3733 3752 3753 3734
3734 3753 3754 3735
3735 3754 3755 3736
3736 3755 3756 3737
3737 3756 3757 3738
3738 3757 3758 3739
3739 3758 3759 3740
3740 3759 3760 3741
3741 3760 3761 3742
3742 3761 3762 3743
3743 3762 3763 3744
3744 3763 3764 3745
3745 3764 3765 3746
3746 3765 3766 3747
3747 3766 3767 3748
3748 3767 3768 3749
3749 3768 331 330
116 117 3769 3750
3750 3769 3770 3751
3751 3770 3771 3752
3752 3771 3772 3753
3753 3772 3773 3754
3754 3773 3774 3755
3755 3774 3775 3756
3756 3775 3776 3757
3757 3776 3777 3758
3758 3777 3778 3759
3759 3778 3779 3760
3760 3779 3780 3761
3761 3780 3781 3762
3762 3781 3782 3763
3763 3782 3783 3764
3764 3783 3784 3765
3765 3784 3785 3766
3766 3785 3786 3767
3767 3786 3787 3768
3768 3787 332 331
117 118 3788 3769
3769 3788 3789 3770
3770 3789 3790 3771
3771 3790 3791 3772
3772 3791 3792 3773
3773 3792 3793 3774
3774 3793 3794 3775
3775 3794 3795 3776
3776 3795 3796 3777
3777 3796 3797 3778
3778 3797 3798 3779
3779 3798 3799 3780
3780 3799 3800 3781
3781 3800 3801 3782
3782 3801 3802 3783
3783 3802 3803 3784
3784 3803 3804 3785
3785 3804 3805 3786
3786 3805 3806 3787
3787 3806 333 332
118 119 3807 3788
3788 3807 3808 3789
3789 3808 3809 3790
3790 3809 3810 3791
3791 3810 3811 3792
3792 3811 3812 3793
3793 3812 3813 3794
3794 3813 3814 3795
3795 3814 3815 3796
3796 3815 3816 3797
3797 3816 3817 3798
3798 3817 3818 3799
3799 3818 3819 3800
3800 3819 3820 3801
3801 3820 3821 3802
3802 3821 3822 3803
3803 3822 3823 3804
3804 3823 3824 3805
3805 3824 3825 3806
3806 3825 334 333
119 120 3826 3807
3807 3826 3827 3808
3808 3827 3828 3809
3809 3828 3829 3810
3810 3829 3830 3811
3811 3830 3831 3812
3812 3831 3832 3813
3813 3832 3833 3814
3814 3833 3834 3815
3815 3834 3835 3816
3816 3835 3836 3817
3817 3836 3837 3818
3818 3837 3838 3819
3819 3838 3839 3820
3820 3839 3840 3821
3821 3840 3841 3822
3822 3841 3842 3823
3823 3842 3843 3824
3824 3843 3844 3825
3825 3844 335 334
120 121 3845 3826
3826 3845 3846 3827
3827 3846 3847 3828
3828 3847 3848 3829
3829 3848 3849 3830
3830 3849 3850 3831
3831 3850 3851 3832
3832 3851 3852 3833
3833 3852 3853 3834
3834 3853 3854 3835
3835 3854 3855 3836
3836 3855 3856 3837
3837 3856 3857 3838
3838 3857 3858 3839
3839 3858 3859 3840
3840 3859 3860 3841
3841 3860 3861 3842
3842 3861 3862 3843
3843 3862 3863 3844
3844 3863 336 335
121 122 3864 3845
3845 3864 3865 3846
3846 3865 3866 3847
3847 3866 3867 3848
3848 3867 3868 3849
3849 3868 3869 3850
3850 3869 3870 3851
3851 3870 3871 3852
3852 3871 3872 3853
3853 3872 3873 3854
3854 3873 3874 3855
3855 3874 3875 3856
3856 3875 3876 3857
3857 3876 3877 3858
3858 3877 3878 3859
3859 3878 3879 3860
3860 3879 3880 3861
3861 3880 3881 3862
3862 3881 3882 3863
3863 3882 337 336
122 123 3883 3864
3864 3883 3884 3865
3865 3884 3885 3866
3866 3885 3886 3867
3867 3886 3887 3868
3868 3887 3888 3869
3869 3888 3889 3870
3870 3889 3890 3871
3871 3890 3891 3872
3872 3891 3892 3873
3873 3892 3893 3874
3874 3893 3894 3875
3875 3894 3895 3876
3876 3895 3896 3877
3877 3896 3897 3878
3878 3897 3898 3879
3879 3898 3899 3880
3880 3899 3900 3881
3881 3900 3901 3882
3882 3901 338 337
123 124 3902 3883
3883 3902 3903 3884
3884 3903 3904 3885
3885 3904 3905 3886
3886 3905 3906 3887
3887 3906 3907 3888
3888 3907 3908 3889
3889 3908 3909 3890
3890 3909 3910 3891
3891 3910 3911 3892
3892 3911 3912 3893
3893 3912 3913 3894
3894 3913 3914 3895
3895 3914 3915 3896
3896 3915 3916 3897
3897 3916 3917 3898
3898 3917 3918 3899
3899 3918 3919 3900
3900 3919 3920 3901
3901 3920 339 338
124 125 3921 3902
3902 3921 3922 3903
3903 3922 3923 3904
3904 3923 3924 3905
3905 3924 3925 3906
3906 3925 3926 3907
3907 3926 3927 3908
3908 3927 3928 3909
3909 3928 3929 3910
3910 3929 3930 3911
3911 3930 3931 3912
3912 3931 3932 3913
3913 3932 3933 3914
3914 3933 3934 3915
3915 3934 3935 3916
3916 3935 3936 3917
3917 3936 3937 3918
3918 3937 3938 3919
3919 3938 3939 3920
3920 3939 340 339
125 126 3940 3921
3921 3940 3941 3922
3922 3941 3942 3923
3923 3942 3943 3924
3924 3943 3944 3925
3925 3944 3945 3926
3926 3945 3946 3927
3927 3946 3947 3928
3928 3947 3948 3929
3929 3948 3949 3930
3930 3949 3950 3931
3931 3950 3951 3932
3932 3951 3952 3933
3933 3952 3953 3934
3934 3953 3954 3935
3935 3954 3955 3936
3936 3955 3956 3937
3937 3956 3957 3938
3938 3957 3958 3939
3939 3958 341 340
126 127 3959 3940
3940 3959 3960 3941
3941 3960 3961 3942
3942 3961 3962 3943
3943 3962 3963 3944
3944 3963 3964 3945
3945 3964 3965 3946
3946 3965 3966 3947
3947 3966 3967 3948
3948 3967 3968 3949
3949 3968 3969 3950
3950 3969 3970 3951
3951 3970 3971 3952
3952 3971 3972 3953
3953 3972 3973 3954
3954 3973 3974 3955
3955 3974 3975 3956
3956 3975 3976 3957
3957 3976 3977 3958
3958 3977 342 341
127 128 3978 3959
3959 3978 3979 3960
3960 3979 3980 3961
3961 3980 3981 3962
3962 3981 3982 3963
3963 3982 3983 3964
3964 3983 3984 3965
3965 3984 3985 3966
3966 3985 3986 3967
3967 3986 3987 3968
3968 3987 3988 3969
3969 3988 3989 3970
3970 3989 3990 3971
3971 3990 3991 3972
3972 3991 3992 3973
3973 3992 3993 3974
3974 3993 3994 3975
3975 3994 3995 3976
3976 3995 3996 3977
3977 3996 343 342
128 129 3997 3978
3978 3997 3998 3979
3979 3998 3999 3980
3980 3999 4000 3981
3981 4000 4001 3982
3982 4001 4002 3983
3983 4002 4003 3984
3984 4003 4004 3985
3985 4004 4005 3986
3986 4005 4006 3987
3987 4006 4007 3988
3988 4007 4008 3989
3989 4008 4009 3990
3990 4009 4010 3991
3991 4010 4011 3992
3992 4011 4012 3993
3993 4012 4013 3994
3994 4013 4014 3995
3995 4014 4015 3996
3996 4015 344 343
129 130 4016 3997
3997 4016 4017 3998
3998 4017 4018 3999
3999 4018 4019 4000
4000 4019 4020 4001
4001 4020 4021 4002
4002 4021 4022 4003
4003 4022 4023 4004
4004 4023 4024 4005
4005 4024 4025 4006
4006 4025 4026 4007
4007 4026 4027 4008
4008 4027 4028 4009
4009 4028 4029 4010
4010 4029 4030 4011
4011 4030 4031 4012
4012 4031 4032 4013
4013 4032 4033 4014
4014 4033 4034 4015
4015 4034 345 344
130 131 4035 4016
4016 4035 4036 4017
4017 4036 4037 4018
4018 4037 4038 4019
4019 4038 4039 4020
4020 4039 4040 4021
4021 4040 4041 4022
4022 4041 4042 4023
4023 4042 4043 4024
4024 4043 4044 4025
4025 4044 4045 4026
4026 4045 4046 4027
4027 4046 4047 4028
4028 4047 4048 4029
4029 4048 4049 4030
4030 4049 4050 4031
4031 4050 4051 4032
4032 4051 4052 4033
4033 4052 4053 4034
4034 4053 346 345
131 132 4054 4035
4035 4054 4055 4036
4036 4055 4056 4037
4037 4056 4057 4038
4038 4057 4058 4039
4039 4058 4059 4040
4040 4059 4060 4041
4041 4060 4061 4042
4042 4061 4062 4043
4043 4062 4063 4044
4044 4063 4064 4045
4045 4064 4065 4046
4046 4065 4066 4047
4047 4066 4067 4048
4048 4067 4068 4049
4049 4068 4069 4050
4050 4069 4070 4051
4051 4070 4071 4052
4052 4071 4072 4053
4053 4072 347 346
132 133 4073 4054
4054 4073 4074 4055
4055 4074 4075 4056
4056 4075 4076 4057
4057 4076 4077 4058
4058 4077 4078 4059
4059 4078 4079 4060
4060 4079 4080 4061
4061 4080 4081 4062
4062 4081 4082 4063
4063 4082 4083 4064
4064 4083 4084 4065
4065 4084 4085 4066
4066 4085 4086 4067
4067 4086 4087 4068
4068 4087 4088 4069
4069 4088 4089 4070
4070 4089 4090 4071
4071 4090 4091 4072
4072 4091 348 347
133 134 4092 4073
4073 4092 4093 4074
4074 4093 4094 4075
4075 4094 4095 4076
4076 4095 4096 4077
4077 4096 4097 4078
4078 4097 4098 4079
4079 4098 4099 4080
4080 4099 4100 4081
4081 4100 4101 4082
4082 4101 4102 4083
4083 4102 4103 4084
4084 4103 4104 4085
4085 4104 4105 4086
4086 4105 4106 4087
4087 4106 4107 4088
4088 4107 4108 4089
4089 4108 4109 4090
4090 4109 4110 4091
4091 4110 349 348
134 135 4111 4092
4092 4111 4112 4093
4093 4112 4113 4094
4094 4113 4114 4095
4095 4114 4115 4096
4096 4115 4116 4097
4097 4116 4117 4098
4098 4117 4118 4099
4099 4118 4119 4100
4100 4119 4120 4101
4101 4120 4121 4102
4102 4121 4122 4103
4103 4122 4123 4104
4104 4123 4124 4105
4105 4124 4125 4106
4106 4125 4126 4107
4107 4126 4127 4108
4108 4127 4128 4109
4109 4128 4129 4110
4110 4129 350 349
135 136 4130 4111
4111 4130 4131 4112
4112 4131 4132 4113
4113 4132 4133 4114
4114 4133 4134 4115
4115 4134 4135 4116
4116 4135 4136 4117
4117 4136 4137 4118
4118 4137 4138 4119
4119 4138 4139 4120
4120 4139 4140 4121
4121 4140 4141 4122
4122 4141 4142 4123
4123 4142 4143 4124
4124 4143 4144 4125
4125 4144 4145 4126
4126 4145 4146 4127
4127 4146 4147 4128
4128 4147 4148 4129
4129 4148 351 350
136 137 4149 4130
4130 4149 4150 4131
4131 4150 4151 4132
4132 4151 4152 4133
4133 4152 4153 4134
4134 4153 4154 4135
4135 4154 4155 4136
4136 4155 4156 4137
4137 4156 4157 4138
4138 4157 4158 4139
4139 4158 4159 4140
4140 4159 4160 4141
4141 4160 4161 4142
4142 4161 4162 4143
4143 4162 4163 4144
4144 4163 4164 4145
4145 4164 4165 4146
4146 4165 4166 4147
4147 4166 4167 4148
4148 4167 352 351
137 138 4168 4149
4149 4168 4169 4150
4150 4169 4170 4151
4151 4170 4171 4152
4152 4171 4172 4153
4153 4172 4173 4154
4154 4173 4174 4155
4155 4174 4175 4156
4156 4175 4176 4157
4157 4176 4177 4158
4158 4177 4178 4159
4159 4178 4179 4160
4160 4179 4180 4161
4161 4180 4181 4162
4162 4181 4182 4163
4163 4182 4183 4164
4164 4183 4184 4165
4165 4184 4185 4166
4166 4185 4186 4167
4167 4186 353 352
138 139 4187 4168
4168 4187 4188 4169
4169 4188 4189 4170
4170 4189 4190 4171
4171 4190 4191 4172
4172 4191 4192 4173
4173 4192 4193 4174
4174 4193 4194 4175
4175 4194 4195 4176
4176 4195 4196 4177
4177 4196 4197 4178
4178 4197 4198 4179
4179 4198 4199 4180
4180 4199 4200 4181
4181 4200 4201 4182
4182 4201 4202 4183
4183 4202 4203 4184
4184 4203 4204 4185
4185 4204 4205 4186
4186 4205 354 353
139 140 4206 4187
4187 4206 4207 4188
4188 4207 4208 4189
4189 4208 4209 4190
4190 4209 4210 4191
4191 4210 4211 4192
4192 4211 4212 4193
4193 4212 4213 4194
4194 4213 4214 4195
4195 4214 4215 4196
4196 4215 4216 4197
4197 4216 4217 4198
4198 4217 4218 4199
4199 4218 4219 4200
4200 4219 4220 4201
4201 4220 4221 4202
4202 4221 4222 4203
4203 4222 4223 4204
4204 4223 4224 4205
4205 4224 355 354
140 141 4225 4206
4206 4225 4226 4207
4207 4226 4227 4208
4208 4227 4228 4209
4209 4228 4229 4210
4210 4229 4230 4211
4211 4230 4231 4212
4212 4231 4232 4213
4213 4232 4233 4214
4214 4233 4234 4215
4215 4234 4235 4216
4216 4235 4236 4217
4217 4236 4237 4218
4218 4237 4238 4219
4219 4238 4239 4220
4220 4239 4240 4221
4221 4240 4241 4222
4222 4241 4242 4223
4223 4242 4243 4224
4224 4243 356 355
141 142 4244 4225
4225 4244 4245 4226
4226 4245 4246 4227
4227 4246 4247 4228
4228 4247 4248 4229
4229 4248 4249 4230
4230 4249 4250 4231
4231 4250 4251 4232
4232 4251 4252 4233
4233 4252 4253 4234
4234 4253 4254 4235
4235 4254 4255 4236
4236 4255 4256 4237
4237 4256 4257 4238
4238 4257 4258 4239
4239 4258 4259 4240
4240 4259 4260 4241
4241 4260 4261 4242
4242 4261 4262 4243
4243 4262 357 356
142 143 4263 4244
4244 4263 4264 4245
4245 4264 4265 4246
4246 4265 4266 4247
4247 4266 4267 4248
4248 4267 4268 4249
4249 4268 4269 4250
4250 4269 4270 4251
4251 4270 4271 4252
4252 4271 4272 4253
4253 4272 4273 4254
4254 4273 4274 4255
4255 4274 4275 4256
4256 4275 4276 4257
4257 4276 4277 4258
4258 4277 4278 4259
4259 4278 4279 4260
4260 4279 4280 4261
4261 4280 4281 4262
4262 4281 358 357
143 144 4282 4263
4263 4282 4283 4264
4264 4283 4284 4265
4265 4284 4285 4266
4266 4285 4286 4267
4267 4286 4287 4268
4268 4287 4288 4269
4269 4288 4289 4270
4270 4289 4290 4271
4271 4290 4291 4272
4272 4291 4292 4273
4273 4292 4293 4274
4274 4293 4294 4275
4275 4294 4295 4276
4276 4295 4296 4277
4277 4296 4297 4278
4278 4297 4298 4279
4279 4298 4299 4280
4280 4299 4300 4281
4281 4300 359 358
144 145 4301 4282
4282 4301 4302 4283
4283 4302 4303 4284
4284 4303 4304 4285
4285 4304 4305 4286
4286 4305 4306 4287
4287 4306 4307 4288
4288 4307 4308 4289
4289 4308 4309 4290
4290 4309 4310 4291
4291 4310 4311 4292
4292 4311 4312 4293
4293 4312 4313 4294
4294 4313 4314 4295
4295 4314 4315 4296
4296 4315 4316 4297
4297 4316 4317 4298
4298 4317 4318 4299
4299 4318 4319 4300
4300 4319 360 359
145 146 4320 4301
4301 4320 4321 4302
4302 4321 4322 4303
4303 4322 4323 4304
4304 4323 4324 4305
4305 4324 4325 4306
4306 4325 4326 4307
4307 4326 4327 4308
4308 4327 4328 4309
4309 4328 4329 4310
4310 4329 4330 4311
4311 4330 4331 4312
4312 4331 4332 4313
4313 4332 4333 4314
4314 4333 4334 4315
4315 4334 4335 4316
4316 4335 4336 4317
4317 4336 4337 4318
4318 4337 4338 4319
4319 4338 361 360
146 5 399 4320
4320 399 398 4321
4321 398 397 4322
4322 397 396 4323
4323 396 395 4324
4324 395 394 4325
4325 394 393 4326
4326 393 392 4327
4327 392 391 4328
4328 391 390 4329
4329 390 389 4330
4330 389 388 4331
4331 388 387 4332
4332 387 386 4333
4333 386 385 4334
4334 385 384 4335
4335 384 383 4336
4336 383 382 4337
4337 382 381 4338
4338 381 10 361
3 89 4339 166
166 4339 4340 167
167 4340 4341 168
168 4341 4342 169
169 4342 4343 170
170 4343 4344 171
171 4344 4345 172
172 4345 4346 173
173 4346 4347 174
174 4347 4348 175
175 4348 4349 176
176 4349 4350 177
177 4350 4351 178
178 4351 4352 179
179 4352 4353 180
180 4353 4354 181
181 4354 4355 182
182 4355 4356 183
183 4356 4357 184
184 4357 418 7
89 90 4358 4339
4339 4358 4359 4340
4340 4359 4360 4341
4341 4360 4361 4342
4342 4361 4362 4343
4343 4362 4363 4344
4344 4363 4364 4345
4345 4364 4365 4346
4346 4365 4366 4347
4347 4366 4367 4348
4348 4367 4368 4349
4349 4368 4369 4350
4350 4369 4370 4351
4351 4370 4371 4352
4352 4371 4372 4353
4353 4372 4373 4354
4354 4373 4374 4355
4355 4374 4375 4356
4356 4375 4376 4357
4357 4376 417 418
90 91 4377 4358
4358 4377 4378 4359
4359 4378 4379 4360
4360 4379 4380 4361
4361 4380 4381 4362
4362 4381 4382 4363
4363 4382 4383 4364
4364 4383 4384 4365
4365 4384 4385 4366
4366 4385 4386 4367
4367 4386 4387 4368
4368 4387 4388 4369
4369 4388 4389 4370
4370 4389 4390 4371
4371 4390 4391 4372
4372 4391 4392 4373
4373 4392 4393 4374
4374 4393 4394 4375
4375 4394 4395 4376
4376 4395 416 417
91 92 4396 4377
4377 4396 4397 4378
4378 4397 4398 4379
4379 4398 4399 4380
4380 4399 4400 4381
4381 4400 4401 4382
4382 4401 4402 4383
4383 4402 4403 4384
4384 4403 4404 4385
4385 4404 4405 4386
4386 4405 4406 4387
4387 4406 4407 4388
4388 4407 4408 4389
4389 4408 4409 4390
4390 4409 4410 4391
4391 4410 4411 4392
4392 4411 4412 4393
4393 4412 4413 4394
4394 4413 4414 4395
4395 4414 415 416
92 93 4415 4396
4396 4415 4416 4397
4397 4416 4417 4398
4398 4417 4418 4399
4399 4418 4419 4400
4400 4419 4420 4401
4401 4420 4421 4402
4402 4421 4422 4403
4403 4422 4423 4404
4404 4423 4424 4405
4405 4424 4425 4406
4406 4425 4426 4407
4407 4426 4427 4408
4408 4427 4428 4409
4409 4428 4429 4410
4410 4429 4430 4411
4411 4430 4431 4412
4412 4431 4432 4413
4413 4432 4433 4414
4414 4433 414 415
93 94 4434 4415
4415 4434 4435 4416
4416 4435 4436 4417
4417 4436 4437 4418
4418 4437 4438 4419
4419 4438 4439 4420
4420 4439 4440 4421
4421 4440 4441 4422
4422 4441 4442 4423
4423 4442 4443 4424
4424 4443 4444 4425
4425 4444 4445 4426
4426 4445 4446 4427
4427 4446 4447 4428
4428 4447 4448 4429
4429 4448 4449 4430
4430 4449 4450 4431
4431 4450 4451 4432
4432 4451 4452 4433
4433 4452 413 414
94 95 4453 4434
4434 4453 4454 4435
4435 4454 4455 4436
4436 4455 4456 4437
4437 4456 4457 4438
4438 4457 4458 4439
4439 4458 4459 4440
4440 4459 4460 4441
4441 4460 4461 4442
4442 4461 4462 4443
4443 4462 4463 4444
4444 4463 4464 4445
4445 4464 4465 4446
4446 4465 4466 4447
4447 4466 4467 4448
4448 4467 4468 4449
4449 4468 4469 4450
4450 4469 4470 4451
4451 4470 4471 4452
4452 4471 412 413
95 96 4472 4453
4453 4472 4473 4454
4454 4473 4474 4455
4455 4474 4475 4456
4456 4475 4476 4457
4457 4476 4477 4458
4458 4477 4478 4459
4459 4478 4479 4460
4460 4479 4480 4461
4461 4480 4481 4462
4462 4481 4482 4463
4463 4482 4483 4464
4464 4483 4484 4465
4465 4484 4485 4466
4466 4485 4486 4467
4467 4486 4487 4468
4468 4487 4488 4469
4469 4488 4489 4470
4470 4489 4490 4471
4471 4490 411 412
96 97 4491 4472
4472 4491 4492 4473
4473 4492 4493 4474
4474 4493 4494 4475
4475 4494 4495 4476
4476 4495 4496 4477
4477 4496 4497 4478
4478 4497 4498 4479
4479 4498 4499 4480
4480 4499 4500 4481
4481 4500 4501 4482
4482 4501 4502 4483
4483 4502 4503 4484
4484 4503 4504 4485
4485 4504 4505 4486
4486 4505 4506 4487
4487 4506 4507 4488
4488 4507 4508 4489
4489 4508 4509 4490
4490 4509 410 411
97 98 4510 4491
4491 4510 4511 4492
4492 4511 4512 4493
4493 4512 4513 4494
4494 4513 4514 4495
4495 4514 4515 4496
4496 4515 4516 4497
4497 4516 4517 4498
4498 4517 4518 4499
4499 4518 4519 4500
4500 4519 4520 4501
4501 4520 4521 4502
4502 4521 4522 4503
4503 4522 4523 4504
4504 4523 4524 4505
4505 4524 4525 4506
4506 4525 4526 4507
4507 4526 4527 4508
4508 4527 4528 4509
4509 4528 409 410
98 99 4529 4510
4510 4529 4530 4511
4511 4530 4531 4512
4512 4531 4532 4513
4513 4532 4533 4514
4514 4533 4534 4515
4515 4534 4535 4516
4516 4535 4536 4517
4517 4536 4537 4518
4518 4537 4538 4519
4519 4538 4539 4520
4520 4539 4540 4521
4521 4540 4541 4522
4522 4541 4542 4523
4523 4542 4543 4524
4524 4543 4544 4525
4525 4544 4545 4526
4526 4545 4546 4527
4527 4546 4547 4528
4528 4547 408 409
99 100 4548 4529
4529 4548 4549 4530
4530 4549 4550 4531
4531 4550 4551 4532
4532 4551 4552 4533
4533 4552 4553 4534
4534 4553 4554 4535
4535 4554 4555 4536
4536 4555 4556 4537
4537 4556 4557 4538
4538 4557 4558 4539
4539 4558 4559 4540
4540 4559 4560 4541
4541 4560 4561 4542
4542 4561 4562 4543
4543 4562 4563 4544
4544 4563 4564 4545
4545 4564 4565 4546
4546 4565 4566 4547
4547 4566 407 408
100 101 4567 4548
4548 4567 4568 4549
4549 4568 4569 4550
4550 4569 4570 4551
4551 4570 4571 4552
4552 4571 4572 4553
4553 4572 4573 4554
4554 4573 4574 4555
4555 4574 4575 4556
4556 4575 4576 4557
4557 4576 4577 4558
4558 4577 4578 4559
4559 4578 4579 4560
4560 4579 4580 4561
4561 4580 4581 4562
4562 4581 4582 4563
4563 4582 4583 4564
4564 4583 4584 4565
4565 4584 4585 4566
4566 4585 406 407
101 102 4586 4567
4567 4586 4587 4568
4568 4587 4588 4569
4569 4588 4589 4570
4570 4589 4590 4571
4571 4590 4591 4572
4572 4591 4592 4573
4573 4592 4593 4574
4574 4593 4594 4575
4575 4594 4595 4576
4576 4595 4596 4577
4577 4596 4597 4578
4578 4597 4598 4579
4579 4598 4599 4580
4580 4599 4600 4581
4581 4600 4601 4582
4582 4601 4602 4583
4583 4602 4603 4584
4584 4603 4604 4585
4585 4604 405 406
102 103 4605 4586
4586 4605 4606 4587
4587 4606 4607 4588
4588 4607 4608 4589
4589 4608 4609 4590
4590 4609 4610 4591
4591 4610 4611 4592
4592 4611 4612 4593
4593 4612 4613 4594
4594 4613 4614 4595
4595 4614 4615 4596
4596 4615 4616 4597
4597 4616 4617 4598
4598 4617 4618 4599
4599 4618 4619 4600
4600 4619 4620 4601
4601 4620 4621 4602
4602 4621 4622 4603
4603 4622 4623 4604
4604 4623 404 405
103 104 4624 4605
4605 4624 4625 4606
4606 4625 4626 4607
4607 4626 4627 4608
4608 4627 4628 4609
4609 4628 4629 4610
4610 4629 4630 4611
4611 4630 4631 4612
4612 4631 4632 4613
4613 4632 4633 4614
4614 4633 4634 4615
4615 4634 4635 4616
4616 4635 4636 4617
4617 4636 4637 4618
4618 4637 4638 4619
4619 4638 4639 4620
4620 4639 4640 4621
4621 4640 4641 4622
4622 4641 4642 4623
4623 4642 403 404
104 105 4643 4624
4624 4643 4644 4625
4625 4644 4645 4626
4626 4645 4646 4627
4627 4646 4647 4628
4628 4647 4648 4629
4629 4648 4649 4630
4630 4649 4650 4631
4631 4650 4651 4632
4632 4651 4652 4633
4633 4652 4653 4634
4634 4653 4654 4635
4635 4654 4655 4636
4636 4655 4656 4637
4637 4656 4657 4638
4638 4657 4658 4639
4639 4658 4659 4640
4640 4659 4660 4641
4641 4660 4661 4642
4642 4661 402 403
105 106 4662 4643
4643 4662 4663 4644
4644 4663 4664 4645
4645 4664 4665 4646
4646 4665 4666 4647
4647 4666 4667 4648
4648 4667 4668 4649
4649 4668 4669 4650
4650 4669 4670 4651
4651 4670 4671 4652
4652 4671 4672 4653
4653 4672 4673 4654
4654 4673 4674 4655
4655 4674 4675 4656
4656 4675 4676 4657
4657 4676 4677 4658
4658 4677 4678 4659
4659 4678 4679 4660
4660 4679 4680 4661
4661 4680 401 402
106 107 4681 4662
4662 4681 4682 4663
4663 4682 4683 4664
4664 4683 4684 4665
4665 4684 4685 4666
4666 4685 4686 4667
4667 4686 4687 4668
4668 4687 4688 4669
4669 4688 4689 4670
4670 4689 4690 4671
4671 4690 4691 4672
4672 4691 4692 4673
4673 4692 4693 4674
4674 4693 4694 4675
4675 4694 4695 4676
4676 4695 4696 4677
4677 4696 4697 4678
4678 4697 4698 4679
4679 4698 4699 4680
4680 4699 400 401
107 4 380 4681
4681 380 379 4682
4682 379 378 4683
4683 378 377 4684
4684 377 376 4685
4685 376 375 4686
4686 375 374 4687
4687 374 373 4688
4688 373 372 4689
4689 372 371 4690
4690 371 370 4691
4691 370 369 4692
4692 369 368 4693
4693 368 367 4694
4694 367 366 4695
4695 366 365 4696
4696 365 364 4697
4697 364 363 4698
4698 363 362 4699
4699 362 9 400
5 147 4700 399
399 4700 4701 398
398 4701 4702 397
397 4702 4703 396
396 4703 4704 395
395 4704 4705 394
394 4705 4706 393
393 4706 4707 392
392 4707 4708 391
391 4708 4709 390
390 4709 4710 389
389 4710 4711 388
388 4711 4712 387
387 4712 4713 386
386 4713 4714 385
385 4714 4715 384
384 4715 4716 383
383 4716 4717 382
382 4717 4718 381
381 4718 419 10
147 148 4719 4700
4700 4719 4720 4701
4701 4720 4721 4702
4702 4721 4722 4703
4703 4722 4723 4704
4704 4723 4724 4705
4705 4724 4725 4706
4706 4725 4726 4707
4707 4726 4727 4708
4708 4727 4728 4709
4709 4728 4729 4710
4710 4729 4730 4711
4711 4730 4731 4712
4712 4731 4732 4713
4713 4732 4733 4714
4714 4733 4734 4715
4715 4734 4735 4716
4716 4735 4736 4717
4717 4736 4737 4718
4718 4737 420 419
148 149 4738 4719
4719 4738 4739 4720
4720 4739 4740 4721
4721 4740 4741 4722
4722 4741 4742 4723
4723 4742 4743 4724
4724 4743 4744 4725
4725 4744 4745 4726
4726 4745 4746 4727
4727 4746 4747 4728
4728 4747 4748 4729
4729 4748 4749 4730
4730 4749 4750 4731
4731 4750 4751 4732
4732 4751 4752 4733
4733 4752 4753 4734
4734 4753 4754 4735
4735 4754 4755 4736
4736 4755 4756 4737
4737 4756 421 420
149 150 4757 4738
4738 4757 4758 4739
4739 4758 4759 4740
4740 4759 4760 4741
4741 4760 4761 4742
4742 4761 4762 4743
4743 4762 4763 4744
4744 4763 4764 4745
4745 4764 4765 4746
4746 4765 4766 4747
4747 4766 4767 4748
4748 4767 4768 4749
4749 4768 4769 4750
4750 4769 4770 4751
4751 4770 4771 4752
4752 4771 4772 4753
4753 4772 4773 4754
4754 4773 4774 4755
4755 4774 4775 4756
4756 4775 422 421
150 151 4776 4757
4757 4776 4777 4758
4758 4777 4778 4759
4759 4778 4779 4760
4760 4779 4780 4761
4761 4780 4781 4762
4762 4781 4782 4763
4763 4782 4783 4764
4764 4783 4784 4765
4765 4784 4785 4766
4766 4785 4786 4767
4767 4786 4787 4768
4768 4787 4788 4769
4769 4788 4789 4770
4770 4789 4790 4771
4771 4790 4791 4772
4772 4791 4792 4773
4773 4792 4793 4774
4774 4793 4794 4775
4775 4794 423 422
151 152 4795 4776
4776 4795 4796 4777
4777 4796 4797 4778
4778 4797 4798 4779
4779 4798 4799 4780
4780 4799 4800 4781
4781 4800 4801 4782
4782 4801 4802 4783
4783 4802 4803 4784
4784 4803 4804 4785
4785 4804 4805 4786
4786 4805 4806 4787
4787 4806 4807 4788
4788 4807 4808 4789
4789 4808 4809 4790
4790 4809 4810 4791
4791 4810 4811 4792
4792 4811 4812 4793
4793 4812 4813 4794
4794 4813 424 423
152 153 4814 4795
4795 4814 4815 4796
4796 4815 4816 4797
4797 4816 4817 4798
4798 4817 4818 4799
4799 4818 4819 4800
4800 4819 4820 4801
4801 4820 4821 4802
4802 4821 4822 4803
4803 4822 4823 4804
4804 4823 4824 4805
4805 4824 4825 4806
4806 4825 4826 4807
4807 4826 4827 4808
4808 4827 4828 4809
4809 4828 4829 4810
4810 4829 4830 4811
4811 4830 4831 4812
4812 4831 4832 4813
4813 4832 425 424
153 154 4833 4814
4814 4833 4834 4815
4815 4834 4835 4816
4816 4835 4836 4817
4817 4836 4837 4818
4818 4837 4838 4819
4819 4838 4839 4820
4820 4839 4840 4821
4821 4840 4841 4822
4822 4841 4842 4823
4823 4842 4843 4824
4824 4843 4844 4825
4825 4844 4845 4826
4826 4845 4846 4827
4827 4846 4847 4828
4828 4847 4848 4829
4829 4848 4849 4830
4830 4849 4850 4831
4831 4850 4851 4832
4832 4851 426 425
154 155 4852 4833
4833 4852 4853 4834
4834 4853 4854 4835
4835 4854 4855 4836
4836 4855 4856 4837
4837 4856 4857 4838
4838 4857 4858 4839
4839 4858 4859 4840
4840 4859 4860 4841
4841 4860 4861 4842
4842 4861 4862 4843
4843 4862 4863 4844
4844 4863 4864 4845
4845 4864 4865 4846
4846 4865 4866 4847
4847 4866 4867 4848
4848 4867 4868 4849
4849 4868 4869 4850
4850 4869 4870 4851
4851 4870 427 426
155 156 4871 4852
4852 4871 4872 4853
4853 4872 4873 4854
4854 4873 4874 4855
4855 4874 4875 4856
4856 4875 4876 4857
4857 4876 4877 4858
4858 4877 4878 4859
4859 4878 4879 4860
4860 4879 4880 4861
4861 4880 4881 4862
4862 4881 4882 4863
4863 4882 4883 4864
4864 4883 4884 4865
4865 4884 4885 4866
4866 4885 4886 4867
4867 4886 4887 4868
4868 4887 4888 4869
4869 4888 4889 4870
4870 4889 428 427
156 157 4890 4871
4871 4890 4891 4872
4872 4891 4892 4873
4873 4892 4893 4874
4874 4893 4894 4875
4875 4894 4895 4876
4876 4895 4896 4877
4877 4896 4897 4878
4878 4897 4898 4879
4879 4898 4899 4880
4880 4899 4900 4881
4881 4900 4901 4882
4882 4901 4902 4883
4883 4902 4903 4884
4884 4903 4904 4885
4885 4904 4905 4886
4886 4905 4906 4887
4887 4906 4907 4888
4888 4907 4908 4889
4889 4908 429 428
157 158 4909 4890
4890 4909 4910 4891
4891 4910 4911 4892
4892 4911 4912 4893
4893 4912 4913 4894
4894 4913 4914 4895
4895 4914 4915 4896
4896 4915 4916 4897
4897 4916 4917 4898
4898 4917 4918 4899
4899 4918 4919 4900
4900 4919 4920 4901
4901 4920 4921 4902
4902 4921 4922 4903
4903 4922 4923 4904
4904 4923 4924 4905
4905 4924 4925 4906
4906 4925 4926 4907
4907 4926 4927 4908
4908 4927 430 429
158 159 4928 4909
4909 4928 4929 4910
4910 4929 4930 4911
4911 4930 4931 4912
4912 4931 4932 4913
4913 4932 4933 4914
4914 4933 4934 4915
4915 4934 4935 4916
4916 4935 4936 4917
4917 4936 4937 4918
4918 4937 4938 4919
4919 4938 4939 4920
4920 4939 4940 4921
4921 4940 4941 4922
4922 4941 4942 4923
4923 4942 4943 4924
4924 4943 4944 4925
4925 4944 4945 4926
4926 4945 4946 4927
4927 4946 431 430
159 160 4947 4928
4928 4947 4948 4929
4929 4948 4949 4930
4930 4949 4950 4931
4931 4950 4951 4932
4932 4951 4952 4933
4933 4952 4953 4934
4934 4953 4954 4935
4935 4954 4955 4936
4936 4955 4956 4937
4937 4956 4957 4938
4938 4957 4958 4939
4939 4958 4959 4940
4940 4959 4960 4941
4941 4960 4961 4942
4942 4961 4962 4943
4943 4962 4963 4944
4944 4963 4964 4945
4945 4964 4965 4946
4946 4965 432 431
160 161 4966 4947
4947 4966 4967 4948
4948 4967 4968 4949
4949 4968 4969 4950
4950 4969 4970 4951
4951 4970 4971 4952
4952 4971 4972 4953
4953 4972 4973 4954
4954 4973 4974 4955
4955 4974 4975 4956
4956 4975 4976 4957
4957 4976 4977 4958
4958 4977 4978 4959
4959 4978 4979 4960
4960 4979 4980 4961
4961 4980 4981 4962
4962 4981 4982 4963
4963 4982 4983 4964
4964 4983 4984 4965
4965 4984 433 432
161 162 4985 4966
4966 4985 4986 4967
4967 4986 4987 4968
4968 4987 4988 4969
4969 4988 4989 4970
4970 4989 4990 4971
4971 4990 4991 4972
4972 4991 4992 4973
4973 4992 4993 4974
4974 4993 4994 4975
4975 4994 4995 4976
4976 4995 4996 4977
4977 4996 4997 4978
4978 4997 4998 4979
4979 4998 4999 4980
4980 4999 5000 4981
4981 5000 5001 4982
4982 5001 5002 4983
4983 5002 5003 4984
4984 5003 434 433
162 163 5004 4985
4985 5004 5005 4986
4986 5005 5006 4987
4987 5006 5007 4988
4988 5007 5008 4989
4989 5008 5009 4990
4990 5009 5010 4991
4991 5010 5011 4992
4992 5011 5012 4993
4993 5012 5013 4994
4994 5013 5014 4995
4995 5014 5015 4996
4996 5015 5016 4997
4997 5016 5017 4998
4998 5017 5018 4999
4999 5018 5019 5000
5000 5019 5020 5001
5001 5020 5021 5002
5002 5021 5022 5003
5003 5022 435 434
163 164 5023 5004
5004 5023 5024 5005
5005 5024 5025 5006
5006 5025 5026 5007
5007 5026 5027 5008
5008 5027 5028 5009
5009 5028 5029 5010
5010 5029 5030 5011
5011 5030 5031 5012
5012 5031 5032 5013
5013 5032 5033 5014
5014 5033 5034 5015
5015 5034 5035 5016
5016 5035 5036 5017
5017 5036 5037 5018
5018 5037 5038 5019
5019 5038 5039 5020
5020 5039 5040 5021
5021 5040 5041 5022
5022 5041 436 435
164 165 5042 5023
5023 5042 5043 5024
5024 5043 5044 5025
5025 5044 5045 5026
5026 5045 5046 5027
5027 5046 5047 5028
5028 5047 5048 5029
5029 5048 5049 5030
5030 5049 5050 5031
5031 5050 5051 5032
5032 5051 5052 5033
5033 5052 5053 5034
5034 5053 5054 5035
5035 5054 5055 5036
5036 5055 5056 5037
5037 5056 5057 5038
5038 5057 5058 5039
5039 5058 5059 5040
5040 5059 5060 5041
5041 5060 437 436
165 6 242 5042
5042 242 241 5043
5043 241 240 5044
5044 240 239 5045
5045 239 238 5046
5046 238 237 5047
5047 237 236 5048
5048 236 235 5049
5049 235 234 5050
5050 234 233 5051
5051 233 232 5052
5052 232 231 5053
5053 231 230 5054
5054 230 229 5055
5055 229 228 5056
5056 228 227 5057
5057 227 226 5058
5058 226 225 5059
5059 225 224 5060
5060 224 8 437
9 323 5061 400
400 5061 5062 401
401 5062 5063 402
402 5063 5064 403
403 5064 5065 404
404 5065 5066 405
405 5066 5067 406
406 5067 5068 407
407 5068 5069 408
408 5069 5070 409
409 5070 5071 410
410 5071 5072 411
411 5072 5073 412
412 5073 5074 413
413 5074 5075 414
414 5075 5076 415
415 5076 5077 416
416 5077 5078 417
417 5078 5079 418
418 5079 185 7
323 324 5080 5061
5061 5080 5081 5062
5062 5081 5082 5063
5063 5082 5083 5064
5064 5083 5084 5065
5065 5084 5085 5066
5066 5085 5086 5067
5067 5086 5087 5068
5068 5087 5088 5069
5069 5088 5089 5070
5070 5089 5090 5071
5071 5090 5091 5072
5072 5091 5092 5073
5073 5092 5093 5074
5074 5093 5094 5075
5075 5094 5095 5076
5076 5095 5096 5077
5077 5096 5097 5078
5078 5097 5098 5079
5079 5098 186 185
324 325 5099 5080
5080 5099 5100 5081
5081 5100 5101 5082
5082 5101 5102 5083
5083 5102 5103 5084
5084 5103 5104 5085
5085 5104 5105 5086
5086 5105 5106 5087
5087 5106 5107 5088
5088 5107 5108 5089
5089 5108 5109 5090
5090 5109 5110 5091
5091 5110 5111 5092
5092 5111 5112 5093
5093 5112 5113 5094
5094 5113 5114 5095
5095 5114 5115 5096
5096 5115 5116 5097
5097 5116 5117 5098
5098 5117 187 186
325 326 5118 5099
5099 5118 5119 5100
5100 5119 5120 5101
5101 5120 5121 5102
5102 5121 5122 5103
5103 5122 5123 5104
5104 5123 5124 5105
5105 5124 5125 5106
5106 5125 5126 5107
5107 5126 5127 5108
5108 5127 5128 5109
5109 5128 5129 5110
5110 5129 5130 5111
5111 5130 5131 5112
5112 5131 5132 5113
5113 5132 5133 5114
5114 5133 5134 5115
5115 5134 5135 5116
5116 5135 5136 5117
5117 5136 188 187
326 327 5137 5118
5118 5137 5138 5119
5119 5138 5139 5120
5120 5139 5140 5121
5121 5140 5141 5122
5122 5141 5142 5123
5123 5142 5143 5124
5124 5143 5144 5125
5125 5144 5145 5126
5126 5145 5146 5127
5127 5146 5147 5128
5128 5147 5148 5129
5129 5148 5149 5130
5130 5149 5150 5131
5131 5150 5151 5132
5132 5151 5152 5133
5133 5152 5153 5134
5134 5153 5154 5135
5135 5154 5155 5136
5136 5155 189 188
327 328 5156 5137
5137 5156 5157 5138
5138 5157 5158 5139
5139 5158 5159 5140
5140 5159 5160 5141
5141 5160 5161 5142
5142 5161 5162 5143
5143 5162 5163 5144
5144 5163 5164 5145
5145 5164 5165 5146
5146 5165 5166 5147
5147 5166 5167 5148
5148 5167 5168 5149
5149 5168 5169 5150
5150 5169 5170 5151
5151 5170 5171 5152
5152 5171 5172 5153
5153 5172 5173 5154
5154 5173 5174 5155
5155 5174 190 189
328 329 5175 5156
5156 5175 5176 5157
5157 5176 5177 5158
5158 5177 5178 5159
5159 5178 5179 5160
5160 5179 5180 5161
5161 5180 5181 5162
5162 5181 5182 5163
5163 5182 5183 5164
5164 5183 5184 5165
5165 5184 5185 5166
5166 5185 5186 5167
5167 5186 5187 5168
5168 5187 5188 5169
5169 5188 5189 5170
5170 5189 5190 5171
5171 5190 5191 5172
5172 5191 5192 5173
5173 5192 5193 5174
5174 5193 191 190
329 330 5194 5175
5175 5194 5195 5176
5176 5195 5196 5177
5177 5196 5197 5178
5178 5197 5198 5179
5179 5198 5199 5180
5180 5199 5200 5181
5181 5200 5201 5182
5182 5201 5202 5183
5183 5202 5203 5184
5184 5203 5204 5185
5185 5204 5205 5186
5186 5205 5206 5187
5187 5206 5207 5188
5188 5207 5208 5189
5189 5208 5209 5190
5190 5209 5210 5191
5191 5210 5211 5192
5192 5211 5212 5193
5193 5212 192 191
330 331 5213 5194
5194 5213 5214 5195
5195 5214 5215 5196
5196 5215 5216 5197
5197 5216 5217 5198
5198 5217 5218 5199
5199 5218 5219 5200
5200 5219 5220 5201
5201 5220 5221 5202
5202 5221 5222 5203
5203 5222 5223 5204
5204 5223 5224 5205
5205 5224 5225 5206
5206 5225 5226 5207
5207 5226 5227 5208
5208 5227 5228 5209
5209 5228 5229 5210
5210 5229 5230 5211
5211 5230 5231 5212
5212 5231 193 192
331 332 5232 5213
5213 5232 5233 5214
5214 5233 5234 5215
5215 5234 5235 5216
5216 5235 5236 5217
5217 5236 5237 5218
5218 5237 5238 5219
5219 5238 5239 5220
5220 5239 5240 5221
5221 5240 5241 5222
5222 5241 5242 5223
5223 5242 5243 5224
5224 5243 5244 5225
5225 5244 5245 5226
5226 5245 5246 5227
5227 5246 5247 5228
5228 5247 5248 5229
5229 5248 5249 5230
5230 5249 5250 5231
5231 5250 194 193
332 333 5251 5232
5232 5251 5252 5233
5233 5252 5253 5234
5234 5253 5254 5235
5235 5254 5255 5236
5236 5255 5256 5237
5237 5256 5257 5238
5238 5257 5258 5239
5239 5258 5259 5240
5240 5259 5260 5241
5241 5260 5261 5242
5242 5261 5262 5243
5243 5262 5263 5244
5244 5263 5264 5245
5245 5264 5265 5246
5246 5265 5266 5247
5247 5266 5267 5248
5248 5267 5268 5249
5249 5268 5269 5250
5250 5269 195 194
333 334 5270 5251
5251 5270 5271 5252
5252 5271 5272 5253
5253 5272 5273 5254
5254 5273 5274 5255
5255 5274 5275 5256
5256 5275 5276 5257
5257 5276 5277 5258
5258 5277 5278 5259
5259 5278 5279 5260
5260 5279 5280 5261
5261 5280 5281 5262
5262 5281 5282 5263
5263 5282 5283 5264
5264 5283 5284 5265
5265 5284 5285 5266
5266 5285 5286 5267
5267 5286 5287 5268
5268 5287 5288 5269
5269 5288 196 195
334 335 5289 5270
5270 5289 5290 5271
5271 5290 5291 5272
5272 5291 5292 5273
5273 5292 5293 5274
5274 5293 5294 5275
5275 5294 5295 5276
5276 5295 5296 5277
5277 5296 5297 5278
5278 5297 5298 5279
5279 5298 5299 5280
5280 5299 5300 5281
5281 5300 5301 5282
5282 5301 5302 5283
5283 5302 5303 5284
5284 5303 5304 5285
5285 5304 5305 5286
5286 5305 5306 5287
5287 5306 5307 5288
5288 5307 197 196
335 336 5308 5289
5289 5308 5309 5290
5290 5309 5310 5291
5291 5310 5311 5292
5292 5311 5312 5293
5293 5312 5313 5294
5294 5313 5314 5295
5295 5314 5315 5296
5296 5315 5316 5297
5297 5316 5317 5298
5298 5317 5318 5299
5299 5318 5319 5300
5300 5319 5320 5301
5301 5320 5321 5302
5302 5321 5322 5303
5303 5322 5323 5304
5304 5323 5324 5305
5305 5324 5325 5306
5306 5325 5326 5307
5307 5326 198 197
336 337 5327 5308
5308 5327 5328 5309
5309 5328 5329 5310
5310 5329 5330 5311
5311 5330 5331 5312
5312 5331 5332 5313
5313 5332 5333 5314
5314 5333 5334 5315
5315 5334 5335 5316
5316 5335 5336 5317
5317 5336 5337 5318
5318 5337 5338 5319
5319 5338 5339 5320
5320 5339 5340 5321
5321 5340 5341 5322
5322 5341 5342 5323
5323 5342 5343 5324
5324 5343 5344 5325
5325 5344 5345 5326
5326 5345 199 198
337 338 5346 5327
5327 5346 5347 5328
5328 5347 5348 5329
5329 5348 5349 5330
5330 5349 5350 5331
5331 5350 5351 5332
5332 5351 5352 5333
5333 5352 5353 5334
5334 5353 5354 5335
5335 5354 5355 5336
5336 5355 5356 5337
5337 5356 5357 5338
5338 5357 5358 5339
5339 5358 5359 5340
5340 5359 5360 5341
5341 5360 5361 5342
5342 5361 5362 5343
5343 5362 5363 5344
5344 5363 5364 5345
5345 5364 200 199
338 339 5365 5346
5346 5365 5366 5347
5347 5366 5367 5348
5348 5367 5368 5349
5349 5368 5369 5350
5350 5369 5370 5351
5351 5370 5371 5352
5352 5371 5372 5353
5353 5372 5373 5354
5354 5373 5374 5355
5355 5374 5375 5356
5356 5375 5376 5357
5357 5376 5377 5358
5358 5377 5378 5359
5359 5378 5379 5360
5360 5379 5380 5361
5361 5380 5381 5362
5362 5381 5382 5363
5363 5382 5383 5364
5364 5383 201 200
339 340 5384 5365
5365 5384 5385 5366
5366 5385 5386 5367
5367 5386 5387 5368
5368 5387 5388 5369
5369 5388 5389 5370
5370 5389 5390 5371
5371 5390 5391 5372
5372 5391 5392 5373
5373 5392 5393 5374
5374 5393 5394 5375
5375 5394 5395 5376
5376 5395 5396 5377
5377 5396 5397 5378
5378 5397 5398 5379
5379 5398 5399 5380
5380 5399 5400 5381
5381 5400 5401 5382
5382 5401 5402 5383
5383 5402 202 201
340 341 5403 5384
5384 5403 5404 5385
5385 5404 5405 5386
5386 5405 5406 5387
5387 5406 5407 5388
5388 5407 5408 5389
5389 5408 5409 5390
5390 5409 5410 5391
5391 5410 5411 5392
5392 5411 5412 5393
5393 5412 5413 5394
5394 5413 5414 5395
5395 5414 5415 5396
5396 5415 5416 5397
5397 5416 5417 5398
5398 5417 5418 5399
5399 5418 5419 5400
5400 5419 5420 5401
5401 5420 5421 5402
5402 5421 203 202
341 342 5422 5403
5403 5422 5423 5404
5404 5423 5424 5405
5405 5424 5425 5406
5406 5425 5426 5407
5407 5426 5427 5408
5408 5427 5428 5409
5409 5428 5429 5410
5410 5429 5430 5411
5411 5430 5431 5412
5412 5431 5432 5413
5413 5432 5433 5414
5414 5433 5434 5415
5415 5434 5435 5416
5416 5435 5436 5417
5417 5436 5437 5418
5418 5437 5438 5419
5419 5438 5439 5420
5420 5439 5440 5421
5421 5440 204 203
342 343 5441 5422
5422 5441 5442 5423
5423 5442 5443 5424
5424 5443 5444 5425
5425 5444 5445 5426
5426 5445 5446 5427
5427 5446 5447 5428
5428 5447 5448 5429
5429 5448 5449 5430
5430 5449 5450 5431
5431 5450 5451 5432
5432 5451 5452 5433
5433 5452 5453 5434
5434 5453 5454 5435
5435 5454 5455 5436
5436 5455 5456 5437
5437 5456 5457 5438
5438 5457 5458 5439
5439 5458 5459 5440
5440 5459 205 204
343 344 5460 5441
5441 5460 5461 5442
5442 5461 5462 5443
5443 5462 5463 5444
5444 5463 5464 5445
5445 5464 5465 5446
5446 5465 5466 5447
5447 5466 5467 5448
5448 5467 5468 5449
5449 5468 5469 5450
5450 5469 5470 5451
5451 5470 5471 5452
5452 5471 5472 5453
5453 5472 5473 5454
5454 5473 5474 5455
5455 5474 5475 5456
5456 5475 5476 5457
5457 5476 5477 5458
5458 5477 5478 5459
5459 5478 206 205
344 345 5479 5460
5460 5479 5480 5461
5461 5480 5481 5462
5462 5481 5482 5463
5463 5482 5483 5464
5464 5483 5484 5465
5465 5484 5485 5466
5466 5485 5486 5467
5467 5486 5487 5468
5468 5487 5488 5469
5469 5488 5489 5470
5470 5489 5490 5471
5471 5490 5491 5472
5472 5491 5492 5473
5473 5492 5493 5474
5474 5493 5494 5475
5475 5494 5495 5476
5476 5495 5496 5477
5477 5496 5497 5478
5478 5497 207 206
345 346 5498 5479
5479 5498 5499 5480
5480 5499 5500 5481
5481 5500 5501 5482
5482 5501 5502 5483
5483 5502 5503 5484
5484 5503 5504 5485
5485 5504 5505 5486
5486 5505 5506 5487
5487 5506 5507 5488
5488 5507 5508 5489
5489 5508 5509 5490
5490 5509 5510 5491
5491 5510 5511 5492
5492 5511 5512 5493
5493 5512 5513 5494
5494 5513 5514 5495
5495 5514 5515 5496
5496 5515 5516 5497
5497 5516 208 207
346 347 5517 5498
5498 5517 5518 5499
5499 5518 5519 5500
5500 5519 5520 5501
5501 5520 5521 5502
5502 5521 5522 5503
5503 5522 5523 5504
5504 5523 5524 5505
5505 5524 5525 5506
5506 5525 5526 5507
5507 5526 5527 5508
5508 5527 5528 5509
5509 5528 5529 5510
5510 5529 5530 5511
5511 5530 5531 5512
5512 5531 5532 5513
5513 5532 5533 5514
5514 5533 5534 5515
5515 5534 5535 5516
5516 5535 209 208
347 348 5536 5517
5517 5536 5537 5518
5518 5537 5538 5519
5519 5538 5539 5520
5520 5539 5540 5521
5521 5540 5541 5522
5522 5541 5542 5523
5523 5542 5543 5524
5524 5543 5544 5525
5525 5544 5545 5526
5526 5545 5546 5527
5527 5546 5547 5528
5528 5547 5548 5529
5529 5548 5549 5530
5530 5549 5550 5531
5531 5550 5551 5532
5532 5551 5552 5533
5533 5552 5553 5534
5534 5553 5554 5535
5535 5554 210 209
348 349 5555 5536
5536 5555 5556 5537
5537 5556 5557 5538
5538 5557 5558 5539
5539 5558 5559 5540
5540 5559 5560 5541
5541 5560 5561 5542
5542 5561 5562 5543
5543 5562 5563 5544
5544 5563 5564 5545
5545 5564 5565 5546
5546 5565 5566 5547
5547 5566 5567 5548
5548 5567 5568 5549
5549 5568 5569 5550
5550 5569 5570 5551
5551 5570 5571 5552
5552 5571 5572 5553
5553 5572 5573 5554
5554 5573 211 210
349 350 5574 5555
5555 5574 5575 5556
5556 5575 5576 5557
5557 5576 5577 5558
5558 5577 5578 5559
5559 5578 5579 5560
5560 5579 5580 5561
5561 5580 5581 5562
5562 5581 5582 5563
5563 5582 5583 5564
5564 5583 5584 5565
5565 5584 5585 5566
5566 5585 5586 5567
5567 5586 5587 5568
5568 5587 5588 5569
5569 5588 5589 5570
5570 5589 5590 5571
5571 5590 5591 5572
5572 5591 5592 5573
5573 5592 212 211
350 351 5593 5574
5574 5593 5594 5575
5575 5594 5595 5576
5576 5595 5596 5577
5577 5596 5597 5578
5578 5597 5598 5579
5579 5598 5599 5580
5580 5599 5600 5581
5581 5600 5601 5582
5582 5601 5602 5583
5583 5602 5603 5584
5584 5603 5604 5585
5585 5604 5605 5586
5586 5605 5606 5587
5587 5606 5607 5588
5588 5607 5608 5589
5589 5608 5609 5590
5590 5609 5610 5591
5591 5610 5611 5592
5592 5611 213 212
351 352 5612 5593
5593 5612 5613 5594
5594 5613 5614 5595
5595 5614 5615 5596
5596 5615 5616 5597
5597 5616 5617 5598
5598 5617 5618 5599
5599 5618 5619 5600
5600 5619 5620 5601
5601 5620 5621 5602
5602 5621 5622 5603
5603 5622 5623 5604
5604 5623 5624 5605
5605 5624 5625 5606
5606 5625 5626 5607
5607 5626 5627 5608
5608 5627 5628 5609
5609 5628 5629 5610
5610 5629 5630 5611
5611 5630 214 213
352 353 5631 5612
5612 5631 5632 5613
5613 5632 5633 5614
5614 5633 5634 5615
5615 5634 5635 5616
5616 5635 5636 5617
5617 5636 5637 5618
5618 5637 5638 5619
5619 5638 5639 5620
5620 5639 5640 5621
5621 5640 5641 5622
5622 5641 5642 5623
5623 5642 5643 5624
5624 5643 5644 5625
5625 5644 5645 5626
5626 5645 5646 5627
5627 5646 5647 5628
5628 5647 5648 5629
5629 5648 5649 5630
5630 5649 215 214
353 354 5650 5631
5631 5650 5651 5632
5632 5651 5652 5633
5633 5652 5653 5634
5634 5653 5654 5635
5635 5654 5655 5636
5636 5655 5656 5637
5637 5656 5657 5638
5638 5657 5658 5639
5639 5658 5659 5640
5640 5659 5660 5641
5641 5660 5661 5642
5642 5661 5662 5643
5643 5662 5663 5644
5644 5663 5664 5645
5645 5664 5665 5646
5646 5665 5666 5647
5647 5666 5667 5648
5648 5667 5668 5649
5649 5668 216 215
354 355 5669 5650
5650 5669 5670 5651
5651 5670 5671 5652
5652 5671 5672 5653
5653 5672 5673 5654
5654 5673 5674 5655
5655 5674 5675 5656
5656 5675 5676 5657
5657 5676 5677 5658
5658 5677 5678 5659
5659 5678 5679 5660
5660 5679 5680 5661
5661 5680 5681 5662
5662 5681 5682 5663
5663 5682 5683 5664
5664 5683 5684 5665
5665 5684 5685 5666
5666 5685 5686 5667
5667 5686 5687 5668
5668 5687 217 216
355 356 5688 5669
5669 5688 5689 5670
5670 5689 5690 5671
5671 5690 5691 5672
5672 5691 5692 5673
5673 5692 5693 5674
5674 5693 5694 5675
5675 5694 5695 5676
5676 5695 5696 5677
5677 5696 5697 5678
5678 5697 5698 5679
5679 5698 5699 5680
5680 5699 5700 5681
5681 5700 5701 5682
5682 5701 5702 5683
5683 5702 5703 5684
5684 5703 5704 5685
5685 5704 5705 5686
5686 5705 5706 5687
5687 5706 218 217
356 357 5707 5688
5688 5707 5708 5689
5689 5708 5709 5690
5690 5709 5710 5691
5691 5710 5711 5692
5692 5711 5712 5693
5693 5712 5713 5694
5694 5713 5714 5695
5695 5714 5715 5696
5696 5715 5716 5697
5697 5716 5717 5698
5698 5717 5718 5699
5699 5718 5719 5700
5700 5719 5720 5701
5701 5720 5721 5702
5702 5721 5722 5703
5703 5722 5723 5704
5704 5723 5724 5705
5705 5724 5725 5706
5706 5725 219 218
357 358 5726 5707
5707 5726 5727 5708
5708 5727 5728 5709
5709 5728 5729 5710
5710 5729 5730 5711
5711 5730 5731 5712
5712 5731 5732 5713
5713 5732 5733 5714
5714 5733 5734 5715
5715 5734 5735 5716
5716 5735 5736 5717
5717 5736 5737 5718
5718 5737 5738 5719
5719 5738 5739 5720
5720 5739 5740 5721
5721 5740 5741 5722
5722 5741 5742 5723
5723 5742 5743 5724
5724 5743 5744 5725
5725 5744 220 219
358 359 5745 5726
5726 5745 5746 5727
5727 5746 5747 5728
5728 5747 5748 5729
5729 5748 5749 5730
5730 5749 5750 5731
5731 5750 5751 5732
5732 5751 5752 5733
5733 5752 5753 5734
5734 5753 5754 5735
5735 5754 5755 5736
5736 5755 5756 5737
5737 5756 5757 5738
5738 5757 5758 5739
5739 5758 5759 5740
5740 5759 5760 5741
5741 5760 5761 5742
5742 5761 5762 5743
5743 5762 5763 5744
5744 5763 221 220
359 360 5764 5745
5745 5764 5765 5746
5746 5765 5766 5747
5747 5766 5767 5748
5748 5767 5768 5749
5749 5768 5769 5750
5750 5769 5770 5751
5751 5770 5771 5752
5752 5771 5772 5753
5753 5772 5773 5754
5754 5773 5774 5755
5755 5774 5775 5756
5756 5775 5776 5757
5757 5776 5777 5758
5758 5777 5778 5759
5759 5778 5779 5760
5760 5779 5780 5761
5761 5780 5781 5762
5762 5781 5782 5763
5763 5782 222 221
360 361 5783 5764
5764 5783 5784 5765
5765 5784 5785 5766
5766 5785 5786 5767
5767 5786 5787 5768
5768 5787 5788 5769
5769 5788 5789 5770
5770 5789 5790 5771
5771 5790 5791 5772
5772 5791 5792 5773
5773 5792 5793 5774
5774 5793 5794 5775
5775 5794 5795 5776
5776 5795 5796 5777
5777 5796 5797 5778
5778 5797 5798 5779
5779 5798 5799 5780
5780 5799 5800 5781
5781 5800 5801 5782
5782 5801 223 222
361 10 419 5783
5783 419 420 5784
5784 420 421 5785
5785 421 422 5786
5786 422 423 5787
5787 423 424 5788
5788 424 425 5789
5789 425 426 5790
5790 426 427 5791
5791 427 428 5792
5792 428 429 5793
5793 429 430 5794
5794 430 431 5795
5795 431 432 5796
5796 432 433 5797
5797 433 434 5798
5798 434 435 5799
5799 435 436 5800
5800 436 437 5801
5801 437 8 223
</DataArray>
<DataArray type="Int64" Name="offsets" format="ascii">
4
8
12
16
20
24
28
32
36
40
44
48
52
56
60
64
68
72
76
80
84
88
92
96
100
104
108
112
116
120
124
128
132
136
140
144
148
152
156
160
164
168
172
176
180
184
188
192
196
200
204
208
212
216
220
224
228
232
236
240
244
248
252
256
260
264
268
272
276
280
284
288
292
296
300
304
308
312
316
320
324
328
332
336
340
344
348
352
356
360
364
368
372
376
380
384
388
392
396
400
404
408
412
416
420
424
428
432
436
440
444
448
452
456
460
464
468
472
476
480
484
488
492
496
500
504
508
512
516
520
524
528
532
536
540
544
548
552
556
560
564
568
572
576
580
584
588
592
596
600
604
608
612
616
620
624
628
632
636
640
644
648
652
656
660
664
668
672
676
680
684
688
692
696
700
704
708
712
716
720
724
728
732
736
740
744
748
752
756
760
764
768
772
776
780
784
788
792
796
800
804
808
812
816
820
824
828
832
836
840
844
848
852
856
860
864
868
872
876
880
884
888
892
896
900
904
908
912
916
920
924
928
932
936
940
944
948
952
956
960
964
968
972
976
980
984
988
992
996
1000
1004
1008
1012
1016
1020
1024
1028
1032
1036
1040
1044
1048
1052
1056
1060
1064
1068
1072
1076
1080
1084
1088
1092
1096
1100
1104
1108
1112
1116
1120
1124
1128
1132
1136
1140
1144
1148
1152
1156
1160
1164
1168
1172
1176
1180
1184
1188
1192
1196
1200
1204
1208
1212
1216
1220
1224
1228
1232
1236
1240
1244
1248
1252
1256
1260
1264
1268
1272
1276
1280
1284
1288
1292
1296
1300
1304
1308
1312
1316
1320
1324
1328
1332
1336
1340
1344
1348
1352
1356
1360
1364
1368
1372
1376
1380
1384
1388
1392
1396
1400
1404
1408
1412
1416
1420
1424
1428
1432
1436
1440
1444
1448
1452
1456
1460
1464
1468
1472
1476
1480
1484
1488
1492
1496
1500
1504
1508
1512
1516
1520
1524
1528
1532
1536
1540
1544
1548
1552
1556
1560
1564
1568
1572
1576
1580
1584
1588
1592
1596
1600
1604
1608
1612
1616
1620
1624
1628
1632
1636
1640
1644
1648
1652
1656
1660
1664
1668
1672
1676
1680
1684
1688
1692
1696
1700
1704
1708
1712
1716
1720
1724
1728
1732
1736
1740
1744
1748
1752
1756
1760
1764
1768
1772
1776
1780
1784
1788
1792
1796
1800
1804
1808
1812
1816
1820
1824
1828
1832
1836
1840
1844
1848
1852
1856
1860
1864
1868
1872
1876
1880
1884
1888
1892
1896
1900
1904
1908
1912
1916
1920
1924
1928
1932
1936
1940
1944
1948
1952
1956
1960
1964
1968
1972
1976
1980
1984
1988
1992
1996
2000
2004
2008
2012
2016
2020
2024
2028
2032
2036
2040
2044
2048
2052
2056
2060
2064
2068
2072
2076
2080
2084
2088
2092
2096
2100
2104
2108
2112
2116
2120
2124
2128
2132
2136
2140
2144
2148
2152
2156
2160
2164
2168
2172
2176
2180
2184
2188
2192
2196
2200
2204
2208
2212
2216
2220
2224
2228
2232
2236
2240
2244
2248
2252
2256
2260
2264
2268
2272
2276
2280
2284
2288
2292
2296
2300
2304
2308
2312
2316
2320
2324
2328
2332
2336
2340
2344
2348
2352
2356
2360
2364
2368
2372
2376
2380
2384
2388
2392
2396
2400
2404
2408
2412
2416
2420
2424
2428
2432
2436
2440
2444
2448
2452
2456
2460
2464
2468
2472
2476
2480
2484
2488
2492
2496
2500
2504
2508
2512
2516
2520
2524
2528
2532
2536
2540
2544
2548
2552
2556
2560
2564
2568
2572
2576
2580
2584
2588
2592
2596
2600
2604
2608
2612
2616
2620
2624
2628
2632
2636
2640
2644
2648
2652
2656
2660
2664
2668
2672
2676
2680
2684
2688
2692
2696
2700
2704
2708
2712
2716
2720
2724
2728
2732
2736
2740
2744
2748
2752
2756
2760
2764
2768
2772
2776
2780
2784
2788
2792
2796
2800
2804
2808
2812
2816
2820
2824
2828
2832
2836
2840
2844
2848
2852
2856
2860
2864
2868
2872
2876
2880
2884
2888
2892
2896
2900
2904
2908
2912
2916
2920
2924
2928
2932
2936
2940
2944
2948
2952
2956
2960
2964
2968
2972
2976
2980
2984
2988
2992
2996
3000
3004
3008
3012
3016
3020
3024
3028
3032
3036
3040
3044
3048
3052
3056
3060
3064
3068
3072
3076
3080
3084
3088
3092
3096
3100
3104
3108
3112
3116
3120
3124
3128
3132
3136
3140
3144
3148
3152
3156
3160
3164
3168
3172
3176
3180
3184
3188
3192
3196
3200
3204
3208
3212
3216
3220
3224
3228
3232
3236
3240
3244
3248
3252
3256
3260
3264
3268
3272
3276
3280
3284
3288
3292
3296
3300
3304
3308
3312
3316
3320
3324
3328
3332
3336
3340
3344
3348
3352
3356
3360
3364
3368
3372
3376
3380
3384
3388
3392
3396
3400
3404
3408
3412
3416
3420
3424
3428
3432
3436
3440
3444
3448
3452
3456
3460
3464
3468
3472
3476
3480
3484
3488
3492
3496
3500
3504
3508
3512
3516
3520
3524
3528
3532
3536
3540
3544
3548
3552
3556
3560
3564
3568
3572
3576
3580
3584
3588
3592
3596
3600
3604
3608
3612
3616
3620
3624
3628
3632
3636
3640
3644
3648
3652
3656
3660
3664
3668
3672
3676
3680
3684
3688
3692
3696
3700
3704
3708
3712
3716
3720
3724
3728
3732
3736
3740
3744
3748
3752
3756
3760
3764
3768
3772
3776
3780
3784
3788
3792
3796
3800
3804
3808
3812
3816
3820
3824
3828
3832
3836
3840
3844
3848
3852
3856
3860
3864
3868
3872
3876
3880
3884
3888
3892
3896
3900
3904
3908
3912
3916
3920
3924
3928
3932
3936
3940
3944
3948
3952
3956
3960
3964
3968
3972
3976
3980
3984
3988
3992
3996
4000
4004
4008
4012
4016
4020
4024
4028
4032
4036
4040
4044
4048
4052
4056
4060
4064
4068
4072
4076
4080
4084
4088
4092
4096
4100
4104
4108
4112
4116
4120
4124
4128
4132
4136
4140
4144
4148
4152
4156
4160
4164
4168
4172
4176
4180
4184
4188
4192
4196
4200
4204
4208
4212
4216
4220
4224
4228
4232
4236
4240
4244
4248
4252
4256
4260
4264
4268
4272
4276
4280
4284
4288
4292
4296
4300
4304
4308
4312
4316
4320
4324
4328
4332
4336
4340
4344
4348
4352
4356
4360
4364
4368
4372
4376
4380
4384
4388
4392
4396
4400
4404
4408
4412
4416
4420
4424
4428
4432
4436
4440
4444
4448
4452
4456
4460
4464
4468
4472
4476
4480
4484
4488
4492
4496
4500
4504
4508
4512
4516
4520
4524
4528
4532
4536
4540
4544
4548
4552
4556
4560
4564
4568
4572
4576
4580
4584
4588
4592
4596
4600
4604
4608
4612
4616
4620
4624
4628
4632
4636
4640
4644
4648
4652
4656
4660
4664
4668
4672
4676
4680
4684
4688
4692
4696
4700
4704
4708
4712
4716
4720
4724
4728
4732
4736
4740
4744
4748
4752
4756
4760
4764
4768
4772
4776
4780
4784
4788
4792
4796
4800
4804
4808
4812
4816
4820
4824
4828
4832
4836
4840
4844
4848
4852
4856
4860
4864
4868
4872
4876
4880
4884
4888
4892
4896
4900
4904
4908
4912
4916
4920
4924
4928
4932
4936
4940
4944
4948
4952
4956
4960
4964
4968
4972
4976
4980
4984
4988
4992
4996
5000
5004
5008
5012
5016
5020
5024
5028
5032
5036
5040
5044
5048
5052
5056
5060
5064
5068
5072
5076
5080
5084
5088
5092
5096
5100
5104
5108
5112
5116
5120
5124
5128
5132
5136
5140
5144
5148
5152
5156
5160
5164
5168
5172
5176
5180
5184
5188
5192
5196
5200
5204
5208
5212
5216
5220
5224
5228
5232
5236
5240
5244
5248
5252
5256
5260
5264
5268
5272
5276
5280
5284
5288
5292
5296
5300
5304
5308
5312
5316
5320
5324
5328
5332
5336
5340
5344
5348
5352
5356
5360
5364
5368
5372
5376
5380
5384
5388
5392
5396
5400
5404
5408
5412
5416
5420
5424
5428
5432
5436
5440
5444
5448
5452
5456
5460
5464
5468
5472
5476
5480
5484
5488
5492
5496
5500
5504
5508
5512
5516
5520
5524
5528
5532
5536
5540
5544
5548
5552
5556
5560
5564
5568
5572
5576
5580
5584
5588
5592
5596
5600
5604
5608
5612
5616
5620
5624
5628
5632
5636
5640
5644
5648
5652
5656
5660
5664
5668
5672
5676
5680
5684
5688
5692
5696
5700
5704
5708
5712
5716
5720
5724
5728
5732
5736
5740
5744
5748
5752
5756
5760
5764
5768
5772
5776
5780
5784
5788
5792
5796
5800
5804
5808
5812
5816
5820
5824
5828
5832
5836
5840
5844
5848
5852
5856
5860
5864
5868
5872
5876
5880
5884
5888
5892
5896
5900
5904
5908
5912
5916
5920
5924
5928
5932
5936
5940
5944
5948
5952
5956
5960
5964
5968
5972
5976
5980
5984
5988
5992
5996
6000
6004
6008
6012
6016
6020
6024
6028
6032
6036
6040
6044
6048
6052
6056
6060
6064
6068
6072
6076
6080
6084
6088
6092
6096
6100
6104
6108
6112
6116
6120
6124
6128
6132
6136
6140
6144
6148
6152
6156
6160
6164
6168
6172
6176
6180
6184
6188
6192
6196
6200
6204
6208
6212
6216
6220
6224
6228
6232
6236
6240
6244
6248
6252
6256
6260
6264
6268
6272
6276
6280
6284
6288
6292
6296
6300
6304
6308
6312
6316
6320
6324
6328
6332
6336
6340
6344
6348
6352
6356
6360
6364
6368
6372
6376
6380
6384
6388
6392
6396
6400
6404
6408
6412
6416
6420
6424
6428
6432
6436
6440
6444
6448
6452
6456
6460
6464
6468
6472
6476
6480
6484
6488
6492
6496
6500
6504
6508
6512
6516
6520
6524
6528
6532
6536
6540
6544
6548
6552
6556
6560
6564
6568
6572
6576
6580
6584
6588
6592
6596
6600
6604
6608
6612
6616
6620
6624
6628
6632
6636
6640
6644
6648
6652
6656
6660
6664
6668
6672
6676
6680
6684
6688
6692
6696
6700
6704
6708
6712
6716
6720
6724
6728
6732
6736
6740
6744
6748
6752
6756
6760
6764
6768
6772
6776
6780
6784
6788
6792
6796
6800
6804
6808
6812
6816
6820
6824
6828
6832
6836
6840
6844
6848
6852
6856
6860
6864
6868
6872
6876
6880
6884
6888
6892
6896
6900
6904
6908
6912
6916
6920
6924
6928
6932
6936
6940
6944
6948
6952
6956
6960
6964
6968
6972
6976
6980
6984
6988
6992
6996
7000
7004
7008
7012
7016
7020
7024
7028
7032
7036
7040
7044
7048
7052
7056
7060
7064
7068
7072
7076
7080
7084
7088
7092
7096
7100
7104
7108
7112
7116
7120
7124
7128
7132
7136
7140
7144
7148
7152
7156
7160
7164
7168
7172
7176
7180
7184
7188
7192
7196
7200
7204
7208
7212
7216
7220
7224
7228
7232
7236
7240
7244
7248
7252
7256
7260
7264
7268
7272
7276
7280
7284
7288
7292
7296
7300
7304
7308
7312
7316
7320
7324
7328
7332
7336
7340
7344
7348
7352
7356
7360
7364
7368
7372
7376
7380
7384
7388
7392
7396
7400
7404
7408
7412
7416
7420
7424
7428
7432
7436
7440
7444
7448
7452
7456
7460
7464
7468
7472
7476
7480
7484
7488
7492
7496
7500
7504
7508
7512
7516
7520
7524
7528
7532
7536
7540
7544
7548
7552
7556
7560
7564
7568
7572
7576
7580
7584
7588
7592
7596
7600
7604
7608
7612
7616
7620
7624
7628
7632
7636
7640
7644
7648
7652
7656
7660
7664
7668
7672
7676
7680
7684
7688
7692
7696
7700
7704
7708
7712
7716
7720
7724
7728
7732
7736
7740
7744
7748
7752
7756
7760
7764
7768
7772
7776
7780
7784
7788
7792
7796
7800
7804
7808
7812
7816
7820
7824
7828
7832
7836
7840
7844
7848
7852
7856
7860
7864
7868
7872
7876
7880
7884
7888
7892
7896
7900
7904
7908
7912
7916
7920
7924
7928
7932
7936
7940
7944
7948
7952
7956
7960
7964
7968
7972
7976
7980
7984
7988
7992
7996
8000
8004
8008
8012
8016
8020
8024
8028
8032
8036
8040
8044
8048
8052
8056
8060
8064
8068
8072
8076
8080
8084
8088
8092
8096
8100
8104
8108
8112
8116
8120
8124
8128
8132
8136
8140
8144
8148
8152
8156
8160
8164
8168
8172
8176
8180
8184
8188
8192
8196
8200
8204
8208
8212
8216
8220
8224
8228
8232
8236
8240
8244
8248
8252
8256
8260
8264
8268
8272
8276
8280
8284
8288
8292
8296
8300
8304
8308
8312
8316
8320
8324
8328
8332
8336
8340
8344
8348
8352
8356
8360
8364
8368
8372
8376
8380
8384
8388
8392
8396
8400
8404
8408
8412
8416
8420
8424
8428
8432
8436
8440
8444
8448
8452
8456
8460
8464
8468
8472
8476
8480
8484
8488
8492
8496
8500
8504
8508
8512
8516
8520
8524
8528
8532
8536
8540
8544
8548
8552
8556
8560
8564
8568
8572
8576
8580
8584
8588
8592
8596
8600
8604
8608
8612
8616
8620
8624
8628
8632
8636
8640
8644
8648
8652
8656
8660
8664
8668
8672
8676
8680
8684
8688
8692
8696
8700
8704
8708
8712
8716
8720
8724
8728
8732
8736
8740
8744
8748
8752
8756
8760
8764
8768
8772
8776
8780
8784
8788
8792
8796
8800
8804
8808
8812
8816
8820
8824
8828
8832
8836
8840
8844
8848
8852
8856
8860
8864
8868
8872
8876
8880
8884
8888
8892
8896
8900
8904
8908
8912
8916
8920
8924
8928
8932
8936
8940
8944
8948
8952
8956
8960
8964
8968
8972
8976
8980
8984
8988
8992
8996
9000
9004
9008
9012
9016
9020
9024
9028
9032
9036
9040
9044
9048
9052
9056
9060
9064
9068
9072
9076
9080
9084
9088
9092
9096
9100
9104
9108
9112
9116
9120
9124
9128
9132
9136
9140
9144
9148
9152
9156
9160
9164
9168
9172
9176
9180
9184
9188
9192
9196
9200
9204
9208
9212
9216
9220
9224
9228
9232
9236
9240
9244
9248
9252
9256
9260
9264
9268
9272
9276
9280
9284
9288
9292
9296
9300
9304
9308
9312
9316
9320
9324
9328
9332
9336
9340
9344
9348
9352
9356
9360
9364
9368
9372
9376
9380
9384
9388
9392
9396
9400
9404
9408
9412
9416
9420
9424
9428
9432
9436
9440
9444
9448
9452
9456
9460
9464
9468
9472
9476
9480
9484
9488
9492
9496
9500
9504
9508
9512
9516
9520
9524
9528
9532
9536
9540
9544
9548
9552
9556
9560
9564
9568
9572
9576
9580
9584
9588
9592
9596
9600
9604
9608
9612
9616
9620
9624
9628
9632
9636
9640
9644
9648
9652
9656
9660
9664
9668
9672
9676
9680
9684
9688
9692
9696
9700
9704
9708
9712
9716
9720
9724
9728
9732
9736
9740
9744
9748
9752
9756
9760
9764
9768
9772
9776
9780
9784
9788
9792
9796
9800
9804
9808
9812
9816
9820
9824
9828
9832
9836
9840
9844
9848
9852
9856
9860
9864
9868
9872
9876
9880
9884
9888
9892
9896
9900
9904
9908
9912
9916
9920
9924
9928
9932
9936
9940
9944
9948
9952
9956
9960
9964
9968
9972
9976
9980
9984
9988
9992
9996
10000
10004
10008
10012
10016
10020
10024
10028
10032
10036
10040
10044
10048
10052
10056
10060
10064
10068
10072
10076
10080
10084
10088
10092
10096
10100
10104
10108
10112
10116
10120
10124
10128
10132
10136
10140
10144
10148
10152
10156
10160
10164
10168
10172
10176
10180
10184
10188
10192
10196
10200
10204
10208
10212
10216
10220
10224
10228
10232
10236
10240
10244
10248
10252
10256
10260
10264
10268
10272
10276
10280
10284
10288
10292
10296
10300
10304
10308
10312
10316
10320
10324
10328
10332
10336
10340
10344
10348
10352
10356
10360
10364
10368
10372
10376
10380
10384
10388
10392
10396
10400
10404
10408
10412
10416
10420
10424
10428
10432
10436
10440
10444
10448
10452
10456
10460
10464
10468
10472
10476
10480
10484
10488
10492
10496
10500
10504
10508
10512
10516
10520
10524
10528
10532
10536
10540
10544
10548
10552
10556
10560
10564
10568
10572
10576
10580
10584
10588
10592
10596
10600
10604
10608
10612
10616
10620
10624
10628
10632
10636
10640
10644
10648
10652
10656
10660
10664
10668
10672
10676
10680
10684
10688
10692
10696
10700
10704
10708
10712
10716
10720
10724
10728
10732
10736
10740
10744
10748
10752
10756
10760
10764
10768
10772
10776
10780
10784
10788
10792
10796
10800
10804
10808
10812
10816
10820
10824
10828
10832
10836
10840
10844
10848
10852
10856
10860
10864
10868
10872
10876
10880
10884
10888
10892
10896
10900
10904
10908
10912
10916
10920
10924
10928
10932
10936
10940
10944
10948
10952
10956
10960
10964
10968
10972
10976
10980
10984
10988
10992
10996
11000
11004
11008
11012
11016
11020
11024
11028
11032
11036
11040
11044
11048
11052
11056
11060
11064
11068
11072
11076
11080
11084
11088
11092
11096
11100
11104
11108
11112
11116
11120
11124
11128
11132
11136
11140
11144
11148
11152
11156
11160
11164
11168
11172
11176
11180
11184
11188
11192
11196
11200
11204
11208
11212
11216
11220
11224
11228
11232
11236
11240
11244
11248
11252
11256
11260
11264
11268
11272
11276
11280
11284
11288
11292
11296
11300
11304
11308
11312
11316
11320
11324
11328
11332
11336
11340
11344
11348
11352
11356
11360
11364
11368
11372
11376
11380
11384
11388
11392
11396
11400
11404
11408
11412
11416
11420
11424
11428
11432
11436
11440
11444
11448
11452
11456
11460
11464
11468
11472
11476
11480
11484
11488
11492
11496
11500
11504
11508
11512
11516
11520
11524
11528
11532
11536
11540
11544
11548
11552
11556
11560
11564
11568
11572
11576
11580
11584
11588
11592
11596
11600
11604
11608
11612
11616
11620
11624
11628
11632
11636
11640
11644
11648
11652
11656
11660
11664
11668
11672
11676
11680
11684
11688
11692
11696
11700
11704
11708
11712
11716
11720
11724
11728
11732
11736
11740
11744
11748
11752
11756
11760
11764
11768
11772
11776
11780
11784
11788
11792
11796
11800
11804
11808
11812
11816
11820
11824
11828
11832
11836
11840
11844
11848
11852
11856
11860
11864
11868
11872
11876
11880
11884
11888
11892
11896
11900
11904
11908
11912
11916
11920
11924
11928
11932
11936
11940
11944
11948
11952
11956
11960
11964
11968
11972
11976
11980
11984
11988
11992
11996
12000
12004
12008
12012
12016
12020
12024
12028
12032
12036
12040
12044
12048
12052
12056
12060
12064
12068
12072
12076
12080
12084
12088
12092
12096
12100
12104
12108
12112
12116
12120
12124
12128
12132
12136
12140
12144
12148
12152
12156
12160
12164
12168
12172
12176
12180
12184
12188
12192
12196
12200
12204
12208
12212
12216
12220
12224
12228
12232
12236
12240
12244
12248
12252
12256
12260
12264
12268
12272
12276
12280
12284
12288
12292
12296
12300
12304
12308
12312
12316
12320
12324
12328
12332
12336
12340
12344
12348
12352
12356
12360
12364
12368
12372
12376
12380
12384
12388
12392
12396
12400
12404
12408
12412
12416
12420
12424
12428
12432
12436
12440
12444
12448
12452
12456
12460
12464
12468
12472
12476
12480
12484
12488
12492
12496
12500
12504
12508
12512
12516
12520
12524
12528
12532
12536
12540
12544
12548
12552
12556
12560
12564
12568
12572
12576
12580
12584
12588
12592
12596
12600
12604
12608
12612
12616
12620
12624
12628
12632
12636
12640
12644
12648
12652
12656
12660
12664
12668
12672
12676
12680
12684
12688
12692
12696
12700
12704
12708
12712
12716
12720
12724
12728
12732
12736
12740
12744
12748
12752
12756
12760
12764
12768
12772
12776
12780
12784
12788
12792
12796
12800
12804
12808
12812
12816
12820
12824
12828
12832
12836
12840
12844
12848
12852
12856
12860
12864
12868
12872
12876
12880
12884
12888
12892
12896
12900
12904
12908
12912
12916
12920
12924
12928
12932
12936
12940
12944
12948
12952
12956
12960
12964
12968
12972
12976
12980
12984
12988
12992
12996
13000
13004
13008
13012
13016
13020
13024
13028
13032
13036
13040
13044
13048
13052
13056
13060
13064
13068
13072
13076
13080
13084
13088
13092
13096
13100
13104
13108
13112
13116
13120
13124
13128
13132
13136
13140
13144
13148
13152
13156
13160
13164
13168
13172
13176
13180
13184
13188
13192
13196
13200
13204
13208
13212
13216
13220
13224
13228
13232
13236
13240
13244
13248
13252
13256
13260
13264
13268
13272
13276
13280
13284
13288
13292
13296
13300
13304
13308
13312
13316
13320
13324
13328
13332
13336
13340
13344
13348
13352
13356
13360
13364
13368
13372
13376
13380
13384
13388
13392
13396
13400
13404
13408
13412
13416
13420
13424
13428
13432
13436
13440
13444
13448
13452
13456
13460
13464
13468
13472
13476
13480
13484
13488
13492
13496
13500
13504
13508
13512
13516
13520
13524
13528
13532
13536
13540
13544
13548
13552
13556
13560
13564
13568
13572
13576
13580
13584
13588
13592
13596
13600
13604
13608
13612
13616
13620
13624
13628
13632
13636
13640
13644
13648
13652
13656
13660
13664
13668
13672
13676
13680
13684
13688
13692
13696
13700
13704
13708
13712
13716
13720
13724
13728
13732
13736
13740
13744
13748
13752
13756
13760
13764
13768
13772
13776
13780
13784
13788
13792
13796
13800
13804
13808
13812
13816
13820
13824
13828
13832
13836
13840
13844
13848
13852
13856
13860
13864
13868
13872
13876
13880
13884
13888
13892
13896
13900
13904
13908
13912
13916
13920
13924
13928
13932
13936
13940
13944
13948
13952
13956
13960
13964
13968
13972
13976
13980
13984
13988
13992
13996
14000
14004
14008
14012
14016
14020
14024
14028
14032
14036
14040
14044
14048
14052
14056
14060
14064
14068
14072
14076
14080
14084
14088
14092
14096
14100
14104
14108
14112
14116
14120
14124
14128
14132
14136
14140
14144
14148
14152
14156
14160
14164
14168
14172
14176
14180
14184
14188
14192
14196
14200
14204
14208
14212
14216
14220
14224
14228
14232
14236
14240
14244
14248
14252
14256
14260
14264
14268
14272
14276
14280
14284
14288
14292
14296
14300
14304
14308
14312
14316
14320
14324
14328
14332
14336
14340
14344
14348
14352
14356
14360
14364
14368
14372
14376
14380
14384
14388
14392
14396
14400
14404
14408
14412
14416
14420
14424
14428
14432
14436
14440
14444
14448
14452
14456
14460
14464
14468
14472
14476
14480
14484
14488
14492
14496
14500
14504
14508
14512
14516
14520
14524
14528
14532
14536
14540
14544
14548
14552
14556
14560
14564
14568
14572
14576
14580
14584
14588
14592
14596
14600
14604
14608
14612
14616
14620
14624
14628
14632
14636
14640
14644
14648
14652
14656
14660
14664
14668
14672
14676
14680
14684
14688
14692
14696
14700
14704
14708
14712
14716
14720
14724
14728
14732
14736
14740
14744
14748
14752
14756
14760
14764
14768
14772
14776
14780
14784
14788
14792
14796
14800
14804
14808
14812
14816
14820
14824
14828
14832
14836
14840
14844
14848
14852
14856
14860
14864
14868
14872
14876
14880
14884
14888
14892
14896
14900
14904
14908
14912
14916
14920
14924
14928
14932
14936
14940
14944
14948
14952
14956
14960
14964
14968
14972
14976
14980
14984
14988
14992
14996
15000
15004
15008
15012
15016
15020
15024
15028
15032
15036
15040
15044
15048
15052
15056
15060
15064
15068
15072
15076
15080
15084
15088
15092
15096
15100
15104
15108
15112
15116
15120
15124
15128
15132
15136
15140
15144
15148
15152
15156
15160
15164
15168
15172
15176
15180
15184
15188
15192
15196
15200
15204
15208
15212
15216
15220
15224
15228
15232
15236
15240
15244
15248
15252
15256
15260
15264
15268
15272
15276
15280
15284
15288
15292
15296
15300
15304
15308
15312
15316
15320
15324
15328
15332
15336
15340
15344
15348
15352
15356
15360
15364
15368
15372
15376
15380
15384
15388
15392
15396
15400
15404
15408
15412
15416
15420
15424
15428
15432
15436
15440
15444
15448
15452
15456
15460
15464
15468
15472
15476
15480
15484
15488
15492
15496
15500
15504
15508
15512
15516
15520
15524
15528
15532
15536
15540
15544
15548
15552
15556
15560
15564
15568
15572
15576
15580
15584
15588
15592
15596
15600
15604
15608
15612
15616
15620
15624
15628
15632
15636
15640
15644
15648
15652
15656
15660
15664
15668
15672
15676
15680
15684
15688
15692
15696
15700
15704
15708
15712
15716
15720
15724
15728
15732
15736
15740
15744
15748
15752
15756
15760
15764
15768
15772
15776
15780
15784
15788
15792
15796
15800
15804
15808
15812
15816
15820
15824
15828
15832
15836
15840
15844
15848
15852
15856
15860
15864
15868
15872
15876
15880
15884
15888
15892
15896
15900
15904
15908
15912
15916
15920
15924
15928
15932
15936
15940
15944
15948
15952
15956
15960
15964
15968
15972
15976
15980
15984
15988
15992
15996
16000
16004
16008
16012
16016
16020
16024
16028
16032
16036
16040
16044
16048
16052
16056
16060
16064
16068
16072
16076
16080
16084
16088
16092
16096
16100
16104
16108
16112
16116
16120
16124
16128
16132
16136
16140
16144
16148
16152
16156
16160
16164
16168
16172
16176
16180
16184
16188
16192
16196
16200
16204
16208
16212
16216
16220
16224
16228
16232
16236
16240
16244
16248
16252
16256
16260
16264
16268
16272
16276
16280
16284
16288
16292
16296
16300
16304
16308
16312
16316
16320
16324
16328
16332
16336
16340
16344
16348
16352
16356
16360
16364
16368
16372
16376
16380
16384
16388
16392
16396
16400
16404
16408
16412
16416
16420
16424
16428
16432
16436
16440
16444
16448
16452
16456
16460
16464
16468
16472
16476
16480
16484
16488
16492
16496
16500
16504
16508
16512
16516
16520
16524
16528
16532
16536
16540
16544
16548
16552
16556
16560
16564
16568
16572
16576
16580
16584
16588
16592
16596
16600
16604
16608
16612
16616
16620
16624
16628
16632
16636
16640
16644
16648
16652
16656
16660
16664
16668
16672
16676
16680
16684
16688
16692
16696
16700
16704
16708
16712
16716
16720
16724
16728
16732
16736
16740
16744
16748
16752
16756
16760
16764
16768
16772
16776
16780
16784
16788
16792
16796
16800
16804
16808
16812
16816
16820
16824
16828
16832
16836
16840
16844
16848
16852
16856
16860
16864
16868
16872
16876
16880
16884
16888
16892
16896
16900
16904
16908
16912
16916
16920
16924
16928
16932
16936
16940
16944
16948
16952
16956
16960
16964
16968
16972
16976
16980
16984
16988
16992
16996
17000
17004
17008
17012
17016
17020
17024
17028
17032
17036
17040
17044
17048
17052
17056
17060
17064
17068
17072
17076
17080
17084
17088
17092
17096
17100
17104
17108
17112
17116
17120
17124
17128
17132
17136
17140
17144
17148
17152
17156
17160
17164
17168
17172
17176
17180
17184
17188
17192
17196
17200
17204
17208
17212
17216
17220
17224
17228
17232
17236
17240
17244
17248
17252
17256
17260
17264
17268
17272
17276
17280
17284
17288
17292
17296
17300
17304
17308
17312
17316
17320
17324
17328
17332
17336
17340
17344
17348
17352
17356
17360
17364
17368
17372
17376
17380
17384
17388
17392
17396
17400
17404
17408
17412
17416
17420
17424
17428
17432
17436
17440
17444
17448
17452
17456
17460
17464
17468
17472
17476
17480
17484
17488
17492
17496
17500
17504
17508
17512
17516
17520
17524
17528
17532
17536
17540
17544
17548
17552
17556
17560
17564
17568
17572
17576
17580
17584
17588
17592
17596
17600
17604
17608
17612
17616
17620
17624
17628
17632
17636
17640
17644
17648
17652
17656
17660
17664
17668
17672
17676
17680
17684
17688
17692
17696
17700
17704
17708
17712
17716
17720
17724
17728
17732
17736
17740
17744
17748
17752
17756
17760
17764
17768
17772
17776
17780
17784
17788
17792
17796
17800
17804
17808
17812
17816
17820
17824
17828
17832
17836
17840
17844
17848
17852
17856
17860
17864
17868
17872
17876
17880
17884
17888
17892
17896
17900
17904
17908
17912
17916
17920
17924
17928
17932
17936
17940
17944
17948
17952
17956
17960
17964
17968
17972
17976
17980
17984
17988
17992
17996
18000
18004
18008
18012
18016
18020
18024
18028
18032
18036
18040
18044
18048
18052
18056
18060
18064
18068
18072
18076
18080
18084
18088
18092
18096
18100
18104
18108
18112
18116
18120
18124
18128
18132
18136
18140
18144
18148
18152
18156
18160
18164
18168
18172
18176
18180
18184
18188
18192
18196
18200
18204
18208
18212
18216
18220
18224
18228
18232
18236
18240
18244
18248
18252
18256
18260
18264
18268
18272
18276
18280
18284
18288
18292
18296
18300
18304
18308
18312
18316
18320
18324
18328
18332
18336
18340
18344
18348
18352
18356
18360
18364
18368
18372
18376
18380
18384
18388
18392
18396
18400
18404
18408
18412
18416
18420
18424
18428
18432
18436
18440
18444
18448
18452
18456
18460
18464
18468
18472
18476
18480
18484
18488
18492
18496
18500
18504
18508
18512
18516
18520
18524
18528
18532
18536
18540
18544
18548
18552
18556
18560
18564
18568
18572
18576
18580
18584
18588
18592
18596
18600
18604
18608
18612
18616
18620
18624
18628
18632
18636
18640
18644
18648
18652
18656
18660
18664
18668
18672
18676
18680
18684
18688
18692
18696
18700
18704
18708
18712
18716
18720
18724
18728
18732
18736
18740
18744
18748
18752
18756
18760
18764
18768
18772
18776
18780
18784
18788
18792
18796
18800
18804
18808
18812
18816
18820
18824
18828
18832
18836
18840
18844
18848
18852
18856
18860
18864
18868
18872
18876
18880
18884
18888
18892
18896
18900
18904
18908
18912
18916
18920
18924
18928
18932
18936
18940
18944
18948
18952
18956
18960
18964
18968
18972
18976
18980
18984
18988
18992
18996
19000
19004
19008
19012
19016
19020
19024
19028
19032
19036
19040
19044
19048
19052
19056
19060
19064
19068
19072
19076
19080
19084
19088
19092
19096
19100
19104
19108
19112
19116
19120
19124
19128
19132
19136
19140
19144
19148
19152
19156
19160
19164
19168
19172
19176
19180
19184
19188
19192
19196
19200
19204
19208
19212
19216
19220
19224
19228
19232
19236
19240
19244
19248
19252
19256
19260
19264
19268
19272
19276
19280
19284
19288
19292
19296
19300
19304
19308
19312
19316
19320
19324
19328
19332
19336
19340
19344
19348
19352
19356
19360
19364
19368
19372
19376
19380
19384
19388
19392
19396
19400
19404
19408
19412
19416
19420
19424
19428
19432
19436
19440
19444
19448
19452
19456
19460
19464
19468
19472
19476
19480
19484
19488
19492
19496
19500
19504
19508
19512
19516
19520
19524
19528
19532
19536
19540
19544
19548
19552
19556
19560
19564
19568
19572
19576
19580
19584
19588
19592
19596
19600
19604
19608
19612
19616
19620
19624
19628
19632
19636
19640
19644
19648
19652
19656
19660
19664
19668
19672
19676
19680
19684
19688
19692
19696
19700
19704
19708
19712
19716
19720
19724
19728
19732
19736
19740
19744
19748
19752
19756
19760
19764
19768
19772
19776
19780
19784
19788
19792
19796
19800
19804
19808
19812
19816
19820
19824
19828
19832
19836
19840
19844
19848
19852
19856
19860
19864
19868
19872
19876
19880
19884
19888
19892
19896
19900
19904
19908
19912
19916
19920
19924
19928
19932
19936
19940
19944
19948
19952
19956
19960
19964
19968
19972
19976
19980
19984
19988
19992
19996
20000
20004
20008
20012
20016
20020
20024
20028
20032
20036
20040
20044
20048
20052
20056
20060
20064
20068
20072
20076
20080
20084
20088
20092
20096
20100
20104
20108
20112
20116
20120
20124
20128
20132
20136
20140
20144
20148
20152
20156
20160
20164
20168
20172
20176
20180
20184
20188
20192
20196
20200
20204
20208
20212
20216
20220
20224
20228
20232
20236
20240
20244
20248
20252
20256
20260
20264
20268
20272
20276
20280
20284
20288
20292
20296
20300
20304
20308
20312
20316
20320
20324
20328
20332
20336
20340
20344
20348
20352
20356
20360
20364
20368
20372
20376
20380
20384
20388
20392
20396
20400
20404
20408
20412
20416
20420
20424
20428
20432
20436
20440
20444
20448
20452
20456
20460
20464
20468
20472
20476
20480
20484
20488
20492
20496
20500
20504
20508
20512
20516
20520
20524
20528
20532
20536
20540
20544
20548
20552
20556
20560
20564
20568
20572
20576
20580
20584
20588
20592
20596
20600
20604
20608
20612
20616
20620
20624
20628
20632
20636
20640
20644
20648
20652
20656
20660
20664
20668
20672
20676
20680
20684
20688
20692
20696
20700
20704
20708
20712
20716
20720
20724
20728
20732
20736
20740
20744
20748
20752
20756
20760
20764
20768
20772
20776
20780
20784
20788
20792
20796
20800
20804
20808
20812
20816
20820
20824
20828
20832
20836
20840
20844
20848
20852
20856
20860
20864
20868
20872
20876
20880
20884
20888
20892
20896
20900
20904
20908
20912
20916
20920
20924
20928
20932
20936
20940
20944
20948
20952
20956
20960
20964
20968
20972
20976
20980
20984
20988
20992
20996
21000
21004
21008
21012
21016
21020
21024
21028
21032
21036
21040
21044
21048
21052
21056
21060
21064
21068
21072
21076
21080
21084
21088
21092
21096
21100
21104
21108
21112
21116
21120
21124
21128
21132
21136
21140
21144
21148
21152
21156
21160
21164
21168
21172
21176
21180
21184
21188
21192
21196
21200
21204
21208
21212
21216
21220
21224
21228
21232
21236
21240
21244
21248
21252
21256
21260
21264
21268
21272
21276
21280
21284
21288
21292
21296
21300
21304
21308
21312
21316
21320
21324
21328
21332
21336
21340
21344
21348
21352
21356
21360
21364
21368
21372
21376
21380
21384
21388
21392
21396
21400
21404
21408
21412
21416
21420
21424
21428
21432
21436
21440
21444
21448
21452
21456
21460
21464
21468
21472
21476
21480
21484
21488
21492
21496
21500
21504
21508
21512
21516
21520
21524
21528
21532
21536
21540
21544
21548
21552
21556
21560
21564
21568
21572
21576
21580
21584
21588
21592
21596
21600
21604
21608
21612
21616
21620
21624
21628
21632
21636
21640
21644
21648
21652
21656
21660
21664
21668
21672
21676
21680
21684
21688
21692
21696
21700
21704
21708
21712
21716
21720
21724
21728
21732
21736
21740
21744
21748
21752
21756
21760
21764
21768
21772
21776
21780
21784
21788
21792
21796
21800
21804
21808
21812
21816
21820
21824
21828
21832
21836
21840
21844
21848
21852
21856
21860
21864
21868
21872
21876
21880
21884
21888
21892
21896
21900
21904
21908
21912
21916
21920
21924
21928
21932
21936
21940
21944
21948
21952
21956
21960
21964
21968
21972
21976
21980
21984
21988
21992
21996
22000
22004
22008
22012
22016
22020
22024
22028
22032
22036
22040
22044
22048
22052
22056
22060
22064
22068
22072
22076
22080
22084
22088
22092
22096
22100
22104
22108
22112
22116
22120
22124
22128
22132
22136
22140
22144
22148
22152
22156
22160
22164
22168
22172
22176
22180
22184
22188
22192
22196
22200
22204
22208
22212
22216
22220
22224
22228
22232
22236
22240
22244
22248
22252
22256
22260
22264
22268
22272
22276
22280
22284
22288
22292
22296
22300
22304
22308
22312
22316
22320
22324
22328
22332
22336
22340
22344
22348
22352
22356
22360
22364
22368
22372
22376
22380
22384
22388
22392
22396
22400
22404
22408
22412
22416
22420
22424
22428
22432
22436
22440
22444
22448
22452
22456
22460
22464
22468
22472
22476
22480
22484
22488
22492
22496
22500
22504
22508
22512
22516
22520
22524
22528
22532
22536
22540
22544
22548
22552
22556
22560
22564
22568
22572
22576
22580
22584
22588
22592
22596
22600
22604
22608
22612
22616
22620
22624
22628
22632
22636
22640
22644
22648
22652
22656
22660
22664
22668
22672
22676
22680
22684
22688
22692
22696
22700
22704
22708
22712
22716
22720
</DataArray>
<DataArray type="Int64" Name="types" format="ascii">
9
9
9
9
9
9
9
9
9
9
9
9
9
9
9
9
9
9
9
9
9
9
9
9
9
9
9
9
9
9
9
9
9
9
9
9
9
9
9
9
9
9
9
9
9
9
9
9
9
9
9
9
9
9
9
9
9
9
9
9
9
9
9
9
9
9
9
9
9
9
9
9
9
9
9
9
9
9
9
9
9
9
9
9
9
9
9
9
9
9
9
9
9
9
9
9
9
9
9
9
9
9
9
9
9
9
9
9
9
9
9
9
9
9
9
9
9
9
9
9
9
9
9
9
9
9
9
9
9
9
9
9
9
9
9
9
9
9
9
9
9
9
9
9
9
9
9
9
9
9
9
9
9
9
9
9
9
9
9
9
9
9
9
9
9
9
9
9
9
9
9
9
9
9
9
9
9
9
9
9
9
9
9
9
9
9
9
9
9
9
9
9
9
9
9
9
9
9
9
9
9
9
9
9
9
9
9
9
9
9
9
9
9
9
9
9
9
9
9
9
9
9
9
9
9
9
9
9
9
9
9
9
9
9
9
9
9
9
9
9
9
9
9
9
9
9
9
9
9
9
9
9
9
9
9
9
9
9
9
9
9
9
9
9
9
9
9
9
9
9
9
9
9
9
9
9
9
9
9
9
9
9
9
9
9
9
9
9
9
9
9
9
9
9
9
9
9
9
9
9
9
9
9
9
9
9
9
9
9
9
9
9
9
9
9
9
9
9
9
9
9
9
9
9
9
9
9
9
9
9
9
9
9
9
9
9
9
9
9
9
9
9
9
9
9
9
9
9
9
9
9
9
9
9
9
9
9
9
9
9
9
9
9
9
9
9
9
9
9
9
9
9
9
9
9
9
9
9
9
9
9
9
9
9
9
9
9
9
9
9
9
9
9
9
9
9
9
9
9
9
9
9
9
9
9
9
9
9
9
9
9
9
9
9
9
9
9
9
9
9
9
9
9
9
9
9
9
9
9
9
9
9
9
9
9
9
9
9
9
9
9
9
9
9
9
9
9
9
9
9
9
9
9
9
9
9
9
9
9
9
9
9
9
9
9
9
9
9
9
9
9
9
9
9
9
9
9
9
9
9
9
9
9
9
9
9
9
9
9
9
9
9
9
9
9
9
9
9
9
9
9
9
9
9
9
9
9
9
9
9
9
9
9
9
9
9
9
9
9
9
9
9
9
9
9
9
9
9
9
9
9
9
9
9
9
9
9
9
9
9
9
9
9
9
9
9
9
9
9
9
9
9
9
9
9
9
9
9
9
9
9
9
9
9
9
9
9
9
9
9
9
9
9
9
9
9
9
9
9
9
9
9
9
9
9
9
9
9
9
9
9
9
9
9
9
9
9
9
9
9
9
9
9
9
9
9
9
9
9
9
9
9
9
9
9
9
9
9
9
9
9
9
9
9
9
9
9
9
9
9
9
9
9
9
9
9
9
9
9
9
9
9
9
9
9
9
9
9
9
9
9
9
9
9
9
9
9
9
9
9
9
9
9
9
9
9
9
9
9
9
9
9
9
9
9
9
9
9
9
9
9
9
9
9
9
9
9
9
9
9
9
9
9
9
9
9
9
9
9
9
9
9
9
9
9
9
9
9
9
9
9
9
9
9
9
9
9
9
9
9
9
9
9
9
9
9
9
9
9
9
9
9
9
9
9
9
9
9
9
9
9
9
9
9
9
9
9
9
9
9
9
9
9
9
9
9
9
9
9
9
9
9
9
9
9
9
9
9
9
9
9
9
9
9
9
9
9
9
9
9
9
9
9
9
9
9
9
9
9
9
9
9
9
9
9
9
9
9
9
9
9
9
9
9
9
9
9
9
9
9
9
9
9
9
9
9
9
9
9
9
9
9
9
9
9
9
9
9
9
9
9
9
9
9
9
9
9
9
9
9
9
9
9
9
9
9
9
9
9
9
9
9
9
9
9
9
9
9
9
9
9
9
9
9
9
9
9
9
9
9
9
9
9
9
9
9
9
9
9
9
9
9
9
9
9
9
9
9
9
9
9
9
9
9
9
9
9
9
9
9
9
9
9
9
9
9
9
9
9
9
9
9
9
9
9
9
9
9
9
9
9
9
9
9
9
9
9
9
9
9
9
9
9
9
9
9
9
9
9
9
9
9
9
9
9
9
9
9
9
9
9
9
9
9
9
9
9
9
9
9
9
9
9
9
9
9
9
9
9
9
9
9
9
9
9
9
9
9
9
9
9
9
9
9
9
9
9
9
9
9
9
9
9
9
9
9
9
9
9
9
9
9
9
9
9
9
9
9
9
9
9
9
9
9
9
9
9
9
9
9
9
9
9
9
9
9
9
9
9
9
9
9
9
9
9
9
9
9
9
9
9
9
9
9
9
9
9
9
9
9
9
9
9
9
9
9
9
9
9
9
9
9
9
9
9
9
9
9
9
9
9
9
9
9
9
9
9
9
9
9
9
9
9
9
9
9
9
9
9
9
9
9
9
9
9
9
9
9
9
9
9
9
9
9
9
9
9
9
9
9
9
9
9
9
9
9
9
9
9
9
9
9
9
9
9
9
9
9
9
9
9
9
9
9
9
9
9
9
9
9
9
9
9
9
9
9
9
9
9
9
9
9
9
9
9
9
9
9
9
9
9
9
9
9
9
9
9
9
9
9
9
9
9
9
9
9
9
9
9
9
9
9
9
9
9
9
9
9
9
9
9
9
9
9
9
9
9
9
9
9
9
9
9
9
9
9
9
9
9
9
9
9
9
9
9
9
9
9
9
9
9
9
9
9
9
9
9
9
9
9
9
9
9
9
9
9
9
9
9
9
9
9
9
9
9
9
9
9
9
9
9
9
9
9
9
9
9
9
9
9
9
9
9
9
9
9
9
9
9
9
9
9
9
9
9
9
9
9
9
9
9
9
9
9
9
9
9
9
9
9
9
9
9
9
9
9
9
9
9
9
9
9
9
9
9
9
9
9
9
9
9
9
9
9
9
9
9
9
9
9
9
9
9
9
9
9
9
9
9
9
9
9
9
9
9
9
9
9
9
9
9
9
9
9
9
9
9
9
9
9
9
9
9
9
9
9
9
9
9
9
9
9
9
9
9
9
9
9
9
9
9
9
9
9
9
9
9
9
9
9
9
9
9
9
9
9
9
9
9
9
9
9
9
9
9
9
9
9
9
9
9
9
9
9
9
9
9
9
9
9
9
9
9
9
9
9
9
9
9
9
9
9
9
9
9
9
9
9
9
9
9
9
9
9
9
9
9
9
9
9
9
9
9
9
9
9
9
9
9
9
9
9
9
9
9
9
9
9
9
9
9
9
9
9
9
9
9
9
9
9
9
9
9
9
9
9
9
9
9
9
9
9
9
9
9
9
9
9
9
9
9
9
9
9
9
9
9
9
9
9
9
9
9
9
9
9
9
9
9
9
9
9
9
9
9
9
9
9
9
9
9
9
9
9
9
9
9
9
9
9
9
9
9
9
9
9
9
9
9
9
9
9
9
9
9
9
9
9
9
9
9
9
9
9
9
9
9
9
9
9
9
9
9
9
9
9
9
9
9
9
9
9
9
9
9
9
9
9
9
9
9
9
9
9
9
9
9
9
9
9
9
9
9
9
9
9
9
9
9
9
9
9
9
9
9
9
9
9
9
9
9
9
9
9
9
9
9
9
9
9
9
9
9
9
9
9
9
9
9
9
9
9
9
9
9
9
9
9
9
9
9
9
9
9
9
9
9
9
9
9
9
9
9
9
9
9
9
9
9
9
9
9
9
9
9
9
9
9
9
9
9
9
9
9
9
9
9
9
9
9
9
9
9
9
9
9
9
9
9
9
9
9
9
9
9
9
9
9
9
9
9
9
9
9
9
9
9
9
9
9
9
9
9
9
9
9
9
9
9
9
9
9
9
9
9
9
9
9
9
9
9
9
9
9
9
9
9
9
9
9
9
9
9
9
9
9
9
9
9
9
9
9
9
9
9
9
9
9
9
9
9
9
9
9
9
9
9
9
9
9
9
9
9
9
9
9
9
9
9
9
9
9
9
9
9
9
9
9
9
9
9
9
9
9
9
9
9
9
9
9
9
9
9
9
9
9
9
9
9
9
9
9
9
9
9
9
9
9
9
9
9
9
9
9
9
9
9
9
9
9
9
9
9
9
9
9
9
9
9
9
9
9
9
9
9
9
9
9
9
9
9
9
9
9
9
9
9
9
9
9
9
9
9
9
9
9
9
9
9
9
9
9
9
9
9
9
9
9
9
9
9
9
9
9
9
9
9
9
9
9
9
9
9
9
9
9
9
9
9
9
9
9
9
9
9
9
9
9
9
9
9
9
9
9
9
9
9
9
9
9
9
9
9
9
9
9
9
9
9
9
9
9
9
9
9
9
9
9
9
9
9
9
9
9
9
9
9
9
9
9
9
9
9
9
9
9
9
9
9
9
9
9
9
9
9
9
9
9
9
9
9
9
9
9
9
9
9
9
9
9
9
9
9
9
9
9
9
9
9
9
9
9
9
9
9
9
9
9
9
9
9
9
9
9
9
9
9
9
9
9
9
9
9
9
9
9
9
9
9
9
9
9
9
9
9
9
9
9
9
9
9
9
9
9
9
9
9
9
9
9
9
9
9
9
9
9
9
9
9
9
9
9
9
9
9
9
9
9
9
9
9
9
9
9
9
9
9
9
9
9
9
9
9
9
9
9
9
9
9
9
9
9
9
9
9
9
9
9
9
9
9
9
9
9
9
9
9
9
9
9
9
9
9
9
9
9
9
9
9
9
9
9
9
9
9
9
9
9
9
9
9
9
9
9
9
9
9
9
9
9
9
9
9
9
9
9
9
9
9
9
9
9
9
9
9
9
9
9
9
9
9
9
9
9
9
9
9
9
9
9
9
9
9
9
9
9
9
9
9
9
9
9
9
9
9
9
9
9
9
9
9
9
9
9
9
9
9
9
9
9
9
9
9
9
9
9
9
9
9
9
9
9
9
9
9
9
9
9
9
9
9
9
9
9
9
9
9
9
9
9
9
9
9
9
9
9
9
9
9
9
9
9
9
9
9
9
9
9
9
9
9
9
9
9
9
9
9
9
9
9
9
9
9
9
9
9
9
9
9
9
9
9
9
9
9
9
9
9
9
9
9
9
9
9
9
9
9
9
9
9
9
9
9
9
9
9
9
9
9
9
9
9
9
9
9
9
9
9
9
9
9
9
9
9
9
9
9
9
9
9
9
9
9
9
9
9
9
9
9
9
9
9
9
9
9
9
9
9
9
9
9
9
9
9
9
9
9
9
9
9
9
9
9
9
9
9
9
9
9
9
9
9
9
9
9
9
9
9
9
9
9
9
9
9
9
9
9
9
9
9
9
9
9
9
9
9
9
9
9
9
9
9
9
9
9
9
9
9
9
9
9
9
9
9
9
9
9
9
9
9
9
9
9
9
9
9
9
9
9
9
9
9
9
9
9
9
9
9
9
9
9
9
9
9
9
9
9
9
9
9
9
9
9
9
9
9
9
9
9
9
9
9
9
9
9
9
9
9
9
9
9
9
9
9
9
9
9
9
9
9
9
9
9
9
9
9
9
9
9
9
9
9
9
9
9
9
9
9
9
9
9
9
9
9
9
9
9
9
9
9
9
9
9
9
9
9
9
9
9
9
9
9
9
9
9
9
9
9
9
9
9
9
9
9
9
9
9
9
9
9
9
9
9
9
9
9
9
9
9
9
9
9
9
9
9
9
9
9
9
9
9
9
9
9
9
9
9
9
9
9
9
9
9
9
9
9
9
9
9
9
9
9
9
9
9
9
9
9
9
9
9
9
9
9
9
9
9
9
9
9
9
9
9
9
9
9
9
9
9
9
9
9
9
9
9
9
9
9
9
9
9
9
9
9
9
9
9
9
9
9
9
9
9
9
9
9
9
9
9
9
9
9
9
9
9
9
9
9
9
9
9
9
9
9
9
9
9
9
9
9
9
9
9
9
9
9
9
9
9
9
9
9
9
9
9
9
9
9
9
9
9
9
9
9
9
9
9
9
9
9
9
9
9
9
9
9
9
9
9
9
9
9
9
9
9
9
9
9
9
9
9
9
9
9
9
9
9
9
9
9
9
9
9
9
9
9
9
9
9
9
9
9
9
9
9
9
9
9
9
9
9
9
9
9
9
9
9
9
9
9
9
9
9
9
9
9
9
9
9
9
9
9
9
9
9
9
9
9
9
9
9
9
9
9
9
9
9
9
9
9
9
9
9
9
9
9
9
9
9
9
9
9
9
9
9
9
9
9
9
9
9
9
9
9
9
9
9
9
9
9
9
9
9
9
9
9
9
9
9
9
9
9
9
9
9
9
9
9
9
9
9
9
9
9
9
9
9
9
9
9
9
9
9
9
9
9
9
9
9
9
9
9
9
9
9
9
9
9
9
9
9
9
9
9
9
9
9
9
9
9
9
9
9
9
9
9
9
9
9
9
9
9
9
9
9
9
9
9
9
9
9
9
9
9
9
9
9
9
9
9
9
9
9
9
9
9
9
9
9
9
9
9
9
9
9
9
9
9
9
9
9
9
9
9
9
9
9
9
9
9
9
9
9
9
9
9
9
9
9
9
9
9
9
9
9
9
9
9
9
9
9
9
9
9
9
9
9
9
9
9
9
9
9
9
9
9
9
9
9
9
9
9
9
9
9
9
9
9
9
9
9
9
9
9
9
9
9
9
9
9
9
9
9
9
9
9
9
9
9
9
9
9
9
9
9
9
9
9
9
9
9
9
9
9
9
9
9
9
9
9
9
9
9
9
9
9
9
9
9
9
9
9
9
9
9
9
9
9
9
9
9
9
9
9
9
9
9
9
9
9
9
9
9
9
9
9
9
9
9
9
9
9
9
9
9
9
9
9
9
9
9
9
9
9
9
9
9
9
9
9
9
9
9
9
9
9
9
9
9
9
9
9
9
9
9
9
9
9
9
9
9
9
9
9
9
9
9
9
9
9
9
9
9
9
9
9
9
9
9
9
9
9
9
9
9
9
9
9
9
9
9
9
9
9
9
9
9
9
9
9
9
9
9
9
9
9
9
9
9
9
9
9
9
9
9
9
9
9
9
9
9
9
9
9
9
9
9
9
9
9
9
9
9
9
9
9
9
9
9
9
9
9
9
9
9
9
9
9
9
9
9
9
9
9
9
9
9
9
9
9
9
9
9
9
9
9
9
9
9
9
9
9
9
9
9
9
9
9
9
9
9
9
9
9
9
9
9
9
9
9
9
9
9
9
9
9
9
9
9
9
9
9
9
9
9
9
9
9
9
9
9
9
9
9
9
9
9
9
9
9
9
9
9
9
9
9
9
9
9
9
9
9
9
9
9
9
9
9
9
9
9
9
9
9
9
9
9
9
9
9
9
9
9
9
9
9
9
9
9
9
9
9
9
9
9
9
9
9
9
9
9
9
9
9
9
9
9
9
9
9
9
9
9
9
9
9
9
9
9
9
9
9
9
9
9
9
9
9
9
9
9
9
9
9
9
9
9
9
9
9
9
9
9
9
9
9
9
9
9
9
9
9
9
9
9
9
9
9
9
9
9
9
9
9
9
9
9
9
9
9
9
9
9
9
9
9
9
9
9
9
9
9
9
9
9
9
9
9
9
9
9
9
9
9
9
9
9
9
9
9
9
9
9
9
9
9
9
9
9
9
9
9
9
9
9
9
9
9
9
9
9
9
9
9
9
9
9
9
9
9
9
9
9
9
9
9
9
9
9
9
9
9
9
9
9
9
9
9
9
9
9
9
9
9
9
9
9
9
9
9
9
9
9
9
9
9
9
9
9
9
9
9
9
9
9
9
9
9
9
9
9
9
9
9
9
9
9
9
9
9
9
9
9
9
9
9
9
9
9
9
9
9
9
9
9
9
9
9
9
9
9
9
9
9
9
9
9
9
9
9
9
9
9
9
9
9
9
9
9
9
9
9
9
9
9
9
9
9
9
9
9
9
9
9
9
9
9
9
9
9
9
9
9
9
9
9
9
9
9
9
9
9
9
9
9
9
9
9
9
9
9
9
9
9
9
9
9
9
9
9
9
9
9
9
9
9
9
9
9
9
9
9
9
9
9
9
9
9
9
9
9
9
9
9
9
9
9
9
9
9
9
9
9
9
9
9
9
9
9
9
9
9
9
9
9
9
9
9
9
9
9
9
9
9
9
9
9
9
9
9
9
9
9
9
9
9
9
9
9
9
9
9
9
9
9
9
9
9
9
9
9
9
9
9
9
9
9
9
9
9
9
9
9
9
9
9
9
9
9
9
9
9
9
9
9
9
9
9
9
9
9
9
9
9
9
9
9
9
9
9
9
9
9
9
9
9
9
9
9
9
9
9
9
9
9
9
9
9
9
9
9
9
9
9
9
9
9
9
9
9
9
9
9
9
9
9
9
9
9
9
9
9
9
9
9
9
9
9
9
9
9
9
9
9
9
9
9
9
9
9
9
9
9
9
9
9
9
9
9
9
9
9
9
9
9
9
9
9
9
9
9
9
9
9
9
9
9
9
9
9
9
9
9
9
9
9
9
9
9
9
9
9
9
9
9
9
9
9
9
9
9
9
9
9
9
9
9
9
9
9
9
9
9
9
9
9
9
9
9
9
9
9
9
9
9
9
9
9
9
9
9
9
9
9
9
9
9
9
9
9
9
9
9
9
9
9
9
9
9
9
9
9
9
9
9
9
9
9
9
9
9
9
9
9
9
9
9
9
9
9
9
9
9
9
9
9
9
9
9
9
9
9
9
9
9
9
9
9
9
9
9
9
9
9
9
9
9
9
9
9
9
9
9
9
9
9
9
9
9
9
9
9
9
9
9
9
9
9
9
9
9
9
9
9
9
9
9
9
9
9
9
9
9
9
9
9
9
9
9
9
9
9
9
9
9
9
9
9
9
9
9
9
9
9
9
9
9
9
9
9
9
9
9
9
9
9
9
9
9
9
9
9
9
9
9
9
9
9
9
9
9
9
9
9
9
9
9
9
9
9
9
9
9
9
9
9
9
9
9
9
9
9
9
9
9
9
9
9
9
9
9
9
9
9
9
9
9
9
9
9
9
9
9
9
9
9
9
9
9
9
9
9
9
9
9
9
9
9
9
9
9
9
9
9
9
9
9
9
9
9
9
9
9
9
9
9
9
9
9
9
9
9
9
9
9
9
9
9
9
9
9
9
9
9
9
9
9
9
9
9
9
9
9
9
9
9
9
9
9
9
9
9
9
9
9
9
9
9
9
9
9
9
9
9
9
9
9
9
9
9
9
9
9
9
9
9
9
9
9
9
9
9
9
9
9
9
9
9
9
9
9
9
9
9
9
9
9
9
9
9
9
9
9
9
9
9
9
9
9
9
9
9
9
9
9
9
9
9
9
9
9
9
9
9
9
9
9
9
9
9
9
9
9
9
9
9
9
9
9
9
9
9
9
9
9
9
9
9
9
9
9
9
9
9
9
9
9
9
9
9
9
9
9
9
9
9
9
9
9
9
9
9
9
9
9
9
9
9
9
9
9
9
9
9
9
9
9
9
9
9
9
9
9
9
9
9
9
9
9
9
9
9
9
9
9
9
9
9
9
9
9
9
9
9
9
9
9
9
9
9
9
9
9
9
9
9
9
9
9
9
9
9
9
9
9
9
9
9
9
9
9
9
9
9
9
9
9
9
9
9
9
9
9
9
9
9
9
9
9
9
9
9
9
9
9
9
9
9
9
9
9
9
9
9
9
9
9
9
9
9
9
9
9
9
9
9
9
9
9
9
9
9
9
9
9
9
9
9
9
9
9
9
9
9
9
9
9
9
9
9
9
9
9
9
9
9
9
9
9
9
9
9
9
9
9
9
9
9
9
9
9
9
9
9
9
9
9
9
9
9
9
9
9
9
9
9
9
9
9
9
9
9
9
9
9
9
9
9
9
9
9
9
9
9
9
9
9
9
9
9
9
9
9
9
9
9
9
9
9
9
9
9
9
9
9
9
9
9
9
9
9
9
9
9
9
9
9
9
9
9
9
9
9
9
9
9
9
9
9
9
9
9
9
9
9
9
9
9
9
9
9
9
9
9
9
9
9
9
9
9
9
9
9
9
9
9
9
9
9
9
9
9
9
9
9
9
9
9
9
9
9
9
9
9
9
9
9
9
9
9
9
9
9
9
9
9
9
9
9
9
9
9
9
9
9
9
9
9
9
9
9
9
9
9
9
9
9
9
9
9
9
9
9
9
9
9
9
9
9
9
9
9
9
9
9
9
9
9
9
9
9
9
9
9
9
9
9
9
9
9
9
9
9
9
9
9
9
9
9
9
9
9
9
9
9
9
9
9
9
9
9
9
9
9
9
9
9
9
9
9
9
9
9
9
9
9
9
9
9
9
9
9
9
9
9
9
9
9
9
9
9
9
9
9
9
9
9
9
9
9
9
9
9
9
9
9
9
9
9
9
9
9
9
9
9
9
9
9
9
9
9
9
9
9
9
9
9
9
9
9
9
9
9
9
9
9
9
9
9
9
9
9
9
9
9
9
9
9
9
9
9
9
9
9
9
9
9
9
9
9
9
9
9
9
9
9
9
9
9
9
9
9
9
9
9
9
9
9
9
9
9
9
9
9
9
9
9
9
9
9
9
9
9
9
9
9
9
9
9
9
9
9
9
9
9
9
9
9
9
9
9
9
9
9
9
9
9
9
9
9
9
9
9
9
9
9
9
9
9
9
9
9
9
9
9
9
9
9
9
9
9
9
9
9
9
9
9
9
9
9
9
9
9
9
9
9
9
9
9
9
9
9
9
9
9
9
9
9
9
9
9
9
9
9
9
9
9
9
9
9
9
9
9
9
9
9
9
9
9
9
9
9
9
9
9
9
9
9
9
9
9
9
9
9
9
9
9
9
9
9
9
9
9
9
9
9
9
9
9
9
9
9
9
9
9
9
9
9
9
9
9
9
9
9
9
9
9
9
9
9
9
9
9
9
9
9
9
9
9
9
9
9
9
9
9
9
9
9
9
9
9
9
9
9
9
9
9
9
9
9
9
9
9
9
9
9
9
9
9
9
9
9
9
9
9
9
9
9
9
9
9
9
9
9
9
9
9
9
9
9
9
9
9
9
9
9
9
9
9
9
9
9
9
9
9
9
9
9
9
9
9
9
9
9
9
9
9
9
9
9
9
9
9
9
9
9
9
9
9
9
9
9
9
9
9
9
9
9
9
9
9
9
9
9
9
9
9
9
9
9
9
9
9
9
9
9
9
9
9
9
9
9
9
9
9
9
9
9
9
9
9
9
9
9
9
9
9
9
9
9
9
9
9
9
9
9
9
9
9
9
9
9
9
9
9
9
9
9
9
9
9
9
9
9
9
9
9
9
9
9
9
9
9
9
9
9
9
9
9
9
9
9
9
9
9
9
9
9
9
9
9
9
9
9
9
9
9
9
9
9
9
9
9
9
9
9
9
9
9
9
9
9
9
9
9
9
9
9
9
9
9
9
9
9
9
9
9
9
9
9
9
9
9
9
9
9
9
9
9
9
9
9
9
9
9
9
9
9
9
9
9
9
9
9
9
9
9
9
9
9
9
9
9
9
9
9
9
9
9
9
9
9
9
9
9
9
9
9
9
9
9
9
9
9
9
9
9
9
9
9
9
9
9
9
9
9
9
9
9
9
9
9
9
9
9
9
9
9
9
9
9
9
9
9
9
9
9
9
9
9
9
9
9
9
9
9
9
9
9
9
9
9
9
9
9
9
9
9
9
9
9
9
9
9
9
9
9
9
9
9
9
9
9
9
9
9
9
9
9
9
9
9
9
9
9
9
9
9
9
9
9
9
9
9
9
9
9
9
9
9
9
9
9
9
9
9
9
9
9
9
9
9
9
9
9
9
9
9
9
9
9
9
9
9
9
9
9
9
9
9
9
9
9
9
9
9
9
9
9
9
9
9
9
9
9
9
9
9
9
9
9
9
9
9
9
9
9
9
9
9
9
9
9
9
9
9
9
9
9
9
9
9
9
9
9
9
9
9
9
9
9
9
9
9
9
9
9
9
9
9
9
9
9
9
9
9
9
9
9
9
9
9
9
9
9
9
9
9
9
9
9
9
9
9
9
9
9
9
9
9
9
9
9
9
9
9
9
9
9
9
9
9
9
9
9
9
9
9
9
9
9
9
9
9
9
9
9
9
9
9
9
9
9
9
9
9
9
9
9
9
9
9
9
9
9
9
9
9
9
9
9
9
9
9
9
9
9
9
9
9
9
9
9
9
9
9
9
9
9
9
9
9
9
9
9
9
9
9
9
9
9
9
9
9
9
9
9
9
9
9
9
9
9
9
9
9
9
9
9
9
9
9
9
9
9
9
9
9
9
9
9
9
9
9
9
9
9
9
9
9
9
9
9
9
9
9
9
9
9
9
9
9
9
9
9
9
9
9
9
9
9
9
9
9
9
9
9
9
9
9
9
9
9
9
9
9
9
9
9
9
9
9
9
9
9
9
9
9
9
9
9
9
9
9
9
9
9
9
9
9
9
9
9
9
9
9
9
9
9
9
9
9
9
9
9
9
9
9
9
9
9
9
9
9
9
9
9
9
9
9
9
9
9
9
9
9
9
9
9
9
9
9
9
9
9
9
9
9
9
9
9
9
9
9
9
9
9
9
9
9
9
9
9
9
9
9
9
9
9
9
9
9
9
9
9
9
9
9
9
9
9
9
9
9
9
9
9
9
9
9
9
9
9
9
9
9
9
9
9
9
9
9
9
9
9
9
9
9
9
9
9
9
9
9
9
9
9
9
9
9
9
9
9
9
9
9
9
9
9
9
</DataArray>
</Cells>
<PointData Vectors="'U'">
<DataArray type="Float64" Name="U" NumberOfComponents="2" ComponentName0="U1" ComponentName1="U2" format="ascii">
-0.4038165149026E-38 -0.1010128289309E-37
-0.1432628855162E-37 -0.4334507807767E-37
 0.1535472353001E-37 -0.3857486380373E-37
-0.4254924610067E-01 -0.4752778868843E-01
-0.3449536669987E-01 -0.2292077776237E-01
-0.2645603159424E-01 -0.4526882955046E-02
-0.2337329881565E-01  0.4801533574637E-03
-0.8385728198811E+00 -0.6146795253758E+00
-0.3766961512505E+00  0.7499080840133E-01
-0.5510768515871E+00 -0.4832624597083E+00
-0.9652801166586E-01 -0.1996490369894E+00
-0.6452706936159E-37 -0.1546934209670E-36
-0.6343305835882E-37 -0.1411090474150E-36
-0.6177505602267E-37 -0.1313699342883E-36
-0.5998076231957E-37 -0.1238259505816E-36
-0.5818554733484E-37 -0.1176803267895E-36
-0.5643604530951E-37 -0.1124886847785E-36
-0.5474619902747E-37 -0.1079813467041E-36
-0.5311713689042E-37 -0.1039846171173E-36
-0.5154510126632E-37 -0.1003813127212E-36
-0.5002476477422E-37 -0.9708932462924E-37
-0.4855061940310E-37 -0.9404926620146E-37
-0.4711752810827E-37 -0.9121701143558E-37
-0.4572090804400E-37 -0.8855900761738E-37
-0.4435675427217E-37 -0.8604922722262E-37
-0.4302159869358E-37 -0.8366712618950E-37
-0.4171244703147E-37 -0.8139624068814E-37
-0.4042671275400E-37 -0.7922319708345E-37
-0.3916215599542E-37 -0.7713700190679E-37
-0.3791683060098E-37 -0.7512852230641E-37
-0.3668918932717E-37 -0.7319018347337E-37
-0.3547780329934E-37 -0.7132318073851E-37
-0.3428109522321E-37 -0.6951371914271E-37
-0.3309787959835E-37 -0.6775705140161E-37
-0.3192711805243E-37 -0.6604906014737E-37
-0.3076787884563E-37 -0.6438616004989E-37
-0.2961932130749E-37 -0.6276520493822E-37
-0.2848068287535E-37 -0.6118342530686E-37
-0.2735126819490E-37 -0.5963836427038E-37
-0.2623044009898E-37 -0.5812783353799E-37
-0.2511761192683E-37 -0.5664987602380E-37
-0.2401224121339E-37 -0.5520273028636E-37
-0.2291382429673E-37 -0.5378480872916E-37
-0.2182189188449E-37 -0.5239467193090E-37
-0.2073600536135E-37 -0.5103101204839E-37
-0.1965575369237E-37 -0.4969263802391E-37
-0.1858075097859E-37 -0.4837846146392E-37
-0.1751063438361E-37 -0.4708748832733E-37
-0.1644506257997E-37 -0.4581880883879E-37
-0.1538371451842E-37 -0.4457159158761E-37
-0.1327250186562E-37 -0.4213857866840E-37
-0.1222209019155E-37 -0.4095146988217E-37
-0.1117480777718E-37 -0.3978319280346E-37
-0.1013042761423E-37 -0.3863325240793E-37
-0.9088741937852E-38 -0.3750121795687E-37
-0.8049562890808E-38 -0.3638672489215E-37
-0.7012723588289E-38 -0.3528947654890E-37
-0.5978079273252E-38 -0.3420924873190E-37
-0.4945508903289E-38 -0.3314589382097E-37
-0.3914917014211E-38 -0.3209934715613E-37
-0.2886235828746E-38 -0.3106963487625E-37
-0.1859428049179E-38 -0.3005688245898E-37
-0.8344897888979E-39 -0.2906132672255E-37
 0.1885456181232E-39 -0.2808332868756E-37
 0.1209603226402E-38 -0.2712339009065E-37
 0.2228561376862E-38 -0.2618217277221E-37
 0.3245245149965E-38 -0.2526052223847E-37
 0.4259419111234E-38 -0.2435949585672E-37
 0.5270778786951E-38 -0.2348039638580E-37
 0.6279038452464E-38 -0.2262476950329E-37
 0.7283513337444E-38 -0.2179598447243E-37
 0.8283749508238E-38 -0.2099550749329E-37
 0.9278979910353E-38 -0.2022616742798E-37
 0.1026830226270E-37 -0.1949141365205E-37
 0.1125060497137E-37 -0.1879543491865E-37
 0.1222451216911E-37 -0.1814333989902E-37
 0.1318830820121E-37 -0.1754139636038E-37
 0.1413983141565E-37 -0.1699735370242E-37
 0.1507632130013E-37 -0.1652088350711E-37
 0.1599419278962E-37 -0.1612419325809E-37
 0.1688869432988E-37 -0.1582289623799E-37
 0.1775337667399E-37 -0.1563726514349E-37
 0.1857925044736E-37 -0.1559406300359E-37
 0.1935343996771E-37 -0.1572921725180E-37
 0.2005709590495E-37 -0.1609158769832E-37
 0.2066266767194E-37 -0.1674742306504E-37
 0.2113361594663E-37 -0.1778078558176E-37
 0.2145064036436E-37 -0.1925866613435E-37
 0.2185258014988E-37 -0.2094017627443E-37
-0.4144626152368E-01 -0.4337911772814E-01
-0.4067789040147E-01 -0.4071684929466E-01
-0.4004942257327E-01 -0.3871238128382E-01
-0.3951976847889E-01 -0.3706388511812E-01
-0.3905856017403E-01 -0.3563942981219E-01
-0.3864531976265E-01 -0.3436998918591E-01
-0.3826632204729E-01 -0.3321546104610E-01
-0.3791244144922E-01 -0.3215054891752E-01
-0.3757755708006E-01 -0.3115820100382E-01
-0.3725749075961E-01 -0.3022627976062E-01
-0.3694932498181E-01 -0.2934575348747E-01
-0.3665097217770E-01 -0.2850965500870E-01
-0.3636090350796E-01 -0.2771245124803E-01
-0.3607797696595E-01 -0.2694964276923E-01
-0.3580132804683E-01 -0.2621749894337E-01
-0.3553030142209E-01 -0.2551287657237E-01
-0.3526441104210E-01 -0.2483308869677E-01
-0.3500332906780E-01 -0.2417580640343E-01
-0.3474689639583E-01 -0.2353895597718E-01
-0.3424833162312E-01 -0.2232386952683E-01
-0.3400348185001E-01 -0.2174153800443E-01
-0.3376101273938E-01 -0.2117297162195E-01
-0.3352098149010E-01 -0.2061718370129E-01
-0.3328339840511E-01 -0.2007320037943E-01
-0.3304824781978E-01 -0.1954010540671E-01
-0.3281550474871E-01 -0.1901705249915E-01
-0.3258514158182E-01 -0.1850326099015E-01
-0.3235713308923E-01 -0.1799801308051E-01
-0.3213145887899E-01 -0.1750064970095E-01
-0.3190810335034E-01 -0.1701056385305E-01
-0.3168705694070E-01 -0.1652719883047E-01
-0.3146831491596E-01 -0.1605004241140E-01
-0.3125187725007E-01 -0.1557862438758E-01
-0.3103774811319E-01 -0.1511251389143E-01
-0.3082593473441E-01 -0.1465131583521E-01
-0.3061644728328E-01 -0.1419466991706E-01
-0.3040929768427E-01 -0.1374224756848E-01
-0.3020449918573E-01 -0.1329375074292E-01
-0.3000206565807E-01 -0.1284891027770E-01
-0.2980201093171E-01 -0.1240748447007E-01
-0.2960434822046E-01 -0.1196925794836E-01
-0.2940908957490E-01 -0.1153404070361E-01
-0.2921624531448E-01 -0.1110166715864E-01
-0.2902582348650E-01 -0.1067199537304E-01
-0.2883782961969E-01 -0.1024490699295E-01
-0.2865226585700E-01 -0.9820305877487E-02
-0.2846913107323E-01 -0.9398119039029E-02
-0.2828842012892E-01 -0.8978295713020E-02
-0.2811012368497E-01 -0.8560807785148E-02
-0.2793422828980E-01 -0.8145650950178E-02
-0.2776071555032E-01 -0.7732843744658E-02
-0.2758956310312E-01 -0.7322430724493E-02
-0.2742074436859E-01 -0.6914482400638E-02
-0.2725422994681E-01 -0.6509097983525E-02
-0.2708999072745E-01 -0.6106409402155E-02
-0.2692800239162E-01 -0.5706582313639E-02
-0.2676826297935E-01 -0.5309826064751E-02
-0.2661081268240E-01 -0.4916383442331E-02
-0.2630149340851E-01 -0.4139054671013E-02
-0.2614859689424E-01 -0.3754921083539E-02
-0.2599720279660E-01 -0.3375288643609E-02
-0.2584725926060E-01 -0.3000725790527E-02
-0.2569869189633E-01 -0.2631851166258E-02
-0.2555140783716E-01 -0.2269372308582E-02
-0.2540529450580E-01 -0.1914120208267E-02
-0.2526021967442E-01 -0.1567084387758E-02
-0.2511602977386E-01 -0.1229457899690E-02
-0.2497254512135E-01 -0.9026980313738E-03
-0.2482955002895E-01 -0.5886130417475E-03
-0.2468677400173E-01 -0.2894921635331E-03
-0.2454385675332E-01 -0.8309981555552E-05
-0.2440028460051E-01  0.2509320580609E-03
-0.2425527622536E-01  0.4825952857153E-03
-0.2410757701007E-01  0.6782223626648E-03
-0.2395509463636E-01  0.8239921856652E-03
-0.2379401160093E-01  0.8944910444183E-03
-0.2361712517324E-01  0.8321140947327E-03
-0.2107377770863E+00 -0.1567944461474E+00
-0.3000669072468E+00 -0.2471228599586E+00
-0.3715981121669E+00 -0.3181852555002E+00
-0.4328401147103E+00 -0.3806963353808E+00
-0.4880118019473E+00 -0.4372117648675E+00
-0.5394313321383E+00 -0.4872978665574E+00
-0.5879674878599E+00 -0.5276070897109E+00
-0.6331894573237E+00 -0.5585972934177E+00
-0.6747299473341E+00 -0.5823637711486E+00
-0.7124672938720E+00 -0.6003042316554E+00
-0.7462565329240E+00 -0.6132150664090E+00
-0.7758577101965E+00 -0.6216296711191E+00
-0.8009903645331E+00 -0.6261624621915E+00
-0.8213466153374E+00 -0.6273982675849E+00
-0.8366316782530E+00 -0.6259445057637E+00
-0.8467027647216E+00 -0.6226362085525E+00
-0.8515593393244E+00 -0.6187110746184E+00
-0.8511435717639E+00 -0.6149013419464E+00
-0.8462958923375E+00 -0.6128044158393E+00
-0.8334401746675E+00 -0.6187311658127E+00
-0.8280162365960E+00 -0.6258091133751E+00
-0.8227101834322E+00 -0.6370458174460E+00
-0.8178261945535E+00 -0.6542293619144E+00
-0.8130481202899E+00 -0.6780875785512E+00
-0.8081741144970E+00 -0.7059227379755E+00
-0.8030241058571E+00 -0.7340869511233E+00
-0.7965102816353E+00 -0.7606824644536E+00
-0.7874188646324E+00 -0.7847358801257E+00
-0.7748285400129E+00 -0.8057790404474E+00
-0.7584050941365E+00 -0.8235852283009E+00
-0.7385256789584E+00 -0.8376186944300E+00
-0.7158722960242E+00 -0.8471539567939E+00
-0.6911205647178E+00 -0.8515814287685E+00
-0.6648771768558E+00 -0.8504485148183E+00
-0.6376903278066E+00 -0.8434382069627E+00
-0.6100709164669E+00 -0.8303478842489E+00
-0.5825115493497E+00 -0.8110771151857E+00
-0.5555057813420E+00 -0.7856232979696E+00
-0.5295743726535E+00 -0.7540859378467E+00
-0.5052576423547E+00 -0.7166669521397E+00
-0.4829804368148E+00 -0.6736320422544E+00
-0.4630509092924E+00 -0.6253927525778E+00
-0.4456905601815E+00 -0.5725498957765E+00
-0.4310508559250E+00 -0.5159437590279E+00
-0.4192245351921E+00 -0.4567248301298E+00
-0.4102643339766E+00 -0.3964484883371E+00
-0.4042227587212E+00 -0.3372040642811E+00
-0.4012435006796E+00 -0.2818548037929E+00
-0.4015069867428E+00 -0.2338721597606E+00
-0.4038816884777E+00 -0.1932927432946E+00
-0.4066126518855E+00 -0.1573099862950E+00
-0.4090284429419E+00 -0.1242007274304E+00
-0.4106451199938E+00 -0.9293995908375E-01
-0.4110011911877E+00 -0.6287688918416E-01
-0.4095386804631E+00 -0.3362532295584E-01
-0.4054933571610E+00 -0.5043212013142E-02
-0.3987381818386E+00  0.2276666755702E-01
-0.3893429805139E+00  0.4961728103815E-01
-0.3462117147447E+00  0.1064704643638E+00
-0.3063012400345E+00  0.1258427093963E+00
-0.2619858981851E+00  0.1319014559153E+00
-0.2177178110293E+00  0.1295131770399E+00
-0.1751416561658E+00  0.1241953385806E+00
-0.1347609334761E+00  0.1157984531353E+00
-0.9710366438808E-01  0.1048821861575E+00
-0.6257207820376E-01  0.9210508121094E-01
-0.3148823054959E-01  0.7796526840484E-01
-0.4139766945053E-02  0.6288128557888E-01
 0.1923221700407E-01  0.4736765064942E-01
 0.3839332950041E-01  0.3187314930129E-01
 0.5304596804418E-01  0.1680655699430E-01
 0.6273823943134E-01  0.2636122172049E-02
 0.6693881887280E-01 -0.9773127920181E-02
 0.6515499179362E-01 -0.1935410341763E-01
 0.5658988045648E-01 -0.2533189440757E-01
 0.4024990370101E-01 -0.2629703398442E-01
 0.1585841524956E-01 -0.1839742128395E-01
-0.6778285573176E-03 -0.1246930902660E-02
-0.1117241651744E-02 -0.2176488113702E-02
-0.1500680585444E-02 -0.3061718322759E-02
-0.1858202631392E-02 -0.3920215956465E-02
-0.2209374329901E-02 -0.4764335106662E-02
-0.2563785579390E-02 -0.5599797973097E-02
-0.2928097325436E-02 -0.6429712034922E-02
-0.3306722628145E-02 -0.7255946554233E-02
-0.3702838635850E-02 -0.8079675513533E-02
-0.4118757674807E-02 -0.8901694214255E-02
-0.4556201587301E-02 -0.9722586171400E-02
-0.5016464728779E-02 -0.1054282652643E-01
-0.5500529969637E-02 -0.1136285148772E-01
-0.6009149751960E-02 -0.1218310508374E-01
-0.6542907416841E-02 -0.1300407541104E-01
-0.7102267084519E-02 -0.1382632766621E-01
-0.7687621027434E-02 -0.1465054290352E-01
-0.8299297972442E-02 -0.1547751175887E-01
-0.8937647627071E-02 -0.1630824232229E-01
-0.9603020904874E-02 -0.1714393891247E-01
-0.1029582815228E-01 -0.1798610989842E-01
-0.1101656401354E-01 -0.1883668306090E-01
-0.1176585465721E-01 -0.1969832329127E-01
-0.1254488447301E-01 -0.2057527977337E-01
-0.1335609726998E-01 -0.2147346666883E-01
-0.1420290448411E-01 -0.2239832869806E-01
-0.1508910644755E-01 -0.2335416812375E-01
-0.1601868104390E-01 -0.2434455806131E-01
-0.1699593153736E-01 -0.2537308719787E-01
-0.1802585856601E-01 -0.2644409749716E-01
-0.1911468252797E-01 -0.2756327217876E-01
-0.2027053182117E-01 -0.2873805946104E-01
-0.2150413828817E-01 -0.2997741891178E-01
-0.2282916193211E-01 -0.3129099968505E-01
-0.2426382852790E-01 -0.3269221039807E-01
-0.2583413330279E-01 -0.3420358244049E-01
-0.2758343365279E-01 -0.3586228629729E-01
-0.2957318043484E-01 -0.3773132482231E-01
-0.3198773028248E-01 -0.3992929185917E-01
-0.3486750304867E-01 -0.4287287001281E-01
-0.2373263584010E-01  0.1183083250664E-02
-0.2323642143035E-01  0.1579931613045E-02
-0.2263397101133E-01  0.1863281861944E-02
-0.2193262291874E-01  0.2097789661905E-02
-0.2116888799088E-01  0.2299836247552E-02
-0.2035770900370E-01  0.2477029899940E-02
-0.1951105914027E-01  0.2633370037380E-02
-0.1863798086327E-01  0.2771222366621E-02
-0.1774623667288E-01  0.2892283051345E-02
-0.1684289257582E-01  0.2996886277136E-02
-0.1593440333256E-01  0.3084819590555E-02
-0.1502648660743E-01  0.3156304100923E-02
-0.1412421624704E-01  0.3211734105173E-02
-0.1323210848214E-01  0.3251507968695E-02
-0.1235414618931E-01  0.3275855091887E-02
-0.1149378165104E-01  0.3284691696808E-02
-0.1065392374345E-01  0.3277621511164E-02
-0.9836968545627E-02  0.3254170361636E-02
-0.9044898234406E-02  0.3214371451838E-02
-0.8279419059179E-02  0.3159293610850E-02
-0.7542044438901E-02  0.3090081627805E-02
-0.6834118398063E-02  0.3007776001913E-02
-0.6156842110765E-02  0.2913327846951E-02
-0.5511302208150E-02  0.2807611084495E-02
-0.4898464030185E-02  0.2691428256744E-02
-0.4319244683319E-02  0.2565529861674E-02
-0.3774474493507E-02  0.2430617164475E-02
-0.3264938580226E-02  0.2287359847282E-02
-0.2791378760137E-02  0.2136409319851E-02
-0.2354497076506E-02  0.1978414343532E-02
-0.1954955387240E-02  0.1814038797733E-02
-0.1593368050899E-02  0.1643981631640E-02
-0.1270283324628E-02  0.1468998805401E-02
-0.9861524993250E-03  0.1289928939320E-02
-0.7412722958266E-03  0.1107723842461E-02
-0.5356954427288E-03  0.9234824431377E-03
-0.3690137406496E-03  0.7384983390607E-03
-0.2401136498835E-03  0.5542973269520E-03
-0.1457371253565E-03  0.3724666357204E-03
-0.7982983654331E-04  0.1965119945096E-03
-0.5410172641556E+00 -0.4848464751412E+00
-0.5306199294189E+00 -0.4862390431143E+00
-0.5198603735301E+00 -0.4873783086826E+00
-0.5087441646862E+00 -0.4882132727083E+00
-0.4972851255740E+00 -0.4886955387218E+00
-0.4855020570278E+00 -0.4887800497413E+00
-0.4734172738049E+00 -0.4884252642141E+00
-0.4610556800933E+00 -0.4875929790275E+00
-0.4484442992533E+00 -0.4862484260444E+00
-0.4356118012990E+00 -0.4843604317978E+00
-0.4225882154819E+00 -0.4819015688128E+00
-0.4094047318122E+00 -0.4788481839325E+00
-0.3960935919499E+00 -0.4751806852432E+00
-0.3826879741026E+00 -0.4708839672472E+00
-0.3692218401854E+00 -0.4659477396994E+00
-0.3557297236261E+00 -0.4603667672676E+00
-0.3422464988798E+00 -0.4541410408268E+00
-0.3288071175096E+00 -0.4472758778047E+00
-0.3154463220146E+00 -0.4397819525320E+00
-0.3021983433353E+00 -0.4316752552130E+00
-0.2890965892882E+00 -0.4229769779014E+00
-0.2761733246260E+00 -0.4137133610133E+00
-0.2634593505853E+00 -0.4039155071144E+00
-0.2509836715544E+00 -0.3936190785478E+00
-0.2387731698522E+00 -0.3828639098065E+00
-0.2268523035816E+00 -0.3716935390279E+00
-0.2152428386027E+00 -0.3601546555407E+00
-0.2039636289971E+00 -0.3482964718514E+00
-0.1930304312802E+00 -0.3361700156122E+00
-0.1824557661173E+00 -0.3238274251451E+00
-0.1722487540186E+00 -0.3113213645514E+00
-0.1624149338178E+00 -0.2987045643055E+00
-0.1529561366835E+00 -0.2860291764119E+00
-0.1438704484771E+00 -0.2733461383373E+00
-0.1351521684163E+00 -0.2607043716465E+00
-0.1267918702487E+00 -0.2481503039758E+00
-0.1187761210787E+00 -0.2357275833292E+00
-0.1110862267521E+00 -0.2234765601561E+00
-0.1036944595591E+00 -0.2114341729981E+00
-0.5304729459448E+00 -0.4547521458007E+00
-0.5093349567403E+00 -0.4263389326934E+00
-0.4876148226423E+00 -0.3979695807476E+00
-0.4652736170612E+00 -0.3696899279729E+00
-0.4422932663331E+00 -0.3415617949407E+00
-0.4186665629238E+00 -0.3136498899725E+00
-0.3943791268330E+00 -0.2860276071884E+00
-0.3694241341432E+00 -0.2587837515341E+00
-0.3438124060220E+00 -0.2320288626881E+00
-0.3175774390778E+00 -0.2059003845658E+00
-0.2907700940137E+00 -0.1805626009714E+00
-0.2634440898034E+00 -0.1562015768290E+00
-0.2356452494602E+00 -0.1330202963150E+00
-0.2074170636328E+00 -0.1112373972418E+00
-0.1788192621883E+00 -0.9108639286327E-01
-0.1499388160126E+00 -0.7280925532009E-01
-0.1208870695736E+00 -0.5664656358015E-01
-0.9181453471585E-01 -0.4282872520533E-01
-0.6292971377927E-01 -0.3155254633328E-01
-0.8088152296762E-01 -0.1877529799956E+00
-0.6601893152349E-01 -0.1758631768240E+00
-0.5200127814286E-01 -0.1638859238532E+00
-0.3888308374624E-01 -0.1518674132914E+00
-0.2671392940326E-01 -0.1398762652391E+00
-0.1554253518188E-01 -0.1279785566506E+00
-0.5440263616552E-02 -0.1162345496789E+00
 0.3508898297987E-02 -0.1046980796336E+00
 0.1121381056787E-01 -0.9341735034654E-01
 0.1757722937859E-01 -0.8243883607745E-01
 0.2249197609028E-01 -0.7181450593704E-01
 0.2583339396645E-01 -0.6160847399535E-01
 0.2745240773575E-01 -0.5189830588763E-01
 0.2717505995848E-01 -0.4277056996162E-01
 0.2480626614138E-01 -0.3431539554558E-01
 0.2013488728439E-01 -0.2662006766615E-01
 0.1293794845498E-01 -0.1975697755800E-01
 0.2970390255688E-02 -0.1377633808661E-01
-0.1005057843552E-01 -0.8702227364058E-02
-0.5830405070977E+00 -0.5055370280934E+00
-0.6141870066511E+00 -0.5264661407193E+00
-0.6442500793708E+00 -0.5458579978005E+00
-0.6730040151278E+00 -0.5635443979942E+00
-0.7002308578039E+00 -0.5793740780008E+00
-0.7257194783323E+00 -0.5932234603384E+00
-0.7492676488386E+00 -0.6050019177140E+00
-0.7706853258738E+00 -0.6146568904648E+00
-0.7897984682904E+00 -0.6221786088332E+00
-0.8064536167238E+00 -0.6276047017985E+00
-0.8205236690360E+00 -0.6310247226623E+00
-0.8319154865612E+00 -0.6325845420676E+00
-0.8405801811173E+00 -0.6324903923390E+00
-0.8465271643648E+00 -0.6310120389798E+00
-0.8498431949875E+00 -0.6284839498450E+00
-0.8507173306816E+00 -0.6253020522438E+00
-0.8494712094671E+00 -0.6219112900749E+00
-0.8465874019990E+00 -0.6187733765544E+00
-0.8427142400394E+00 -0.6162965995524E+00
-0.1005540444799E+00 -0.1928902313886E+00
-0.1059478113423E+00 -0.1845197301131E+00
-0.1128365440875E+00 -0.1746781470407E+00
-0.1212450254103E+00 -0.1635166327462E+00
-0.1311645966251E+00 -0.1511925699586E+00
-0.1425555243545E+00 -0.1378783529531E+00
-0.1553450457135E+00 -0.1237575969168E+00
-0.1694258210717E+00 -0.1090189162169E+00
-0.1846568270652E+00 -0.9384763733408E-01
-0.2008670650632E+00 -0.7841646405583E-01
-0.2178622505726E+00 -0.6287579520136E-01
-0.2354344452579E+00 -0.4734454480521E-01
-0.2533742672031E+00 -0.3190254367140E-01
-0.2714847282662E+00 -0.1658589339352E-01
-0.2895948604828E+00 -0.1386845966749E-02
-0.3075702973076E+00  0.1374041051502E-01
-0.3253173220207E+00  0.2886755914885E-01
-0.3427779077563E+00  0.4407503668792E-01
-0.3599144705653E+00  0.5943243845251E-01
-0.5627610295849E-03 -0.1050614258059E-02
-0.1034393953164E-02 -0.2034872071184E-02
-0.1417477985815E-02 -0.2928127021116E-02
-0.1778381031265E-02 -0.3791761294677E-02
-0.2131083618140E-02 -0.4636484018320E-02
-0.2486922407846E-02 -0.5469947631078E-02
-0.2852436229611E-02 -0.6296022067129E-02
-0.3232208542983E-02 -0.7117102552470E-02
-0.3629455272279E-02 -0.7934710379535E-02
-0.4046524531904E-02 -0.8749884414767E-02
-0.4485154639548E-02 -0.9563384115956E-02
-0.4946648579282E-02 -0.1037581447935E-01
-0.5431991445606E-02 -0.1118770866655E-01
-0.5941933599987E-02 -0.1199958308483E-01
-0.6477052930140E-02 -0.1281197901129E-01
-0.7037805324058E-02 -0.1362549905774E-01
-0.7624572266678E-02 -0.1444084813264E-01
-0.8237669021677E-02 -0.1525882841606E-01
-0.8877428740726E-02 -0.1608044741592E-01
-0.9544181460413E-02 -0.1690689638702E-01
-0.1023830991554E-01 -0.1773965533872E-01
-0.1096026722780E-01 -0.1858060548251E-01
-0.1171062975949E-01 -0.1943222157677E-01
-0.1249056870764E-01 -0.2029781635227E-01
-0.1330259510385E-01 -0.2118202606889E-01
-0.1415023790432E-01 -0.2208966693975E-01
-0.1503739939951E-01 -0.2302495458322E-01
-0.1596811962772E-01 -0.2399154381788E-01
-0.1694673190761E-01 -0.2499296666394E-01
-0.1797826095789E-01 -0.2603317396113E-01
-0.1906898027669E-01 -0.2711701799824E-01
-0.2022714130973E-01 -0.2825057736213E-01
-0.2146359072268E-01 -0.2944152244662E-01
-0.2279204846862E-01 -0.3069845662807E-01
-0.2423058060740E-01 -0.3203185642057E-01
-0.2580637803061E-01 -0.3345795680000E-01
-0.2755939784743E-01 -0.3500301921376E-01
-0.2957332208639E-01 -0.3670003404448E-01
-0.3193467265370E-01 -0.3865377192173E-01
-0.3527403278610E-01 -0.4073818995353E-01
-0.4828044283262E-03 -0.9508416794109E-03
-0.9458391246097E-03 -0.1905354827846E-02
-0.1336311259438E-02 -0.2805823814224E-02
-0.1698630223598E-02 -0.3668826431620E-02
-0.2053317729626E-02 -0.4512096377286E-02
-0.2410559746485E-02 -0.5342191938716E-02
-0.2777358903494E-02 -0.6163590642352E-02
-0.3158322408980E-02 -0.6978943397795E-02
-0.3556736702619E-02 -0.7790013196355E-02
-0.3974979416698E-02 -0.8598015331403E-02
-0.4414808882690E-02 -0.9403845471837E-02
-0.4877537968981E-02 -0.1020821212418E-01
-0.5364155644607E-02 -0.1101172688234E-01
-0.5875411571074E-02 -0.1181496434123E-01
-0.6411879505019E-02 -0.1261850703450E-01
-0.6974008376177E-02 -0.1342298391096E-01
-0.7562170245698E-02 -0.1422911212732E-01
-0.8176668443686E-02 -0.1503769231550E-01
-0.8817821546504E-02 -0.1584971438358E-01
-0.9485941773569E-02 -0.1666633258772E-01
-0.1018138940435E-01 -0.1748896110458E-01
-0.1090459330641E-01 -0.1831935103877E-01
-0.1165615731528E-01 -0.1915963119654E-01
-0.1243732812551E-01 -0.2001239843578E-01
-0.1325064993032E-01 -0.2088144041215E-01
-0.1409966411531E-01 -0.2177100852546E-01
-0.1498831136603E-01 -0.2268508461468E-01
-0.1592068714114E-01 -0.2362720641589E-01
-0.1690119361179E-01 -0.2460068359359E-01
-0.1793494357506E-01 -0.2560897951057E-01
-0.1902834209651E-01 -0.2665609050831E-01
-0.2018977680674E-01 -0.2774689266289E-01
-0.2143018757629E-01 -0.2888765164732E-01
-0.2276345123834E-01 -0.3008506827778E-01
-0.2420833909928E-01 -0.3134595786007E-01
-0.2579220420204E-01 -0.3268026497909E-01
-0.2756076015804E-01 -0.3409896421596E-01
-0.2958748219845E-01 -0.3562312937844E-01
-0.3203006843010E-01 -0.3722680605300E-01
-0.3553222186306E-01 -0.3879932801580E-01
-0.4245802532975E-03 -0.8883180836345E-03
-0.8644473207291E-03 -0.1802649037895E-02
-0.1256267957679E-02 -0.2693409556646E-02
-0.1620313226941E-02 -0.3552804634659E-02
-0.1976374563763E-02 -0.4391740046693E-02
-0.2334991967755E-02 -0.5217036737684E-02
-0.2703025780012E-02 -0.6032782399047E-02
-0.3085179499811E-02 -0.6841751708061E-02
-0.3484763905580E-02 -0.7645802843118E-02
-0.3904185110410E-02 -0.8446259297458E-02
-0.4345216772027E-02 -0.9244107449553E-02
-0.4809180990028E-02 -0.1004013023707E-01
-0.5297070501963E-02 -0.1083499712513E-01
-0.5809634824048E-02 -0.1162932539429E-01
-0.6347444458110E-02 -0.1242372604637E-01
-0.6910942571822E-02 -0.1321884271908E-01
-0.7500493366919E-02 -0.1401539303082E-01
-0.8116390379231E-02 -0.1481416284565E-01
-0.8758940806145E-02 -0.1561610790500E-01
-0.9428444310037E-02 -0.1642232282088E-01
-0.1012524911793E-01 -0.1723412014652E-01
-0.1084979105626E-01 -0.1805305799160E-01
-0.1160274403562E-01 -0.1888089741166E-01
-0.1238545030715E-01 -0.1971967208407E-01
-0.1320047243838E-01 -0.2057254320554E-01
-0.1405132295355E-01 -0.2144326844463E-01
-0.1494194492991E-01 -0.2233551497126E-01
-0.1587648485712E-01 -0.2325257300734E-01
-0.1685943864066E-01 -0.2419741805434E-01
-0.1789605303662E-01 -0.2517296513567E-01
-0.1899290365634E-01 -0.2618237310515E-01
-0.2015854068555E-01 -0.2722937498741E-01
-0.2140405190458E-01 -0.2831872087539E-01
-0.2274373511512E-01 -0.2945483486491E-01
-0.2419708638216E-01 -0.3064089036973E-01
-0.2579347035766E-01 -0.3187972342122E-01
-0.2758030436777E-01 -0.3317294454355E-01
-0.2963908409949E-01 -0.3451224671717E-01
-0.3217039485412E-01 -0.3583560551450E-01
-0.3564459730675E-01 -0.3713211734464E-01
-0.3798973072525E-03 -0.8439782641216E-03
-0.7927730587774E-03 -0.1720682441853E-02
-0.1179567472910E-02 -0.2592864780693E-02
-0.1543901192885E-02 -0.3443697369188E-02
-0.1900797311572E-02 -0.4275963579568E-02
-0.2260478944384E-02 -0.5094827975800E-02
-0.2629628012389E-02 -0.5903901552929E-02
-0.3012905754829E-02 -0.6705766834167E-02
-0.3413629547017E-02 -0.7502273269063E-02
-0.3834212732635E-02 -0.8294773435141E-02
-0.4276437438138E-02 -0.9084298977484E-02
-0.4741630816985E-02 -0.9871676194861E-02
-0.5230787770563E-02 -0.1065761079495E-01
-0.5744657223288E-02 -0.1144274641481E-01
-0.6283806810547E-02 -0.1222770923085E-01
-0.6848674972272E-02 -0.1301314569041E-01
-0.7439619762401E-02 -0.1379976214403E-01
-0.8056927563160E-02 -0.1458831687398E-01
-0.8700898382671E-02 -0.1537971600986E-01
-0.9371826326862E-02 -0.1617497426924E-01
-0.1007006222984E-01 -0.1697527316490E-01
-0.1079607544028E-01 -0.1778194884587E-01
-0.1155062846694E-01 -0.1859641472939E-01
-0.1233515735460E-01 -0.1942024749172E-01
-0.1315223584060E-01 -0.2025611138521E-01
-0.1400533508468E-01 -0.2110732393883E-01
-0.1489838555349E-01 -0.2197719867996E-01
-0.1583558302471E-01 -0.2286869888107E-01
-0.1682153313310E-01 -0.2378439726398E-01
-0.1786164336599E-01 -0.2472663509114E-01
-0.1896268363754E-01 -0.2569776204574E-01
-0.2013339803358E-01 -0.2670041024059E-01
-0.2138512657471E-01 -0.2773778413767E-01
-0.2273268509890E-01 -0.2881205904338E-01
-0.2419665571527E-01 -0.2992281206299E-01
-0.2580816984246E-01 -0.3106746536221E-01
-0.2761725422639E-01 -0.3223845401738E-01
-0.2971538983415E-01 -0.3341098817297E-01
-0.3229765936890E-01 -0.3453947494500E-01
-0.3564781599438E-01 -0.3568073314290E-01
-0.3440725940488E-03 -0.8098283786476E-03
-0.7302430863745E-03 -0.1653372099211E-02
-0.1107644879024E-02 -0.2503525360843E-02
-0.1470080982524E-02 -0.3341697920131E-02
-0.1827000028495E-02 -0.4164936598712E-02
-0.2187314180125E-02 -0.4975830390965E-02
-0.2557354622577E-02 -0.5777171236909E-02
-0.2941637125079E-02 -0.6571186251133E-02
-0.3343432783149E-02 -0.7359590612874E-02
-0.3765139558457E-02 -0.8143698232084E-02
-0.4208534839996E-02 -0.8924539354120E-02
-0.4674944404125E-02 -0.9702952895299E-02
-0.5165361942398E-02 -0.1047965875274E-01
-0.5680534391676E-02 -0.1125531033714E-01
-0.6221026362500E-02 -0.1203053556457E-01
-0.6787272386103E-02 -0.1280597188607E-01
-0.7379626141281E-02 -0.1358230301380E-01
-0.7998369848200E-02 -0.1436024765593E-01
-0.8643801162047E-02 -0.1514064859060E-01
-0.9316216889697E-02 -0.1592442379347E-01
-0.1001598516768E-01 -0.1671260478225E-01
-0.1074362694156E-01 -0.1750629903917E-01
-0.1149999833714E-01 -0.1830660399654E-01
-0.1228662098070E-01 -0.1911471522972E-01
-0.1310607667009E-01 -0.1993288211149E-01
-0.1396179571448E-01 -0.2076402198796E-01
-0.1485769327970E-01 -0.2161108029738E-01
-0.1579801501189E-01 -0.2247665135457E-01
-0.1678748478465E-01 -0.2336287173515E-01
-0.1783168401544E-01 -0.2427151001839E-01
-0.1893759024439E-01 -0.2520414785889E-01
-0.2011417626252E-01 -0.2616237636932E-01
-0.2137309816036E-01 -0.2714794629865E-01
-0.2272977720328E-01 -0.2816096098704E-01
-0.2420588420383E-01 -0.2919805604445E-01
-0.2583407231536E-01 -0.3025256584870E-01
-0.2766698463015E-01 -0.3131096168903E-01
-0.2979815911569E-01 -0.3234733884024E-01
-0.3238886328384E-01 -0.3334509287480E-01
-0.3557923253207E-01 -0.3438900432275E-01
-0.3143447222913E-03 -0.7819244561784E-03
-0.6755395344131E-03 -0.1596397724338E-02
-0.1041022205156E-02 -0.2423746158827E-02
-0.1399444667563E-02 -0.3246584101695E-02
-0.1755354436828E-02 -0.4058687817534E-02
-0.2115765788550E-02 -0.4860172955281E-02
-0.2486394959499E-02 -0.5652749749024E-02
-0.2871510147298E-02 -0.6438161405285E-02
-0.3274276432006E-02 -0.7217893238855E-02
-0.3697046292586E-02 -0.7993156451628E-02
-0.4141576089504E-02 -0.8764937474364E-02
-0.4609181178659E-02 -0.9534058003894E-02
-0.5100849221341E-02 -0.1030123064382E-01
-0.5617322813148E-02 -0.1106710221439E-01
-0.6159162837220E-02 -0.1183228916873E-01
-0.6726800468492E-02 -0.1259740851696E-01
-0.7320586749670E-02 -0.1336311060528E-01
-0.7940802883765E-02 -0.1413006374004E-01
-0.8587749327163E-02 -0.1489903571609E-01
-0.9261733997209E-02 -0.1567083534255E-01
-0.9963154620137E-02 -0.1644633482144E-01
-0.1069259425227E-01 -0.1722641861576E-01
-0.1145100069853E-01 -0.1801190091100E-01
-0.1223997188910E-01 -0.1880365239681E-01
-0.1306209692483E-01 -0.1960356373372E-01
-0.1392077120882E-01 -0.2041418399088E-01
-0.1481989796665E-01 -0.2123809144700E-01
-0.1576377405657E-01 -0.2207749656417E-01
-0.1675724399295E-01 -0.2293409373099E-01
-0.1780606588025E-01 -0.2380910141271E-01
-0.1891743007471E-01 -0.2470339076439E-01
-0.2010055642299E-01 -0.2561761015227E-01
-0.2136744580073E-01 -0.2655222530004E-01
-0.2273411242456E-01 -0.2750562872454E-01
-0.2422312795595E-01 -0.2847231789512E-01
-0.2586823003716E-01 -0.2944310176460E-01
-0.2772278520599E-01 -0.3040293765893E-01
-0.2987364669001E-01 -0.3133344350932E-01
-0.3243958091084E-01 -0.3224224246209E-01
-0.3546469822620E-01 -0.3321784300982E-01
-0.2890095050573E-03 -0.7581017018327E-03
-0.6273368819774E-03 -0.1546832572061E-02
-0.9796625814562E-03 -0.2351795721856E-02
-0.1332357056674E-02 -0.3157794033955E-02
-0.1686172000261E-02 -0.3957096105894E-02
-0.2046068750891E-02 -0.4747882296035E-02
-0.2416926375847E-02 -0.5530727308270E-02
-0.2802657841160E-02 -0.6306801230292E-02
-0.3206262942857E-02 -0.7077291211531E-02
-0.3630014749119E-02 -0.7843252877632E-02
-0.4075629655510E-02 -0.8605591167063E-02
-0.4544401714453E-02 -0.9365083241575E-02
-0.5037306436276E-02 -0.1012241410739E-01
-0.5555078884896E-02 -0.1087820836033E-01
-0.6098274980618E-02 -0.1163305835016E-01
-0.6667322793255E-02 -0.1238754983121E-01
-0.7262572332098E-02 -0.1314228994489E-01
-0.7884306885949E-02 -0.1389788717667E-01
-0.8532834774961E-02 -0.1465502512736E-01
-0.9208482617200E-02 -0.1541439555489E-01
-0.9911686791555E-02 -0.1617670931501E-01
-0.1064309733629E-01 -0.1694263975278E-01
-0.1140374848151E-01 -0.1771274827824E-01
-0.1219530585747E-01 -0.1848762408957E-01
-0.1302036628154E-01 -0.1926884075280E-01
-0.1388229776177E-01 -0.2005860688016E-01
-0.1478499695351E-01 -0.2085914499052E-01
-0.1573281249349E-01 -0.2167228628498E-01
-0.1673070657405E-01 -0.2249929773476E-01
-0.1778460832528E-01 -0.2334088796627E-01
-0.1890191506105E-01 -0.2419729444594E-01
-0.2009209029505E-01 -0.2506835398426E-01
-0.2136746030099E-01 -0.2595348074395E-01
-0.2274452228270E-01 -0.2684980963022E-01
-0.2424642839897E-01 -0.2775055406686E-01
-0.2590718437277E-01 -0.2864571714917E-01
-0.2777820150340E-01 -0.2952226678965E-01
-0.2993388746434E-01 -0.3037188666500E-01
-0.3245290255209E-01 -0.3121778011861E-01
-0.3532068291156E-01 -0.3214075652077E-01
-0.2669665490193E-03 -0.7370779742904E-03
-0.5844997700578E-03 -0.1502686763891E-02
-0.9232506760748E-03 -0.2286156879511E-02
-0.1268966561988E-02 -0.3074612030952E-02
-0.1619678318692E-02 -0.3859909243948E-02
-0.1978419067438E-02 -0.4638900971125E-02
-0.2349106980824E-02 -0.5411134029884E-02
-0.2735204945568E-02 -0.6177174405607E-02
-0.3139491322739E-02 -0.6937867626305E-02
-0.3564125581675E-02 -0.7694074477659E-02
-0.4010763760455E-02 -0.8446587052248E-02
-0.4480666495922E-02 -0.9196113998251E-02
-0.4974790050734E-02 -0.9943294264797E-02
-0.5493858061933E-02 -0.1068871572393E-01
-0.6038419765777E-02 -0.1143293484890E-01
-0.6608900051283E-02 -0.1217649618426E-01
-0.7205649265583E-02 -0.1291995491052E-01
-0.7828955650808E-02 -0.1366385184722E-01
-0.8479139969967E-02 -0.1440877970849E-01
-0.9156553727014E-02 -0.1515530934706E-01
-0.9861677856103E-02 -0.1590399326153E-01
-0.1059523034421E-01 -0.1665530842150E-01
-0.1135832517851E-01 -0.1740959094765E-01
-0.1215268809890E-01 -0.1816718358709E-01
-0.1298092435033E-01 -0.1892937618066E-01
-0.1384638156700E-01 -0.1969806303621E-01
-0.1475295475960E-01 -0.2047512982830E-01
-0.1570504292834E-01 -0.2126204705433E-01
-0.1670771804040E-01 -0.2205968456485E-01
-0.1776706665284E-01 -0.2286829610796E-01
-0.1889067449912E-01 -0.2368757903979E-01
-0.2008822039430E-01 -0.2451671530691E-01
-0.2137228737766E-01 -0.2535433862012E-01
-0.2275966914612E-01 -0.2619680518389E-01
-0.2427365879204E-01 -0.2703688565302E-01
-0.2594747510511E-01 -0.2786527444212E-01
-0.2782817754735E-01 -0.2867288286737E-01
-0.2997526680256E-01 -0.2946062490058E-01
-0.3243420626252E-01 -0.3025976850362E-01
-0.3515743519490E-01 -0.3113944045337E-01
-0.2474752222446E-03 -0.7180485526891E-03
-0.5461073122259E-03 -0.1462584735437E-02
-0.8713595422710E-03 -0.2225586702573E-02
-0.1209260804993E-02 -0.2996299317756E-02
-0.1556008033421E-02 -0.3766789133932E-02
-0.1912968157715E-02 -0.4533103470546E-02
-0.2283071402726E-02 -0.5293949517490E-02
-0.2669264105482E-02 -0.6049313313284E-02
-0.3074054458800E-02 -0.6799680412492E-02
-0.3499456295237E-02 -0.7545691114484E-02
-0.3947044884424E-02 -0.8288000636055E-02
-0.4418034758292E-02 -0.9027229101045E-02
-0.4913355216847E-02 -0.9763953264222E-02
-0.5433714042060E-02 -0.1049871125755E-01
-0.5979651643872E-02 -0.1123201302276E-01
-0.6551589317240E-02 -0.1196435299200E-01
-0.7149878804490E-02 -0.1269622685112E-01
-0.7774815759023E-02 -0.1342810156056E-01
-0.8426737188189E-02 -0.1416047466013E-01
-0.9106024022599E-02 -0.1489379552719E-01
-0.9813204917733E-02 -0.1562846455497E-01
-0.1054906417201E-01 -0.1636477811419E-01
-0.1131478836928E-01 -0.1710287175006E-01
-0.1211215660321E-01 -0.1784287135218E-01
-0.1294378290990E-01 -0.1858581174090E-01
-0.1381299997682E-01 -0.1933329872119E-01
-0.1472370423428E-01 -0.2008690553019E-01
-0.1568034086815E-01 -0.2084777039758E-01
-0.1668807891965E-01 -0.2161640766118E-01
-0.1775314102356E-01 -0.2239268232193E-01
-0.1888326955435E-01 -0.2317585738249E-01
-0.2008830544841E-01 -0.2396463121435E-01
-0.2138097833109E-01 -0.2475713819268E-01
-0.2277813564697E-01 -0.2554941621104E-01
-0.2430269730998E-01 -0.2633453141063E-01
-0.2598604636391E-01 -0.2710490654156E-01
-0.2786926607450E-01 -0.2785598188928E-01
-0.2999689823593E-01 -0.2859576409207E-01
-0.3238897764015E-01 -0.2935833571169E-01
-0.3498136037703E-01 -0.3020082154983E-01
-0.2300182321190E-03 -0.7004844516799E-03
-0.5114266332505E-03 -0.1425556528477E-02
-0.8235394198103E-03 -0.2169094524620E-02
-0.1153122991238E-02 -0.2922163407407E-02
-0.1495215072447E-02 -0.3677356823972E-02
-0.1849821192582E-02 -0.4430314696167E-02
-0.2218928318503E-02 -0.5179112460941E-02
-0.2604933296736E-02 -0.5923219025927E-02
-0.3010036962846E-02 -0.6662764720132E-02
-0.3436079574959E-02 -0.7398156667654E-02
-0.3884536455984E-02 -0.8129896707940E-02
-0.4356563448959E-02 -0.8858500787561E-02
-0.4853054922768E-02 -0.9584469975010E-02
-0.5374698034616E-02 -0.1030828139098E-01
-0.5922021885259E-02 -0.1103038910649E-01
-0.6495443428039E-02 -0.1175122973270E-01
-0.7095316479373E-02 -0.1247123323577E-01
-0.7721946016840E-02 -0.1319078816723E-01
-0.8375688142068E-02 -0.1391029476352E-01
-0.9056956101577E-02 -0.1463008289209E-01
-0.9766327209895E-02 -0.1535040911880E-01
-0.1050464872654E-01 -0.1607140511899E-01
-0.1127317257020E-01 -0.1679302827771E-01
-0.1207372493374E-01 -0.1751521365051E-01
-0.1290892820347E-01 -0.1823876711125E-01
-0.1378210338744E-01 -0.1896503200790E-01
-0.1469714879596E-01 -0.1969529748009E-01
-0.1565854842985E-01 -0.2043040469452E-01
-0.1667155102314E-01 -0.2117056182671E-01
-0.1774248653413E-01 -0.2191531863269E-01
-0.1887920960970E-01 -0.2266361597630E-01
-0.2009164873851E-01 -0.2341384264305E-01
-0.2139253954924E-01 -0.2416390257092E-01
-0.2279850792017E-01 -0.2490992175223E-01
-0.2433158028257E-01 -0.2564582677575E-01
-0.2602044487252E-01 -0.2636631468757E-01
-0.2789941266988E-01 -0.2707108464942E-01
-0.2999941630367E-01 -0.2777293642438E-01
-0.3232204386351E-01 -0.2850553919841E-01
-0.3479653684844E-01 -0.2931523028413E-01
-0.2142223099109E-03 -0.6840244868542E-03
-0.4798767009986E-03 -0.1390904406588E-02
-0.7793609361953E-03 -0.2115898769383E-02
-0.1100376008155E-02 -0.2851587412915E-02
-0.1437289254385E-02 -0.3591226385791E-02
-0.1789039699748E-02 -0.4330328484348E-02
-0.2156759681962E-02 -0.5066530261952E-02
-0.2542294308622E-02 -0.5798866621533E-02
-0.2947513598852E-02 -0.6527135712569E-02
-0.3374061931177E-02 -0.7251510426808E-02
-0.3823297734275E-02 -0.7972329932611E-02
-0.4296306308274E-02 -0.8689994801733E-02
-0.4793939225283E-02 -0.9404919748883E-02
-0.5316858101674E-02 -0.1011751152927E-01
-0.5865577996335E-02 -0.1082816045911E-01
-0.6440510455958E-02 -0.1153723890943E-01
-0.7042011629077E-02 -0.1224510624452E-01
-0.7670397098655E-02 -0.1295206962386E-01
-0.8326043891163E-02 -0.1365843170592E-01
-0.9009398928849E-02 -0.1436440670219E-01
-0.9721087365096E-02 -0.1507011682790E-01
-0.1046201493615E-01 -0.1577554466775E-01
-0.1123349164892E-01 -0.1648049003813E-01
-0.1203738470639E-01 -0.1718472080214E-01
-0.1287632329997E-01 -0.1788883844574E-01
-0.1375361762636E-01 -0.1859395029063E-01
-0.1467316542562E-01 -0.1930109235773E-01
-0.1563947881359E-01 -0.2001084825263E-01
-0.1665786440892E-01 -0.2072317396934E-01
-0.1773472403909E-01 -0.2143738105624E-01
-0.1887796950682E-01 -0.2215220091560E-01
-0.2009752632501E-01 -0.2286587882065E-01
-0.2140597773861E-01 -0.2357632815775E-01
-0.2281944705173E-01 -0.2428009009436E-01
-0.2435860376894E-01 -0.2497231841221E-01
-0.2604885515847E-01 -0.2565012998136E-01
-0.2791761973650E-01 -0.2631678822358E-01
-0.2998420354796E-01 -0.2698791619110E-01
-0.3223740574214E-01 -0.2769500285634E-01
-0.3460563182580E-01 -0.2847527693196E-01
-0.1998103296186E-03 -0.6684140956173E-03
-0.4509952768405E-03 -0.1358116850898E-02
-0.7384334502188E-03 -0.2065383925424E-02
-0.1050813218566E-02 -0.2784037272756E-02
-0.1382173440274E-02 -0.3508026695716E-02
-0.1730647020902E-02 -0.4232923577968E-02
-0.2096621552906E-02 -0.4956088268896E-02
-0.2481412146214E-02 -0.5676210489859E-02
-0.2886548274886E-02 -0.6392791544456E-02
-0.3313462672678E-02 -0.7105778664718E-02
-0.3763382891814E-02 -0.7815345576053E-02
-0.4237313080885E-02 -0.8521770578621E-02
-0.4736054576148E-02 -0.9225374228109E-02
-0.5260238578217E-02 -0.9926485562696E-02
-0.5810363216646E-02 -0.1062542479570E-01
-0.6386833278005E-02 -0.1132249497689E-01
-0.6990007061739E-02 -0.1201798131816E-01
-0.7620211367437E-02 -0.1271210804819E-01
-0.8277844968663E-02 -0.1340508151749E-01
-0.8963388473676E-02 -0.1409700550475E-01
-0.9677512687829E-02 -0.1478787801014E-01
-0.1042117656829E-01 -0.1547754765366E-01
-0.1119574096677E-01 -0.1616567583646E-01
-0.1200310789327E-01 -0.1685188521461E-01
-0.1284591052632E-01 -0.1753659648830E-01
-0.1372744668922E-01 -0.1822070763400E-01
-0.1465160817187E-01 -0.1890503404722E-01
-0.1562292128527E-01 -0.1958994353696E-01
-0.1664672475744E-01 -0.2027519579797E-01
-0.1772945125116E-01 -0.2095994111414E-01
-0.1887900658184E-01 -0.2164280908822E-01
-0.2010521315952E-01 -0.2232205126704E-01
-0.2142033857690E-01 -0.2299578994996E-01
-0.2283974206211E-01 -0.2366121754703E-01
-0.2438237064206E-01 -0.2431489790516E-01
-0.2607004169592E-01 -0.2495624040174E-01
-0.2792362806243E-01 -0.2559124492070E-01
-0.2995293573235E-01 -0.2623685589669E-01
-0.3213829541689E-01 -0.2692156385291E-01
-0.3441044444001E-01 -0.2767514870384E-01
-0.1865713698345E-03 -0.6534689806930E-03
-0.4244120313976E-03 -0.1326812218178E-02
-0.7004105031986E-03 -0.2017064017358E-02
-0.1004218505166E-02 -0.2719058123267E-02
-0.1329778515932E-02 -0.3427413645068E-02
-0.1674635035250E-02 -0.4137875952867E-02
-0.2038546177503E-02 -0.4847658064354E-02
-0.2422335237677E-02 -0.5555189419855E-02
-0.2827193561338E-02 -0.6259716388017E-02
-0.3254333219514E-02 -0.6960976346371E-02
-0.3704840321351E-02 -0.7658980375724E-02
-0.4179628885578E-02 -0.8353881562591E-02
-0.4679443271572E-02 -0.9045901273020E-02
-0.5204879600479E-02 -0.9735285485253E-02
-0.5756416124211E-02 -0.1042227952323E-01
-0.6334449266509E-02 -0.1110711337810E-01
-0.6939338862069E-02 -0.1178999584207E-01
-0.7571422871441E-02 -0.1247106797191E-01
-0.8231121691972E-02 -0.1315044233826E-01
-0.8918948473505E-02 -0.1382811847814E-01
-0.9635616428144E-02 -0.1450398062287E-01
-0.1038213192845E-01 -0.1517775801016E-01
-0.1115989936958E-01 -0.1584899161959E-01
-0.1197084904722E-01 -0.1651717964495E-01
-0.1281761397387E-01 -0.1718258486669E-01
-0.1370347571550E-01 -0.1784592255782E-01
-0.1463231197786E-01 -0.1850782050187E-01
-0.1560864643685E-01 -0.1916847303438E-01
-0.1663782086191E-01 -0.1982749897589E-01
-0.1772625360877E-01 -0.2048396100224E-01
-0.1888177653843E-01 -0.2113648509829E-01
-0.2011400573856E-01 -0.2178345676485E-01
-0.2143473687715E-01 -0.2242336043761E-01
-0.2285834221134E-01 -0.2305418629020E-01
-0.2440179531168E-01 -0.2367394344408E-01
-0.2608325175810E-01 -0.2428405045718E-01
-0.2791766165716E-01 -0.2489244838713E-01
-0.2990733199776E-01 -0.2551634574843E-01
-0.3202730031048E-01 -0.2618098772392E-01
-0.3421222831080E-01 -0.2691015959243E-01
-0.1743413788363E-03 -0.6390526239952E-03
-0.3998276574790E-03 -0.1296701156965E-02
-0.6649889604200E-03 -0.1970553478789E-02
-0.9603785589852E-03 -0.2656266077369E-02
-0.1279995342429E-02 -0.3349075734516E-02
-0.1620970969013E-02 -0.4044967500041E-02
-0.1982544833110E-02 -0.4741104392751E-02
-0.2365096269342E-02 -0.5435731230901E-02
-0.2769490648169E-02 -0.6127883336244E-02
-0.3196716712781E-02 -0.6817108845094E-02
-0.3647712142076E-02 -0.7503263454798E-02
-0.4123293724142E-02 -0.8186375570516E-02
-0.4624143006441E-02 -0.8866564923983E-02
-0.5150816722888E-02 -0.9543991035302E-02
-0.5703770326912E-02 -0.1021882109005E-01
-0.6283390074136E-02 -0.1089120959526E-01
-0.6890036309078E-02 -0.1156128786287E-01
-0.7524057465337E-02 -0.1222911467893E-01
-0.8185894587630E-02 -0.1289471236804E-01
-0.8876091255438E-02 -0.1355798308107E-01
-0.9595399021115E-02 -0.1421870781042E-01
-0.1034486545242E-01 -0.1487651043232E-01
-0.1112593106144E-01 -0.1553082851893E-01
-0.1194054746074E-01 -0.1618105551499E-01
-0.1279134203180E-01 -0.1682731842940E-01
-0.1368157408043E-01 -0.1747017606872E-01
-0.1461509664849E-01 -0.1811010126069E-01
-0.1559641150143E-01 -0.1874715632431E-01
-0.1663083194121E-01 -0.1938087220144E-01
-0.1772471445479E-01 -0.2001029173677E-01
-0.1888574747575E-01 -0.2063412277072E-01
-0.2012324047893E-01 -0.2125098709652E-01
-0.2144837750617E-01 -0.2185983764565E-01
-0.2287437072711E-01 -0.2245953017283E-01
-0.2441608150528E-01 -0.2304944919901E-01
-0.2608811141418E-01 -0.2363267147421E-01
-0.2790024035738E-01 -0.2421839417790E-01
-0.2984902812786E-01 -0.2482339618258E-01
-0.3190649035093E-01 -0.2546975145511E-01
-0.3401188511412E-01 -0.2617645260803E-01
-0.1629903128343E-03 -0.6250618913560E-03
-0.3769979432040E-03 -0.1267561069931E-02
-0.6319053608165E-03 -0.1925544565412E-02
-0.9190899110224E-03 -0.2595338669826E-02
-0.1232703747401E-02 -0.3272735483196E-02
-0.1569603613461E-02 -0.3953991626498E-02
-0.1928611006912E-02 -0.4636290608805E-02
-0.2309713468826E-02 -0.5317756807369E-02
-0.2713469665101E-02 -0.5997257091587E-02
-0.3140647891453E-02 -0.6674173609913E-02
-0.3592033897819E-02 -0.7348217255063E-02
-0.4068342131431E-02 -0.8019295196590E-02
-0.4570186539163E-02 -0.8687425410561E-02
-0.5098080630206E-02 -0.9352679384214E-02
-0.5652454245147E-02 -0.1001514438665E-01
-0.6233681514691E-02 -0.1067489826383E-01
-0.6842121898006E-02 -0.1133199489782E-01
-0.7478133038010E-02 -0.1198641269260E-01
-0.8142174903719E-02 -0.1263808805121E-01
-0.8834818594378E-02 -0.1328683302824E-01
-0.9556849296240E-02 -0.1393233583931E-01
-0.1030934922271E-01 -0.1457412845249E-01
-0.1109378739891E-01 -0.1521156116772E-01
-0.1191212927643E-01 -0.1584394143782E-01
-0.1276698991851E-01 -0.1647128183375E-01
-0.1366159851666E-01 -0.1709401014063E-01
-0.1459977082041E-01 -0.1771247576907E-01
-0.1558596553893E-01 -0.1832664844506E-01
-0.1662543452290E-01 -0.1893602023101E-01
-0.1772442416620E-01 -0.1953967412685E-01
-0.1889041162559E-01 -0.2013647064361E-01
-0.2013230744529E-01 -0.2072534399972E-01
-0.2146056747299E-01 -0.2130577858705E-01
-0.2288712416284E-01 -0.2187750054812E-01
-0.2442468607810E-01 -0.2244113415987E-01
-0.2608453083647E-01 -0.2300105433581E-01
-0.2787204967011E-01 -0.2356716383514E-01
-0.2977952032149E-01 -0.2415539196788E-01
-0.3177752735937E-01 -0.2478488156834E-01
-0.3381008242695E-01 -0.2547079674471E-01
-0.1524133474796E-03 -0.6114175349067E-03
-0.3557216979550E-03 -0.1239218446274E-02
-0.6009312955830E-03 -0.1881790047351E-02
-0.8801625474168E-03 -0.2536005544951E-02
-0.1187778997735E-02 -0.3198148388631E-02
-0.1520468645744E-02 -0.3864756486822E-02
-0.1876723584552E-02 -0.4533082729383E-02
-0.2256192162305E-02 -0.5201183474618E-02
-0.2659150284260E-02 -0.5867796383047E-02
-0.3086153201078E-02 -0.6532161748873E-02
-0.3537834435070E-02 -0.7193858475562E-02
-0.4014802965561E-02 -0.7852678265120E-02
-0.4517601470849E-02 -0.8508539229937E-02
-0.5046696949973E-02 -0.9161424908617E-02
-0.5602490989765E-02 -0.9811342245681E-02
-0.6185343540141E-02 -0.1045829240977E-01
-0.6795611460441E-02 -0.1110225290605E-01
-0.7433659833028E-02 -0.1174312448493E-01
-0.8099965191556E-02 -0.1238076256085E-01
-0.8795122596478E-02 -0.1301489664143E-01
-0.9519945662364E-02 -0.1364513245295E-01
-0.1027554442894E-01 -0.1427092293213E-01
-0.1106340862486E-01 -0.1489154640429E-01
-0.1188550954886E-01 -0.1550624212416E-01
-0.1274444217624E-01 -0.1611492858922E-01
-0.1364339618824E-01 -0.1671792684372E-01
-0.1458613581553E-01 -0.1731549266396E-01
-0.1557705433309E-01 -0.1790753965434E-01
-0.1662130868899E-01 -0.1849356484537E-01
-0.1772498798230E-01 -0.1907274236809E-01
-0.1889529457725E-01 -0.1964414080053E-01
-0.2014065950622E-01 -0.2020705780108E-01
-0.2147072045999E-01 -0.2076153490074E-01
-0.2289606199497E-01 -0.2130812723626E-01
-0.2442727797267E-01 -0.2184852911038E-01
-0.2607262512933E-01 -0.2238807893862E-01
-0.2783385420940E-01 -0.2293696460566E-01
-0.2970014785135E-01 -0.2351004029383E-01
-0.3164175262046E-01 -0.2412383322896E-01
-0.3360732595769E-01 -0.2479044419312E-01
-0.1425247250534E-03 -0.5980577587558E-03
-0.3358315894243E-03 -0.1211536425940E-02
-0.5718687122369E-03 -0.1839089991049E-02
-0.8434213745132E-03 -0.2478040052389E-02
-0.1145096268143E-02 -0.3125100568920E-02
-0.1473492965568E-02 -0.3777086481251E-02
-0.1826849819288E-02 -0.4431352239249E-02
-0.2204526433820E-02 -0.5085927666791E-02
-0.2606542498704E-02 -0.5739456012248E-02
-0.3033251065317E-02 -0.6391059417268E-02
-0.3485135911184E-02 -0.7040198900345E-02
-0.3962699297824E-02 -0.7686558207970E-02
-0.4466410101916E-02 -0.8329959161187E-02
-0.4996686128595E-02 -0.8970298899345E-02
-0.5553898296785E-02 -0.9607504877804E-02
-0.6138390271673E-02 -0.1024150262640E-01
-0.6750514335277E-02 -0.1087219521359E-01
-0.7390640809579E-02 -0.1149940916620E-01
-0.8059259904050E-02 -0.1212292429826E-01
-0.8756986562989E-02 -0.1274239524263E-01
-0.9484657236591E-02 -0.1335735526870E-01
-0.1024340275050E-01 -0.1396719056485E-01
-0.1103472551965E-01 -0.1457112194186E-01
-0.1186059422456E-01 -0.1516833723244E-01
-0.1272357507567E-01 -0.1575868008173E-01
-0.1362680763893E-01 -0.1634238757566E-01
-0.1457398927698E-01 -0.1691964937111E-01
-0.1556942487888E-01 -0.1749035579133E-01
-0.1661814355010E-01 -0.1805404677346E-01
-0.1772603241692E-01 -0.1861002896944E-01
-0.1889996200878E-01 -0.1915761925292E-01
-0.2014781739279E-01 -0.1969650711557E-01
-0.2147835551447E-01 -0.2022728696720E-01
-0.2290079053100E-01 -0.2075127087065E-01
-0.2442369797150E-01 -0.2127104242004E-01
-0.2605265150774E-01 -0.2179261138629E-01
-0.2778644228374E-01 -0.2232614321821E-01
-0.2961209628150E-01 -0.2288532123312E-01
-0.3150025478129E-01 -0.2348439696892E-01
-0.3340400187396E-01 -0.2413302461905E-01
-0.1332533516686E-03 -0.5849337554730E-03
-0.3171871594882E-03 -0.1184405902432E-02
-0.5445455603588E-03 -0.1797281656367E-02
-0.8087063922205E-03 -0.2421251975449E-02
-0.1104533605894E-02 -0.3053405826096E-02
-0.1428598121810E-02 -0.3690822590595E-02
-0.1778947986913E-02 -0.4330977916511E-02
-0.2154700795616E-02 -0.4971906987619E-02
-0.2555647530156E-02 -0.5612188586450E-02
-0.2981952308649E-02 -0.6250849075337E-02
-0.3433953942888E-02 -0.6887246202068E-02
-0.3912048425270E-02 -0.7520964480643E-02
-0.4416629396166E-02 -0.8151734358495E-02
-0.4948063404507E-02 -0.8779369380242E-02
-0.5506688552978E-02 -0.9403719447400E-02
-0.6092830117291E-02 -0.1002463642626E-01
-0.6706833619867E-02 -0.1064195165825E-01
-0.7349072070229E-02 -0.1125542145020E-01
-0.8020046037045E-02 -0.1186475572900E-01
-0.8720385865167E-02 -0.1246954193946E-01
-0.9450944953499E-02 -0.1306925060663E-01
-0.1021286769855E-01 -0.1366321283435E-01
-0.1100766099847E-01 -0.1425060551608E-01
-0.1183728205193E-01 -0.1483058074463E-01
-0.1270425891818E-01 -0.1540292522179E-01
-0.1361166957440E-01 -0.1596781308114E-01
-0.1456312851900E-01 -0.1652539272248E-01
-0.1556282936879E-01 -0.1707555994611E-01
-0.1661564184982E-01 -0.1761792923414E-01
-0.1772721019899E-01 -0.1815197154562E-01
-0.1890402404612E-01 -0.1867727814201E-01
-0.2015337126691E-01 -0.1919393946092E-01
-0.2148309155878E-01 -0.1970307609025E-01
-0.2290104414286E-01 -0.2020666722725E-01
-0.2441392222103E-01 -0.2070800957951E-01
-0.2602496116644E-01 -0.2121353997457E-01
-0.2773059172451E-01 -0.2173318730322E-01
-0.2951641117547E-01 -0.2227944690440E-01
-0.3135392400479E-01 -0.2286462687472E-01
-0.3320039578766E-01 -0.2349646252566E-01
-0.1245395839450E-03 -0.5720065456663E-03
-0.2996694654139E-03 -0.1157739057792E-02
-0.5188119331032E-03 -0.1756231743331E-02
-0.7758721223646E-03 -0.2365481378371E-02
-0.1065973789464E-02 -0.2982902550594E-02
-0.1385702935324E-02 -0.3605821943492E-02
-0.1732969667392E-02 -0.4231846874742E-02
-0.2106691774680E-02 -0.4859041706984E-02
-0.2506458786720E-02 -0.5485945906777E-02
-0.2932260671914E-02 -0.6111510553547E-02
-0.3384297851240E-02 -0.6735004645812E-02
-0.3862861970420E-02 -0.7355922932255E-02
-0.4368271020795E-02 -0.7973910429735E-02
-0.4900838847973E-02 -0.8588700933027E-02
-0.5460868881021E-02 -0.9200069672038E-02
-0.6048665942499E-02 -0.9807797637003E-02
-0.6664566465321E-02 -0.1041164780423E-01
-0.7308943317986E-02 -0.1101131072034E-01
-0.7982303777592E-02 -0.1160643235235E-01
-0.8685288799047E-02 -0.1219654056936E-01
-0.9418762629089E-02 -0.1278105248978E-01
-0.1018387589388E-01 -0.1335925514646E-01
-0.1098213162851E-01 -0.1393029421121E-01
-0.1181546638738E-01 -0.1449330054479E-01
-0.1268636019224E-01 -0.1504802035497E-01
-0.1359781742471E-01 -0.1559458383736E-01
-0.1455335353060E-01 -0.1613312008441E-01
-0.1555702862171E-01 -0.1666355480649E-01
-0.1661352367225E-01 -0.1718560229685E-01
-0.1772820380612E-01 -0.1769892043556E-01
-0.1890713753880E-01 -0.1820338839104E-01
-0.2015697956995E-01 -0.1869949107466E-01
-0.2148463924598E-01 -0.1918883301026E-01
-0.2289666606123E-01 -0.1967396310261E-01
-0.2439803064040E-01 -0.2015872878227E-01
-0.2598996389253E-01 -0.2064979712742E-01
-0.2766704865470E-01 -0.2115671690889E-01
-0.2941401673277E-01 -0.2169083588058E-01
-0.3120349880953E-01 -0.2226277795991E-01
-0.3299669104323E-01 -0.2287891622081E-01
-0.1163328419560E-03 -0.5592447044697E-03
-0.2831769385034E-03 -0.1131464591044E-02
-0.4945367341686E-03 -0.1715830411625E-02
-0.7447866442742E-03 -0.2310593469187E-02
-0.1029305400878E-02 -0.2913450712836E-02
-0.1344725454923E-02 -0.3521956918766E-02
-0.1688861654948E-02 -0.4133855022464E-02
-0.2060469369430E-02 -0.4747255786785E-02
-0.2458962825466E-02 -0.5360680045179E-02
-0.2884173389442E-02 -0.5973021935877E-02
-0.3336170984301E-02 -0.6583475698512E-02
-0.3815146057817E-02 -0.7191456137117E-02
-0.4321341456919E-02 -0.7796529513007E-02
-0.4855017464337E-02 -0.8398354546308E-02
-0.5416441281353E-02 -0.8996635468889E-02
-0.6005895290271E-02 -0.9591085868120E-02
-0.6623704410796E-02 -0.1018140425531E-01
-0.7270238336969E-02 -0.1076722022551E-01
-0.7946007154831E-02 -0.1134812183125E-01
-0.8651657418796E-02 -0.1192358482962E-01
-0.9388057980707E-02 -0.1249298184713E-01
-0.1015635828132E-01 -0.1305556617558E-01
-0.1095804906157E-01 -0.1361046401679E-01
-0.1179503688570E-01 -0.1415679826044E-01
-0.1266974356268E-01 -0.1469428949355E-01
-0.1358508765704E-01 -0.1522304084831E-01
-0.1454446959898E-01 -0.1574318100359E-01
-0.1555179492921E-01 -0.1625468562834E-01
-0.1661152926604E-01 -0.1675738791178E-01
-0.1772872770373E-01 -0.1725114685734E-01
-0.1890900658446E-01 -0.1773613235183E-01
-0.2015836586602E-01 -0.1821320538966E-01
-0.2148279140034E-01 -0.1868440256361E-01
-0.2288758997519E-01 -0.1915274471015E-01
-0.2437618084214E-01 -0.1962248629107E-01
-0.2594810133254E-01 -0.2010037067232E-01
-0.2759651960455E-01 -0.2059547743671E-01
-0.2930571924721E-01 -0.2111807411019E-01
-0.3104964622588E-01 -0.2167733106829E-01
-0.3279287487372E-01 -0.2227858765679E-01
-0.1085902047076E-03 -0.5466217569505E-03
-0.2676251423502E-03 -0.1105526972834E-02
-0.4716123355098E-03 -0.1675997606191E-02
-0.7153440259914E-03 -0.2256498138372E-02
-0.9944440585633E-03 -0.2844970391529E-02
-0.1305612747718E-02 -0.3439177453034E-02
-0.1646603628677E-02 -0.4036997161517E-02
-0.2016041918576E-02 -0.4636598483023E-02
-0.2413190794394E-02 -0.5236500185117E-02
-0.2837738572608E-02 -0.5835555501608E-02
-0.3289633352280E-02 -0.6432897064386E-02
-0.3768968435922E-02 -0.7027869634305E-02
-0.4275912771241E-02 -0.7619967952499E-02
-0.4810672712135E-02 -0.8208781100475E-02
-0.5373477928766E-02 -0.8793946789851E-02
-0.5964586419354E-02 -0.9375115438174E-02
-0.6584309048536E-02 -0.9951925650431E-02
-0.7233009077628E-02 -0.1052395138216E-01
-0.7911195234593E-02 -0.1109072912576E-01
-0.8619514420742E-02 -0.1165169005880E-01
-0.9358833684067E-02 -0.1220617104054E-01
-0.1013029378373E-01 -0.1275340148745E-01
-0.1093536470985E-01 -0.1329249910455E-01
-0.1177591370827E-01 -0.1382259091923E-01
-0.1265429433721E-01 -0.1434338529201E-01
-0.1357332759412E-01 -0.1485497307120E-01
-0.1453628413046E-01 -0.1535749828247E-01
-0.1554689633839E-01 -0.1585100199638E-01
-0.1660939240123E-01 -0.1633544890582E-01
-0.1772849402425E-01 -0.1681090476355E-01
-0.1890934611743E-01 -0.1727782261327E-01
-0.2015728936807E-01 -0.1773741050524E-01
-0.2147741472528E-01 -0.1819207798819E-01
-0.2287387535701E-01 -0.1864522216560E-01
-0.2434872107195E-01 -0.1910137939606E-01
-0.2590008768196E-01 -0.1956725200377E-01
-0.2752009417178E-01 -0.2005140503545E-01
-0.2919289860025E-01 -0.2056310420719E-01
-0.3089380858607E-01 -0.2111031798165E-01
-0.3259053271159E-01 -0.2169729508080E-01
-0.1012739152000E-03 -0.5341179768793E-03
-0.2529350492022E-03 -0.1079875921059E-02
-0.4499290749121E-03 -0.1636647265721E-02
-0.6874212484715E-03 -0.2203075804639E-02
-0.9612687184549E-03 -0.2777315946993E-02
-0.1268254554102E-02 -0.3357319948642E-02
-0.1606098462796E-02 -0.3941097041351E-02
-0.1973323621795E-02 -0.4526882285173E-02
-0.2369064660251E-02 -0.5113205624481E-02
-0.2792882239825E-02 -0.5698893310796E-02
-0.3244611900234E-02 -0.6283028511695E-02
-0.3724254634027E-02 -0.6864895584734E-02
-0.4231907436411E-02 -0.7443925124858E-02
-0.4767722891195E-02 -0.8019642304569E-02
-0.5331892174515E-02 -0.8591623089011E-02
-0.5924647142533E-02 -0.9159459164497E-02
-0.6546282138726E-02 -0.9722733841551E-02
-0.7197150751709E-02 -0.1028097060560E-01
-0.7877756199793E-02 -0.1083366036681E-01
-0.8588740539334E-02 -0.1138019663254E-01
-0.9330962731621E-02 -0.1191988835035E-01
-0.1010554752590E-01 -0.1245194982376E-01
-0.1091393585629E-01 -0.1297549989128E-01
-0.1175794640528E-01 -0.1348968019128E-01
-0.1263985444390E-01 -0.1399419821913E-01
-0.1356237173792E-01 -0.1448914477323E-01
-0.1452862486756E-01 -0.1497469179809E-01
-0.1554215572689E-01 -0.1545095726769E-01
-0.1660693538219E-01 -0.1591804526642E-01
-0.1772733277457E-01 -0.1637622863231E-01
-0.1890800796599E-01 -0.1682623088560E-01
-0.2015364516726E-01 -0.1726957488770E-01
-0.2146847571518E-01 -0.1770898578338E-01
-0.2285558893476E-01 -0.1814815226204E-01
-0.2431583204515E-01 -0.1859179070020E-01
-0.2584618775064E-01 -0.1904647759588E-01
-0.2743801768874E-01 -0.1952024291387E-01
-0.2907558051793E-01 -0.2002144152145E-01
-0.3073556884141E-01 -0.2055697974801E-01
-0.3238855128268E-01 -0.2113033622874E-01
-0.9435134014019E-04 -0.5217159685085E-03
-0.2390404571382E-03 -0.1054471551443E-02
-0.4293970630138E-03 -0.1597715883391E-02
-0.6609202542806E-03 -0.2150244446202E-02
-0.9296873497257E-03 -0.2710396493132E-02
-0.1232573718913E-02 -0.3276295350803E-02
-0.1567286958365E-02 -0.3846076223069E-02
-0.1932272193604E-02 -0.4418045006819E-02
-0.2326555897121E-02 -0.4990753134208E-02
-0.2749585858254E-02 -0.5563011758067E-02
-0.3201094529879E-02 -0.6133865635127E-02
-0.3680995948014E-02 -0.6702547987697E-02
-0.4189317639738E-02 -0.7268432708241E-02
-0.4726159005467E-02 -0.7830987079343E-02
-0.5291672045985E-02 -0.8389730451073E-02
-0.5886060862058E-02 -0.8944200544078E-02
-0.6509600849129E-02 -0.9493930215713E-02
-0.7162632660447E-02 -0.1003839773248E-01
-0.7845649816215E-02 -0.1057705429924E-01
-0.8559284329173E-02 -0.1110926235413E-01
-0.9304380839550E-02 -0.1163431026140E-01
-0.1008204086071E-01 -0.1215140521635E-01
-0.1089366810561E-01 -0.1265967580007E-01
-0.1174102363135E-01 -0.1315828739585E-01
-0.1262629466371E-01 -0.1364695631566E-01
-0.1355207262616E-01 -0.1412578336624E-01
-0.1452132686951E-01 -0.1459497811670E-01
-0.1553739354791E-01 -0.1505474324580E-01
-0.1660397046113E-01 -0.1550532556683E-01
-0.1772505982022E-01 -0.1594720019966E-01
-0.1890483097284E-01 -0.1638134352609E-01
-0.2014732372417E-01 -0.1680955790116E-01
-0.2145595408022E-01 -0.1723482815569E-01
-0.2283284138352E-01 -0.1766105898758E-01
-0.2427778818264E-01 -0.1809306363191E-01
-0.2578684226311E-01 -0.1853723245114E-01
-0.2735084401828E-01 -0.1900106183005E-01
-0.2895431926885E-01 -0.1949207916125E-01
-0.3057532833340E-01 -0.2001628382134E-01
-0.3218696600527E-01 -0.2057655638205E-01
-0.8779383213541E-04 -0.5094012933387E-03
-0.2258831414610E-03 -0.1029280560578E-02
-0.4099362928969E-03 -0.1559150001413E-02
-0.6357519728970E-03 -0.2097934090839E-02
-0.8996140772250E-03 -0.2644133163216E-02
-0.1198495840145E-02 -0.3196024859115E-02
-0.1530109723429E-02 -0.3751863823006E-02
-0.1892843089089E-02 -0.4310029167025E-02
-0.2285632508182E-02 -0.4869101684411E-02
-0.2707826843293E-02 -0.5427887459349E-02
-0.3159064893160E-02 -0.5985402779136E-02
-0.3639179415764E-02 -0.6540838507197E-02
-0.4148131368941E-02 -0.7093519200718E-02
-0.4685967920314E-02 -0.7642860422133E-02
-0.5252801475003E-02 -0.8188330274695E-02
-0.5848806919863E-02 -0.8729417503580E-02
-0.6474238346621E-02 -0.9265609497808E-02
-0.7129420234636E-02 -0.9796344567784E-02
-0.7814832235547E-02 -0.1032103993538E-01
-0.8531091169562E-02 -0.1083903322481E-01
-0.9279021225166E-02 -0.1134959899510E-01
-0.1005969361498E-01 -0.1185194456655E-01
-0.1087446688208E-01 -0.1234521584426E-01
-0.1172503568890E-01 -0.1282860975677E-01
-0.1261348988554E-01 -0.1330185946174E-01
-0.1354229017637E-01 -0.1376508373502E-01
-0.1451423684014E-01 -0.1421853679221E-01
-0.1553244728547E-01 -0.1466251048116E-01
-0.1660033340953E-01 -0.1509739378171E-01
-0.1772152180152E-01 -0.1552385521179E-01
-0.1889969185937E-01 -0.1594310300629E-01
-0.2013825849707E-01 -0.1635718253239E-01
-0.2143987275349E-01 -0.1676928560067E-01
-0.2280577829980E-01 -0.1718346705832E-01
-0.2423487952469E-01 -0.1760457049152E-01
-0.2572247813381E-01 -0.1803875992627E-01
-0.2725908376269E-01 -0.1849301278047E-01
-0.2882960669289E-01 -0.1897411271076E-01
-0.3041342807937E-01 -0.1948729069276E-01
-0.3198584829002E-01 -0.2003496282330E-01
-0.8157606377893E-04 -0.4971618829507E-03
-0.2134115737373E-03 -0.1004274991083E-02
-0.3914752315189E-03 -0.1520904399112E-02
-0.6118353407035E-03 -0.2046084842924E-02
-0.8709688632522E-03 -0.2578457404065E-02
-0.1165949527235E-02 -0.3116438753285E-02
-0.1494507767289E-02 -0.3658395900783E-02
-0.1854990204243E-02 -0.4202781816035E-02
-0.2246259685720E-02 -0.4748212533358E-02
-0.2667579116623E-02 -0.5293497451464E-02
-0.3118502843285E-02 -0.5837633242930E-02
-0.3598788184448E-02 -0.6379776622143E-02
-0.4108332728751E-02 -0.6919209988472E-02
-0.4647132661998E-02 -0.7455303387335E-02
-0.5215260610444E-02 -0.7987479173314E-02
-0.5812860948855E-02 -0.8515182238482E-02
-0.6440164207422E-02 -0.9037859554531E-02
-0.7097475518153E-02 -0.9554914688257E-02
-0.7785256560485E-02 -0.1006573640008E-01
-0.8504103914207E-02 -0.1056964337952E-01
-0.9254815340930E-02 -0.1106590259156E-01
-0.1003842490579E-01 -0.1155372793760E-01
-0.1085623832241E-01 -0.1203228920678E-01
-0.1170987548096E-01 -0.1250082136536E-01
-0.1260132007923E-01 -0.1295908084820E-01
-0.1353289260036E-01 -0.1340721037805E-01
-0.1450721384636E-01 -0.1384551337773E-01
-0.1552717175707E-01 -0.1427437238873E-01
-0.1659588307802E-01 -0.1469431474788E-01
-0.1771659450701E-01 -0.1510619038722E-01
-0.1889250189834E-01 -0.1551141630311E-01
-0.2012642050397E-01 -0.1591224468254E-01
-0.2142029036491E-01 -0.1631202591546E-01
-0.2277457160246E-01 -0.1671490874091E-01
-0.2418740410477E-01 -0.1712571517715E-01
-0.2565350541139E-01 -0.1755035820793E-01
-0.2716320639403E-01 -0.1799532023647E-01
-0.2870188118933E-01 -0.1846672182692E-01
-0.3025016440646E-01 -0.1896914696111E-01
-0.3178528944769E-01 -0.1950464155289E-01
-0.7567549511248E-04 -0.4849875895923E-03
-0.2015798808043E-03 -0.9794312408231E-03
-0.3739496365355E-03 -0.1482940628179E-02
-0.5890964086767E-03 -0.1994645221763E-02
-0.8436771295980E-03 -0.2513309456706E-02
-0.1134866507828E-02 -0.3037475243423E-02
-0.1460422921424E-02 -0.3565614735411E-02
-0.1818666425099E-02 -0.4096254160356E-02
-0.2208400356504E-02 -0.4628049068571E-02
-0.2628813582136E-02 -0.5159819119938E-02
-0.3079384825588E-02 -0.5690549197216E-02
-0.3559801829312E-02 -0.6219369469842E-02
-0.4069902213086E-02 -0.6745527082790E-02
-0.4609632671698E-02 -0.7268352704190E-02
-0.5179026080980E-02 -0.7787228475182E-02
-0.5778195167608E-02 -0.8301560607239E-02
-0.6407344762172E-02 -0.8810760703126E-02
-0.7066757576401E-02 -0.9314202693996E-02
-0.7756873323922E-02 -0.9811252160556E-02
-0.8478263443623E-02 -0.1030121433708E-01
-0.9231693498911E-02 -0.1078335422872E-01
-0.1001815383253E-01 -0.1125689799990E-01
-0.1083889002493E-01 -0.1172104488133E-01
-0.1169543929375E-01 -0.1217507310537E-01
-0.1258967106342E-01 -0.1261876729659E-01
-0.1352375707066E-01 -0.1305229826134E-01
-0.1450012974160E-01 -0.1347602097812E-01
-0.1552143908037E-01 -0.1389040767670E-01
-0.1659050060746E-01 -0.1429611762091E-01
-0.1771018095468E-01 -0.1469416794861E-01
-0.1888320348199E-01 -0.1508616031798E-01
-0.2011181314875E-01 -0.1547451889215E-01
-0.2139729455152E-01 -0.1586270912735E-01
-0.2273941230321E-01 -0.1625492648788E-01
-0.2413566214019E-01 -0.1665593189406E-01
-0.2558031503364E-01 -0.1707137453747E-01
-0.2706364315470E-01 -0.1750727154481E-01
-0.2857153468151E-01 -0.1796915603348E-01
-0.3008580150190E-01 -0.1846106655804E-01
-0.3158538874820E-01 -0.1898474429467E-01
-0.7007194588419E-04 -0.4728698314860E-03
-0.1903470018147E-03 -0.9547292778370E-03
-0.3573015769074E-03 -0.1445225847695E-02
-0.5674675718078E-03 -0.1943570825335E-02
-0.8176694002571E-03 -0.2448637120922E-02
-0.1105181692425E-02 -0.2959079541230E-02
-0.1427798208685E-02 -0.3473468281844E-02
-0.1783824153740E-02 -0.3990401373417E-02
-0.2172015748043E-02 -0.4508576883504E-02
-0.2591498665625E-02 -0.5026830445513E-02
-0.3041684366233E-02 -0.5544142023482E-02
-0.3522196794059E-02 -0.6059622228128E-02
-0.4032817113279E-02 -0.6572489519918E-02
-0.4573444202437E-02 -0.7082041188423E-02
-0.5144071401211E-02 -0.7587624655038E-02
-0.5744778813266E-02 -0.8088612602075E-02
-0.6375743568832E-02 -0.8584386249407E-02
-0.7037223017312E-02 -0.9074294849705E-02
-0.7729631060839E-02 -0.9557685814146E-02
-0.8453509285897E-02 -0.1003385598421E-01
-0.9209585534280E-02 -0.1050207345947E-01
-0.9998800172619E-02 -0.1096158158678E-01
-0.1082233175984E-01 -0.1141161362393E-01
-0.1168162748960E-01 -0.1185149509275E-01
-0.1257843512597E-01 -0.1228104229799E-01
-0.1351477017821E-01 -0.1270045658597E-01
-0.1449286932371E-01 -0.1311014488846E-01
-0.1551513833684E-01 -0.1351066599182E-01
-0.1658408834589E-01 -0.1390280261592E-01
-0.1770220927570E-01 -0.1428772342726E-01
-0.1887176672773E-01 -0.1466719048814E-01
-0.2009446750264E-01 -0.1504376716399E-01
-0.2137099629131E-01 -0.1542099555781E-01
-0.2270050491904E-01 -0.1580307900504E-01
-0.2407995217228E-01 -0.1619468814026E-01
-0.2550327848573E-01 -0.1660120461066E-01
-0.2696079113235E-01 -0.1702821309629E-01
-0.2843892091218E-01 -0.1748072814807E-01
-0.2992058036289E-01 -0.1796232565160E-01
-0.3138624672382E-01 -0.1847448994938E-01
-0.6474724821182E-04 -0.4608013099443E-03
-0.1796759934705E-03 -0.9301520007385E-03
-0.3414785985729E-03 -0.1407731849535E-02
-0.5468868672345E-03 -0.1892823165036E-02
-0.7928809106315E-03 -0.2384394602753E-02
-0.1076833124272E-02 -0.2881202886481E-02
-0.1396578055458E-02 -0.3381909450220E-02
-0.1750415667669E-02 -0.3885182112044E-02
-0.2137065795829E-02 -0.4389763462499E-02
-0.2555600707319E-02 -0.4894509773959E-02
-0.3005372422873E-02 -0.5398402094969E-02
-0.3485946697382E-02 -0.5900537853775E-02
-0.3997051792276E-02 -0.6400113023641E-02
-0.4538540578653E-02 -0.6896397312903E-02
-0.5110367235241E-02 -0.7388708810091E-02
-0.5712578425768E-02 -0.7876391737997E-02
-0.6345321730556E-02 -0.8358801806053E-02
-0.7008826351320E-02 -0.8835268355929E-02
-0.7703476714004E-02 -0.9305125342637E-02
-0.8429780067061E-02 -0.9767665849429E-02
-0.9188421294871E-02 -0.1022216554819E-01
-0.9980284899413E-02 -0.1066788914466E-01
-0.1080647599577E-01 -0.1110410757807E-01
-0.1166834500781E-01 -0.1153019654986E-01
-0.1256751144114E-01 -0.1194600622392E-01
-0.1350582817515E-01 -0.1235176943447E-01
-0.1448533027056E-01 -0.1274794377720E-01
-0.1550817502068E-01 -0.1313516972194E-01
-0.1657656859060E-01 -0.1351434345422E-01
-0.1769263052040E-01 -0.1388676865722E-01
-0.1885818618586E-01 -0.1425434403012E-01
-0.2007443795092E-01 -0.1461974188860E-01
-0.2134152489743E-01 -0.1498654759422E-01
-0.2265806271767E-01 -0.1535894091232E-01
-0.2402056787599E-01 -0.1574148149075E-01
-0.2542274743637E-01 -0.1613928627024E-01
-0.2685501624435E-01 -0.1655754132468E-01
-0.2830436099214E-01 -0.1700080391298E-01
-0.2975472198283E-01 -0.1747225444219E-01
-0.3118796015107E-01 -0.1797315770639E-01
-0.5968496396634E-04 -0.4487757806188E-03
-0.1695334624325E-03 -0.9056847244155E-03
-0.3264330315439E-03 -0.1370434272894E-02
-0.5272973746928E-03 -0.1842368719845E-02
-0.7692512579800E-03 -0.2320541572417E-02
-0.1049761922551E-02 -0.2803801754200E-02
-0.1366708478555E-02 -0.3290895541216E-02
-0.1718393461938E-02 -0.3780558187324E-02
-0.2103509556579E-02 -0.4271578046314E-02
-0.2521084387697E-02 -0.4762835816898E-02
-0.2970417792874E-02 -0.5253318856684E-02
-0.3451022715375E-02 -0.5742117199589E-02
-0.3962578046466E-02 -0.6228410134028E-02
-0.4504892549124E-02 -0.6711445337763E-02
-0.5077881753989E-02 -0.7190516793830E-02
-0.5681558221461E-02 -0.7664945202829E-02
-0.6316038294335E-02 -0.8134065479919E-02
-0.6981520419549E-02 -0.8597191602018E-02
-0.7678356091621E-02 -0.9053648465824E-02
-0.8407013993523E-02 -0.9502729598243E-02
-0.9168131138935E-02 -0.9943722154978E-02
-0.9962530679872E-02 -0.1037591566119E-01
-0.1079123837301E-01 -0.1079862151063E-01
-0.1165550177447E-01 -0.1121126742223E-01
-0.1255680635609E-01 -0.1161373840599E-01
-0.1349683705003E-01 -0.1200629839984E-01
-0.1447742288284E-01 -0.1238945294415E-01
-0.1550047029529E-01 -0.1276391793381E-01
-0.1656788218451E-01 -0.1313069196544E-01
-0.1768141643779E-01 -0.1349119690823E-01
-0.1884247773492E-01 -0.1384744529247E-01
-0.2005179833851E-01 -0.1420219089215E-01
-0.2130902387294E-01 -0.1455903372741E-01
-0.2261230412447E-01 -0.1492210503017E-01
-0.2395779612041E-01 -0.1529583961360E-01
-0.2533905441418E-01 -0.1568509720695E-01
-0.2674665679959E-01 -0.1609469864504E-01
-0.2816814859202E-01 -0.1652879768084E-01
-0.2958843029660E-01 -0.1699023423705E-01
-0.3099062116047E-01 -0.1748008392312E-01
-0.5487015331376E-04 -0.4367878674685E-03
-0.1598890969133E-03 -0.8813147594907E-03
-0.3121214063364E-03 -0.1333311954410E-02
-0.5086466924787E-03 -0.1792178137962E-02
-0.7467240716127E-03 -0.2257042345345E-02
-0.1023912195145E-02 -0.2726837136061E-02
-0.1338137212524E-02 -0.3200387701567E-02
-0.1687710524300E-02 -0.3676494211357E-02
-0.2071305561510E-02 -0.4153991445091E-02
-0.2487913106283E-02 -0.4631787586124E-02
-0.2936787487329E-02 -0.5108880834883E-02
-0.3417393939367E-02 -0.5584359062155E-02
-0.3929365448495E-02 -0.6057390269648E-02
-0.4472468622545E-02 -0.6527205376373E-02
-0.5046580973486E-02 -0.6993079286454E-02
-0.5651680443256E-02 -0.7454313942394E-02
-0.6287850619472E-02 -0.7910227990365E-02
-0.6955256783333E-02 -0.8360124342925E-02
-0.7654214276320E-02 -0.8803322908240E-02
-0.8385149274423E-02 -0.9239121427048E-02
-0.9148646359852E-02 -0.9666821899852E-02
-0.9945462284383E-02 -0.1008574144941E-01
-0.1077653807197E-01 -0.1049523387241E-01
-0.1164301298940E-01 -0.1089477977910E-01
-0.1254623353737E-01 -0.1128429894420E-01
-0.1348771245100E-01 -0.1166408486830E-01
-0.1446906967525E-01 -0.1203468713074E-01
-0.1549196012209E-01 -0.1239688972904E-01
-0.1655798704742E-01 -0.1275178194016E-01
-0.1766855730669E-01 -0.1310088707601E-01
-0.1882467570859E-01 -0.1344630997606E-01
-0.2002663857522E-01 -0.1379086121747E-01
-0.2127364744683E-01 -0.1413813131152E-01
-0.2256344992481E-01 -0.1449218355938E-01
-0.2389191571288E-01 -0.1485731953926E-01
-0.2525251376857E-01 -0.1523815240379E-01
-0.2663602665054E-01 -0.1563916971200E-01
-0.2803055391417E-01 -0.1606416866195E-01
-0.2942189429396E-01 -0.1651569424899E-01
-0.3079431733443E-01 -0.1699465822891E-01
-0.5028918413741E-04 -0.4248329097441E-03
-0.1507152774784E-03 -0.8570310618542E-03
-0.2985039586872E-03 -0.1296346376674E-02
-0.4908864752717E-03 -0.1742225540276E-02
-0.7252466982169E-03 -0.2193865137238E-02
-0.9992309207904E-03 -0.2650273844050E-02
-0.1310813775216E-02 -0.3110350340292E-02
-0.1658320534792E-02 -0.3572957145737E-02
-0.2040412093065E-02 -0.4036975702655E-02
-0.2456049289356E-02 -0.4501344137708E-02
-0.2904447040866E-02 -0.4965075420660E-02
-0.3385027674894E-02 -0.5427259970207E-02
-0.3897381633934E-02 -0.5887059496158E-02
-0.4441235346976E-02 -0.6343693130591E-02
-0.5016429034731E-02 -0.6796421493451E-02
-0.5622905648225E-02 -0.7244532327951E-02
-0.6260714678043E-02 -0.7687332318644E-02
-0.6929986039273E-02 -0.8124117350185E-02
-0.7630995952529E-02 -0.8554206077139E-02
-0.8364124454610E-02 -0.8976903798892E-02
-0.9129899512889E-02 -0.9391530192424E-02
-0.9929006888931E-02 -0.9797432113010E-02
-0.1076229806318E-01 -0.1019400694640E-01
-0.1163079928359E-01 -0.1058078819590E-01
-0.1253571397801E-01 -0.1095772937646E-01
-0.1347837946507E-01 -0.1132515102275E-01
-0.1446020483047E-01 -0.1168364188677E-01
-0.1548259427875E-01 -0.1203404596579E-01
-0.1654685665360E-01 -0.1237753113268E-01
-0.1765405980942E-01 -0.1271570579558E-01
-0.1880483019964E-01 -0.1305074706575E-01
-0.1999906156990E-01 -0.1338550046414E-01
-0.2123555755441E-01 -0.1372352684165E-01
-0.2251172090527E-01 -0.1406880688424E-01
-0.2382319636939E-01 -0.1442550479729E-01
-0.2516342239440E-01 -0.1479799977914E-01
-0.2652341743601E-01 -0.1519047617022E-01
-0.2789182619167E-01 -0.1560641557022E-01
-0.2925528898977E-01 -0.1604810622799E-01
-0.3059913128930E-01 -0.1651631735469E-01
-0.4592957559902E-04 -0.4129068360452E-03
-0.1419867576709E-03 -0.8328239490473E-03
-0.2855442202642E-03 -0.1259521226057E-02
-0.4739720483414E-03 -0.1692487966154E-02
-0.7047699380287E-03 -0.2130981479402E-02
-0.9756678562858E-03 -0.2574079981684E-02
-0.1284689543431E-02 -0.3020750719448E-02
-0.1630178074108E-02 -0.3469916041106E-02
-0.2010787479784E-02 -0.3920503983617E-02
-0.2425454730617E-02 -0.4371484586757E-02
-0.2873360869964E-02 -0.4821888986332E-02
-0.3353889802502E-02 -0.5270814379392E-02
-0.3866592659322E-02 -0.5717420783756E-02
-0.4411157665912E-02 -0.6160920204407E-02
-0.4987388561150E-02 -0.6600563517935E-02
-0.5595193069708E-02 -0.7035628597874E-02
-0.6234585423024E-02 -0.7465414236675E-02
-0.6905658191682E-02 -0.7889213051688E-02
-0.7608645777780E-02 -0.8306345842603E-02
-0.8343878775082E-02 -0.8716128398166E-02
-0.9111824750175E-02 -0.9117900400098E-02
-0.9913094363825E-02 -0.9511039971377E-02
-0.1074844532076E-01 -0.9894988576600E-02
-0.1161878681708E-01 -0.1026933183563E-01
-0.1252517592651E-01 -0.1063405515875E-01
-0.1346877231006E-01 -0.1098950275883E-01
-0.1445077357428E-01 -0.1133629693796E-01
-0.1547233533491E-01 -0.1167533305404E-01
-0.1653447854270E-01 -0.1200784539812E-01
-0.1763794506346E-01 -0.1233551174870E-01
-0.1878300469631E-01 -0.1266056303881E-01
-0.1996918070391E-01 -0.1298586054522E-01
-0.2119492155546E-01 -0.1331491888085E-01
-0.2245733636263E-01 -0.1365162537046E-01
-0.2375189855852E-01 -0.1400000599179E-01
-0.2507206119488E-01 -0.1436421975252E-01
-0.2640910136891E-01 -0.1474817571749E-01
-0.2775219677821E-01 -0.1515507568758E-01
-0.2908877764430E-01 -0.1558698347206E-01
-0.3040514212614E-01 -0.1604454364540E-01
-0.4177986858745E-04 -0.4010060590141E-03
-0.1336803961425E-03 -0.8086848568963E-03
-0.2732086675067E-03 -0.1222822002718E-02
-0.4578620630248E-03 -0.1642944865715E-02
-0.6852477891743E-03 -0.2068365651879E-02
-0.9531754151947E-03 -0.2498226383704E-02
-0.1259717769892E-02 -0.2931558450957E-02
-0.1603238753708E-02 -0.3367341615293E-02
-0.1982390302917E-02 -0.3804550231651E-02
-0.2396090839896E-02 -0.4242187827684E-02
-0.2843492538596E-02 -0.4679306642501E-02
-0.3323945045726E-02 -0.5115014441738E-02
-0.3836963266583E-02 -0.5548473770141E-02
-0.4382199178868E-02 -0.5978893848943E-02
-0.4959420917722E-02 -0.6405520084043E-02
-0.5568500877583E-02 -0.6827624563058E-02
-0.6209417050739E-02 -0.7244502004539E-02
-0.6882222915530E-02 -0.7655445236990E-02
-0.7587108640921E-02 -0.8059780271330E-02
-0.8324352417120E-02 -0.8456835917990E-02
-0.9094358036438E-02 -0.8845973718220E-02
-0.9897657440587E-02 -0.9226604045266E-02
-0.1073491091189E-01 -0.9598212304383E-02
-0.1160690725252E-01 -0.9960434770947E-02
-0.1251455469393E-01 -0.1031328620378E-01
-0.1345883391339E-01 -0.1065713045968E-01
-0.1444073145602E-01 -0.1099261719383E-01
-0.1546115756636E-01 -0.1132068415609E-01
-0.1652085282060E-01 -0.1164261998923E-01
-0.1762024671229E-01 -0.1196015688951E-01
-0.1875927385428E-01 -0.1227556277687E-01
-0.1993711749754E-01 -0.1259169798877E-01
-0.2115191013904E-01 -0.1291201745558E-01
-0.2240051267389E-01 -0.1324030764642E-01
-0.2367827311566E-01 -0.1358045794405E-01
-0.2497869585916E-01 -0.1393642146644E-01
-0.2629333281652E-01 -0.1431185780365E-01
-0.2761188067507E-01 -0.1470972035185E-01
-0.2892251239346E-01 -0.1513187601654E-01
-0.3021242512353E-01 -0.1557885969750E-01
-0.3782951927112E-04 -0.3891273876298E-03
-0.1257749364715E-03 -0.7846061398674E-03
-0.2614664313748E-03 -0.1186235703322E-02
-0.4425182099256E-03 -0.1593577689334E-02
-0.6666372344943E-03 -0.2005994229477E-02
-0.9317085708328E-03 -0.2422686176695E-02
-0.1235853611108E-02 -0.2842745120131E-02
-0.1577459351639E-02 -0.3265205967938E-02
-0.1955179611163E-02 -0.3689088982464E-02
-0.2367918907291E-02 -0.4113432437562E-02
-0.2814805048380E-02 -0.4537312216377E-02
-0.3295157272051E-02 -0.4959850042836E-02
-0.3808457186775E-02 -0.5380214844212E-02
-0.4354322444835E-02 -0.5797617086336E-02
-0.4932486513461E-02 -0.6211300701327E-02
-0.5542786479392E-02 -0.6620535818624E-02
-0.6185163298905E-02 -0.7024616642157E-02
-0.6859629847171E-02 -0.7422839406791E-02
-0.7566329938038E-02 -0.7814538076253E-02
-0.8305486751995E-02 -0.8199056636211E-02
-0.9077437356544E-02 -0.8575779902040E-02
-0.9882631855733E-02 -0.8944150976777E-02
-0.1072163004841E-01 -0.9303698509498E-02
-0.1159509767795E-01 -0.9654107377284E-02
-0.1250379240282E-01 -0.9995418551130E-02
-0.1344851543484E-01 -0.1032801095479E-01
-0.1443004359091E-01 -0.1065255498392E-01
-0.1544904587136E-01 -0.1097002165250E-01
-0.1650599073069E-01 -0.1128174215463E-01
-0.1760100918497E-01 -0.1158948901799E-01
-0.1873372155973E-01 -0.1189555190047E-01
-0.1990299969581E-01 -0.1220277578594E-01
-0.2110669575096E-01 -0.1251454518707E-01
-0.2234146243150E-01 -0.1283454087622E-01
-0.2360256138105E-01 -0.1316651912483E-01
-0.2488357805672E-01 -0.1351424158051E-01
-0.2617635021975E-01 -0.1388114209367E-01
-0.2747107850608E-01 -0.1426995329199E-01
-0.2875663566576E-01 -0.1468236877570E-01
-0.3002105246476E-01 -0.1511882617209E-01
-0.3406881151557E-04 -0.3772679535315E-03
-0.1182508245824E-03 -0.7605809022790E-03
-0.2502890535294E-03 -0.1149750550331E-02
-0.4279049730948E-03 -0.1544369532412E-02
-0.6488980526931E-03 -0.1943845680815E-02
-0.9112247628924E-03 -0.2347434379891E-02
-0.1213054140844E-02 -0.2754283929881E-02
-0.1552797922148E-02 -0.3163482294536E-02
-0.1929115103926E-02 -0.3574095157022E-02
-0.2340900335315E-02 -0.3985196544461E-02
-0.2787261098791E-02 -0.4395888183809E-02
-0.3267489766567E-02 -0.4805308784472E-02
-0.3781037418513E-02 -0.5212637168604E-02
-0.4327489261015E-02 -0.5617088766179E-02
-0.4906545078264E-02 -0.6017909754712E-02
-0.5518006793411E-02 -0.6414371872629E-02
-0.6161777712889E-02 -0.6805772107231E-02
-0.6837828838494E-02 -0.7191413015195E-02
-0.7546255806172E-02 -0.7570638942204E-02
-0.8287224542289E-02 -0.7942810846918E-02
-0.9061002868149E-02 -0.8307337829166E-02
-0.9867956433415E-02 -0.8663695749498E-02
-0.1070854207210E-01 -0.9011455314487E-02
-0.1158330046072E-01 -0.9350347444982E-02
-0.1249283766958E-01 -0.9680435703029E-02
-0.1343777573330E-01 -0.1000210908162E-01
-0.1441868386890E-01 -0.1031605182497E-01
-0.1543599469124E-01 -0.1062325906150E-01
-0.1648991328463E-01 -0.1092509311396E-01
-0.1758028608544E-01 -0.1122335366642E-01
-0.1870643919747E-01 -0.1152033838063E-01
-0.1986695961972E-01 -0.1181886452481E-01
-0.2105945130364E-01 -0.1212223777206E-01
-0.2228039380426E-01 -0.1243403049651E-01
-0.2352499541881E-01 -0.1275787068962E-01
-0.2478694650486E-01 -0.1309734278374E-01
-0.2605837769443E-01 -0.1345567669076E-01
-0.2732997810684E-01 -0.1383540869858E-01
-0.2859128127164E-01 -0.1423807941701E-01
-0.2983109363345E-01 -0.1466403939394E-01
-0.3048878502547E-04 -0.3654251484102E-03
-0.1110900573665E-03 -0.7366028528671E-03
-0.2396502811791E-03 -0.1113355755249E-02
-0.4139894186126E-03 -0.1495304818328E-02
-0.6319926498830E-03 -0.1881900000125E-02
-0.8916838062103E-03 -0.2272447523511E-02
-0.1191278348787E-02 -0.2666149340127E-02
-0.1529213878149E-02 -0.3062144570097E-02
-0.1904157280379E-02 -0.3459543798790E-02
-0.2314996834136E-02 -0.3857457615990E-02
-0.2760823310287E-02 -0.4255015499818E-02
-0.3240905469342E-02 -0.4651375845547E-02
-0.3754666470699E-02 -0.5045730560771E-02
-0.4301660905660E-02 -0.5437303460168E-02
-0.4881555902552E-02 -0.5825346410761E-02
-0.5494118482158E-02 -0.6209136066902E-02
-0.6139213869109E-02 -0.6587975238199E-02
-0.6816770164216E-02 -0.6961175446466E-02
-0.7526833305659E-02 -0.7328093551664E-02
-0.8269510087013E-02 -0.7688108953271E-02
-0.9044996993295E-02 -0.8040655679661E-02
-0.9853573102531E-02 -0.8385241976972E-02
-0.1069559037109E-01 -0.8721479001663E-02
-0.1157146303187E-01 -0.9049140740936E-02
-0.1248164522101E-01 -0.9368309338803E-02
-0.1342658077824E-01 -0.9679378547301E-02
-0.1440663412805E-01 -0.9983039402979E-02
-0.1542200692715E-01 -0.1028030208521E-01
-0.1647264993264E-01 -0.1057254907570E-01
-0.1755813867255E-01 -0.1086159495837E-01
-0.1867752405821E-01 -0.1114973308004E-01
-0.1982913268429E-01 -0.1143974244910E-01
-0.2101034903605E-01 -0.1173484342775E-01
-0.2221750996610E-01 -0.1203849899282E-01
-0.2344579815014E-01 -0.1235421463994E-01
-0.2468902775194E-01 -0.1268541149297E-01
-0.2593962617097E-01 -0.1303513554972E-01
-0.2718875556508E-01 -0.1340574844717E-01
-0.2842657493637E-01 -0.1379865536731E-01
-0.2964261521644E-01 -0.1421412808764E-01
-0.2708117727285E-04 -0.3535965717086E-03
-0.1042760600473E-03 -0.7126661858042E-03
-0.2295259004289E-03 -0.1077041327745E-02
-0.4007410229484E-03 -0.1446369046514E-02
-0.6158859247603E-03 -0.1820138420544E-02
-0.8730478235732E-03 -0.2197703361749E-02
-0.1170487154471E-02 -0.2578316813701E-02
-0.1506668083734E-02 -0.2961167352802E-02
-0.1880267597605E-02 -0.3345409948734E-02
-0.2290170628306E-02 -0.3730192409246E-02
-0.2735454463274E-02 -0.4114673620477E-02
-0.3215367233365E-02 -0.4498034070174E-02
-0.3729306629807E-02 -0.4879481642110E-02
-0.4276798407936E-02 -0.5258251669694E-02
-0.4857478104562E-02 -0.5633604884980E-02
-0.5471078212190E-02 -0.6004825909399E-02
-0.6117425621496E-02 -0.6371226160945E-02
-0.6796404747276E-02 -0.6732128508932E-02
-0.7508010614207E-02 -0.7086904181684E-02
-0.8252289371026E-02 -0.7434952185536E-02
-0.9029364506357E-02 -0.7775731794676E-02
-0.9839426902565E-02 -0.8108782921535E-02
-0.1068272227911E-01 -0.8433755209898E-02
-0.1155953765068E-01 -0.8750462396263E-02
-0.1247017549449E-01 -0.9059000897815E-02
-0.1341490305734E-01 -0.9359763697668E-02
-0.1439388334927E-01 -0.9653441499599E-02
-0.1540709291878E-01 -0.9941050638380E-02
-0.1645423735275E-01 -0.1022398328299E-01
-0.1753463453017E-01 -0.1050405755676E-01
-0.1864707801396E-01 -0.1078355146912E-01
-0.1978965625661E-01 -0.1106519681117E-01
-0.2095955976306E-01 -0.1135212378461E-01
-0.2215300892842E-01 -0.1164768630345E-01
-0.2336518387069E-01 -0.1195527379654E-01
-0.2459003731826E-01 -0.1227815752426E-01
-0.2582029490752E-01 -0.1261921798515E-01
-0.2704757673560E-01 -0.1298066151670E-01
-0.2826263547727E-01 -0.1336377312901E-01
-0.2945568152336E-01 -0.1376875255591E-01
-0.2383837661400E-04 -0.3417799854518E-03
-0.9779358515554E-04 -0.6887654746281E-03
-0.2198935960646E-03 -0.1040797900644E-02
-0.3881315242811E-03 -0.1397548553575E-02
-0.6005451458032E-03 -0.1758543129458E-02
-0.8552811754542E-03 -0.2123180568040E-02
-0.1150643402722E-02 -0.2490762517311E-02
-0.1485122915179E-02 -0.2860525510241E-02
-0.1857408587763E-02 -0.3231668407489E-02
-0.2266384616431E-02 -0.3603376770997E-02
-0.2711117686383E-02 -0.3974840337211E-02
-0.3190838029634E-02 -0.4345263829356E-02
-0.3704920172737E-02 -0.4713873720200E-02
-0.4252862761828E-02 -0.5079919723810E-02
-0.4834270839923E-02 -0.5442674353681E-02
-0.5448842854179E-02 -0.5801433001618E-02
-0.6096367286033E-02 -0.6155518236838E-02
-0.6776684320095E-02 -0.6504266411779E-02
-0.7489737154730E-02 -0.6847064720112E-02
-0.8235510146454E-02 -0.7183332669298E-02
-0.9014052552799E-02 -0.7512554810203E-02
-0.9825465919986E-02 -0.7834301706868E-02
-0.1066988890644E-01 -0.8148259237026E-02
-0.1154748110471E-01 -0.8454277304692E-02
-0.1245839418087E-01 -0.8752462071701E-02
-0.1340272093882E-01 -0.9043200088697E-02
-0.1438042682319E-01 -0.9327174610618E-02
-0.1539126941788E-01 -0.9605399459893E-02
-0.1643471826090E-01 -0.9879266539537E-02
-0.1750984628153E-01 -0.1015058700408E-01
-0.1861520624799E-01 -0.1042161366924E-01
-0.1974866855175E-01 -0.1069502351461E-01
-0.2090725210370E-01 -0.1097385305894E-01
-0.2208708323937E-01 -0.1126134851062E-01
-0.2328335847247E-01 -0.1156079006572E-01
-0.2449018035173E-01 -0.1187531204025E-01
-0.2570057233992E-01 -0.1220764640593E-01
-0.2690659795659E-01 -0.1255986156371E-01
-0.2809957508136E-01 -0.1293313568385E-01
-0.2927035421013E-01 -0.1332760187822E-01
-0.2075338554831E-04 -0.3299732763452E-03
-0.9162863260608E-04 -0.6648955848233E-03
-0.2107328400346E-03 -0.1004616587542E-02
-0.3761348044025E-03 -0.1348830321443E-02
-0.5859398555050E-03 -0.1697097043916E-02
-0.8383504101280E-03 -0.2048858501496E-02
-0.1131711872555E-02 -0.2403463103604E-02
-0.1464542330381E-02 -0.2760194037316E-02
-0.1835543981419E-02 -0.3118293602056E-02
-0.2243602537264E-02 -0.3476985558897E-02
-0.2687776653165E-02 -0.3835491752778E-02
-0.3167281163323E-02 -0.4193043049018E-02
-0.3681469593219E-02 -0.4548886865693E-02
-0.4229815155233E-02 -0.4902289903008E-02
-0.4811893526878E-02 -0.5252539125052E-02
-0.5427369697764E-02 -0.5598943260163E-02
-0.6075993837903E-02 -0.5940838340811E-02
-0.6757561595117E-02 -0.6277576108192E-02
-0.7471963728261E-02 -0.6608561084368E-02
-0.8219122014413E-02 -0.6933233931791E-02
-0.8999010663452E-02 -0.7251104263309E-02
-0.9811641216111E-02 -0.7561772035645E-02
-0.1065704496020E-01 -0.7864956877734E-02
-0.1153525440027E-01 -0.8160541084326E-02
-0.1244627176395E-01 -0.8448635885571E-02
-0.1339001804371E-01 -0.8729615671145E-02
-0.1436626534949E-01 -0.9004149202668E-02
-0.1537455862723E-01 -0.9273239391516E-02
-0.1641414032890E-01 -0.9538268441099E-02
-0.1748385046061E-01 -0.9801030821490E-02
-0.1858201619176E-01 -0.1006374532851E-01
-0.1970630777689E-01 -0.1032902768707E-01
-0.2085359198103E-01 -0.1059981827472E-01
-0.2201991995585E-01 -0.1087925771187E-01
-0.2320051992339E-01 -0.1117052401420E-01
-0.2438965253040E-01 -0.1147662691693E-01
-0.2558063720039E-01 -0.1180016555740E-01
-0.2676596710738E-01 -0.1214308608183E-01
-0.2793750003907E-01 -0.1250647156361E-01
-0.2908669249222E-01 -0.1289039286341E-01
-0.1781979254331E-04 -0.3181744233000E-03
-0.8576838670970E-04 -0.6410515977214E-03
-0.2020248018002E-03 -0.9684888571916E-03
-0.3647267920122E-03 -0.1300201805549E-02
-0.5720417903319E-03 -0.1635783605482E-02
-0.8222242205718E-03 -0.1974716987729E-02
-0.1113659283157E-02 -0.2316395498668E-02
-0.1444891926896E-02 -0.2660147867943E-02
-0.1814638813258E-02 -0.3005259433476E-02
-0.2221789114372E-02 -0.3350992530725E-02
-0.2665395755390E-02 -0.3696602212759E-02
-0.3144660465769E-02 -0.4041347181612E-02
-0.3658917803696E-02 -0.4384497921007E-02
-0.4207617174182E-02 -0.4725340482761E-02
-0.4790306045967E-02 -0.5063178717084E-02
-0.5406616639765E-02 -0.5397337030843E-02
-0.6056261080515E-02 -0.5727167015715E-02
-0.6738990405480E-02 -0.6052037496097E-02
-0.7454642615139E-02 -0.6371371476299E-02
-0.8203076473343E-02 -0.6684631219539E-02
-0.8984190734213E-02 -0.6991350981300E-02
-0.9797906720218E-02 -0.7291158657810E-02
-0.1064414853133E-01 -0.7583804975695E-02
-0.1152282242354E-01 -0.7869200713371E-02
-0.1243378303833E-01 -0.8147457409605E-02
-0.1337678260863E-01 -0.8418931560081E-02
-0.1435140444391E-01 -0.8684270509685E-02
-0.1535698726876E-01 -0.8944458155302E-02
-0.1639255515593E-01 -0.9200858073128E-02
-0.1745672645961E-01 -0.9455239055390E-02
-0.1854761655135E-01 -0.9709777944794E-02
-0.1966271136112E-01 -0.9967023719867E-02
-0.2079874217852E-01 -0.1022981898807E-01
-0.2195170061420E-01 -0.1050120143828E-01
-0.2311685866521E-01 -0.1078425402978E-01
-0.2428864079693E-01 -0.1108187371867E-01
-0.2546065939759E-01 -0.1139654137542E-01
-0.2662582438714E-01 -0.1173009516509E-01
-0.2777651118424E-01 -0.1208353351484E-01
-0.2890475306545E-01 -0.1245686858549E-01
-0.1503175148975E-04 -0.3063814697591E-03
-0.8020116846133E-04 -0.6172287452116E-03
-0.1937522788895E-03 -0.9324064251526E-03
-0.3538853867637E-03 -0.1251650785812E-02
-0.5588248176525E-03 -0.1574586601258E-02
-0.8068734117138E-03 -0.1900736126420E-02
-0.1096454302753E-02 -0.2229536714318E-02
-0.1426138996276E-02 -0.2560361708026E-02
-0.1794659519345E-02 -0.2892539141810E-02
-0.2200910189530E-02 -0.3225370247460E-02
-0.2643940263887E-02 -0.3558144248449E-02
-0.3122940473776E-02 -0.3890149187753E-02
-0.3637228324738E-02 -0.4220680518617E-02
-0.4186230994713E-02 -0.4549045786711E-02
-0.4769468927134E-02 -0.4874567945164E-02
-0.5386542359133E-02 -0.5196589211919E-02
-0.6037125800123E-02 -0.5514478634278E-02
-0.6720925829760E-02 -0.5827623623488E-02
-0.7437727658599E-02 -0.6135466636691E-02
-0.8187326948145E-02 -0.6437491808421E-02
-0.8969546985448E-02 -0.6733257453434E-02
-0.9784219102209E-02 -0.7022417808609E-02
-0.1063116086265E-01 -0.7304751929718E-02
-0.1151015358684E-01 -0.7580195101387E-02
-0.1242090661963E-01 -0.7848854385692E-02
-0.1336300685244E-01 -0.8111062698351E-02
-0.1433585356517E-01 -0.8367439203901E-02
-0.1533858569211E-01 -0.8618940991043E-02
-0.1637001730312E-01 -0.8866904562924E-02
-0.1742855556085E-01 -0.9113064686228E-02
-0.1851211643346E-01 -0.9359549074874E-02
-0.1961801528696E-01 -0.9608835234196E-02
-0.2074286198238E-01 -0.9863666992298E-02
-0.2188260125219E-01 -0.1012698211170E-01
-0.2303255801522E-01 -0.1040177557460E-01
-0.2418732405026E-01 -0.1069084280580E-01
-0.2534080082478E-01 -0.1099655999765E-01
-0.2648630301939E-01 -0.1132067044384E-01
-0.2761670428123E-01 -0.1166409734939E-01
-0.2872459001154E-01 -0.1202679711875E-01
-0.1238396799164E-04 -0.2945925002047E-03
-0.7491640145311E-04 -0.5934223539319E-03
-0.1858996455387E-03 -0.8963611607923E-03
-0.3435904021282E-03 -0.1203165238373E-02
-0.5462648884829E-03 -0.1513490009557E-02
-0.7922708779458E-03 -0.1826896125341E-02
-0.1080067561316E-02 -0.2142863686701E-02
-0.1408252576441E-02 -0.2460809893289E-02
-0.1775574028054E-02 -0.2780105194081E-02
-0.2180932847150E-02 -0.3100089997757E-02
-0.2623376479193E-02 -0.3420088540430E-02
-0.3102086598473E-02 -0.3739419538809E-02
-0.3616365464163E-02 -0.4057405121362E-02
-0.4165619564668E-02 -0.4373376263426E-02
-0.4749343526738E-02 -0.4686677034850E-02
-0.5367106481449E-02 -0.4996669403733E-02
-0.6018545909267E-02 -0.5302741587768E-02
-0.6703324304610E-02 -0.5604300919447E-02
-0.7421174335243E-02 -0.5900810122748E-02
-0.8171828805382E-02 -0.6191775331887E-02
-0.8955035907135E-02 -0.6476778213562E-02
-0.9770537631683E-02 -0.6755497647791E-02
-0.1061804610553E-01 -0.7027738188706E-02
-0.1149721946792E-01 -0.7293455634830E-02
-0.1240762445523E-01 -0.7552747812465E-02
-0.1334868635429E-01 -0.7805918462644E-02
-0.1431962536786E-01 -0.8053551995923E-02
-0.1531938702664E-01 -0.8296571214629E-02
-0.1634658339041E-01 -0.8536277553442E-02
-0.1739942004817E-01 -0.8774363971983E-02
-0.1847562456176E-01 -0.9012902505847E-02
-0.1957235351245E-01 -0.9254295051547E-02
-0.2068610690066E-01 -0.9501186079146E-02
-0.2181279248044E-01 -0.9756416614071E-02
-0.2294779458212E-01 -0.1002290060069E-01
-0.2408587381964E-01 -0.1030334264339E-01
-0.2522121613365E-01 -0.1060002700249E-01
-0.2634752992732E-01 -0.1091461426672E-01
-0.2745817040789E-01 -0.1124796105650E-01
-0.2854625473828E-01 -0.1159997054964E-01
-0.9871691848185E-05 -0.2828056202230E-03
-0.6990458997348E-04 -0.5696277973115E-03
-0.1784528173966E-03 -0.8603450068012E-03
-0.3338235249067E-03 -0.1154733224107E-02
-0.5343400041695E-03 -0.1452477865329E-02
-0.7783915895579E-03 -0.1753177155335E-02
-0.1064471666312E-02 -0.2056353135234E-02
-0.1391203501586E-02 -0.2361466265469E-02
-0.1757351844278E-02 -0.2667929187916E-02
-0.2161825529169E-02 -0.2975121735439E-02
-0.2603671871167E-02 -0.3282403892805E-02
-0.3082065282564E-02 -0.3589126228352E-02
-0.3596294484514E-02 -0.3894639070311E-02
-0.4145746773947E-02 -0.4198298569595E-02
-0.4729892193076E-02 -0.4499471739805E-02
-0.5348269731791E-02 -0.4797542061635E-02
-0.6000480578321E-02 -0.5091918475084E-02
-0.6686143725113E-02 -0.5382029421333E-02
-0.7404939812919E-02 -0.5667358575680E-02
-0.8156539355866E-02 -0.5947434091123E-02
-0.8940616191970E-02 -0.6221860194228E-02
-0.9756824026487E-02 -0.6490338657257E-02
-0.1060477106899E-01 -0.6752696689751E-02
-0.1148399444647E-01 -0.7008906648486E-02
-0.1239392133935E-01 -0.7259052437988E-02
-0.1333381944579E-01 -0.7503403159456E-02
-0.1430273498160E-01 -0.7742502109589E-02
-0.1529942637331E-01 -0.7977230641453E-02
-0.1632231124688E-01 -0.8208847540956E-02
-0.1736940238240E-01 -0.8438996665762E-02
-0.1843824856187E-01 -0.8669688323943E-02
-0.1952585745696E-01 -0.8903245097046E-02
-0.2062862842982E-01 -0.9142211777284E-02
-0.2174243957469E-01 -0.9389335880101E-02
-0.2286273867145E-01 -0.9647457030399E-02
-0.2398445490018E-01 -0.9919199206110E-02
-0.2510205345459E-01 -0.1020676676467E-01
-0.2620962635788E-01 -0.1051174901257E-01
-0.2730099630498E-01 -0.1083494405450E-01
-0.2836979591437E-01 -0.1117620413720E-01
-0.7490715246385E-05 -0.2710189395685E-03
-0.6515730817766E-04 -0.5458404539879E-03
-0.1713992306654E-03 -0.8243499086282E-03
-0.3245682895733E-03 -0.1106342790193E-02
-0.5230301953581E-03 -0.1391534140723E-02
-0.7652125868380E-03 -0.1679559220931E-02
-0.1049641220638E-02 -0.1969981436007E-02
-0.1374964449126E-02 -0.2262304060385E-02
-0.1739964126508E-02 -0.2555981763556E-02
-0.2143558139938E-02 -0.2850434021412E-02
-0.2584795206912E-02 -0.3145057207964E-02
-0.3062844145089E-02 -0.3439234780408E-02
-0.3576981757777E-02 -0.3732346625819E-02
-0.4126577612025E-02 -0.4023775642795E-02
-0.4711078419230E-02 -0.4312913445327E-02
-0.5329994074996E-02 -0.4599166629815E-02
-0.5982890354435E-02 -0.4881966266981E-02
-0.6669343532618E-02 -0.5160762969849E-02
-0.7388982996341E-02 -0.5435061947122E-02
-0.8141417845604E-02 -0.5704413312901E-02
-0.8926248658043E-02 -0.5968443014993E-02
-0.9743042292943E-02 -0.6226873957178E-02
-0.1059130496370E-01 -0.6479553196734E-02
-0.1147045534048E-01 -0.6726465777830E-02
-0.1237978443445E-01 -0.6967677113072E-02
-0.1331840661760E-01 -0.7203416362081E-02
-0.1428519931398E-01 -0.7434179581012E-02
-0.1527874003022E-01 -0.7660799822504E-02
-0.1629725910312E-01 -0.7884486022023E-02
-0.1733858442363E-01 -0.8106826049837E-02
-0.1840009429175E-01 -0.8329762818683E-02
-0.1947865552276E-01 -0.8555536167886E-02
-0.2057057383862E-01 -0.8786590992755E-02
-0.2167170256002E-01 -0.9025584430426E-02
-0.2277755465473E-01 -0.9275288210868E-02
-0.2388322592841E-01 -0.9538255382049E-02
-0.2498345504329E-01 -0.9816621825602E-02
-0.2607270843238E-01 -0.1011191642589E-01
-0.2714526466414E-01 -0.1042488647104E-01
-0.2819525936174E-01 -0.1075533550522E-01
-0.5237376356123E-05 -0.2592305578766E-03
-0.6066719962245E-04 -0.5220556718762E-03
-0.1647278346721E-03 -0.7883677528554E-03
-0.3158100664292E-03 -0.1057981883820E-02
-0.5123175125447E-03 -0.1330642640351E-02
-0.7527129817081E-03 -0.1606022047139E-02
-0.1035552843328E-02 -0.1883724511570E-02
-0.1359509984857E-02 -0.2163295811454E-02
-0.1723383758468E-02 -0.2444232529577E-02
-0.2126102143124E-02 -0.2725993977196E-02
-0.2566716669215E-02 -0.3008013470798E-02
-0.3044392116025E-02 -0.3289708265155E-02
-0.3558394909821E-02 -0.3570489014208E-02
-0.4108078315324E-02 -0.3849766778051E-02
-0.4692866986056E-02 -0.4126959273601E-02
-0.5312242846377E-02 -0.4401497674223E-02
-0.5965737271327E-02 -0.4672836465814E-02
-0.6652884793917E-02 -0.4940449394799E-02
-0.7373264564782E-02 -0.5203863709819E-02
-0.8126425439957E-02 -0.5462651383401E-02
-0.8911896166442E-02 -0.5716459236421E-02
-0.9729158563533E-02 -0.5965029575377E-02
-0.1057761914715E-01 -0.6208226577955E-02
-0.1145658104833E-01 -0.6446044234819E-02
-0.1236520280446E-01 -0.6678525051997E-02
-0.1330244994500E-01 -0.6905853139962E-02
-0.1426703638024E-01 -0.7128471437758E-02
-0.1525736475197E-01 -0.7347158153528E-02
-0.1627148482265E-01 -0.7563065514148E-02
-0.1730704669436E-01 -0.7777718853862E-02
-0.1836126520941E-01 -0.7992988292524E-02
-0.1943087264434E-01 -0.8211027638433E-02
-0.2051208596450E-01 -0.8434181623886E-02
-0.2160073628891E-01 -0.8665019918356E-02
-0.2269240131459E-01 -0.8906252417203E-02
-0.2378233992088E-01 -0.9160370452571E-02
-0.2486555788738E-01 -0.9429452359123E-02
-0.2593688766531E-01 -0.9714977061667E-02
-0.2699105440221E-01 -0.1001764854255E-01
-0.2802268795587E-01 -0.1033722396167E-01
-0.3108568215081E-05 -0.2474385531057E-03
-0.5642798697113E-04 -0.4982687388590E-03
-0.1584290977641E-03 -0.7523903171952E-03
-0.3075360638578E-03 -0.1009638283465E-02
-0.5021860292886E-03 -0.1269786920617E-02
-0.7408739691022E-03 -0.1532544996953E-02
-0.1022185196550E-02 -0.1797557757958E-02
-0.1344816611279E-02 -0.2064413296821E-02
-0.1707585421603E-02 -0.2332650038683E-02
-0.2109430658145E-02 -0.2601767295371E-02
-0.2549407974140E-02 -0.2871235797361E-02
-0.3026679570369E-02 -0.3140507387448E-02
-0.3540502965079E-02 -0.3409024556529E-02
-0.4090216515861E-02 -0.3676227796478E-02
-0.4675224107554E-02 -0.3941562291511E-02
-0.5294980885969E-02 -0.4204485128679E-02
-0.5948984963785E-02 -0.4464475388884E-02
-0.6636730286429E-02 -0.4721030834274E-02
-0.7357747017302E-02 -0.4973701210611E-02
-0.8111525217246E-02 -0.5222080231989E-02
-0.8897523550848E-02 -0.5465834770222E-02
-0.9715140949928E-02 -0.5704724877569E-02
-0.1056368688843E-01 -0.5938629247986E-02
-0.1144235221625E-01 -0.6167547250421E-02
-0.1235016698016E-01 -0.6391494262466E-02
-0.1328595255358E-01 -0.6610604461009E-02
-0.1424826468144E-01 -0.6825262057758E-02
-0.1523533706594E-01 -0.7036184175875E-02
-0.1624504519745E-01 -0.7244459787585E-02
-0.1727486771145E-01 -0.7451545413202E-02
-0.1832186181173E-01 -0.7659233150150E-02
-0.1938262990865E-01 -0.7869587494379E-02
-0.2045330308029E-01 -0.8084852561643E-02
-0.2152969059129E-01 -0.8307513120741E-02
-0.2260743226908E-01 -0.8540222855563E-02
-0.2368194490796E-01 -0.8785420121934E-02
-0.2474849443453E-01 -0.9045136231156E-02
-0.2580227164230E-01 -0.9320810364419E-02
-0.2683844114133E-01 -0.9613110685762E-02
-0.2785212177976E-01 -0.9921750524772E-02
-0.1101752609304E-05 -0.2356409710041E-03
-0.5243449041002E-04 -0.4744748532595E-03
-0.1524950232351E-03 -0.7164092171641E-03
-0.2997353390888E-03 -0.9612995217353E-03
-0.4926218499075E-03 -0.1208950193193E-02
-0.7296788371500E-03 -0.1459106962815E-02
-0.1009519005061E-02 -0.1711455932376E-02
-0.1330862802176E-02 -0.1965627430687E-02
-0.1692545648296E-02 -0.2221201688176E-02
-0.2093518532737E-02 -0.2477718152454E-02
-0.2532842461081E-02 -0.2734685361313E-02
-0.3009678431842E-02 -0.2991590426352E-02
-0.3523276458754E-02 -0.3247908619538E-02
-0.4072961355907E-02 -0.3503111005348E-02
-0.4658117541303E-02 -0.3756671477012E-02
-0.5278174637407E-02 -0.4008074264404E-02
-0.5932598746893E-02 -0.4256824137621E-02
-0.6620844548778E-02 -0.4502443699405E-02
-0.7342394684644E-02 -0.4744505625884E-02
-0.8096682130910E-02 -0.4982625271376E-02
-0.8883097518111E-02 -0.5216488796710E-02
-0.9700959369917E-02 -0.5445872453003E-02
-0.1054948311012E-01 -0.5670667010463E-02
-0.1142775088593E-01 -0.5890873861683E-02
-0.1233466850699E-01 -0.6106477262635E-02
-0.1326891806767E-01 -0.6317556823679E-02
-0.1422890256285E-01 -0.6524432702392E-02
-0.1521269256120E-01 -0.6727754999642E-02
-0.1621799520187E-01 -0.6928543173406E-02
-0.1724212325413E-01 -0.7128178865266E-02
-0.1828198097730E-01 -0.7328370996277E-02
-0.1933404403869E-01 -0.7531091354132E-02
-0.2039435857631E-01 -0.7738482661464E-02
-0.2145871018782E-01 -0.7952946885388E-02
-0.2252279610545E-01 -0.8177086603356E-02
-0.2358218422304E-01 -0.8413295456448E-02
-0.2463239292233E-01 -0.8663567933581E-02
-0.2566896424831E-01 -0.8929313581189E-02
-0.2668749719052E-01 -0.9211172357723E-02
-0.2768359772743E-01 -0.9508816684829E-02
 0.7850205564083E-06 -0.2238358178201E-03
-0.4868265674966E-04 -0.4506691040945E-03
-0.1469191795786E-03 -0.6804158723606E-03
-0.2923988250423E-03 -0.9129528411784E-03
-0.4836131334964E-03 -0.1148115278170E-02
-0.7191129931888E-03 -0.1385686327436E-02
-0.9975370910443E-03 -0.1625393132522E-02
-0.1317629052724E-02 -0.1866908270881E-02
-0.1678242891609E-02 -0.2109853763636E-02
-0.2078342433858E-02 -0.2353809294429E-02
-0.2516995203633E-02 -0.2598321525171E-02
-0.2993362300355E-02 -0.2842913414430E-02
-0.3506687575926E-02 -0.3087093844230E-02
-0.4056283632744E-02 -0.3330365476187E-02
-0.4641516732101E-02 -0.3572232046376E-02
-0.5261792283021E-02 -0.3812206065324E-02
-0.5916545734428E-02 -0.4049819019015E-02
-0.6605193973483E-02 -0.4284619139001E-02
-0.7327173786326E-02 -0.4516202465255E-02
-0.8081863020305E-02 -0.4744205934678E-02
-0.8868586601529E-02 -0.4968334327817E-02
-0.9686585431974E-02 -0.5188378694097E-02
-0.1053498419397E-01 -0.5404239643128E-02
-0.1141276021326E-01 -0.5615917489370E-02
-0.1231869957305E-01 -0.5823361637719E-02
-0.1325135014970E-01 -0.6026592779342E-02
-0.1420896767518E-01 -0.6225861993749E-02
-0.1518946529340E-01 -0.6421746729864E-02
-0.1619038737681E-01 -0.6615190940643E-02
-0.1720888577778E-01 -0.6807495490156E-02
-0.1824171547404E-01 -0.7000280963857E-02
-0.1928522706667E-01 -0.7195422817836E-02
-0.2033538086730E-01 -0.7394961149475E-02
-0.2138793487820E-01 -0.7601216625235E-02
-0.2243863685690E-01 -0.7816745208849E-02
-0.2348319721944E-01 -0.8043903592352E-02
-0.2451737823452E-01 -0.8284659394005E-02
-0.2553706653251E-01 -0.8540402660208E-02
-0.2653829228683E-01 -0.8811753014136E-02
-0.2751714999021E-01 -0.9098345372797E-02
 0.2553088635072E-05 -0.2120210531284E-03
-0.4516959703323E-04 -0.4268464480384E-03
-0.1416967395523E-03 -0.6444014633269E-03
-0.2855193632172E-03 -0.8645851319634E-03
-0.4751501188729E-03 -0.1087264527637E-02
-0.7091639842758E-03 -0.1312260880395E-02
-0.9862243966611E-03 -0.1539342713300E-02
-0.1305097910827E-02 -0.1768224941452E-02
-0.1664657570394E-02 -0.1998571371265E-02
-0.2063880908891E-02 -0.2230001980856E-02
-0.2501843086478E-02 -0.2462101796640E-02
-0.2977706541931E-02 -0.2694430105575E-02
-0.3490710250291E-02 -0.2926530123480E-02
-0.4040155900946E-02 -0.3157937029799E-02
-0.4625392911763E-02 -0.3388185443449E-02
-0.5245803834471E-02 -0.3616817217596E-02
-0.5900794912948E-02 -0.3843391530536E-02
-0.6589746856320E-02 -0.4067483013846E-02
-0.7312052446179E-02 -0.4288711527865E-02
-0.8067036582417E-02 -0.4506735604757E-02
-0.8853961078044E-02 -0.4721278098833E-02
-0.9671992286991E-02 -0.4932143638165E-02
-0.1052016775669E-01 -0.5139240675529E-02
-0.1139736415945E-01 -0.5342565636574E-02
-0.1230225260945E-01 -0.5542029644306E-02
-0.1323325200851E-01 -0.5737590428453E-02
-0.1418847639614E-01 -0.5929425292353E-02
-0.1516568713422E-01 -0.6118033722079E-02
-0.1616227113317E-01 -0.6304278435861E-02
-0.1717522371128E-01 -0.6489373753045E-02
-0.1820115330332E-01 -0.6674846691199E-02
-0.1923628578762E-01 -0.6862472420984E-02
-0.2027649301829E-01 -0.7054186596032E-02
-0.2131749938576E-01 -0.7252229345463E-02
-0.2235509407415E-01 -0.7459113785698E-02
-0.2338511952008E-01 -0.7677166891345E-02
-0.2440357222161E-01 -0.7908339177693E-02
-0.2540667696396E-01 -0.8154011485658E-02
-0.2639089365621E-01 -0.8414791348463E-02
-0.2735280979134E-01 -0.8690280141000E-02
 0.4203145635755E-05 -0.2001945847738E-03
-0.4189363485847E-04 -0.4030016919956E-03
-0.1368245322410E-03 -0.6083568993679E-03
-0.2790917494910E-03 -0.8161828882496E-03
-0.4672251608341E-03 -0.1026379777995E-02
-0.6998215269770E-03 -0.1238807775345E-02
-0.9755680142233E-03 -0.1453277257297E-02
-0.1293254015193E-02 -0.1669545623011E-02
-0.1651772121117E-02 -0.1887318452698E-02
-0.2050114454233E-02 -0.2106256027066E-02
-0.2487364890879E-02 -0.2325981899781E-02
-0.2962688388859E-02 -0.2546092075745E-02
-0.3475320275034E-02 -0.2766164732140E-02
-0.4024552588893E-02 -0.2985768394674E-02
-0.4609719215452E-02 -0.3204469524430E-02
-0.5230181242435E-02 -0.3421840317767E-02
-0.5885317237731E-02 -0.3637468587399E-02
-0.6574473470649E-02 -0.3850956137320E-02
-0.7297000736379E-02 -0.4061947148893E-02
-0.8052173376123E-02 -0.4270121857297E-02
-0.8839192922625E-02 -0.4475220796699E-02
-0.9657154522471E-02 -0.4677061167689E-02
-0.1050501247411E-01 -0.4875557546463E-02
-0.1138154723673E-01 -0.5070699987605E-02
-0.1228531995183E-01 -0.5262358235297E-02
-0.1321462597488E-01 -0.5450423358172E-02
-0.1416744332420E-01 -0.5634994538762E-02
-0.1514138719576E-01 -0.5816488327256E-02
-0.1613369213041E-01 -0.5995680742654E-02
-0.1714120082693E-01 -0.6173693904495E-02
-0.1816037711389E-01 -0.6351955904945E-02
-0.1918732128347E-01 -0.6532137253548E-02
-0.2021781245115E-01 -0.6716066626251E-02
-0.2124753330933E-01 -0.6905903487730E-02
-0.2227230305088E-01 -0.7104121006224E-02
-0.2328808348249E-01 -0.7313023070082E-02
-0.2429109430296E-01 -0.7534552732961E-02
-0.2527789203400E-01 -0.7770092233275E-02
-0.2624536650028E-01 -0.8020245743895E-02
-0.2719060563904E-01 -0.8284585640396E-02
 0.5735205158958E-05 -0.1883542653437E-03
-0.3885436565251E-04 -0.3791294788854E-03
-0.1323011074722E-03 -0.5722727922496E-03
-0.2731127908712E-03 -0.7677321747358E-03
-0.4598327743960E-03 -0.9654423183539E-03
-0.6910775419144E-03 -0.1165303510244E-02
-0.9655572185088E-03 -0.1367168575474E-02
-0.1282084133872E-02 -0.1570837580278E-02
-0.1639571049350E-02 -0.1776057843697E-02
-0.2037025583490E-02 -0.1982529896735E-02
-0.2473541380229E-02 -0.2189915903211E-02
-0.2948287040783E-02 -0.2397848887803E-02
-0.3460495415890E-02 -0.2605942528826E-02
-0.4009450119132E-02 -0.2813799445227E-02
-0.4594470803911E-02 -0.3021018831024E-02
-0.5214898514729E-02 -0.3227204178021E-02
-0.5870085740196E-02 -0.3431972855542E-02
-0.6559346156872E-02 -0.3634954629916E-02
-0.7281990740899E-02 -0.3835818567407E-02
-0.8037245850790E-02 -0.4034266831587E-02
-0.8824255792539E-02 -0.4230057421158E-02
-0.9642048092697E-02 -0.4423019347209E-02
-0.1048949794776E-01 -0.4613071900346E-02
-0.1136529430281E-01 -0.4800196646882E-02
-0.1226789355622E-01 -0.4984219224941E-02
-0.1319547313540E-01 -0.5164960719834E-02
-0.1414588083191E-01 -0.5342438235245E-02
-0.1511659131161E-01 -0.5516980778865E-02
-0.1610469170381E-01 -0.5689272489149E-02
-0.1710687564574E-01 -0.5860337741056E-02
-0.1811946363384E-01 -0.6031500185154E-02
-0.1913842844817E-01 -0.6204320795438E-02
-0.2015945064286E-01 -0.6380517894900E-02
-0.2117816107375E-01 -0.6562169098519E-02
-0.2219039507587E-01 -0.6751709482046E-02
-0.2319221873481E-01 -0.6951425771278E-02
-0.2418006218148E-01 -0.7163263120680E-02
-0.2515080700018E-01 -0.7388616262425E-02
-0.2610177466681E-01 -0.7628095344615E-02
-0.2703056384274E-01 -0.7881248792564E-02
 0.7148556359926E-05 -0.1764978876937E-03
-0.3605272649952E-04 -0.3552242667311E-03
-0.1281268098809E-03 -0.5361394142128E-03
-0.2675813671844E-03 -0.7192185660008E-03
-0.4529696771514E-03 -0.9044328176138E-03
-0.6829261791347E-03 -0.1091723848795E-02
-0.9561834830843E-03 -0.1280987627394E-02
-0.1271577180752E-02 -0.1472067082728E-02
-0.1628040953824E-02 -0.1664751194680E-02
-0.2024598863289E-02 -0.1858780620557E-02
-0.2460355348689E-02 -0.2053856134641E-02
-0.2934483724712E-02 -0.2249647999361E-02
-0.3446215479425E-02 -0.2445805854157E-02
-0.3994826980836E-02 -0.2641967086915E-02
-0.4579624935420E-02 -0.2837764457973E-02
-0.5199931782586E-02 -0.3032833670370E-02
-0.5855075582838E-02 -0.3226822565148E-02
-0.6544339359675E-02 -0.3419389692912E-02
-0.7266996567881E-02 -0.3610229648917E-02
-0.8022228325680E-02 -0.3799066888510E-02
-0.8809124964781E-02 -0.3985676862532E-02
-0.9626650204449E-02 -0.4169899903284E-02
-0.1047360452875E-01 -0.4351658950321E-02
-0.1134859031292E-01 -0.4530925365611E-02
-0.1224996466993E-01 -0.4707478360395E-02
-0.1317579291435E-01 -0.4881066129541E-02
-0.1412379855318E-01 -0.5051620165609E-02
-0.1509132142866E-01 -0.5219377732405E-02
-0.1607530616705E-01 -0.5384926223106E-02
-0.1707230066909E-01 -0.5549186851894E-02
-0.1807848286676E-01 -0.5713373141471E-02
-0.1908969520515E-01 -0.5878931098401E-02
-0.2010151244159E-01 -0.6047464355923E-02
-0.2110950143055E-01 -0.6220966252408E-02
-0.2210949718340E-01 -0.6401834363540E-02
-0.2309765216795E-01 -0.6592343301874E-02
-0.2407059195518E-01 -0.6794449831433E-02
-0.2502551592679E-01 -0.7009573020355E-02
-0.2596018051863E-01 -0.7238339117713E-02
-0.2687270821116E-01 -0.7480277936173E-02
 0.8441711367010E-05 -0.1646231840905E-03
-0.3349108086194E-04 -0.3312803199861E-03
-0.1243038705111E-03 -0.4999466828160E-03
-0.2624985102689E-03 -0.6706271345356E-03
-0.4466348485207E-03 -0.8433313293455E-03
-0.6753638609704E-03 -0.1018043855162E-02
-0.9474405166943E-03 -0.1194704595430E-02
-0.1261724256521E-02 -0.1373199524447E-02
-0.1617170580651E-02 -0.1553359140036E-02
-0.2012820985703E-02 -0.1734964017815E-02
-0.2447791713154E-02 -0.1917753457238E-02
-0.2921261805216E-02 -0.2101435096395E-02
-0.3432462438423E-02 -0.2285694923729E-02
-0.3980663866343E-02 -0.2470205709842E-02
-0.4565161108892E-02 -0.2654634567277E-02
-0.5185259445342E-02 -0.2838650299756E-02
-0.5840264200080E-02 -0.3021932138719E-02
-0.6529429759092E-02 -0.3204168285054E-02
-0.7251994464259E-02 -0.3385079601609E-02
-0.8007097080718E-02 -0.3564413354442E-02
-0.8793777394835E-02 -0.3741962658642E-02
-0.9610939335072E-02 -0.3917578977300E-02
-0.1045731328622E-01 -0.4091188207935E-02
-0.1133142023004E-01 -0.4262750228495E-02
-0.1223152367549E-01 -0.4431995946388E-02
-0.1315558284442E-01 -0.4598598214809E-02
-0.1410120307629E-01 -0.4762399854276E-02
-0.1506559522133E-01 -0.4923542638680E-02
-0.1604556635404E-01 -0.5082512718438E-02
-0.1703752186682E-01 -0.5240122900973E-02
-0.1803749756470E-01 -0.5397470740430E-02
-0.1904120203166E-01 -0.5555881252318E-02
-0.2004409574021E-01 -0.5716837973001E-02
-0.2104166740217E-01 -0.5882246099278E-02
-0.2202973248249E-01 -0.6054464766958E-02
-0.2300450869065E-01 -0.6235760397496E-02
-0.2396279918341E-01 -0.6428110789805E-02
-0.2490211282065E-01 -0.6632972292910E-02
-0.2582064603442E-01 -0.6850998530771E-02
-0.2671706128976E-01 -0.7081705918191E-02
 0.9612343449177E-05 -0.1527278229443E-03
-0.3117331631024E-04 -0.3072916885522E-03
-0.1208365085445E-03 -0.4636841187169E-03
-0.2578674854034E-03 -0.6219423932353E-03
-0.4408295813033E-03 -0.7821172287480E-03
-0.6683893075511E-03 -0.9442378331963E-03
-0.9393242738808E-03 -0.1108288829437E-02
-0.1252518656567E-02 -0.1274199373214E-02
-0.1606950837754E-02 -0.1441841248357E-02
-0.2001680794321E-02 -0.1611034644011E-02
-0.2435837552403E-02 -0.1781557211399E-02
-0.2908606835483E-02 -0.1953154026413E-02
-0.3419220492197E-02 -0.2125547750019E-02
-0.3966943737346E-02 -0.2298447096246E-02
-0.4551061132242E-02 -0.2471554276995E-02
-0.5170862237048E-02 -0.2644572068236E-02
-0.5825631358899E-02 -0.2817212022698E-02
-0.6514596320370E-02 -0.2989192911252E-02
-0.7236962849315E-02 -0.3160262709113E-02
-0.7991830367176E-02 -0.3330192182345E-02
-0.8778191696819E-02 -0.3498792565801E-02
-0.9594895173278E-02 -0.3665926585561E-02
-0.1044060589896E-01 -0.3831522809744E-02
-0.1131376885642E-01 -0.3995528823534E-02
-0.1221255985021E-01 -0.4157625835576E-02
-0.1313483824172E-01 -0.4317409405663E-02
-0.1407809752052E-01 -0.4474631144581E-02
-0.1503942555676E-01 -0.4629334107127E-02
-0.1601549696260E-01 -0.4781899139627E-02
-0.1700257789867E-01 -0.4933025634386E-02
-0.1799656234538E-01 -0.5083689228990E-02
-0.1899302102073E-01 -0.5235087329285E-02
-0.1998729057227E-01 -0.5388576806808E-02
-0.2097476553848E-01 -0.5545969208536E-02
-0.2195121971288E-01 -0.5709582440217E-02
-0.2291291116196E-01 -0.5881677160493E-02
-0.2385679907062E-01 -0.6064261387980E-02
-0.2478069170094E-01 -0.6258843275854E-02
-0.2568323256761E-01 -0.6466117003914E-02
-0.2656364428092E-01 -0.6685590078459E-02
 0.1065721372011E-04 -0.1408094074277E-03
-0.2910496034857E-04 -0.2832521924298E-03
-0.1177310512235E-03 -0.4273408169730E-03
-0.2536938869235E-03 -0.5731482652161E-03
-0.4355575430032E-03 -0.7207691963820E-03
-0.6620035698914E-03 -0.8702793359298E-03
-0.9318329738690E-03 -0.1021708887522E-02
-0.1243955890018E-02 -0.1175030243076E-02
-0.1597374824496E-02 -0.1330156125122E-02
-0.1991169329934E-02 -0.1486945922097E-02
-0.2424482170219E-02 -0.1645215373961E-02
-0.2896506636636E-02 -0.1804746985987E-02
-0.3406476159457E-02 -0.1965300358791E-02
-0.3953651928110E-02 -0.2126620665681E-02
-0.4537309232576E-02 -0.2288445933737E-02
-0.5156723340187E-02 -0.2450513771356E-02
-0.5811159272428E-02 -0.2612569001791E-02
-0.6499820403400E-02 -0.2774361946058E-02
-0.7221882415174E-02 -0.2935668651199E-02
-0.7976408493553E-02 -0.3096284254476E-02
-0.8762348207976E-02 -0.3256038825133E-02
-0.9578498654340E-02 -0.3414806827948E-02
-0.1042346465225E-01 -0.3572519644824E-02
-0.1129562078186E-01 -0.3729112263716E-02
-0.1219306125451E-01 -0.3884215320045E-02
-0.1311355202071E-01 -0.4037345674038E-02
-0.1405448126275E-01 -0.4188161770135E-02
-0.1501282011651E-01 -0.4336605304653E-02
-0.1598511605626E-01 -0.4482948282719E-02
-0.1696749948880E-01 -0.4627772006851E-02
-0.1795572295147E-01 -0.4771924227205E-02
-0.1894521507282E-01 -0.4916467563496E-02
-0.1993117833668E-01 -0.5062624433260E-02
-0.2090889533147E-01 -0.5212105374893E-02
-0.2187407304178E-01 -0.5367182062735E-02
-0.2282298073505E-01 -0.5530109839810E-02
-0.2375270728708E-01 -0.5702935472675E-02
-0.2466134737060E-01 -0.5887235526645E-02
-0.2554800111696E-01 -0.6083761394615E-02
-0.2641247778248E-01 -0.6292014900992E-02
 0.1157208429748E-04 -0.1288654742607E-03
-0.2729331617290E-04 -0.2591554053939E-03
-0.1149960714303E-03 -0.3909054182570E-03
-0.2499857439834E-03 -0.5242280584406E-03
-0.4308248394809E-03 -0.6592652150763E-03
-0.6562100603428E-03 -0.7961411978722E-03
-0.9249671152364E-03 -0.9349326084758E-03
-0.1236033695303E-02 -0.1075655005805E-02
-0.1588437859506E-02 -0.1218261560259E-02
-0.1981279876189E-02 -0.1362650324088E-02
-0.2413717160077E-02 -0.1508674773661E-02
-0.2884951380083E-02 -0.1656154771245E-02
-0.3394218375828E-02 -0.1804887076172E-02
-0.3940776255354E-02 -0.1954653799602E-02
-0.4523892175703E-02 -0.2105229474130E-02
-0.5142828512195E-02 -0.2256387393633E-02
-0.5796832730805E-02 -0.2407906622838E-02
-0.6485085894877E-02 -0.2559570077085E-02
-0.7206736256621E-02 -0.2711182954385E-02
-0.7960813948392E-02 -0.2862565824163E-02
-0.8746229098621E-02 -0.3013568575920E-02
-0.9561732049946E-02 -0.3164078249959E-02
-0.1040587249892E-01 -0.3314029639985E-02
-0.1127696040560E-01 -0.3463345368279E-02
-0.1217301470204E-01 -0.3611605181276E-02
-0.1309171459724E-01 -0.3758246426929E-02
-0.1403034975423E-01 -0.3902833070836E-02
-0.1498578110406E-01 -0.4045203484996E-02
-0.1595443463747E-01 -0.4185517927964E-02
-0.1693230884398E-01 -0.4324235398354E-02
-0.1791501551065E-01 -0.4462069893135E-02
-0.1889783703337E-01 -0.4599941598731E-02
-0.1987583091310E-01 -0.4738929455014E-02
-0.2084414848959E-01 -0.4880633585781E-02
-0.2179840173180E-01 -0.5027271814254E-02
-0.2273483717936E-01 -0.5181092075986E-02
-0.2365064103453E-01 -0.5344186949696E-02
-0.2454417649872E-01 -0.5518220180500E-02
-0.2541501233471E-01 -0.5704023594688E-02
-0.2626358227724E-01 -0.5901095736222E-02
 0.1235161524206E-04 -0.1168934888681E-03
-0.2574762038225E-04 -0.2349946232003E-03
-0.1126425411641E-03 -0.3543660492925E-03
-0.2467536292691E-03 -0.4751643928525E-03
-0.4266400681066E-03 -0.5975825004076E-03
-0.6510145623748E-03 -0.7217954766831E-03
-0.9187294632066E-03 -0.8479270616129E-03
-0.1228752023442E-02 -0.9760357394584E-03
-0.1580137471527E-02 -0.1106114464880E-02
-0.1972007962854E-02 -0.1238099287667E-02
-0.2403536421171E-02 -0.1371880982263E-02
-0.2873933614428E-02 -0.1507316640318E-02
-0.3382438529074E-02 -0.1644240360058E-02
-0.3928307059337E-02 -0.1782471638908E-02
-0.4510799311047E-02 -0.1921822184310E-02
-0.5129166132509E-02 -0.2062101823705E-02
-0.5782639148802E-02 -0.2203124856667E-02
-0.6470379254702E-02 -0.2344707901500E-02
-0.7191509913748E-02 -0.2486686507553E-02
-0.7945031435534E-02 -0.2628907931399E-02
-0.8729818394827E-02 -0.2771243148417E-02
-0.9544578971274E-02 -0.2913592986726E-02
-0.1038781303362E-01 -0.3055896726253E-02
-0.1125777186999E-01 -0.3198065421056E-02
-0.1215240563753E-01 -0.3339628208940E-02
-0.1306931369069E-01 -0.3479942755012E-02
-0.1400569422046E-01 -0.3618477944464E-02
-0.1495830480827E-01 -0.3754967625661E-02
-0.1592345603313E-01 -0.3889458162579E-02
-0.1689701881820E-01 -0.4022282654875E-02
-0.1787446544811E-01 -0.4154015760939E-02
-0.1885092836181E-01 -0.4285427267741E-02
-0.1982130916367E-01 -0.4417442419976E-02
-0.2078060746615E-01 -0.4551539337952E-02
-0.2172430896273E-01 -0.4689871244132E-02
-0.2264859829116E-01 -0.4834673493889E-02
-0.2355071944682E-01 -0.4988089040122E-02
-0.2442927833338E-01 -0.5151888181731E-02
-0.2528432478735E-01 -0.5327017710919E-02
-0.2611697614007E-01 -0.5512980280234E-02
 0.1298924099154E-04 -0.1048908430638E-03
-0.2447923050197E-04 -0.2107628440101E-03
-0.1106840119248E-03 -0.3177102957743E-03
-0.2440107859796E-03 -0.4259391939958E-03
-0.4230143831760E-03 -0.5356975445025E-03
-0.6464252535895E-03 -0.6472135633691E-03
-0.9131250574071E-03 -0.7606587256654E-03
-0.1222113052600E-02 -0.8761339712669E-03
-0.1572473433466E-02 -0.9936711734070E-03
-0.1963351424101E-02 -0.1113243576330E-02
-0.2393936240873E-02 -0.1234778735338E-02
-0.2863448369988E-02 -0.1358170799780E-02
-0.3371130583171E-02 -0.1483291357805E-02
-0.3916237345392E-02 -0.1609997717573E-02
-0.4498022729156E-02 -0.1738139412130E-02
-0.5115727375106E-02 -0.1867563644951E-02
-0.5768568752718E-02 -0.1998120963514E-02
-0.6455689716470E-02 -0.2129662858677E-02
-0.7176191584768E-02 -0.2262056549887E-02
-0.7929048096962E-02 -0.2395177429495E-02
-0.8713102207616E-02 -0.2528919108057E-02
-0.9527024599189E-02 -0.2663197799263E-02
-0.1036927071676E-01 -0.2797958837935E-02
-0.1123803926842E-01 -0.2933103100308E-02
-0.1213121831581E-01 -0.3068110027747E-02
-0.1304633445624E-01 -0.3202258122543E-02
-0.1398050172222E-01 -0.3334921368166E-02
-0.1493038155908E-01 -0.3465728757117E-02
-0.1589217570136E-01 -0.3594611510867E-02
-0.1686163252076E-01 -0.3721774044687E-02
-0.1783408685573E-01 -0.3847646603145E-02
-0.1880451825567E-01 -0.3972840512500E-02
-0.1976766190519E-01 -0.4098116053891E-02
-0.2071834445568E-01 -0.4224815441894E-02
-0.2165189133382E-01 -0.4355013117274E-02
-0.2256438002159E-01 -0.4490922199894E-02
-0.2345306526561E-01 -0.4634738956579E-02
-0.2431675821163E-01 -0.4788353977758E-02
-0.2515599500842E-01 -0.4952879351362E-02
-0.2597267035024E-01 -0.5127854827584E-02
 0.1347702188996E-04 -0.9285484446465E-04
-0.2350184333470E-04 -0.1864527253384E-03
-0.1091368147347E-03 -0.2809251294142E-03
-0.2417732533514E-03 -0.3765336178289E-03
-0.4199615409494E-03 -0.4735860657689E-03
-0.6424526964768E-03 -0.5723661635881E-03
-0.9081611807048E-03 -0.6730934916664E-03
-0.1216121158810E-02 -0.7759106849998E-03
-0.1565447746815E-02 -0.8808874403247E-03
-0.1955310399502E-02 -0.9880332562011E-03
-0.2384915310624E-02 -0.1097311885211E-02
-0.2853493186539E-02 -0.1208654332974E-02
-0.3360291115220E-02 -0.1321969810139E-02
-0.3904562828292E-02 -0.1437153841593E-02
-0.4485557312835E-02 -0.1554094418802E-02
-0.5102506266548E-02 -0.1672676954888E-02
-0.5754614645970E-02 -0.1792789272110E-02
-0.6441009361260E-02 -0.1914318957209E-02
-0.7160772208097E-02 -0.2037166329885E-02
-0.7912853602124E-02 -0.2161236555685E-02
-0.8696068826686E-02 -0.2286447712695E-02
-0.9509055777262E-02 -0.2412733389131E-02
-0.1035023095896E-01 -0.2540047051688E-02
-0.1121774671010E-01 -0.2668281406079E-02
-0.1210943583123E-01 -0.2796867774488E-02
-0.1302275945669E-01 -0.2925006753837E-02
-0.1395475503740E-01 -0.3051978454251E-02
-0.1490199547380E-01 -0.3177307652231E-02
-0.1586058077996E-01 -0.3300810234717E-02
-0.1682614259004E-01 -0.3422560176935E-02
-0.1779388140985E-01 -0.3542839028316E-02
-0.1875862216718E-01 -0.3662091813880E-02
-0.1971492403957E-01 -0.3780901767653E-02
-0.2065741941283E-01 -0.3900459037991E-02
-0.2158123687093E-01 -0.4022741048301E-02
-0.2248229605653E-01 -0.4149924454629E-02
-0.2335780301256E-01 -0.4284255225074E-02
-0.2420673420828E-01 -0.4427765972603E-02
-0.2503007556607E-01 -0.4581743977709E-02
-0.2583065452971E-01 -0.4745956870961E-02
 0.1380546434246E-04 -0.8078269477580E-04
-0.2283175271440E-04 -0.1620565456524E-03
-0.1080202911869E-03 -0.2439968367467E-03
-0.2400600012466E-03 -0.3269280021063E-03
-0.4174979411070E-03 -0.4112230146289E-03
-0.6391098234271E-03 -0.4972233665890E-03
-0.9038473283333E-03 -0.5851967821594E-03
-0.1210782895753E-02 -0.6753264714143E-03
-0.1559064643279E-02 -0.7677186075964E-03
-0.1947887358712E-02 -0.8624178743915E-03
-0.2376474770596E-02 -0.9594235908724E-03
-0.2844068174251E-02 -0.1058703405553E-02
-0.3349919389932E-02 -0.1160204277047E-02
-0.3893282018979E-02 -0.1263860338776E-02
-0.4473400836152E-02 -0.1369598653803E-02
-0.5089499798351E-02 -0.1477343663445E-02
-0.5740772936584E-02 -0.1587021495951E-02
-0.6426333262223E-02 -0.1698557099638E-02
-0.7145245625633E-02 -0.1811885424254E-02
-0.7896440330377E-02 -0.1926943224709E-02
-0.8678708920761E-02 -0.2043675156094E-02
-0.9490661226477E-02 -0.2162034561908E-02
-0.1033068034384E-01 -0.2281985635464E-02
-0.1119687854126E-01 -0.2403415556154E-02
-0.1208704032313E-01 -0.2525709799101E-02
-0.1299856883113E-01 -0.2647993094497E-02
-0.1392843276135E-01 -0.2769453624672E-02
-0.1487312444178E-01 -0.2889513668177E-02
-0.1582864988751E-01 -0.3007874805968E-02
-0.1679053072017E-01 -0.3124480092558E-02
-0.1775383752083E-01 -0.3239459234557E-02
-0.1871324048197E-01 -0.3353083746424E-02
-0.1966311479101E-01 -0.3465747312071E-02
-0.2059787791346E-01 -0.3578469725341E-02
-0.2151242344948E-01 -0.3693108914872E-02
-0.2240245554450E-01 -0.3811784473603E-02
-0.2326506430521E-01 -0.3936783958920E-02
-0.2409932122351E-01 -0.4070293355395E-02
-0.2490668224827E-01 -0.4213822603160E-02
-0.2569074247739E-01 -0.4367356289403E-02
 0.1396334908304E-04 -0.6866961313957E-04
-0.2248755276407E-04 -0.1375580279668E-03
-0.1073553344553E-03 -0.2068926691269E-03
-0.2388896825496E-03 -0.2770693086798E-03
-0.4156369877119E-03 -0.3485317634588E-03
-0.6364033279796E-03 -0.4216815195596E-03
-0.9001830607907E-03 -0.4968340694503E-03
-0.1206090758549E-02 -0.5742117129597E-03
-0.1553309743670E-02 -0.6539555735013E-03
-0.1941061190086E-02 -0.7361444480426E-03
-0.2368586821067E-02 -0.8208127014607E-03
-0.2835138799873E-02 -0.9079645763723E-03
-0.3339974027204E-02 -0.9975850905123E-03
-0.3882346527136E-02 -0.1089647573736E-02
-0.4461497693446E-02 -0.1184118984012E-02
-0.5076644901332E-02 -0.1280963844651E-02
-0.5726972791833E-02 -0.1380147895881E-02
-0.6411582458087E-02 -0.1481635048241E-02
-0.7129524302960E-02 -0.1585396818938E-02
-0.7879711639148E-02 -0.1691403873010E-02
-0.8660916109546E-02 -0.1799630165856E-02
-0.9471724108645E-02 -0.1910051909796E-02
-0.1031049077348E-01 -0.2022647472063E-02
-0.1117529452803E-01 -0.2137302084945E-02
-0.1206387846606E-01 -0.2253358512562E-02
-0.1297359511187E-01 -0.2369868502975E-02
-0.1390135213882E-01 -0.2485931175566E-02
-0.1484356923239E-01 -0.2600869064430E-02
-0.1579616622508E-01 -0.2714271604874E-02
-0.1675456178994E-01 -0.2825951580792E-02
-0.1771370166471E-01 -0.2935884630114E-02
-0.1866810218455E-01 -0.3044161873338E-02
-0.1961194751534E-01 -0.3150974039428E-02
-0.2053941957857E-01 -0.3257149402561E-02
-0.2144513574038E-01 -0.3364398369847E-02
-0.2232451966372E-01 -0.3474754845066E-02
-0.2317445931245E-01 -0.3590532127141E-02
-0.2399404993573E-01 -0.3714075786952E-02
-0.2478514067286E-01 -0.3847173867694E-02
-0.2555232677493E-01 -0.3989977360861E-02
 0.1393733719825E-04 -0.5651461176648E-04
-0.2249252105655E-04 -0.1129567204816E-03
-0.1071701548935E-03 -0.1696156776305E-03
-0.2382914020973E-03 -0.2269686769962E-03
-0.4144066989209E-03 -0.2855366457884E-03
-0.6343600387524E-03 -0.3457829167723E-03
-0.8971950074445E-03 -0.4080697137141E-03
-0.1202072533324E-02 -0.4726563699163E-03
-0.1548213279777E-02 -0.5397170814226E-03
-0.1934865621216E-02 -0.6093635034464E-03
-0.2361289473240E-02 -0.6816644118654E-03
-0.2826747918065E-02 -0.7566604743360E-03
-0.3330503101758E-02 -0.8343749153859E-03
-0.3871809878257E-02 -0.9148206336103E-03
-0.4449906972269E-02 -0.9980050444470E-03
-0.5064006234255E-02 -0.1083933516155E-02
-0.5713284359817E-02 -0.1172612405946E-02
-0.6396832421894E-02 -0.1264045897030E-02
-0.7113688802283E-02 -0.1358243763452E-02
-0.7862752892157E-02 -0.1455212722476E-02
-0.8642780254032E-02 -0.1554958679761E-02
-0.9452338517582E-02 -0.1657483895220E-02
-0.1028976042853E-01 -0.1762784591797E-02
-0.1115309700840E-01 -0.1870748066399E-02
-0.1204005715163E-01 -0.1980678163301E-02
-0.1294795058838E-01 -0.2091557425287E-02
-0.1387363231340E-01 -0.2202399942113E-02
-0.1481345816127E-01 -0.2312432758748E-02
-0.1576327084661E-01 -0.2421137215169E-02
-0.1671839498212E-01 -0.2528198769273E-02
-0.1767365917193E-01 -0.2633439374543E-02
-0.1862343038069E-01 -0.2736765478036E-02
-0.1956169922642E-01 -0.2838153315587E-02
-0.2048239598398E-01 -0.2938218365676E-02
-0.2137982319569E-01 -0.3038491711995E-02
-0.2224905471606E-01 -0.3140885386804E-02
-0.2308668069585E-01 -0.3247710481775E-02
-0.2389171054096E-01 -0.3361479879286E-02
-0.2466635379620E-01 -0.3484268501006E-02
-0.2541614613063E-01 -0.3616578628915E-02
 0.1371175130037E-04 -0.4431461739002E-04
-0.2287289668894E-04 -0.8824330600266E-04
-0.1074948549873E-03 -0.1321495245795E-03
-0.2382937739431E-03 -0.1766036821528E-03
-0.4138315116493E-03 -0.2222105233369E-03
-0.6329997470997E-03 -0.2694965110558E-03
-0.8948990225626E-03 -0.3188687530840E-03
-0.1198741170729E-02 -0.3706209874506E-03
-0.1543786219760E-02 -0.4249583631237E-03
-0.1929310316151E-02 -0.4820241157948E-03
-0.2354591538163E-02 -0.5419208594120E-03
-0.2818903766004E-02 -0.6047255784272E-03
-0.3321514433146E-02 -0.6704998768027E-03
-0.3861679538411E-02 -0.7392965796570E-03
-0.4438635770688E-02 -0.8111640792956E-03
-0.5051590434128E-02 -0.8861492965521E-03
-0.5699713635588E-02 -0.9643001619492E-03
-0.6382088223055E-02 -0.1045662421569E-02
-0.7097742864810E-02 -0.1130285827275E-02
-0.7845565970156E-02 -0.1218215402901E-02
-0.8624300714402E-02 -0.1309491876195E-02
-0.9432500524876E-02 -0.1404147092195E-02
-0.1026848125399E-01 -0.1502199328066E-02
-0.1113027294189E-01 -0.1603542631206E-02
-0.1201555752195E-01 -0.1707446482753E-02
-0.1292160982277E-01 -0.1812828891366E-02
-0.1384524064212E-01 -0.1918624051715E-02
-0.1478275103617E-01 -0.2023969159352E-02
-0.1572991622345E-01 -0.2128243240308E-02
-0.1668197667773E-01 -0.2231009483326E-02
-0.1763365335727E-01 -0.2331938993855E-02
-0.1857917115977E-01 -0.2430751806903E-02
-0.1951232855534E-01 -0.2527200075728E-02
-0.2042679256146E-01 -0.2621665196496E-02
-0.2131651484595E-01 -0.2715463318188E-02
-0.2217614723405E-01 -0.2810338570739E-02
-0.2300186856305E-01 -0.2908561472151E-02
-0.2379247585228E-01 -0.3012798818054E-02
-0.2455043983767E-01 -0.3125471603596E-02
-0.2528229039376E-01 -0.3247432179025E-02
 0.1326812755076E-04 -0.3206634025871E-04
-0.2365920176058E-04 -0.6340768050165E-04
-0.1083637939370E-03 -0.9447668016796E-04
-0.2389288389489E-03 -0.1259508399946E-03
-0.4139384309302E-03 -0.1585256953152E-03
-0.6323443130694E-03 -0.1927912260969E-03
-0.8933128992949E-03 -0.2291965454410E-03
-0.1196111659554E-02 -0.2680665501714E-03
-0.1540041763188E-02 -0.3096350376773E-03
-0.1924407379033E-02 -0.3540756009324E-03
-0.2348504460547E-02 -0.4015242373877E-03
-0.2811617388823E-02 -0.4520942296092E-03
-0.3313018809552E-02 -0.5058857660765E-03
-0.3851966095901E-02 -0.5629919356244E-03
-0.4427694458879E-02 -0.6235025692400E-03
-0.5039407554521E-02 -0.6875067724155E-03
-0.5686270161954E-02 -0.7550949314588E-03
-0.6367358581502E-02 -0.8263555953263E-03
-0.7081693932942E-02 -0.9013802120217E-03
-0.7828156420845E-02 -0.9802544420658E-03
-0.8605480357613E-02 -0.1063056894067E-02
-0.9412209376881E-02 -0.1149852866131E-02
-0.1024664781902E-01 -0.1240687387706E-02
-0.1110681109786E-01 -0.1335466612983E-02
-0.1199036140632E-01 -0.1433430989595E-02
-0.1289454658225E-01 -0.1533439575782E-02
-0.1381614178200E-01 -0.1634352942258E-02
-0.1475140255993E-01 -0.1735225526287E-02
-0.1569604673327E-01 -0.1835341679727E-02
-0.1664524151965E-01 -0.1934149733621E-02
-0.1759361150080E-01 -0.2031175685296E-02
-0.1853524984831E-01 -0.2125954755459E-02
-0.1946376895702E-01 -0.2218008592270E-02
-0.2037256699590E-01 -0.2307464810071E-02
-0.2125521409595E-01 -0.2395386139727E-02
-0.2210586644060E-01 -0.2483293466527E-02
-0.2292016438602E-01 -0.2573360359049E-02
-0.2369652839084E-01 -0.2668387403877E-02
-0.2443756410555E-01 -0.2771175451439E-02
-0.2515080740564E-01 -0.2883024678247E-02
 0.1258468129153E-04 -0.1976622154485E-04
-0.2488689706485E-04 -0.3843873033881E-04
-0.1098159852118E-03 -0.5657820930069E-04
-0.2402321191592E-03 -0.7498555712787E-04
-0.4147568935663E-03 -0.9445405741950E-04
-0.6324175024024E-03 -0.1156362443475E-03
-0.8924562631790E-03 -0.1390190839173E-03
-0.1194200987519E-02 -0.1649547641182E-03
-0.1536995349390E-02 -0.1937033454641E-03
-0.1920171387921E-02 -0.2254677136822E-03
-0.2343042363689E-02 -0.2604169783263E-03
-0.2804902689173E-02 -0.2987008184373E-03
-0.3305030041149E-02 -0.3404582476141E-03
-0.3842683321152E-02 -0.3858229242929E-03
-0.4417096750660E-02 -0.4349265038592E-03
-0.5027471155765E-02 -0.4879008091656E-03
-0.5672967147113E-02 -0.5448794620906E-03
-0.6352656023196E-02 -0.6059949698654E-03
-0.7065553355218E-02 -0.6713821521423E-03
-0.7810533724707E-02 -0.7411696676522E-03
-0.8586325893679E-02 -0.8154772072068E-03
-0.9391467907376E-02 -0.8944076820472E-03
-0.1022425780763E-01 -0.9780380451150E-03
-0.1108270262174E-01 -0.1066292572624E-02
-0.1196445195617E-01 -0.1158388781523E-02
-0.1286673452969E-01 -0.1253133285672E-02
-0.1378629841251E-01 -0.1349320462130E-02
-0.1471936304221E-01 -0.1445930578519E-02
-0.1566159928430E-01 -0.1542162905053E-02
-0.1660811281197E-01 -0.1637360878034E-02
-0.1755344477631E-01 -0.1730914440519E-02
-0.1849157007144E-01 -0.1822179737578E-02
-0.1941592632378E-01 -0.1910446088557E-02
-0.2031964496387E-01 -0.1995571238133E-02
-0.2119589229854E-01 -0.2078325411499E-02
-0.2203825837313E-01 -0.2159941138162E-02
-0.2284170392702E-01 -0.2242420205117E-02
-0.2360407035476E-01 -0.2328653662485E-02
-0.2432791718952E-01 -0.2421858437474E-02
-0.2502176531346E-01 -0.2523903790058E-02
 0.1163561885801E-04 -0.7410330710009E-05
-0.2659718827652E-04 -0.1332403717958E-04
-0.1118955153634E-03 -0.1843350055473E-04
-0.2422426036725E-03 -0.2368211061767E-04
-0.4163185541000E-03 -0.2996734922555E-04
-0.6332447828196E-03 -0.3800138940758E-04
-0.8923504600036E-03 -0.4830337789299E-04
-0.1193028113309E-02 -0.6124837081429E-04
-0.1534664679259E-02 -0.7712039125795E-04
-0.1916619437721E-02 -0.9615084392033E-04
-0.2338222097724E-02 -0.1185419315653E-03
-0.2798776475120E-02 -0.1444799677997E-03
-0.3297565008129E-02 -0.1741430640302E-03
-0.3833848218922E-02 -0.2077057065078E-03
-0.4406859766195E-02 -0.2453416617362E-03
-0.5015798386290E-02 -0.2872258759020E-03
-0.5659821574718E-02 -0.3335358513966E-03
-0.6337997031094E-02 -0.3844490860871E-03
-0.7049336592122E-02 -0.4401453579996E-03
-0.7792711570105E-02 -0.5007986643748E-03
-0.8566848232858E-02 -0.5665730671277E-03
-0.9370282985759E-02 -0.6376134929042E-03
-0.1020131256196E-01 -0.7140344253923E-03
-0.1105794167294E-01 -0.7957849167817E-03
-0.1193781437342E-01 -0.8820664224438E-03
-0.1283814803301E-01 -0.9716405419502E-03
-0.1375567210722E-01 -0.1063244057856E-02
-0.1468657929859E-01 -0.1155793177238E-02
-0.1562650417761E-01 -0.1248413687350E-02
-0.1657050322148E-01 -0.1340356776348E-02
-0.1751304855247E-01 -0.1430889026121E-02
-0.1844801320637E-01 -0.1519198138196E-02
-0.1936867689384E-01 -0.1604345398973E-02
-0.2026791559494E-01 -0.1685908848472E-02
-0.2113848157457E-01 -0.1764329650587E-02
-0.2197333678711E-01 -0.1840479190515E-02
-0.2276661160192E-01 -0.1916089948679E-02
-0.2351532161543E-01 -0.1994070925675E-02
-0.2422172434162E-01 -0.2078081878494E-02
-0.2489526042405E-01 -0.2170699919300E-02
 0.1039023800717E-04  0.5005799265935E-05
-0.2883801814184E-04  0.1195053545509E-04
-0.1146519661038E-03  0.1998006792655E-04
-0.2450026264615E-03  0.2798631360326E-04
-0.4186569734551E-03  0.3496246571204E-04
-0.6348530817179E-03  0.4014236653199E-04
-0.8930184494107E-03  0.4298208758899E-04
-0.1192613960281E-02  0.4308850316826E-04
-0.1533069757200E-02  0.4015560130678E-04
-0.1913771195878E-02  0.3392378444528E-04
-0.2334063293267E-02  0.2415745576595E-04
-0.2793258507771E-02  0.1063327597012E-04
-0.3290643704666E-02 -0.6866256637136E-05
-0.3825481074183E-02 -0.2855664367555E-04
-0.4397004087313E-02 -0.5465392299634E-04
-0.5004410056625E-02 -0.8537641276355E-04
-0.5646854307833E-02 -0.1209459710255E-03
-0.6323402192851E-02 -0.1615859537406E-03
-0.7033063423915E-02 -0.2075225438851E-03
-0.7774708139075E-02 -0.2589773350299E-03
-0.8547062866030E-02 -0.3161620696578E-03
-0.9348666004482E-02 -0.3792682706307E-03
-0.1017781768358E-01 -0.4484539457451E-03
-0.1103252614197E-01 -0.5237001857906E-03
-0.1191043674172E-01 -0.6042000061391E-03
-0.1280876310458E-01 -0.6886783410586E-03
-0.1372422436832E-01 -0.7758241447279E-03
-0.1465299575531E-01 -0.8645011926653E-03
-0.1559068623428E-01 -0.9537754012980E-03
-0.1653231582835E-01 -0.1042821089958E-02
-0.1747230315141E-01 -0.1130798009800E-02
-0.1840443839865E-01 -0.1216741545331E-02
-0.1932186567622E-01 -0.1299496866119E-02
-0.2021722708671E-01 -0.1378361769545E-02
-0.2108286653733E-01 -0.1453419034027E-02
-0.2191107196170E-01 -0.1525102310095E-02
-0.2269499067191E-01 -0.1594752689826E-02
-0.2343051800309E-01 -0.1665184459400E-02
-0.2411925551416E-01 -0.1740502199445E-02
-0.2477142545978E-01 -0.1824149463202E-02
 0.8811731609200E-05  0.1748743355458E-04
-0.3166528967802E-04  0.3740143379692E-04
-0.1181408009406E-03  0.5868753930497E-04
-0.2485575806499E-03  0.8004748248457E-04
-0.4218071886232E-03  0.1003626422976E-03
-0.6372705128760E-03  0.1188222588453E-03
-0.8944847185113E-03  0.1348668371013E-03
-0.1192981440301E-02  0.1480900044205E-03
-0.1532232954186E-02  0.1581650777407E-03
-0.1911648966417E-02  0.1648039734643E-03
-0.2330588412427E-02  0.1677370249651E-03
-0.2788371537969E-02  0.1667033245210E-03
-0.3284289265845E-02  0.1614456913565E-03
-0.3817605476445E-02  0.1517075219786E-03
-0.4387553787833E-02  0.1372305055170E-03
-0.4993330685762E-02  0.1177528939116E-03
-0.5634090163464E-02  0.9300820506566E-04
-0.6308896318659E-02  0.6272656668266E-04
-0.7016758130448E-02  0.2663414032166E-04
-0.7756546370455E-02 -0.1554036947147E-04
-0.8526990232260E-02 -0.6405963546162E-04
-0.9326633367785E-02 -0.1191664560303E-03
-0.1015378365344E-01 -0.1810686770466E-03
-0.1100645840583E-01 -0.2497872577929E-03
-0.1188231091794E-01 -0.3245151275559E-03
-0.1277855842611E-01 -0.4039498135334E-03
-0.1369191777739E-01 -0.4867433642424E-03
-0.1461855571103E-01 -0.5717202507897E-03
-0.1555406614012E-01 -0.6579021038352E-03
-0.1649344548990E-01 -0.7444044395727E-03
-0.1743107506587E-01 -0.8303005747454E-03
-0.1836068321763E-01 -0.9144955495564E-03
-0.1927530563180E-01 -0.9956392107809E-03
-0.2016738276927E-01 -0.1072761128531E-02
-0.2102887530569E-01 -0.1145569776758E-02
-0.2185137652272E-01 -0.1213987894979E-02
-0.2262690880958E-01 -0.1278819579879E-02
-0.2334990689867E-01 -0.1342618004496E-02
-0.2402083591174E-01 -0.1409889255104E-02
-0.2465043996235E-01 -0.1485122878310E-02
 0.6855566318926E-05  0.3004105495641E-04
-0.3514437340523E-04  0.6304826743792E-04
-0.1224236450698E-03  0.9771685881835E-04
-0.2529553939429E-03  0.1325297790665E-03
-0.4258051488132E-03  0.1662588140958E-03
-0.6405260968290E-03  0.1980628843386E-03
-0.8967752445692E-03  0.2273777929884E-03
-0.1194155528350E-02  0.2537881733500E-03
-0.1532179106203E-02  0.2769469198543E-03
-0.1910277774684E-02  0.2965363847748E-03
-0.2327822810387E-02  0.3122517509548E-03
-0.2784141347499E-02  0.3237938697298E-03
-0.3278527995946E-02  0.3308656329770E-03
-0.3810248344196E-02  0.3331693882862E-03
-0.4378536463966E-02  0.3304047451856E-03
-0.4982588548359E-02  0.3222666941954E-03
-0.5621557989426E-02  0.3084441056461E-03
-0.6294508564057E-02  0.2886201874346E-03
-0.7000449680862E-02  0.2624724504638E-03
-0.7738254241842E-02  0.2296780220456E-03
-0.8506656119545E-02  0.1899202043163E-03
-0.9304207033497E-02  0.1429002456238E-03
-0.1012922652881E-01  0.8835391279248E-04
-0.1097974618692E-01  0.2621203618220E-04
-0.1185343355571E-01 -0.4272728788071E-04
-0.1274751653697E-01 -0.1171443364930E-03
-0.1365871734552E-01 -0.1956663180091E-03
-0.1458320284416E-01 -0.2770929865224E-03
-0.1551656210416E-01 -0.3604191597789E-03
-0.1645378062967E-01 -0.4447221556402E-03
-0.1738921878665E-01 -0.5290129474982E-03
-0.1831656520357E-01 -0.6120940525511E-03
-0.1922877805866E-01 -0.6924504333873E-03
-0.2011813836935E-01 -0.7688709947745E-03
-0.2097627056775E-01 -0.8406948251885E-03
-0.2179408835481E-01 -0.9072756087260E-03
-0.2256237760759E-01 -0.9687180428777E-03
-0.2327373767224E-01 -0.1027080151788E-02
-0.2392685738762E-01 -0.1087150839763E-02
-0.2453254600239E-01 -0.1154660191877E-02
 0.4467238073848E-05  0.4267505131558E-04
-0.3935195368860E-04  0.8891506452170E-04
-0.1275683301084E-03  0.1370994108316E-03
-0.2582456623881E-03  0.1854615378251E-03
-0.4306870138917E-03  0.2326737804522E-03
-0.6446495131685E-03  0.2778851541826E-03
-0.8999175355687E-03  0.3205386222730E-03
-0.1196163397198E-02  0.3602125997694E-03
-0.1532935645083E-02  0.3965382706456E-03
-0.1909685463470E-02  0.4291664335858E-03
-0.2325794794519E-02  0.4577556447983E-03
-0.2780596778947E-02  0.4819677596232E-03
-0.3273389379650E-02  0.5014655866517E-03
-0.3803439928283E-02  0.5159106635499E-03
-0.4369983240617E-02  0.5249609492874E-03
-0.4972215695226E-02  0.5282686050147E-03
-0.5609290712098E-02  0.5254781129845E-03
-0.6280272521752E-02  0.5162256578219E-03
-0.6984171892157E-02  0.5001394205320E-03
-0.7719865024229E-02  0.4768433907762E-03
-0.8486092048416E-02  0.4459640167241E-03
-0.9281415054792E-02  0.4071420416947E-03
-0.1010416866247E-01  0.3600501718270E-03
-0.1095240345902E-01  0.3045622464207E-03
-0.1182380720233E-01  0.2414576509296E-03
-0.1271562512324E-01  0.1720623085048E-03
-0.1362459199481E-01  0.9776065217421E-04
-0.1454688289011E-01  0.1976164337099E-04
-0.1547809174640E-01 -0.6092196174640E-04
-0.1641320536288E-01 -0.1433521836560E-03
-0.1734657916683E-01 -0.2265050526589E-03
-0.1827188430457E-01 -0.3091138112649E-03
-0.1918203439682E-01 -0.3895386363022E-03
-0.2006920111801E-01 -0.4663729269907E-03
-0.2092474167812E-01 -0.5386199659051E-03
-0.2173895086722E-01 -0.6050379934446E-03
-0.2250132382358E-01 -0.6648699185862E-03
-0.2320224298147E-01 -0.7193670898963E-03
-0.2383779001948E-01 -0.7733629074441E-03
-0.2441807118469E-01 -0.8340173474383E-03
 0.1579089783068E-05  0.5540087069192E-04
-0.4437825437913E-04  0.1150321448438E-03
-0.1336484797036E-03  0.1768705366833E-03
-0.2644783149564E-03  0.2388698113741E-03
-0.4364883454611E-03  0.2996257756316E-03
-0.6496709543039E-03  0.3583050330983E-03
-0.9039407895516E-03  0.4143690722385E-03
-0.1199034626595E-02  0.4673901328754E-03
-0.1534532765527E-02  0.5169744198304E-03
-0.1909902801350E-02  0.5627382339288E-03
-0.2324535681453E-02  0.6043016953870E-03
-0.2777769755261E-02  0.6412869024830E-03
-0.3268906078055E-02  0.6733165845299E-03
-0.3797213797016E-02  0.7000119486683E-03
-0.4361928757069E-02  0.7209900118034E-03
-0.4962247951015E-02  0.7358608391402E-03
-0.5597325358977E-02  0.7442251043611E-03
-0.6266226285745E-02  0.7456722083862E-03
-0.6967963558579E-02  0.7397806983164E-03
-0.7701417509805E-02  0.7261202696297E-03
-0.8465335638512E-02  0.7042580808398E-03
-0.9258292123863E-02  0.6737700987558E-03
-0.1007863944970E-01  0.6342593170878E-03
-0.1092445141029E-01  0.5855334621719E-03
-0.1179344148211E-01  0.5283428307530E-03
-0.1268287842220E-01  0.4640075965492E-03
-0.1358951618468E-01  0.3939094959242E-03
-0.1450954549837E-01  0.3192488341226E-03
-0.1543857421769E-01  0.2410250817908E-03
-0.1637160195368E-01  0.1601666399674E-03
-0.1730299432367E-01  0.7770230345310E-04
-0.1822642625760E-01 -0.5069689262623E-05
-0.1913479972043E-01 -0.8643355762659E-04
-0.2002023157533E-01 -0.1648502658859E-03
-0.2087389955199E-01 -0.2390559559695E-03
-0.2168559208183E-01 -0.3072400365742E-03
-0.2244355039444E-01 -0.3676538657124E-03
-0.2313560518430E-01 -0.4203566326894E-03
-0.2375419177175E-01 -0.4698064155642E-03
-0.2430746279911E-01 -0.5247295436640E-03
-0.1894324040743E-05  0.6823502389064E-04
-0.5032962291821E-04  0.1414389589794E-03
-0.1407422495957E-03  0.2170698325854E-03
-0.2717016692966E-03  0.2927781705081E-03
-0.4432432865104E-03  0.3671260591951E-03
-0.6556211853981E-03  0.4393321016514E-03
-0.9088762144943E-03  0.5088843553352E-03
-0.1202801495346E-02  0.5753446750650E-03
-0.1537003627985E-02  0.6382887579470E-03
-0.1910963601169E-02  0.6972945904707E-03
-0.2324079850406E-02  0.7519418366677E-03
-0.2775695288391E-02  0.8018121788934E-03
-0.3265113910084E-02  0.8464885142737E-03
-0.3791606804554E-02  0.8855525003529E-03
-0.4354411134433E-02  0.9185812460509E-03
-0.4952724892019E-02  0.9451437928630E-03
-0.5585703059100E-02  0.9647979400620E-03
-0.6252412490175E-02  0.9770869263332E-03
-0.6951868552535E-02  0.9815397906046E-03
-0.7682956211211E-02  0.9776712702938E-03
-0.8444430955078E-02  0.9649873336502E-03
-0.9234880116182E-02  0.9429953701551E-03
-0.1005267610665E-01  0.9112222245630E-03
-0.1089591947275E-01  0.8694001806945E-03
-0.1176235438022E-01  0.8182394664273E-03
-0.1264927875728E-01  0.7590416247184E-03
-0.1355347169592E-01  0.6931701801739E-03
-0.1447114627638E-01  0.6217980686804E-03
-0.1539793254711E-01  0.5458891516699E-03
-0.1632885357961E-01  0.4663357705327E-03
-0.1725829903641E-01  0.3841394665037E-03
-0.1817996688378E-01  0.3005889533542E-03
-0.1908677802299E-01  0.2174203515728E-03
-0.1997084894120E-01  0.1362262133102E-03
-0.2082327674024E-01  0.5843149477805E-04
-0.2163350580411E-01 -0.1368620331967E-04
-0.2238868618992E-01 -0.7734356902285E-04
-0.2307389892395E-01 -0.1309835514159E-03
-0.2367671055909E-01 -0.1780105469338E-03
-0.2420133947473E-01 -0.2287009893892E-03
-0.6063198091034E-05  0.8120269021959E-04
-0.5733127503200E-04  0.1681884560216E-03
-0.1489295667526E-03  0.2577407388888E-03
-0.2799597796510E-03  0.3472028997728E-03
-0.4509839470288E-03  0.4351757185151E-03
-0.6625319488945E-03  0.5209680929419E-03
-0.9147575371324E-03  0.6040947037602E-03
-0.1207499352257E-02  0.6840971321740E-03
-0.1540384588269E-02  0.7605128593234E-03
-0.1912904837613E-02  0.8328770955298E-03
-0.2324464781216E-02  0.9007270030919E-03
-0.2774411465088E-02  0.9636034325761E-03
-0.3262051806437E-02  0.1021050035529E-02
-0.3786659028400E-02  0.1072610068563E-02
-0.4347471908889E-02  0.1117822139399E-02
-0.4943689785888E-02  0.1156215712805E-02
-0.5574469000210E-02  0.1187307033554E-02
-0.6238878297849E-02  0.1210594214271E-02
-0.6935935866288E-02  0.1225557386813E-02
-0.7664531494021E-02  0.1231656240990E-02
-0.8423428790126E-02  0.1228334340655E-02
-0.9211228587011E-02  0.1215027400238E-02
-0.1002632443354E-01  0.1191180154770E-02
-0.1086684637575E-01  0.1156440097351E-02
-0.1173057358674E-01  0.1111465850215E-02
-0.1261483816045E-01  0.1057526437298E-02
-0.1351644952138E-01  0.9959503849605E-03
-0.1443164895764E-01  0.9278632037723E-03
-0.1535609613568E-01  0.8541695140761E-03
-0.1628484728689E-01  0.7756978928378E-03
-0.1721232847533E-01  0.6933894259395E-03
-0.1813227709883E-01  0.6084808047864E-03
-0.1903765909806E-01  0.5226689956513E-03
-0.1992064012649E-01  0.4375098110915E-03
-0.2077233529339E-01  0.3544506441368E-03
-0.2158204084070E-01  0.2760445623435E-03
-0.2233612649246E-01  0.2059900209904E-03
-0.2301699667203E-01  0.1478235233373E-03
-0.2360606521110E-01  0.1002026336639E-03
-0.2410057061579E-01  0.5166437012015E-04
-0.1107329289722E-04  0.9434451885072E-04
-0.6552953236986E-04  0.1953538615212E-03
-0.1582867839282E-03  0.2989282348082E-03
-0.2892891681069E-03  0.4021465816666E-03
-0.4597404156637E-03  0.5037617371932E-03
-0.6704368607082E-03  0.6032056611720E-03
-0.9216217019790E-03  0.7000051735043E-03
-0.1213167058391E-02  0.7936655251205E-03
-0.1544715448635E-02  0.8836766724536E-03
-0.1915766760808E-02  0.9695262861698E-03
-0.2325731078335E-02  0.1050707211355E-02
-0.2773959414721E-02  0.1126719463435E-02
-0.3259761744145E-02  0.1197068480075E-02
-0.3782413686998E-02  0.1261260702644E-02
-0.4341155944419E-02  0.1318798063644E-02
-0.4935189509462E-02  0.1369172306181E-02
-0.5563672361219E-02  0.1411859852776E-02
-0.6225675358615E-02  0.1446315166171E-02
-0.6920219614370E-02  0.1471970580514E-02
-0.7646199659190E-02  0.1488231287824E-02
-0.8402386891207E-02  0.1494478069402E-02
-0.9187395234655E-02  0.1490072847654E-02
-0.9999639587143E-02  0.1474373118303E-02
-0.1083728126277E-01  0.1446932495667E-02
-0.1169813795244E-01  0.1408345962769E-02
-0.1257958013711E-01  0.1359834981572E-02
-0.1347845191440E-01  0.1302674832280E-02
-0.1439102773855E-01  0.1237922152831E-02
-0.1531300342956E-01  0.1166397538533E-02
-0.1623947713467E-01  0.1088837238521E-02
-0.1716492218171E-01  0.1006088347221E-02
-0.1808312848373E-01  0.9192934633033E-03
-0.1898712676082E-01  0.8300508941814E-03
-0.1986917225407E-01  0.7397844815631E-03
-0.2072048446905E-01  0.6498053998828E-03
-0.2153040787154E-01  0.5626685554618E-03
-0.2228497404144E-01  0.4826238839979E-03
-0.2296442051751E-01  0.4152794732141E-03
-0.2354297565009E-01  0.3626885390095E-03
-0.2400640016546E-01  0.3132662344744E-03
-0.1712339484999E-04  0.1077302335718E-03
-0.7509166948262E-04  0.2230391317909E-03
-0.1688770595698E-03  0.3406718143632E-03
-0.2997156014903E-03  0.4575877372286E-03
-0.4695420858929E-03  0.5728529437761E-03
-0.6793728573514E-03  0.6860277972148E-03
-0.9295097142415E-03  0.7966157654235E-03
-0.1219847485772E-02  0.9040653092853E-03
-0.1550039713197E-02  0.1007808842688E-02
-0.1919592993239E-02  0.1107281871120E-02
-0.2327922472525E-02  0.1201931676243E-02
-0.2774383252864E-02  0.1291218029194E-02
-0.3258288657011E-02  0.1374609742263E-02
-0.3778917033536E-02  0.1451578533601E-02
-0.4335511321608E-02  0.1521591949638E-02
-0.4927274441531E-02  0.1584106304703E-02
-0.5553366216654E-02  0.1638560364870E-02
-0.6212859733609E-02  0.1684366876181E-02
-0.6904778989973E-02  0.1720912010203E-02
-0.7628022961010E-02  0.1747547687378E-02
-0.8381370111933E-02  0.1763592490204E-02
-0.9163446299145E-02  0.1768333729437E-02
-0.9972686839372E-02  0.1761037852390E-02
-0.1080728486677E-01  0.1741156196521E-02
-0.1166509906614E-01  0.1709207667202E-02
-0.1254354158365E-01  0.1666349699759E-02
-0.1343949459322E-01  0.1613784268931E-02
-0.1434926977048E-01  0.1552476183502E-02
-0.1526860474735E-01  0.1483136257571E-02
-0.1619264746921E-01  0.1406379328485E-02
-0.1711592812664E-01  0.1322925239616E-02
-0.1803229906743E-01  0.1233782557268E-02
-0.1893486798767E-01  0.1140396145931E-02
-0.1981600742150E-01  0.1043965718104E-02
-0.2066710753460E-01  0.9455036308955E-03
-0.2147771564008E-01  0.8472539232282E-03
-0.2223400643984E-01  0.7533785668187E-03
-0.2291512594991E-01  0.6710194444829E-03
-0.2348797791492E-01  0.6070173448481E-03
-0.2392063670250E-01  0.5520074956558E-03
-0.2449468689921E-04  0.1214880019089E-03
-0.8619829399204E-04  0.2513942115684E-03
-0.1807342376679E-03  0.3829869579133E-03
-0.3112530436349E-03  0.5134656307971E-03
-0.4804211228501E-03  0.6423976601080E-03
-0.6893819798990E-03  0.7694081898432E-03
-0.9384675742111E-03  0.8939218845611E-03
-0.1227588054235E-02  0.1015310006473E-02
-0.1556404815879E-02  0.1132937210817E-02
-0.1924430593688E-02  0.1246183079621E-02
-0.2331085785706E-02  0.1354449020238E-02
-0.2775729987460E-02  0.1457155924309E-02
-0.3257680308809E-02  0.1553738240781E-02
-0.3776218211839E-02  0.1643635626299E-02
-0.4330589186905E-02  0.1726284034065E-02
-0.4919998312903E-02  0.1801107104995E-02
-0.5543607393100E-02  0.1867508563447E-02
-0.6200491762637E-02  0.1924861837194E-02
-0.6889678148334E-02  0.1972509098117E-02
-0.7610069522271E-02  0.2009750897187E-02
-0.8360450424772E-02  0.2035845230198E-02
-0.9139456820048E-02  0.2050005598910E-02
-0.9945542251609E-02  0.2051405586430E-02
-0.1077693069938E-01  0.2039387238056E-02
-0.1163152293013E-01  0.2014380702742E-02
-0.1250677483085E-01  0.1977461035332E-02
-0.1339960904980E-01  0.1929734421188E-02
-0.1430637773514E-01  0.1872049146767E-02
-0.1522286518436E-01  0.1804979792241E-02
-0.1614427622313E-01  0.1728990520580E-02
-0.1706520664758E-01  0.1644641252927E-02
-0.1797957875308E-01  0.1552769742061E-02
-0.1888058230473E-01  0.1454621821541E-02
-0.1976071868666E-01  0.1351095834714E-02
-0.2061159199853E-01  0.1242751099805E-02
-0.2142304256646E-01  0.1131233674409E-02
-0.2218172330273E-01  0.1019830940047E-02
-0.2286723139913E-01  0.9156179342303E-03
-0.2344099009746E-01  0.8307275501427E-03
-0.2384592599983E-01  0.7623408371517E-03
-0.3360224932678E-04  0.1358746923420E-03
-0.9901447016053E-04  0.2806318935322E-03
-0.1938391662227E-03  0.4258190520370E-03
-0.3239101577302E-03  0.5696637448142E-03
-0.4924180313529E-03  0.7123262665410E-03
-0.7005129050430E-03  0.8533118209566E-03
-0.9485474010537E-03  0.9919153229594E-03
-0.1236441232809E-02  0.1127412157692E-02
-0.1563862297220E-02  0.1259089409894E-02
-0.1930330083817E-02  0.1386269079387E-02
-0.2335270855783E-02  0.1508307489871E-02
-0.2778049393316E-02  0.1624589040487E-02
-0.3257987138202E-02  0.1734516837793E-02
-0.3774369087634E-02  0.1837501771069E-02
-0.4326443579219E-02  0.1932951529558E-02
-0.4913418034497E-02  0.2020260317841E-02
-0.5534456302332E-02  0.2098799891435E-02
-0.6188635903526E-02  0.2167907223019E-02
-0.6874986050901E-02  0.2226883163937E-02
-0.7592413178802E-02  0.2274979436660E-02
-0.8339706806633E-02  0.2311396050450E-02
-0.9115510738676E-02  0.2335275370018E-02
-0.9918293262159E-02  0.2345699195780E-02
-0.1074630630676E-01  0.2341895818424E-02
-0.1159749183413E-01  0.2324194038044E-02
-0.1246934991661E-01  0.2293565467056E-02
-0.1335884503939E-01  0.2250994546437E-02
-0.1426237254633E-01  0.2197186230708E-02
-0.1517576767158E-01  0.2132552139257E-02
-0.1609429830134E-01  0.2057376986186E-02
-0.1701263427971E-01  0.1972028247562E-02
-0.1792477405700E-01  0.1877139734196E-02
-0.1882399001060E-01  0.1773723507737E-02
-0.1970290792966E-01  0.1662330076474E-02
-0.2055335604488E-01  0.1542939242938E-02
-0.2136552375648E-01  0.1416351509901E-02
-0.2212655553299E-01  0.1284412153431E-02
-0.2281781451269E-01  0.1151452892234E-02
-0.2340037448086E-01  0.1032206220751E-02
-0.2378604717152E-01  0.9366678048324E-03
-0.4508805890877E-04  0.1514699263686E-03
-0.1136007238201E-03  0.3110120775056E-03
-0.2080985564684E-03  0.4689375015599E-03
-0.3377143857294E-03  0.6260147150234E-03
-0.5055849790075E-03  0.7825575796281E-03
-0.7128224647952E-03  0.9376944170620E-03
-0.9598088708504E-03  0.1090586946056E-02
-0.1246464767201E-02  0.1240384253031E-02
-0.1572467973052E-02  0.1386293825174E-02
-0.1937345380852E-02  0.1527579561349E-02
-0.2340530405246E-02  0.1663555367967E-02
-0.2781393824988E-02  0.1793572617499E-02
-0.3259262045246E-02  0.1917006967309E-02
-0.3773424018918E-02  0.2033244506255E-02
-0.4323131191716E-02  0.2141668553736E-02
-0.4907593454133E-02  0.2241647607772E-02
-0.5525976694527E-02  0.2332524989172E-02
-0.6177360478455E-02  0.2413604536265E-02
-0.6860776198775E-02  0.2484148948142E-02
-0.7575133175021E-02  0.2543364244992E-02
-0.8319224876386E-02  0.2590395863510E-02
-0.9091700648503E-02  0.2624319540230E-02
-0.9891038974650E-02  0.2644130385704E-02
-0.1071551445823E-01  0.2648943109122E-02
-0.1156310635518E-01  0.2638973347761E-02
-0.1243135699392E-01  0.2615064006850E-02
-0.1331727308759E-01  0.2578046615565E-02
-0.1421729595850E-01  0.2528453292668E-02
-0.1512731591710E-01  0.2466506352120E-02
-0.1604266904959E-01  0.2392283980196E-02
-0.1695810690928E-01  0.2305928685293E-02
-0.1786771237403E-01  0.2207836728573E-02
-0.1876483619985E-01  0.2098768930771E-02
-0.1964222394619E-01  0.1978906775538E-02
-0.2049187866349E-01  0.1847630920944E-02
-0.2130438729806E-01  0.1704596386309E-02
-0.2206726037983E-01  0.1550132610498E-02
-0.2276322489565E-01  0.1383698743019E-02
-0.2336109225647E-01  0.1213327851889E-02
-0.2374587489311E-01  0.1065005530638E-02
-0.5998161304513E-04  0.1698351111623E-03
-0.1296500117224E-03  0.3425456954299E-03
-0.2233984124950E-03  0.5117771389335E-03
-0.3527510320005E-03  0.6823912690161E-03
-0.5199755482398E-03  0.8529741689586E-03
-0.7263831567910E-03  0.1022514091237E-02
-0.9723183347507E-03  0.1189926693789E-02
-0.1257722434892E-02  0.1354240672140E-02
-0.1582281819838E-02  0.1514580355202E-02
-0.1945533718829E-02  0.1670155295518E-02
-0.2346919854483E-02  0.1820241224255E-02
-0.2785818008691E-02  0.1964161292267E-02
-0.3261560165211E-02  0.2101268507749E-02
-0.3773439625684E-02  0.2230928835301E-02
-0.4320711142668E-02  0.2352505703194E-02
-0.4902587129787E-02  0.2465346129598E-02
-0.5518235435798E-02  0.2568768985840E-02
-0.6166737449322E-02  0.2662048755848E-02
-0.6847126394417E-02  0.2744413588551E-02
-0.7558313887836E-02  0.2815027457879E-02
-0.8299096465484E-02  0.2872985249306E-02
-0.9068127260770E-02  0.2917301744567E-02
-0.9863890185669E-02  0.2946895402533E-02
-0.1068467450885E-01  0.2960776144184E-02
-0.1152848788039E-01  0.2959036949958E-02
-0.1239290925026E-01  0.2942359591602E-02
-0.1327498734517E-01  0.2911383485977E-02
-0.1417121333271E-01  0.2866435072667E-02
-0.1507753753209E-01  0.2807522134751E-02
-0.1598936805551E-01  0.2734493285110E-02
-0.1690154394148E-01  0.2647234304341E-02
-0.1780824242985E-01  0.2545863330862E-02
-0.1870289982889E-01  0.2430879397113E-02
-0.1957835190379E-01  0.2302142458220E-02
-0.2042678623120E-01  0.2158425468102E-02
-0.2123888117069E-01  0.1998375066575E-02
-0.2200319710259E-01  0.1819776562392E-02
-0.2270082183566E-01  0.1620121824727E-02
-0.2331237109642E-01  0.1385376911086E-02
-0.2372858505299E-01  0.1139851146393E-02
-0.6149910654589E-01 -0.3074239939617E-01
-0.8921405983206E-01 -0.4179568183450E-01
-0.1171863288728E+00 -0.5538134866733E-01
-0.1452330130121E+00 -0.7131724825481E-01
-0.1732114356802E+00 -0.8938514827377E-01
-0.2010107612233E+00 -0.1093558247908E+00
-0.2285417984495E+00 -0.1309990188628E+00
-0.2557382428779E+00 -0.1540902618463E+00
-0.2825475187940E+00 -0.1784170906659E+00
-0.3089152332290E+00 -0.2037809157939E+00
-0.3347806914188E+00 -0.2299988619980E+00
-0.3600870383347E+00 -0.2569085304894E+00
-0.3847950463587E+00 -0.2843728065037E+00
-0.4088883284469E+00 -0.3122804738617E+00
-0.4323684282428E+00 -0.3405423376317E+00
-0.4552446587612E+00 -0.3690860063842E+00
-0.4775236770464E+00 -0.3978459434400E+00
-0.4992238636252E+00 -0.4267627569485E+00
-0.5203707587797E+00 -0.4557877689385E+00
-0.6005838850406E-01 -0.2995362470076E-01
-0.8660403298853E-01 -0.4080348532315E-01
-0.1134743361584E+00 -0.5418102500454E-01
-0.1405093670181E+00 -0.6991226484730E-01
-0.1675745750428E+00 -0.8778999732468E-01
-0.1945597352054E+00 -0.1075951134096E+00
-0.2213735756293E+00 -0.1291068615586E+00
-0.2479442481714E+00 -0.1521092744258E+00
-0.2742113196252E+00 -0.1763965016689E+00
-0.3001128051962E+00 -0.2017749987452E+00
-0.3255816961737E+00 -0.2280658213752E+00
-0.3505555827272E+00 -0.2551092399072E+00
-0.3749897287153E+00 -0.2827693538581E+00
-0.3988621173796E+00 -0.3109350682714E+00
-0.4221686682046E+00 -0.3395168209644E+00
-0.4449142713154E+00 -0.3684409026551E+00
-0.4671052764113E+00 -0.3976410270862E+00
-0.4887585358581E+00 -0.4270552970535E+00
-0.5099068251493E+00 -0.4566151180314E+00
-0.5860638298801E-01 -0.2918804182275E-01
-0.8397916698516E-01 -0.3984871923791E-01
-0.1097448954378E+00 -0.5303666013913E-01
-0.1357623001080E+00 -0.6858148314008E-01
-0.1619043171546E+00 -0.8628426082131E-01
-0.1880615527202E+00 -0.1059345916046E+00
-0.2141406901968E+00 -0.1273201663790E+00
-0.2400648656867E+00 -0.1502328452097E+00
-0.2657667346889E+00 -0.1744734300206E+00
-0.2911775633856E+00 -0.1998538448462E+00
-0.3162246332130E+00 -0.2261996101816E+00
-0.3408404022797E+00 -0.2533542540478E+00
-0.3649748897805E+00 -0.2811836658628E+00
-0.3886005664834E+00 -0.3095771966717E+00
-0.4117080478915E+00 -0.3384445271306E+00
-0.4342984362359E+00 -0.3677102053580E+00
-0.4563776084997E+00 -0.3973057194484E+00
-0.4779647335178E+00 -0.4271635901709E+00
-0.4991000033368E+00 -0.4572123488936E+00
-0.5714203065970E-01 -0.2844418661185E-01
-0.8133637425631E-01 -0.3892795658797E-01
-0.1059938704217E+00 -0.5194078642351E-01
-0.1309881103577E+00 -0.6731342052611E-01
-0.1561982437756E+00 -0.8485279359817E-01
-0.1815155762233E+00 -0.1043557749439E+00
-0.2068446850558E+00 -0.1256175935398E+00
-0.2321040143548E+00 -0.1484373910228E+00
-0.2572199932715E+00 -0.1726224929558E+00
-0.2821178337652E+00 -0.1979904951780E+00
-0.3067196550517E+00 -0.2243717275795E+00
-0.3309532097798E+00 -0.2516133599233E+00
-0.3547636129174E+00 -0.2795834112217E+00
-0.3781181624711E+00 -0.3081718030124E+00
-0.4010026557141E+00 -0.3372873989466E+00
-0.4234149525629E+00 -0.3668528031558E+00
-0.4453611059184E+00 -0.3967968983921E+00
-0.4668627257214E+00 -0.4270503230671E+00
-0.4879641728189E+00 -0.4575438029909E+00
-0.5566466919507E-01 -0.2772048940479E-01
-0.7867383938701E-01 -0.3803762505009E-01
-0.1022189201474E+00 -0.5088675062122E-01
-0.1261848826971E+00 -0.6609787759885E-01
-0.1504556334093E+00 -0.8348201429960E-01
-0.1749227298426E+00 -0.1028420188170E+00
-0.1994884546787E+00 -0.1239798288492E+00
-0.2240667441419E+00 -0.1467013522979E+00
-0.2485783046996E+00 -0.1708202392323E+00
-0.2729428562291E+00 -0.1961598054604E+00
-0.2970778509970E+00 -0.2225553669428E+00
-0.3209067722995E+00 -0.2498579573554E+00
-0.3443702445267E+00 -0.2779379294990E+00
-0.3674308312841E+00 -0.3066859227059E+00
-0.3900700133529E+00 -0.3360101083597E+00
-0.4122829372272E+00 -0.3658314156585E+00
-0.4340757099143E+00 -0.3960772900799E+00
-0.4554713197837E+00 -0.4266785744035E+00
-0.4765155307963E+00 -0.4575698255692E+00
-0.5417410940189E-01 -0.2701539880082E-01
-0.7599082040371E-01 -0.3717438462777E-01
-0.9841916205478E-01 -0.4986852534126E-01
-0.1213522718440E+00 -0.6492575367973E-01
-0.1446772674193E+00 -0.8215976151437E-01
-0.1682853217320E+00 -0.1013783357472E+00
-0.1920761227304E+00 -0.1223893703209E+00
-0.2159591725432E+00 -0.1450050418578E+00
-0.2398498232607E+00 -0.1690450735425E+00
-0.2636627607586E+00 -0.1943384416908E+00
-0.2873112181750E+00 -0.2207254986311E+00
-0.3107148475045E+00 -0.2480612529741E+00
-0.3338102273538E+00 -0.2762185446883E+00
-0.3565556432503E+00 -0.3050889301669E+00
-0.3789287134374E+00 -0.3345802084910E+00
-0.4009221066266E+00 -0.3646123199858E+00
-0.4225414851788E+00 -0.3951123259761E+00
-0.4438099977695E+00 -0.4260124249251E+00
-0.4647727118475E+00 -0.4572512217001E+00
-0.5267063962295E-01 -0.2632748189819E-01
-0.7328754096546E-01 -0.3633518706848E-01
-0.9459500000897E-01 -0.4888070248193E-01
-0.1164913408684E+00 -0.6378892340698E-01
-0.1388653194482E+00 -0.8087516146387E-01
-0.1616069710992E+00 -0.9995125746124E-01
-0.1846130128707E+00 -0.1208303965700E+00
-0.2077885005554E+00 -0.1433305467610E+00
-0.2310436969435E+00 -0.1672772168843E+00
-0.2542886297708E+00 -0.1925049075418E+00
-0.2774327171557E+00 -0.2188589704892E+00
-0.3003922034669E+00 -0.2461984338920E+00
-0.3231000595682E+00 -0.2743987614543E+00
-0.3455107178038E+00 -0.3033526826994E+00
-0.3675982648295E+00 -0.3329680794631E+00
-0.3893529155044E+00 -0.3631646138216E+00
-0.4107792803045E+00 -0.3938697730896E+00
-0.4318995844783E+00 -0.4250176715306E+00
-0.4527567116065E+00 -0.4565506803619E+00
-0.5115498775562E-01 -0.2565543446634E-01
-0.7056506512441E-01 -0.3551728763082E-01
-0.9074793890143E-01 -0.4791844867344E-01
-0.1116043616738E+00 -0.6268014178399E-01
-0.1330231686094E+00 -0.7961849847826E-01
-0.1548924412011E+00 -0.9854870079682E-01
-0.1771055016288E+00 -0.1192886421926E+00
-0.1995628848052E+00 -0.1416616310707E+00
-0.2221699505629E+00 -0.1654986527939E+00
-0.2448323780404E+00 -0.1906395439052E+00
-0.2674561313082E+00 -0.2169345616003E+00
-0.2899544414437E+00 -0.2442467590861E+00
-0.3122570764148E+00 -0.2724543551173E+00
-0.3343149761141E+00 -0.3014515406135E+00
-0.3560989130876E+00 -0.3311467524142E+00
-0.3775965524753E+00 -0.3614599982511E+00
-0.3988108663205E+00 -0.3923197627037E+00
-0.4197622838977E+00 -0.4236623211468E+00
-0.4404905124375E+00 -0.4554333653613E+00
-0.4962828563450E-01 -0.2499808224355E-01
-0.6782520621538E-01 -0.3471823710104E-01
-0.8688045898221E-01 -0.4697746888024E-01
-0.1066946845813E+00 -0.6159297250242E-01
-0.1271552850836E+00 -0.7838112219971E-01
-0.1481475478356E+00 -0.9715986969418E-01
-0.1695609516679E+00 -0.1177513108416E+00
-0.1912913935952E+00 -0.1399836733691E+00
-0.2132394576931E+00 -0.1636931005962E+00
-0.2353067293578E+00 -0.1887245434530E+00
-0.2573960362758E+00 -0.2149330340409E+00
-0.2794179508926E+00 -0.2421856309903E+00
-0.3012993942933E+00 -0.2703634306022E+00
-0.3229881054303E+00 -0.2993623666992E+00
-0.3444516743935E+00 -0.3290918607181E+00
-0.3656750663807E+00 -0.3594727675998E+00
-0.3866591016138E+00 -0.3904349572505E+00
-0.4074217505327E+00 -0.4219169398428E+00
-0.4279989543775E+00 -0.4538672634876E+00
-0.4809202829218E-01 -0.2435437313132E-01
-0.6507043856703E-01 -0.3393586355693E-01
-0.8299589687313E-01 -0.4605396604437E-01
-0.1017666095068E+00 -0.6052172386542E-01
-0.1212671058537E+00 -0.7715536727162E-01
-0.1413790451851E+00 -0.9577517090407E-01
-0.1619876090801E+00 -0.1162069989184E+00
-0.1829839137342E+00 -0.1382836093671E+00
-0.2042638512018E+00 -0.1618459847747E+00
-0.2257251226091E+00 -0.1867439493720E+00
-0.2472676944495E+00 -0.2128371558626E+00
-0.2687997904164E+00 -0.2399966287719E+00
-0.2902457876513E+00 -0.2681064452476E+00
-0.3115504535131E+00 -0.2970645301726E+00
-0.3326782689629E+00 -0.3267816478078E+00
-0.3536113341966E+00 -0.3571798804434E+00
-0.3743478919418E+00 -0.3881907326920E+00
-0.3949029754615E+00 -0.4197549301786E+00
-0.4153084741958E+00 -0.4518234731437E+00
-0.4654802473261E-01 -0.2372336360653E-01
-0.6230380348447E-01 -0.3316824698165E-01
-0.7909832339961E-01 -0.4514459788818E-01
-0.9682525362907E-01 -0.5946138766600E-01
-0.1153649048455E+00 -0.7593448046223E-01
-0.1345945044624E+00 -0.9438613829198E-01
-0.1543944931893E+00 -0.1146456265659E+00
-0.1746510512409E+00 -0.1365498780475E+00
-0.1952554316008E+00 -0.1599444020853E+00
-0.2161016231740E+00 -0.1846836448124E+00
-0.2370869663148E+00 -0.2106317087771E+00
-0.2581176008080E+00 -0.2376635254556E+00
-0.2791156122286E+00 -0.2656662279674E+00
-0.3000229747297E+00 -0.2945399316585E+00
-0.3208010968514E+00 -0.3241970209648E+00
-0.3414290557993E+00 -0.3545610750250E+00
-0.3619021765737E+00 -0.3855653758746E+00
-0.3822322238320E+00 -0.4171527944191E+00
-0.4024469571665E+00 -0.4492764703605E+00
-0.4499836310387E-01 -0.2310421018873E-01
-0.5952884297476E-01 -0.3241370018239E-01
-0.7519245833710E-01 -0.4424644370584E-01
-0.9187645970103E-01 -0.5840759262568E-01
-0.1094557030534E+00 -0.7471256553008E-01
-0.1278022292216E+00 -0.9298537579876E-01
-0.1467913178971E+00 -0.1130583856720E+00
-0.1663040574715E+00 -0.1347723808507E+00
-0.1862270947336E+00 -0.1579770958948E+00
-0.2064508484256E+00 -0.1825313431095E+00
-0.2268702316978E+00 -0.2083034916884E+00
-0.2473895234442E+00 -0.2351723009695E+00
-0.2679287255440E+00 -0.2630280012886E+00
-0.2884271579535E+00 -0.2917730424066E+00
-0.3088431727933E+00 -0.3213216254378E+00
-0.3291526847147E+00 -0.3515989983074E+00
-0.3493478361199E+00 -0.3825402784898E+00
-0.3694369013659E+00 -0.4140903782590E+00
-0.3894435509165E+00 -0.4462043361715E+00
-0.4344536378058E-01 -0.2249615560535E-01
-0.5674951564669E-01 -0.3167074391998E-01
-0.7128356202916E-01 -0.4335696630878E-01
-0.8692667554694E-01 -0.5735655436582E-01
-0.1035471442725E+00 -0.7348452527659E-01
-0.1210111316770E+00 -0.9156649688959E-01
-0.1391883707293E+00 -0.1114376822030E+00
-0.1579547112535E+00 -0.1329424317376E+00
-0.1771922158167E+00 -0.1559344172595E+00
-0.1967878521323E+00 -0.1802765610595E+00
-0.2166342740958E+00 -0.2058413057579E+00
-0.2366340860706E+00 -0.2325111389201E+00
-0.2567053769797E+00 -0.2601793930912E+00
-0.2767849226248E+00 -0.2887509398838E+00
-0.2968280252599E+00 -0.3181419175233E+00
-0.3168073208047E+00 -0.3482793298186E+00
-0.3367115674684E+00 -0.3791001179915E+00
-0.3565454049738E+00 -0.4105511031524E+00
-0.3763285139670E+00 -0.4425890193267E+00
-0.4189154318587E-01 -0.2189851949313E-01
-0.5397013227888E-01 -0.3093808797378E-01
-0.6737735317390E-01 -0.4247398198348E-01
-0.8198286347520E-01 -0.5630503544232E-01
-0.9764740237533E-01 -0.7224601493849E-01
-0.1142306408922E+00 -0.9012407543707E-01
-0.1315964231968E+00 -0.1097770887537E+00
-0.1496152313034E+00 -0.1310527150812E+00
-0.1681645626983E+00 -0.1538082907807E+00
-0.1871280370792E+00 -0.1779105941575E+00
-0.2063961918371E+00 -0.2032359398994E+00
-0.2258701126237E+00 -0.2296704241659E+00
-0.2454661165981E+00 -0.2571104507776E+00
-0.2651185253852E+00 -0.2854633465996E+00
-0.2847795963333E+00 -0.3146472383802E+00
-0.3044185953066E+00 -0.3445908997410E+00
-0.3240207460729E+00 -0.3752330256125E+00
-0.3435869615429E+00 -0.4065221873590E+00
-0.3631330470542E+00 -0.4384166334377E+00
-0.4033957782389E-01 -0.2131068927985E-01
-0.5119529259004E-01 -0.3021461299043E-01
-0.6347992789177E-01 -0.4159563210725E-01
-0.7705240996939E-01 -0.5525030776722E-01
-0.9176508721811E-01 -0.7099339807866E-01
-0.1074706078383E+00 -0.8865359838023E-01
-0.1240266363712E+00 -0.1080712972910E+00
-0.1412981825042E+00 -0.1290972414665E+00
-0.1591582020803E+00 -0.1515921758038E+00
-0.1774870601139E+00 -0.1754264849594E+00
-0.1961733010112E+00 -0.2004801480958E+00
-0.2151166233301E+00 -0.2266427319331E+00
-0.2342316913024E+00 -0.2538136470330E+00
-0.2534504497107E+00 -0.2819026595074E+00
-0.2727221198535E+00 -0.3108298750583E+00
-0.2920125306271E+00 -0.3405257885323E+00
-0.3113032617257E+00 -0.3709307294403E+00
-0.3305914388306E+00 -0.4019948381093E+00
-0.3498890902351E+00 -0.4336777068902E+00
-0.3879226622184E-01 -0.2073211054413E-01
-0.4842981879033E-01 -0.2949935212763E-01
-0.5959767386516E-01 -0.4072035492996E-01
-0.7214302806495E-01 -0.5419011526465E-01
-0.8590914051120E-01 -0.6972370218912E-01
-0.1007411977454E+00 -0.8715141686784E-01
-0.1164904512779E+00 -0.1063160684669E+00
-0.1330163648102E+00 -0.1270712976047E+00
-0.1501873865167E+00 -0.1492810190374E+00
-0.1678807163170E+00 -0.1728189803218E+00
-0.1859830157015E+00 -0.1975686134695E+00
-0.2043927096624E+00 -0.2234228018886E+00
-0.2230229125021E+00 -0.2502838685017E+00
-0.2418032629840E+00 -0.2780639591681E+00
-0.2606799629794E+00 -0.3066850963676E+00
-0.2796153606097E+00 -0.3360793947140E+00
-0.2985873132216E+00 -0.3661886578345E+00
-0.3175891146790E+00 -0.3969643925789E+00
-0.3366290804468E+00 -0.4283673616459E+00
-0.3725250013326E-01 -0.2016228113591E-01
-0.4567870524720E-01 -0.2879147760408E-01
-0.5573720571755E-01 -0.3984686334367E-01
-0.6726268444829E-01 -0.5312264331691E-01
-0.8008875865796E-01 -0.6843458139416E-01
-0.9405281082705E-01 -0.8561470423751E-01
-0.1089995084144E+00 -0.1045081869315E+00
-0.1247827315043E+00 -0.1249714009146E+00
-0.1412664705349E+00 -0.1468712101762E+00
-0.1583248515389E+00 -0.1700844898267E+00
-0.1758427550885E+00 -0.1944979116316E+00
-0.1937174336950E+00 -0.2200075093135E+00
-0.2118605446744E+00 -0.2465183986686E+00
-0.2301994901877E+00 -0.2739450089563E+00
-0.2486774799655E+00 -0.3022111729872E+00
-0.2672533592240E+00 -0.3312504794363E+00
-0.2859012087045E+00 -0.3610060102619E+00
-0.3046104508764E+00 -0.3914304147952E+00
-0.3233857108313E+00 -0.4224854384112E+00
-0.3572323015836E-01 -0.1960074331809E-01
-0.4294705887555E-01 -0.2809028520615E-01
-0.5190528764049E-01 -0.3897412037177E-01
-0.6241951050445E-01 -0.5204648536281E-01
-0.7431329659390E-01 -0.6712427529642E-01
-0.8741598158724E-01 -0.8404140867500E-01
-0.1015655439894E+00 -0.1026454094566E+00
-0.1166102828391E+00 -0.1227952447210E+00
-0.1324098012640E+00 -0.1443605257315E+00
-0.1488352488705E+00 -0.1672210298906E+00
-0.1657698239984E+00 -0.1912664570670E+00
-0.1831097003121E+00 -0.2163958163719E+00
-0.2007651660230E+00 -0.2425168772939E+00
-0.2186614589750E+00 -0.2695462263506E+00
-0.2367388370726E+00 -0.2974093640911E+00
-0.2549526411696E+00 -0.3260411708892E+00
-0.2732731401116E+00 -0.3553857803692E+00
-0.2916858440556E+00 -0.3853967375373E+00
-0.3101916672686E+00 -0.4160365607503E+00
-0.3420743844723E-01 -0.1904707871848E-01
-0.4024005156747E-01 -0.2739518234952E-01
-0.4810877160983E-01 -0.3810131879704E-01
-0.5762173123341E-01 -0.5096061392600E-01
-0.6859219081494E-01 -0.6579157214776E-01
-0.8084129795302E-01 -0.8243020965448E-01
-0.9420030607856E-01 -0.1007264158484E+00
-0.1085119792159E+00 -0.1205416448034E+00
-0.1236316277823E+00 -0.1417480723399E+00
-0.1394275325458E+00 -0.1642281650273E+00
-0.1557813090458E+00 -0.1878744438106E+00
-0.1725881425542E+00 -0.2125887140946E+00
-0.1897570392551E+00 -0.2382812460464E+00
-0.2072111514881E+00 -0.2648706347865E+00
-0.2248878408897E+00 -0.2922838777533E+00
-0.2427389630652E+00 -0.3204569348034E+00
-0.2607309560180E+00 -0.3493347370334E+00
-0.2788453725335E+00 -0.3788714541674E+00
-0.2970793553172E+00 -0.4090301409427E+00
-0.3270811123844E-01 -0.1850090321254E-01
-0.3756287241398E-01 -0.2670567624506E-01
-0.4435453498462E-01 -0.3722786084131E-01
-0.5287759285230E-01 -0.4986435136284E-01
-0.6293488028990E-01 -0.6443577106700E-01
-0.7433931754803E-01 -0.8078047239643E-01
-0.8691546729182E-01 -0.9875075649103E-01
-0.1005006503663E+00 -0.1182104808249E+00
-0.1149460060556E+00 -0.1390342228189E+00
-0.1301170670489E+00 -0.1611069392928E+00
-0.1458939695253E+00 -0.1843237732118E+00
-0.1621710011253E+00 -0.2085891476769E+00
-0.1788559758026E+00 -0.2338156728445E+00
-0.1958700488946E+00 -0.2599237887015E+00
-0.2131477588768E+00 -0.2868417982490E+00
-0.2306375167984E+00 -0.3145065051804E+00
-0.2483019270887E+00 -0.3428633593194E+00
-0.2661185360880E+00 -0.3718668580911E+00
-0.2840806179835E+00 -0.4014803255994E+00
-0.3122821338995E-01 -0.1796186250660E-01
-0.3492068331195E-01 -0.2602136299074E-01
-0.4064942227124E-01 -0.3635333880249E-01
-0.4819529484245E-01 -0.4875734134862E-01
-0.5735073179860E-01 -0.6305664448071E-01
-0.6792048824268E-01 -0.7909220170888E-01
-0.7972254151790E-01 -0.9671879808362E-01
-0.9258890839123E-01 -0.1158026343787E+00
-0.1063667074939E+00 -0.1362205468170E+00
-0.1209188595492E+00 -0.1578597997712E+00
-0.1361241312383E+00 -0.1806179705315E+00
-0.1518760062913E+00 -0.2044019266116E+00
-0.1680812017378E+00 -0.2291264561353E+00
-0.1846589768333E+00 -0.2547136727227E+00
-0.2015411400286E+00 -0.2810929809880E+00
-0.2186727222846E+00 -0.3082017759166E+00
-0.2360125101214E+00 -0.3359857260511E+00
-0.2535339937760E+00 -0.3643993321633E+00
-0.2712264504612E+00 -0.3934058834775E+00
-0.2977066523918E-01 -0.1742962844698E-01
-0.3231857847964E-01 -0.2534191757724E-01
-0.3700019172440E-01 -0.3547751660121E-01
-0.4358292725678E-01 -0.4763952106017E-01
-0.5184897065032E-01 -0.6165440079544E-01
-0.6159507406771E-01 -0.7736599530675E-01
-0.7263280596441E-01 -0.9463166777223E-01
-0.8478906602108E-01 -0.1133199239532E+00
-0.9790713266399E-01 -0.1333097364358E+00
-0.1118474674242E+00 -0.1544905125033E+00
-0.1264875852968E+00 -0.1767620907405E+00
-0.1417202645604E+00 -0.2000336199345E+00
-0.1574512281641E+00 -0.2242219092668E+00
-0.1735979548950E+00 -0.2492505750150E+00
-0.1900896389798E+00 -0.2750499149735E+00
-0.2068680227811E+00 -0.3015576530213E+00
-0.2238881133063E+00 -0.3287193595164E+00
-0.2411193002596E+00 -0.3564891877862E+00
-0.2585467128764E+00 -0.3848300482542E+00
-0.2833832143443E-01 -0.1690389583081E-01
-0.2976154725682E-01 -0.2466708449514E-01
-0.3341346596154E-01 -0.3460031185937E-01
-0.3904841234976E-01 -0.4651109365147E-01
-0.4643861581269E-01 -0.6022964692048E-01
-0.5537308556507E-01 -0.7560299629193E-01
-0.6565722768905E-01 -0.9249119545169E-01
-0.7711305949643E-01 -0.1107650367064E+00
-0.8958022985354E-01 -0.1303055268340E+00
-0.1029169109626E+00 -0.1510040709826E+00
-0.1169994925062E+00 -0.1727626137420E+00
-0.1317201513643E+00 -0.1954924368903E+00
-0.1469837279791E+00 -0.2191122253292E+00
-0.1627060527066E+00 -0.2435469352258E+00
-0.1788138466631E+00 -0.2687275532246E+00
-0.1952456862159E+00 -0.2945918677310E+00
-0.2119528659060E+00 -0.3210850229930E+00
-0.2289006435353E+00 -0.3481604514690E+00
-0.2460698347483E+00 -0.3757803070933E+00
-0.2693395144116E-01 -0.1638437951733E-01
-0.2725443966343E-01 -0.2399666865641E-01
-0.2989568588347E-01 -0.3372177816519E-01
-0.3459944971171E-01 -0.4537250066383E-01
-0.4112841859779E-01 -0.5878335031836E-01
-0.4926421376220E-01 -0.7380484454941E-01
-0.5880639392352E-01 -0.9029985410606E-01
-0.6957237556917E-01 -0.1081414570594E+00
-0.8139841827597E-01 -0.1272126119910E+00
-0.9414059143227E-01 -0.1474065975866E+00
-0.1076742940223E+00 -0.1686273295917E+00
-0.1218912110432E+00 -0.1907880937985E+00
-0.1366954209950E+00 -0.2138093234407E+00
-0.1520012552928E+00 -0.2376171681447E+00
-0.1677331308035E+00 -0.2621431123209E+00
-0.1838266162301E+00 -0.2873247514897E+00
-0.2002293965810E+00 -0.3131064722118E+00
-0.2169025882443E+00 -0.3394405957135E+00
-0.2338225215958E+00 -0.3662881123586E+00
-0.2556022214746E-01 -0.1587081189053E-01
-0.2480193536883E-01 -0.2333052663990E-01
-0.2645306869939E-01 -0.3284208753716E-01
-0.3024346581449E-01 -0.4422439444149E-01
-0.3592680590842E-01 -0.5731680076469E-01
-0.4327776886911E-01 -0.7197362738893E-01
-0.5209044739462E-01 -0.8806069869242E-01
-0.6217798395468E-01 -0.1054533928163E+00
-0.7337351741217E-01 -0.1240365565694E+00
-0.8553121623493E-01 -0.1437052391394E+00
-0.9852563030235E-01 -0.1643652151812E+00
-0.1122480665372E+00 -0.1859316688449E+00
-0.1266019702530E+00 -0.2083266784193E+00
-0.1415003409875E+00 -0.2314774651460E+00
-0.1568654899021E+00 -0.2553158430804E+00
-0.1726301769113E+00 -0.2797789744203E+00
-0.1887386245549E+00 -0.3048101617105E+00
-0.2051478305009E+00 -0.3303602143115E+00
-0.2218294722652E+00 -0.3563885266827E+00
-0.2421968449823E-01 -0.1536294129763E-01
-0.2240851925319E-01 -0.2266855896815E-01
-0.2309157418682E-01 -0.3196151396970E-01
-0.2598757282794E-01 -0.4306761171733E-01
-0.3084183346905E-01 -0.5583157333926E-01
-0.3742262955555E-01 -0.7011183135518E-01
-0.4551903282018E-01 -0.8577730591511E-01
-0.5494028164059E-01 -0.1027057016013E+00
-0.6551668905916E-01 -0.1207837071390E+00
-0.7710073785477E-01 -0.1399080603684E+00
-0.8956627520610E-01 -0.1599863066532E+00
-0.1028043458102E+00 -0.1809354495412E+00
-0.1167178967420E+00 -0.2026791389632E+00
-0.1312187792822E+00 -0.2251455787620E+00
-0.1462274282309E+00 -0.2482667776956E+00
-0.1616740387994E+00 -0.2719792522039E+00
-0.1774995713349E+00 -0.2962249099647E+00
-0.1936569718053E+00 -0.3209526456614E+00
-0.2101131141545E+00 -0.3461198044419E+00
-0.2291475800421E-01 -0.1486052894059E-01
-0.2007845314931E-01 -0.2201070031741E-01
-0.1981686535110E-01 -0.3108041433327E-01
-0.2183852024306E-01 -0.4190314399226E-01
-0.2588113068321E-01 -0.5432948763946E-01
-0.3170718322215E-01 -0.6822228959689E-01
-0.3910123435284E-01 -0.8345370874248E-01
-0.4786902870837E-01 -0.9990381104408E-01
-0.5783837210889E-01 -0.1174610959504E+00
-0.6886028746168E-01 -0.1360239284363E+00
-0.8080806741295E-01 -0.1555015609798E+00
-0.9357260892861E-01 -0.1758127667528E+00
-0.1070564986100E+00 -0.1968827288894E+00
-0.1211706371910E+00 -0.2186405857425E+00
-0.1358338431990E+00 -0.2410184496605E+00
-0.1509740406048E+00 -0.2639520187298E+00
-0.1665291906984E+00 -0.2873815216231E+00
-0.1824483128329E+00 -0.3112535427640E+00
-0.1986933608201E+00 -0.3355229073921E+00
-0.2164772431756E-01 -0.1436334840330E-01
-0.1781576243927E-01 -0.2135691259955E-01
-0.1663428803191E-01 -0.3019921269220E-01
-0.1780266838103E-01 -0.4073211222096E-01
-0.2105186960572E-01 -0.5281257236007E-01
-0.2613929218035E-01 -0.6630813561947E-01
-0.3284554042028E-01 -0.8109433813119E-01
-0.4097331283578E-01 -0.9705364674573E-01
-0.5034824722675E-01 -0.1140763528026E+00
-0.6082013974410E-01 -0.1320624055511E+00
-0.7226187467222E-01 -0.1509227250674E+00
-0.8456430990413E-01 -0.1705778348092E+00
-0.9762980725233E-01 -0.1909544517114E+00
-0.1113685244694E+00 -0.2119826491513E+00
-0.1256979530309E+00 -0.2335946068655E+00
-0.1405440920135E+00 -0.2557250844665E+00
-0.1558422397814E+00 -0.2783123855359E+00
-0.1715376872367E+00 -0.3013004054155E+00
-0.1875874086064E+00 -0.3246409653702E+00
-0.2042071737262E-01 -0.1387118260632E-01
-0.1562421614192E-01 -0.2070717449006E-01
-0.1354884072490E-01 -0.2931838019786E-01
-0.1388594915311E-01 -0.3955573642488E-01
-0.1636071885065E-01 -0.5128302423220E-01
-0.2072624324069E-01 -0.6437275069149E-01
-0.2675979118675E-01 -0.7870395744960E-01
-0.3426149632197E-01 -0.9416155179078E-01
-0.4305518467958E-01 -0.1106376072491E+00
-0.5298966239605E-01 -0.1280336307577E+00
-0.6393754529402E-01 -0.1462621928191E+00
-0.7578974953591E-01 -0.1652455778689E+00
-0.8844853915183E-01 -0.1849120787090E+00
-0.1018235398157E+00 -0.2051927597325E+00
-0.1158312305103E+00 -0.2260198984345E+00
-0.1303960872328E+00 -0.2473272623945E+00
-0.1454511659137E+00 -0.2690510333799E+00
-0.1609383162693E+00 -0.2911320615685E+00
-0.1768095578714E+00 -0.3135186695612E+00
-0.1923572026806E-01 -0.1338382188476E-01
-0.1350731754811E-01 -0.2006147172643E-01
-0.1056515728818E-01 -0.2843841609161E-01
-0.1009384139485E-01 -0.3837530748875E-01
-0.1181381368561E-01 -0.4974317059956E-01
-0.1547471524845E-01 -0.6241971629109E-01
-0.2085114581115E-01 -0.7628760306025E-01
-0.2774118476898E-01 -0.9123421331440E-01
-0.3596721574854E-01 -0.1071533988026E+00
-0.4537729145054E-01 -0.1239482109890E+00
-0.5584388849587E-01 -0.1415328730175E+00
-0.6725806119750E-01 -0.1598314684377E+00
-0.7952208577157E-01 -0.1787739492829E+00
-0.9254526059828E-01 -0.1982924876238E+00
-0.1062433850383E+00 -0.2183195679763E+00
-0.1205398703232E+00 -0.2387879958964E+00
-0.1353660484165E+00 -0.2596316976450E+00
-0.1506607244353E+00 -0.2807881467818E+00
-0.1663710987138E+00 -0.3022016524664E+00
-0.1809456702969E-01 -0.1290106193546E-01
-0.1146830158889E-01 -0.1941978634345E-01
-0.7687496669179E-02 -0.2755982771322E-01
-0.6431353116739E-02 -0.3719215907560E-01
-0.7416733242694E-02 -0.4819543366608E-01
-0.1039075442395E-01 -0.6045276952728E-01
-0.1512605845020E-01 -0.7385052859800E-01
-0.2141920544901E-01 -0.8827859302136E-01
-0.2909151472347E-01 -0.1036325913719E+00
-0.3799051834436E-01 -0.1198171172495E+00
-0.4798866852834E-01 -0.1367480641677E+00
-0.5897721404854E-01 -0.1543513750859E+00
-0.7085852633597E-01 -0.1725587816777E+00
-0.8354176194358E-01 -0.1913037427488E+00
-0.9694237969592E-01 -0.2105191504537E+00
-0.1109832386340E+00 -0.2301369840769E+00
-0.1255945792189E+00 -0.2500888646889E+00
-0.1407126950379E+00 -0.2703085907129E+00
-0.1562802436696E+00 -0.2907359087983E+00
-0.1699894238936E-01 -0.1242269768563E-01
-0.9510126493421E-02 -0.1878207955353E-01
-0.4919722304910E-02 -0.2668310332444E-01
-0.2902989526052E-02 -0.3600763295504E-01
-0.3174461133694E-02 -0.4664228918660E-01
-0.5479732304043E-02 -0.5847575348966E-01
-0.9590237057123E-02 -0.7139814366364E-01
-0.1530156909101E-01 -0.8530185089079E-01
-0.2243436508616E-01 -0.1000842796889E+00
-0.3083586229291E-01 -0.1156515727397E+00
-0.4037858641780E-01 -0.1319213233074E+00
-0.5095400862007E-01 -0.1488214082005E+00
-0.6246464106762E-01 -0.1662854858072E+00
-0.7481964693348E-01 -0.1842485380095E+00
-0.8793446969666E-01 -0.2026441669437E+00
-0.1017319736243E+00 -0.2214037966862E+00
-0.1161420710856E+00 -0.2404568133570E+00
-0.1310992465283E+00 -0.2597331005376E+00
-0.1465420683990E+00 -0.2791672782704E+00
-0.1595039766789E-01 -0.1194851913428E-01
-0.7635488308634E-02 -0.1814827465181E-01
-0.2265307354113E-02 -0.2580868632804E-01
 0.4872511780618E-03 -0.3482304975322E-01
 0.9086238943329E-03 -0.4508623537680E-01
-0.7463363384422E-03 -0.5649258137963E-01
-0.4248636974990E-02 -0.6893596808951E-01
-0.9393467412617E-02 -0.8231128463295E-01
-0.1600116081899E-01 -0.9651771100641E-01
-0.2391887573982E-01 -0.1114629564306E+00
-0.3301929237090E-01 -0.1270663530352E+00
-0.4319410242582E-01 -0.1432577902340E+00
-0.5434595810116E-01 -0.1599730085499E+00
-0.6638411874210E-01 -0.1771487881305E+00
-0.7922429149970E-01 -0.1947198472297E+00
-0.9278992439987E-01 -0.2126174982790E+00
-0.1070115090092E+00 -0.2307691427296E+00
-0.1218226333972E+00 -0.2491006210851E+00
-0.1371584447982E+00 -0.2675408698189E+00
-0.1495036511677E-01 -0.1147829865689E-01
-0.5846826942261E-02 -0.1751822670778E-01
 0.2726767403512E-03 -0.2493693634853E-01
 0.3735903905958E-02 -0.3363967124513E-01
 0.4828780130902E-02 -0.4352975803027E-01
 0.3805459861866E-02 -0.5450719997502E-01
 0.8945616125734E-03 -0.6646958609155E-01
-0.3699259074316E-02 -0.7931426838472E-01
-0.9796400293974E-02 -0.9294220492644E-01
-0.1724414566429E-01 -0.1072627050552E+00
-0.2591539679308E-01 -0.1221968913181E+00
-0.3570203909848E-01 -0.1376767415796E+00
-0.4650681565511E-01 -0.1536402155412E+00
-0.5823909036434E-01 -0.1700261664971E+00
-0.7081501790393E-01 -0.1867709149045E+00
-0.8415917763977E-01 -0.2038063174718E+00
-0.9820369035097E-01 -0.2210583193429E+00
-0.1128824218737E+00 -0.2384488018886E+00
-0.1281280622128E+00 -0.2559004783644E+00
-0.1400019062660E-01 -0.1101177271711E-01
-0.4146349433843E-02 -0.1689167765583E-01
 0.2691560918159E-02 -0.2406808026049E-01
 0.6840056334456E-02 -0.3245866049634E-01
 0.8582929351927E-02 -0.4197530251209E-01
 0.8172419388369E-02 -0.5252356183610E-01
 0.5835969224495E-02 -0.6400460815287E-01
 0.1777538954498E-02 -0.7631819437304E-01
-0.3823681430332E-02 -0.8936706964155E-01
-0.1081528885946E-01 -0.1030622032675E+00
-0.1907046444382E-01 -0.1173265829388E+00
-0.2848124737815E-01 -0.1320943490453E+00
-0.3895038723606E-01 -0.1473057755433E+00
-0.5038726755628E-01 -0.1629019909637E+00
-0.6270851631697E-01 -0.1788214110615E+00
-0.7584025707463E-01 -0.1949973031807E+00
-0.8971738432575E-01 -0.2113551254404E+00
-0.1042755454320E+00 -0.2278133071733E+00
-0.1194464008905E+00 -0.2442878502743E+00
-0.1310118712889E-01 -0.1054860291682E-01
-0.2536066505430E-02 -0.1626818663904E-01
 0.4989077520952E-02 -0.2320214155410E-01
 0.9797368621374E-02 -0.3128104901299E-01
 0.1216867443385E-01 -0.4042526161638E-01
 0.1235204534227E-01 -0.5054562338376E-01
 0.1057297183022E-01 -0.6154665918257E-01
 0.7034219816644E-02 -0.7333044416859E-01
 0.1914254100575E-02 -0.8580154809720E-01
-0.4635001930119E-02 -0.9887270258136E-01
-0.1248706369873E-01 -0.1124688788517E+00
-0.2153409013623E-01 -0.1265264695857E+00
-0.3167874663141E-01 -0.1409881085027E+00
-0.4283028872564E-01 -0.1557972643128E+00
-0.5490562623331E-01 -0.1708947396565E+00
-0.6783253145893E-01 -0.1862162011544E+00
-0.8154973436406E-01 -0.2016881597435E+00
-0.9599651961327E-01 -0.2172270631699E+00
-0.1111057965382E+00 -0.2327420078472E+00
-0.1225472057654E-01 -0.1008831282080E-01
-0.1017823902062E-02 -0.1564696471553E-01
 0.7163401056346E-02 -0.2233885029644E-01
 0.1260614165076E-01 -0.3010768184878E-01
 0.1558436635293E-01 -0.3888197724550E-01
 0.1634262932733E-01 -0.4857733053980E-01
 0.1510376757625E-01 -0.5910135410421E-01
 0.1206890955707E-01 -0.7035833638913E-01
 0.7415536072587E-02 -0.8225472710170E-01
 0.1294955594597E-02 -0.9470518384743E-01
-0.6166735187986E-02 -0.1076368531796E+00
-0.1486180667240E-01 -0.1209885244797E+00
-0.2469279166781E-01 -0.1347052141976E+00
-0.3556866489701E-01 -0.1487326286022E+00
-0.4740629986049E-01 -0.1630138958136E+00
-0.6013465672974E-01 -0.1774874821297E+00
-0.7369683006408E-01 -0.1920832723291E+00
-0.8803771001508E-01 -0.2067188724645E+00
-0.1030951731647E+00 -0.2212979408967E+00
-0.1146237068669E-01 -0.9629965530098E-02
 0.4066480547598E-03 -0.1502670251568E-01
 0.9213201532511E-02 -0.2147741291394E-01
 0.1526538803433E-01 -0.2893931532972E-01
 0.1882910262602E-01 -0.3734775594357E-01
 0.2014323945210E-01 -0.4662266162262E-01
 0.1942731958238E-01 -0.5667433554608E-01
 0.1688048879443E-01 -0.6740914926159E-01
 0.1267906244015E-01 -0.7873552258244E-01
 0.6973647078566E-02 -0.9057029947768E-01
-0.1101015026196E-03 -0.1028430971085E+00
-0.8464590989810E-02 -0.1154953466204E+00
-0.1799226455035E-01 -0.1284745398248E+00
-0.2860177610168E-01 -0.1417283844899E+00
-0.4020960059046E-01 -0.1552018586859E+00
-0.5274528817104E-01 -0.1688357614705E+00
-0.6615511665486E-01 -0.1825634141866E+00
-0.8039032385514E-01 -0.1963116252735E+00
-0.9539982168765E-01 -0.2099839672922E+00
-0.1072639721618E-01 -0.9172320352580E-02
 0.1735772523366E-02 -0.1440404706917E-01
 0.1113802493959E-01 -0.2061704771217E-01
 0.1777482262472E-01 -0.2777657757539E-01
 0.2190280102611E-01 -0.3582489514059E-01
 0.2375376732726E-01 -0.4468564130309E-01
 0.2354337151464E-01 -0.5427133785324E-01
 0.2146856000886E-01 -0.6449012844045E-01
 0.1770445042616E-01 -0.7525263133164E-01
 0.1240089971780E-01 -0.8647827921332E-01
 0.5683075101348E-02 -0.9809955143998E-01
-0.2341616321140E-02 -0.1100609184508E+00
-0.1157567130655E-01 -0.1223126147928E+00
-0.2192763312395E-01 -0.1348042457776E+00
-0.3331344791759E-01 -0.1474816609364E+00
-0.4566245366341E-01 -0.1602868062943E+00
-0.5892386116013E-01 -0.1731541147127E+00
-0.7304803439491E-01 -0.1860173187634E+00
-0.8800037310136E-01 -0.1988146244590E+00
-0.1927653671054E+00 -0.1220309806547E+00
-0.2866785830359E+00 -0.2140793498687E+00
-0.3595724702519E+00 -0.2877214210511E+00
-0.4219855505285E+00 -0.3509273515698E+00
-0.4781944364932E+00 -0.4080030802780E+00
-0.5303397905030E+00 -0.4593012260279E+00
-0.5791070265887E+00 -0.5019100459444E+00
-0.6244162332803E+00 -0.5355450568901E+00
-0.6661249310979E+00 -0.5618695574402E+00
-0.7041949803761E+00 -0.5823018199113E+00
-0.7385268797977E+00 -0.5977244126646E+00
-0.7689090964493E+00 -0.6087135870797E+00
-0.7950744276783E+00 -0.6158608609198E+00
-0.8167166464373E+00 -0.6197020459108E+00
-0.8335135776836E+00 -0.6207751226255E+00
-0.8452157443865E+00 -0.6198028450791E+00
-0.8517500423885E+00 -0.6176348377266E+00
-0.8529802738600E+00 -0.6149557142501E+00
-0.8494457396143E+00 -0.6136499315723E+00
-0.1760024142163E+00 -0.1040471881333E+00
-0.2711199873721E+00 -0.1848293129609E+00
-0.3462437910213E+00 -0.2583458464935E+00
-0.4098483309557E+00 -0.3220749263559E+00
-0.4669596732240E+00 -0.3795429040467E+00
-0.5197073884195E+00 -0.4316270674615E+00
-0.5687971763663E+00 -0.4758523489331E+00
-0.6143080513741E+00 -0.5117347842279E+00
-0.6562354479348E+00 -0.5405217268432E+00
-0.6946309896538E+00 -0.5634532323892E+00
-0.7294616138399E+00 -0.5814029589637E+00
-0.7605637414839E+00 -0.5949675368053E+00
-0.7876998186353E+00 -0.6047316601681E+00
-0.8105783684377E+00 -0.6111908105114E+00
-0.8288675046511E+00 -0.6148158262758E+00
-0.8422815825721E+00 -0.6161984570777E+00
-0.8506898012603E+00 -0.6160466839471E+00
-0.8537982869626E+00 -0.6149035003637E+00
-0.8519041426046E+00 -0.6148367548044E+00
-0.1616950522076E+00 -0.9152784771198E-01
-0.2551253429494E+00 -0.1619211546320E+00
-0.3315716465633E+00 -0.2312327222735E+00
-0.3964513901010E+00 -0.2943680214291E+00
-0.4543729177242E+00 -0.3518664190778E+00
-0.5076449135861E+00 -0.4043594156947E+00
-0.5570473763022E+00 -0.4497270908794E+00
-0.6027941165657E+00 -0.4874343686659E+00
-0.6449719908050E+00 -0.5184463335725E+00
-0.6836946155447E+00 -0.5437847733274E+00
-0.7189920272909E+00 -0.5642303450930E+00
-0.7507573839880E+00 -0.5803572886521E+00
-0.7787977397774E+00 -0.5927335970342E+00
-0.8028500840572E+00 -0.6018227247322E+00
-0.8225939296578E+00 -0.6080355259255E+00
-0.8377327140461E+00 -0.6118780290897E+00
-0.8481105422134E+00 -0.6139469754434E+00
-0.8532569252273E+00 -0.6147127591742E+00
-0.8532224647520E+00 -0.6163356230604E+00
-0.1494114268970E+00 -0.8205925601656E-01
-0.2396624550290E+00 -0.1434636750160E+00
-0.3161077791715E+00 -0.2073685279701E+00
-0.3818636374249E+00 -0.2683075077912E+00
-0.4405036349805E+00 -0.3251470714899E+00
-0.4942227286643E+00 -0.3776237480420E+00
-0.5438952473694E+00 -0.4237255989720E+00
-0.5898579235034E+00 -0.4628725209127E+00
-0.6322803184091E+00 -0.4958146054099E+00
-0.6713191813867E+00 -0.5233800889320E+00
-0.7070520784827E+00 -0.5462257927465E+00
-0.7394259248630E+00 -0.5648650171352E+00
-0.7682998877048E+00 -0.5798291129946E+00
-0.7934510252380E+00 -0.5915481262916E+00
-0.8145834845786E+00 -0.6003873625970E+00
-0.8314091928866E+00 -0.6067887716831E+00
-0.8437731295258E+00 -0.6112727284554E+00
-0.8510184497207E+00 -0.6142623160069E+00
-0.8529270265327E+00 -0.6179177778398E+00
-0.1387802693451E+00 -0.7452985118819E-01
-0.2250471207158E+00 -0.1283017322854E+00
-0.3003923652946E+00 -0.1865805769876E+00
-0.3663506779566E+00 -0.2443471319874E+00
-0.4254511561265E+00 -0.2996777576263E+00
-0.4795112489238E+00 -0.3516058653389E+00
-0.5293857342427E+00 -0.3980270407318E+00
-0.5755130723208E+00 -0.4382434094729E+00
-0.6181409879424E+00 -0.4728016697434E+00
-0.6574624592957E+00 -0.5023588045058E+00
-0.6935891315146E+00 -0.5274470602136E+00
-0.7265124177197E+00 -0.5484998027944E+00
-0.7561435618113E+00 -0.5659930991466E+00
-0.7823053287601E+00 -0.5803181023985E+00
-0.8047353581624E+00 -0.5918013419418E+00
-0.8231671621646E+00 -0.6008366312423E+00
-0.8374652968938E+00 -0.6078909053483E+00
-0.8467845865703E+00 -0.6133435953074E+00
-0.8506134405383E+00 -0.6192510530271E+00
-0.1294982965813E+00 -0.6835398813616E-01
-0.2113709751399E+00 -0.1156476613011E+00
-0.2847849325102E+00 -0.1685094385749E+00
-0.3502399589438E+00 -0.2226026181167E+00
-0.4093950986625E+00 -0.2757410980352E+00
-0.4636060634892E+00 -0.3265410610319E+00
-0.5135792128986E+00 -0.3728293464932E+00
-0.5597937236523E+00 -0.4137339377705E+00
-0.6025620426554E+00 -0.4495793981057E+00
-0.6421088569570E+00 -0.4808575044822E+00
-0.6785709765471E+00 -0.5079812753456E+00
-0.7119744702569E+00 -0.5312988949696E+00
-0.7422775908120E+00 -0.5512201496542E+00
-0.7693491780209E+00 -0.5680909994570E+00
-0.7929646163330E+00 -0.5822012288719E+00
-0.8128870542229E+00 -0.5939047232791E+00
-0.8290127930435E+00 -0.6036293081783E+00
-0.8403144710141E+00 -0.6116982113428E+00
-0.8459747978072E+00 -0.6199704389828E+00
-0.1213254942014E+00 -0.6317553006655E-01
-0.1986289485807E+00 -0.1049541361806E+00
-0.2695125069171E+00 -0.1527788864150E+00
-0.3338257463337E+00 -0.2030162525822E+00
-0.3925649901896E+00 -0.2534974745148E+00
-0.4466484716590E+00 -0.3026572542186E+00
-0.4965634738754E+00 -0.3483462138650E+00
-0.5427567609965E+00 -0.3895374625711E+00
-0.5855757946710E+00 -0.4263219609549E+00
-0.6252683197835E+00 -0.4590226843308E+00
-0.6619889415817E+00 -0.4879358688965E+00
-0.6957896069185E+00 -0.5133244209262E+00
-0.7266682759362E+00 -0.5355270499925E+00
-0.7545365076491E+00 -0.5548401418569E+00
-0.7792079437483E+00 -0.5715161522708E+00
-0.8004792494384E+00 -0.5858717974871E+00
-0.8182853546899E+00 -0.5983021463729E+00
-0.8314315342183E+00 -0.6090558994818E+00
-0.8388010310651E+00 -0.6197212585910E+00
-0.1140704421791E+00 -0.5875948779822E-01
-0.1867746596379E+00 -0.9582399945276E-01
-0.2547122295098E+00 -0.1390496329188E+00
-0.3173471640625E+00 -0.1854460963661E+00
-0.3751978294726E+00 -0.2329996317740E+00
-0.4288177073102E+00 -0.2801224478090E+00
-0.4784613223858E+00 -0.3247801242677E+00
-0.5244869731018E+00 -0.3658502518874E+00
-0.5672399934113E+00 -0.4032083759478E+00
-0.6069761311469E+00 -0.4370093748453E+00
-0.6438591672064E+00 -0.4674335216721E+00
-0.6779585855334E+00 -0.4946593217673E+00
-0.7093038301502E+00 -0.5189528719787E+00
-0.7378436565783E+00 -0.5405585719722E+00
-0.7634278692124E+00 -0.5596902022648E+00
-0.7858874438151E+00 -0.5766267731508E+00
-0.8051985672090E+00 -0.5917314296933E+00
-0.8200224543183E+00 -0.6051611933812E+00
-0.8289684554679E+00 -0.6181841766160E+00
-0.1075791214007E+00 -0.5494131970238E-01
-0.1757448673609E+00 -0.8795926812927E-01
-0.2404621368455E+00 -0.1270282835140E+00
-0.3009889446945E+00 -0.1697162842174E+00
-0.3575141196208E+00 -0.2142230343461E+00
-0.4103112589134E+00 -0.2590345767016E+00
-0.4594263671244E+00 -0.3022956239866E+00
-0.5050992742610E+00 -0.3428563599899E+00
-0.5476399228743E+00 -0.3804173695309E+00
-0.5872939343552E+00 -0.4149787720071E+00
-0.6242236613699E+00 -0.4466090230465E+00
-0.6585074309068E+00 -0.4754041874590E+00
-0.6901973673282E+00 -0.5015579328416E+00
-0.7192726815886E+00 -0.5252616272605E+00
-0.7456156490480E+00 -0.5466890978957E+00
-0.7690902484963E+00 -0.5660797311925E+00
-0.7897131853888E+00 -0.5837624225276E+00
-0.8060326344866E+00 -0.5997909176729E+00
-0.8164268243499E+00 -0.6150884392265E+00
-0.1017266277661E+00 -0.5160082703822E-01
-0.1654711954404E+00 -0.8113022498474E-01
-0.2268014490095E+00 -0.1164646107540E+00
-0.2848893434033E+00 -0.1556426831570E+00
-0.3397071534275E+00 -0.1970934747145E+00
-0.3913278197537E+00 -0.2394291198440E+00
-0.4396321117351E+00 -0.2810081336840E+00
-0.4847351967028E+00 -0.3207122542297E+00
-0.5268883861796E+00 -0.3581170734473E+00
-0.5663104671122E+00 -0.3930924225928E+00
-0.6031512103980E+00 -0.4256053578573E+00
-0.6374887803161E+00 -0.4556742267764E+00
-0.6693887899778E+00 -0.4834222566352E+00
-0.6988534691030E+00 -0.5089879184071E+00
-0.7257929514299E+00 -0.5325043415290E+00
-0.7501015594780E+00 -0.5541693177647E+00
-0.7718331731293E+00 -0.5742739335968E+00
-0.7894605131940E+00 -0.5927647508568E+00
-0.8011871412794E+00 -0.6102182277201E+00
-0.9641108801698E-01 -0.4864740938111E-01
-0.1558859428558E+00 -0.7515600590467E-01
-0.2137439260313E+00 -0.1071458822574E+00
-0.2691490593584E+00 -0.1430457703952E+00
-0.3219400747545E+00 -0.1815073876926E+00
-0.3720557087599E+00 -0.2212924291481E+00
-0.4192603447563E+00 -0.2609838264484E+00
-0.4635556008287E+00 -0.2995379699063E+00
-0.5051224626045E+00 -0.3364547356185E+00
-0.5441405830356E+00 -0.3715041744252E+00
-0.5807374124070E+00 -0.4045680360038E+00
-0.6149824806680E+00 -0.4355953308558E+00
-0.6469457776151E+00 -0.4646432523699E+00
-0.6766448409480E+00 -0.4917989948915E+00
-0.7040125638246E+00 -0.5171552326934E+00
-0.7289700978763E+00 -0.5408670715624E+00
-0.7516031826668E+00 -0.5631843979291E+00
-0.7703518397093E+00 -0.5839509427681E+00
-0.7833111970591E+00 -0.6034148910633E+00
-0.9154911724808E-01 -0.4601116216306E-01
-0.1469250013022E+00 -0.6989187563780E-01
-0.2012867640612E+00 -0.9889113429013E-01
-0.2538392673744E+00 -0.1317568029113E+00
-0.3043468875413E+00 -0.1673458301384E+00
-0.3526662250863E+00 -0.2045750405578E+00
-0.3984914972698E+00 -0.2422453950387E+00
-0.4417323043686E+00 -0.2794146910543E+00
-0.4824979191995E+00 -0.3155497743116E+00
-0.5209221424025E+00 -0.3503524050965E+00
-0.5571031976727E+00 -0.3836384162767E+00
-0.5910950653259E+00 -0.4152989947897E+00
-0.6229637928163E+00 -0.4453323010255E+00
-0.6527347295077E+00 -0.4737776898386E+00
-0.6803582830402E+00 -0.5006890358115E+00
-0.7057783802352E+00 -0.5261792120750E+00
-0.7291058456828E+00 -0.5504547025408E+00
-0.7487943635629E+00 -0.5732686123562E+00
-0.7629029180876E+00 -0.5945766378924E+00
-0.8707236744083E-01 -0.4363719573051E-01
-0.1385292879197E+00 -0.6522057374143E-01
-0.1894166360325E+00 -0.9154617087277E-01
-0.2390083261795E+00 -0.1216204998533E+00
-0.2870352660160E+00 -0.1544838048591E+00
-0.3333105822930E+00 -0.1892030296303E+00
-0.3774976828889E+00 -0.2247800413612E+00
-0.4194403634329E+00 -0.2603868049574E+00
-0.4591826763003E+00 -0.2954907676108E+00
-0.4968112884400E+00 -0.3297542976236E+00
-0.5323917407974E+00 -0.3629473821649E+00
-0.5659578528468E+00 -0.3949166695844E+00
-0.5975649178628E+00 -0.4256103680919E+00
-0.6272393555834E+00 -0.4550252149107E+00
-0.6549440225017E+00 -0.4831795385052E+00
-0.6806412356717E+00 -0.5101463662857E+00
-0.7044590433917E+00 -0.5360885008935E+00
-0.7249130751689E+00 -0.5606875680626E+00
-0.7401012855754E+00 -0.5836565571805E+00
-0.8292485233974E-01 -0.4148183365583E-01
-0.1306453773438E+00 -0.6104621585485E-01
-0.1781138598775E+00 -0.8497939089328E-01
-0.2246872082470E+00 -0.1124958963629E+00
-0.2700900116749E+00 -0.1427963637134E+00
-0.3141191856274E+00 -0.1750870306611E+00
-0.3564382094412E+00 -0.2085476688060E+00
-0.3968517782162E+00 -0.2424664238350E+00
-0.4353504162412E+00 -0.2763356560466E+00
-0.4719769289603E+00 -0.3098026822599E+00
-0.5067641273984E+00 -0.3426103614799E+00
-0.5397236978878E+00 -0.3745743529352E+00
-0.5708954118870E+00 -0.4056031192868E+00
-0.6003012798146E+00 -0.4356573019765E+00
-0.6279120490749E+00 -0.4647243281339E+00
-0.6537038487933E+00 -0.4928416854404E+00
-0.6778132003663E+00 -0.5201306108930E+00
-0.6988660135239E+00 -0.5462262507685E+00
-0.7150745191875E+00 -0.5706594423312E+00
-0.7906084283901E-01 -0.3950996260421E-01
-0.1232256940468E+00 -0.5728985352240E-01
-0.1673553181756E+00 -0.7907835316270E-01
-0.2108938458486E+00 -0.1042562504694E+00
-0.2535765860442E+00 -0.1321625438926E+00
-0.2952023526482E+00 -0.1621291490465E+00
-0.3354570793752E+00 -0.1934883510342E+00
-0.3741308112677E+00 -0.2256389425793E+00
-0.4111749876160E+00 -0.2581141104607E+00
-0.4465951750620E+00 -0.2905651925872E+00
-0.4803943498015E+00 -0.3227240598832E+00
-0.5125626997686E+00 -0.3543880071911E+00
-0.5431220544161E+00 -0.3854360685394E+00
-0.5720862415841E+00 -0.4157998446313E+00
-0.5994301853083E+00 -0.4454412321939E+00
-0.6251391955006E+00 -0.4743679242710E+00
-0.6493485802622E+00 -0.5026640560603E+00
-0.6708406824154E+00 -0.5299482554986E+00
-0.6880152936696E+00 -0.5556376318564E+00
-0.7544319527227E-01 -0.3769310784490E-01
-0.1162284589529E+00 -0.5388613794079E-01
-0.1571165222596E+00 -0.7374693869059E-01
-0.1976365952899E+00 -0.9678847580267E-01
-0.2375444524918E+00 -0.1224678556331E+00
-0.2766518707451E+00 -0.1502281528103E+00
-0.3146819810262E+00 -0.1795287482923E+00
-0.3514308112668E+00 -0.2098687607342E+00
-0.3868259004559E+00 -0.2408311485724E+00
-0.4208442803974E+00 -0.2720851819788E+00
-0.4534642207867E+00 -0.3033648104507E+00
-0.4846573363679E+00 -0.3344599964631E+00
-0.5144275293058E+00 -0.3652300393436E+00
-0.5427787518964E+00 -0.3955843440172E+00
-0.5696877547749E+00 -0.4254644456370E+00
-0.5951445428056E+00 -0.4548541057506E+00
-0.6192724826104E+00 -0.4838066506539E+00
-0.6410512459432E+00 -0.5119578212069E+00
-0.6591370118390E+00 -0.5386860556018E+00
-0.7204202299534E-01 -0.3600798205907E-01
-0.1096174875905E+00 -0.5078068269414E-01
-0.1473730454828E+00 -0.6890299691248E-01
-0.1849169770035E+00 -0.8999233927984E-01
-0.2220300964220E+00 -0.1136058081601E+00
-0.2585429868043E+00 -0.1392832996239E+00
-0.2942243275689E+00 -0.1665874209797E+00
-0.3288922956892E+00 -0.1951046938007E+00
-0.3624649527546E+00 -0.2244713475929E+00
-0.3949003933850E+00 -0.2543838629114E+00
-0.4261587045670E+00 -0.2845882581634E+00
-0.4561975860709E+00 -0.3148764367788E+00
-0.4850052875139E+00 -0.3450968226371E+00
-0.5125765990344E+00 -0.3751429767411E+00
-0.5388897716871E+00 -0.4049403175410E+00
-0.5639363803977E+00 -0.4344529004753E+00
-0.5878157620402E+00 -0.4637080509905E+00
-0.6097369331679E+00 -0.4923957642279E+00
-0.6286717429948E+00 -0.5199360139387E+00
-0.6883368093431E-01 -0.3443513403177E-01
-0.1033618805477E+00 -0.4792796074186E-01
-0.1381014813160E+00 -0.6447626572529E-01
-0.1727318049267E+00 -0.8377970835354E-01
-0.2070597453459E+00 -0.1054787876460E+00
-0.2409366050722E+00 -0.1291971061291E+00
-0.2741800287768E+00 -0.1545791164535E+00
-0.3066420434652E+00 -0.1812848593617E+00
-0.3382439088215E+00 -0.2090032735558E+00
-0.3689342692514E+00 -0.2374633350192E+00
-0.3986620710838E+00 -0.2664302341586E+00
-0.4273767053604E+00 -0.2957054218904E+00
-0.4550547370738E+00 -0.3251347210726E+00
-0.4816848508122E+00 -0.3546023491214E+00
-0.5072494434767E+00 -0.3840213491866E+00
-0.5317413603536E+00 -0.4133379045753E+00
-0.5552272674240E+00 -0.4425520451756E+00
-0.5771615544921E+00 -0.4714363648568E+00
-0.5968718765517E+00 -0.4995508448910E+00
-0.6580021900638E-01 -0.3295822496770E-01
-0.9743561428892E-01 -0.4528829889691E-01
-0.1292796561352E+00 -0.6040731491189E-01
-0.1610749768328E+00 -0.7807385594243E-01
-0.1926518003195E+00 -0.9799851965907E-01
-0.2238815704078E+00 -0.1198772473631E+00
-0.2546307313697E+00 -0.1434180635378E+00
-0.2847929088347E+00 -0.1683409115563E+00
-0.3143030138324E+00 -0.1943838772219E+00
-0.3431088533526E+00 -0.2213103201304E+00
-0.3711550108677E+00 -0.2489089607339E+00
-0.3983882268197E+00 -0.2769966402885E+00
-0.4247779936953E+00 -0.3054243859533E+00
-0.4503113033311E+00 -0.3340748140301E+00
-0.4749801311809E+00 -0.3628547005945E+00
-0.4987837533002E+00 -0.3916943901241E+00
-0.5217539000419E+00 -0.4205610854143E+00
-0.5436129287403E+00 -0.4493107075535E+00
-0.5640228784873E+00 -0.4777119172639E+00
-0.8684098729200E-02 -0.8435315656118E-02
 0.5319115248036E-02 -0.1360339205098E-01
 0.1608246327372E-01 -0.1964772136810E-01
 0.2391515839627E-01 -0.2653386461784E-01
 0.2909381616016E-01 -0.3418438996575E-01
 0.3186629661771E-01 -0.4249976662118E-01
 0.3242826344779E-01 -0.5140208605392E-01
 0.3095066226617E-01 -0.6081292850912E-01
 0.2760138956955E-01 -0.7064384893701E-01
 0.2253146306936E-01 -0.8081431357380E-01
 0.1586844670932E-01 -0.9126082503844E-01
 0.7720424339099E-02 -0.1019366408394E+00
-0.1812640108770E-02 -0.1127999474849E+00
-0.1264047201895E-01 -0.1238120502293E+00
-0.2468568214132E-01 -0.1349392850774E+00
-0.3788124057313E-01 -0.1461495250579E+00
-0.5216001225681E-01 -0.1573993246134E+00
-0.6752021069996E-01 -0.1688526773411E+00
-0.8382434400525E-01 -0.1807118609803E+00
-0.7331252420442E-02 -0.8175335437592E-02
 0.7649920577983E-02 -0.1341757657719E-01
 0.1919588840869E-01 -0.1950155882549E-01
 0.2763976796173E-01 -0.2637865962611E-01
 0.3328490917501E-01 -0.3394210217564E-01
 0.3640181707277E-01 -0.4206286191857E-01
 0.3717252009113E-01 -0.5067221256589E-01
 0.3574781143292E-01 -0.5970255806141E-01
 0.3229230343716E-01 -0.6906363330965E-01
 0.2696084602625E-01 -0.7867332544282E-01
 0.1988543975856E-01 -0.8847126214449E-01
 0.1117668538406E-01 -0.9841992570853E-01
 0.9389412730554E-03 -0.1084873394012E+00
-0.1073539349436E-01 -0.1186511278584E+00
-0.2376939576019E-01 -0.1289066075310E+00
-0.3808903818627E-01 -0.1392566001354E+00
-0.5359611037685E-01 -0.1496658462800E+00
-0.7030713774791E-01 -0.1605202072809E+00
-0.8795196977678E-01 -0.1721950333264E+00
-0.5995350883768E-02 -0.7915526995468E-02
 0.9954318369190E-02 -0.1321809081684E-01
 0.2226825689135E-01 -0.1931778280134E-01
 0.3129513848387E-01 -0.2615437752262E-01
 0.3736090683560E-01 -0.3358905538786E-01
 0.4075674995803E-01 -0.4146120945336E-01
 0.4165389387126E-01 -0.4970938220249E-01
 0.4018736307213E-01 -0.5827662521391E-01
 0.3652189447936E-01 -0.6707229552719E-01
 0.3081865207717E-01 -0.7601535859884E-01
 0.2321621427316E-01 -0.8505224281357E-01
 0.1383005292781E-01 -0.9415910829530E-01
 0.2771302413452E-02 -0.1033183173653E+00
-0.9861977307722E-02 -0.1125274231008E+00
-0.2398776587122E-01 -0.1218113698204E+00
-0.3951999089032E-01 -0.1312004521302E+00
-0.5633487356316E-01 -0.1406489438494E+00
-0.7445062665767E-01 -0.1507529029788E+00
-0.9352343308434E-01 -0.1621176366944E+00
-0.4680390911410E-02 -0.7655917630136E-02
 0.1222594372711E-01 -0.1300397979627E-01
 0.2529066606088E-01 -0.1909736870082E-01
 0.3486900918420E-01 -0.2586299681032E-01
 0.4130439860151E-01 -0.3312791090671E-01
 0.4490734022130E-01 -0.4069727097215E-01
 0.4584219431439E-01 -0.4851486131383E-01
 0.4423375584180E-01 -0.5653462480870E-01
 0.4025094203485E-01 -0.6466819014826E-01
 0.3406416881338E-01 -0.7283940335469E-01
 0.2582104288837E-01 -0.8100576972912E-01
 0.1564433065524E-01 -0.8916131385969E-01
 0.3653858047669E-02 -0.9730574374495E-01
-0.1004465840374E-01 -0.1054573242085E+00
-0.2536231601417E-01 -0.1136681497380E+00
-0.4220307481300E-01 -0.1219902634814E+00
-0.6042829072812E-01 -0.1303591298387E+00
-0.8005752445199E-01 -0.1396051588970E+00
-0.1006389177686E+00 -0.1506420505651E+00
-0.3390353750720E-02 -0.7396888171219E-02
 0.1445927176502E-01 -0.1277641893265E-01
 0.2825560510289E-01 -0.1884299513055E-01
 0.3835010379403E-01 -0.2550872615576E-01
 0.4509859044247E-01 -0.3256320736980E-01
 0.4883019248174E-01 -0.3977462381630E-01
 0.4970792173284E-01 -0.4708992546424E-01
 0.4785319038649E-01 -0.5447500085214E-01
 0.4344376468643E-01 -0.6184766638296E-01
 0.3666241440593E-01 -0.6914149770816E-01
 0.2766805660583E-01 -0.7632981963243E-01
 0.1659256269576E-01 -0.8342849039556E-01
 0.3565112847524E-02 -0.9045687811903E-01
-0.1130098468218E-01 -0.9745432927496E-01
-0.2791106522264E-01 -0.1044992393291E+00
-0.4616300238969E-01 -0.1116647601314E+00
-0.6591464529478E-01 -0.1188704052931E+00
-0.8716780483909E-01 -0.1272089547023E+00
-0.1093147890034E+00 -0.1379306437868E+00
-0.2128814059704E-02 -0.7139587304378E-02
 0.1664978157227E-01 -0.1253820801878E-01
 0.3115664737975E-01 -0.1855974557583E-01
 0.4172777566766E-01 -0.2509814244977E-01
 0.4872664372270E-01 -0.3190131348640E-01
 0.5250160064083E-01 -0.3869745796399E-01
 0.5322177939858E-01 -0.4543489113370E-01
 0.5101341061196E-01 -0.5209370247151E-01
 0.4606812638450E-01 -0.5860337821636E-01
 0.3858394691043E-01 -0.6491323458056E-01
 0.2873277817248E-01 -0.7101776690964E-01
 0.1665640955586E-01 -0.7695884668491E-01
 0.2492731647730E-02 -0.8277802973319E-01
-0.1363881760199E-01 -0.8853707912944E-01
-0.3163973140842E-01 -0.9434211202069E-01
-0.5140510920735E-01 -0.1002902558973E+00
-0.7279455873498E-01 -0.1062911856344E+00
-0.9576791403124E-01 -0.1137151800501E+00
-0.1195173937989E+00 -0.1241584451064E+00
-0.8986620175794E-03 -0.6886007710375E-02
 0.1879409490157E-01 -0.1229418587183E-01
 0.3398826214324E-01 -0.1825547478460E-01
 0.4499144374288E-01 -0.2464049626930E-01
 0.5217093949549E-01 -0.3115021535041E-01
 0.5589684628693E-01 -0.3746981210689E-01
 0.5635425776580E-01 -0.4354783156089E-01
 0.5368361640744E-01 -0.4938264826760E-01
 0.4809537647728E-01 -0.5492288293316E-01
 0.3980509604694E-01 -0.6014096297060E-01
 0.2899843330685E-01 -0.6505866531533E-01
 0.1582682824064E-01 -0.6974849702040E-01
 0.4352718870040E-03 -0.7427720853122E-01
-0.1705261334333E-01 -0.7873123706961E-01
-0.3653603812595E-01 -0.8324715731363E-01
-0.5790847223052E-01 -0.8794990292237E-01
-0.8103231046586E-01 -0.9274389532023E-01
-0.1058014350201E+00 -0.9928360705654E-01
-0.1311736832783E+00 -0.1095068594882E+00
 0.2982011177799E-03 -0.6639289645218E-02
 0.2089010805778E-01 -0.1205179791730E-01
 0.3674552384116E-01 -0.1794142381577E-01
 0.4812989408206E-01 -0.2414795268475E-01
 0.5541220821529E-01 -0.3031913378819E-01
 0.5898952030710E-01 -0.3609447779770E-01
 0.5907539499973E-01 -0.4142300454343E-01
 0.5583467368252E-01 -0.4632811912374E-01
 0.4950097493483E-01 -0.5078747170210E-01
 0.4030866760985E-01 -0.5480540864579E-01
 0.2845680528363E-01 -0.5843776075579E-01
 0.1410521429084E-01 -0.6179254542200E-01
-0.2596154408812E-02 -0.6496484675560E-01
-0.2152128591280E-01 -0.6806830915482E-01
-0.4256764396468E-01 -0.7127291559092E-01
-0.6562622171349E-01 -0.7473461478084E-01
-0.9056018193206E-01 -0.7835551449840E-01
-0.1171767976381E+00 -0.8407479644602E-01
-0.1441757531967E+00 -0.9415882755153E-01
 0.1461235094723E-02 -0.6404165460436E-02
 0.2293709171783E-01 -0.1182195272878E-01
 0.3942366057703E-01 -0.1763301873118E-01
 0.5113035996640E-01 -0.2363581011024E-01
 0.5842853614673E-01 -0.2941785227941E-01
 0.6175093596550E-01 -0.3457149681166E-01
 0.6135484171181E-01 -0.3904896119645E-01
 0.5743973691839E-01 -0.4290911103837E-01
 0.5026544208980E-01 -0.4617125440314E-01
 0.4008499718672E-01 -0.4888166160561E-01
 0.2710925375690E-01 -0.5113715892479E-01
 0.1150433899230E-01 -0.5308580969579E-01
-0.6577100252009E-02 -0.5485365029589E-01
-0.2700784222126E-01 -0.5658364339153E-01
-0.4968292127557E-01 -0.5848160774601E-01
-0.7448827068461E-01 -0.6073673706614E-01
-0.1012836971270E+00 -0.6325029587058E-01
-0.1297734016337E+00 -0.6824317843912E-01
-0.1583847322267E+00 -0.7829111819237E-01
 0.2591747111561E-02 -0.6187623348252E-02
 0.2493573730048E-01 -0.1162024321920E-01
 0.4201735632221E-01 -0.1735090831325E-01
 0.5397731743309E-01 -0.2312261261226E-01
 0.6119427429628E-01 -0.2845561317015E-01
 0.6414976943918E-01 -0.3289611162384E-01
 0.6316238985922E-01 -0.3640631305977E-01
 0.5847538358332E-01 -0.3909574627999E-01
 0.5037570534867E-01 -0.4104065425724E-01
 0.3913316519484E-01 -0.4233968310894E-01
 0.2496756809803E-01 -0.4313683640494E-01
 0.8048710706379E-02 -0.4362356666755E-01
-0.1147003750089E-01 -0.4395828259674E-01
-0.3346050327263E-01 -0.4431446235741E-01
-0.5781331249340E-01 -0.4493539647230E-01
-0.8440529379262E-01 -0.4604479370225E-01
-0.1130872116417E+00 -0.4754351439710E-01
-0.1434478081719E+00 -0.5192966479950E-01
-0.1736360553541E+00 -0.6206561121784E-01
 0.3693546998748E-02 -0.5999905668591E-02
 0.2688809973053E-01 -0.1146870474311E-01
 0.4451967934646E-01 -0.1712229154234E-01
 0.5665091403106E-01 -0.2263002352086E-01
 0.6367892032381E-01 -0.2743934619952E-01
 0.6615212487277E-01 -0.3105601459892E-01
 0.6446914912176E-01 -0.3346521966447E-01
 0.5892331530744E-01 -0.3484800348403E-01
 0.4982673290599E-01 -0.3535463604582E-01
 0.3746213092781E-01 -0.3514560333943E-01
 0.2205437319883E-01 -0.3441619852230E-01
 0.3774178016997E-02 -0.3340251606788E-01
-0.1722560045698E-01 -0.3229509118932E-01
-0.4081490409791E-01 -0.3129805047882E-01
-0.6687668308757E-01 -0.3069305219707E-01
-0.9527340765255E-01 -0.3073887646098E-01
-0.1258399440921E+00 -0.3133563078803E-01
-0.1580407304498E+00 -0.3525434031305E-01
-0.1897467552679E+00 -0.4562038508833E-01
 0.4773847844156E-02 -0.5856051533162E-02
 0.2879733976014E-01 -0.1139839255547E-01
 0.4692043721039E-01 -0.1698259021659E-01
 0.5912494490100E-01 -0.2218220180269E-01
 0.6584613391546E-01 -0.2637087560971E-01
 0.6772232399520E-01 -0.2902776219505E-01
 0.6524956783962E-01 -0.3018284353264E-01
 0.5877260083242E-01 -0.3011524744819E-01
 0.4862323353217E-01 -0.2906610976649E-01
 0.3509148277064E-01 -0.2726403790684E-01
 0.1840284265701E-01 -0.2495620102767E-01
-0.1273306401413E-02 -0.2242186901076E-01
-0.2378467911100E-01 -0.1988175417743E-01
-0.4899705293546E-01 -0.1756992313866E-01
-0.7678126382513E-01 -0.1580685030634E-01
-0.1069792651459E+00 -0.1488650543116E-01
-0.1394024205820E+00 -0.1470712631348E-01
-0.1733849458233E+00 -0.1830997629632E-01
-0.2065247174245E+00 -0.2906166757531E-01
 0.5844526111757E-02 -0.5778366372350E-02
 0.3066707577274E-01 -0.1145325650007E-01
 0.4920364058155E-01 -0.1697748330139E-01
 0.6136431603369E-01 -0.2180418709148E-01
 0.6765321974866E-01 -0.2524259595211E-01
 0.6882485005174E-01 -0.2677235760121E-01
 0.6548444612376E-01 -0.2650135689942E-01
 0.5802226407167E-01 -0.2483728822344E-01
 0.4678104082819E-01 -0.2212493188299E-01
 0.3205144709984E-01 -0.1866141313110E-01
 0.1405553076610E-01 -0.1474174356198E-01
-0.7039735865976E-02 -0.1068421101439E-01
-0.3108115522124E-01 -0.6736568197004E-02
-0.5792672827358E-01 -0.3161817753205E-02
-0.8742983795982E-01 -0.3196508790990E-03
-0.1194052699732E+00  0.1460883373581E-02
-0.1536330937288E+00  0.2285498056737E-02
-0.1893137912821E+00 -0.1157297714255E-02
-0.2237793759115E+00 -0.1245778372664E-01
 0.6923911946532E-02 -0.5800563345795E-02
 0.3249995459571E-01 -0.1169614402191E-01
 0.5134355812903E-01 -0.1716517179112E-01
 0.6332204607236E-01 -0.2151834527574E-01
 0.6905171925524E-01 -0.2403097188506E-01
 0.6942797767793E-01 -0.2423041982595E-01
 0.6516486542659E-01 -0.2234764814666E-01
 0.5668371256932E-01 -0.1894785619590E-01
 0.4432762766001E-01 -0.1448264540016E-01
 0.2838181950299E-01 -0.9309859348218E-02
 0.9062267668271E-02 -0.3763746120765E-02
-0.1346575040362E-01  0.1804315381936E-02
-0.3904498947265E-01  0.7122847286084E-02
-0.6752097496464E-01  0.1190051723437E-01
-0.9872383363327E-01  0.1573770570541E-01
-0.1324345653094E+00  0.1827053055343E-01
-0.1683946977513E+00  0.1961199427620E-01
-0.2056695420963E+00  0.1617707355674E-01
-0.2413328318372E+00  0.4163649136960E-02
 0.8039368918955E-02 -0.5975120774490E-02
 0.3429460436535E-01 -0.1221843702228E-01
 0.5329854674226E-01 -0.1761822485400E-01
 0.6493622370069E-01 -0.2133706907814E-01
 0.6999028479294E-01 -0.2268727030578E-01
 0.6950951561250E-01 -0.2131837908038E-01
 0.6429642840302E-01 -0.1763651646927E-01
 0.5478210730067E-01 -0.1238110746321E-01
 0.4130117839847E-01 -0.6098343009017E-02
 0.2412968003790E-01  0.8092541426459E-03
 0.3477281854320E-02  0.7979825500070E-02
-0.2048966710853E-01  0.1503487573283E-01
-0.4760530078283E-01  0.2168146928070E-01
-0.7769736526993E-01  0.2759957654268E-01
-0.1105670045012E+00  0.3234845989885E-01
-0.1459554205534E+00  0.3552975408644E-01
-0.1835597613171E+00  0.3726852507630E-01
-0.2223106808057E+00  0.3369931019613E-01
-0.2590298351966E+00  0.2081412222437E-01
 0.9230997814877E-02 -0.6387471625960E-02
 0.3603908897590E-01 -0.1315601734690E-01
 0.5500142798795E-01 -0.1842287384539E-01
 0.6612843015807E-01 -0.2124820804164E-01
 0.7042164150439E-01 -0.2112611670901E-01
 0.6906435025064E-01 -0.1792897268601E-01
 0.6290220926127E-01 -0.1227941529822E-01
 0.5235567066884E-01 -0.5080236917490E-02
 0.3774798006991E-01  0.3055772937860E-02
 0.1934607522385E-01  0.1170326505712E-01
-0.2644048970153E-02  0.2048458030042E-01
-0.2805040445503E-01  0.2899794221920E-01
-0.5669308209421E-01  0.3692916958400E-01
-0.8837676019181E-01  0.4392809089664E-01
-0.1228684603324E+00  0.4951122881906E-01
-0.1598646707146E+00  0.5324609802905E-01
-0.1990146537341E+00  0.5527570561740E-01
-0.2391169091969E+00  0.5144358624578E-01
-0.2767446192037E+00  0.3753755878796E-01
 0.1055687371630E-01 -0.7185932676451E-02
 0.3769596585750E-01 -0.1471728986846E-01
 0.5634546515396E-01 -0.1966753183655E-01
 0.6680764815372E-01 -0.2118845141525E-01
 0.7031576559212E-01 -0.1921586161437E-01
 0.6811064237290E-01 -0.1394303182097E-01
 0.6102255845242E-01 -0.6196769813029E-02
 0.4945267570658E-01  0.2994042312953E-02
 0.3371832118448E-01  0.1299067405433E-01
 0.1408217714556E-01  0.2336857647589E-01
-0.9248227570751E-02  0.3374218367977E-01
-0.3608985565776E-01  0.4368603809309E-01
-0.6624329694322E-01  0.5286288914159E-01
-0.9948545910326E-01  0.6089035782172E-01
-0.1355449383441E+00  0.6724051521238E-01
-0.1740699703977E+00  0.7144645142911E-01
-0.2146616264354E+00  0.7367519280505E-01
-0.2559908077610E+00  0.6946443354854E-01
-0.2943825746126E+00  0.5439897053434E-01
 0.1209708189579E-01 -0.8660742915024E-02
 0.3916775295364E-01 -0.1722514767859E-01
 0.5716658108326E-01 -0.2140182548897E-01
 0.6689260066945E-01 -0.2099370563089E-01
 0.6967347428976E-01 -0.1679706608618E-01
 0.6669048557264E-01 -0.9246279175704E-02
 0.5871221695829E-01  0.6701989735952E-03
 0.4612617852619E-01  0.1185663322446E-01
 0.2926143783759E-01  0.2370005583131E-01
 0.8385779787937E-02  0.3579415635100E-01
-0.1628580210975E-01  0.4774417613341E-01
-0.4455440574956E-01  0.5909646596968E-01
-0.7619633728224E-01  0.6948800444047E-01
-0.1109567641348E+00  0.7850284807132E-01
-0.1485224272545E+00  0.8556637976723E-01
-0.1884908010514E+00  0.9017620619865E-01
-0.2304184805579E+00  0.9252583607241E-01
-0.2728555130751E+00  0.8782816234891E-01
-0.3118751525691E+00  0.7146982980103E-01
 0.1395621375261E-01 -0.1144967228721E-01
 0.4018545497200E-01 -0.2122415121705E-01
 0.5727358193644E-01 -0.2339916772932E-01
 0.6634808202110E-01 -0.2044730405224E-01
 0.6852455063394E-01 -0.1370825815265E-01
 0.6487032583218E-01 -0.3740313508357E-02
 0.5603405471212E-01  0.8346468587094E-02
 0.4242645019927E-01  0.2149420298304E-01
 0.2442082841222E-01  0.3516562478201E-01
 0.2299300186426E-02  0.4896753350133E-01
-0.2371227701062E-01  0.6248559883377E-01
-0.5339578878010E-01  0.7523280421473E-01
-0.8649875864334E-01  0.8681921241975E-01
-0.1227323330219E+00  0.9679290745278E-01
-0.1617374147695E+00  0.1045347847958E+00
-0.2030585846010E+00  0.1094985824393E+00
-0.2462157997300E+00  0.1119035451755E+00
-0.2896472206235E+00  0.1066031875170E+00
-0.3291685957745E+00  0.8881338875111E-01
-0.5728798701236E+00 -0.5077587990272E+00
-0.6040334622328E+00 -0.5295336174192E+00
-0.6342141930629E+00 -0.5498333029878E+00
-0.6632167346200E+00 -0.5684550862112E+00
-0.6908208606475E+00 -0.5852291060089E+00
-0.7168097918752E+00 -0.6000115059575E+00
-0.7409705806128E+00 -0.6126875124664E+00
-0.7630974801244E+00 -0.6231762873987E+00
-0.7829951227375E+00 -0.6314358878110E+00
-0.8004824789056E+00 -0.6374683478288E+00
-0.8153978558182E+00 -0.6413250837138E+00
-0.8276055977640E+00 -0.6431128520690E+00
-0.8370054603782E+00 -0.6430004343209E+00
-0.8435461624772E+00 -0.6412260624327E+00
-0.8472453484256E+00 -0.6381051922330E+00
-0.8482191447665E+00 -0.6340372596180E+00
-0.8467250497812E+00 -0.6295076677661E+00
-0.8432219217955E+00 -0.6250759638335E+00
-0.8384396995442E+00 -0.6213257094050E+00
-0.5620205356351E+00 -0.5097424099333E+00
-0.5928875928867E+00 -0.5321773769398E+00
-0.6229243551447E+00 -0.5532719191146E+00
-0.6519205416433E+00 -0.5727837925575E+00
-0.6796662139195E+00 -0.5905210174876E+00
-0.7059470237104E+00 -0.6063203769618E+00
-0.7305478529485E+00 -0.6200456481811E+00
-0.7532555156100E+00 -0.6315899991422E+00
-0.7738618368584E+00 -0.6408799895804E+00
-0.7921670186933E+00 -0.6478801267427E+00
-0.8079837130658E+00 -0.6525980150107E+00
-0.8211422501800E+00 -0.6550904300651E+00
-0.8314978102230E+00 -0.6554708213713E+00
-0.8389409000648E+00 -0.6539188490101E+00
-0.8434135366214E+00 -0.6506925687869E+00
-0.8449352621677E+00 -0.6461435825283E+00
-0.8436463077407E+00 -0.6407343974746E+00
-0.8398792754389E+00 -0.6350538181877E+00
-0.8342846086748E+00 -0.6298176927085E+00
-0.5505836318097E+00 -0.5113585111312E+00
-0.5809073465718E+00 -0.5343554735215E+00
-0.6105596310033E+00 -0.5561363002034E+00
-0.6393238558670E+00 -0.5764711881617E+00
-0.6669954744548E+00 -0.5951550377294E+00
-0.6933674141786E+00 -0.6120103531612E+00
-0.7182282733482E+00 -0.6268841161995E+00
-0.7413643289265E+00 -0.6396487041160E+00
-0.7625620512504E+00 -0.6502044424211E+00
-0.7816110576603E+00 -0.6584830390519E+00
-0.7983074851926E+00 -0.6644516272888E+00
-0.8124580096776E+00 -0.6681176485547E+00
-0.8238849068458E+00 -0.6695351292285E+00
-0.8324329654988E+00 -0.6688132402000E+00
-0.8379798898059E+00 -0.6661284284930E+00
-0.8404535699691E+00 -0.6617418906363E+00
-0.8398628693203E+00 -0.6560245997177E+00
-0.8363562957565E+00 -0.6494921303052E+00
-0.8303348342362E+00 -0.6428508037217E+00
-0.5385952667364E+00 -0.5125080617731E+00
-0.5681560742047E+00 -0.5359241995474E+00
-0.5971910961238E+00 -0.5582609347457E+00
-0.6254950164196E+00 -0.5793068499105E+00
-0.6528715169703E+00 -0.5988615873678E+00
-0.6791229499346E+00 -0.6167426272804E+00
-0.7040462491812E+00 -0.6327875744438E+00
-0.7274329096274E+00 -0.6468552177276E+00
-0.7490706436552E+00 -0.6588274761585E+00
-0.7687457123394E+00 -0.6686119131371E+00
-0.7862457115389E+00 -0.6761446695054E+00
-0.8013627420008E+00 -0.6813938694400E+00
-0.8138970114624E+00 -0.6843638578152E+00
-0.8236610714663E+00 -0.6851009890070E+00
-0.8304852922914E+00 -0.6837022087063E+00
-0.8342260860909E+00 -0.6803284890438E+00
-0.8347807375758E+00 -0.6752264775696E+00
-0.8321170624006E+00 -0.6687638745918E+00
-0.8263381500131E+00 -0.6614875670448E+00
-0.5260956369173E+00 -0.5131156739968E+00
-0.5547048113079E+00 -0.5367777298746E+00
-0.5829171445174E+00 -0.5595070148196E+00
-0.6105477654350E+00 -0.5811138581039E+00
-0.6374152678907E+00 -0.6014104754073E+00
-0.6633352919512E+00 -0.6202191768221E+00
-0.6881170488094E+00 -0.6373763406571E+00
-0.7115622712950E+00 -0.6527348989153E+00
-0.7334657916183E+00 -0.6661664417393E+00
-0.7536170565574E+00 -0.6775634745231E+00
-0.7718021795322E+00 -0.6868418263887E+00
-0.7878063152856E+00 -0.6939432259341E+00
-0.8014161610185E+00 -0.6988381951916E+00
-0.8124223604080E+00 -0.7015296653690E+00
-0.8206215466548E+00 -0.7020581352888E+00
-0.8258178538319E+00 -0.7005099214754E+00
-0.8278240314028E+00 -0.6970314097498E+00
-0.8264641458419E+00 -0.6918546467657E+00
-0.8215814305831E+00 -0.6853441498578E+00
-0.5131500179061E+00 -0.5131574298412E+00
-0.5406691490989E+00 -0.5369050805426E+00
-0.5679017277510E+00 -0.5598704359826E+00
-0.5946878539885E+00 -0.5818856827542E+00
-0.6208654564298E+00 -0.6027798408484E+00
-0.6462672121138E+00 -0.6223860755095E+00
-0.6707180410380E+00 -0.6405462147083E+00
-0.6940338481986E+00 -0.6571138351811E+00
-0.7160213675642E+00 -0.6719567946270E+00
-0.7364788414030E+00 -0.6849595942152E+00
-0.7551972647045E+00 -0.6960257291272E+00
-0.7719619493364E+00 -0.7050800494234E+00
-0.7865541308775E+00 -0.7120711759916E+00
-0.7987522022752E+00 -0.7169741333464E+00
-0.8083318920438E+00 -0.7197936052991E+00
-0.8150642026015E+00 -0.7205687012392E+00
-0.8187091887649E+00 -0.7193810493149E+00
-0.8190019688911E+00 -0.7163700111768E+00
-0.8156277731891E+00 -0.7117621247273E+00
-0.4998123878969E+00 -0.5126101735928E+00
-0.5261377517421E+00 -0.5362946198147E+00
-0.5522688958448E+00 -0.5593454380022E+00
-0.5780718590159E+00 -0.5816158758229E+00
-0.6034062699398E+00 -0.6029534983886E+00
-0.6281243916324E+00 -0.6232059739900E+00
-0.6520695570342E+00 -0.6422251960216E+00
-0.6750749918832E+00 -0.6598704251432E+00
-0.6969632563960E+00 -0.6760109342869E+00
-0.7175462835012E+00 -0.6905284519674E+00
-0.7366259044541E+00 -0.7033195302125E+00
-0.7539947049805E+00 -0.7142978687366E+00
-0.7694369880158E+00 -0.7233965786967E+00
-0.7827294809089E+00 -0.7305703770665E+00
-0.7936411400855E+00 -0.7357977683316E+00
-0.8019308721372E+00 -0.7390834274554E+00
-0.8073408626938E+00 -0.7404613808044E+00
-0.8095814181126E+00 -0.7400003325480E+00
-0.8082979041675E+00 -0.7378148710246E+00
-0.4861315986631E+00 -0.5114553077002E+00
-0.5111856855748E+00 -0.5349419337290E+00
-0.5361214291479E+00 -0.5579372384944E+00
-0.5608296023481E+00 -0.5803143106603E+00
-0.5851920277591E+00 -0.6019396641065E+00
-0.6090817484022E+00 -0.6226773774094E+00
-0.6323621292797E+00 -0.6423924355500E+00
-0.6548858556971E+00 -0.6609535014975E+00
-0.6764941810457E+00 -0.6782353690404E+00
-0.6970165369240E+00 -0.6941212707902E+00
-0.7162705106609E+00 -0.7085051354033E+00
-0.7340621361568E+00 -0.7212938138512E+00
-0.7501863889090E+00 -0.7324092367466E+00
-0.7644276892127E+00 -0.7417904139397E+00
-0.7765600570236E+00 -0.7493951349063E+00
-0.7863462359155E+00 -0.7552011643304E+00
-0.7935345056508E+00 -0.7592066166080E+00
-0.7978503667035E+00 -0.7614291465577E+00
-0.7989781747485E+00 -0.7619032823478E+00
-0.4721557168108E+00 -0.5096835949709E+00
-0.4958836638487E+00 -0.5328594575150E+00
-0.5195543997973E+00 -0.5556765401157E+00
-0.5430809648249E+00 -0.5780263695193E+00
-0.5663664493030E+00 -0.5997939440473E+00
-0.5893045681264E+00 -0.6208604283504E+00
-0.6117791440368E+00 -0.6411056096025E+00
-0.6336632602336E+00 -0.6604101034962E+00
-0.6548184312931E+00 -0.6786574042882E+00
-0.6750939523448E+00 -0.6957358712253E+00
-0.6943264956426E+00 -0.7115407082806E+00
-0.7123399758854E+00 -0.7259759508449E+00
-0.7289456756851E+00 -0.7389564239609E+00
-0.7439425956627E+00 -0.7504095773836E+00
-0.7571179552202E+00 -0.7602770176089E+00
-0.7682477131562E+00 -0.7685154119681E+00
-0.7770968463557E+00 -0.7750961846353E+00
-0.7834190066720E+00 -0.7800028531354E+00
-0.7869540237325E+00 -0.7832240318556E+00
-0.4579322762913E+00 -0.5072923831238E+00
-0.4802992024781E+00 -0.5300706169583E+00
-0.5026569983102E+00 -0.5526105996716E+00
-0.5249379401413E+00 -0.5748207996681E+00
-0.5470645255005E+00 -0.5966036836787E+00
-0.5689500139686E+00 -0.6178572782338E+00
-0.5904980609313E+00 -0.6384768137175E+00
-0.6116019636295E+00 -0.6583563291015E+00
-0.6321438029187E+00 -0.6773902433338E+00
-0.6519936378386E+00 -0.6954749299704E+00
-0.6710088449379E+00 -0.7125103257303E+00
-0.6890336627361E+00 -0.7284015821662E+00
-0.7058989915395E+00 -0.7430607389131E+00
-0.7214225070993E+00 -0.7564083541125E+00
-0.7354091798578E+00 -0.7683749619706E+00
-0.7476523644362E+00 -0.7789021185265E+00
-0.7579358029305E+00 -0.7879425913563E+00
-0.7660372382475E+00 -0.7954588768147E+00
-0.7717355188706E+00 -0.8014181940845E+00
-0.4435115733912E+00 -0.5042889140970E+00
-0.4645037172616E+00 -0.5266160162036E+00
-0.4855233254052E+00 -0.5488121229695E+00
-0.5065187902481E+00 -0.5708010704068E+00
-0.5274296473409E+00 -0.5925013889378E+00
-0.5481868783186E+00 -0.6138270544190E+00
-0.5687125421494E+00 -0.6346884700442E+00
-0.5889190498775E+00 -0.6549935303456E+00
-0.6087082840756E+00 -0.6746487312873E+00
-0.6279706917986E+00 -0.6935603321633E+00
-0.6465844389370E+00 -0.7116355842073E+00
-0.6644146947346E+00 -0.7287840354084E+00
-0.6813131133568E+00 -0.7449189079352E+00
-0.6971175963447E+00 -0.7599585254448E+00
-0.7116524633612E+00 -0.7738277406404E+00
-0.7247292498166E+00 -0.7864592730897E+00
-0.7361485214045E+00 -0.7977948113694E+00
-0.7457034718033E+00 -0.8077856433385E+00
-0.7531869406928E+00 -0.8163925224713E+00
-0.4289390210681E+00 -0.5006662704673E+00
-0.4485575173460E+00 -0.5225046050871E+00
-0.4682300981506E+00 -0.5443050656049E+00
-0.4879184433770E+00 -0.5660052988497E+00
-0.5075766998803E+00 -0.5875383503465E+00
-0.5271515056037E+00 -0.6088328712612E+00
-0.5465815499763E+00 -0.6298135974041E+00
-0.5657968390171E+00 -0.6504019653264E+00
-0.5847177925025E+00 -0.6705168175986E+00
-0.6032542657048E+00 -0.6900751892635E+00
-0.6213045654864E+00 -0.7089931832594E+00
-0.6387545188278E+00 -0.7271869468403E+00
-0.6554766499846E+00 -0.7445737606410E+00
-0.6713295311620E+00 -0.7610732513132E+00
-0.6861573948422E+00 -0.7766087412142E+00
-0.6997901391802E+00 -0.7911087602398E+00
-0.7120439303070E+00 -0.8045087762798E+00
-0.7227226905978E+00 -0.8167532960312E+00
-0.7316207336913E+00 -0.8277987867078E+00
-0.4142547093996E+00 -0.4964033683910E+00
-0.4325092154319E+00 -0.5177130365418E+00
-0.4508358890983E+00 -0.5390629917391E+00
-0.4692073169544E+00 -0.5604031831823E+00
-0.4875900387288E+00 -0.5816796095458E+00
-0.5059443447479E+00 -0.6028341778363E+00
-0.5242237634586E+00 -0.6238048152728E+00
-0.5423743143183E+00 -0.6445257288413E+00
-0.5603335969988E+00 -0.6649277677394E+00
-0.5780297752647E+00 -0.6849388769732E+00
-0.5953805029211E+00 -0.7044846470741E+00
-0.6122918316998E+00 -0.7234889732302E+00
-0.6286571363459E+00 -0.7418748425116E+00
-0.6443560894717E+00 -0.7595652747643E+00
-0.6592537165202E+00 -0.7764844560255E+00
-0.6731995574442E+00 -0.7925591291826E+00
-0.6860269459751E+00 -0.8077203544246E+00
-0.6975523508422E+00 -0.8219058336711E+00
-0.7075744557893E+00 -0.8350631141606E+00
-0.3994977069212E+00 -0.4914784747756E+00
-0.4164045864073E+00 -0.5122122890261E+00
-0.4333945543338E+00 -0.5330488340482E+00
-0.4504491569278E+00 -0.5539488592216E+00
-0.4675453961456E+00 -0.5748697470336E+00
-0.4846553899399E+00 -0.5957651577457E+00
-0.5017458238404E+00 -0.6165848809339E+00
-0.5187772171977E+00 -0.6372748180049E+00
-0.5357030363799E+00 -0.6577770594962E+00
-0.5524686857328E+00 -0.6780300460431E+00
-0.5690104030271E+00 -0.6979688166216E+00
-0.5852540815322E+00 -0.7175253562186E+00
-0.6011140352446E+00 -0.7366290608241E+00
-0.6164917149477E+00 -0.7552073435167E+00
-0.6312743671791E+00 -0.7731864145407E+00
-0.6453336001627E+00 -0.7904922843474E+00
-0.6585237758994E+00 -0.8070520641626E+00
-0.6706800824235E+00 -0.8227956640363E+00
-0.6816160913840E+00 -0.8376579627747E+00
-0.3847077277740E+00 -0.4858745967201E+00
-0.4002900687749E+00 -0.5059781290351E+00
-0.4159606186148E+00 -0.5262304735958E+00
-0.4317083047251E+00 -0.5466016433717E+00
-0.4475189522200E+00 -0.5670588063564E+00
-0.4633748978009E+00 -0.5875658036085E+00
-0.4792544588754E+00 -0.6080828216064E+00
-0.4951312553229E+00 -0.6285661648786E+00
-0.5109733919947E+00 -0.6489681009018E+00
-0.5267425126706E+00 -0.6692367676663E+00
-0.5423927357788E+00 -0.6893161462148E+00
-0.5578694803496E+00 -0.7091461076388E+00
-0.5731081870531E+00 -0.7286625479084E+00
-0.5880329318932E+00 -0.7477976255176E+00
-0.6025549156306E+00 -0.7664801170183E+00
-0.6165707857339E+00 -0.7846359047922E+00
-0.6299607040629E+00 -0.8021886110078E+00
-0.6425860337035E+00 -0.8190603948984E+00
-0.6542865443038E+00 -0.8351729288232E+00
-0.3699254873602E+00 -0.4795812020841E+00
-0.3842136643834E+00 -0.4989943246452E+00
-0.3985907537591E+00 -0.5185854769306E+00
-0.4130517884554E+00 -0.5383323440672E+00
-0.4275900467441E+00 -0.5582102354792E+00
-0.4421966946509E+00 -0.5781915337981E+00
-0.4568603268759E+00 -0.5982452500924E+00
-0.4715663921209E+00 -0.6183366442914E+00
-0.4862964967585E+00 -0.6384268878490E+00
-0.5010275839326E+00 -0.6584727594915E+00
-0.5157309863550E+00 -0.6784263745002E+00
-0.5303713515577E+00 -0.6982349539765E+00
-0.5449054384562E+00 -0.7178406432122E+00
-0.5592807831704E+00 -0.7371803873084E+00
-0.5734342285875E+00 -0.7561858665083E+00
-0.5872903025852E+00 -0.7747834817873E+00
-0.6007594099113E+00 -0.7928943621990E+00
-0.6137357466301E+00 -0.8104343466318E+00
-0.6260947875234E+00 -0.8273139251593E+00
-0.3551926173932E+00 -0.4725947646259E+00
-0.3682249683889E+00 -0.4912535735556E+00
-0.3813439399025E+00 -0.5101024304335E+00
-0.3945496466363E+00 -0.5291250452355E+00
-0.4078416918254E+00 -0.5483031745425E+00
-0.4212188913350E+00 -0.5676160415366E+00
-0.4346789319475E+00 -0.5870398240564E+00
-0.4482179454342E+00 -0.6065471749254E+00
-0.4618299846581E+00 -0.6261067529462E+00
-0.4755063900866E+00 -0.6456827539566E+00
-0.4892350363649E+00 -0.6652344394943E+00
-0.5029994501793E+00 -0.6847156663289E+00
-0.5167777935867E+00 -0.7040744233997E+00
-0.5305417122637E+00 -0.7232523829273E+00
-0.5442550566125E+00 -0.7421844681473E+00
-0.5578724960954E+00 -0.7607984284587E+00
-0.5713380587987E+00 -0.7790143894888E+00
-0.5845836317439E+00 -0.7967443019170E+00
-0.5975272796207E+00 -0.8138911444667E+00
-0.3405514007207E+00 -0.4649189333171E+00
-0.3523748719148E+00 -0.4827577497717E+00
-0.3642811379810E+00 -0.5007812822080E+00
-0.3762745911343E+00 -0.5189775771674E+00
-0.3883602515114E+00 -0.5373331022577E+00
-0.4005436039537E+00 -0.5558321691307E+00
-0.4128304053963E+00 -0.5744563979413E+00
-0.4252264434673E+00 -0.5931841876406E+00
-0.4377372290223E+00 -0.6119901688890E+00
-0.4503676061546E+00 -0.6308446255641E+00
-0.4631212634311E+00 -0.6497128780021E+00
-0.4760001309153E+00 -0.6685546269886E+00
-0.4890036503446E+00 -0.6873232625241E+00
-0.5021279125691E+00 -0.7059651455444E+00
-0.5153646698409E+00 -0.7244188735118E+00
-0.5287002547737E+00 -0.7426145406191E+00
-0.5421144809004E+00 -0.7604729956509E+00
-0.5555796654505E+00 -0.7779050742674E+00
-0.5690600894729E+00 -0.7948106725004E+00
-0.3260444759819E+00 -0.4565645939388E+00
-0.3367152277812E+00 -0.4735180037668E+00
-0.3474649093574E+00 -0.4906334943270E+00
-0.3583015919149E+00 -0.5079017454571E+00
-0.3692350137577E+00 -0.5253121768766E+00
-0.3802765407873E+00 -0.5428524030077E+00
-0.3914391385453E+00 -0.5605077143945E+00
-0.4027373367822E+00 -0.5782605481872E+00
-0.4141871691538E+00 -0.5960899211289E+00
-0.4258060702567E+00 -0.6139708061892E+00
-0.4376127108756E+00 -0.6318734399797E+00
-0.4496267507303E+00 -0.6497625535585E+00
-0.4618684873268E+00 -0.6675965252075E+00
-0.4743583814466E+00 -0.6853264612854E+00
-0.4871164470963E+00 -0.7028952214001E+00
-0.5001615111097E+00 -0.7202364181305E+00
-0.5135103846946E+00 -0.7372734417094E+00
-0.5271770768503E+00 -0.7539185863513E+00
-0.5411723961670E+00 -0.7700724116936E+00
-0.3117145951584E+00 -0.4475499331221E+00
-0.3212986389021E+00 -0.4635549396114E+00
-0.3309592245918E+00 -0.4796823439246E+00
-0.3407077116812E+00 -0.4959237734145E+00
-0.3505580693325E+00 -0.5122698463772E+00
-0.3605269552003E+00 -0.5287096848570E+00
-0.3706338497834E+00 -0.5452304516668E+00
-0.3809012304255E+00 -0.5618168716991E+00
-0.3913547702208E+00 -0.5784507073231E+00
-0.4020235464439E+00 -0.5951101639351E+00
-0.4129402406286E+00 -0.6117692060297E+00
-0.4241413082492E+00 -0.6283967678396E+00
-0.4356670902454E+00 -0.6449558470327E+00
-0.4475618318024E+00 -0.6614024768523E+00
-0.4598735666040E+00 -0.6776845835987E+00
-0.4726538186367E+00 -0.6937407558200E+00
-0.4859570689374E+00 -0.7094989843969E+00
-0.4998399369334E+00 -0.7248754975528E+00
-0.5143600090991E+00 -0.7397739428590E+00
-0.2976036782938E+00 -0.4378993185590E+00
-0.3061768462477E+00 -0.4528964876837E+00
-0.3148271594105E+00 -0.4679597812296E+00
-0.3235690908345E+00 -0.4830801494441E+00
-0.3324205770520E+00 -0.4982477015371E+00
-0.3414031916738E+00 -0.5134512995845E+00
-0.3505424211871E+00 -0.5286781874057E+00
-0.3598680311883E+00 -0.5439136122355E+00
-0.3694145134228E+00 -0.5591404062724E+00
-0.3792216041701E+00 -0.5743385005162E+00
-0.3893348625930E+00 -0.5894843457546E+00
-0.3998062928463E+00 -0.6045502161984E+00
-0.4106949849728E+00 -0.6195033712900E+00
-0.4220677354710E+00 -0.6343050521060E+00
-0.4339995872642E+00 -0.6489092926128E+00
-0.4465741973864E+00 -0.6632615352177E+00
-0.4598838939135E+00 -0.6772970583403E+00
-0.4740291845441E+00 -0.6909392515940E+00
-0.4891172978727E+00 -0.7040978326685E+00
-0.2837502304365E+00 -0.4276397650975E+00
-0.2913958438891E+00 -0.4415709750605E+00
-0.2991236340200E+00 -0.4554961057312E+00
-0.3069512343755E+00 -0.4694039254763E+00
-0.3149005137825E+00 -0.4832824323841E+00
-0.3229978033258E+00 -0.4971185494878E+00
-0.3312742728000E+00 -0.5108978789329E+00
-0.3397664497287E+00 -0.5246044702482E+00
-0.3485168767755E+00 -0.5382205686992E+00
-0.3575749062411E+00 -0.5517263156798E+00
-0.3669976317444E+00 -0.5650993745870E+00
-0.3768509557737E+00 -0.5783144532980E+00
-0.3872107856834E+00 -0.5913426887292E+00
-0.3981643372247E+00 -0.6041508504493E+00
-0.4098114998821E+00 -0.6167003094999E+00
-0.4222661786972E+00 -0.6289457064094E+00
-0.4356574644812E+00 -0.6408332367108E+00
-0.4501304070045E+00 -0.6522984451577E+00
-0.4658459582205E+00 -0.6632633201993E+00
-0.2701909491457E+00 -0.4168043070122E+00
-0.2769993932365E+00 -0.4296141308948E+00
-0.2839008409938E+00 -0.4423306967154E+00
-0.2909163712619E+00 -0.4549392639998E+00
-0.2980719972038E+00 -0.4674242822405E+00
-0.3053988833960E+00 -0.4797692072748E+00
-0.3129337629101E+00 -0.4919564125823E+00
-0.3207195477900E+00 -0.5039671458494E+00
-0.3288061310621E+00 -0.5157814978708E+00
-0.3372513859687E+00 -0.5273783603026E+00
-0.3461223760816E+00 -0.5387353517541E+00
-0.3554967968895E+00 -0.5498286887664E+00
-0.3654646738483E+00 -0.5606329692594E+00
-0.3761303412141E+00 -0.5711208200370E+00
-0.3876147164247E+00 -0.5812623352615E+00
-0.4000578594271E+00 -0.5910241976214E+00
-0.4136217707051E+00 -0.6003683297471E+00
-0.4284933369579E+00 -0.6092498649671E+00
-0.4448874870962E+00 -0.6176141573139E+00
-0.2569609055043E+00 -0.4054325963041E+00
-0.2630296813469E+00 -0.4170706226167E+00
-0.2692093672233E+00 -0.4285145265390E+00
-0.2755250431715E+00 -0.4397449770368E+00
-0.2820073543232E+00 -0.4507416739857E+00
-0.2886926341594E+00 -0.4614833138953E+00
-0.2956232862080E+00 -0.4719476930531E+00
-0.3028484066631E+00 -0.4821118909284E+00
-0.3104246393183E+00 -0.4919525047160E+00
-0.3184172687789E+00 -0.5014459227049E+00
-0.3269015749282E+00 -0.5105686322336E+00
-0.3359644904633E+00 -0.5192975590296E+00
-0.3457066243400E+00 -0.5276104289380E+00
-0.3562447375492E+00 -0.5354861287549E+00
-0.3677147823617E+00 -0.5429050163153E+00
-0.3802756384406E+00 -0.5498490855642E+00
-0.3941136776142E+00 -0.5563018255400E+00
-0.4094482985772E+00 -0.5622475517857E+00
-0.4265385349647E+00 -0.5676699812461E+00
-0.2440930848130E+00 -0.3935703185137E+00
-0.2495266863920E+00 -0.4039932953205E+00
-0.2550973606961E+00 -0.4141092449255E+00
-0.2608350584093E+00 -0.4238934806126E+00
-0.2667758461427E+00 -0.4333200747698E+00
-0.2729618363712E+00 -0.4423620235706E+00
-0.2794414498063E+00 -0.4509915881237E+00
-0.2862699606455E+00 -0.4591807449158E+00
-0.2935102929487E+00 -0.4669017241520E+00
-0.3012340605682E+00 -0.4741276423216E+00
-0.3095228697307E+00 -0.4808332518673E+00
-0.3184699335078E+00 -0.4869958409261E+00
-0.3281820845264E+00 -0.4925963221257E+00
-0.3387823217680E+00 -0.4976205514388E+00
-0.3504130961579E+00 -0.5020609129965E+00
-0.3632406313010E+00 -0.5059181852138E+00
-0.3774606872196E+00 -0.5092036490532E+00
-0.3933061598690E+00 -0.5119412735426E+00
-0.4110567824395E+00 -0.5141697282293E+00
-0.2316179621603E+00 -0.3812685757614E+00
-0.2365275914708E+00 -0.3904424205808E+00
-0.2416097681908E+00 -0.3991863005445E+00
-0.2469005392486E+00 -0.4074697919369E+00
-0.2524424931125E+00 -0.4152608829394E+00
-0.2582843937824E+00 -0.4225264264040E+00
-0.2644812452975E+00 -0.4292327883296E+00
-0.2710946713194E+00 -0.4353466159272E+00
-0.2781935311930E+00 -0.4408357179249E+00
-0.2858547310813E+00 -0.4456700894980E+00
-0.2941642232086E+00 -0.4498231398298E+00
-0.3032182210943E+00 -0.4532732015602E+00
-0.3131247004229E+00 -0.4560054248037E+00
-0.3240053140698E+00 -0.4580141889129E+00
-0.3359979423160E+00 -0.4593062066596E+00
-0.3492602529577E+00 -0.4599045475214E+00
-0.3639748947153E+00 -0.4598538556961E+00
-0.3803573641432E+00 -0.4592269982136E+00
-0.3986673946816E+00 -0.4581328603905E+00
-0.2195630886095E+00 -0.3685831636647E+00
-0.2240661987413E+00 -0.3764848136822E+00
-0.2287875780058E+00 -0.3838258857021E+00
-0.2337709789022E+00 -0.3905702772592E+00
-0.2390668945981E+00 -0.3966799657295E+00
-0.2447318147988E+00 -0.4021158981674E+00
-0.2508280372100E+00 -0.4068390532044E+00
-0.2574238071077E+00 -0.4108116006228E+00
-0.2645936314471E+00 -0.4139981761007E+00
-0.2724186691689E+00 -0.4163673362257E+00
-0.2809871376870E+00 -0.4178932886032E+00
-0.2903947032076E+00 -0.4185580193009E+00
-0.3007448468348E+00 -0.4183539759752E+00
-0.3121492292359E+00 -0.4172875208346E+00
-0.3247281305791E+00 -0.4153834577561E+00
-0.3386111588298E+00 -0.4126910876731E+00
-0.3539386929755E+00 -0.4092924888270E+00
-0.3708652316803E+00 -0.4053141299863E+00
-0.3895681655542E+00 -0.4009433353540E+00
-0.2079525416853E+00 -0.3555735577380E+00
-0.2121720555513E+00 -0.3621924478003E+00
-0.2166666391840E+00 -0.3681151485785E+00
-0.2214897306077E+00 -0.3733004188893E+00
-0.2267013028236E+00 -0.3777049534794E+00
-0.2323667148691E+00 -0.3812849358262E+00
-0.2385562580805E+00 -0.3839976698045E+00
-0.2453450051534E+00 -0.3858032446082E+00
-0.2528127071099E+00 -0.3866662927653E+00
-0.2610435638946E+00 -0.3865579452768E+00
-0.2701257327911E+00 -0.3854581091698E+00
-0.2801504461237E+00 -0.3833582112841E+00
-0.2912105915348E+00 -0.3802645806062E+00
-0.3033985647639E+00 -0.3762026918941E+00
-0.3168031340983E+00 -0.3712225850316E+00
-0.3315049518040E+00 -0.3654059443523E+00
-0.3475702590777E+00 -0.3588756769332E+00
-0.3650423650332E+00 -0.3518095780952E+00
-0.3839319818699E+00 -0.3444620953022E+00
-0.1968056170527E+00 -0.3423009002309E+00
-0.2008680855015E+00 -0.3476391667210E+00
-0.2052742552574E+00 -0.3521436097796E+00
-0.2100895090938E+00 -0.3557689119174E+00
-0.2153848855072E+00 -0.3584680225127E+00
-0.2212355954003E+00 -0.3601946861106E+00
-0.2277203516976E+00 -0.3609058627206E+00
-0.2349209032212E+00 -0.3605640696659E+00
-0.2429214009895E+00 -0.3591397753685E+00
-0.2518073425157E+00 -0.3566139960698E+00
-0.2616638767160E+00 -0.3529812384717E+00
-0.2725732311522E+00 -0.3482529169386E+00
-0.2846109488674E+00 -0.3424613606949E+00
-0.2978404808486E+00 -0.3356645165919E+00
-0.3123054317317E+00 -0.3279514460542E+00
-0.3280183226788E+00 -0.3194487174654E+00
-0.3449438708787E+00 -0.3103278110974E+00
-0.3629731927836E+00 -0.3008138913597E+00
-0.3818800987315E+00 -0.2911965934956E+00
-0.1861329856515E+00 -0.3288229857897E+00
-0.1901631641395E+00 -0.3328914767917E+00
-0.1946181623225E+00 -0.3359898529633E+00
-0.1995776173255E+00 -0.3380703716506E+00
-0.2051248997612E+00 -0.3390847756318E+00
-0.2113455111129E+00 -0.3389881952621E+00
-0.2183263173668E+00 -0.3377426265350E+00
-0.2261547512821E+00 -0.3353201650493E+00
-0.2349175072233E+00 -0.3317062381836E+00
-0.2446984172236E+00 -0.3269030400133E+00
-0.2555752334380E+00 -0.3209333073425E+00
-0.2676149962459E+00 -0.3138444973908E+00
-0.2808675494958E+00 -0.3057133344367E+00
-0.2953565560156E+00 -0.2966505635868E+00
-0.3110670146060E+00 -0.2868055448972E+00
-0.3279276388015E+00 -0.2763699498552E+00
-0.3457852688305E+00 -0.2655791057554E+00
-0.3643653863861E+00 -0.2547077645099E+00
-0.3832068864210E+00 -0.2440532217042E+00
-0.1759269889478E+00 -0.3151827503064E+00
-0.1800329805467E+00 -0.3179865026504E+00
-0.1846578008554E+00 -0.3196894126960E+00
-0.1898972050740E+00 -0.3202436419909E+00
-0.1958472397440E+00 -0.3196034413224E+00
-0.2026029415119E+00 -0.3177308185195E+00
-0.2102576439512E+00 -0.3146002449510E+00
-0.2189017778012E+00 -0.3102028389597E+00
-0.2286206474366E+00 -0.3045504029105E+00
-0.2394908765803E+00 -0.2976795329610E+00
-0.2515752493517E+00 -0.2896558419965E+00
-0.2649156156393E+00 -0.2805781460565E+00
-0.2795234119950E+00 -0.2705822374936E+00
-0.2953671765737E+00 -0.2598435623674E+00
-0.3123561959915E+00 -0.2485776544020E+00
-0.3303191142784E+00 -0.2370364054498E+00
-0.3489758663910E+00 -0.2254968159919E+00
-0.3679014284496E+00 -0.2142360811730E+00
-0.3864785926450E+00 -0.2034794462600E+00
-0.1661619632880E+00 -0.3014103852921E+00
-0.1704207969286E+00 -0.3029370202472E+00
-0.1753053425980E+00 -0.3032430536376E+00
-0.1809281349163E+00 -0.3022835326603E+00
-0.1873965501340E+00 -0.3000200631633E+00
-0.1948124811710E+00 -0.2964283884733E+00
-0.2032718969002E+00 -0.2915041151827E+00
-0.2128630744974E+00 -0.2852674117782E+00
-0.2236631078161E+00 -0.2777671924180E+00
-0.2357325210080E+00 -0.2690849282973E+00
-0.2491078470901E+00 -0.2593378977175E+00
-0.2637919979243E+00 -0.2486813618881E+00
-0.2797422259210E+00 -0.2373088152225E+00
-0.2968555212880E+00 -0.2254490521785E+00
-0.3149515143493E+00 -0.2133582579514E+00
-0.3337535991869E+00 -0.2013045806132E+00
-0.3528708795060E+00 -0.1895416151559E+00
-0.3717883363722E+00 -0.1782660262243E+00
-0.3898919292254E+00 -0.1675553513880E+00
-0.1568118995757E+00 -0.2875457903962E+00
-0.1612727985461E+00 -0.2877764872442E+00
-0.1664786843192E+00 -0.2866833970801E+00
-0.1725575687273E+00 -0.2842276548156E+00
-0.1796245366417E+00 -0.2803836144847E+00
-0.1877833797367E+00 -0.2751479528663E+00
-0.1971265819465E+00 -0.2685455538729E+00
-0.2077327747986E+00 -0.2606336271945E+00
-0.2196616913277E+00 -0.2515047121791E+00
-0.2329468325485E+00 -0.2412886059481E+00
-0.2475860677572E+00 -0.2301527574295E+00
-0.2635304221329E+00 -0.2183003163790E+00
-0.2806714670431E+00 -0.2059647355961E+00
-0.2988281458846E+00 -0.1933995862720E+00
-0.3177347575135E+00 -0.1808620566650E+00
-0.3370336501939E+00 -0.1685885767338E+00
-0.3562798829664E+00 -0.1567615884629E+00
-0.3749731856405E+00 -0.1454691238415E+00
-0.3926472699380E+00 -0.1346700513002E+00
-0.1478483253375E+00 -0.2736357118099E+00
-0.1525338925171E+00 -0.2725536471391E+00
-0.1580947306170E+00 -0.2700662714180E+00
-0.1646701689119E+00 -0.2661435565755E+00
-0.1723767078186E+00 -0.2607777561587E+00
-0.1813128758928E+00 -0.2539927619041E+00
-0.1915598034273E+00 -0.2458485709093E+00
-0.2031777146979E+00 -0.2364431878105E+00
-0.2161993263637E+00 -0.2259129340320E+00
-0.2306210461025E+00 -0.2144310644880E+00
-0.2463927841476E+00 -0.2022040918916E+00
-0.2634072463193E+00 -0.1894649273024E+00
-0.2814899106124E+00 -0.1764619134625E+00
-0.3003916224717E+00 -0.1634429386881E+00
-0.3197870353742E+00 -0.1506341535678E+00
-0.3392842603765E+00 -0.1382136501947E+00
-0.3584543307294E+00 -0.1262825022435E+00
-0.3768924199119E+00 -0.1148406182758E+00
-0.3943139137667E+00 -0.1037838398596E+00
-0.1392417638747E+00 -0.2597350076532E+00
-0.1441507545277E+00 -0.2573349672493E+00
-0.1500737168035E+00 -0.2534730524920E+00
-0.1571534199824E+00 -0.2481297521433E+00
-0.1654988747238E+00 -0.2413194444046E+00
-0.1751948476414E+00 -0.2330977203930E+00
-0.1863029031085E+00 -0.2235620368477E+00
-0.1988567866471E+00 -0.2128498284570E+00
-0.2128545930795E+00 -0.2011350494929E+00
-0.2282495944920E+00 -0.1886230577444E+00
-0.2449411125967E+00 -0.1755429779758E+00
-0.2627667733589E+00 -0.1621368082665E+00
-0.2814979255222E+00 -0.1486448095687E+00
-0.3008407765699E+00 -0.1352871589131E+00
-0.3204468984472E+00 -0.1222425723257E+00
-0.3399379704032E+00 -0.1096259520972E+00
-0.3589499655393E+00 -0.9746968647292E-01
-0.3771971197830E+00 -0.8571725915802E-01
-0.3945382221985E+00 -0.7423983183154E-01
-0.1309586562422E+00 -0.2459031176821E+00
-0.1360655247063E+00 -0.2421971210851E+00
-0.1423290943290E+00 -0.2369984154023E+00
-0.1498829586898E+00 -0.2302983181451E+00
-0.1588181048107E+00 -0.2221370326609E+00
-0.1691973186689E+00 -0.2126041685219E+00
-0.1810561325470E+00 -0.2018333355868E+00
-0.1943965141838E+00 -0.1899950823489E+00
-0.2091784879328E+00 -0.1772901279964E+00
-0.2253121631712E+00 -0.1639412832883E+00
-0.2426515121325E+00 -0.1501830812720E+00
-0.2609913807094E+00 -0.1362486521708E+00
-0.2800695959905E+00 -0.1223539370172E+00
-0.2995765663231E+00 -0.1086799366192E+00
-0.3191751535916E+00 -0.9535457610630E-01
-0.3385332212578E+00 -0.8243719935225E-01
-0.3573684007963E+00 -0.6991078711346E-01
-0.3754966813146E+00 -0.5768864436085E-01
-0.3928638887504E+00 -0.4563962721475E-01
-0.1229597336483E+00 -0.2322038453199E+00
-0.1282127832211E+00 -0.2272261329960E+00
-0.1347610798740E+00 -0.2207472921096E+00
-0.1427119658470E+00 -0.2127709914125E+00
-0.1521277922117E+00 -0.2033668792182E+00
-0.1630447494446E+00 -0.1926599845847E+00
-0.1754695419945E+00 -0.1808141493025E+00
-0.1893710106236E+00 -0.1680224860273E+00
-0.2046728608465E+00 -0.1544989379122E+00
-0.2212483877953E+00 -0.1404687608679E+00
-0.2389183320704E+00 -0.1261569838844E+00
-0.2574530602097E+00 -0.1117748700189E+00
-0.2765805721399E+00 -0.9750496623673E-01
-0.2960019107708E+00 -0.8348593694341E-01
-0.3154151073928E+00 -0.6979922497565E-01
-0.3345471002973E+00 -0.5646076166820E-01
-0.3531891510721E+00 -0.4342207335135E-01
-0.3712249210976E+00 -0.3058472215325E-01
-0.3886378055307E+00 -0.1782815191283E-01
-0.1152257760251E+00 -0.2187249882592E+00
-0.1205735712667E+00 -0.2125474369746E+00
-0.1273424321127E+00 -0.2048711232993E+00
-0.1355882302492E+00 -0.1957150824376E+00
-0.1453444264407E+00 -0.1851922760930E+00
-0.1566222742121E+00 -0.1734584304628E+00
-0.1693999386150E+00 -0.1606972473550E+00
-0.1836155560514E+00 -0.1471117325610E+00
-0.1991624723929E+00 -0.1329160008677E+00
-0.2158875615262E+00 -0.1183254309194E+00
-0.2335931245117E+00 -0.1035451178869E+00
-0.2520432712946E+00 -0.8875715279099E-01
-0.2709756528960E+00 -0.7410768978127E-01
-0.2901190794460E+00 -0.5969526936222E-01
-0.3092165476784E+00 -0.4556255541309E-01
-0.3280511299220E+00 -0.3169436460676E-01
-0.3464688956200E+00 -0.1802502421307E-01
-0.3643905265347E+00 -0.4456510803241E-02
-0.3818031611673E+00  0.9114861158567E-02
-0.1077396698346E+00 -0.2055609907668E+00
-0.1131568698203E+00 -0.1982904548819E+00
-0.1200637810569E+00 -0.1894888674496E+00
-0.1284768553981E+00 -0.1792602998912E+00
-0.1384147543835E+00 -0.1677546817548E+00
-0.1498637519245E+00 -0.1551452725908E+00
-0.1627753064311E+00 -0.1416220485282E+00
-0.1770613618188E+00 -0.1273858308630E+00
-0.1925931179673E+00 -0.1126403419920E+00
-0.2092025477256E+00 -0.9758246317215E-01
-0.2266874062031E+00 -0.8239134513207E-01
-0.2448201390288E+00 -0.6721723252372E-01
-0.2633609137040E+00 -0.5217112490946E-01
-0.2820743906846E+00 -0.3731679371897E-01
-0.3007487221775E+00 -0.2266712061655E-01
-0.3192135259938E+00 -0.8186944585933E-02
-0.3373518349005E+00  0.6195973648577E-02
-0.3551003993799E+00  0.2057209174677E-01
-0.3724368987788E+00  0.3502696471517E-01
</DataArray>
</PointData>
   <DataArray type="Float64" Name="Load" NumberOfComponents="1"    ComponentName0="Load" format="ascii">
 0.7216952194817E+01
 0.6503794928417E+01
 0.5959943096656E+01
 0.5787488183307E+01
 0.5672522316694E+01
 0.5606433758909E+01
 0.5562848623836E+01
 0.5533771090334E+01
 0.5513690302915E+01
 0.5499776630306E+01
 0.5490365761884E+01
 0.5484584209188E+01
 0.5482052533415E+01
 0.5482743365264E+01
 0.5486896445432E+01
 0.5494975728575E+01
 0.5507653697855E+01
 0.5525820636005E+01
 0.5550616384395E+01
 0.5583507955990E+01
 0.5626432111721E+01
 0.5682131372928E+01
 0.5754969302819E+01
 0.5851222765426E+01
 0.5972468287660E+01
 0.6112533140697E+01
 0.6264192803329E+01
 0.6423560377222E+01
 0.6590931752499E+01
 0.6769824144121E+01
 0.6965371540160E+01
 0.7182646865449E+01
 0.7424764548600E+01
 0.7699102700300E+01
 0.8030031884124E+01
 0.8449098457207E+01
 0.9025493783530E+01
 0.9738340166804E+01
 0.1127353800380E+02
 0.1125689916506E+02
 0.2188811393736E+02
 0.6188273732154E+01
 0.6421085082445E+01
 0.6013525514528E+01
 0.5781692015789E+01
 0.5658814314734E+01
 0.5577523517718E+01
 0.5524468307053E+01
 0.5487791941541E+01
 0.5462004966641E+01
 0.5443668197832E+01
 0.5430822098389E+01
 0.5422343252231E+01
 0.5417670983405E+01
 0.5416633371080E+01
 0.5419351740096E+01
 0.5426187459673E+01
 0.5437719013385E+01
 0.5454742822592E+01
 0.5478299535266E+01
 0.5509733085072E+01
 0.5550806644280E+01
 0.5603905294048E+01
 0.5671886971976E+01
 0.5757003505084E+01
 0.5859219561685E+01
 0.5975743149593E+01
 0.6102747329095E+01
 0.6237559310116E+01
 0.6379602868202E+01
 0.6530102027406E+01
 0.6691118187278E+01
 0.6864797526170E+01
 0.7053999344736E+01
 0.7264466447269E+01
 0.7504486800609E+01
 0.7788801574037E+01
 0.8107046967750E+01
 0.8514491684600E+01
 0.8692397680416E+01
 0.7517846190092E+01
 0.1447742973361E+02
 0.5612683008156E+01
 0.6071151162114E+01
 0.5957254496465E+01
 0.5748737509498E+01
 0.5622933909736E+01
 0.5537911997541E+01
 0.5478927276744E+01
 0.5437237086529E+01
 0.5407105874980E+01
 0.5385181843642E+01
 0.5369370018039E+01
 0.5358433634344E+01
 0.5351696453811E+01
 0.5348882240067E+01
 0.5350014927016E+01
 0.5355361996247E+01
 0.5365405850379E+01
 0.5380837056390E+01
 0.5402567889201E+01
 0.5431765879784E+01
 0.5469908993002E+01
 0.5518726405095E+01
 0.5579600980926E+01
 0.5652869364508E+01
 0.5737933400346E+01
 0.5833478955114E+01
 0.5937573637151E+01
 0.6048328423093E+01
 0.6164540251342E+01
 0.6285710924533E+01
 0.6411631167173E+01
 0.6542343263381E+01
 0.6678735163725E+01
 0.6821297963271E+01
 0.6968058065145E+01
 0.7107526336128E+01
 0.7213279502516E+01
 0.7218782344796E+01
 0.6600161251581E+01
 0.6030826809349E+01
 0.1206433010311E+02
 0.5236228573009E+01
 0.5728355674151E+01
 0.5804005352529E+01
 0.5680049976295E+01
 0.5567336385238E+01
 0.5485823168917E+01
 0.5425731411694E+01
 0.5381485292947E+01
 0.5348570667613E+01
 0.5323978727899E+01
 0.5305752151154E+01
 0.5292657888183E+01
 0.5283981000398E+01
 0.5279383459126E+01
 0.5278816083902E+01
 0.5282463443641E+01
 0.5290712471513E+01
 0.5304137985478E+01
 0.5323500330559E+01
 0.5349747229197E+01
 0.5383980844945E+01
 0.5427207550315E+01
 0.5479741536150E+01
 0.5540981252104E+01
 0.5610121856016E+01
 0.5686507191035E+01
 0.5769146160597E+01
 0.5856562287836E+01
 0.5947067891809E+01
 0.6038900847280E+01
 0.6130186035115E+01
 0.6219118921607E+01
 0.6303784908582E+01
 0.6379780777029E+01
 0.6435622305120E+01
 0.6446357659497E+01
 0.6367887266134E+01
 0.6059137984826E+01
 0.5331467130413E+01
 0.5660207812759E+01
 0.1084247428268E+02
 0.4963615718004E+01
 0.5432683462067E+01
 0.5612126876704E+01
 0.5575362554425E+01
 0.5493174525659E+01
 0.5421451606109E+01
 0.5364502231975E+01
 0.5320245254538E+01
 0.5286100509085E+01
 0.5259817509789E+01
 0.5239771679874E+01
 0.5224863243589E+01
 0.5214410755934E+01
 0.5208059066571E+01
 0.5205711392616E+01
 0.5207482325777E+01
 0.5213666327877E+01
 0.5224716182036E+01
 0.5241223982149E+01
 0.5263887213381E+01
 0.5293397058230E+01
 0.5330120155674E+01
 0.5373661305117E+01
 0.5422953055309E+01
 0.5477102497663E+01
 0.5535706822346E+01
 0.5598169883212E+01
 0.5663161818311E+01
 0.5728608906278E+01
 0.5791844851988E+01
 0.5849755976064E+01
 0.5898878132691E+01
 0.5934704921020E+01
 0.5948782062274E+01
 0.5923783719483E+01
 0.5829545102872E+01
 0.5611579571847E+01
 0.5173554258262E+01
 0.4674654067074E+01
 0.5687294022406E+01
 0.1004103047727E+02
 0.4751314631774E+01
 0.5182158298354E+01
 0.5413005166009E+01
 0.5446328736797E+01
 0.5401846094933E+01
 0.5345729897418E+01
 0.5295346563228E+01
 0.5253428772477E+01
 0.5219551342998E+01
 0.5192546349476E+01
 0.5171295489004E+01
 0.5154941894101E+01
 0.5142906607407E+01
 0.5134859831072E+01
 0.5130683020405E+01
 0.5130434936864E+01
 0.5134322942319E+01
 0.5142675829555E+01
 0.5155909054291E+01
 0.5174458153405E+01
 0.5198620296177E+01
 0.5228251867126E+01
 0.5262505325666E+01
 0.5300081331371E+01
 0.5340032146065E+01
 0.5381999709214E+01
 0.5425485185834E+01
 0.5469147454252E+01
 0.5510612561279E+01
 0.5546592795563E+01
 0.5573071847585E+01
 0.5585270792638E+01
 0.5576731293622E+01
 0.5536514167933E+01
 0.5445497161547E+01
 0.5274109702819E+01
 0.4980637873746E+01
 0.4562900941206E+01
 0.4392792721717E+01
 0.5802776390441E+01
 0.9440223623592E+01
 0.4576811783006E+01
 0.4968052497059E+01
 0.5220379102004E+01
 0.5304325610613E+01
 0.5296812438192E+01
 0.5259865297803E+01
 0.5218773002626E+01
 0.5181156550650E+01
 0.5148912961717E+01
 0.5122103460743E+01
 0.5100251656194E+01
 0.5082830780883E+01
 0.5069423757608E+01
 0.5059764851319E+01
 0.5053738423782E+01
 0.5051362198149E+01
 0.5052764031731E+01
 0.5058151241703E+01
 0.5067762848164E+01
 0.5081780091638E+01
 0.5100153784953E+01
 0.5122357088311E+01
 0.5147262471607E+01
 0.5173456974887E+01
 0.5199944244648E+01
 0.5226307667216E+01
 0.5251997403444E+01
 0.5275589029068E+01
 0.5294496030293E+01
 0.5305042375711E+01
 0.5302628137463E+01
 0.5281624791986E+01
 0.5234503761604E+01
 0.5149712263033E+01
 0.5009655052343E+01
 0.4792006510382E+01
 0.4484596070893E+01
 0.4173503992719E+01
 0.4316336407652E+01
 0.5903346328463E+01
 0.8958292737549E+01
 0.4427408289202E+01
 0.4782116343190E+01
 0.5039296921813E+01
 0.5157443301715E+01
 0.5182195782689E+01
 0.5165485464821E+01
 0.5135520503368E+01
 0.5103738909259E+01
 0.5074293032774E+01
 0.5048509645112E+01
 0.5026626414510E+01
 0.5008509662046E+01
 0.4993950589202E+01
 0.4982780517022E+01
 0.4974909164094E+01
 0.4970328026766E+01
 0.4969094992648E+01
 0.4971302703384E+01
 0.4977022336038E+01
 0.4986203361594E+01
 0.4998510255889E+01
 0.5013140819569E+01
 0.5028800953269E+01
 0.5044026111988E+01
 0.5057773555691E+01
 0.5069526181807E+01
 0.5078624942546E+01
 0.5083550912807E+01
 0.5081599445980E+01
 0.5068914639167E+01
 0.5040634902816E+01
 0.4990810268586E+01
 0.4911816719345E+01
 0.4793208007234E+01
 0.4621725396770E+01
 0.4387621675812E+01
 0.4112746439962E+01
 0.3944675190041E+01
 0.4339463595461E+01
 0.5964666385792E+01
 0.8556685779417E+01
 0.4295455126483E+01
 0.4617816588436E+01
 0.4870847282903E+01
 0.5010727930294E+01
 0.5061730377320E+01
 0.5064447983080E+01
 0.5046492517965E+01
 0.5021622563676E+01
 0.4995900946656E+01
 0.4971857974565E+01
 0.4950459210292E+01
 0.4931998248943E+01
 0.4916506780792E+01
 0.4903938986820E+01
 0.4894249324031E+01
 0.4887417332586E+01
 0.4883441990892E+01
 0.4882311887469E+01
 0.4883945934468E+01
 0.4888093417296E+01
 0.4894193614848E+01
 0.4901255161535E+01
 0.4907892588469E+01
 0.4912625277146E+01
 0.4914370785859E+01
 0.4912506984377E+01
 0.4906261738402E+01
 0.4894050491431E+01
 0.4873152050851E+01
 0.4839726636524E+01
 0.4788970381436E+01
 0.4715149381790E+01
 0.4611457253033E+01
 0.4469966285596E+01
 0.4283849822640E+01
 0.4058356060940E+01
 0.3845237686984E+01
 0.3825000031270E+01
 0.4402204208386E+01
 0.5988175036860E+01
 0.8213661602913E+01
 0.4176097004742E+01
 0.4470226690114E+01
 0.4714434380364E+01
 0.4867051114335E+01
 0.4938372386377E+01
 0.4958584267934E+01
 0.4952683913938E+01
 0.4935345667943E+01
 0.4914025077884E+01
 0.4892302663110E+01
 0.4871836257793E+01
 0.4853352493410E+01
 0.4837140813249E+01
 0.4823296214215E+01
 0.4811833567584E+01
 0.4802733699853E+01
 0.4795948778836E+01
 0.4791377019761E+01
 0.4788805573540E+01
 0.4787819201545E+01
 0.4787688596650E+01
 0.4787300457632E+01
 0.4785229304212E+01
 0.4780002314876E+01
 0.4770510660794E+01
 0.4756045661773E+01
 0.4735750283831E+01
 0.4708027702218E+01
 0.4670246236376E+01
 0.4618767438307E+01
 0.4549148075831E+01
 0.4456364100189E+01
 0.4335184690076E+01
 0.4181226194014E+01
 0.3995213965792E+01
 0.3797034359016E+01
 0.3660463537787E+01
 0.3775447978044E+01
 0.4473476217197E+01
 0.5981758652544E+01
 0.7915340674217E+01
 0.4066115849562E+01
 0.4335676345716E+01
 0.4568839075939E+01
 0.4727879095982E+01
 0.4814278686024E+01
 0.4849527493788E+01
 0.4855099882771E+01
 0.4845497988997E+01
 0.4829009505947E+01
 0.4810046626592E+01
 0.4790883380097E+01
 0.4772660190764E+01
 0.4755927009820E+01
 0.4740929616089E+01
 0.4727754925685E+01
 0.4716396859938E+01
 0.4706773384236E+01
 0.4698708115742E+01
 0.4691879762104E+01
 0.4685744774388E+01
 0.4679455145867E+01
 0.4671827887154E+01
 0.4661434367878E+01
 0.4646829046089E+01
 0.4626896157874E+01
 0.4600872678315E+01
 0.4567862668152E+01
 0.4526323489543E+01
 0.4473818864825E+01
 0.4407082241989E+01
 0.4322300913261E+01
 0.4215571646399E+01
 0.4083796400370E+01
 0.3926728769652E+01
 0.3752783474046E+01
 0.3594318214791E+01
 0.3538624501076E+01
 0.3768249817102E+01
 0.4538674231231E+01
 0.5953445975184E+01
 0.7652142999798E+01
 0.3963299818325E+01
 0.4211425707802E+01
 0.4432699651295E+01
 0.4593819570467E+01
 0.4690930363385E+01
 0.4738636740835E+01
 0.4754689087880E+01
 0.4752684458985E+01
 0.4741232406415E+01
 0.4725328727153E+01
 0.4707758421319E+01
 0.4690036163179E+01
 0.4672962214087E+01
 0.4656935458471E+01
 0.4642122364630E+01
 0.4628540022404E+01
 0.4616084778900E+01
 0.4604522521428E+01
 0.4593447840756E+01
 0.4582223454518E+01
 0.4569925474949E+01
 0.4555342201167E+01
 0.4537070026307E+01
 0.4513709045944E+01
 0.4484160620836E+01
 0.4447646986124E+01
 0.4403287710275E+01
 0.4349665469998E+01
 0.4284639816141E+01
 0.4205465979007E+01
 0.4109184510010E+01
 0.3993319249346E+01
 0.3857246397040E+01
 0.3705029535666E+01
 0.3552142174406E+01
 0.3440409676448E+01
 0.3463027494830E+01
 0.3784606178590E+01
 0.4591933408819E+01
 0.5909746811352E+01
 0.7417119291423E+01
 0.3866080955377E+01
 0.4095413069185E+01
 0.4304717661296E+01
 0.4464979118798E+01
 0.4569287921859E+01
 0.4626987189040E+01
 0.4652300861795E+01
 0.4657494594813E+01
 0.4651086806414E+01
 0.4638411630382E+01
 0.4622643613500E+01
 0.4605617264081E+01
 0.4588362265362E+01
 0.4571426072951E+01
 0.4555058240687E+01
 0.4539307176027E+01
 0.4524059675360E+01
 0.4509040943317E+01
 0.4493785415640E+01
 0.4477593825488E+01
 0.4459502669199E+01
 0.4438304211280E+01
 0.4412642813509E+01
 0.4381182621917E+01
 0.4342868975933E+01
 0.4296951912399E+01
 0.4242622999136E+01
 0.4178659784841E+01
 0.4103307602256E+01
 0.4014466883764E+01
 0.3910198089390E+01
 0.3789646542021E+01
 0.3654797824845E+01
 0.3513846710032E+01
 0.3388216111658E+01
 0.3326037143435E+01
 0.3420288889856E+01
 0.3812315846793E+01
 0.4631751532608E+01
 0.5855523169865E+01
 0.7205053445020E+01
 0.3773317889160E+01
 0.3986070520134E+01
 0.4183734937075E+01
 0.4341186970697E+01
 0.4449932291909E+01
 0.4515395698582E+01
 0.4548665057056E+01
 0.4560479939746E+01
 0.4558964331557E+01
 0.4549570826491E+01
 0.4535738263050E+01
 0.4519557405228E+01
 0.4502258406507E+01
 0.4484526998726E+01
 0.4466695720848E+01
 0.4448850441994E+01
 0.4430879546480E+01
 0.4412484031736E+01
 0.4393160826716E+01
 0.4372177073149E+01
 0.4348560181684E+01
 0.4321132951084E+01
 0.4288607378177E+01
 0.4249730248186E+01
 0.4203518778074E+01
 0.4149293080606E+01
 0.4086370951892E+01
 0.4013788244363E+01
 0.3930251481802E+01
 0.3834399199235E+01
 0.3725419147276E+01
 0.3604165174091E+01
 0.3475190001587E+01
 0.3350388330358E+01
 0.3255801111346E+01
 0.3242933179017E+01
 0.3400054798898E+01
 0.3843761188055E+01
 0.4658651970491E+01
 0.5794285125611E+01
 0.7011926531079E+01
 0.3684160529212E+01
 0.3882191869231E+01
 0.4068751670488E+01
 0.4222131137278E+01
 0.4333178029325E+01
 0.4404460767982E+01
 0.4444388639337E+01
 0.4462139827267E+01
 0.4465242419615E+01
 0.4459085143522E+01
 0.4447252022671E+01
 0.4432022771832E+01
 0.4414793729077E+01
 0.4396374122026E+01
 0.4377176224558E+01
 0.4357327528536E+01
 0.4336727907555E+01
 0.4315069494627E+01
 0.4291832451823E+01
 0.4266275241341E+01
 0.4237441826618E+01
 0.4204207531597E+01
 0.4165369384523E+01
 0.4119775196988E+01
 0.4066541474891E+01
 0.4005098112992E+01
 0.3934938150918E+01
 0.3855409887627E+01
 0.3765739139581E+01
 0.3665363228152E+01
 0.3554647242371E+01
 0.3436146243493E+01
 0.3316800925498E+01
 0.3211622469588E+01
 0.3149901389062E+01
 0.3184004924568E+01
 0.3394535178709E+01
 0.3874374081002E+01
 0.4673985231909E+01
 0.5728542183509E+01
 0.6834573252677E+01
 0.3597963003299E+01
 0.3782838343532E+01
 0.3958919050360E+01
 0.4107439159350E+01
 0.4219158568326E+01
 0.4294604867235E+01
 0.4339962779395E+01
 0.4362914370678E+01
 0.4370275122290E+01
 0.4367228955358E+01
 0.4357398945766E+01
 0.4343187380937E+01
 0.4326119770645E+01
 0.4307110903667E+01
 0.4286646963945E+01
 0.4264899356175E+01
 0.4241787910137E+01
 0.4217009726636E+01
 0.4190046707839E+01
 0.4160170165054E+01
 0.4126462107391E+01
 0.4087868818446E+01
 0.4043287927602E+01
 0.3991685891289E+01
 0.3932304171117E+01
 0.3864717967428E+01
 0.3788637443353E+01
 0.3703766230489E+01
 0.3609888899671E+01
 0.3507270673742E+01
 0.3397452592726E+01
 0.3284607479118E+01
 0.3177791152752E+01
 0.3094479210009E+01
 0.3065922070505E+01
 0.3143334043299E+01
 0.3398000753900E+01
 0.3901544640123E+01
 0.4679333613207E+01
 0.5660105511917E+01
 0.6670451320845E+01
 0.3514225982753E+01
 0.3687270985845E+01
 0.3853522305451E+01
 0.3996724582185E+01
 0.4107887987489E+01
 0.4186113232409E+01
 0.4235775456329E+01
 0.4263182946924E+01
 0.4274387208550E+01
 0.4274266115380E+01
 0.4266392408372E+01
 0.4253229062663E+01
 0.4236393320861E+01
 0.4216885730808E+01
 0.4195258602889E+01
 0.4171727857317E+01
 0.4146240220473E+01
 0.4118509863449E+01
 0.4088036570662E+01
 0.4054122854904E+01
 0.4015906729364E+01
 0.3972420970429E+01
 0.3922677674130E+01
 0.3865778202816E+01
 0.3801111925848E+01
 0.3728429621421E+01
 0.3647692202023E+01
 0.3558989325607E+01
 0.3462685157416E+01
 0.3359872984599E+01
 0.3253225474910E+01
 0.3148393741965E+01
 0.3056221481480E+01
 0.2995989131624E+01
 0.2999761089770E+01
 0.3116088253235E+01
 0.3406319610603E+01
 0.3923878264395E+01
 0.4676218167293E+01
 0.5590325213894E+01
 0.6517480142447E+01
 0.3432557475208E+01
 0.3594901806573E+01
 0.3751961474083E+01
 0.3889612552474E+01
 0.3999304590369E+01
 0.4079166824831E+01
 0.4132126162363E+01
 0.4163266436998E+01
 0.4177871057120E+01
 0.4180445540928E+01
 0.4174440941796E+01
 0.4162325934115E+01
 0.4145773503228E+01
 0.4125849450016E+01
 0.4103163081283E+01
 0.4077973981864E+01
 0.4050261186628E+01
 0.4019766218164E+01
 0.3986020518765E+01
 0.3948373227463E+01
 0.3906033264879E+01
 0.3858132937033E+01
 0.3803810926021E+01
 0.3742317882286E+01
 0.3673210626202E+01
 0.3596439912148E+01
 0.3512242298536E+01
 0.3421111903281E+01
 0.3323995856661E+01
 0.3222790747102E+01
 0.3121223335841E+01
 0.3026246855916E+01
 0.2950142952575E+01
 0.2913370297172E+01
 0.2947836969700E+01
 0.3098391040654E+01
 0.3416569144051E+01
 0.3940709091919E+01
 0.4665939484564E+01
 0.5520269453811E+01
 0.6373907939893E+01
 0.3352645555259E+01
 0.3505258134109E+01
 0.3653733088228E+01
 0.3785752890713E+01
 0.3893301031437E+01
 0.3973869075113E+01
 0.4029240620526E+01
 0.4063431758188E+01
 0.4080985735510E+01
 0.4085998284747E+01
 0.4081744970349E+01
 0.4070653410767E+01
 0.4054419189139E+01
 0.4034153136071E+01
 0.4010511651422E+01
 0.3983795942265E+01
 0.3954021303843E+01
 0.3920965074797E+01
 0.3884201845940E+01
 0.3843140133495E+01
 0.3797071982236E+01
 0.3745240012239E+01
 0.3686919757165E+01
 0.3621523247287E+01
 0.3548790447691E+01
 0.3468890359296E+01
 0.3382351395166E+01
 0.3290078932652E+01
 0.3193590965449E+01
 0.3095542521534E+01
 0.3000613475675E+01
 0.2916863017192E+01
 0.2857661592416E+01
 0.2844076878944E+01
 0.2907077631894E+01
 0.3087179162127E+01
 0.3426721359230E+01
 0.3951826078563E+01
 0.4649432283486E+01
 0.5450870984388E+01
 0.6238166112662E+01
 0.3274239024710E+01
 0.3417956269450E+01
 0.3558413990094E+01
 0.3684825769817E+01
 0.3789744747704E+01
 0.3870266911849E+01
 0.3927284354325E+01
 0.3963897555009E+01
 0.3983957650904E+01
 0.3991135846152E+01
 0.3988494374349E+01
 0.3978381738662E+01
 0.3962486746901E+01
 0.3941946100146E+01
 0.3917453121973E+01
 0.3889347677901E+01
 0.3857683933982E+01
 0.3822281765517E+01
 0.3782768248947E+01
 0.3738621596166E+01
 0.3689226789115E+01
 0.3633945441507E+01
 0.3572198236210E+01
 0.3503568099150E+01
 0.3427989767270E+01
 0.3345862678415E+01
 0.3258015066273E+01
 0.3165759873078E+01
 0.3071160913542E+01
 0.2977571764648E+01
 0.2890509905860E+01
 0.2818937666826E+01
 0.2776981849435E+01
 0.2785821158313E+01
 0.2874885242903E+01
 0.3080068551952E+01
 0.3435387145197E+01
 0.3957337129731E+01
 0.4627266234470E+01
 0.5382712230805E+01
 0.6108557658244E+01
 0.3197134031216E+01
 0.3332690859784E+01
 0.3465663946979E+01
 0.3586568019679E+01
 0.3688525157450E+01
 0.3768409013938E+01
 0.3826424615768E+01
 0.3864897664926E+01
 0.3887046571638E+01
 0.3896120480099E+01
 0.3894944456576E+01
 0.3885758531418E+01
 0.3870219805532E+01
 0.3849473457108E+01
 0.3824239828682E+01
 0.3794893902495E+01
 0.3761530192983E+01
 0.3724016236109E+01
 0.3682038926993E+01
 0.3635154221030E+01
 0.3582847541716E+01
 0.3524605963289E+01
 0.3460001266835E+01
 0.3388793659581E+01
 0.3311119685950E+01
 0.3227614971179E+01
 0.3139407180608E+01
 0.3048202978405E+01
 0.2956575328597E+01
 0.2868504492557E+01
 0.2790221024784E+01
 0.2731388789287E+01
 0.2706584151158E+01
 0.2736676935896E+01
 0.2849135909484E+01
 0.3075216701098E+01
 0.3441645843943E+01
 0.3957379462961E+01
 0.4600631241479E+01
 0.5313030006283E+01
 0.5998274800496E+01
 0.3121164397692E+01
 0.3249203340244E+01
 0.3375182389054E+01
 0.3490722984783E+01
 0.3589495422301E+01
 0.3668273761176E+01
 0.3726740278029E+01
 0.3766572217896E+01
 0.3790419412835E+01
 0.3801123476120E+01
 0.3801259847387E+01
 0.3792938582508E+01
 0.3777764573256E+01
 0.3756876078705E+01
 0.3731011039560E+01
 0.3700575575844E+01
 0.3665704979447E+01
 0.3626318060672E+01
 0.3582167010012E+01
 0.3532891535454E+01
 0.3478082974621E+01
 0.3417358373194E+01
 0.3350444443581E+01
 0.3277282265782E+01
 0.3198213269267E+01
 0.3114109707027E+01
 0.3026391796834E+01
 0.2937138874674E+01
 0.2849389272803E+01
 0.2767672709281E+01
 0.2698808031178E+01
 0.2652970221177E+01
 0.2644912753501E+01
 0.2694857209873E+01
 0.2828042667808E+01
 0.3071260042063E+01
 0.3444969105837E+01
 0.3952377983916E+01
 0.4569900676618E+01
 0.5243336301992E+01
 0.5897355618358E+01
 0.3046187383469E+01
 0.3167267515438E+01
 0.3286694577881E+01
 0.3397034857004E+01
 0.3492475048509E+01
 0.3569775989885E+01
 0.3628228262278E+01
 0.3668971506813E+01
 0.3694151408678E+01
 0.3706224452036E+01
 0.3707512838207E+01
 0.3699981922666E+01
 0.3685168052573E+01
 0.3664189235008E+01
 0.3637792213606E+01
 0.3606409957292E+01
 0.3570218026034E+01
 0.3529188736571E+01
 0.3483143378441E+01
 0.3431809627089E+01
 0.3374888450968E+01
 0.3312129690839E+01
 0.3243416996679E+01
 0.3168873550991E+01
 0.3089045532344E+01
 0.3005038173233E+01
 0.2918552740979E+01
 0.2832015738668E+01
 0.2748883907791E+01
 0.2674159104005E+01
 0.2615129721170E+01
 0.2582308741079E+01
 0.2590392464964E+01
 0.2658690668068E+01
 0.2810069107999E+01
 0.3067136418017E+01
 0.3445050820587E+01
 0.3942660173397E+01
 0.4535532209206E+01
 0.5174488845990E+01
 0.5797293202629E+01
 0.2972085678909E+01
 0.3086702423819E+01
 0.3199982190844E+01
 0.3305301450648E+01
 0.3397326027847E+01
 0.3472862872267E+01
 0.3530914569851E+01
 0.3572178959897E+01
 0.3598359738379E+01
 0.3611555697611E+01
 0.3613839188586E+01
 0.3607022124047E+01
 0.3592560017888E+01
 0.3571539540029E+01
 0.3544708337972E+01
 0.3512521895789E+01
 0.3475194833000E+01
 0.3432754043371E+01
 0.3385092249068E+01
 0.3332027675691E+01
 0.3273372955429E+01
 0.3209011804104E+01
 0.3138984823237E+01
 0.3063595986538E+01
 0.2983592792872E+01
 0.2900305813512E+01
 0.2815701530258E+01
 0.2732524145935E+01
 0.2654599367020E+01
 0.2587324555275E+01
 0.2538345423947E+01
 0.2518356788553E+01
 0.2541799715377E+01
 0.2626878535122E+01
 0.2794045374265E+01
 0.3062084962565E+01
 0.3441731525542E+01
 0.3928580113992E+01
 0.4498144979824E+01
 0.5106185007277E+01
 0.5699603790522E+01
 0.2898760300777E+01
 0.3007354967973E+01
 0.3114858113304E+01
 0.3215343763232E+01
 0.3303918135331E+01
 0.3377474017729E+01
 0.3434807565409E+01
 0.3476256628102E+01
 0.3503141094618E+01
 0.3517232164183E+01
 0.3520360892484E+01
 0.3514181973780E+01
 0.3500061449507E+01
 0.3479045760341E+01
 0.3451876545363E+01
 0.3419027560284E+01
 0.3380750721673E+01
 0.3337127561885E+01
 0.3288123260346E+01
 0.3233647701905E+01
 0.3173625665302E+01
 0.3108074177803E+01
 0.3037188918734E+01
 0.2961451000948E+01
 0.2881802925876E+01
 0.2799789662374E+01
 0.2717623786935E+01
 0.2638335226238E+01
 0.2566068583081E+01
 0.2506542896904E+01
 0.2467657492451E+01
 0.2460151123741E+01
 0.2498047356408E+01
 0.2598314236355E+01
 0.2779030679000E+01
 0.3055551108022E+01
 0.3434963523433E+01
 0.3910498809125E+01
 0.4458182781791E+01
 0.5038274808723E+01
 0.5604364933168E+01
 0.2826127009045E+01
 0.2929094765278E+01
 0.3031161106620E+01
 0.3127003218036E+01
 0.3212129705299E+01
 0.3283544851283E+01
 0.3339902192781E+01
 0.3381248821243E+01
 0.3408574115205E+01
 0.3423352694057E+01
 0.3427186499942E+01
 0.3421573227924E+01
 0.3407783996837E+01
 0.3386818183804E+01
 0.3359405523474E+01
 0.3326033989394E+01
 0.3286990606495E+01
 0.3242410741452E+01
 0.3192331898980E+01
 0.3136755408238E+01
 0.3075717259313E+01
 0.3009365700127E+01
 0.2938047867719E+01
 0.2862416267492E+01
 0.2783599632681E+01
 0.2703343776248E+01
 0.2624085941887E+01
 0.2549108560879E+01
 0.2482825918939E+01
 0.2431209202357E+01
 0.2402317341416E+01
 0.2406813863511E+01
 0.2458176791905E+01
 0.2572061806482E+01
 0.2764274196332E+01
 0.3047138655203E+01
 0.3424773390534E+01
 0.3888748249771E+01
 0.4415954590806E+01
 0.4970583521751E+01
 0.5511399988364E+01
 0.2754113527133E+01
 0.2851809991802E+01
 0.2948751485206E+01
 0.3040139093678E+01
 0.3121847795125E+01
 0.3191008997225E+01
 0.3246183305825E+01
 0.3287185224475E+01
 0.3314721665212E+01
 0.3330001354993E+01
 0.3334411674705E+01
 0.3329296648590E+01
 0.3315829730236E+01
 0.3294958267865E+01
 0.3267395193180E+01
 0.3233638900644E+01
 0.3194009017750E+01
 0.3148693206893E+01
 0.3097800152198E+01
 0.3041421230299E+01
 0.2979701421969E+01
 0.2912916708850E+01
 0.2841560488481E+01
 0.2766449092199E+01
 0.2688886705616E+01
 0.2610804474997E+01
 0.2534841450174E+01
 0.2464499157048E+01
 0.2404414322419E+01
 0.2360746022712E+01
 0.2341629078555E+01
 0.2357551182522E+01
 0.2421348648089E+01
 0.2547334812383E+01
 0.2749181323085E+01
 0.3036571643201E+01
 0.3411232414312E+01
 0.3863616695982E+01
 0.4371665865044E+01
 0.4902955181388E+01
 0.5420468588101E+01
 0.2682657346482E+01
 0.2775404046409E+01
 0.2867507551806E+01
 0.2954626185193E+01
 0.3032967936546E+01
 0.3099799892362E+01
 0.3153628236185E+01
 0.3194083488077E+01
 0.3221632872356E+01
 0.3237248741451E+01
 0.3242119840417E+01
 0.3237442180119E+01
 0.3224291041023E+01
 0.3203558426451E+01
 0.3175936509391E+01
 0.3141930604534E+01
 0.3101890209584E+01
 0.3056053128485E+01
 0.3004597197860E+01
 0.2947701398922E+01
 0.2885616330625E+01
 0.2818740968030E+01
 0.2747708382934E+01
 0.2673489633767E+01
 0.2597552004255E+01
 0.2521995106518E+01
 0.2449636254744E+01
 0.2384163306597E+01
 0.2330390952076E+01
 0.2294607745028E+01
 0.2284951135600E+01
 0.2311650305317E+01
 0.2386832633183E+01
 0.2523476561093E+01
 0.2733284982266E+01
 0.3023664227120E+01
 0.3394435873256E+01
 0.3835346513700E+01
 0.4325458758979E+01
 0.4835263307849E+01
 0.5331317299390E+01
 0.2611703965457E+01
 0.2699792851800E+01
 0.2787322630339E+01
 0.2870352688535E+01
 0.2945393615449E+01
 0.3009851804619E+01
 0.3062208717093E+01
 0.3101951319279E+01
 0.3129344872938E+01
 0.3145153162977E+01
 0.3150382825322E+01
 0.3146089176443E+01
 0.3133250606722E+01
 0.3112701875457E+01
 0.3085111304254E+01
 0.3050987940144E+01
 0.3010708265421E+01
 0.2964557561812E+01
 0.2912780033730E+01
 0.2855638908088E+01
 0.2793486012027E+01
 0.2726837471136E+01
 0.2656458254801E+01
 0.2583463805979E+01
 0.2509470986109E+01
 0.2436730181774E+01
 0.2368213373614E+01
 0.2307763270722E+01
 0.2260331331820E+01
 0.2232283283246E+01
 0.2231696264183E+01
 0.2268475241200E+01
 0.2353997059381E+01
 0.2499941916320E+01
 0.2716221424752E+01
 0.3008297348667E+01
 0.3374489514449E+01
 0.3804140786938E+01
 0.4277439163462E+01
 0.4767405975737E+01
 0.5243697018475E+01
 0.2541205468758E+01
 0.2624902672759E+01
 0.2708102616796E+01
 0.2787218351038E+01
 0.2859035654542E+01
 0.2921100492318E+01
 0.2971892385323E+01
 0.3010788251768E+01
 0.3037884403110E+01
 0.3053761836335E+01
 0.3059261624718E+01
 0.3055306813642E+01
 0.3042781574682E+01
 0.3022462709322E+01
 0.2994992363473E+01
 0.2960880440247E+01
 0.2920527425684E+01
 0.2874262999669E+01
 0.2822394305734E+01
 0.2765264665995E+01
 0.2703321861868E+01
 0.2637192378438E+01
 0.2567764316559E+01
 0.2496286195720E+01
 0.2424510140639E+01
 0.2354819253338E+01
 0.2290317023830E+01
 0.2234971267863E+01
 0.2193832599887E+01
 0.2173297761621E+01
 0.2181330617899E+01
 0.2227461979017E+01
 0.2322298677418E+01
 0.2476281079676E+01
 0.2697710229951E+01
 0.2990401071855E+01
 0.3351501954544E+01
 0.3770171889426E+01
 0.4227691747083E+01
 0.4699298923280E+01
 0.5157371031283E+01
 0.2471119368380E+01
 0.2550668323352E+01
 0.2629763920078E+01
 0.2705132818701E+01
 0.2773811499783E+01
 0.2833483530275E+01
 0.2882643857482E+01
 0.2920587029378E+01
 0.2947269112008E+01
 0.2963111913254E+01
 0.2968807084855E+01
 0.2965154473908E+01
 0.2952947737401E+01
 0.2932905969625E+01
 0.2905643482798E+01
 0.2871668457428E+01
 0.2831402352270E+01
 0.2785215832417E+01
 0.2733475012822E+01
 0.2676598487274E+01
 0.2615123965127E+01
 0.2549780706130E+01
 0.2481570384064E+01
 0.2411862581958E+01
 0.2342529908317E+01
 0.2276070131898E+01
 0.2215695913467E+01
 0.2165472463370E+01
 0.2130515646867E+01
 0.2117213093851E+01
 0.2133371916796E+01
 0.2188113203047E+01
 0.2291272896019E+01
 0.2452125236543E+01
 0.2677537894858E+01
 0.2969941449312E+01
 0.3325580768240E+01
 0.3733588695129E+01
 0.4176287609115E+01
 0.4630870123541E+01
 0.5072118917128E+01
 0.2401407650818E+01
 0.2477031694104E+01
 0.2552231742646E+01
 0.2624014196257E+01
 0.2689644506157E+01
 0.2746940450122E+01
 0.2794425538597E+01
 0.2831334745721E+01
 0.2857508717036E+01
 0.2873231450953E+01
 0.2879060614002E+01
 0.2875682214226E+01
 0.2863803825174E+01
 0.2844087845230E+01
 0.2817119658275E+01
 0.2783403418376E+01
 0.2743378510263E+01
 0.2697452910374E+01
 0.2646047294858E+01
 0.2589650145042E+01
 0.2528882447043E+01
 0.2464568007141E+01
 0.2397811908675E+01
 0.2330092316815E+01
 0.2263387361114E+01
 0.2200291739751E+01
 0.2144106034003E+01
 0.2098967337473E+01
 0.2070026566966E+01
 0.2063627915249E+01
 0.2087387151480E+01
 0.2149992947114E+01
 0.2260524698300E+01
 0.2427174100657E+01
 0.2655544558563E+01
 0.2946910915736E+01
 0.3296830630707E+01
 0.3694521952933E+01
 0.4123288310320E+01
 0.4562056558620E+01
 0.4987738604109E+01
 0.2332035990668E+01
 0.2403940531947E+01
 0.2475438634504E+01
 0.2543787787553E+01
 0.2606463236891E+01
 0.2661412737685E+01
 0.2707198204366E+01
 0.2743013757421E+01
 0.2768605988488E+01
 0.2784140286864E+01
 0.2790054865103E+01
 0.2786931254681E+01
 0.2775395846063E+01
 0.2756055931037E+01
 0.2729467334644E+01
 0.2696128127855E+01
 0.2656492585086E+01
 0.2611002122960E+01
 0.2560127214571E+01
 0.2504420389973E+01
 0.2444578758168E+01
 0.2381511944168E+01
 0.2316417846717E+01
 0.2250870472421E+01
 0.2186938559655E+01
 0.2127296539121E+01
 0.2075312927085E+01
 0.2035173454499E+01
 0.2012037499594E+01
 0.2012176990670E+01
 0.2042989975188E+01
 0.2112721335809E+01
 0.2229720343844E+01
 0.2401185235881E+01
 0.2631613365419E+01
 0.2921321289687E+01
 0.3265352497994E+01
 0.3653088116046E+01
 0.4068748212386E+01
 0.4492802564820E+01
 0.4904047372079E+01
 0.2262973093675E+01
 0.2331347417362E+01
 0.2399323262013E+01
 0.2464384981542E+01
 0.2524200776575E+01
 0.2576843712517E+01
 0.2620921384878E+01
 0.2655602383312E+01
 0.2680557553077E+01
 0.2695850786183E+01
 0.2701814343688E+01
 0.2698934431105E+01
 0.2687761412937E+01
 0.2668849482048E+01
 0.2642724646185E+01
 0.2609877054096E+01
 0.2570772864001E+01
 0.2525882920279E+01
 0.2475722455723E+01
 0.2420901854793E+01
 0.2362186808174E+01
 0.2300563666608E+01
 0.2237312277151E+01
 0.2174089667766E+01
 0.2113040511092E+01
 0.2056902477912E+01
 0.2009093396488E+01
 0.1973826639527E+01
 0.1956246902548E+01
 0.1962530163785E+01
 0.1999837856659E+01
 0.2075969469355E+01
 0.2198579836043E+01
 0.2373964932883E+01
 0.2605661931366E+01
 0.2893198592597E+01
 0.3231243223507E+01
 0.3609392002878E+01
 0.4012715968227E+01
 0.4423059039224E+01
 0.4820881992739E+01
 0.2194190148282E+01
 0.2259208912317E+01
 0.2323829373419E+01
 0.2385742294214E+01
 0.2442794107963E+01
 0.2493178372823E+01
 0.2535553650567E+01
 0.2569075492931E+01
 0.2593354614691E+01
 0.2608368555266E+01
 0.2614356032469E+01
 0.2611716706315E+01
 0.2600930158120E+01
 0.2582499771631E+01
 0.2556921768151E+01
 0.2524676723328E+01
 0.2486239719279E+01
 0.2442106923969E+01
 0.2392833093663E+01
 0.2339080009388E+01
 0.2281674122455E+01
 0.2221669174517E+01
 0.2160415960624E+01
 0.2099641780923E+01
 0.2041552948667E+01
 0.1988934693611E+01
 0.1945236928979E+01
 0.1914681848466E+01
 0.1902379556971E+01
 0.1914391146355E+01
 0.1957629271650E+01
 0.2039454683157E+01
 0.2166870280922E+01
 0.2345360567177E+01
 0.2577635593853E+01
 0.2862579259883E+01
 0.3194595485211E+01
 0.3563528833398E+01
 0.3955235804086E+01
 0.4352783343667E+01
 0.4738098646948E+01
 0.2125660363157E+01
 0.2187484836336E+01
 0.2248904908296E+01
 0.2307800518050E+01
 0.2362183516708E+01
 0.2410363179223E+01
 0.2451052771573E+01
 0.2483404941615E+01
 0.2506983529214E+01
 0.2521693036346E+01
 0.2527689929399E+01
 0.2525295621739E+01
 0.2514924105552E+01
 0.2497030413979E+01
 0.2472081229893E+01
 0.2440546066101E+01
 0.2402906027349E+01
 0.2359678453403E+01
 0.2311452256242E+01
 0.2258933976927E+01
 0.2203002825309E+01
 0.2144770468692E+01
 0.2085647637627E+01
 0.2027419347907E+01
 0.1972339744263E+01
 0.1923226804061E+01
 0.1883546676990E+01
 0.1857513612217E+01
 0.1850186210758E+01
 0.1867496073615E+01
 0.1916100869248E+01
 0.2002936107869E+01
 0.2134400000352E+01
 0.2315254161999E+01
 0.2547502009444E+01
 0.2829507279447E+01
 0.3155497789957E+01
 0.3515585732594E+01
 0.3896348529743E+01
 0.4281939332137E+01
 0.4655572407373E+01
 0.2057358575757E+01
 0.2116137654482E+01
 0.2174501238912E+01
 0.2230503983632E+01
 0.2282312053284E+01
 0.2328345830064E+01
 0.2367375818512E+01
 0.2398559926134E+01
 0.2421426307098E+01
 0.2435818055074E+01
 0.2441819569628E+01
 0.2439681761187E+01
 0.2429758075841E+01
 0.2412457731390E+01
 0.2388218276507E+01
 0.2357496808777E+01
 0.2320777623965E+01
 0.2278595073799E+01
 0.2231566788041E+01
 0.2180437330085E+01
 0.2126130574982E+01
 0.2069806618735E+01
 0.2012925205218E+01
 0.1957316796951E+01
 0.1905270114207E+01
 0.1859621958699E+01
 0.1823840189952E+01
 0.1802116251418E+01
 0.1799443058283E+01
 0.1821612013679E+01
 0.1875024777610E+01
 0.1966210648439E+01
 0.2101013427490E+01
 0.2283557047964E+01
 0.2515246878994E+01
 0.2794032067172E+01
 0.3114034585618E+01
 0.3465642968322E+01
 0.3836092476055E+01
 0.4210497530065E+01
 0.4573196629504E+01
 0.1989260920582E+01
 0.2045131955490E+01
 0.2100572517940E+01
 0.2153799912403E+01
 0.2203125041874E+01
 0.2247075028429E+01
 0.2284479209347E+01
 0.2314507262810E+01
 0.2336661037644E+01
 0.2350732304897E+01
 0.2356742506104E+01
 0.2354879194104E+01
 0.2345440086233E+01
 0.2328791124758E+01
 0.2305341234800E+01
 0.2275533864104E+01
 0.2239853747767E+01
 0.2198848117390E+01
 0.2153157868113E+01
 0.2103558817166E+01
 0.2051011400795E+01
 0.1996714701246E+01
 0.1942166728575E+01
 0.1889231481576E+01
 0.1840219592233E+01
 0.1797973637731E+01
 0.1765949896912E+01
 0.1748303878031E+01
 0.1749951081787E+01
 0.1776535458763E+01
 0.1834206070041E+01
 0.1929109375949E+01
 0.2066586713701E+01
 0.2250205453917E+01
 0.2480870568923E+01
 0.2756206887043E+01
 0.3070286432878E+01
 0.3413774979557E+01
 0.3774504319415E+01
 0.4138435300608E+01
 0.4490882261130E+01
 0.1921344545136E+01
 0.1974434001724E+01
 0.2027075110639E+01
 0.2077637842368E+01
 0.2124569626878E+01
 0.2166500240680E+01
 0.2202318707307E+01
 0.2231211592513E+01
 0.2252662234381E+01
 0.2266419760566E+01
 0.2272450734058E+01
 0.2270885877870E+01
 0.2261971720951E+01
 0.2246033419933E+01
 0.2223451854449E+01
 0.2194655690490E+01
 0.2160127440976E+01
 0.2120423145696E+01
 0.2076201548815E+01
 0.2028262985592E+01
 0.1977596410389E+01
 0.1925430577865E+01
 0.1873291260539E+01
 0.1823064491230E+01
 0.1777070756315E+01
 0.1738146195629E+01
 0.1709723346467E+01
 0.1695910197238E+01
 0.1701535270789E+01
 0.1732090811690E+01
 0.1793480393191E+01
 0.1891494303720E+01
 0.2031023959019E+01
 0.2215156866494E+01
 0.2444385426460E+01
 0.2716087656103E+01
 0.3024330181150E+01
 0.3360051200037E+01
 0.3711619734166E+01
 0.4065736897219E+01
 0.4408557008523E+01
 0.1853587367692E+01
 0.1904011343853E+01
 0.1953967106515E+01
 0.2001969129334E+01
 0.2046594371823E+01
 0.2086571474424E+01
 0.2120849407946E+01
 0.2148635556408E+01
 0.2169401147294E+01
 0.2182860066302E+01
 0.2188931104292E+01
 0.2187694064102E+01
 0.2179348518039E+01
 0.2164181238391E+01
 0.2142545675834E+01
 0.2114854675060E+01
 0.2081585966126E+01
 0.2043300415789E+01
 0.2000669282689E+01
 0.1954510773914E+01
 0.1905834442784E+01
 0.1855889593987E+01
 0.1806219555949E+01
 0.1758721333303E+01
 0.1715713810916E+01
 0.1680015258076E+01
 0.1655023319129E+01
 0.1644788227104E+01
 0.1654043834333E+01
 0.1688128974031E+01
 0.1752711846558E+01
 0.1853255603511E+01
 0.1994254068178E+01
 0.2178387104147E+01
 0.2405813716549E+01
 0.2673732110065E+01
 0.2976239213628E+01
 0.3304536798060E+01
 0.3647473982878E+01
 0.3992393509039E+01
 0.4326164579276E+01
 0.1785967868926E+01
 0.1833832484859E+01
 0.1881207889976E+01
 0.1926746502218E+01
 0.1969148891695E+01
 0.2007239060092E+01
 0.2040025700754E+01
 0.2066739925624E+01
 0.2086846019746E+01
 0.2100028869295E+01
 0.2106165688422E+01
 0.2105290665237E+01
 0.2097560323197E+01
 0.2083225337943E+01
 0.2062612366489E+01
 0.2036117479263E+01
 0.2004211174982E+01
 0.1967455284489E+01
 0.1926528369587E+01
 0.1882260003427E+01
 0.1835672598090E+01
 0.1788027129979E+01
 0.1740874615144E+01
 0.1696112425157E+01
 0.1656046969153E+01
 0.1623467923626E+01
 0.1601727769792E+01
 0.1594809898536E+01
 0.1607347371068E+01
 0.1644526000010E+01
 0.1711791069794E+01
 0.1814309196783E+01
 0.1956228129563E+01
 0.2139887964771E+01
 0.2365186028961E+01
 0.2629199208118E+01
 0.2926083685078E+01
 0.3247293267195E+01
 0.3582102340660E+01
 0.3918403173980E+01
 0.4243663860861E+01
 0.1718464912546E+01
 0.1763866587050E+01
 0.1808757763838E+01
 0.1851923670023E+01
 0.1892183523118E+01
 0.1928453448437E+01
 0.1959801224091E+01
 0.1985483707423E+01
 0.2004962313780E+01
 0.2017898121602E+01
 0.2024132117853E+01
 0.2023657602120E+01
 0.2016591630931E+01
 0.2003150944226E+01
 0.1983636047934E+01
 0.1958425370364E+01
 0.1927979854846E+01
 0.1892858577770E+01
 0.1853742353611E+01
 0.1811465801500E+01
 0.1767056678870E+01
 0.1721779043308E+01
 0.1677182099067E+01
 0.1635153443171E+01
 0.1597976686524E+01
 0.1568402825685E+01
 0.1549729658207E+01
 0.1545865593207E+01
 0.1561338051636E+01
 0.1601181863931E+01
 0.1670633572405E+01
 0.1774594731419E+01
 0.1916917293579E+01
 0.2099665395212E+01
 0.2322540103007E+01
 0.2582548757312E+01
 0.2873930778700E+01
 0.3188378919500E+01
 0.3515540404837E+01
 0.3843770616350E+01
 0.4161028114528E+01
 0.1651057590517E+01
 0.1694083214777E+01
 0.1736577617022E+01
 0.1777454973237E+01
 0.1815649029080E+01
 0.1850165025476E+01
 0.1880128818841E+01
 0.1904824234995E+01
 0.1923712910492E+01
 0.1936436355161E+01
 0.1942803898631E+01
 0.1942772132282E+01
 0.1936421910831E+01
 0.1923938069553E+01
 0.1905595608907E+01
 0.1881754534748E+01
 0.1852864048447E+01
 0.1819476922201E+01
 0.1782271367557E+01
 0.1742080955511E+01
 0.1699931543731E+01
 0.1657082004390E+01
 0.1615070621642E+01
 0.1575765537813E+01
 0.1541417758648E+01
 0.1514730070187E+01
 0.1498936684514E+01
 0.1497863636458E+01
 0.1515928828636E+01
 0.1558019352286E+01
 0.1629178307855E+01
 0.1734073928277E+01
 0.1876311110883E+01
 0.2057738125199E+01
 0.2277920014967E+01
 0.2533841226346E+01
 0.2819844981897E+01
 0.3127849294308E+01
 0.3447824296593E+01
 0.3768507010957E+01
 0.4078244191574E+01
 0.1583725089021E+01
 0.1624452105963E+01
 0.1664628627882E+01
 0.1703295071716E+01
 0.1739496332962E+01
 0.1772323943118E+01
 0.1800960481778E+01
 0.1824717242990E+01
 0.1843058286876E+01
 0.1855608929286E+01
 0.1862150698926E+01
 0.1862607153150E+01
 0.1857025911115E+01
 0.1845561809817E+01
 0.1828464994797E+01
 0.1806076362427E+01
 0.1778831336845E+01
 0.1747273028129E+01
 0.1712072415224E+01
 0.1674056188768E+01
 0.1634241365927E+01
 0.1593873720842E+01
 0.1554471916434E+01
 0.1517875414305E+01
 0.1486293285028E+01
 0.1462371052633E+01
 0.1449270933933E+01
 0.1450729748416E+01
 0.1471052675355E+01
 0.1514983078002E+01
 0.1587386481948E+01
 0.1692729273554E+01
 0.1834416288913E+01
 0.2014136712392E+01
 0.2231375678614E+01
 0.2483137717901E+01
 0.2763888371375E+01
 0.3065757481718E+01
 0.3378990747398E+01
 0.3692629658030E+01
 0.3995311750119E+01
 0.1516446571926E+01
 0.1554942967025E+01
 0.1592871996731E+01
 0.1629398663579E+01
 0.1663676279115E+01
 0.1694879966146E+01
 0.1722247322224E+01
 0.1745116933858E+01
 0.1762956674192E+01
 0.1775378254594E+01
 0.1782138611458E+01
 0.1783131480800E+01
 0.1778373938752E+01
 0.1767992617889E+01
 0.1752213471366E+01
 0.1731357700925E+01
 0.1705845083895E+01
 0.1676205923872E+01
 0.1643099591794E+01
 0.1607340359782E+01
 0.1569929799833E+01
 0.1532093054757E+01
 0.1495320884123E+01
 0.1461415287282E+01
 0.1432534508498E+01
 0.1411258164512E+01
 0.1400668439729E+01
 0.1404406460355E+01
 0.1426661857427E+01
 0.1472038617171E+01
 0.1545240589385E+01
 0.1650563040579E+01
 0.1791255838642E+01
 0.1968902964353E+01
 0.2182962629833E+01
 0.2430500085985E+01
 0.2706120911710E+01
 0.3002154374312E+01
 0.3309077080575E+01
 0.3616161570458E+01
 0.3912242463465E+01
 0.1449201079390E+01
 0.1485525288675E+01
 0.1521268705756E+01
 0.1555720235904E+01
 0.1588139424937E+01
 0.1617782345249E+01
 0.1643939535913E+01
 0.1665976052032E+01
 0.1683364216732E+01
 0.1695704013026E+01
 0.1702730410765E+01
 0.1704310124347E+01
 0.1700432136556E+01
 0.1691196574557E+01
 0.1676805884717E+01
 0.1657561101660E+01
 0.1633864666720E+01
 0.1606231166771E+01
 0.1575304269590E+01
 0.1541880613771E+01
 0.1506940085719E+01
 0.1471680064960E+01
 0.1437555554181E+01
 0.1406322743755E+01
 0.1380080564913E+01
 0.1361334422694E+01
 0.1353078695845E+01
 0.1358852524728E+01
 0.1382727262781E+01
 0.1429171790597E+01
 0.1502743697161E+01
 0.1607596654866E+01
 0.1746868621570E+01
 0.1922089748737E+01
 0.2132742115735E+01
 0.2375991234553E+01
 0.2646600822019E+01
 0.2937088916582E+01
 0.3238121160314E+01
 0.3539131037642E+01
 0.3829059282401E+01
 0.1381967438843E+01
 0.1416168174044E+01
 0.1449779293982E+01
 0.1482213832431E+01
 0.1512835848284E+01
 0.1540979698854E+01
 0.1565986377231E+01
 0.1587245944488E+01
 0.1604235105920E+01
 0.1616543344661E+01
 0.1623885771585E+01
 0.1626104517950E+01
 0.1623162715446E+01
 0.1615135611922E+01
 0.1602202869808E+01
 0.1584645009041E+01
 0.1562845640915E+01
 0.1537300978828E+01
 0.1508635196469E+01
 0.1477622433615E+01
 0.1445215040500E+01
 0.1412575922747E+01
 0.1381116910166E+01
 0.1352540464632E+01
 0.1328878093444E+01
 0.1312552971327E+01
 0.1306464066782E+01
 0.1314042263664E+01
 0.1339237731717E+01
 0.1386388029186E+01
 0.1459918910766E+01
 0.1563870334889E+01
 0.1701309226385E+01
 0.1873761119646E+01
 0.2080781415627E+01
 0.2319675524187E+01
 0.2585384938057E+01
 0.2870608278828E+01
 0.3166161223245E+01
 0.3461571042663E+01
 0.3745795611159E+01
 0.1314724186086E+01
 0.1346840179611E+01
 0.1378363650635E+01
 0.1408832846432E+01
 0.1437714984346E+01
 0.1464419924099E+01
 0.1488336155790E+01
 0.1508876638384E+01
 0.1525521724182E+01
 0.1537851038814E+01
 0.1545561488474E+01
 0.1548472753023E+01
 0.1546524186863E+01
 0.1539767736750E+01
 0.1528361057477E+01
 0.1512563944728E+01
 0.1492739895250E+01
 0.1469364363881E+01
 0.1443038565723E+01
 0.1414509650783E+01
 0.1384696996303E+01
 0.1354722763813E+01
 0.1325948641640E+01
 0.1300015867115E+01
 0.1278880767969E+01
 0.1264876513390E+01
 0.1260799147247E+01
 0.1269964903232E+01
 0.1296199429759E+01
 0.1343711863064E+01
 0.1416809063268E+01
 0.1519443052925E+01
 0.1654648228814E+01
 0.1823992826509E+01
 0.2027154473014E+01
 0.2261619377481E+01
 0.2522529176797E+01
 0.2802758089882E+01
 0.3093235743924E+01
 0.3383518677448E+01
 0.3662494490470E+01
 0.1247449495658E+01
 0.1277509164160E+01
 0.1306980820903E+01
 0.1335529832742E+01
 0.1362725486786E+01
 0.1388050132339E+01
 0.1410936252609E+01
 0.1430816929966E+01
 0.1447174791078E+01
 0.1459579719808E+01
 0.1467711684905E+01
 0.1471369796972E+01
 0.1470471580083E+01
 0.1465047237247E+01
 0.1455233262602E+01
 0.1441268669141E+01
 0.1423495777804E+01
 0.1402367188332E+01
 0.1378458039877E+01
 0.1352484399237E+01
 0.1325327670561E+01
 0.1298063460814E+01
 0.1271996807620E+01
 0.1248700652814E+01
 0.1230048733283E+01
 0.1218276653254E+01
 0.1216070049167E+01
 0.1226623866473E+01
 0.1253635231976E+01
 0.1301186500592E+01
 0.1373476594403E+01
 0.1474392789010E+01
 0.1606972818620E+01
 0.1772873201152E+01
 0.1971942838352E+01
 0.2201892075859E+01
 0.2458089092018E+01
 0.2733582733117E+01
 0.3019383356521E+01
 0.3305014522780E+01
 0.3579207751271E+01
 0.1180121116676E+01
 0.1208142138451E+01
 0.1235588814655E+01
 0.1262256329139E+01
 0.1287815103283E+01
 0.1311816598804E+01
 0.1333733143938E+01
 0.1353014470371E+01
 0.1369143494349E+01
 0.1381680007021E+01
 0.1390287988560E+01
 0.1394747672554E+01
 0.1394956616249E+01
 0.1390924843217E+01
 0.1382768621807E+01
 0.1370706287482E+01
 0.1355058159869E+01
 0.1336252191172E+01
 0.1314834693715E+01
 0.1291486977382E+01
 0.1267047932573E+01
 0.1242541281255E+01
 0.1219209375706E+01
 0.1198550224453E+01
 0.1182347906645E+01
 0.1172733106785E+01
 0.1172273566922E+01
 0.1184035969020E+01
 0.1211584055391E+01
 0.1258873428662E+01
 0.1330003550618E+01
 0.1428817015931E+01
 0.1558387746178E+01
 0.1720504391296E+01
 0.1915236893996E+01
 0.2140566700840E+01
 0.2392120454198E+01
 0.2663125661373E+01
 0.2944642828462E+01
 0.3226101949419E+01
 0.3495994945638E+01
 0.1112716314519E+01
 0.1138705120628E+01
 0.1164144429659E+01
 0.1188962707028E+01
 0.1212930594398E+01
 0.1235664763345E+01
 0.1256672476466E+01
 0.1275415897788E+01
 0.1291375660564E+01
 0.1304100708914E+01
 0.1313239737507E+01
 0.1318555667475E+01
 0.1319927913549E+01
 0.1317347918588E+01
 0.1310912763980E+01
 0.1300820387360E+01
 0.1287368528206E+01
 0.1270959016822E+01
 0.1252106972487E+01
 0.1231455715827E+01
 0.1209797565415E+01
 0.1188099530001E+01
 0.1167535735653E+01
 0.1149523068294E+01
 0.1135749238693E+01
 0.1128232868378E+01
 0.1129416303991E+01
 0.1142230593389E+01
 0.1170100209313E+01
 0.1216852101978E+01
 0.1286491780466E+01
 0.1382833509704E+01
 0.1509016717705E+01
 0.1667004111729E+01
 0.1857137561391E+01
 0.2077721412726E+01
 0.2324680027694E+01
 0.2591429953027E+01
 0.2869053433364E+01
 0.3146826660344E+01
 0.3412922251953E+01
 0.1045211814810E+01
 0.1069162982772E+01
 0.1092603068422E+01
 0.1115598025643E+01
 0.1138017664365E+01
 0.1159539243475E+01
 0.1179699145868E+01
 0.1197966957832E+01
 0.1213817897133E+01
 0.1226788973375E+01
 0.1236514131065E+01
 0.1242740480428E+01
 0.1245331122965E+01
 0.1244260579794E+01
 0.1239607901985E+01
 0.1231551092203E+01
 0.1220364986410E+01
 0.1206424149006E+01
 0.1190210541737E+01
 0.1172326726387E+01
 0.1153514898204E+01
 0.1134681051298E+01
 0.1116926062210E+01
 0.1101579976513E+01
 0.1090227806212E+01
 0.1084769203603E+01
 0.1087513622992E+01
 0.1101248693978E+01
 0.1129252603033E+01
 0.1175219548429E+01
 0.1243063145596E+01
 0.1336581309967E+01
 0.1459004081132E+01
 0.1612507780386E+01
 0.1797758365554E+01
 0.2013440887735E+01
 0.2255826261750E+01
 0.2518538820314E+01
 0.2792655613638E+01
 0.3067236351172E+01
 0.3330060872423E+01
 0.9775837480311E+00
 0.9994792952689E+00
 0.1020918565511E+01
 0.1042109919418E+01
 0.1063020945462E+01
 0.1083383910781E+01
 0.1102757436880E+01
 0.1120612676183E+01
 0.1136415775519E+01
 0.1149690470432E+01
 0.1160056407947E+01
 0.1167246392759E+01
 0.1171109090152E+01
 0.1171603841479E+01
 0.1168792952290E+01
 0.1162835141742E+01
 0.1153982280502E+01
 0.1142580863769E+01
 0.1129078148991E+01
 0.1114033653695E+01
 0.1098136430271E+01
 0.1082227711071E+01
 0.1067330646091E+01
 0.1054683225323E+01
 0.1045761848063E+01
 0.1042340572557E+01
 0.1046588516068E+01
 0.1061141719620E+01
 0.1089123887314E+01
 0.1134089960418E+01
 0.1199859822502E+01
 0.1290221931906E+01
 0.1408516955867E+01
 0.1557171266745E+01
 0.1737228157511E+01
 0.1947818206850E+01
 0.2185620055171E+01
 0.2444496206555E+01
 0.2715492449619E+01
 0.2987381207470E+01
 0.3247484983074E+01
 0.9098075943352E+00
 0.9296161633301E+00
 0.9490430222296E+00
 0.9684445193298E+00
 0.9878840382452E+00
 0.1007142030241E+01
 0.1025791218421E+01
 0.1043297569971E+01
 0.1059114035758E+01
 0.1072749582349E+01
 0.1083810022958E+01
 0.1092015434216E+01
 0.1097202009703E+01
 0.1099315753970E+01
 0.1098403645589E+01
 0.1094605961586E+01
 0.1088151810090E+01
 0.1079359162612E+01
 0.1068639458193E+01
 0.1056507390499E+01
 0.1043596408549E+01
 0.1030679821002E+01
 0.1018699154552E+01
 0.1008795669618E+01
 0.1002331703143E+01
 0.1000949438866E+01
 0.1006670343361E+01
 0.1021970390035E+01
 0.1049809450361E+01
 0.1093594176459E+01
 0.1157044590797E+01
 0.1243940737295E+01
 0.1357747752775E+01
 0.1501174262524E+01
 0.1675694590272E+01
 0.1880957295562E+01
 0.2114125424985E+01
 0.2369347053176E+01
 0.2637612103242E+01
 0.2907315957242E+01
 0.3165268843176E+01
 0.8418581227712E+00
 0.8595340480405E+00
 0.8769266461932E+00
 0.8945464127343E+00
 0.9125496143848E+00
 0.9307564648623E+00
 0.9487441873924E+00
 0.9659658816830E+00
 0.9818567875431E+00
 0.9959095700317E+00
 0.1007716786600E+01
 0.1016987503778E+01
 0.1023547530100E+01
 0.1027331488621E+01
 0.1028372582608E+01
 0.1026793674552E+01
 0.1022801576515E+01
 0.1016685636265E+01
 0.1008820806687E+01
 0.9996757057662E+00
 0.9898263067138E+00
 0.9799754521565E+00
 0.9709797681972E+00
 0.9638796989418E+00
 0.9599185920362E+00
 0.9606009005095E+00
 0.9677933664744E+00
 0.9838032380176E+00
 0.1011416158417E+01
 0.1053878917750E+01
 0.1114800952838E+01
 0.1197948312429E+01
 0.1306916972917E+01
 0.1444724228930E+01
 0.1613328420562E+01
 0.1812976112872E+01
 0.2041409914768E+01
 0.2293136339469E+01
 0.2559071134461E+01
 0.2827105081094E+01
 0.3083482108215E+01
 0.7737093260464E+00
 0.7891915877910E+00
 0.8045176369150E+00
 0.8203587089738E+00
 0.8369596675211E+00
 0.8541700388993E+00
 0.8715602558708E+00
 0.8885619307490E+00
 0.9045878055397E+00
 0.9191128184849E+00
 0.9317170772234E+00
 0.9421005627687E+00
 0.9500809340428E+00
 0.9555835025590E+00
 0.9586293726702E+00
 0.9593251964609E+00
 0.9578562148979E+00
 0.9544834090715E+00
 0.9495450367089E+00
 0.9434629384338E+00
 0.9367543585400E+00
 0.9300497892502E+00
 0.9241183428051E+00
 0.9198962004549E+00
 0.9185033841075E+00
 0.9213012791565E+00
 0.9299952064091E+00
 0.9467150360467E+00
 0.9740609439681E+00
 0.1015105864438E+01
 0.1073333160847E+01
 0.1152481947064E+01
 0.1256276460394E+01
 0.1388061216292E+01
 0.1550329067352E+01
 0.1744011433393E+01
 0.1967545430727E+01
 0.2215905761271E+01
 0.2479938242059E+01
 0.2746835171608E+01
 0.3002182297376E+01
 0.7053343444856E+00
 0.7185454095757E+00
 0.7317621216672E+00
 0.7458232269189E+00
 0.7610559246615E+00
 0.7773260510521E+00
 0.7941840426711E+00
 0.8110305133122E+00
 0.8272508236671E+00
 0.8423010457295E+00
 0.8557499940675E+00
 0.8672907554613E+00
 0.8767352381537E+00
 0.8840016172445E+00
 0.8891006814158E+00
 0.8921242363017E+00
 0.8932369250609E+00
 0.8926719756731E+00
 0.8907312111811E+00
 0.8877895659256E+00
 0.8843049550439E+00
 0.8808343362928E+00
 0.8780574085133E+00
 0.8768033426696E+00
 0.8780651641603E+00
 0.8830564798303E+00
 0.8933150302066E+00
 0.9107848942987E+00
 0.9378689969401E+00
 0.9774502783466E+00
 0.1032865801597E+01
 0.1107806826387E+01
 0.1206112716026E+01
 0.1331463311594E+01
 0.1486931100148E+01
 0.1674225349601E+01
 0.1892610663126E+01
 0.2137685223455E+01
 0.2400293847297E+01
 0.2666641674304E+01
 0.2921401589391E+01
 0.6367053759954E+00
 0.6475499699122E+00
 0.6586042439830E+00
 0.6708809632663E+00
 0.6847806055339E+00
 0.7001691223546E+00
 0.7165616368940E+00
 0.7333175015414E+00
 0.7497899705902E+00
 0.7654156157344E+00
 0.7797535950041E+00
 0.7924926065952E+00
 0.8034413678479E+00
 0.8125131728035E+00
 0.8197103551048E+00
 0.8251113728492E+00
 0.8288614770453E+00
 0.8311671080990E+00
 0.8322943929616E+00
 0.8325718262004E+00
 0.8323980822956E+00
 0.8322561473570E+00
 0.8327351759528E+00
 0.8345553447795E+00
 0.8385797583843E+00
 0.8458702751722E+00
 0.8577916136692E+00
 0.8760941665832E+00
 0.9029716750434E+00
 0.9410992577221E+00
 0.9936429822591E+00
 0.1064216978693E+01
 0.1156750349863E+01
 0.1275252962307E+01
 0.1423412430333E+01
 0.1603812936783E+01
 0.1816700062862E+01
 0.2058478830663E+01
 0.2320210226449E+01
 0.2586770537771E+01
 0.2841111702395E+01
 0.5677935684590E+00
 0.5761574874990E+00
 0.5849865576604E+00
 0.5954730750254E+00
 0.6080777855681E+00
 0.6226465944088E+00
 0.6386417876424E+00
 0.6553707383083E+00
 0.6721503984990E+00
 0.6883979780555E+00
 0.7036652224468E+00
 0.7176392863110E+00
 0.7301283885719E+00
 0.7410432323940E+00
 0.7503795905826E+00
 0.7582041729853E+00
 0.7646442538093E+00
 0.7698807941636E+00
 0.7741454475155E+00
 0.7777213528574E+00
 0.7809487593105E+00
 0.7842370419428E+00
 0.7880845090372E+00
 0.7931011916269E+00
 0.8000181798920E+00
 0.8097424740919E+00
 0.8234612369340E+00
 0.8427241105735E+00
 0.8695040554028E+00
 0.9062494920781E+00
 0.9559269239100E+00
 0.1022035661776E+01
 0.1108555514092E+01
 0.1219803658459E+01
 0.1360105141271E+01
 0.1533010559642E+01
 0.1739935768086E+01
 0.1978276788903E+01
 0.2239641160928E+01
 0.2507729178678E+01
 0.2761182073009E+01
 0.4985688708537E+00
 0.5043181472818E+00
 0.5108510398762E+00
 0.5195428982428E+00
 0.5308959034280E+00
 0.5447109319046E+00
 0.5603778426013E+00
 0.5771414284080E+00
 0.5942792151732E+00
 0.6111902815422E+00
 0.6274219227166E+00
 0.6426629188186E+00
 0.6567237490272E+00
 0.6695147769610E+00
 0.6810270798605E+00
 0.6913172722618E+00
 0.7004962456427E+00
 0.7087211176708E+00
 0.7161907770076E+00
 0.7231447299243E+00
 0.7298663820310E+00
 0.7366927107990E+00
 0.7440317704037E+00
 0.7523832006385E+00
 0.7623449003641E+00
 0.7746668808335E+00
 0.7903553157903E+00
 0.8107531953390E+00
 0.8376019909230E+00
 0.8731043261979E+00
 0.9199956383871E+00
 0.9816148401855E+00
 0.1061938486664E+01
 0.1165547743390E+01
 0.1297404792196E+01
 0.1462117705718E+01
 0.1662449672608E+01
 0.1897151474810E+01
 0.2158239103918E+01
 0.2430219273741E+01
 0.2681683109355E+01
 0.4289988108946E+00
 0.4319722410971E+00
 0.4361270420686E+00
 0.4430192098753E+00
 0.4531651340742E+00
 0.4662901554995E+00
 0.4816907847598E+00
 0.4985399044845E+00
 0.5160744243695E+00
 0.5336780499180E+00
 0.5508974367959E+00
 0.5674264690574E+00
 0.5830806586305E+00
 0.5977722003011E+00
 0.6114892928308E+00
 0.6242801616910E+00
 0.6362410996189E+00
 0.6475073614042E+00
 0.6582472843822E+00
 0.6686591196284E+00
 0.6789717834412E+00
 0.6894519032002E+00
 0.7004187036553E+00
 0.7122619715688E+00
 0.7254459588940E+00
 0.7405622784896E+00
 0.7584334954248E+00
 0.7801909480590E+00
 0.8073346609801E+00
 0.8418022363219E+00
 0.8860639635760E+00
 0.9432450071643E+00
 0.1017248838654E+01
 0.1112851872115E+01
 0.1235627384039E+01
 0.1391308393760E+01
 0.1584243550014E+01
 0.1814775788278E+01
 0.2076140431717E+01
 0.2351374394403E+01
 0.2612922998238E+01
 0.3590502552101E+00
 0.3590687188372E+00
 0.3607665560409E+00
 0.3658680434142E+00
 0.3748632859625E+00
 0.3873653930997E+00
 0.4025572054272E+00
 0.4195337493275E+00
 0.4374932750379E+00
 0.4558087466291E+00
 0.4740306972512E+00
 0.4918615873350E+00
 0.5091244267877E+00
 0.5257350649419E+00
 0.5416803861728E+00
 0.5570018342627E+00
 0.5717829692026E+00
 0.5861394406338E+00
 0.6002117302859E+00
 0.6141598976546E+00
 0.6281615894920E+00
 0.6424161257327E+00
 0.6571563872251E+00
 0.6726639292129E+00
 0.6892700097917E+00
 0.7074076476364E+00
 0.7277146437732E+00
 0.7511074921510E+00
 0.7788368709341E+00
 0.8125579074493E+00
 0.8544415954790E+00
 0.9073408972334E+00
 0.9750012226658E+00
 0.1062297158836E+01
 0.1175346027907E+01
 0.1321051469668E+01
 0.1505553788604E+01
 0.1731273097042E+01
 0.1992750893300E+01
 0.2273060377896E+01
 0.2543374156817E+01
 0.2886924098285E+00
 0.2855734224134E+00
 0.2847643289446E+00
 0.2881216582757E+00
 0.2960463454921E+00
 0.3079970290214E+00
 0.3230289455744E+00
 0.3401615062626E+00
 0.3585615585959E+00
 0.3775981020067E+00
 0.3968302365447E+00
 0.4159717737358E+00
 0.4348547876167E+00
 0.4533998182074E+00
 0.4715934358523E+00
 0.4894715941515E+00
 0.5071069172572E+00
 0.5245978863129E+00
 0.5420602574761E+00
 0.5596196577350E+00
 0.5774066279817E+00
 0.5955573714557E+00
 0.6142222006425E+00
 0.6335774482236E+00
 0.6538235264690E+00
 0.6752363784335E+00
 0.6982700170040E+00
 0.7236256344600E+00
 0.7523000901458E+00
 0.7856524484873E+00
 0.8255233234201E+00
 0.8744338357875E+00
 0.9358745716293E+00
 0.1014690302822E+01
 0.1117426308472E+01
 0.1252142440580E+01
 0.1426993602221E+01
 0.1646910156058E+01
 0.1908425836462E+01
 0.2194640502198E+01
 0.2474146691150E+01
 0.2178938239685E+00
 0.2114750480533E+00
 0.2081891782043E+00
 0.2099251413325E+00
 0.2168844358277E+00
 0.2283311007643E+00
 0.2432049747661E+00
 0.2604737201671E+00
 0.2792898115588E+00
 0.2990267823194E+00
 0.3192552876466E+00
 0.3397007969996E+00
 0.3602038522607E+00
 0.3806891364122E+00
 0.4011428719046E+00
 0.4215962284859E+00
 0.4421124674988E+00
 0.4627754227516E+00
 0.4836796252306E+00
 0.5049206758486E+00
 0.5265870761275E+00
 0.5487572041613E+00
 0.5715037924108E+00
 0.5949022126328E+00
 0.6190254564853E+00
 0.6439953220968E+00
 0.6700847739384E+00
 0.6977816004080E+00
 0.7278275534576E+00
 0.7612761649495E+00
 0.7996109917325E+00
 0.8449635393494E+00
 0.9004649211416E+00
 0.9707733785479E+00
 0.1062686365238E+01
 0.1185335874559E+01
 0.1349064119237E+01
 0.1561867303046E+01
 0.1823028788923E+01
 0.2115990289040E+01
 0.2406497328822E+01
 0.1466338184995E+00
 0.1369018440490E+00
 0.1314842775575E+00
 0.1319705692209E+00
 0.1380987825031E+00
 0.1489504736855E+00
 0.1634827712035E+00
 0.1807084488421E+00
 0.1998016421834E+00
 0.2201427675949E+00
 0.2413053092010E+00
 0.2630167169993E+00
 0.2851184846876E+00
 0.3075345081969E+00
 0.3302479965478E+00
 0.3532845496388E+00
 0.3766988928289E+00
 0.4005625084015E+00
 0.4249523846961E+00
 0.4499390428866E+00
 0.4755748740206E+00
 0.5018868426229E+00
 0.5288763642022E+00
 0.5565234440658E+00
 0.5847784358972E+00
 0.6136134141408E+00
 0.6431248939426E+00
 0.6735916685951E+00
 0.7055026291817E+00
 0.7396013252927E+00
 0.7769941598769E+00
 0.8193714456801E+00
 0.8693990051619E+00
 0.9313679536671E+00
 0.1012087935778E+01
 0.1121575493415E+01
 0.1272459011948E+01
 0.1476415365739E+01
 0.1736457022644E+01
 0.2037180809548E+01
 0.2340789189977E+01
 0.7497165997029E-01
 0.6302272080353E-01
 0.5807284862051E-01
 0.5922856467848E-01
 0.6439568726745E-01
 0.7325259683998E-01
 0.8594253255589E-01
 0.1020272515758E+00
 0.1207119683523E+00
 0.1412558458887E+00
 0.1631219998292E+00
 0.1859669667962E+00
 0.2095909797844E+00
 0.2338937945219E+00
 0.2588432274409E+00
 0.2844534081171E+00
 0.3107687044865E+00
 0.3378492774913E+00
 0.3657578374169E+00
 0.3945449534824E+00
 0.4242334966807E+00
 0.4548064702846E+00
 0.4862015210523E+00
 0.5183102749699E+00
 0.5509666610762E+00
 0.5839990134007E+00
 0.6173339264704E+00
 0.6510482003847E+00
 0.6853838324881E+00
 0.7207755837809E+00
 0.7579410521596E+00
 0.7980885329895E+00
 0.8433200664552E+00
 0.8973658783789E+00
 0.9667440955186E+00
 0.1062036682400E+01
 0.1198119824576E+01
 0.1390977637179E+01
 0.1648672321311E+01
 0.1958102914289E+01
 0.2277286655029E+01
 0.8408429253348E-02
 0.2890500982423E-01
 0.4600336632209E-01
 0.5342208009803E-01
 0.5207168900718E-01
 0.4533310919993E-01
 0.3824501549184E-01
 0.3764782181862E-01
 0.4741172855921E-01
 0.6457585224463E-01
 0.8565696073232E-01
 0.1089705269932E+00
 0.1337952138993E+00
 0.1598179391283E+00
 0.1869119546942E+00
 0.2150451938849E+00
 0.2442366967763E+00
 0.2745301089628E+00
 0.3059742006971E+00
 0.3386035420577E+00
 0.3724179826376E+00
 0.4073646721245E+00
 0.4433261781310E+00
 0.4801141243237E+00
 0.5174537152854E+00
 0.5550371576681E+00
 0.5926296361803E+00
 0.6301155641201E+00
 0.6674997359373E+00
 0.7049152193767E+00
 0.7426889244764E+00
 0.7815212071234E+00
 0.8228688877456E+00
 0.8697105559297E+00
 0.9279177949302E+00
 0.1008165198660E+01
 0.1127314347007E+01
 0.1306219780372E+01
 0.1559664298383E+01
 0.1878538526281E+01
 0.2216256633047E+01
 0.7156259999241E-01
 0.9918880062121E-01
 0.1188498922953E+00
 0.1265780464156E+00
 0.1234682188567E+00
 0.1125142979465E+00
 0.9654367002359E-01
 0.7761784272029E-01
 0.5733481956955E-01
 0.3800662960731E-01
 0.2715771244892E-01
 0.3695434685709E-01
 0.5928366769539E-01
 0.8586760854187E-01
 0.1146495331020E+00
 0.1450960802085E+00
 0.1770594373261E+00
 0.2105163838305E+00
 0.2454839561519E+00
 0.2819769130643E+00
 0.3199754104913E+00
 0.3593980512623E+00
 0.4000815372269E+00
 0.4417670742939E+00
 0.4840803392569E+00
 0.5265867207427E+00
 0.5689005322076E+00
 0.6107259621474E+00
 0.6518438356815E+00
 0.6920983711851E+00
 0.7314342457421E+00
 0.7700360041900E+00
 0.8086604554351E+00
 0.8493676712884E+00
 0.8970040980449E+00
 0.9617065765775E+00
 0.1061737531863E+01
 0.1223160739259E+01
 0.1469500683079E+01
 0.1798184015313E+01
 0.2157987797914E+01
 0.1452079466390E+00
 0.1777270773352E+00
 0.2002518596838E+00
 0.2088854220760E+00
 0.2055407303357E+00
 0.1939140424720E+00
 0.1770648494221E+00
 0.1568938369328E+00
 0.1344406479776E+00
 0.1102752903780E+00
 0.8479553824669E-01
 0.5856543986087E-01
 0.3363770176489E-01
 0.2346896212949E-01
 0.4426457116833E-01
 0.7519139965596E-01
 0.1093751998580E+00
 0.1457832844566E+00
 0.1841898372795E+00
 0.2245294243703E+00
 0.2667463607056E+00
 0.3107311731417E+00
 0.3562821902626E+00
 0.4030802781457E+00
 0.4506621599513E+00
 0.4984774751818E+00
 0.5460022849927E+00
 0.5927751764836E+00
 0.6383694307126E+00
 0.6823584343432E+00
 0.7243231231717E+00
 0.7639440312622E+00
 0.8012576674382E+00
 0.8372854193328E+00
 0.8754901219304E+00
 0.9247145388321E+00
 0.1003623887363E+01
 0.1143345173783E+01
 0.1378430213132E+01
 0.1716653565019E+01
 0.2102805214785E+01
 0.2198466402083E+00
 0.2584877811696E+00
 0.2843410022619E+00
 0.2938501543640E+00
 0.2902178285390E+00
 0.2780616408240E+00
 0.2607225588074E+00
 0.2400388135924E+00
 0.2169010999529E+00
 0.1917282895007E+00
 0.1647272149722E+00
 0.1360190879132E+00
 0.1057196094266E+00
 0.7407732314254E-01
 0.4218320658198E-01
 0.2069633503990E-01
 0.4300311102624E-01
 0.8064668520675E-01
 0.1220799023998E+00
 0.1661441620968E+00
 0.2125689437211E+00
 0.2611771418865E+00
 0.3117254232986E+00
 0.3638424251177E+00
 0.4169873806212E+00
 0.4705070513151E+00
 0.5237540200178E+00
 0.5761182319264E+00
 0.6269845435292E+00
 0.6756777298452E+00
 0.7214423145746E+00
 0.7634860854191E+00
 0.8011441122856E+00
 0.8343462691322E+00
 0.8648892139775E+00
 0.8995198422217E+00
 0.9558567288440E+00
 0.1069095303897E+01
 0.1287061464607E+01
 0.1633481846917E+01
 0.2051091063215E+01
 0.2954818857141E+00
 0.3412153079246E+00
 0.3705269015638E+00
 0.3805799392557E+00
 0.3763942590761E+00
 0.3636526610519E+00
 0.3458975218040E+00
 0.3248254480385E+00
 0.3011628637130E+00
 0.2752192306618E+00
 0.2471335945087E+00
 0.2169720462724E+00
 0.1847665540485E+00
 0.1505367659474E+00
 0.1143255550749E+00
 0.7633502792312E-01
 0.3794667780747E-01
 0.2180645940631E-01
 0.5970938117438E-01
 0.1067947079229E+00
 0.1572914648142E+00
 0.2105396159101E+00
 0.2661908239937E+00
 0.3238182688703E+00
 0.3828144074586E+00
 0.4424377544241E+00
 0.5019344546224E+00
 0.5605649550061E+00
 0.6175468818162E+00
 0.6719815092355E+00
 0.7228110523046E+00
 0.7688191934157E+00
 0.8086980902891E+00
 0.8413143132094E+00
 0.8666498950385E+00
 0.8886408370193E+00
 0.9220385196105E+00
 0.1003854517189E+01
 0.1196675718512E+01
 0.1548148822815E+01
 0.2003323417370E+01
 0.3722571211378E+00
 0.4260836407365E+00
 0.4587415196027E+00
 0.4687804158450E+00
 0.4637128782783E+00
 0.4503506622269E+00
 0.4322633493447E+00
 0.4108939216177E+00
 0.3867782240616E+00
 0.3601260959625E+00
 0.3310301501170E+00
 0.2995344323957E+00
 0.2656548637834E+00
 0.2293847582324E+00
 0.1906995751246E+00
 0.1495713412796E+00
 0.1060220758699E+00
 0.6042614115902E-01
 0.1906616445282E-01
 0.4717671761240E-01
 0.1008279175792E+00
 0.1586192633869E+00
 0.2194404872721E+00
 0.2827472700766E+00
 0.3478694096862E+00
 0.4139932160819E+00
 0.4802778634990E+00
 0.5458754312625E+00
 0.6098588536077E+00
 0.6711323487719E+00
 0.7283738511901E+00
 0.7800050434322E+00
 0.8241697042731E+00
 0.8587833530780E+00
 0.8820453115572E+00
 0.8946226488761E+00
 0.9064639702299E+00
 0.9526090362048E+00
 0.1109777961826E+01
 0.1460170886789E+01
 0.1960153222700E+01
 0.4504020031164E+00
 0.5134171110461E+00
 0.5489990673386E+00
 0.5582310500733E+00
 0.5519637346667E+00
 0.5380370206853E+00
 0.5197583347705E+00
 0.4981975664145E+00
 0.4736912611070E+00
 0.4463667578871E+00
 0.4162879340744E+00
 0.3834923385526E+00
 0.3479956340455E+00
 0.3097884138585E+00
 0.2688340952823E+00
 0.2250710116418E+00
 0.1784223398174E+00
 0.1288300661715E+00
 0.7640958486620E-01
 0.2380108148141E-01
 0.4366050217671E-01
 0.1052400242901E+00
 0.1712206338525E+00
 0.2403424026216E+00
 0.3118437726225E+00
 0.3848548134599E+00
 0.4584698359492E+00
 0.5317553633162E+00
 0.6036626451518E+00
 0.6729249677247E+00
 0.7379944867111E+00
 0.7970006386517E+00
 0.8476620790906E+00
 0.8871309196542E+00
 0.9120531584901E+00
 0.9198013296811E+00
 0.9139258912583E+00
 0.9223045558460E+00
 0.1031051998630E+01
 0.1369362557591E+01
 0.1922564384712E+01
 0.5302686026280E+00
 0.6036578947820E+00
 0.6412590835162E+00
 0.6486448735938E+00
 0.6409716888983E+00
 0.6266861941268E+00
 0.6084225352946E+00
 0.5867905690675E+00
 0.5619516821033E+00
 0.5339792236030E+00
 0.5029293275498E+00
 0.4688475680549E+00
 0.4317593629223E+00
 0.3916608985882E+00
 0.3485141350981E+00
 0.3022461762206E+00
 0.2527530241209E+00
 0.1999112366966E+00
 0.1436039761419E+00
 0.8383239299175E-01
 0.2257947708860E-01
 0.5044826186557E-01
 0.1212680886486E+00
 0.1962892487600E+00
 0.2743913904243E+00
 0.3546577615281E+00
 0.4361427869075E+00
 0.5178513654282E+00
 0.5986354005022E+00
 0.6770814818119E+00
 0.7514513790530E+00
 0.8196517956669E+00
 0.8791171081101E+00
 0.9264824552039E+00
 0.9572409206663E+00
 0.9659962170798E+00
 0.9492875563303E+00
 0.9220623834003E+00
 0.9689292276487E+00
 0.1276526781573E+01
 0.1892227241719E+01
 0.6124180566703E+00
 0.6973655788741E+00
 0.7352931290572E+00
 0.7395952454944E+00
 0.7305929312262E+00
 0.7163524757212E+00
 0.6983607811039E+00
 0.6767782860622E+00
 0.6516534098995E+00
 0.6230433817190E+00
 0.5910214459407E+00
 0.5556561290618E+00
 0.5169913303179E+00
 0.4750341460024E+00
 0.4297489464058E+00
 0.3810563559417E+00
 0.3288358684593E+00
 0.2729336718521E+00
 0.2131737727720E+00
 0.1493834571485E+00
 0.8149378996838E-01
 0.1278590686752E-01
 0.6934593991458E-01
 0.1502457341952E+00
 0.2351257163380E+00
 0.3229867234281E+00
 0.4128711712029E+00
 0.5037462792456E+00
 0.5943845846450E+00
 0.6832470591941E+00
 0.7684344719374E+00
 0.8476907866343E+00
 0.9183067476202E+00
 0.9766866829751E+00
 0.1017680055403E+01
 0.1034149846788E+01
 0.1016735056499E+01
 0.9629055748731E+00
 0.9378554052395E+00
 0.1185221412729E+01
 0.1872339573588E+01
 0.6977994863788E+00
 0.7951880111754E+00
 0.8304585361709E+00
 0.8304826591113E+00
 0.8207785736937E+00
 0.8071857218995E+00
 0.7897315961895E+00
 0.7683020720875E+00
 0.7429154498977E+00
 0.7136581956741E+00
 0.6806482977722E+00
 0.6439916112051E+00
 0.6037583773000E+00
 0.5599706064562E+00
 0.5125970011426E+00
 0.4615527766652E+00
 0.4067025355462E+00
 0.3478673577706E+00
 0.2848325609047E+00
 0.2173606167603E+00
 0.1452171997557E+00
 0.6827714448465E-01
 0.1601686742896E-01
 0.1018438624984E+00
 0.1936163761428E+00
 0.2893706306512E+00
 0.3881662767191E+00
 0.4889546618112E+00
 0.5904436620613E+00
 0.6909859004547E+00
 0.7885433228500E+00
 0.8807393734269E+00
 0.9648348672837E+00
 0.1037298029369E+01
 0.1092912775141E+01
 0.1124013225619E+01
 0.1118555919835E+01
 0.1056599724667E+01
 0.9607808048673E+00
 0.1106193550105E+01
 0.1869831402432E+01
 0.7881434805815E+00
 0.8976752875856E+00
 0.9252708120360E+00
 0.9206243341923E+00
 0.9117090639602E+00
 0.8994366893596E+00
 0.8827420922885E+00
 0.8615338936196E+00
 0.8358730016317E+00
 0.8059325306997E+00
 0.7719004125895E+00
 0.7339329309724E+00
 0.6921331512329E+00
 0.6465408039012E+00
 0.5971297478291E+00
 0.5438095375354E+00
 0.4864292751570E+00
 0.4247848714673E+00
 0.3586256928225E+00
 0.2876635380968E+00
 0.2115853431816E+00
 0.1300750281050E+00
 0.4296642673778E-01
 0.5070539568448E-01
 0.1493850326487E+00
 0.2532762214301E+00
 0.3614704032723E+00
 0.4729187025213E+00
 0.5862684892940E+00
 0.6997771079547E+00
 0.8112861434316E+00
 0.9183159576788E+00
 0.1018159460287E+01
 0.1107570772055E+01
 0.1181941750498E+01
 0.1234125441695E+01
 0.1253483648808E+01
 0.1212495100476E+01
 0.1070628787815E+01
 0.1067937452568E+01
 0.1901827141440E+01
 0.8869317876673E+00
 0.1004437717940E+01
 0.1016669641523E+01
 0.1009756866830E+01
 0.1003926700899E+01
 0.9934175851542E+00
 0.9776572617170E+00
 0.9566685255720E+00
 0.9306721539436E+00
 0.8999798771529E+00
 0.8648695145556E+00
 0.8255587548638E+00
 0.7821876739761E+00
 0.7348152209604E+00
 0.6834202068783E+00
 0.6279054524999E+00
 0.5681031034441E+00
 0.5037824762507E+00
 0.4346564328008E+00
 0.3603883548522E+00
 0.2805996243337E+00
 0.1948714434078E+00
 0.1027667291723E+00
 0.4772480078432E-02
 0.1018998508147E+00
 0.2140994225911E+00
 0.3321501121732E+00
 0.4550048062967E+00
 0.5812353606094E+00
 0.7090100057584E+00
 0.8360774839091E+00
 0.9598483381904E+00
 0.1077627617069E+01
 0.1186528513929E+01
 0.1283118755392E+01
 0.1362227959173E+01
 0.1415918191586E+01
 0.1429724428609E+01
 0.1308319422707E+01
 0.1137947221214E+01
 0.2018134603753E+01
 0.1002226182574E+01
 0.1110270933205E+01
 0.1099652835638E+01
 0.1099520089022E+01
 0.1098011789339E+01
 0.1089548665692E+01
 0.1074792601970E+01
 0.1053913861844E+01
 0.1027466281472E+01
 0.9959135939266E+00
 0.9596450133785E+00
 0.9189440090165E+00
 0.8739898321282E+00
 0.8248603320248E+00
 0.7715380659201E+00
 0.7139172621439E+00
 0.6518111328420E+00
 0.5849605352838E+00
 0.5130404096236E+00
 0.4356661383883E+00
 0.3523981336222E+00
 0.2627353779351E+00
 0.1660949984851E+00
 0.6184259200790E-01
 0.5056742592991E-01
 0.1711532776044E+00
 0.2994882628581E+00
 0.4345011519337E+00
 0.5746417313337E+00
 0.7179812304833E+00
 0.8622256659654E+00
 0.1004696568322E+01
 0.1142516874411E+01
 0.1273098583847E+01
 0.1394220802639E+01
 0.1504839106544E+01
 0.1599735729255E+01
 0.1684657680162E+01
 0.1704628631834E+01
 0.1446878563959E+01
 0.2395365912917E+01
 0.1157274702682E+01
 0.1183907203866E+01
 0.1177301638199E+01
 0.1192420641826E+01
 0.1194391613834E+01
 0.1188478453692E+01
 0.1174448910674E+01
 0.1153498951733E+01
 0.1126405899522E+01
 0.1093844067163E+01
 0.1056310519310E+01
 0.1014157270646E+01
 0.9676008711245E+00
 0.9167360913777E+00
 0.8615468588324E+00
 0.8019163276743E+00
 0.7376358341639E+00
 0.6684165486554E+00
 0.5938926539915E+00
 0.5136325160989E+00
 0.4271386657468E+00
 0.3338413397255E+00
 0.2330669435570E+00
 0.1239306636816E+00
 0.5295947708526E-02
 0.1236507247501E+00
 0.2626746194585E+00
 0.4106164648462E+00
 0.5657106716392E+00
 0.7258970725108E+00
 0.8889116002648E+00
 0.1052134478358E+01
 0.1212209579787E+01
 0.1366014168265E+01
 0.1513338028636E+01
 0.1655691177570E+01
 0.1801486835414E+01
 0.1943324380463E+01
 0.2197783054919E+01
 0.2154689976652E+01
 0.3871573827762E+01
 0.7201615024646E+00
 0.1019758222683E+01
 0.1309809685627E+01
 0.1578815206186E+01
 0.1822039719761E+01
 0.2037955658831E+01
 0.2226388702062E+01
 0.2388444315682E+01
 0.2526339937299E+01
 0.2642742224506E+01
 0.2740306615894E+01
 0.2821534459184E+01
 0.2888708634141E+01
 0.2943797483947E+01
 0.2988404388006E+01
 0.3023766607189E+01
 0.3050366705535E+01
 0.3068472093035E+01
 0.3079707511978E+01
 0.3086867723771E+01
 0.6948498048788E+00
 0.9926730049153E+00
 0.1280634512270E+01
 0.1548996152760E+01
 0.1793106931164E+01
 0.2011330962118E+01
 0.2203437700878E+01
 0.2370276665582E+01
 0.2513691113801E+01
 0.2636024770452E+01
 0.2739706319712E+01
 0.2827091404917E+01
 0.2900382996490E+01
 0.2961544052305E+01
 0.3012246072737E+01
 0.3053755417656E+01
 0.3086537389248E+01
 0.3110992515047E+01
 0.3126984332292E+01
 0.3132443278100E+01
 0.6708865822663E+00
 0.9678902660665E+00
 0.1254361694314E+01
 0.1522034987685E+01
 0.1766715113847E+01
 0.1986745096122E+01
 0.2181824846175E+01
 0.2352658792366E+01
 0.2500825615300E+01
 0.2628397365579E+01
 0.2737597050969E+01
 0.2830639423437E+01
 0.2909640930903E+01
 0.2976527317570E+01
 0.3032942289981E+01
 0.3080083428327E+01
 0.3118448594637E+01
 0.3148094826657E+01
 0.3168328810945E+01
 0.3178341653165E+01
 0.6483094101719E+00
 0.9450199294706E+00
 0.1230430813999E+01
 0.1497450940571E+01
 0.1742415883319E+01
 0.1963778984507E+01
 0.2161225735295E+01
 0.2335366014015E+01
 0.2487587455917E+01
 0.2619744552827E+01
 0.2733878163214E+01
 0.2832066536261E+01
 0.2916327441454E+01
 0.2988512730999E+01
 0.3050189219859E+01
 0.3102476212913E+01
 0.3145820524416E+01
 0.3180192818267E+01
 0.3205303711902E+01
 0.3221308539719E+01
 0.6270425459385E+00
 0.9238183076672E+00
 0.1208428279780E+01
 0.1474798601680E+01
 0.1719797817392E+01
 0.1942068100381E+01
 0.2141338747105E+01
 0.2318169099089E+01
 0.2473807097997E+01
 0.2609933775326E+01
 0.2728431073803E+01
 0.2831245230474E+01
 0.2920284536500E+01
 0.2997304968258E+01
 0.3063781802449E+01
 0.3120754148607E+01
 0.3168676467832E+01
 0.3207672002226E+01
 0.3237883859952E+01
 0.3260117204849E+01
 0.6070043579268E+00
 0.9040609223221E+00
 0.1188016573126E+01
 0.1453694237735E+01
 0.1698490555081E+01
 0.1921281713370E+01
 0.2121884263570E+01
 0.2300844017407E+01
 0.2459309459669E+01
 0.2598823034621E+01
 0.2721128216173E+01
 0.2828045152658E+01
 0.2921368216219E+01
 0.3002750431275E+01
 0.3073576959292E+01
 0.3134836647444E+01
 0.3187053741871E+01
 0.3230549698273E+01
 0.3265814081394E+01
 0.3294053906492E+01
 0.5881168238200E+00
 0.8855483558956E+00
 0.1168903790646E+01
 0.1433805285515E+01
 0.1678164660283E+01
 0.1901119288399E+01
 0.2102602808206E+01
 0.2283176313963E+01
 0.2443920725295E+01
 0.2586268000161E+01
 0.2711841066560E+01
 0.2822341973273E+01
 0.2919453433998E+01
 0.3004728490303E+01
 0.3079476148472E+01
 0.3144665792354E+01
 0.3200912217447E+01
 0.3248720489033E+01
 0.3288826579732E+01
 0.3322657348626E+01
 0.5703093818462E+00
 0.8681037155187E+00
 0.1150835191628E+01
 0.1414840328414E+01
 0.1658527371076E+01
 0.1881308819065E+01
 0.2083255046558E+01
 0.2264963775173E+01
 0.2427473286891E+01
 0.2572127920368E+01
 0.2700446190464E+01
 0.2814021965152E+01
 0.2914433463725E+01
 0.3003143168169E+01
 0.3081400425476E+01
 0.3150174064662E+01
 0.3210168256668E+01
 0.3262037230864E+01
 0.3306678361697E+01
 0.3345601488606E+01
 0.5535194489703E+00
 0.8515711777790E+00
 0.1133587563773E+01
 0.1396543061092E+01
 0.1639318373830E+01
 0.1861605141772E+01
 0.2063622029265E+01
 0.2246018506383E+01
 0.2409809359408E+01
 0.2556269988179E+01
 0.2686829204114E+01
 0.2802983858218E+01
 0.2906217774198E+01
 0.2997914596286E+01
 0.3079277807123E+01
 0.3151284850313E+01
 0.3214717780095E+01
 0.3270343509319E+01
 0.3319152990945E+01
 0.3362640367392E+01
 0.5376920840568E+00
 0.8358141943825E+00
 0.1116965468965E+01
 0.1378688018634E+01
 0.1620306697162E+01
 0.1841788488489E+01
 0.2043505399894E+01
 0.2226168576861E+01
 0.2390783690424E+01
 0.2538572423144E+01
 0.2670887215854E+01
 0.2789139474372E+01
 0.2894729755117E+01
 0.2988974264878E+01
 0.3073040756330E+01
 0.3147917976305E+01
 0.3214451011301E+01
 0.3273486932850E+01
 0.3326059860431E+01
 0.3373584068097E+01
 0.5227791671047E+00
 0.8207136500009E+00
 0.1100798210695E+01
 0.1361077346872E+01
 0.1601288237844E+01
 0.1821663223784E+01
 0.2022727389054E+01
 0.2205259135480E+01
 0.2370265436016E+01
 0.2518926516445E+01
 0.2652530300181E+01
 0.2772413931799E+01
 0.2879905519795E+01
 0.2976263779712E+01
 0.3062627575227E+01
 0.3139995880958E+01
 0.3209261897567E+01
 0.3271326485514E+01
 0.3327233011571E+01
 0.3378283872115E+01
 0.5087385196347E+00
 0.8061661443494E+00
 0.1084937385138E+01
 0.1343538296154E+01
 0.1582083840602E+01
 0.1801056813873E+01
 0.2001130734900E+01
 0.2183153173849E+01
 0.2348139471303E+01
 0.2497238035963E+01
 0.2631682512622E+01
 0.2752745993249E+01
 0.2861693896048E+01
 0.2959735587514E+01
 0.3047985307177E+01
 0.3127449177218E+01
 0.3199055017617E+01
 0.3263737327406E+01
 0.3322528767106E+01
 0.3376612132654E+01
 0.4955330060030E+00
 0.7920823981344E+00
 0.1069254788458E+01
 0.1325921147170E+01
 0.1562537687758E+01
 0.1779818893068E+01
 0.1978578469128E+01
 0.2159731950098E+01
 0.2324307230708E+01
 0.2473428171902E+01
 0.2608282673054E+01
 0.2730088655699E+01
 0.2840057194341E+01
 0.2939354668308E+01
 0.3029073043751E+01
 0.3110221581691E+01
 0.3183751127472E+01
 0.3250614983935E+01
 0.3311824661568E+01
 0.3368452062976E+01
 0.4831296923844E+00
 0.7783857912121E+00
 0.1053640593353E+01
 0.1308097430975E+01
 0.1542515892361E+01
 0.1757820382204E+01
 0.1954953590514E+01
 0.2134895157604E+01
 0.2298687219855E+01
 0.2447434199220E+01
 0.2582285056777E+01
 0.2704409938770E+01
 0.2814972409093E+01
 0.2915100609339E+01
 0.3005865190807E+01
 0.3088274229922E+01
 0.3163291926268E+01
 0.3231879738967E+01
 0.3295023992919E+01
 0.3353703853274E+01
 0.4714991220939E+00
 0.7650110777397E+00
 0.1038001777647E+01
 0.1289958402650E+01
 0.1521905270550E+01
 0.1734952674444E+01
 0.1930158686048E+01
 0.2108560941158E+01
 0.2271215330337E+01
 0.2419209983603E+01
 0.2553660052692E+01
 0.2675693790998E+01
 0.2786432606052E+01
 0.2886969746291E+01
 0.2978354493933E+01
 0.3061589433749E+01
 0.3137644206591E+01
 0.3207481115280E+01
 0.3272061801005E+01
 0.3332294063465E+01
 0.4606146591456E+00
 0.7519032081070E+00
 0.1022260697323E+01
 0.1271413642839E+01
 0.1500612175990E+01
 0.1711126795938E+01
 0.1904115439195E+01
 0.2080665731042E+01
 0.2241844945303E+01
 0.2388726306820E+01
 0.2522394711478E+01
 0.2643940951516E+01
 0.2754448258785E+01
 0.2854977129174E+01
 0.2946554671358E+01
 0.3030173840862E+01
 0.3106803330882E+01
 0.3177401593466E+01
 0.3242908847838E+01
 0.3304182299094E+01
 0.4504519411933E+00
 0.7390162856793E+00
 0.1006353816592E+01
 0.1252389796912E+01
 0.1478561418772E+01
 0.1686272584073E+01
 0.1876764089698E+01
 0.2051163975694E+01
 0.2210546917580E+01
 0.2355971070017E+01
 0.2488493193596E+01
 0.2609169716431E+01
 0.2719048439957E+01
 0.2819158221007E+01
 0.2910502609661E+01
 0.2994060995735E+01
 0.3070795966688E+01
 0.3141659303648E+01
 0.3207574398309E+01
 0.3269366304494E+01
 0.4409884050034E+00
 0.7263126214427E+00
 0.9902305421823E+00
 0.1232829397122E+01
 0.1455695222400E+01
 0.1660337850982E+01
 0.1848062827656E+01
 0.2020027766799E+01
 0.2177309414507E+01
 0.2320949353838E+01
 0.2451977067385E+01
 0.2571416529801E+01
 0.2680281772807E+01
 0.2779570249418E+01
 0.2870260081422E+01
 0.2953313296045E+01
 0.3029682094014E+01
 0.3100309955005E+01
 0.3166108418233E+01
 0.3227885915911E+01
 0.4322028830217E+00
 0.7137618682419E+00
 0.9738521387837E+00
 0.1212689743198E+01
 0.1431972199971E+01
 0.1633287521205E+01
 0.1817987117815E+01
 0.1987246355485E+01
 0.2142137622561E+01
 0.2283683312817E+01
 0.2412885412184E+01
 0.2530736333322E+01
 0.2638217068747E+01
 0.2736293148201E+01
 0.2825914950998E+01
 0.2908023352557E+01
 0.2983556375514E+01
 0.3053448181362E+01
 0.3118603258317E+01
 0.3179826064701E+01
 0.4240752670875E+00
 0.7013402379164E+00
 0.9571907254394E+00
 0.1191941846986E+01
 0.1407366364111E+01
 0.1605102767382E+01
 0.1786528984753E+01
 0.1952825592568E+01
 0.2105053340169E+01
 0.2244211920664E+01
 0.2371274727259E+01
 0.2487202661779E+01
 0.2592943633105E+01
 0.2689430079382E+01
 0.2777581882220E+01
 0.2858314812301E+01
 0.2932549012939E+01
 0.3001208405033E+01
 0.3065194786300E+01
 0.3125318863684E+01
 0.4165862147949E+00
 0.6890297697400E+00
 0.9402283177695E+00
 0.1170569405511E+01
 0.1381866138415E+01
 0.1575780115716E+01
 0.1753696233761E+01
 0.1916787268270E+01
 0.2066094431158E+01
 0.2202590532361E+01
 0.2327218604564E+01
 0.2440907436818E+01
 0.2544571192801E+01
 0.2639107499845E+01
 0.2725402533816E+01
 0.2804342661664E+01
 0.2876826154504E+01
 0.2943765339503E+01
 0.3006062927679E+01
 0.3064544593102E+01
 0.4097168964758E+00
 0.6768176477651E+00
 0.9229559146265E+00
 0.1148567805823E+01
 0.1355473379850E+01
 0.1545330536025E+01
 0.1719511625423E+01
 0.1879168369863E+01
 0.2025314154385E+01
 0.2158890272745E+01
 0.2280807167788E+01
 0.2391960455543E+01
 0.2493229440062E+01
 0.2585474769563E+01
 0.2669545245433E+01
 0.2746293020521E+01
 0.2816589864642E+01
 0.2881334296637E+01
 0.2941432265899E+01
 0.2997732548704E+01
 0.4034487708406E+00
 0.6646955559948E+00
 0.9053726184421E+00
 0.1125943154673E+01
 0.1328202410154E+01
 0.1513778518691E+01
 0.1684012009029E+01
 0.1840020263321E+01
 0.1982780374598E+01
 0.2113197253765E+01
 0.2232146276075E+01
 0.2340488568853E+01
 0.2439067185142E+01
 0.2528703293398E+01
 0.2610204204819E+01
 0.2684382404080E+01
 0.2752077620910E+01
 0.2814171170394E+01
 0.2871573272980E+01
 0.2925162946792E+01
 0.3977633774685E+00
 0.6526590581830E+00
 0.8874847771018E+00
 0.1102711324347E+01
 0.1300079052019E+01
 0.1481161138118E+01
 0.1647247417076E+01
 0.1799407802864E+01
 0.1938574658925E+01
 0.2065611624200E+01
 0.2181356494642E+01
 0.2286634549548E+01
 0.2382251115111E+01
 0.2468985188978E+01
 0.2547598078129E+01
 0.2618856416714E+01
 0.2683561226007E+01
 0.2742571832743E+01
 0.2796802470658E+01
 0.2847168864052E+01
 0.3926421381066E+00
 0.6407069924722E+00
 0.8693051400185E+00
 0.1078897011968E+01
 0.1271139672283E+01
 0.1447527108760E+01
 0.1609280129687E+01
 0.1757408379391E+01
 0.1892791271715E+01
 0.2016246465535E+01
 0.2128571845637E+01
 0.2230555661250E+01
 0.2322964164920E+01
 0.2406531477566E+01
 0.2481968084282E+01
 0.2549987825851E+01
 0.2611345043607E+01
 0.2666870662855E+01
 0.2717481164885E+01
 0.2764135237153E+01
 0.3880661638577E+00
 0.6288408801743E+00
 0.8508520347269E+00
 0.1054532827625E+01
 0.1241430255303E+01
 0.1412935862360E+01
 0.1570183741393E+01
 0.1714110943558E+01
 0.1845536106888E+01
 0.1965226576011E+01
 0.2073938382074E+01
 0.2172421968277E+01
 0.2261403533607E+01
 0.2341569818051E+01
 0.2413575511001E+01
 0.2478073979788E+01
 0.2535763471882E+01
 0.2587438199788E+01
 0.2634013252125E+01
 0.2676496122959E+01
 0.3840160417123E+00
 0.6170643160456E+00
 0.8321485297740E+00
 0.1029658378772E+01
 0.1211005475608E+01
 0.1377456615935E+01
 0.1530042200157E+01
 0.1669614975769E+01
 0.1796925535393E+01
 0.1912687127631E+01
 0.2017612575670E+01
 0.2112414378957E+01
 0.2197778334128E+01
 0.2274341764043E+01
 0.2342698639722E+01
 0.2403433509557E+01
 0.2457177557329E+01
 0.2504677816334E+01
 0.2546841904780E+01
 0.2584730256065E+01
 0.3804716137809E+00
 0.6053823509379E+00
 0.8132216127664E+00
 0.1004319397001E+01
 0.1179927828445E+01
 0.1341167495495E+01
 0.1488948886887E+01
 0.1624029475526E+01
 0.1747085247926E+01
 0.1858772286542E+01
 0.1959759617138E+01
 0.2050722520871E+01
 0.2132306964310E+01
 0.2205099614286E+01
 0.2269629136580E+01
 0.2326402360893E+01
 0.2375970747406E+01
 0.2419021283478E+01
 0.2456444902996E+01
 0.2489354782807E+01
 0.3774117142534E+00
 0.5938008343472E+00
 0.7941013578907E+00
 0.9785668929171E+00
 0.1148266808910E+01
 0.1304154703822E+01
 0.1447005718309E+01
 0.1577471951228E+01
 0.1696149080639E+01
 0.1803633799092E+01
 0.1900551646628E+01
 0.1987542470747E+01
 0.2065214208518E+01
 0.2134102840840E+01
 0.2194667881193E+01
 0.2247329160630E+01
 0.2292543811170E+01
 0.2330923113349E+01
 0.2363328365390E+01
 0.2390917521563E+01
 0.3748138493214E+00
 0.5823256845698E+00
 0.7748200694749E+00
 0.9524563427238E+00
 0.1116098150786E+01
 0.1266511738468E+01
 0.1404322269552E+01
 0.1530067402860E+01
 0.1644257826696E+01
 0.1747429573124E+01
 0.1840165977892E+01
 0.1923074424783E+01
 0.1996728147026E+01
 0.2061614132782E+01
 0.2118120239853E+01
 0.2166569972781E+01
 0.2207309207619E+01
 0.2240854129551E+01
 0.2268019049081E+01
 0.2289989860998E+01
 0.3726538010178E+00
 0.5709620797709E+00
 0.7554114426911E+00
 0.9260469959904E+00
 0.1083503238047E+01
 0.1228338771272E+01
 0.1361015014065E+01
 0.1481947385944E+01
 0.1591558131652E+01
 0.1690322388035E+01
 0.1778783504371E+01
 0.1857520542704E+01
 0.1927077101480E+01
 0.1987895208550E+01
 0.2040290833582E+01
 0.2084482484137E+01
 0.2120685209136E+01
 0.2149295622655E+01
 0.2171057605337E+01
 0.2187165857445E+01
 0.3709050746203E+00
 0.5597134647778E+00
 0.7359096731936E+00
 0.8994012685855E+00
 0.1050568650404E+01
 0.1189742116141E+01
 0.1317206560664E+01
 0.1433249001075E+01
 0.1538201309331E+01
 0.1632478606890E+01
 0.1716587243785E+01
 0.1791083020971E+01
 0.1856486706514E+01
 0.1913202388506E+01
 0.1961477582270E+01
 0.2001419248321E+01
 0.2033089532531E+01
 0.2056734659721E+01
 0.2072996951889E+01
 0.2083067017906E+01
 0.3695381373868E+00
 0.5485803258103E+00
 0.7163485963403E+00
 0.8725843985226E+00
 0.1017386045929E+01
 0.1150833945679E+01
 0.1273024990786E+01
 0.1384113861878E+01
 0.1484342107906E+01
 0.1574066943855E+01
 0.1653761181081E+01
 0.1723962729514E+01
 0.1785177573882E+01
 0.1837782277123E+01
 0.1881964970998E+01
 0.1917719449129E+01
 0.1944931719431E+01
 0.1963659340747E+01
 0.1974402544232E+01
 0.1978341828286E+01
 0.3685192407922E+00
 0.5375585642831E+00
 0.6967608647143E+00
 0.8456645289581E+00
 0.9840525264623E+00
 0.1111732327872E+01
 0.1228603273996E+01
 0.1334686971484E+01
 0.1430137322268E+01
 0.1515257190207E+01
 0.1590489431694E+01
 0.1656358760448E+01
 0.1713364290460E+01
 0.1761868404209E+01
 0.1802016737353E+01
 0.1833698400530E+01
 0.1856602813042E+01
 0.1870552555506E+01
 0.1875849053809E+01
 0.1873662108429E+01
 0.3678085550220E+00
 0.5266371531002E+00
 0.6771773388318E+00
 0.8187135025445E+00
 0.9506717417317E+00
 0.1072561570856E+01
 0.1184078650189E+01
 0.1285115299209E+01
 0.1375743973791E+01
 0.1456218522626E+01
 0.1526955326854E+01
 0.1588468796090E+01
 0.1641256513231E+01
 0.1685680155199E+01
 0.1721868738930E+01
 0.1749632977057E+01
 0.1768458967008E+01
 0.1777881788354E+01
 0.1777916874554E+01
 0.1769717470172E+01
 0.3673568316838E+00
 0.5157949064993E+00
 0.6576269595619E+00
 0.7918094417836E+00
 0.9173560705504E+00
 0.1033453130706E+01
 0.1139591992371E+01
 0.1235546186122E+01
 0.1321317094452E+01
 0.1397117264853E+01
 0.1463340152421E+01
 0.1520490031908E+01
 0.1569062977131E+01
 0.1609427539337E+01
 0.1641725355404E+01
 0.1665742977641E+01
 0.1680791566921E+01
 0.1686080338238E+01
 0.1681194663868E+01
 0.1667223785810E+01
 0.3670994487104E+00
 0.5049939740154E+00
 0.6381399403607E+00
 0.7650414264338E+00
 0.8842307743144E+00
 0.9945460621792E+00
 0.1095286978602E+01
 0.1186125323191E+01
 0.1267006686076E+01
 0.1338113463868E+01
 0.1399820441521E+01
 0.1452619265501E+01
 0.1496996706328E+01
 0.1533324010801E+01
 0.1561771190909E+01
 0.1582170135473E+01
 0.1593774012761E+01
 0.1595494591434E+01
 0.1586291075093E+01
 0.1566983198255E+01
 0.3669397356240E+00
 0.4941784741174E+00
 0.6187519429454E+00
 0.7385259515351E+00
 0.8514353986296E+00
 0.9559872496074E+00
 0.1051309775782E+01
 0.1136994535529E+01
 0.1212953905821E+01
 0.1279356390080E+01
 0.1336563522302E+01
 0.1385050337376E+01
 0.1425279695253E+01
 0.1457602314512E+01
 0.1482209908810E+01
 0.1499004742075E+01
 0.1507350920460E+01
 0.1506252123308E+01
 0.1493804943867E+01
 0.1470057808034E+01
 0.3667251935676E+00
 0.4832168486232E+00
 0.5995851791243E+00
 0.7124091758822E+00
 0.8191188455421E+00
 0.9179340585010E+00
 0.1007810700238E+01
 0.1088288352653E+01
 0.1159285995878E+01
 0.1220979636505E+01
 0.1273721228624E+01
 0.1317967205669E+01
 0.1354140747991E+01
 0.1382532214209E+01
 0.1403300398315E+01
 0.1416416197714E+01
 0.1421294813763E+01
 0.1417691490724E+01
 0.1404170627196E+01
 0.1378240786590E+01
 0.3658517727022E+00
 0.4723923716184E+00
 0.5809069842909E+00
 0.6868161886678E+00
 0.7874337368331E+00
 0.8805749163338E+00
 0.9649437800636E+00
 0.1040124080035E+01
 0.1106112009590E+01
 0.1163095233693E+01
 0.1211422318586E+01
 0.1251532084796E+01
 0.1283799788021E+01
 0.1308419118093E+01
 0.1325413823224E+01
 0.1334691229530E+01
 0.1335748134382E+01
 0.1328484913938E+01
 0.1314803745974E+01
 0.1297403694999E+01
 0.4124869790992E+01
 0.3847190399364E+01
 0.2698017747972E+01
 0.2076797536682E+01
 0.1562089407386E+01
 0.1125377237962E+01
 0.8158825844191E+00
 0.6344831817823E+00
 0.5085754864004E+00
 0.3980533163833E+00
 0.2921610269192E+00
 0.1896356281592E+00
 0.9112109124398E-01
 0.3748015234776E-03
 0.7910536954190E-01
 0.1379842234780E+00
 0.1701643186204E+00
 0.1541223514242E+00
 0.9167497070742E-01
 0.1704087259065E-01
 0.3517006740332E+01
 0.4087182956412E+01
 0.3063710135618E+01
 0.2327904768218E+01
 0.1810388311957E+01
 0.1395419205320E+01
 0.1085360115728E+01
 0.8716443779239E+00
 0.7163250522116E+00
 0.5886747475689E+00
 0.4735497365444E+00
 0.3650787486494E+00
 0.2609485722370E+00
 0.1622455516617E+00
 0.7289661747225E-01
 0.2777987200105E-02
 0.6394159496920E-01
 0.8520871756739E-01
 0.5680127645199E-01
 0.1202007017000E-01
 0.3021302443067E+01
 0.3833400832571E+01
 0.3272686170106E+01
 0.2579925352394E+01
 0.2050174172593E+01
 0.1645091091598E+01
 0.1336559951366E+01
 0.1109303455014E+01
 0.9349582028312E+00
 0.7914191718159E+00
 0.6655141281769E+00
 0.5497381600320E+00
 0.4396868678908E+00
 0.3341600857235E+00
 0.2349732731966E+00
 0.1443093444544E+00
 0.6184419512734E-01
 0.9678547508695E-02
 0.5287379728829E-02
 0.4212310739189E-01
 0.2636243127287E+01
 0.3514489964220E+01
 0.3288356831219E+01
 0.2771582946701E+01
 0.2275067136394E+01
 0.1878632524921E+01
 0.1573238471952E+01
 0.1340623576338E+01
 0.1156252046042E+01
 0.1001665359348E+01
 0.8662650283378E+00
 0.7431910176723E+00
 0.6273049045981E+00
 0.5157123791746E+00
 0.4083682002254E+00
 0.3060959401354E+00
 0.2074024333521E+00
 0.1313256981392E+00
 0.1008875173621E+00
 0.1167641458206E+00
 0.2328198420850E+01
 0.3201798657001E+01
 0.3205340615541E+01
 0.2873720674503E+01
 0.2463013634119E+01
 0.2093401836485E+01
 0.1795852070702E+01
 0.1563199765193E+01
 0.1374854072434E+01
 0.1214344992016E+01
 0.1072536150665E+01
 0.9436731374402E+00
 0.8228953932740E+00
 0.7064857089743E+00
 0.5931379812136E+00
 0.4826395395077E+00
 0.3728090329713E+00
 0.2798917902330E+00
 0.2306239229884E+00
 0.2337672861873E+00
 0.2076865931692E+01
 0.2914919380661E+01
 0.3072906819396E+01
 0.2903062673279E+01
 0.2598554101101E+01
 0.2279805211439E+01
 0.2001319301742E+01
 0.1774546622293E+01
 0.1587137695602E+01
 0.1425189724929E+01
 0.1280588665058E+01
 0.1148464738011E+01
 0.1024607126276E+01
 0.9051722537783E+00
 0.7881800268650E+00
 0.6727853678200E+00
 0.5564822446514E+00
 0.4529110075767E+00
 0.3910979386263E+00
 0.3872875477620E+00
 0.1868618174333E+01
 0.2657797661376E+01
 0.2918083338614E+01
 0.2879536758113E+01
 0.2681883748060E+01
 0.2429293408174E+01
 0.2183649804549E+01
 0.1970866509249E+01
 0.1789642102083E+01
 0.1630501794958E+01
 0.1486765079778E+01
 0.1354376841559E+01
 0.1229853280669E+01
 0.1109624302011E+01
 0.9915001975359E+00
 0.8743565491984E+00
 0.7556697000072E+00
 0.6465961314558E+00
 0.5772519995024E+00
 0.5699966987689E+00
 0.1693972344988E+01
 0.2429568828390E+01
 0.2755778761346E+01
 0.2819748626261E+01
 0.2719630288425E+01
 0.2539076881829E+01
 0.2337157775179E+01
 0.2147401453022E+01
 0.1978478264197E+01
 0.1826650941509E+01
 0.1687505788908E+01
 0.1558042044464E+01
 0.1435584135959E+01
 0.1317064179760E+01
 0.1200391006172E+01
 0.1084422355651E+01
 0.9668310871248E+00
 0.8564230799674E+00
 0.7833711241888E+00
 0.7744662336320E+00
 0.1546037746498E+01
 0.2227810721304E+01
 0.2594368474675E+01
 0.2736181024554E+01
 0.2720245038773E+01
 0.2610668553923E+01
 0.2458763689310E+01
 0.2299837711015E+01
 0.2149588067247E+01
 0.2009911853509E+01
 0.1879245636995E+01
 0.1756007811128E+01
 0.1638489041064E+01
 0.1524296467002E+01
 0.1411641703075E+01
 0.1299532852593E+01
 0.1185968868574E+01
 0.1077567192965E+01
 0.1003665045763E+01
 0.9937538775702E+00
 0.1419638715977E+01
 0.2049707772964E+01
 0.2438539115423E+01
 0.2637906187611E+01
 0.2691918278700E+01
 0.2647987718462E+01
 0.2548060646113E+01
 0.2425374337437E+01
 0.2299433528111E+01
 0.2176688605239E+01
 0.2058452822212E+01
 0.1944792823270E+01
 0.1835125842366E+01
 0.1727883815637E+01
 0.1621729732088E+01
 0.1515926959089E+01
 0.1408864388120E+01
 0.1305161758385E+01
 0.1232547394857E+01
 0.1221601392819E+01
 0.1310783500732E+01
 0.1892479236584E+01
 0.2290818441473E+01
 0.2531417580370E+01
 0.2641818366806E+01
 0.2655960792405E+01
 0.2606638216468E+01
 0.2522954300482E+01
 0.2425534041671E+01
 0.2323906285906E+01
 0.2221833896077E+01
 0.2121009885003E+01
 0.2022043169081E+01
 0.1924292762364E+01
 0.1826983115076E+01
 0.1729700772257E+01
 0.1631244609272E+01
 0.1534446064408E+01
 0.1464760953119E+01
 0.1452457769653E+01
 0.1216328795251E+01
 0.1753533875426E+01
 0.2152430006461E+01
 0.2421312453013E+01
 0.2575910481157E+01
 0.2639676369598E+01
 0.2637319172678E+01
 0.2593031141268E+01
 0.2526645720495E+01
 0.2449318305187E+01
 0.2366594871166E+01
 0.2281555986162E+01
 0.2195933464128E+01
 0.2110037810691E+01
 0.2023722856186E+01
 0.1936943080857E+01
 0.1848900548452E+01
 0.1760854358385E+01
 0.1695429875768E+01
 0.1681433439839E+01
 0.1133758888374E+01
 0.1630516177705E+01
 0.2023790597943E+01
 0.2310800427944E+01
 0.2499011831194E+01
 0.2603928859292E+01
 0.2643544122240E+01
 0.2637171506743E+01
 0.2602678280141E+01
 0.2551632916390E+01
 0.2490643471579E+01
 0.2423811622128E+01
 0.2353808880290E+01
 0.2281836940890E+01
 0.2208400335369E+01
 0.2133851049559E+01
 0.2057775683093E+01
 0.1980074255869E+01
 0.1920081600708E+01
 0.1904235725484E+01
 0.1061034750984E+01
 0.1521309107110E+01
 0.1904810587140E+01
 0.2202072126996E+01
 0.2414928798864E+01
 0.2553001351777E+01
 0.2628938504332E+01
 0.2657658213596E+01
 0.2654479398528E+01
 0.2630483948496E+01
 0.2592683964641E+01
 0.2545793374823E+01
 0.2493168731754E+01
 0.2436771961542E+01
 0.2377736781667E+01
 0.2316836900800E+01
 0.2254035450132E+01
 0.2188087511148E+01
 0.2134659805053E+01
 0.2117110077321E+01
 0.9964870911340E+00
 0.1424019822065E+01
 0.1795081743395E+01
 0.2096565665017E+01
 0.2326610580956E+01
 0.2490585574120E+01
 0.2597032503247E+01
 0.2657158383504E+01
 0.2683580277977E+01
 0.2686303919115E+01
 0.2672210138186E+01
 0.2646233734862E+01
 0.2612130717237E+01
 0.2572440019994E+01
 0.2528865553308E+01
 0.2482633472590E+01
 0.2434120051207E+01
 0.2381191426368E+01
 0.2335534393808E+01
 0.2316801116893E+01
 0.9387374203873E+00
 0.1336959450520E+01
 0.1693998949164E+01
 0.1995161872079E+01
 0.2236293795884E+01
 0.2419776422214E+01
 0.2551092808547E+01
 0.2638470573374E+01
 0.2691953526589E+01
 0.2720150870107E+01
 0.2729422030531E+01
 0.2724585811202E+01
 0.2709510250220E+01
 0.2687087280618E+01
 0.2659483720230E+01
 0.2628410939494E+01
 0.2594785412156E+01
 0.2555976344478E+01
 0.2519498379677E+01
 0.2500538970988E+01
 0.8866366684251E+00
 0.1258619686253E+01
 0.1600844580832E+01
 0.1898330678869E+01
 0.2145630328961E+01
 0.2343103882704E+01
 0.2494030856708E+01
 0.2604344381809E+01
 0.2681806345170E+01
 0.2733523804408E+01
 0.2765092160886E+01
 0.2780957088321E+01
 0.2784835489533E+01
 0.2779712358261E+01
 0.2768034817624E+01
 0.2751956807303E+01
 0.2733148744558E+01
 0.2709233130884E+01
 0.2683673504114E+01
 0.2666070776224E+01
 0.8392071561509E+00
 0.1187654542968E+01
 0.1514850830825E+01
 0.1806252602246E+01
 0.2055793723565E+01
 0.2262578937493E+01
 0.2428361461167E+01
 0.2557360586185E+01
 0.2655418237475E+01
 0.2728190185655E+01
 0.2780403555276E+01
 0.2815975036376E+01
 0.2838269043857E+01
 0.2850099278254E+01
 0.2853901422476E+01
 0.2852057226197E+01
 0.2846940135165E+01
 0.2837679848867E+01
 0.2825235826777E+01
 0.2811629334913E+01
 0.7955889488949E+00
 0.1122813967742E+01
 0.1435321399177E+01
 0.1718915358881E+01
 0.1967552477189E+01
 0.2179739433987E+01
 0.2356191667520E+01
 0.2499862310500E+01
 0.2615027866636E+01
 0.2706045590977E+01
 0.2776788386306E+01
 0.2830599175586E+01
 0.2870399064090E+01
 0.2898651794890E+01
 0.2917468910484E+01
 0.2928968770880E+01
 0.2935716085232E+01
 0.2938240704866E+01
 0.2939645126040E+01
 0.2935969845640E+01
 0.7546295531383E+00
 0.1063358209004E+01
 0.1361788361794E+01
 0.1636150094153E+01
 0.1881312062277E+01
 0.2095658993813E+01
 0.2279238133370E+01
 0.2433935872506E+01
 0.2562767561662E+01
 0.2669024191908E+01
 0.2755814227111E+01
 0.2825945049439E+01
 0.2881930679789E+01
 0.2925893993430E+01
 0.2959557196066E+01
 0.2984403532681E+01
 0.3002060413576E+01
 0.3013195333036E+01
 0.3021119007794E+01
 0.3033074723197E+01
 0.3637019328097E+00
 0.4638969216165E+00
 0.5657294065182E+00
 0.6657168308062E+00
 0.7603745960921E+00
 0.8470508547690E+00
 0.9241099537136E+00
 0.9916430811168E+00
 0.1049957624065E+01
 0.1099296429438E+01
 0.1140033338276E+01
 0.1172619831911E+01
 0.1197481996075E+01
 0.1214856077049E+01
 0.1224867323275E+01
 0.1227763015164E+01
 0.1224428721130E+01
 0.1215654533832E+01
 0.1206164071012E+01
 0.1204012847287E+01
 0.3651199769733E+00
 0.4582467043583E+00
 0.5547194401771E+00
 0.6492751898715E+00
 0.7375961435146E+00
 0.8164541372539E+00
 0.8842628999337E+00
 0.9417182616914E+00
 0.9896037332310E+00
 0.1028377048497E+01
 0.1058533034472E+01
 0.1080637579647E+01
 0.1095282621516E+01
 0.1102942348594E+01
 0.1104178331617E+01
 0.1100030942488E+01
 0.1092305899989E+01
 0.1081900334288E+01
 0.1072608160498E+01
 0.1052705637244E+01
 0.3665288737303E+00
 0.4516517772055E+00
 0.5423759549871E+00
 0.6312270370231E+00
 0.7127562948714E+00
 0.7832476292966E+00
 0.8412938438681E+00
 0.8882054233312E+00
 0.9252838120934E+00
 0.9532889246000E+00
 0.9729163563435E+00
 0.9849276795558E+00
 0.9901343154345E+00
 0.9892580207464E+00
 0.9831719049884E+00
 0.9730818473523E+00
 0.9600976455515E+00
 0.9437820296179E+00
 0.9236369262794E+00
 0.8963371933802E+00
 0.3676359207740E+00
 0.4443539471778E+00
 0.5289550275749E+00
 0.6117712647562E+00
 0.6860524248606E+00
 0.7476019053355E+00
 0.7953065260312E+00
 0.8312143572073E+00
 0.8572343584449E+00
 0.8744882130927E+00
 0.8839094951768E+00
 0.8864570698526E+00
 0.8830964181946E+00
 0.8746188574439E+00
 0.8618360643002E+00
 0.8455219151242E+00
 0.8256749175964E+00
 0.8006546427858E+00
 0.7724821508927E+00
 0.7464620633528E+00
 0.3684119314152E+00
 0.4364001927459E+00
 0.5146712677127E+00
 0.5911018049192E+00
 0.6576027746106E+00
 0.7095585855469E+00
 0.7463050635439E+00
 0.7707931120458E+00
 0.7856420839672E+00
 0.7923633403534E+00
 0.7921062065690E+00
 0.7859556220369E+00
 0.7748934205795E+00
 0.7595749257979E+00
 0.7405135358604E+00
 0.7179675355510E+00
 0.6910970253226E+00
 0.6589884554386E+00
 0.6273429665139E+00
 0.6050131851915E+00
 0.3688703648999E+00
 0.4279201176697E+00
 0.4997093402804E+00
 0.5693617697332E+00
 0.6274318860044E+00
 0.6690373553587E+00
 0.6941784103789E+00
 0.7069057373843E+00
 0.7106359692261E+00
 0.7072500240407E+00
 0.6980375166722E+00
 0.6840970384362E+00
 0.6662880943608E+00
 0.6450043965801E+00
 0.6204319319705E+00
 0.5924794883939E+00
 0.5600510519639E+00
 0.5237414863983E+00
 0.4919382804689E+00
 0.4743389142920E+00
 0.3690690434628E+00
 0.4190938903129E+00
 0.4842561254670E+00
 0.5466231855533E+00
 0.5954450720705E+00
 0.6258183681392E+00
 0.6386949457054E+00
 0.6394410027434E+00
 0.6323155308434E+00
 0.6194888125228E+00
 0.6022714629751E+00
 0.5816498808883E+00
 0.5582543203124E+00
 0.5321773241515E+00
 0.5033523611516E+00
 0.4715694681645E+00
 0.4358214970131E+00
 0.3982845225447E+00
 0.3689347306752E+00
 0.3568262694292E+00
 0.3691130545064E+00
 0.4101580504616E+00
 0.4684881203201E+00
 0.5228651577355E+00
 0.5613960658859E+00
 0.5795229405875E+00
 0.5795084235505E+00
 0.5682448551468E+00
 0.5508050185001E+00
 0.5294963097325E+00
 0.5054935286190E+00
 0.4795436485915E+00
 0.4519739741149E+00
 0.4225875583961E+00
 0.3911717457197E+00
 0.3575670420962E+00
 0.3210030159934E+00
 0.2850554589074E+00
 0.2603920975519E+00
 0.2546402716445E+00
 0.3691674383735E+00
 0.4014105030746E+00
 0.4525528666405E+00
 0.4979338262689E+00
 0.5248476107404E+00
 0.5295985931277E+00
 0.5161816022450E+00
 0.4931761197984E+00
 0.4663242667906E+00
 0.4378337297219E+00
 0.4085534282932E+00
 0.3788677568889E+00
 0.3487550620247E+00
 0.3177698751602E+00
 0.2856547577651E+00
 0.2524070163456E+00
 0.2175416360218E+00
 0.1857726533782E+00
 0.1678040899411E+00
 0.1693890366703E+00
 0.3694769449594E+00
 0.3932186803071E+00
 0.4365371216440E+00
 0.4714846528843E+00
 0.4851233507702E+00
 0.4753150170489E+00
 0.4482353930964E+00
 0.4141877350678E+00
 0.3792708890130E+00
 0.3452646947493E+00
 0.3124798207391E+00
 0.2808302970292E+00
 0.2499314201675E+00
 0.2191541251115E+00
 0.1882897053240E+00
 0.1575584985782E+00
 0.1267700560965E+00
 0.1015006441682E+00
 0.9199370250532E-01
 0.1018951168620E+00
 0.3703955307136E+00
 0.3860284964455E+00
 0.4204151719979E+00
 0.4428997804261E+00
 0.4412533748010E+00
 0.4157817188343E+00
 0.3752350922905E+00
 0.3314365390406E+00
 0.2903076912088E+00
 0.2527942062666E+00
 0.2184628957855E+00
 0.1866904359534E+00
 0.1567620897907E+00
 0.1279599235030E+00
 0.1002172058949E+00
 0.7402784682808E-01
 0.4952282509145E-01
 0.3286701237394E-01
 0.3316133583832E-01
 0.5204317898308E-01
 0.3724301934256E+00
 0.3803714769042E+00
 0.4039633212215E+00
 0.4111703100142E+00
 0.3919196896757E+00
 0.3500068656427E+00
 0.2969290810645E+00
 0.2454207997027E+00
 0.2004417576547E+00
 0.1616740844676E+00
 0.1277993032252E+00
 0.9767087549322E-01
 0.7034842389947E-01
 0.4518039867363E-01
 0.2250165011685E-01
 0.6165186736652E-02
 0.1634612228023E-01
 0.2302487731500E-01
 0.1229526333223E-01
 0.1875514052698E-01
 0.3763073869250E+00
 0.3768636066160E+00
 0.3866151695674E+00
 0.3747293716899E+00
 0.3354188142668E+00
 0.2770301664444E+00
 0.2134554250684E+00
 0.1571315001441E+00
 0.1110669911386E+00
 0.7335345796856E-01
 0.4180450124098E-01
 0.1500882620095E-01
 0.9385431373962E-02
 0.2943954262285E-01
 0.4638959841402E-01
 0.5895337000490E-01
 0.6657615181242E-01
 0.6282703499652E-01
 0.4036225893285E-01
 0.2911628566590E-02
 0.3830765638013E+00
 0.3761798237588E+00
 0.3672098494748E+00
 0.3312202228682E+00
 0.2696835143235E+00
 0.1961807359561E+00
 0.1256195497604E+00
 0.6817581921687E-01
 0.2392470809521E-01
 0.1069704666114E-01
 0.3849091525048E-01
 0.6120409953406E-01
 0.7972790444485E-01
 0.9429395659799E-01
 0.1041975299746E+00
 0.1082669343609E+00
 0.1058899417429E+00
 0.9102949825580E-01
 0.5764132856706E-01
 0.8923827304972E-02
 0.3942776704334E+00
 0.3789625246354E+00
 0.3435393730388E+00
 0.2771946058700E+00
 0.1924594646378E+00
 0.1075280865594E+00
 0.3522072575761E-01
 0.1927243574949E-01
 0.5906888468522E-01
 0.8897808460376E-01
 0.1120144473875E+00
 0.1297032140330E+00
 0.1426073185226E+00
 0.1505790898576E+00
 0.1526586861781E+00
 0.1476138290832E+00
 0.1348947369123E+00
 0.1092485033470E+00
 0.6606537591072E-01
 0.9093079746804E-02
 0.4122232174206E+00
 0.3855463573570E+00
 0.3115078145323E+00
 0.2077932437778E+00
 0.1018518995186E+00
 0.1278618492979E-01
 0.5503043946673E-01
 0.1025091611950E+00
 0.1361192633110E+00
 0.1605693196591E+00
 0.1784695778391E+00
 0.1908320114685E+00
 0.1977477173100E+00
 0.1986845945582E+00
 0.1925255487916E+00
 0.1781318758957E+00
 0.1551916620206E+00
 0.1196523233423E+00
 0.6846653527772E-01
 0.5598714215249E-02
 0.4405045376416E+00
 0.3951535135478E+00
 0.2634942829843E+00
 0.1167396766780E+00
 0.4127306494608E-02
 0.8543133834956E-01
 0.1412105956766E+00
 0.1791069364693E+00
 0.2058919006060E+00
 0.2249823788171E+00
 0.2379050839095E+00
 0.2449396699655E+00
 0.2457145181461E+00
 0.2393950260333E+00
 0.2248437911173E+00
 0.2011642497123E+00
 0.1684540000528E+00
 0.1242926639844E+00
 0.6737306501645E-01
 0.3035700835517E-02
 0.4848657823677E+00
 0.4031811447060E+00
 0.1853514750529E+00
 0.4522717810930E-02
 0.1166885853074E+00
 0.1810215235874E+00
 0.2197466380702E+00
 0.2470542951107E+00
 0.2678346727475E+00
 0.2824292036658E+00
 0.2908262153683E+00
 0.2926615538893E+00
 0.2872764015014E+00
 0.2736694969083E+00
 0.2508006296079E+00
 0.2181242872452E+00
 0.1762143639248E+00
 0.1247905457602E+00
 0.6454487459656E-01
 0.4743969844123E-02
 0.5553797021591E+00
 0.3920897606036E+00
 0.5002594638637E-01
 0.1460369882931E+00
 0.2336387958667E+00
 0.2692287467336E+00
 0.2871073729105E+00
 0.3054465915507E+00
 0.3224571037529E+00
 0.3336982875986E+00
 0.3379874106902E+00
 0.3347656239870E+00
 0.3233059582422E+00
 0.3025442232557E+00
 0.2717102374998E+00
 0.2304415654632E+00
 0.1797775768929E+00
 0.1220165431163E+00
 0.6061957029885E-01
 0.6311908438474E-02
 0.6575983103908E+00
 0.2569743591803E+00
 0.1442717706693E+00
 0.3018265638129E+00
 0.3484825432793E+00
 0.3434122728104E+00
 0.3408721160638E+00
 0.3553556157053E+00
 0.3711865794660E+00
 0.3797804430817E+00
 0.3801016010990E+00
 0.3721028275942E+00
 0.3547874872577E+00
 0.3269539292991E+00
 0.2888475333962E+00
 0.2402369591427E+00
 0.1798890998907E+00
 0.1153602044231E+00
 0.5487298892985E-01
 0.7051615716074E-02
 0.3061337269124E+01
 0.2965649147601E+01
 0.2851417160012E+01
 0.2716708566411E+01
 0.2561378674375E+01
 0.2387155345184E+01
 0.2196093592244E+01
 0.1990626994489E+01
 0.1773572106429E+01
 0.1548190635805E+01
 0.1318275370253E+01
 0.1088277285859E+01
 0.8634802677205E+00
 0.6502210691084E+00
 0.4561264511536E+00
 0.2902761730550E+00
 0.1630623589950E+00
 0.8518886437816E-01
 0.6464343771791E-01
 0.9684394186158E-01
 0.3114184124722E+01
 0.3042615929176E+01
 0.2940583171004E+01
 0.2817990748241E+01
 0.2675656530787E+01
 0.2514312923952E+01
 0.2335371223299E+01
 0.2140704697636E+01
 0.1932595089251E+01
 0.1713729113118E+01
 0.1487256167269E+01
 0.1256907875292E+01
 0.1027199137555E+01
 0.8037347935383E+00
 0.5936423515181E+00
 0.4061247261706E+00
 0.2530324105520E+00
 0.1491598979063E+00
 0.1112958779158E+00
 0.1524927710620E+00
 0.3163481079459E+01
 0.3107715493723E+01
 0.3024116338178E+01
 0.2916976999066E+01
 0.2789657992140E+01
 0.2643355449951E+01
 0.2479206294645E+01
 0.2298677044061E+01
 0.2103599505663E+01
 0.1896165552953E+01
 0.1678942599691E+01
 0.1454939450227E+01
 0.1227750217588E+01
 0.1001819109011E+01
 0.7828887193926E+00
 0.5787134646381E+00
 0.4001374678921E+00
 0.2625824174906E+00
 0.1881579903865E+00
 0.2061162234518E+00
 0.3211012014878E+01
 0.3167611823595E+01
 0.3100471082943E+01
 0.3010587904633E+01
 0.2900083401092E+01
 0.2770543963196E+01
 0.2623141806559E+01
 0.2459146554767E+01
 0.2280101171323E+01
 0.2087867276338E+01
 0.1884636574307E+01
 0.1672952801113E+01
 0.1455777652597E+01
 0.1236643629547E+01
 0.1019963594024E+01
 0.8116166877919E+00
 0.6200038897028E+00
 0.4579344700477E+00
 0.3459445237710E+00
 0.3193650581832E+00
 0.3255351583669E+01
 0.3222784607398E+01
 0.3170349672303E+01
 0.3097174041887E+01
 0.3004155296315E+01
 0.2892406179025E+01
 0.2763003132794E+01
 0.2617073130674E+01
 0.2455954496571E+01
 0.2281278590092E+01
 0.2095004543672E+01
 0.1899438902698E+01
 0.1697268050745E+01
 0.1491637978072E+01
 0.1286339718265E+01
 0.1086208039799E+01
 0.8979481428805E+00
 0.7317787752356E+00
 0.6047260400057E+00
 0.5481349564992E+00
 0.3295513936821E+01
 0.3272801370035E+01
 0.3233502782969E+01
 0.3175868063914E+01
 0.3099839651249E+01
 0.3005943212876E+01
 0.2894914849132E+01
 0.2767649013235E+01
 0.2625249864283E+01
 0.2469100572284E+01
 0.2300911270011E+01
 0.2122749962972E+01
 0.1937069943419E+01
 0.1746754911317E+01
 0.1555219481508E+01
 0.1366641904211E+01
 0.1186483038252E+01
 0.1022636407786E+01
 0.8877702034724E+00
 0.8035867139028E+00
 0.3330726225775E+01
 0.3317168277807E+01
 0.3289683687078E+01
 0.3246249113000E+01
 0.3186201734048E+01
 0.3109538741843E+01
 0.3016596946779E+01
 0.2907946461079E+01
 0.2784389324154E+01
 0.2646995009436E+01
 0.2497141290753E+01
 0.2336545874640E+01
 0.2167286860426E+01
 0.1991815627441E+01
 0.1812972524340E+01
 0.1634029588038E+01
 0.1458824063245E+01
 0.1292115407716E+01
 0.1140589821392E+01
 0.1014199555402E+01
 0.3360344927540E+01
 0.3355329478153E+01
 0.3338512368539E+01
 0.3307940990557E+01
 0.3262633660030E+01
 0.3202198734020E+01
 0.3126605956668E+01
 0.3036085692394E+01
 0.2931104257812E+01
 0.2812377788037E+01
 0.2680899535197E+01
 0.2537965762064E+01
 0.2385190313615E+01
 0.2224499711101E+01
 0.2058098496829E+01
 0.1888390108804E+01
 0.1717828695089E+01
 0.1548685310743E+01
 0.1382689655726E+01
 0.1221678736198E+01
 0.3383856424843E+01
 0.3386768176734E+01
 0.3379582675685E+01
 0.3360586793624E+01
 0.3328687959484E+01
 0.3283249744080E+01
 0.3223955211586E+01
 0.3150732255433E+01
 0.3063727051272E+01
 0.2963306806394E+01
 0.2850076670740E+01
 0.2724898818846E+01
 0.2588903416307E+01
 0.2443479835116E+01
 0.2290231050979E+01
 0.2130861173719E+01
 0.1966941303089E+01
 0.1799439752430E+01
 0.1627833937744E+01
 0.1448440821151E+01
 0.3400860723998E+01
 0.3411035540928E+01
 0.3412505159467E+01
 0.3403853868560E+01
 0.3384010216993E+01
 0.3352213269278E+01
 0.3307949052541E+01
 0.3250906633635E+01
 0.3180959391135E+01
 0.3098165473644E+01
 0.3002779545577E+01
 0.2895268214952E+01
 0.2776321408595E+01
 0.2646850355390E+01
 0.2507958209479E+01
 0.2360859511570E+01
 0.2206703315512E+01
 0.2046211644015E+01
 0.1878923029632E+01
 0.1701246722043E+01
 0.3411060154587E+01
 0.3427762784443E+01
 0.3436924905787E+01
 0.3437423493136E+01
 0.3428278104172E+01
 0.3408688614236E+01
 0.3378021692423E+01
 0.3335793356720E+01
 0.3281661208610E+01
 0.3215427577561E+01
 0.3137050915583E+01
 0.3046661693592E+01
 0.2944578662244E+01
 0.2831320665623E+01
 0.2707607634735E+01
 0.2574341089398E+01
 0.2432548851332E+01
 0.2283267790850E+01
 0.2127312304464E+01
 0.1964920327078E+01
 0.3414197576438E+01
 0.3436585138834E+01
 0.3452446510207E+01
 0.3460907803046E+01
 0.3461104412703E+01
 0.3452248906410E+01
 0.3433646267105E+01
 0.3404695020490E+01
 0.3364889051233E+01
 0.3313824727379E+01
 0.3251213853310E+01
 0.3176901540856E+01
 0.3090887803543E+01
 0.2993351988111E+01
 0.2884679946533E+01
 0.2765495526097E+01
 0.2636701834598E+01
 0.2499548917782E+01
 0.2355786587336E+01
 0.2208122697996E+01
 0.3410054610385E+01
 0.3437160377835E+01
 0.3458650344183E+01
 0.3473844534359E+01
 0.3481993909999E+01
 0.3482351296872E+01
 0.3474199306379E+01
 0.3456861887598E+01
 0.3429712278602E+01
 0.3392182855070E+01
 0.3343778956445E+01
 0.3284097376029E+01
 0.3212849954332E+01
 0.3129893307687E+01
 0.3035267254438E+01
 0.2929247382055E+01
 0.2812422411712E+01
 0.2685817262568E+01
 0.2551103610343E+01
 0.2410942132880E+01
 0.3398461743316E+01
 0.3429212436777E+01
 0.3455167656362E+01
 0.3475794089869E+01
 0.3490447368864E+01
 0.3498433283160E+01
 0.3499037853994E+01
 0.3491542734457E+01
 0.3475235535540E+01
 0.3449420147844E+01
 0.3413429592749E+01
 0.3366642703343E+01
 0.3308505543536E+01
 0.3238558748845E+01
 0.3156472950046E+01
 0.3062096297682E+01
 0.2955520770391E+01
 0.2837175736272E+01
 0.2707950178917E+01
 0.2569320588707E+01
 0.3379294297133E+01
 0.3412533830701E+01
 0.3441707384947E+01
 0.3466393340071E+01
 0.3486038483020E+01
 0.3500006069365E+01
 0.3507602359259E+01
 0.3508091282182E+01
 0.3500703947654E+01
 0.3484647141043E+01
 0.3459113205936E+01
 0.3423292662014E+01
 0.3376390320617E+01
 0.3317645392161E+01
 0.3246356077537E+01
 0.3161909379842E+01
 0.3063817329990E+01
 0.2951760340603E+01
 0.2825633067112E+01
 0.2685576114097E+01
 0.3352473417151E+01
 0.3386983986899E+01
 0.3418061141428E+01
 0.3445370716291E+01
 0.3468438287629E+01
 0.3486685263535E+01
 0.3499449658454E+01
 0.3505997377068E+01
 0.3505528664155E+01
 0.3497182945771E+01
 0.3480044139375E+01
 0.3453147660952E+01
 0.3415489680607E+01
 0.3366038527209E+01
 0.3303747374973E+01
 0.3227566386187E+01
 0.3136451389400E+01
 0.3029366724882E+01
 0.2905285320846E+01
 0.2763190792722E+01
 0.3317969092933E+01
 0.3352489746753E+01
 0.3384105169128E+01
 0.3412552190816E+01
 0.3437425192221E+01
 0.3458203183867E+01
 0.3474264746765E+01
 0.3484894889329E+01
 0.3489287234244E+01
 0.3486544079129E+01
 0.3475676117548E+01
 0.3455602988485E+01
 0.3425155247784E+01
 0.3383077678597E+01
 0.3328032903811E+01
 0.3258602808090E+01
 0.3173283277137E+01
 0.3070465069604E+01
 0.2948397677110E+01
 0.2805161250530E+01
 0.3275803627924E+01
 0.3309047484821E+01
 0.3339803218293E+01
 0.3367866764436E+01
 0.3392893410696E+01
 0.3414419101157E+01
 0.3431870633187E+01
 0.3444568212821E+01
 0.3451723151151E+01
 0.3452432794319E+01
 0.3445674258790E+01
 0.3430298168114E+01
 0.3405023275736E+01
 0.3368432504316E+01
 0.3318970385879E+01
 0.3254940927450E+01
 0.3174502965129E+01
 0.3075656132857E+01
 0.2956195864720E+01
 0.2813614617924E+01
 0.3226054885336E+01
 0.3256726224414E+01
 0.3285210686306E+01
 0.3311352969771E+01
 0.3334862273349E+01
 0.3355330699355E+01
 0.3372240251112E+01
 0.3384962012631E+01
 0.3392749978849E+01
 0.3394731294969E+01
 0.3389894271234E+01
 0.3377075358162E+01
 0.3354946254480E+01
 0.3322002435414E+01
 0.3276554591808E+01
 0.3216724686298E+01
 0.3140448402110E+01
 0.3045484534307E+01
 0.2929427578210E+01
 0.2789641259459E+01
 0.3168859184803E+01
 0.3195671790460E+01
 0.3220480463216E+01
 0.3243167109302E+01
 0.3263487344880E+01
 0.3281087807993E+01
 0.3295511608193E+01
 0.3306195622632E+01
 0.3312461803247E+01
 0.3313503964384E+01
 0.3308371134860E+01
 0.3295948447512E+01
 0.3274936690930E+01
 0.3243832094435E+01
 0.3200908727929E+01
 0.3144207219782E+01
 0.3071535737808E+01
 0.2980493613406E+01
 0.2868539309599E+01
 0.2733180260994E+01
 0.3104414558583E+01
 0.3126112831935E+01
 0.3145870763616E+01
 0.3163593682700E+01
 0.3179074444528E+01
 0.3192010587740E+01
 0.3202010125535E+01
 0.3208588788915E+01
 0.3211160710395E+01
 0.3209023758348E+01
 0.3201340244163E+01
 0.3187113491005E+01
 0.3165160801600E+01
 0.3134083758809E+01
 0.3092237647643E+01
 0.3037703293558E+01
 0.2968267102427E+01
 0.2881420129123E+01
 0.2774396993511E+01
 0.2644341712747E+01
 0.3032985563125E+01
 0.3048367589893E+01
 0.3061752944464E+01
 0.3073055785495E+01
 0.3082094193076E+01
 0.3088609991144E+01
 0.3092276816501E+01
 0.3092699254820E+01
 0.3089405076776E+01
 0.3081831707987E+01
 0.3069307318796E+01
 0.3051026372592E+01
 0.3026019123593E+01
 0.2993114439998E+01
 0.2950895537072E+01
 0.2897648786754E+01
 0.2831306669086E+01
 0.2749385573469E+01
 0.2648917087416E+01
 0.2526285997163E+01
 0.2954897712381E+01
 0.2962835194929E+01
 0.2968603322289E+01
 0.2972107361187E+01
 0.2973174999604E+01
 0.2971582154505E+01
 0.2967065184881E+01
 0.2959323564762E+01
 0.2948015750344E+01
 0.2932749664106E+01
 0.2913068086709E+01
 0.2888428273254E+01
 0.2858174203212E+01
 0.2821498953026E+01
 0.2777393707246E+01
 0.2724579003248E+01
 0.2661412654383E+01
 0.2585766679884E+01
 0.2494852674097E+01
 0.2384978264344E+01
 0.2870543927058E+01
 0.2870004797796E+01
 0.2867015435559E+01
 0.2861448277094E+01
 0.2853120565134E+01
 0.2841828671557E+01
 0.2827365428599E+01
 0.2809527138453E+01
 0.2788114573979E+01
 0.2762930229199E+01
 0.2733772476090E+01
 0.2700425946782E+01
 0.2662646125677E+01
 0.2620134522963E+01
 0.2572498665527E+01
 0.2519188311107E+01
 0.2459396722824E+01
 0.2391914621736E+01
 0.2314931702565E+01
 0.2225817714706E+01
 0.2780387612805E+01
 0.2770462683916E+01
 0.2757709622083E+01
 0.2741936231257E+01
 0.2722925278199E+01
 0.2700478256253E+01
 0.2674436886098E+01
 0.2644693723391E+01
 0.2611198692632E+01
 0.2573965170343E+01
 0.2533077179173E+01
 0.2488697838917E+01
 0.2441077970518E+01
 0.2390562190792E+01
 0.2337587391825E+01
 0.2282664564246E+01
 0.2226328603036E+01
 0.2169037380929E+01
 0.2111011372505E+01
 0.2052006903640E+01
 0.2684962451779E+01
 0.2664895439803E+01
 0.2641537704161E+01
 0.2614592368801E+01
 0.2583782627277E+01
 0.2548902222526E+01
 0.2509837128058E+01
 0.2466576887691E+01
 0.2419225561002E+01
 0.2368017429962E+01
 0.2313340231774E+01
 0.2255767649777E+01
 0.2196102427521E+01
 0.2135431261874E+01
 0.2075191989482E+01
 0.2017251239371E+01
 0.1963984233894E+01
 0.1918327015121E+01
 0.1883743988524E+01
 0.1864069129932E+01
 0.2584871420861E+01
 0.2554091839746E+01
 0.2519484431578E+01
 0.2480601657897E+01
 0.2437087101395E+01
 0.2388723225938E+01
 0.2335445221156E+01
 0.2277347909006E+01
 0.2214698398948E+01
 0.2147960551928E+01
 0.2077834857686E+01
 0.2005317140745E+01
 0.1931780740160E+01
 0.1859089211115E+01
 0.1789750238458E+01
 0.1727126270119E+01
 0.1675721181450E+01
 0.1641557213820E+01
 0.1632558117960E+01
 0.1658687174055E+01
 0.2480785657935E+01
 0.2438943042983E+01
 0.2392663938912E+01
 0.2341305668610E+01
 0.2284427021779E+01
 0.2221814320325E+01
 0.2153475219753E+01
 0.2079634241891E+01
 0.2000743359380E+01
 0.1917512825790E+01
 0.1830965269988E+01
 0.1742516943205E+01
 0.1654092908402E+01
 0.1568288045607E+01
 0.1488594229485E+01
 0.1419728877991E+01
 0.1368127136103E+01
 0.1342711682188E+01
 0.1356173971490E+01
 0.1426591054616E+01
 0.2373443650448E+01
 0.2320438732589E+01
 0.2262306902047E+01
 0.2198182346749E+01
 0.2127561653875E+01
 0.2050279742216E+01
 0.1966468331731E+01
 0.1876532539896E+01
 0.1781155706999E+01
 0.1681333610321E+01
 0.1578437739219E+01
 0.1474309109621E+01
 0.1371387695417E+01
 0.1272888123162E+01
 0.1183041507842E+01
 0.1107440203949E+01
 0.1053559592891E+01
 0.1031620050233E+01
 0.1056252249276E+01
 0.1150964407091E+01
 0.2263649029270E+01
 0.2199649888299E+01
 0.2129724949306E+01
 0.2052796061540E+01
 0.1968363200048E+01
 0.1876397214295E+01
 0.1777245883579E+01
 0.1671585549199E+01
 0.1560419261610E+01
 0.1445113588744E+01
 0.1327466522387E+01
 0.1209801410952E+01
 0.1095084419691E+01
 0.9870650172615E+00
 0.8904400788171E+00
 0.8110423274456E+00
 0.7560480789463E+00
 0.7341970564619E+00
 0.7559318073466E+00
 0.8339656448345E+00
 0.2152258626113E+01
 0.2077675314991E+01
 0.1996221968630E+01
 0.1906681891143E+01
 0.1808688537043E+01
 0.1702496894047E+01
 0.1588820800692E+01
 0.1468761052045E+01
 0.1343805199375E+01
 0.1215875895986E+01
 0.1087409051284E+01
 0.9614469274824E+00
 0.8417317069827E+00
 0.7327803000815E+00
 0.6399072477613E+00
 0.5691272354717E+00
 0.5267831782535E+00
 0.5184896188600E+00
 0.5464189740704E+00
 0.5993909470088E+00
 0.2040149367826E+01
 0.1955562911803E+01
 0.1862996615999E+01
 0.1761247853348E+01
 0.1650300021295E+01
 0.1530908334064E+01
 0.1404356883448E+01
 0.1272373295286E+01
 0.1137143400959E+01
 0.1001377445251E+01
 0.8683922257402E+00
 0.7421789303493E+00
 0.6274240569850E+00
 0.5294375505571E+00
 0.4539113234402E+00
 0.4063624677998E+00
 0.3909576034489E+00
 0.4081545714891E+00
 0.4498711643047E+00
 0.4914662094938E+00
 0.1928231207508E+01
 0.1834354036098E+01
 0.1731227044466E+01
 0.1617916572886E+01
 0.1495062332280E+01
 0.1364178712986E+01
 0.1227327909909E+01
 0.1087037000234E+01
 0.9463324794506E+00
 0.8088078245893E+00
 0.6786647739537E+00
 0.5606811391854E+00
 0.4600547468855E+00
 0.3820576493826E+00
 0.3313987145829E+00
 0.3111184076901E+00
 0.3207658741246E+00
 0.3536728966888E+00
 0.3938450673254E+00
 0.4172417860846E+00
 0.1817481910918E+01
 0.1715144933806E+01
 0.1602123474732E+01
 0.1478158666828E+01
 0.1344924521651E+01
 0.1204933029597E+01
 0.1061146575898E+01
 0.9169231604267E+00
 0.7760727090088E+00
 0.6428917794508E+00
 0.5221059686651E+00
 0.4186699390118E+00
 0.3373837855208E+00
 0.2822773216216E+00
 0.2556903542184E+00
 0.2569621557401E+00
 0.2808036342348E+00
 0.3159193070907E+00
 0.3456934525683E+00
 0.3539700012236E+00
 0.1708918690900E+01
 0.1599021818625E+01
 0.1476831991561E+01
 0.1343371429833E+01
 0.1201746059105E+01
 0.1055588658219E+01
 0.9086922240523E+00
 0.7650580039681E+00
 0.6289810856058E+00
 0.5050316731951E+00
 0.3978658543642E+00
 0.3118595141994E+00
 0.2505646908806E+00
 0.2159854777388E+00
 0.2076613638645E+00
 0.2216339335576E+00
 0.2497072079241E+00
 0.2798442424448E+00
 0.2988901394109E+00
 0.2977086071685E+00
 0.1603560608185E+01
 0.1486939421641E+01
 0.1356262438910E+01
 0.1214686399187E+01
 0.1067084776190E+01
 0.9180723013963E+00
 0.7719458210565E+00
 0.6329396586906E+00
 0.5053955079752E+00
 0.3936510978813E+00
 0.3017251843958E+00
 0.2328549822068E+00
 0.1889280909277E+00
 0.1698406044699E+00
 0.1728184303051E+00
 0.1919249744514E+00
 0.2182618221091E+00
 0.2413979159974E+00
 0.2522375694614E+00
 0.2460665561621E+00
 0.1502390649000E+01
 0.1379554183122E+01
 0.1240894379769E+01
 0.1092895264161E+01
 0.9422014394810E+00
 0.7938809120030E+00
 0.6520603940662E+00
 0.5207623454215E+00
 0.4039773960249E+00
 0.3054099014526E+00
 0.2280815150089E+00
 0.1738719329783E+00
 0.1430518285257E+00
 0.1338425889335E+00
 0.1420650951135E+00
 0.1611718931235E+00
 0.1830348147186E+00
 0.1996237460218E+00
 0.2052488456970E+00
 0.1981378811335E+00
 0.1406411252166E+01
 0.1277064033795E+01
 0.1130663558822E+01
 0.9784861878256E+00
 0.8283322865873E+00
 0.6840508127356E+00
 0.5491644801906E+00
 0.4272796224365E+00
 0.3218274045256E+00
 0.2356881444100E+00
 0.1707971436670E+00
 0.1277763906753E+00
 0.1056334360728E+00
 0.1015455098950E+00
 0.1107918579644E+00
 0.1271311908332E+00
 0.1438091169180E+00
 0.1550486690551E+00
 0.1576682653691E+00
 0.1520438510084E+00
 0.1316734554432E+01
 0.1177722967686E+01
 0.1023600471193E+01
 0.8722821566930E+00
 0.7264036122144E+00
 0.5885260542417E+00
 0.4619170706842E+00
 0.3498329766706E+00
 0.2550963568630E+00
 0.1797377514495E+00
 0.1246965619281E+00
 0.8958381537451E-01
 0.7255299604209E-01
 0.7027815929986E-01
 0.7807072550013E-01
 0.9042403053461E-01
 0.1020169388998E+00
 0.1089058508015E+00
 0.1095256990131E+00
 0.1056989038957E+00
 0.1229280775335E+01
 0.1071076304767E+01
 0.9219224852171E+00
 0.7770480908420E+00
 0.6374841489559E+00
 0.5069555256591E+00
 0.3888629060117E+00
 0.2861067645005E+00
 0.2008400719508E+00
 0.1342811381583E+00
 0.8653568573390E-01
 0.5648110568894E-01
 0.4178179991219E-01
 0.3903767182932E-01
 0.4397110490842E-01
 0.5197643799716E-01
 0.5903574162774E-01
 0.6257285030030E-01
 0.6208193677854E-01
 0.5896927170011E-01
</DataArray>
<CellData Tensors="'E_Centroid','S_Centroid'">
<DataArray type="Float64" Name="E_Centroid" NumberOfComponents="4" ComponentName0="E11" ComponentName1="E22" ComponentName2="E33" ComponentName3="E12" format="ascii">
 0.2110223698340E-02 -0.1616889339309E-01  0.0000000000000E+00 -0.5127731428257E-02
 0.3638714163429E-02 -0.1346835261694E-01  0.0000000000000E+00 -0.1828940635909E-03
 0.3075549949771E-02 -0.1251591687020E-01  0.0000000000000E+00 -0.2602080751888E-03
 0.3038223393282E-02 -0.1211937106633E-01  0.0000000000000E+00 -0.1146956194590E-03
 0.2968165407094E-02 -0.1188509643521E-01  0.0000000000000E+00 -0.7055675237136E-04
 0.2936122195072E-02 -0.1174493567916E-01  0.0000000000000E+00 -0.4366124357483E-04
 0.2912908351060E-02 -0.1165388773857E-01  0.0000000000000E+00 -0.2863089021073E-04
 0.2897882246353E-02 -0.1159283848035E-01  0.0000000000000E+00 -0.1927616004127E-04
 0.2887380671069E-02 -0.1155076127553E-01  0.0000000000000E+00 -0.1317067291962E-04
 0.2880126730411E-02 -0.1152159165881E-01  0.0000000000000E+00 -0.8862067490900E-05
 0.2875210000816E-02 -0.1150186893630E-01  0.0000000000000E+00 -0.5517134675559E-05
 0.2872187772355E-02 -0.1148975340711E-01  0.0000000000000E+00 -0.2598611491822E-05
 0.2870860578748E-02 -0.1148445068502E-01  0.0000000000000E+00  0.2606496789792E-06
 0.2871215642991E-02 -0.1148590239637E-01  0.0000000000000E+00  0.3334419647921E-05
 0.2873378575009E-02 -0.1149461073715E-01  0.0000000000000E+00  0.6846278690048E-05
 0.2877592059190E-02 -0.1151154784165E-01  0.0000000000000E+00  0.1099870989968E-04
 0.2884207696853E-02 -0.1153812288498E-01  0.0000000000000E+00  0.1599432429700E-04
 0.2893689850654E-02 -0.1157620217891E-01  0.0000000000000E+00  0.2206171481273E-04
 0.2906633668765E-02 -0.1162817477626E-01  0.0000000000000E+00  0.2948191468088E-04
 0.2923802738952E-02 -0.1169711705724E-01  0.0000000000000E+00  0.3864147591798E-04
 0.2946202678274E-02 -0.1178709213202E-01  0.0000000000000E+00  0.5014292961009E-04
 0.2975259921838E-02 -0.1190385187612E-01  0.0000000000000E+00  0.6505676670920E-04
 0.3012892792578E-02 -0.1205678211203E-01  0.0000000000000E+00  0.8709545843671E-04
 0.3061037334784E-02 -0.1225993281273E-01  0.0000000000000E+00  0.1312376231776E-03
 0.3120086766795E-02 -0.1251689410462E-01  0.0000000000000E+00  0.2243689153795E-03
 0.3187815445062E-02 -0.1281406261429E-01  0.0000000000000E+00  0.3870640843079E-03
 0.3260832161532E-02 -0.1313604163402E-01  0.0000000000000E+00  0.6228633946913E-03
 0.3336693618049E-02 -0.1347495913034E-01  0.0000000000000E+00  0.9243567274516E-03
 0.3414684048412E-02 -0.1383201277413E-01  0.0000000000000E+00  0.1282126933828E-02
 0.3495550547077E-02 -0.1421529570916E-01  0.0000000000000E+00  0.1691118329483E-02
 0.3580680773601E-02 -0.1463642171883E-01  0.0000000000000E+00  0.2153607273296E-02
 0.3671169549312E-02 -0.1510704439573E-01  0.0000000000000E+00  0.2679191926189E-02
 0.3768565556463E-02 -0.1563372788396E-01  0.0000000000000E+00  0.3274521529591E-02
 0.3877065203527E-02 -0.1623169266697E-01  0.0000000000000E+00  0.3933464307766E-02
 0.4009515327602E-02 -0.1695192388754E-01  0.0000000000000E+00  0.4662451112580E-02
 0.4167125384795E-02 -0.1787055834720E-01  0.0000000000000E+00  0.5509291929839E-02
 0.4422050064759E-02 -0.1910894322134E-01  0.0000000000000E+00  0.6577135315868E-02
 0.4520583383829E-02 -0.2078150506383E-01  0.0000000000000E+00  0.8106713659105E-02
 0.5889142730344E-02 -0.2362688359332E-01  0.0000000000000E+00  0.1021928211361E-01
 0.6985351271047E-03 -0.2666051670237E-01  0.0000000000000E+00  0.1826968872709E-01
 0.2647959340703E-01 -0.3402201733541E-01  0.0000000000000E+00  0.1726230519409E-01
 0.1468572491354E-02 -0.1406301510626E-01  0.0000000000000E+00 -0.5504163726436E-02
 0.3103885818379E-02 -0.1362241515113E-01  0.0000000000000E+00 -0.2315604278703E-02
 0.3141242604265E-02 -0.1260313559244E-01  0.0000000000000E+00 -0.7288425272318E-03
 0.2998306483964E-02 -0.1213179258010E-01  0.0000000000000E+00 -0.4504377339402E-03
 0.2955166972356E-02 -0.1186025725603E-01  0.0000000000000E+00 -0.2569719572524E-03
 0.2914693464944E-02 -0.1168856249727E-01  0.0000000000000E+00 -0.1649035590035E-03
 0.2889743176273E-02 -0.1157552777556E-01  0.0000000000000E+00 -0.1091619214528E-03
 0.2871674511877E-02 -0.1149793523520E-01  0.0000000000000E+00 -0.7484903242488E-04
 0.2858907646320E-02 -0.1144342216118E-01  0.0000000000000E+00 -0.5211523846760E-04
 0.2849697752999E-02 -0.1140474632157E-01  0.0000000000000E+00 -0.3607239496714E-04
 0.2843180190774E-02 -0.1137769499217E-01  0.0000000000000E+00 -0.2375108442348E-04
 0.2838821964936E-02 -0.1135987783879E-01  0.0000000000000E+00 -0.1329522574484E-04
 0.2836367989640E-02 -0.1135009460821E-01  0.0000000000000E+00 -0.3443074688497E-05
 0.2835747702459E-02 -0.1134797216175E-01  0.0000000000000E+00  0.6727530712153E-05
 0.2837034732863E-02 -0.1135375793568E-01  0.0000000000000E+00  0.1795310960515E-04
 0.2840421292456E-02 -0.1136820698869E-01  0.0000000000000E+00  0.3088259289397E-04
 0.2846207010700E-02 -0.1139253340274E-01  0.0000000000000E+00  0.4615322594276E-04
 0.2854798505096E-02 -0.1142841258156E-01  0.0000000000000E+00  0.6446185581133E-04
 0.2866720193276E-02 -0.1147803829222E-01  0.0000000000000E+00  0.8665759807408E-04
 0.2882634525790E-02 -0.1154425351561E-01  0.0000000000000E+00  0.1138961112935E-03
 0.2903383762211E-02 -0.1163080597997E-01  0.0000000000000E+00  0.1479364395445E-03
 0.2929966666159E-02 -0.1174285898038E-01  0.0000000000000E+00  0.1920889466598E-03
 0.2962592282564E-02 -0.1188725743215E-01  0.0000000000000E+00  0.2538516012868E-03
 0.3000206007550E-02 -0.1207020534135E-01  0.0000000000000E+00  0.3455627631881E-03
 0.3042222562073E-02 -0.1229200121026E-01  0.0000000000000E+00  0.4812495427760E-03
 0.3088986129611E-02 -0.1254558785029E-01  0.0000000000000E+00  0.6725168471295E-03
 0.3140221819203E-02 -0.1282179515060E-01  0.0000000000000E+00  0.9247570460101E-03
 0.3194785291424E-02 -0.1311485304036E-01  0.0000000000000E+00  0.1237183350232E-02
 0.3251386204595E-02 -0.1342420801533E-01  0.0000000000000E+00  0.1606915137929E-02
 0.3308933776833E-02 -0.1375356602621E-01  0.0000000000000E+00  0.2032884231224E-02
 0.3366326888732E-02 -0.1410867635641E-01  0.0000000000000E+00  0.2517934891415E-02
 0.3423121536014E-02 -0.1449505035815E-01  0.0000000000000E+00  0.3067185759633E-02
 0.3481035410528E-02 -0.1491850683666E-01  0.0000000000000E+00  0.3685918021302E-02
 0.3542939667543E-02 -0.1539113860760E-01  0.0000000000000E+00  0.4384424863940E-02
 0.3605033277977E-02 -0.1593559426491E-01  0.0000000000000E+00  0.5189035757867E-02
 0.3672414523781E-02 -0.1658437652304E-01  0.0000000000000E+00  0.6146529153833E-02
 0.3678076090340E-02 -0.1735536925958E-01  0.0000000000000E+00  0.7395753419553E-02
 0.3778374726026E-02 -0.1828190955322E-01  0.0000000000000E+00  0.8900187493940E-02
 0.3041153866162E-02 -0.1917426149480E-01  0.0000000000000E+00  0.1231176395779E-01
 0.1168722371460E-02 -0.1743005839795E-01  0.0000000000000E+00  0.1171328740334E-01
 0.2035372338484E-01 -0.1976587133615E-01  0.0000000000000E+00  0.3550260564708E-02
 0.1071116959447E-02 -0.1290290367240E-01  0.0000000000000E+00 -0.5203768170477E-02
 0.2575998471954E-02 -0.1311096958871E-01  0.0000000000000E+00 -0.3252720407963E-02
 0.2989560185373E-02 -0.1256626018818E-01  0.0000000000000E+00 -0.1452902946932E-02
 0.2950023291999E-02 -0.1208335863542E-01  0.0000000000000E+00 -0.7754182533292E-03
 0.2911925982670E-02 -0.1180136170662E-01  0.0000000000000E+00 -0.4786809233567E-03
 0.2882475859436E-02 -0.1161322045400E-01  0.0000000000000E+00 -0.3058244001953E-03
 0.2858305436087E-02 -0.1148517879476E-01  0.0000000000000E+00 -0.2061446502637E-03
 0.2840457373685E-02 -0.1139518717747E-01  0.0000000000000E+00 -0.1427875749607E-03
 0.2826872227476E-02 -0.1133060284598E-01  0.0000000000000E+00 -0.1006730768141E-03
 0.2816660326250E-02 -0.1128382789537E-01  0.0000000000000E+00 -0.7075456172098E-04
 0.2809058427916E-02 -0.1125025122571E-01  0.0000000000000E+00 -0.4784230158769E-04
 0.2803628206620E-02 -0.1122714246164E-01  0.0000000000000E+00 -0.2861698750717E-04
 0.2800126126899E-02 -0.1121301124430E-01  0.0000000000000E+00 -0.1084124931452E-04
 0.2798471233845E-02 -0.1120723642326E-01  0.0000000000000E+00  0.7113787311858E-05
 0.2798708733514E-02 -0.1120984635616E-01  0.0000000000000E+00  0.2653475640782E-04
 0.2800990359214E-02 -0.1122139361466E-01  0.0000000000000E+00  0.4854000670024E-04
 0.2805562133023E-02 -0.1124289317855E-01  0.0000000000000E+00  0.7420970314381E-04
 0.2812758998950E-02 -0.1127580949615E-01  0.0000000000000E+00  0.1047060895161E-03
 0.2823002762603E-02 -0.1132209094844E-01  0.0000000000000E+00  0.1414241387734E-03
 0.2836795020912E-02 -0.1138425652886E-01  0.0000000000000E+00  0.1862253160384E-03
 0.2854684377751E-02 -0.1146555248144E-01  0.0000000000000E+00  0.2419016920489E-03
 0.2876913972130E-02 -0.1157004217036E-01  0.0000000000000E+00  0.3133172021530E-03
 0.2902409458140E-02 -0.1170181890530E-01  0.0000000000000E+00  0.4084148441519E-03
 0.2929010581637E-02 -0.1186313824787E-01  0.0000000000000E+00  0.5361492687228E-03
 0.2955955720501E-02 -0.1205303438522E-01  0.0000000000000E+00  0.7040639613043E-03
 0.2984566715800E-02 -0.1226740624683E-01  0.0000000000000E+00  0.9188247625951E-03
 0.3016035235697E-02 -0.1250073630296E-01  0.0000000000000E+00  0.1185745679241E-02
 0.3050029294796E-02 -0.1274862910228E-01  0.0000000000000E+00  0.1507476049752E-02
 0.3084956983147E-02 -0.1300919656308E-01  0.0000000000000E+00  0.1884940785299E-02
 0.3118518082382E-02 -0.1328273095275E-01  0.0000000000000E+00  0.2319250587439E-02
 0.3148174244934E-02 -0.1357037299661E-01  0.0000000000000E+00  0.2812605545568E-02
 0.3172340226510E-02 -0.1387323431594E-01  0.0000000000000E+00  0.3367741657261E-02
 0.3191286959284E-02 -0.1419325978955E-01  0.0000000000000E+00  0.3990120551759E-02
 0.3202564930581E-02 -0.1453318668420E-01  0.0000000000000E+00  0.4694390213657E-02
 0.3198198693269E-02 -0.1489328448517E-01  0.0000000000000E+00  0.5503447875621E-02
 0.3151528578046E-02 -0.1526253795692E-01  0.0000000000000E+00  0.6462475393820E-02
 0.3039121531698E-02 -0.1559106977572E-01  0.0000000000000E+00  0.7576490873982E-02
 0.2764618784066E-02 -0.1577653609722E-01  0.0000000000000E+00  0.9027982760850E-02
 0.1685762933504E-02 -0.1493008636354E-01  0.0000000000000E+00  0.1024345210038E-01
 0.2805133967385E-02 -0.1286609242616E-01  0.0000000000000E+00  0.5038882250434E-02
 0.1833367280779E-01 -0.1504605614568E-01  0.0000000000000E+00 -0.7108157261573E-03
 0.8231802229792E-03 -0.1213512172935E-01  0.0000000000000E+00 -0.4806164049002E-02
 0.2149973025919E-02 -0.1254640075897E-01  0.0000000000000E+00 -0.3604971848507E-02
 0.2750218128921E-02 -0.1234937053178E-01  0.0000000000000E+00 -0.2017332647108E-02
 0.2852698449830E-02 -0.1198004024922E-01  0.0000000000000E+00 -0.1129401137913E-02
 0.2850091133005E-02 -0.1170660652236E-01  0.0000000000000E+00 -0.7030451780475E-03
 0.2835595971481E-02 -0.1151713383155E-01  0.0000000000000E+00 -0.4611586837420E-03
 0.2818630314058E-02 -0.1138160375419E-01  0.0000000000000E+00 -0.3141530136095E-03
 0.2803456289029E-02 -0.1128358963055E-01  0.0000000000000E+00 -0.2204371574504E-03
 0.2790852419612E-02 -0.1121155110640E-01  0.0000000000000E+00 -0.1571344015751E-03
 0.2780639812799E-02 -0.1115825728691E-01  0.0000000000000E+00 -0.1119034396705E-03
 0.2772565059493E-02 -0.1111909459259E-01  0.0000000000000E+00 -0.7720910554976E-04
 0.2766389270380E-02 -0.1109120912323E-01  0.0000000000000E+00 -0.4827905010824E-04
 0.2761972589666E-02 -0.1107294695469E-01  0.0000000000000E+00 -0.2186558536330E-04
 0.2759269784496E-02 -0.1106351214581E-01  0.0000000000000E+00  0.4388813380579E-05
 0.2758325323713E-02 -0.1106275485596E-01  0.0000000000000E+00  0.3233667311592E-04
 0.2759262944096E-02 -0.1107104365803E-01  0.0000000000000E+00  0.6357142057195E-04
 0.2762276147232E-02 -0.1108919516867E-01  0.0000000000000E+00  0.9961027467409E-04
 0.2767617579469E-02 -0.1111844572594E-01  0.0000000000000E+00  0.1420591408023E-03
 0.2775581159335E-02 -0.1116045750378E-01  0.0000000000000E+00  0.1928082546969E-03
 0.2786461316580E-02 -0.1121735011403E-01  0.0000000000000E+00  0.2543192939515E-03
 0.2800412225393E-02 -0.1129171367315E-01  0.0000000000000E+00  0.3301538975133E-03
 0.2816949464763E-02 -0.1138632846118E-01  0.0000000000000E+00  0.4257505082532E-03
 0.2834242407703E-02 -0.1150317643224E-01  0.0000000000000E+00  0.5481546800021E-03
 0.2849837430075E-02 -0.1164240950022E-01  0.0000000000000E+00  0.7035100740755E-03
 0.2863034772732E-02 -0.1180250868723E-01  0.0000000000000E+00  0.8957964006202E-03
 0.2875447580021E-02 -0.1198078241113E-01  0.0000000000000E+00  0.1128863035154E-02
 0.2888818341223E-02 -0.1217364504240E-01  0.0000000000000E+00  0.1407328026432E-02
 0.2903220850695E-02 -0.1237743785169E-01  0.0000000000000E+00  0.1735196291662E-02
 0.2916908382505E-02 -0.1258918640154E-01  0.0000000000000E+00  0.2115180281656E-02
 0.2926904242172E-02 -0.1280653273330E-01  0.0000000000000E+00  0.2549047142528E-02
 0.2929841003085E-02 -0.1302708096134E-01  0.0000000000000E+00  0.3037831939317E-02
 0.2923162834240E-02 -0.1324805473466E-01  0.0000000000000E+00  0.3582260826975E-02
 0.2904795637629E-02 -0.1346607391608E-01  0.0000000000000E+00  0.4186052822356E-02
 0.2869209562002E-02 -0.1367390144715E-01  0.0000000000000E+00  0.4858475443832E-02
 0.2801144128156E-02 -0.1385322960373E-01  0.0000000000000E+00  0.5611978095180E-02
 0.2673754322106E-02 -0.1396011978295E-01  0.0000000000000E+00  0.6442262859004E-02
 0.2452449855561E-02 -0.1390840591240E-01  0.0000000000000E+00  0.7311568561682E-02
 0.2004122515809E-02 -0.1343592276768E-01  0.0000000000000E+00  0.8053181202908E-02
 0.1488534566170E-02 -0.1198615140603E-01  0.0000000000000E+00  0.6986113900235E-02
 0.4512142052243E-02 -0.1075427246656E-01  0.0000000000000E+00  0.7219376653360E-03
 0.1697691618924E-01 -0.1298197535833E-01  0.0000000000000E+00 -0.1912838627045E-02
 0.6607640771458E-03 -0.1156854372671E-01  0.0000000000000E+00 -0.4421811616591E-02
 0.1819523692731E-02 -0.1203310980885E-01  0.0000000000000E+00 -0.3677336414416E-02
 0.2494545183735E-02 -0.1204745231269E-01  0.0000000000000E+00 -0.2384915819681E-02
 0.2716462298842E-02 -0.1181421398336E-01  0.0000000000000E+00 -0.1450387649572E-02
 0.2768079276288E-02 -0.1157979891342E-01  0.0000000000000E+00 -0.9251803077463E-03
 0.2775740495541E-02 -0.1139962995622E-01  0.0000000000000E+00 -0.6196984464398E-03
 0.2770119806783E-02 -0.1126426580944E-01  0.0000000000000E+00 -0.4290124945899E-03
 0.2760507151699E-02 -0.1116253543310E-01  0.0000000000000E+00 -0.3047290063636E-03
 0.2750533678746E-02 -0.1108574394033E-01  0.0000000000000E+00 -0.2197391295314E-03
 0.2741395885269E-02 -0.1102760357018E-01  0.0000000000000E+00 -0.1584052747955E-03
 0.2733493406946E-02 -0.1098388101064E-01  0.0000000000000E+00 -0.1111949271157E-03
 0.2726944523699E-02 -0.1095181090259E-01  0.0000000000000E+00 -0.7193102790437E-04
 0.2721787283879E-02 -0.1092970294105E-01  0.0000000000000E+00 -0.3639234165634E-04
 0.2718062425351E-02 -0.1091666215644E-01  0.0000000000000E+00 -0.1502014928767E-05
 0.2715841646950E-02 -0.1091240423503E-01  0.0000000000000E+00  0.3515086127445E-04
 0.2715235361351E-02 -0.1091713556301E-01  0.0000000000000E+00  0.7562398182276E-04
 0.2716388356616E-02 -0.1093147912864E-01  0.0000000000000E+00  0.1218510795273E-03
 0.2719464913936E-02 -0.1095643174340E-01  0.0000000000000E+00  0.1758431576271E-03
 0.2724615178897E-02 -0.1099333990261E-01  0.0000000000000E+00  0.2399128447366E-03
 0.2731895826183E-02 -0.1104386953912E-01  0.0000000000000E+00  0.3169806315060E-03
 0.2741051843998E-02 -0.1110987786993E-01  0.0000000000000E+00  0.4110206729311E-03
 0.2751034942272E-02 -0.1119295489850E-01  0.0000000000000E+00  0.5273534982637E-03
 0.2759646347042E-02 -0.1129358927897E-01  0.0000000000000E+00  0.6717214937534E-03
 0.2764482460685E-02 -0.1141075398828E-01  0.0000000000000E+00  0.8481324500568E-03
 0.2764951619397E-02 -0.1154263606447E-01  0.0000000000000E+00  0.1058468569459E-02
 0.2762646294787E-02 -0.1168717210250E-01  0.0000000000000E+00  0.1304846628788E-02
 0.2759388341276E-02 -0.1184168577554E-01  0.0000000000000E+00  0.1590955944589E-02
 0.2755394114020E-02 -0.1200277855598E-01  0.0000000000000E+00  0.1920876437982E-02
 0.2748868031181E-02 -0.1216655870856E-01  0.0000000000000E+00  0.2297641296103E-02
 0.2736544052153E-02 -0.1232863947452E-01  0.0000000000000E+00  0.2722563031030E-02
 0.2714647126884E-02 -0.1248385320349E-01  0.0000000000000E+00  0.3195003318671E-02
 0.2679785982486E-02 -0.1262590156130E-01  0.0000000000000E+00  0.3713098152478E-02
 0.2628263338207E-02 -0.1274611500277E-01  0.0000000000000E+00  0.4275837574220E-02
 0.2552316752784E-02 -0.1282877645608E-01  0.0000000000000E+00  0.4882699774482E-02
 0.2435920385431E-02 -0.1284173788331E-01  0.0000000000000E+00  0.5522638975907E-02
 0.2257225101497E-02 -0.1272505900867E-01  0.0000000000000E+00  0.6147443068403E-02
 0.1986788277388E-02 -0.1236403446241E-01  0.0000000000000E+00  0.6624640571743E-02
 0.1631364380206E-02 -0.1152020898808E-01  0.0000000000000E+00  0.6440460452490E-02
 0.1906986953679E-02 -0.1014345751520E-01  0.0000000000000E+00  0.3949659914005E-02
 0.5863086191246E-02 -0.9738388662414E-02  0.0000000000000E+00 -0.1709675298487E-02
 0.1591233446419E-01 -0.1181337043957E-01  0.0000000000000E+00 -0.2224678529500E-02
 0.5488081511050E-03 -0.1111884192641E-01  0.0000000000000E+00 -0.4071772448151E-02
 0.1563463286843E-02 -0.1158152569215E-01  0.0000000000000E+00 -0.3614327633029E-02
 0.2252988480133E-02 -0.1171736159066E-01  0.0000000000000E+00 -0.2596485864812E-02
 0.2559617015741E-02 -0.1160204898410E-01  0.0000000000000E+00 -0.1708079843135E-02
 0.2668345771240E-02 -0.1142264530987E-01  0.0000000000000E+00 -0.1131489566850E-02
 0.2704122337546E-02 -0.1126214997063E-01  0.0000000000000E+00 -0.7748009088679E-03
 0.2713207290320E-02 -0.1113312353146E-01  0.0000000000000E+00 -0.5457747012699E-03
 0.2711578437690E-02 -0.1103182344254E-01  0.0000000000000E+00 -0.3928920404971E-03
 0.2705827107589E-02 -0.1095288511867E-01  0.0000000000000E+00 -0.2866418429264E-03
 0.2698791479676E-02 -0.1089158505053E-01  0.0000000000000E+00 -0.2091162742159E-03
 0.2691718435533E-02 -0.1084436721911E-01  0.0000000000000E+00 -0.1490913783479E-03
 0.2685188794472E-02 -0.1080875346955E-01  0.0000000000000E+00 -0.9917589444694E-04
 0.2679493460899E-02 -0.1078313617244E-01  0.0000000000000E+00 -0.5425210752000E-04
 0.2674803825352E-02 -0.1076659550630E-01  0.0000000000000E+00 -0.1056894296006E-04
 0.2671246994797E-02 -0.1075875709553E-01  0.0000000000000E+00  0.3481444072354E-04
 0.2668935719553E-02 -0.1075968924856E-01  0.0000000000000E+00  0.8439320332634E-04
 0.2667972649956E-02 -0.1076982998916E-01  0.0000000000000E+00  0.1404835826897E-03
 0.2668433071971E-02 -0.1078993209657E-01  0.0000000000000E+00  0.2054492224242E-03
 0.2670317149109E-02 -0.1082100977725E-01  0.0000000000000E+00  0.2819370351300E-03
 0.2673439300108E-02 -0.1086424922385E-01  0.0000000000000E+00  0.3731590476231E-03
 0.2677182591215E-02 -0.1092078397355E-01  0.0000000000000E+00  0.4831762149570E-03
 0.2680117493310E-02 -0.1099120743913E-01  0.0000000000000E+00  0.6167998309844E-03
 0.2679925818143E-02 -0.1107497655363E-01  0.0000000000000E+00  0.7784508280673E-03
 0.2674387448705E-02 -0.1117036820596E-01  0.0000000000000E+00  0.9705390547394E-03
 0.2663006450531E-02 -0.1127536521333E-01  0.0000000000000E+00  0.1193611396685E-02
 0.2647221147565E-02 -0.1138811118949E-01  0.0000000000000E+00  0.1448587649444E-02
 0.2628715745047E-02 -0.1150625500365E-01  0.0000000000000E+00  0.1738108153201E-02
 0.2607717692776E-02 -0.1162635858062E-01  0.0000000000000E+00  0.2065538970693E-02
 0.2582476466946E-02 -0.1174375977010E-01  0.0000000000000E+00  0.2433225325848E-02
 0.2549729277740E-02 -0.1185254124284E-01  0.0000000000000E+00  0.2841211316718E-02
 0.2505616335908E-02 -0.1194537366612E-01  0.0000000000000E+00  0.3286640356850E-02
 0.2446359138115E-02 -0.1201298812110E-01  0.0000000000000E+00  0.3764037855686E-02
 0.2367550179779E-02 -0.1204239738615E-01  0.0000000000000E+00  0.4265693146923E-02
 0.2261490758515E-02 -0.1201176058184E-01  0.0000000000000E+00  0.4777510236272E-02
 0.2116108489484E-02 -0.1188201434363E-01  0.0000000000000E+00  0.5262603612692E-02
 0.1920472724980E-02 -0.1158788469872E-01  0.0000000000000E+00  0.5628279785609E-02
 0.1684759923262E-02 -0.1102177148783E-01  0.0000000000000E+00  0.5639445726863E-02
 0.1586972460185E-02 -0.1007089197574E-01  0.0000000000000E+00  0.4653426934362E-02
 0.2561693160735E-02 -0.9025795615109E-02  0.0000000000000E+00  0.1550540155389E-02
 0.6833707737206E-02 -0.9189782541994E-02  0.0000000000000E+00 -0.2999926018273E-02
 0.1503022192721E-01 -0.1102910590445E-01  0.0000000000000E+00 -0.2283842220551E-02
 0.4680174756309E-03 -0.1074285909642E-01  0.0000000000000E+00 -0.3756836965678E-02
 0.1362762111328E-02 -0.1118339298395E-01  0.0000000000000E+00 -0.3486314186309E-02
 0.2036077135135E-02 -0.1138616939199E-01  0.0000000000000E+00 -0.2697565171714E-02
 0.2396534776724E-02 -0.1136179148329E-01  0.0000000000000E+00 -0.1897869212064E-02
 0.2556110329359E-02 -0.1124007426994E-01  0.0000000000000E+00 -0.1311093109250E-02
 0.2622429538335E-02 -0.1110648880584E-01  0.0000000000000E+00 -0.9205815421042E-03
 0.2648700954209E-02 -0.1098886584283E-01  0.0000000000000E+00 -0.6603587594974E-03
 0.2656940336793E-02 -0.1089156048003E-01  0.0000000000000E+00 -0.4822183296534E-03
 0.2656793773175E-02 -0.1081290456312E-01  0.0000000000000E+00 -0.3560922252026E-03
 0.2652805493408E-02 -0.1075006216069E-01  0.0000000000000E+00 -0.2628857129837E-03
 0.2647189658631E-02 -0.1070040935386E-01  0.0000000000000E+00 -0.1901726331466E-03
 0.2641072725032E-02 -0.1066191429952E-01  0.0000000000000E+00 -0.1295857345780E-03
 0.2635056775469E-02 -0.1063315892500E-01  0.0000000000000E+00 -0.7524032232681E-04
 0.2629483697791E-02 -0.1061326685183E-01  0.0000000000000E+00 -0.2278322964688E-04
 0.2624561829809E-02 -0.1060181679220E-01  0.0000000000000E+00  0.3120770693968E-04
 0.2620422390956E-02 -0.1059876434935E-01  0.0000000000000E+00  0.8962416389297E-04
 0.2617135005687E-02 -0.1060437496817E-01  0.0000000000000E+00  0.1551192530332E-03
 0.2614690749750E-02 -0.1061916016077E-01  0.0000000000000E+00  0.2303467896307E-03
 0.2612944469941E-02 -0.1064379891155E-01  0.0000000000000E+00  0.3181904458972E-03
 0.2611488196771E-02 -0.1067900261776E-01  0.0000000000000E+00  0.4219880221517E-03
 0.2609419713298E-02 -0.1072524578017E-01  0.0000000000000E+00  0.5456420737718E-03
 0.2605086019537E-02 -0.1078232970786E-01  0.0000000000000E+00  0.6932712331830E-03
 0.2596198577578E-02 -0.1084900104622E-01  0.0000000000000E+00  0.8680949053447E-03
 0.2580762052891E-02 -0.1092310233886E-01  0.0000000000000E+00  0.1071307379789E-02
 0.2558355105881E-02 -0.1100244185116E-01  0.0000000000000E+00  0.1302515860959E-02
 0.2530222149030E-02 -0.1108514413109E-01  0.0000000000000E+00  0.1561691680382E-02
 0.2497838304459E-02 -0.1116886767084E-01  0.0000000000000E+00  0.1850342966231E-02
 0.2461406882216E-02 -0.1124998179782E-01  0.0000000000000E+00  0.2170638802007E-02
 0.2419320882587E-02 -0.1132320394677E-01  0.0000000000000E+00  0.2523571800048E-02
 0.2368554663487E-02 -0.1138150462372E-01  0.0000000000000E+00  0.2907334148581E-02
 0.2305498372678E-02 -0.1141595846761E-01  0.0000000000000E+00  0.3316315973511E-02
 0.2226559722800E-02 -0.1141509803848E-01  0.0000000000000E+00  0.3740614458300E-02
 0.2127812169893E-02 -0.1136301964032E-01  0.0000000000000E+00  0.4164529498564E-02
 0.2003997025243E-02 -0.1123485268852E-01  0.0000000000000E+00  0.4559320116718E-02
 0.1850545756077E-02 -0.1099061059672E-01  0.0000000000000E+00  0.4863812810727E-02
 0.1675437951038E-02 -0.1057120040580E-01  0.0000000000000E+00  0.4945082958922E-02
 0.1545191920014E-02 -0.9906922478433E-02  0.0000000000000E+00  0.4508290730185E-02
 0.1762153422251E-02 -0.9018396654188E-02  0.0000000000000E+00  0.2968663232779E-02
 0.3251717078723E-02 -0.8343240219852E-02  0.0000000000000E+00 -0.2128664057374E-03
 0.7497374293816E-02 -0.8843975112275E-02  0.0000000000000E+00 -0.3650220166286E-02
 0.1428468602237E-01 -0.1044192898832E-01  0.0000000000000E+00 -0.2284115003097E-02
 0.4073680184444E-03 -0.1041623771325E-01  0.0000000000000E+00 -0.3473217788398E-02
 0.1202979095586E-02 -0.1082820769807E-01  0.0000000000000E+00 -0.3328700765713E-02
 0.1845559077534E-02 -0.1106545769864E-01  0.0000000000000E+00 -0.2723763123737E-02
 0.2236315649620E-02 -0.1110725363335E-01  0.0000000000000E+00 -0.2026790791040E-02
 0.2436894725638E-02 -0.1103846256056E-01  0.0000000000000E+00 -0.1458899845761E-02
 0.2532934249335E-02 -0.1093508551147E-01  0.0000000000000E+00 -0.1052342147798E-02
 0.2577655911409E-02 -0.1083258022560E-01  0.0000000000000E+00 -0.7694434069911E-03
 0.2597087172723E-02 -0.1074216666373E-01  0.0000000000000E+00 -0.5703170261794E-03
 0.2603640726812E-02 -0.1066592222690E-01  0.0000000000000E+00 -0.4264570844889E-03
 0.2603516362638E-02 -0.1060303024810E-01  0.0000000000000E+00 -0.3186123623254E-03
 0.2599928525424E-02 -0.1055195729413E-01  0.0000000000000E+00 -0.2337176326639E-03
 0.2594599514193E-02 -0.1051124013482E-01  0.0000000000000E+00 -0.1627189834652E-03
 0.2588483812017E-02 -0.1047973699269E-01  0.0000000000000E+00 -0.9912687712457E-04
 0.2582125336187E-02 -0.1045667489933E-01  0.0000000000000E+00 -0.3808274734268E-04
 0.2575836213419E-02 -0.1044162560221E-01  0.0000000000000E+00  0.2425186248770E-04
 0.2569781864667E-02 -0.1043445769198E-01  0.0000000000000E+00  0.9111200944315E-04
 0.2564010156956E-02 -0.1043527970544E-01  0.0000000000000E+00  0.1654329969563E-03
 0.2558437868239E-02 -0.1044437167364E-01  0.0000000000000E+00  0.2500899963406E-03
 0.2552789488368E-02 -0.1046208802661E-01  0.0000000000000E+00  0.3481046442880E-03
 0.2546471178546E-02 -0.1048869555071E-01  0.0000000000000E+00  0.4627961805556E-03
 0.2538378976211E-02 -0.1052410006008E-01  0.0000000000000E+00  0.5977456135953E-03
 0.2526759328202E-02 -0.1056749190323E-01  0.0000000000000E+00  0.7563188707350E-03
 0.2509438953301E-02 -0.1061712749959E-01  0.0000000000000E+00  0.9406853545942E-03
 0.2484651554946E-02 -0.1067056427347E-01  0.0000000000000E+00  0.1151081384054E-02
 0.2452037914642E-02 -0.1072545022947E-01  0.0000000000000E+00  0.1386373523801E-02
 0.2412661078286E-02 -0.1077978025229E-01  0.0000000000000E+00  0.1645686517949E-02
 0.2367798296907E-02 -0.1083107290667E-01  0.0000000000000E+00  0.1929335098861E-02
 0.2317657364247E-02 -0.1087545944483E-01  0.0000000000000E+00  0.2238005817305E-02
 0.2260881370507E-02 -0.1090719999652E-01  0.0000000000000E+00  0.2570926762100E-02
 0.2194893132327E-02 -0.1091852915804E-01  0.0000000000000E+00  0.2924041395526E-02
 0.2116679784351E-02 -0.1089949569927E-01  0.0000000000000E+00  0.3288597704336E-02
 0.2023473842447E-02 -0.1083732733840E-01  0.0000000000000E+00  0.3649790649645E-02
 0.1913054134483E-02 -0.1071483116861E-01  0.0000000000000E+00  0.3983616062237E-02
 0.1784568043033E-02 -0.1050712754293E-01  0.0000000000000E+00  0.4247712119186E-02
 0.1643862961928E-02 -0.1017847203152E-01  0.0000000000000E+00  0.4360696047997E-02
 0.1522916184219E-02 -0.9685914560389E-02  0.0000000000000E+00  0.4163222716218E-02
 0.1540880155167E-02 -0.9009531416953E-02  0.0000000000000E+00  0.3355821928881E-02
 0.2060914870905E-02 -0.8267001143682E-02  0.0000000000000E+00  0.1506626417459E-02
 0.3886191957598E-02 -0.7912834912657E-02  0.0000000000000E+00 -0.1462569347904E-02
 0.7935339762898E-02 -0.8590105394995E-02  0.0000000000000E+00 -0.3953035256556E-02
 0.1364557172020E-01 -0.9972390870608E-02  0.0000000000000E+00 -0.2278874305527E-02
 0.3602883355870E-03 -0.1012422523977E-01  0.0000000000000E+00 -0.3216562102824E-02
 0.1073648822721E-02 -0.1050686266860E-01  0.0000000000000E+00 -0.3159750668842E-02
 0.1679645063098E-02 -0.1075935751553E-01  0.0000000000000E+00 -0.2700375212350E-02
 0.2084005032183E-02 -0.1084754266791E-01  0.0000000000000E+00 -0.2105472870905E-02
 0.2315321080794E-02 -0.1082387049573E-01  0.0000000000000E+00 -0.1574424395647E-02
 0.2438115679816E-02 -0.1075081362611E-01  0.0000000000000E+00 -0.1167146628244E-02
 0.2501313492205E-02 -0.1066563434744E-01  0.0000000000000E+00 -0.8704567910250E-03
 0.2532664822705E-02 -0.1058429457899E-01  0.0000000000000E+00 -0.6551975398339E-03
 0.2546696277628E-02 -0.1051222548212E-01  0.0000000000000E+00 -0.4962812355693E-03
 0.2551089369234E-02 -0.1045060298129E-01  0.0000000000000E+00 -0.3752753744003E-03
 0.2550020989025E-02 -0.1039904761054E-01  0.0000000000000E+00 -0.2790343541745E-03
 0.2545821151260E-02 -0.1035674253382E-01  0.0000000000000E+00 -0.1981345444360E-03
 0.2539819424519E-02 -0.1032288688179E-01  0.0000000000000E+00 -0.1256654631667E-03
 0.2532783565349E-02 -0.1029686007588E-01  0.0000000000000E+00 -0.5637735358369E-04
 0.2525147687054E-02 -0.1027826229958E-01  0.0000000000000E+00  0.1390642842733E-04
 0.2517126099276E-02 -0.1026690021077E-01  0.0000000000000E+00  0.8870173653169E-04
 0.2508757771378E-02 -0.1026274376814E-01  0.0000000000000E+00  0.1711650077359E-03
 0.2499899548398E-02 -0.1026585766250E-01  0.0000000000000E+00  0.2643214261956E-03
 0.2490168535146E-02 -0.1027629415835E-01  0.0000000000000E+00  0.3712379046574E-03
 0.2478830085457E-02 -0.1029392209510E-01  0.0000000000000E+00  0.4951004241917E-03
 0.2464656907325E-02 -0.1031817524948E-01  0.0000000000000E+00  0.6390712774091E-03
 0.2445885970985E-02 -0.1034778268245E-01  0.0000000000000E+00  0.8057697302565E-03
 0.2420507124411E-02 -0.1038066267750E-01  0.0000000000000E+00  0.9964567182983E-03
 0.2386975984692E-02 -0.1041417971919E-01  0.0000000000000E+00  0.1210579003151E-02
 0.2344996040875E-02 -0.1044583824340E-01  0.0000000000000E+00  0.1446356692118E-02
 0.2295491250225E-02 -0.1047346497838E-01  0.0000000000000E+00  0.1702100385080E-02
 0.2239597855191E-02 -0.1049439240152E-01  0.0000000000000E+00  0.1976893293214E-02
 0.2177595400593E-02 -0.1050454200031E-01  0.0000000000000E+00  0.2269789088459E-02
 0.2108491716392E-02 -0.1049789405338E-01  0.0000000000000E+00  0.2578025794674E-02
 0.2030358503219E-02 -0.1046630360076E-01  0.0000000000000E+00  0.2895076829840E-02
 0.1941124911375E-02 -0.1039936424351E-01  0.0000000000000E+00  0.3208867771534E-02
 0.1839474717678E-02 -0.1028393258800E-01  0.0000000000000E+00  0.3499648005873E-02
 0.1725946937240E-02 -0.1010312564847E-01  0.0000000000000E+00  0.3735719323352E-02
 0.1605548297715E-02 -0.9834655497114E-02  0.0000000000000E+00  0.3863528397120E-02
 0.1496311657929E-02 -0.9451092980468E-02  0.0000000000000E+00  0.3787983136907E-02
 0.1454354081727E-02 -0.8931099393832E-02  0.0000000000000E+00  0.3341873077120E-02
 0.1636507906905E-02 -0.8300841086833E-02  0.0000000000000E+00  0.2263560377481E-02
 0.2414631677093E-02 -0.7731339943753E-02  0.0000000000000E+00  0.2964831248213E-03
 0.4432543184214E-02 -0.7626988850670E-02  0.0000000000000E+00 -0.2330123539338E-02
 0.8213160588030E-02 -0.8381472390830E-02  0.0000000000000E+00 -0.4070001028021E-02
 0.1309042668165E-01 -0.9581613799064E-02  0.0000000000000E+00 -0.2278893726099E-02
 0.3226968226449E-03 -0.9857387489039E-02  0.0000000000000E+00 -0.2982968064635E-02
 0.9672633743048E-03 -0.1021215997652E-01  0.0000000000000E+00 -0.2989009929651E-02
 0.1535373236263E-02 -0.1046855419448E-01  0.0000000000000E+00 -0.2644754130183E-02
 0.1941988564261E-02 -0.1058822132773E-01  0.0000000000000E+00 -0.2144513598693E-02
 0.2194805481389E-02 -0.1060128300142E-01  0.0000000000000E+00 -0.1659926888394E-02
 0.2340306461471E-02 -0.1055659221292E-01  0.0000000000000E+00 -0.1263779551965E-02
 0.2420996928368E-02 -0.1048956863419E-01  0.0000000000000E+00 -0.9616260885679E-03
 0.2464415751245E-02 -0.1041875690315E-01  0.0000000000000E+00 -0.7352913881378E-03
 0.2486378216796E-02 -0.1035223515369E-01  0.0000000000000E+00 -0.5643279277038E-03
 0.2495761764585E-02 -0.1029299528016E-01  0.0000000000000E+00 -0.4319603576108E-03
 0.2497608813481E-02 -0.1024179371656E-01  0.0000000000000E+00 -0.3254782518812E-03
 0.2494833336598E-02 -0.1019849224670E-01  0.0000000000000E+00 -0.2354044900769E-03
 0.2489143383093E-02 -0.1016267199688E-01  0.0000000000000E+00 -0.1546018049526E-03
 0.2481542092772E-02 -0.1013390151103E-01  0.0000000000000E+00 -0.7755406194773E-04
 0.2472598709447E-02 -0.1011183916770E-01  0.0000000000000E+00  0.1664430716031E-06
 0.2462589485312E-02 -0.1009625336549E-01  0.0000000000000E+00  0.8228720428410E-04
 0.2451558307301E-02 -0.1008699571671E-01  0.0000000000000E+00  0.1721211111402E-03
 0.2439319805732E-02 -0.1008393694924E-01  0.0000000000000E+00  0.2727730380438E-03
 0.2425411739387E-02 -0.1008685823194E-01  0.0000000000000E+00  0.3872733567358E-03
 0.2409006021804E-02 -0.1009528563033E-01  0.0000000000000E+00  0.5185898495284E-03
 0.2388820293851E-02 -0.1010827340814E-01  0.0000000000000E+00  0.6694162018381E-03
 0.2363147981799E-02 -0.1012420968103E-01  0.0000000000000E+00  0.8416626260112E-03
 0.2330168805355E-02 -0.1014078274424E-01  0.0000000000000E+00  0.1035800426463E-02
 0.2288553173437E-02 -0.1015522806627E-01  0.0000000000000E+00  0.1250595680761E-02
 0.2238080113951E-02 -0.1016493154972E-01  0.0000000000000E+00  0.1483663085141E-02
 0.2179593043459E-02 -0.1016755931396E-01  0.0000000000000E+00  0.1732504959131E-02
 0.2114167261690E-02 -0.1016027561091E-01  0.0000000000000E+00  0.1994961480466E-02
 0.2042242062332E-02 -0.1013886818297E-01  0.0000000000000E+00  0.2268400997552E-02
 0.1963308417237E-02 -0.1009722556961E-01  0.0000000000000E+00  0.2547989801065E-02
 0.1876275314847E-02 -0.1002716428446E-01  0.0000000000000E+00  0.2824675159511E-02
 0.1780333787727E-02 -0.9918374127871E-02  0.0000000000000E+00  0.3083111611352E-02
 0.1676159284662E-02 -0.9758228706798E-02  0.0000000000000E+00  0.3298986935574E-02
 0.1567835077265E-02 -0.9531549483595E-02  0.0000000000000E+00  0.3434226596194E-02
 0.1467075908848E-02 -0.9220649356701E-02  0.0000000000000E+00  0.3427467238363E-02
 0.1404319683732E-02 -0.8808913000303E-02  0.0000000000000E+00  0.3177775440016E-02
 0.1455938814949E-02 -0.8297262378883E-02  0.0000000000000E+00  0.2527334218743E-02
 0.1798770498003E-02 -0.7746510909237E-02  0.0000000000000E+00  0.1275563626782E-02
 0.2779512354934E-02 -0.7345735596585E-02  0.0000000000000E+00 -0.6767104790363E-03
 0.4886106624019E-02 -0.7424242743128E-02  0.0000000000000E+00 -0.2923757486861E-02
 0.8378685820939E-02 -0.8198122271896E-02  0.0000000000000E+00 -0.4088491310411E-02
 0.1260204682286E-01 -0.9247944184985E-02  0.0000000000000E+00 -0.2283314844455E-02
 0.2919599189602E-03 -0.9609421984836E-02  0.0000000000000E+00 -0.2769166896697E-02
 0.8784161006315E-03 -0.9938570334400E-02  0.0000000000000E+00 -0.2821453861675E-02
 0.1409630261168E-02 -0.1019223129415E-01  0.0000000000000E+00 -0.2568652041365E-02
 0.1811044332460E-02 -0.1033246929831E-01  0.0000000000000E+00 -0.2153137441151E-02
 0.2077657222091E-02 -0.1037448092607E-01  0.0000000000000E+00 -0.1718966745902E-02
 0.2241494594090E-02 -0.1035509596523E-01  0.0000000000000E+00 -0.1342366065056E-02
 0.2338001011294E-02 -0.1030597246115E-01  0.0000000000000E+00 -0.1041951098656E-02
 0.2393127894577E-02 -0.1024646385209E-01  0.0000000000000E+00 -0.8094539594493E-03
 0.2423163397451E-02 -0.1018646931916E-01  0.0000000000000E+00 -0.6295959612955E-03
 0.2437826051690E-02 -0.1013050429031E-01  0.0000000000000E+00 -0.4878777566813E-03
 0.2442880057852E-02 -0.1008037484919E-01  0.0000000000000E+00 -0.3724661020525E-03
 0.2441769582646E-02 -0.1003661248554E-01  0.0000000000000E+00 -0.2741243536289E-03
 0.2436566418908E-02 -0.9999198104761E-02  0.0000000000000E+00 -0.1856808236787E-03
 0.2428510416090E-02 -0.9967913454186E-02  0.0000000000000E+00 -0.1014818115929E-03
 0.2418313746827E-02 -0.9942498583827E-02  0.0000000000000E+00 -0.1694051175749E-04
 0.2406325555503E-02 -0.9922705225602E-02  0.0000000000000E+00  0.7180942828688E-04
 0.2392608730512E-02 -0.9908287955420E-02  0.0000000000000E+00  0.1681716704625E-03
 0.2376955435094E-02 -0.9898948701975E-02  0.0000000000000E+00  0.2752643125869E-03
 0.2358854395497E-02 -0.9894234018363E-02  0.0000000000000E+00  0.3960123366492E-03
 0.2337429716149E-02 -0.9893384984731E-02  0.0000000000000E+00  0.5331062905489E-03
 0.2311400945590E-02 -0.9895160151618E-02  0.0000000000000E+00  0.6887528716084E-03
 0.2279165433622E-02 -0.9897702953520E-02  0.0000000000000E+00  0.8642032214325E-03
 0.2239108481519E-02 -0.9898551986538E-02  0.0000000000000E+00  0.1059234609901E-02
 0.2190112522466E-02 -0.9894864222074E-02  0.0000000000000E+00  0.1272003953634E-02
 0.2132054495999E-02 -0.9883941077669E-02  0.0000000000000E+00  0.1499538261533E-02
 0.2065763447811E-02 -0.9863324771697E-02  0.0000000000000E+00  0.1738534463240E-02
 0.1992343053410E-02 -0.9830067661050E-02  0.0000000000000E+00  0.1985607011412E-02
 0.1912488288556E-02 -0.9779928029640E-02  0.0000000000000E+00  0.2236461455165E-02
 0.1826288745458E-02 -0.9706894270864E-02  0.0000000000000E+00  0.2484225724117E-02
 0.1733659581258E-02 -0.9603064788153E-02  0.0000000000000E+00  0.2717415289641E-02
 0.1635323302273E-02 -0.9458731270099E-02  0.0000000000000E+00  0.2917686766572E-02
 0.1534351954280E-02 -0.9262556759620E-02  0.0000000000000E+00  0.3056903509175E-02
 0.1438840697886E-02 -0.9002158096466E-02  0.0000000000000E+00  0.3092402878435E-02
 0.1367399957695E-02 -0.8665751808347E-02  0.0000000000000E+00  0.2958875980054E-02
 0.1361644149896E-02 -0.8248328781400E-02  0.0000000000000E+00  0.2557274315637E-02
 0.1512209705017E-02 -0.7770269973742E-02  0.0000000000000E+00  0.1751711355554E-02
 0.2000426460064E-02 -0.7313910523740E-02  0.0000000000000E+00  0.4095711403869E-03
 0.3130010524140E-02 -0.7063006472720E-02  0.0000000000000E+00 -0.1444852490701E-02
 0.5254128320175E-02 -0.7269859081132E-02  0.0000000000000E+00 -0.3324106660008E-02
 0.8465492866318E-02 -0.8031275877378E-02  0.0000000000000E+00 -0.4055301923870E-02
 0.1216722971160E-01 -0.8957906918037E-02  0.0000000000000E+00 -0.2289137229324E-02
 0.2663185238950E-03 -0.9375963729892E-02  0.0000000000000E+00 -0.2572475222968E-02
 0.8031751109724E-03 -0.9681871980265E-02  0.0000000000000E+00 -0.2659603545203E-02
 0.1299556482204E-02 -0.9929002604451E-02  0.0000000000000E+00 -0.2479998665451E-02
 0.1691040079503E-02 -0.1008194969884E-01  0.0000000000000E+00 -0.2138884321092E-02
 0.1965306823208E-02 -0.1014618232492E-01  0.0000000000000E+00 -0.1755491440646E-02
 0.2143257620309E-02 -0.1014861102387E-01  0.0000000000000E+00 -0.1403927187005E-02
 0.2253509033719E-02 -0.1011637613968E-01  0.0000000000000E+00 -0.1111096192943E-02
 0.2319587674018E-02 -0.1006836587495E-01  0.0000000000000E+00 -0.8769432250820E-03
 0.2357560003894E-02 -0.1001550933764E-01  0.0000000000000E+00 -0.6913208517456E-03
 0.2377613244868E-02 -0.9963489597673E-02  0.0000000000000E+00 -0.5423721209857E-03
 0.2386059063784E-02 -0.9915024344389E-02  0.0000000000000E+00 -0.4194854466744E-03
 0.2386794851978E-02 -0.9871271490927E-02  0.0000000000000E+00 -0.3139209122708E-03
 0.2382225837798E-02 -0.9832608212767E-02  0.0000000000000E+00 -0.2186525796382E-03
 0.2373820394858E-02 -0.9799041234691E-02  0.0000000000000E+00 -0.1280157746235E-03
 0.2362436112522E-02 -0.9770409247699E-02  0.0000000000000E+00 -0.3735738746932E-04
 0.2348503547605E-02 -0.9746466311777E-02  0.0000000000000E+00  0.5725423047945E-04
 0.2332118260312E-02 -0.9726891514912E-02  0.0000000000000E+00  0.1592491727105E-03
 0.2313070404010E-02 -0.9711245383382E-02  0.0000000000000E+00  0.2716980945332E-03
 0.2290830016890E-02 -0.9698878847665E-02  0.0000000000000E+00  0.3973648719376E-03
 0.2264515035681E-02 -0.9688804575804E-02  0.0000000000000E+00  0.5386245972543E-03
 0.2232893339078E-02 -0.9679559150025E-02  0.0000000000000E+00  0.6971984959387E-03
 0.2194500648314E-02 -0.9669118932644E-02  0.0000000000000E+00  0.8737312114825E-03
 0.2147938324134E-02 -0.9654935571678E-02  0.0000000000000E+00  0.1067382304445E-02
 0.2092303334771E-02 -0.9634132042031E-02  0.0000000000000E+00  0.1275749463933E-02
 0.2027599284589E-02 -0.9603966747972E-02  0.0000000000000E+00  0.1495283606368E-02
 0.1954708793116E-02 -0.9561912309644E-02  0.0000000000000E+00  0.1721888655601E-02
 0.1874853564911E-02 -0.9504986892351E-02  0.0000000000000E+00  0.1950999755698E-02
 0.1789078808453E-02 -0.9429037252209E-02  0.0000000000000E+00  0.2176741810488E-02
 0.1698178006320E-02 -0.9328338031154E-02  0.0000000000000E+00  0.2390330768138E-02
 0.1603212205038E-02 -0.9195559570539E-02  0.0000000000000E+00  0.2578074445366E-02
 0.1506634803183E-02 -0.9022030562720E-02  0.0000000000000E+00  0.2719090304386E-02
 0.1414158970840E-02 -0.8798315001543E-02  0.0000000000000E+00  0.2782402379935E-02
 0.1338033347814E-02 -0.8515565252150E-02  0.0000000000000E+00  0.2722785693221E-02
 0.1303335148256E-02 -0.8168474893300E-02  0.0000000000000E+00  0.2474827520070E-02
 0.1360624997563E-02 -0.7763001890109E-02  0.0000000000000E+00  0.1947763778058E-02
 0.1608402151540E-02 -0.7334444645760E-02  0.0000000000000E+00  0.1034673626016E-02
 0.2220998128349E-02 -0.6975137468903E-02  0.0000000000000E+00 -0.3329039604055E-03
 0.3452703718246E-02 -0.6850419864837E-02  0.0000000000000E+00 -0.2043114263240E-02
 0.5547897422593E-02 -0.7144223310163E-02  0.0000000000000E+00 -0.3588612548883E-02
 0.8496829168221E-02 -0.7876829332597E-02  0.0000000000000E+00 -0.3995401339560E-02
 0.1177582359138E-01 -0.8702364386474E-02  0.0000000000000E+00 -0.2293766578248E-02
 0.2445605062262E-03 -0.9153896496984E-02  0.0000000000000E+00 -0.2390697033185E-02
 0.7386451756230E-03 -0.9438830868982E-02  0.0000000000000E+00 -0.2504640359344E-02
 0.1202674364358E-02 -0.9677349678338E-02  0.0000000000000E+00 -0.2384144224609E-02
 0.1581367155542E-02 -0.9837394374061E-02  0.0000000000000E+00 -0.2107716513766E-02
 0.1858540020543E-02 -0.9918260165367E-02  0.0000000000000E+00 -0.1773331926484E-02
 0.2046776677771E-02 -0.9938998705634E-02  0.0000000000000E+00 -0.1449999634029E-02
 0.2168545487322E-02 -0.9922177253009E-02  0.0000000000000E+00 -0.1169242185238E-02
 0.2244541940466E-02 -0.9885404452710E-02  0.0000000000000E+00 -0.9373754296313E-03
 0.2290083157102E-02 -0.9839969337169E-02  0.0000000000000E+00 -0.7489637643344E-03
 0.2315477234075E-02 -0.9792354178362E-02  0.0000000000000E+00 -0.5949233733561E-03
 0.2327396504733E-02 -0.9746017759230E-02  0.0000000000000E+00 -0.4660996370993E-03
 0.2330099021643E-02 -0.9702674782981E-02  0.0000000000000E+00 -0.3544575367169E-03
 0.2326280907457E-02 -0.9663077110105E-02  0.0000000000000E+00 -0.2532769293905E-03
 0.2317622623552E-02 -0.9627456946988E-02  0.0000000000000E+00 -0.1570011420529E-03
 0.2305124677334E-02 -0.9595762222777E-02  0.0000000000000E+00 -0.6100078030166E-04
 0.2289304950651E-02 -0.9567765376798E-02  0.0000000000000E+00  0.3864934574660E-04
 0.2270304321195E-02 -0.9543091007295E-02  0.0000000000000E+00  0.1453447039275E-03
 0.2247930948098E-02 -0.9521186414830E-02  0.0000000000000E+00  0.2620547683001E-03
 0.2221664955795E-02 -0.9501246140356E-02  0.0000000000000E+00  0.3913387725605E-03
 0.2190654746932E-02 -0.9482107573289E-02  0.0000000000000E+00  0.5352340625024E-03
 0.2153753841536E-02 -0.9462149306901E-02  0.0000000000000E+00  0.6949899162168E-03
 0.2109661783847E-02 -0.9439244147728E-02  0.0000000000000E+00  0.8706952753840E-03
 0.2057204325248E-02 -0.9410808402345E-02  0.0000000000000E+00  0.1060954091892E-02
 0.1995700086007E-02 -0.9373972879884E-02  0.0000000000000E+00  0.1262843942105E-02
 0.1925311461664E-02 -0.9325999448437E-02  0.0000000000000E+00  0.1472254748601E-02
 0.1847040284000E-02 -0.9264354789409E-02  0.0000000000000E+00  0.1684325186731E-02
 0.1762310427446E-02 -0.9186110178660E-02  0.0000000000000E+00  0.1893385170235E-02
 0.1672603677724E-02 -0.9087321308145E-02  0.0000000000000E+00  0.2092109028904E-02
 0.1579505768554E-02 -0.8962721638251E-02  0.0000000000000E+00  0.2270000974995E-02
 0.1485325633162E-02 -0.8805802808959E-02  0.0000000000000E+00  0.2411488809270E-02
 0.1394365202725E-02 -0.8609276902903E-02  0.0000000000000E+00  0.2493744135958E-02
 0.1315057848053E-02 -0.8366037555729E-02  0.0000000000000E+00  0.2484072347013E-02
 0.1263646372382E-02 -0.8071157354726E-02  0.0000000000000E+00  0.2336729566862E-02
 0.1270766570623E-02 -0.7725733166258E-02  0.0000000000000E+00  0.1989588168328E-02
 0.1393221791636E-02 -0.7345095925690E-02  0.0000000000000E+00  0.1364665338191E-02
 0.1731646168346E-02 -0.6974533056668E-02  0.0000000000000E+00  0.3863052817247E-03
 0.2445999201724E-02 -0.6707666357452E-02  0.0000000000000E+00 -0.9592333480599E-03
 0.3741722934121E-02 -0.6685659129275E-02  0.0000000000000E+00 -0.2503906448038E-02
 0.5779145537474E-02 -0.7036206418452E-02  0.0000000000000E+00 -0.3757349705836E-02
 0.8488783694808E-02 -0.7732644835045E-02  0.0000000000000E+00 -0.3922078872831E-02
 0.1141996915887E-01 -0.8474723025301E-02  0.0000000000000E+00 -0.2295455637742E-02
 0.2258271260496E-03 -0.8940937366327E-02  0.0000000000000E+00 -0.2222027926159E-02
 0.6826655690342E-03 -0.9206951010394E-02  0.0000000000000E+00 -0.2357008484141E-02
 0.1116897770165E-02 -0.9435817473463E-02  0.0000000000000E+00 -0.2284701283016E-02
 0.1481199721413E-02 -0.9598981607125E-02  0.0000000000000E+00 -0.2064262177827E-02
 0.1757694195279E-02 -0.9691952916659E-02  0.0000000000000E+00 -0.1775959386449E-02
 0.1952888509888E-02 -0.9727720762814E-02  0.0000000000000E+00 -0.1482355179539E-02
 0.2083959021690E-02 -0.9724601867861E-02  0.0000000000000E+00 -0.1216935609406E-02
 0.2168671556369E-02 -0.9698474499895E-02  0.0000000000000E+00 -0.9906655887151E-03
 0.2221234772904E-02 -0.9660470066980E-02  0.0000000000000E+00 -0.8021907635789E-03
 0.2251780881675E-02 -0.9617526996838E-02  0.0000000000000E+00 -0.6451416416514E-03
 0.2267159981807E-02 -0.9573661398212E-02  0.0000000000000E+00 -0.5119488759902E-03
 0.2271890439050E-02 -0.9531057405423E-02  0.0000000000000E+00 -0.3954372351295E-03
 0.2268908192474E-02 -0.9490805781158E-02  0.0000000000000E+00 -0.2893269192492E-03
 0.2260082729604E-02 -0.9453355006597E-02  0.0000000000000E+00 -0.1882763502563E-03
 0.2246550552744E-02 -0.9418766914215E-02  0.0000000000000E+00 -0.8776400676724E-04
 0.2228920138604E-02 -0.9386845254236E-02  0.0000000000000E+00  0.1606111437236E-04
 0.2207388814090E-02 -0.9357179906724E-02  0.0000000000000E+00  0.1265035914931E-03
 0.2181801418529E-02 -0.9329132677789E-02  0.0000000000000E+00  0.2463853982812E-03
 0.2151674343674E-02 -0.9301779563027E-02  0.0000000000000E+00  0.3780283268663E-03
 0.2116217831104E-02 -0.9273831246058E-02  0.0000000000000E+00  0.5231215309934E-03
 0.2074400789857E-02 -0.9243563503186E-02  0.0000000000000E+00  0.6824628340719E-03
 0.2025105826786E-02 -0.9208798495164E-02  0.0000000000000E+00  0.8556330654219E-03
 0.1967390697222E-02 -0.9166961457522E-02  0.0000000000000E+00  0.1040733128349E-02
 0.1900806071937E-02 -0.9115231374972E-02  0.0000000000000E+00  0.1234355848821E-02
 0.1825706025566E-02 -0.9050922502261E-02  0.0000000000000E+00  0.1431853732038E-02
 0.1743272050228E-02 -0.8971562585492E-02  0.0000000000000E+00  0.1627645247644E-02
 0.1655204950762E-02 -0.8874364625740E-02  0.0000000000000E+00  0.1815053963504E-02
 0.1563496342470E-02 -0.8755707842703E-02  0.0000000000000E+00  0.1985471426627E-02
 0.1470590375608E-02 -0.8610935777303E-02  0.0000000000000E+00  0.2126946047762E-02
 0.1380102525230E-02 -0.8434561790415E-02  0.0000000000000E+00  0.2222426890973E-02
 0.1298215983916E-02 -0.8220929454481E-02  0.0000000000000E+00  0.2247811333770E-02
 0.1236009059730E-02 -0.7965505801179E-02  0.0000000000000E+00  0.2169836195109E-02
 0.1213313173323E-02 -0.7667345471265E-02  0.0000000000000E+00  0.1944114476662E-02
 0.1265116227163E-02 -0.7333381776586E-02  0.0000000000000E+00  0.1514467469550E-02
 0.1451731151545E-02 -0.6986251205659E-02  0.0000000000000E+00  0.8182386333428E-03
 0.1871381130592E-02 -0.6676743715241E-02  0.0000000000000E+00 -0.1900666973388E-03
 0.2665708213738E-02 -0.6493910646252E-02  0.0000000000000E+00 -0.1480912632619E-02
 0.3995655382760E-02 -0.6553615132914E-02  0.0000000000000E+00 -0.2854776828480E-02
 0.5958573147751E-02 -0.6939435878254E-02  0.0000000000000E+00 -0.3858031914977E-02
 0.8452571759692E-02 -0.7597430414923E-02  0.0000000000000E+00 -0.3842375078424E-02
 0.1109351015305E-01 -0.8270013740775E-02  0.0000000000000E+00 -0.2293201852946E-02
 0.2094948225991E-03 -0.8735376334702E-02  0.0000000000000E+00 -0.2064974784032E-02
 0.6336017212678E-03 -0.8984288056378E-02  0.0000000000000E+00 -0.2216747656142E-02
 0.1040494656292E-02 -0.9203092217783E-02  0.0000000000000E+00 -0.2184108506552E-02
 0.1389643869465E-02 -0.9366573697466E-02  0.0000000000000E+00 -0.2012075803560E-02
 0.1662808756957E-02 -0.9468039692846E-02  0.0000000000000E+00 -0.1766394959918E-02
 0.1862149439471E-02 -0.9515892408401E-02  0.0000000000000E+00 -0.1502812514334E-02
 0.2000426131830E-02 -0.9524692758254E-02  0.0000000000000E+00 -0.1254956770519E-02
 0.2092576378733E-02 -0.9508399329996E-02  0.0000000000000E+00 -0.1036962625989E-02
 0.2151488287494E-02 -0.9477617870785E-02  0.0000000000000E+00 -0.8508454258377E-03
 0.2186884246263E-02 -0.9439447782583E-02  0.0000000000000E+00 -0.6927571732643E-03
 0.2205625502818E-02 -0.9398281660985E-02  0.0000000000000E+00 -0.5567479116601E-03
 0.2212389793327E-02 -0.9356676411442E-02  0.0000000000000E+00 -0.4366036260028E-03
 0.2210296981582E-02 -0.9316015846193E-02  0.0000000000000E+00 -0.3265909985470E-03
 0.2201377699076E-02 -0.9276947680347E-02  0.0000000000000E+00 -0.2216757487761E-03
 0.2186893827578E-02 -0.9239647060678E-02  0.0000000000000E+00 -0.1175200867445E-03
 0.2167545163449E-02 -0.9203958844412E-02  0.0000000000000E+00 -0.1040910848363E-04
 0.2143594759917E-02 -0.9169456214472E-02  0.0000000000000E+00  0.1028204921324E-03
 0.2114940839099E-02 -0.9135441823297E-02  0.0000000000000E+00  0.2248043460111E-03
 0.2081159081498E-02 -0.9100908503988E-02  0.0000000000000E+00  0.3576032038220E-03
 0.2041547853313E-02 -0.9064483821047E-02  0.0000000000000E+00  0.5025562717184E-03
 0.1995215022056E-02 -0.9024388223517E-02  0.0000000000000E+00  0.6600343351564E-03
 0.1941241109025E-02 -0.8978438039299E-02  0.0000000000000E+00  0.8291545206613E-03
 0.1878923229100E-02 -0.8924106516284E-02  0.0000000000000E+00  0.1007561507012E-02
 0.1808056291899E-02 -0.8858659722676E-02  0.0000000000000E+00  0.1191399356343E-02
 0.1729217559116E-02 -0.8779513293188E-02  0.0000000000000E+00  0.1375517263083E-02
 0.1643821428769E-02 -0.8684321953982E-02  0.0000000000000E+00  0.1553675313505E-02
 0.1553908523625E-02 -0.8570524489010E-02  0.0000000000000E+00  0.1718310497489E-02
 0.1462037191890E-02 -0.8434926187638E-02  0.0000000000000E+00  0.1859727429972E-02
 0.1371550576113E-02 -0.8273604984522E-02  0.0000000000000E+00  0.1964812595627E-02
 0.1287383999556E-02 -0.8082242606655E-02  0.0000000000000E+00  0.2015480547369E-02
 0.1217554030546E-02 -0.7856962764597E-02  0.0000000000000E+00  0.1987050295244E-02
 0.1175577814298E-02 -0.7595878653190E-02  0.0000000000000E+00  0.1846778976103E-02
 0.1184295600370E-02 -0.7301825415391E-02  0.0000000000000E+00  0.1553213237351E-02
 0.1281719503730E-02 -0.6986690668846E-02  0.0000000000000E+00  0.1057958513663E-02
 0.1529207308788E-02 -0.6678256394083E-02  0.0000000000000E+00  0.3145504903905E-03
 0.2019317923232E-02 -0.6429158002489E-02  0.0000000000000E+00 -0.6955298429659E-03
 0.2873958381094E-02 -0.6320404301673E-02  0.0000000000000E+00 -0.1910723400053E-02
 0.4215557904551E-02 -0.6444055080672E-02  0.0000000000000E+00 -0.3118156576329E-02
 0.6095384604054E-02 -0.6850210006168E-02  0.0000000000000E+00 -0.3909764664083E-02
 0.8396113136632E-02 -0.7470287377779E-02  0.0000000000000E+00 -0.3759972226970E-02
 0.1079154705733E-01 -0.8084378574502E-02  0.0000000000000E+00 -0.2286581081301E-02
 0.1951008056650E-03 -0.8535907635531E-02  0.0000000000000E+00 -0.1918291830944E-02
 0.5902006504040E-03 -0.8769312263565E-02  0.0000000000000E+00 -0.2083680006152E-02
 0.9720359195439E-03 -0.8978022971523E-02  0.0000000000000E+00 -0.2084007525387E-02
 0.1305819526618E-02 -0.9139863702094E-02  0.0000000000000E+00 -0.1953870346366E-02
 0.1573734311486E-02 -0.9246975733652E-02  0.0000000000000E+00 -0.1747202308005E-02
 0.1774897552086E-02 -0.9304342965338E-02  0.0000000000000E+00 -0.1513121354796E-02
 0.1918466836456E-02 -0.9323315360347E-02  0.0000000000000E+00 -0.1284214616703E-02
 0.2016769647623E-02 -0.9315916909852E-02  0.0000000000000E+00 -0.1076586996348E-02
 0.2081278276780E-02 -0.9291989077594E-02  0.0000000000000E+00 -0.8949181374052E-03
 0.2121135156918E-02 -0.9258554330488E-02  0.0000000000000E+00 -0.7376068206906E-03
 0.2143070072803E-02 -0.9220215535707E-02  0.0000000000000E+00 -0.6002811068567E-03
 0.2151824490247E-02 -0.9179803840428E-02  0.0000000000000E+00 -0.4777401435097E-03
 0.2150644945519E-02 -0.9138944214046E-02  0.0000000000000E+00 -0.3648741646391E-03
 0.2141692336509E-02 -0.9098460738350E-02  0.0000000000000E+00 -0.2570317229580E-03
 0.2126340446155E-02 -0.9058636868078E-02  0.0000000000000E+00 -0.1501245771994E-03
 0.2105378781379E-02 -0.9019365355289E-02  0.0000000000000E+00 -0.4062868873694E-04
 0.2079143356019E-02 -0.8980218600196E-02  0.0000000000000E+00  0.7443418452868E-04
 0.2047600121659E-02 -0.8940464386388E-02  0.0000000000000E+00  0.1974817510572E-03
 0.2010403673974E-02 -0.8899044668778E-02  0.0000000000000E+00  0.3302978972134E-03
 0.1966962080970E-02 -0.8854542472643E-02  0.0000000000000E+00  0.4738765025004E-03
 0.1916540691483E-02 -0.8805163782541E-02  0.0000000000000E+00  0.6281879231547E-03
 0.1858429535616E-02 -0.8748757536888E-02  0.0000000000000E+00  0.7919274524668E-03
 0.1792172114487E-02 -0.8682880006534E-02  0.0000000000000E+00  0.9623274610127E-03
 0.1717820140785E-02 -0.8604921339558E-02  0.0000000000000E+00  0.1135122311830E-02
 0.1636202520326E-02 -0.8512445568896E-02  0.0000000000000E+00  0.1304702734175E-02
 0.1549011265817E-02 -0.8403295983786E-02  0.0000000000000E+00  0.1464247061090E-02
 0.1458676374894E-02 -0.8275212562934E-02  0.0000000000000E+00  0.1605441704169E-02
 0.1368361660517E-02 -0.8125512903240E-02  0.0000000000000E+00  0.1717718842707E-02
 0.1282322878545E-02 -0.7951103228363E-02  0.0000000000000E+00  0.1787117811315E-02
 0.1206784641096E-02 -0.7748925413401E-02  0.0000000000000E+00  0.1794976783720E-02
 0.1151478517347E-02 -0.7516938529208E-02  0.0000000000000E+00  0.1716709283444E-02
 0.1132054810889E-02 -0.7255829271761E-02  0.0000000000000E+00  0.1521052096376E-02
 0.1173683919987E-02 -0.6971820878593E-02  0.0000000000000E+00  0.1170692512941E-02
 0.1316096036219E-02 -0.6680721347331E-02  0.0000000000000E+00  0.6260563388895E-03
 0.1619655614702E-02 -0.6413456427437E-02  0.0000000000000E+00 -0.1435339580843E-03
 0.2169181635917E-02 -0.6221772864764E-02  0.0000000000000E+00 -0.1133827557831E-02
 0.3067120031089E-02 -0.6176945669421E-02  0.0000000000000E+00 -0.2261179433245E-02
 0.4403728210562E-02 -0.6350000905081E-02  0.0000000000000E+00 -0.3311876633043E-02
 0.6197265892253E-02 -0.6766321258981E-02  0.0000000000000E+00 -0.3925687745167E-02
 0.8325112372973E-02 -0.7350536998160E-02  0.0000000000000E+00 -0.3676711947138E-02
 0.1051010181937E-01 -0.7914765528968E-02  0.0000000000000E+00 -0.2275649455096E-02
 0.1822948933218E-03 -0.8341517263114E-02  0.0000000000000E+00 -0.1780930683917E-02
 0.5514896854614E-03 -0.8560808021080E-02  0.0000000000000E+00 -0.1957516131815E-02
 0.9103444304985E-03 -0.8759617415655E-02  0.0000000000000E+00 -0.1985495618925E-02
 0.1228902263077E-02 -0.8918464499070E-02  0.0000000000000E+00 -0.1891708616536E-02
 0.1490209089670E-02 -0.9028992955643E-02  0.0000000000000E+00 -0.1720520864252E-02
 0.1691306981364E-02 -0.9093673671206E-02  0.0000000000000E+00 -0.1514897963339E-02
 0.1838465868039E-02 -0.9121173669255E-02  0.0000000000000E+00 -0.1305668580144E-02
 0.1941679190768E-02 -0.9121674961079E-02  0.0000000000000E+00 -0.1109975573234E-02
 0.2010994451405E-02 -0.9104119479182E-02  0.0000000000000E+00 -0.9345150474387E-03
 0.2054862142488E-02 -0.9075272401426E-02  0.0000000000000E+00 -0.7796185507468E-03
 0.2079765497831E-02 -0.9039802375921E-02  0.0000000000000E+00 -0.6423956217929E-03
 0.2090423638783E-02 -0.9000720304706E-02  0.0000000000000E+00 -0.5186678329050E-03
 0.2090154110542E-02 -0.8959838025067E-02  0.0000000000000E+00 -0.4039981935695E-03
 0.2081215920119E-02 -0.8918129272405E-02  0.0000000000000E+00 -0.2941763138063E-03
 0.2065079269640E-02 -0.8875977304813E-02  0.0000000000000E+00 -0.1854182198917E-03
 0.2042619731482E-02 -0.8833326792692E-02  0.0000000000000E+00 -0.7443747827063E-04
 0.2014251422069E-02 -0.8789762967610E-02  0.0000000000000E+00  0.4152227482654E-04
 0.1980019834090E-02 -0.8744540555926E-02  0.0000000000000E+00  0.1646361404379E-03
 0.1939674698527E-02 -0.8696579501035E-02  0.0000000000000E+00  0.2964018731156E-03
 0.1892751106314E-02 -0.8644452056278E-02  0.0000000000000E+00  0.4374773860604E-03
 0.1838686238982E-02 -0.8586384872353E-02  0.0000000000000E+00  0.5874604874198E-03
 0.1776988628103E-02 -0.8520292717393E-02  0.0000000000000E+00  0.7446647596764E-03
 0.1707454529843E-02 -0.8443846315853E-02  0.0000000000000E+00  0.9059532070292E-03
 0.1630404179510E-02 -0.8354594303793E-02  0.0000000000000E+00  0.1066693736317E-02
 0.1546942302700E-02 -0.8250292494432E-02  0.0000000000000E+00  0.1220873254412E-02
 0.1459073919537E-02 -0.8129027683332E-02  0.0000000000000E+00  0.1361176956741E-02
 0.1369654002035E-02 -0.7988905108332E-02  0.0000000000000E+00  0.1478687856884E-02
 0.1282471831495E-02 -0.7827822047062E-02  0.0000000000000E+00  0.1562189770386E-02
 0.1202682979687E-02 -0.7643575206963E-02  0.0000000000000E+00  0.1597194832994E-02
 0.1137731319839E-02 -0.7434405895405E-02  0.0000000000000E+00  0.1564911402019E-02
 0.1098888597437E-02 -0.7200081809148E-02  0.0000000000000E+00  0.1441460129800E-02
 0.1103567091657E-02 -0.6943677214448E-02  0.0000000000000E+00  0.1197843717897E-02
 0.1178557537727E-02 -0.6674292858755E-02  0.0000000000000E+00  0.8017109899173E-03
 0.1364122737366E-02 -0.6410600626314E-02  0.0000000000000E+00  0.2226570958159E-03
 0.1718073207313E-02 -0.6184961706209E-02  0.0000000000000E+00 -0.5554682063219E-03
 0.2316377226465E-02 -0.6046353860621E-02  0.0000000000000E+00 -0.1510123648967E-02
 0.3243313507050E-02 -0.6055845770159E-02  0.0000000000000E+00 -0.2543771882646E-02
 0.4562966273024E-02 -0.6266627261968E-02  0.0000000000000E+00 -0.3449940332441E-02
 0.6270524244097E-02 -0.6686367532390E-02  0.0000000000000E+00 -0.3914780212339E-02
 0.8243808588930E-02 -0.7237660626745E-02  0.0000000000000E+00 -0.3593342107980E-02
 0.1024586583678E-01 -0.7758734257162E-02  0.0000000000000E+00 -0.2260942851475E-02
 0.1708075216544E-03 -0.8151406037676E-02  0.0000000000000E+00 -0.1652001534653E-02
 0.5167047095383E-03 -0.8357799917897E-02  0.0000000000000E+00 -0.1837915607774E-02
 0.8544496183779E-03 -0.8547026977521E-02  0.0000000000000E+00 -0.1889296086743E-02
 0.1158141739112E-02 -0.8701961695471E-02  0.0000000000000E+00 -0.1827154932403E-02
 0.1411910934303E-02 -0.8814172651866E-02  0.0000000000000E+00 -0.1688115796733E-02
 0.1611432463027E-02 -0.8884308121982E-02  0.0000000000000E+00 -0.1509594991512E-02
 0.1760695176529E-02 -0.8918830571200E-02  0.0000000000000E+00 -0.1320273835966E-02
 0.1867653025037E-02 -0.8926232320975E-02  0.0000000000000E+00 -0.1137635900976E-02
 0.1940979228247E-02 -0.8914498199159E-02  0.0000000000000E+00 -0.9698288808234E-03
 0.1988369561798E-02 -0.8890008150612E-02  0.0000000000000E+00 -0.8187952708270E-03
 0.2015973431990E-02 -0.8857377047018E-02  0.0000000000000E+00 -0.6829934097372E-03
 0.2028413725467E-02 -0.8819709304369E-02  0.0000000000000E+00 -0.5592420982776E-03
 0.2029027225506E-02 -0.8778949993916E-02  0.0000000000000E+00 -0.4438011249671E-03
 0.2020139118950E-02 -0.8736193773877E-02  0.0000000000000E+00 -0.3329423897716E-03
 0.2003299372752E-02 -0.8691912635263E-02  0.0000000000000E+00 -0.2232293786202E-03
 0.1979464297846E-02 -0.8646104755326E-02  0.0000000000000E+00 -0.1116515140346E-03
 0.1949129227757E-02 -0.8598379459170E-02  0.0000000000000E+00  0.4295971374441E-05
 0.1912428451869E-02 -0.8547997540917E-02  0.0000000000000E+00  0.1265273332604E-03
 0.1869219780863E-02 -0.8493882283322E-02  0.0000000000000E+00  0.2562504734056E-03
 0.1819178847638E-02 -0.8434624415340E-02  0.0000000000000E+00  0.3938003039236E-03
 0.1761925500590E-02 -0.8368501370638E-02  0.0000000000000E+00  0.5384307878108E-03
 0.1697193512446E-02 -0.8293522477217E-02  0.0000000000000E+00  0.6881128861673E-03
 0.1625037186138E-02 -0.8207500906500E-02  0.0000000000000E+00  0.8393833878971E-03
 0.1546055173724E-02 -0.8108174915688E-02  0.0000000000000E+00  0.9872913310900E-03
 0.1461647082567E-02 -0.7993530575448E-02  0.0000000000000E+00  0.1125482609466E-02
 0.1374156705450E-02 -0.7861944949492E-02  0.0000000000000E+00  0.1246246629684E-02
 0.1286885691420E-02 -0.7711939671945E-02  0.0000000000000E+00  0.1340216230254E-02
 0.1204250591214E-02 -0.7542039121417E-02  0.0000000000000E+00  0.1395752056776E-02
 0.1132269708946E-02 -0.7350961671221E-02  0.0000000000000E+00  0.1398150388223E-02
 0.1079503195379E-02 -0.7138239994208E-02  0.0000000000000E+00  0.1328904113465E-02
 0.1058547639539E-02 -0.6905356648256E-02  0.0000000000000E+00  0.1165367314473E-02
 0.1088173300504E-02 -0.6657508228857E-02  0.0000000000000E+00  0.8814021101395E-03
 0.1196104025595E-02 -0.6406108167908E-02  0.0000000000000E+00  0.4500777626847E-03
 0.1422127577473E-02 -0.6171702347151E-02  0.0000000000000E+00 -0.1500299371614E-03
 0.1820397792455E-02 -0.5986723075501E-02  0.0000000000000E+00 -0.9223005340046E-03
 0.2457654511786E-02 -0.5896206551411E-02  0.0000000000000E+00 -0.1830177212228E-02
 0.3401833592665E-02 -0.5951325231626E-02  0.0000000000000E+00 -0.2768676895106E-02
 0.4696148181553E-02 -0.6190530500399E-02  0.0000000000000E+00 -0.3543331301957E-02
 0.6320241697986E-02 -0.6609312042335E-02  0.0000000000000E+00 -0.3883111036493E-02
 0.8155526896141E-02 -0.7131258621247E-02  0.0000000000000E+00 -0.3509747344051E-02
 0.9995959023807E-02 -0.7614332311597E-02  0.0000000000000E+00 -0.2243644080854E-02
 0.1604279943107E-03 -0.7964935786917E-02  0.0000000000000E+00 -0.1530742940422E-02
 0.4852387017449E-03 -0.8159497949124E-02  0.0000000000000E+00 -0.1724521390659E-02
 0.8035490614282E-03 -0.8339528645941E-02  0.0000000000000E+00 -0.1795873885331E-02
 0.1092866944134E-02 -0.8489944093153E-02  0.0000000000000E+00 -0.1761392701826E-02
 0.1338491717945E-02 -0.8602497105628E-02  0.0000000000000E+00 -0.1651431765808E-02
 0.1535244457646E-02 -0.8676534104477E-02  0.0000000000000E+00 -0.1498492998717E-02
 0.1685335320423E-02 -0.8716729118960E-02  0.0000000000000E+00 -0.1328945252065E-02
 0.1794967409776E-02 -0.8730064308737E-02  0.0000000000000E+00 -0.1160110068028E-02
 0.1871528000692E-02 -0.8723565087456E-02  0.0000000000000E+00 -0.1001112968602E-02
 0.1921934663101E-02 -0.8703142873872E-02  0.0000000000000E+00 -0.8551990025342E-03
 0.1951941627436E-02 -0.8673264457851E-02  0.0000000000000E+00 -0.7220226369182E-03
 0.1966015012920E-02 -0.8637052355027E-02  0.0000000000000E+00 -0.5993487354405E-03
 0.1967464578846E-02 -0.8596534251514E-02  0.0000000000000E+00 -0.4841361595809E-03
 0.1958651226933E-02 -0.8552896566047E-02  0.0000000000000E+00 -0.3731644184536E-03
 0.1941187620227E-02 -0.8506687275470E-02  0.0000000000000E+00 -0.2633762366435E-03
 0.1916104179952E-02 -0.8457957599063E-02  0.0000000000000E+00 -0.1520665603276E-03
 0.1883978694027E-02 -0.8406349928603E-02  0.0000000000000E+00 -0.3700493879885E-04
 0.1845041040891E-02 -0.8351147508243E-02  0.0000000000000E+00  0.8344976258831E-04
 0.1799266992762E-02 -0.8291298843325E-02  0.0000000000000E+00  0.2102165982473E-03
 0.1746482862622E-02 -0.8225438191801E-02  0.0000000000000E+00  0.3433232656417E-03
 0.1686498963456E-02 -0.8151919434068E-02  0.0000000000000E+00  0.4817092012748E-03
 0.1619278959543E-02 -0.8068871159719E-02  0.0000000000000E+00  0.6230413367972E-03
 0.1545139004743E-02 -0.7974273511229E-02  0.0000000000000E+00  0.7635741981205E-03
 0.1464963504582E-02 -0.7866081630938E-02  0.0000000000000E+00  0.8980894309092E-03
 0.1380460415706E-02 -0.7742544526275E-02  0.0000000000000E+00  0.1019960890211E-02
 0.1294328526603E-02 -0.7602367206068E-02  0.0000000000000E+00  0.1121184896108E-02
 0.1210324596206E-02 -0.7444525250986E-02  0.0000000000000E+00  0.1192098435587E-02
 0.1133477443828E-02 -0.7268197756417E-02  0.0000000000000E+00  0.1220857769400E-02
 0.1070610066360E-02 -0.7073027228402E-02  0.0000000000000E+00  0.1192834696553E-02
 0.1031270696268E-02 -0.6859789372689E-02  0.0000000000000E+00  0.1090173560495E-02
 0.1029140994743E-02 -0.6631537237223E-02  0.0000000000000E+00  0.8918869425682E-03
 0.1083940612162E-02 -0.6395277159962E-02  0.0000000000000E+00  0.5750971006593E-03
 0.1223699959687E-02 -0.6164166737544E-02  0.0000000000000E+00  0.1184404545589E-03
 0.1486924039594E-02 -0.5959755646104E-02  0.0000000000000E+00 -0.4911006046639E-03
 0.1923411017239E-02 -0.5813521856358E-02  0.0000000000000E+00 -0.1246106974981E-02
 0.2590803216093E-02 -0.5765936319410E-02  0.0000000000000E+00 -0.2099836461428E-02
 0.3542750597658E-02 -0.5859026001573E-02  0.0000000000000E+00 -0.2944666642394E-02
 0.4806008110908E-02 -0.6119332951566E-02  0.0000000000000E+00 -0.3600810434671E-02
 0.6350372135447E-02 -0.6534076074308E-02  0.0000000000000E+00 -0.3834762957309E-02
 0.8063066508447E-02 -0.7031075297278E-02  0.0000000000000E+00 -0.3424844485016E-02
 0.9757826285408E-02 -0.7479783693872E-02  0.0000000000000E+00 -0.2225790432264E-02
 0.1509893679410E-03 -0.7781590985957E-02  0.0000000000000E+00 -0.1416498294383E-02
 0.4566043576088E-03 -0.7965256451277E-02  0.0000000000000E+00 -0.1616979102614E-02
 0.7569768630482E-03 -0.8136506941539E-02  0.0000000000000E+00 -0.1705514614600E-02
 0.1032484293211E-02 -0.8282020319425E-02  0.0000000000000E+00 -0.1695314537744E-02
 0.1269599434056E-02 -0.8393885692516E-02  0.0000000000000E+00 -0.1611644013936E-02
 0.1462656033040E-02 -0.8470537142593E-02  0.0000000000000E+00 -0.1482704867127E-02
 0.1612494515535E-02 -0.8515212710590E-02  0.0000000000000E+00 -0.1332535441280E-02
 0.1723835918707E-02 -0.8533570297508E-02  0.0000000000000E+00 -0.1177947417690E-02
 0.1802891269727E-02 -0.8531710713148E-02  0.0000000000000E+00 -0.1028659153838E-02
 0.1855806219666E-02 -0.8515029712362E-02  0.0000000000000E+00 -0.8889361598451E-03
 0.1887901270781E-02 -0.8487775363835E-02  0.0000000000000E+00 -0.7594690562233E-03
 0.1903438639560E-02 -0.8453024903800E-02  0.0000000000000E+00 -0.6388995706154E-03
 0.1905661274009E-02 -0.8412842686593E-02  0.0000000000000E+00 -0.5248701433751E-03
 0.1896937727029E-02 -0.8368478590163E-02  0.0000000000000E+00 -0.4146789124698E-03
 0.1878926527318E-02 -0.8320542956307E-02  0.0000000000000E+00 -0.3056687579537E-03
 0.1852724656180E-02 -0.8269137931022E-02  0.0000000000000E+00 -0.1954614468274E-03
 0.1818991922797E-02 -0.8213945803698E-02  0.0000000000000E+00 -0.8211683865786E-04
 0.1778058292324E-02 -0.8154285966396E-02  0.0000000000000E+00  0.3572626701620E-04
 0.1730024573214E-02 -0.8089150702911E-02  0.0000000000000E+00  0.1587031388678E-03
 0.1674874891779E-02 -0.8017238983153E-02  0.0000000000000E+00  0.2865523145767E-03
 0.1612615140419E-02 -0.7937002779587E-02  0.0000000000000E+00  0.4179285371992E-03
 0.1543441500132E-02 -0.7846710904674E-02  0.0000000000000E+00  0.5502331334273E-03
 0.1467933946091E-02 -0.7744531431031E-02  0.0000000000000E+00  0.6794832670466E-03
 0.1387266921836E-02 -0.7628659330560E-02  0.0000000000000E+00  0.8002477096048E-03
 0.1303464428804E-02 -0.7497632880051E-02  0.0000000000000E+00  0.9057012709719E-03
 0.1219587348611E-02 -0.7350513256108E-02  0.0000000000000E+00  0.9876519558044E-03
 0.1139843790622E-02 -0.7186754036718E-02  0.0000000000000E+00  0.1036291811673E-02
 0.1069845093448E-02 -0.7006197980091E-02  0.0000000000000E+00  0.1039778739965E-02
 0.1017144046239E-02 -0.6809388953637E-02  0.0000000000000E+00  0.9838228124381E-03
 0.9921317141309E-03 -0.6598265250553E-02  0.0000000000000E+00  0.8515295868677E-03
 0.1009325372212E-02 -0.6377271682242E-02  0.0000000000000E+00  0.6238888907936E-03
 0.1089003226027E-02 -0.6154891891451E-02  0.0000000000000E+00  0.2815055611864E-03
 0.1258959119364E-02 -0.5945491547395E-02  0.0000000000000E+00 -0.1915209324860E-03
 0.1555807094880E-02 -0.5770898152493E-02  0.0000000000000E+00 -0.8006225675583E-03
 0.2024618019543E-02 -0.5660912922959E-02  0.0000000000000E+00 -0.1529575055203E-02
 0.2714415682093E-02 -0.5651219747224E-02  0.0000000000000E+00 -0.2324713043779E-02
 0.3666572708585E-02 -0.5775658410292E-02  0.0000000000000E+00 -0.3079269703124E-02
 0.4895225233620E-02 -0.6051337713333E-02  0.0000000000000E+00 -0.3629110485199E-02
 0.6363498867707E-02 -0.6459836887285E-02  0.0000000000000E+00 -0.3773805470026E-02
 0.7969548603910E-02 -0.6935509853873E-02  0.0000000000000E+00 -0.3334374623135E-02
 0.9526999842948E-02 -0.7355022766837E-02  0.0000000000000E+00 -0.2213316048995E-02
 0.1423521966439E-03 -0.7600955184421E-02  0.0000000000000E+00 -0.1308710497709E-02
 0.4304055289728E-03 -0.7774565381181E-02  0.0000000000000E+00 -0.1514964400950E-02
 0.7141811047809E-03 -0.7937475170645E-02  0.0000000000000E+00 -0.1618403392512E-02
 0.9764817591420E-03 -0.8077881406443E-02  0.0000000000000E+00 -0.1629617396980E-02
 0.1204909028786E-02 -0.8188290664797E-02  0.0000000000000E+00 -0.1569728575058E-02
 0.1393567726565E-02 -0.8266513441213E-02  0.0000000000000E+00 -0.1463206436131E-02
 0.1542256553615E-02 -0.8314644663361E-02  0.0000000000000E+00 -0.1331834594429E-02
 0.1654456270080E-02 -0.8337197699500E-02  0.0000000000000E+00 -0.1191688063655E-02
 0.1735320878585E-02 -0.8339407029072E-02  0.0000000000000E+00 -0.1052774709806E-02
 0.1790252040084E-02 -0.8326133995857E-02  0.0000000000000E+00 -0.9201318174758E-03
 0.1824117382610E-02 -0.8301358645764E-02  0.0000000000000E+00 -0.7953283427613E-03
 0.1840940984747E-02 -0.8268062044951E-02  0.0000000000000E+00 -0.6778024649084E-03
 0.1843866296822E-02 -0.8228305207750E-02  0.0000000000000E+00 -0.5658506486538E-03
 0.1835244668868E-02 -0.8183375223230E-02  0.0000000000000E+00 -0.4572880119830E-03
 0.1816764549608E-02 -0.8133931172892E-02  0.0000000000000E+00 -0.3498681582547E-03
 0.1789581432456E-02 -0.8080122920468E-02  0.0000000000000E+00 -0.2415526416726E-03
 0.1754435295216E-02 -0.8021677682884E-02  0.0000000000000E+00 -0.1307008267530E-03
 0.1711758556456E-02 -0.7957962260991E-02  0.0000000000000E+00 -0.1623275293186E-04
 0.1661781470315E-02 -0.7888028208584E-02  0.0000000000000E+00  0.1022122449577E-03
 0.1604650206934E-02 -0.7810656832922E-02  0.0000000000000E+00  0.2241041589558E-03
 0.1540568593556E-02 -0.7724416083755E-02  0.0000000000000E+00  0.3478440600255E-03
 0.1469965478242E-02 -0.7627732210377E-02  0.0000000000000E+00  0.4706068396383E-03
 0.1393683933113E-02 -0.7518978178656E-02  0.0000000000000E+00  0.5882187504129E-03
 0.1313188643324E-02 -0.7396606621441E-02  0.0000000000000E+00  0.6950929274536E-03
 0.1230820756604E-02 -0.7259464141504E-02  0.0000000000000E+00  0.7842806783342E-03
 0.1150000822489E-02 -0.7106985964413E-02  0.0000000000000E+00  0.8475060379101E-03
 0.1075372423480E-02 -0.6939113570390E-02  0.0000000000000E+00  0.8749600431239E-03
 0.1013085752014E-02 -0.6756343716806E-02  0.0000000000000E+00  0.8549903358835E-03
 0.9713341280688E-03 -0.6560075463134E-02  0.0000000000000E+00  0.7738723233602E-03
 0.9611949139330E-03 -0.6353302623199E-02  0.0000000000000E+00  0.6159177515142E-03
 0.9977725846321E-03 -0.6141660207749E-02  0.0000000000000E+00  0.3643032777138E-03
 0.1101545930967E-02 -0.5934775555036E-02  0.0000000000000E+00  0.3174399600958E-05
 0.1299625069105E-02 -0.5747739681651E-02  0.0000000000000E+00 -0.4782121808665E-03
 0.1626313204711E-02 -0.5602081272178E-02  0.0000000000000E+00 -0.1078675974865E-02
 0.2121854059855E-02 -0.5525463197249E-02  0.0000000000000E+00 -0.1775093986774E-02
 0.2827343746079E-02 -0.5548847244842E-02  0.0000000000000E+00 -0.2509573295793E-02
 0.3773843501977E-02 -0.5698943636625E-02  0.0000000000000E+00 -0.3178632779926E-02
 0.4965763444410E-02 -0.5985435953729E-02  0.0000000000000E+00 -0.3633657165114E-02
 0.6363043509917E-02 -0.6386592563826E-02  0.0000000000000E+00 -0.3703462598468E-02
 0.7870583784988E-02 -0.6841320375410E-02  0.0000000000000E+00 -0.3238471034713E-02
 0.9332626096189E-02 -0.7246593398058E-02  0.0000000000000E+00 -0.2202824932558E-02
 0.1344185624258E-03 -0.7422680709528E-02  0.0000000000000E+00 -0.1206856609211E-02
 0.4063246738773E-03 -0.7586982219552E-02  0.0000000000000E+00 -0.1418138893632E-02
 0.6747032160749E-03 -0.7741984594995E-02  0.0000000000000E+00 -0.1534597054817E-02
 0.9244069449530E-03 -0.7877194027830E-02  0.0000000000000E+00 -0.1564784497726E-02
 0.1144098679456E-02 -0.7985571169204E-02  0.0000000000000E+00 -0.1526436519830E-02
 0.1327834043988E-02 -0.8064515912813E-02  0.0000000000000E+00 -0.1440799066191E-02
 0.1474631192642E-02 -0.8115220412471E-02  0.0000000000000E+00 -0.1327530557046E-02
 0.1586943183549E-02 -0.8141219820655E-02  0.0000000000000E+00 -0.1201832160854E-02
 0.1668987321729E-02 -0.8146953344719E-02  0.0000000000000E+00 -0.1073767863496E-02
 0.1725463498298E-02 -0.8136749944888E-02  0.0000000000000E+00 -0.9489331474498E-03
 0.1760782593271E-02 -0.8114290139047E-02  0.0000000000000E+00 -0.8296259454338E-03
 0.1778707599659E-02 -0.8082419518199E-02  0.0000000000000E+00 -0.7159951331220E-03
 0.1782256575850E-02 -0.8043161908636E-02  0.0000000000000E+00 -0.6069516140604E-03
 0.1773742190290E-02 -0.7997817887656E-02  0.0000000000000E+00 -0.5008156168805E-03
 0.1754868003391E-02 -0.7947082017308E-02  0.0000000000000E+00 -0.3957531855701E-03
 0.1726839694810E-02 -0.7891147768765E-02  0.0000000000000E+00 -0.2900713788633E-03
 0.1690474341961E-02 -0.7829790576396E-02  0.0000000000000E+00 -0.1824324723846E-03
 0.1646307305299E-02 -0.7762433501938E-02  0.0000000000000E+00 -0.7203465746392E-04
 0.1594700399312E-02 -0.7688199891714E-02  0.0000000000000E+00  0.4122023096290E-04
 0.1535963664680E-02 -0.7605967669303E-02  0.0000000000000E+00  0.1565556288306E-03
 0.1470499006594E-02 -0.7514435171713E-02  0.0000000000000E+00  0.2721500832496E-03
 0.1398966118889E-02 -0.7412199812043E-02  0.0000000000000E+00  0.3849908830648E-03
 0.1322468234218E-02 -0.7297852624014E-02  0.0000000000000E+00  0.4907598614735E-03
 0.1242757117911E-02 -0.7170116913190E-02  0.0000000000000E+00  0.5837721531531E-03
 0.1162486849613E-02 -0.7028160026354E-02  0.0000000000000E+00  0.6570304566133E-03
 0.1085427782100E-02 -0.6871800102131E-02  0.0000000000000E+00  0.7022748368530E-03
 0.1016634166819E-02 -0.6701464742967E-02  0.0000000000000E+00  0.7098277575999E-03
 0.9627422256107E-03 -0.6518280740839E-02  0.0000000000000E+00  0.6683920407231E-03
 0.9324892831950E-03 -0.6324440065257E-02  0.0000000000000E+00  0.5649961319624E-03
 0.9374814563676E-03 -0.6123870061815E-02  0.0000000000000E+00  0.3853391170000E-03
 0.9931763290804E-03 -0.5923188621175E-02  0.0000000000000E+00  0.1148980789149E-03
 0.1119941014632E-02 -0.5732852787694E-02  0.0000000000000E+00 -0.2587091258913E-03
 0.1343851986122E-02 -0.5568265685711E-02  0.0000000000000E+00 -0.7415002058969E-03
 0.1696641746662E-02 -0.5450222314854E-02  0.0000000000000E+00 -0.1326694930844E-02
 0.2213811724865E-02 -0.5403989035368E-02  0.0000000000000E+00 -0.1985983161237E-02
 0.2929328110815E-02 -0.5456049360206E-02  0.0000000000000E+00 -0.2659388049197E-02
 0.3865658087859E-02 -0.5627006531515E-02  0.0000000000000E+00 -0.3248258792198E-02
 0.5019994187067E-02 -0.5920802665096E-02  0.0000000000000E+00 -0.3619073820328E-02
 0.6350645672182E-02 -0.6313816761132E-02  0.0000000000000E+00 -0.3624703534070E-02
 0.7769906152213E-02 -0.6748891707998E-02  0.0000000000000E+00 -0.3145580487629E-02
 0.9156525140990E-02 -0.7145407650416E-02  0.0000000000000E+00 -0.2156398645022E-02
 0.1270944535184E-03 -0.7246473918805E-02  0.0000000000000E+00 -0.1110504302736E-02
 0.3840906903751E-03 -0.7402115377750E-02  0.0000000000000E+00 -0.1326192215387E-02
 0.6381414147650E-03 -0.7549612965900E-02  0.0000000000000E+00 -0.1454099128789E-02
 0.8758436281372E-03 -0.7679601558605E-02  0.0000000000000E+00 -0.1501173923342E-02
 0.1086841463953E-02 -0.7785504900326E-02  0.0000000000000E+00 -0.1482374238352E-02
 0.1265265375098E-02 -0.7864469146135E-02  0.0000000000000E+00 -0.1416169155034E-02
 0.1409559494187E-02 -0.7916979305587E-02  0.0000000000000E+00 -0.1320248908106E-02
 0.1521333015606E-02 -0.7945741868985E-02  0.0000000000000E+00 -0.1208868629361E-02
 0.1603982501099E-02 -0.7954477053667E-02  0.0000000000000E+00 -0.1091973094523E-02
 0.1661556842845E-02 -0.7946997848474E-02  0.0000000000000E+00 -0.9755363509023E-03
 0.1698017842651E-02 -0.7926667934261E-02  0.0000000000000E+00 -0.8624481080217E-03
 0.1716853999884E-02 -0.7896168314668E-02  0.0000000000000E+00 -0.7534812387639E-03
 0.1720938339078E-02 -0.7857457706125E-02  0.0000000000000E+00 -0.6481149158985E-03
 0.1712526750022E-02 -0.7811829155742E-02  0.0000000000000E+00 -0.5451547215064E-03
 0.1693324420209E-02 -0.7760000040462E-02  0.0000000000000E+00 -0.4431735707349E-03
 0.1664578837657E-02 -0.7702202584517E-02  0.0000000000000E+00 -0.3408236676598E-03
 0.1627180141390E-02 -0.7638262084601E-02  0.0000000000000E+00 -0.2370688612017E-03
 0.1581765551194E-02 -0.7567664403129E-02  0.0000000000000E+00 -0.1313790408957E-03
 0.1528828661576E-02 -0.7489614396911E-02  0.0000000000000E+00 -0.2390452670167E-04
 0.1468843285889E-02 -0.7403097796762E-02  0.0000000000000E+00  0.8435403801388E-04
 0.1402407837425E-02 -0.7306954581487E-02  0.0000000000000E+00  0.1913832077708E-03
 0.1330409523271E-02 -0.7199963893991E-02  0.0000000000000E+00  0.2940204255128E-03
 0.1254207074115E-02 -0.7080944577285E-02  0.0000000000000E+00  0.3878485965743E-03
 0.1175833529829E-02 -0.6948899347556E-02  0.0000000000000E+00  0.4671412689279E-03
 0.1098247607114E-02 -0.6803323045707E-02  0.0000000000000E+00  0.5249246133552E-03
 0.1025554168212E-02 -0.6644418226803E-02  0.0000000000000E+00  0.5530480374146E-03
 0.9631873474368E-03 -0.6473087874045E-02  0.0000000000000E+00  0.5420843347755E-03
 0.9182115600300E-03 -0.6291054928260E-02  0.0000000000000E+00  0.4812332276015E-03
 0.8998100774177E-03 -0.6101232721898E-02  0.0000000000000E+00  0.3584259888768E-03
 0.9199666749816E-03 -0.5908355316683E-02  0.0000000000000E+00  0.1608736612724E-03
 0.9942803704049E-03 -0.5719823625668E-02  0.0000000000000E+00 -0.1236095141441E-03
 0.1142744447204E-02 -0.5546643444763E-02  0.0000000000000E+00 -0.5040891896835E-03
 0.1390140946157E-02 -0.5404191620829E-02  0.0000000000000E+00 -0.9823517113347E-03
 0.1765495494071E-02 -0.5312219016553E-02  0.0000000000000E+00 -0.1546992579923E-02
 0.2299771845713E-02 -0.5293487452600E-02  0.0000000000000E+00 -0.2165990531189E-02
 0.3020599830060E-02 -0.5370338094331E-02  0.0000000000000E+00 -0.2778924551068E-02
 0.3943372588896E-02 -0.5558200870007E-02  0.0000000000000E+00 -0.3292966702233E-02
 0.5059899897127E-02 -0.5856633328140E-02  0.0000000000000E+00 -0.3588652478401E-02
 0.6328186411552E-02 -0.6240948266090E-02  0.0000000000000E+00 -0.3540070800370E-02
 0.7669024662846E-02 -0.6659079753943E-02  0.0000000000000E+00 -0.3050885984230E-02
 0.8982989249034E-02 -0.7043886336003E-02  0.0000000000000E+00 -0.2102108585453E-02
 0.1203061169616E-03 -0.7072091636577E-02  0.0000000000000E+00 -0.1019263474505E-02
 0.3634820597899E-03 -0.7219653861693E-02  0.0000000000000E+00 -0.1238841962064E-02
 0.6041652734845E-03 -0.7360030780573E-02  0.0000000000000E+00 -0.1376880937909E-02
 0.8304432366055E-03 -0.7484833772039E-02  0.0000000000000E+00 -0.1439054913070E-02
 0.1032858443441E-02 -0.7587940584163E-02  0.0000000000000E+00 -0.1438032564501E-02
 0.1205698709084E-02 -0.7666358051405E-02  0.0000000000000E+00 -0.1389895197358E-02
 0.1346996247604E-02 -0.7720022087529E-02  0.0000000000000E+00 -0.1310533593534E-02
 0.1457673321272E-02 -0.7750942573250E-02  0.0000000000000E+00 -0.1213232323467E-02
 0.1540414340682E-02 -0.7762197747488E-02  0.0000000000000E+00 -0.1107689924303E-02
 0.1598672623188E-02 -0.7757111070590E-02  0.0000000000000E+00 -0.1000111319233E-02
 0.1635977343382E-02 -0.7738723662783E-02  0.0000000000000E+00 -0.8938550846019E-03
 0.1655537293404E-02 -0.7709532046739E-02  0.0000000000000E+00 -0.7902335434774E-03
 0.1660066702051E-02 -0.7671407831202E-02  0.0000000000000E+00 -0.6892439150803E-03
 0.1651750070776E-02 -0.7625618621596E-02  0.0000000000000E+00 -0.5901511175937E-03
 0.1632282320764E-02 -0.7572893030625E-02  0.0000000000000E+00 -0.4919229756781E-03
 0.1602944600163E-02 -0.7513496900316E-02  0.0000000000000E+00 -0.3935508278479E-03
 0.1564695351988E-02 -0.7447305807625E-02  0.0000000000000E+00 -0.2942941623188E-03
 0.1518271210593E-02 -0.7373873037991E-02  0.0000000000000E+00 -0.1938847059264E-03
 0.1464296028907E-02 -0.7292492258015E-02  0.0000000000000E+00 -0.9270509859119E-04
 0.1403405420679E-02 -0.7202265457765E-02  0.0000000000000E+00  0.8043359789850E-05
 0.1336390895324E-02 -0.7102182596453E-02  0.0000000000000E+00  0.1061857820466E-03
 0.1264361979415E-02 -0.6991212009117E-02  0.0000000000000E+00  0.1984470673323E-03
 0.1188926006755E-02 -0.6868406528169E-02  0.0000000000000E+00  0.2803560070228E-03
 0.1112388364446E-02 -0.6733052533825E-02  0.0000000000000E+00  0.3461996101262E-03
 0.1037999780879E-02 -0.6584973299898E-02  0.0000000000000E+00  0.3890962247950E-03
 0.9701789805912E-03 -0.6424750012643E-02  0.0000000000000E+00  0.4010904330540E-03
 0.9147036524570E-03 -0.6253741733480E-02  0.0000000000000E+00  0.3731099451356E-03
 0.8790044267265E-03 -0.6074224654240E-02  0.0000000000000E+00  0.2949688848898E-03
 0.8726123792552E-03 -0.5889754373846E-02  0.0000000000000E+00  0.1556137035170E-03
 0.9077463215146E-03 -0.5705742750506E-02  0.0000000000000E+00 -0.5616135139225E-04
 0.9999591876286E-03 -0.5530184496108E-02  0.0000000000000E+00 -0.3502361537112E-03
 0.1168657258982E-02 -0.5374387407286E-02  0.0000000000000E+00 -0.7325856579408E-03
 0.1437147004076E-02 -0.5253432217949E-02  0.0000000000000E+00 -0.1201296330725E-02
 0.1831713612997E-02 -0.5185818894153E-02  0.0000000000000E+00 -0.1741259078363E-02
 0.2379069942775E-02 -0.5191809064688E-02  0.0000000000000E+00 -0.2317994941167E-02
 0.3101295231754E-02 -0.5289990852416E-02  0.0000000000000E+00 -0.2871886269455E-02
 0.4008003689604E-02 -0.5491470235456E-02  0.0000000000000E+00 -0.3316428212455E-02
 0.5087103507086E-02 -0.5792477645044E-02  0.0000000000000E+00 -0.3545180136689E-02
 0.6297304507122E-02 -0.6168097346601E-02  0.0000000000000E+00 -0.3450523453814E-02
 0.7567652970935E-02 -0.6571325566626E-02  0.0000000000000E+00 -0.2954292997382E-02
 0.8813494600206E-02 -0.6944821747108E-02  0.0000000000000E+00 -0.2040398372461E-02
 0.1139920417173E-03 -0.6899328265850E-02  0.0000000000000E+00 -0.9327858294864E-03
 0.3443130885014E-03 -0.7039333309802E-02  0.0000000000000E+00 -0.1155825361539E-02
 0.5724937674789E-03 -0.7172953675467E-02  0.0000000000000E+00 -0.1302885202272E-02
 0.7879008608225E-03 -0.7292648169858E-02  0.0000000000000E+00 -0.1378619221821E-02
 0.9818940554855E-03 -0.7392729374747E-02  0.0000000000000E+00 -0.1393801193864E-02
 0.1148971481948E-02 -0.7470147488174E-02  0.0000000000000E+00 -0.1362460386427E-02
 0.1286879880988E-02 -0.7524416376316E-02  0.0000000000000E+00 -0.1298857769169E-02
 0.1395987254294E-02 -0.7556964244762E-02  0.0000000000000E+00 -0.1215316104080E-02
 0.1478365315564E-02 -0.7570301869690E-02  0.0000000000000E+00 -0.1121199462475E-02
 0.1536928745959E-02 -0.7567295889510E-02  0.0000000000000E+00 -0.1022824610636E-02
 0.1574796697395E-02 -0.7550668031511E-02  0.0000000000000E+00 -0.9239111143483E-03
 0.1594899662703E-02 -0.7522718276027E-02  0.0000000000000E+00 -0.8262306123365E-03
 0.1599784491750E-02 -0.7485214585139E-02  0.0000000000000E+00 -0.7302463716708E-03
 0.1591552993065E-02 -0.7439384328106E-02  0.0000000000000E+00 -0.6356521280355E-03
 0.1571879582838E-02 -0.7385957049339E-02  0.0000000000000E+00 -0.5417934886158E-03
 0.1542071310483E-02 -0.7325227017587E-02  0.0000000000000E+00 -0.4479901154838E-03
 0.1503149642006E-02 -0.7257119500718E-02  0.0000000000000E+00 -0.3537872344321E-03
 0.1455947036097E-02 -0.7181258131612E-02  0.0000000000000E+00 -0.2591656322219E-03
 0.1401214567687E-02 -0.7097030497184E-02  0.0000000000000E+00 -0.1647223282013E-03
 0.1339746012958E-02 -0.7003660790577E-02  0.0000000000000E+00 -0.7183517069145E-04
 0.1272520876836E-02 -0.6900294574665E-02  0.0000000000000E+00  0.1718988306373E-04
 0.1200864042673E-02 -0.6786093886373E-02  0.0000000000000E+00  0.9900175338892E-04
 0.1126622425636E-02 -0.6660348309764E-02  0.0000000000000E+00  0.1691186991462E-03
 0.1052361989745E-02 -0.6522627913835E-02  0.0000000000000E+00  0.2218939428453E-03
 0.9816091458744E-03 -0.6373080065358E-02  0.0000000000000E+00  0.2506021281735E-03
 0.9190715838204E-03 -0.6212652484548E-02  0.0000000000000E+00  0.2475601321019E-03
 0.8708303516144E-03 -0.6043134075210E-02  0.0000000000000E+00  0.2041399810543E-03
 0.8446185134511E-03 -0.5867304913190E-02  0.0000000000000E+00  0.1108635945836E-03
 0.8502197586840E-03 -0.5689279941790E-02  0.0000000000000E+00 -0.4223019438154E-04
 0.8999571670531E-03 -0.5515022675183E-02  0.0000000000000E+00 -0.2647394282794E-03
 0.1009176617843E-02 -0.5352948122890E-02  0.0000000000000E+00 -0.5643234204280E-03
 0.1196531376376E-02 -0.5214456009059E-02  0.0000000000000E+00 -0.9441385413597E-03
 0.1483740257258E-02 -0.5114124418982E-02  0.0000000000000E+00 -0.1399109676912E-02
 0.1894392065208E-02 -0.5069080523263E-02  0.0000000000000E+00 -0.1911261576331E-02
 0.2451285488162E-02 -0.5097168824990E-02  0.0000000000000E+00 -0.2444700240758E-02
 0.3171689715833E-02 -0.5213633780310E-02  0.0000000000000E+00 -0.2941520463523E-02
 0.4060547393818E-02 -0.5426002791434E-02  0.0000000000000E+00 -0.3321731039019E-02
 0.5103031013053E-02 -0.5728051613177E-02  0.0000000000000E+00 -0.3490791904099E-02
 0.6259260276507E-02 -0.6095255441805E-02  0.0000000000000E+00 -0.3356705758815E-02
 0.7465653330232E-02 -0.6485347494123E-02  0.0000000000000E+00 -0.2855247770756E-02
 0.8648143342381E-02 -0.6848327970675E-02  0.0000000000000E+00 -0.1972109681308E-02
 0.1081005102460E-03 -0.6728008476315E-02  0.0000000000000E+00 -0.8507588496566E-03
 0.3264270076823E-03 -0.6860927588939E-02  0.0000000000000E+00 -0.1076898300897E-02
 0.5428866116195E-03 -0.6988134970285E-02  0.0000000000000E+00 -0.1232035097808E-02
 0.7479492881401E-03 -0.7102827355449E-02  0.0000000000000E+00 -0.1319998711530E-02
 0.9337152342322E-03 -0.7199727614571E-02  0.0000000000000E+00 -0.1349987082375E-02
 0.1094924878733E-02 -0.7275788525132E-02  0.0000000000000E+00 -0.1334265673025E-02
 0.1229137589620E-02 -0.7330203615699E-02  0.0000000000000E+00 -0.1285629387624E-02
 0.1336278409037E-02 -0.7363918403736E-02  0.0000000000000E+00 -0.1215470408246E-02
 0.1417895942346E-02 -0.7378946257133E-02  0.0000000000000E+00 -0.1132760698078E-02
 0.1476422449637E-02 -0.7377733108721E-02  0.0000000000000E+00 -0.1043834844970E-02
 0.1514593658436E-02 -0.7362691037302E-02  0.0000000000000E+00 -0.9526803685417E-03
 0.1535068335084E-02 -0.7335917884466E-02  0.0000000000000E+00 -0.8614539488948E-03
 0.1540221790876E-02 -0.7299066296100E-02  0.0000000000000E+00 -0.7710329145657E-03
 0.1532064864038E-02 -0.7253311602870E-02  0.0000000000000E+00 -0.6815063367605E-03
 0.1512242865790E-02 -0.7199375344355E-02  0.0000000000000E+00 -0.5925764712811E-03
 0.1482081486524E-02 -0.7137575141202E-02  0.0000000000000E+00 -0.5038765374561E-03
 0.1442659578399E-02 -0.7067884552346E-02  0.0000000000000E+00 -0.4152242594496E-03
 0.1394900886396E-02 -0.6989998994452E-02  0.0000000000000E+00 -0.3268342725625E-03
 0.1339679364687E-02 -0.6903403117286E-02  0.0000000000000E+00 -0.2394986215421E-03
 0.1277941841716E-02 -0.6807446972141E-02  0.0000000000000E+00 -0.1547471716104E-03
 0.1210849182723E-02 -0.6701434831153E-02  0.0000000000000E+00 -0.7498698071590E-04
 0.1139933019123E-02 -0.6584724164084E-02  0.0000000000000E+00 -0.3609585807779E-05
 0.1067268865196E-02 -0.6456840851425E-02  0.0000000000000E+00  0.5493456421329E-04
 0.9956689940725E-03 -0.6317634786314E-02  0.0000000000000E+00  0.9511457907557E-04
 0.9289161302221E-03 -0.6167568425313E-02  0.0000000000000E+00  0.1104200092179E-03
 0.8719788632337E-03 -0.6007938646326E-02  0.0000000000000E+00  0.9350765265637E-04
 0.8311990936274E-03 -0.5840932635013E-02  0.0000000000000E+00  0.3626783451049E-04
 0.8145487788067E-03 -0.5669780864809E-02  0.0000000000000E+00 -0.6999946645836E-04
 0.8319743894867E-03 -0.5499074048373E-02  0.0000000000000E+00 -0.2341176790045E-03
 0.8957866003116E-03 -0.5335207709971E-02  0.0000000000000E+00 -0.4640920236096E-03
 0.1020990449536E-02 -0.5186862481104E-02  0.0000000000000E+00 -0.7654872701370E-03
 0.1225363747213E-02 -0.5065356525248E-02  0.0000000000000E+00 -0.1138939800189E-02
 0.1528983159153E-02 -0.4984614867086E-02  0.0000000000000E+00 -0.1576735570213E-02
 0.1952842114274E-02 -0.4960337073381E-02  0.0000000000000E+00 -0.2058778514290E-02
 0.2516184489126E-02 -0.5008086183026E-02  0.0000000000000E+00 -0.2548606772928E-02
 0.3232150963608E-02 -0.5140166915048E-02  0.0000000000000E+00 -0.2990667675308E-02
 0.4101946744306E-02 -0.5361177746681E-02  0.0000000000000E+00 -0.3311445373725E-02
 0.5108919803982E-02 -0.5663144058568E-02  0.0000000000000E+00 -0.3427153018990E-02
 0.6214997778979E-02 -0.6022349138501E-02  0.0000000000000E+00 -0.3258983071903E-02
 0.7362939736668E-02 -0.6400738951240E-02  0.0000000000000E+00 -0.2753477704973E-02
 0.8486820495565E-02 -0.6754019502249E-02  0.0000000000000E+00 -0.1898063023943E-02
 0.1025876831296E-03 -0.6557981538354E-02  0.0000000000000E+00 -0.7729007124660E-03
 0.3096905232399E-03 -0.6684241928097E-02  0.0000000000000E+00 -0.1001834107354E-02
 0.5151372350264E-03 -0.6805359594105E-02  0.0000000000000E+00 -0.1164240848728E-02
 0.7103537515776E-03 -0.6915176328042E-02  0.0000000000000E+00 -0.1263278814099E-02
 0.8881099798319E-03 -0.7008798398871E-02  0.0000000000000E+00 -0.1306829529746E-02
 0.1043405905545E-02 -0.7083223061324E-02  0.0000000000000E+00 -0.1305641381468E-02
 0.1173689234079E-02 -0.7137404690481E-02  0.0000000000000E+00 -0.1271197170027E-02
 0.1278534852680E-02 -0.7171890693559E-02  0.0000000000000E+00 -0.1214004177937E-02
 0.1359047938563E-02 -0.7188261552361E-02  0.0000000000000E+00 -0.1142608316302E-02
 0.1417232299618E-02 -0.7188579919282E-02  0.0000000000000E+00 -0.1063289334319E-02
 0.1455469106712E-02 -0.7174962618127E-02  0.0000000000000E+00 -0.9802237172283E-03
 0.1476155841166E-02 -0.7149304942611E-02  0.0000000000000E+00 -0.8958855816101E-03
 0.1481495784073E-02 -0.7113136775019E-02  0.0000000000000E+00 -0.8115156902413E-03
 0.1473403216878E-02 -0.7067572378033E-02  0.0000000000000E+00 -0.7275633072978E-03
 0.1453487307738E-02 -0.7013317732000E-02  0.0000000000000E+00 -0.6440632552144E-03
 0.1423085690851E-02 -0.6950708974081E-02  0.0000000000000E+00 -0.5609443989426E-03
 0.1383328750165E-02 -0.6879765914901E-02  0.0000000000000E+00 -0.4782810000119E-03
 0.1335226207694E-02 -0.6800255898920E-02  0.0000000000000E+00 -0.3965043658990E-03
 0.1279769438443E-02 -0.6711762023019E-02  0.0000000000000E+00 -0.3165811499765E-03
 0.1218051922065E-02 -0.6613761773470E-02  0.0000000000000E+00 -0.2401685416563E-03
 0.1151407871164E-02 -0.6505718918535E-02  0.0000000000000E+00 -0.1697453673947E-03
 0.1081565559734E-02 -0.6387185509127E-02  0.0000000000000E+00 -0.1087094494263E-03
 0.1010816369794E-02 -0.6257920296463E-02  0.0000000000000E+00 -0.6144034291339E-04
 0.9422025047469E-03 -0.6118045641440E-02  0.0000000000000E+00 -0.3330707970561E-04
 0.8797412637221E-03 -0.5968326085674E-02  0.0000000000000E+00 -0.3055273620195E-04
 0.8286319234711E-03 -0.5810386045987E-02  0.0000000000000E+00 -0.6012283533130E-04
 0.7954338106309E-03 -0.5646775625579E-02  0.0000000000000E+00 -0.1295498743130E-03
 0.7882961797300E-03 -0.5481120170501E-02  0.0000000000000E+00 -0.2467070455782E-03
 0.8172455958957E-03 -0.5318404512917E-02  0.0000000000000E+00 -0.4192626040292E-03
 0.8944789819634E-03 -0.5165345666231E-02  0.0000000000000E+00 -0.6536757342303E-03
 0.1034553277231E-02 -0.5030755519326E-02  0.0000000000000E+00 -0.9535712759619E-03
 0.1254287255817E-02 -0.4925731917198E-02  0.0000000000000E+00 -0.1317374634523E-02
 0.1572107565838E-02 -0.4863444526338E-02  0.0000000000000E+00 -0.1735224704718E-02
 0.2006552595496E-02 -0.4858161969427E-02  0.0000000000000E+00 -0.2185552844721E-02
 0.2573674471572E-02 -0.4923333307597E-02  0.0000000000000E+00 -0.2632003521401E-02
 0.3283100212842E-02 -0.5068707706158E-02  0.0000000000000E+00 -0.3021802531496E-02
 0.4133077677910E-02 -0.5296512834139E-02  0.0000000000000E+00 -0.3287712656517E-02
 0.5105823853811E-02 -0.5597579972032E-02  0.0000000000000E+00 -0.3355566388440E-02
 0.6165240142706E-02 -0.5949233817127E-02  0.0000000000000E+00 -0.3157633126443E-02
 0.7259495040035E-02 -0.6317074278534E-02  0.0000000000000E+00 -0.2648967989021E-02
 0.8329301888560E-02 -0.6661445837736E-02  0.0000000000000E+00 -0.1818879941061E-02
 0.9741611704017E-04 -0.6389116830955E-02  0.0000000000000E+00 -0.6989560368747E-03
 0.2939895037571E-03 -0.6509107361601E-02  0.0000000000000E+00 -0.9304222027164E-03
 0.4890670618137E-03 -0.6624439009124E-02  0.0000000000000E+00 -0.1099404447080E-02
 0.6749073525100E-03 -0.6729519852042E-02  0.0000000000000E+00 -0.1208508877004E-02
 0.8448856517653E-03 -0.6819812263761E-02  0.0000000000000E+00 -0.1264512440774E-02
 0.9942685642725E-03 -0.6892387135261E-02  0.0000000000000E+00 -0.1276857353984E-02
 0.1120450240428E-02 -0.6946024341965E-02  0.0000000000000E+00 -0.1255856534889E-02
 0.1222732413829E-02 -0.6980945016222E-02  0.0000000000000E+00 -0.1211186647540E-02
 0.1301846995263E-02 -0.6998355283775E-02  0.0000000000000E+00 -0.1150951651615E-02
 0.1359420088587E-02 -0.6999971751958E-02  0.0000000000000E+00 -0.1081321720345E-02
 0.1397508106742E-02 -0.6987633467623E-02  0.0000000000000E+00 -0.1006596212705E-02
 0.1418260438229E-02 -0.6963036806300E-02  0.0000000000000E+00 -0.9295060736222E-03
 0.1423710791282E-02 -0.6927585005050E-02  0.0000000000000E+00 -0.8516071986154E-03
 0.1415673630371E-02 -0.6882324724000E-02  0.0000000000000E+00 -0.7736733132823E-03
 0.1395716384096E-02 -0.6827940166879E-02  0.0000000000000E+00 -0.6960457182201E-03
 0.1365182523445E-02 -0.6764781471748E-02  0.0000000000000E+00 -0.6189286234651E-03
 0.1325248002703E-02 -0.6692912166618E-02  0.0000000000000E+00 -0.5426347337428E-03
 0.1277002595870E-02 -0.6612170554779E-02  0.0000000000000E+00 -0.4677933382007E-03
 0.1221548698563E-02 -0.6522238004014E-02  0.0000000000000E+00 -0.3955245582279E-03
 0.1160118921017E-02 -0.6422719137285E-02  0.0000000000000E+00 -0.3275883130681E-03
 0.1094211592753E-02 -0.6313235889032E-02  0.0000000000000E+00 -0.2665067387577E-03
 0.1025740198082E-02 -0.6193531672863E-02  0.0000000000000E+00 -0.2156514085736E-03
 0.9571977483596E-03 -0.6063591996541E-02  0.0000000000000E+00 -0.1792939983199E-03
 0.8918382930727E-03 -0.5923801274538E-02  0.0000000000000E+00 -0.1625998743125E-03
 0.8338902465383E-03 -0.5775209803322E-02  0.0000000000000E+00 -0.1714987938633E-03
 0.7887521461573E-03 -0.5619744676340E-02  0.0000000000000E+00 -0.2124907272809E-03
 0.7631575986178E-03 -0.5460281131180E-02  0.0000000000000E+00 -0.2924864672443E-03
 0.7653748584135E-03 -0.5300783593940E-02  0.0000000000000E+00 -0.4185030035595E-03
 0.8054362511118E-03 -0.5146553281489E-02  0.0000000000000E+00 -0.5970596746974E-03
 0.8953393309844E-03 -0.5004528978618E-02  0.0000000000000E+00 -0.8331411069989E-03
 0.1049110619924E-02 -0.4883540017981E-02  0.0000000000000E+00 -0.1128604899941E-02
 0.1282559938462E-02 -0.4794356925220E-02  0.0000000000000E+00 -0.1479972524344E-02
 0.1612492586321E-02 -0.4749331823987E-02  0.0000000000000E+00 -0.1875687392853E-02
 0.2055157370822E-02 -0.4761337093500E-02  0.0000000000000E+00 -0.2293261558094E-02
 0.2623768246045E-02 -0.4841891782231E-02  0.0000000000000E+00 -0.2696970553359E-02
 0.3324984652347E-02 -0.4998545079666E-02  0.0000000000000E+00 -0.3037077474534E-02
 0.4154741058823E-02 -0.5231626528372E-02  0.0000000000000E+00 -0.3252321916654E-02
 0.5094636190507E-02 -0.5531198932970E-02  0.0000000000000E+00 -0.3277077798517E-02
 0.6110567783911E-02 -0.5875728367221E-02  0.0000000000000E+00 -0.3052927688555E-02
 0.7155343803967E-02 -0.6233967838145E-02  0.0000000000000E+00 -0.2541829788958E-02
 0.8175313807080E-02 -0.6570173185903E-02  0.0000000000000E+00 -0.1735032320327E-02
 0.9255358161878E-04 -0.6221300234276E-02  0.0000000000000E+00 -0.6286923937672E-03
 0.2792255299897E-03 -0.6335376203772E-02  0.0000000000000E+00 -0.8624667840353E-03
 0.4645208137309E-03 -0.6445206928820E-02  0.0000000000000E+00 -0.1037423059474E-02
 0.6414270711951E-03 -0.6545699950778E-02  0.0000000000000E+00 -0.1155710191089E-02
 0.8038671347916E-03 -0.6632647252951E-02  0.0000000000000E+00 -0.1223174330492E-02
 0.9473743676088E-03 -0.6703213194278E-02  0.0000000000000E+00 -0.1248131767645E-02
 0.1069333688475E-02 -0.6756054546204E-02  0.0000000000000E+00 -0.1239855313811E-02
 0.1168837304483E-02 -0.6791126903049E-02  0.0000000000000E+00 -0.1207249709176E-02
 0.1246305145549E-02 -0.6809314518030E-02  0.0000000000000E+00 -0.1157974546380E-02
 0.1303032574055E-02 -0.6812023969263E-02  0.0000000000000E+00 -0.1098050495479E-02
 0.1340780965195E-02 -0.6800835848864E-02  0.0000000000000E+00 -0.1031845265513E-02
 0.1361466618840E-02 -0.6777254281000E-02  0.0000000000000E+00 -0.9622929971156E-03
 0.1366958417414E-02 -0.6742554910144E-02  0.0000000000000E+00 -0.8912193931632E-03
 0.1358969704975E-02 -0.6697712444863E-02  0.0000000000000E+00 -0.8196871759402E-03
 0.1339021867324E-02 -0.6643384343650E-02  0.0000000000000E+00 -0.7483168463545E-03
 0.1308458692469E-02 -0.6579930593986E-02  0.0000000000000E+00 -0.6775659604352E-03
 0.1268495721862E-02 -0.6507455531582E-02  0.0000000000000E+00 -0.6079659909843E-03
 0.1220296375867E-02 -0.6425866498844E-02  0.0000000000000E+00 -0.5403244323122E-03
 0.1165066886886E-02 -0.6334941583469E-02  0.0000000000000E+00 -0.4758933343264E-03
 0.1104170518222E-02 -0.6234410568343E-02  0.0000000000000E+00 -0.4165111027018E-03
 0.1039259431188E-02 -0.6124050312205E-02  0.0000000000000E+00 -0.3647158251188E-03
 0.9724197459268E-03 -0.6003790237392E-02  0.0000000000000E+00 -0.3238221866956E-03
 0.9063306175015E-03 -0.5873834110993E-02  0.0000000000000E+00 -0.2979599243296E-03
 0.8444385587291E-03 -0.5734815379897E-02  0.0000000000000E+00 -0.2920534008841E-03
 0.7911585284053E-03 -0.5588051104302E-02  0.0000000000000E+00 -0.3116797703733E-03
 0.7520565105832E-03 -0.5435743879028E-02  0.0000000000000E+00 -0.3628551786417E-03
 0.7339985224031E-03 -0.5281055092749E-02  0.0000000000000E+00 -0.4518374557402E-03
 0.7453178342470E-03 -0.5128233638972E-02  0.0000000000000E+00 -0.5847750283313E-03
 0.7959872490195E-03 -0.4982824741989E-02  0.0000000000000E+00 -0.7670639981474E-03
 0.8977348161499E-03 -0.4851900928197E-02  0.0000000000000E+00 -0.1002303965942E-02
 0.1063997075663E-02 -0.4744215041185E-02  0.0000000000000E+00 -0.1290767249374E-02
 0.1309553376607E-02 -0.4670131475359E-02  0.0000000000000E+00 -0.1627367307520E-02
 0.1649643986552E-02 -0.4641155194096E-02  0.0000000000000E+00 -0.1999258307177E-02
 0.2098407576604E-02 -0.4668823985335E-02  0.0000000000000E+00 -0.2383497178995E-02
 0.2666555338460E-02 -0.4762916145946E-02  0.0000000000000E+00 -0.2745388917204E-02
 0.3358257877865E-02 -0.4929103139400E-02  0.0000000000000E+00 -0.3038364992735E-02
 0.4167661595316E-02 -0.5166210703519E-02  0.0000000000000E+00 -0.3206777762391E-02
 0.5076117517842E-02 -0.5463849730523E-02  0.0000000000000E+00 -0.3192553769769E-02
 0.6051464067371E-02 -0.5801645589133E-02  0.0000000000000E+00 -0.2945145030147E-02
 0.7050528625981E-02 -0.6151084962893E-02  0.0000000000000E+00 -0.2432223416197E-02
 0.8024561510152E-02 -0.6479803628984E-02  0.0000000000000E+00 -0.1646898136740E-02
 0.8797212008403E-04 -0.6054431211245E-02  0.0000000000000E+00 -0.5618973993180E-03
 0.2653131219049E-03 -0.6162918375972E-02  0.0000000000000E+00 -0.7977855807509E-03
 0.4413626527868E-03 -0.6267515758853E-02  0.0000000000000E+00 -0.9781914854701E-03
 0.6097503288016E-03 -0.6363573663483E-02  0.0000000000000E+00 -0.1104882250052E-02
 0.7648950268711E-03 -0.6447188699875E-02  0.0000000000000E+00 -0.1182916495779E-02
 0.9025924411095E-03 -0.6515631738358E-02  0.0000000000000E+00 -0.1219638740255E-02
 0.1020251824418E-02 -0.6567477239242E-02  0.0000000000000E+00 -0.1223399103526E-02
 0.1116808246148E-02 -0.6602466433778E-02  0.0000000000000E+00 -0.1202390577515E-02
 0.1192422834610E-02 -0.6621208342305E-02  0.0000000000000E+00 -0.1163835832328E-02
 0.1248103120708E-02 -0.6624833637416E-02  0.0000000000000E+00 -0.1113578179379E-02
 0.1285344346230E-02 -0.6614684661648E-02  0.0000000000000E+00 -0.1056009342205E-02
 0.1305845769372E-02 -0.6592082139869E-02  0.0000000000000E+00 -0.9942197385464E-03
 0.1311317897109E-02 -0.6558175526333E-02  0.0000000000000E+00 -0.9302629250909E-03
 0.1303373249239E-02 -0.6513865096476E-02  0.0000000000000E+00 -0.8654560848225E-03
 0.1283483995466E-02 -0.6459777727192E-02  0.0000000000000E+00 -0.8006711443960E-03
 0.1252989282971E-02 -0.6396279483921E-02  0.0000000000000E+00 -0.7365959249657E-03
 0.1213138299149E-02 -0.6323512322010E-02  0.0000000000000E+00 -0.6739599198745E-03
 0.1165161341076E-02 -0.6241449898048E-02  0.0000000000000E+00 -0.6137283667793E-03
 0.1110360654081E-02 -0.6149964267631E-02  0.0000000000000E+00 -0.5572636131467E-03
 0.1050220874389E-02 -0.6048906908501E-02  0.0000000000000E+00 -0.5064588990662E-03
 0.9865368183344E-03 -0.5938204656191E-02  0.0000000000000E+00 -0.4638422179867E-03
 0.9215537172227E-03 -0.5817965693063E-02  0.0000000000000E+00 -0.4326428403947E-03
 0.8581204020988E-03 -0.5688601482318E-02  0.0000000000000E+00 -0.4168176562314E-03
 0.7998555597742E-03 -0.5550979325045E-02  0.0000000000000E+00 -0.4210173170338E-03
 0.7513355647374E-03 -0.5406662024129E-02  0.0000000000000E+00 -0.4504336913184E-03
 0.7182623534230E-03 -0.5258099026504E-02  0.0000000000000E+00 -0.5105699108625E-03
 0.7075945507730E-03 -0.5108698723242E-02  0.0000000000000E+00 -0.6070115415842E-03
 0.7276814704905E-03 -0.4962942171324E-02  0.0000000000000E+00 -0.7450405888248E-03
 0.7883804272598E-03 -0.4826552536954E-02  0.0000000000000E+00 -0.9289709056280E-03
 0.9010945763298E-03 -0.4706659995236E-02  0.0000000000000E+00 -0.1161118764766E-02
 0.1078631150070E-02 -0.4611865558618E-02  0.0000000000000E+00 -0.1440355311737E-02
 0.1334740873857E-02 -0.4552073077584E-02  0.0000000000000E+00 -0.1760264424248E-02
 0.1683175363890E-02 -0.4537936505435E-02  0.0000000000000E+00 -0.2107070173735E-02
 0.2136148111234E-02 -0.4579738725224E-02  0.0000000000000E+00 -0.2457757513313E-02
 0.2702179534314E-02 -0.4685703978186E-02  0.0000000000000E+00 -0.2778954497955E-02
 0.3383366529000E-02 -0.4859913122646E-02  0.0000000000000E+00 -0.3027296978008E-02
 0.4172491761266E-02 -0.5100012611904E-02  0.0000000000000E+00 -0.3152357499102E-02
 0.5050921695353E-02 -0.5395392157142E-02  0.0000000000000E+00 -0.3102731259295E-02
 0.5988341202717E-02 -0.5726808826972E-02  0.0000000000000E+00 -0.2834563529267E-02
 0.6945095190441E-02 -0.6068138122367E-02  0.0000000000000E+00 -0.2320322876481E-02
 0.7876748053635E-02 -0.6389977842309E-02  0.0000000000000E+00 -0.1554803542530E-02
 0.8364729472251E-04 -0.5888420419716E-02  0.0000000000000E+00 -0.4983762897325E-03
 0.2521774894383E-03 -0.5991618367511E-02  0.0000000000000E+00 -0.7362087043622E-03
 0.4194729876962E-03 -0.6091233564270E-02  0.0000000000000E+00 -0.9216039163867E-03
 0.5797320112612E-03 -0.6183010962963E-02  0.0000000000000E+00 -0.1056007632123E-02
 0.7278238788844E-03 -0.6263328714282E-02  0.0000000000000E+00 -0.1143809677862E-02
 0.8597993066996E-03 -0.6329572341707E-02  0.0000000000000E+00 -0.1191514844069E-02
 0.9731170771639E-03 -0.6380266325330E-02  0.0000000000000E+00 -0.1206656178252E-02
 0.1066598116347E-02 -0.6414980534764E-02  0.0000000000000E+00 -0.1196774581619E-02
 0.1140190638045E-02 -0.6434089907635E-02  0.0000000000000E+00 -0.1168670265564E-02
 0.1194653142359E-02 -0.6438481036025E-02  0.0000000000000E+00 -0.1127991041322E-02
 0.1231242308836E-02 -0.6429278373302E-02  0.0000000000000E+00 -0.1079117149487E-02
 0.1251456827924E-02 -0.6407629573461E-02  0.0000000000000E+00 -0.1025254663736E-02
 0.1256856476328E-02 -0.6374561127477E-02  0.0000000000000E+00 -0.9686466096594E-03
 0.1248954512262E-02 -0.6330897952540E-02  0.0000000000000E+00 -0.9108315171409E-03
 0.1229171678240E-02 -0.6277233507292E-02  0.0000000000000E+00 -0.8529050415397E-03
 0.1198838043705E-02 -0.6213936538069E-02  0.0000000000000E+00 -0.7957616473126E-03
 0.1159230588527E-02 -0.6141183230961E-02  0.0000000000000E+00 -0.7403074892428E-03
 0.1111639452820E-02 -0.6059010156517E-02  0.0000000000000E+00 -0.6876447713298E-03
 0.1057454561204E-02 -0.5967379547444E-02  0.0000000000000E+00 -0.6392247032685E-03
 0.9982719861868E-03 -0.5866259806676E-02  0.0000000000000E+00 -0.5969725231314E-03
 0.9360172919136E-03 -0.5755721299242E-02  0.0000000000000E+00 -0.5633815850977E-03
 0.8730805397783E-03 -0.5636042069162E-02  0.0000000000000E+00 -0.5415695049706E-03
 0.8124630479538E-03 -0.5507828965424E-02  0.0000000000000E+00 -0.5352927125028E-03
 0.7579348474137E-03 -0.5372166243650E-02  0.0000000000000E+00 -0.5489001028691E-03
 0.7142085289352E-03 -0.5230839980864E-02  0.0000000000000E+00 -0.5871719533719E-03
 0.6870913911259E-03 -0.5086517087356E-02  0.0000000000000E+00 -0.6550775773259E-03
 0.6835975250772E-03 -0.4942814490344E-02  0.0000000000000E+00 -0.7575214803573E-03
 0.7120487451890E-03 -0.4804396247150E-02  0.0000000000000E+00 -0.8989333735049E-03
 0.7821401485431E-03 -0.4677104250768E-02  0.0000000000000E+00 -0.1082597334381E-02
 0.9049082854219E-03 -0.4568061933826E-02  0.0000000000000E+00 -0.1309655100659E-02
 0.1092509353315E-02 -0.4485660053408E-02  0.0000000000000E+00 -0.1577757351671E-02
 0.1357686044191E-02 -0.4439308155203E-02  0.0000000000000E+00 -0.1879415217875E-02
 0.1712791477142E-02 -0.4438825174203E-02  0.0000000000000E+00 -0.2200235348562E-02
 0.2168298196010E-02 -0.4493329818485E-02  0.0000000000000E+00 -0.2517441888654E-02
 0.2730821700859E-02 -0.4609671132379E-02  0.0000000000000E+00 -0.2799194199558E-02
 0.3400741948664E-02 -0.4790591715777E-02  0.0000000000000E+00 -0.3005300281151E-02
 0.4169818119771E-02 -0.5032823067830E-02  0.0000000000000E+00 -0.3090156207295E-02
 0.5019615835613E-02 -0.5325699469829E-02  0.0000000000000E+00 -0.3008248440592E-02
 0.5921555289545E-02 -0.5651058751222E-02  0.0000000000000E+00 -0.2721453513021E-02
 0.6839084518812E-02 -0.5984879651817E-02  0.0000000000000E+00 -0.2206302626388E-02
 0.7731585909814E-02 -0.6300373648493E-02  0.0000000000000E+00 -0.1459048703344E-02
 0.7955756595075E-04 -0.5723187749412E-02  0.0000000000000E+00 -0.4379499267991E-03
 0.2397526909722E-03 -0.5821372731875E-02  0.0000000000000E+00 -0.6775776329913E-03
 0.3987458165152E-03 -0.5916241523457E-02  0.0000000000000E+00 -0.8675552272627E-03
 0.5512419008493E-03 -0.6003892913282E-02  0.0000000000000E+00 -0.1009055864065E-02
 0.6925205406024E-03 -0.6080965576278E-02  0.0000000000000E+00 -0.1105899546063E-02
 0.8188784788279E-03 -0.6144964327799E-02  0.0000000000000E+00 -0.1163864707368E-02
 0.9278427285136E-03 -0.6194389254029E-02  0.0000000000000E+00 -0.1189761975420E-02
 0.1018155243285E-02 -0.6228674916301E-02  0.0000000000000E+00 -0.1190537988180E-02
 0.1089590721907E-02 -0.6247998263835E-02  0.0000000000000E+00 -0.1172589782730E-02
 0.1142693411154E-02 -0.6253031122018E-02  0.0000000000000E+00 -0.1141359246865E-02
 0.1178507322785E-02 -0.6244700034293E-02  0.0000000000000E+00 -0.1101187210242E-02
 0.1198346999289E-02 -0.6223990810595E-02  0.0000000000000E+00 -0.1055360571669E-02
 0.1203629896321E-02 -0.6191811570119E-02  0.0000000000000E+00 -0.1006277055447E-02
 0.1195772538223E-02 -0.6148912210629E-02  0.0000000000000E+00 -0.9556651973734E-03
 0.1176142827332E-02 -0.6095850796983E-02  0.0000000000000E+00 -0.9048172268697E-03
 0.1146057788836E-02 -0.6032995713107E-02  0.0000000000000E+00 -0.8548105542684E-03
 0.1106816460954E-02 -0.5960553847548E-02  0.0000000000000E+00 -0.8067064358640E-03
 0.1059761614674E-02 -0.5878620725115E-02  0.0000000000000E+00 -0.7617232865020E-03
 0.1006362128454E-02 -0.5787244077295E-02  0.0000000000000E+00 -0.7213802021054E-03
 0.9483150555917E-03 -0.5686503334561E-02  0.0000000000000E+00 -0.6876126019933E-03
 0.8876642270419E-03 -0.5576604647242E-02  0.0000000000000E+00 -0.6628563192658E-03
 0.8269296865399E-03 -0.5457985616713E-02  0.0000000000000E+00 -0.6500934896559E-03
 0.7692475778536E-03 -0.5331434732111E-02  0.0000000000000E+00 -0.6528558317030E-03
 0.7185182370241E-03 -0.5198234992394E-02  0.0000000000000E+00 -0.6751670259431E-03
 0.6795656166828E-03 -0.5060372355317E-02  0.0000000000000E+00 -0.7213754741426E-03
 0.6582731538338E-03 -0.4920701689374E-02  0.0000000000000E+00 -0.7959034339609E-03
 0.6616763375101E-03 -0.4783011339756E-02  0.0000000000000E+00 -0.9029745488985E-03
 0.6980315485225E-03 -0.4652102907049E-02  0.0000000000000E+00 -0.1046189921573E-02
 0.7768338230436E-03 -0.4533884842911E-02  0.0000000000000E+00 -0.1227864368133E-02
 0.9087237969297E-03 -0.4435420562101E-02  0.0000000000000E+00 -0.1448076741868E-02
 0.1105199890904E-02 -0.4364847188748E-02  0.0000000000000E+00 -0.1703430392209E-02
 0.1378031985266E-02 -0.4331063322710E-02  0.0000000000000E+00 -0.1985596634323E-02
 0.1738273546833E-02 -0.4343083690497E-02  0.0000000000000E+00 -0.2279833085091E-02
 0.2194835283466E-02 -0.4408959264112E-02  0.0000000000000E+00 -0.2563851565224E-02
 0.2752686660984E-02 -0.4534331645351E-02  0.0000000000000E+00 -0.2807482731448E-02
 0.3410795243499E-02 -0.4720824645529E-02  0.0000000000000E+00 -0.2973627726369E-02
 0.4160168118512E-02 -0.4964468612550E-02  0.0000000000000E+00 -0.3021121596044E-02
 0.4982695573210E-02 -0.5254659932387E-02  0.0000000000000E+00 -0.2909664876242E-02
 0.5851416125559E-02 -0.5574255164381E-02  0.0000000000000E+00 -0.2606072518828E-02
 0.6732530321637E-02 -0.5901095361485E-02  0.0000000000000E+00 -0.2090334635438E-02
 0.7588804289354E-02 -0.6210703920268E-02  0.0000000000000E+00 -0.1359922743941E-02
 0.7568379181599E-04 -0.5558660695188E-02  0.0000000000000E+00 -0.3804531099218E-03
 0.2279801212986E-03 -0.5652088002551E-02  0.0000000000000E+00 -0.6217443000131E-03
 0.3790865116426E-03 -0.5742431768825E-02  0.0000000000000E+00 -0.8159418989187E-03
 0.5241624640260E-03 -0.5826110026752E-02  0.0000000000000E+00 -0.9639864625646E-03
 0.6588626326998E-03 -0.5900003064405E-02  0.0000000000000E+00 -0.1069211187377E-02
 0.7797199445898E-03 -0.5961737158194E-02  0.0000000000000E+00 -0.1136765786886E-02
 0.8843433177572E-03 -0.6009808213998E-02  0.0000000000000E+00 -0.1172823116297E-02
 0.9714244045495E-03 -0.6043545653849E-02  0.0000000000000E+00 -0.1183790735021E-02
 0.1040598062923E-02 -0.6062959941203E-02  0.0000000000000E+00 -0.1175684930457E-02
 0.1092225219096E-02 -0.6068534862814E-02  0.0000000000000E+00 -0.1153737296050E-02
 0.1127161225819E-02 -0.6061018267521E-02  0.0000000000000E+00 -0.1122227732774E-02
 0.1146552477498E-02 -0.6041245784646E-02  0.0000000000000E+00 -0.1084494374078E-02
 0.1151682925062E-02 -0.6010012723524E-02  0.0000000000000E+00 -0.1043058423106E-02
 0.1143875585823E-02 -0.5967995298463E-02  0.0000000000000E+00 -0.9998090858448E-03
 0.1124444752554E-02 -0.5915714929216E-02  0.0000000000000E+00 -0.9562089202266E-03
 0.1094690854964E-02 -0.5853536917651E-02  0.0000000000000E+00 -0.9134949024200E-03
 0.1055929395693E-02 -0.5781695235777E-02  0.0000000000000E+00 -0.8728619896511E-03
 0.1009548459189E-02 -0.5700339946826E-02  0.0000000000000E+00 -0.8356243752736E-03
 0.9570868671383E-03 -0.5609598855968E-02  0.0000000000000E+00 -0.8033487628872E-03
 0.9003318080558E-03 -0.5509655564502E-02  0.0000000000000E+00 -0.7779601374157E-03
 0.8414324747518E-03 -0.5400843164533E-02  0.0000000000000E+00 -0.7618157262239E-03
 0.7830236599614E-03 -0.5283747342150E-02  0.0000000000000E+00 -0.7577408583118E-03
 0.7283584285712E-03 -0.5159323343237E-02  0.0000000000000E+00 -0.7690216523521E-03
 0.6814464641088E-03 -0.5029033763565E-02  0.0000000000000E+00 -0.7993375379959E-03
 0.6471989133618E-03 -0.4895040579831E-02  0.0000000000000E+00 -0.8525903284191E-03
 0.6315478406044E-03 -0.4760357508226E-02  0.0000000000000E+00 -0.9326486667958E-03
 0.6415193884213E-03 -0.4628909037333E-02  0.0000000000000E+00 -0.1043063020618E-02
 0.6852721580983E-03 -0.4505592893712E-02  0.0000000000000E+00 -0.1186636862284E-02
 0.7720716208750E-03 -0.4396338892332E-02  0.0000000000000E+00 -0.1364781279819E-02
 0.9121442052541E-03 -0.4308107446898E-02  0.0000000000000E+00 -0.1576623307360E-02
 0.1116336316053E-02 -0.4248751785608E-02  0.0000000000000E+00 -0.1817881551630E-02
 0.1395491315386E-02 -0.4226656826837E-02  0.0000000000000E+00 -0.2079595607873E-02
 0.1759466552039E-02 -0.4250074559282E-02  0.0000000000000E+00 -0.2346901343382E-02
 0.2215781962764E-02 -0.4326086418118E-02  0.0000000000000E+00 -0.2598193043421E-02
 0.2767993390296E-02 -0.4459281471659E-02  0.0000000000000E+00 -0.2805059070322E-02
 0.3413914720253E-02 -0.4650354185106E-02  0.0000000000000E+00 -0.2933384558139E-02
 0.4144016571405E-02 -0.4894805939554E-02  0.0000000000000E+00 -0.2946080859896E-02
 0.4940596720884E-02 -0.5182177215900E-02  0.0000000000000E+00 -0.2807475695016E-02
 0.5778194435010E-02 -0.5496276565937E-02  0.0000000000000E+00 -0.2488663664554E-02
 0.6625459131959E-02 -0.5816599675072E-02  0.0000000000000E+00 -0.1972589129350E-02
 0.7448153633122E-02 -0.6120714531967E-02  0.0000000000000E+00 -0.1257711622385E-02
 0.7200880730848E-04 -0.5394772999076E-02  0.0000000000000E+00 -0.3257331945486E-03
 0.2168072534394E-03 -0.5483678938119E-02  0.0000000000000E+00 -0.5685703084192E-03
 0.3604099525063E-03 -0.5569705531777E-02  0.0000000000000E+00 -0.7666627003107E-03
 0.4983869314005E-03 -0.5649560779584E-02  0.0000000000000E+00 -0.9207513649088E-03
 0.6267371356255E-03 -0.5720349727954E-02  0.0000000000000E+00 -0.1033752817929E-02
 0.7422195635744E-03 -0.5779820574468E-02  0.0000000000000E+00 -0.1110272458093E-02
 0.8425348312241E-03 -0.5826480977774E-02  0.0000000000000E+00 -0.1155921015445E-02
 0.9263475678348E-03 -0.5859580416950E-02  0.0000000000000E+00 -0.1176619058062E-02
 0.9931814414191E-03 -0.5878990243812E-02  0.0000000000000E+00 -0.1178026421296E-02
 0.1043241379381E-02 -0.5885030369455E-02  0.0000000000000E+00 -0.1165164710906E-02
 0.1077216091643E-02 -0.5878288138072E-02  0.0000000000000E+00 -0.1142236754290E-02
 0.1096099135356E-02 -0.5859460737247E-02  0.0000000000000E+00 -0.1112607009888E-02
 0.1101049891082E-02 -0.5829236868026E-02  0.0000000000000E+00 -0.1078892348040E-02
 0.1093301566035E-02 -0.5788221157372E-02  0.0000000000000E+00 -0.1043115451221E-02
 0.1074114576822E-02 -0.5736897723120E-02  0.0000000000000E+00 -0.1006884149899E-02
 0.1044769566120E-02 -0.5675626354244E-02  0.0000000000000E+00 -0.9715722488665E-03
 0.1006593060506E-02 -0.5604664435429E-02  0.0000000000000E+00 -0.9384874757131E-03
 0.9610110981618E-03 -0.5524211788954E-02  0.0000000000000E+00 -0.9090199590745E-03
 0.9096232446384E-03 -0.5434470252743E-02  0.0000000000000E+00 -0.8847646402348E-03
 0.8542957077051E-03 -0.5335719943870E-02  0.0000000000000E+00 -0.8676168122133E-03
 0.7972698541874E-03 -0.5228411143502E-02  0.0000000000000E+00 -0.8598359140365E-03
 0.7412797757985E-03 -0.5113265209057E-02  0.0000000000000E+00 -0.8640716828875E-03
 0.6896775179133E-03 -0.4991388400094E-02  0.0000000000000E+00 -0.8833470541691E-03
 0.6465614828662E-03 -0.4864403164778E-02  0.0000000000000E+00 -0.9209823589824E-03
 0.6169067998625E-03 -0.4734623556519E-02  0.0000000000000E+00 -0.9804231664014E-03
 0.6066686011874E-03 -0.4605193826683E-02  0.0000000000000E+00 -0.1064983707416E-02
 0.6228363725821E-03 -0.4480141518429E-02  0.0000000000000E+00 -0.1177554995439E-02
 0.6734440001879E-03 -0.4364423246351E-02  0.0000000000000E+00 -0.1320179080932E-02
 0.7675055443936E-03 -0.4263951686443E-02  0.0000000000000E+00 -0.1493431289750E-02
 0.9148245352620E-03 -0.4185550591423E-02  0.0000000000000E+00 -0.1695594598004E-02
 0.1125611338268E-02 -0.4136770249994E-02  0.0000000000000E+00 -0.1921652909185E-02
 0.1409837149647E-02 -0.4125490221647E-02  0.0000000000000E+00 -0.2162197426983E-02
 0.1776268359977E-02 -0.4159248523466E-02  0.0000000000000E+00 -0.2402432147778E-02
 0.2231195382424E-02 -0.4244254197604E-02  0.0000000000000E+00 -0.2621583271040E-02
 0.2776967762305E-02 -0.4384185219782E-02  0.0000000000000E+00 -0.2793042013002E-02
 0.3410464807669E-02 -0.4578969424590E-02  0.0000000000000E+00 -0.2885550729940E-02
 0.4121791420950E-02 -0.4823717543908E-02  0.0000000000000E+00 -0.2865761580516E-02
 0.4893704243300E-02 -0.5108169896080E-02  0.0000000000000E+00 -0.2702122255920E-02
 0.5702127562565E-02 -0.5417018801146E-02  0.0000000000000E+00 -0.2369455916203E-02
 0.6517891607645E-02 -0.5731231980084E-02  0.0000000000000E+00 -0.1853236063239E-02
 0.7309407822206E-02 -0.6030182303708E-02  0.0000000000000E+00 -0.1152701627749E-02
 0.6851707658203E-04 -0.5231463514637E-02  0.0000000000000E+00 -0.2736489379333E-03
 0.2061865896167E-03 -0.5316067059195E-02  0.0000000000000E+00 -0.5179262545936E-03
 0.3426389529659E-03 -0.5397971582207E-02  0.0000000000000E+00 -0.7196191927553E-03
 0.4738176420804E-03 -0.5474150332055E-02  0.0000000000000E+00 -0.8792968801660E-03
 0.5960391159876E-03 -0.5541918214821E-02  0.0000000000000E+00 -0.9995188574162E-03
 0.7062784521186E-03 -0.5599144656239E-02  0.0000000000000E+00 -0.1084419514603E-02
 0.8023347642571E-03 -0.5644361586649E-02  0.0000000000000E+00 -0.1139115093850E-02
 0.8828644621101E-03 -0.5676759539562E-02  0.0000000000000E+00 -0.1169087959568E-02
 0.9473042839855E-03 -0.5696094443159E-02  0.0000000000000E+00 -0.1179666724243E-02
 0.9957271312132E-03 -0.5702544014590E-02  0.0000000000000E+00 -0.1175666866840E-02
 0.1028675063123E-02 -0.5696552090868E-02  0.0000000000000E+00 -0.1161202455429E-02
 0.1047003231931E-02 -0.5678688956460E-02  0.0000000000000E+00 -0.1139643498570E-02
 0.1051755271886E-02 -0.5649543273526E-02  0.0000000000000E+00 -0.1113677936372E-02
 0.1044078554578E-02 -0.5609650732459E-02  0.0000000000000E+00 -0.1085436936948E-02
 0.1025179731954E-02 -0.5559457968386E-02  0.0000000000000E+00 -0.1056649942963E-02
 0.9963167747824E-03 -0.5499317079479E-02  0.0000000000000E+00 -0.1028805756932E-02
 0.9588219547389E-03 -0.5429505172441E-02  0.0000000000000E+00 -0.1003304679235E-02
 0.9141519161106E-03 -0.5350266769058E-02  0.0000000000000E+00 -0.9815937499000E-03
 0.8639576670608E-03 -0.5261871204830E-02  0.0000000000000E+00 -0.9652778697115E-03
 0.8101731583941E-03 -0.5164686811062E-02  0.0000000000000E+00 -0.9562048723266E-03
 0.7551185907724E-03 -0.5059270576751E-02  0.0000000000000E+00 -0.9565192044978E-03
 0.7016118419640E-03 -0.4946466390650E-02  0.0000000000000E+00 -0.9686787743251E-03
 0.6530861418186E-03 -0.4827515177702E-02  0.0000000000000E+00 -0.9954289524953E-03
 0.6137085144501E-03 -0.4704179191459E-02  0.0000000000000E+00 -0.1039720030159E-02
 0.5884960155764E-03 -0.4578900858820E-02  0.0000000000000E+00 -0.1104536186126E-02
 0.5834033810983E-03 -0.4454927754157E-02  0.0000000000000E+00 -0.1192641293762E-02
 0.6053595556035E-03 -0.4336359779414E-02  0.0000000000000E+00 -0.1306285311172E-02
 0.6622518856902E-03 -0.4228179359553E-02  0.0000000000000E+00 -0.1446788475298E-02
 0.7628280695473E-03 -0.4136249793307E-02  0.0000000000000E+00 -0.1613958588030E-02
 0.9164682626024E-03 -0.4067232793155E-02  0.0000000000000E+00 -0.1805336948951E-02
 0.1132770928536E-02 -0.4028366090595E-02  0.0000000000000E+00 -0.2015309041132E-02
 0.1420895013749E-02 -0.4027040801260E-02  0.0000000000000E+00 -0.2234177010184E-02
 0.1788620467271E-02 -0.4070134368028E-02  0.0000000000000E+00 -0.2447369351361E-02
 0.2241158722647E-02 -0.4163077620076E-02  0.0000000000000E+00 -0.2635055816553E-02
 0.2779837201419E-02 -0.4308765572620E-02  0.0000000000000E+00 -0.2772444481018E-02
 0.3400785903557E-02 -0.4506498812474E-02  0.0000000000000E+00 -0.2830999727799E-02
 0.4093878806864E-02 -0.4751108385264E-02  0.0000000000000E+00 -0.2780808488865E-02
 0.4842359487288E-02 -0.5032570703603E-02  0.0000000000000E+00 -0.2594000912546E-02
 0.5623424466256E-02 -0.5336393763577E-02  0.0000000000000E+00 -0.2248665627282E-02
 0.6409844584100E-02 -0.5644854167748E-02  0.0000000000000E+00 -0.1732446565862E-02
 0.7172365466134E-02 -0.5938913312514E-02  0.0000000000000E+00 -0.1045180753202E-02
 0.6519440154199E-04 -0.5068675248205E-02  0.0000000000000E+00 -0.2240695431719E-03
 0.1960747781205E-03 -0.5149179399384E-02  0.0000000000000E+00 -0.4696911489255E-03
 0.3257029237027E-03 -0.5227144872041E-02  0.0000000000000E+00 -0.6747161006564E-03
 0.4503646027809E-03 -0.5299789368853E-02  0.0000000000000E+00 -0.8395652561300E-03
 0.5666705671007E-03 -0.5364624585163E-02  0.0000000000000E+00 -0.9664924744419E-03
 0.6718023529673E-03 -0.5419639731395E-02  0.0000000000000E+00 -0.1059225154447E-02
 0.7636620653833E-03 -0.5463400799164E-02  0.0000000000000E+00 -0.1122445623106E-02
 0.8409129805589E-03 -0.5495056825997E-02  0.0000000000000E+00 -0.1161243501516E-02
 0.9029253380549E-03 -0.5514268728711E-02  0.0000000000000E+00 -0.1180641652294E-02
 0.9496609084806E-03 -0.5521091354269E-02  0.0000000000000E+00 -0.1185255932325E-02
 0.9815330921090E-03 -0.5515840742483E-02  0.0000000000000E+00 -0.1179103628481E-02
 0.9992720651025E-03 -0.5498971408840E-02  0.0000000000000E+00 -0.1165543141080E-02
 0.1003814254073E-02 -0.5470978695324E-02  0.0000000000000E+00 -0.1147311870836E-02
 0.9962252891389E-03 -0.5432332387228E-02  0.0000000000000E+00 -0.1126626685399E-02
 0.9776584399730E-03 -0.5383441827345E-02  0.0000000000000E+00 -0.1105316517968E-02
 0.9493463791328E-03 -0.5324649463995E-02  0.0000000000000E+00 -0.1084964451996E-02
 0.9126220115478E-03 -0.5256248442542E-02  0.0000000000000E+00 -0.1067044114308E-02
 0.8689652995996E-03 -0.5178522720256E-02  0.0000000000000E+00 -0.1053041447217E-02
 0.8200693691569E-03 -0.5091802213642E-02  0.0000000000000E+00 -0.1044554280109E-02
 0.7679245781516E-03 -0.4996534662832E-02  0.0000000000000E+00 -0.1043366816873E-02
 0.7149165875817E-03 -0.4893372724798E-02  0.0000000000000E+00 -0.1051493336781E-02
 0.6639316225232E-03 -0.4783269151581E-02  0.0000000000000E+00 -0.1071186204178E-02
 0.6184665995038E-03 -0.4667582808671E-02  0.0000000000000E+00 -0.1104901906755E-02
 0.5827377582235E-03 -0.4548195658025E-02  0.0000000000000E+00 -0.1155213346880E-02
 0.5617833168449E-03 -0.4427655289920E-02  0.0000000000000E+00 -0.1224642117601E-02
 0.5615363045191E-03 -0.4309286701164E-02  0.0000000000000E+00 -0.1315409768669E-02
 0.5888445623101E-03 -0.4197233942190E-02  0.0000000000000E+00 -0.1429147037754E-02
 0.6514317967039E-03 -0.4096476187042E-02  0.0000000000000E+00 -0.1566493768747E-02
 0.7577704822805E-03 -0.4012800852318E-02  0.0000000000000E+00 -0.1726556988483E-02
 0.9168238180494E-03 -0.3952689449387E-02  0.0000000000000E+00 -0.1906231797265E-02
 0.1137608854352E-02 -0.3923065307450E-02  0.0000000000000E+00 -0.2099427187920E-02
 0.1428535741411E-02 -0.3930854508964E-02  0.0000000000000E+00 -0.2296292814329E-02
 0.1796500246211E-02 -0.3982329887673E-02  0.0000000000000E+00 -0.2482608379657E-02
 0.2245774430515E-02 -0.4082234073090E-02  0.0000000000000E+00 -0.2639567624973E-02
 0.2776826832274E-02 -0.4232794613720E-02  0.0000000000000E+00 -0.2744186508639E-02
 0.3385194798826E-02 -0.4432804161264E-02  0.0000000000000E+00 -0.2770514412710E-02
 0.4060627439485E-02 -0.4676903049166E-02  0.0000000000000E+00 -0.2691796955304E-02
 0.4786866011648E-02 -0.4955325503097E-02  0.0000000000000E+00 -0.2483470139998E-02
 0.5542269919307E-02 -0.5254328085195E-02  0.0000000000000E+00 -0.2126498202205E-02
 0.6301332971903E-02 -0.5557348684309E-02  0.0000000000000E+00 -0.1610393597431E-02
 0.7036850083022E-02 -0.5846741154451E-02  0.0000000000000E+00 -0.9354384752959E-03
 0.6202767157565E-04 -0.4906354549120E-02  0.0000000000000E+00 -0.1768738889923E-03
 0.1864318630785E-03 -0.4982947450119E-02  0.0000000000000E+00 -0.4237519391926E-03
 0.3095367282855E-03 -0.5057145379456E-02  0.0000000000000E+00 -0.6318616050643E-03
 0.4279442334941E-03 -0.5126393090152E-02  0.0000000000000E+00 -0.8014959646862E-03
 0.5385393644440E-03 -0.5188387683449E-02  0.0000000000000E+00 -0.9346477205726E-03
 0.6387010212847E-03 -0.5241236248179E-02  0.0000000000000E+00 -0.1034693549382E-02
 0.7264370135711E-03 -0.5283546436252E-02  0.0000000000000E+00 -0.1105936253113E-02
 0.8004294727931E-03 -0.5314440234975E-02  0.0000000000000E+00 -0.1153114931640E-02
 0.8599992329392E-03 -0.5333501058894E-02  0.0000000000000E+00 -0.1180971922336E-02
 0.9050150201686E-03 -0.5340677996256E-02  0.0000000000000E+00 -0.1193931875780E-02
 0.9357776278611E-03 -0.5336173671360E-02  0.0000000000000E+00 -0.1195910253781E-02
 0.9529046081461E-03 -0.5320337415102E-02  0.0000000000000E+00 -0.1190239824417E-02
 0.9572333041708E-03 -0.5293577946065E-02  0.0000000000000E+00 -0.1179688585148E-02
 0.9497516926433E-03 -0.5256302412932E-02  0.0000000000000E+00 -0.1166538479031E-02
 0.9315602247852E-03 -0.5208883337772E-02  0.0000000000000E+00 -0.1152697437131E-02
 0.9038638655148E-03 -0.5151651748692E-02  0.0000000000000E+00 -0.1139823379656E-02
 0.8679912123638E-03 -0.5084913177965E-02  0.0000000000000E+00 -0.1129445141438E-02
 0.8254383593625E-03 -0.5008985619023E-02  0.0000000000000E+00 -0.1123070734829E-02
 0.7779312718126E-03 -0.4924252376051E-02  0.0000000000000E+00 -0.1122275262475E-02
 0.7275054101189E-03 -0.4831231421882E-02  0.0000000000000E+00 -0.1128764808101E-02
 0.6765985955313E-03 -0.4730659640983E-02  0.0000000000000E+00 -0.1144410363000E-02
 0.6281501552128E-03 -0.4623584634023E-02  0.0000000000000E+00 -0.1171247504795E-02
 0.5857036189822E-03 -0.4511466307384E-02  0.0000000000000E+00 -0.1211435419430E-02
 0.5535058444839E-03 -0.4396286395053E-02  0.0000000000000E+00 -0.1267165535399E-02
 0.5365968185769E-03 -0.4280675126926E-02  0.0000000000000E+00 -0.1340499066836E-02
 0.5408686951584E-03 -0.4168010464121E-02  0.0000000000000E+00 -0.1433126438935E-02
 0.5730707911632E-03 -0.4062454877811E-02  0.0000000000000E+00 -0.1546083334539E-02
 0.6407503485557E-03 -0.3968959007353E-02  0.0000000000000E+00 -0.1679371090955E-02
 0.7521010331016E-03 -0.3893213022147E-02  0.0000000000000E+00 -0.1831459822575E-02
 0.9156811709138E-03 -0.3841506246485E-02  0.0000000000000E+00 -0.1998685941564E-02
 0.1139961670582E-02 -0.3820452041169E-02  0.0000000000000E+00 -0.2174589394354E-02
 0.1432669265157E-02 -0.3836539607058E-02  0.0000000000000E+00 -0.2349282634562E-02
 0.1799914457321E-02 -0.3895494141085E-02  0.0000000000000E+00 -0.2508997261455E-02
 0.2245158845396E-02 -0.4001455251883E-02  0.0000000000000E+00 -0.2636005918765E-02
 0.2768156715498E-02 -0.4156086856992E-02  0.0000000000000E+00 -0.2709106964675E-02
 0.3363985427386E-02 -0.4357775929619E-02  0.0000000000000E+00 -0.2704800540048E-02
 0.4022352395444E-02 -0.4601043463560E-02  0.0000000000000E+00 -0.2599244214646E-02
 0.4727494448968E-02 -0.4876392355595E-02  0.0000000000000E+00 -0.2370856666387E-02
 0.5458828204265E-02 -0.5170762097864E-02  0.0000000000000E+00 -0.2003149858515E-02
 0.6192371571997E-02 -0.5468617100168E-02  0.0000000000000E+00 -0.1487252163927E-02
 0.6902709865337E-02 -0.5753525396718E-02  0.0000000000000E+00 -0.8237650074767E-03
 0.5900465367208E-04 -0.4744450422181E-02  0.0000000000000E+00 -0.1319498918833E-03
 0.1772206450917E-03 -0.4817306259745E-02  0.0000000000000E+00 -0.3800031116138E-03
 0.2940797018534E-03 -0.4887897111435E-02  0.0000000000000E+00 -0.5909675660364E-03
 0.4064782735955E-03 -0.4953880320176E-02  0.0000000000000E+00 -0.7650267455657E-03
 0.5115583267548E-03 -0.5013128551736E-02  0.0000000000000E+00 -0.9039513063751E-03
 0.6068876359953E-03 -0.5063864605107E-02  0.0000000000000E+00 -0.1010817037420E-02
 0.6905810482852E-03 -0.5104743622251E-02  0.0000000000000E+00 -0.1089596233724E-02
 0.7613489463023E-03 -0.5134872433424E-02  0.0000000000000E+00 -0.1144716621570E-02
 0.8184769394317E-03 -0.5153771889506E-02  0.0000000000000E+00 -0.1180664645735E-02
 0.8617562431830E-03 -0.5161300375039E-02  0.0000000000000E+00 -0.1201683490597E-02
 0.8913892435925E-03 -0.5157560151464E-02  0.0000000000000E+00 -0.1211584139212E-02
 0.9078921110371E-03 -0.5142805302467E-02  0.0000000000000E+00 -0.1213662395570E-02
 0.9120107247362E-03 -0.5117364468081E-02  0.0000000000000E+00 -0.1210700486297E-02
 0.9046593933708E-03 -0.5081585550542E-02  0.0000000000000E+00 -0.1205026891910E-02
 0.8868864228917E-03 -0.5035804929478E-02  0.0000000000000E+00 -0.1198609724672E-02
 0.8598668436751E-03 -0.4980340606213E-02  0.0000000000000E+00 -0.1193163685269E-02
 0.8249201807381E-03 -0.4915506902648E-02  0.0000000000000E+00 -0.1190255964802E-02
 0.7835516124022E-03 -0.4841650377577E-02  0.0000000000000E+00 -0.1191401120859E-02
 0.7375107748446E-03 -0.4759200349739E-02  0.0000000000000E+00 -0.1198137351858E-02
 0.6888670390538E-03 -0.4668735601378E-02  0.0000000000000E+00 -0.1212079871296E-02
 0.6400972541105E-03 -0.4571065548936E-02  0.0000000000000E+00 -0.1234945321576E-02
 0.5941788990785E-03 -0.4467318444046E-02  0.0000000000000E+00 -0.1268543651528E-02
 0.5546855677678E-03 -0.4359038334373E-02  0.0000000000000E+00 -0.1314731047344E-02
 0.5258770262474E-03 -0.4248287120902E-02  0.0000000000000E+00 -0.1375316312170E-02
 0.5127770348030E-03 -0.4137755974045E-02  0.0000000000000E+00 -0.1451905369040E-02
 0.5212197743227E-03 -0.4030852865330E-02  0.0000000000000E+00 -0.1545671142402E-02
 0.5578415208746E-03 -0.3931735361667E-02  0.0000000000000E+00 -0.1657079795261E-02
 0.6300040188397E-03 -0.3845303753534E-02  0.0000000000000E+00 -0.1785535397990E-02
 0.7456230165583E-03 -0.3777134111618E-02  0.0000000000000E+00 -0.1928931056394E-02
 0.9128685912062E-03 -0.3733316762926E-02  0.0000000000000E+00 -0.2083123356788E-02
 0.1139704224795E-02 -0.3720164483460E-02  0.0000000000000E+00 -0.2241376357245E-02
 0.1433239280121E-02 -0.3743761035498E-02  0.0000000000000E+00 -0.2393860937718E-02
 0.1798893904111E-02 -0.3809340809154E-02  0.0000000000000E+00 -0.2527338590253E-02
 0.2239437999615E-02 -0.3920520462553E-02  0.0000000000000E+00 -0.2625195033707E-02
 0.2754039937683E-02 -0.4078493605854E-02  0.0000000000000E+00 -0.2667974087366E-02
 0.3337429821193E-02 -0.4281329454523E-02  0.0000000000000E+00 -0.2634498346215E-02
 0.3979338422968E-02 -0.4523487022525E-02  0.0000000000000E+00 -0.2503618777790E-02
 0.4664486587484E-02 -0.4795740667341E-02  0.0000000000000E+00 -0.2256460684865E-02
 0.5373246289726E-02 -0.5085648974538E-02  0.0000000000000E+00 -0.1878809149516E-02
 0.6082976601826E-02 -0.5378578946037E-02  0.0000000000000E+00 -0.1363199062263E-02
 0.6769817148849E-02 -0.5659150120065E-02  0.0000000000000E+00 -0.7104501467181E-03
 0.5611380795212E-04 -0.4582913941314E-02  0.0000000000000E+00 -0.8919401139911E-04
 0.1684061281167E-03 -0.4652193656656E-02  0.0000000000000E+00 -0.3383463762672E-03
 0.2792747983941E-03 -0.4719327232474E-02  0.0000000000000E+00 -0.5519497108232E-03
 0.3858928184352E-03 -0.4782172708580E-02  0.0000000000000E+00 -0.7300944736425E-03
 0.4856443664266E-03 -0.4838769872826E-02  0.0000000000000E+00 -0.8743640982622E-03
 0.5762782361304E-03 -0.4887454939346E-02  0.0000000000000E+00 -0.9875780101238E-03
 0.6560165630129E-03 -0.4926934927191E-02  0.0000000000000E+00 -0.1073422379971E-02
 0.7236051907828E-03 -0.4956311221629E-02  0.0000000000000E+00 -0.1136049841532E-02
 0.7783061377734E-03 -0.4975054771159E-02  0.0000000000000E+00 -0.1179714755182E-02
 0.8198463299623E-03 -0.4982946412753E-02  0.0000000000000E+00 -0.1208489435084E-02
 0.8483421956121E-03 -0.4979999796803E-02  0.0000000000000E+00 -0.1226079620078E-02
 0.8642186544324E-03 -0.4966382991619E-02  0.0000000000000E+00 -0.1235735108832E-02
 0.8681371792588E-03 -0.4942350857106E-02  0.0000000000000E+00 -0.1240238238442E-02
 0.8609422228017E-03 -0.4908195471389E-02  0.0000000000000E+00 -0.1241947475830E-02
 0.8436306727397E-03 -0.4864217897161E-02  0.0000000000000E+00 -0.1242873985650E-02
 0.8173455539442E-03 -0.4810721647359E-02  0.0000000000000E+00 -0.1244772658767E-02
 0.7833927347601E-03 -0.4748026313241E-02  0.0000000000000E+00 -0.1249233562107E-02
 0.7432796035890E-03 -0.4676501536024E-02  0.0000000000000E+00 -0.1257763682525E-02
 0.6987704652114E-03 -0.4596615185887E-02  0.0000000000000E+00 -0.1271851692358E-02
 0.6519575945491E-03 -0.4508997298212E-02  0.0000000000000E+00 -0.1293010964676E-02
 0.6053439857445E-03 -0.4414518003875E-02  0.0000000000000E+00 -0.1322794778467E-02
 0.5619306988075E-03 -0.4314371970749E-02  0.0000000000000E+00 -0.1362780927363E-02
 0.5253054412321E-03 -0.4210170637298E-02  0.0000000000000E+00 -0.1414519435135E-02
 0.4997241115957E-03 -0.4104036932008E-02  0.0000000000000E+00 -0.1479437941659E-02
 0.4901776321848E-03 -0.3998702181496E-02  0.0000000000000E+00 -0.1558694565751E-02
 0.5024270656175E-03 -0.3897582922327E-02  0.0000000000000E+00 -0.1652960123858E-02
 0.5429837546567E-03 -0.3804810755308E-02  0.0000000000000E+00 -0.1762157348331E-02
 0.6190182009418E-03 -0.3725216922412E-02  0.0000000000000E+00 -0.1885132741362E-02
 0.7381728337876E-03 -0.3664250421655E-02  0.0000000000000E+00 -0.2019257556095E-02
 0.9082496290053E-03 -0.3627800009015E-02  0.0000000000000E+00 -0.2159978387506E-02
 0.1136745668075E-02 -0.3621891038345E-02  0.0000000000000E+00 -0.2300362707326E-02
 0.1430218697063E-02 -0.3652235382433E-02  0.0000000000000E+00 -0.2430717403270E-02
 0.1793489059221E-02 -0.3723632489553E-02  0.0000000000000E+00 -0.2538392126563E-02
 0.2228744358030E-02 -0.3839251035663E-02  0.0000000000000E+00 -0.2607903054147E-02
 0.2734681321210E-02 -0.3999898348038E-02  0.0000000000000E+00 -0.2621494946238E-02
 0.3305779134461E-02 -0.4203401892657E-02  0.0000000000000E+00 -0.2560192545311E-02
 0.3931842769846E-02 -0.4444205004127E-02  0.0000000000000E+00 -0.2405348393778E-02
 0.4598058744123E-02 -0.4713350394279E-02  0.0000000000000E+00 -0.2140560258272E-02
 0.5285656435358E-02 -0.4998953949047E-02  0.0000000000000E+00 -0.1753658149863E-02
 0.5973166821432E-02 -0.5287170646887E-02  0.0000000000000E+00 -0.1238412240617E-02
 0.6638067516945E-02 -0.5563522444299E-02  0.0000000000000E+00 -0.5957819079380E-03
 0.5334412855605E-04 -0.4421697750402E-02  0.0000000000000E+00 -0.4851086163375E-04
 0.1599550391332E-03 -0.4487549587144E-02  0.0000000000000E+00 -0.2986904223768E-03
 0.2650678487489E-03 -0.4551365318473E-02  0.0000000000000E+00 -0.5147277933223E-03
 0.3661174726205E-03 -0.4611194040289E-02  0.0000000000000E+00 -0.6966358792314E-03
 0.4607177284694E-03 -0.4665235480892E-02  0.0000000000000E+00 -0.8458423776415E-03
 0.5467911971591E-03 -0.4711936932716E-02  0.0000000000000E+00 -0.9649505314615E-03
 0.6226666898014E-03 -0.4750060485872E-02  0.0000000000000E+00 -0.1057400799659E-02
 0.6871308593020E-03 -0.4778709914693E-02  0.0000000000000E+00 -0.1127104367746E-02
 0.7394315286230E-03 -0.4797316904611E-02  0.0000000000000E+00 -0.1178106344130E-02
 0.7792424627563E-03 -0.4805596156015E-02  0.0000000000000E+00 -0.1214319250595E-02
 0.8066049432126E-03 -0.4803483207799E-02  0.0000000000000E+00 -0.1239344276373E-02
 0.8218616814920E-03 -0.4791068611542E-02  0.0000000000000E+00 -0.1256378102035E-02
 0.8255962094359E-03 -0.4768539434707E-02  0.0000000000000E+00 -0.1268191064776E-02
 0.8185867146782E-03 -0.4736135319527E-02  0.0000000000000E+00 -0.1277156938541E-02
 0.8017794072149E-03 -0.4694122939424E-02  0.0000000000000E+00 -0.1285314483203E-02
 0.7762833726008E-03 -0.4642789989899E-02  0.0000000000000E+00 -0.1294443701771E-02
 0.7433864264207E-03 -0.4582457911221E-02  0.0000000000000E+00 -0.1306143501961E-02
 0.7045914974216E-03 -0.4513513987537E-02  0.0000000000000E+00 -0.1321900667275E-02
 0.6616687736933E-03 -0.4436457170551E-02  0.0000000000000E+00 -0.1343143332910E-02
 0.6167226765821E-03 -0.4351959164511E-02  0.0000000000000E+00 -0.1371273861956E-02
 0.5722697823906E-03 -0.4260938995852E-02  0.0000000000000E+00 -0.1407675173880E-02
 0.5313206082260E-03 -0.4164643605665E-02  0.0000000000000E+00 -0.1453688601924E-02
 0.4974616763107E-03 -0.4064735346866E-02  0.0000000000000E+00 -0.1510557195750E-02
 0.4749291912705E-03 -0.3963379602914E-02  0.0000000000000E+00 -0.1579331207244E-02
 0.4686659598581E-03 -0.3863328036083E-02  0.0000000000000E+00 -0.1660730404428E-02
 0.4843465791484E-03 -0.3767985768897E-02  0.0000000000000E+00 -0.1754940092806E-02
 0.5283478830638E-03 -0.3681439453180E-02  0.0000000000000E+00 -0.1861365547157E-02
 0.6076461657035E-03 -0.3608435313216E-02  0.0000000000000E+00 -0.1978333167762E-02
 0.7296181134523E-03 -0.3554285548998E-02  0.0000000000000E+00 -0.2102742218839E-02
 0.9017203609348E-03 -0.3524678136340E-02  0.0000000000000E+00 -0.2229689971798E-02
 0.1131025975405E-02 -0.3525366924540E-02  0.0000000000000E+00 -0.2352113334840E-02
 0.1423605826738E-02 -0.3561726589023E-02  0.0000000000000E+00 -0.2460516293084E-02
 0.1783766542349E-02 -0.3638175967623E-02  0.0000000000000E+00 -0.2542877760542E-02
 0.2213214345211E-02 -0.3757505819025E-02  0.0000000000000E+00 -0.2584848163329E-02
 0.2710276635299E-02 -0.3920213130816E-02  0.0000000000000E+00 -0.2570324004458E-02
 0.3269264728339E-02 -0.4123949863236E-02  0.0000000000000E+00 -0.2482421126024E-02
 0.3880097668540E-02 -0.4363181368583E-02  0.0000000000000E+00 -0.2304827000869E-02
 0.4528404641333E-02 -0.4629211444380E-02  0.0000000000000E+00 -0.2023415224440E-02
 0.5196178422756E-02 -0.4910653727026E-02  0.0000000000000E+00 -0.1627873519340E-02
 0.5862964458518E-02 -0.5194344647882E-02  0.0000000000000E+00 -0.1113070088689E-02
 0.6507378961364E-02 -0.5466571216980E-02  0.0000000000000E+00 -0.4800452913543E-03
 0.5068500272518E-04 -0.4260755635898E-02  0.0000000000000E+00 -0.9812925659377E-05
 0.1518354050692E-03 -0.4323315539621E-02  0.0000000000000E+00 -0.2609507394032E-03
 0.2514069063950E-03 -0.4383942700171E-02  0.0000000000000E+00 -0.4792257370828E-03
 0.3470845973661E-03 -0.4440869616248E-02  0.0000000000000E+00 -0.6645881506711E-03
 0.4367013018026E-03 -0.4492449904295E-02  0.0000000000000E+00 -0.8183389021686E-03
 0.5183467397342E-03 -0.4537239602328E-02  0.0000000000000E+00 -0.9429017268364E-03
 0.5904550735085E-03 -0.4574058059283E-02  0.0000000000000E+00 -0.1041508411394E-02
 0.6518575064416E-03 -0.4602017639127E-02  0.0000000000000E+00 -0.1117859936601E-02
 0.7017950838969E-03 -0.4620519601695E-02  0.0000000000000E+00 -0.1175813921635E-02
 0.7398976451746E-03 -0.4629222323009E-02  0.0000000000000E+00 -0.1219134355434E-02
 0.7661406127025E-03 -0.4627992540280E-02  0.0000000000000E+00 -0.1251319666413E-02
 0.7807924842905E-03 -0.4616851050684E-02  0.0000000000000E+00 -0.1275507907272E-02
 0.7843647162532E-03 -0.4595922767292E-02  0.0000000000000E+00 -0.1294447082976E-02
 0.7775725728203E-03 -0.4565398204753E-02  0.0000000000000E+00 -0.1310513341508E-02
 0.7613123141805E-03 -0.4525510645256E-02  0.0000000000000E+00 -0.1325759214295E-02
 0.7366572786588E-03 -0.4476530764375E-02  0.0000000000000E+00 -0.1341976270131E-02
 0.7048730302309E-03 -0.4418778554735E-02  0.0000000000000E+00 -0.1360759715118E-02
 0.6674516019503E-03 -0.4352653599763E-02  0.0000000000000E+00 -0.1383565030335E-02
 0.6261605423807E-03 -0.4278678533057E-02  0.0000000000000E+00 -0.1411750448038E-02
 0.5831059669377E-03 -0.4197557211764E-02  0.0000000000000E+00 -0.1446599956557E-02
 0.5408058503710E-03 -0.4110245846613E-02  0.0000000000000E+00 -0.1489321098379E-02
 0.5022665431889E-03 -0.4018029713371E-02  0.0000000000000E+00 -0.1541016563200E-02
 0.4710587673321E-03 -0.3922605980504E-02  0.0000000000000E+00 -0.1602623788618E-02
 0.4513841474871E-03 -0.3826164554072E-02  0.0000000000000E+00 -0.1674821453397E-02
 0.4481233533077E-03 -0.3731458590329E-02  0.0000000000000E+00 -0.1757902017766E-02
 0.4668527862231E-03 -0.3641863206762E-02  0.0000000000000E+00 -0.1851582606826E-02
 0.5138071890867E-03 -0.3561402986943E-02  0.0000000000000E+00 -0.1954776363961E-02
 0.5957679632093E-03 -0.3494725500149E-02  0.0000000000000E+00 -0.2065324313722E-02
 0.7198559220517E-03 -0.3446999061272E-02  0.0000000000000E+00 -0.2179697967452E-02
 0.8932069193101E-03 -0.3423714218723E-02  0.0000000000000E+00 -0.2292696820777E-02
 0.1122512958676E-02 -0.3430371095575E-02  0.0000000000000E+00 -0.2397180622012E-02
 0.1413421232318E-02 -0.3472042223100E-02  0.0000000000000E+00 -0.2483896487352E-02
 0.1769806338841E-02 -0.3552818248416E-02  0.0000000000000E+00 -0.2541478704463E-02
 0.2192986520636E-02 -0.3675177496497E-02  0.0000000000000E+00 -0.2556704671368E-02
 0.2681012180116E-02 -0.3839375660404E-02  0.0000000000000E+00 -0.2515070863770E-02
 0.3228099239706E-02 -0.4042947577717E-02  0.0000000000000E+00 -0.2401683101924E-02
 0.3824312454736E-02 -0.4280411781798E-02  0.0000000000000E+00 -0.2202420770299E-02
 0.4455697755932E-02 -0.4543323144393E-02  0.0000000000000E+00 -0.1905270560830E-02
 0.5104921297366E-02 -0.4820735919205E-02  0.0000000000000E+00 -0.1501627310083E-02
 0.5752395774660E-02 -0.5100068542337E-02  0.0000000000000E+00 -0.9873505837446E-03
 0.6377690874482E-02 -0.5368245699348E-02  0.0000000000000E+00 -0.3635210147228E-03
 0.4812608459528E-04 -0.4100042161382E-02  0.0000000000000E+00  0.2697963864817E-04
 0.1440161759018E-03 -0.4159434046290E-02  0.0000000000000E+00 -0.2250494994191E-03
 0.2382416657765E-03 -0.4216991890393E-02  0.0000000000000E+00 -0.4453717700299E-03
 0.3287286384365E-03 -0.4271125707857E-02  0.0000000000000E+00 -0.6338894426341E-03
 0.4135199970428E-03 -0.4320337955576E-02  0.0000000000000E+00 -0.7918038020605E-03
 0.4908664751007E-03 -0.4363291103542E-02  0.0000000000000E+00 -0.9213929751457E-03
 0.5593056487843E-03 -0.4398863075966E-02  0.0000000000000E+00 -0.1025714276972E-02
 0.6177156015548E-03 -0.4426179587834E-02  0.0000000000000E+00 -0.1108287556277E-02
 0.6653362568132E-03 -0.4444618696871E-02  0.0000000000000E+00 -0.1172803580372E-02
 0.7017610487668E-03 -0.4453790805199E-02  0.0000000000000E+00 -0.1222889002971E-02
 0.7269074205758E-03 -0.4453502040233E-02  0.0000000000000E+00 -0.1261942060304E-02
 0.7409766571336E-03 -0.4443710486846E-02  0.0000000000000E+00 -0.1293037978430E-02
 0.7444134153040E-03 -0.4424484174498E-02  0.0000000000000E+00 -0.1318893657737E-02
 0.7378731172599E-03 -0.4395967690645E-02  0.0000000000000E+00 -0.1341876303080E-02
 0.7222027746621E-03 -0.4358361974938E-02  0.0000000000000E+00 -0.1364039972286E-02
 0.6984382923852E-03 -0.4311919607132E-02  0.0000000000000E+00 -0.1387175782313E-02
 0.6678189925485E-03 -0.4256955984050E-02  0.0000000000000E+00 -0.1412864211584E-02
 0.6318198377503E-03 -0.4193877790286E-02  0.0000000000000E+00 -0.1442519901552E-02
 0.5921975175359E-03 -0.4123224083440E-02  0.0000000000000E+00 -0.1477423476713E-02
 0.5510497430618E-03 -0.4045721514109E-02  0.0000000000000E+00 -0.1518734980256E-02
 0.5108841324891E-03 -0.3962351971664E-02  0.0000000000000E+00 -0.1567483490067E-02
 0.4746897861586E-03 -0.3874425430770E-02  0.0000000000000E+00 -0.1624532891113E-02
 0.4460077105072E-03 -0.3783658238342E-02  0.0000000000000E+00 -0.1690518379500E-02
 0.4289909757762E-03 -0.3692247580443E-02  0.0000000000000E+00 -0.1765754673688E-02
 0.4284452500052E-03 -0.3602930232841E-02  0.0000000000000E+00 -0.1850119241295E-02
 0.4498384277891E-03 -0.3519034000566E-02  0.0000000000000E+00 -0.1942878714121E-02
 0.4992572419021E-03 -0.3444505908467E-02  0.0000000000000E+00 -0.2042478385118E-02
 0.5832893090787E-03 -0.3383883163970E-02  0.0000000000000E+00 -0.2146305547889E-02
 0.7088110973886E-03 -0.3342185163986E-02  0.0000000000000E+00 -0.2250442411533E-02
 0.8826633158557E-03 -0.3324710208282E-02  0.0000000000000E+00 -0.2349433313130E-02
 0.1111199751068E-02 -0.3336723549654E-02  0.0000000000000E+00 -0.2436102322682E-02
 0.1399705189584E-02 -0.3383030350002E-02  0.0000000000000E+00 -0.2501471952527E-02
 0.1751699666054E-02 -0.3467443332202E-02  0.0000000000000E+00 -0.2534844764978E-02
 0.2168200300357E-02 -0.3592189683135E-02  0.0000000000000E+00 -0.2524108708127E-02
 0.2647064672427E-02 -0.3757347075125E-02  0.0000000000000E+00 -0.2456307333200E-02
 0.3182477628482E-02 -0.3960385440173E-02  0.0000000000000E+00 -0.2318445464631E-02
 0.3764675385285E-02 -0.4195902895263E-02  0.0000000000000E+00 -0.2098473506278E-02
 0.4380093240657E-02 -0.4455693825012E-02  0.0000000000000E+00 -0.1786359413769E-02
 0.5011984721768E-02 -0.4729198542077E-02  0.0000000000000E+00 -0.1375087689181E-02
 0.5641491379749E-02 -0.5004324250790E-02  0.0000000000000E+00 -0.8614304655014E-03
 0.6248963029213E-02 -0.5268514310280E-02  0.0000000000000E+00 -0.2464843826147E-03
 0.4565718054894E-04 -0.3939512355112E-02  0.0000000000000E+00  0.6193911017736E-04
 0.1364668841591E-03 -0.3995848250077E-02  0.0000000000000E+00 -0.1909154958137E-03
 0.2255229392150E-03 -0.4050446082516E-02  0.0000000000000E+00 -0.4130985553502E-03
 0.3109855213055E-03 -0.4101889075900E-02  0.0000000000000E+00 -0.6044793060548E-03
 0.3911001826143E-03 -0.4148824365994E-02  0.0000000000000E+00 -0.7661853354995E-03
 0.4642729863222E-03 -0.4190018549731E-02  0.0000000000000E+00 -0.9003809291046E-03
 0.5291424253493E-03 -0.4224408662967E-02  0.0000000000000E+00 -0.1009980767890E-02
 0.5846345262394E-03 -0.4251137244884E-02  0.0000000000000E+00 -0.1098350686346E-02
 0.6299921605468E-03 -0.4269564919343E-02  0.0000000000000E+00 -0.1169034079139E-02
 0.6647783219464E-03 -0.4279261130191E-02  0.0000000000000E+00 -0.1225531198655E-02
 0.6888590599106E-03 -0.4279978546613E-02  0.0000000000000E+00 -0.1271143165040E-02
 0.7023745176263E-03 -0.4271618894342E-02  0.0000000000000E+00 -0.1308879227794E-02
 0.7057072645952E-03 -0.4254198222659E-02  0.0000000000000E+00 -0.1341417765678E-02
 0.6994557052338E-03 -0.4227818271580E-02  0.0000000000000E+00 -0.1371107206761E-02
 0.6844182743601E-03 -0.4192648728439E-02  0.0000000000000E+00 -0.1399992401154E-02
 0.6615918810596E-03 -0.4148923133452E-02  0.0000000000000E+00 -0.1429853503732E-02
 0.6321858374846E-03 -0.4096949313875E-02  0.0000000000000E+00 -0.1462246758804E-02
 0.5976521485868E-03 -0.4037136050117E-02  0.0000000000000E+00 -0.1498538001648E-02
 0.5597287656265E-03 -0.3970031773992E-02  0.0000000000000E+00 -0.1539924204145E-02
 0.5204952937760E-03 -0.3896376807365E-02  0.0000000000000E+00 -0.1587437665361E-02
 0.4824377091510E-03 -0.3817167506369E-02  0.0000000000000E+00 -0.1641927785403E-02
 0.4485153473769E-03 -0.3733725297087E-02  0.0000000000000E+00 -0.1704021407477E-02
 0.4222262862061E-03 -0.3647770597996E-02  0.0000000000000E+00 -0.1774056715761E-02
 0.4076619342148E-03 -0.3561491353132E-02  0.0000000000000E+00 -0.1851993672971E-02
 0.4095411369727E-03 -0.3477591019038E-02  0.0000000000000E+00 -0.1937308085337E-02
 0.4332141821715E-03 -0.3399333942527E-02  0.0000000000000E+00 -0.2028833850041E-02
 0.4846152081684E-03 -0.3330575483868E-02  0.0000000000000E+00 -0.2124571371459E-02
 0.5701404831068E-03 -0.3275732317315E-02  0.0000000000000E+00 -0.2221482583917E-02
 0.6964347251427E-03 -0.3239671389977E-02  0.0000000000000E+00 -0.2315293053490E-02
 0.8700695635009E-03 -0.3227505083635E-02  0.0000000000000E+00 -0.2400325944799E-02
 0.1097102741994E-02 -0.3244283022787E-02  0.0000000000000E+00 -0.2469399911825E-02
 0.1382515706513E-02 -0.3294576963447E-02  0.0000000000000E+00 -0.2513832483129E-02
 0.1729547417685E-02 -0.3381969666356E-02  0.0000000000000E+00 -0.2523595601332E-02
 0.2138995152135E-02 -0.3508494712134E-02  0.0000000000000E+00 -0.2487663587512E-02
 0.2608601382948E-02 -0.3674110313249E-02  0.0000000000000E+00 -0.2394573932303E-02
 0.3132578197786E-02 -0.3876269067564E-02  0.0000000000000E+00 -0.2233149512959E-02
 0.3701355191449E-02 -0.4109671865158E-02  0.0000000000000E+00 -0.1993311567928E-02
 0.4301729466629E-02 -0.4366340521577E-02  0.0000000000000E+00 -0.1666905907002E-02
 0.4917459971212E-02 -0.4636049575702E-02  0.0000000000000E+00 -0.1248419655191E-02
 0.5530286314833E-02 -0.4907107235465E-02  0.0000000000000E+00 -0.7354845133288E-03
 0.6121174563904E-02 -0.5167363428672E-02  0.0000000000000E+00 -0.1292043160916E-03
 0.4326814319783E-04 -0.3779121442814E-02  0.0000000000000E+00  0.9513023949686E-04
 0.1291573321760E-03 -0.3832501525012E-02  0.0000000000000E+00 -0.1584841343433E-03
 0.2132021799524E-03 -0.3884238706634E-02  0.0000000000000E+00 -0.3823433212811E-03
 0.2937921013216E-03 -0.3933086542143E-02  0.0000000000000E+00 -0.5762990512661E-03
 0.3693691710134E-03 -0.3977833457019E-02  0.0000000000000E+00 -0.7414305216344E-03
 0.4384894430245E-03 -0.4017347846104E-02  0.0000000000000E+00 -0.8798183843141E-03
 0.4998892845069E-03 -0.4050625666917E-02  0.0000000000000E+00 -0.9942645831490E-03
 0.5525425619117E-03 -0.4076828581252E-02  0.0000000000000E+00 -0.1088006295937E-02
 0.5956977216401E-03 -0.4095304224917E-02  0.0000000000000E+00 -0.1164457843313E-02
 0.6288918655968E-03 -0.4105586881061E-02  0.0000000000000E+00 -0.1227003574029E-02
 0.6519450514798E-03 -0.4107381953156E-02  0.0000000000000E+00 -0.1278850836842E-02
 0.6649414940153E-03 -0.4100540515164E-02  0.0000000000000E+00 -0.1322940567835E-02
 0.6682058609023E-03 -0.4085031186690E-02  0.0000000000000E+00 -0.1361906371545E-02
 0.6622821214031E-03 -0.4060915819599E-02  0.0000000000000E+00 -0.1398069417921E-02
 0.6479207819428E-03 -0.4028333980640E-02  0.0000000000000E+00 -0.1433456050003E-02
 0.6260783251824E-03 -0.3987499369315E-02  0.0000000000000E+00 -0.1469826421301E-02
 0.5979305228721E-03 -0.3938709470720E-02  0.0000000000000E+00 -0.1508704540942E-02
 0.5649008479592E-03 -0.3882370393526E-02  0.0000000000000E+00 -0.1551401033580E-02
 0.5287010078401E-03 -0.3819033163791E-02  0.0000000000000E+00 -0.1599024817535E-02
 0.4913832337510E-03 -0.3749442963801E-02  0.0000000000000E+00 -0.1652478386332E-02
 0.4554010775620E-03 -0.3674599777810E-02  0.0000000000000E+00 -0.1712432063496E-02
 0.4236721845730E-03 -0.3595823698915E-02  0.0000000000000E+00 -0.1779279244293E-02
 0.3996391846080E-03 -0.3514824696085E-02  0.0000000000000E+00 -0.1853068058089E-02
 0.3873195298658E-03 -0.3433765686647E-02  0.0000000000000E+00 -0.1933414339006E-02
 0.3913343444343E-03 -0.3355300760062E-02  0.0000000000000E+00 -0.2019406384087E-02
 0.4169082097721E-03 -0.3282615689630E-02  0.0000000000000E+00 -0.2109462989411E-02
 0.4698190997859E-03 -0.3219461205002E-02  0.0000000000000E+00 -0.2201161155182E-02
 0.5562752564646E-03 -0.3170124430316E-02  0.0000000000000E+00 -0.2291062497875E-02
 0.6827027664543E-03 -0.3139317312549E-02  0.0000000000000E+00 -0.2374562933191E-02
 0.8554300895436E-03 -0.3131973179287E-02  0.0000000000000E+00 -0.2445790194186E-02
 0.1080259936247E-02 -0.3152945035282E-02  0.0000000000000E+00 -0.2497577251822E-02
 0.1361927055464E-02 -0.3206603923836E-02  0.0000000000000E+00 -0.2521544582974E-02
 0.1703459125163E-02 -0.3296348200682E-02  0.0000000000000E+00 -0.2508323890815E-02
 0.2105510203175E-02 -0.3424072030931E-02  0.0000000000000E+00 -0.2447944846909E-02
 0.2565780482954E-02 -0.3589668999978E-02  0.0000000000000E+00 -0.2330385913185E-02
 0.3078563575941E-02 -0.3790618676596E-02  0.0000000000000E+00 -0.2146216685654E-02
 0.3634502384089E-02 -0.4021746082066E-02  0.0000000000000E+00 -0.1887248431743E-02
 0.4220729208963E-02 -0.4275288772644E-02  0.0000000000000E+00 -0.1547127810149E-02
 0.4821430576980E-02 -0.4541306555056E-02  0.0000000000000E+00 -0.1121785802525E-02
 0.5418819890036E-02 -0.4808425719445E-02  0.0000000000000E+00 -0.6096849614984E-03
 0.5994322943876E-02 -0.5064796220741E-02  0.0000000000000E+00 -0.1194252449888E-04
 0.4094877113856E-04 -0.3618824619474E-02  0.0000000000000E+00  0.1266102102586E-03
 0.1220572993401E-03 -0.3669337141211E-02  0.0000000000000E+00 -0.1276974742357E-03
 0.2012310404319E-03 -0.3718303034058E-02  0.0000000000000E+00 -0.3530479923018E-03
 0.2770856583877E-03 -0.3764644606410E-02  0.0000000000000E+00 -0.5492920537900E-03
 0.3482547484130E-03 -0.3807288846083E-02  0.0000000000000E+00 -0.7174856665920E-03
 0.4134392481497E-03 -0.3845203539954E-02  0.0000000000000E+00 -0.8596550149713E-03
 0.4714697902434E-03 -0.3877442671509E-02  0.0000000000000E+00 -0.9785176344873E-03
 0.5213668738317E-03 -0.3903188229482E-02  0.0000000000000E+00 -0.1077205811700E-02
 0.5623858152881E-03 -0.3921778094996E-02  0.0000000000000E+00 -0.1159021888548E-02
 0.5940410814569E-03 -0.3932716077477E-02  0.0000000000000E+00 -0.1227244218022E-02
 0.6161110636955E-03 -0.3935665631725E-02  0.0000000000000E+00 -0.1284989778050E-02
 0.6286284807742E-03 -0.3930432294106E-02  0.0000000000000E+00 -0.1335129454822E-02
 0.6318638048567E-03 -0.3916941478374E-02  0.0000000000000E+00 -0.1380246813759E-02
 0.6263089363021E-03 -0.3895217997881E-02  0.0000000000000E+00 -0.1422628509891E-02
 0.6126670925821E-03 -0.3865372479628E-02  0.0000000000000E+00 -0.1464274432493E-02
 0.5918530436111E-03 -0.3827598138105E-02  0.0000000000000E+00 -0.1506917117012E-02
 0.5650057452388E-03 -0.3782179572242E-02  0.0000000000000E+00 -0.1552041812298E-02
 0.5335149012903E-03 -0.3729515732146E-02  0.0000000000000E+00 -0.1600899066062E-02
 0.4990588739739E-03 -0.3670153785462E-02  0.0000000000000E+00 -0.1654506956553E-02
 0.4636537190938E-03 -0.3604835343575E-02  0.0000000000000E+00 -0.1713637804609E-02
 0.4297103132011E-03 -0.3534553625547E-02  0.0000000000000E+00 -0.1778785209490E-02
 0.4000932876845E-03 -0.3460615136191E-02  0.0000000000000E+00 -0.1850114455957E-02
 0.3781779838251E-03 -0.3384705505703E-02  0.0000000000000E+00 -0.1927392191055E-02
 0.3678963542631E-03 -0.3308947584674E-02  0.0000000000000E+00 -0.2009902038242E-02
 0.3737616997155E-03 -0.3235930886490E-02  0.0000000000000E+00 -0.2096359622733E-02
 0.4008655899883E-03 -0.3168748392892E-02  0.0000000000000E+00 -0.2184786034442E-02
 0.4548269721653E-03 -0.3111034138901E-02  0.0000000000000E+00 -0.2272354824606E-02
 0.5416698568309E-03 -0.3066937474699E-02  0.0000000000000E+00 -0.2355249067364E-02
 0.6676148370070E-03 -0.3041013293713E-02  0.0000000000000E+00 -0.2428556594051E-02
 0.8387724278022E-03 -0.3038022695921E-02  0.0000000000000E+00 -0.2486227659768E-02
 0.1060729709978E-02 -0.3062640275762E-02  0.0000000000000E+00 -0.2521119426161E-02
 0.1338028777228E-02 -0.3119067371692E-02  0.0000000000000E+00 -0.2525152360290E-02
 0.1673552388692E-02 -0.3210561001302E-02  0.0000000000000E+00 -0.2489598332662E-02
 0.2067884217875E-02 -0.3338927157724E-02  0.0000000000000E+00 -0.2405504971431E-02
 0.2518751575285E-02 -0.3504046812752E-02  0.0000000000000E+00 -0.2264238885172E-02
 0.3020581661473E-02 -0.3703468814309E-02  0.0000000000000E+00 -0.2058054022392E-02
 0.3564250335628E-02 -0.3932163108751E-02  0.0000000000000E+00 -0.1780589017354E-02
 0.4137200509024E-02 -0.4182572525794E-02  0.0000000000000E+00 -0.1427239168755E-02
 0.4723972641487E-02 -0.4444996201359E-02  0.0000000000000E+00 -0.9953472207090E-03
 0.5307135283703E-02 -0.4708299908272E-02  0.0000000000000E+00 -0.4842011209939E-03
 0.5868422890071E-02 -0.4960831475728E-02  0.0000000000000E+00  0.1050471591821E-03
 0.3868871147486E-04 -0.3458576855904E-02  0.0000000000000E+00  0.1564285273142E-03
 0.1151362622264E-03 -0.3506297972117E-02  0.0000000000000E+00 -0.9850431922514E-04
 0.1895609565113E-03 -0.3552571830706E-02  0.0000000000000E+00 -0.3251593254569E-03
 0.2608034278687E-03 -0.3596489115440E-02  0.0000000000000E+00 -0.5234040119980E-03
 0.3276847433936E-03 -0.3637113200549E-02  0.0000000000000E+00 -0.6942967971784E-03
 0.3890457180097E-03 -0.3673508709437E-02  0.0000000000000E+00 -0.8398379939294E-03
 0.4438070213897E-03 -0.3704786040584E-02  0.0000000000000E+00 -0.9626878162593E-03
 0.4910335017107E-03 -0.3730147671702E-02  0.0000000000000E+00 -0.1065895969219E-02
 0.5299873943978E-03 -0.3748923840417E-02  0.0000000000000E+00 -0.1152668676157E-02
 0.5601626054200E-03 -0.3760591558175E-02  0.0000000000000E+00 -0.1226187468692E-02
 0.5812992128641E-03 -0.3764776857929E-02  0.0000000000000E+00 -0.1289482217615E-02
 0.5933821730026E-03 -0.3761244319639E-02  0.0000000000000E+00 -0.1345352430888E-02
 0.5966310446022E-03 -0.3749880084157E-02  0.0000000000000E+00 -0.1396327195043E-02
 0.5914878425098E-03 -0.3730674685745E-02  0.0000000000000E+00 -0.1444652495401E-02
 0.5786091463010E-03 -0.3703711055221E-02  0.0000000000000E+00 -0.1492295088136E-02
 0.5588668876165E-03 -0.3669161451985E-02  0.0000000000000E+00 -0.1540953638618E-02
 0.5333602044537E-03 -0.3627295300975E-02  0.0000000000000E+00 -0.1592069543977E-02
 0.5034401552632E-03 -0.3578500228479E-02  0.0000000000000E+00 -0.1646829909122E-02
 0.4707450881685E-03 -0.3523313472088E-02  0.0000000000000E+00 -0.1706160758574E-02
 0.4372465776050E-03 -0.3462465083545E-02  0.0000000000000E+00 -0.1770705516019E-02
 0.4053031283524E-03 -0.3396931634751E-02  0.0000000000000E+00 -0.1840785094552E-02
 0.3777156447292E-03 -0.3327994375426E-02  0.0000000000000E+00 -0.1916343669158E-02
 0.3577809980466E-03 -0.3257301378946E-02  0.0000000000000E+00 -0.1996876499902E-02
 0.3493347866985E-03 -0.3186921136050E-02  0.0000000000000E+00 -0.2081348112949E-02
 0.3567730607198E-03 -0.3119364160338E-02  0.0000000000000E+00 -0.2168116904787E-02
 0.3850476689900E-03 -0.3057617192669E-02  0.0000000000000E+00 -0.2254823379864E-02
 0.4396160890315E-03 -0.3005186187457E-02  0.0000000000000E+00 -0.2338256112852E-02
 0.5263219824972E-03 -0.2966074954062E-02  0.0000000000000E+00 -0.2414238320206E-02
 0.6511931413765E-03 -0.2944679327400E-02  0.0000000000000E+00 -0.2477566232599E-02
 0.8201461850567E-03 -0.2945594440964E-02  0.0000000000000E+00 -0.2522023316962E-02
 0.1038589951515E-02 -0.2973333360691E-02  0.0000000000000E+00 -0.2540491592986E-02
 0.1310925142183E-02 -0.3031956644961E-02  0.0000000000000E+00 -0.2525178324440E-02
 0.1639952768217E-02 -0.3124620447828E-02  0.0000000000000E+00 -0.2467966445112E-02
 0.2026255950169E-02 -0.3253091226584E-02  0.0000000000000E+00 -0.2360877845507E-02
 0.2467656436989E-02 -0.3417287363979E-02  0.0000000000000E+00 -0.2196614168140E-02
 0.2958766586149E-02 -0.3614868488577E-02  0.0000000000000E+00 -0.1969059430599E-02
 0.3490716221227E-02 -0.3840970902751E-02  0.0000000000000E+00 -0.1673633966777E-02
 0.4051237315625E-02 -0.4088234244955E-02  0.0000000000000E+00 -0.1307453083266E-02
 0.4625154928090E-02 -0.4347154192403E-02  0.0000000000000E+00 -0.8692647249095E-03
 0.5195278996312E-02 -0.4606761298609E-02  0.0000000000000E+00 -0.3591993825059E-03
 0.5743505360640E-02 -0.4855502536146E-02  0.0000000000000E+00  0.2215191268156E-03
 0.3647736506462E-04 -0.3298332733503E-02  0.0000000000000E+00  0.1846268428699E-03
 0.1083631215417E-03 -0.3343326226494E-02  0.0000000000000E+00 -0.7086035003182E-04
 0.1781427483687E-03 -0.3386977034323E-02  0.0000000000000E+00 -0.2986290422288E-03
 0.2448821578535E-03 -0.3428544952716E-02  0.0000000000000E+00 -0.4985831496197E-03
 0.3075866263549E-03 -0.3467228004922E-02  0.0000000000000E+00 -0.6718099989211E-03
 0.3652317894030E-03 -0.3502184851999E-02  0.0000000000000E+00 -0.8203124968569E-03
 0.4168234201551E-03 -0.3532579943138E-02  0.0000000000000E+00 -0.9467196608590E-03
 0.4614673522498E-03 -0.3557635391000E-02  0.0000000000000E+00 -0.1054019567877E-02
 0.4984316062025E-03 -0.3576674852480E-02  0.0000000000000E+00 -0.1145336898284E-02
 0.5271905167741E-03 -0.3589151298628E-02  0.0000000000000E+00 -0.1223764662024E-02
 0.5474483314823E-03 -0.3594657164203E-02  0.0000000000000E+00 -0.1292248571874E-02
 0.5591453641140E-03 -0.3592920187528E-02  0.0000000000000E+00 -0.1353515663430E-02
 0.5624531797025E-03 -0.3583790922083E-02  0.0000000000000E+00 -0.1410036781493E-02
 0.5577659481052E-03 -0.3567228318357E-02  0.0000000000000E+00 -0.1464012073217E-02
 0.5456942993057E-03 -0.3543288935407E-02  0.0000000000000E+00 -0.1517369663312E-02
 0.5270663813518E-03 -0.3512123801032E-02  0.0000000000000E+00 -0.1571769394467E-02
 0.5029388054980E-03 -0.3473985161854E-02  0.0000000000000E+00 -0.1628605100803E-02
 0.4746194923068E-03 -0.3429245515385E-02  0.0000000000000E+00 -0.1688998529002E-02
 0.4437005655673E-03 -0.3378426528783E-02  0.0000000000000E+00 -0.1753783956349E-02
 0.4121013343738E-03 -0.3322239206752E-02  0.0000000000000E+00 -0.1823478768414E-02
 0.3821188104091E-03 -0.3261634164655E-02  0.0000000000000E+00 -0.1898236848896E-02
 0.3564800739311E-03 -0.3197856373521E-02  0.0000000000000E+00 -0.1977789853578E-02
 0.3383929832936E-03 -0.3132503838911E-02  0.0000000000000E+00 -0.2061373199886E-02
 0.3315865550621E-03 -0.3067577146729E-02  0.0000000000000E+00 -0.2147646564170E-02
 0.3403307199522E-03 -0.3005494122367E-02  0.0000000000000E+00 -0.2234627135482E-02
 0.3694313088643E-03 -0.2949122467256E-02  0.0000000000000E+00 -0.2319591714389E-02
 0.4241820413883E-03 -0.2901829143109E-02  0.0000000000000E+00 -0.2398961023920E-02
 0.5102498472991E-03 -0.2867464802299E-02  0.0000000000000E+00 -0.2468214292655E-02
 0.6334815360639E-03 -0.2850263853492E-02  0.0000000000000E+00 -0.2521867993557E-02
 0.7996222452611E-03 -0.2854660667734E-02  0.0000000000000E+00 -0.2553542820200E-02
 0.1013937541122E-02 -0.2885021830817E-02  0.0000000000000E+00 -0.2556137758910E-02
 0.1280735016061E-02 -0.2945293557685E-02  0.0000000000000E+00 -0.2522123978105E-02
 0.1602794078902E-02 -0.3038568871971E-02  0.0000000000000E+00 -0.2443957065657E-02
 0.1980764814165E-02 -0.3166620983416E-02  0.0000000000000E+00 -0.2314582873312E-02
 0.2412629914720E-02 -0.3329454468065E-02  0.0000000000000E+00 -0.2127983841578E-02
 0.2893239630765E-02 -0.3524881569436E-02  0.0000000000000E+00 -0.1879626719782E-02
 0.3414001745520E-02 -0.3748228201559E-02  0.0000000000000E+00 -0.1566683799455E-02
 0.3962919817735E-02 -0.3992325106810E-02  0.0000000000000E+00 -0.1187984523367E-02
 0.4525038608112E-02 -0.4247824955555E-02  0.0000000000000E+00 -0.7437003025957E-03
 0.5083299967262E-02 -0.4503851925057E-02  0.0000000000000E+00 -0.2348435042500E-03
 0.5619616384432E-02 -0.4748856133658E-02  0.0000000000000E+00  0.3372362525222E-03
 0.3430378712985E-04 -0.3138046305512E-02  0.0000000000000E+00  0.2112386971727E-03
 0.1017059273985E-03 -0.3180363210434E-02  0.0000000000000E+00 -0.4472831088144E-04
 0.1669262282763E-03 -0.3221449468009E-02  0.0000000000000E+00 -0.2734139717326E-03
 0.2292576853629E-03 -0.3260735771664E-02  0.0000000000000E+00 -0.4747803820254E-03
 0.2878871371284E-03 -0.3297553375111E-02  0.0000000000000E+00 -0.6499716822255E-03
 0.3419197572558E-03 -0.3331151817800E-02  0.0000000000000E+00 -0.8010221184266E-03
 0.3904406660002E-03 -0.3360746416126E-02  0.0000000000000E+00 -0.9305549092824E-03
 0.4325922068498E-03 -0.3385577051041E-02  0.0000000000000E+00 -0.1041516157284E-02
 0.4676459125712E-03 -0.3404960873540E-02  0.0000000000000E+00 -0.1136962216831E-02
 0.4950565413453E-03 -0.3418328742711E-02  0.0000000000000E+00 -0.1219904856249E-02
 0.5144942237209E-03 -0.3425242704972E-02  0.0000000000000E+00 -0.1293208098405E-02
 0.5258572268827E-03 -0.3425397377354E-02  0.0000000000000E+00 -0.1359525489625E-02
 0.5292717462760E-03 -0.3418611213490E-02  0.0000000000000E+00 -0.1421266413724E-02
 0.5250860493623E-03 -0.3404814242244E-02  0.0000000000000E+00 -0.1480580890187E-02
 0.5138655713111E-03 -0.3384038077259E-02  0.0000000000000E+00 -0.1539354009202E-02
 0.4963939328023E-03 -0.3356412452045E-02  0.0000000000000E+00 -0.1599203066692E-02
 0.4736828224046E-03 -0.3322170740509E-02  0.0000000000000E+00 -0.1661471939410E-02
 0.4469929360758E-03 -0.3281666903195E-02  0.0000000000000E+00 -0.1727216489530E-02
 0.4178644463180E-03 -0.3235401874808E-02  0.0000000000000E+00 -0.1797181010680E-02
 0.3881571594133E-03 -0.3184060682131E-02  0.0000000000000E+00 -0.1871761226485E-02
 0.3600980666016E-03 -0.3128559304946E-02  0.0000000000000E+00 -0.1950951197970E-02
 0.3363309482781E-03 -0.3070096107198E-02  0.0000000000000E+00 -0.2034280175072E-02
 0.3199647258933E-03 -0.3010207257640E-02  0.0000000000000E+00 -0.2120736669344E-02
 0.3146121774134E-03 -0.2950812644400E-02  0.0000000000000E+00 -0.2208690858646E-02
 0.3244086991305E-03 -0.2894224409843E-02  0.0000000000000E+00 -0.2295835343413E-02
 0.3540080535108E-03 -0.2843178966289E-02  0.0000000000000E+00 -0.2379099961691E-02
 0.4085378298219E-03 -0.2800893665940E-02  0.0000000000000E+00 -0.2454553578292E-02
 0.4934912583628E-03 -0.2771058267184E-02  0.0000000000000E+00 -0.2517344858303E-02
 0.6145447164858E-03 -0.2757742650054E-02  0.0000000000000E+00 -0.2561718254949E-02
 0.7772922031155E-03 -0.2765224111925E-02  0.0000000000000E+00 -0.2581129689197E-02
 0.9868881639524E-03 -0.2797735478704E-02  0.0000000000000E+00 -0.2568479326225E-02
 0.1247592136458E-02 -0.2859132136955E-02  0.0000000000000E+00 -0.2516470100704E-02
 0.1562219118727E-02 -0.2952478745630E-02  0.0000000000000E+00 -0.2418082525853E-02
 0.1931551927600E-02 -0.3079599356969E-02  0.0000000000000E+00 -0.2267128841463E-02
 0.2353801053142E-02 -0.3240632931391E-02  0.0000000000000E+00 -0.2058815666671E-02
 0.2824110196907E-02 -0.3433587610688E-02  0.0000000000000E+00 -0.1790150649805E-02
 0.3334193786697E-02 -0.3654005237405E-02  0.0000000000000E+00 -0.1460043208771E-02
 0.3872314642152E-02 -0.3894905487091E-02  0.0000000000000E+00 -0.1069053452418E-02
 0.4423676859893E-02 -0.4147061710008E-02  0.0000000000000E+00 -0.6188191111902E-03
 0.4971248549647E-02 -0.4399623751999E-02  0.0000000000000E+00 -0.1112955510628E-03
 0.5496815843775E-02 -0.4640951293268E-02  0.0000000000000E+00  0.4519697217884E-03
 0.3215658706057E-04 -0.2977670980649E-02  0.0000000000000E+00  0.2362892012342E-03
 0.9513159878514E-04 -0.3017349109453E-02  0.0000000000000E+00 -0.2007823436235E-04
 0.1558598097324E-03 -0.3055918577114E-02  0.0000000000000E+00 -0.2494761838591E-03
 0.2138645265184E-03 -0.3092983758284E-02  0.0000000000000E+00 -0.4519494252721E-03
 0.2685119383086E-03 -0.3128007905952E-02  0.0000000000000E+00 -0.6287287585404E-03
 0.3190310429525E-03 -0.3160327774358E-02  0.0000000000000E+00 -0.7819091864855E-03
 0.3645795766974E-03 -0.3189205450201E-02  0.0000000000000E+00 -0.9141329857424E-03
 0.4043307466171E-03 -0.3213895686691E-02  0.0000000000000E+00 -0.1028322644921E-02
 0.4375562152081E-03 -0.3233708266618E-02  0.0000000000000E+00 -0.1127477944705E-02
 0.4636902480802E-03 -0.3248053124063E-02  0.0000000000000E+00 -0.1214535518406E-02
 0.4823699057274E-03 -0.3256464605856E-02  0.0000000000000E+00 -0.1292279528376E-02
 0.4934535737092E-03 -0.3258607610528E-02  0.0000000000000E+00 -0.1363288951569E-02
 0.4970244777906E-03 -0.3254271835229E-02  0.0000000000000E+00 -0.1429908917428E-02
 0.4933868761551E-03 -0.3243361050130E-02  0.0000000000000E+00 -0.1494235809513E-02
 0.4830618618469E-03 -0.3225883474170E-02  0.0000000000000E+00 -0.1558108292301E-02
 0.4667880081714E-03 -0.3201947717708E-02  0.0000000000000E+00 -0.1623098544204E-02
 0.4455300177043E-03 -0.3171766922351E-02  0.0000000000000E+00 -0.1690499335330E-02
 0.4204977020045E-03 -0.3135673534269E-02  0.0000000000000E+00 -0.1761301434405E-02
 0.3931740620438E-03 -0.3094143116228E-02  0.0000000000000E+00 -0.1836162299031E-02
 0.3653527337608E-03 -0.3047828394967E-02  0.0000000000000E+00 -0.1915361810708E-02
 0.3391827730228E-03 -0.2997602721370E-02  0.0000000000000E+00 -0.1998742893665E-02
 0.3172158118156E-03 -0.2944608270089E-02  0.0000000000000E+00 -0.2085643966328E-02
 0.3024525141046E-03 -0.2890308382653E-02  0.0000000000000E+00 -0.2174820921924E-02
 0.2983802851159E-03 -0.2836530218402E-02  0.0000000000000E+00 -0.2264370891809E-02
 0.3089919343768E-03 -0.2785467906137E-02  0.0000000000000E+00 -0.2351679164330E-02
 0.3387832087289E-03 -0.2739714787267E-02  0.0000000000000E+00 -0.2433345370772E-02
 0.3927129031027E-03 -0.2702328135209E-02  0.0000000000000E+00 -0.2505101667367E-02
 0.4761027136184E-03 -0.2676828724784E-02  0.0000000000000E+00 -0.2561777590398E-02
 0.5944675087448E-03 -0.2667117741164E-02  0.0000000000000E+00 -0.2597349835559E-02
 0.7532680040705E-03 -0.2677317156001E-02  0.0000000000000E+00 -0.2605102282054E-02
 0.9575764350193E-03 -0.2711535936122E-02  0.0000000000000E+00 -0.2577913294764E-02
 0.1211645788490E-02 -0.2773558753218E-02  0.0000000000000E+00 -0.2508676600403E-02
 0.1518380832731E-02 -0.2866453368418E-02  0.0000000000000E+00 -0.2390840400327E-02
 0.1878761547920E-02 -0.2992136572521E-02  0.0000000000000E+00 -0.2219017472702E-02
 0.2291294478971E-02 -0.3150929841371E-02  0.0000000000000E+00 -0.1989577886226E-02
 0.2751476844324E-02 -0.3341083061756E-02  0.0000000000000E+00 -0.1701032017558E-02
 0.3251364957925E-02 -0.3558384750077E-02  0.0000000000000E+00 -0.1354025480039E-02
 0.3779474929617E-02 -0.3796045736717E-02  0.0000000000000E+00 -0.9508881928016E-03
 0.4321114345354E-02 -0.4044926796246E-02  0.0000000000000E+00 -0.4947920175265E-03
 0.4859175260678E-02 -0.4294138203434E-02  0.0000000000000E+00  0.1128241120030E-04
 0.5375176167505E-02 -0.4531858242168E-02  0.0000000000000E+00  0.5654984299257E-03
 0.3002381866898E-04 -0.2817159424417E-02  0.0000000000000E+00  0.2597946283900E-03
 0.8860562691074E-04 -0.2854222777550E-02  0.0000000000000E+00  0.3112281713168E-05
 0.1448901049021E-03 -0.2890312171433E-02  0.0000000000000E+00 -0.2267831245962E-03
 0.1986354691963E-03 -0.2925209402222E-02  0.0000000000000E+00 -0.4300468591386E-03
 0.2493852856056E-03 -0.2958508528991E-02  0.0000000000000E+00 -0.6080287411391E-03
 0.2964859872870E-03 -0.2989629176760E-02  0.0000000000000E+00 -0.7629149938975E-03
 0.3391600317941E-03 -0.3017875068828E-02  0.0000000000000E+00 -0.8973914001415E-03
 0.3766045897208E-03 -0.3042511870971E-02  0.0000000000000E+00 -0.1014373850406E-02
 0.4080869796094E-03 -0.3062840243540E-02  0.0000000000000E+00 -0.1116815693944E-02
 0.4330192312886E-03 -0.3078249730712E-02  0.0000000000000E+00 -0.1207583195701E-02
 0.4510058213127E-03 -0.3088249244844E-02  0.0000000000000E+00 -0.1289381698202E-02
 0.4618670852568E-03 -0.3092477132576E-02  0.0000000000000E+00 -0.1364714342381E-02
 0.4656455296304E-03 -0.3090697590597E-02  0.0000000000000E+00 -0.1435859534912E-02
 0.4626032975300E-03 -0.3082790829333E-02  0.0000000000000E+00 -0.1504857209717E-02
 0.4532181227225E-03 -0.3068743370261E-02  0.0000000000000E+00 -0.1573497146243E-02
 0.4381832569376E-03 -0.3048643124177E-02  0.0000000000000E+00 -0.1643304909530E-02
 0.4184147049302E-03 -0.3022681998260E-02  0.0000000000000E+00 -0.1715522179090E-02
 0.3950681809987E-03 -0.2991168409015E-02  0.0000000000000E+00 -0.1791076656691E-02
 0.3695648234604E-03 -0.2954548471748E-02  0.0000000000000E+00 -0.1870543412622E-02
 0.3436260233153E-03 -0.2913436949727E-02  0.0000000000000E+00 -0.1954093668710E-02
 0.3193156176434E-03 -0.2868657311434E-02  0.0000000000000E+00 -0.2041429303594E-02
 0.2990848773561E-03 -0.2821286757769E-02  0.0000000000000E+00 -0.2131710881131E-02
 0.2858174817498E-03 -0.2772705631481E-02  0.0000000000000E+00 -0.2223477284745E-02
 0.2828668142293E-03 -0.2724637112716E-02  0.0000000000000E+00 -0.2314570170796E-02
 0.2940753345785E-03 -0.2679145637083E-02  0.0000000000000E+00 -0.2402085543601E-02
 0.3237748124918E-03 -0.2638670105286E-02  0.0000000000000E+00 -0.2482309799075E-02
 0.3767521198215E-03 -0.2606097278292E-02  0.0000000000000E+00 -0.2550653040350E-02
 0.4581584744832E-03 -0.2584770318558E-02  0.0000000000000E+00 -0.2601635654457E-02
 0.5733542099550E-03 -0.2578416204589E-02  0.0000000000000E+00 -0.2628968088872E-02
 0.7276817257360E-03 -0.2591000998714E-02  0.0000000000000E+00 -0.2625750483999E-02
 0.9261562690390E-03 -0.2626516398072E-02  0.0000000000000E+00 -0.2584810015802E-02
 0.1173061819910E-02 -0.2688692530956E-02  0.0000000000000E+00 -0.2499181814832E-02
 0.1471443870252E-02 -0.2780627963341E-02  0.0000000000000E+00 -0.2362714719102E-02
 0.1822542872420E-02 -0.2904371742814E-02  0.0000000000000E+00 -0.2170746604076E-02
 0.2225232008165E-02 -0.3060476300390E-02  0.0000000000000E+00 -0.1920743901970E-02
 0.2675428329704E-02 -0.3247482797421E-02  0.0000000000000E+00 -0.1612682810756E-02
 0.3165573991548E-02 -0.3461463204396E-02  0.0000000000000E+00 -0.1248956988027E-02
 0.3684440220173E-02 -0.3695827193908E-02  0.0000000000000E+00 -0.8337288863066E-03
 0.4217386529653E-02 -0.3941492317702E-02  0.0000000000000E+00 -0.3717986099744E-03
 0.4747129202168E-02 -0.4187465818779E-02  0.0000000000000E+00  0.1327256835705E-03
 0.5254780563461E-02 -0.4421657162658E-02  0.0000000000000E+00  0.6776079432201E-03
 0.2789286037353E-04 -0.2656463478999E-02  0.0000000000000E+00  0.2817619217122E-03
 0.8209175622243E-04 -0.2690921546807E-02  0.0000000000000E+00  0.2485774785817E-04
 0.1339615054301E-03 -0.2724556199031E-02  0.0000000000000E+00 -0.2053077454403E-03
 0.1835011676288E-03 -0.2757331318709E-02  0.0000000000000E+00 -0.4090321362243E-03
 0.2304297215086E-03 -0.2788970439842E-02  0.0000000000000E+00 -0.5878197672390E-03
 0.2742036807614E-03 -0.2818970818781E-02  0.0000000000000E+00 -0.7439799514942E-03
 0.3141009362329E-03 -0.2846671490400E-02  0.0000000000000E+00 -0.8802660869014E-03
 0.3493343624202E-03 -0.2871343960756E-02  0.0000000000000E+00 -0.9996030161248E-03
 0.3791613817823E-03 -0.2892277165924E-02  0.0000000000000E+00 -0.1104905997842E-02
 0.4029693048883E-03 -0.2908840238772E-02  0.0000000000000E+00 -0.1198974173575E-02
 0.4203300616350E-03 -0.2920518602489E-02  0.0000000000000E+00 -0.1284434176183E-02
 0.4310275383329E-03 -0.2926927067738E-02  0.0000000000000E+00 -0.1363711752784E-02
 0.4350657004893E-03 -0.2927807557655E-02  0.0000000000000E+00 -0.1439016361547E-02
 0.4326665225232E-03 -0.2923019492451E-02  0.0000000000000E+00 -0.1512329293205E-02
 0.4242655235103E-03 -0.2912529560159E-02  0.0000000000000E+00 -0.1585389839101E-02
 0.4105106259161E-03 -0.2896405663955E-02  0.0000000000000E+00 -0.1659676448894E-02
 0.3922677936387E-03 -0.2874817851560E-02  0.0000000000000E+00 -0.1736380805620E-02
 0.3706358964391E-03 -0.2848048484916E-02  0.0000000000000E+00 -0.1816370714159E-02
 0.3469700695899E-03 -0.2816510759069E-02  0.0000000000000E+00 -0.1900144514242E-02
 0.3229140006742E-03 -0.2780776517173E-02  0.0000000000000E+00 -0.1987773224048E-02
 0.3004396768843E-03 -0.2741612885309E-02  0.0000000000000E+00 -0.2078829095254E-02
 0.2818904439122E-03 -0.2700024157388E-02  0.0000000000000E+00 -0.2172309159920E-02
 0.2700248602034E-03 -0.2657298370606E-02  0.0000000000000E+00 -0.2266552200066E-02
 0.2680540986765E-03 -0.2615044286021E-02  0.0000000000000E+00 -0.2359163124113E-02
 0.2796627425509E-03 -0.2575185622946E-02  0.0000000000000E+00 -0.2446967552308E-02
 0.3090125201106E-03 -0.2539995856792E-02  0.0000000000000E+00 -0.2525956071053E-02
 0.3607146522817E-03 -0.2512180766901E-02  0.0000000000000E+00 -0.2591231293549E-02
 0.4397496283157E-03 -0.2494896600093E-02  0.0000000000000E+00 -0.2637013588388E-02
 0.5513279907752E-03 -0.2491689043737E-02  0.0000000000000E+00 -0.2656746729162E-02
 0.7006855214816E-03 -0.2506364986255E-02  0.0000000000000E+00 -0.2643331950211E-02
 0.8928015364593E-03 -0.2542801642562E-02  0.0000000000000E+00 -0.2589510340293E-02
 0.1132024075160E-02 -0.2604686217422E-02  0.0000000000000E+00 -0.2488401128593E-02
 0.1421586670192E-02 -0.2695171395541E-02  0.0000000000000E+00 -0.2334176574421E-02
 0.1763052399576E-02 -0.2816475200679E-02  0.0000000000000E+00 -0.2122813038603E-02
 0.2155734714691E-02 -0.2969429904889E-02  0.0000000000000E+00 -0.1852797048357E-02
 0.2596044881057E-02 -0.3152922252907E-02  0.0000000000000E+00 -0.1525531792264E-02
 0.3076866166759E-02 -0.3363352463743E-02  0.0000000000000E+00 -0.1145182118680E-02
 0.3587236448940E-02 -0.3594343745238E-02  0.0000000000000E+00 -0.7178312427608E-03
 0.4112519311310E-02 -0.3836841592180E-02  0.0000000000000E+00 -0.2500309857338E-03
 0.4635156536527E-02 -0.4079686541714E-02  0.0000000000000E+00  0.2528626183741E-03
 0.5135721033283E-02 -0.4310437094703E-02  0.0000000000000E+00  0.7880882772245E-03
 0.2575028368471E-04 -0.2495534093760E-02  0.0000000000000E+00  0.3021881176432E-03
 0.7555163369683E-04 -0.2527381024745E-02  0.0000000000000E+00  0.4516441381828E-04
 0.1230157342788E-03 -0.2558574501816E-02  0.0000000000000E+00 -0.1850286084877E-03
 0.1683897276472E-03 -0.2589266056047E-02  0.0000000000000E+00 -0.3888675137453E-03
 0.2115657822429E-03 -0.2619307014601E-02  0.0000000000000E+00 -0.5680505203692E-03
 0.2521018206729E-03 -0.2648265867488E-02  0.0000000000000E+00 -0.7250436473157E-03
 0.2893202103665E-03 -0.2675509257170E-02  0.0000000000000E+00 -0.8626916712816E-03
 0.3224397849466E-03 -0.2700308285358E-02  0.0000000000000E+00 -0.9839422685462E-03
 0.3507014532028E-03 -0.2721936763727E-02  0.0000000000000E+00 -0.1091678902023E-02
 0.3734646787252E-03 -0.2739742941600E-02  0.0000000000000E+00 -0.1188635115204E-02
 0.3902685543109E-03 -0.2753190490608E-02  0.0000000000000E+00 -0.1277357879651E-02
 0.4008619946799E-03 -0.2761873639909E-02  0.0000000000000E+00 -0.1360193616802E-02
 0.4052126093448E-03 -0.2765515294899E-02  0.0000000000000E+00 -0.1439280791631E-02
 0.4035042528789E-03 -0.2763956957675E-02  0.0000000000000E+00 -0.1516540417465E-02
 0.3961315654042E-03 -0.2757147530234E-02  0.0000000000000E+00 -0.1593660480125E-02
 0.3836974171742E-03 -0.2745135880482E-02  0.0000000000000E+00 -0.1672072722315E-02
 0.3670167720355E-03 -0.2728069964586E-02  0.0000000000000E+00 -0.1752920908111E-02
 0.3471293905060E-03 -0.2706204580333E-02  0.0000000000000E+00 -0.1837017157120E-02
 0.3253208360440E-03 -0.2679917168545E-02  0.0000000000000E+00 -0.1924789839591E-02
 0.3031522742437E-03 -0.2649732449035E-02  0.0000000000000E+00 -0.2016219401423E-02
 0.2824978868628E-03 -0.2616355593009E-02  0.0000000000000E+00 -0.2110761129641E-02
 0.2655861963924E-03 -0.2580710961860E-02  0.0000000000000E+00 -0.2207264135174E-02
 0.2550431016366E-03 -0.2543985898124E-02  0.0000000000000E+00 -0.2303885290308E-02
 0.2539298265083E-03 -0.2507665157236E-02  0.0000000000000E+00 -0.2398012684990E-02
 0.2657657557761E-03 -0.2473521402391E-02  0.0000000000000E+00 -0.2486221465438E-02
 0.2945363524978E-03 -0.2443652089400E-02  0.0000000000000E+00 -0.2564224553969E-02
 0.3446727675405E-03 -0.2420571485060E-02  0.0000000000000E+00 -0.2626831986362E-02
 0.4209830576151E-03 -0.2407238865043E-02  0.0000000000000E+00 -0.2667973062751E-02
 0.5285302562804E-03 -0.2407009804439E-02  0.0000000000000E+00 -0.2680823433590E-02
 0.6724516023040E-03 -0.2423525774011E-02  0.0000000000000E+00 -0.2658067879460E-02
 0.8577068678527E-03 -0.2460548010721E-02  0.0000000000000E+00 -0.2592322056344E-02
 0.1088736107631E-02 -0.2521727183198E-02  0.0000000000000E+00 -0.2476724717372E-02
 0.1369003943039E-02 -0.2610288214262E-02  0.0000000000000E+00 -0.2305683862661E-02
 0.1700456733872E-02 -0.2728651314663E-02  0.0000000000000E+00 -0.2075714789655E-02
 0.2082925327085E-02 -0.2877977738543E-02  0.0000000000000E+00 -0.1786235242633E-02
 0.2513399476818E-02 -0.3057559880440E-02  0.0000000000000E+00 -0.1440030372864E-02
 0.2985273402573E-02 -0.3264181500953E-02  0.0000000000000E+00 -0.1043068328164E-02
 0.3487875670531E-02 -0.3491703513106E-02  0.0000000000000E+00 -0.6034698599080E-03
 0.4006528799746E-02 -0.3731071274266E-02  0.0000000000000E+00 -0.1296975215195E-03
 0.4523298744881E-02 -0.3970890583400E-02  0.0000000000000E+00  0.3715085239787E-03
 0.5018095330946E-02 -0.4198294501087E-02  0.0000000000000E+00  0.8967304417308E-03
 0.2358169776921E-04 -0.2334321268048E-02  0.0000000000000E+00  0.3210596358950E-03
 0.6894441301946E-04 -0.2363534897888E-02  0.0000000000000E+00  0.6402983195359E-04
 0.1119913570091E-03 -0.2392288588903E-02  0.0000000000000E+00 -0.1659299870526E-03
 0.1532262789683E-03 -0.2420927946534E-02  0.0000000000000E+00 -0.3695179265864E-03
 0.1927117240275E-03 -0.2449429795013E-02  0.0000000000000E+00 -0.5486700789244E-03
 0.2300966087844E-03 -0.2477425980501E-02  0.0000000000000E+00 -0.7060448488241E-03
 0.2647348252665E-03 -0.2504301446945E-02  0.0000000000000E+00 -0.8446017080330E-03
 0.2958397944686E-03 -0.2529319409077E-02  0.0000000000000E+00 -0.9673230774538E-03
 0.3226282491440E-03 -0.2551734417219E-02  0.0000000000000E+00 -0.1077064568504E-02
 0.3444281453357E-03 -0.2570873035224E-02  0.0000000000000E+00 -0.1176493719824E-02
 0.3607452539862E-03 -0.2586178835351E-02  0.0000000000000E+00 -0.1268075712089E-02
 0.3712949865187E-03 -0.2597228450477E-02  0.0000000000000E+00 -0.1354075278116E-02
 0.3760108674632E-03 -0.2603729108783E-02  0.0000000000000E+00 -0.1436557987750E-02
 0.3750408302634E-03 -0.2605507396129E-02  0.0000000000000E+00 -0.1517383455939E-02
 0.3687401885802E-03 -0.2602496670435E-02  0.0000000000000E+00 -0.1598188265888E-02
 0.3576673367613E-03 -0.2594728023924E-02  0.0000000000000E+00 -0.1680358686434E-02
 0.3425856752633E-03 -0.2582327493281E-02  0.0000000000000E+00 -0.1764993521252E-02
 0.3244740881893E-03 -0.2565521338930E-02  0.0000000000000E+00 -0.1852854345230E-02
 0.3045455902307E-03 -0.2544649085711E-02  0.0000000000000E+00 -0.1944307309435E-02
 0.2842746711282E-03 -0.2520184925703E-02  0.0000000000000E+00 -0.2039252985718E-02
 0.2654324536227E-03 -0.2492767365248E-02  0.0000000000000E+00 -0.2137043511178E-02
 0.2501264288185E-03 -0.2463234775759E-02  0.0000000000000E+00 -0.2236396912585E-02
 0.2408429108115E-03 -0.2432666394707E-02  0.0000000000000E+00 -0.2335307611553E-02
 0.2404858915662E-03 -0.2402414295910E-02  0.0000000000000E+00 -0.2430968063393E-02
 0.2524024328651E-03 -0.2374090479569E-02  0.0000000000000E+00 -0.2519724007993E-02
 0.2803953263759E-03 -0.2349606217317E-02  0.0000000000000E+00 -0.2597029849145E-02
 0.3287104964993E-03 -0.2331273693515E-02  0.0000000000000E+00 -0.2657418775748E-02
 0.4019803197601E-03 -0.2321844391577E-02  0.0000000000000E+00 -0.2694538506696E-02
 0.5051199659738E-03 -0.2324473126688E-02  0.0000000000000E+00 -0.2701295098007E-02
 0.6431722645521E-03 -0.2342626497396E-02  0.0000000000000E+00 -0.2670138186018E-02
 0.8210886388068E-03 -0.2379943527920E-02  0.0000000000000E+00 -0.2593515473847E-02
 0.1043423252041E-02 -0.2440038760968E-02  0.0000000000000E+00 -0.2464514280417E-02
 0.1313909709342E-02 -0.2526221279277E-02  0.0000000000000E+00 -0.2277680061003E-02
 0.1634936095871E-02 -0.2641142135374E-02  0.0000000000000E+00 -0.2029952721046E-02
 0.2006931305051E-02 -0.2786340327383E-02  0.0000000000000E+00 -0.1721575753601E-02
 0.2427559460446E-02 -0.2961580377073E-02  0.0000000000000E+00 -0.1356659376779E-02
 0.2890814187324E-02 -0.3164098398764E-02  0.0000000000000E+00 -0.9430120176888E-03
 0.3386355708570E-02 -0.3388030845077E-02  0.0000000000000E+00 -0.4909411667161E-03
 0.3899421961708E-02 -0.3624294861398E-02  0.0000000000000E+00 -0.1102633947685E-04
 0.4411591559238E-02 -0.3861180972335E-02  0.0000000000000E+00  0.4884566495398E-03
 0.4902002641928E-02 -0.4085331907668E-02  0.0000000000000E+00  0.1003319912436E-02
 0.2137157516087E-04 -0.2172774001764E-02  0.0000000000000E+00  0.3383514739231E-03
 0.6222630483332E-04 -0.2199314724929E-02  0.0000000000000E+00  0.8144237859795E-04
 0.1008232447682E-03 -0.2225617406666E-02  0.0000000000000E+00 -0.1480019155217E-03
 0.1379325321068E-03 -0.2252228978321E-02  0.0000000000000E+00 -0.3509507501032E-03
 0.1737832719569E-03 -0.2279248517796E-02  0.0000000000000E+00 -0.5296276450313E-03
 0.2081026948346E-03 -0.2306361475775E-02  0.0000000000000E+00 -0.6869214132360E-03
 0.2402608864385E-03 -0.2332959928734E-02  0.0000000000000E+00 -0.8259288664167E-03
 0.2694527039639E-03 -0.2358290419271E-02  0.0000000000000E+00 -0.9496766903742E-03
 0.2948620348711E-03 -0.2381583445166E-02  0.0000000000000E+00 -0.1060993868559E-02
 0.3157812684029E-03 -0.2402142895747E-02  0.0000000000000E+00 -0.1162479372389E-02
 0.3316823236006E-03 -0.2419393944750E-02  0.0000000000000E+00 -0.1256513190152E-02
 0.3422486869754E-03 -0.2432898738717E-02  0.0000000000000E+00 -0.1345275546605E-02
 0.3473822330298E-03 -0.2442352304977E-02  0.0000000000000E+00 -0.1430757345258E-02
 0.3471973653998E-03 -0.2447569464856E-02  0.0000000000000E+00 -0.1514756164401E-02
 0.3420118606214E-03 -0.2448470472580E-02  0.0000000000000E+00 -0.1598857747681E-02
 0.3323405222746E-03 -0.2445070191863E-02  0.0000000000000E+00 -0.1684404859156E-02
 0.3188950281420E-03 -0.2437473321962E-02  0.0000000000000E+00 -0.1772455071157E-02
 0.3025921288186E-03 -0.2425877165904E-02  0.0000000000000E+00 -0.1863725359494E-02
 0.2845699245466E-03 -0.2410581873436E-02  0.0000000000000E+00 -0.1958528268104E-02
 0.2662127661364E-03 -0.2392008547679E-02  0.0000000000000E+00 -0.2056696139650E-02
 0.2491841958128E-03 -0.2370725278873E-02  0.0000000000000E+00 -0.2157492827572E-02
 0.2354651852154E-03 -0.2347479423916E-02  0.0000000000000E+00 -0.2259523269605E-02
 0.2273961793694E-03 -0.2323235753409E-02  0.0000000000000E+00 -0.2360640143720E-02
 0.2277171327398E-03 -0.2299205966381E-02  0.0000000000000E+00 -0.2457862759605E-02
 0.2395958738206E-03 -0.2276832599505E-02  0.0000000000000E+00 -0.2547329824235E-02
 0.2666459471257E-03 -0.2257831080616E-02  0.0000000000000E+00 -0.2624257652131E-02
 0.3129221603916E-03 -0.2244300977592E-02  0.0000000000000E+00 -0.2682919614426E-02
 0.3828763915198E-03 -0.2238774452424E-02  0.0000000000000E+00 -0.2716692625932E-02
 0.4812728503080E-03 -0.2244193083064E-02  0.0000000000000E+00 -0.2718212737632E-02
 0.6130598871544E-03 -0.2263835784977E-02  0.0000000000000E+00 -0.2679676004039E-02
 0.7831860568919E-03 -0.2301207989945E-02  0.0000000000000E+00 -0.2593318009899E-02
 0.9963349984934E-03 -0.2359881759577E-02  0.0000000000000E+00 -0.2452098522373E-02
 0.1256540881495E-02 -0.2443254851863E-02  0.0000000000000E+00 -0.2250591725365E-02
 0.1566688596996E-02 -0.2554231826978E-02  0.0000000000000E+00 -0.1986031236579E-02
 0.1927888743840E-02 -0.2694776636397E-02  0.0000000000000E+00 -0.1659359857777E-02
 0.2338588591103E-02 -0.2865198814532E-02  0.0000000000000E+00 -0.1275936914304E-02
 0.2793493076439E-02 -0.3063272409294E-02  0.0000000000000E+00 -0.8454457037257E-03
 0.3282659220322E-02 -0.3283467942366E-02  0.0000000000000E+00 -0.3805653515959E-03
 0.3791198469373E-02 -0.3516647714660E-02  0.0000000000000E+00  0.1057334924374E-03
 0.4300065408987E-02 -0.3750678959704E-02  0.0000000000000E+00  0.6034658328822E-03
 0.4787537017554E-02 -0.3971656529614E-02  0.0000000000000E+00  0.1107624741154E-02
 0.1910304126489E-04 -0.2010840247110E-02  0.0000000000000E+00  0.3540262317012E-03
 0.5535005206498E-04 -0.2034649698943E-02  0.0000000000000E+00  0.9738070556584E-04
 0.8944196797402E-04 -0.2058477080230E-02  0.0000000000000E+00 -0.1312402025735E-03
 0.1224263077741E-03 -0.2083078661887E-02  0.0000000000000E+00 -0.3331354608497E-03
 0.1546933869624E-03 -0.2108671159017E-02  0.0000000000000E+00 -0.5108721710430E-03
 0.1860331637456E-03 -0.2134981517166E-02  0.0000000000000E+00 -0.6676101377438E-03
 0.2158137609743E-03 -0.2161395614092E-02  0.0000000000000E+00 -0.8066051035795E-03
 0.2431963870255E-03 -0.2187133179310E-02  0.0000000000000E+00 -0.9309345863069E-03
 0.2673224753088E-03 -0.2211395327846E-02  0.0000000000000E+00 -0.1043399004445E-02
 0.2874445558442E-03 -0.2233462268920E-02  0.0000000000000E+00 -0.1146523818372E-02
 0.3030002882448E-03 -0.2252742674468E-02  0.0000000000000E+00 -0.1242599089137E-02
 0.3136430472691E-03 -0.2268787533061E-02  0.0000000000000E+00 -0.1333717270682E-02
 0.3192457307433E-03 -0.2281283326935E-02  0.0000000000000E+00 -0.1421792976973E-02
 0.3198918321269E-03 -0.2290036424704E-02  0.0000000000000E+00 -0.1508561579480E-02
 0.3158636297956E-03 -0.2294956610462E-02  0.0000000000000E+00 -0.1595559149728E-02
 0.3076335339414E-03 -0.2296044346916E-02  0.0000000000000E+00 -0.1684087559713E-02
 0.2958617480320E-03 -0.2293383987573E-02  0.0000000000000E+00 -0.1775167530447E-02
 0.2814021517860E-03 -0.2287144023226E-02  0.0000000000000E+00 -0.1869478053411E-02
 0.2653161950855E-03 -0.2277584499337E-02  0.0000000000000E+00 -0.1967287398168E-02
 0.2488953449408E-03 -0.2265071755203E-02  0.0000000000000E+00 -0.2068372135974E-02
 0.2336918077321E-03 -0.2250100730274E-02  0.0000000000000E+00 -0.2171923641554E-02
 0.2215553049812E-03 -0.2233323845043E-02  0.0000000000000E+00 -0.2276452839001E-02
 0.2146748067930E-03 -0.2215586169066E-02  0.0000000000000E+00 -0.2379692590324E-02
 0.2156199400910E-03 -0.2197952403679E-02  0.0000000000000E+00 -0.2478512896968E-02
 0.2273726451673E-03 -0.2181687724877E-02  0.0000000000000E+00 -0.2568869251115E-02
 0.2533505226292E-03 -0.2168302673145E-02  0.0000000000000E+00 -0.2645761864209E-02
 0.2974106947560E-03 -0.2159673830072E-02  0.0000000000000E+00 -0.2703223092018E-02
 0.3638181941892E-03 -0.2158101933009E-02  0.0000000000000E+00 -0.2734371879621E-02
 0.4571804109445E-03 -0.2166301111744E-02  0.0000000000000E+00 -0.2731576070120E-02
 0.5823467578353E-03 -0.2187346396287E-02  0.0000000000000E+00 -0.2686761506493E-02
 0.7442621926310E-03 -0.2224592778926E-02  0.0000000000000E+00 -0.2591907669863E-02
 0.9477475188002E-03 -0.2281555923753E-02  0.0000000000000E+00 -0.2439767162425E-02
 0.1197161282525E-02 -0.2361717969923E-02  0.0000000000000E+00 -0.2224824387381E-02
 0.1495935240557E-02 -0.2468251778219E-02  0.0000000000000E+00 -0.1944457639110E-02
 0.1845947209194E-02 -0.2603590154001E-02  0.0000000000000E+00 -0.1600156998961E-02
 0.2246549707919E-02 -0.2768665978568E-02  0.0000000000000E+00 -0.1198427592487E-02
 0.2693299385577E-02 -0.2961895944549E-02  0.0000000000000E+00 -0.7508477202959E-03
 0.3176751008780E-02 -0.3178174791668E-02  0.0000000000000E+00 -0.2726870665020E-03
 0.3681853870351E-02 -0.3408293183632E-02  0.0000000000000E+00  0.2203168680879E-03
 0.4188749437768E-02 -0.3639534691209E-02  0.0000000000000E+00  0.7162450982457E-03
 0.4674776253949E-02 -0.3857378625290E-02  0.0000000000000E+00  0.1209373388669E-02
 0.1675762371797E-04 -0.1848466863430E-02  0.0000000000000E+00  0.3680329696528E-03
 0.4826431392423E-04 -0.1869466401688E-02  0.0000000000000E+00  0.1118131296386E-03
 0.7777311201218E-04 -0.1890780675333E-02  0.0000000000000E+00 -0.1156463760794E-03
 0.1066210451276E-03 -0.1913383971609E-02  0.0000000000000E+00 -0.3160431615038E-03
 0.1353520722145E-03 -0.1937604103021E-02  0.0000000000000E+00 -0.4923518655006E-03
 0.1637995958409E-03 -0.1963194447588E-02  0.0000000000000E+00 -0.6480465531588E-03
 0.1913082792073E-03 -0.1989518852989E-02  0.0000000000000E+00 -0.7865618442594E-03
 0.2169885193560E-03 -0.2015758711357E-02  0.0000000000000E+00 -0.9110289696242E-03
 0.2399288598772E-03 -0.2041080047656E-02  0.0000000000000E+00 -0.1024214175572E-02
 0.2593376523192E-03 -0.2064738574441E-02  0.0000000000000E+00 -0.1128561871022E-02
 0.2746182009726E-03 -0.2086128714850E-02  0.0000000000000E+00 -0.1226266106363E-02
 0.2853959449853E-03 -0.2104793936427E-02  0.0000000000000E+00 -0.1319327918747E-02
 0.2915177852218E-03 -0.2120416043574E-02  0.0000000000000E+00 -0.1409584206757E-02
 0.2930391788978E-03 -0.2132796421713E-02  0.0000000000000E+00 -0.1498708434015E-02
 0.2902091984106E-03 -0.2141837195253E-02  0.0000000000000E+00 -0.1588188719096E-02
 0.2834593662200E-03 -0.2147526517642E-02  0.0000000000000E+00 -0.1679289200920E-02
 0.2733990657031E-03 -0.2149929790649E-02  0.0000000000000E+00 -0.1772998650729E-02
 0.2608190943564E-03 -0.2149187409845E-02  0.0000000000000E+00 -0.1869965210549E-02
 0.2467031629296E-03 -0.2145519340792E-02  0.0000000000000E+00 -0.1970422773184E-02
 0.2322478568411E-03 -0.2139236412304E-02  0.0000000000000E+00 -0.2074105260258E-02
 0.2188910959403E-03 -0.2130758754293E-02  0.0000000000000E+00 -0.2180148184278E-02
 0.2083474232532E-03 -0.2120641106410E-02  0.0000000000000E+00 -0.2286988520880E-02
 0.2026494556553E-03 -0.2109604819064E-02  0.0000000000000E+00 -0.2392262425460E-02
 0.2041907724624E-03 -0.2098562145849E-02  0.0000000000000E+00 -0.2492715807104E-02
 0.2157610914557E-03 -0.2088594028541E-02  0.0000000000000E+00 -0.2584146327619E-02
 0.2405753362528E-03 -0.2080997839379E-02  0.0000000000000E+00 -0.2661361888746E-02
 0.2822858051993E-03 -0.2077417150993E-02  0.0000000000000E+00 -0.2718174857319E-02
 0.3449629298394E-03 -0.2079908814097E-02  0.0000000000000E+00 -0.2747461858375E-02
 0.4330487330393E-03 -0.2090943775237E-02  0.0000000000000E+00 -0.2741327720435E-02
 0.5512847628101E-03 -0.2113373687702E-02  0.0000000000000E+00 -0.2691414954264E-02
 0.7046050139825E-03 -0.2150380599378E-02  0.0000000000000E+00 -0.2589405292039E-02
 0.8979664653602E-03 -0.2205401540666E-02  0.0000000000000E+00 -0.2427763257176E-02
 0.1136066349789E-02 -0.2281988390054E-02  0.0000000000000E+00 -0.2200756557706E-02
 0.1422926040461E-02 -0.2383586811849E-02  0.0000000000000E+00 -0.1905739938472E-02
 0.1761276109785E-02 -0.2513136594072E-02  0.0000000000000E+00 -0.1544568161736E-02
 0.2151509109497E-02 -0.2672276070595E-02  0.0000000000000E+00 -0.1124753214706E-02
 0.2590205639178E-02 -0.2860187771621E-02  0.0000000000000E+00 -0.6597575098281E-03
 0.3068572171585E-02 -0.3072325642587E-02  0.0000000000000E+00 -0.1676770026891E-03
 0.3571384023299E-02 -0.3299428627710E-02  0.0000000000000E+00  0.3324597458785E-03
 0.4077684915239E-02 -0.3527948399274E-02  0.0000000000000E+00  0.8264386626604E-03
 0.4563762163539E-02 -0.3742610936046E-02  0.0000000000000E+00  0.1308208855707E-02
 0.1431495183591E-04 -0.1685599559782E-02  0.0000000000000E+00  0.3803058770801E-03
 0.4091293292589E-04 -0.1703688494408E-02  0.0000000000000E+00  0.1246969704302E-03
 0.6573649168475E-04 -0.1722437902429E-02  0.0000000000000E+00 -0.1012275172325E-03
 0.9042527753411E-04 -0.1743049264333E-02  0.0000000000000E+00 -0.2996459183755E-03
 0.1156662151380E-03 -0.1765952314415E-02  0.0000000000000E+00 -0.4740135412370E-03
 0.1413121927882E-03 -0.1790908115167E-02  0.0000000000000E+00 -0.6281646452406E-03
 0.1666589913563E-03 -0.1817239780834E-02  0.0000000000000E+00 -0.7657301621301E-03
 0.1907468434473E-03 -0.1844077478093E-02  0.0000000000000E+00 -0.8898932969354E-03
 0.2126003177505E-03 -0.1870546283753E-02  0.0000000000000E+00 -0.1003376272322E-02
 0.2313794989439E-03 -0.1895877033742E-02  0.0000000000000E+00 -0.1108532124668E-02
 0.2464537637770E-03 -0.1919452684076E-02  0.0000000000000E+00 -0.1207451510592E-02
 0.2574232837387E-03 -0.1940813208726E-02  0.0000000000000E+00 -0.1302040137475E-02
 0.2641123065429E-03 -0.1959639829272E-02  0.0000000000000E+00 -0.1394056043546E-02
 0.2665513947972E-03 -0.1975732557048E-02  0.0000000000000E+00 -0.1485111567882E-02
 0.2649589529129E-03 -0.1988988815205E-02  0.0000000000000E+00 -0.1576649095314E-02
 0.2597274171577E-03 -0.1999386778239E-02  0.0000000000000E+00 -0.1669898632957E-02
 0.2514164030640E-03 -0.2006974677790E-02  0.0000000000000E+00 -0.1765822284888E-02
 0.2407539429600E-03 -0.2011866103886E-02  0.0000000000000E+00 -0.1865044835674E-02
 0.2286455826023E-03 -0.2014241739683E-02  0.0000000000000E+00 -0.1967776091800E-02
 0.2161918051373E-03 -0.2014357125200E-02  0.0000000000000E+00 -0.2073720944766E-02
 0.2047141405489E-03 -0.2012557058742E-02  0.0000000000000E+00 -0.2181976328702E-02
 0.1957888795001E-03 -0.2009297111921E-02  0.0000000000000E+00 -0.2290926219258E-02
 0.1912881945482E-03 -0.2005172211417E-02  0.0000000000000E+00 -0.2398134301402E-02
 0.1934245368104E-03 -0.2000938002565E-02  0.0000000000000E+00 -0.2500248997483E-02
 0.2047894750441E-03 -0.1997485484422E-02  0.0000000000000E+00 -0.2592937184850E-02
 0.2283886048628E-03 -0.1995891521992E-02  0.0000000000000E+00 -0.2670840269303E-02
 0.2676618543396E-03 -0.1997557238421E-02  0.0000000000000E+00 -0.2727574284607E-02
 0.3264760875967E-03 -0.2004283074741E-02  0.0000000000000E+00 -0.2755792720242E-02
 0.4090969140377E-03 -0.2018279868018E-02  0.0000000000000E+00 -0.2747347170972E-02
 0.5201446738530E-03 -0.2042153384995E-02  0.0000000000000E+00 -0.2693589027594E-02
 0.6645280963790E-03 -0.2078884557481E-02  0.0000000000000E+00 -0.2585865447203E-02
 0.8473296506555E-03 -0.2131800599695E-02  0.0000000000000E+00 -0.2416273555218E-02
 0.1073588154354E-02 -0.2204496459815E-02  0.0000000000000E+00 -0.2178731166885E-02
 0.1347946967835E-02 -0.2300682107633E-02  0.0000000000000E+00 -0.1870382389206E-02
 0.1674072208420E-02 -0.2423832635918E-02  0.0000000000000E+00 -0.1493227640087E-02
 0.2053543001804E-02 -0.2576376669433E-02  0.0000000000000E+00 -0.1055602818274E-02
 0.2484166691561E-02 -0.2758399586646E-02  0.0000000000000E+00 -0.5727988983343E-03
 0.2958026464321E-02 -0.2966098785324E-02  0.0000000000000E+00 -0.6594249007391E-04
 0.3459787363804E-02 -0.3190281975553E-02  0.0000000000000E+00  0.4419437910160E-03
 0.3966956139680E-02 -0.3416214206675E-02  0.0000000000000E+00  0.9336210511050E-03
 0.4454469502689E-02 -0.3627464119752E-02  0.0000000000000E+00  0.1403601602529E-02
 0.1175237980710E-04 -0.1522182821099E-02  0.0000000000000E+00  0.3907626572316E-03
 0.3323405126862E-04 -0.1537236373283E-02  0.0000000000000E+00  0.1359778094415E-03
 0.5324524379218E-04 -0.1553354823996E-02  0.0000000000000E+00 -0.8799598984791E-04
 0.7374208018539E-04 -0.1571976276862E-02  0.0000000000000E+00 -0.2839159138689E-03
 0.9553949165575E-04 -0.1593619653190E-02  0.0000000000000E+00 -0.4558018380592E-03
 0.1184800032286E-03 -0.1618030354670E-02  0.0000000000000E+00 -0.6078965738893E-03
 0.1417805102893E-03 -0.1644468794035E-02  0.0000000000000E+00 -0.7440410507190E-03
 0.1643894843415E-03 -0.1671999757573E-02  0.0000000000000E+00 -0.8674629232369E-03
 0.1852560522874E-03 -0.1699701676335E-02  0.0000000000000E+00 -0.9808256721575E-03
 0.2034884940544E-03 -0.1726780862086E-02  0.0000000000000E+00 -0.1086377735760E-02
 0.2184234448490E-03 -0.1752612294351E-02  0.0000000000000E+00 -0.1186097829353E-02
 0.2296390927141E-03 -0.1776736938334E-02  0.0000000000000E+00 -0.1281792332237E-02
 0.2369407827129E-03 -0.1798839750332E-02  0.0000000000000E+00 -0.1375139676392E-02
 0.2403375897086E-03 -0.1818723079273E-02  0.0000000000000E+00 -0.1467692370458E-02
 0.2400200137567E-03 -0.1836282710397E-02  0.0000000000000E+00 -0.1560849730985E-02
 0.2363434806102E-03 -0.1851489372136E-02  0.0000000000000E+00 -0.1655811564316E-02
 0.2298192737072E-03 -0.1864376272498E-02  0.0000000000000E+00 -0.1753518818500E-02
 0.2211135035783E-03 -0.1875032052672E-02  0.0000000000000E+00 -0.1854580591964E-02
 0.2110538017426E-03 -0.1883599698708E-02  0.0000000000000E+00 -0.1959193098674E-02
 0.2006441364425E-03 -0.1890280689595E-02  0.0000000000000E+00 -0.2067046131646E-02
 0.1910884388303E-03 -0.1895345168399E-02  0.0000000000000E+00 -0.2177215833797E-02
 0.1838225876557E-03 -0.1899149393380E-02  0.0000000000000E+00 -0.2288054887002E-02
 0.1805550775147E-03 -0.1902160582705E-02  0.0000000000000E+00 -0.2397079794786E-02
 0.1833128738112E-03 -0.1904975032347E-02  0.0000000000000E+00 -0.2500869476027E-02
 0.1944839847627E-03 -0.1908289415805E-02  0.0000000000000E+00 -0.2594988792869E-02
 0.2168582586792E-03 -0.1912953902483E-02  0.0000000000000E+00 -0.2673940653456E-02
 0.2536555120124E-03 -0.1920118591181E-02  0.0000000000000E+00 -0.2731171383627E-02
 0.3085291461821E-03 -0.1931315308251E-02  0.0000000000000E+00 -0.2759134704239E-02
 0.3855551237644E-03 -0.1948477128899E-02  0.0000000000000E+00 -0.2749444496077E-02
 0.4892150467786E-03 -0.1973938871451E-02  0.0000000000000E+00 -0.2693160460744E-02
 0.6243710010164E-03 -0.2010446755131E-02  0.0000000000000E+00 -0.2581265994662E-02
 0.7962097219726E-03 -0.2061177634205E-02  0.0000000000000E+00 -0.2405416613720E-02
 0.1010100752393E-02 -0.2129729214772E-02  0.0000000000000E+00 -0.2159044444617E-02
 0.1271328486257E-02 -0.2220050874928E-02  0.0000000000000E+00 -0.1838877249964E-02
 0.1584568410124E-02 -0.2336167528132E-02  0.0000000000000E+00 -0.1446805249317E-02
 0.1952746908009E-02 -0.2481378489238E-02  0.0000000000000E+00 -0.9917376378199E-03
 0.2375124486216E-02 -0.2656834559078E-02  0.0000000000000E+00 -0.4907115541624E-03
 0.2844957024627E-02 -0.2859660546834E-02  0.0000000000000E+00  0.3202941430536E-04
 0.3347045258127E-02 -0.3081076095832E-02  0.0000000000000E+00  0.5486746988609E-03
 0.3856781298265E-02 -0.3304800342922E-02  0.0000000000000E+00  0.1037376121784E-02
 0.4346697060535E-02 -0.3512062905371E-02  0.0000000000000E+00  0.1494599438490E-02
 0.9044526642318E-05 -0.1358159792844E-02  0.0000000000000E+00  0.3993026722160E-03
 0.2515904607040E-04 -0.1370026780512E-02  0.0000000000000E+00  0.1455887264476E-03
 0.4020477985347E-04 -0.1383433538354E-02  0.0000000000000E+00 -0.7596898052862E-04
 0.5646849502954E-04 -0.1400064189958E-02  0.0000000000000E+00 -0.2688243041047E-03
 0.7487236019592E-04 -0.1420509328230E-02  0.0000000000000E+00 -0.4376582527958E-03
 0.9521127124757E-04 -0.1444469598092E-02  0.0000000000000E+00 -0.5871723669909E-03
 0.1165879476769E-03 -0.1471117104698E-02  0.0000000000000E+00 -0.7214257727041E-03
 0.1378353094496E-03 -0.1499436041851E-02  0.0000000000000E+00 -0.8436758481213E-03
 0.1578155795407E-03 -0.1528453080200E-02  0.0000000000000E+00 -0.9565071009711E-03
 0.1755826380313E-03 -0.1557351439937E-02  0.0000000000000E+00 -0.1062047220304E-02
 0.1904425762218E-03 -0.1585502504146E-02  0.0000000000000E+00 -0.1162153515775E-02
 0.2019556119666E-03 -0.1612453213787E-02  0.0000000000000E+00 -0.1258529210669E-02
 0.2099123663422E-03 -0.1637896766901E-02  0.0000000000000E+00 -0.1352772934910E-02
 0.2143040768641E-03 -0.1661641605271E-02  0.0000000000000E+00 -0.1446379204507E-02
 0.2152962940888E-03 -0.1683584986305E-02  0.0000000000000E+00 -0.1540707319622E-02
 0.2132097513737E-03 -0.1703692881362E-02  0.0000000000000E+00 -0.1636931023293E-02
 0.2085091976849E-03 -0.1721985955279E-02  0.0000000000000E+00 -0.1735975681747E-02
 0.2018001843271E-03 -0.1738530311402E-02  0.0000000000000E+00 -0.1838442364746E-02
 0.1938333669290E-03 -0.1753433620737E-02  0.0000000000000E+00 -0.1944524182837E-02
 0.1855166255776E-03 -0.1766845569501E-02  0.0000000000000E+00 -0.2053909867143E-02
 0.1779360291348E-03 -0.1778963582438E-02  0.0000000000000E+00 -0.2165672872873E-02
 0.1723858666203E-03 -0.1790045890230E-02  0.0000000000000E+00 -0.2278156903976E-02
 0.1704086589197E-03 -0.1800432252278E-02  0.0000000000000E+00 -0.2388857527682E-02
 0.1738423475798E-03 -0.1810558435470E-02  0.0000000000000E+00 -0.2494313481193E-02
 0.1848666080675E-03 -0.1820923907523E-02  0.0000000000000E+00 -0.2590018126420E-02
 0.2060495304104E-03 -0.1832147337805E-02  0.0000000000000E+00 -0.2670366160659E-02
 0.2403831428379E-03 -0.1845120417091E-02  0.0000000000000E+00 -0.2728664050035E-02
 0.2912969215039E-03 -0.1861094924647E-02  0.0000000000000E+00 -0.2757193837116E-02
 0.3626622097538E-03 -0.1881708394126E-02  0.0000000000000E+00 -0.2747353998017E-02
 0.4588005739014E-03 -0.1908997769033E-02  0.0000000000000E+00 -0.2689921080239E-02
 0.5844991581939E-03 -0.1945436094028E-02  0.0000000000000E+00 -0.2575496216669E-02
 0.7450164273952E-03 -0.1993999895559E-02  0.0000000000000E+00 -0.2395228612480E-02
 0.9460261760633E-03 -0.2058234228823E-02  0.0000000000000E+00 -0.2141930861713E-02
 0.1193453973195E-02 -0.2142282964547E-02  0.0000000000000E+00 -0.1811694465671E-02
 0.1493048753848E-02 -0.2250715595100E-02  0.0000000000000E+00 -0.1405998565609E-02
 0.1849237014036E-02 -0.2387773535341E-02  0.0000000000000E+00 -0.9340183038757E-03
 0.2263039488818E-02 -0.2555847581820E-02  0.0000000000000E+00 -0.4143157046799E-03
 0.2729103451389E-02 -0.2753240306925E-02  0.0000000000000E+00  0.1254643258117E-03
 0.3233059231281E-02 -0.2971783050253E-02  0.0000000000000E+00  0.6528803533812E-03
 0.3747645083777E-02 -0.3194639934441E-02  0.0000000000000E+00  0.1137473756740E-02
 0.4240078529765E-02 -0.3396415127240E-02  0.0000000000000E+00  0.1579515102446E-02
 0.6162699171110E-05 -0.1193472040914E-02  0.0000000000000E+00  0.4058048115087E-03
 0.1661124702731E-04 -0.1201972439047E-02  0.0000000000000E+00  0.1534494994481E-03
 0.2651155518982E-04 -0.1212571723246E-02  0.0000000000000E+00 -0.6516788896265E-04
 0.3849492426102E-04 -0.1227209755132E-02  0.0000000000000E+00 -0.2543396995473E-03
 0.5356217288184E-04 -0.1246524446212E-02  0.0000000000000E+00 -0.4195200250159E-03
 0.7141391567140E-04 -0.1270135545743E-02  0.0000000000000E+00 -0.5659196606310E-03
 0.9099743264280E-04 -0.1297097265328E-02  0.0000000000000E+00 -0.6978163769323E-03
 0.1110043017313E-03 -0.1326297320394E-02  0.0000000000000E+00 -0.8184736293032E-03
 0.1301989320451E-03 -0.1356706650737E-02  0.0000000000000E+00 -0.9303705994562E-03
 0.1475796225269E-03 -0.1387488296763E-02  0.0000000000000E+00 -0.1035495286098E-02
 0.1624253946328E-03 -0.1418015482346E-02  0.0000000000000E+00 -0.1135573602075E-02
 0.1742833290337E-03 -0.1447846614118E-02  0.0000000000000E+00 -0.1232202292510E-02
 0.1829339230926E-03 -0.1476687760598E-02  0.0000000000000E+00 -0.1326900717892E-02
 0.1883544267946E-03 -0.1504357171873E-02  0.0000000000000E+00 -0.1421107815123E-02
 0.1906885376719E-03 -0.1530756660826E-02  0.0000000000000E+00 -0.1516146235415E-02
 0.1902248154149E-03 -0.1555850230245E-02  0.0000000000000E+00 -0.1613167866035E-02
 0.1873836050027E-03 -0.1579648777234E-02  0.0000000000000E+00 -0.1713087949749E-02
 0.1827117674636E-03 -0.1602198812243E-02  0.0000000000000E+00 -0.1816506962663E-02
 0.1768846157193E-03 -0.1623575872144E-02  0.0000000000000E+00 -0.1923625168881E-02
 0.1707152385725E-03 -0.1643881188934E-02  0.0000000000000E+00 -0.2034144148161E-02
 0.1651725792695E-03 -0.1663242727967E-02  0.0000000000000E+00 -0.2147152874522E-02
 0.1614092156642E-03 -0.1681823502350E-02  0.0000000000000E+00 -0.2261008825062E-02
 0.1608004270494E-03 -0.1699837719720E-02  0.0000000000000E+00 -0.2373213709576E-02
 0.1649925192547E-03 -0.1717561152210E-02  0.0000000000000E+00 -0.2480296674976E-02
 0.1759528392426E-03 -0.1735294873620E-02  0.0000000000000E+00 -0.2577711822285E-02
 0.1960223134143E-03 -0.1753422884222E-02  0.0000000000000E+00 -0.2659778248062E-02
 0.2279578682948E-03 -0.1772572631732E-02  0.0000000000000E+00 -0.2719695779528E-02
 0.2749544611480E-03 -0.1793705706395E-02  0.0000000000000E+00 -0.2749607991372E-02
 0.3406626837436E-03 -0.1818146918090E-02  0.0000000000000E+00 -0.2740727940067E-02
 0.4292196636440E-03 -0.1847607467387E-02  0.0000000000000E+00 -0.2683568425219E-02
 0.5453028195933E-03 -0.1884244838152E-02  0.0000000000000E+00 -0.2568343703532E-02
 0.6941982989789E-03 -0.1930776283672E-02  0.0000000000000E+00 -0.2385646465857E-02
 0.8818394857376E-03 -0.1990622620774E-02  0.0000000000000E+00 -0.2127544643341E-02
 0.1114771581047E-02 -0.2068053632327E-02  0.0000000000000E+00 -0.1789263757834E-02
 0.1399855818518E-02 -0.2168150851131E-02  0.0000000000000E+00 -0.1371531098362E-02
 0.1743188985632E-02 -0.2296153781462E-02  0.0000000000000E+00 -0.8833865994327E-03
 0.2147812451000E-02 -0.2455868906140E-02  0.0000000000000E+00 -0.3446462164614E-03
 0.2610393805456E-02 -0.2647103877341E-02  0.0000000000000E+00  0.2136965417995E-03
 0.3116843323790E-02 -0.2862440588328E-02  0.0000000000000E+00  0.7534340443185E-03
 0.3641661956152E-02 -0.3085500274004E-02  0.0000000000000E+00  0.1237869255089E-02
 0.4131533533574E-02 -0.3284039506689E-02  0.0000000000000E+00  0.1650327411454E-02
 0.3076093479890E-05 -0.1028055655580E-02  0.0000000000000E+00  0.4101347887416E-03
 0.7504082885422E-05 -0.1032960971047E-02  0.0000000000000E+00  0.1594716575599E-03
 0.1204920562202E-04 -0.1040628285031E-02  0.0000000000000E+00 -0.5560778976014E-04
 0.1969987407125E-04 -0.1053259285420E-02  0.0000000000000E+00 -0.2404149084095E-03
 0.3149597655927E-04 -0.1071506244922E-02  0.0000000000000E+00 -0.4013044419973E-03
 0.4698589173985E-04 -0.1094863412010E-02  0.0000000000000E+00 -0.5440458424591E-03
 0.6491359352947E-04 -0.1122233423812E-02  0.0000000000000E+00 -0.6731253036986E-03
 0.8380204245438E-04 -0.1152391677329E-02  0.0000000000000E+00 -0.7917779783917E-03
 0.1023082705763E-03 -0.1184251371062E-02  0.0000000000000E+00 -0.9023448337732E-03
 0.1193758428369E-03 -0.1216960302413E-02  0.0000000000000E+00 -0.1006652835788E-02
 0.1342617937369E-03 -0.1249900285504E-02  0.0000000000000E+00 -0.1106286536479E-02
 0.1465058516170E-03 -0.1282647273707E-02  0.0000000000000E+00 -0.1202733780913E-02
 0.1558834463038E-03 -0.1314924985060E-02  0.0000000000000E+00 -0.1297436094252E-02
 0.1623618897206E-03 -0.1346565184074E-02  0.0000000000000E+00 -0.1391779827874E-02
 0.1660662557959E-03 -0.1377477345852E-02  0.0000000000000E+00 -0.1487054570972E-02
 0.1672556361723E-03 -0.1407626460732E-02  0.0000000000000E+00 -0.1584394484278E-02
 0.1663084116682E-03 -0.1437016807559E-02  0.0000000000000E+00 -0.1684709855187E-02
 0.1637150908359E-03 -0.1465678867488E-02  0.0000000000000E+00 -0.1788607592861E-02
 0.1600779152655E-03 -0.1493660110037E-02  0.0000000000000E+00 -0.1896304952308E-02
 0.1561172676045E-03 -0.1521017808101E-02  0.0000000000000E+00 -0.2007529977666E-02
 0.1526865852824E-03 -0.1547815126541E-02  0.0000000000000E+00 -0.2121405344378E-02
 0.1507974984222E-03 -0.1574124247892E-02  0.0000000000000E+00 -0.2236325427361E-02
 0.1516575595643E-03 -0.1600037395837E-02  0.0000000000000E+00 -0.2349825999788E-02
 0.1567194228520E-03 -0.1625672527229E-02  0.0000000000000E+00 -0.2458458538024E-02
 0.1677344806890E-03 -0.1651132663769E-02  0.0000000000000E+00 -0.2557671905290E-02
 0.1868112542357E-03 -0.1676565365552E-02  0.0000000000000E+00 -0.2641744554906E-02
 0.2164641987586E-03 -0.1702329285459E-02  0.0000000000000E+00 -0.2703806292076E-02
 0.2596426937531E-03 -0.1729086736918E-02  0.0000000000000E+00 -0.2735900679834E-02
 0.3197590991511E-03 -0.1757833076261E-02  0.0000000000000E+00 -0.2729093432223E-02
 0.4007385559252E-03 -0.1789924938193E-02  0.0000000000000E+00 -0.2673664930592E-02
 0.5071075228875E-03 -0.1827157976042E-02  0.0000000000000E+00 -0.2559454062842E-02
 0.6441236872036E-03 -0.1871921911793E-02  0.0000000000000E+00 -0.2376465355436E-02
 0.8179159709024E-03 -0.1927423935068E-02  0.0000000000000E+00 -0.2115911214877E-02
 0.1035599269070E-02 -0.1997962865593E-02  0.0000000000000E+00 -0.1771917366577E-02
 0.1305164591920E-02 -0.2089065615438E-02  0.0000000000000E+00 -0.1344074544561E-02
 0.1634517810426E-02 -0.2206996475710E-02  0.0000000000000E+00 -0.8407917775358E-03
 0.2029123002266E-02 -0.2357174265122E-02  0.0000000000000E+00 -0.2827207831490E-03
 0.2487941834629E-02 -0.2541218306009E-02  0.0000000000000E+00  0.2958713272466E-03
 0.2998771625541E-02 -0.2753048201749E-02  0.0000000000000E+00  0.8502202041709E-03
 0.3532731922322E-02 -0.2975645481005E-02  0.0000000000000E+00  0.1337507396542E-02
 0.4045551336571E-02 -0.3178259571769E-02  0.0000000000000E+00  0.1719170200335E-02
-0.2561110921402E-06 -0.8618486416460E-03  0.0000000000000E+00  0.4120992215524E-03
-0.2262062447804E-05 -0.8628937319222E-03  0.0000000000000E+00  0.1635329622864E-03
-0.3310442416756E-05 -0.8674902114275E-03  0.0000000000000E+00 -0.4732751018673E-04
-0.4319587785639E-07 -0.8781049035169E-03  0.0000000000000E+00 -0.2270204374258E-03
 0.8563798144943E-05 -0.8953594200419E-03  0.0000000000000E+00 -0.3829488971688E-03
 0.2183453592938E-04 -0.9185673544127E-03  0.0000000000000E+00 -0.5214856118108E-03
 0.3825452762983E-04 -0.9464418517575E-03  0.0000000000000E+00 -0.6473000321027E-03
 0.5615004750679E-04 -0.9776310610797E-03  0.0000000000000E+00 -0.7635515099467E-03
 0.7406343555793E-04 -0.1010991214968E-02  0.0000000000000E+00 -0.8724030029931E-03
 0.9088694656474E-04 -0.1045662191598E-02  0.0000000000000E+00 -0.9754973249055E-03
 0.1058624737694E-03 -0.1081042416279E-02  0.0000000000000E+00 -0.1074268472011E-02
 0.1185290499805E-03 -0.1116731820525E-02  0.0000000000000E+00 -0.1170094357928E-02
 0.1286623857971E-03 -0.1152476412403E-02  0.0000000000000E+00 -0.1264341216401E-02
 0.1362239394948E-03 -0.1188124899499E-02  0.0000000000000E+00 -0.1358346399212E-02
 0.1413233901116E-03 -0.1223597318339E-02  0.0000000000000E+00 -0.1453370139457E-02
 0.1441931593653E-03 -0.1258862573820E-02  0.0000000000000E+00 -0.1550532757933E-02
 0.1451723640158E-03 -0.1293921683974E-02  0.0000000000000E+00 -0.1650744256947E-02
 0.1446979674163E-03 -0.1328793150470E-02  0.0000000000000E+00 -0.1754624347443E-02
 0.1433021160377E-03 -0.1363501242581E-02  0.0000000000000E+00 -0.1862416413567E-02
 0.1416155111802E-03 -0.1398064908798E-02  0.0000000000000E+00 -0.1973887980595E-02
 0.1403788353799E-03 -0.1432488647465E-02  0.0000000000000E+00 -0.2088213296328E-02
 0.1404647751909E-03 -0.1466759962337E-02  0.0000000000000E+00 -0.2203846900100E-02
 0.1429139140044E-03 -0.1500854634802E-02  0.0000000000000E+00 -0.2318387250762E-02
 0.1489844058387E-03 -0.1534737083181E-02  0.0000000000000E+00 -0.2428441355258E-02
 0.1602091320513E-03 -0.1568314771507E-02  0.0000000000000E+00 -0.2529488695023E-02
 0.1784599801563E-03 -0.1601499255352E-02  0.0000000000000E+00 -0.2615804540570E-02
 0.2060025604706E-03 -0.1634378176265E-02  0.0000000000000E+00 -0.2680488982759E-02
 0.2455304607967E-03 -0.1667307926711E-02  0.0000000000000E+00 -0.2715529830755E-02
 0.3002005864627E-03 -0.1700939982738E-02  0.0000000000000E+00 -0.2711892709405E-02
 0.3736972924858E-03 -0.1736249063735E-02  0.0000000000000E+00 -0.2659671001797E-02
 0.4703502668333E-03 -0.1774621803003E-02  0.0000000000000E+00 -0.2548360123308E-02
 0.5953217920149E-03 -0.1818045798778E-02  0.0000000000000E+00 -0.2367371142384E-02
 0.7548508171991E-03 -0.1869408796014E-02  0.0000000000000E+00 -0.2106976645319E-02
 0.9565395419044E-03 -0.1932910763976E-02  0.0000000000000E+00 -0.1759980014445E-02
 0.1209479430500E-02 -0.2014411710947E-02  0.0000000000000E+00 -0.1324415620645E-02
 0.1523521460610E-02 -0.2121185896979E-02  0.0000000000000E+00 -0.8074660199817E-03
 0.1906877235151E-02 -0.2260439352135E-02  0.0000000000000E+00 -0.2299883395745E-03
 0.2361632134196E-02 -0.2436020393578E-02  0.0000000000000E+00  0.3705136098080E-03
 0.2877240693346E-02 -0.2643584679420E-02  0.0000000000000E+00  0.9428899060620E-03
 0.3425283421862E-02 -0.2865716434907E-02  0.0000000000000E+00  0.1432645426620E-02
 0.3956904191082E-02 -0.3073002566933E-02  0.0000000000000E+00  0.1801804124618E-02
-0.3876387771060E-05 -0.6947918463658E-03  0.0000000000000E+00  0.4115054242334E-03
-0.1279845809602E-04 -0.6916858160816E-03  0.0000000000000E+00  0.1655097946974E-03
-0.1970424023765E-04 -0.6930734416638E-03  0.0000000000000E+00 -0.4034837783198E-04
-0.2086128112014E-04 -0.7016865742060E-03  0.0000000000000E+00 -0.2141026752465E-03
-0.1533536425168E-04 -0.7180547803000E-03  0.0000000000000E+00 -0.3643708863551E-03
-0.4117206123009E-05 -0.7412428748895E-03  0.0000000000000E+00 -0.4981638160306E-03
 0.1095747008502E-04 -0.7697326577549E-03  0.0000000000000E+00 -0.6202883185465E-03
 0.2799058606696E-04 -0.8020323637306E-03  0.0000000000000E+00 -0.7337647524573E-03
 0.4540596389266E-04 -0.8369458657898E-03  0.0000000000000E+00 -0.8405314450090E-03
 0.6205119082194E-04 -0.8736151746234E-03  0.0000000000000E+00 -0.9420232589954E-03
 0.7716175181509E-04 -0.9114644680482E-03  0.0000000000000E+00 -0.1039516215321E-02
 0.9028337838755E-04 -0.9501240963827E-03  0.0000000000000E+00 -0.1134279225742E-02
 0.1011974995450E-03 -0.9893665083676E-03  0.0000000000000E+00 -0.1227607083590E-02
 0.1098636542386E-03 -0.1029060204704E-02  0.0000000000000E+00 -0.1320792293621E-02
 0.1163792114946E-03 -0.1069138225741E-02  0.0000000000000E+00 -0.1415069417249E-02
 0.1209527147930E-03 -0.1109576077486E-02  0.0000000000000E+00 -0.1511548375306E-02
 0.1238869195222E-03 -0.1150374898505E-02  0.0000000000000E+00 -0.1611142799266E-02
 0.1255685147152E-03 -0.1191545590308E-02  0.0000000000000E+00 -0.1714490596257E-02
 0.1264632914806E-03 -0.1233094773142E-02  0.0000000000000E+00 -0.1821869318784E-02
 0.1271163796435E-03 -0.1275009794146E-02  0.0000000000000E+00 -0.1933097920201E-02
 0.1281598483080E-03 -0.1317244137880E-02  0.0000000000000E+00 -0.2047419247624E-02
 0.1303310664966E-03 -0.1359708709028E-02  0.0000000000000E+00 -0.2163370865533E-02
 0.1345061550964E-03 -0.1402270659322E-02  0.0000000000000E+00 -0.2278642714120E-02
 0.1417497124409E-03 -0.1444747682950E-02  0.0000000000000E+00 -0.2389931329783E-02
 0.1533753780079E-03 -0.1486856931715E-02  0.0000000000000E+00 -0.2492784057030E-02
 0.1710161279763E-03 -0.1528277400862E-02  0.0000000000000E+00 -0.2581512520313E-02
 0.1966845287361E-03 -0.1568826913296E-02  0.0000000000000E+00 -0.2649230696235E-02
 0.2328105014012E-03 -0.1608553197139E-02  0.0000000000000E+00 -0.2687920397888E-02
 0.2822804367941E-03 -0.1647753737122E-02  0.0000000000000E+00 -0.2688503618870E-02
 0.3485102445497E-03 -0.1686998258883E-02  0.0000000000000E+00 -0.2640947212769E-02
 0.4355853202875E-03 -0.1727220022160E-02  0.0000000000000E+00 -0.2534458628661E-02
 0.5484972388151E-03 -0.1769927991650E-02  0.0000000000000E+00 -0.2357884254353E-02
 0.6934890291826E-03 -0.1817571853567E-02  0.0000000000000E+00 -0.2100514277441E-02
 0.8785271924767E-03 -0.1874092803845E-02  0.0000000000000E+00 -0.1753639816192E-02
 0.1113722113968E-02 -0.1945516348884E-02  0.0000000000000E+00 -0.1313311719369E-02
 0.1410932023569E-02 -0.2040045005597E-02  0.0000000000000E+00 -0.7847716382211E-03
 0.1781525618700E-02 -0.2166813809082E-02  0.0000000000000E+00 -0.1883102908427E-03
 0.2231313649361E-02 -0.2332364762271E-02  0.0000000000000E+00  0.4359426032882E-03
 0.2752716820576E-02 -0.2534568119521E-02  0.0000000000000E+00  0.1029026534135E-02
 0.3316792489682E-02 -0.2756566967044E-02  0.0000000000000E+00  0.1526134120392E-02
 0.3871704286723E-02 -0.2964831917501E-02  0.0000000000000E+00  0.1877743835176E-02
-0.7836115691584E-05 -0.5268192019664E-03  0.0000000000000E+00  0.4081149310385E-03
-0.2423538456755E-04 -0.5192236521656E-03  0.0000000000000E+00  0.1652588854107E-03
-0.3728934980974E-04 -0.5172540178982E-03  0.0000000000000E+00 -0.3469069294975E-04
-0.4289545391637E-04 -0.5238966502085E-03  0.0000000000000E+00 -0.2015953194319E-03
-0.4031119309008E-04 -0.5395062315830E-03  0.0000000000000E+00 -0.3454764706389E-03
-0.3095379996709E-04 -0.5628154841080E-03  0.0000000000000E+00 -0.4739999023732E-03
-0.1705029003273E-04 -0.5920302842956E-03  0.0000000000000E+00 -0.5920368331193E-03
-0.7482848893466E-06 -0.6255107365137E-03  0.0000000000000E+00 -0.7023876450657E-03
 0.1625882865906E-04 -0.6620182271802E-03  0.0000000000000E+00 -0.8067135799630E-03
 0.3278457800111E-04 -0.7007101419236E-03  0.0000000000000E+00 -0.9062187774172E-03
 0.4806879090657E-04 -0.7410466024010E-03  0.0000000000000E+00 -0.1002016844241E-02
 0.6167192689949E-04 -0.7826946326026E-03  0.0000000000000E+00 -0.1095271115745E-02
 0.7338653395506E-04 -0.8254566455344E-03  0.0000000000000E+00 -0.1187210197154E-02
 0.8317392783606E-04 -0.8692231570602E-03  0.0000000000000E+00 -0.1279086352991E-02
 0.9112205365337E-04 -0.9139422093864E-03  0.0000000000000E+00 -0.1372111952062E-02
 0.9741831726701E-04 -0.9595983970024E-03  0.0000000000000E+00 -0.1467389308149E-02
 0.1023321646695E-03 -0.1006196429302E-02  0.0000000000000E+00 -0.1565838634992E-02
 0.1062036694443E-03 -0.1053744351943E-02  0.0000000000000E+00 -0.1668120232399E-02
 0.1094366713014E-03 -0.1102237394676E-02  0.0000000000000E+00 -0.1774552511507E-02
 0.1124958043812E-03 -0.1151639132201E-02  0.0000000000000E+00 -0.1885016447400E-02
 0.1159099164292E-03 -0.1201861227249E-02  0.0000000000000E+00 -0.1998839384460E-02
 0.1202861347054E-03 -0.1252748011560E-02  0.0000000000000E+00 -0.2114664122068E-02
 0.1263401380704E-03 -0.1304068083073E-02  0.0000000000000E+00 -0.2230300876267E-02
 0.1349453825375E-03 -0.1355501693347E-02  0.0000000000000E+00 -0.2342570371177E-02
 0.1471969485199E-03 -0.1406583506308E-02  0.0000000000000E+00 -0.2447126260483E-02
 0.1644881187589E-03 -0.1456766145681E-02  0.0000000000000E+00 -0.2538357811622E-02
 0.1885759794381E-03 -0.1505601912240E-02  0.0000000000000E+00 -0.2609439268126E-02
 0.2216209942880E-03 -0.1552830776526E-02  0.0000000000000E+00 -0.2652400998064E-02
 0.2662262215842E-03 -0.1598390424398E-02  0.0000000000000E+00 -0.2658186146431E-02
 0.3255133213225E-03 -0.1642427342397E-02  0.0000000000000E+00 -0.2616709744226E-02
 0.4032758040462E-03 -0.1685381509416E-02  0.0000000000000E+00 -0.2516970523538E-02
 0.5042536555087E-03 -0.1728207814094E-02  0.0000000000000E+00 -0.2347316403494E-02
 0.6345694794270E-03 -0.1772790080111E-02  0.0000000000000E+00 -0.2096063912364E-02
 0.8023912705082E-03 -0.1822619937159E-02  0.0000000000000E+00 -0.1752855488321E-02
 0.1018695405347E-02 -0.1883657958880E-02  0.0000000000000E+00 -0.1311340376107E-02
 0.1297348375277E-02 -0.1964865017280E-02  0.0000000000000E+00 -0.7740256602982E-03
 0.1653214077477E-02 -0.2077392391356E-02  0.0000000000000E+00 -0.1595368936853E-03
 0.2096738709351E-02 -0.2230941383714E-02  0.0000000000000E+00  0.4899990503043E-03
 0.2624318320262E-02 -0.2426516374110E-02  0.0000000000000E+00  0.1107676317043E-02
 0.3207358466062E-02 -0.2647738027579E-02  0.0000000000000E+00  0.1614953193090E-02
 0.3789523850853E-02 -0.2857828232669E-02  0.0000000000000E+00  0.1949364509337E-02
-0.1219649637034E-04 -0.3578608679648E-03  0.0000000000000E+00  0.4016465321326E-03
-0.3672495396546E-04 -0.3453839452392E-03  0.0000000000000E+00  0.1626193853531E-03
-0.5624214833436E-04 -0.3399017019614E-03  0.0000000000000E+00 -0.3036519870065E-04
-0.6629487001345E-04 -0.3446297531645E-03  0.0000000000000E+00 -0.1894135688729E-03
-0.6647163899523E-04 -0.3596353877122E-03  0.0000000000000E+00 -0.3261604433961E-03
-0.5875404212558E-04 -0.3832184201886E-03  0.0000000000000E+00 -0.4489141974249E-03
-0.4583641800868E-04 -0.4132636698204E-03  0.0000000000000E+00 -0.5625015648487E-03
-0.3013579931032E-04 -0.4479822175009E-03  0.0000000000000E+00 -0.6694024682216E-03
-0.1345443927656E-04 -0.4861095773785E-03  0.0000000000000E+00 -0.7709447245631E-03
 0.3002300886214E-05 -0.5268350953556E-03  0.0000000000000E+00 -0.8680823235947E-03
 0.1849125553663E-04 -0.5696656691670E-03  0.0000000000000E+00 -0.9617663751230E-03
 0.3259598503657E-04 -0.6143106170045E-03  0.0000000000000E+00 -0.1053061049809E-02
 0.4512526901049E-04 -0.6606048959637E-03  0.0000000000000E+00 -0.1143135429214E-02
 0.5604548985121E-04 -0.7084624407381E-03  0.0000000000000E+00 -0.1233206425586E-02
 0.6543774937430E-04 -0.7578477365274E-03  0.0000000000000E+00 -0.1324467270679E-02
 0.7347093171489E-04 -0.8087566776739E-03  0.0000000000000E+00 -0.1418014597336E-02
 0.8038431475228E-04 -0.8612009961708E-03  0.0000000000000E+00 -0.1514776968825E-02
 0.8647535058022E-04 -0.9151909220324E-03  0.0000000000000E+00 -0.1615439822446E-02
 0.9209095727608E-04 -0.9707171954352E-03  0.0000000000000E+00 -0.1720367457679E-02
 0.9762131070040E-04 -0.1027728514997E-02  0.0000000000000E+00 -0.1829511729902E-02
 0.1034987310946E-03 -0.1086105471492E-02  0.0000000000000E+00 -0.1942298823070E-02
 0.1102067406852E-03 -0.1145637893650E-02  0.0000000000000E+00 -0.2057497923446E-02
 0.1183062591639E-03 -0.1206008334970E-02  0.0000000000000E+00 -0.2173067990784E-02
 0.1284836372226E-03 -0.1266771568002E-02  0.0000000000000E+00 -0.2285989014455E-02
 0.1416176481295E-03 -0.1327290406694E-02  0.0000000000000E+00 -0.2392060379965E-02
 0.1588627926778E-03 -0.1386800291150E-02  0.0000000000000E+00 -0.2485791738537E-02
 0.1817203208074E-03 -0.1444595722984E-02  0.0000000000000E+00 -0.2560466325406E-02
 0.2120780650638E-03 -0.1500113956160E-02  0.0000000000000E+00 -0.2608221781037E-02
 0.2522460874105E-03 -0.1552932213314E-02  0.0000000000000E+00 -0.2620094649800E-02
 0.3050294451117E-03 -0.1602761918666E-02  0.0000000000000E+00 -0.2586036135556E-02
 0.3738848791039E-03 -0.1649517294604E-02  0.0000000000000E+00 -0.2494939134865E-02
 0.4632183769650E-03 -0.1693529837867E-02  0.0000000000000E+00 -0.2334759949553E-02
 0.5788939016738E-03 -0.1735987343184E-02  0.0000000000000E+00 -0.2092913757145E-02
 0.7290771449325E-03 -0.1779715470191E-02  0.0000000000000E+00 -0.1757336202416E-02
 0.9253791991949E-03 -0.1830310551629E-02  0.0000000000000E+00 -0.1318912571632E-02
 0.1183560550200E-02 -0.1897210343120E-02  0.0000000000000E+00 -0.7765408125817E-03
 0.1522277125719E-02 -0.1993551885873E-02  0.0000000000000E+00 -0.1458391705776E-03
 0.1957581504863E-02 -0.2132730978915E-02  0.0000000000000E+00  0.5303146912745E-03
 0.2491346166929E-02 -0.2319845928496E-02  0.0000000000000E+00  0.1176718517270E-02
 0.3096476554139E-02 -0.2539974459512E-02  0.0000000000000E+00  0.1698290244206E-02
 0.3710708379786E-02 -0.2752651481839E-02  0.0000000000000E+00  0.2016377454757E-02
-0.1703137351259E-04 -0.1878421160369E-03  0.0000000000000E+00  0.3917684245471E-03
-0.5044666942516E-04 -0.1700310800008E-03  0.0000000000000E+00  0.1574132759336E-03
-0.7676132251712E-04 -0.1608801295133E-03  0.0000000000000E+00 -0.2736626522623E-04
-0.9121583744857E-04 -0.1637856031778E-03  0.0000000000000E+00 -0.1774482065918E-03
-0.9392020083844E-04 -0.1783748681095E-03  0.0000000000000E+00 -0.3063057515509E-03
-0.8758888559559E-04 -0.2023944801556E-03  0.0000000000000E+00 -0.4228311130799E-03
-0.7546270369384E-04 -0.2333664211749E-03  0.0000000000000E+00 -0.5316517502405E-03
-0.6023861282701E-04 -0.2693630072933E-03  0.0000000000000E+00 -0.6348066544814E-03
-0.4381023114741E-04 -0.3091186997582E-03  0.0000000000000E+00 -0.7332334987968E-03
-0.2738169426496E-04 -0.3518745181047E-03  0.0000000000000E+00 -0.8276230781759E-03
-0.1166493680695E-04 -0.3971949088971E-03  0.0000000000000E+00 -0.9187697229799E-03
 0.2954990865826E-05 -0.4448358892981E-03  0.0000000000000E+00 -0.1007648175419E-02
 0.1630762391237E-04 -0.4946662445618E-03  0.0000000000000E+00 -0.1095375933062E-02
 0.2836711707371E-04 -0.5466237261467E-03  0.0000000000000E+00 -0.1183139461503E-02
 0.3920990051767E-04 -0.6006900457801E-03  0.0000000000000E+00 -0.1272115227134E-02
 0.4898875774118E-04 -0.6568742650581E-03  0.0000000000000E+00 -0.1363395010364E-02
 0.5791596737244E-04 -0.7151985249797E-03  0.0000000000000E+00 -0.1457916087044E-02
 0.6625062634467E-04 -0.7756804964775E-03  0.0000000000000E+00 -0.1556390082025E-02
 0.7428833052484E-04 -0.8383138860617E-03  0.0000000000000E+00 -0.1659230240412E-02
 0.8235177185822E-04 -0.9030424112574E-03  0.0000000000000E+00 -0.1766466012166E-02
 0.9078477749427E-04 -0.9697278909178E-03  0.0000000000000E+00 -0.1877634719330E-02
 0.9995557796644E-04 -0.1038119852830E-02  0.0000000000000E+00 -0.1991651541415E-02
 0.1102778458332E-03 -0.1107829932284E-02  0.0000000000000E+00 -0.2106651928821E-02
 0.1222566582063E-03 -0.1178302309050E-02  0.0000000000000E+00 -0.2219810353802E-02
 0.1365584578898E-03 -0.1248741650269E-02  0.0000000000000E+00 -0.2327112089954E-02
 0.1541017487130E-03 -0.1318178648167E-02  0.0000000000000E+00 -0.2423231041673E-02
 0.1761339483806E-03 -0.1385661431344E-02  0.0000000000000E+00 -0.2501610009290E-02
 0.2042701669714E-03 -0.1450334091546E-02  0.0000000000000E+00 -0.2554556016394E-02
 0.2405217700695E-03 -0.1511418531875E-02  0.0000000000000E+00 -0.2573277481848E-02
 0.2873598492157E-03 -0.1568187102817E-02  0.0000000000000E+00 -0.2547861252801E-02
 0.3478651412221E-03 -0.1620006201231E-02  0.0000000000000E+00 -0.2467219029010E-02
 0.4260309551696E-03 -0.1666526541772E-02  0.0000000000000E+00 -0.2319063670432E-02
 0.5273176371355E-03 -0.1708116831237E-02  0.0000000000000E+00 -0.2090053962638E-02
 0.6596495715620E-03 -0.1746705071563E-02  0.0000000000000E+00 -0.1766468863307E-02
 0.8349511731293E-03 -0.1787156970764E-02  0.0000000000000E+00 -0.1336171941204E-02
 0.1070617461816E-02 -0.1838962515000E-02  0.0000000000000E+00 -0.7935704209132E-03
 0.1389262352116E-02 -0.1917052465906E-02  0.0000000000000E+00 -0.1496104658989E-03
 0.1813600754946E-02 -0.2038992469194E-02  0.0000000000000E+00  0.5539166658510E-03
 0.2352965254528E-02 -0.2215277918205E-02  0.0000000000000E+00  0.1233705284618E-02
 0.2983387058489E-02 -0.2433781398239E-02  0.0000000000000E+00  0.1775145090203E-02
 0.3635493703321E-02 -0.2649797000508E-02  0.0000000000000E+00  0.2078120039868E-02
-0.2243110600756E-04 -0.1668142948705E-04  0.0000000000000E+00  0.3780879788514E-03
-0.6561467833718E-04  0.6986041804395E-05  0.0000000000000E+00  0.1494470239745E-03
-0.9907125906676E-04  0.1995255814926E-04  0.0000000000000E+00 -0.2566193358606E-04
-0.1178198108588E-03  0.1872668765962E-04  0.0000000000000E+00 -0.1655586529485E-03
-0.1227521151553E-03  0.4327465399075E-05  0.0000000000000E+00 -0.2857841719492E-03
-0.1175189446758E-03 -0.2029785199541E-04  0.0000000000000E+00 -0.3956842495065E-03
-0.1059844735631E-03 -0.5227646171890E-04  0.0000000000000E+00 -0.4994749594756E-03
-0.9112131460751E-04 -0.8956820719891E-04  0.0000000000000E+00 -0.5986158775326E-03
-0.7488562047116E-04 -0.1309406749060E-03  0.0000000000000E+00 -0.6936030271153E-03
-0.5845528746389E-04 -0.1757085948393E-03  0.0000000000000E+00 -0.7848610577648E-03
-0.4249590964685E-04 -0.2235036232422E-03  0.0000000000000E+00 -0.8730403609816E-03
-0.2735351074501E-04 -0.2741309658691E-03  0.0000000000000E+00 -0.9590393755030E-03
-0.1317419969182E-04 -0.3274928620414E-03  0.0000000000000E+00 -0.1043932899394E-02
 0.2589835050582E-07 -0.3835501050294E-03  0.0000000000000E+00 -0.1128881510515E-02
 0.1232021288156E-04 -0.4423016803340E-03  0.0000000000000E+00 -0.1215046297160E-02
 0.2384759166578E-04 -0.5037712871189E-03  0.0000000000000E+00 -0.1303513682760E-02
 0.3479644976633E-04 -0.5679947337012E-03  0.0000000000000E+00 -0.1395228411567E-02
 0.4539199513059E-04 -0.6350025156062E-03  0.0000000000000E+00 -0.1490927430677E-02
 0.5588459279215E-04 -0.7047992031044E-03  0.0000000000000E+00 -0.1591073716259E-02
 0.6653730920309E-04 -0.7773343180187E-03  0.0000000000000E+00 -0.1695778453229E-02
 0.7761487090846E-04 -0.8524647107895E-03  0.0000000000000E+00 -0.1804699799943E-02
 0.8938032305258E-04 -0.9299160130098E-03  0.0000000000000E+00 -0.1916916399563E-02
 0.1021096216533E-03 -0.1009246882911E-02  0.0000000000000E+00 -0.2030766732028E-02
 0.1161343924607E-03 -0.1089808992930E-02  0.0000000000000E+00 -0.2143654782976E-02
 0.1319146110566E-03 -0.1170665915420E-02  0.0000000000000E+00 -0.2251792353600E-02
 0.1501376051057E-03 -0.1250659530358E-02  0.0000000000000E+00 -0.2350062282170E-02
 0.1718015594150E-03 -0.1328606950811E-02  0.0000000000000E+00 -0.2432118854196E-02
 0.1982522241814E-03 -0.1403373421403E-02  0.0000000000000E+00 -0.2490503136558E-02
 0.2312011720813E-03 -0.1473836891727E-02  0.0000000000000E+00 -0.2516678606003E-02
 0.2727744641983E-03 -0.1538835460581E-02  0.0000000000000E+00 -0.2500976051478E-02
 0.3256461487373E-03 -0.1597178671406E-02  0.0000000000000E+00 -0.2432468608397E-02
 0.3933277839842E-03 -0.1647797071545E-02  0.0000000000000E+00 -0.2298812113738E-02
 0.4807344690382E-03 -0.1690136033041E-02  0.0000000000000E+00 -0.2086131238650E-02
 0.5952860349636E-03 -0.1724996219353E-02  0.0000000000000E+00 -0.1779232897756E-02
 0.7488083020908E-03 -0.1756090082781E-02  0.0000000000000E+00 -0.1362875268508E-02
 0.9598841121366E-03 -0.1792372624603E-02  0.0000000000000E+00 -0.8261739319324E-03
 0.1255031064754E-02 -0.1850123988450E-02  0.0000000000000E+00 -0.1734586349368E-03
 0.1664691874114E-02 -0.1951423276132E-02  0.0000000000000E+00  0.5572104535091E-03
 0.2208170545653E-02 -0.2113754202475E-02  0.0000000000000E+00  0.1275540604837E-02
 0.2867063435193E-02 -0.2329640459503E-02  0.0000000000000E+00  0.1844058557912E-02
 0.3564111330349E-02 -0.2549775738410E-02  0.0000000000000E+00  0.2133674448778E-02
-0.2850800082690E-04  0.1557125124559E-03  0.0000000000000E+00  0.3601385122450E-03
-0.8248739523730E-04  0.1858381403897E-03  0.0000000000000E+00  0.1385155254693E-03
-0.1234255214859E-03  0.2027419915767E-03  0.0000000000000E+00 -0.2517959623349E-04
-0.1462696536444E-03  0.2029822178194E-03  0.0000000000000E+00 -0.1535650729757E-03
-0.1530491671647E-03  0.1885031789415E-03  0.0000000000000E+00 -0.2644593270985E-03
-0.1485918114473E-03  0.1631043614549E-03  0.0000000000000E+00 -0.3674241281723E-03
-0.1374504980193E-03  0.1300651903704E-03  0.0000000000000E+00 -0.4659834516478E-03
-0.1228474781501E-03  0.9149016799597E-04  0.0000000000000E+00 -0.5608672090027E-03
-0.1067594555450E-03  0.4853472520086E-04  0.0000000000000E+00 -0.6520917106792E-03
-0.9030890757317E-04  0.1787727469637E-05  0.0000000000000E+00 -0.7398267359236E-03
-0.7410015388047E-04 -0.4845681035115E-04  0.0000000000000E+00 -0.8245996009528E-03
-0.5843388862615E-04 -0.1020530846797E-03  0.0000000000000E+00 -0.9072486095127E-03
-0.4342952908128E-04 -0.1589344200372E-03  0.0000000000000E+00 -0.9888151303416E-03
-0.2909244340489E-04 -0.2190825769220E-03  0.0000000000000E+00 -0.1070437598701E-02
-0.1535110273283E-04 -0.2825130798211E-03  0.0000000000000E+00 -0.1153261793404E-02
-0.2078733372810E-05 -0.3492653067113E-03  0.0000000000000E+00 -0.1238366711894E-02
 0.1089226220737E-04 -0.4193918089386E-03  0.0000000000000E+00 -0.1326701538205E-02
 0.2375778749802E-04 -0.4929413203843E-03  0.0000000000000E+00 -0.1419025577026E-02
 0.3672945711494E-04 -0.5699374717379E-03  0.0000000000000E+00 -0.1515849779690E-02
 0.5001936355192E-04 -0.6503471066362E-03  0.0000000000000E+00 -0.1617368195951E-02
 0.6382386660750E-04 -0.7340373112193E-03  0.0000000000000E+00 -0.1723366289293E-02
 0.7831283495174E-04 -0.8207284666181E-03  0.0000000000000E+00 -0.1833100780381E-02
 0.9363627380340E-04 -0.9099472223095E-03  0.0000000000000E+00 -0.1945137893303E-02
 0.1099624031254E-03 -0.1000974356255E-02  0.0000000000000E+00 -0.2057145575986E-02
 0.1275526603458E-03 -0.1092753085363E-02  0.0000000000000E+00 -0.2165603031284E-02
 0.1468702044954E-03 -0.1183956186934E-02  0.0000000000000E+00 -0.2265647247958E-02
 0.1686713718813E-03 -0.1273189232076E-02  0.0000000000000E+00 -0.2351196818487E-02
 0.1940396287712E-03 -0.1359057791501E-02  0.0000000000000E+00 -0.2415093251453E-02
 0.2243906637592E-03 -0.1440113548047E-02  0.0000000000000E+00 -0.2449141319765E-02
 0.2615016621067E-03 -0.1514774486080E-02  0.0000000000000E+00 -0.2444029578285E-02
 0.3076203203933E-03 -0.1581299231407E-02  0.0000000000000E+00 -0.2389147530359E-02
 0.3657230447220E-03 -0.1637882387945E-02  0.0000000000000E+00 -0.2272311333840E-02
 0.4400537530307E-03 -0.1682973732240E-02  0.0000000000000E+00 -0.2079407870014E-02
 0.5372591546268E-03 -0.1716042942663E-02  0.0000000000000E+00 -0.1794110715521E-02
 0.6685760866985E-03 -0.1739198084465E-02  0.0000000000000E+00 -0.1398237843913E-02
 0.8531071867345E-03 -0.1760101905231E-02  0.0000000000000E+00 -0.8750365768215E-03
 0.1120880102539E-02 -0.1795592974321E-02  0.0000000000000E+00 -0.2201024876569E-03
 0.1510987270160E-02 -0.1872310007256E-02  0.0000000000000E+00  0.5358796203358E-03
 0.2055794987149E-02 -0.2016541714802E-02  0.0000000000000E+00  0.1298160374924E-02
 0.2746166865869E-02 -0.2228123099323E-02  0.0000000000000E+00  0.1902922961428E-02
 0.3496754723352E-02 -0.2453210342017E-02  0.0000000000000E+00  0.2181897453511E-02
-0.3540409210871E-04  0.3294456407280E-03  0.0000000000000E+00  0.3373620394410E-03
-0.1013804167564E-03  0.3667210204739E-03  0.0000000000000E+00  0.1244101770527E-03
-0.1501099381115E-03  0.3876338098169E-03  0.0000000000000E+00 -0.2578545510062E-04
-0.1767231722273E-03  0.3890307684423E-03  0.0000000000000E+00 -0.1412401551423E-03
-0.1848728221950E-03  0.3741567777104E-03  0.0000000000000E+00 -0.2421937475643E-03
-0.1808394942456E-03  0.3478314443933E-03  0.0000000000000E+00 -0.3380294742613E-03
-0.1699037572535E-03  0.3137169446331E-03  0.0000000000000E+00 -0.4312217505459E-03
-0.1554814198381E-03  0.2739060459552E-03  0.0000000000000E+00 -0.5216219779911E-03
-0.1395138064678E-03  0.2294250176164E-03  0.0000000000000E+00 -0.6087532935504E-03
-0.1230363693761E-03  0.1807457699016E-03  0.0000000000000E+00 -0.6925600503784E-03
-0.1065788529038E-03  0.1280851669638E-03  0.0000000000000E+00 -0.7734754422651E-03
-0.9039239681689E-04  0.7154367029083E-04  0.0000000000000E+00 -0.8522959723840E-03
-0.7456896521051E-04  0.1116149955925E-04  0.0000000000000E+00 -0.9300384346423E-03
-0.5910315582854E-04 -0.5306063405606E-04  0.0000000000000E+00 -0.1007821492360E-02
-0.4392485030462E-04 -0.1211532751440E-03  0.0000000000000E+00 -0.1086774008858E-02
-0.2891781774352E-04 -0.1931720878432E-03  0.0000000000000E+00 -0.1167963705508E-02
-0.1393237010121E-04 -0.2691892179083E-03  0.0000000000000E+00 -0.1252339252853E-02
 0.1202706186171E-05 -0.3492769801124E-03  0.0000000000000E+00 -0.1340677117716E-02
 0.1666701397296E-04 -0.4334863893731E-03  0.0000000000000E+00 -0.1433531712952E-02
 0.3263097602421E-04 -0.5218136409761E-03  0.0000000000000E+00 -0.1531177651910E-02
 0.4923459121381E-04 -0.6141524790200E-03  0.0000000000000E+00 -0.1633530243229E-02
 0.6656855263160E-04 -0.7102389032246E-03  0.0000000000000E+00 -0.1740035157303E-02
 0.8467116307326E-04 -0.8095917710268E-03  0.0000000000000E+00 -0.1849508452546E-02
 0.1035597937430E-03 -0.9114465067933E-03  0.0000000000000E+00 -0.1959915408186E-02
 0.1233075551891E-03 -0.1014650827816E-02  0.0000000000000E+00 -0.2068043494468E-02
 0.1441627857273E-03 -0.1117732220572E-02  0.0000000000000E+00 -0.2169329413673E-02
 0.1666502939865E-03 -0.1219108459997E-02  0.0000000000000E+00 -0.2258009481122E-02
 0.1916021914563E-03 -0.1317149413310E-02  0.0000000000000E+00 -0.2327293129395E-02
 0.2201473124916E-03 -0.1410104239744E-02  0.0000000000000E+00 -0.2369414134488E-02
 0.2537177105666E-03 -0.1495994057166E-02  0.0000000000000E+00 -0.2375534488935E-02
 0.2941277645052E-03 -0.1572548289827E-02  0.0000000000000E+00 -0.2335519983465E-02
 0.3437863907351E-03 -0.1637237697179E-02  0.0000000000000E+00 -0.2237583532259E-02
 0.4061696190578E-03 -0.1687489037916E-02  0.0000000000000E+00 -0.2067731409005E-02
 0.4869037154963E-03 -0.1721293313992E-02  0.0000000000000E+00 -0.1809000069764E-02
 0.5960993095366E-03 -0.1738722557466E-02  0.0000000000000E+00 -0.1440751772963E-02
 0.7524766827062E-03 -0.1745245278927E-02  0.0000000000000E+00 -0.9402085325012E-03
 0.9886967138813E-03 -0.1757024992985E-02  0.0000000000000E+00 -0.2921722266681E-03
 0.1353025734451E-02 -0.1804753545834E-02  0.0000000000000E+00  0.4847990872411E-03
 0.1894551432135E-02 -0.1925424852711E-02  0.0000000000000E+00  0.1296163041218E-02
 0.2618948919059E-02 -0.2129998015521E-02  0.0000000000000E+00  0.1948741222296E-02
 0.3433566264815E-02 -0.2360897119671E-02  0.0000000000000E+00  0.2221338138794E-02
-0.4330253999878E-04  0.5046462972757E-03  0.0000000000000E+00  0.3090865627482E-03
-0.1226840289518E-03  0.5498627366937E-03  0.0000000000000E+00  0.1069343746784E-03
-0.1794442901550E-03  0.5747661485958E-03  0.0000000000000E+00 -0.2725508509991E-04
-0.2093224239093E-03  0.5768826786003E-03  0.0000000000000E+00 -0.1283021488576E-03
-0.2182554777070E-03  0.5612582746781E-03  0.0000000000000E+00 -0.2188626542741E-03
-0.2142765940600E-03  0.5338901176783E-03  0.0000000000000E+00 -0.3075230170981E-03
-0.2033835683297E-03  0.4987410267561E-03  0.0000000000000E+00 -0.3952750320944E-03
-0.1890908220452E-03  0.4577831306173E-03  0.0000000000000E+00 -0.4809677245927E-03
-0.1732357475084E-03  0.4118572963706E-03  0.0000000000000E+00 -0.5636558744091E-03
-0.1567357729426E-03  0.3613041609142E-03  0.0000000000000E+00 -0.6431086513103E-03
-0.1400361634610E-03  0.3062668160519E-03  0.0000000000000E+00 -0.7197009357204E-03
-0.1233370666486E-03  0.2468081173905E-03  0.0000000000000E+00 -0.7942064557876E-03
-0.1067040403173E-03  0.1829488652871E-03  0.0000000000000E+00 -0.8676248426311E-03
-0.9012197468862E-04  0.1146770271873E-03  0.0000000000000E+00 -0.9410553509859E-03
-0.7352227992308E-04  0.4194929023747E-04  0.0000000000000E+00 -0.1015606287877E-02
-0.5679806915930E-04 -0.3530649673364E-04  0.0000000000000E+00 -0.1092328278055E-02
-0.3981482973005E-04 -0.1171846767857E-03  0.0000000000000E+00 -0.1172162508196E-02
-0.2242148476710E-04 -0.2037863168481E-03  0.0000000000000E+00 -0.1255895118315E-02
-0.4463605318653E-05 -0.2951980676113E-03  0.0000000000000E+00 -0.1344116576850E-02
 0.1419731662367E-04 -0.3914577262933E-03  0.0000000000000E+00 -0.1437175960232E-02
 0.3365804910940E-04 -0.4925030426649E-03  0.0000000000000E+00 -0.1535116279501E-02
 0.5394614776721E-04 -0.5981086156616E-03  0.0000000000000E+00 -0.1637578197248E-02
 0.7500522221870E-04 -0.7078131910557E-03  0.0000000000000E+00 -0.1743646006444E-02
 0.9671723149168E-04 -0.8208368076512E-03  0.0000000000000E+00 -0.1851613938524E-02
 0.1189797382200E-03 -0.9359612300583E-03  0.0000000000000E+00 -0.1958618343761E-02
 0.1418381307161E-03 -0.1051597003294E-02  0.0000000000000E+00 -0.2060441499356E-02
 0.1655990757498E-03 -0.1166002276948E-02  0.0000000000000E+00 -0.2151691385990E-02
 0.1908581363696E-03 -0.1277339761284E-02  0.0000000000000E+00 -0.2226013571140E-02
 0.2184712480797E-03 -0.1383585244396E-02  0.0000000000000E+00 -0.2276158719049E-02
 0.2495363607559E-03 -0.1482394347030E-02  0.0000000000000E+00 -0.2293876138498E-02
 0.2854407671832E-03 -0.1571004158913E-02  0.0000000000000E+00 -0.2269664441471E-02
 0.3280184436774E-03 -0.1646203560481E-02  0.0000000000000E+00 -0.2192373043322E-02
 0.3799227203364E-03 -0.1704423960171E-02  0.0000000000000E+00 -0.2048521466860E-02
 0.4455653894399E-03 -0.1742117742038E-02  0.0000000000000E+00 -0.1821141686156E-02
 0.5334031835665E-03 -0.1756978944853E-02  0.0000000000000E+00 -0.1487986959417E-02
 0.6606679716896E-03 -0.1751314747412E-02  0.0000000000000E+00 -0.1020748992432E-02
 0.8611485166907E-03 -0.1738875226222E-02  0.0000000000000E+00 -0.3918547279378E-03
 0.1192017987494E-02 -0.1752990141883E-02  0.0000000000000E+00  0.3980308375097E-03
 0.1723128303375E-02 -0.1843009462721E-02  0.0000000000000E+00  0.1262349403717E-02
 0.2483113552728E-02 -0.2036370152072E-02  0.0000000000000E+00  0.1977228233249E-02
 0.3374621649922E-02 -0.2273891021193E-02  0.0000000000000E+00  0.2250093327584E-02
-0.5244477697124E-04  0.6814782116885E-03  0.0000000000000E+00  0.2744959036214E-03
-0.1468871365977E-03  0.7355327945222E-03  0.0000000000000E+00  0.8593247415805E-04
-0.2117805438897E-03  0.7642552441599E-03  0.0000000000000E+00 -0.2923146661845E-04
-0.2441765879700E-03  0.7664881117918E-03  0.0000000000000E+00 -0.1144127428127E-03
-0.2531899903828E-03  0.7497357198015E-03  0.0000000000000E+00 -0.1943785489603E-03
-0.2489003376040E-03  0.7212788869162E-03  0.0000000000000E+00 -0.2759925368959E-03
-0.2379297116959E-03  0.6852104006986E-03  0.0000000000000E+00 -0.3582772833869E-03
-0.2237503132404E-03  0.6432397379265E-03  0.0000000000000E+00 -0.4390183732058E-03
-0.2080193978821E-03  0.5959707265975E-03  0.0000000000000E+00 -0.5168794945284E-03
-0.1915103949299E-03  0.5436098220791E-03  0.0000000000000E+00 -0.5915252646381E-03
-0.1745794086799E-03  0.4862376291468E-03  0.0000000000000E+00 -0.6633120198254E-03
-0.1573774955110E-03  0.4238916029661E-03  0.0000000000000E+00 -0.7330083989049E-03
-0.1399467780433E-03  0.3565825502807E-03  0.0000000000000E+00 -0.8016016347956E-03
-0.1222645526417E-03  0.2842917039395E-03  0.0000000000000E+00 -0.8701692593581E-03
-0.1042644341288E-03  0.2069658563645E-03  0.0000000000000E+00 -0.9397930067936E-03
-0.8584798663133E-04  0.1245165117339E-03  0.0000000000000E+00 -0.1011498465232E-02
-0.6689333183049E-04  0.3682477716665E-04  0.0000000000000E+00 -0.1086210314456E-02
-0.4726512571485E-04 -0.5624407557558E-04  0.0000000000000E+00 -0.1164714605615E-02
-0.2682735956223E-04 -0.1548202936275E-03  0.0000000000000E+00 -0.1247627544651E-02
-0.5463508249398E-05 -0.2589953770071E-03  0.0000000000000E+00 -0.1335362510289E-02
 0.1689396005999E-04 -0.3687689137715E-03  0.0000000000000E+00 -0.1428082622446E-02
 0.4022749967858E-04 -0.4839789286510E-03  0.0000000000000E+00 -0.1525623421292E-02
 0.6440609639513E-04 -0.6042153743920E-03  0.0000000000000E+00 -0.1627350695677E-02
 0.8919509337085E-04 -0.7287179270462E-03  0.0000000000000E+00 -0.1731916548559E-02
 0.1143322574334E-03 -0.8562374402431E-03  0.0000000000000E+00 -0.1836846291664E-02
 0.1396746760935E-03 -0.9851010314865E-03  0.0000000000000E+00 -0.1938314103572E-02
 0.1653274552114E-03 -0.1113440007372E-02  0.0000000000000E+00 -0.2031354414998E-02
 0.1916682095902E-03 -0.1239242656385E-02  0.0000000000000E+00 -0.2110117969268E-02
 0.2192983571086E-03 -0.1360244931573E-02  0.0000000000000E+00 -0.2167959608980E-02
 0.2489990142271E-03 -0.1473774664589E-02  0.0000000000000E+00 -0.2197324939277E-02
 0.2817488271922E-03 -0.1576626305930E-02  0.0000000000000E+00 -0.2189489988413E-02
 0.3188256670330E-03 -0.1664977603563E-02  0.0000000000000E+00 -0.2134165201543E-02
 0.3620565512913E-03 -0.1734352546042E-02  0.0000000000000E+00 -0.2018780008028E-02
 0.4145301543858E-03 -0.1779719542672E-02  0.0000000000000E+00 -0.1827079680846E-02
 0.4826119576040E-03 -0.1796228523717E-02  0.0000000000000E+00 -0.1536400032332E-02
 0.5808376931229E-03 -0.1782150119156E-02  0.0000000000000E+00 -0.1114270920130E-02
 0.7418965314824E-03 -0.1746617591330E-02  0.0000000000000E+00 -0.5202991361677E-03
 0.1030246552574E-02 -0.1722829733854E-02  0.0000000000000E+00  0.2690118634158E-03
 0.1540393943822E-02 -0.1773206004406E-02  0.0000000000000E+00  0.1187140801628E-02
 0.2335633445049E-02 -0.1948908721788E-02  0.0000000000000E+00  0.1982150411224E-02
 0.3319916983546E-02 -0.2193643548862E-02  0.0000000000000E+00  0.2265573422817E-02
-0.6315706325000E-04  0.8601627374636E-03  0.0000000000000E+00  0.2325894580149E-03
-0.1746101209343E-03  0.9240533099079E-03  0.0000000000000E+00  0.6134356734044E-04
-0.2474935127698E-03  0.9561682449388E-03  0.0000000000000E+00 -0.3116595635572E-04
-0.2813352560882E-03  0.9577071315167E-03  0.0000000000000E+00 -0.9918735995712E-04
-0.2896185137142E-03  0.9394700117766E-03  0.0000000000000E+00 -0.1687325333704E-03
-0.2846943306326E-03  0.9099980255021E-03  0.0000000000000E+00 -0.2436168980664E-03
-0.2735892190832E-03  0.8732187290348E-03  0.0000000000000E+00 -0.3204171839129E-03
-0.2595459178375E-03  0.8304143746821E-03  0.0000000000000E+00 -0.3959115519555E-03
-0.2439680507050E-03  0.7819190058959E-03  0.0000000000000E+00 -0.4685120027298E-03
-0.2274694663084E-03  0.7278187540909E-03  0.0000000000000E+00 -0.5378640999217E-03
-0.2103191184060E-03  0.6681519793829E-03  0.0000000000000E+00 -0.6043448279500E-03
-0.1926244925259E-03  0.6029474358896E-03  0.0000000000000E+00 -0.6687316521714E-03
-0.1744091321285E-03  0.5322175285579E-03  0.0000000000000E+00 -0.7320002096414E-03
-0.1556457842599E-03  0.4559437512533E-03  0.0000000000000E+00 -0.7952006603273E-03
-0.1362713999861E-03  0.3740663230772E-03  0.0000000000000E+00 -0.8593794794531E-03
-0.1161953492508E-03  0.2864807886754E-03  0.0000000000000E+00 -0.9255270634081E-03
-0.9530603854195E-04  0.1930415790855E-03  0.0000000000000E+00 -0.9945405370417E-03
-0.7347967870258E-04  0.9357572948651E-04  0.0000000000000E+00 -0.1067193939765E-02
-0.5059220895701E-04 -0.1209805173489E-04  0.0000000000000E+00 -0.1144116112192E-02
-0.2653932801919E-04 -0.1241364758996E-03  0.0000000000000E+00 -0.1225770436049E-02
-0.1268294357787E-05 -0.2426186572035E-03  0.0000000000000E+00 -0.1312426397257E-02
 0.2517808988994E-04 -0.3674722078739E-03  0.0000000000000E+00 -0.1404106558138E-02
 0.5261760605355E-04 -0.4983733066014E-03  0.0000000000000E+00 -0.1500464327062E-02
 0.8072176819934E-04 -0.6346221285083E-03  0.0000000000000E+00 -0.1600534458523E-02
 0.1090878788152E-03 -0.7749803136252E-03  0.0000000000000E+00 -0.1702270384036E-02
 0.1374025578752E-03 -0.9177311888882E-03  0.0000000000000E+00 -0.1802285457505E-02
 0.1655892927245E-03 -0.1060916884105E-02  0.0000000000000E+00 -0.1896097101296E-02
 0.1938299522216E-03 -0.1202387603248E-02  0.0000000000000E+00 -0.1978431848537E-02
 0.2224934713615E-03 -0.1339675988956E-02  0.0000000000000E+00 -0.2043335307448E-02
 0.2520659168621E-03 -0.1469823676535E-02  0.0000000000000E+00 -0.2084051388765E-02
 0.2831452465779E-03 -0.1589240931854E-02  0.0000000000000E+00 -0.2092758689410E-02
 0.3164966243625E-03 -0.1693589086429E-02  0.0000000000000E+00 -0.2060218467526E-02
 0.3531721263577E-03 -0.1777631157759E-02  0.0000000000000E+00 -0.1975129488230E-02
 0.3949377345355E-03 -0.1835034299327E-02  0.0000000000000E+00 -0.1822674459314E-02
 0.4458138554246E-03 -0.1858496486631E-02  0.0000000000000E+00 -0.1581196784338E-02
 0.5165320022352E-03 -0.1841712622597E-02  0.0000000000000E+00 -0.1216412619208E-02
 0.6357923525964E-03 -0.1786785557291E-02  0.0000000000000E+00 -0.6766797214339E-03
 0.8716480758298E-03 -0.1722222474753E-02  0.0000000000000E+00  0.9113582816077E-04
 0.1345813605126E-02 -0.1722014151846E-02  0.0000000000000E+00  0.1057893962881E-02
 0.2172519012351E-02 -0.1870260621275E-02  0.0000000000000E+00  0.1954224099188E-02
 0.3269364268530E-02 -0.2122247310225E-02  0.0000000000000E+00  0.2264109451047E-02
-0.7589296667071E-04  0.1041018351133E-02  0.0000000000000E+00  0.1821288786048E-03
-0.2066498268803E-03  0.1115810584624E-02  0.0000000000000E+00  0.3330206667317E-04
-0.2869557551340E-03  0.1150471953754E-02  0.0000000000000E+00 -0.3223789509509E-04
-0.3207480540729E-03  0.1150268066597E-02  0.0000000000000E+00 -0.8223338851362E-04
-0.3274236843126E-03  0.1130297331613E-02  0.0000000000000E+00 -0.1420600573196E-03
-0.3216388909362E-03  0.1100068424002E-02  0.0000000000000E+00 -0.2106942008973E-03
-0.3104262319704E-03  0.1062893340205E-02  0.0000000000000E+00 -0.2819382957209E-03
-0.2965799981550E-03  0.1019471505283E-02  0.0000000000000E+00 -0.3518020302731E-03
-0.2811961544261E-03  0.9698725414720E-03  0.0000000000000E+00 -0.4186430382076E-03
-0.2647287231204E-03  0.9140965027512E-03  0.0000000000000E+00 -0.4821762668330E-03
-0.2473688526692E-03  0.8521687402673E-03  0.0000000000000E+00 -0.5428324835802E-03
-0.2291895503332E-03  0.7841301156635E-03  0.0000000000000E+00 -0.6014054795881E-03
-0.2102022912389E-03  0.7100079196019E-03  0.0000000000000E+00 -0.6588548055005E-03
-0.1903790246704E-03  0.6297915318370E-03  0.0000000000000E+00 -0.7161936918911E-03
-0.1696614704996E-03  0.5434181333265E-03  0.0000000000000E+00 -0.7744217798012E-03
-0.1479663181240E-03  0.4507678001521E-03  0.0000000000000E+00 -0.8344818735818E-03
-0.1251900757600E-03  0.3516663351222E-03  0.0000000000000E+00 -0.8972305635158E-03
-0.1012166118048E-03  0.2458983376429E-03  0.0000000000000E+00 -0.9634159976615E-03
-0.7592781417336E-04  0.1332247358820E-03  0.0000000000000E+00 -0.1033664061509E-02
-0.4922243446140E-04  0.1341318149514E-04  0.0000000000000E+00 -0.1108469900844E-02
-0.2104823474242E-04 -0.1137116561008E-03  0.0000000000000E+00 -0.1188188998003E-02
 0.8547937775549E-05 -0.2481935837029E-03  0.0000000000000E+00 -0.1273013539057E-02
 0.3935963855714E-04 -0.3898335338733E-03  0.0000000000000E+00 -0.1362880766764E-02
 0.7099214990011E-04 -0.5380398330018E-03  0.0000000000000E+00 -0.1457226466185E-02
 0.1029261561368E-03 -0.6916349770120E-03  0.0000000000000E+00 -0.1554469739481E-02
 0.1346995163354E-03 -0.8489057872643E-03  0.0000000000000E+00 -0.1651712279763E-02
 0.1660776545722E-03 -0.1007848200155E-02  0.0000000000000E+00 -0.1745014671037E-02
 0.1970721596282E-03 -0.1166213391650E-02  0.0000000000000E+00 -0.1829753055901E-02
 0.2278441493859E-03 -0.1321368406928E-02  0.0000000000000E+00 -0.1900750255128E-02
 0.2586087332359E-03 -0.1470111309645E-02  0.0000000000000E+00 -0.1952142766496E-02
 0.2896163016696E-03 -0.1608529917381E-02  0.0000000000000E+00 -0.1977112610517E-02
 0.3211817902168E-03 -0.1731878765188E-02  0.0000000000000E+00 -0.1967608835591E-02
 0.3536859907432E-03 -0.1834355216494E-02  0.0000000000000E+00 -0.1913879464577E-02
 0.3876886840388E-03 -0.1908630495616E-02  0.0000000000000E+00 -0.1803183416850E-02
 0.4248705135475E-03 -0.1945345492276E-02  0.0000000000000E+00 -0.1616314716972E-02
 0.4714508815831E-03 -0.1933712093164E-02  0.0000000000000E+00 -0.1320327378578E-02
 0.5489681200856E-03 -0.1866795045115E-02  0.0000000000000E+00 -0.8568238477202E-03
 0.7226178625487E-03 -0.1761916631117E-02  0.0000000000000E+00 -0.1409059224729E-03
 0.1140270626600E-02 -0.1698809413558E-02  0.0000000000000E+00  0.8582605747591E-03
 0.1988561019625E-02 -0.1804845215564E-02  0.0000000000000E+00  0.1879259875639E-02
 0.3222813056910E-02 -0.2062900082444E-02  0.0000000000000E+00  0.2240237650241E-02
-0.9130377315829E-04  0.1224533973669E-02  0.0000000000000E+00  0.1215698775802E-03
-0.2440399660130E-03  0.1311260806064E-02  0.0000000000000E+00  0.2329175844574E-05
-0.3304802919640E-03  0.1346935504020E-02  0.0000000000000E+00 -0.3125343102891E-04
-0.3622064289771E-03  0.1343714243468E-02  0.0000000000000E+00 -0.6324746742188E-04
-0.3664293895010E-03  0.1322030350091E-02  0.0000000000000E+00 -0.1147385244175E-03
-0.3597317155314E-03  0.1291562633770E-02  0.0000000000000E+00 -0.1776635290401E-03
-0.3485344414595E-03  0.1254409786541E-02  0.0000000000000E+00 -0.2431290335200E-03
-0.3349759423492E-03  0.1210606662295E-02  0.0000000000000E+00 -0.3068508788303E-03
-0.3198308948918E-03  0.1160020077429E-02  0.0000000000000E+00 -0.3673561464184E-03
-0.3034105975401E-03  0.1102618131559E-02  0.0000000000000E+00 -0.4245042234349E-03
-0.2858447334142E-03  0.1038450542893E-02  0.0000000000000E+00 -0.4788014673361E-03
-0.2671841101981E-03  0.9675943128974E-03  0.0000000000000E+00 -0.5310562601838E-03
-0.2474358338190E-03  0.8901058576557E-03  0.0000000000000E+00 -0.5822011179230E-03
-0.2265751951818E-03  0.8059902383797E-03  0.0000000000000E+00 -0.6331984567055E-03
-0.2045502147508E-03  0.7151850569879E-03  0.0000000000000E+00 -0.6849864975171E-03
-0.1812844556837E-03  0.6175553492506E-03  0.0000000000000E+00 -0.7384458551070E-03
-0.1566804624486E-03  0.5128964317693E-03  0.0000000000000E+00 -0.7943778313370E-03
-0.1306261682776E-03  0.4009466492671E-03  0.0000000000000E+00 -0.8534891312492E-03
-0.1030040411979E-03  0.2814032715248E-03  0.0000000000000E+00 -0.9163850764511E-03
-0.7370774712040E-04  0.1539494494525E-03  0.0000000000000E+00 -0.9835709706243E-03
-0.4267226325363E-04  0.1829902096807E-04  0.0000000000000E+00 -0.1055461290339E-02
-0.9926751783296E-05 -0.1257336164875E-03  0.0000000000000E+00 -0.1132389050384E-02
 0.2432863219615E-04 -0.2781154743995E-03  0.0000000000000E+00 -0.1214557820567E-02
 0.5966637726057E-04 -0.4384185450990E-03  0.0000000000000E+00 -0.1301812730026E-02
 0.9548037982463E-04 -0.6055872037855E-03  0.0000000000000E+00 -0.1393073140878E-02
 0.1311865312470E-03 -0.7779691981638E-03  0.0000000000000E+00 -0.1485981749544E-02
 0.1664197714151E-03 -0.9535632844194E-03  0.0000000000000E+00 -0.1577209552807E-02
 0.2010495310615E-03 -0.1130061978047E-02  0.0000000000000E+00 -0.1662862240331E-02
 0.2350550837456E-03 -0.1304703260461E-02  0.0000000000000E+00 -0.1738627172963E-02
 0.2684046575815E-03 -0.1474082402254E-02  0.0000000000000E+00 -0.1799620323150E-02
 0.3010339153425E-03 -0.1634023879906E-02  0.0000000000000E+00 -0.1840103038119E-02
 0.3328792076646E-03 -0.1779486657622E-02  0.0000000000000E+00 -0.1853284112139E-02
 0.3637963874654E-03 -0.1904327404938E-02  0.0000000000000E+00 -0.1831118925425E-02
 0.3933607996136E-03 -0.2000627085914E-02  0.0000000000000E+00 -0.1763410211890E-02
 0.4211915588527E-03 -0.2057640301148E-02  0.0000000000000E+00 -0.1634597202434E-02
 0.4490116913726E-03 -0.2061041761561E-02  0.0000000000000E+00 -0.1416394443789E-02
 0.4886355505290E-03 -0.1994327448965E-02  0.0000000000000E+00 -0.1051417810322E-02
 0.5930116615495E-03 -0.1856027412925E-02  0.0000000000000E+00 -0.4284045283272E-03
 0.9276375427147E-03 -0.1718437362660E-02  0.0000000000000E+00  0.5680872321465E-03
 0.1777145978047E-02 -0.1760455695385E-02  0.0000000000000E+00  0.1735026939434E-02
 0.3180149205290E-02 -0.2020854119734E-02  0.0000000000000E+00  0.2185266651222E-02
-0.1103597578594E-03  0.1411512795136E-02  0.0000000000000E+00  0.4898521564743E-04
-0.2881273762390E-03  0.1510908510637E-02  0.0000000000000E+00 -0.3029282383801E-04
-0.3781979358432E-03  0.1544943486501E-02  0.0000000000000E+00 -0.2654509855129E-04
-0.4052673230978E-03  0.1537350621628E-02  0.0000000000000E+00 -0.4223250262523E-04
-0.4064265026138E-03  0.1514519404906E-02  0.0000000000000E+00 -0.8751515096654E-04
-0.3990220932538E-03  0.1484648283621E-02  0.0000000000000E+00 -0.1451015323442E-03
-0.3880496693145E-03  0.1448004373587E-02  0.0000000000000E+00 -0.2042989649135E-03
-0.3748817103394E-03  0.1404050256279E-02  0.0000000000000E+00 -0.2612111886802E-03
-0.3600131841985E-03  0.1352569465512E-02  0.0000000000000E+00 -0.3147189841818E-03
-0.3436438698553E-03  0.1293567460025E-02  0.0000000000000E+00 -0.3648753989038E-03
-0.3258646108594E-03  0.1227162574430E-02  0.0000000000000E+00 -0.4122677085925E-03
-0.3067185859521E-03  0.1153493528534E-02  0.0000000000000E+00 -0.4577050710679E-03
-0.2862167109501E-03  0.1072660129320E-02  0.0000000000000E+00 -0.5020748807475E-03
-0.2643417636133E-03  0.9846905393662E-03  0.0000000000000E+00 -0.5462702737853E-03
-0.2410494491427E-03  0.8895258293819E-03  0.0000000000000E+00 -0.5911504668651E-03
-0.2162696595694E-03  0.7870161693216E-03  0.0000000000000E+00 -0.6375172228600E-03
-0.1899089564483E-03  0.6769245199284E-03  0.0000000000000E+00 -0.6861002431173E-03
-0.1618560370619E-03  0.5589394955295E-03  0.0000000000000E+00 -0.7375479115380E-03
-0.1319893029563E-03  0.4326897475565E-03  0.0000000000000E+00 -0.7924259576424E-03
-0.1001906252790E-03  0.2977669921107E-03  0.0000000000000E+00 -0.8512258698363E-03
-0.6637095730955E-04  0.1537629151790E-03  0.0000000000000E+00 -0.9143883167752E-03
-0.3052098850212E-04  0.3277505957709E-06  0.0000000000000E+00 -0.9823454826312E-03
 0.7198912737066E-05 -0.1627139884371E-03  0.0000000000000E+00 -0.1055530926622E-02
 0.4636891409898E-04 -0.3351623303065E-03  0.0000000000000E+00 -0.1134191313589E-02
 0.8633427128979E-04 -0.5161594479242E-03  0.0000000000000E+00 -0.1217775088742E-02
 0.1264229631105E-03 -0.7041857872734E-03  0.0000000000000E+00 -0.1304524697674E-02
 0.1661717495427E-03 -0.8972991599052E-03  0.0000000000000E+00 -0.1391802027199E-02
 0.2053375117727E-03 -0.1093172702984E-02  0.0000000000000E+00 -0.1476533275132E-02
 0.2437431175997E-03 -0.1288947302034E-02  0.0000000000000E+00 -0.1555359450270E-02
 0.2811319291089E-03 -0.1481051911220E-02  0.0000000000000E+00 -0.1624455999981E-02
 0.3171522434181E-03 -0.1665099319453E-02  0.0000000000000E+00 -0.1679218521588E-02
 0.3514286793103E-03 -0.1835850307779E-02  0.0000000000000E+00 -0.1714122922752E-02
 0.3834612665559E-03 -0.1987042614541E-02  0.0000000000000E+00 -0.1722831723383E-02
 0.4121498574532E-03 -0.2110638391549E-02  0.0000000000000E+00 -0.1697904092991E-02
 0.4355311547032E-03 -0.2195367078295E-02  0.0000000000000E+00 -0.1628184340919E-02
 0.4517035989924E-03 -0.2225086090560E-02  0.0000000000000E+00 -0.1492492874113E-02
 0.4622739774146E-03 -0.2175962534701E-02  0.0000000000000E+00 -0.1244148300143E-02
 0.4970998241642E-03 -0.2021971352253E-02  0.0000000000000E+00 -0.7636197620952E-03
 0.7176893603047E-03 -0.1804493161215E-02  0.0000000000000E+00  0.1652369900812E-03
 0.1530476947001E-02 -0.1751622489691E-02  0.0000000000000E+00  0.1486059247156E-02
 0.3141622924205E-02 -0.2005531601686E-02  0.0000000000000E+00  0.2084111350538E-02
-0.1345675376693E-03  0.1603375276830E-02  0.0000000000000E+00 -0.3798078699458E-04
-0.3406504798757E-03  0.1715186372640E-02  0.0000000000000E+00 -0.6176307811696E-04
-0.4298015484858E-03  0.1743134603871E-02  0.0000000000000E+00 -0.1596869049932E-04
-0.4491763820146E-03  0.1730241926502E-02  0.0000000000000E+00 -0.1994534274338E-04
-0.4472526861447E-03  0.1707786612628E-02  0.0000000000000E+00 -0.6162606350530E-04
-0.4396559379313E-03  0.1679631964579E-02  0.0000000000000E+00 -0.1136629744232E-03
-0.4291575110045E-03  0.1643980260634E-02  0.0000000000000E+00 -0.1657455168418E-03
-0.4164721135354E-03  0.1600070487202E-02  0.0000000000000E+00 -0.2150114520027E-03
-0.4018977982106E-03  0.1547746964116E-02  0.0000000000000E+00 -0.2607712636141E-03
-0.3855625702175E-03  0.1487135480556E-02  0.0000000000000E+00 -0.3032954677430E-03
-0.3675468500384E-03  0.1418470914750E-02  0.0000000000000E+00 -0.3432325058028E-03
-0.3479011257035E-03  0.1341978440057E-02  0.0000000000000E+00 -0.3813652322925E-03
-0.3266480591949E-03  0.1257814619760E-02  0.0000000000000E+00 -0.4185104553312E-03
-0.3037816081317E-03  0.1166037092763E-02  0.0000000000000E+00 -0.4554689240320E-03
-0.2792661225386E-03  0.1066592697477E-02  0.0000000000000E+00 -0.4930004667840E-03
-0.2530370289700E-03  0.9593164475149E-03  0.0000000000000E+00 -0.5318094720597E-03
-0.2250028412900E-03  0.8439369420989E-03  0.0000000000000E+00 -0.5725364424190E-03
-0.1950499639199E-03  0.7200898546791E-03  0.0000000000000E+00 -0.6157536189117E-03
-0.1630488100841E-03  0.5873311413337E-03  0.0000000000000E+00 -0.6619673455744E-03
-0.1288644062636E-03  0.4451562074590E-03  0.0000000000000E+00 -0.7116303087088E-03
-0.9237562190498E-04  0.2930276680069E-03  0.0000000000000E+00 -0.7651728719386E-03
-0.5351713536891E-04  0.1304156147487E-03  0.0000000000000E+00 -0.8230717431363E-03
-0.1237471059981E-04 -0.4310375482372E-04  0.0000000000000E+00 -0.8859288959185E-03
 0.3068812475129E-04 -0.2276320520036E-03  0.0000000000000E+00 -0.9543584603877E-03
 0.7501819071776E-04 -0.4226061714667E-03  0.0000000000000E+00 -0.1028355125926E-02
 0.1199008156676E-03 -0.6267325849992E-03  0.0000000000000E+00 -0.1106829975272E-02
 0.1648128457631E-03 -0.8381935798311E-03  0.0000000000000E+00 -0.1187940257761E-02
 0.2094273922606E-03 -0.1054676963439E-02  0.0000000000000E+00 -0.1269542971221E-02
 0.2534328367694E-03 -0.1273248393310E-02  0.0000000000000E+00 -0.1349323356338E-02
 0.2963664292688E-03 -0.1490201216021E-02  0.0000000000000E+00 -0.1424587870256E-02
 0.3376074684242E-03 -0.1700978929769E-02  0.0000000000000E+00 -0.1491908556126E-02
 0.3765170365908E-03 -0.1900214329014E-02  0.0000000000000E+00 -0.1546987650653E-02
 0.4123939953654E-03 -0.2081699160529E-02  0.0000000000000E+00 -0.1585032063506E-02
 0.4438347339009E-03 -0.2237746097735E-02  0.0000000000000E+00 -0.1601195817063E-02
 0.4678894725646E-03 -0.2357558614958E-02  0.0000000000000E+00 -0.1589013513357E-02
 0.4803868721349E-03 -0.2425165524490E-02  0.0000000000000E+00 -0.1535196991464E-02
 0.4757749927973E-03 -0.2414838001040E-02  0.0000000000000E+00 -0.1410971948976E-02
 0.4536226693163E-03 -0.2278413414060E-02  0.0000000000000E+00 -0.1121586006009E-02
 0.5312505720030E-03 -0.1993884447885E-02  0.0000000000000E+00 -0.3671285088339E-03
 0.1241181087026E-02 -0.1806940669017E-02  0.0000000000000E+00  0.1075684369157E-02
 0.3108944755373E-02 -0.2035702986907E-02  0.0000000000000E+00  0.1907648951940E-02
-0.1663738121998E-03  0.1802861840512E-02  0.0000000000000E+00 -0.1419418212000E-03
-0.4037499608355E-03  0.1923982025659E-02  0.0000000000000E+00 -0.8616490580998E-04
-0.4840209557301E-03  0.1938718530011E-02  0.0000000000000E+00  0.2644981967792E-05
-0.4928721638696E-03  0.1921440986887E-02  0.0000000000000E+00  0.1262814048093E-05
-0.4889688053522E-03  0.1902250662025E-02  0.0000000000000E+00 -0.3875295481764E-04
-0.4819087422345E-03  0.1876965461950E-02  0.0000000000000E+00 -0.8394644572531E-04
-0.4720919891632E-03  0.1842711430480E-02  0.0000000000000E+00 -0.1277305817483E-03
-0.4599513776285E-03  0.1798974707836E-02  0.0000000000000E+00 -0.1683321104384E-03
-0.4456515735176E-03  0.1745794032665E-02  0.0000000000000E+00 -0.2055116929907E-03
-0.4293041667958E-03  0.1683518191770E-02  0.0000000000000E+00 -0.2397418740084E-03
-0.4110087081397E-03  0.1612540233086E-02  0.0000000000000E+00 -0.2716782845225E-03
-0.3908360767522E-03  0.1533194948361E-02  0.0000000000000E+00 -0.3020400242445E-03
-0.3688278499801E-03  0.1445706539564E-02  0.0000000000000E+00 -0.3315394708324E-03
-0.3449917595708E-03  0.1350166916214E-02  0.0000000000000E+00 -0.3608579506263E-03
-0.3193011190890E-03  0.1246529861521E-02  0.0000000000000E+00 -0.3906329255601E-03
-0.2916956685814E-03  0.1134614269677E-02  0.0000000000000E+00 -0.4214513614278E-03
-0.2620836667474E-03  0.1014112100965E-02  0.0000000000000E+00 -0.4538459762911E-03
-0.2303463278148E-03  0.8846030257409E-03  0.0000000000000E+00 -0.4882945053292E-03
-0.1963428048148E-03  0.7455669949824E-03  0.0000000000000E+00 -0.5252239864822E-03
-0.1599178223004E-03  0.5964001001572E-03  0.0000000000000E+00 -0.5650237013006E-03
-0.1209141305943E-03  0.4364338381774E-03  0.0000000000000E+00 -0.6080771275164E-03
-0.7919937186004E-04  0.2649524272150E-03  0.0000000000000E+00 -0.6548409394522E-03
-0.3475239076203E-04  0.8125351209271E-04  0.0000000000000E+00 -0.7059919540683E-03
 0.1217665020592E-04 -0.1151468635125E-03  0.0000000000000E+00 -0.7624343163557E-03
 0.6100446654311E-04 -0.3241079142094E-03  0.0000000000000E+00 -0.8247019138268E-03
 0.1110374984002E-03 -0.5446898401307E-03  0.0000000000000E+00 -0.8924599917204E-03
 0.1617389744383E-03 -0.7752770492535E-03  0.0000000000000E+00 -0.9648086784793E-03
 0.2127219305207E-03 -0.1013593557462E-02  0.0000000000000E+00 -0.1040678918623E-02
 0.2635527558967E-03 -0.1256632365809E-02  0.0000000000000E+00 -0.1118890799240E-02
 0.3135787924590E-03 -0.1500574219399E-02  0.0000000000000E+00 -0.1197933776539E-02
 0.3619194586505E-03 -0.1740734194664E-02  0.0000000000000E+00 -0.1275601160326E-02
 0.4076925787546E-03 -0.1971647281347E-02  0.0000000000000E+00 -0.1348759227743E-02
 0.4500923793599E-03 -0.2187247138637E-02  0.0000000000000E+00 -0.1413892495225E-02
 0.4877542484621E-03 -0.2380515919307E-02  0.0000000000000E+00 -0.1468118653849E-02
 0.5175322257256E-03 -0.2542262525605E-02  0.0000000000000E+00 -0.1509210005880E-02
 0.5340162918521E-03 -0.2658564940364E-02  0.0000000000000E+00 -0.1531684429548E-02
 0.5303556184004E-03 -0.2707914298114E-02  0.0000000000000E+00 -0.1523157740400E-02
 0.4826706335424E-03 -0.2638474295040E-02  0.0000000000000E+00 -0.1449682991613E-02
 0.4083559066112E-03 -0.2340878252443E-02  0.0000000000000E+00 -0.1019488374266E-02
 0.9081491950149E-03 -0.1985325642569E-02  0.0000000000000E+00  0.4169817874684E-03
 0.3088964347375E-02 -0.2153806112838E-02  0.0000000000000E+00  0.1592467098890E-02
-0.2099223449739E-03  0.2015897600777E-02  0.0000000000000E+00 -0.2645413581114E-03
-0.4796181569266E-03  0.2134787895937E-02  0.0000000000000E+00 -0.9096632246219E-04
-0.5375798231983E-03  0.2126390837615E-02  0.0000000000000E+00  0.2928931237399E-04
-0.5353599909561E-03  0.2110972927221E-02  0.0000000000000E+00  0.1622955704383E-04
-0.5321356485397E-03  0.2098873649674E-02  0.0000000000000E+00 -0.2041009311196E-04
-0.5261437086731E-03  0.2077184494427E-02  0.0000000000000E+00 -0.5640701524738E-04
-0.5171410256350E-03  0.2044668713195E-02  0.0000000000000E+00 -0.9046765103966E-04
-0.5055535780820E-03  0.2001097253046E-02  0.0000000000000E+00 -0.1211644686924E-03
-0.4914483295332E-03  0.1946965215911E-02  0.0000000000000E+00 -0.1488918922253E-03
-0.4750078534252E-03  0.1882912788515E-02  0.0000000000000E+00 -0.1741551502787E-03
-0.4563639200165E-03  0.1809531179150E-02  0.0000000000000E+00 -0.1975653482720E-03
-0.4356223140203E-03  0.1727281931683E-02  0.0000000000000E+00 -0.2197203714387E-03
-0.4128473516579E-03  0.1636464531806E-02  0.0000000000000E+00 -0.2411896250265E-03
-0.3880620614529E-03  0.1537207695843E-02  0.0000000000000E+00 -0.2625039855793E-03
-0.3612480026663E-03  0.1429471907551E-02  0.0000000000000E+00 -0.2841536100961E-03
-0.3323474613262E-03  0.1313058085828E-02  0.0000000000000E+00 -0.3065868084732E-03
-0.3012659818277E-03  0.1187618876098E-02  0.0000000000000E+00 -0.3302093023752E-03
-0.2678767310270E-03  0.1052674891721E-02  0.0000000000000E+00 -0.3553857637937E-03
-0.2320248629705E-03  0.9076273237903E-03  0.0000000000000E+00 -0.3824445334081E-03
-0.1935325728273E-03  0.7517714647326E-03  0.0000000000000E+00 -0.4116882401018E-03
-0.1522063561374E-03  0.5843096779321E-03  0.0000000000000E+00 -0.4434211716399E-03
-0.1078460383818E-03  0.4043478949593E-03  0.0000000000000E+00 -0.4780147185742E-03
-0.6030152513720E-04  0.2108972792207E-03  0.0000000000000E+00 -0.5160918217372E-03
-0.9646842630912E-05  0.3012192369693E-05  0.0000000000000E+00 -0.5586969059208E-03
 0.4370112206625E-04 -0.2197629272452E-03  0.0000000000000E+00 -0.6068443398842E-03
 0.9916602281806E-04 -0.4570279810816E-03  0.0000000000000E+00 -0.6610669894070E-03
 0.1562550226797E-03 -0.7074632051837E-03  0.0000000000000E+00 -0.7216327776428E-03
 0.2145316150507E-03 -0.9688249592544E-03  0.0000000000000E+00 -0.7887437021470E-03
 0.2734335198185E-03 -0.1238002327112E-02  0.0000000000000E+00 -0.8624415688711E-03
 0.3321291069242E-03 -0.1511073482313E-02  0.0000000000000E+00 -0.9424098165813E-03
 0.3894968757388E-03 -0.1783282496736E-02  0.0000000000000E+00 -0.1027700372691E-02
 0.4443780478137E-03 -0.2049073843647E-02  0.0000000000000E+00 -0.1116369044993E-02
 0.4959122682959E-03 -0.2302442556017E-02  0.0000000000000E+00 -0.1205776654188E-02
 0.5428492165219E-03 -0.2537169629632E-02  0.0000000000000E+00 -0.1294265326725E-02
 0.5828979682723E-03 -0.2746379263307E-02  0.0000000000000E+00 -0.1381524293069E-02
 0.6103931193402E-03 -0.2921131958389E-02  0.0000000000000E+00 -0.1470564113428E-02
 0.6198193061052E-03 -0.3045631464520E-02  0.0000000000000E+00 -0.1556878100733E-02
 0.5943631779628E-03 -0.3095329892582E-02  0.0000000000000E+00 -0.1664824609013E-02
 0.4177259012959E-03 -0.2910194469899E-02  0.0000000000000E+00 -0.1703790911718E-02
 0.5536638336754E-03 -0.2411820876913E-02  0.0000000000000E+00 -0.6026754204477E-03
 0.3109847829988E-02 -0.2470787264230E-02  0.0000000000000E+00  0.9841303951080E-03
-0.2722879161907E-03  0.2257612225381E-02  0.0000000000000E+00 -0.3997889976640E-03
-0.5685357133563E-03  0.2334498320769E-02  0.0000000000000E+00 -0.4943079266253E-04
-0.5834133594089E-03  0.2298645246397E-02  0.0000000000000E+00  0.5302618057221E-04
-0.5773462237044E-03  0.2302373671356E-02  0.0000000000000E+00  0.1740015175770E-04
-0.5778314566276E-03  0.2298363016616E-02  0.0000000000000E+00 -0.6465005878900E-05
-0.5726762629654E-03  0.2281116116606E-02  0.0000000000000E+00 -0.3180494189923E-04
-0.5647116306668E-03  0.2250361587823E-02  0.0000000000000E+00 -0.5388809896949E-04
-0.5535098956434E-03  0.2206801058132E-02  0.0000000000000E+00 -0.7344059601373E-04
-0.5394727720528E-03  0.2151520263616E-02  0.0000000000000E+00 -0.9079099792899E-04
-0.5228086723803E-03  0.2085513671340E-02  0.0000000000000E+00 -0.1064364292413E-03
-0.5037208198490E-03  0.2009597059472E-02  0.0000000000000E+00 -0.1208277563147E-03
-0.4823510349255E-03  0.1924368696291E-02  0.0000000000000E+00 -0.1343832411479E-03
-0.4587895067106E-03  0.1830206554868E-02  0.0000000000000E+00 -0.1474836272498E-03
-0.4330736994930E-03  0.1727275925573E-02  0.0000000000000E+00 -0.1604762463458E-03
-0.4051916978126E-03  0.1615542118661E-02  0.0000000000000E+00 -0.1736774122668E-03
-0.3750857906622E-03  0.1494785092670E-02  0.0000000000000E+00 -0.1873747880384E-03
-0.3426560424938E-03  0.1364614945223E-02  0.0000000000000E+00 -0.2018277815981E-03
-0.3077646165410E-03  0.1224490197168E-02  0.0000000000000E+00 -0.2172693651910E-03
-0.2702402406545E-03  0.1073730543469E-02  0.0000000000000E+00 -0.2339109990768E-03
-0.2298812835889E-03  0.9115303322996E-03  0.0000000000000E+00 -0.2519475371686E-03
-0.1864599731310E-03  0.7369669257095E-03  0.0000000000000E+00 -0.2715780241758E-03
-0.1397195562192E-03  0.5489866795663E-03  0.0000000000000E+00 -0.2930401381949E-03
-0.8938355928906E-04  0.3463481349056E-03  0.0000000000000E+00 -0.3167525570978E-03
-0.3529327927401E-04  0.1275943465577E-03  0.0000000000000E+00 -0.3436302429479E-03
 0.2244258082298E-04 -0.1085741180693E-03  0.0000000000000E+00 -0.3749941275736E-03
 0.8352099548434E-04 -0.3625888849297E-03  0.0000000000000E+00 -0.4124090656253E-03
 0.1475652975941E-03 -0.6335371583712E-03  0.0000000000000E+00 -0.4576781975584E-03
 0.2140722130742E-03 -0.9191546296500E-03  0.0000000000000E+00 -0.5125528460502E-03
 0.2823084323927E-03 -0.1216142375889E-02  0.0000000000000E+00 -0.5783751751786E-03
 0.3512644159320E-03 -0.1520458293724E-02  0.0000000000000E+00 -0.6559555291346E-03
 0.4196212786245E-03 -0.1827372012953E-02  0.0000000000000E+00 -0.7455922975073E-03
 0.4859312411181E-03 -0.2131299459480E-02  0.0000000000000E+00 -0.8467163883056E-03
 0.5490460987494E-03 -0.2425976426523E-02  0.0000000000000E+00 -0.9574377220513E-03
 0.6080895413169E-03 -0.2705666711001E-02  0.0000000000000E+00 -0.1075714898897E-02
 0.6610159070278E-03 -0.2966290344457E-02  0.0000000000000E+00 -0.1201757938316E-02
 0.7072359730192E-03 -0.3205682178743E-02  0.0000000000000E+00 -0.1338533605440E-02
 0.7338099773967E-03 -0.3419501173471E-02  0.0000000000000E+00 -0.1504514841795E-02
 0.7654648740014E-03 -0.3605730871383E-02  0.0000000000000E+00 -0.1687304705491E-02
 0.6476203483455E-03 -0.3728671969632E-02  0.0000000000000E+00 -0.2165365017525E-02
 0.2752575246787E-03 -0.3326688008017E-02  0.0000000000000E+00 -0.2002857614413E-02
 0.3279807646979E-02 -0.3358270540040E-02  0.0000000000000E+00 -0.3603184138450E-03
-0.3629232861064E-03  0.2578157015825E-02  0.0000000000000E+00 -0.4935478951278E-03
-0.6593833665843E-03  0.2453711830759E-02  0.0000000000000E+00  0.9028954959729E-04
-0.6102144681563E-03  0.2470557417006E-02  0.0000000000000E+00  0.1903617201100E-04
-0.6260400660446E-03  0.2496963821537E-02  0.0000000000000E+00  0.1255632954708E-04
-0.6253483553302E-03  0.2502242421691E-02  0.0000000000000E+00 -0.7260397154318E-07
-0.6225423040748E-03  0.2489661123314E-02  0.0000000000000E+00 -0.9709340462405E-05
-0.6150798688779E-03  0.2460347312149E-02  0.0000000000000E+00 -0.1793585191938E-04
-0.6041042105497E-03  0.2416461872152E-02  0.0000000000000E+00 -0.2493359019479E-04
-0.5898971852182E-03  0.2359716708744E-02  0.0000000000000E+00 -0.3102449075601E-04
-0.5728377874475E-03  0.2291507207507E-02  0.0000000000000E+00 -0.3643848246571E-04
-0.5531782496561E-03  0.2212880059569E-02  0.0000000000000E+00 -0.4137175953278E-04
-0.5311037893263E-03  0.2124572124727E-02  0.0000000000000E+00 -0.4599008245546E-04
-0.5067270594207E-03  0.2027037557826E-02  0.0000000000000E+00 -0.5043855169553E-04
-0.4800976457908E-03  0.1920474924864E-02  0.0000000000000E+00 -0.5484610844182E-04
-0.4512071099938E-03  0.1804850569416E-02  0.0000000000000E+00 -0.5932838693235E-04
-0.4199942381189E-03  0.1679919724804E-02  0.0000000000000E+00 -0.6398913619782E-04
-0.3863504654469E-03  0.1545244784789E-02  0.0000000000000E+00 -0.6892370877343E-04
-0.3501239743156E-03  0.1400221049644E-02  0.0000000000000E+00 -0.7421394740361E-04
-0.3111243094383E-03  0.1244081417290E-02  0.0000000000000E+00 -0.7993769147608E-04
-0.2691256676937E-03  0.1075921491360E-02  0.0000000000000E+00 -0.8616527449359E-04
-0.2238683459592E-03  0.8946985709183E-03  0.0000000000000E+00 -0.9296774584121E-04
-0.1750549205140E-03  0.6992184106081E-03  0.0000000000000E+00 -0.1004305922627E-03
-0.1223306201680E-03  0.4880712228526E-03  0.0000000000000E+00 -0.1086655488884E-03
-0.6529344776859E-04  0.2593623801613E-03  0.0000000000000E+00 -0.1179997153195E-03
-0.3525876404176E-05  0.1057510156792E-04  0.0000000000000E+00 -0.1296067868098E-03
 0.6321763555792E-04 -0.2600591069663E-03  0.0000000000000E+00 -0.1463623462578E-03
 0.1347621276773E-03 -0.5521410128933E-03  0.0000000000000E+00 -0.1722401545164E-03
 0.2104625996431E-03 -0.8632463721800E-03  0.0000000000000E+00 -0.2109259475537E-03
 0.2893211011405E-03 -0.1189724893430E-02  0.0000000000000E+00 -0.2651131558329E-03
 0.3701147137909E-03 -0.1527355655190E-02  0.0000000000000E+00 -0.3365823260552E-03
 0.4514328414254E-03 -0.1871543695115E-02  0.0000000000000E+00 -0.4266590626032E-03
 0.5316081165819E-03 -0.2216994671414E-02  0.0000000000000E+00 -0.5365590324755E-03
 0.6088765503880E-03 -0.2556679679054E-02  0.0000000000000E+00 -0.6657882755049E-03
 0.6818211582415E-03 -0.2883910268930E-02  0.0000000000000E+00 -0.8101236596263E-03
 0.7506184349682E-03 -0.3198055428824E-02  0.0000000000000E+00 -0.9658047594091E-03
 0.8136421514469E-03 -0.3503863567948E-02  0.0000000000000E+00 -0.1135260574694E-02
 0.8819506289604E-03 -0.3814593526647E-02  0.0000000000000E+00 -0.1330158310729E-02
 0.9093029808194E-03 -0.4142366210842E-02  0.0000000000000E+00 -0.1586665270866E-02
 0.1145054726267E-02 -0.4608098028358E-02  0.0000000000000E+00 -0.1918819515025E-02
 0.2328505493257E-03 -0.5050897401258E-02  0.0000000000000E+00 -0.3229138863698E-02
 0.4473582605078E-02 -0.6208764790545E-02  0.0000000000000E+00 -0.3560250089013E-02
 0.6442762099696E-01 -0.1351711720468E+00  0.0000000000000E+00 -0.4067737182830E+00
 0.1089158817520E+00 -0.1768933192460E+00  0.0000000000000E+00 -0.4012015935139E+00
 0.1517406546627E+00 -0.2168924689968E+00  0.0000000000000E+00 -0.3906827664047E+00
 0.1914282957489E+00 -0.2537685687236E+00  0.0000000000000E+00 -0.3762819290693E+00
 0.2273542134839E+00 -0.2869539779566E+00  0.0000000000000E+00 -0.3593889811367E+00
 0.2593221738221E+00 -0.3162802038910E+00  0.0000000000000E+00 -0.3411190341882E+00
 0.2873129663428E+00 -0.3417513488341E+00  0.0000000000000E+00 -0.3224086848998E+00
 0.3114770885385E+00 -0.3635485714330E+00  0.0000000000000E+00 -0.3042476875726E+00
 0.3321234012240E+00 -0.3820018930637E+00  0.0000000000000E+00 -0.2874481377556E+00
 0.3496263590771E+00 -0.3974986639279E+00  0.0000000000000E+00 -0.2725322303823E+00
 0.3643593205553E+00 -0.4104216107028E+00  0.0000000000000E+00 -0.2598126673753E+00
 0.3766742603703E+00 -0.4211296893262E+00  0.0000000000000E+00 -0.2494733818028E+00
 0.3868925621003E+00 -0.4299496433416E+00  0.0000000000000E+00 -0.2415974626173E+00
 0.3952917225359E+00 -0.4371624609108E+00  0.0000000000000E+00 -0.2361893284801E+00
 0.4020979977919E+00 -0.4429966597759E+00  0.0000000000000E+00 -0.2332172955884E+00
 0.4074868300627E+00 -0.4476276853420E+00  0.0000000000000E+00 -0.2326307809311E+00
 0.4115116372872E+00 -0.4511387460295E+00  0.0000000000000E+00 -0.2342894160315E+00
 0.4141960168366E+00 -0.4535818618514E+00  0.0000000000000E+00 -0.2383965314469E+00
 0.4157946637718E+00 -0.4551630829933E+00  0.0000000000000E+00 -0.2451584849996E+00
 0.4165159322876E+00 -0.4564594303019E+00  0.0000000000000E+00 -0.2526148939388E+00
 0.6109374633310E-01 -0.1312607628057E+00  0.0000000000000E+00 -0.3875342828085E+00
 0.1053612521506E+00 -0.1727586595132E+00  0.0000000000000E+00 -0.3830172870594E+00
 0.1478721926639E+00 -0.2124951287078E+00  0.0000000000000E+00 -0.3746829990917E+00
 0.1874375538548E+00 -0.2493172298169E+00  0.0000000000000E+00 -0.3629327820428E+00
 0.2234558454609E+00 -0.2826639412080E+00  0.0000000000000E+00 -0.3487508275502E+00
 0.2557148839967E+00 -0.3123535231530E+00  0.0000000000000E+00 -0.3330776597818E+00
 0.2841864347700E+00 -0.3383838297134E+00  0.0000000000000E+00 -0.3167298865373E+00
 0.3089886840161E+00 -0.3608964203137E+00  0.0000000000000E+00 -0.3005718432731E+00
 0.3303787734445E+00 -0.3801673276760E+00  0.0000000000000E+00 -0.2853597440979E+00
 0.3486853732856E+00 -0.3965383808810E+00  0.0000000000000E+00 -0.2716251081055E+00
 0.3642496950039E+00 -0.4103603522292E+00  0.0000000000000E+00 -0.2597183661948E+00
 0.3774028326495E+00 -0.4219718887276E+00  0.0000000000000E+00 -0.2498682651429E+00
 0.3884545568370E+00 -0.4316887616807E+00  0.0000000000000E+00 -0.2422057085339E+00
 0.3976808712053E+00 -0.4397919325544E+00  0.0000000000000E+00 -0.2367821208199E+00
 0.4053165650677E+00 -0.4465206492724E+00  0.0000000000000E+00 -0.2335929375224E+00
 0.4115357398659E+00 -0.4520597783211E+00  0.0000000000000E+00 -0.2325654293495E+00
 0.4163942282972E+00 -0.4564853929126E+00  0.0000000000000E+00 -0.2335927737261E+00
 0.4199410114303E+00 -0.4598619971007E+00  0.0000000000000E+00 -0.2367889703592E+00
 0.4221106635641E+00 -0.4622152315625E+00  0.0000000000000E+00 -0.2419997673719E+00
 0.4226217482302E+00 -0.4632412001832E+00  0.0000000000000E+00 -0.2494156731057E+00
 0.5795294202199E-01 -0.1275408537025E+00  0.0000000000000E+00 -0.3683271725715E+00
 0.1021219985578E+00 -0.1689627205440E+00  0.0000000000000E+00 -0.3649828888289E+00
 0.1444106679314E+00 -0.2085149899847E+00  0.0000000000000E+00 -0.3586169292935E+00
 0.1838532226442E+00 -0.2452704218110E+00  0.0000000000000E+00 -0.3492741192601E+00
 0.2199212352299E+00 -0.2787307214761E+00  0.0000000000000E+00 -0.3375898984994E+00
 0.2524019626856E+00 -0.3087104809800E+00  0.0000000000000E+00 -0.3243079617202E+00
 0.2812585595749E+00 -0.3351971645077E+00  0.0000000000000E+00 -0.3101434170977E+00
 0.3065899854582E+00 -0.3583108259989E+00  0.0000000000000E+00 -0.2958627701912E+00
 0.3286171772285E+00 -0.3782889982043E+00  0.0000000000000E+00 -0.2821605137852E+00
 0.3476307078721E+00 -0.3954348037596E+00  0.0000000000000E+00 -0.2695621220629E+00
 0.3639426611942E+00 -0.4100699868305E+00  0.0000000000000E+00 -0.2584417026575E+00
 0.3778640468282E+00 -0.4225134414686E+00  0.0000000000000E+00 -0.2490607708287E+00
 0.3896919950911E+00 -0.4330691097444E+00  0.0000000000000E+00 -0.2415854393965E+00
 0.3996965439201E+00 -0.4420133867543E+00  0.0000000000000E+00 -0.2360982045063E+00
 0.4081068354151E+00 -0.4495832641003E+00  0.0000000000000E+00 -0.2326094470077E+00
 0.4150866850122E+00 -0.4559544271933E+00  0.0000000000000E+00 -0.2310634218496E+00
 0.4206979312251E+00 -0.4612062095852E+00  0.0000000000000E+00 -0.2313810489117E+00
 0.4249317604886E+00 -0.4653634294014E+00  0.0000000000000E+00 -0.2336203172196E+00
 0.4276801529407E+00 -0.4683378101914E+00  0.0000000000000E+00 -0.2379873111511E+00
 0.4288323295899E+00 -0.4700113405601E+00  0.0000000000000E+00 -0.2452179280095E+00
 0.5500282809832E-01 -0.1240235995338E+00  0.0000000000000E+00 -0.3490632246259E+00
 0.9915153934296E-01 -0.1654424055835E+00  0.0000000000000E+00 -0.3469896320724E+00
 0.1412794483822E+00 -0.2048698695314E+00  0.0000000000000E+00 -0.3424937345664E+00
 0.1806076466006E+00 -0.2415595166783E+00  0.0000000000000E+00 -0.3353636135622E+00
 0.2166877823618E+00 -0.2750899236946E+00  0.0000000000000E+00 -0.3259788778915E+00
 0.2493255999404E+00 -0.3052902709949E+00  0.0000000000000E+00 -0.3149082796440E+00
 0.2784838082721E+00 -0.3321450378703E+00  0.0000000000000E+00 -0.3027681194098E+00
 0.3042492208537E+00 -0.3557599450598E+00  0.0000000000000E+00 -0.2902397481834E+00
 0.3268165530786E+00 -0.3763448042365E+00  0.0000000000000E+00 -0.2779606362388E+00
 0.3464460225133E+00 -0.3941715889180E+00  0.0000000000000E+00 -0.2664412287805E+00
 0.3634240363725E+00 -0.4095362101711E+00  0.0000000000000E+00 -0.2560674162540E+00
 0.3780421642143E+00 -0.4227383949314E+00  0.0000000000000E+00 -0.2471227509201E+00
 0.3905832242211E+00 -0.4340684809841E+00  0.0000000000000E+00 -0.2397984381556E+00
 0.4013060908651E+00 -0.4437931090408E+00  0.0000000000000E+00 -0.2342002316864E+00
 0.4104283082090E+00 -0.4521390994308E+00  0.0000000000000E+00 -0.2303599245622E+00
 0.4181024053028E+00 -0.4592712765013E+00  0.0000000000000E+00 -0.2282511880179E+00
 0.4243821900663E+00 -0.4652625399722E+00  0.0000000000000E+00 -0.2278410587168E+00
 0.4292540031463E+00 -0.4701183320678E+00  0.0000000000000E+00 -0.2292829985345E+00
 0.4326706753638E+00 -0.4738039427818E+00  0.0000000000000E+00 -0.2329633133575E+00
 0.4346537657949E+00 -0.4763417844803E+00  0.0000000000000E+00 -0.2396710603181E+00
 0.5223574454512E-01 -0.1206960951470E+00  0.0000000000000E+00 -0.3297175523494E+00
 0.9641722128057E-01 -0.1621614001474E+00  0.0000000000000E+00 -0.3290009419876E+00
 0.1384229704959E+00 -0.2014982351209E+00  0.0000000000000E+00 -0.3263093488585E+00
 0.1776391532113E+00 -0.2381199880344E+00  0.0000000000000E+00 -0.3212434693774E+00
 0.2136982387896E+00 -0.2716822681301E+00  0.0000000000000E+00 -0.3139871720492E+00
 0.2464350169887E+00 -0.3020404573779E+00  0.0000000000000E+00 -0.3049658511145E+00
 0.2758200509589E+00 -0.3291841890559E+00  0.0000000000000E+00 -0.2947045706864E+00
 0.3019341486648E+00 -0.3532111212464E+00  0.0000000000000E+00 -0.2838081311133E+00
 0.3249529868644E+00 -0.3743106647368E+00  0.0000000000000E+00 -0.2728614921632E+00
 0.3451126294905E+00 -0.3927299017986E+00  0.0000000000000E+00 -0.2623556471497E+00
 0.3626771439233E+00 -0.4087421361663E+00  0.0000000000000E+00 -0.2526795591522E+00
 0.3779193529440E+00 -0.4226284964567E+00  0.0000000000000E+00 -0.2441304018871E+00
 0.3911063004562E+00 -0.4346641166482E+00  0.0000000000000E+00 -0.2369178863633E+00
 0.4024828752283E+00 -0.4451024884637E+00  0.0000000000000E+00 -0.2311694440059E+00
 0.4122533237669E+00 -0.4541578236398E+00  0.0000000000000E+00 -0.2269436055740E+00
 0.4205586414225E+00 -0.4619837869481E+00  0.0000000000000E+00 -0.2242548077164E+00
 0.4274556336016E+00 -0.4686525069415E+00  0.0000000000000E+00 -0.2231435528256E+00
 0.4329545934619E+00 -0.4741887212706E+00  0.0000000000000E+00 -0.2238379837723E+00
 0.4370709504885E+00 -0.4786175552221E+00  0.0000000000000E+00 -0.2267812731386E+00
 0.4399164403166E+00 -0.4820551013575E+00  0.0000000000000E+00 -0.2327001168720E+00
 0.4964315229843E-01 -0.1175446306076E+00  0.0000000000000E+00 -0.3102755669308E+00
 0.9388966411609E-01 -0.1590856277763E+00  0.0000000000000E+00 -0.3110000161477E+00
 0.1357952981489E+00 -0.1983503835547E+00  0.0000000000000E+00 -0.3100682622983E+00
 0.1748949785023E+00 -0.2348958937243E+00  0.0000000000000E+00 -0.3069482778837E+00
 0.2109012011224E+00 -0.2684542589138E+00  0.0000000000000E+00 -0.3016751171207E+00
 0.2436841455082E+00 -0.2989134571856E+00  0.0000000000000E+00 -0.2945578993622E+00
 0.2732282050117E+00 -0.3262745342645E+00  0.0000000000000E+00 -0.2860413087855E+00
 0.2996133484285E+00 -0.3506323522347E+00  0.0000000000000E+00 -0.2766619204680E+00
 0.3230018539272E+00 -0.3721616418582E+00  0.0000000000000E+00 -0.2669565245792E+00
 0.3436105555136E+00 -0.3910895222663E+00  0.0000000000000E+00 -0.2573944043747E+00
 0.3616840957638E+00 -0.4076695493132E+00  0.0000000000000E+00 -0.2483618104656E+00
 0.3774774457921E+00 -0.4221650271112E+00  0.0000000000000E+00 -0.2401637260677E+00
 0.3912413728442E+00 -0.4348351291516E+00  0.0000000000000E+00 -0.2330246762918E+00
 0.4032059853030E+00 -0.4459189923722E+00  0.0000000000000E+00 -0.2270936967456E+00
 0.4135626409732E+00 -0.4556182167554E+00  0.0000000000000E+00 -0.2224603015058E+00
 0.4224456577593E+00 -0.4640789385646E+00  0.0000000000000E+00 -0.2191873210368E+00
 0.4299228310463E+00 -0.4713820804926E+00  0.0000000000000E+00 -0.2173809248846E+00
 0.4360337723508E+00 -0.4775791916424E+00  0.0000000000000E+00 -0.2173126789470E+00
 0.4408433412800E+00 -0.4827440251194E+00  0.0000000000000E+00 -0.2194274257116E+00
 0.4445196945889E+00 -0.4870499706953E+00  0.0000000000000E+00 -0.2243558882232E+00
 0.4721712245694E-01 -0.1145559726399E+00  0.0000000000000E+00 -0.2907318363332E+00
 0.9154280986768E-01 -0.1561847629092E+00  0.0000000000000E+00 -0.2929803969346E+00
 0.1333568332895E+00 -0.1953831960292E+00  0.0000000000000E+00 -0.2937797492858E+00
 0.1723293777445E+00 -0.2318387540661E+00  0.0000000000000E+00 -0.2925099529286E+00
 0.2082510505474E+00 -0.2653582067395E+00  0.0000000000000E+00 -0.2890954522646E+00
 0.2410311537123E+00 -0.2958659983130E+00  0.0000000000000E+00 -0.2837526992845E+00
 0.2706720254737E+00 -0.3233788531088E+00  0.0000000000000E+00 -0.2768573409419E+00
 0.2972567750947E+00 -0.3479929711639E+00  0.0000000000000E+00 -0.2688862079661E+00
 0.3209387559634E+00 -0.3698729312993E+00  0.0000000000000E+00 -0.2603324127247E+00
 0.3419195415450E+00 -0.3892298572594E+00  0.0000000000000E+00 -0.2516427741645E+00
 0.3604269080327E+00 -0.4063000603418E+00  0.0000000000000E+00 -0.2431972484676E+00
 0.3766991660209E+00 -0.4213300838352E+00  0.0000000000000E+00 -0.2353049679723E+00
 0.3909712368975E+00 -0.4345633475175E+00  0.0000000000000E+00 -0.2282030867591E+00
 0.4034590151634E+00 -0.4462249077072E+00  0.0000000000000E+00 -0.2220622485602E+00
 0.4143431676277E+00 -0.4565055093052E+00  0.0000000000000E+00 -0.2170047313737E+00
 0.4237556394910E+00 -0.4655481668735E+00  0.0000000000000E+00 -0.2131393662156E+00
 0.4317777684522E+00 -0.4734459077358E+00  0.0000000000000E+00 -0.2106233352480E+00
 0.4384757655633E+00 -0.4802756587634E+00  0.0000000000000E+00 -0.2097496330583E+00
 0.4439495759710E+00 -0.4861458269124E+00  0.0000000000000E+00 -0.2109409696588E+00
 0.4483984793598E+00 -0.4912609020366E+00  0.0000000000000E+00 -0.2147291731854E+00
 0.4495063929137E-01 -0.1117181182337E+00  0.0000000000000E+00 -0.2710879501171E+00
 0.8935366427485E-01 -0.1534317888070E+00  0.0000000000000E+00 -0.2749423967295E+00
 0.1310730790334E+00 -0.1925589751166E+00  0.0000000000000E+00 -0.2774560293476E+00
 0.1699023262261E+00 -0.2289060226987E+00  0.0000000000000E+00 -0.2779583602654E+00
 0.2057072779847E+00 -0.2623516961724E+00  0.0000000000000E+00 -0.2762952094621E+00
 0.2384382189511E+00 -0.2928588769498E+00  0.0000000000000E+00 -0.2726110708724E+00
 0.2681181052643E+00 -0.3204627894501E+00  0.0000000000000E+00 -0.2672237994836E+00
 0.2948361259033E+00 -0.3452640346940E+00  0.0000000000000E+00 -0.2605587764438E+00
 0.3187401966543E+00 -0.3674205848498E+00  0.0000000000000E+00 -0.2530701222335E+00
 0.3400198617979E+00 -0.3871307945182E+00  0.0000000000000E+00 -0.2451825696587E+00
 0.3588883361837E+00 -0.4046159818926E+00  0.0000000000000E+00 -0.2372678155529E+00
 0.3755687271751E+00 -0.4201072738094E+00  0.0000000000000E+00 -0.2296368919612E+00
 0.3902812092471E+00 -0.4338332623882E+00  0.0000000000000E+00 -0.2225380441380E+00
 0.4032289096332E+00 -0.4460061432054E+00  0.0000000000000E+00 -0.2161627627024E+00
 0.4145841948193E+00 -0.4568080823616E+00  0.0000000000000E+00 -0.2106644196205E+00
 0.4244792364978E+00 -0.4663817198672E+00  0.0000000000000E+00 -0.2061914180321E+00
 0.4330084588516E+00 -0.4748323012103E+00  0.0000000000000E+00 -0.2029382204149E+00
 0.4402595104027E+00 -0.4822575364647E+00  0.0000000000000E+00 -0.2012058551606E+00
 0.4463552741775E+00 -0.4887885742961E+00  0.0000000000000E+00 -0.2013863335870E+00
 0.4515066578183E+00 -0.4946417625763E+00  0.0000000000000E+00 -0.2039208857081E+00
 0.4283764442678E-01 -0.1090203918020E+00  0.0000000000000E+00 -0.2513514570730E+00
 0.8730206047750E-01 -0.1508028208234E+00  0.0000000000000E+00 -0.2568912307603E+00
 0.1289138799827E+00 -0.1898446131681E+00  0.0000000000000E+00 -0.2611111585419E+00
 0.1675786659112E+00 -0.2260602312862E+00  0.0000000000000E+00 -0.2633215705252E+00
 0.2032338980429E+00 -0.2593969769122E+00  0.0000000000000E+00 -0.2633167998763E+00
 0.2358712753689E+00 -0.2898567326824E+00  0.0000000000000E+00 -0.2611877165602E+00
 0.2655359058638E+00 -0.3174948900670E+00  0.0000000000000E+00 -0.2572052239215E+00
 0.2923251232932E+00 -0.3424186281947E+00  0.0000000000000E+00 -0.2517512337744E+00
 0.3163840780262E+00 -0.3647820370781E+00  0.0000000000000E+00 -0.2452456351735E+00
 0.3378929229075E+00 -0.3847733385398E+00  0.0000000000000E+00 -0.2380922681442E+00
 0.3570524116470E+00 -0.4026009122875E+00  0.0000000000000E+00 -0.2306537121984E+00
 0.3740720698549E+00 -0.4184820016987E+00  0.0000000000000E+00 -0.2232414835837E+00
 0.3891588163936E+00 -0.4326317352810E+00  0.0000000000000E+00 -0.2161134924356E+00
 0.4025047268075E+00 -0.4452510477969E+00  0.0000000000000E+00 -0.2094802320434E+00
 0.4142758310399E+00 -0.4565154642957E+00  0.0000000000000E+00 -0.2035225139608E+00
 0.4246057433553E+00 -0.4665686245861E+00  0.0000000000000E+00 -0.1984208746209E+00
 0.4336001764800E+00 -0.4755265317963E+00  0.0000000000000E+00 -0.1943960886426E+00
 0.4413628837875E+00 -0.4835026827310E+00  0.0000000000000E+00 -0.1917496077125E+00
 0.4480299424920E+00 -0.4906415133344E+00  0.0000000000000E+00 -0.1908418229186E+00
 0.4538097753931E+00 -0.4971574113485E+00  0.0000000000000E+00 -0.1920380770690E+00
 0.4087297008136E-01 -0.1064534068509E+00  0.0000000000000E+00 -0.2315350215223E+00
 0.8537040440816E-01 -0.1482768546461E+00  0.0000000000000E+00 -0.2388359370065E+00
 0.1268528934831E+00 -0.1872110589671E+00  0.0000000000000E+00 -0.2447604395113E+00
 0.1653275123863E+00 -0.2232683747296E+00  0.0000000000000E+00 -0.2486260621050E+00
 0.2007990100812E+00 -0.2564605239961E+00  0.0000000000000E+00 -0.2501988234919E+00
 0.2332998078504E+00 -0.2868278454157E+00  0.0000000000000E+00 -0.2495322583027E+00
 0.2628977793960E+00 -0.3144466415721E+00  0.0000000000000E+00 -0.2468606036853E+00
 0.2896997389955E+00 -0.3394321073055E+00  0.0000000000000E+00 -0.2425298849241E+00
 0.3138500715209E+00 -0.3619365009991E+00  0.0000000000000E+00 -0.2369304858618E+00
 0.3355216847775E+00 -0.3821400616451E+00  0.0000000000000E+00 -0.2304470717033E+00
 0.3549047705294E+00 -0.4002400972456E+00  0.0000000000000E+00 -0.2234329550159E+00
 0.3721969393236E+00 -0.4164415712787E+00  0.0000000000000E+00 -0.2161991633210E+00
 0.3875934667218E+00 -0.4309476827155E+00  0.0000000000000E+00 -0.2090117120032E+00
 0.4012770177513E+00 -0.4439496883043E+00  0.0000000000000E+00 -0.2020975012742E+00
 0.4134087125845E+00 -0.4556179106150E+00  0.0000000000000E+00 -0.1956602791585E+00
 0.4241239298352E+00 -0.4660974248747E+00  0.0000000000000E+00 -0.1899056276688E+00
 0.4335374609956E+00 -0.4755129947089E+00  0.0000000000000E+00 -0.1850722918935E+00
 0.4417644441924E+00 -0.4839894156734E+00  0.0000000000000E+00 -0.1814581484228E+00
 0.4489469045940E+00 -0.4916773873519E+00  0.0000000000000E+00 -0.1793953041082E+00
 0.4552815066844E+00 -0.4987804438658E+00  0.0000000000000E+00 -0.1791912095468E+00
 0.3905221269468E-01 -0.1040089469416E+00  0.0000000000000E+00 -0.2116556554803E+00
 0.8354341208452E-01 -0.1458355076987E+00  0.0000000000000E+00 -0.2207885890671E+00
 0.1248671624236E+00 -0.1846328868710E+00  0.0000000000000E+00 -0.2284200292771E+00
 0.1631217998549E+00 -0.2205014521912E+00  0.0000000000000E+00 -0.2338968725415E+00
 0.1983744492517E+00 -0.2535126867767E+00  0.0000000000000E+00 -0.2369766431226E+00
 0.2306966699538E+00 -0.2837439601214E+00  0.0000000000000E+00 -0.2376900048071E+00
 0.2601789616790E+00 -0.3112924757520E+00  0.0000000000000E+00 -0.2362441597454E+00
 0.2869383428418E+00 -0.3362822647994E+00  0.0000000000000E+00 -0.2329563798135E+00
 0.3111198724052E+00 -0.3588652443486E+00  0.0000000000000E+00 -0.2281921387932E+00
 0.3328909374561E+00 -0.3792154055215E+00  0.0000000000000E+00 -0.2223189392490E+00
 0.3524328508882E+00 -0.3975206494027E+00  0.0000000000000E+00 -0.2156810969462E+00
 0.3699329077096E+00 -0.4139752207897E+00  0.0000000000000E+00 -0.2085883933561E+00
 0.3855762919453E+00 -0.4287718962452E+00  0.0000000000000E+00 -0.2013132555664E+00
 0.3995376775774E+00 -0.4420936473581E+00  0.0000000000000E+00 -0.1940960228419E+00
 0.4119742332653E+00 -0.4541065695174E+00  0.0000000000000E+00 -0.1871587332020E+00
 0.4230229105803E+00 -0.4649570577854E+00  0.0000000000000E+00 -0.1807257391990E+00
 0.4328054002560E+00 -0.4747765912343E+00  0.0000000000000E+00 -0.1750474950813E+00
 0.4414444217042E+00 -0.4836976027404E+00  0.0000000000000E+00 -0.1704164840796E+00
 0.4490830583625E+00 -0.4918723433297E+00  0.0000000000000E+00 -0.1671418423652E+00
 0.4559015861851E+00 -0.4994890614369E+00  0.0000000000000E+00 -0.1654916470727E+00
 0.3737160622915E-01 -0.1016798294985E+00  0.0000000000000E+00 -0.1917340706336E+00
 0.8180786898380E-01 -0.1434627737284E+00  0.0000000000000E+00 -0.2027637374749E+00
 0.1229367713089E+00 -0.1820879478477E+00  0.0000000000000E+00 -0.2121067095806E+00
 0.1609379292432E+00 -0.2177341098013E+00  0.0000000000000E+00 -0.2191577634642E+00
 0.1959355160616E+00 -0.2505274160665E+00  0.0000000000000E+00 -0.2236828482480E+00
 0.2280379369487E+00 -0.2805801421652E+00  0.0000000000000E+00 -0.2257025540459E+00
 0.2573575570087E+00 -0.3080097623267E+00  0.0000000000000E+00 -0.2254059562520E+00
 0.2840218046105E+00 -0.3329494446596E+00  0.0000000000000E+00 -0.2230882167044E+00
 0.3081773775148E+00 -0.3555517825850E+00  0.0000000000000E+00 -0.2190942867809E+00
 0.3299874920633E+00 -0.3759858877300E+00  0.0000000000000E+00 -0.2137766435168E+00
 0.3496260303525E+00 -0.3944316977165E+00  0.0000000000000E+00 -0.2074711058719E+00
 0.3672714237363E+00 -0.4110741717775E+00  0.0000000000000E+00 -0.2004855654963E+00
 0.3831001552285E+00 -0.4260970320530E+00  0.0000000000000E+00 -0.1930971139108E+00
 0.3972800646812E+00 -0.4396761099831E+00  0.0000000000000E+00 -0.1855564857338E+00
 0.4099649653557E+00 -0.4519738825460E+00  0.0000000000000E+00 -0.1780995891045E+00
 0.4212929222878E+00 -0.4631376504930E+00  0.0000000000000E+00 -0.1709641707202E+00
 0.4313905770001E+00 -0.4733037359767E+00  0.0000000000000E+00 -0.1644076776426E+00
 0.4403853381830E+00 -0.4826093972613E+00  0.0000000000000E+00 -0.1587165206164E+00
 0.4484184915610E+00 -0.4912056448074E+00  0.0000000000000E+00 -0.1541822224333E+00
 0.4556527179410E+00 -0.4992644584418E+00  0.0000000000000E+00 -0.1510489838580E+00
 0.3582788939927E-01 -0.9945976683023E-01  0.0000000000000E+00 -0.1717940960081E+00
 0.8015240611463E-01 -0.1411447951014E+00  0.0000000000000E+00 -0.1847779639089E+00
 0.1210445506368E+00 -0.1795570725296E+00  0.0000000000000E+00 -0.1958377226309E+00
 0.1587554746910E+00 -0.2149443468642E+00  0.0000000000000E+00 -0.2044313596951E+00
 0.1934607476148E+00 -0.2474820369973E+00  0.0000000000000E+00 -0.2103476160352E+00
 0.2253027711436E+00 -0.2773146476766E+00  0.0000000000000E+00 -0.2136082573804E+00
 0.2544145034430E+00 -0.3045787829948E+00  0.0000000000000E+00 -0.2143923705867E+00
 0.2809335480340E+00 -0.3294166078626E+00  0.0000000000000E+00 -0.2129791304613E+00
 0.3050087975106E+00 -0.3519820042534E+00  0.0000000000000E+00 -0.2096970897643E+00
 0.3268003084954E+00 -0.3724402414359E+00  0.0000000000000E+00 -0.2048858467063E+00
 0.3464757334340E+00 -0.3909645017284E+00  0.0000000000000E+00 -0.1988733397392E+00
 0.3642058971487E+00 -0.4077317115774E+00  0.0000000000000E+00 -0.1919650060534E+00
 0.3801597658672E+00 -0.4229177138609E+00  0.0000000000000E+00 -0.1844408905704E+00
 0.3944992473507E+00 -0.4366920961630E+00  0.0000000000000E+00 -0.1765591965818E+00
 0.4073751286296E+00 -0.4492140514648E+00  0.0000000000000E+00 -0.1685656808724E+00
 0.4189260100102E+00 -0.4606312285555E+00  0.0000000000000E+00 -0.1607069478197E+00
 0.4292818252952E+00 -0.4710831689978E+00  0.0000000000000E+00 -0.1532438293923E+00
 0.4385725617682E+00 -0.4807098683129E+00  0.0000000000000E+00 -0.1464564921030E+00
 0.4469362270025E+00 -0.4896596209052E+00  0.0000000000000E+00 -0.1406233550073E+00
 0.4545191658505E+00 -0.4980893431564E+00  0.0000000000000E+00 -0.1359766436808E+00
 0.3441818504991E-01 -0.9734323053301E-01  0.0000000000000E+00 -0.1518621222110E+00
 0.7856729728226E-01 -0.1388696513507E+00  0.0000000000000E+00 -0.1668494891104E+00
 0.1191758214946E+00 -0.1770238102863E+00  0.0000000000000E+00 -0.1796306268332E+00
 0.1565569331665E+00 -0.2121132622061E+00  0.0000000000000E+00 -0.1897392506953E+00
 0.1909317189673E+00 -0.2443570493389E+00  0.0000000000000E+00 -0.1969989857017E+00
 0.2224732961716E+00 -0.2739287996700E+00  0.0000000000000E+00 -0.2014425733808E+00
 0.2513335241301E+00 -0.3009826876199E+00  0.0000000000000E+00 -0.2032464517544E+00
 0.2776595710811E+00 -0.3256693597414E+00  0.0000000000000E+00 -0.2026793902186E+00
 0.3016027253565E+00 -0.3481442472689E+00  0.0000000000000E+00 -0.2000573650384E+00
 0.3233205859558E+00 -0.3685695122616E+00  0.0000000000000E+00 -0.1957091787571E+00
 0.3429755281219E+00 -0.3871125505228E+00  0.0000000000000E+00 -0.1899555589077E+00
 0.3607318119334E+00 -0.4039433032926E+00  0.0000000000000E+00 -0.1830989997017E+00
 0.3767518530224E+00 -0.4192306993090E+00  0.0000000000000E+00 -0.1754208968699E+00
 0.3911923001713E+00 -0.4331387514673E+00  0.0000000000000E+00 -0.1671842251949E+00
 0.4042010504929E+00 -0.4458235023700E+00  0.0000000000000E+00 -0.1586410293181E+00
 0.4159166267417E+00 -0.4574323371995E+00  0.0000000000000E+00 -0.1500429672502E+00
 0.4264708852826E+00 -0.4681066491695E+00  0.0000000000000E+00 -0.1416514407981E+00
 0.4359948942323E+00 -0.4779876555481E+00  0.0000000000000E+00 -0.1337403895600E+00
 0.4446228479777E+00 -0.4872203283997E+00  0.0000000000000E+00 -0.1265788312133E+00
 0.4524874493965E+00 -0.4959489679921E+00  0.0000000000000E+00 -0.1203955930373E+00
 0.3313989395154E-01 -0.9532533292329E-01  0.0000000000000E+00 -0.1319666391490E+00
 0.7704428068102E-01 -0.1366271732362E+00  0.0000000000000E+00 -0.1489978709560E+00
 0.1173181748217E+00 -0.1744742047284E+00  0.0000000000000E+00 -0.1635032057258E+00
 0.1543275089410E+00 -0.2092248372666E+00  0.0000000000000E+00 -0.1751020958576E+00
 0.1883328689307E+00 -0.2411359539510E+00  0.0000000000000E+00 -0.1836630976626E+00
 0.2195344802685E+00 -0.2704068741345E+00  0.0000000000000E+00 -0.1892383664471E+00
 0.2481010711980E+00 -0.2972074429645E+00  0.0000000000000E+00 -0.1920082200651E+00
 0.2741884451190E+00 -0.3216959552726E+00  0.0000000000000E+00 -0.1922360511454E+00
 0.2979501777524E+00 -0.3440293464622E+00  0.0000000000000E+00 -0.1902287574521E+00
 0.3195418322639E+00 -0.3643671321098E+00  0.0000000000000E+00 -0.1863063220403E+00
 0.3391212182650E+00 -0.3828716566083E+00  0.0000000000000E+00 -0.1807829518774E+00
 0.3568468554781E+00 -0.3997067131699E+00  0.0000000000000E+00 -0.1739577940168E+00
 0.3728753636862E+00 -0.4150350746986E+00  0.0000000000000E+00 -0.1661121505127E+00
 0.3873586073113E+00 -0.4290156497628E+00  0.0000000000000E+00 -0.1575113577845E+00
 0.4004415903385E+00 -0.4418013174257E+00  0.0000000000000E+00 -0.1484106523011E+00
 0.4122621555011E+00 -0.4535385822619E+00  0.0000000000000E+00 -0.1390635601356E+00
 0.4229529734797E+00 -0.4643695578726E+00  0.0000000000000E+00 -0.1297297996179E+00
 0.4326451851513E+00 -0.4744356223540E+00  0.0000000000000E+00 -0.1206771235479E+00
 0.4414693063539E+00 -0.4838784343431E+00  0.0000000000000E+00 -0.1121679508302E+00
 0.4495475548327E+00 -0.4928325728859E+00  0.0000000000000E+00 -0.1044331453444E+00
 0.3199059887832E-01 -0.9340171682132E-01  0.0000000000000E+00 -0.1121377791245E+00
 0.7557639649759E-01 -0.1344087709082E+00  0.0000000000000E+00 -0.1312437081385E+00
 0.1154612719661E+00 -0.1718965887228E+00  0.0000000000000E+00 -0.1474733583493E+00
 0.1520549168757E+00 -0.2062657365231E+00  0.0000000000000E+00 -0.1605396817742E+00
 0.1856513353488E+00 -0.2378050872919E+00  0.0000000000000E+00 -0.1703643629514E+00
 0.2164740168146E+00 -0.2667359817232E+00  0.0000000000000E+00 -0.1770261273029E+00
 0.2447062547241E+00 -0.2932417643995E+00  0.0000000000000E+00 -0.1807148910036E+00
 0.2705112895785E+00 -0.3174872773461E+00  0.0000000000000E+00 -0.1816931425688E+00
 0.2940446083264E+00 -0.3396306502016E+00  0.0000000000000E+00 -0.1802618642286E+00
 0.3154599087993E+00 -0.3598289662728E+00  0.0000000000000E+00 -0.1767340647958E+00
 0.3349109210526E+00 -0.3782400335974E+00  0.0000000000000E+00 -0.1714181263178E+00
 0.3525510412799E+00 -0.3950221318047E+00  0.0000000000000E+00 -0.1646095389342E+00
 0.3685316525979E+00 -0.4103324433641E+00  0.0000000000000E+00 -0.1565882550457E+00
 0.3830001400196E+00 -0.4243250720652E+00  0.0000000000000E+00 -0.1476198736144E+00
 0.3960985083072E+00 -0.4371496111093E+00  0.0000000000000E+00 -0.1379601672272E+00
 0.4079633479981E+00 -0.4489510854120E+00  0.0000000000000E+00 -0.1278618549172E+00
 0.4187272613415E+00 -0.4598714038259E+00  0.0000000000000E+00 -0.1175811035378E+00
 0.4285208370510E+00 -0.4700514024806E+00  0.0000000000000E+00 -0.1073793888333E+00
 0.4374714459963E+00 -0.4796298178168E+00  0.0000000000000E+00 -0.9751433227773E-01
 0.4456938885086E+00 -0.4887343214506E+00  0.0000000000000E+00 -0.8822174173909E-01
 0.3096798493759E-01 -0.9156846039988E-01  0.0000000000000E+00 -0.9240691969181E-01
 0.7415784385300E-01 -0.1322072808481E+00  0.0000000000000E+00 -0.1136083924537E+00
 0.1135966678476E+00 -0.1692814012187E+00  0.0000000000000E+00 -0.1315590127465E+00
 0.1497292055470E+00 -0.2032251270110E+00  0.0000000000000E+00 -0.1460709742472E+00
 0.1828768027306E+00 -0.2343534674651E+00  0.0000000000000E+00 -0.1571256067069E+00
 0.2132822079106E+00 -0.2629059513884E+00  0.0000000000000E+00 -0.1648341573883E+00
 0.2411407655870E+00 -0.2890770400289E+00  0.0000000000000E+00 -0.1694010608183E+00
 0.2666217331750E+00 -0.3130367998026E+00  0.0000000000000E+00 -0.1710918221197E+00
 0.2898819037452E+00 -0.3349440180590E+00  0.0000000000000E+00 -0.1702043330394E+00
 0.3110730589823E+00 -0.3549533424932E+00  0.0000000000000E+00 -0.1670463304147E+00
 0.3303451307805E+00 -0.3732183592714E+00  0.0000000000000E+00 -0.1619210656025E+00
 0.3478468181925E+00 -0.3898922818488E+00  0.0000000000000E+00 -0.1551201646874E+00
 0.3637246513458E+00 -0.4051270937574E+00  0.0000000000000E+00 -0.1469211792091E+00
 0.3781216962069E+00 -0.4190722476912E+00  0.0000000000000E+00 -0.1375881857757E+00
 0.3911767726899E+00 -0.4318738441062E+00  0.0000000000000E+00 -0.1273752408435E+00
 0.4030246802323E+00 -0.4436748530862E+00  0.0000000000000E+00 -0.1165319943816E+00
 0.4137972510388E+00 -0.4546162210221E+00  0.0000000000000E+00 -0.1053094334839E+00
 0.4236241684465E+00 -0.4648377981839E+00  0.0000000000000E+00 -0.9396241861115E-01
 0.4326303827803E+00 -0.4744759764017E+00  0.0000000000000E+00 -0.8274462348952E-01
 0.4409260060199E+00 -0.4836540133654E+00  0.0000000000000E+00 -0.7189781679262E-01
 0.3006976899606E-01 -0.8982199365328E-01  0.0000000000000E+00 -0.7280631863538E-01
 0.7278385108823E-01 -0.1300168269566E+00  0.0000000000000E+00 -0.9611388157784E-01
 0.1117176483528E+00 -0.1666210191867E+00  0.0000000000000E+00 -0.1157780395301E+00
 0.1473425917263E+00 -0.2000945098943E+00  0.0000000000000E+00 -0.1317141505613E+00
 0.1800013549716E+00 -0.2307726458994E+00  0.0000000000000E+00 -0.1439681790392E+00
 0.2099518457092E+00 -0.2589092120476E+00  0.0000000000000E+00 -0.1526887159839E+00
 0.2373987890352E+00 -0.2847072454801E+00  0.0000000000000E+00 -0.1580988556895E+00
 0.2625158600606E+00 -0.3083405350921E+00  0.0000000000000E+00 -0.1604704979109E+00
 0.2854603611588E+00 -0.3299677994152E+00  0.0000000000000E+00 -0.1601009331014E+00
 0.3063819166183E+00 -0.3497410596465E+00  0.0000000000000E+00 -0.1572941800332E+00
 0.3254267613517E+00 -0.3678098174874E+00  0.0000000000000E+00 -0.1523490494068E+00
 0.3427391546203E+00 -0.3843225011219E+00  0.0000000000000E+00 -0.1455532040432E+00
 0.3584610032900E+00 -0.3994261338471E+00  0.0000000000000E+00 -0.1371809552492E+00
 0.3727310909303E+00 -0.4132655462859E+00  0.0000000000000E+00 -0.1274933799157E+00
 0.3856848002993E+00 -0.4259830689731E+00  0.0000000000000E+00 -0.1167409307600E+00
 0.3974546239751E+00 -0.4377190585128E+00  0.0000000000000E+00 -0.1051682562688E+00
 0.4081710509363E+00 -0.4486128610603E+00  0.0000000000000E+00 -0.9301966207262E-01
 0.4179626773788E+00 -0.4588030624270E+00  0.0000000000000E+00 -0.8054274861961E-01
 0.4269528101792E+00 -0.4684243424223E+00  0.0000000000000E+00 -0.6798726086329E-01
 0.4352491793137E+00 -0.4775976361610E+00  0.0000000000000E+00 -0.5560060051220E-01
 0.2929364187072E-01 -0.8815902422976E-01  0.0000000000000E+00 -0.5336876693533E-01
 0.7145055834071E-01 -0.1278326919240E+00  0.0000000000000E+00 -0.7878248192314E-01
 0.1098190804004E+00 -0.1639095999252E+00  0.0000000000000E+00 -0.1001481591568E+00
 0.1448893042438E+00 -0.1968675592599E+00  0.0000000000000E+00 -0.1174866095961E+00
 0.1770193318788E+00 -0.2270565607155E+00  0.0000000000000E+00 -0.1309120333551E+00
 0.2064780911777E+00 -0.2547406695581E+00  0.0000000000000E+00 -0.1406141306378E+00
 0.2334769094795E+00 -0.2801288477616E+00  0.0000000000000E+00 -0.1468380439291E+00
 0.2581921416584E+00 -0.3033969654732E+00  0.0000000000000E+00 -0.1498649155938E+00
 0.2807806468354E+00 -0.3247027912427E+00  0.0000000000000E+00 -0.1499935927504E+00
 0.3013894916878E+00 -0.3441953721102E+00  0.0000000000000E+00 -0.1475257794480E+00
 0.3201611619275E+00 -0.3620201117846E+00  0.0000000000000E+00 -0.1427565299617E+00
 0.3372355892063E+00 -0.3783207909745E+00  0.0000000000000E+00 -0.1359695551482E+00
 0.3527501547486E+00 -0.3932395804499E+00  0.0000000000000E+00 -0.1274353003780E+00
 0.3668392898075E+00 -0.4069166109197E+00  0.0000000000000E+00 -0.1174106631995E+00
 0.3796346258943E+00 -0.4194901019414E+00  0.0000000000000E+00 -0.1061409361929E+00
 0.3912658360693E+00 -0.4310972371813E+00  0.0000000000000E+00 -0.9386410052369E-01
 0.4018615648881E+00 -0.4418751914712E+00  0.0000000000000E+00 -0.8081632834454E-01
 0.4115492278272E+00 -0.4519610931293E+00  0.0000000000000E+00 -0.6723698503585E-01
 0.4204512377204E+00 -0.4614885210103E+00  0.0000000000000E+00 -0.5337120619865E-01
 0.4286748296682E+00 -0.4705777823054E+00  0.0000000000000E+00 -0.3947079128009E-01
 0.2863721973051E-01 -0.8657647496148E-01  0.0000000000000E+00 -0.3412729038247E-01
 0.7015491117819E-01 -0.1256512008253E+00  0.0000000000000E+00 -0.6163666390338E-01
 0.1078972728349E+00 -0.1611429353399E+00  0.0000000000000E+00 -0.8468686381456E-01
 0.1423654364592E+00 -0.1935399703861E+00  0.0000000000000E+00 -0.1034049807161E+00
 0.1739271901247E+00 -0.2232013951938E+00  0.0000000000000E+00 -0.1179757934177E+00
 0.2028583523531E+00 -0.2503975836262E+00  0.0000000000000E+00 -0.1286328919459E+00
 0.2293740096435E+00 -0.2753407036959E+00  0.0000000000000E+00 -0.1356461315341E+00
 0.2536513577287E+00 -0.2982069634875E+00  0.0000000000000E+00 -0.1393082293903E+00
 0.2758457389986E+00 -0.3191521800410E+00  0.0000000000000E+00 -0.1399214213104E+00
 0.2961011350798E+00 -0.3383219529963E+00  0.0000000000000E+00 -0.1377863479523E+00
 0.3145561051596E+00 -0.3558574514604E+00  0.0000000000000E+00 -0.1331949835106E+00
 0.3313462456796E+00 -0.3718978285479E+00  0.0000000000000E+00 -0.1264272089466E+00
 0.3466043995701E+00 -0.3865804012833E+00  0.0000000000000E+00 -0.1177491911863E+00
 0.3604604838129E+00 -0.4000404311157E+00  0.0000000000000E+00 -0.1074127583784E+00
 0.3730420024569E+00 -0.4124116229665E+00  0.0000000000000E+00 -0.9565679522720E-01
 0.3844752741083E+00 -0.4238274041277E+00  0.0000000000000E+00 -0.8271117827374E-01
 0.3948866116284E+00 -0.4344222186611E+00  0.0000000000000E+00 -0.6880250508401E-01
 0.4044021712560E+00 -0.4443315560532E+00  0.0000000000000E+00 -0.5416059015744E-01
 0.4131441554088E+00 -0.4536884461636E+00  0.0000000000000E+00 -0.3902466314534E-01
 0.4212208335325E+00 -0.4626139340483E+00  0.0000000000000E+00 -0.2364910949855E-01
 0.2809800366530E-01 -0.8507142839700E-01  0.0000000000000E+00 -0.1511486665344E-01
 0.6889456185527E-01 -0.1234696115498E+00  0.0000000000000E+00 -0.4469888312427E-01
 0.1059498442963E+00 -0.1583183122170E+00  0.0000000000000E+00 -0.6941133220985E-01
 0.1397688032501E+00 -0.1901093115691E+00  0.0000000000000E+00 -0.8948511497951E-01
 0.1707233649235E+00 -0.2192054359809E+00  0.0000000000000E+00 -0.1051767967102E+00
 0.1990921588405E+00 -0.2458794399525E+00  0.0000000000000E+00 -0.1167657230760E+00
 0.2250911611433E+00 -0.2703439487478E+00  0.0000000000000E+00 -0.1245484334444E+00
 0.2488965037381E+00 -0.2927736977051E+00  0.0000000000000E+00 -0.1288310508405E+00
 0.2706608514556E+00 -0.3133214635629E+00  0.0000000000000E+00 -0.1299207103084E+00
 0.2905244778920E+00 -0.3321288309934E+00  0.0000000000000E+00 -0.1281180861461E+00
 0.3086217424993E+00 -0.3493325037507E+00  0.0000000000000E+00 -0.1237127373587E+00
 0.3250838055987E+00 -0.3650669357901E+00  0.0000000000000E+00 -0.1169809461738E+00
 0.3400388710051E+00 -0.3794645027538E+00  0.0000000000000E+00 -0.1081844009402E+00
 0.3536121008060E+00 -0.3926553503070E+00  0.0000000000000E+00 -0.9756925642727E-01
 0.3659264307940E+00 -0.4047682015494E+00  0.0000000000000E+00 -0.8536704162381E-01
 0.3771042409343E+00 -0.4159320953089E+00  0.0000000000000E+00 -0.7179830803315E-01
 0.3872689841479E+00 -0.4262781439034E+00  0.0000000000000E+00 -0.5707864495537E-01
 0.3965454177342E+00 -0.4359399559504E+00  0.0000000000000E+00 -0.4142668440564E-01
 0.4050561156843E+00 -0.4450504519531E+00  0.0000000000000E+00 -0.2507382901190E-01
 0.4129116812940E+00 -0.4537325841981E+00  0.0000000000000E+00 -0.8274772254714E-02
 0.2767334682606E-01 -0.8364107894148E-01  0.0000000000000E+00  0.3635828043547E-02
 0.6766777750390E-01 -0.1212860120473E+00  0.0000000000000E+00 -0.2799141856813E-01
 0.1039755974428E+00 -0.1554343786862E+00  0.0000000000000E+00 -0.5433834809268E-01
 0.1370988026388E+00 -0.1865748803207E+00  0.0000000000000E+00 -0.7574206944156E-01
 0.1674081334369E+00 -0.2150689326917E+00  0.0000000000000E+00 -0.9253112499194E-01
 0.1951810343459E+00 -0.2411878199992E+00  0.0000000000000E+00 -0.1050316348033E+00
 0.2206315087660E+00 -0.2651418790732E+00  0.0000000000000E+00 -0.1135681311303E+00
 0.2439326868862E+00 -0.2871025266011E+00  0.0000000000000E+00 -0.1184614858947E+00
 0.2652333399895E+00 -0.3072183547498E+00  0.0000000000000E+00 -0.1200249251039E+00
 0.2846693464887E+00 -0.3256263023604E+00  0.0000000000000E+00 -0.1185600950993E+00
 0.3023705268106E+00 -0.3424583125807E+00  0.0000000000000E+00 -0.1143547873014E+00
 0.3184634384270E+00 -0.3578440047915E+00  0.0000000000000E+00 -0.1076820219147E+00
 0.3330714800245E+00 -0.3719106626724E+00  0.0000000000000E+00 -0.9879902075104E-01
 0.3463147533976E+00 -0.3847830072770E+00  0.0000000000000E+00 -0.8794594986520E-01
 0.3583111187827E+00 -0.3965842488241E+00  0.0000000000000E+00 -0.7534634037809E-01
 0.3691783597289E+00 -0.4074383344490E+00  0.0000000000000E+00 -0.6121042792817E-01
 0.3790364497032E+00 -0.4174723549541E+00  0.0000000000000E+00 -0.4574139731239E-01
 0.3880084859521E+00 -0.4268176737083E+00  0.0000000000000E+00 -0.2914481745930E-01
 0.3962178130460E+00 -0.4356073625700E+00  0.0000000000000E+00 -0.1164184669861E-01
 0.4037786299801E+00 -0.4439673243875E+00  0.0000000000000E+00  0.6515364156567E-02
 0.2736042762980E-01 -0.8228269124963E-01  0.0000000000000E+00  0.2209264414586E-01
 0.6647335358512E-01 -0.1190992229109E+00  0.0000000000000E+00 -0.1153622602502E-01
 0.1019743979272E+00 -0.1524910154198E+00  0.0000000000000E+00 -0.3948422150066E-01
 0.1343562809796E+00 -0.1829375630369E+00  0.0000000000000E+00 -0.6219008502666E-01
 0.1639834795470E+00 -0.2107939587099E+00  0.0000000000000E+00 -0.8005362389707E-01
 0.1911283674878E+00 -0.2363262687959E+00  0.0000000000000E+00 -0.9344796909522E-01
 0.2160001490839E+00 -0.2597398275970E+00  0.0000000000000E+00 -0.1027263206695E+00
 0.2387670115649E+00 -0.2812008815092E+00  0.0000000000000E+00 -0.1082251657501E+00
 0.2595725921533E+00 -0.3008526686644E+00  0.0000000000000E+00 -0.1102646939498E+00
 0.2785476535597E+00 -0.3188268184418E+00  0.0000000000000E+00 -0.1091482961629E+00
 0.2958171020118E+00 -0.3352501837029E+00  0.0000000000000E+00 -0.1051626177320E+00
 0.3115026881968E+00 -0.3502473787516E+00  0.0000000000000E+00 -0.9857785335778E-01
 0.3257227990757E+00 -0.3639404069123E+00  0.0000000000000E+00 -0.8964698297330E-01
 0.3385921219710E+00 -0.3764482104944E+00  0.0000000000000E+00 -0.7860416582694E-01
 0.3502228689408E+00 -0.3878878945620E+00  0.0000000000000E+00 -0.6566461811613E-01
 0.3607274759236E+00 -0.3983775225219E+00  0.0000000000000E+00 -0.5102753237134E-01
 0.3702216867294E+00 -0.4080393470935E+00  0.0000000000000E+00 -0.3488238454603E-01
 0.3788265085376E+00 -0.4170019567146E+00  0.0000000000000E+00 -0.1741963802926E-01
 0.3866662778986E+00 -0.4253986473697E+00  0.0000000000000E+00  0.1152515393915E-02
 0.3938599066429E+00 -0.4333591787403E+00  0.0000000000000E+00  0.2058769869820E-01
 0.2715622772119E-01 -0.8099356327628E-01  0.0000000000000E+00  0.4022416114351E-01
 0.6531053083608E-01 -0.1169087033372E+00  0.0000000000000E+00  0.4645198268324E-02
 0.9994705647311E-01 -0.1494892097775E+00  0.0000000000000E+00 -0.2486470867881E-01
 0.1315434005377E+00 -0.1791996968576E+00  0.0000000000000E+00 -0.4884255549929E-01
 0.1604529594426E+00 -0.2063842725518E+00  0.0000000000000E+00 -0.6775791078126E-01
 0.1869392808591E+00 -0.2313001606951E+00  0.0000000000000E+00 -0.8203043199169E-01
 0.2112040037442E+00 -0.2541450344225E+00  0.0000000000000E+00 -0.9204205356678E-01
 0.2334084548076E+00 -0.2750781391908E+00  0.0000000000000E+00 -0.9814527534314E-01
 0.2536899010865E+00 -0.2942361930448E+00  0.0000000000000E+00 -0.1006678004387E+00
 0.2721732657126E+00 -0.3117448492489E+00  0.0000000000000E+00 -0.9991536003835E-01
 0.2889781600497E+00 -0.3277255365472E+00  0.0000000000000E+00 -0.9617403628301E-01
 0.3042213167436E+00 -0.3422976885949E+00  0.0000000000000E+00 -0.8971172599797E-01
 0.3180158908203E+00 -0.3555778296295E+00  0.0000000000000E+00 -0.8077760477750E-01
 0.3304707717582E+00 -0.3676787443210E+00  0.0000000000000E+00 -0.6960011765221E-01
 0.3416918915831E+00 -0.3787107867196E+00  0.0000000000000E+00 -0.5638620486758E-01
 0.3517854810435E+00 -0.3887852446456E+00  0.0000000000000E+00 -0.4132360393488E-01
 0.3608621407524E+00 -0.3980185597324E+00  0.0000000000000E+00 -0.2458693793414E-01
 0.3690401596240E+00 -0.4065358208252E+00  0.0000000000000E+00 -0.6349430406246E-02
 0.3764449043093E+00 -0.4144704389162E+00  0.0000000000000E+00  0.1319672912548E-01
 0.3832010198499E+00 -0.4219568424793E+00  0.0000000000000E+00  0.3381455282096E-01
 0.2705751382099E-01 -0.7977099286191E-01  0.0000000000000E+00  0.5799986727762E-01
 0.6417891439280E-01 -0.1147144590286E+00  0.0000000000000E+00  0.2053194468319E-01
 0.9789521304976E-01 -0.1464309318213E+00  0.0000000000000E+00 -0.1049492981695E-01
 0.1286635091035E+00 -0.1753649333075E+00  0.0000000000000E+00 -0.3571198742975E-01
 0.1568215683515E+00 -0.2018451800895E+00  0.0000000000000E+00 -0.5565637182384E-01
 0.1826204992178E+00 -0.2261165639230E+00  0.0000000000000E+00 -0.7079311799221E-01
 0.2062516886980E+00 -0.2483665128104E+00  0.0000000000000E+00 -0.8153237374426E-01
 0.2278677332949E+00 -0.2687454855707E+00  0.0000000000000E+00 -0.8824258431174E-01
 0.2475983251535E+00 -0.2873825442802E+00  0.0000000000000E+00 -0.9125918599998E-01
 0.2655618495150E+00 -0.3043967250577E+00  0.0000000000000E+00 -0.9089065431527E-01
 0.2818722670572E+00 -0.3199037246995E+00  0.0000000000000E+00 -0.8742303540320E-01
 0.2966411050247E+00 -0.3340176468487E+00  0.0000000000000E+00 -0.8112253405312E-01
 0.3099760826616E+00 -0.3468493579940E+00  0.0000000000000E+00 -0.7223517042060E-01
 0.3219799034002E+00 -0.3585051067805E+00  0.0000000000000E+00 -0.6098429478615E-01
 0.3327515407955E+00 -0.3690878109007E+00  0.0000000000000E+00 -0.4756900611549E-01
 0.3423900506714E+00 -0.3787009875022E+00  0.0000000000000E+00 -0.3216555576252E-01
 0.3509997874996E+00 -0.3874541145824E+00  0.0000000000000E+00 -0.1493281242934E-01
 0.3586954589547E+00 -0.3954678305274E+00  0.0000000000000E+00  0.3975410082974E-02
 0.3656032843761E+00 -0.4028753409763E+00  0.0000000000000E+00  0.2438627975604E-01
 0.3718546391160E+00 -0.4098165200482E+00  0.0000000000000E+00  0.4607634662377E-01
 0.2706082267058E-01 -0.7861224777652E-01  0.0000000000000E+00  0.7539030148777E-01
 0.6307839463348E-01 -0.1125169522756E+00  0.0000000000000E+00  0.3610379626345E-01
 0.9582122370991E-01 -0.1433190133973E+00  0.0000000000000E+00  0.3610705980817E-02
 0.1257210134997E+00 -0.1714381061881E+00  0.0000000000000E+00 -0.2280995953022E-01
 0.1530956114224E+00 -0.1971834011802E+00  0.0000000000000E+00 -0.4376015666788E-01
 0.1781802206141E+00 -0.2207841082146E+00  0.0000000000000E+00 -0.5974853445461E-01
 0.2011533837492E+00 -0.2424149155202E+00  0.0000000000000E+00 -0.7121235948445E-01
 0.2221571667880E+00 -0.2622157758793E+00  0.0000000000000E+00 -0.7853548967882E-01
 0.2413125387664E+00 -0.2803070145241E+00  0.0000000000000E+00 -0.8206097273318E-01
 0.2587307017525E+00 -0.2968004621506E+00  0.0000000000000E+00 -0.8210022174520E-01
 0.2745196645615E+00 -0.3118058312661E+00  0.0000000000000E+00 -0.7893969607103E-01
 0.2887856179870E+00 -0.3254318046645E+00  0.0000000000000E+00 -0.7284457362274E-01
 0.3016306914828E+00 -0.3377834662979E+00  0.0000000000000E+00 -0.6405857362151E-01
 0.3131510396035E+00 -0.3489601819656E+00  0.0000000000000E+00 -0.5280091433169E-01
 0.3234379725430E+00 -0.3590567297307E+00  0.0000000000000E+00 -0.3926372923438E-01
 0.3325822914262E+00 -0.3681677621543E+00  0.0000000000000E+00 -0.2361220906444E-01
 0.3406807903522E+00 -0.3763944438612E+00  0.0000000000000E+00 -0.5988901602772E-02
 0.3478434567216E+00 -0.3838517505127E+00  0.0000000000000E+00  0.1347392357582E-01
 0.3541969152634E+00 -0.3906721013317E+00  0.0000000000000E+00  0.3462645682617E-01
 0.3598802126926E+00 -0.3970015321641E+00  0.0000000000000E+00  0.5726373808065E-01
 0.2716244531611E-01 -0.7751453511656E-01  0.0000000000000E+00  0.9236718838568E-01
 0.6200906549838E-01 -0.1103170092301E+00  0.0000000000000E+00  0.5134134458028E-01
 0.9372804548215E-01 -0.1401570251809E+00  0.0000000000000E+00  0.1743859597726E-01
 0.1227212525941E+00 -0.1674250988826E+00  0.0000000000000E+00 -0.1014705895624E-01
 0.1492825745608E+00 -0.1924069361370E+00  0.0000000000000E+00 -0.3207915343040E-01
 0.1736279863089E+00 -0.2153128510487E+00  0.0000000000000E+00 -0.4890761362836E-01
 0.1959206983158E+00 -0.2363023970981E+00  0.0000000000000E+00 -0.6109516185403E-01
 0.2162905342037E+00 -0.2555033871402E+00  0.0000000000000E+00 -0.6904006506365E-01
 0.2348486713200E+00 -0.2730264066742E+00  0.0000000000000E+00 -0.7309250476037E-01
 0.2516985617831E+00 -0.2889755705030E+00  0.0000000000000E+00 -0.7356679169565E-01
 0.2669420444110E+00 -0.3034544378455E+00  0.0000000000000E+00 -0.7075014152795E-01
 0.2806799318356E+00 -0.3165662709978E+00  0.0000000000000E+00 -0.6490740250279E-01
 0.2930086968480E+00 -0.3284103379212E+00  0.0000000000000E+00 -0.5628103941462E-01
 0.3040176448960E+00 -0.3390788444019E+00  0.0000000000000E+00 -0.4508745789272E-01
 0.3137897200488E+00 -0.3486577377097E+00  0.0000000000000E+00 -0.3151319284251E-01
 0.3224062880377E+00 -0.3572316242215E+00  0.0000000000000E+00 -0.1571334118836E-01
 0.3299550389080E+00 -0.3648917942167E+00  0.0000000000000E+00  0.2186001008961E-02
 0.3365397845148E+00 -0.3717460543225E+00  0.0000000000000E+00  0.2207612906911E-01
 0.3422867511498E+00 -0.3779251226363E+00  0.0000000000000E+00  0.4383420402788E-01
 0.3473433484091E+00 -0.3835816780921E+00  0.0000000000000E+00  0.6727981719211E-01
 0.2735841344626E-01 -0.7647497119442E-01  0.0000000000000E+00  0.1089035283969E+00
 0.6097114187114E-01 -0.1081157259664E+00  0.0000000000000E+00  0.6622608022512E-01
 0.9161912352811E-01 -0.1369491557068E+00  0.0000000000000E+00  0.3097603102911E-01
 0.1196703763789E+00 -0.1633327175958E+00  0.0000000000000E+00  0.2267182224343E-02
 0.1453910035596E+00 -0.1875249403259E+00  0.0000000000000E+00 -0.2062196449961E-01
 0.1689745587402E+00 -0.2097141516485E+00  0.0000000000000E+00 -0.3827973065464E-01
 0.1905665431484E+00 -0.2300424817009E+00  0.0000000000000E+00 -0.5119205549404E-01
 0.2102829326788E+00 -0.2486240731741E+00  0.0000000000000E+00 -0.5977012953655E-01
 0.2282241456556E+00 -0.2655588685022E+00  0.0000000000000E+00 -0.6437041904734E-01
 0.2444854187896E+00 -0.2809428562154E+00  0.0000000000000E+00 -0.6530983544191E-01
 0.2591623112783E+00 -0.2948733811461E+00  0.0000000000000E+00 -0.6287655398429E-01
 0.2723503374735E+00 -0.3074484080455E+00  0.0000000000000E+00 -0.5733578376423E-01
 0.2841403748636E+00 -0.3187614877099E+00  0.0000000000000E+00 -0.4892994649885E-01
 0.2946146882794E+00 -0.3288975054339E+00  0.0000000000000E+00 -0.3787431655339E-01
 0.3038471943904E+00 -0.3379329397740E+00  0.0000000000000E+00 -0.2435174318474E-01
 0.3119085565592E+00 -0.3459410983844E+00  0.0000000000000E+00 -0.8508838236913E-02
 0.3188755676988E+00 -0.3530016068795E+00  0.0000000000000E+00  0.9544343846390E-02
 0.3248440537288E+00 -0.3592132717807E+00  0.0000000000000E+00  0.2972451030651E-01
 0.3299385724704E+00 -0.3647037732421E+00  0.0000000000000E+00  0.5193996436049E-01
 0.3343149456028E+00 -0.3696323310498E+00  0.0000000000000E+00  0.7604219211751E-01
 0.2764448010889E-01 -0.7549054816292E-01  0.0000000000000E+00  0.1249736607563E+00
 0.5996487060958E-01 -0.1059143693792E+00  0.0000000000000E+00  0.8074048848443E-01
 0.8949827590931E-01 -0.1337000896031E+00  0.0000000000000E+00  0.4421130394998E-01
 0.1165752282218E+00 -0.1591685692789E+00  0.0000000000000E+00  0.1442437339386E-01
 0.1414303894185E+00 -0.1825476062833E+00  0.0000000000000E+00 -0.9395867520076E-02
 0.1642318052265E+00 -0.2040005516947E+00  0.0000000000000E+00 -0.2787271844859E-01
 0.1851050050567E+00 -0.2236499345136E+00  0.0000000000000E+00 -0.4151249676781E-01
 0.2041506365419E+00 -0.2415948198208E+00  0.0000000000000E+00 -0.5073733292634E-01
 0.2214575139657E+00 -0.2579237245207E+00  0.0000000000000E+00 -0.5590874368017E-01
 0.2371123138874E+00 -0.2727242193609E+00  0.0000000000000E+00 -0.5734566625146E-01
 0.2512043347907E+00 -0.2860875001811E+00  0.0000000000000E+00 -0.5533726194884E-01
 0.2638240227936E+00 -0.2981065066596E+00  0.0000000000000E+00 -0.5014973090788E-01
 0.2750568935488E+00 -0.3088693466064E+00  0.0000000000000E+00 -0.4202677821947E-01
 0.2849781462404E+00 -0.3184535997479E+00  0.0000000000000E+00 -0.3118457781544E-01
 0.2936521061945E+00 -0.3269257496738E+00  0.0000000000000E+00 -0.1780481115490E-01
 0.3011374042727E+00 -0.3343465078759E+00  0.0000000000000E+00 -0.2027990130948E-02
 0.3074978568286E+00 -0.3407817804590E+00  0.0000000000000E+00  0.1605078291086E-01
 0.3128190847126E+00 -0.3463191601616E+00  0.0000000000000E+00  0.3637530094323E-01
 0.3172221418561E+00 -0.3510814587181E+00  0.0000000000000E+00  0.5888935830612E-01
 0.3208701454336E+00 -0.3552332990400E+00  0.0000000000000E+00  0.8348474113423E-01
 0.2801609588242E-01 -0.7455809231049E-01  0.0000000000000E+00  0.1405533065270E+00
 0.5899043220012E-01 -0.1037142670581E+00  0.0000000000000E+00  0.9486815337330E-01
 0.8736957560241E-01 -0.1304148817649E+00  0.0000000000000E+00  0.5713384582517E-01
 0.1134432320072E+00 -0.1549409436528E+00  0.0000000000000E+00  0.2631738043367E-01
 0.1374110624901E+00 -0.1774860539403E+00  0.0000000000000E+00  0.1593240118703E-02
 0.1594125892711E+00 -0.1981856626977E+00  0.0000000000000E+00 -0.1769288148052E-01
 0.1795512250985E+00 -0.2171406353324E+00  0.0000000000000E+00 -0.3206419175650E-01
 0.1979109560550E+00 -0.2344336984184E+00  0.0000000000000E+00 -0.4195125716311E-01
 0.2145682924015E+00 -0.2501413051773E+00  0.0000000000000E+00 -0.4771901890304E-01
 0.2296011419382E+00 -0.2643424507953E+00  0.0000000000000E+00 -0.4968757758373E-01
 0.2430927006518E+00 -0.2771223826840E+00  0.0000000000000E+00 -0.4814689567502E-01
 0.2551287459970E+00 -0.2885694538419E+00  0.0000000000000E+00 -0.4336466357122E-01
 0.2657898804616E+00 -0.2987668195591E+00  0.0000000000000E+00 -0.3558722560008E-01
 0.2751444514629E+00 -0.3077850173647E+00  0.0000000000000E+00 -0.2503398559901E-01
 0.2832468097940E+00 -0.3156802086703E+00  0.0000000000000E+00 -0.1188863350100E-01
 0.2901422048380E+00 -0.3224992160631E+00  0.0000000000000E+00  0.3711067381529E-02
 0.2958790552835E+00 -0.3282918548183E+00  0.0000000000000E+00  0.2168295168425E-01
 0.3005300198340E+00 -0.3331317726243E+00  0.0000000000000E+00  0.4199936704407E-01
 0.3042101750864E+00 -0.3371344741335E+00  0.0000000000000E+00  0.6464429702815E-01
 0.3070874385166E+00 -0.3404677112430E+00  0.0000000000000E+00  0.8955836391792E-01
 0.2846837401137E-01 -0.7367421329546E-01  0.0000000000000E+00  0.1556195441061E+00
 0.5804783026709E-01 -0.1015166868025E+00  0.0000000000000E+00  0.1085938485871E+00
 0.8523723344239E-01 -0.1270988352302E+00  0.0000000000000E+00  0.6973437760922E-01
 0.1102822948335E+00 -0.1506587138663E+00  0.0000000000000E+00  0.3794045531567E-01
 0.1333441096093E+00 -0.1723522466863E+00  0.0000000000000E+00  0.1234089259102E-01
 0.1545306836598E+00 -0.1922840772621E+00  0.0000000000000E+00 -0.7745034321839E-02
 0.1739212927577E+00 -0.2105314693505E+00  0.0000000000000E+00 -0.2285319964771E-01
 0.1915821074199E+00 -0.2271597310195E+00  0.0000000000000E+00 -0.3341955311176E-01
 0.2075768074095E+00 -0.2422327880457E+00  0.0000000000000E+00 -0.3981045097809E-01
 0.2219744711767E+00 -0.2558210475859E+00  0.0000000000000E+00 -0.4234602180770E-01
 0.2348524863807E+00 -0.2680041383531E+00  0.0000000000000E+00 -0.4131661428182E-01
 0.2462925315591E+00 -0.2788664266768E+00  0.0000000000000E+00 -0.3699169232319E-01
 0.2563709932295E+00 -0.2884868506415E+00  0.0000000000000E+00 -0.2962148600667E-01
 0.2651499074895E+00 -0.2969295041233E+00  0.0000000000000E+00 -0.1943113578308E-01
 0.2726735765191E+00 -0.3042402321341E+00  0.0000000000000E+00 -0.6610191306731E-02
 0.2789725949941E+00 -0.3104507850931E+00  0.0000000000000E+00  0.8701756067503E-02
 0.2840771723711E+00 -0.3155921576288E+00  0.0000000000000E+00  0.2643209780357E-01
 0.2880435194107E+00 -0.3197206094503E+00  0.0000000000000E+00  0.4658268235618E-01
 0.2909774113651E+00 -0.3229410264194E+00  0.0000000000000E+00  0.6918269808847E-01
 0.2930488026204E+00 -0.3254216344153E+00  0.0000000000000E+00  0.9422926296720E-01
 0.2899603591810E-01 -0.7283522965883E-01  0.0000000000000E+00  0.1701507790995E+00
 0.5713675614513E-01 -0.9932268897549E-01  0.0000000000000E+00  0.1219036936555E+00
 0.8310547402213E-01 -0.1237573715429E+00  0.0000000000000E+00  0.8200515500958E-01
 0.1071007213722E+00 -0.1463312495596E+00  0.0000000000000E+00  0.4928944102136E-01
 0.1292413098854E+00 -0.1671589267116E+00  0.0000000000000E+00  0.2284414144211E-01
 0.1496006961375E+00 -0.1863112927697E+00  0.0000000000000E+00  0.1967456412532E-02
 0.1682321404025E+00 -0.2038402168778E+00  0.0000000000000E+00 -0.1388405735553E-01
 0.1851830733430E+00 -0.2197927440196E+00  0.0000000000000E+00 -0.2514809619511E-01
 0.2005040321346E+00 -0.2342200264960E+00  0.0000000000000E+00 -0.3219007260973E-01
 0.2142553641019E+00 -0.2471840277937E+00  0.0000000000000E+00 -0.3532879191094E-01
 0.2265090565941E+00 -0.2587591917450E+00  0.0000000000000E+00 -0.3485436454715E-01
 0.2373433968022E+00 -0.2690266204292E+00  0.0000000000000E+00 -0.3103801269203E-01
 0.2468315049480E+00 -0.2780620088633E+00  0.0000000000000E+00 -0.2413478294642E-01
 0.2550300672033E+00 -0.2859240303581E+00  0.0000000000000E+00 -0.1437798017875E-01
 0.2619737664183E+00 -0.2926487528148E+00  0.0000000000000E+00 -0.1967444847649E-02
 0.2676775429288E+00 -0.2982519965425E+00  0.0000000000000E+00  0.1294929671759E-01
 0.2721502048423E+00 -0.3027428760895E+00  0.0000000000000E+00  0.3030372669725E-01
 0.2754271305920E+00 -0.3061559233546E+00  0.0000000000000E+00  0.5012692870968E-01
 0.2776004012743E+00 -0.3085809871125E+00  0.0000000000000E+00  0.7249782949397E-01
 0.2788403686196E+00 -0.3101847616915E+00  0.0000000000000E+00  0.9747728873861E-01
 0.2959333052020E-01 -0.7203706170196E-01  0.0000000000000E+00  0.1841266300732E+00
 0.5625642166040E-01 -0.9713294507414E-01  0.0000000000000E+00  0.1347853358372E+00
 0.8097841503124E-01 -0.1203959059841E+00  0.0000000000000E+00  0.9394028754426E-01
 0.1039071640928E+00 -0.1419683685021E+00  0.0000000000000E+00  0.6036202761449E-01
 0.1251151168361E+00 -0.1619195994395E+00  0.0000000000000E+00  0.3310163574923E-01
 0.1446380300907E+00 -0.1802836705314E+00  0.0000000000000E+00  0.1144257799393E-01
 0.1625014523962E+00 -0.1970854567977E+00  0.0000000000000E+00 -0.5159968559101E-02
 0.1787334618380E+00 -0.2123532174872E+00  0.0000000000000E+00 -0.1714118827870E-01
 0.1933714173880E+00 -0.2261253697621E+00  0.0000000000000E+00 -0.2486291336827E-01
 0.2064672080447E+00 -0.2384557513186E+00  0.0000000000000E+00 -0.2864117867911E-01
 0.2180879011130E+00 -0.2494141168224E+00  0.0000000000000E+00 -0.2876511751239E-01
 0.2283091563344E+00 -0.2590790581970E+00  0.0000000000000E+00 -0.2550735838898E-01
 0.2372019678678E+00 -0.2675241631508E+00  0.0000000000000E+00 -0.1912811833311E-01
 0.2448191213495E+00 -0.2748041802963E+00  0.0000000000000E+00 -0.9870745261582E-02
 0.2511868893574E+00 -0.2809467544949E+00  0.0000000000000E+00  0.2049985476255E-02
 0.2563042138381E+00 -0.2859516559832E+00  0.0000000000000E+00  0.1647072761858E-01
 0.2601550988412E+00 -0.2898029402687E+00  0.0000000000000E+00  0.3331843907278E-01
 0.2627486424521E+00 -0.2925080234547E+00  0.0000000000000E+00  0.5265083051684E-01
 0.2641575820311E+00 -0.2941358961404E+00  0.0000000000000E+00  0.7460022831243E-01
 0.2645520265855E+00 -0.2948506632607E+00  0.0000000000000E+00  0.9930068423998E-01
 0.3025389516555E-01 -0.7127506262578E-01  0.0000000000000E+00  0.1975277595186E+00
 0.5540533438471E-01 -0.9494749993128E-01  0.0000000000000E+00  0.1472282655579E+00
 0.7885994908970E-01 -0.1170197308666E+00  0.0000000000000E+00  0.1055362408654E+00
 0.1007106280975E+00 -0.1375803542428E+00  0.0000000000000E+00  0.7115811345335E-01
 0.1209787054889E+00 -0.1566485895733E+00  0.0000000000000E+00  0.4311369105766E-01
 0.1396588876610E+00 -0.1742184429704E+00  0.0000000000000E+00  0.2067948787123E-01
 0.1567475847062E+00 -0.1902864816215E+00  0.0000000000000E+00  0.3316897216386E-02
 0.1722533515221E+00 -0.2048621220256E+00  0.0000000000000E+00 -0.9401844578055E-02
 0.1862007014951E+00 -0.2179714606153E+00  0.0000000000000E+00 -0.1783220552374E-01
 0.1986335408635E+00 -0.2296607339159E+00  0.0000000000000E+00 -0.2228609901792E-01
 0.2096145200122E+00 -0.2399955153010E+00  0.0000000000000E+00 -0.2305102955397E-01
 0.2192173525540E+00 -0.2490525325187E+00  0.0000000000000E+00 -0.2040043872839E-01
 0.2275120573696E+00 -0.2569043542360E+00  0.0000000000000E+00 -0.1459925260732E-01
 0.2345494067976E+00 -0.2636036924938E+00  0.0000000000000E+00 -0.5901463315916E-02
 0.2403495773151E+00 -0.2691722302180E+00  0.0000000000000E+00  0.5459316471358E-02
 0.2448965243866E+00 -0.2735950682922E+00  0.0000000000000E+00  0.1929440206202E-01
 0.2481463441273E+00 -0.2768285094751E+00  0.0000000000000E+00  0.3551297170113E-01
 0.2500752418992E+00 -0.2788463545278E+00  0.0000000000000E+00  0.5419240396622E-01
 0.2507287349773E+00 -0.2796885628210E+00  0.0000000000000E+00  0.7552062631820E-01
 0.2502770212170E+00 -0.2795161646177E+00  0.0000000000000E+00  0.9971927267289E-01
 0.3097053165055E-01 -0.7054373905658E-01  0.0000000000000E+00  0.2103356372083E+00
 0.5458098197364E-01 -0.9276542268217E-01  0.0000000000000E+00  0.1592243966418E+00
 0.7675365041878E-01 -0.1136339340751E+00  0.0000000000000E+00  0.1167926636276E+00
 0.9752057739394E-01 -0.1331780742813E+00  0.0000000000000E+00  0.8168033195452E-01
 0.1168461193598E+00 -0.1513612063068E+00  0.0000000000000E+00  0.5288233824135E-01
 0.1346803213446E+00 -0.1681337599105E+00  0.0000000000000E+00  0.2967821026028E-01
 0.1509894810743E+00 -0.1834632065575E+00  0.0000000000000E+00  0.1154499529153E-01
 0.1657630986326E+00 -0.1973407091804E+00  0.0000000000000E+00 -0.1932151446568E-02
 0.1790136617872E+00 -0.2097809689884E+00  0.0000000000000E+00 -0.1109958849023E-01
 0.1907778229628E+00 -0.2208233968507E+00  0.0000000000000E+00 -0.1626412150839E-01
 0.2011143031575E+00 -0.2305298786699E+00  0.0000000000000E+00 -0.1771137371131E-01
 0.2100953104197E+00 -0.2389756549829E+00  0.0000000000000E+00 -0.1571506724476E-01
 0.2177907013041E+00 -0.2462329742727E+00  0.0000000000000E+00 -0.1054363574948E-01
 0.2242512203938E+00 -0.2523543418099E+00  0.0000000000000E+00 -0.2460120663409E-02
 0.2294945487528E+00 -0.2573591980561E+00  0.0000000000000E+00  0.8281746133979E-02
 0.2334931394304E+00 -0.2612219193607E+00  0.0000000000000E+00  0.2145832731605E-01
 0.2361737622571E+00 -0.2638705490504E+00  0.0000000000000E+00  0.3694151563548E-01
 0.2374721223336E+00 -0.2652380054327E+00  0.0000000000000E+00  0.5481278097367E-01
 0.2373944762012E+00 -0.2653225871349E+00  0.0000000000000E+00  0.7531364097232E-01
 0.2361109986135E+00 -0.2642807269359E+00  0.0000000000000E+00  0.9877722659260E-01
 0.3173480975493E-01 -0.6983622781890E-01  0.0000000000000E+00  0.2225322737050E+00
 0.5377937189471E-01 -0.9058434772365E-01  0.0000000000000E+00  0.1707691392025E+00
 0.7466276028381E-01 -0.1102433773033E+00  0.0000000000000E+00  0.1277137443281E+00
 0.9434725455722E-01 -0.1287733880066E+00  0.0000000000000E+00  0.9193471672398E-01
 0.1127325811922E+00 -0.1460740510750E+00  0.0000000000000E+00  0.6241114412489E-01
 0.1297203521755E+00 -0.1620488268317E+00  0.0000000000000E+00  0.3843906648768E-01
 0.1452465935500E+00 -0.1766360690720E+00  0.0000000000000E+00  0.1952274995223E-01
 0.1592831136212E+00 -0.1898102833755E+00  0.0000000000000E+00  0.5266211290273E-02
 0.1718318107918E+00 -0.2015762688403E+00  0.0000000000000E+00 -0.4665437684099E-02
 0.1829231326739E+00 -0.2119677384128E+00  0.0000000000000E+00 -0.1057348668245E-01
 0.1926123672865E+00 -0.2210433948645E+00  0.0000000000000E+00 -0.1274225392416E-01
 0.2009702745268E+00 -0.2288769808052E+00  0.0000000000000E+00 -0.1144582468889E-01
 0.2080666463773E+00 -0.2355403349432E+00  0.0000000000000E+00 -0.6954718368538E-02
 0.2139533865597E+00 -0.2410867172078E+00  0.0000000000000E+00  0.4627358623495E-03
 0.2186500379506E+00 -0.2455372508194E+00  0.0000000000000E+00  0.1053737596497E-01
 0.2221248200550E+00 -0.2488636525351E+00  0.0000000000000E+00  0.2300534228481E-01
 0.2242785314538E+00 -0.2509703581678E+00  0.0000000000000E+00  0.3767626371527E-01
 0.2250000413537E+00 -0.2517448445697E+00  0.0000000000000E+00  0.5460341531297E-01
 0.2242364584707E+00 -0.2511228725150E+00  0.0000000000000E+00  0.7406410895080E-01
 0.2221530856501E+00 -0.2492477619733E+00  0.0000000000000E+00  0.9654174518297E-01
 0.3253626212062E-01 -0.6914342019028E-01  0.0000000000000E+00  0.2340995682090E+00
 0.5299426246441E-01 -0.8839941521249E-01  0.0000000000000E+00  0.1818639317816E+00
 0.7259047152387E-01 -0.1068532993927E+00  0.0000000000000E+00  0.1383107298081E+00
 0.9120239170291E-01 -0.1243797678267E+00  0.0000000000000E+00  0.1019313615313E+00
 0.1086550010984E+00 -0.1408056804128E+00  0.0000000000000E+00  0.7170473262909E-01
 0.1247980927462E+00 -0.1559839135239E+00  0.0000000000000E+00  0.4696169377794E-01
 0.1395387495084E+00 -0.1698259260997E+00  0.0000000000000E+00  0.2724786156828E-01
 0.1528335890682E+00 -0.1822919020212E+00  0.0000000000000E+00  0.1219128073172E-01
 0.1646759757779E+00 -0.1933789979808E+00  0.0000000000000E+00  0.1470719002711E-02
 0.1750916991493E+00 -0.2031168324376E+00  0.0000000000000E+00 -0.5210112598547E-02
 0.1841331963053E+00 -0.2115615426128E+00  0.0000000000000E+00 -0.8136045058732E-02
 0.1918694528756E+00 -0.2187849916973E+00  0.0000000000000E+00 -0.7582974109337E-02
 0.1983691914396E+00 -0.2248574092756E+00  0.0000000000000E+00 -0.3822990672846E-02
 0.2036851076611E+00 -0.2298320017927E+00  0.0000000000000E+00  0.2875247544375E-02
 0.2078409860493E+00 -0.2337336592490E+00  0.0000000000000E+00  0.1223724768203E-01
 0.2108115322766E+00 -0.2365404210960E+00  0.0000000000000E+00  0.2397137617253E-01
 0.2124857945640E+00 -0.2381519040716E+00  0.0000000000000E+00  0.3780289932865E-01
 0.2127087039224E+00 -0.2384152446703E+00  0.0000000000000E+00  0.5369878287280E-01
 0.2113392006857E+00 -0.2371771247761E+00  0.0000000000000E+00  0.7190756551874E-01
 0.2085129660009E+00 -0.2345344902315E+00  0.0000000000000E+00  0.9310206624313E-01
 0.3336098532712E-01 -0.6845079285724E-01  0.0000000000000E+00  0.2450221752047E+00
 0.5221634491781E-01 -0.8620361291895E-01  0.0000000000000E+00  0.1925223586011E+00
 0.7054099839011E-01 -0.1034694913823E+00  0.0000000000000E+00  0.1486061990629E+00
 0.8810090586338E-01 -0.1200152141544E+00  0.0000000000000E+00  0.1116848131120E+00
 0.1046325588642E+00 -0.1355764518986E+00  0.0000000000000E+00  0.8076612543958E-01
 0.1199336532150E+00 -0.1499605039289E+00  0.0000000000000E+00  0.5524455848018E-01
 0.1338861424238E+00 -0.1630539755691E+00  0.0000000000000E+00  0.3471618840455E-01
 0.1464341764912E+00 -0.1748060703190E+00  0.0000000000000E+00  0.1883979916785E-01
 0.1575657800695E+00 -0.1852094974659E+00  0.0000000000000E+00  0.7309492305984E-02
 0.1673042775734E+00 -0.1942921794850E+00  0.0000000000000E+00 -0.1677523130594E-03
 0.1757000305161E+00 -0.2021084426006E+00  0.0000000000000E+00 -0.3880888914084E-02
 0.1828197042262E+00 -0.2087276862889E+00  0.0000000000000E+00 -0.4110801418324E-02
 0.1887289146642E+00 -0.2142164324145E+00  0.0000000000000E+00 -0.1133289511359E-02
 0.1934781184801E+00 -0.2186243003851E+00  0.0000000000000E+00  0.4786358711176E-02
 0.1970949359098E+00 -0.2219784841097E+00  0.0000000000000E+00  0.1338180365011E-01
 0.1995638383732E+00 -0.2242671418794E+00  0.0000000000000E+00  0.2435681396193E-01
 0.2007908159801E+00 -0.2254043717168E+00  0.0000000000000E+00  0.3739568851621E-01
 0.2006188324542E+00 -0.2252647078251E+00  0.0000000000000E+00  0.5229465406909E-01
 0.1987874023050E+00 -0.2235701594355E+00  0.0000000000000E+00  0.6908220143081E-01
 0.1953347447238E+00 -0.2202972124650E+00  0.0000000000000E+00  0.8860571806866E-01
 0.3418580119242E-01 -0.6773694364833E-01  0.0000000000000E+00  0.2552750900894E+00
 0.5142955166904E-01 -0.8397569649229E-01  0.0000000000000E+00  0.2027906548868E+00
 0.6852620039452E-01 -0.1001141696099E+00  0.0000000000000E+00  0.1586456685284E+00
 0.8506373038104E-01 -0.1157003043723E+00  0.0000000000000E+00  0.1212002679450E+00
 0.1006852834963E+00 -0.1304084857159E+00  0.0000000000000E+00  0.8959839363582E-01
 0.1151487334710E+00 -0.1440014701641E+00  0.0000000000000E+00  0.6328419273045E-01
 0.1283094138250E+00 -0.1563421346862E+00  0.0000000000000E+00  0.4192029851648E-01
 0.1401035876051E+00 -0.1673721730573E+00  0.0000000000000E+00  0.2520540230133E-01
 0.1505189367621E+00 -0.1770860822852E+00  0.0000000000000E+00  0.1285098837244E-01
 0.1595794451680E+00 -0.1855130224305E+00  0.0000000000000E+00  0.4561682304139E-02
 0.1673340007612E+00 -0.1927059437058E+00  0.0000000000000E+00  0.3946515702591E-04
 0.1738465870460E+00 -0.1987315720268E+00  0.0000000000000E+00 -0.1006057703442E-02
 0.1791775142633E+00 -0.2036504557297E+00  0.0000000000000E+00  0.1139855131708E-02
 0.1833693167139E+00 -0.2075030325037E+00  0.0000000000000E+00  0.6212096538271E-02
 0.1864466165011E+00 -0.2103102088108E+00  0.0000000000000E+00  0.1396615228387E-01
 0.1884045007058E+00 -0.2120689602922E+00  0.0000000000000E+00  0.2412882153901E-01
 0.1891533101737E+00 -0.2127033598386E+00  0.0000000000000E+00  0.3639543885866E-01
 0.1886576903333E+00 -0.2121795604510E+00  0.0000000000000E+00  0.5062340919340E-01
 0.1866451648182E+00 -0.2103609503041E+00  0.0000000000000E+00  0.6610424086746E-01
 0.1828570365159E+00 -0.2068043213212E+00  0.0000000000000E+00  0.8333135342429E-01
 0.3496660030412E-01 -0.6688019905050E-01  0.0000000000000E+00  0.2650153125246E+00
 0.5064532555630E-01 -0.8178074639897E-01  0.0000000000000E+00  0.2128939405006E+00
 0.6658961487207E-01 -0.9682044588780E-01  0.0000000000000E+00  0.1684172860696E+00
 0.8210655322638E-01 -0.1114546475250E+00  0.0000000000000E+00  0.1304806982482E+00
 0.9683500116252E-01 -0.1253232590103E+00  0.0000000000000E+00  0.9820888123495E-01
 0.1104682513029E+00 -0.1381351850373E+00  0.0000000000000E+00  0.7107653411705E-01
 0.1228300777596E+00 -0.1497125214742E+00  0.0000000000000E+00  0.4884325782026E-01
 0.1338582571537E+00 -0.1600070027535E+00  0.0000000000000E+00  0.3127767777080E-01
 0.1435505524651E+00 -0.1690245219528E+00  0.0000000000000E+00  0.1809451939628E-01
 0.1519328329954E+00 -0.1767954510441E+00  0.0000000000000E+00  0.8987451026035E-02
 0.1590530152139E+00 -0.1833725875982E+00  0.0000000000000E+00  0.3645266252567E-02
 0.1649727390698E+00 -0.1888199301355E+00  0.0000000000000E+00  0.1762547553578E-02
 0.1697456098882E+00 -0.1931911051072E+00  0.0000000000000E+00  0.3036087665870E-02
 0.1734011825737E+00 -0.1965121495549E+00  0.0000000000000E+00  0.7189216382451E-02
 0.1759458950774E+00 -0.1987839312726E+00  0.0000000000000E+00  0.1399097956013E-01
 0.1773712058602E+00 -0.1999892436246E+00  0.0000000000000E+00  0.2323951461691E-01
 0.1775956352654E+00 -0.2000669134518E+00  0.0000000000000E+00  0.3466313513923E-01
 0.1765920563588E+00 -0.1990154506187E+00  0.0000000000000E+00  0.4833907744979E-01
 0.1746760223873E+00 -0.1970595386935E+00  0.0000000000000E+00  0.6395555223644E-01
 0.1718835757517E+00 -0.1949131380250E+00  0.0000000000000E+00  0.7818859894456E-01
 0.4626592609274E+00 -0.6964409316261E+00  0.0000000000000E+00 -0.6085059016758E+00
 0.5163518482458E+00 -0.5715577892790E+00  0.0000000000000E+00  0.3902521771894E+00
 0.3573141399800E+00 -0.4054532979334E+00  0.0000000000000E+00  0.3895980926403E+00
 0.2732605995232E+00 -0.3138023709491E+00  0.0000000000000E+00  0.3580684330573E+00
 0.2038896225967E+00 -0.2375992479834E+00  0.0000000000000E+00  0.3280821342064E+00
 0.1462619619726E+00 -0.1717683376087E+00  0.0000000000000E+00  0.2754608368953E+00
 0.1064509815060E+00 -0.1241375449698E+00  0.0000000000000E+00  0.2093796959932E+00
 0.8331006687632E-01 -0.9603582765719E-01  0.0000000000000E+00  0.1482528044591E+00
 0.6702731296261E-01 -0.7674019701260E-01  0.0000000000000E+00  0.9957827758227E-01
 0.5259181672109E-01 -0.5993821085655E-01  0.0000000000000E+00  0.6268551644889E-01
 0.3869363442725E-01 -0.4390442683317E-01  0.0000000000000E+00  0.3486621511964E-01
 0.2519180332749E-01 -0.2842396072213E-01  0.0000000000000E+00  0.1442903444267E-01
 0.1215099671821E-01 -0.1361347649381E-01  0.0000000000000E+00  0.3899786857451E-03
 0.2859454496917E-04  0.1027215158200E-03  0.0000000000000E+00 -0.7243383831376E-02
-0.1041499818528E-01  0.1194656368852E-01  0.0000000000000E+00 -0.8419987428698E-02
-0.1814532445625E-01  0.2085917943435E-01  0.0000000000000E+00 -0.4021201101138E-02
-0.2248370134837E-01  0.2562195263902E-01  0.0000000000000E+00  0.6865997278350E-02
-0.1988565892780E-01  0.2366128069296E-01  0.0000000000000E+00  0.2830840884927E-01
-0.1084035973976E-01  0.1498406166160E-01  0.0000000000000E+00  0.5066277232558E-01
 0.4152632430466E-02 -0.4440842444353E-04  0.0000000000000E+00  0.6205290516250E-01
 0.4207019331345E+00 -0.5704991019421E+00  0.0000000000000E+00 -0.8218185531330E+00
 0.5299528289435E+00 -0.6250145941675E+00  0.0000000000000E+00  0.1516142558793E-01
 0.4071914326188E+00 -0.4590204604383E+00  0.0000000000000E+00  0.2885682840084E+00
 0.3074176354376E+00 -0.3506766624921E+00  0.0000000000000E+00  0.3069131207089E+00
 0.2380463042139E+00 -0.2737016313212E+00  0.0000000000000E+00  0.2870553622575E+00
 0.1830418958536E+00 -0.2113851653586E+00  0.0000000000000E+00  0.2484084723252E+00
 0.1426862430842E+00 -0.1641145645175E+00  0.0000000000000E+00  0.1995557863153E+00
 0.1152037386308E+00 -0.1312125985417E+00  0.0000000000000E+00  0.1501181269412E+00
 0.9507660964248E-01 -0.1074470220303E+00  0.0000000000000E+00  0.1045199525493E+00
 0.7834031282992E-01 -0.8810135437997E-01  0.0000000000000E+00  0.6569231239504E-01
 0.6315296989879E-01 -0.7074332831075E-01  0.0000000000000E+00  0.3445430592103E-01
 0.4878199332401E-01 -0.5444756914032E-01  0.0000000000000E+00  0.1045772755770E-01
 0.3492181487859E-01 -0.3886583507833E-01  0.0000000000000E+00 -0.6947709390926E-02
 0.2173153102266E-01 -0.2414681293574E-01  0.0000000000000E+00 -0.1784233478273E-01
 0.9767494173592E-02 -0.1084568077673E-01  0.0000000000000E+00 -0.2196632985355E-01
-0.4113053803980E-03  0.3743012869832E-03  0.0000000000000E+00 -0.1917924761100E-01
-0.8642107667534E-02  0.9441189737705E-02  0.0000000000000E+00 -0.9498393441586E-02
-0.1131081960927E-01  0.1277993844880E-01  0.0000000000000E+00  0.8237694349368E-02
-0.7097633456674E-02  0.8936432936433E-02  0.0000000000000E+00  0.2700316224133E-01
 0.2511470333235E-02 -0.7296929548657E-03  0.0000000000000E+00  0.3533196872278E-01
 0.3633612937306E+00 -0.4883199058475E+00  0.0000000000000E+00 -0.8400283593656E+00
 0.4955056100258E+00 -0.5876636971176E+00  0.0000000000000E+00 -0.2051132849467E+00
 0.4305203945840E+00 -0.4945886523176E+00  0.0000000000000E+00  0.1229152043056E+00
 0.3414013512066E+00 -0.3879683920959E+00  0.0000000000000E+00  0.2327330452632E+00
 0.2706718126382E+00 -0.3089055883711E+00  0.0000000000000E+00  0.2411594060191E+00
 0.2170225653491E+00 -0.2480319046540E+00  0.0000000000000E+00  0.2183828715619E+00
 0.1766277884842E+00 -0.2012205218570E+00  0.0000000000000E+00  0.1828770033240E+00
 0.1471925196748E+00 -0.1664345395744E+00  0.0000000000000E+00  0.1433980465688E+00
 0.1245554732646E+00 -0.1397992650484E+00  0.0000000000000E+00  0.1034153252093E+00
 0.1057265177994E+00 -0.1180541025743E+00  0.0000000000000E+00  0.6582801088220E-01
 0.8907280406089E-01 -0.9911297198134E-01  0.0000000000000E+00  0.3306867350209E-01
 0.7367061459958E-01 -0.8178070492372E-01  0.0000000000000E+00  0.6295441979792E-02
 0.5895157025912E-01 -0.6538115913626E-01  0.0000000000000E+00 -0.1432044426813E-01
 0.4476770905460E-01 -0.4972341629990E-01  0.0000000000000E+00 -0.2862720913226E-01
 0.3137222564393E-01 -0.3506784511450E-01  0.0000000000000E+00 -0.3622833638017E-01
 0.1907154545121E-01 -0.2172504871326E-01  0.0000000000000E+00 -0.3689986681837E-01
 0.7845381388110E-02 -0.9620402698987E-02  0.0000000000000E+00 -0.3066056170035E-01
 0.8167160247616E-03 -0.1854942666227E-02  0.0000000000000E+00 -0.1754947481074E-01
 0.3644289268085E-03 -0.1074159540894E-02  0.0000000000000E+00 -0.4487223455786E-02
 0.5428387035849E-02 -0.6473036203506E-02  0.0000000000000E+00 -0.2428938132882E-02
 0.3158398629630E+00 -0.4271820246440E+00  0.0000000000000E+00 -0.8231261614919E+00
 0.4521166093837E+00 -0.5408185439261E+00  0.0000000000000E+00 -0.3379153742247E+00
 0.4306781594966E+00 -0.4987722647762E+00  0.0000000000000E+00 -0.2381961812872E-01
 0.3658108340363E+00 -0.4177019323840E+00  0.0000000000000E+00  0.1346218128275E+00
 0.3009782809750E+00 -0.3422017180129E+00  0.0000000000000E+00  0.1844638633960E+00
 0.2486725614238E+00 -0.2824379919236E+00  0.0000000000000E+00  0.1829112850878E+00
 0.2086312890223E+00 -0.2361566349034E+00  0.0000000000000E+00  0.1606902453861E+00
 0.1783752352166E+00 -0.2006708523670E+00  0.0000000000000E+00  0.1302901374216E+00
 0.1543895568345E+00 -0.1725479873110E+00  0.0000000000000E+00  0.9644805526301E-01
 0.1341145697103E+00 -0.1491256340128E+00  0.0000000000000E+00  0.6199106848099E-01
 0.1161950121672E+00 -0.1287652928473E+00  0.0000000000000E+00  0.2961070023505E-01
 0.9978572514129E-01 -0.1103753138927E+00  0.0000000000000E+00  0.1301264932762E-02
 0.8423551630858E-01 -0.9315532746113E-01  0.0000000000000E+00 -0.2192595739545E-01
 0.6917019080553E-01 -0.7666155832463E-01  0.0000000000000E+00 -0.3949513740097E-01
 0.5459452739609E-01 -0.6087655611009E-01  0.0000000000000E+00 -0.5089466216124E-01
 0.4063126819729E-01 -0.4591012272259E-01  0.0000000000000E+00 -0.5583054538281E-01
 0.2711066984164E-01 -0.3150884417103E-01  0.0000000000000E+00 -0.5423825021697E-01
 0.1669516078306E-01 -0.2039561364847E-01  0.0000000000000E+00 -0.4701073846670E-01
 0.1248386418125E-01 -0.1598568085330E-01  0.0000000000000E+00 -0.4082091602446E-01
 0.1437304168471E-01 -0.1857070231576E-01  0.0000000000000E+00 -0.4585237456239E-01
 0.2766103391812E+00 -0.3793636681559E+00  0.0000000000000E+00 -0.7944534670473E+00
 0.4094582587520E+00 -0.4949887537892E+00  0.0000000000000E+00 -0.4221924317243E+00
 0.4181468743053E+00 -0.4877581461881E+00  0.0000000000000E+00 -0.1414213367339E+00
 0.3784092313761E+00 -0.4339386479921E+00  0.0000000000000E+00  0.3446163516197E-01
 0.3257980929570E+00 -0.3705140504680E+00  0.0000000000000E+00  0.1164104521433E+00
 0.2776006672351E+00 -0.3142480467542E+00  0.0000000000000E+00  0.1397900902827E+00
 0.2386774252130E+00 -0.2690689616397E+00  0.0000000000000E+00  0.1326651392932E+00
 0.2083864673950E+00 -0.2336055379237E+00  0.0000000000000E+00  0.1116935849831E+00
 0.1838647124991E+00 -0.2048941996068E+00  0.0000000000000E+00  0.8429307237646E-01
 0.1628242488072E+00 -0.1805632356568E+00  0.0000000000000E+00  0.5395171219137E-01
 0.1440666812268E+00 -0.1592292361733E+00  0.0000000000000E+00  0.2337737398647E-01
 0.1268759336946E+00 -0.1399834562980E+00  0.0000000000000E+00 -0.5162413830200E-02
 0.1106413881182E+00 -0.1220636372037E+00  0.0000000000000E+00 -0.3010407281522E-01
 0.9488233434733E-01 -0.1048999250947E+00  0.0000000000000E+00 -0.5046068108513E-01
 0.7943446219709E-01 -0.8828737752727E-01  0.0000000000000E+00 -0.6554352059406E-01
 0.6428370453070E-01 -0.7217968436579E-01  0.0000000000000E+00 -0.7496101757422E-01
 0.4916749277848E-01 -0.5622211599188E-01  0.0000000000000E+00 -0.7854671402816E-01
 0.3632034964651E-01 -0.4277378519319E-01  0.0000000000000E+00 -0.7771125851573E-01
 0.2934096109574E-01 -0.3579638296102E-01  0.0000000000000E+00 -0.7865151091770E-01
 0.2925107652733E-01 -0.3674055668484E-01  0.0000000000000E+00 -0.9031989484188E-01
 0.2440950585880E+00 -0.3407951670463E+00  0.0000000000000E+00 -0.7625271503586E+00
 0.3701603418240E+00 -0.4530841565134E+00  0.0000000000000E+00 -0.4762542347067E+00
 0.3991840114938E+00 -0.4692058269021E+00  0.0000000000000E+00 -0.2330392982274E+00
 0.3813249495899E+00 -0.4392744495999E+00  0.0000000000000E+00 -0.5758554160527E-01
 0.3434232385396E+00 -0.3911943904975E+00  0.0000000000000E+00  0.4367985273913E-01
 0.3024695287344E+00 -0.3420853989706E+00  0.0000000000000E+00  0.8904178223122E-01
 0.2663084823293E+00 -0.2995427805664E+00  0.0000000000000E+00  0.9826743744750E-01
 0.2368491015154E+00 -0.2649115228140E+00  0.0000000000000E+00  0.8773926542860E-01
 0.2124763935014E+00 -0.2363164345827E+00  0.0000000000000E+00  0.6736123082842E-01
 0.1912770493332E+00 -0.2117383480280E+00  0.0000000000000E+00  0.4183292865952E-01
 0.1721764355334E+00 -0.1899586868588E+00  0.0000000000000E+00  0.1408252094542E-01
 0.1545620239975E+00 -0.1702148161954E+00  0.0000000000000E+00 -0.1354249413439E-01
 0.1379079606872E+00 -0.1518433859658E+00  0.0000000000000E+00 -0.3919901697014E-01
 0.1217175139905E+00 -0.1342548688028E+00  0.0000000000000E+00 -0.6160730757545E-01
 0.1057367643370E+00 -0.1171433774806E+00  0.0000000000000E+00 -0.7990019492604E-01
 0.8986780344637E-01 -0.1003677103004E+00  0.0000000000000E+00 -0.9355598679879E-01
 0.7380509386009E-01 -0.8352459780499E-01  0.0000000000000E+00 -0.1022663131390E+00
 0.5938329620216E-01 -0.6863459018617E-01  0.0000000000000E+00 -0.1076931662628E+00
 0.5051694909841E-01 -0.5999003377355E-01  0.0000000000000E+00 -0.1153332908892E+00
 0.4930134171543E-01 -0.6008587222965E-01  0.0000000000000E+00 -0.1326122845113E+00
 0.2169013905507E+00 -0.3090498029003E+00  0.0000000000000E+00 -0.7304828566553E+00
 0.3348378194012E+00 -0.4156099292734E+00  0.0000000000000E+00 -0.5102908583565E+00
 0.3772884612197E+00 -0.4472532174657E+00  0.0000000000000E+00 -0.3033038532285E+00
 0.3771751458912E+00 -0.4367246618316E+00  0.0000000000000E+00 -0.1378667786671E+00
 0.3539439170166E+00 -0.4042101263864E+00  0.0000000000000E+00 -0.2799092671478E-01
 0.3222125944159E+00 -0.3646025641086E+00  0.0000000000000E+00  0.3345891741065E-01
 0.2906933988554E+00 -0.3267145325416E+00  0.0000000000000E+00  0.5791312202655E-01
 0.2632202745720E+00 -0.2940567637284E+00  0.0000000000000E+00  0.5849483355745E-01
 0.2397353541048E+00 -0.2663245307489E+00  0.0000000000000E+00  0.4584639494432E-01
 0.2189629115056E+00 -0.2421149917325E+00  0.0000000000000E+00  0.2579316550620E-01
 0.2000222364908E+00 -0.2204211123021E+00  0.0000000000000E+00  0.1673560334188E-02
 0.1824028064846E+00 -0.2006084117299E+00  0.0000000000000E+00 -0.2407357021297E-01
 0.1656733673460E+00 -0.1821244651065E+00  0.0000000000000E+00 -0.4946652356318E-01
 0.1493733230571E+00 -0.1644209602620E+00  0.0000000000000E+00 -0.7305200897865E-01
 0.1332204546156E+00 -0.1471610712268E+00  0.0000000000000E+00 -0.9382448257292E-01
 0.1170800096858E+00 -0.1301615542828E+00  0.0000000000000E+00 -0.1111240191044E+00
 0.1006442179282E+00 -0.1130165993709E+00  0.0000000000000E+00 -0.1244665423324E+00
 0.8537118807652E-01 -0.9741960122888E-01  0.0000000000000E+00 -0.1355656883668E+00
 0.7533504315690E-01 -0.8781154510008E-01  0.0000000000000E+00 -0.1490738860856E+00
 0.7353000772663E-01 -0.8752055460396E-01  0.0000000000000E+00 -0.1707424908696E+00
 0.1939606517835E+00 -0.2825308409837E+00  0.0000000000000E+00 -0.6995765307829E+00
 0.3034227160447E+00 -0.3823924170971E+00  0.0000000000000E+00 -0.5304413796334E+00
 0.3544362262891E+00 -0.4241387469518E+00  0.0000000000000E+00 -0.3563658915930E+00
 0.3681584640176E+00 -0.4287847184165E+00  0.0000000000000E+00 -0.2056572833298E+00
 0.3582701946418E+00 -0.4105259019567E+00  0.0000000000000E+00 -0.9490990704351E-01
 0.3364932152152E+00 -0.3813487835243E+00  0.0000000000000E+00 -0.2360283514143E-01
 0.3110784218241E+00 -0.3497306246226E+00  0.0000000000000E+00  0.1324969244469E-01
 0.2868397245813E+00 -0.3203553981578E+00  0.0000000000000E+00  0.2453045031887E-01
 0.2650967180143E+00 -0.2943629094227E+00  0.0000000000000E+00  0.2001950815233E-01
 0.2453767362913E+00 -0.2711711610127E+00  0.0000000000000E+00  0.6011844822467E-02
 0.2271120755189E+00 -0.2501015178315E+00  0.0000000000000E+00 -0.1379300393213E-01
 0.2099321419523E+00 -0.2306777278785E+00  0.0000000000000E+00 -0.3683824672461E-01
 0.1935128974219E+00 -0.2124687118569E+00  0.0000000000000E+00 -0.6105813945866E-01
 0.1774606048329E+00 -0.1950013486169E+00  0.0000000000000E+00 -0.8490236288261E-01
 0.1615056055776E+00 -0.1779541586774E+00  0.0000000000000E+00 -0.1072732934799E+00
 0.1455106297819E+00 -0.1611414622846E+00  0.0000000000000E+00 -0.1273863772197E+00
 0.1291941304877E+00 -0.1441869559725E+00  0.0000000000000E+00 -0.1445715206540E+00
 0.1136633540219E+00 -0.1284692874207E+00  0.0000000000000E+00 -0.1604612627229E+00
 0.1030156425463E+00 -0.1184227346432E+00  0.0000000000000E+00 -0.1787966535002E+00
 0.1009132992974E+00 -0.1179632162553E+00  0.0000000000000E+00 -0.2036439624669E+00
 0.1744514435190E+00 -0.2601195514076E+00  0.0000000000000E+00 -0.6702558181921E+00
 0.2756150688725E+00 -0.3530486206511E+00  0.0000000000000E+00 -0.5406621726421E+00
 0.3317523554871E+00 -0.4011056702499E+00  0.0000000000000E+00 -0.3955951944743E+00
 0.3559473087813E+00 -0.4173115691890E+00  0.0000000000000E+00 -0.2614965787699E+00
 0.3575476470079E+00 -0.4113861013925E+00  0.0000000000000E+00 -0.1550288197517E+00
 0.3455366471344E+00 -0.3925272859290E+00  0.0000000000000E+00 -0.7926861045245E-01
 0.3270600228583E+00 -0.3681240831301E+00  0.0000000000000E+00 -0.3354666484540E-01
 0.3071210449928E+00 -0.3431737509686E+00  0.0000000000000E+00 -0.1295996602142E-01
 0.2879986834292E+00 -0.3198452637946E+00  0.0000000000000E+00 -0.9525422506663E-02
 0.2700010618237E+00 -0.2983703296007E+00  0.0000000000000E+00 -0.1719176513037E-01
 0.2529514851777E+00 -0.2784857348631E+00  0.0000000000000E+00 -0.3215904111110E-01
 0.2366711401887E+00 -0.2599248868683E+00  0.0000000000000E+00 -0.5180951596701E-01
 0.2209659163698E+00 -0.2424000876113E+00  0.0000000000000E+00 -0.7403546430514E-01
 0.2055329573839E+00 -0.2255382920583E+00  0.0000000000000E+00 -0.9723755309262E-01
 0.1901426801615E+00 -0.2090636248127E+00  0.0000000000000E+00 -0.1202638704777E+00
 0.1746773981523E+00 -0.1928134247880E+00  0.0000000000000E+00 -0.1422303938205E+00
 0.1588987954255E+00 -0.1764604925999E+00  0.0000000000000E+00 -0.1622952756753E+00
 0.1435929832330E+00 -0.1610852022953E+00  0.0000000000000E+00 -0.1819313146979E+00
 0.1327597627413E+00 -0.1509837056968E+00  0.0000000000000E+00 -0.2039691716361E+00
 0.1304853175784E+00 -0.1504137372360E+00  0.0000000000000E+00 -0.2308867127928E+00
 0.1577354995703E+00 -0.2409954449114E+00  0.0000000000000E+00 -0.6426032618204E+00
 0.2510474327676E+00 -0.3271511551173E+00  0.0000000000000E+00 -0.5436283802886E+00
 0.3098725758350E+00 -0.3788438937608E+00  0.0000000000000E+00 -0.4236680532693E+00
 0.3417676123739E+00 -0.4036447663630E+00  0.0000000000000E+00 -0.3064234734955E+00
 0.3528895179656E+00 -0.4079937254872E+00  0.0000000000000E+00 -0.2074092939528E+00
 0.3498860412571E+00 -0.3987036051952E+00  0.0000000000000E+00 -0.1314173941980E+00
 0.3385934347389E+00 -0.3818248323220E+00  0.0000000000000E+00 -0.8033315304532E-01
 0.3236867350076E+00 -0.3620971579677E+00  0.0000000000000E+00 -0.5242576298290E-01
 0.3079564164823E+00 -0.3422555990731E+00  0.0000000000000E+00 -0.4183223208427E-01
 0.2923390472751E+00 -0.3231920182468E+00  0.0000000000000E+00 -0.4326138461533E-01
 0.2770510824892E+00 -0.3050639478475E+00  0.0000000000000E+00 -0.5311605726811E-01
 0.2621366221732E+00 -0.2878481437385E+00  0.0000000000000E+00 -0.6884832482915E-01
 0.2475535731186E+00 -0.2714235735240E+00  0.0000000000000E+00 -0.8837690956126E-01
 0.2331108026437E+00 -0.2555388116939E+00  0.0000000000000E+00 -0.1100997417689E+00
 0.2186392067446E+00 -0.2399852238475E+00  0.0000000000000E+00 -0.1328449862945E+00
 0.2040546015487E+00 -0.2246389096724E+00  0.0000000000000E+00 -0.1556612563345E+00
 0.1891701296407E+00 -0.2092315750531E+00  0.0000000000000E+00 -0.1775680110979E+00
 0.1744838446904E+00 -0.1945664520941E+00  0.0000000000000E+00 -0.1998391091677E+00
 0.1637905769804E+00 -0.1846902497196E+00  0.0000000000000E+00 -0.2244500378847E+00
 0.1613694245388E+00 -0.1839770284451E+00  0.0000000000000E+00 -0.2524651239191E+00
 0.1433093889871E+00 -0.2245360735697E+00  0.0000000000000E+00 -0.6165320972289E+00
 0.2293486944922E+00 -0.3042857683951E+00  0.0000000000000E+00 -0.5412149881673E+00
 0.2891419275792E+00 -0.3577236239890E+00  0.0000000000000E+00 -0.4427075029035E+00
 0.3265025606892E+00 -0.3887376304318E+00  0.0000000000000E+00 -0.3416279506628E+00
 0.3452741765557E+00 -0.4013977919098E+00  0.0000000000000E+00 -0.2518119585029E+00
 0.3502197070746E+00 -0.4005928769899E+00  0.0000000000000E+00 -0.1786428159939E+00
 0.3459031916146E+00 -0.3910580383520E+00  0.0000000000000E+00 -0.1252856675107E+00
 0.3363973878893E+00 -0.3769660830224E+00  0.0000000000000E+00 -0.9225062060080E-01
 0.3246322802429E+00 -0.3612298607402E+00  0.0000000000000E+00 -0.7570989534043E-01
 0.3119682254772E+00 -0.3451888197355E+00  0.0000000000000E+00 -0.7140280338492E-01
 0.2989559005463E+00 -0.3293593832941E+00  0.0000000000000E+00 -0.7617181768164E-01
 0.2858590381899E+00 -0.3139587607789E+00  0.0000000000000E+00 -0.8768221782559E-01
 0.2727960456037E+00 -0.2990425229117E+00  0.0000000000000E+00 -0.1039686133307E+00
 0.2597015748595E+00 -0.2844957454800E+00  0.0000000000000E+00 -0.1234828560246E+00
 0.2464822552944E+00 -0.2701929302238E+00  0.0000000000000E+00 -0.1450723885169E+00
 0.2330965624930E+00 -0.2560589871151E+00  0.0000000000000E+00 -0.1677581590626E+00
 0.2194114564916E+00 -0.2418878180578E+00  0.0000000000000E+00 -0.1904681899146E+00
 0.2056717826690E+00 -0.2282300910977E+00  0.0000000000000E+00 -0.2142662549940E+00
 0.1953729240886E+00 -0.2187897334178E+00  0.0000000000000E+00 -0.2403675973160E+00
 0.1927839894664E+00 -0.2178634826183E+00  0.0000000000000E+00 -0.2686469622455E+00
 0.1307705674159E+00 -0.2102569201763E+00  0.0000000000000E+00 -0.5918803777423E+00
 0.2101685792893E+00 -0.2840707065621E+00  0.0000000000000E+00 -0.5347712084057E+00
 0.2697279074859E+00 -0.3379238013095E+00  0.0000000000000E+00 -0.4544070833037E+00
 0.3107803241383E+00 -0.3732623708695E+00  0.0000000000000E+00 -0.3682936372976E+00
 0.3355188882706E+00 -0.3924682572063E+00  0.0000000000000E+00 -0.2884195065974E+00
 0.3472383785846E+00 -0.3989336974406E+00  0.0000000000000E+00 -0.2201186682640E+00
 0.3493815038123E+00 -0.3962299556735E+00  0.0000000000000E+00 -0.1669940321535E+00
 0.3453198815177E+00 -0.3878419407318E+00  0.0000000000000E+00 -0.1309517804702E+00
 0.3378589535776E+00 -0.3765835013086E+00  0.0000000000000E+00 -0.1098949052582E+00
 0.3285815785292E+00 -0.3640322158334E+00  0.0000000000000E+00 -0.1006603758229E+00
 0.3182813992779E+00 -0.3509661606813E+00  0.0000000000000E+00 -0.1006649941273E+00
 0.3074092048720E+00 -0.3378080480479E+00  0.0000000000000E+00 -0.1078971867411E+00
 0.2962341273294E+00 -0.3247803731139E+00  0.0000000000000E+00 -0.1205926292850E+00
 0.2848198523701E+00 -0.3119083747674E+00  0.0000000000000E+00 -0.1373182942806E+00
 0.2731582232999E+00 -0.2991594299756E+00  0.0000000000000E+00 -0.1569859317880E+00
 0.2612565127129E+00 -0.2865137808202E+00  0.0000000000000E+00 -0.1786363213907E+00
 0.2490342305152E+00 -0.2738268552075E+00  0.0000000000000E+00 -0.2011650129896E+00
 0.2365178860869E+00 -0.2614231165240E+00  0.0000000000000E+00 -0.2254364438781E+00
 0.2268221340243E+00 -0.2525870193737E+00  0.0000000000000E+00 -0.2520270484941E+00
 0.2240376061319E+00 -0.2513806303686E+00  0.0000000000000E+00 -0.2798683377804E+00
 0.1197934271705E+00 -0.1977733064565E+00  0.0000000000000E+00 -0.5684582232438E+00
 0.1931860799182E+00 -0.2661614204630E+00  0.0000000000000E+00 -0.5252863499590E+00
 0.2516872407530E+00 -0.3195059563628E+00  0.0000000000000E+00 -0.4601270979480E+00
 0.2950407725966E+00 -0.3576871140339E+00  0.0000000000000E+00 -0.3875292986093E+00
 0.3242856484458E+00 -0.3819057466799E+00  0.0000000000000E+00 -0.3176581333691E+00
 0.3416032791599E+00 -0.3944210072444E+00  0.0000000000000E+00 -0.2554566005587E+00
 0.3495053311982E+00 -0.3978368528429E+00  0.0000000000000E+00 -0.2044564158947E+00
 0.3506736923711E+00 -0.3949483900160E+00  0.0000000000000E+00 -0.1672839030638E+00
 0.3476277146293E+00 -0.3882996814899E+00  0.0000000000000E+00 -0.1431829802634E+00
 0.3420041889932E+00 -0.3795316951688E+00  0.0000000000000E+00 -0.1300174532094E+00
 0.3347408808441E+00 -0.3695790760026E+00  0.0000000000000E+00 -0.1258185411422E+00
 0.3264258378749E+00 -0.3590162137687E+00  0.0000000000000E+00 -0.1289560847519E+00
 0.3174537613253E+00 -0.3482058728933E+00  0.0000000000000E+00 -0.1379269052061E+00
 0.3080090738704E+00 -0.3373046999895E+00  0.0000000000000E+00 -0.1514652093117E+00
 0.2981719824569E+00 -0.3263758363245E+00  0.0000000000000E+00 -0.1685909522309E+00
 0.2880027320981E+00 -0.3154590461677E+00  0.0000000000000E+00 -0.1884160979907E+00
 0.2774705667170E+00 -0.3044688115874E+00  0.0000000000000E+00 -0.2098718449489E+00
 0.2664172777512E+00 -0.2935301993871E+00  0.0000000000000E+00 -0.2336543641371E+00
 0.2575082218904E+00 -0.2854464508865E+00  0.0000000000000E+00 -0.2598394410618E+00
 0.2545211595425E+00 -0.2839227235023E+00  0.0000000000000E+00 -0.2866607160986E+00
 0.1101121340579E+00 -0.1867751091594E+00  0.0000000000000E+00 -0.5460722226293E+00
 0.1781111303857E+00 -0.2502496988348E+00  0.0000000000000E+00 -0.5134949758323E+00
 0.2350066605535E+00 -0.3024583486008E+00  0.0000000000000E+00 -0.4609668738446E+00
 0.2795845244301E+00 -0.3423310591388E+00  0.0000000000000E+00 -0.4003422774444E+00
 0.3120986883130E+00 -0.3702627963455E+00  0.0000000000000E+00 -0.3400843430047E+00
 0.3339060706937E+00 -0.3876747234780E+00  0.0000000000000E+00 -0.2845843583580E+00
 0.3467774082326E+00 -0.3964015324594E+00  0.0000000000000E+00 -0.2370299622736E+00
 0.3527769768235E+00 -0.3986130005230E+00  0.0000000000000E+00 -0.2002752329427E+00
 0.3540590037280E+00 -0.3964977205744E+00  0.0000000000000E+00 -0.1745134269035E+00
 0.3521889484830E+00 -0.3916307604397E+00  0.0000000000000E+00 -0.1584855036692E+00
 0.3481581884705E+00 -0.3850077191313E+00  0.0000000000000E+00 -0.1508068983043E+00
 0.3426364125678E+00 -0.3772946599445E+00  0.0000000000000E+00 -0.1502376052049E+00
 0.3361091778579E+00 -0.3689573118448E+00  0.0000000000000E+00 -0.1555617291332E+00
 0.3288638193317E+00 -0.3602645193919E+00  0.0000000000000E+00 -0.1657120148586E+00
 0.3210662736569E+00 -0.3513717453209E+00  0.0000000000000E+00 -0.1798489754616E+00
 0.3128334396459E+00 -0.3423814513666E+00  0.0000000000000E+00 -0.1972022684415E+00
 0.3041830691236E+00 -0.3332661277572E+00  0.0000000000000E+00 -0.2168113647855E+00
 0.2948053309614E+00 -0.3239789980595E+00  0.0000000000000E+00 -0.2392570339018E+00
 0.2868585555118E+00 -0.3167928367870E+00  0.0000000000000E+00 -0.2642660654517E+00
 0.2837004198247E+00 -0.3149614712581E+00  0.0000000000000E+00 -0.2895994712567E+00
 0.1015080221866E+00 -0.1770092585707E+00  0.0000000000000E+00 -0.5245381671250E+00
 0.1646834503476E+00 -0.2360607932178E+00  0.0000000000000E+00 -0.4999462779326E+00
 0.2196286405753E+00 -0.2867233333538E+00  0.0000000000000E+00 -0.4578185914700E+00
 0.2646088040591E+00 -0.3274039621931E+00  0.0000000000000E+00 -0.4076316621076E+00
 0.2993647198080E+00 -0.3579670353666E+00  0.0000000000000E+00 -0.3563136442995E+00
 0.3246574032421E+00 -0.3792285371078E+00  0.0000000000000E+00 -0.3076498854316E+00
 0.3416876973363E+00 -0.3924326565058E+00  0.0000000000000E+00 -0.2643680217947E+00
 0.3520011736556E+00 -0.3992187907926E+00  0.0000000000000E+00 -0.2292235328924E+00
 0.3573676629624E+00 -0.4013958966417E+00  0.0000000000000E+00 -0.2030119934360E+00
 0.3591991072873E+00 -0.4003884899919E+00  0.0000000000000E+00 -0.1851680396681E+00
 0.3584665813013E+00 -0.3971756101354E+00  0.0000000000000E+00 -0.1748174436061E+00
 0.3558680111713E+00 -0.3924577114675E+00  0.0000000000000E+00 -0.1710819971099E+00
 0.3519409518583E+00 -0.3867615809573E+00  0.0000000000000E+00 -0.1730272570132E+00
 0.3470507357934E+00 -0.3804413594654E+00  0.0000000000000E+00 -0.1797897020906E+00
 0.3414414679172E+00 -0.3737357203096E+00  0.0000000000000E+00 -0.1906808806913E+00
 0.3352913758813E+00 -0.3668138461891E+00  0.0000000000000E+00 -0.2050780523643E+00
 0.3286722989446E+00 -0.3597110223405E+00  0.0000000000000E+00 -0.2221954575738E+00
 0.3211609317468E+00 -0.3522429440285E+00  0.0000000000000E+00 -0.2425767645064E+00
 0.3143600561408E+00 -0.3461120721045E+00  0.0000000000000E+00 -0.2657722243169E+00
 0.3111112461039E+00 -0.3440397912462E+00  0.0000000000000E+00 -0.2892654773001E+00
 0.9380003887509E-01 -0.1682670593854E+00  0.0000000000000E+00 -0.5036875825051E+00
 0.1526702494424E+00 -0.2233499881584E+00  0.0000000000000E+00 -0.4850512122744E+00
 0.2054682039395E+00 -0.2722149609644E+00  0.0000000000000E+00 -0.4514074289176E+00
 0.2502339291201E+00 -0.3130348420899E+00  0.0000000000000E+00 -0.4101905352141E+00
 0.2863923212804E+00 -0.3453426811994E+00  0.0000000000000E+00 -0.3669759048569E+00
 0.3142857490534E+00 -0.3695295182801E+00  0.0000000000000E+00 -0.3249486368242E+00
 0.3346899904531E+00 -0.3864005510458E+00  0.0000000000000E+00 -0.2863583052911E+00
 0.3487361504335E+00 -0.3971675566782E+00  0.0000000000000E+00 -0.2536713517750E+00
 0.3578297068013E+00 -0.4032761957371E+00  0.0000000000000E+00 -0.2280042962357E+00
 0.3631845050889E+00 -0.4059543299616E+00  0.0000000000000E+00 -0.2092989805091E+00
 0.3656972515002E+00 -0.4061081301489E+00  0.0000000000000E+00 -0.1970966654934E+00
 0.3660479448346E+00 -0.4044233278501E+00  0.0000000000000E+00 -0.1908312424298E+00
 0.3647869416278E+00 -0.4014456753612E+00  0.0000000000000E+00 -0.1898216823555E+00
 0.3623270884575E+00 -0.3975817401542E+00  0.0000000000000E+00 -0.1933898700858E+00
 0.3589763659383E+00 -0.3931373636721E+00  0.0000000000000E+00 -0.2009815633121E+00
 0.3549801170615E+00 -0.3883519638646E+00  0.0000000000000E+00 -0.2121166949790E+00
 0.3504819386033E+00 -0.3833418896107E+00  0.0000000000000E+00 -0.2262282130809E+00
 0.3450037720160E+00 -0.3778375793438E+00  0.0000000000000E+00 -0.2439186567043E+00
 0.3395591724880E+00 -0.3729502706648E+00  0.0000000000000E+00 -0.2647859747085E+00
 0.3363587467325E+00 -0.3707687879796E+00  0.0000000000000E+00 -0.2862120928658E+00
 0.8683709367062E-01 -0.1603745279192E+00  0.0000000000000E+00 -0.4833712188366E+00
 0.1418633936215E+00 -0.2118988124588E+00  0.0000000000000E+00 -0.4691145255773E+00
 0.1924245200561E+00 -0.2588312200057E+00  0.0000000000000E+00 -0.4423212819566E+00
 0.2365233792265E+00 -0.2992933024810E+00  0.0000000000000E+00 -0.4087125219787E+00
 0.2734092290259E+00 -0.3326293906641E+00  0.0000000000000E+00 -0.3726879090558E+00
 0.3031415393299E+00 -0.3589429975528E+00  0.0000000000000E+00 -0.3368696716741E+00
 0.3261889773259E+00 -0.3787241731588E+00  0.0000000000000E+00 -0.3030675030969E+00
 0.3433651453945E+00 -0.3928538980652E+00  0.0000000000000E+00 -0.2733726155826E+00
 0.3557537606540E+00 -0.4024543734812E+00  0.0000000000000E+00 -0.2490112299765E+00
 0.3643561397298E+00 -0.4085413212332E+00  0.0000000000000E+00 -0.2302613930509E+00
 0.3699609026094E+00 -0.4119131070615E+00  0.0000000000000E+00 -0.2169803040978E+00
 0.3731946883041E+00 -0.4132034356045E+00  0.0000000000000E+00 -0.2088573668496E+00
 0.3745845756319E+00 -0.4129386685354E+00  0.0000000000000E+00 -0.2054292412019E+00
 0.3745552144568E+00 -0.4115399864010E+00  0.0000000000000E+00 -0.2061739338048E+00
 0.3734539422848E+00 -0.4093532831116E+00  0.0000000000000E+00 -0.2106321365737E+00
 0.3715877613426E+00 -0.4066816114719E+00  0.0000000000000E+00 -0.2184159258542E+00
 0.3692059561240E+00 -0.4037490397718E+00  0.0000000000000E+00 -0.2291417632638E+00
 0.3658791654476E+00 -0.4003094846193E+00  0.0000000000000E+00 -0.2435737277979E+00
 0.3620510985915E+00 -0.3968978989162E+00  0.0000000000000E+00 -0.2616544815695E+00
 0.3591222649605E+00 -0.3948316771718E+00  0.0000000000000E+00 -0.2809198191186E+00
 0.8049128333125E-01 -0.1531828740309E+00  0.0000000000000E+00 -0.4634578269242E+00
 0.1320765758440E+00 -0.2015126330939E+00  0.0000000000000E+00 -0.4523539252386E+00
 0.1803899310336E+00 -0.2464626588852E+00  0.0000000000000E+00 -0.4310321529439E+00
 0.2235000932026E+00 -0.2862075547019E+00  0.0000000000000E+00 -0.4038006192681E+00
 0.2605771413810E+00 -0.3199975515225E+00  0.0000000000000E+00 -0.3740390871118E+00
 0.2915032837354E+00 -0.3477594164377E+00  0.0000000000000E+00 -0.3438554428658E+00
 0.3165343132328E+00 -0.3697653305331E+00  0.0000000000000E+00 -0.3146934230863E+00
 0.3362479769500E+00 -0.3866480955888E+00  0.0000000000000E+00 -0.2882567087414E+00
 0.3514584798576E+00 -0.3992566243504E+00  0.0000000000000E+00 -0.2657346711053E+00
 0.3629622356187E+00 -0.4084012330029E+00  0.0000000000000E+00 -0.2475943095708E+00
 0.3714253013024E+00 -0.4147574446254E+00  0.0000000000000E+00 -0.2339131036941E+00
 0.3773993594802E+00 -0.4188844371036E+00  0.0000000000000E+00 -0.2245813399576E+00
 0.3813603691697E+00 -0.4212600617087E+00  0.0000000000000E+00 -0.2193233890657E+00
 0.3837079531978E+00 -0.4222821521220E+00  0.0000000000000E+00 -0.2177553776913E+00
 0.3847883118394E+00 -0.4222946141882E+00  0.0000000000000E+00 -0.2194779851994E+00
 0.3849421071402E+00 -0.4216314304433E+00  0.0000000000000E+00 -0.2241147291571E+00
 0.3845153708506E+00 -0.4206188609457E+00  0.0000000000000E+00 -0.2313225149565E+00
 0.3833263633520E+00 -0.4191908104846E+00  0.0000000000000E+00 -0.2418974466426E+00
 0.3814338256677E+00 -0.4175578394380E+00  0.0000000000000E+00 -0.2566420697656E+00
 0.3791608391454E+00 -0.4159697396038E+00  0.0000000000000E+00 -0.2737392367973E+00
 0.7464888143984E-01 -0.1465619070437E+00  0.0000000000000E+00 -0.4438444853090E+00
 0.1231397781478E+00 -0.1920077840465E+00  0.0000000000000E+00 -0.4348988194445E+00
 0.1692630729431E+00 -0.2350133660795E+00  0.0000000000000E+00 -0.4179040531632E+00
 0.2111615359133E+00 -0.2737768093176E+00  0.0000000000000E+00 -0.3959915285493E+00
 0.2480015196921E+00 -0.3075591790896E+00  0.0000000000000E+00 -0.3715840483915E+00
 0.2795839225274E+00 -0.3362009418770E+00  0.0000000000000E+00 -0.3463715699326E+00
 0.3060189511737E+00 -0.3598271865447E+00  0.0000000000000E+00 -0.3215227336379E+00
 0.3277112604084E+00 -0.3788864114874E+00  0.0000000000000E+00 -0.2983920467420E+00
 0.3452566867137E+00 -0.3940034316164E+00  0.0000000000000E+00 -0.2780382763886E+00
 0.3592686095551E+00 -0.4058044882859E+00  0.0000000000000E+00 -0.2609938243530E+00
 0.3702926474121E+00 -0.4148440962899E+00  0.0000000000000E+00 -0.2474670254602E+00
 0.3787994222466E+00 -0.4216003349987E+00  0.0000000000000E+00 -0.2374958729117E+00
 0.3852011047044E+00 -0.4264895120940E+00  0.0000000000000E+00 -0.2309697212897E+00
 0.3898468104127E+00 -0.4298610261995E+00  0.0000000000000E+00 -0.2276512267631E+00
 0.3930366961532E+00 -0.4320131921173E+00  0.0000000000000E+00 -0.2272222301435E+00
 0.3950757891705E+00 -0.4332412227547E+00  0.0000000000000E+00 -0.2292834537839E+00
 0.3963409731103E+00 -0.4338948349467E+00  0.0000000000000E+00 -0.2333717472993E+00
 0.3968654067580E+00 -0.4340898050692E+00  0.0000000000000E+00 -0.2398610224231E+00
 0.3971082644408E+00 -0.4342456898032E+00  0.0000000000000E+00 -0.2499489717706E+00
 0.3963036964881E+00 -0.4340017472666E+00  0.0000000000000E+00 -0.2645894689468E+00
 0.6919146313460E-01 -0.1403087806923E+00  0.0000000000000E+00 -0.4242932213709E+00
 0.1149280547159E+00 -0.1832967785796E+00  0.0000000000000E+00 -0.4166560418145E+00
 0.1589828917102E+00 -0.2244127235055E+00  0.0000000000000E+00 -0.4032772154470E+00
 0.1994818003587E+00 -0.2619791721802E+00  0.0000000000000E+00 -0.3857740486623E+00
 0.2357379632612E+00 -0.2953734376350E+00  0.0000000000000E+00 -0.3658487072067E+00
 0.2675327169326E+00 -0.3244221129806E+00  0.0000000000000E+00 -0.3448786765905E+00
 0.2948810191761E+00 -0.3491572644399E+00  0.0000000000000E+00 -0.3238873808858E+00
 0.3180455263707E+00 -0.3698685420693E+00  0.0000000000000E+00 -0.3039506545190E+00
 0.3374462472368E+00 -0.3870001627171E+00  0.0000000000000E+00 -0.2859250387680E+00
 0.3535460497827E+00 -0.4010274534675E+00  0.0000000000000E+00 -0.2703093703328E+00
 0.3667833163003E+00 -0.4123961266235E+00  0.0000000000000E+00 -0.2573628769630E+00
 0.3775533871895E+00 -0.4215082018201E+00  0.0000000000000E+00 -0.2472110780312E+00
 0.3862100044582E+00 -0.4287233327889E+00  0.0000000000000E+00 -0.2398733793056E+00
 0.3930524532762E+00 -0.4343443519559E+00  0.0000000000000E+00 -0.2352701839954E+00
 0.3983240795501E+00 -0.4386162501991E+00  0.0000000000000E+00 -0.2332430910403E+00
 0.4022360081507E+00 -0.4417483722478E+00  0.0000000000000E+00 -0.2335226881210E+00
 0.4050344006980E+00 -0.4439560493566E+00  0.0000000000000E+00 -0.2355812193777E+00
 0.4068076481574E+00 -0.4453398870439E+00  0.0000000000000E+00 -0.2392169968134E+00
 0.4080098449619E+00 -0.4463824670636E+00  0.0000000000000E+00 -0.2445580940310E+00
 0.4100273347958E+00 -0.4477578950889E+00  0.0000000000000E+00 -0.2536412357604E+00
 0.3522968767965E-01 -0.6610614844875E-01  0.0000000000000E+00  0.2730164981906E+00
 0.5010781863437E-01 -0.7999039612004E-01  0.0000000000000E+00  0.2202361514387E+00
 0.6510779894806E-01 -0.9406252040881E-01  0.0000000000000E+00  0.1754196107157E+00
 0.7980677288650E-01 -0.1078293878810E+00  0.0000000000000E+00  0.1372645345430E+00
 0.9371152358153E-01 -0.1208291764888E+00  0.0000000000000E+00  0.1048572497801E+00
 0.1064493271215E+00 -0.1327028812231E+00  0.0000000000000E+00  0.7764690018226E-01
 0.1177807318069E+00 -0.1432379997493E+00  0.0000000000000E+00  0.5532429666918E-01
 0.1277227065682E+00 -0.1524512133736E+00  0.0000000000000E+00  0.3763031146291E-01
 0.1363221072011E+00 -0.1603874822166E+00  0.0000000000000E+00  0.2429273428458E-01
 0.1436136459703E+00 -0.1670837588787E+00  0.0000000000000E+00  0.1501104686130E-01
 0.1496496839334E+00 -0.1725954110254E+00  0.0000000000000E+00  0.9469475071444E-02
 0.1544933437777E+00 -0.1769883907121E+00  0.0000000000000E+00  0.7352261034562E-02
 0.1582067771376E+00 -0.1803221278033E+00  0.0000000000000E+00  0.8325392070960E-02
 0.1608265220162E+00 -0.1826276794884E+00  0.0000000000000E+00  0.1203786899142E-01
 0.1623746563876E+00 -0.1839189866174E+00  0.0000000000000E+00  0.1811317434422E-01
 0.1628944036193E+00 -0.1842233952464E+00  0.0000000000000E+00  0.2608033624495E-01
 0.1625407638239E+00 -0.1836378987358E+00  0.0000000000000E+00  0.3522954277455E-01
 0.1614221846256E+00 -0.1822776160481E+00  0.0000000000000E+00  0.4519210123941E-01
 0.1601985641823E+00 -0.1808194632109E+00  0.0000000000000E+00  0.5589524867842E-01
 0.1605932811886E+00 -0.1798425639597E+00  0.0000000000000E+00  0.7073842846043E-01
 0.3631198983267E-01 -0.6558866582603E-01  0.0000000000000E+00  0.2801698471337E+00
 0.5012208343203E-01 -0.7847873237224E-01  0.0000000000000E+00  0.2260010058531E+00
 0.6437174830629E-01 -0.9176056897893E-01  0.0000000000000E+00  0.1802789089320E+00
 0.7831133294046E-01 -0.1047350441283E+00  0.0000000000000E+00  0.1413139010315E+00
 0.9134080654582E-01 -0.1168076820159E+00  0.0000000000000E+00  0.1082604781255E+00
 0.1029997901189E+00 -0.1275414096442E+00  0.0000000000000E+00  0.8059559045676E-01
 0.1130512443382E+00 -0.1367342097488E+00  0.0000000000000E+00  0.5798464176886E-01
 0.1215883095831E+00 -0.1444968095481E+00  0.0000000000000E+00  0.4010564671599E-01
 0.1287249954583E+00 -0.1509415254127E+00  0.0000000000000E+00  0.2668480295719E-01
 0.1345285456854E+00 -0.1561334731403E+00  0.0000000000000E+00  0.1741857606379E-01
 0.1390700664047E+00 -0.1601433958506E+00  0.0000000000000E+00  0.1195419308834E-01
 0.1424307595503E+00 -0.1630514725299E+00  0.0000000000000E+00  0.9906901426146E-02
 0.1446983818971E+00 -0.1649384318864E+00  0.0000000000000E+00  0.1084923700452E-01
 0.1459454980720E+00 -0.1658666427755E+00  0.0000000000000E+00  0.1433497712364E-01
 0.1462583954560E+00 -0.1659093529824E+00  0.0000000000000E+00  0.1990292203756E-01
 0.1457968929278E+00 -0.1652019222030E+00  0.0000000000000E+00  0.2707725041048E-01
 0.1448390698174E+00 -0.1639784173418E+00  0.0000000000000E+00  0.3549418427053E-01
 0.1434699734099E+00 -0.1624060768479E+00  0.0000000000000E+00  0.4557661235873E-01
 0.1422832876444E+00 -0.1609675063540E+00  0.0000000000000E+00  0.5889912246685E-01
 0.1392361032974E+00 -0.1583710594862E+00  0.0000000000000E+00  0.7725444740529E-01
 0.3736199026667E-01 -0.6508668808320E-01  0.0000000000000E+00  0.2866228969756E+00
 0.5000931312371E-01 -0.7682245591405E-01  0.0000000000000E+00  0.2313499946511E+00
 0.6343802943875E-01 -0.8927423786877E-01  0.0000000000000E+00  0.1846568866396E+00
 0.7658471683409E-01 -0.1014141244219E+00  0.0000000000000E+00  0.1448222007632E+00
 0.8867595541592E-01 -0.1124944929095E+00  0.0000000000000E+00  0.1110008139078E+00
 0.9918163745697E-01 -0.1220081319762E+00  0.0000000000000E+00  0.8273271905633E-01
 0.1078801782956E+00 -0.1297869218397E+00  0.0000000000000E+00  0.5970545301556E-01
 0.1149461298892E+00 -0.1360335124753E+00  0.0000000000000E+00  0.4156817046006E-01
 0.1205664898571E+00 -0.1409335605027E+00  0.0000000000000E+00  0.2801831727387E-01
 0.1248531010732E+00 -0.1445929719633E+00  0.0000000000000E+00  0.1871458762497E-01
 0.1279074003324E+00 -0.1471088757570E+00  0.0000000000000E+00  0.1324286436777E-01
 0.1298398879508E+00 -0.1485874484702E+00  0.0000000000000E+00  0.1114315452057E-01
 0.1307712371627E+00 -0.1491385745948E+00  0.0000000000000E+00  0.1191671445558E-01
 0.1308102653808E+00 -0.1488583906645E+00  0.0000000000000E+00  0.1508479699490E-01
 0.1300872526810E+00 -0.1478642534660E+00  0.0000000000000E+00  0.2023422464481E-01
 0.1287821127568E+00 -0.1463180905258E+00  0.0000000000000E+00  0.2708657214013E-01
 0.1270650736772E+00 -0.1443644189488E+00  0.0000000000000E+00  0.3561311787178E-01
 0.1248329009550E+00 -0.1419809548911E+00  0.0000000000000E+00  0.4666798167514E-01
 0.1219169487489E+00 -0.1391910473519E+00  0.0000000000000E+00  0.6121306113240E-01
 0.1178695025357E+00 -0.1355013373682E+00  0.0000000000000E+00  0.7736553329810E-01
 0.3835938334650E-01 -0.6454107867470E-01  0.0000000000000E+00  0.2923035551786E+00
 0.4978617634617E-01 -0.7507172837509E-01  0.0000000000000E+00  0.2361888993877E+00
 0.6234685291189E-01 -0.8663681303573E-01  0.0000000000000E+00  0.1885661545498E+00
 0.7465375846255E-01 -0.9789632014301E-01  0.0000000000000E+00  0.1477592680842E+00
 0.8574537450646E-01 -0.1079173671101E+00  0.0000000000000E+00  0.1130363848774E+00
 0.9501817181363E-01 -0.1161281637076E+00  0.0000000000000E+00  0.8403295282487E-01
 0.1022827877284E+00 -0.1224104268463E+00  0.0000000000000E+00  0.6049528822997E-01
 0.1078122397776E+00 -0.1270764815918E+00  0.0000000000000E+00  0.4205793238239E-01
 0.1118800020972E+00 -0.1303972329200E+00  0.0000000000000E+00  0.2836979393969E-01
 0.1146510156297E+00 -0.1325277373984E+00  0.0000000000000E+00  0.1902117408156E-01
 0.1162622112033E+00 -0.1335968677049E+00  0.0000000000000E+00  0.1351964055583E-01
 0.1168534735458E+00 -0.1337371582975E+00  0.0000000000000E+00  0.1133293417808E-01
 0.1165686596240E+00 -0.1330788435808E+00  0.0000000000000E+00  0.1191603249694E-01
 0.1155269312482E+00 -0.1317273223953E+00  0.0000000000000E+00  0.1479747199202E-01
 0.1138489406738E+00 -0.1297920717718E+00  0.0000000000000E+00  0.1963815045064E-01
 0.1116506337627E+00 -0.1273765202703E+00  0.0000000000000E+00  0.2627318457961E-01
 0.1089468016755E+00 -0.1244660676614E+00  0.0000000000000E+00  0.3472790054956E-01
 0.1054373297611E+00 -0.1208933297353E+00  0.0000000000000E+00  0.4558280323403E-01
 0.1013704566092E+00 -0.1169800974510E+00  0.0000000000000E+00  0.5868549166702E-01
 0.9750609342079E-01 -0.1134680620175E+00  0.0000000000000E+00  0.7231676880887E-01
 0.3929725635321E-01 -0.6395058518957E-01  0.0000000000000E+00  0.2972305798517E+00
 0.4945961441670E-01 -0.7323334254553E-01  0.0000000000000E+00  0.2405106067397E+00
 0.6112527443679E-01 -0.8388205940125E-01  0.0000000000000E+00  0.1919748009326E+00
 0.7254636548061E-01 -0.9420893966720E-01  0.0000000000000E+00  0.1500857116262E+00
 0.8256576067791E-01 -0.1030932496702E+00  0.0000000000000E+00  0.1143184892028E+00
 0.9051592471670E-01 -0.1099069192823E+00  0.0000000000000E+00  0.8446542221655E-01
 0.9626022106854E-01 -0.1146048779566E+00  0.0000000000000E+00  0.6036537116701E-01
 0.1001938402189E+00 -0.1176322367893E+00  0.0000000000000E+00  0.4164130061313E-01
 0.1026916858041E+00 -0.1193593212643E+00  0.0000000000000E+00  0.2786264970013E-01
 0.1039759521699E+00 -0.1199940774741E+00  0.0000000000000E+00  0.1851991485439E-01
 0.1042159701574E+00 -0.1196939181913E+00  0.0000000000000E+00  0.1302512763379E-01
 0.1035709482675E+00 -0.1186076345613E+00  0.0000000000000E+00  0.1077062936821E-01
 0.1021884544975E+00 -0.1168663040015E+00  0.0000000000000E+00  0.1116872123758E-01
 0.1001691495494E+00 -0.1145552563067E+00  0.0000000000000E+00  0.1374626237144E-01
 0.9759135366261E-01 -0.1117417721621E+00  0.0000000000000E+00  0.1818212187652E-01
 0.9449877205115E-01 -0.1084555155392E+00  0.0000000000000E+00  0.2429518567123E-01
 0.9078563830145E-01 -0.1045649153754E+00  0.0000000000000E+00  0.3196016985313E-01
 0.8626497170451E-01 -0.9999532297268E-01  0.0000000000000E+00  0.4135080392719E-01
 0.8170555558901E-01 -0.9558967322097E-01  0.0000000000000E+00  0.5214927885354E-01
 0.7838392012230E-01 -0.9257897392374E-01  0.0000000000000E+00  0.6343939979997E-01
 0.4017540975691E-01 -0.6331957732543E-01  0.0000000000000E+00  0.3014143943699E+00
 0.4904569801923E-01 -0.7132810366481E-01  0.0000000000000E+00  0.2443138397191E+00
 0.5979849085984E-01 -0.8103728401500E-01  0.0000000000000E+00  0.1948465873628E+00
 0.7028235556630E-01 -0.9037283199713E-01  0.0000000000000E+00  0.1517402514985E+00
 0.7914133714369E-01 -0.9802502391814E-01  0.0000000000000E+00  0.1147872017536E+00
 0.8566453769678E-01 -0.1033321571889E+00  0.0000000000000E+00  0.8400037608817E-01
 0.8979772705960E-01 -0.1063537170501E+00  0.0000000000000E+00  0.5934619403054E-01
 0.9208627083704E-01 -0.1076953606704E+00  0.0000000000000E+00  0.4042048083603E-01
 0.9301939568187E-01 -0.1078385379882E+00  0.0000000000000E+00  0.2666626333645E-01
 0.9287398447180E-01 -0.1070409477516E+00  0.0000000000000E+00  0.1743575069166E-01
 0.9184138514166E-01 -0.1054775697187E+00  0.0000000000000E+00  0.1202275019524E-01
 0.9008457570508E-01 -0.1032971946470E+00  0.0000000000000E+00  0.9730446138942E-02
 0.8773563322461E-01 -0.1006117041878E+00  0.0000000000000E+00  0.9914182276935E-02
 0.8485953683240E-01 -0.9746799882542E-01  0.0000000000000E+00  0.1206917859235E-01
 0.8148941458494E-01 -0.9388581217676E-01  0.0000000000000E+00  0.1583618178219E-01
 0.7762031157756E-01 -0.8984445095902E-01  0.0000000000000E+00  0.2094876489139E-01
 0.7311363475888E-01 -0.8517267599252E-01  0.0000000000000E+00  0.2710303145788E-01
 0.6800029157572E-01 -0.8000483890843E-01  0.0000000000000E+00  0.3427469781815E-01
 0.6343471534115E-01 -0.7555926621769E-01  0.0000000000000E+00  0.4237788435282E-01
 0.6080092968722E-01 -0.7319926711460E-01  0.0000000000000E+00  0.5140061401923E-01
 0.4099883190232E-01 -0.6265973660133E-01  0.0000000000000E+00  0.3048664845099E+00
 0.4856760233911E-01 -0.6938403381797E-01  0.0000000000000E+00  0.2475900376198E+00
 0.5839176345425E-01 -0.7813027422153E-01  0.0000000000000E+00  0.1971276828623E+00
 0.6787210531671E-01 -0.8639813742310E-01  0.0000000000000E+00  0.1526411727687E+00
 0.7545981645299E-01 -0.9269829402735E-01  0.0000000000000E+00  0.1143710866727E+00
 0.8043449871685E-01 -0.9637128432493E-01  0.0000000000000E+00  0.8261758486948E-01
 0.8286383057828E-01 -0.9762297116843E-01  0.0000000000000E+00  0.5749921146880E-01
 0.8347435379102E-01 -0.9724963555029E-01  0.0000000000000E+00  0.3854216281288E-01
 0.8287676448224E-01 -0.9584946426688E-01  0.0000000000000E+00  0.2499565676738E-01
 0.8139179805074E-01 -0.9371804690424E-01  0.0000000000000E+00  0.1602727154496E-01
 0.7921651752289E-01 -0.9103048226921E-01  0.0000000000000E+00  0.1078552703545E-01
 0.7650047306396E-01 -0.8791715677408E-01  0.0000000000000E+00  0.8466552963354E-02
 0.7334562796465E-01 -0.8445512862182E-01  0.0000000000000E+00  0.8353113142565E-02
 0.6977622286941E-01 -0.8064673868447E-01  0.0000000000000E+00  0.9888293472141E-02
 0.6579109678447E-01 -0.7647445993663E-01  0.0000000000000E+00  0.1265212295274E-01
 0.6137027477887E-01 -0.7189893667134E-01  0.0000000000000E+00  0.1629097957839E-01
 0.5638969315753E-01 -0.6675947404787E-01  0.0000000000000E+00  0.2039865930827E-01
 0.5111210864496E-01 -0.6140637241977E-01  0.0000000000000E+00  0.2490104179417E-01
 0.4691583255158E-01 -0.5728458448764E-01  0.0000000000000E+00  0.3011560567960E-01
 0.4508042046486E-01 -0.5568062505834E-01  0.0000000000000E+00  0.3683801510250E-01
 0.4177834637424E-01 -0.6199025881509E-01  0.0000000000000E+00  0.3075980649464E+00
 0.4805596305013E-01 -0.6743759460762E-01  0.0000000000000E+00  0.2503145531738E+00
 0.5692896862581E-01 -0.7518720905422E-01  0.0000000000000E+00  0.1987366819887E+00
 0.6531325221432E-01 -0.8228138926212E-01  0.0000000000000E+00  0.1526812581799E+00
 0.7148817455574E-01 -0.8707648245469E-01  0.0000000000000E+00  0.1129912673891E+00
 0.7477444930602E-01 -0.8896859340274E-01  0.0000000000000E+00  0.8031692401335E-01
 0.7541125158730E-01 -0.8836203003495E-01  0.0000000000000E+00  0.5493004396580E-01
 0.7433695639889E-01 -0.8627267431060E-01  0.0000000000000E+00  0.3620635796831E-01
 0.7228078627972E-01 -0.8341031024601E-01  0.0000000000000E+00  0.2311279884492E-01
 0.6958660250791E-01 -0.8008606249790E-01  0.0000000000000E+00  0.1458221370932E-01
 0.6643586269887E-01 -0.7645210843785E-01  0.0000000000000E+00  0.9593292730517E-02
 0.6294739640134E-01 -0.7260172949180E-01  0.0000000000000E+00  0.7223969174563E-02
 0.5918300969412E-01 -0.6856634716303E-01  0.0000000000000E+00  0.6682047077050E-02
 0.5512799289888E-01 -0.6430524464137E-01  0.0000000000000E+00  0.7360556737825E-02
 0.5076209231805E-01 -0.5977852720212E-01  0.0000000000000E+00  0.8789772493697E-02
 0.4607390890745E-01 -0.5495242883907E-01  0.0000000000000E+00  0.1056845626419E-01
 0.4097473711824E-01 -0.4969778249547E-01  0.0000000000000E+00  0.1227259774200E-01
 0.3593394804788E-01 -0.4455495668760E-01  0.0000000000000E+00  0.1387028529768E-01
 0.3242601197477E-01 -0.4107008988842E-01  0.0000000000000E+00  0.1610936211173E-01
 0.3151529508180E-01 -0.4034235908930E-01  0.0000000000000E+00  0.2047745261884E-01
 0.4253207174733E-01 -0.6133995730870E-01  0.0000000000000E+00  0.3096198478570E+00
 0.4754950134587E-01 -0.6553446192099E-01  0.0000000000000E+00  0.2524366711018E+00
 0.5542993553600E-01 -0.7223005508764E-01  0.0000000000000E+00  0.1995532170218E+00
 0.6258527507674E-01 -0.7799961587646E-01  0.0000000000000E+00  0.1517232894787E+00
 0.6716728150958E-01 -0.8109506123254E-01  0.0000000000000E+00  0.1105677381888E+00
 0.6860924789001E-01 -0.8104298269678E-01  0.0000000000000E+00  0.7713359049888E-01
 0.6738023716569E-01 -0.7850700963181E-01  0.0000000000000E+00  0.5180450133308E-01
 0.6465472363922E-01 -0.7474395406456E-01  0.0000000000000E+00  0.3367593669537E-01
 0.6126157545923E-01 -0.7055320445260E-01  0.0000000000000E+00  0.2132746129432E-01
 0.5753551598451E-01 -0.6622667991828E-01  0.0000000000000E+00  0.1341261350134E-01
 0.5361662902715E-01 -0.6186563840595E-01  0.0000000000000E+00  0.8728477291930E-02
 0.4957625817821E-01 -0.5750817159837E-01  0.0000000000000E+00  0.6240963133731E-02
 0.4542962015484E-01 -0.5313344993692E-01  0.0000000000000E+00  0.5101660809247E-02
 0.4112866968014E-01 -0.4866362514593E-01  0.0000000000000E+00  0.4678791393728E-02
 0.3664805273462E-01 -0.4405103731341E-01  0.0000000000000E+00  0.4487094113999E-02
 0.3199963774408E-01 -0.3928280252528E-01  0.0000000000000E+00  0.4130058741181E-02
 0.2713612617553E-01 -0.3426882540637E-01  0.0000000000000E+00  0.3240080691223E-02
 0.2269729752872E-01 -0.2970224674192E-01  0.0000000000000E+00  0.1870273851544E-02
 0.2016204076338E-01 -0.2713881025767E-01  0.0000000000000E+00  0.1160638797053E-02
 0.2031955415416E-01 -0.2742496513607E-01  0.0000000000000E+00  0.3173851726273E-02
 0.4328773522330E-01 -0.6075051674099E-01  0.0000000000000E+00  0.3109406128199E+00
 0.4709594854031E-01 -0.6373088951757E-01  0.0000000000000E+00  0.2538660075717E+00
 0.5390605233796E-01 -0.6927195371310E-01  0.0000000000000E+00  0.1994037736265E+00
 0.5964166176062E-01 -0.7350185895091E-01  0.0000000000000E+00  0.1495964158514E+00
 0.6240546760676E-01 -0.7465439505936E-01  0.0000000000000E+00  0.1070307929478E+00
 0.6183955138936E-01 -0.7248724740359E-01  0.0000000000000E+00  0.7315949264870E-01
 0.5870539854684E-01 -0.6798782696401E-01  0.0000000000000E+00  0.4836783123202E-01
 0.5442123141788E-01 -0.6265664607950E-01  0.0000000000000E+00  0.3128491081959E-01
 0.4987357708237E-01 -0.5733623445600E-01  0.0000000000000E+00  0.1999363650033E-01
 0.4534339132453E-01 -0.5225110056786E-01  0.0000000000000E+00  0.1284368895454E-01
 0.4090061159201E-01 -0.4742026486723E-01  0.0000000000000E+00  0.8463583480889E-02
 0.3655423066638E-01 -0.4281095341003E-01  0.0000000000000E+00  0.5738877203578E-02
 0.3227051596299E-01 -0.3834836225081E-01  0.0000000000000E+00  0.3806632689458E-02
 0.2797664843741E-01 -0.3392715238800E-01  0.0000000000000E+00  0.2053356887042E-02
 0.2365473487886E-01 -0.2950551593563E-01  0.0000000000000E+00  0.2330609628010E-04
 0.1934848463467E-01 -0.2510115918724E-01  0.0000000000000E+00 -0.2623191254084E-02
 0.1505213421575E-01 -0.2066463230947E-01  0.0000000000000E+00 -0.6140687170119E-02
 0.1153744266301E-01 -0.1700332221113E-01  0.0000000000000E+00 -0.1037675129404E-01
 0.1022292009777E-01 -0.1561535776651E-01  0.0000000000000E+00 -0.1387073384236E-01
 0.1159459393896E-01 -0.1705856657411E-01  0.0000000000000E+00 -0.1410911332224E-01
 0.4408605094782E-01 -0.6028142922880E-01  0.0000000000000E+00  0.3115642237032E+00
 0.4675298631346E-01 -0.6209528079616E-01  0.0000000000000E+00  0.2544524562141E+00
 0.5235317459252E-01 -0.6630969573554E-01  0.0000000000000E+00  0.1980430282792E+00
 0.5639880332522E-01 -0.6869692517175E-01  0.0000000000000E+00  0.1460948388181E+00
 0.5707133651292E-01 -0.6761154674444E-01  0.0000000000000E+00  0.1023407793274E+00
 0.5434440673318E-01 -0.6317048975099E-01  0.0000000000000E+00  0.6857296017240E-01
 0.4932756301172E-01 -0.5674074008430E-01  0.0000000000000E+00  0.4496583033989E-01
 0.4365793575675E-01 -0.5003371710178E-01  0.0000000000000E+00  0.2944134393688E-01
 0.3820740589416E-01 -0.4385633113258E-01  0.0000000000000E+00  0.1949632463410E-01
 0.3314806147088E-01 -0.3830580869040E-01  0.0000000000000E+00  0.1319217549107E-01
 0.2845172520575E-01 -0.3328865997693E-01  0.0000000000000E+00  0.9039033795505E-02
 0.2405531577063E-01 -0.2869183130043E-01  0.0000000000000E+00  0.5903483965013E-02
 0.1987975641177E-01 -0.2439191446383E-01  0.0000000000000E+00  0.2968970764822E-02
 0.1583958417306E-01 -0.2027000293310E-01  0.0000000000000E+00 -0.3078128351438E-03
 0.1193599404067E-01 -0.1630327196844E-01  0.0000000000000E+00 -0.4307561154000E-02
 0.8249189914907E-02 -0.1254596226749E-01  0.0000000000000E+00 -0.9269429354305E-02
 0.4812684597469E-02 -0.8988414172671E-02  0.0000000000000E+00 -0.1529491145179E-01
 0.2490327976033E-02 -0.6513066221223E-02  0.0000000000000E+00 -0.2213339144275E-01
 0.2594190617733E-02 -0.6510630013008E-02  0.0000000000000E+00 -0.2809367951702E-01
 0.5306847495388E-02 -0.9240073972224E-02  0.0000000000000E+00 -0.3034899969407E-01
 0.4498560910233E-01 -0.6001746003145E-01  0.0000000000000E+00  0.3114836854721E+00
 0.4658876748789E-01 -0.6070966218203E-01  0.0000000000000E+00  0.2539553204056E+00
 0.5074000144408E-01 -0.6331117386910E-01  0.0000000000000E+00  0.1951286788412E+00
 0.5272032717133E-01 -0.6343578992326E-01  0.0000000000000E+00  0.1409817386375E+00
 0.5098674430816E-01 -0.5977189937598E-01  0.0000000000000E+00  0.9652124952541E-01
 0.4598945481183E-01 -0.5294655585047E-01  0.0000000000000E+00  0.6367842875580E-01
 0.3921264371154E-01 -0.4472868684221E-01  0.0000000000000E+00  0.4206384235789E-01
 0.3243275246924E-01 -0.3694822984324E-01  0.0000000000000E+00  0.2861808577048E-01
 0.2640050475420E-01 -0.3026097543332E-01  0.0000000000000E+00  0.2022312716369E-01
 0.2112106014212E-01 -0.2457335171500E-01  0.0000000000000E+00  0.1473253419481E-01
 0.1644837857660E-01 -0.1965871158121E-01  0.0000000000000E+00  0.1063457985281E-01
 0.1224770313113E-01 -0.1532631883597E-01  0.0000000000000E+00  0.6865165333647E-02
 0.8406476859610E-02 -0.1141905739545E-01  0.0000000000000E+00  0.2724200240786E-02
 0.4842524701583E-02 -0.7822740912400E-02  0.0000000000000E+00 -0.2212220034683E-02
 0.1586572370676E-02 -0.4545646724943E-02  0.0000000000000E+00 -0.8212981275039E-02
-0.1243620783372E-02 -0.1680855902855E-02  0.0000000000000E+00 -0.1538595238584E-01
-0.3579924745170E-02  0.7450971527562E-03  0.0000000000000E+00 -0.2365415953324E-01
-0.4509366829995E-02  0.1816085577394E-02  0.0000000000000E+00 -0.3267783409929E-01
-0.2859127785880E-02  0.2860207232566E-03  0.0000000000000E+00 -0.4063592232410E-01
 0.1277223565036E-02 -0.3821280210910E-02  0.0000000000000E+00 -0.4453659020072E-01
 0.4607001338156E-01 -0.6008021775682E-01  0.0000000000000E+00  0.3106694279115E+00
 0.4668103068523E-01 -0.5967022101565E-01  0.0000000000000E+00  0.2519939625032E+00
 0.4898860926176E-01 -0.6019395459085E-01  0.0000000000000E+00  0.1901872819254E+00
 0.4839515485341E-01 -0.5748637692996E-01  0.0000000000000E+00  0.1340046528217E+00
 0.4392232026859E-01 -0.5088306975448E-01  0.0000000000000E+00  0.8971331379335E-01
 0.3664504953125E-01 -0.4167344744259E-01  0.0000000000000E+00  0.5895590324961E-01
 0.2837944469608E-01 -0.3197181493735E-01  0.0000000000000E+00  0.4025480052178E-01
 0.2088031587476E-01 -0.2354579595955E-01  0.0000000000000E+00  0.2932144485279E-01
 0.1464287577594E-01 -0.1675449675027E-01  0.0000000000000E+00  0.2251629410781E-01
 0.9460857238519E-02 -0.1126480319250E-01  0.0000000000000E+00  0.1765381215053E-01
 0.5069697878482E-02 -0.6718490579229E-02  0.0000000000000E+00  0.1334163465303E-01
 0.1278465396413E-02 -0.2867285248150E-02  0.0000000000000E+00  0.8686158906763E-02
-0.2038048114549E-02  0.4547979761091E-03  0.0000000000000E+00  0.3166826028195E-02
-0.4940426071404E-02  0.3336421957792E-02  0.0000000000000E+00 -0.3486553689923E-02
-0.7360773787542E-02  0.5729062987006E-02  0.0000000000000E+00 -0.1140999847367E-01
-0.9147449468935E-02  0.7503526749771E-02  0.0000000000000E+00 -0.2056419407182E-01
-0.1020649378570E-01  0.8605307444827E-02  0.0000000000000E+00 -0.3068097108410E-01
-0.9623257376658E-02  0.8129682999754E-02  0.0000000000000E+00 -0.4134507128604E-01
-0.6387518654002E-02  0.5003017386645E-02  0.0000000000000E+00 -0.5070918635886E-01
-0.8150914722900E-03 -0.5104350559726E-03  0.0000000000000E+00 -0.5576436788519E-01
 0.4745842046345E-01 -0.6064674396389E-01  0.0000000000000E+00  0.3090456630520E+00
 0.4711244796331E-01 -0.5908472404708E-01  0.0000000000000E+00  0.2479655722266E+00
 0.4694100748106E-01 -0.5678759142305E-01  0.0000000000000E+00  0.1825686148385E+00
 0.4310752768185E-01 -0.5049801348136E-01  0.0000000000000E+00  0.1249355291836E+00
 0.3560112445026E-01 -0.4063735397786E-01  0.0000000000000E+00  0.8226262866399E-01
 0.2622077789086E-01 -0.2925148238950E-01  0.0000000000000E+00  0.5511419178741E-01
 0.1693645185418E-01 -0.1858871830372E-01  0.0000000000000E+00  0.4023913160987E-01
 0.9218170233235E-02 -0.1006271575521E-01  0.0000000000000E+00  0.3202602867199E-01
 0.3171864774355E-02 -0.3592123673939E-02  0.0000000000000E+00  0.2660619304443E-01
-0.1624211947598E-02  0.1399210547471E-02  0.0000000000000E+00  0.2201689370000E-01
-0.5523925201821E-02  0.5364830112230E-02  0.0000000000000E+00  0.1714740345574E-01
-0.8742437064636E-02  0.8572023016651E-02  0.0000000000000E+00  0.1136206086285E-01
-0.1139050316543E-01  0.1116427290371E-01  0.0000000000000E+00  0.4357685877430E-02
-0.1348987590211E-01  0.1318545928669E-01  0.0000000000000E+00 -0.3972186619561E-02
-0.1493323509675E-01  0.1454355758500E-01  0.0000000000000E+00 -0.1362835856383E-01
-0.1554501775524E-01  0.1508271161755E-01  0.0000000000000E+00 -0.2442282417288E-01
-0.1522007100436E-01  0.1473505748505E-01  0.0000000000000E+00 -0.3589539308849E-01
-0.1309432772018E-01  0.1265682707309E-01  0.0000000000000E+00 -0.4757339865488E-01
-0.8337207079930E-02  0.7968227259872E-02  0.0000000000000E+00 -0.5768090466843E-01
-0.1410287117296E-02  0.1108248337998E-02  0.0000000000000E+00 -0.6332356779774E-01
 0.4932125296666E-01 -0.6198081709532E-01  0.0000000000000E+00  0.3064407038894E+00
 0.4795625174484E-01 -0.5906098807107E-01  0.0000000000000E+00  0.2409011223875E+00
 0.4430003318303E-01 -0.5276486054040E-01  0.0000000000000E+00  0.1713888846302E+00
 0.3639890066269E-01 -0.4195428528060E-01  0.0000000000000E+00  0.1136639823762E+00
 0.2572283404329E-01 -0.2869717536115E-01  0.0000000000000E+00  0.7485317604493E-01
 0.1472420704846E-01 -0.1569054741122E-01  0.0000000000000E+00  0.5312639737853E-01
 0.5121307251795E-02 -0.4841382767247E-02  0.0000000000000E+00  0.4274788395287E-01
-0.2252711860769E-02  0.3173511436254E-02  0.0000000000000E+00  0.3706911787467E-01
-0.7750573132184E-02  0.8945855284698E-02  0.0000000000000E+00  0.3254012384921E-01
-0.1194308967363E-01  0.1321818824858E-01  0.0000000000000E+00  0.2772996622616E-01
-0.1521255670328E-01  0.1646821964962E-01  0.0000000000000E+00  0.2194120337228E-01
-0.1775531858612E-01  0.1893164655434E-01  0.0000000000000E+00  0.1484058986813E-01
-0.1964040972553E-01  0.2069880538225E-01  0.0000000000000E+00  0.6341387583862E-02
-0.2083932098848E-01  0.2175645818164E-01  0.0000000000000E+00 -0.3516345243204E-02
-0.2121082624674E-01  0.2197431554305E-01  0.0000000000000E+00 -0.1461222872062E-01
-0.2057224960138E-01  0.2118643794677E-01  0.0000000000000E+00 -0.2661994988265E-01
-0.1882799638553E-01  0.1933283171695E-01  0.0000000000000E+00 -0.3889990244431E-01
-0.1522093589814E-01  0.1568448518519E-01  0.0000000000000E+00 -0.5094721551776E-01
-0.9114079001150E-02  0.9574036963960E-02  0.0000000000000E+00 -0.6113930606361E-01
-0.1022984982098E-02  0.1532581711650E-02  0.0000000000000E+00 -0.6679441933905E-01
 0.5190286728721E-01 -0.6448913423023E-01  0.0000000000000E+00  0.3024738918008E+00
 0.4923628835007E-01 -0.5966896449396E-01  0.0000000000000E+00  0.2291978695465E+00
 0.4052164400022E-01 -0.4751196239773E-01  0.0000000000000E+00  0.1554764504791E+00
 0.2762978197152E-01 -0.3112070445189E-01  0.0000000000000E+00  0.1004070395457E+00
 0.1403389277539E-01 -0.1477698167807E-01  0.0000000000000E+00  0.6869378003233E-01
 0.2346645011722E-02 -0.1210628320488E-02  0.0000000000000E+00  0.5419096755538E-01
-0.6678045736889E-02  0.8840034704413E-02  0.0000000000000E+00  0.4837462189393E-01
-0.1317929174261E-01  0.1578176650669E-01  0.0000000000000E+00  0.4452318513778E-01
-0.1787817128883E-01  0.2059815667317E-01  0.0000000000000E+00  0.4014069122779E-01
-0.2135323772820E-01  0.2404548323224E-01  0.0000000000000E+00  0.3455853512371E-01
-0.2393507165141E-01  0.2653199603224E-01  0.0000000000000E+00  0.2754675544886E-01
-0.2575709736822E-01  0.2821099700952E-01  0.0000000000000E+00  0.1905446075373E-01
-0.2682794951105E-01  0.2909982331098E-01  0.0000000000000E+00  0.9167703968722E-02
-0.2706775412346E-01  0.2912785622794E-01  0.0000000000000E+00 -0.1964625665052E-02
-0.2631521798809E-01  0.2814037935278E-01  0.0000000000000E+00 -0.1412333920383E-01
-0.2440243001429E-01  0.2598310429668E-01  0.0000000000000E+00 -0.2686302929714E-01
-0.2126797490794E-01  0.2262896730179E-01  0.0000000000000E+00 -0.3939596200075E-01
-0.1632102973342E-01  0.1752170886435E-01  0.0000000000000E+00 -0.5122349847430E-01
-0.9132533964850E-02  0.1022646082271E-01  0.0000000000000E+00 -0.6093295251395E-01
-0.1740256019644E-03  0.1276367559081E-02  0.0000000000000E+00 -0.6610462310574E-01
 0.5555315519893E-01 -0.6883031221103E-01  0.0000000000000E+00  0.2962812369185E+00
 0.5081380968010E-01 -0.6082620456565E-01  0.0000000000000E+00  0.2100766295868E+00
 0.3461486862446E-01 -0.3986640679258E-01  0.0000000000000E+00  0.1333983694244E+00
 0.1598007083488E-01 -0.1704010304031E-01  0.0000000000000E+00  0.8617064893328E-01
 0.4887349803882E-03  0.1162713279126E-02  0.0000000000000E+00  0.6570734119309E-01
-0.1045078363003E-01  0.1364731645908E-01  0.0000000000000E+00  0.5949335793462E-01
-0.1796534875845E-01  0.2191812062248E-01  0.0000000000000E+00  0.5732556579181E-01
-0.2321856871011E-01  0.2739370541522E-01  0.0000000000000E+00  0.5412703911720E-01
-0.2702597660699E-01  0.3117197234525E-01  0.0000000000000E+00  0.4901753613164E-01
-0.2978792508103E-01  0.3381742532783E-01  0.0000000000000E+00  0.4217337798581E-01
-0.3169807382414E-01  0.3556855530201E-01  0.0000000000000E+00  0.3377623050526E-01
-0.3279763037179E-01  0.3646386519518E-01  0.0000000000000E+00  0.2395929738390E-01
-0.3303456683325E-01  0.3645048882275E-01  0.0000000000000E+00  0.1290772415907E-01
-0.3228843003536E-01  0.3541278661778E-01  0.0000000000000E+00  0.8395389929601E-03
-0.3039707113946E-01  0.3319114553259E-01  0.0000000000000E+00 -0.1194645115987E-01
-0.2722925482386E-01  0.2966308920398E-01  0.0000000000000E+00 -0.2491259678587E-01
-0.2278138352375E-01  0.2485942337693E-01  0.0000000000000E+00 -0.3718351196327E-01
-0.1669062055281E-01  0.1845718183807E-01  0.0000000000000E+00 -0.4832704026684E-01
-0.8755352159342E-02  0.1028414944147E-01  0.0000000000000E+00 -0.5716432412162E-01
 0.6936195126941E-03  0.7853620777009E-03  0.0000000000000E+00 -0.6152473067905E-01
 0.6072051256576E-01 -0.7615890386103E-01  0.0000000000000E+00  0.2856334114963E+00
 0.5204905143419E-01 -0.6187051493053E-01  0.0000000000000E+00  0.1784214468260E+00
 0.2477246398883E-01 -0.2763767092730E-01  0.0000000000000E+00  0.1038784099826E+00
 0.6386196475765E-03  0.1279483592204E-02  0.0000000000000E+00  0.7374906514487E-01
-0.1446153330458E-01  0.1846868862686E-01  0.0000000000000E+00  0.6840284674728E-01
-0.2297881725821E-01  0.2814551542511E-01  0.0000000000000E+00  0.6963547892817E-01
-0.2823581049548E-01  0.3384642067017E-01  0.0000000000000E+00  0.6932728647958E-01
-0.3209819536532E-01  0.3771850189506E-01  0.0000000000000E+00  0.6529639614345E-01
-0.3511396548402E-01  0.4059089051961E-01  0.0000000000000E+00  0.5862544079933E-01
-0.3727150643007E-01  0.4256960243243E-01  0.0000000000000E+00  0.5023465422747E-01
-0.3856951047003E-01  0.4365332853194E-01  0.0000000000000E+00  0.4049510961211E-01
-0.3896530247896E-01  0.4378240444553E-01  0.0000000000000E+00  0.2956123376671E-01
-0.3836899248259E-01  0.4286058695403E-01  0.0000000000000E+00  0.1765516617231E-01
-0.3663715142858E-01  0.4074800816552E-01  0.0000000000000E+00  0.5046396941849E-02
-0.3362513007369E-01  0.3729513161640E-01  0.0000000000000E+00 -0.7896180863515E-02
-0.2925319454033E-01  0.3242730467800E-01  0.0000000000000E+00 -0.2057558120904E-01
-0.2358825614481E-01  0.2623956799789E-01  0.0000000000000E+00 -0.3213231547335E-01
-0.1656331048736E-01  0.1871820944920E-01  0.0000000000000E+00 -0.4230421961388E-01
-0.8235393819636E-02  0.9996137342187E-02  0.0000000000000E+00 -0.5011979993268E-01
 0.1297853711982E-02  0.3530224310583E-03  0.0000000000000E+00 -0.5358330710187E-01
 0.6794168810602E-01 -0.8871759555117E-01  0.0000000000000E+00  0.2645285266154E+00
 0.5053614090645E-01 -0.6024496956681E-01  0.0000000000000E+00  0.1234103797191E+00
 0.7879430586406E-02 -0.6241356044126E-02  0.0000000000000E+00  0.6862014540214E-01
-0.1827319634064E-01  0.2295248107135E-01  0.0000000000000E+00  0.6929112571477E-01
-0.2983454213217E-01  0.3616124652912E-01  0.0000000000000E+00  0.7806131105661E-01
-0.3453333014987E-01  0.4152488203457E-01  0.0000000000000E+00  0.8460467674487E-01
-0.3701610323069E-01  0.4410389172657E-01  0.0000000000000E+00  0.8365360025992E-01
-0.3969153710939E-01  0.4662697819343E-01  0.0000000000000E+00  0.7714500976814E-01
-0.4220253124491E-01  0.4893818217311E-01  0.0000000000000E+00  0.6838610052027E-01
-0.4390862858632E-01  0.5042027332821E-01  0.0000000000000E+00  0.5851182832832E-01
-0.4465340899743E-01  0.5089583343810E-01  0.0000000000000E+00  0.4766787640772E-01
-0.4436800610701E-01  0.5027628327931E-01  0.0000000000000E+00  0.3591394698765E-01
-0.4295357139173E-01  0.4845504357384E-01  0.0000000000000E+00  0.2351593376190E-01
-0.4026179867640E-01  0.4527941646364E-01  0.0000000000000E+00  0.1078262924219E-01
-0.3618226023052E-01  0.4064187489326E-01  0.0000000000000E+00 -0.1827011886157E-02
-0.3067661836816E-01  0.3447870896652E-01  0.0000000000000E+00 -0.1368008872470E-01
-0.2387215013692E-01  0.2695604445943E-01  0.0000000000000E+00 -0.2411429263510E-01
-0.1607133406004E-01  0.1842068519892E-01  0.0000000000000E+00 -0.3321234522722E-01
-0.7665772550975E-02  0.9452547648190E-02  0.0000000000000E+00 -0.4016197646452E-01
 0.1573812548222E-02  0.5632921708025E-04  0.0000000000000E+00 -0.4290254300058E-01
 0.7165108594062E-01 -0.1128571208770E+00  0.0000000000000E+00  0.1938625725686E+00
 0.3649335248160E-01 -0.3620492230472E-01  0.0000000000000E+00  0.2558161879176E-01
-0.1801179843130E-01  0.2271258629744E-01  0.0000000000000E+00  0.4708649962904E-01
-0.3889705097408E-01  0.4638078804062E-01  0.0000000000000E+00  0.7463263775167E-01
-0.4490912364265E-01  0.5355082567662E-01  0.0000000000000E+00  0.9508323810428E-01
-0.4424350068224E-01  0.5278320357243E-01  0.0000000000000E+00  0.1040828966014E+00
-0.4398574304237E-01  0.5232720390277E-01  0.0000000000000E+00  0.9890786786967E-01
-0.4612393254496E-01  0.5429597371940E-01  0.0000000000000E+00  0.8861478871430E-01
-0.4847985269905E-01  0.5642909491487E-01  0.0000000000000E+00  0.7793519964715E-01
-0.4983394718851E-01  0.5751499952983E-01  0.0000000000000E+00  0.6698013383517E-01
-0.5005316662435E-01  0.5739462712088E-01  0.0000000000000E+00  0.5534145104990E-01
-0.4912405418572E-01  0.5606807170942E-01  0.0000000000000E+00  0.4306808193671E-01
-0.4692432911058E-01  0.5337647814350E-01  0.0000000000000E+00  0.3060537446768E-01
-0.4329509987173E-01  0.4913914033682E-01  0.0000000000000E+00  0.1818451798331E-01
-0.3825998105710E-01  0.4340152196229E-01  0.0000000000000E+00  0.6254219317078E-02
-0.3176383546302E-01  0.3615234693218E-01  0.0000000000000E+00 -0.4072673177460E-02
-0.2375806512991E-01  0.2709634492631E-01  0.0000000000000E+00 -0.1269618939338E-01
-0.1514514947356E-01  0.1746299275357E-01  0.0000000000000E+00 -0.2105289323015E-01
-0.6944017269163E-02  0.8551860908940E-02  0.0000000000000E+00 -0.2772856688428E-01
 0.1627783442884E-02 -0.1848579854415E-03  0.0000000000000E+00 -0.3007672047902E-01
 0.4124623663168E+00 -0.4532743464117E+00  0.0000000000000E+00 -0.2649027713436E+00
 0.3997992856905E+00 -0.4388841753488E+00  0.0000000000000E+00 -0.2741054299225E+00
 0.3841194163085E+00 -0.4222506844323E+00  0.0000000000000E+00 -0.2841050817222E+00
 0.3656026472474E+00 -0.4026607727157E+00  0.0000000000000E+00 -0.2932488546116E+00
 0.3442259813797E+00 -0.3800962214745E+00  0.0000000000000E+00 -0.3008718802884E+00
 0.3202542845561E+00 -0.3547815832755E+00  0.0000000000000E+00 -0.3064358029997E+00
 0.2939864291581E+00 -0.3269995899697E+00  0.0000000000000E+00 -0.3093594478341E+00
 0.2657756261742E+00 -0.2970857928240E+00  0.0000000000000E+00 -0.3090221342261E+00
 0.2360287249038E+00 -0.2654304841841E+00  0.0000000000000E+00 -0.3047736369003E+00
 0.2052152445647E+00 -0.2324872961498E+00  0.0000000000000E+00 -0.2959518082229E+00
 0.1738790260658E+00 -0.1987858908243E+00  0.0000000000000E+00 -0.2819070632523E+00
 0.1426556267915E+00 -0.1649505917423E+00  0.0000000000000E+00 -0.2620400915608E+00
 0.1122961934738E+00 -0.1317260737730E+00  0.0000000000000E+00 -0.2358618433895E+00
 0.8369733296106E-01 -0.1000100072372E+00  0.0000000000000E+00 -0.2030903075390E+00
 0.5793270748821E-01 -0.7088920535035E-01  0.0000000000000E+00 -0.1638066015944E+00
 0.3627261818561E-01 -0.4566764669593E-01  0.0000000000000E+00 -0.1187051596759E+00
 0.2015820334506E-01 -0.2585500238504E-01  0.0000000000000E+00 -0.6948328277843E-01
 0.1103674078774E-01 -0.1303567901022E-01  0.0000000000000E+00 -0.1943253808094E-01
 0.9862259623146E-02 -0.8406140812051E-02  0.0000000000000E+00  0.2581766678890E-01
 0.1572107970881E-01 -0.1157126788248E-01  0.0000000000000E+00  0.5744105197851E-01
 0.4199060652523E+00 -0.4607855085793E+00  0.0000000000000E+00 -0.2641768097874E+00
 0.4100786848903E+00 -0.4503679680027E+00  0.0000000000000E+00 -0.2748944393955E+00
 0.3961100486193E+00 -0.4354752118003E+00  0.0000000000000E+00 -0.2856664031566E+00
 0.3791988640230E+00 -0.4177052720673E+00  0.0000000000000E+00 -0.2967672231456E+00
 0.3595502174876E+00 -0.3970870765509E+00  0.0000000000000E+00 -0.3068540477633E+00
 0.3372798018291E+00 -0.3737123497983E+00  0.0000000000000E+00 -0.3152367541507E+00
 0.3126029073003E+00 -0.3477654469047E+00  0.0000000000000E+00 -0.3212671098810E+00
 0.2857960913649E+00 -0.3195000584857E+00  0.0000000000000E+00 -0.3242967113064E+00
 0.2571939836469E+00 -0.2892274217195E+00  0.0000000000000E+00 -0.3236476673996E+00
 0.2271886635727E+00 -0.2573159715861E+00  0.0000000000000E+00 -0.3186162802430E+00
 0.1962379137844E+00 -0.2241994623415E+00  0.0000000000000E+00 -0.3084827431779E+00
 0.1648818685954E+00 -0.1903942114515E+00  0.0000000000000E+00 -0.2925288395202E+00
 0.1337710777780E+00 -0.1565280607489E+00  0.0000000000000E+00 -0.2700696071900E+00
 0.1037093196570E+00 -0.1233846323990E+00  0.0000000000000E+00 -0.2405129311311E+00
 0.7571383161671E-01 -0.9196621970347E-01  0.0000000000000E+00 -0.2034730178083E+00
 0.5109176598133E-01 -0.6357529628443E-01  0.0000000000000E+00 -0.1589842479355E+00
 0.3151603859708E-01 -0.3990327029784E-01  0.0000000000000E+00 -0.1079023867310E+00
 0.1905247040456E-01 -0.2308096111894E-01  0.0000000000000E+00 -0.5263898109028E-01
 0.1593605930824E-01 -0.1554893283811E-01  0.0000000000000E+00  0.1419760946973E-02
 0.2376324270413E-01 -0.1930018880346E-01  0.0000000000000E+00  0.4368023905043E-01
 0.4266145930480E+00 -0.4680200355960E+00  0.0000000000000E+00 -0.2594965194972E+00
 0.4189014443096E+00 -0.4599567522669E+00  0.0000000000000E+00 -0.2729554041046E+00
 0.4073369770755E+00 -0.4478703430300E+00  0.0000000000000E+00 -0.2852216044112E+00
 0.3925041600428E+00 -0.4323919926371E+00  0.0000000000000E+00 -0.2976834453923E+00
 0.3748547010325E+00 -0.4140200882987E+00  0.0000000000000E+00 -0.3097093171668E+00
 0.3545810665867E+00 -0.3929011581768E+00  0.0000000000000E+00 -0.3204983311969E+00
 0.3318573717515E+00 -0.3691829900321E+00  0.0000000000000E+00 -0.3293507147385E+00
 0.3069053130121E+00 -0.3430590887696E+00  0.0000000000000E+00 -0.3355893989298E+00
 0.2799979551315E+00 -0.3147749657251E+00  0.0000000000000E+00 -0.3385317159625E+00
 0.2514602310812E+00 -0.2846262273322E+00  0.0000000000000E+00 -0.3374759317505E+00
 0.2216713796731E+00 -0.2529605659037E+00  0.0000000000000E+00 -0.3316982449139E+00
 0.1910745483736E+00 -0.2201868727618E+00  0.0000000000000E+00 -0.3204522922953E+00
 0.1601974306796E+00 -0.1867954721730E+00  0.0000000000000E+00 -0.3029717661317E+00
 0.1296901356047E+00 -0.1533954740691E+00  0.0000000000000E+00 -0.2784832047060E+00
 0.1003892887734E+00 -0.1207781623716E+00  0.0000000000000E+00 -0.2462471705661E+00
 0.7341975740392E-01 -0.9001850630124E-01  0.0000000000000E+00 -0.2056683131939E+00
 0.5034825268742E-01 -0.6262901947352E-01  0.0000000000000E+00 -0.1565585243445E+00
 0.3338733584355E-01 -0.4077510310998E-01  0.0000000000000E+00 -0.9973912206566E-01
 0.2566635334433E-01 -0.2755270666060E-01  0.0000000000000E+00 -0.3837364580365E-01
 0.3114004339035E-01 -0.2712446531123E-01  0.0000000000000E+00  0.1876597877552E-01
 0.4330692191620E+00 -0.4750085503827E+00  0.0000000000000E+00 -0.2526880235183E+00
 0.4269915570288E+00 -0.4688057535870E+00  0.0000000000000E+00 -0.2679139139315E+00
 0.4176259179379E+00 -0.4591743333933E+00  0.0000000000000E+00 -0.2818555041595E+00
 0.4050926935479E+00 -0.4462755812024E+00  0.0000000000000E+00 -0.2956643809419E+00
 0.3896914568484E+00 -0.4304099885561E+00  0.0000000000000E+00 -0.3092183531044E+00
 0.3716495012897E+00 -0.4117990560785E+00  0.0000000000000E+00 -0.3219446257936E+00
 0.3511459477044E+00 -0.3905955434204E+00  0.0000000000000E+00 -0.3331686713474E+00
 0.3283736939636E+00 -0.3669659831525E+00  0.0000000000000E+00 -0.3422168435460E+00
 0.3035656276226E+00 -0.3411143198895E+00  0.0000000000000E+00 -0.3484144942472E+00
 0.2770009073798E+00 -0.3132884772489E+00  0.0000000000000E+00 -0.3510814188855E+00
 0.2490071589111E+00 -0.2837814596665E+00  0.0000000000000E+00 -0.3495268544317E+00
 0.2199641290873E+00 -0.2529340000302E+00  0.0000000000000E+00 -0.3430430389397E+00
 0.1903138246152E+00 -0.2211432340033E+00  0.0000000000000E+00 -0.3308934602212E+00
 0.1605834130985E+00 -0.1888833398536E+00  0.0000000000000E+00 -0.3122949220464E+00
 0.1314311373839E+00 -0.1567477858736E+00  0.0000000000000E+00 -0.2863981809153E+00
 0.1037330314926E+00 -0.1255295396896E+00  0.0000000000000E+00 -0.2522847952081E+00
 0.7873818523765E-01 -0.9636639690793E-01  0.0000000000000E+00 -0.2090300437009E+00
 0.5834694693176E-01 -0.7099741376358E-01  0.0000000000000E+00 -0.1559492682477E+00
 0.4558245617918E-01 -0.5221096192389E-01  0.0000000000000E+00 -0.9329782963151E-01
 0.4561453185590E-01 -0.4473293045211E-01  0.0000000000000E+00 -0.2435974612823E-01
 0.4390857368203E+00 -0.4815324161385E+00  0.0000000000000E+00 -0.2441785643838E+00
 0.4344466804115E+00 -0.4769539832893E+00  0.0000000000000E+00 -0.2602944647815E+00
 0.4270458124052E+00 -0.4695160423269E+00  0.0000000000000E+00 -0.2754368430094E+00
 0.4167513781587E+00 -0.4591029627056E+00  0.0000000000000E+00 -0.2903797140803E+00
 0.4036898040597E+00 -0.4458421150424E+00  0.0000000000000E+00 -0.3051453388372E+00
 0.3880238555665E+00 -0.4298855601299E+00  0.0000000000000E+00 -0.3193551199162E+00
 0.3699143258620E+00 -0.4113771193854E+00  0.0000000000000E+00 -0.3324447031791E+00
 0.3495326789133E+00 -0.3904643322023E+00  0.0000000000000E+00 -0.3437824731725E+00
 0.3270817366170E+00 -0.3673232336585E+00  0.0000000000000E+00 -0.3527163018115E+00
 0.3028073628259E+00 -0.3421698200983E+00  0.0000000000000E+00 -0.3585873215624E+00
 0.2770035336657E+00 -0.3152648578836E+00  0.0000000000000E+00 -0.3607350993992E+00
 0.2500156197468E+00 -0.2869162455899E+00  0.0000000000000E+00 -0.3584966869792E+00
 0.2222457523280E+00 -0.2574829662128E+00  0.0000000000000E+00 -0.3511970665898E+00
 0.1941654098958E+00 -0.2273853228103E+00  0.0000000000000E+00 -0.3381257625183E+00
 0.1663439731424E+00 -0.1971293169975E+00  0.0000000000000E+00 -0.3184936958708E+00
 0.1395092885245E+00 -0.1673597568984E+00  0.0000000000000E+00 -0.2913659923503E+00
 0.1146730159615E+00 -0.1389703545815E+00  0.0000000000000E+00 -0.2555740577428E+00
 0.9337672264528E-01 -0.1133241030556E+00  0.0000000000000E+00 -0.2096372829012E+00
 0.7818809265719E-01 -0.9268502612457E-01  0.0000000000000E+00 -0.1517643623161E+00
 0.7382310227430E-01 -0.8118687933144E-01  0.0000000000000E+00 -0.7985456661233E-01
 0.4445360959130E+00 -0.4874410334883E+00  0.0000000000000E+00 -0.2342268360007E+00
 0.4412114425996E+00 -0.4843345991026E+00  0.0000000000000E+00 -0.2504717203130E+00
 0.4355713292243E+00 -0.4788505497816E+00  0.0000000000000E+00 -0.2662194310068E+00
 0.4273644302175E+00 -0.4707446713219E+00  0.0000000000000E+00 -0.2818761606117E+00
 0.4165843652271E+00 -0.4600069091147E+00  0.0000000000000E+00 -0.2974669855297E+00
 0.4033102617083E+00 -0.4467067989567E+00  0.0000000000000E+00 -0.3127166907751E+00
 0.3876539639872E+00 -0.4309407625811E+00  0.0000000000000E+00 -0.3271633869562E+00
 0.3697518856607E+00 -0.4128255020367E+00  0.0000000000000E+00 -0.3402423526358E+00
 0.3497720814327E+00 -0.3925054705289E+00  0.0000000000000E+00 -0.3513369854639E+00
 0.3279235839294E+00 -0.3701631572165E+00  0.0000000000000E+00 -0.3598068710585E+00
 0.3044632081597E+00 -0.3460258904017E+00  0.0000000000000E+00 -0.3650027267727E+00
 0.2797000798333E+00 -0.3203701188880E+00  0.0000000000000E+00 -0.3662736350040E+00
 0.2539998739116E+00 -0.2935250344970E+00  0.0000000000000E+00 -0.3629651471226E+00
 0.2277918344373E+00 -0.2658784919461E+00  0.0000000000000E+00 -0.3544025456509E+00
 0.2015841315619E+00 -0.2378903872956E+00  0.0000000000000E+00 -0.3398487119723E+00
 0.1759990892687E+00 -0.2101238168516E+00  0.0000000000000E+00 -0.3184192827604E+00
 0.1518508927940E+00 -0.1833151622754E+00  0.0000000000000E+00 -0.2889279036989E+00
 0.1303189625972E+00 -0.1585277643621E+00  0.0000000000000E+00 -0.2496190828656E+00
 0.1132922748005E+00 -0.1374711073899E+00  0.0000000000000E+00 -0.1977490977123E+00
 0.1039924316058E+00 -0.1230763998727E+00  0.0000000000000E+00 -0.1286782931565E+00
 0.4493138899968E+00 -0.4926221812876E+00  0.0000000000000E+00 -0.2230247169273E+00
 0.4472177782091E+00 -0.4908759646194E+00  0.0000000000000E+00 -0.2388059324603E+00
 0.4431663512027E+00 -0.4871441090069E+00  0.0000000000000E+00 -0.2545816450618E+00
 0.4368727244279E+00 -0.4811407368351E+00  0.0000000000000E+00 -0.2704762343354E+00
 0.4282453640736E+00 -0.4727696796648E+00  0.0000000000000E+00 -0.2864604842499E+00
 0.4172884845118E+00 -0.4620258268393E+00  0.0000000000000E+00 -0.3023073727677E+00
 0.4040562898713E+00 -0.4489502032935E+00  0.0000000000000E+00 -0.3176314003024E+00
 0.3886378448561E+00 -0.4336150146877E+00  0.0000000000000E+00 -0.3319362171222E+00
 0.3711566171980E+00 -0.4161237177258E+00  0.0000000000000E+00 -0.3446526029410E+00
 0.3517753534480E+00 -0.3966162046699E+00  0.0000000000000E+00 -0.3551656094687E+00
 0.3307016995341E+00 -0.3752747686247E+00  0.0000000000000E+00 -0.3628331917477E+00
 0.3081926185535E+00 -0.3523286757842E+00  0.0000000000000E+00 -0.3669980559230E+00
 0.2845572549024E+00 -0.3280571509937E+00  0.0000000000000E+00 -0.3669919809064E+00
 0.2601587319698E+00 -0.3027913169091E+00  0.0000000000000E+00 -0.3621278016723E+00
 0.2354163429443E+00 -0.2769165780827E+00  0.0000000000000E+00 -0.3516687159220E+00
 0.2108114935649E+00 -0.2508789685340E+00  0.0000000000000E+00 -0.3347551750124E+00
 0.1869068688297E+00 -0.2252041084465E+00  0.0000000000000E+00 -0.3102522500524E+00
 0.1643966545560E+00 -0.2005485161751E+00  0.0000000000000E+00 -0.2764487302061E+00
 0.1442569618409E+00 -0.1778348737176E+00  0.0000000000000E+00 -0.2304852343902E+00
 0.1279051701940E+00 -0.1584703448972E+00  0.0000000000000E+00 -0.1676028196548E+00
 0.4533307133848E+00 -0.4969822281171E+00  0.0000000000000E+00 -0.2107108867438E+00
 0.4523879969042E+00 -0.4964984910705E+00  0.0000000000000E+00 -0.2255855652200E+00
 0.4497770251058E+00 -0.4943430227641E+00  0.0000000000000E+00 -0.2408846110529E+00
 0.4452224086585E+00 -0.4902385215712E+00  0.0000000000000E+00 -0.2565455881713E+00
 0.4385875679777E+00 -0.4840436395204E+00  0.0000000000000E+00 -0.2724791086276E+00
 0.4298210154336E+00 -0.4756989158129E+00  0.0000000000000E+00 -0.2884784167123E+00
 0.4189239226447E+00 -0.4651944989904E+00  0.0000000000000E+00 -0.3042149975834E+00
 0.4059357634189E+00 -0.4525559861912E+00  0.0000000000000E+00 -0.3192573232524E+00
 0.3909307618400E+00 -0.4378409969597E+00  0.0000000000000E+00 -0.3330929090091E+00
 0.3740197366172E+00 -0.4211412582833E+00  0.0000000000000E+00 -0.3451480125226E+00
 0.3553538467113E+00 -0.4025865957871E+00  0.0000000000000E+00 -0.3548038422319E+00
 0.3351280999784E+00 -0.3823487714165E+00  0.0000000000000E+00 -0.3614092590352E+00
 0.3135831975866E+00 -0.3606437897724E+00  0.0000000000000E+00 -0.3642892385351E+00
 0.2910044659798E+00 -0.3377316109807E+00  0.0000000000000E+00 -0.3627463782759E+00
 0.2677162433578E+00 -0.3139119855904E+00  0.0000000000000E+00 -0.3560490190630E+00
 0.2440693599743E+00 -0.2895145794045E+00  0.0000000000000E+00 -0.3433928228799E+00
 0.2204173524453E+00 -0.2648807020518E+00  0.0000000000000E+00 -0.3238091558702E+00
 0.1970789723528E+00 -0.2403342969882E+00  0.0000000000000E+00 -0.2959662868607E+00
 0.1742746044032E+00 -0.2161429449612E+00  0.0000000000000E+00 -0.2577473252868E+00
 0.1522538229024E+00 -0.1925761373880E+00  0.0000000000000E+00 -0.2054452679407E+00
 0.4565158323302E+00 -0.5004466126763E+00  0.0000000000000E+00 -0.1973970780183E+00
 0.4566497384103E+00 -0.5011283075882E+00  0.0000000000000E+00 -0.2110464939890E+00
 0.4553453544143E+00 -0.5003903270941E+00  0.0000000000000E+00 -0.2254527360894E+00
 0.4523617800256E+00 -0.4979886815093E+00  0.0000000000000E+00 -0.2404495658941E+00
 0.4475464234142E+00 -0.4937666576194E+00  0.0000000000000E+00 -0.2559033006204E+00
 0.4408122997801E+00 -0.4876310047599E+00  0.0000000000000E+00 -0.2716184212741E+00
 0.4321187637965E+00 -0.4795325308124E+00  0.0000000000000E+00 -0.2873117232204E+00
 0.4214609551620E+00 -0.4694555256993E+00  0.0000000000000E+00 -0.3026123070405E+00
 0.4088660246508E+00 -0.4574140219420E+00  0.0000000000000E+00 -0.3170703560676E+00
 0.3943934900416E+00 -0.4434522179961E+00  0.0000000000000E+00 -0.3301682899178E+00
 0.3781375590104E+00 -0.4276469444958E+00  0.0000000000000E+00 -0.3413319964609E+00
 0.3602297166109E+00 -0.4101104833618E+00  0.0000000000000E+00 -0.3499414265734E+00
 0.3408400782754E+00 -0.3909923267653E+00  0.0000000000000E+00 -0.3553402247014E+00
 0.3201757804691E+00 -0.3704783061436E+00  0.0000000000000E+00 -0.3568436639828E+00
 0.2984738353301E+00 -0.3487848204907E+00  0.0000000000000E+00 -0.3537430322885E+00
 0.2759838295238E+00 -0.3261442384004E+00  0.0000000000000E+00 -0.3453023173254E+00
 0.2529321528598E+00 -0.3027741837981E+00  0.0000000000000E+00 -0.3307386579728E+00
 0.2294493874526E+00 -0.2788165221279E+00  0.0000000000000E+00 -0.3091665607178E+00
 0.2054348634976E+00 -0.2542198641483E+00  0.0000000000000E+00 -0.2794615850733E+00
 0.1802779887285E+00 -0.2285398143816E+00  0.0000000000000E+00 -0.2397443414443E+00
 0.4588141520200E+00 -0.5029572769505E+00  0.0000000000000E+00 -0.1831800339960E+00
 0.4599395983124E+00 -0.5047018009962E+00  0.0000000000000E+00 -0.1953814411257E+00
 0.4598147740084E+00 -0.5052323253355E+00  0.0000000000000E+00 -0.2085664223196E+00
 0.4582408288666E+00 -0.5043469883743E+00  0.0000000000000E+00 -0.2225275543120E+00
 0.4550676780777E+00 -0.5018925467008E+00  0.0000000000000E+00 -0.2371093749321E+00
 0.4501897817811E+00 -0.4977590574970E+00  0.0000000000000E+00 -0.2521282520859E+00
 0.4435373459803E+00 -0.4918706933575E+00  0.0000000000000E+00 -0.2673398792125E+00
 0.4350701748097E+00 -0.4841794574778E+00  0.0000000000000E+00 -0.2824291326174E+00
 0.4247750554983E+00 -0.4746624956363E+00  0.0000000000000E+00 -0.2970098949774E+00
 0.4126658364963E+00 -0.4633221447987E+00  0.0000000000000E+00 -0.3106292763832E+00
 0.3987850844268E+00 -0.4501875979821E+00  0.0000000000000E+00 -0.3227738649831E+00
 0.3832062340419E+00 -0.4353171191088E+00  0.0000000000000E+00 -0.3328771791726E+00
 0.3660351201511E+00 -0.4187997296437E+00  0.0000000000000E+00 -0.3403283001249E+00
 0.3474095318602E+00 -0.4007550810977E+00  0.0000000000000E+00 -0.3444821938330E+00
 0.3274947324254E+00 -0.3813296088576E+00  0.0000000000000E+00 -0.3446727677348E+00
 0.3064714463965E+00 -0.3606857088399E+00  0.0000000000000E+00 -0.3402306586773E+00
 0.2845095293793E+00 -0.3389778767061E+00  0.0000000000000E+00 -0.3305095955893E+00
 0.2617144481152E+00 -0.3163035528524E+00  0.0000000000000E+00 -0.3149305890950E+00
 0.2380130207691E+00 -0.2926021811966E+00  0.0000000000000E+00 -0.2930573490138E+00
 0.2128544801565E+00 -0.2673996021790E+00  0.0000000000000E+00 -0.2647843762670E+00
 0.4601846568244E+00 -0.5044710290064E+00  0.0000000000000E+00 -0.1681470632056E+00
 0.4622052630500E+00 -0.5071669136211E+00  0.0000000000000E+00 -0.1787459213357E+00
 0.4631332254616E+00 -0.5088205766887E+00  0.0000000000000E+00 -0.1904558835537E+00
 0.4628108285145E+00 -0.5092718534402E+00  0.0000000000000E+00 -0.2030712428058E+00
 0.4611002898192E+00 -0.5083809504871E+00  0.0000000000000E+00 -0.2164359353006E+00
 0.4578896255907E+00 -0.5060332685324E+00  0.0000000000000E+00 -0.2303828229590E+00
 0.4530909582606E+00 -0.5021372677347E+00  0.0000000000000E+00 -0.2447029078317E+00
 0.4466381560474E+00 -0.4966218877130E+00  0.0000000000000E+00 -0.2591312120741E+00
 0.4384857965721E+00 -0.4894353809056E+00  0.0000000000000E+00 -0.2733415168252E+00
 0.4286096566732E+00 -0.4805457062415E+00  0.0000000000000E+00 -0.2869458567406E+00
 0.4170083599064E+00 -0.4699420993474E+00  0.0000000000000E+00 -0.2994968122200E+00
 0.4037056557068E+00 -0.4576372850050E+00  0.0000000000000E+00 -0.3104918730648E+00
 0.3887527465396E+00 -0.4436697451068E+00  0.0000000000000E+00 -0.3193799787033E+00
 0.3722299837984E+00 -0.4281053600133E+00  0.0000000000000E+00 -0.3255711231646E+00
 0.3542470380267E+00 -0.4110375142261E+00  0.0000000000000E+00 -0.3284509928515E+00
 0.3349401817241E+00 -0.3925842893813E+00  0.0000000000000E+00 -0.3274044476432E+00
 0.3144646206336E+00 -0.3728804780556E+00  0.0000000000000E+00 -0.3218554235519E+00
 0.2929782026545E+00 -0.3520606656453E+00  0.0000000000000E+00 -0.3113385518462E+00
 0.2706100583102E+00 -0.3302250361466E+00  0.0000000000000E+00 -0.2956426368500E+00
 0.2474205343974E+00 -0.3073796831553E+00  0.0000000000000E+00 -0.2751529151367E+00
 0.4605920168318E+00 -0.5049504594253E+00  0.0000000000000E+00 -0.1523784315100E+00
 0.4633946662105E+00 -0.5084724678654E+00  0.0000000000000E+00 -0.1612616964326E+00
 0.4652423827521E+00 -0.5111014328805E+00  0.0000000000000E+00 -0.1713011256823E+00
 0.4660122136510E+00 -0.5127129272091E+00  0.0000000000000E+00 -0.1823187529975E+00
 0.4655821590652E+00 -0.5131841513806E+00  0.0000000000000E+00 -0.1941739748473E+00
 0.4638411938003E+00 -0.5124031299227E+00  0.0000000000000E+00 -0.2067215539498E+00
 0.4606916357614E+00 -0.5102706556264E+00  0.0000000000000E+00 -0.2197860882993E+00
 0.4560494229509E+00 -0.5067003264801E+00  0.0000000000000E+00 -0.2331475441044E+00
 0.4498444467536E+00 -0.5016187188806E+00  0.0000000000000E+00 -0.2465335907703E+00
 0.4420216189195E+00 -0.4949663274112E+00  0.0000000000000E+00 -0.2596161021768E+00
 0.4325427589905E+00 -0.4866993319785E+00  0.0000000000000E+00 -0.2720104033172E+00
 0.4213891827085E+00 -0.4767920544377E+00  0.0000000000000E+00 -0.2832766668391E+00
 0.4085648343689E+00 -0.4652399242567E+00  0.0000000000000E+00 -0.2929234794944E+00
 0.3940998586359E+00 -0.4520628086420E+00  0.0000000000000E+00 -0.3004142016347E+00
 0.3780546361916E+00 -0.4373086590970E+00  0.0000000000000E+00 -0.3051775373500E+00
 0.3605245920732E+00 -0.4210576209525E+00  0.0000000000000E+00 -0.3066249939256E+00
 0.3416467082142E+00 -0.4034272385668E+00  0.0000000000000E+00 -0.3041799182301E+00
 0.3216105906088E+00 -0.3845806703757E+00  0.0000000000000E+00 -0.2973265323489E+00
 0.3006838049056E+00 -0.3647449897564E+00  0.0000000000000E+00 -0.2856931873776E+00
 0.2792867920738E+00 -0.3442671447304E+00  0.0000000000000E+00 -0.2691728785935E+00
 0.4600065221241E+00 -0.5043635118314E+00  0.0000000000000E+00 -0.1359642909975E+00
 0.4634599749517E+00 -0.5085694635082E+00  0.0000000000000E+00 -0.1430388333311E+00
 0.4660825935774E+00 -0.5120157812683E+00  0.0000000000000E+00 -0.1512517452585E+00
 0.4677782450101E+00 -0.5146060844112E+00  0.0000000000000E+00 -0.1604647995603E+00
 0.4684406539129E+00 -0.5162345461283E+00  0.0000000000000E+00 -0.1705631595639E+00
 0.4679637165901E+00 -0.5167956529153E+00  0.0000000000000E+00 -0.1814282317080E+00
 0.4662456245278E+00 -0.5161879795834E+00  0.0000000000000E+00 -0.1929180665624E+00
 0.4631906079025E+00 -0.5143157084008E+00  0.0000000000000E+00 -0.2048542778961E+00
 0.4587101367005E+00 -0.5110896687628E+00  0.0000000000000E+00 -0.2170135889402E+00
 0.4527243755864E+00 -0.5064286572910E+00  0.0000000000000E+00 -0.2291225201801E+00
 0.4451641982958E+00 -0.5002613212032E+00  0.0000000000000E+00 -0.2408542841870E+00
 0.4359738684477E+00 -0.4925286921891E+00  0.0000000000000E+00 -0.2518273983707E+00
 0.4251144612407E+00 -0.4831874208085E+00  0.0000000000000E+00 -0.2616058567044E+00
 0.4125681920686E+00 -0.4722138384279E+00  0.0000000000000E+00 -0.2697009664064E+00
 0.3983440516768E+00 -0.4596091753260E+00  0.0000000000000E+00 -0.2755752153198E+00
 0.3824855806810E+00 -0.4454066503763E+00  0.0000000000000E+00 -0.2786488081868E+00
 0.3650824140391E+00 -0.4296818362898E+00  0.0000000000000E+00 -0.2783096737876E+00
 0.3462887476991E+00 -0.4125691048618E+00  0.0000000000000E+00 -0.2739267579766E+00
 0.3263549359427E+00 -0.3942898604785E+00  0.0000000000000E+00 -0.2648600278091E+00
 0.3056767216640E+00 -0.3752005960108E+00  0.0000000000000E+00 -0.2504392404942E+00
 0.4584053820099E+00 -0.5026850394470E+00  0.0000000000000E+00 -0.1190139930410E+00
 0.4623634556372E+00 -0.5074175469338E+00  0.0000000000000E+00 -0.1241988104138E+00
 0.4656030421932E+00 -0.5115101211378E+00  0.0000000000000E+00 -0.1304575498804E+00
 0.4680481384970E+00 -0.5148877451762E+00  0.0000000000000E+00 -0.1376943767269E+00
 0.4696066660484E+00 -0.5174600077520E+00  0.0000000000000E+00 -0.1458255867386E+00
 0.4701793084891E+00 -0.5191295872888E+00  0.0000000000000E+00 -0.1547626362414E+00
 0.4696638914241E+00 -0.5197963777003E+00  0.0000000000000E+00 -0.1643977631921E+00
 0.4679576497396E+00 -0.5193595712776E+00  0.0000000000000E+00 -0.1745929187054E+00
 0.4649587542964E+00 -0.5177190430220E+00  0.0000000000000E+00 -0.1851714527656E+00
 0.4605678263546E+00 -0.5147767425425E+00  0.0000000000000E+00 -0.1959118425893E+00
 0.4546898061154E+00 -0.5104384436273E+00  0.0000000000000E+00 -0.2065429072029E+00
 0.4472363657651E+00 -0.5046160283057E+00  0.0000000000000E+00 -0.2167401284325E+00
 0.4381290024994E+00 -0.4972304260887E+00  0.0000000000000E+00 -0.2261228036679E+00
 0.4273029891770E+00 -0.4882153648027E+00  0.0000000000000E+00 -0.2342517544163E+00
 0.4147125043449E+00 -0.4775222225839E+00  0.0000000000000E+00 -0.2406271739717E+00
 0.4003375373135E+00 -0.4651265238793E+00  0.0000000000000E+00 -0.2446858615305E+00
 0.3841935363707E+00 -0.4510370072737E+00  0.0000000000000E+00 -0.2457964284827E+00
 0.3663449730676E+00 -0.4353084981463E+00  0.0000000000000E+00 -0.2432496113453E+00
 0.3469226465770E+00 -0.4180591602109E+00  0.0000000000000E+00 -0.2362375554271E+00
 0.3261412676015E+00 -0.3994890848009E+00  0.0000000000000E+00 -0.2238145715357E+00
 0.4557719642483E+00 -0.4998964193455E+00  0.0000000000000E+00 -0.1016518917262E+00
 0.4600770152204E+00 -0.5049861296198E+00  0.0000000000000E+00 -0.1048784964541E+00
 0.4637640490677E+00 -0.5095418057414E+00  0.0000000000000E+00 -0.1090800578820E+00
 0.4667723126810E+00 -0.5135047789848E+00  0.0000000000000E+00 -0.1142009229665E+00
 0.4690220741598E+00 -0.5167980798575E+00  0.0000000000000E+00 -0.1201902193349E+00
 0.4704215292171E+00 -0.5193331291721E+00  0.0000000000000E+00 -0.1269912960672E+00
 0.4708706392281E+00 -0.5210134031262E+00  0.0000000000000E+00 -0.1345314227410E+00
 0.4702632693533E+00 -0.5217364358503E+00  0.0000000000000E+00 -0.1427128053404E+00
 0.4684885832022E+00 -0.5213951034243E+00  0.0000000000000E+00 -0.1514049432505E+00
 0.4654322851427E+00 -0.5198787689017E+00  0.0000000000000E+00 -0.1604380603394E+00
 0.4609780541644E+00 -0.5170746229919E+00  0.0000000000000E+00 -0.1695973205312E+00
 0.4550093625779E+00 -0.5128694073569E+00  0.0000000000000E+00 -0.1786175762788E+00
 0.4474117881163E+00 -0.5071516255039E+00  0.0000000000000E+00 -0.1871783971791E+00
 0.4380758881270E+00 -0.4998143093732E+00  0.0000000000000E+00 -0.1948990229050E+00
 0.4269007024637E+00 -0.4907584099144E+00  0.0000000000000E+00 -0.2013326194877E+00
 0.4137979811045E+00 -0.4798969176367E+00  0.0000000000000E+00 -0.2059587292144E+00
 0.3986972965847E+00 -0.4671598817856E+00  0.0000000000000E+00 -0.2081720853596E+00
 0.3815520797253E+00 -0.4525004758938E+00  0.0000000000000E+00 -0.2072655729721E+00
 0.3623458379597E+00 -0.4359015160446E+00  0.0000000000000E+00 -0.2024066405155E+00
 0.3410959601853E+00 -0.4173802558425E+00  0.0000000000000E+00 -0.1926091727569E+00
 0.4520958104330E+00 -0.4959858130129E+00  0.0000000000000E+00 -0.8401343636369E-01
 0.4565816795156E+00 -0.5012544292248E+00  0.0000000000000E+00 -0.8522824106018E-01
 0.4605372559014E+00 -0.5060802515551E+00  0.0000000000000E+00 -0.8729371090835E-01
 0.4639137261465E+00 -0.5104174136288E+00  0.0000000000000E+00 -0.9019016822879E-01
 0.4666420576229E+00 -0.5142005376206E+00  0.0000000000000E+00 -0.9389888676706E-01
 0.4686381705804E+00 -0.5173497710509E+00  0.0000000000000E+00 -0.9839547572278E-01
 0.4698059293160E+00 -0.5197736672935E+00  0.0000000000000E+00 -0.1036426560156E+00
 0.4700387783548E+00 -0.5213707322916E+00  0.0000000000000E+00 -0.1095832402687E+00
 0.4692206852168E+00 -0.5220302929777E+00  0.0000000000000E+00 -0.1161334948313E+00
 0.4672268488944E+00 -0.5216331400262E+00  0.0000000000000E+00 -0.1231768215316E+00
 0.4639244697082E+00 -0.5200522357684E+00  0.0000000000000E+00 -0.1305576357943E+00
 0.4591737541231E+00 -0.5171536590701E+00  0.0000000000000E+00 -0.1380753195945E+00
 0.4528292292942E+00 -0.5127978652467E+00  0.0000000000000E+00 -0.1454781251204E+00
 0.4447413453233E+00 -0.5068412499648E+00  0.0000000000000E+00 -0.1524568485983E+00
 0.4347582269339E+00 -0.4991379022060E+00  0.0000000000000E+00 -0.1586379326171E+00
 0.4227272925099E+00 -0.4895412990589E+00  0.0000000000000E+00 -0.1635753285742E+00
 0.4084962889703E+00 -0.4779055462126E+00  0.0000000000000E+00 -0.1667399207589E+00
 0.3919134421647E+00 -0.4640857633781E+00  0.0000000000000E+00 -0.1675046058677E+00
 0.3728271974444E+00 -0.4479379557126E+00  0.0000000000000E+00 -0.1651240899538E+00
 0.3510861483988E+00 -0.4293190328642E+00  0.0000000000000E+00 -0.1587140324464E+00
 0.4473730170384E+00 -0.4909486387552E+00  0.0000000000000E+00 -0.6624238057802E-01
 0.4518675658153E+00 -0.4962116359253E+00  0.0000000000000E+00 -0.6540912911877E-01
 0.4559057475794E+00 -0.5011073657077E+00  0.0000000000000E+00 -0.6528423025018E-01
 0.4594485037181E+00 -0.5056002943815E+00  0.0000000000000E+00 -0.6587941532209E-01
 0.4624362221832E+00 -0.5096350920365E+00  0.0000000000000E+00 -0.6720605228070E-01
 0.4647926119707E+00 -0.5131404165273E+00  0.0000000000000E+00 -0.6927115507389E-01
 0.4664268468765E+00 -0.5160309899106E+00  0.0000000000000E+00 -0.7207258704971E-01
 0.4672345553966E+00 -0.5182085380264E+00  0.0000000000000E+00 -0.7559390936330E-01
 0.4670981422114E+00 -0.5195620729429E+00  0.0000000000000E+00 -0.7979901627864E-01
 0.4658868030552E+00 -0.5199678751537E+00  0.0000000000000E+00 -0.8462655588074E-01
 0.4634564868128E+00 -0.5192894254968E+00  0.0000000000000E+00 -0.8998409264792E-01
 0.4596499694446E+00 -0.5173774501450E+00  0.0000000000000E+00 -0.9574198346284E-01
 0.4542971200843E+00 -0.5140701623114E+00  0.0000000000000E+00 -0.1017269843871E+00
 0.4472153387824E+00 -0.5091936915408E+00  0.0000000000000E+00 -0.1077156630671E+00
 0.4382100021773E+00 -0.5025625608966E+00  0.0000000000000E+00 -0.1134277425102E+00
 0.4270745324913E+00 -0.4939798746769E+00  0.0000000000000E+00 -0.1185195084256E+00
 0.4135894115286E+00 -0.4832365954168E+00  0.0000000000000E+00 -0.1225772522534E+00
 0.3975190193861E+00 -0.4701089448742E+00  0.0000000000000E+00 -0.1251099405316E+00
 0.3786061025952E+00 -0.4543531623962E+00  0.0000000000000E+00 -0.1255366344538E+00
 0.3565677330191E+00 -0.4357007341041E+00  0.0000000000000E+00 -0.1231642200618E+00
 0.4416067013195E+00 -0.4847880868774E+00  0.0000000000000E+00 -0.4848857528814E-01
 0.4459341450965E+00 -0.4898572486565E+00  0.0000000000000E+00 -0.4559028606341E-01
 0.4498644023794E+00 -0.4946180075320E+00  0.0000000000000E+00 -0.4324629124574E-01
 0.4533666428739E+00 -0.4990433281948E+00  0.0000000000000E+00 -0.4149561868181E-01
 0.4563897125329E+00 -0.5030866603350E+00  0.0000000000000E+00 -0.4037703339527E-01
 0.4588651787934E+00 -0.5066849175129E+00  0.0000000000000E+00 -0.3992715806017E-01
 0.4607087885833E+00 -0.5097598968297E+00  0.0000000000000E+00 -0.4017781561374E-01
 0.4618208340559E+00 -0.5122186251913E+00  0.0000000000000E+00 -0.4115276254715E-01
 0.4620858224101E+00 -0.5139530222974E+00  0.0000000000000E+00 -0.4286387512516E-01
 0.4613717483430E+00 -0.5148391726748E+00  0.0000000000000E+00 -0.4530678099264E-01
 0.4595291929388E+00 -0.5147364257667E+00  0.0000000000000E+00 -0.4845590362024E-01
 0.4563904187614E+00 -0.5134864899146E+00  0.0000000000000E+00 -0.5225891378983E-01
 0.4517685851239E+00 -0.5109126422026E+00  0.0000000000000E+00 -0.5663066269453E-01
 0.4454571543083E+00 -0.5068191267407E+00  0.0000000000000E+00 -0.6144681582027E-01
 0.4372294761591E+00 -0.5009907387353E+00  0.0000000000000E+00 -0.6653763422695E-01
 0.4268383920956E+00 -0.4931924594786E+00  0.0000000000000E+00 -0.7168268702575E-01
 0.4140153889148E+00 -0.4831687493517E+00  0.0000000000000E+00 -0.7660771376725E-01
 0.3984682406294E+00 -0.4706415587164E+00  0.0000000000000E+00 -0.8098526633582E-01
 0.3798734698155E+00 -0.4553044805550E+00  0.0000000000000E+00 -0.8443973160128E-01
 0.3578615392221E+00 -0.4368085275439E+00  0.0000000000000E+00 -0.8653862607209E-01
 0.4348074422779E+00 -0.4775155966503E+00  0.0000000000000E+00 -0.3090594131772E-01
 0.4387906595586E+00 -0.4822015384222E+00  0.0000000000000E+00 -0.2594617280781E-01
 0.4424204460134E+00 -0.4866206050151E+00  0.0000000000000E+00 -0.2138085634016E-01
 0.4456728967744E+00 -0.4907526396951E+00  0.0000000000000E+00 -0.1727297520426E-01
 0.4485044922862E+00 -0.4945587198337E+00  0.0000000000000E+00 -0.1368577678993E-01
 0.4508547285732E+00 -0.4979837300580E+00  0.0000000000000E+00 -0.1068299158359E-01
 0.4526471147212E+00 -0.5009573373593E+00  0.0000000000000E+00 -0.8328292836813E-02
 0.4537890485108E+00 -0.5033938723978E+00  0.0000000000000E+00 -0.6684032255350E-02
 0.4541709253193E+00 -0.5051914595320E+00  0.0000000000000E+00 -0.5809284202889E-02
 0.4536647314127E+00 -0.5062306407254E+00  0.0000000000000E+00 -0.5757167181330E-02
 0.4521223170958E+00 -0.5063726824625E+00  0.0000000000000E+00 -0.6571378835399E-02
 0.4493735194532E+00 -0.5054577282566E+00  0.0000000000000E+00 -0.8281887149896E-02
 0.4452243027514E+00 -0.5033029558650E+00  0.0000000000000E+00 -0.1089978013906E-01
 0.4394551008548E+00 -0.4997009123355E+00  0.0000000000000E+00 -0.1441141287732E-01
 0.4318195740356E+00 -0.4944182255233E+00  0.0000000000000E+00 -0.1877224513670E-01
 0.4220440200139E+00 -0.4871949177882E+00  0.0000000000000E+00 -0.2390120288218E-01
 0.4098276825090E+00 -0.4777445523874E+00  0.0000000000000E+00 -0.2967720813860E-01
 0.3948439690280E+00 -0.4657553043855E+00  0.0000000000000E+00 -0.3594105773472E-01
 0.3767419862801E+00 -0.4508913949306E+00  0.0000000000000E+00 -0.4251062040383E-01
 0.3551328422629E+00 -0.4327867154622E+00  0.0000000000000E+00 -0.4922713312713E-01
 0.4269936730968E+00 -0.4691512829641E+00  0.0000000000000E+00 -0.1365042331644E-01
 0.4304566848243E+00 -0.4732661603752E+00  0.0000000000000E+00 -0.6653859869486E-02
 0.4335942483501E+00 -0.4771380111485E+00  0.0000000000000E+00  0.1075751215414E-03
 0.4363879059186E+00 -0.4807517694728E+00  0.0000000000000E+00  0.6549547600087E-02
 0.4388008790551E+00 -0.4840749176252E+00  0.0000000000000E+00  0.1258725898378E-01
 0.4407805540718E+00 -0.4870598957480E+00  0.0000000000000E+00  0.1813288174848E-01
 0.4422592515314E+00 -0.4896448674965E+00  0.0000000000000E+00  0.2309392167190E-01
 0.4431538271380E+00 -0.4917533437448E+00  0.0000000000000E+00  0.2737231671152E-01
 0.4433644124379E+00 -0.4932929676351E+00  0.0000000000000E+00  0.3086422745250E-01
 0.4427725057928E+00 -0.4941536649620E+00  0.0000000000000E+00  0.3346055514654E-01
 0.4412385688613E+00 -0.4942053093641E+00  0.0000000000000E+00  0.3504828550351E-01
 0.4385992688972E+00 -0.4932950343204E+00  0.0000000000000E+00  0.3551280188059E-01
 0.4346645301728E+00 -0.4912443423790E+00  0.0000000000000E+00  0.3474133220113E-01
 0.4292146234632E+00 -0.4878462204037E+00  0.0000000000000E+00  0.3262767119220E-01
 0.4219976412940E+00 -0.4828625765702E+00  0.0000000000000E+00  0.2907822441056E-01
 0.4127279000664E+00 -0.4760224894932E+00  0.0000000000000E+00  0.2401919798487E-01
 0.4010861448533E+00 -0.4670220502385E+00  0.0000000000000E+00  0.1740432708902E-01
 0.3867231048528E+00 -0.4555271464987E+00  0.0000000000000E+00  0.9221381790224E-02
 0.3692697437876E+00 -0.4411819308755E+00  0.0000000000000E+00 -0.5065193226610E-03
 0.3483672288935E+00 -0.4236319272141E+00  0.0000000000000E+00 -0.1175582532025E-01
 0.4181921476829E+00 -0.4597243913137E+00  0.0000000000000E+00  0.3122335015744E-02
 0.4209630103455E+00 -0.4630849784089E+00  0.0000000000000E+00  0.1210948616038E-01
 0.4234204928822E+00 -0.4662085524913E+00  0.0000000000000E+00  0.2101307038848E-01
 0.4255497532631E+00 -0.4690830720109E+00  0.0000000000000E+00  0.2972961827342E-01
 0.4273196311623E+00 -0.4716809543448E+00  0.0000000000000E+00  0.3815550608058E-01
 0.4286850850085E+00 -0.4739614900649E+00  0.0000000000000E+00  0.4618212781326E-01
 0.4295880088941E+00 -0.4758716587544E+00  0.0000000000000E+00  0.5369201506312E-01
 0.4299568214617E+00 -0.4773457509074E+00  0.0000000000000E+00  0.6055563111418E-01
 0.4297051118284E+00 -0.4783040728173E+00  0.0000000000000E+00  0.6662875213551E-01
 0.4287295142265E+00 -0.4786509039337E+00  0.0000000000000E+00  0.7175043234129E-01
 0.4269069141559E+00 -0.4782718063066E+00  0.0000000000000E+00  0.7574163793529E-01
 0.4240910563644E+00 -0.4770303511866E+00  0.0000000000000E+00  0.7840473884796E-01
 0.4201086335498E+00 -0.4747643315612E+00  0.0000000000000E+00  0.7952417294429E-01
 0.4147549940241E+00 -0.4712815799198E+00  0.0000000000000E+00  0.7886874583054E-01
 0.4077897322057E+00 -0.4663556231261E+00  0.0000000000000E+00  0.7619619770124E-01
 0.3989326488113E+00 -0.4597216035786E+00  0.0000000000000E+00  0.7126087545741E-01
 0.3878609303650E+00 -0.4510732277413E+00  0.0000000000000E+00  0.6382564928142E-01
 0.3742091928779E+00 -0.4400621209066E+00  0.0000000000000E+00  0.5368012510232E-01
 0.3575754413099E+00 -0.4263023591703E+00  0.0000000000000E+00  0.4066923356964E-01
 0.3375483213155E+00 -0.4093895243017E+00  0.0000000000000E+00  0.2476236228778E-01
 0.4084386704772E+00 -0.4492739310248E+00  0.0000000000000E+00  0.1925809166042E-01
 0.4103528241297E+00 -0.4517048026935E+00  0.0000000000000E+00  0.3016583020920E-01
 0.4119495905612E+00 -0.4538868372365E+00  0.0000000000000E+00  0.4112578079931E-01
 0.4132158574406E+00 -0.4558087784154E+00  0.0000000000000E+00  0.5201684746933E-01
 0.4141245544137E+00 -0.4574461115016E+00  0.0000000000000E+00  0.6271894121650E-01
 0.4146374754590E+00 -0.4587638475897E+00  0.0000000000000E+00  0.7310611743513E-01
 0.4147064199335E+00 -0.4597176610869E+00  0.0000000000000E+00  0.8304040500454E-01
 0.4142730530234E+00 -0.4602537774228E+00  0.0000000000000E+00  0.9236623180604E-01
 0.4132677719714E+00 -0.4603078992219E+00  0.0000000000000E+00  0.1009052990864E+00
 0.4116077376664E+00 -0.4598033310552E+00  0.0000000000000E+00  0.1084517967321E+00
 0.4091941243187E+00 -0.4586483575522E+00  0.0000000000000E+00  0.1147679339038E+00
 0.4059085621098E+00 -0.4567328516994E+00  0.0000000000000E+00  0.1195798932526E+00
 0.4016086986625E+00 -0.4539240393551E+00  0.0000000000000E+00  0.1225745146827E+00
 0.3961227899558E+00 -0.4500613264206E+00  0.0000000000000E+00  0.1233972992014E+00
 0.3892432641367E+00 -0.4449501176203E+00  0.0000000000000E+00  0.1216527257427E+00
 0.3807192830600E+00 -0.4383546326098E+00  0.0000000000000E+00  0.1169084203305E+00
 0.3702484609082E+00 -0.4299898336160E+00  0.0000000000000E+00  0.1087055441825E+00
 0.3574677560115E+00 -0.4195125943993E+00  0.0000000000000E+00  0.9657919468153E-01
 0.3419434276860E+00 -0.4065117419524E+00  0.0000000000000E+00  0.8009688174012E-01
 0.3231431061595E+00 -0.3904888679578E+00  0.0000000000000E+00  0.5893457010077E-01
 0.3977772917074E+00 -0.4378479038682E+00  0.0000000000000E+00  0.3460509185317E-01
 0.3986802789751E+00 -0.4391843540607E+00  0.0000000000000E+00  0.4733671046424E-01
 0.3992462870820E+00 -0.4402428245172E+00  0.0000000000000E+00  0.6023234316032E-01
 0.3994615896751E+00 -0.4410101773660E+00  0.0000000000000E+00  0.7315337693634E-01
 0.3993011699240E+00 -0.4414625874563E+00  0.0000000000000E+00  0.8596521344235E-01
 0.3987324087930E+00 -0.4415691561078E+00  0.0000000000000E+00  0.9852807000202E-01
 0.3977168288622E+00 -0.4412936204388E+00  0.0000000000000E+00  0.1106883995164E+00
 0.3962104691576E+00 -0.4405947300376E+00  0.0000000000000E+00  0.1222709548145E+00
 0.3941632770785E+00 -0.4394256781385E+00  0.0000000000000E+00  0.1330712526799E+00
 0.3915177163227E+00 -0.4377327902211E+00  0.0000000000000E+00  0.1428481266470E+00
 0.3882066278967E+00 -0.4354535139288E+00  0.0000000000000E+00  0.1513160978113E+00
 0.3841502409908E+00 -0.4325136180190E+00  0.0000000000000E+00  0.1581374006287E+00
 0.3792520991217E+00 -0.4288233814658E+00  0.0000000000000E+00  0.1629136818157E+00
 0.3733935336379E+00 -0.4242724246524E+00  0.0000000000000E+00  0.1651776799981E+00
 0.3664261749727E+00 -0.4187226974344E+00  0.0000000000000E+00  0.1643856477676E+00
 0.3581618638828E+00 -0.4119990006289E+00  0.0000000000000E+00  0.1599119508371E+00
 0.3483591276561E+00 -0.4038762768066E+00  0.0000000000000E+00  0.1510480461954E+00
 0.3367051035237E+00 -0.3940625692973E+00  0.0000000000000E+00  0.1370086534449E+00
 0.3227893166271E+00 -0.3821752924484E+00  0.0000000000000E+00  0.1169470344509E+00
 0.3060683883913E+00 -0.3677067087335E+00  0.0000000000000E+00  0.8995974913021E-01
 0.3862612370997E+00 -0.4255041998402E+00  0.0000000000000E+00  0.4901876531245E-01
 0.3860117924620E+00 -0.4255955480035E+00  0.0000000000000E+00  0.6344978342403E-01
 0.3853913304134E+00 -0.4253636247753E+00  0.0000000000000E+00  0.7812289431186E-01
 0.3843822674719E+00 -0.4247898831907E+00  0.0000000000000E+00  0.9288077892390E-01
 0.3829589563964E+00 -0.4238482007418E+00  0.0000000000000E+00  0.1075758154563E+00
 0.3810926122507E+00 -0.4225096672928E+00  0.0000000000000E+00  0.1220577237755E+00
 0.3787538110014E+00 -0.4207449906007E+00  0.0000000000000E+00  0.1361622543780E+00
 0.3759135056386E+00 -0.4185254620981E+00  0.0000000000000E+00  0.1497009747451E+00
 0.3725431705734E+00 -0.4158230924988E+00  0.0000000000000E+00  0.1624516729665E+00
 0.3686143925504E+00 -0.4126102378242E+00  0.0000000000000E+00  0.1741487371336E+00
 0.3640979965680E+00 -0.4088588124651E+00  0.0000000000000E+00  0.1844728544225E+00
 0.3589626014952E+00 -0.4045390006858E+00  0.0000000000000E+00  0.1930394081072E+00
 0.3531723045979E+00 -0.3996171948826E+00  0.0000000000000E+00  0.1993850069222E+00
 0.3466829563525E+00 -0.3940526686836E+00  0.0000000000000E+00  0.2029516814052E+00
 0.3394361740530E+00 -0.3877921989295E+00  0.0000000000000E+00  0.2030684944141E+00
 0.3313498256604E+00 -0.3807614619756E+00  0.0000000000000E+00  0.1989307518656E+00
 0.3223033903586E+00 -0.3728516222766E+00  0.0000000000000E+00  0.1895777540755E+00
 0.3121163336291E+00 -0.3638994372302E+00  0.0000000000000E+00  0.1738701483659E+00
 0.3005191943790E+00 -0.3536597017145E+00  0.0000000000000E+00  0.1504649448401E+00
 0.2871222925963E+00 -0.3417741170991E+00  0.0000000000000E+00  0.1177875356031E+00
 0.3739533816542E+00 -0.4123109955455E+00  0.0000000000000E+00  0.6236484230888E-01
 0.3724271194723E+00 -0.4110244374886E+00  0.0000000000000E+00  0.7834298487795E-01
 0.3704829118469E+00 -0.4093547717172E+00  0.0000000000000E+00  0.9459562969554E-01
 0.3680949358711E+00 -0.4072734272152E+00  0.0000000000000E+00  0.1109447914137E+00
 0.3652336323097E+00 -0.4047484679246E+00  0.0000000000000E+00  0.1272310708927E+00
 0.3618720249177E+00 -0.4017506621755E+00  0.0000000000000E+00  0.1432966051642E+00
 0.3579888557970E+00 -0.3982564347490E+00  0.0000000000000E+00  0.1589704995215E+00
 0.3535701518187E+00 -0.3942493045628E+00  0.0000000000000E+00  0.1740565350286E+00
 0.3486101928721E+00 -0.3897207674344E+00  0.0000000000000E+00  0.1883221886097E+00
 0.3431123979668E+00 -0.3846711335274E+00  0.0000000000000E+00  0.2014878390865E+00
 0.3370903494613E+00 -0.3791105413349E+00  0.0000000000000E+00  0.2132150270523E+00
 0.3305689696057E+00 -0.3730601753142E+00  0.0000000000000E+00  0.2230926079765E+00
 0.3235856779131E+00 -0.3665535457547E+00  0.0000000000000E+00  0.2306195115346E+00
 0.3161911234725E+00 -0.3596374819202E+00  0.0000000000000E+00  0.2351825672585E+00
 0.3084487170422E+00 -0.3523721652725E+00  0.0000000000000E+00  0.2360274969029E+00
 0.3004316053096E+00 -0.3448289954198E+00  0.0000000000000E+00  0.2322208314884E+00
 0.2922147757576E+00 -0.3370842402950E+00  0.0000000000000E+00  0.2226006899906E+00
 0.2838598227146E+00 -0.3292056402616E+00  0.0000000000000E+00  0.2057165245467E+00
 0.2753910674738E+00 -0.3212307889435E+00  0.0000000000000E+00  0.1797610319339E+00
 0.2667622500754E+00 -0.3131361022946E+00  0.0000000000000E+00  0.1425060009941E+00
 0.3609262569298E+00 -0.3983466889399E+00  0.0000000000000E+00  0.7452266667685E-01
 0.3580198508449E+00 -0.3955716119653E+00  0.0000000000000E+00  0.9186838225647E-01
 0.3546374089697E+00 -0.3923408078789E+00  0.0000000000000E+00  0.1094609538701E+00
 0.3507392682477E+00 -0.3886099499456E+00  0.0000000000000E+00  0.1271001207405E+00
 0.3462884723517E+00 -0.3843376720553E+00  0.0000000000000E+00  0.1446162100231E+00
 0.3412581301491E+00 -0.3794925040229E+00  0.0000000000000E+00  0.1618459522187E+00
 0.3356346381749E+00 -0.3740557917535E+00  0.0000000000000E+00  0.1786140286403E+00
 0.3294194010540E+00 -0.3680231928413E+00  0.0000000000000E+00  0.1947191310119E+00
 0.3226304758382E+00 -0.3614061378480E+00  0.0000000000000E+00  0.2099226679042E+00
 0.3153048828005E+00 -0.3542339749028E+00  0.0000000000000E+00  0.2239383477062E+00
 0.3075019821287E+00 -0.3465571819367E+00  0.0000000000000E+00  0.2364210465377E+00
 0.2993081649375E+00 -0.3384518895139E+00  0.0000000000000E+00  0.2469533961348E+00
 0.2908430486367E+00 -0.3300259115794E+00  0.0000000000000E+00  0.2550282962904E+00
 0.2822673253476E+00 -0.3214264625587E+00  0.0000000000000E+00  0.2600249767448E+00
 0.2737922970196E+00 -0.3128496700231E+00  0.0000000000000E+00  0.2611751696589E+00
 0.2656907409358E+00 -0.3045517129337E+00  0.0000000000000E+00  0.2575142947204E+00
 0.2583077392220E+00 -0.2968605768916E+00  0.0000000000000E+00  0.2478103549726E+00
 0.2520666070389E+00 -0.2901848250306E+00  0.0000000000000E+00  0.2304628149341E+00
 0.2474626352716E+00 -0.2850105078559E+00  0.0000000000000E+00  0.2033770753136E+00
 0.2450376827386E+00 -0.2818813222103E+00  0.0000000000000E+00  0.1638257733755E+00
 0.3472619447367E+00 -0.3836997287439E+00  0.0000000000000E+00  0.8538908766670E-01
 0.3428977405850E+00 -0.3793524061864E+00  0.0000000000000E+00  0.1038961764201E+00
 0.3379896823833E+00 -0.3744653997062E+00  0.0000000000000E+00  0.1225456380597E+00
 0.3324777386098E+00 -0.3689721396645E+00  0.0000000000000E+00  0.1411156832134E+00
 0.3263147163764E+00 -0.3628189968455E+00  0.0000000000000E+00  0.1594287460369E+00
 0.3194733535804E+00 -0.3559717201581E+00  0.0000000000000E+00  0.1773170703128E+00
 0.3119484981046E+00 -0.3484171870739E+00  0.0000000000000E+00  0.1945999644478E+00
 0.3037582501001E+00 -0.3401642280947E+00  0.0000000000000E+00  0.2110690582016E+00
 0.2949459017415E+00 -0.3312452835114E+00  0.0000000000000E+00  0.2264781883416E+00
 0.2855835590842E+00 -0.3217197251143E+00  0.0000000000000E+00  0.2405353698374E+00
 0.2757779772182E+00 -0.3116793340427E+00  0.0000000000000E+00  0.2528949646397E+00
 0.2656791121418E+00 -0.3012564000908E+00  0.0000000000000E+00  0.2631484790707E+00
 0.2554920686801E+00 -0.2906350788471E+00  0.0000000000000E+00  0.2708123583197E+00
 0.2454934659421E+00 -0.2800669774569E+00  0.0000000000000E+00  0.2753106042953E+00
 0.2360537551346E+00 -0.2698924482142E+00  0.0000000000000E+00  0.2759487737795E+00
 0.2276676749990E+00 -0.2605697620225E+00  0.0000000000000E+00  0.2718732774676E+00
 0.2209954296180E+00 -0.2527149701392E+00  0.0000000000000E+00  0.2620047811746E+00
 0.2169160404495E+00 -0.2471548960358E+00  0.0000000000000E+00  0.2449230366201E+00
 0.2165765562553E+00 -0.2449854653946E+00  0.0000000000000E+00  0.2186639676323E+00
 0.2214078243465E+00 -0.2475938700999E+00  0.0000000000000E+00  0.1804513247573E+00
 0.3330519522155E+00 -0.3684684196750E+00  0.0000000000000E+00  0.9488254278129E-01
 0.3271828220539E+00 -0.3624968431943E+00  0.0000000000000E+00  0.1143178737227E+00
 0.3206927080019E+00 -0.3558907080266E+00  0.0000000000000E+00  0.1336958676903E+00
 0.3134947658765E+00 -0.3485550513821E+00  0.0000000000000E+00  0.1527790567832E+00
 0.3055307526758E+00 -0.3404233229542E+00  0.0000000000000E+00  0.1713856751146E+00
 0.2967751694593E+00 -0.3314606386968E+00  0.0000000000000E+00  0.1893422638287E+00
 0.2872346512990E+00 -0.3216626530534E+00  0.0000000000000E+00  0.2064570199588E+00
 0.2769475311936E+00 -0.3110547485939E+00  0.0000000000000E+00  0.2225057353069E+00
 0.2659855284289E+00 -0.2996933660995E+00  0.0000000000000E+00  0.2372247567057E+00
 0.2544583366443E+00 -0.2876701730081E+00  0.0000000000000E+00  0.2503075948512E+00
 0.2425215733535E+00 -0.2751194658042E+00  0.0000000000000E+00  0.2614032939356E+00
 0.2303886800441E+00 -0.2622293194893E+00  0.0000000000000E+00  0.2701155973449E+00
 0.2183477856301E+00 -0.2492573902473E+00  0.0000000000000E+00  0.2760024632760E+00
 0.2067852909361E+00 -0.2365529592607E+00  0.0000000000000E+00  0.2785756803556E+00
 0.1962191706818E+00 -0.2245879389753E+00  0.0000000000000E+00  0.2773001047311E+00
 0.1873471732942E+00 -0.2140015232822E+00  0.0000000000000E+00  0.2715909234822E+00
 0.1811190052085E+00 -0.2056668217002E+00  0.0000000000000E+00  0.2608031421688E+00
 0.1788492213307E+00 -0.2007947346617E+00  0.0000000000000E+00  0.2441952049534E+00
 0.1824043203009E+00 -0.2011075188298E+00  0.0000000000000E+00  0.2207875362471E+00
 0.1944073060751E+00 -0.2090886103123E+00  0.0000000000000E+00  0.1888689123604E+00
 0.3183971626169E+00 -0.3527607443806E+00  0.0000000000000E+00  0.1029464251683E+00
 0.3110110458676E+00 -0.3451489108694E+00  0.0000000000000E+00  0.1230467439538E+00
 0.3029160243063E+00 -0.3367953166849E+00  0.0000000000000E+00  0.1427768522691E+00
 0.2939941849492E+00 -0.3275729253897E+00  0.0000000000000E+00  0.1618971629545E+00
 0.2841792937381E+00 -0.3174055922189E+00  0.0000000000000E+00  0.1802265674599E+00
 0.2734539051151E+00 -0.3062641685497E+00  0.0000000000000E+00  0.1975812644429E+00
 0.2618437471788E+00 -0.2941603838568E+00  0.0000000000000E+00  0.2137460421407E+00
 0.2494146036287E+00 -0.2811433641163E+00  0.0000000000000E+00  0.2284632676864E+00
 0.2362732004601E+00 -0.2673001426930E+00  0.0000000000000E+00  0.2414311854422E+00
 0.2225723110400E+00 -0.2527602826070E+00  0.0000000000000E+00  0.2523073329468E+00
 0.2085200751768E+00 -0.2377045247298E+00  0.0000000000000E+00  0.2607155582444E+00
 0.1943937900595E+00 -0.2223776210141E+00  0.0000000000000E+00  0.2662569032518E+00
 0.1805589606225E+00 -0.2071059873815E+00  0.0000000000000E+00  0.2685260668986E+00
 0.1674952184717E+00 -0.1923215310781E+00  0.0000000000000E+00  0.2671367573684E+00
 0.1558320981867E+00 -0.1785941650923E+00  0.0000000000000E+00  0.2617615108919E+00
 0.1464001815069E+00 -0.1666776467217E+00  0.0000000000000E+00  0.2521951681857E+00
 0.1403090125165E+00 -0.1575779119185E+00  0.0000000000000E+00  0.2384577094391E+00
 0.1390767860677E+00 -0.1526647510932E+00  0.0000000000000E+00  0.2209607420760E+00
 0.1448882215639E+00 -0.1538821424384E+00  0.0000000000000E+00  0.2007893824290E+00
 0.1612951192659E+00 -0.1643099371024E+00  0.0000000000000E+00  0.1798944911768E+00
 0.3034077466612E+00 -0.3366938358026E+00  0.0000000000000E+00  0.1095485460375E+00
 0.2945303337456E+00 -0.3274636512573E+00  0.0000000000000E+00  0.1300105049905E+00
 0.2848413816809E+00 -0.3173685378403E+00  0.0000000000000E+00  0.1496623762355E+00
 0.2741930634259E+00 -0.3062512686366E+00  0.0000000000000E+00  0.1682849165536E+00
 0.2625202802484E+00 -0.2940355323753E+00  0.0000000000000E+00  0.1857033772737E+00
 0.2498259203301E+00 -0.2807103488510E+00  0.0000000000000E+00  0.2017147608069E+00
 0.2361677636303E+00 -0.2663166009812E+00  0.0000000000000E+00  0.2160611836278E+00
 0.2216517724237E+00 -0.2509400856783E+00  0.0000000000000E+00  0.2284259127014E+00
 0.2064319930867E+00 -0.2347111301610E+00  0.0000000000000E+00  0.2384401082259E+00
 0.1907160044883E+00 -0.2178096204679E+00  0.0000000000000E+00  0.2456954812471E+00
 0.1747748737393E+00 -0.2004743419900E+00  0.0000000000000E+00  0.2497621918911E+00
 0.1589569384078E+00 -0.1830158666958E+00  0.0000000000000E+00  0.2502139757920E+00
 0.1437051014324E+00 -0.1658325480430E+00  0.0000000000000E+00  0.2466648477801E+00
 0.1295776102901E+00 -0.1494293790050E+00  0.0000000000000E+00  0.2388247353674E+00
 0.1172724292603E+00 -0.1344394623738E+00  0.0000000000000E+00  0.2265862592471E+00
 0.1076554288670E+00 -0.1216475133580E+00  0.0000000000000E+00  0.2101640106184E+00
 0.1017919928282E+00 -0.1120138089063E+00  0.0000000000000E+00  0.1903265757015E+00
 0.1009845039681E+00 -0.1066948741180E+00  0.0000000000000E+00  0.1688096802886E+00
 0.1068047541078E+00 -0.1070495409256E+00  0.0000000000000E+00  0.1491226690498E+00
 0.1212836835115E+00 -0.1146151418169E+00  0.0000000000000E+00  0.1387568752202E+00
 0.2882021308110E+00 -0.3203916529944E+00  0.0000000000000E+00  0.1146700875891E+00
 0.2778941359559E+00 -0.3095985124484E+00  0.0000000000000E+00  0.1351275296450E+00
 0.2666517381424E+00 -0.2977963745646E+00  0.0000000000000E+00  0.1542028870430E+00
 0.2543073393392E+00 -0.2848085475924E+00  0.0000000000000E+00  0.1717298344460E+00
 0.2408151054504E+00 -0.2705772305070E+00  0.0000000000000E+00  0.1875487170850E+00
 0.2262189807749E+00 -0.2551308280420E+00  0.0000000000000E+00  0.2014277697257E+00
 0.2106296846656E+00 -0.2385609385804E+00  0.0000000000000E+00  0.2130480529500E+00
 0.1942144952717E+00 -0.2210122587069E+00  0.0000000000000E+00  0.2220149136953E+00
 0.1771972164067E+00 -0.2026826130244E+00  0.0000000000000E+00  0.2278802695718E+00
 0.1598650518339E+00 -0.1838298373551E+00  0.0000000000000E+00  0.2301714397090E+00
 0.1425797311404E+00 -0.1647828631296E+00  0.0000000000000E+00  0.2284278448776E+00
 0.1257907518299E+00 -0.1459548961517E+00  0.0000000000000E+00  0.2222502048809E+00
 0.1100486137952E+00 -0.1278565988345E+00  0.0000000000000E+00  0.2113696669060E+00
 0.9601511730402E-01 -0.1111064418319E+00  0.0000000000000E+00  0.1957477502553E+00
 0.8446560450587E-01 -0.9643329085607E-01  0.0000000000000E+00  0.1757232973721E+00
 0.7627270912476E-01 -0.8466145325656E-01  0.0000000000000E+00  0.1522318702749E+00
 0.7234972554860E-01 -0.7665734188882E-01  0.0000000000000E+00  0.1271408713630E+00
 0.7349429342473E-01 -0.7318715857212E-01  0.0000000000000E+00  0.1037813712836E+00
 0.7999755938010E-01 -0.7455329971790E-01  0.0000000000000E+00  0.8785578742314E-01
 0.9006653056644E-01 -0.7939007335493E-01  0.0000000000000E+00  0.8916374557261E-01
 0.2729025090591E+00 -0.3039801099590E+00  0.0000000000000E+00  0.1182958789107E+00
 0.2612497618326E+00 -0.2917027228031E+00  0.0000000000000E+00  0.1382955645874E+00
 0.2485165472028E+00 -0.2782486162404E+00  0.0000000000000E+00  0.1562180908550E+00
 0.2345364136772E+00 -0.2634438793867E+00  0.0000000000000E+00  0.1719989450056E+00
 0.2193128205539E+00 -0.2472804352035E+00  0.0000000000000E+00  0.1855087907202E+00
 0.2029606940982E+00 -0.2298572887648E+00  0.0000000000000E+00  0.1964837274122E+00
 0.1856716595335E+00 -0.2113465608547E+00  0.0000000000000E+00  0.2045402286053E+00
 0.1677015950254E+00 -0.1919818195041E+00  0.0000000000000E+00  0.2092163289090E+00
 0.1493723398682E+00 -0.1720605872369E+00  0.0000000000000E+00  0.2100210221453E+00
 0.1310806729412E+00 -0.1519541898501E+00  0.0000000000000E+00  0.2064899715663E+00
 0.1133094425238E+00 -0.1321199690247E+00  0.0000000000000E+00  0.1982517848408E+00
 0.9663647498851E-01 -0.1131115873248E+00  0.0000000000000E+00  0.1851117626043E+00
 0.8173638441876E-01 -0.9558279136705E-01  0.0000000000000E+00  0.1671613997341E+00
 0.6936824028807E-01 -0.8027800493031E-01  0.0000000000000E+00  0.1449226785200E+00
 0.6033723641257E-01 -0.6799880850230E-01  0.0000000000000E+00  0.1195363107347E+00
 0.5540910836718E-01 -0.5952691142343E-01  0.0000000000000E+00  0.9300091457052E-01
 0.5513524026259E-01 -0.5546713767453E-01  0.0000000000000E+00  0.6846017466357E-01
 0.5950872085544E-01 -0.5594049413134E-01  0.0000000000000E+00  0.5049057158603E-01
 0.6723014159391E-01 -0.5997010161954E-01  0.0000000000000E+00  0.4517752217034E-01
 0.7447176047379E-01 -0.6444424675835E-01  0.0000000000000E+00  0.5835888867699E-01
 0.2576353841021E+00 -0.2875901531538E+00  0.0000000000000E+00  0.1204268788787E+00
 0.2447421664932E+00 -0.2739259755122E+00  0.0000000000000E+00  0.1394311147063E+00
 0.2305997917956E+00 -0.2588946459819E+00  0.0000000000000E+00  0.1555708828982E+00
 0.2150774815928E+00 -0.2423625895654E+00  0.0000000000000E+00  0.1689580052647E+00
 0.1982703901096E+00 -0.2244157314088E+00  0.0000000000000E+00  0.1795149765427E+00
 0.1803999477251E+00 -0.2052614148353E+00  0.0000000000000E+00  0.1869523588657E+00
 0.1617666832224E+00 -0.1851830810247E+00  0.0000000000000E+00  0.1908416337966E+00
 0.1427376319856E+00 -0.1645294328879E+00  0.0000000000000E+00  0.1907027448992E+00
 0.1237504531098E+00 -0.1437201704217E+00  0.0000000000000E+00  0.1860899274419E+00
 0.1053221134636E+00 -0.1232565357012E+00  0.0000000000000E+00  0.1766783337586E+00
 0.8805376068090E-01 -0.1037282161837E+00  0.0000000000000E+00  0.1623583211646E+00
 0.7262488771048E-01 -0.8580994846887E-01  0.0000000000000E+00  0.1433438016656E+00
 0.5976923826014E-01 -0.7024051290435E-01  0.0000000000000E+00  0.1202979691447E+00
 0.5022223671261E-01 -0.5777450909966E-01  0.0000000000000E+00  0.9447429124608E-01
 0.4462483642024E-01 -0.4909290427701E-01  0.0000000000000E+00  0.6786066798185E-01
 0.4336089627409E-01 -0.4465185303754E-01  0.0000000000000E+00  0.4329443788132E-01
 0.4629668429191E-01 -0.4444218815592E-01  0.0000000000000E+00  0.2446773757042E-01
 0.5238500835110E-01 -0.4763199275429E-01  0.0000000000000E+00  0.1562657581413E-01
 0.5920086017123E-01 -0.5214403561671E-01  0.0000000000000E+00  0.2038273812320E-01
 0.6318287205428E-01 -0.5475518083355E-01  0.0000000000000E+00  0.3867261344338E-01
 0.2425364072091E+00 -0.2713627667293E+00  0.0000000000000E+00  0.1210810548430E+00
 0.2285236832606E+00 -0.2564261215498E+00  0.0000000000000E+00  0.1384849339663E+00
 0.2130689363566E+00 -0.2399094215182E+00  0.0000000000000E+00  0.1522070863526E+00
 0.1961325136724E+00 -0.2217787588869E+00  0.0000000000000E+00  0.1626368055576E+00
 0.1779533911506E+00 -0.2022688733917E+00  0.0000000000000E+00  0.1697675521301E+00
 0.1588919926130E+00 -0.1817304073179E+00  0.0000000000000E+00  0.1732953529531E+00
 0.1393735408193E+00 -0.1605768526700E+00  0.0000000000000E+00  0.1727836916474E+00
 0.1198791854525E+00 -0.1392779748205E+00  0.0000000000000E+00  0.1678089941927E+00
 0.1009526875578E+00 -0.1183691604516E+00  0.0000000000000E+00  0.1580801365418E+00
 0.8320427324009E-01 -0.9845752851175E-01  0.0000000000000E+00  0.1435433961875E+00
 0.6730131910104E-01 -0.8021501888645E-01  0.0000000000000E+00  0.1244830454811E+00
 0.5393864812063E-01 -0.6435109996959E-01  0.0000000000000E+00  0.1016214343867E+00
 0.4378176198335E-01 -0.5155898487989E-01  0.0000000000000E+00  0.7621377734103E-01
 0.3737524055436E-01 -0.4242816923454E-01  0.0000000000000E+00  0.5012116578223E-01
 0.3500749756798E-01 -0.3731544678204E-01  0.0000000000000E+00  0.2582864378496E-01
 0.3652559452012E-01 -0.3616912728774E-01  0.0000000000000E+00  0.6345565153401E-02
 0.4110844597872E-01 -0.3831498688496E-01  0.0000000000000E+00 -0.5128606234455E-02
 0.4706750062096E-01 -0.4226354005950E-01  0.0000000000000E+00 -0.5992120555104E-02
 0.5195992933981E-01 -0.4577203658172E-01  0.0000000000000E+00  0.4263069352803E-02
 0.5347069639980E-01 -0.4658914656624E-01  0.0000000000000E+00  0.2246966875749E-01
 0.2277460942694E+00 -0.2554452203910E+00  0.0000000000000E+00  0.1202986148920E+00
 0.2127441098566E+00 -0.2393606827432E+00  0.0000000000000E+00  0.1354536425571E+00
 0.1960808664601E+00 -0.2214602863935E+00  0.0000000000000E+00  0.1461862476440E+00
 0.1778907618975E+00 -0.2018983597907E+00  0.0000000000000E+00  0.1532738294096E+00
 0.1586118505543E+00 -0.1811157151090E+00  0.0000000000000E+00  0.1567739356293E+00
 0.1387597021348E+00 -0.1596249748559E+00  0.0000000000000E+00  0.1563654933797E+00
 0.1188739772067E+00 -0.1379602494701E+00  0.0000000000000E+00  0.1516415530092E+00
 0.9952288185086E-01 -0.1166863128713E+00  0.0000000000000E+00  0.1423091306091E+00
 0.8131413674524E-01 -0.9641200592445E-01  0.0000000000000E+00  0.1283212119270E+00
 0.6489090395099E-01 -0.7778917867240E-01  0.0000000000000E+00  0.1099708807965E+00
 0.5090418843263E-01 -0.6148676015670E-01  0.0000000000000E+00  0.8796547899833E-01
 0.3995966045567E-01 -0.4813941776748E-01  0.0000000000000E+00  0.6348400686589E-01
 0.3253784120053E-01 -0.3827002041411E-01  0.0000000000000E+00  0.3820481266716E-01
 0.2888710407656E-01 -0.3218585121566E-01  0.0000000000000E+00  0.1427828206590E-01
 0.2889299098080E-01 -0.2985213771103E-01  0.0000000000000E+00 -0.5796484965719E-02
 0.3193948611053E-01 -0.3075740093760E-01  0.0000000000000E+00 -0.1945377390745E-01
 0.3680906669730E-01 -0.3381231904770E-01  0.0000000000000E+00 -0.2458951642608E-01
 0.4174210457012E-01 -0.3738633646255E-01  0.0000000000000E+00 -0.2040036417271E-01
 0.4484488911785E-01 -0.3965858507509E-01  0.0000000000000E+00 -0.8293394287837E-02
 0.4484846701278E-01 -0.3931312871153E-01  0.0000000000000E+00  0.8089651222692E-02
 0.2134043511111E+00 -0.2399858968638E+00  0.0000000000000E+00  0.1181295900926E+00
 0.1975345540661E+00 -0.2228686663659E+00  0.0000000000000E+00  0.1303724635218E+00
 0.1797587351457E+00 -0.2036814473565E+00  0.0000000000000E+00  0.1376872056516E+00
 0.1605042122253E+00 -0.1828894294309E+00  0.0000000000000E+00  0.1413214448048E+00
 0.1404532450149E+00 -0.1611892937243E+00  0.0000000000000E+00  0.1413174735162E+00
 0.1202581219437E+00 -0.1392348385991E+00  0.0000000000000E+00  0.1373021901669E+00
 0.1005267385596E+00 -0.1176345152079E+00  0.0000000000000E+00  0.1289232905124E+00
 0.8185814171654E-01 -0.9698831544574E-01  0.0000000000000E+00  0.1160769083803E+00
 0.6486285791652E-01 -0.7791561453039E-01  0.0000000000000E+00  0.9900697425988E-01
 0.5014699054416E-01 -0.6103982966022E-01  0.0000000000000E+00  0.7835078973412E-01
 0.3826708254931E-01 -0.4694432152450E-01  0.0000000000000E+00  0.5516506032863E-01
 0.2966337417734E-01 -0.3610656248287E-01  0.0000000000000E+00  0.3092558323478E-01
 0.2457609600374E-01 -0.2881588591595E-01  0.0000000000000E+00  0.7482745752805E-02
 0.2295136324736E-01 -0.2508108508759E-01  0.0000000000000E+00 -0.1305350684560E-01
 0.2435015990464E-01 -0.2454033272395E-01  0.0000000000000E+00 -0.2853280987348E-01
 0.2788942408946E-01 -0.2639965117206E-01  0.0000000000000E+00 -0.3712462285167E-01
 0.3227328895911E-01 -0.2945184579137E-01  0.0000000000000E+00 -0.3783442563746E-01
 0.3600051125997E-01 -0.3225714622099E-01  0.0000000000000E+00 -0.3107390723520E-01
 0.3778533141231E-01 -0.3353079872541E-01  0.0000000000000E+00 -0.1890722887946E-01
 0.3698765782979E-01 -0.3257841004860E-01  0.0000000000000E+00 -0.4436143951364E-02
 0.1996460353432E+00 -0.2251280315385E+00  0.0000000000000E+00  0.1146059547925E+00
 0.1829827673071E+00 -0.2070479669519E+00  0.0000000000000E+00  0.1232955781686E+00
 0.1641671379240E+00 -0.1866439699051E+00  0.0000000000000E+00  0.1270199561765E+00
 0.1440771709678E+00 -0.1648715039912E+00  0.0000000000000E+00  0.1274486852396E+00
 0.1236453446226E+00 -0.1426783746808E+00  0.0000000000000E+00  0.1244093669501E+00
 0.1035830350213E+00 -0.1207874105182E+00  0.0000000000000E+00  0.1173953241267E+00
 0.8447858913312E-01 -0.9977873584398E-01  0.0000000000000E+00  0.1061479330857E+00
 0.6689904777174E-01 -0.8022445329917E-01  0.0000000000000E+00  0.9080688697273E-01
 0.5140294756360E-01 -0.6269675501153E-01  0.0000000000000E+00  0.7190151621162E-01
 0.3850413822457E-01 -0.4773239065357E-01  0.0000000000000E+00  0.5034129206676E-01
 0.2861593893047E-01 -0.3577613183493E-01  0.0000000000000E+00  0.2739485000636E-01
 0.2198472340527E-01 -0.2711468069817E-01  0.0000000000000E+00  0.4642060198821E-02
 0.1862029008900E-01 -0.2180745014010E-01  0.0000000000000E+00 -0.1612174144223E-01
 0.1823264651001E-01 -0.1962312893005E-01  0.0000000000000E+00 -0.3304913346527E-01
 0.2019253447831E-01 -0.1999775540321E-01  0.0000000000000E+00 -0.4448885709522E-01
 0.2354577676294E-01 -0.2204174532056E-01  0.0000000000000E+00 -0.4932155350536E-01
 0.2712424817895E-01 -0.2463667844165E-01  0.0000000000000E+00 -0.4733541304339E-01
 0.2978758407311E-01 -0.2665737535959E-01  0.0000000000000E+00 -0.3948406779941E-01
 0.3074509411412E-01 -0.2728578019152E-01  0.0000000000000E+00 -0.2777241647916E-01
 0.2977506508206E-01 -0.2624132329767E-01  0.0000000000000E+00 -0.1468768799226E-01
 0.1865960571406E+00 -0.2110298206819E+00  0.0000000000000E+00  0.1097231047319E+00
 0.1691102128649E+00 -0.1919329165781E+00  0.0000000000000E+00  0.1143422727885E+00
 0.1492865469710E+00 -0.1703487876973E+00  0.0000000000000E+00  0.1147183734829E+00
 0.1286770645542E+00 -0.1479153458182E+00  0.0000000000000E+00  0.1126556684764E+00
 0.1083468493019E+00 -0.1257736122726E+00  0.0000000000000E+00  0.1072640082777E+00
 0.8886742339217E-01 -0.1044426287724E+00  0.0000000000000E+00  0.9792817984855E-01
 0.7073934576165E-01 -0.8441929076103E-01  0.0000000000000E+00  0.8463243781000E-01
 0.5447016472822E-01 -0.6621751305170E-01  0.0000000000000E+00  0.6778185054112E-01
 0.4053685835967E-01 -0.5033280555329E-01  0.0000000000000E+00  0.4813514174365E-01
 0.2933511972100E-01 -0.3718714933038E-01  0.0000000000000E+00  0.2676175046591E-01
 0.2112373177529E-01 -0.2707282705344E-01  0.0000000000000E+00  0.4996813426960E-02
 0.1597106178913E-01 -0.2009845775371E-01  0.0000000000000E+00 -0.1563329001109E-01
 0.1370879988007E-01 -0.1614203310647E-01  0.0000000000000E+00 -0.3352951497756E-01
 0.1390283043844E-01 -0.1481968260338E-01  0.0000000000000E+00 -0.4719250854430E-01
 0.1585738744053E-01 -0.1548507284650E-01  0.0000000000000E+00 -0.5544877161638E-01
 0.1867528815141E-01 -0.1728132749017E-01  0.0000000000000E+00 -0.5770718717927E-01
 0.2139680739825E-01 -0.1926846510518E-01  0.0000000000000E+00 -0.5417521392133E-01
 0.2321129110899E-01 -0.2062684364880E-01  0.0000000000000E+00 -0.4590551552990E-01
 0.2369095634716E-01 -0.2088420765466E-01  0.0000000000000E+00 -0.3456437960294E-01
 0.2292080385539E-01 -0.2006094721540E-01  0.0000000000000E+00 -0.2208046515684E-01
 0.1743904096592E+00 -0.1978692204371E+00  0.0000000000000E+00  0.1032231367230E+00
 0.1556363539904E+00 -0.1773083660261E+00  0.0000000000000E+00  0.1034522175947E+00
 0.1348948745137E+00 -0.1544629026242E+00  0.0000000000000E+00  0.1018061729428E+00
 0.1144029641685E+00 -0.1321541696010E+00  0.0000000000000E+00  0.9820486814473E-01
 0.9468176889612E-01 -0.1106130517268E+00  0.0000000000000E+00  0.9093218300509E-01
 0.7610006859458E-01 -0.9019589624398E-01  0.0000000000000E+00  0.7984246056287E-01
 0.5912463656947E-01 -0.7136134092358E-01  0.0000000000000E+00  0.6522826730282E-01
 0.4420909308427E-01 -0.5457800249185E-01  0.0000000000000E+00  0.4771444472228E-01
 0.3174255918539E-01 -0.4025699649704E-01  0.0000000000000E+00  0.2818622238357E-01
 0.2199949572055E-01 -0.2870118206759E-01  0.0000000000000E+00  0.7755758505261E-02
 0.1509803579615E-01 -0.2006220570799E-01  0.0000000000000E+00 -0.1229156828611E-01
 0.1096512331349E-01 -0.1430482782194E-01  0.0000000000000E+00 -0.3058064796186E-01
 0.9314170086600E-02 -0.1118281737742E-01  0.0000000000000E+00 -0.4576646145004E-01
 0.9644129663164E-02 -0.1023475182287E-01  0.0000000000000E+00 -0.5668969031558E-01
 0.1127271219964E-01 -0.1081202181158E-01  0.0000000000000E+00 -0.6255612473992E-01
 0.1341755102721E-01 -0.1215313645332E-01  0.0000000000000E+00 -0.6310586897554E-01
 0.1533010182551E-01 -0.1351155217287E-01  0.0000000000000E+00 -0.5870746025782E-01
 0.1646447649761E-01 -0.1432028559059E-01  0.0000000000000E+00 -0.5030241256652E-01
 0.1661625508293E-01 -0.1434088282816E-01  0.0000000000000E+00 -0.3915732570915E-01
 0.1608577424272E-01 -0.1378715416843E-01  0.0000000000000E+00 -0.2652120383108E-01
 0.1621478711688E+00 -0.1853593628536E+00  0.0000000000000E+00  0.9271070928405E-01
 0.1414287844859E+00 -0.1613618263292E+00  0.0000000000000E+00  0.9213548096566E-01
 0.1212290706977E+00 -0.1393738315184E+00  0.0000000000000E+00  0.9027720340626E-01
 0.1016384264962E+00 -0.1179870125199E+00  0.0000000000000E+00  0.8498028479882E-01
 0.8279135594047E-01 -0.9735775642977E-01  0.0000000000000E+00  0.7601847182099E-01
 0.6523193936426E-01 -0.7799711696437E-01  0.0000000000000E+00  0.6366603573665E-01
 0.4943367911985E-01 -0.6039412008154E-01  0.0000000000000E+00  0.4841483222868E-01
 0.3579794466596E-01 -0.4496875888816E-01  0.0000000000000E+00  0.3096814939502E-01
 0.2461767571911E-01 -0.3203854105001E-01  0.0000000000000E+00  0.1222263975094E-01
 0.1605232769666E-01 -0.2179125236084E-01  0.0000000000000E+00 -0.6765417379776E-02
 0.1010327661272E-01 -0.1425990113214E-01  0.0000000000000E+00 -0.2483830315156E-01
 0.6597212871612E-02 -0.9304736664641E-02  0.0000000000000E+00 -0.4081975626251E-01
 0.5183328592075E-02 -0.6608150895814E-02  0.0000000000000E+00 -0.5362215923091E-01
 0.5352086488152E-02 -0.5690011102264E-02  0.0000000000000E+00 -0.6237224869769E-01
 0.6483788484107E-02 -0.5951918103513E-02  0.0000000000000E+00 -0.6653920537804E-01
 0.7932005820459E-02 -0.6756543785876E-02  0.0000000000000E+00 -0.6603287749575E-01
 0.9137221004754E-02 -0.7538563062720E-02  0.0000000000000E+00 -0.6122681704139E-01
 0.9745319718213E-02 -0.7925431288922E-02  0.0000000000000E+00 -0.5286371653566E-01
 0.9701197867681E-02 -0.7828574390796E-02  0.0000000000000E+00 -0.4186493675988E-01
 0.9194868678431E-02 -0.7457449601199E-02  0.0000000000000E+00 -0.2887662098924E-01
</DataArray>
<DataArray type="Float64" Name="S_Centroid" NumberOfComponents="4" ComponentName0="S11" ComponentName1="S22" ComponentName2="S33" ComponentName3="S12" format="ascii">
-0.1073333184678E+01 -0.8689631953857E+01 -0.1952593056803E+01 -0.1068277378234E+01
 0.1509033041614E+00 -0.6977041169955E+01 -0.1365227593502E+01 -0.3810292982014E-01
-0.2968295903361E-01 -0.6526127451221E+01 -0.1311162101589E+01 -0.5421001552969E-01
 0.4655872386245E-02 -0.6311008470101E+01 -0.1261270538337E+01 -0.2389492066128E-01
-0.1727087257256E-02 -0.6190586172845E+01 -0.1238462670475E+01 -0.1469932337419E-01
-0.6209967194959E-04 -0.6117169532075E+01 -0.1223446344580E+01 -0.9096092388832E-02
-0.3131321399668E-03 -0.6069811487745E+01 -0.1214024942067E+01 -0.5964768779088E-02
-0.1819042879780E-03 -0.6037982192084E+01 -0.1207632837270E+01 -0.4015866665291E-02
-0.1720564451684E-03 -0.6016064519253E+01 -0.1203247333069E+01 -0.2743890184772E-02
-0.1506877466870E-03 -0.6000866668352E+01 -0.1200203489104E+01 -0.1846264056019E-02
-0.1429371212625E-03 -0.5990592479374E+01 -0.1198147101153E+01 -0.1149403054554E-02
-0.1392405155898E-03 -0.5984281383766E+01 -0.1196884142691E+01 -0.5413773927850E-03
-0.1400811037280E-03 -0.5981519759487E+01 -0.1196331985945E+01  0.5430201631914E-04
-0.1444497711944E-03 -0.5982276951316E+01 -0.1196484298046E+01  0.6946707582584E-03
-0.1523126688947E-03 -0.5986814511199E+01 -0.1197393382616E+01  0.1426308056884E-02
-0.1638637932766E-03 -0.5995638807586E+01 -0.1199160552145E+01  0.2291397890076E-02
-0.1794878455361E-03 -0.6009483882018E+01 -0.1201932691883E+01  0.3332150886932E-02
-0.2004155452493E-03 -0.6029322079557E+01 -0.1205904516990E+01  0.4596190574570E-02
-0.2278219159917E-03 -0.6056397992301E+01 -0.1211325180894E+01  0.6142065543264E-02
-0.2647665715638E-03 -0.6092314666522E+01 -0.1218515904776E+01  0.8050307462919E-02
-0.3168942338299E-03 -0.6139189716611E+01 -0.1227901340466E+01  0.1044644364282E-01
-0.3906125698869E-03 -0.6200020512989E+01 -0.1240082243590E+01  0.1355349303076E-01
-0.7237730993894E-03 -0.6279754967759E+01 -0.1256095766889E+01  0.1814488712925E-01
-0.2192180834302E-02 -0.6385929726443E+01 -0.1277624400493E+01  0.2734117142742E-01
-0.5076009822537E-02 -0.6520484690065E+01 -0.1305112159425E+01  0.4674352392131E-01
-0.8722371244564E-02 -0.6676171546084E+01 -0.1336978803388E+01  0.8063835069722E-01
-0.1287683790501E-01 -0.6844907569084E+01 -0.1371556901836E+01  0.1297632069051E+00
-0.1780345966815E-01 -0.7022658754099E+01 -0.1408092463736E+01  0.1925743177408E+00
-0.2406622760725E-01 -0.7210189885821E+01 -0.1446851244245E+01  0.2671097772174E+00
-0.3237413701381E-01 -0.7411893392118E+01 -0.1488853528012E+01  0.3523163177673E+00
-0.4356929141874E-01 -0.7634028644412E+01 -0.1535519610047E+01  0.4486681808224E+00
-0.5866201131132E-01 -0.7882917802312E+01 -0.1588315986393E+01  0.5581649832365E+00
-0.7770360435975E-01 -0.8161992517790E+01 -0.1647939248986E+01  0.6821919836372E+00
-0.1004766885972E+00 -0.8479125780497E+01 -0.1715920519388E+01  0.8194717287494E+00
-0.1269254022630E+00 -0.8860858386882E+01 -0.1797556784615E+01  0.9713439793751E+00
-0.1669523813002E+00 -0.9349320580160E+01 -0.1903254620653E+01  0.1147769149199E+01
-0.1973254616010E+00 -0.1000190597313E+02 -0.2039846317341E+01  0.1370236520736E+01
-0.3748849896743E+00 -0.1091742181668E+02 -0.2258461394925E+01  0.1688898674786E+01
-0.9765710039756E-02 -0.1230810998102E+02 -0.2463575174922E+01  0.2129017101714E+01
-0.3314774552701E+01 -0.1471437945334E+02 -0.3605830854939E+01  0.3806185142025E+01
 0.9985604989837E+01 -0.1522339942357E+02 -0.1047558902356E+01  0.3596313573171E+01
-0.1137322976847E+01 -0.7608817793114E+01 -0.1749228180058E+01 -0.1146700773493E+01
-0.1676211299787E+00 -0.7136913183300E+01 -0.1460906884425E+01 -0.4824175568650E+00
-0.5300751426498E-02 -0.6565458317094E+01 -0.1314151833287E+01 -0.1518421927962E+00
-0.1924539871257E-01 -0.6323453326415E+01 -0.1268539763928E+01 -0.9384119433781E-01
-0.5498553842336E-02 -0.6178591967004E+01 -0.1236818122599E+01 -0.5353582429462E-01
-0.4137341016522E-02 -0.6088827310159E+01 -0.1218592948394E+01 -0.3435490804042E-01
-0.2299345297502E-02 -0.6029495560260E+01 -0.1206358999088E+01 -0.2274206691284E-01
-0.1560750263425E-02 -0.5988898130007E+01 -0.1198091793907E+01 -0.1559354838312E-01
-0.1082192928016E-02 -0.5960386264587E+01 -0.1192293709270E+01 -0.1085734132045E-01
-0.8271558366211E-03 -0.5940178838822E+01 -0.1188201216637E+01 -0.7515082266157E-02
-0.6908945862121E-03 -0.5926055539430E+01 -0.1185349304466E+01 -0.4948142575937E-02
-0.6375264793050E-03 -0.5916762430004E+01 -0.1183480008932E+01 -0.2769838689962E-02
-0.6420640389038E-03 -0.5911668131796E+01 -0.1182462056787E+01 -0.7173072249888E-03
-0.6918837926961E-03 -0.5910575145870E+01 -0.1182253423550E+01  0.1401568894884E-02
-0.7804466296071E-03 -0.5913610710506E+01 -0.1182878249053E+01  0.3740231158450E-02
-0.9058375891451E-03 -0.5921167606697E+01 -0.1184414706506E+01  0.6433873503598E-02
-0.1070218356272E-02 -0.5933878709220E+01 -0.1186989803203E+01  0.9615255380861E-02
-0.1280385288206E-02 -0.5952618323280E+01 -0.1190779759458E+01  0.1342955326067E-01
-0.1549685132009E-02 -0.5978532372578E+01 -0.1196016429364E+01  0.1805366622060E-01
-0.1904948267353E-02 -0.6013108283921E+01 -0.1203002664364E+01  0.2372835646056E-01
-0.2398770532703E-02 -0.6058311148069E+01 -0.1212142001783E+01  0.3082009149523E-01
-0.3193407576635E-02 -0.6116870745116E+01 -0.1224012848778E+01  0.4001853045473E-01
-0.5123406033944E-02 -0.6192560771796E+01 -0.1239536854037E+01  0.5288575013675E-01
-0.9636324477223E-02 -0.6288974370926E+01 -0.1259722157852E+01  0.7199224215206E-01
-0.1709877658078E-01 -0.6406358665851E+01 -0.1284691507630E+01  0.1002603211627E+00
-0.2633938419835E-01 -0.6540745192977E+01 -0.1313416935007E+01  0.1401076761373E+00
-0.3623723799805E-01 -0.6687077625567E+01 -0.1344662992750E+01  0.1926577174403E+00
-0.4662668336126E-01 -0.6842309304728E+01 -0.1377787218148E+01  0.2577465306583E+00
-0.5814770118737E-01 -0.7006311942232E+01 -0.1412891949738E+01  0.3347739862372E+00
-0.7192099680362E-01 -0.7181295897081E+01 -0.1450643400393E+01  0.4235175471199E+00
-0.8935681481499E-01 -0.7370608148873E+01 -0.1491993014970E+01  0.5245697677421E+00
-0.1114672898710E+00 -0.7577372227229E+01 -0.1537767926335E+01  0.6389970316699E+00
-0.1381063161294E+00 -0.7804582233418E+01 -0.1588537733581E+01  0.7678995858642E+00
-0.1693583650900E+00 -0.8058557626805E+01 -0.1645583222900E+01  0.9134218443856E+00
-0.2104807577047E+00 -0.8352408880355E+01 -0.1712577953131E+01  0.1081049113537E+01
-0.2631553810953E+00 -0.8703484962977E+01 -0.1793328095537E+01  0.1280526903868E+01
-0.3670923932402E+00 -0.9131027933940E+01 -0.1899624093743E+01  0.1540781958580E+01
-0.4400570835337E+00 -0.9631842177056E+01 -0.2014379882135E+01  0.1854205723299E+01
-0.9735620018634E+00 -0.1022998504594E+02 -0.2240709442951E+01  0.2564950818170E+01
-0.1771551289485E+01 -0.9521043257495E+01 -0.2258518943050E+01  0.2440268202968E+01
 0.8562364175655E+01 -0.8154133583244E+01  0.8164611969875E-01  0.7396376158106E+00
-0.1197005014868E+01 -0.7019513597009E+01 -0.1643303746862E+01 -0.1084118366157E+01
-0.3898577716062E+00 -0.6926094447317E+01 -0.1463190465588E+01 -0.6776500833094E+00
-0.8444717819709E-01 -0.6566038984414E+01 -0.1330097252342E+01 -0.3026881131925E+00
-0.3934245743666E-01 -0.6303251578303E+01 -0.1268518826050E+01 -0.1615454690424E+00
-0.2134138837851E-01 -0.6151877910356E+01 -0.1234643878145E+01 -0.9972519211830E-01
-0.1157183789938E-01 -0.6051445286829E+01 -0.1212603443015E+01 -0.6371341654913E-01
-0.7216286740886E-02 -0.5983668034751E+01 -0.1198176882153E+01 -0.4294680203162E-01
-0.4633040987587E-02 -0.5936151589239E+01 -0.1188156943750E+01 -0.2974741137627E-01
-0.3210298223222E-02 -0.5902158230845E+01 -0.1181073723413E+01 -0.2097355761752E-01
-0.2387055640351E-02 -0.5877590466723E+01 -0.1175995521996E+01 -0.1474053365526E-01
-0.1946906062683E-02 -0.5859992580524E+01 -0.1172387914787E+01 -0.9967146139349E-02
-0.1754145046083E-02 -0.5847908575637E+01 -0.1169932561570E+01 -0.5961872382520E-02
-0.1737075779120E-02 -0.5840544299278E+01 -0.1168456292423E+01 -0.2258593601583E-02
-0.1854402316264E-02 -0.5837565911616E+01 -0.1167884080189E+01  0.1482039019623E-02
-0.2084948743945E-02 -0.5838982888278E+01 -0.1168213584812E+01  0.5528074237900E-02
-0.2421164844681E-02 -0.5845081139447E+01 -0.1169500478285E+01  0.1011250137077E-01
-0.2867341104042E-02 -0.5856390373055E+01 -0.1171851560294E+01  0.1546035478323E-01
-0.3440793120523E-02 -0.5873677651498E+01 -0.1175423706439E+01  0.2181376859501E-01
-0.4177792920351E-02 -0.5897966824550E+01 -0.1180428941084E+01  0.2946336217129E-01
-0.5149535749751E-02 -0.5930587666771E+01 -0.1187147458194E+01  0.3879694074498E-01
-0.6502108913526E-02 -0.5973267452093E+01 -0.1195953930022E+01  0.5039618571836E-01
-0.8664791330333E-02 -0.6028229835749E+01 -0.1207378943407E+01  0.6527441695310E-01
-0.1280295708985E-01 -0.6097898093410E+01 -0.1222140228311E+01  0.8508642565366E-01
-0.2043001983851E-01 -0.6183825350160E+01 -0.1240851092490E+01  0.1116977640398E+00
-0.3183496230182E-01 -0.6285580824153E+01 -0.1263483176118E+01  0.1466799915741E+00
-0.4571383518885E-01 -0.6400702553837E+01 -0.1289283297017E+01  0.1914218250652E+00
-0.6063827703366E-01 -0.6525959735418E+01 -0.1317319622120E+01  0.2470303492284E+00
-0.7618224480481E-01 -0.6658956560570E+01 -0.1347027781147E+01  0.3140575095850E+00
-0.9296789934796E-01 -0.6798865193623E+01 -0.1378366639133E+01  0.3926959959619E+00
-0.1123137324502E+00 -0.6946167480114E+01 -0.1411696263549E+01  0.4831772045164E+00
-0.1357883712894E+00 -0.7101849704632E+01 -0.1447527636754E+01  0.5859594872047E+00
-0.1644268989881E+00 -0.7266749607368E+01 -0.1486235323418E+01  0.7016128435202E+00
-0.1983489197367E+00 -0.7441910047095E+01 -0.1528051816136E+01  0.8312751128853E+00
-0.2392954498603E+00 -0.7629191937665E+01 -0.1573697500955E+01  0.9779979587496E+00
-0.2917347218508E+00 -0.7829852694145E+01 -0.1624317507403E+01  0.1146551637907E+01
-0.3689477692941E+00 -0.8041475473140E+01 -0.1682084673552E+01  0.1346349037035E+01
-0.4770255489074E+00 -0.8239605241055E+01 -0.1743326183970E+01  0.1578435594826E+01
-0.6552862878331E+00 -0.8380767469184E+01 -0.1807210778333E+01  0.1880829737173E+01
-0.1137088185849E+01 -0.8060358709088E+01 -0.1839489406398E+01  0.2134052515612E+01
-0.2285495558894E+00 -0.6758227203651E+01 -0.1397355372730E+01  0.1049767132900E+01
 0.8095643753108E+01 -0.5812576609630E+01  0.4566134354997E+00 -0.1480866092483E+00
-0.1228111263390E+01 -0.6627403730118E+01 -0.1571103022113E+01 -0.1001284174389E+01
-0.5481262366242E+00 -0.6671615298456E+01 -0.1443948328532E+01 -0.7510357999072E+00
-0.1872914237701E+00 -0.6478786683438E+01 -0.1333215641308E+01 -0.4202776337704E+00
-0.7906203821674E-01 -0.6259369814137E+01 -0.1267686389361E+01 -0.2352919031474E+00
-0.4253364021320E-01 -0.6107824314887E+01 -0.1230071609350E+01 -0.1464677450628E+00
-0.2427085566625E-01 -0.6004574925409E+01 -0.1205769174182E+01 -0.9607472554098E-01
-0.1487259866017E-01 -0.5931636779069E+01 -0.1189301893268E+01 -0.6544854433944E-01
-0.9689539565557E-02 -0.5879291991481E+01 -0.1177796323760E+01 -0.4592440768811E-01
-0.6686338466977E-02 -0.5841021126483E+01 -0.1169541510417E+01 -0.3273633358017E-01
-0.4958089400790E-02 -0.5812831866522E+01 -0.1163558008523E+01 -0.2331321654013E-01
-0.4004800255365E-02 -0.5792196307582E+01 -0.1159240238842E+01 -0.1608523028292E-01
-0.3562812276686E-02 -0.5777562128605E+01 -0.1156225005406E+01 -0.1005813541424E-01
-0.3480111440334E-02 -0.5768029907274E+01 -0.1154302020943E+01 -0.4555330272707E-02
-0.3671279721424E-02 -0.5763163736377E+01 -0.1153367020406E+01  0.9143361186832E-03
-0.4090801011017E-02 -0.5762874194907E+01 -0.1153393016370E+01  0.6736806882419E-02
-0.4721123331669E-02 -0.5767348859906E+01 -0.1154414013850E+01  0.1324404591960E-01
-0.5568164783453E-02 -0.5777014532074E+01 -0.1156516556605E+01  0.2075214050556E-01
-0.6663279908553E-02 -0.5792522976126E+01 -0.1159837268490E+01  0.2959565426032E-01
-0.8074038130821E-02 -0.5814756800009E+01 -0.1164566184981E+01  0.4016838629543E-01
-0.9931257904329E-02 -0.5844852672833E+01 -0.1170956803596E+01  0.5298318610831E-01
-0.1250902531084E-01 -0.5884228135121E+01 -0.1179347449660E+01  0.6878206181112E-01
-0.1646261314726E-01 -0.5934495067593E+01 -0.1190191553883E+01  0.8869802233247E-01
-0.2308430782124E-01 -0.5997008809628E+01 -0.1204018641431E+01  0.1141988913835E+00
-0.3375833301142E-01 -0.6072194538972E+01 -0.1221190592594E+01  0.1465645984017E+00
-0.4866247464596E-01 -0.6159305567789E+01 -0.1241593626988E+01  0.1866242496657E+00
-0.6652671055450E-01 -0.6256622524828E+01 -0.1264629865921E+01  0.2351797984063E+00
-0.8588498702247E-01 -0.6361911381277E+01 -0.1289559292876E+01  0.2931933381117E+00
-0.1061881503203E+00 -0.6473129260502E+01 -0.1315863501772E+01  0.3614992265317E+00
-0.1279934874230E+00 -0.6588866298063E+01 -0.1343371977115E+01  0.4406625575838E+00
-0.1526272232289E+00 -0.6708225946729E+01 -0.1372170654439E+01  0.5310514867079E+00
-0.1816273884063E+00 -0.6830344857073E+01 -0.1402394469993E+01  0.6328816524526E+00
-0.2160282847582E+00 -0.6954035588400E+01 -0.1434012796000E+01  0.7463043370996E+00
-0.2565127254543E+00 -0.7077708355894E+01 -0.1466844238127E+01  0.8720943358249E+00
-0.3051477030589E+00 -0.7198110606420E+01 -0.1500651684257E+01  0.1012182381618E+01
-0.3678685220850E+00 -0.7307190893138E+01 -0.1535011905918E+01  0.1169162100259E+01
-0.4534864953770E+00 -0.7384267355271E+01 -0.1567550793488E+01  0.1342138092293E+01
-0.5692509395122E+00 -0.7386274159233E+01 -0.1591105043458E+01  0.1523243446567E+01
-0.7526990242907E+00 -0.7186051209766E+01 -0.1587750070471E+01  0.1677746079773E+01
-0.8377796370946E+00 -0.6452232111569E+01 -0.1458002371459E+01  0.1455440392268E+01
 0.1013096606843E+01 -0.5347909426860E+01 -0.8669625769222E+00  0.1504036799048E+00
 0.7628567966865E+01 -0.4854303480287E+01  0.5548529055835E+00 -0.3985080463113E+00
-0.1239651064841E+01 -0.6335195970460E+01 -0.1514969429635E+01 -0.9212107511686E+00
-0.6604187888578E+00 -0.6432349400182E+01 -0.1418553658946E+01 -0.7661117511006E+00
-0.2873988624809E+00 -0.6346564470944E+01 -0.1326792686456E+01 -0.4968574611997E+00
-0.1317173627197E+00 -0.6186165798601E+01 -0.1263576651093E+01 -0.3021640929105E+00
-0.7048361470059E-01 -0.6048766178897E+01 -0.1223849976956E+01 -0.1927458969685E+00
-0.4120391493033E-01 -0.5947608255163E+01 -0.1197762451867E+01 -0.1291038426877E+00
-0.2552594344545E-01 -0.5873186602350E+01 -0.1179742526739E+01 -0.8937760281760E-01
-0.1673708814900E-01 -0.5818004817408E+01 -0.1166948398500E+01 -0.6348520950141E-01
-0.1161242113088E-01 -0.5776728081426E+01 -0.1157668117762E+01 -0.4577898520534E-01
-0.8613921492169E-02 -0.5745697013682E+01 -0.1150862204184E+01 -0.3300109883377E-01
-0.6931609393838E-02 -0.5722504269194E+01 -0.1145887192793E+01 -0.2316560975824E-01
-0.6115696104981E-02 -0.5705597109572E+01 -0.1142342578158E+01 -0.1498563077619E-01
-0.5910279066471E-02 -0.5694031191996E+01 -0.1139988311200E+01 -0.7581737826241E-02
-0.6168424796674E-02 -0.5687303653100E+01 -0.1138694432547E+01 -0.3129197760493E-03
-0.6810812593125E-02 -0.5685246582649E+01 -0.1138411496012E+01  0.7323096080657E-02
-0.7804766827848E-02 -0.5687959304536E+01 -0.1139152831248E+01  0.1575499617395E-01
-0.9156375838268E-02 -0.5695767813905E+01 -0.1140984854951E+01  0.2538564150514E-01
-0.1091281833782E-01 -0.5709203078077E+01 -0.1144023196330E+01  0.3663399108133E-01
-0.1317769335313E-01 -0.5728992296453E+01 -0.1148434015074E+01  0.4998184252933E-01
-0.1615089451780E-01 -0.5756053115805E+01 -0.1154440819267E+01  0.6603763139974E-01
-0.2023204186392E-01 -0.5791452741668E+01 -0.1162336974027E+01  0.8562930664799E-01
-0.2622435258372E-01 -0.5836220105144E+01 -0.1172488909017E+01  0.1098653118654E+00
-0.3541723640439E-01 -0.5890932066034E+01 -0.1185269878149E+01  0.1399419775178E+00
-0.4900338324926E-01 -0.5955351888983E+01 -0.1200871072341E+01  0.1766942599897E+00
-0.6705969495501E-01 -0.6028554548426E+01 -0.1219122866843E+01  0.2205142847563E+00
-0.8841488102948E-01 -0.6109172531612E+01 -0.1239517500999E+01  0.2718430469890E+00
-0.1116850880549E+00 -0.6195465954950E+01 -0.1261430227398E+01  0.3314491542995E+00
-0.1362781009894E+00 -0.6285516698218E+01 -0.1284358978980E+01  0.4001825902525E+00
-0.1626509465027E+00 -0.6377412072628E+01 -0.1308012623317E+01  0.4786752688326E+00
-0.1920088195414E+00 -0.6469168606734E+01 -0.1332235505107E+01  0.5672006300559E+00
-0.2257312409074E+00 -0.6558439696167E+01 -0.1356834207633E+01  0.6656256897368E+00
-0.2648274824491E+00 -0.6642197276521E+01 -0.1381404972379E+01  0.7735621131783E+00
-0.3101474855112E+00 -0.6716138445010E+01 -0.1405257207044E+01  0.8907994924168E+00
-0.3638207907861E+00 -0.6772609611896E+01 -0.1427286101805E+01  0.1017229117157E+01
-0.4302856378219E+00 -0.6795976567319E+01 -0.1445252462564E+01  0.1150549783790E+01
-0.5133553963152E+00 -0.6755973760046E+01 -0.1453865852936E+01  0.1280717302737E+01
-0.6134557777241E+00 -0.6592965237791E+01 -0.1441284224580E+01  0.1380133449019E+01
-0.6937155139502E+00 -0.6173537737126E+01 -0.1373450670681E+01  0.1341762590936E+01
-0.3493763748321E+00 -0.5370394891062E+01 -0.1143954270225E+01  0.8228458133742E+00
 0.1904716107259E+01 -0.4595898398955E+01 -0.5382364663594E+00 -0.3561823529669E+00
 0.7199439915312E+01 -0.4352937099230E+01  0.5693005716996E+00 -0.4634746924948E+00
-0.1239390216991E+01 -0.6100911070549E+01 -0.1468060279384E+01 -0.8482859245913E+00
-0.7399545528260E+00 -0.6217033280470E+01 -0.1391397587393E+01 -0.7529849216777E+00
-0.3757510970081E+00 -0.6196730278715E+01 -0.1314496294732E+01 -0.5409345538258E+00
-0.1893862697673E+00 -0.6090080421715E+01 -0.1255893357011E+01 -0.3558499664361E+00
-0.1040642278422E+00 -0.5975310497055E+01 -0.1215874963097E+01 -0.2357269925083E+00
-0.6189733776155E-01 -0.5881177451716E+01 -0.1188614975607E+01 -0.1614168556133E+00
-0.3892980258180E-01 -0.5808234297327E+01 -0.1169432837408E+01 -0.1137030624822E+00
-0.2576526360469E-01 -0.5752182699479E+01 -0.1155589609836E+01 -0.8185250823362E-01
-0.1799679066778E-01 -0.5709126870807E+01 -0.1145424749363E+01 -0.5971705046136E-01
-0.1339157431333E-01 -0.5676048447835E+01 -0.1137888021386E+01 -0.4356589035346E-01
-0.1076301100735E-01 -0.5650798686433E+01 -0.1132312356361E+01 -0.3106070374534E-01
-0.9444235172224E-02 -0.5631920164550E+01 -0.1128272896757E+01 -0.2066164462513E-01
-0.9050351379776E-02 -0.5618479351339E+01 -0.1125505957315E+01 -0.1130252237193E-01
-0.9358389677885E-02 -0.5609941430622E+01 -0.1123859980807E+01 -0.2201863111211E-02
-0.1024573847415E-01 -0.5606080762212E+01 -0.1123265316875E+01  0.7253008466057E-02
-0.1165924598303E-01 -0.5606919635468E+01 -0.1123715793035E+01  0.1758191731599E-01
-0.1360272087539E-01 -0.5612687139935E+01 -0.1125257988930E+01  0.2926741298767E-01
-0.1613889029067E-01 -0.5623791029921E+01 -0.1127986000851E+01  0.4280192123207E-01
-0.1940852540146E-01 -0.5640794730756E+01 -0.1132040668100E+01  0.5873688217287E-01
-0.2367947589123E-01 -0.5664383013533E+01 -0.1137612514837E+01  0.7774146806175E-01
-0.2945191845742E-01 -0.5695271306371E+01 -0.1144944662027E+01  0.1006617111994E+00
-0.3760245439172E-01 -0.5733987828759E+01 -0.1154318073831E+01  0.1284999644693E+00
-0.4934354009305E-01 -0.5780552847432E+01 -0.1165979294880E+01  0.1621772554446E+00
-0.6566925291191E-01 -0.5834317428030E+01 -0.1179997353772E+01  0.2021956359019E+00
-0.8657494771536E-01 -0.5894229793236E+01 -0.1196160966014E+01  0.2486690403585E+00
-0.1110037242113E+00 -0.5959058850125E+01 -0.1214012532957E+01  0.3017890928846E+00
-0.1376933668719E+00 -0.6027264497537E+01 -0.1232991591255E+01  0.3621058643510E+00
-0.1660400042396E+00 -0.6096905103424E+01 -0.1252589040198E+01  0.4303206178257E+00
-0.1963686286563E+00 -0.6165633712599E+01 -0.1272400487211E+01  0.5069219416261E+00
-0.2296700498342E+00 -0.6230616085171E+01 -0.1292057246254E+01  0.5919190228461E+00
-0.2670706322430E+00 -0.6288316451466E+01 -0.1311077436278E+01  0.6847167393100E+00
-0.3093821945420E+00 -0.6334110204254E+01 -0.1328698499558E+01  0.7841745513203E+00
-0.3572495695724E+00 -0.6361394373797E+01 -0.1343728808697E+01  0.8886860700686E+00
-0.4119163586900E+00 -0.6359104402402E+01 -0.1354204172398E+01  0.9953146300848E+00
-0.4746639749643E+00 -0.6307215140942E+01 -0.1356375843393E+01  0.1096375749921E+01
-0.5424991707210E+00 -0.6170981416617E+01 -0.1342696137475E+01  0.1172558285756E+01
-0.5948238911158E+00 -0.5889211965923E+01 -0.1296807190732E+01  0.1174884523512E+01
-0.5170836578411E+00 -0.5374527160746E+01 -0.1178322181276E+01  0.9694639422510E+00
 0.1695801200365E+00 -0.4658540191241E+01 -0.8977920276191E+00  0.3230291982371E+00
 0.2520145597674E+01 -0.4156308668745E+01 -0.3272326190904E+00 -0.6249845855880E+00
 0.6818303025254E+01 -0.4039750210969E+01  0.5557105711378E+00 -0.4758004614330E+00
-0.1232054087089E+01 -0.5903252647175E+01 -0.1427061368118E+01 -0.7826743659057E+00
-0.7961589955966E+00 -0.6023723605645E+01 -0.1363976540573E+01 -0.7263154536771E+00
-0.4502584827236E+00 -0.6042861188469E+01 -0.1298623953589E+01 -0.5619927427114E+00
-0.2466184159217E+00 -0.5979254343357E+01 -0.1245174570410E+01 -0.3953894181981E+00
-0.1410601618959E+00 -0.5889470397327E+01 -0.1206106129817E+01 -0.2731443970822E+00
-0.8566261967689E-01 -0.5806045248878E+01 -0.1178341591270E+01 -0.1917878207954E+00
-0.5473086557621E-01 -0.5737050350231E+01 -0.1158356260422E+01 -0.1375747412203E+00
-0.3663879676565E-01 -0.5681847456423E+01 -0.1143697267680E+01 -0.1004621517616E+00
-0.2579578784963E-01 -0.5638170080700E+01 -0.1132793190590E+01 -0.7418588006631E-01
-0.1928338719594E-01 -0.5603811562535E+01 -0.1124619006704E+01 -0.5476785673558E-01
-0.1550707209271E-01 -0.5577006646821E+01 -0.1118502760450E+01 -0.3961929847382E-01
-0.1355883310496E-01 -0.5556470079571E+01 -0.1114005799135E+01 -0.2699702797003E-01
-0.1290722521274E-01 -0.5541330420012E+01 -0.1110847545598E+01 -0.1567506711249E-01
-0.1324059148652E-01 -0.5531053306790E+01 -0.1108858796179E+01 -0.4746506164646E-02
-0.1438467650351E-01 -0.5525375755321E+01 -0.1107952102875E+01  0.6501605596286E-02
-0.1626041435893E-01 -0.5524254875809E+01 -0.1108103074546E+01  0.1867170076466E-01
-0.1886599214554E-01 -0.5527828467570E+01 -0.1109338908473E+01  0.3231651096832E-01
-0.2227741113465E-01 -0.5536381943492E+01 -0.1111731887491E+01  0.4798891438722E-01
-0.2666961538369E-01 -0.5550312677289E+01 -0.1115396475155E+01  0.6628967606395E-01
-0.3236805978516E-01 -0.5570072552086E+01 -0.1120488139071E+01  0.8791417106327E-01
-0.3993987886451E-01 -0.5596050487345E+01 -0.1127198090038E+01  0.1136754317535E+00
-0.5027580998484E-01 -0.5628365682545E+01 -0.1135728315430E+01  0.1444315065544E+00
-0.6447318607105E-01 -0.5666639682072E+01 -0.1146222590709E+01  0.1808531048310E+00
-0.8334087958136E-01 -0.5709951028836E+01 -0.1158658398949E+01  0.2231890369017E+00
-0.1068085604767E+00 -0.5757140611876E+01 -0.1172789851947E+01  0.2713574703592E+00
-0.1339244090331E+00 -0.5806993678326E+01 -0.1188183635177E+01  0.3253524326049E+00
-0.1635437035319E+00 -0.5858004512432E+01 -0.1204309661138E+01  0.3854881170073E+00
-0.1950492338527E+00 -0.5908127836347E+01 -0.1220635432229E+01  0.4522164159616E+00
-0.2286000879803E+00 -0.5954652085990E+01 -0.1236650453222E+01  0.5257441237044E+00
-0.2649008595660E+00 -0.5994092215008E+01 -0.1251798633568E+01  0.6056946127835E+00
-0.3047173885712E+00 -0.6021991057827E+01 -0.1265341708135E+01  0.6908991594323E+00
-0.3484526901737E+00 -0.6032476743257E+01 -0.1276185905703E+01  0.7792946768771E+00
-0.3960793309758E+00 -0.6017259237939E+01 -0.1282667732896E+01  0.8676103100461E+00
-0.4470645567792E+00 -0.5963251923815E+01 -0.1282063315223E+01  0.9498583552906E+00
-0.4983927486795E+00 -0.5848874549055E+01 -0.1269453478463E+01  0.1013294333052E+01
-0.5374234462455E+00 -0.5640189415589E+01 -0.1235522590778E+01  0.1030225613883E+01
-0.5175215273320E+00 -0.5289235848167E+01 -0.1161351492405E+01  0.9392272331226E+00
-0.2735809917365E+00 -0.4765476845764E+01 -0.1007811582518E+01  0.6184715052929E+00
 0.6477261051401E+00 -0.4183506090601E+01 -0.7071560076296E+00 -0.4434716775181E-01
 0.2936878052366E+01 -0.3872017516596E+01 -0.1870278956330E+00 -0.7604625327544E+00
 0.6485668761196E+01 -0.3817087467668E+01  0.5337162666587E+00 -0.4758572911300E+00
-0.1220384148087E+01 -0.5730219858427E+01 -0.1390120822017E+01 -0.7235870374525E+00
-0.8355960471987E+00 -0.5848590532105E+01 -0.1336837335781E+01 -0.6934793244678E+00
-0.5115585567133E+00 -0.5891148866758E+01 -0.1280541503776E+01 -0.5674506493693E+00
-0.3002765624745E+00 -0.5860097083239E+01 -0.1232074747502E+01 -0.4222480804181E+00
-0.1792894261709E+00 -0.5794021614811E+01 -0.1194662225998E+01 -0.3039374671121E+00
-0.1115762112234E+00 -0.5723251097623E+01 -0.1166965479158E+01 -0.2192379469134E+00
-0.7249399773279E-01 -0.5660092374275E+01 -0.1146517291486E+01 -0.1603007093917E+00
-0.4914141308914E-01 -0.5607163831139E+01 -0.1131261065703E+01 -0.1188160468256E+00
-0.3491104434193E-01 -0.5563895594659E+01 -0.1119761344486E+01 -0.8884522571455E-01
-0.2624513829853E-01 -0.5528972879106E+01 -0.1111043620037E+01 -0.6637757531962E-01
-0.2114491521497E-01 -0.5501097326420E+01 -0.1104448464785E+01 -0.4869117335072E-01
-0.1845031587874E-01 -0.5479216822738E+01 -0.1099533444108E+01 -0.3389978813773E-01
-0.1747249170752E-01 -0.5462564480147E+01 -0.1096007410703E+01 -0.2065143268300E-01
-0.1780190969860E-01 -0.5450635327671E+01 -0.1093687463771E+01 -0.7933905676688E-02
-0.1920568660222E-01 -0.5443148096310E+01 -0.1092470772861E+01  0.5052471339055E-02
-0.2157367059017E-01 -0.5440006805738E+01 -0.1092316111542E+01  0.1898166858685E-01
-0.2489434342458E-01 -0.5441265105971E+01 -0.1093231906169E+01  0.3446520761363E-01
-0.2925283277969E-01 -0.5447090128441E+01 -0.1095268608565E+01  0.5210208244156E-01
-0.3485142624242E-01 -0.5457717044016E+01 -0.1098513710421E+01  0.7252180071323E-01
-0.4205708792043E-01 -0.5473376544957E+01 -0.1103086743013E+01  0.9641587070963E-01
-0.5147004897751E-01 -0.5494169633914E+01 -0.1109127953106E+01  0.1245303358564E+00
-0.6395205402307E-01 -0.5519890053568E+01 -0.1116768438159E+01  0.1575664310118E+00
-0.8046831754223E-01 -0.5549870992663E+01 -0.1126067878821E+01  0.1959761150538E+00
-0.1016608687733E+00 -0.5583000783667E+01 -0.1136932347430E+01  0.2398086210824E+00
-0.1274026075140E+00 -0.5618022653926E+01 -0.1149085069411E+01  0.2888278167413E+00
-0.1568244644645E+00 -0.5653675005220E+01 -0.1162099911254E+01  0.3428513570545E+00
-0.1888722119240E+00 -0.5688401866423E+01 -0.1175454833185E+01  0.4019448112645E+00
-0.2228930828320E+00 -0.5720025072960E+01 -0.1188583648870E+01  0.4662512107806E+00
-0.2588437117492E+00 -0.5745544267716E+01 -0.1200877613787E+01  0.5356097407740E+00
-0.2970773388995E+00 -0.5761003279650E+01 -0.1211616141764E+01  0.6091752892217E+00
-0.3378856630485E+00 -0.5761292101090E+01 -0.1219835571005E+01  0.6851245200352E+00
-0.3810322473177E+00 -0.5739699392694E+01 -0.1224146346243E+01  0.7603730501210E+00
-0.4253631724531E+00 -0.5686982035673E+01 -0.1222469059842E+01  0.8299200109049E+00
-0.4678966082030E+00 -0.5589436422969E+01 -0.1211466624287E+01  0.8849400226326E+00
-0.5004194981693E+00 -0.5426392399872E+01 -0.1185362397271E+01  0.9084783410764E+00
-0.4992013912940E+00 -0.5169547523282E+01 -0.1133749799809E+01  0.8673380637247E+00
-0.3952793020422E+00 -0.4791284112841E+01 -0.1037312698434E+01  0.6991295667805E+00
-0.3241918629700E-02 -0.4306540247354E+01 -0.8619564460408E+00  0.3138805028578E+00
 0.1059990666497E+01 -0.3856270517233E+01 -0.5592559784807E+00 -0.3047019467233E+00
 0.3215451886505E+01 -0.3670150245516E+01 -0.9093967315721E-01 -0.8235490097371E+00
 0.6195818887589E+01 -0.3644998834143E+01  0.5101640182913E+00 -0.4747654791390E+00
-0.1205982238660E+01 -0.5574529550877E+01 -0.1356102378115E+01 -0.6701171030907E+00
-0.8628149439679E+00 -0.5688028053369E+01 -0.1310168618991E+01 -0.6582813877073E+00
-0.5612190942506E+00 -0.5744136822476E+01 -0.1261071202137E+01 -0.5625781678425E+00
-0.3488226042475E+00 -0.5736967465903E+01 -0.1217158032167E+01 -0.4386401803492E+00
-0.2170258861094E+00 -0.5691689029399E+01 -0.1181743000711E+01 -0.3280050816118E+00
-0.1386598765021E+00 -0.5634047073657E+01 -0.1154541407236E+01 -0.2431555469470E+00
-0.9171952496427E-01 -0.5577947777857E+01 -0.1133933477461E+01 -0.1813451643465E+00
-0.6300492875111E-01 -0.5528404665883E+01 -0.1118281935591E+01 -0.1364994871264E+00
-0.4520007897614E-01 -0.5486417465358E+01 -0.1106323525352E+01 -0.1033919238202E+00
-0.3420079165729E-01 -0.5451572590922E+01 -0.1097154692865E+01 -0.7818236947257E-01
-0.2763386789977E-01 -0.5423079104318E+01 -0.1090142610688E+01 -0.5813215697530E-01
-0.2409140587986E-01 -0.5400159594644E+01 -0.1084850216270E+01 -0.4127802998833E-01
-0.2272352452813E-01 -0.5382184472179E+01 -0.1080981615449E+01 -0.2618030476137E-01
-0.2301750095774E-01 -0.5368702338193E+01 -0.1078343983899E+01 -0.1174528196743E-01
-0.2467663103758E-01 -0.5359430778884E+01 -0.1076821498030E+01  0.2897172581832E-02
-0.2755500078296E-01 -0.5354232616739E+01 -0.1076357539543E+01  0.1847952839821E-01
-0.3162678814379E-01 -0.5353085749727E+01 -0.1076942523622E+01  0.3565937652308E-01
-0.3698050848787E-01 -0.5356045999818E+01 -0.1078605317734E+01  0.5506696365399E-01
-0.4383614032742E-01 -0.5363195582741E+01 -0.1081406360728E+01  0.7734122994487E-01
-0.5258360367026E-01 -0.5374563665687E+01 -0.1085429470046E+01  0.1031459214504E+00
-0.6382608528949E-01 -0.5390006137398E+01 -0.1090766460791E+01  0.1331398491296E+00
-0.7836652685514E-01 -0.5409061785881E+01 -0.1097485678901E+01  0.1678686933865E+00
-0.9703255219673E-01 -0.5430853289748E+01 -0.1105577184863E+01  0.2075951491299E+00
-0.1203161080044E+00 -0.5454130971377E+01 -0.1114889432489E+01  0.2522039583634E+00
-0.1480353164497E+00 -0.5477549588328E+01 -0.1125116997721E+01  0.3013243101095E+00
-0.1793750246352E+00 -0.5499773440007E+01 -0.1135829709854E+01  0.3546042460110E+00
-0.2133334974932E+00 -0.5519162757944E+01 -0.1146499268172E+01  0.4118527683967E+00
-0.2491889722624E+00 -0.5533412876183E+01 -0.1156520386923E+01  0.4728727255879E+00
-0.2866565820881E+00 -0.5539317306447E+01 -0.1165194795070E+01  0.5370887058898E+00
-0.3256763599402E+00 -0.5532618890333E+01 -0.1171659067514E+01  0.6031410047187E+00
-0.3659534446572E+00 -0.5507823913090E+01 -0.1174755489055E+01  0.6685141174094E+00
-0.4063935999640E+00 -0.5457813298118E+01 -0.1172841397093E+01  0.7290933327462E+00
-0.4443525138358E+00 -0.5373132745642E+01 -0.1163497069233E+01  0.7782748570988E+00
-0.4739531252987E+00 -0.5240704694639E+01 -0.1142931581019E+01  0.8049017474009E+00
-0.4813675746812E+00 -0.5042786162685E+01 -0.1104830763936E+01  0.7891631515624E+00
-0.4324560062332E+00 -0.4759728276969E+01 -0.1038436872114E+01  0.6962235560042E+00
-0.2437235583841E+00 -0.4384285628825E+01 -0.9256018512343E+00  0.4715750774707E+00
 0.2676648094153E+00 -0.3959823355438E+01 -0.7384317202081E+00  0.6176731751771E-01
 0.1403219969689E+01 -0.3621585032367E+01 -0.4436730191468E+00 -0.4854424028232E+00
 0.3398773596713E+01 -0.3515656793973E+01 -0.2337663980034E-01 -0.8479168787319E+00
 0.5941679570617E+01 -0.3505003939554E+01  0.4873351334745E+00 -0.4747695250915E+00
-0.1189805613053E+01 -0.5431507399054E+01 -0.1324262622154E+01 -0.6214516785890E+00
-0.8809870407148E+00 -0.5539080091990E+01 -0.1284013445674E+01 -0.6227104004640E+00
-0.6009807584084E+00 -0.5602617175464E+01 -0.1240719605263E+01 -0.5509904424197E+00
-0.3917037886694E+00 -0.5612624564034E+01 -0.1200865688435E+01 -0.4467736652848E+00
-0.2530640666822E+00 -0.5584767587943E+01 -0.1167566348323E+01 -0.3458181008898E+00
-0.1660231344614E+00 -0.5539730902113E+01 -0.1141150824319E+01 -0.2632874060054E+00
-0.1118862665413E+00 -0.5491288570912E+01 -0.1120634984189E+01 -0.2003387679541E+00
-0.7792973532266E-01 -0.5445918327989E+01 -0.1104769629125E+01 -0.1531857054816E+00
-0.5648923345010E-01 -0.5405911457865E+01 -0.1092480154542E+01 -0.1175683179796E+00
-0.4304839092993E-01 -0.5371697146340E+01 -0.1082949123591E+01 -0.8999174094543E-01
-0.3491092421415E-01 -0.5342995298549E+01 -0.1075581260580E+01 -0.6780796897351E-01
-0.3043876265137E-01 -0.5319324409225E+01 -0.1069952650319E+01 -0.4904260197755E-01
-0.2862481313449E-01 -0.5300214541696E+01 -0.1065767886847E+01 -0.3220870928513E-01
-0.2885185131626E-01 -0.5285286673180E+01 -0.1062827720737E+01 -0.1615709619898E-01
-0.3075618320557E-01 -0.5274271952326E+01 -0.1061005642917E+01  0.3467563983119E-04
-0.3415216850161E-01 -0.5267003343338E+01 -0.1060231118167E+01  0.1714316751661E-01
-0.3899481617099E-01 -0.5263392313199E+01 -0.1060477441676E+01  0.3585856473181E-01
-0.4536915491059E-01 -0.5263392789856E+01 -0.1061752404775E+01  0.5682771611800E-01
-0.5350159218153E-01 -0.5266947400619E+01 -0.1064089814416E+01  0.8068194911958E-01
-0.6378635178662E-01 -0.5273907860570E+01 -0.1067538858379E+01  0.1080395517168E+00
-0.7680450320462E-01 -0.5283926866101E+01 -0.1072146289837E+01  0.1394617083699E+00
-0.9328027012689E-01 -0.5296345950050E+01 -0.1077925260098E+01  0.1753463799835E+00
-0.1139038492732E+00 -0.5310133648702E+01 -0.1084807515760E+01  0.2157917549772E+00
-0.1390299396403E+00 -0.5323938776643E+01 -0.1092593759538E+01  0.2605407661781E+00
-0.1684182344128E+00 -0.5336339748108E+01 -0.1100951612910E+01  0.3090964753034E+00
-0.2012760187368E+00 -0.5345922821549E+01 -0.1109439784589E+01  0.3609385322559E+00
-0.2366120499642E+00 -0.5350963234177E+01 -0.1117515073481E+01  0.4156169740650E+00
-0.2735972402543E+00 -0.5349059829858E+01 -0.1124531430779E+01  0.4725835399831E+00
-0.3116655690414E+00 -0.5336888051080E+01 -0.1129710740858E+01  0.5308312072368E+00
-0.3502865585056E+00 -0.5310053045900E+01 -0.1132067937750E+01  0.5884739901032E+00
-0.3884776627957E+00 -0.5262939282189E+01 -0.1130283405839E+01  0.6423149174364E+00
-0.4241099668455E+00 -0.5188438284788E+01 -0.1122509667053E+01  0.6872889432044E+00
-0.4528068561418E+00 -0.5077550411681E+01 -0.1106071470046E+01  0.7154638724301E+00
-0.4656035979924E+00 -0.4918822447578E+01 -0.1076885225161E+01  0.7140556728856E+00
-0.4432825612975E+00 -0.4698796169077E+01 -0.1028415761399E+01  0.6620365483591E+00
-0.3435426781738E+00 -0.4407376498844E+01 -0.9501838495625E+00  0.5265279609305E+00
-0.7658736993995E-01 -0.4053787946413E+01 -0.8260750755800E+00  0.2657424215863E+00
 0.5239324583858E+00 -0.3694920844269E+01 -0.6341976866269E+00 -0.1409813494491E+00
 0.1683358841641E+01 -0.3445953381932E+01 -0.3525189133111E+00 -0.6091161415832E+00
 0.3516197354649E+01 -0.3390806000212E+01  0.2507827126096E-01 -0.8517690208868E+00
 0.5716700428825E+01 -0.3387462468501E+01  0.4658475990066E+00 -0.4756905914135E+00
-0.1172442016588E+01 -0.5298017799590E+01 -0.1294091982519E+01 -0.5769097687124E+00
-0.8923480751290E+00 -0.5399425745199E+01 -0.1258354782817E+01 -0.5878028863892E+00
-0.6324597855956E+00 -0.5466568754973E+01 -0.1219805726290E+01 -0.5351358406220E+00
-0.4289294683938E+00 -0.5488726801983E+01 -0.1183531271711E+01 -0.4485702991257E+00
-0.2866461442542E+00 -0.5475037026434E+01 -0.1152336651309E+01 -0.3581180711734E+00
-0.1929330259615E+00 -0.5441512412642E+01 -0.1126889104513E+01 -0.2796595961922E+00
-0.1324956404847E+00 -0.5400817907586E+01 -0.1106662726105E+01 -0.2170731450143E+00
-0.9360450932606E-01 -0.5360101057358E+01 -0.1090741129590E+01 -0.1686362411331E+00
-0.6858554457341E-01 -0.5322599163444E+01 -0.1078236957671E+01 -0.1311658249441E+00
-0.5266670467445E-01 -0.5289471000834E+01 -0.1068427557022E+01 -0.1016411990562E+00
-0.4289650093002E-01 -0.5260919365905E+01 -0.1060763189174E+01 -0.7759710440156E-01
-0.3743532540294E-01 -0.5236761174233E+01 -0.1054839315645E+01 -0.5710924019753E-01
-0.3512953004463E-01 -0.5216698068705E+01 -0.1050365535402E+01 -0.3868350483699E-01
-0.3525999672767E-01 -0.5200436596515E+01 -0.1047139334252E+01 -0.2114204402935E-01
-0.3739496982144E-01 -0.5187733428137E+01 -0.1045025695164E+01 -0.3529273274045E-02
-0.4130599854488E-01 -0.5178402144580E+01 -0.1043941644181E+01  0.1496029752261E-01
-0.4692405822042E-01 -0.5172297664630E+01 -0.1043844360125E+01  0.3503576459268E-01
-0.5432321492208E-01 -0.5169283259331E+01 -0.1044721310418E+01  0.5734673164651E-01
-0.6372453088562E-01 -0.5169178023981E+01 -0.1046580526569E+01  0.8250256993035E-01
-0.7550920922756E-01 -0.5171681988604E+01 -0.1049438255204E+01  0.1110638102552E+00
-0.9021618833210E-01 -0.5176283299537E+01 -0.1053299913269E+01  0.1434901812287E+00
-0.1084779730971E+00 -0.5182173121806E+01 -0.1058130234748E+01  0.1800423373513E+00
-0.1308497567151E+00 -0.5188208272512E+01 -0.1063811621697E+01  0.2206738765147E+00
-0.1575575445476E+00 -0.5192964508933E+01 -0.1070104426642E+01  0.2650008230155E+00
-0.1882949003924E+00 -0.5194959710320E+01 -0.1076650938186E+01  0.3124038037101E+00
-0.2222598847407E+00 -0.5192713297191E+01 -0.1082994652524E+01  0.3621946789422E+00
-0.2584299496445E+00 -0.5184434401769E+01 -0.1088572886504E+01  0.4136681263501E+00
-0.2958298702108E+00 -0.5167669990693E+01 -0.1092699988463E+01  0.4659294686689E+00
-0.3335749276088E+00 -0.5139067839142E+01 -0.1094528569660E+01  0.5175470245723E+00
-0.3706148127685E+00 -0.5094249954958E+01 -0.1092972969832E+01  0.5661281839359E+00
-0.4051997566749E+00 -0.5027722483683E+01 -0.1086584464263E+01  0.6078514081929E+00
-0.4340484898151E+00 -0.4932760442767E+01 -0.1073361802511E+01  0.6368548961631E+00
-0.4509438173186E+00 -0.4801359970828E+01 -0.1050460773282E+01  0.6442505980740E+00
-0.4439100209564E+00 -0.4624389913092E+01 -0.1013660001914E+01  0.6164324943137E+00
-0.3891322702623E+00 -0.4393287648358E+01 -0.9564839979768E+00  0.5327654811013E+00
-0.2390876812247E+00 -0.4106787537769E+01 -0.8691750567504E+00  0.3649398648341E+00
 0.9552710872888E-01 -0.3785446624884E+01 -0.7379839142279E+00  0.8532732070202E-01
 0.7579215989733E+00 -0.3489168805837E+01 -0.5462494495125E+00 -0.3010109348151E+00
 0.1909257516023E+01 -0.3309070554895E+01 -0.2799626119462E+00 -0.6925222191151E+00
 0.3587596602018E+01 -0.3286057024118E+01  0.6030791647853E-01 -0.8448545653748E+00
 0.5515418320756E+01 -0.3286721919732E+01  0.4457392868468E+00 -0.4769035882581E+00
-0.1154262477766E+01 -0.5171880073532E+01 -0.1265228529113E+01 -0.5359323367874E+00
-0.8984960751131E+00 -0.5267265685612E+01 -0.1233152370520E+01 -0.5540840705413E+00
-0.6570523441945E+00 -0.5335618618681E+01 -0.1198534210435E+01 -0.5166663873526E+00
-0.4608041084699E+00 -0.5366216503931E+01 -0.1165404139846E+01 -0.4456008991208E+00
-0.3173548929982E+00 -0.5363808692186E+01 -0.1136232733968E+01 -0.3657273825596E+00
-0.2188306579905E+00 -0.5340442580344E+01 -0.1111854664235E+01 -0.2924848298997E+00
-0.1531028051867E+00 -0.5307221614636E+01 -0.1092064900238E+01 -0.2314783729549E+00
-0.1097243568556E+00 -0.5271371656106E+01 -0.1076219218629E+01 -0.1826965047717E+00
-0.8128743205511E-01 -0.5236732978224E+01 -0.1063604097905E+01 -0.1440251770893E+00
-0.6292177853782E-01 -0.5205047950160E+01 -0.1053593961439E+01 -0.1129941915914E+00
-0.5149837157162E-01 -0.5176949778914E+01 -0.1045689645679E+01 -0.8739280117347E-01
-0.4501281501228E-01 -0.5152540445205E+01 -0.1039510667533E+01 -0.6540018989398E-01
-0.4218125636831E-01 -0.5131695431464E+01 -0.1034775352986E+01 -0.4555262064483E-01
-0.4218886651560E-01 -0.5114214532898E+01 -0.1031280695250E+01 -0.2666995298032E-01
-0.4453680288831E-01 -0.5099889023759E+01 -0.1028885180661E+01 -0.7782789036780E-02
-0.4895170891832E-01 -0.5088522471145E+01 -0.1027494851324E+01  0.1192796465359E-01
-0.5533592448991E-01 -0.5079923318355E+01 -0.1027051863873E+01  0.3317691089896E-01
-0.6374499304713E-01 -0.5073876558684E+01 -0.1027524325658E+01  0.5660376955383E-01
-0.7438318927142E-01 -0.5070095203762E+01 -0.1028895693938E+01  0.8278434811475E-01
-0.8760341887481E-01 -0.5068153244624E+01 -0.1031151348065E+01  0.1122134574826E+00
-0.1038869412215E+00 -0.5067408799354E+01 -0.1034259163527E+01  0.1452496862932E+00
-0.1237661837236E+00 -0.5066940996846E+01 -0.1038141451583E+01  0.1820273352734E+00
-0.1476642304085E+00 -0.5065528341449E+01 -0.1042638529908E+01  0.2223713128738E+00
-0.1756831787653E+00 -0.5061697906965E+01 -0.1047476232755E+01  0.2657811376593E+00
-0.2074402491761E+00 -0.5053926084040E+01 -0.1052273282323E+01  0.3115174172196E+00
-0.2420940724690E+00 -0.5040686186702E+01 -0.1056556067578E+01  0.3587268023592E+00
-0.2785517801699E+00 -0.5020151958920E+01 -0.1059740763609E+01  0.4064582814277E+00
-0.3156558614572E+00 -0.4989870875125E+01 -0.1061105363128E+01  0.4534878760588E+00
-0.3521703040381E+00 -0.4946551974908E+01 -0.1059744471581E+01  0.4979855754587E+00
-0.3864876294491E+00 -0.4885975858098E+01 -0.1054492713223E+01  0.5370988414507E+00
-0.4160404901663E+00 -0.4802984381731E+01 -0.1043804989933E+01  0.5664771453402E+00
-0.4363443463565E+00 -0.4691541824282E+01 -0.1025577249410E+01  0.5796671610468E+00
-0.4393655599021E+00 -0.4545031633024E+01 -0.9968794534398E+00  0.5672470180123E+00
-0.4104353421435E+00 -0.4357022849657E+01 -0.9534916525683E+00  0.5155890654008E+00
-0.3222919518192E+00 -0.4123803145575E+01 -0.8892190327292E+00  0.4057841194209E+00
-0.1251161360514E+00 -0.3851302292339E+01 -0.7952836975288E+00  0.2155570048846E+00
 0.2651187391224E+00 -0.3566604416883E+01 -0.6602971453913E+00 -0.6935499157891E-01
 0.9667215147885E+00 -0.3326246634168E+01 -0.4719050309078E+00 -0.4256488037845E+00
 0.2089911986555E+01 -0.3198471638960E+01 -0.2217119337848E+00 -0.7476276124939E+00
 0.3626456568172E+01 -0.3195901123559E+01  0.8611109020579E-01 -0.8323752770078E+00
 0.5333462494443E+01 -0.3199115808470E+01  0.4268693435554E+00 -0.4778680359482E+00
-0.1135507593478E+01 -0.5051531335090E+01 -0.1237407804152E+01 -0.4980618806767E+00
-0.9005903286746E+00 -0.5141205336728E+01 -0.1208359151087E+01 -0.5218000735674E+00
-0.6759239471234E+00 -0.5209267286988E+01 -0.1177038264362E+01 -0.4966967122267E+00
-0.4877674928072E+00 -0.5245584784992E+01 -0.1146670472647E+01 -0.4391076059440E+00
-0.3450139273878E+00 -0.5252013992663E+01 -0.1119405600691E+01 -0.3694441504334E+00
-0.2433183591949E+00 -0.5237391423211E+01 -0.1096141972815E+01 -0.3020832563392E+00
-0.1733327073867E+00 -0.5211133836680E+01 -0.1076893324860E+01 -0.2435921213196E+00
-0.1260051219935E+00 -0.5180149439931E+01 -0.1061230928199E+01 -0.1952865473549E+00
-0.9439401313553E-01 -0.5148582539863E+01 -0.1048595326225E+01 -0.1560341171822E+00
-0.7367297589356E-01 -0.5118602718547E+01 -0.1038455154362E+01 -0.1239423691414E+00
-0.6061554492446E-01 -0.5091204809082E+01 -0.1030364086155E+01 -0.9710409082119E-01
-0.5309428868876E-01 -0.5066750028164E+01 -0.1023968878629E+01 -0.7384531996596E-01
-0.4971578633329E-01 -0.5045281614577E+01 -0.1018999495366E+01 -0.5276602682530E-01
-0.4957869908846E-01 -0.5026695174453E+01 -0.1015254789837E+01 -0.3270857117979E-01
-0.5211995744079E-01 -0.5010822820172E+01 -0.1012588570611E+01 -0.1270849586462E-01
-0.5702024360229E-01 -0.4997466201103E+01 -0.1010897304005E+01  0.8051947010544E-02
-0.6414915305428E-01 -0.4986397194367E+01 -0.1010109284536E+01  0.3028014657635E-01
-0.7353650024378E-01 -0.4977335389285E+01 -0.1010174392959E+01  0.5459474326027E-01
-0.8535923561671E-01 -0.4969905513549E+01 -0.1011052964899E+01  0.8152891074763E-01
-0.9992899511954E-01 -0.4963579949799E+01 -0.1012701804074E+01  0.1115070960777E+00
-0.1176575166885E+00 -0.4957617149851E+01 -0.1015054948433E+01  0.1447895655189E+00
-0.1389718322066E+00 -0.4951015958412E+01 -0.1017997573293E+01  0.1813948485878E+00
-0.1641654557011E+00 -0.4942504080331E+01 -0.1021333922425E+01  0.2210321019285E+00
-0.1932184327281E+00 -0.4930582156751E+01 -0.1024760133166E+01  0.2630924872850E+00
-0.2256602474365E+00 -0.4913706448336E+01 -0.1027873354471E+01  0.3067197385301E+00
-0.2605824768000E+00 -0.4890330412556E+01 -0.1030182593222E+01  0.3509010796974E+00
-0.2967873122141E+00 -0.4858629220095E+01 -0.1031083321826E+01  0.3944552428193E+00
-0.3329037188117E+00 -0.4816205785123E+01 -0.1029821916132E+01  0.4358560466059E+00
-0.3673192695601E+00 -0.4759914011486E+01 -0.1025446671490E+01  0.4729168686162E+00
-0.3978472848616E+00 -0.4685817458429E+01 -0.1016732963809E+01  0.5023935006836E+00
-0.4210855921746E+00 -0.4589269792501E+01 -0.1002071091867E+01  0.5195300270343E+00
-0.4313619904051E+00 -0.4465151731963E+01 -0.9793027590664E+00  0.5175150710091E+00
-0.4189683370514E+00 -0.4308469880353E+01 -0.9454876575698E+00  0.4868186585539E+00
-0.3670370885433E+00 -0.4115578636268E+01 -0.8965231583214E+00  0.4144975340388E+00
-0.2461401253557E+00 -0.3887105831866E+01 -0.8266492037623E+00  0.2843052780837E+00
-0.6659515746121E-02 -0.3634234183826E+01 -0.7281787507652E+00  0.8048026682611E-01
 0.4272681022174E+00 -0.3386759204634E+01 -0.5918982293033E+00 -0.1998402803495E+00
 0.1150171182434E+01 -0.3194571333190E+01 -0.4088800362439E+00 -0.5216471753791E+00
 0.2233385508373E+01 -0.3106344460001E+01 -0.1745917929272E+00 -0.7827811867717E+00
 0.3642012485811E+01 -0.3116916051508E+01  0.1050192884255E+00 -0.8170997631438E+00
 0.5167382443181E+01 -0.3122072612967E+01  0.4090619721383E+00 -0.4782199233419E+00
-0.1116337369251E+01 -0.4935822564922E+01 -0.1210432004871E+01 -0.4629224834667E+00
-0.8994845735939E+00 -0.5020158138122E+01 -0.1183928559985E+01 -0.4910434329765E+00
-0.6900314704263E+00 -0.5086996144351E+01 -0.1155405540172E+01 -0.4759794327796E+00
-0.5103031824939E+00 -0.5127045391252E+01 -0.1127469731550E+01 -0.4300546193126E+00
-0.3696078230533E+00 -0.5140294107846E+01 -0.1101980402601E+01 -0.3699915379247E+00
-0.2661342932767E+00 -0.5133054811482E+01 -0.1079837837043E+01 -0.3088239949704E+00
-0.1928841621403E+00 -0.5113117853900E+01 -0.1061200419021E+01 -0.2535282513299E+00
-0.1421928415115E+00 -0.5086837019341E+01 -0.1045805987754E+01 -0.2063886638031E+00
-0.1077126608604E+00 -0.5058422998517E+01 -0.1033227147272E+01 -0.1671230753305E+00
-0.8477828493757E-01 -0.5030323222036E+01 -0.1023020316639E+01 -0.1344045083436E+00
-0.7014189599822E-01 -0.5003817458754E+01 -0.1014791886072E+01 -0.1066560155664E+00
-0.6159664283401E-01 -0.4979491565817E+01 -0.1008217656754E+01 -0.8238275711405E-01
-0.5766294299820E-01 -0.4957543753176E+01 -0.1003041354181E+01 -0.6027644136054E-01
-0.5736448136137E-01 -0.4937963525991E+01 -0.9990656163577E+00 -0.3922423953931E-01
-0.6007845559539E-01 -0.4920627388090E+01 -0.9961411835808E+00 -0.1828416803110E-01
-0.6543956616914E-01 -0.4905341801166E+01 -0.9941562882811E+00  0.3346065485931E-02
-0.7328122591971E-01 -0.4891851514292E+01 -0.9930265628395E+00  0.2635491482895E-01
-0.8360099717851E-01 -0.4879823525399E+01 -0.9926849193077E+00  0.5133029118110E-01
-0.9653921724716E-01 -0.4868811666521E+01 -0.9930701915515E+00  0.7875590123488E-01
-0.1123555690823E+00 -0.4858209339447E+01 -0.9941129965192E+00  0.1089836520196E+00
-0.1313834054798E+00 -0.4847201849203E+01 -0.9957170657738E+00  0.1421797567452E+00
-0.1539410227329E+00 -0.4834734478587E+01 -0.9977351151314E+00  0.1782568881868E+00
-0.1801942839185E+00 -0.4819507670207E+01 -0.9999404057254E+00  0.2168194012009E+00
-0.2100010086998E+00 -0.4800016600179E+01 -0.1002003536707E+01  0.2571574678657E+00
-0.2427914687634E+00 -0.4774720010769E+01 -0.1003502310860E+01  0.2983028601004E+00
-0.2775659109905E+00 -0.4742080331453E+01 -0.1003929263448E+01  0.3390927590836E+00
-0.3129923606090E+00 -0.4700313006589E+01 -0.1002661088380E+01  0.3781362414576E+00
-0.3474614785040E+00 -0.4647129878314E+01 -0.9989182862487E+00  0.4136398795199E+00
-0.3789686729762E+00 -0.4579604559590E+01 -0.9917146612909E+00  0.4431137588498E+00
-0.4047433135354E+00 -0.4494186768231E+01 -0.9797860309533E+00  0.4630056011361E+00
-0.4205646782253E+00 -0.4386875267707E+01 -0.9614880035138E+00  0.4682940267056E+00
-0.4196485724840E+00 -0.4253613088341E+01 -0.9346523460924E+00  0.4520492061916E+00
-0.3908462404542E+00 -0.4091120666510E+01 -0.8963933947501E+00  0.4050238482986E+00
-0.3156829184715E+00 -0.3898390411136E+01 -0.8428146784804E+00  0.3155140553726E+00
-0.1637953797224E+00 -0.3679621353159E+01 -0.7686833580306E+00  0.1704663815231E+00
 0.1123306508021E+00 -0.3449388026116E+01 -0.6674114850080E+00 -0.3959722851391E-01
 0.5790169587878E+00 -0.3237490890063E+01 -0.5316947941779E+00 -0.3085234643628E+00
 0.1309584209886E+01 -0.3085945160728E+01 -0.3552721954624E+00 -0.5947451711228E+00
 0.2346507867560E+01 -0.3027662546595E+01 -0.1362309378371E+00 -0.8037566469573E+00
 0.3640674524998E+01 -0.3046826364483E+01  0.1187696338727E+00 -0.8004948060170E+00
 0.5014448173874E+01 -0.3053686761850E+01  0.3921522882483E+00 -0.4777503848440E+00
-0.1096860727283E+01 -0.4823890366902E+01 -0.1184150236482E+01 -0.4302030789382E+00
-0.8958168559277E+00 -0.4903270919994E+01 -0.1159817572467E+01 -0.4618224272161E+00
-0.7001546920575E+00 -0.4968315878989E+01 -0.1133694131103E+01 -0.4550226044015E+00
-0.5288886678134E+00 -0.5010645976238E+01 -0.1107906945319E+01 -0.4191824580339E+00
-0.3912228960925E+00 -0.5029076405326E+01 -0.1084059876437E+01 -0.3679989490689E+00
-0.2871242827033E+00 -0.5027975040876E+01 -0.1063019880556E+01 -0.3130859397087E+00
-0.2115261686138E+00 -0.5013659027556E+01 -0.1045037054806E+01 -0.2614493265421E+00
-0.1580686106127E+00 -0.4991808477245E+01 -0.1029975432919E+01 -0.2160338798779E+00
-0.1210645695267E+00 -0.4966525456776E+01 -0.1017518020423E+01 -0.1772594632760E+00
-0.9609874665736E-01 -0.4940403746645E+01 -0.1007300513670E+01 -0.1443244107383E+00
-0.7996942040498E-01 -0.4914930726649E+01 -0.9989800442967E+00 -0.1159891479745E+00
-0.7043297420906E-01 -0.4890877214224E+01 -0.9922620524726E+00 -0.9095908852468E-01
-0.6594834654970E-01 -0.4868578679529E+01 -0.9869054199217E+00 -0.6803979119497E-01
-0.6547736924960E-01 -0.4848112932131E+01 -0.9827180749199E+00 -0.4618244754699E-01
-0.6834332281932E-01 -0.4829402014435E+01 -0.9795490820473E+00 -0.2448335134430E-01
-0.7413588389474E-01 -0.4812262542070E+01 -0.9772796997555E+00 -0.2168564262037E-02
-0.8264963164118E-01 -0.4796420859263E+01 -0.9758141127216E+00  0.2142093580771E-01
-0.9384425549722E-01 -0.4781503686520E+01 -0.9750696029331E+00  0.4683423863599E-01
-0.1078156042228E+00 -0.4767010419938E+01 -0.9749652193602E+00  0.7450066727789E-01
-0.1247628583308E+00 -0.4752276044488E+01 -0.9754077950985E+00  0.1046992230146E+00
-0.1449344871209E+00 -0.4736435828040E+01 -0.9762740775798E+00  0.1375071528161E+00
-0.1685380242994E+00 -0.4718404324801E+01 -0.9773884843844E+00  0.1727405247088E+00
-0.1956130237991E+00 -0.4696875406530E+01 -0.9784977006466E+00  0.2099086467729E+00
-0.2258937119645E+00 -0.4670358707000E+01 -0.9792504983848E+00  0.2482081986217E+00
-0.2587004482214E+00 -0.4637338292474E+01 -0.9792077627304E+00  0.2865660957639E+00
-0.2929217234055E+00 -0.4596314788864E+01 -0.9778473170250E+00  0.3236823561764E+00
-0.3270681337392E+00 -0.4545581878527E+01 -0.9745300169748E+00  0.3579813527545E+00
-0.3592746648370E+00 -0.4483009396066E+01 -0.9684568266117E+00  0.3874432136153E+00
-0.3871392839670E+00 -0.4405954090917E+01 -0.9586186892614E+00  0.4093359564058E+00
-0.4073203847083E+00 -0.4311331460934E+01 -0.9437303831911E+00  0.4198917796591E+00
-0.4148259444287E+00 -0.4195874599681E+01 -0.9221401225629E+00  0.4139688104810E+00
-0.4018843817027E+00 -0.4056657900746E+01 -0.8917084697772E+00  0.3847456190660E+00
-0.3562004388155E+00 -0.3892084186601E+01 -0.8496569377442E+00  0.3235860903111E+00
-0.2583073320822E+00 -0.3703478228766E+01 -0.7923571239766E+00  0.2204080231324E+00
-0.7797601186303E-01 -0.3497752546233E+01 -0.7151457222757E+00  0.6553135200194E-01
 0.2289046634480E+00 -0.3291293630193E+01 -0.6124778024757E+00 -0.1449020502580E+00
 0.7188096005909E+00 -0.3112174841048E+01 -0.4786730552242E+00 -0.3980673740224E+00
 0.1446968952265E+01 -0.2994536447213E+01 -0.3095135036016E+00 -0.6496159517885E+00
 0.2434906714967E+01 -0.2959091025896E+01 -0.1048368637480E+00 -0.8145343029943E+00
 0.3626967378735E+01 -0.2984032819185E+01  0.1285869138260E+00 -0.7833275453401E+00
 0.4872473560409E+01 -0.2992495433324E+01  0.3759956310197E+00 -0.4763710574214E+00
-0.1077153416772E+01 -0.4715073591568E+01 -0.1158445418930E+01 -0.3996441304542E+00
-0.8900708123838E+00 -0.4789867850185E+01 -0.1135987749441E+01 -0.4341000002035E+00
-0.7069277054914E+00 -0.4852785566473E+01 -0.1111942670962E+01 -0.4341682333773E+00
-0.5439702472856E+00 -0.4896338248440E+01 -0.1088061715358E+01 -0.4070563211485E+00
-0.4100053709646E+00 -0.4918634545241E+01 -0.1065727999122E+01 -0.3640004799303E+00
-0.3062156859047E+00 -0.4922565890033E+01 -0.1045756330771E+01 -0.3152336147996E+00
-0.2290900269899E+00 -0.4913165930691E+01 -0.1028451206861E+01 -0.2675447111486E+00
-0.1734497913245E+00 -0.4895402511879E+01 -0.1013770475747E+01 -0.2242889570154E+00
-0.1342883537712E+00 -0.4873149739658E+01 -0.1001487633609E+01 -0.1864412781630E+00
-0.1075019275215E+00 -0.4849039202165E+01 -0.9913082407089E+00 -0.1536680872622E+00
-0.8999103036770E-01 -0.4824693355488E+01 -0.9829368918181E+00 -0.1250585636179E+00
-0.7951472952220E-01 -0.4801026522244E+01 -0.9761082648984E+00 -0.9952919631733E-01
-0.7449508391574E-01 -0.4778490555385E+01 -0.9705971423232E+00 -0.7601545077770E-01
-0.7384605052314E-01 -0.4757243153416E+01 -0.9662178551856E+00 -0.5354827548326E-01
-0.7684378531255E-01 -0.4737250988002E+01 -0.9628189690100E+00 -0.3127595350553E-01
-0.8303477777765E-01 -0.4718344823211E+01 -0.9602759345069E+00 -0.8464310132509E-02
-0.9217296470292E-01 -0.4700240435015E+01 -0.9584826942261E+00  0.1550712173830E-01
-0.1041755651495E+00 -0.4682535765465E+01 -0.9573422803885E+00  0.4114203136808E-01
-0.1190875196992E+00 -0.4664690984557E+01 -0.9567557151080E+00  0.6881206174857E-01
-0.1370408774119E+00 -0.4646001096886E+01 -0.9566084091142E+00  0.9872427110906E-01
-0.1581946090087E+00 -0.4625571462090E+01 -0.9567532284766E+00  0.1308724836655E+00
-0.1826443836499E+00 -0.4602305652884E+01 -0.9569900215670E+00  0.1649848855208E+00
-0.2103044049943E+00 -0.4574909444580E+01 -0.9570427841759E+00  0.2004848872131E+00
-0.2407834643273E+00 -0.4541925737121E+01 -0.9565418545433E+00  0.2364838143773E+00
-0.2732827296497E+00 -0.4501886089657E+01 -0.9550337780925E+00  0.2718130689447E+00
-0.3065626507314E+00 -0.4453357327767E+01 -0.9519840098854E+00  0.3050514703028E+00
-0.3389593370258E+00 -0.4394746384382E+01 -0.9467411583890E+00  0.3344670208712E+00
-0.3683425586669E+00 -0.4324123617075E+01 -0.9384932491329E+00  0.3578580913418E+00
-0.3919183156661E+00 -0.4239179183990E+01 -0.9262195137329E+00  0.3723162097659E+00
-0.4058037505884E+00 -0.4137349597362E+01 -0.9086306831296E+00  0.3739534956796E+00
-0.4043089737055E+00 -0.4016149400800E+01 -0.8840916880751E+00  0.3576477664960E+00
-0.3788347463215E+00 -0.3873786438746E+01 -0.8505242496873E+00  0.3168858526248E+00
-0.3162618523593E+00 -0.3710222176672E+01 -0.8052968178061E+00  0.2438942729236E+00
-0.1967135183571E+00 -0.3528720753228E+01 -0.7450868654196E+00  0.1304284036114E+00
 0.9050821132510E-02 -0.3338079188113E+01 -0.6658056833174E+00 -0.2990290785997E-01
 0.3409657739111E+00 -0.3155265259356E+01 -0.5628599054763E+00 -0.2362140739616E+00
 0.8460464392460E+00 -0.3005647593067E+01 -0.4319202372004E+00 -0.4710790474227E+00
 0.1564571091785E+01 -0.2916149361938E+01 -0.2703156580586E+00 -0.6899742968371E+00
 0.2503158645991E+01 -0.2898335986941E+01 -0.7903546936765E-01 -0.8178516115452E+00
 0.3604154507429E+01 -0.2927366047655E+01  0.1353576939718E+00 -0.7659816537515E+00
 0.4739672462251E+01 -0.2937355580490E+01  0.3604633817236E+00 -0.4740936353008E+00
-0.1057269149105E+01 -0.4608857538800E+01 -0.1133225354467E+01 -0.3710272248946E+00
-0.8826179808840E+00 -0.4679408682513E+01 -0.1112405349256E+01 -0.4078158597819E+00
-0.7108666494289E+00 -0.4740017408653E+01 -0.1090176827861E+01 -0.4136449195821E+00
-0.5559521705271E+00 -0.4784021644254E+01 -0.1067994778871E+01 -0.3941059607997E+00
-0.4261328856347E+00 -0.4809133726963E+01 -0.1047053338122E+01 -0.3584418458289E+00
-0.3233952671954E+00 -0.4817137194606E+01 -0.1028106507680E+01 -0.3156037415784E+00
-0.2454597741080E+00 -0.4811976236639E+01 -0.1011487217222E+01 -0.2720142868545E+00
-0.1881886629113E+00 -0.4797919548066E+01 -0.9972216570552E+00 -0.2312449105161E+00
-0.1472419232068E+00 -0.4778539382783E+01 -0.9851562758779E+00 -0.1946906343995E+00
-0.1188644449589E+00 -0.4756420493405E+01 -0.9750570022023E+00 -0.1624205310022E+00
-0.1001028549530E+00 -0.4733256124176E+01 -0.9666718102304E+00 -0.1338324208745E+00
-0.8875359994547E-01 -0.4710063564922E+01 -0.9597634472751E+00 -0.1080557982535E+00
-0.8322524333616E-01 -0.4687388621739E+01 -0.9541227872325E+00 -0.8416629011795E-01
-0.8239802225708E-01 -0.4665458507760E+01 -0.9495713201532E+00 -0.6128673189078E-01
-0.8550838803806E-01 -0.4644281949405E+01 -0.9459580815845E+00 -0.3862879571484E-01
-0.9206222691212E-01 -0.4623706600730E+01 -0.9431537795825E+00 -0.1550780793453E-01
-0.1017718674703E+00 -0.4603444518657E+01 -0.9410432912480E+00  0.8650473900712E-02
-0.1145085257665E+00 -0.4583075343842E+01 -0.9395167879215E+00  0.3429919583938E-01
-0.1302612322790E+00 -0.4562033804423E+01 -0.9384590213246E+00  0.6175039007906E-01
-0.1490899716714E+00 -0.4539591278514E+01 -0.9377362640105E+00  0.9114112186957E-01
-0.1710611223537E+00 -0.4514840741289E+01 -0.9371803866935E+00  0.1223876012418E+00
-0.1961581067982E+00 -0.4486691990099E+01 -0.9365700333355E+00  0.1551384912140E+00
-0.2241706055238E+00 -0.4453879280726E+01 -0.9356099911916E+00  0.1887402509957E+00
-0.2545802428053E+00 -0.4414996267183E+01 -0.9339153159140E+00  0.2222278611808E+00
-0.2864615895817E+00 -0.4368642744915E+01 -0.9310208807727E+00  0.2543485940374E+00
-0.3184350229363E+00 -0.4313477347543E+01 -0.9263824879000E+00  0.2835785319501E+00
-0.3486512858816E+00 -0.4248050905517E+01 -0.9193404519789E+00  0.3080599694190E+00
-0.3747131773524E+00 -0.4170668950657E+01 -0.9090764391482E+00  0.3254562013556E+00
-0.3934504779361E+00 -0.4079391379886E+01 -0.8945683848946E+00  0.3327489227141E+00
-0.4004834396204E+00 -0.3972207270435E+01 -0.8745381550427E+00  0.3260232079443E+00
-0.3895177172165E+00 -0.3847422044706E+01 -0.8473879650115E+00  0.3003041929626E+00
-0.3513068036917E+00 -0.3704325256242E+01 -0.8111264240734E+00  0.2495507739421E+00
-0.2722309499260E+00 -0.3544251940334E+01 -0.7632965894260E+00  0.1670231224846E+00
-0.1325152499735E+00 -0.3371983310129E+01 -0.7008997224646E+00  0.4638689484644E-01
 0.9546264033337E-01 -0.3197468565456E+01 -0.6204011942693E+00 -0.1157225426963E+00
 0.4471048534179E+00 -0.3037366424214E+01 -0.5180523218788E+00 -0.3146090927534E+00
 0.9607511348626E+00 -0.2913898554352E+01 -0.3906294897187E+00 -0.5299524742350E+00
 0.1664616355285E+01 -0.2847714273089E+01 -0.2366195870867E+00 -0.7187375674736E+00
 0.2554962414998E+01 -0.2843742478464E+01 -0.5775601355387E-01 -0.8155792088784E+00
 0.3574663012506E+01 -0.2875949144672E+01  0.1397427756492E+00 -0.7486129373033E+00
 0.4614545704058E+01 -0.2887370983121E+01  0.3454349493349E+00 -0.4710297595542E+00
-0.1037246684821E+01 -0.4504835659263E+01 -0.1108416485334E+01 -0.3441669855313E+00
-0.8737473970634E+00 -0.4571457649312E+01 -0.1089041025503E+01 -0.3828990840020E+00
-0.7123928725442E+00 -0.4629674777774E+01 -0.1068413545984E+01 -0.3936033504272E+00
-0.5651937383706E+00 -0.4673570159244E+01 -0.1047752795136E+01 -0.3806572766385E+00
-0.4397957070312E+00 -0.4700663857353E+01 -0.1028091928197E+01 -0.3516907901126E+00
-0.3386914506172E+00 -0.4711916683510E+01 -0.1010121641877E+01 -0.3144989557839E+00
-0.2605625053052E+00 -0.4710364889141E+01 -0.9941854937038E+00 -0.2750570484766E+00
-0.2021694989602E+00 -0.4699621715296E+01 -0.9803582574596E+00 -0.2370074787813E+00
-0.1598029800697E+00 -0.4682918563589E+01 -0.9685443231641E+00 -0.2020476830031E+00
-0.1300736211803E+00 -0.4662730990094E+01 -0.9585609365385E+00 -0.1705823476653E+00
-0.1102060398606E+00 -0.4640768728195E+01 -0.9501949677702E+00 -0.1422902933419E+00
-0.9806313464035E-01 -0.4618114385847E+01 -0.9432355181527E+00 -0.1165087701852E+00
-0.9206128581667E-01 -0.4595385116058E+01 -0.9374892943447E+00 -0.9245856747185E-01
-0.9106075878403E-01 -0.4572866119665E+01 -0.9327853895893E+00 -0.6936299769683E-01
-0.9426601509506E-01 -0.4550604340700E+01 -0.9289740850019E+00 -0.4650612043038E-01
-0.1011455177364E+00 -0.4528465945563E+01 -0.9259223064572E+00 -0.2326073203277E-01
-0.1113698210122E+00 -0.4506165096317E+01 -0.9235069972272E+00  0.8949940341190E-03
-0.1247616522232E+00 -0.4483272471726E+01 -0.9216068385229E+00  0.2635986103046E-01
-0.1412504613708E+00 -0.4459209644057E+01 -0.9200920347960E+00  0.5338551516024E-01
-0.1608207203070E+00 -0.4433238735937E+01 -0.9188119049402E+00  0.8204172978034E-01
-0.1834443790380E+00 -0.4404455564900E+01 -0.9175800024606E+00  0.1121730805153E+00
-0.2089928593771E+00 -0.4371791178065E+01 -0.9161568211402E+00  0.1433568509288E+00
-0.2371322668314E+00 -0.4334023128589E+01 -0.9142310927072E+00  0.1748715387109E+00
-0.2672158859700E+00 -0.4289811746568E+01 -0.9114055400887E+00  0.2056856934663E+00
-0.2981864447319E+00 -0.4237843792454E+01 -0.9072060609556E+00  0.2344755430565E+00
-0.3285164281868E+00 -0.4176892108188E+01 -0.9010817207022E+00  0.2596347138727E+00
-0.3561662582588E+00 -0.4105676817015E+01 -0.8923686283522E+00  0.2792117139429E+00
-0.3784773482212E+00 -0.4022764719433E+01 -0.8802484266477E+00  0.2907816777728E+00
-0.3919281920652E+00 -0.3926607925023E+01 -0.8637072362879E+00  0.2912813301563E+00
-0.3916982439108E+00 -0.3815757897735E+01 -0.8414912408683E+00  0.2768550229509E+00
-0.3709953095380E+00 -0.3689288754545E+01 -0.8120568249172E+00  0.2427848565788E+00
-0.3201132165879E+00 -0.3547480512473E+01 -0.7735187573385E+00  0.1836254391564E+00
-0.2252350265131E+00 -0.3392823432606E+01 -0.7236117026065E+00  0.9376620032645E-01
-0.6711002139125E-01 -0.3231205815459E+01 -0.6596631771999E+00 -0.3125623683100E-01
 0.1798427760598E+00 -0.3073124244176E+01 -0.5786563022460E+00 -0.1921459441071E+00
 0.5464460278561E+00 -0.2934329406498E+01 -0.4775766828448E+00 -0.3812869182673E+00
 0.1063334591209E+01 -0.2833814909234E+01 -0.3540960688815E+00 -0.5768076850479E+00
 0.1749175299642E+01 -0.2786940806572E+01 -0.2075531044789E+00 -0.7381940194076E+00
 0.2593285374452E+01 -0.2794028670635E+01 -0.4014865983481E-01 -0.8089814639269E+00
 0.3540395684090E+01 -0.2829098265670E+01  0.1422594858039E+00 -0.7311973615280E+00
 0.4495764411443E+01 -0.2841856960086E+01  0.3307814952005E+00 -0.4674258490170E+00
-0.1017114442405E+01 -0.4402682676175E+01 -0.1083959439868E+01 -0.3189047784626E+00
-0.8636865718462E+00 -0.4465660167429E+01 -0.1065869363738E+01 -0.3592752888284E+00
-0.7118517464802E+00 -0.4521467448423E+01 -0.1046663854577E+01 -0.3741403918481E+00
-0.5720106236243E+00 -0.4564848545911E+01 -0.1027371849216E+01 -0.3669568119691E+00
-0.4511847786365E+00 -0.4593263444838E+01 -0.1008889659729E+01 -0.3440482836889E+00
-0.3521606173542E+00 -0.4607068341005E+01 -0.9918458064515E+00 -0.3121860406240E+00
-0.2743594454149E+00 -0.4608552951060E+01 -0.9765824938472E+00 -0.2768635934927E+00
-0.2153048386134E+00 -0.4600734710436E+01 -0.9632079241628E+00 -0.2416895969055E+00
-0.1718685071923E+00 -0.4586490616290E+01 -0.9516718388775E+00 -0.2085652012742E+00
-0.1410283871335E+00 -0.4568144016544E+01 -0.9418344947700E+00 -0.1781664584188E+00
-0.1202080712338E+00 -0.4547377262442E+01 -0.9335170806456E+00 -0.1504213823177E+00
-0.1073600648758E+00 -0.4525304790548E+01 -0.9265329848912E+00 -0.1248643195733E+00
-0.1009272359668E+00 -0.4502593404352E+01 -0.9207041417833E+00 -0.1008616996622E+00
-0.9976275281939E-01 -0.4479574322351E+01 -0.9158674286815E+00 -0.7774258698477E-01
-0.1030467994132E+00 -0.4456327995142E+01 -0.9118749724991E+00 -0.5487004916446E-01
-0.1102140332992E+00 -0.4432739763820E+01 -0.9085907729629E+00 -0.3168053332291E-01
-0.1208937933777E+00 -0.4408530708825E+01 -0.9058849139392E+00 -0.7709362230614E-02
-0.1348588199787E+00 -0.4383270704900E+01 -0.9036259184408E+00  0.1738536716272E-01
-0.1519765320545E+00 -0.4356378953316E+01 -0.9016711105100E+00  0.4379512452608E-01
-0.1721537359918E+00 -0.4327120831682E+01 -0.8998549269437E+00  0.7152568016439E-01
-0.1952671857394E+00 -0.4294608174527E+01 -0.8979750854341E+00  0.1003560833497E+00
-0.2210771496904E+00 -0.4257806356024E+01 -0.8957767144910E+00  0.1298002781771E+00
-0.2491274510376E+00 -0.4215549322842E+01 -0.8929353680817E+00  0.1590779575467E+00
-0.2786427453611E+00 -0.4166578208839E+01 -0.8890442040878E+00  0.1871019643081E+00
-0.3084309744359E+00 -0.4109683024155E+01 -0.8836228128851E+00  0.2124918515995E+00
-0.3368129514297E+00 -0.4043769497503E+01 -0.8761165028417E+00  0.2335801861091E+00
-0.3615593075730E+00 -0.3967746734947E+01 -0.8658612214063E+00  0.2483538401305E+00
-0.3797622398155E+00 -0.3880460231224E+01 -0.8520445069043E+00  0.2543453679933E+00
-0.3875815423754E+00 -0.3780763740099E+01 -0.8336690689175E+00  0.2485072278314E+00
-0.3798203785524E+00 -0.3667762065785E+01 -0.8095165009303E+00  0.2271194912058E+00
-0.3493018598811E+00 -0.3541251115273E+01 -0.7781106066255E+00  0.1858097792402E+00
-0.2860437275151E+00 -0.3402384458161E+01 -0.7376856481275E+00  0.1198118956731E+00
-0.1763009747697E+00 -0.3254578757638E+01 -0.6861759567063E+00  0.2467509463850E-01
-0.1674944275355E-02 -0.3104458138944E+01 -0.6212266259008E+00 -0.1023126257175E+00
 0.2611280710163E+00 -0.2962593951643E+01 -0.5402931841763E+00 -0.2596056191430E+00
 0.6385106187068E+00 -0.2843464179105E+01 -0.4409907186509E+00 -0.4374659283777E+00
 0.1154441154290E+01 -0.2762965752327E+01 -0.3217049244011E+00 -0.6134722156417E+00
 0.1820097142626E+01 -0.2732128288766E+01 -0.1824062319462E+00 -0.7501688386935E+00
 0.2620473946675E+01 -0.2748046127390E+01 -0.2551443652329E-01 -0.7989089474553E+00
 0.3502943152709E+01 -0.2786282584057E+01  0.1433321158662E+00 -0.7135092659397E+00
 0.4382155753608E+01 -0.2800181719921E+01  0.3163948114519E+00 -0.4637063389033E+00
-0.9968935674826E+00 -0.4302135373398E+01 -0.1059805803968E+01 -0.2951038105969E+00
-0.8526165544549E+00 -0.4361725216109E+01 -0.1042868369653E+01 -0.3368706455413E+00
-0.7095277305460E+00 -0.4415145973254E+01 -0.1024934756033E+01 -0.3553155438258E+00
-0.5766782383766E+00 -0.4457721817336E+01 -0.1006880026146E+01 -0.3531905278196E+00
-0.4604844618041E+00 -0.4486936587876E+01 -0.9894842246805E+00 -0.3357591687361E+00
-0.3638768302735E+00 -0.4502707309842E+01 -0.9733168425266E+00 -0.3088968465509E+00
-0.2868381687155E+00 -0.4506716169121E+01 -0.9587108818532E+00 -0.2776115495772E+00
-0.2275314982961E+00 -0.4501450744438E+01 -0.9457964626403E+00 -0.2454057114092E+00
-0.1833535830660E+00 -0.4489437731903E+01 -0.9345582769197E+00 -0.2143039898506E+00
-0.1516395828292E+00 -0.4472821210442E+01 -0.9248921724363E+00 -0.1851950328411E+00
-0.1300236725411E+00 -0.4453222259561E+01 -0.9166492000795E+00 -0.1582227196536E+00
-0.1165653480744E+00 -0.4431758480424E+01 -0.9096647792548E+00 -0.1331040768810E+00
-0.1097496875281E+00 -0.4409126327101E+01 -0.9037752163932E+00 -0.1093479462649E+00
-0.1084344223375E+00 -0.4385691210545E+01 -0.8988251399700E+00 -0.8639143988331E-01
-0.1117829173629E+00 -0.4361561858319E+01 -0.8946689684680E+00 -0.6368099108220E-01
-0.1191999254894E+00 -0.4336642659683E+01 -0.8911685303138E+00 -0.4072113465459E-01
-0.1302747595833E+00 -0.4310665468574E+01 -0.8881880588665E+00 -0.1710767467790E-01
-0.1447295767872E+00 -0.4283206340976E+01 -0.8855871967489E+00  0.7442972276557E-02
-0.1623684118167E+00 -0.4253691433375E+01 -0.8832119821992E+00  0.3306315384868E-01
-0.1830193847608E+00 -0.4221400155953E+01 -0.8808839212690E+00  0.5969839872189E-01
-0.2064642182345E+00 -0.4185471675021E+01 -0.8783871917402E+00  0.8706844503359E-01
-0.2323534800744E+00 -0.4144916972360E+01 -0.8754541035321E+00  0.1146319025127E+00
-0.2601105274859E+00 -0.4098637758420E+01 -0.8717496701712E+00  0.1415590136165E+00
-0.2888321934800E+00 -0.4045468122649E+01 -0.8668600761429E+00  0.1667182724203E+00
-0.3171910156940E+00 -0.3984314885276E+01 -0.8603011930135E+00  0.1886877643172E+00
-0.3433561121928E+00 -0.3914231355291E+01 -0.8515175061853E+00  0.2057608236149E+00
-0.3649137524833E+00 -0.3834329505259E+01 -0.8398486640631E+00  0.2158941268956E+00
-0.3787246870776E+00 -0.3743742626028E+01 -0.8244934749071E+00  0.2166205702881E+00
-0.3806684591286E+00 -0.3641723867645E+01 -0.8044784773423E+00  0.2049630854156E+00
-0.3652414620456E+00 -0.3527906856143E+01 -0.7786296752401E+00  0.1774019968235E+00
-0.3249958779023E+00 -0.3402744642948E+01 -0.7455481152795E+00  0.1299768519259E+00
-0.2498443206510E+00 -0.3268133945438E+01 -0.7035956637021E+00  0.5864699176818E-01
-0.1263409977874E+00 -0.3128195434815E+01 -0.6509072962198E+00 -0.3990019416883E-01
 0.6282362794742E-01 -0.2989970217543E+01 -0.5854293266427E+00 -0.1667963678271E+00
 0.3385498692847E+00 -0.2863754682138E+01 -0.5050409700964E+00 -0.3186614690425E+00
 0.7231170687891E+00 -0.2762564351436E+01 -0.4078894626074E+00 -0.4843152162512E+00
 0.1234810048554E+01 -0.2699452907874E+01 -0.2929285762290E+00 -0.6415145198910E+00
 0.1879105994282E+01 -0.2681961888954E+01 -0.1605711813271E+00 -0.7560646825387E+00
 0.2638077574164E+01 -0.2704978977147E+01 -0.1338028079608E-01 -0.7862094709695E+00
 0.3464261739653E+01 -0.2746179268999E+01  0.1436164962707E+00 -0.6946613780946E+00
 0.4271246747573E+01 -0.2762929322368E+01  0.3016634895360E+00 -0.4611075090620E+00
-0.9766036896693E+00 -0.4202981757100E+01 -0.1035917104790E+01 -0.2726480196790E+00
-0.8406865878683E+00 -0.4259424458609E+01 -0.1020022224495E+01 -0.3156175827475E+00
-0.7056598497633E+00 -0.4310516622238E+01 -0.1003235309350E+01 -0.3371673726027E+00
-0.5794381299831E+00 -0.4352089439607E+01 -0.9863055286152E+00 -0.3395036235277E+00
-0.4678687103779E+00 -0.4381701906317E+01 -0.9699141377919E+00 -0.3270267856582E+00
-0.3739225970776E+00 -0.4398956406989E+01 -0.9545758150375E+00 -0.3048346734369E+00
-0.2980025849675E+00 -0.4405044748508E+01 -0.9406094807112E+00 -0.2774655398169E+00
-0.2388017751221E+00 -0.4401990918774E+01 -0.9281585526100E+00 -0.2482683459782E+00
-0.1941838437879E+00 -0.4391987128220E+01 -0.9172342080694E+00 -0.2193280639981E+00
-0.1618230548541E+00 -0.4376983892694E+01 -0.9077614030364E+00 -0.1916941281647E+00
-0.1395679546793E+00 -0.4358516289357E+01 -0.8996168622126E+00 -0.1656934043304E+00
-0.1255969810191E+00 -0.4337681566266E+01 -0.8926557227585E+00 -0.1412088465052E+00
-0.1184500245699E+00 -0.4315188141052E+01 -0.8867276463377E+00 -0.1178855515101E+00
-0.1169995421282E+00 -0.4291424486802E+01 -0.8816848189241E+00 -0.9526833559319E-01
-0.1203990457218E+00 -0.4266522253133E+01 -0.8773842728450E+00 -0.7288919945538E-01
-0.1280274089698E+00 -0.4240404212475E+01 -0.8736863373078E+00 -0.5032346689014E-01
-0.1394356465521E+00 -0.4212816043978E+01 -0.8704503510766E+00 -0.2722933883925E-01
-0.1542955816020E+00 -0.4183345912199E+01 -0.8675283116873E+00 -0.3381823519072E-02
-0.1723475665102E+00 -0.4151434922836E+01 -0.8647565107551E+00  0.2129421764664E-01
-0.1933411327580E+00 -0.4116385722955E+01 -0.8619453839866E+00  0.4668836633318E-01
-0.2169641471150E+00 -0.4077374419741E+01 -0.8588677261692E+00  0.7246751232534E-01
-0.2427597841666E+00 -0.4033467145010E+01 -0.8552453985795E+00  0.9804309134782E-01
-0.2700336935413E+00 -0.3983642897556E+01 -0.8507353308964E+00  0.1225455726983E+00
-0.2977572491533E+00 -0.3926838600459E+01 -0.8449191825127E+00  0.1448110261932E+00
-0.3244696193069E+00 -0.3862088318066E+01 -0.8373115999515E+00  0.1633918075805E+00
-0.3481920578019E+00 -0.3788603210467E+01 -0.8273590659824E+00  0.1765637574594E+00
-0.3663366688260E+00 -0.3705705824645E+01 -0.8144085108298E+00  0.1822833418648E+00
-0.3755556728705E+00 -0.3612817943506E+01 -0.7976747351615E+00  0.1781229862000E+00
-0.3714915393075E+00 -0.3509578861182E+01 -0.7762140916644E+00  0.1612234002996E+00
-0.3484059854376E+00 -0.3396113285007E+01 -0.7489038652484E+00  0.1283161979134E+00
-0.2986902766152E+00 -0.3273453932720E+01 -0.7144288525128E+00  0.7589651600189E-01
-0.2123044371400E+00 -0.3144105049027E+01 -0.6712819072362E+00  0.6613332485572E-03
-0.7628326588005E-01 -0.3012685238069E+01 -0.6177937099957E+00 -0.9962753743310E-01
 0.1254404785670E+00 -0.2886390545990E+01 -0.5521900217128E+00 -0.2247241608721E+00
 0.4113823542062E+00 -0.2774999828340E+01 -0.4727235018709E+00 -0.3698112463262E+00
 0.8000732857750E+00 -0.2690006285108E+01 -0.3779866054990E+00 -0.5228277686585E+00
 0.1305059763908E+01 -0.2641934867374E+01 -0.2673750246774E+00 -0.6622151608400E+00
 0.1927446911683E+01 -0.2635552826209E+01 -0.1416211850154E+00 -0.7570119075187E+00
 0.2647997420543E+01 -0.2664350930324E+01 -0.3270702004892E-02 -0.7715547060980E+00
 0.3422363156793E+01 -0.2707596894816E+01  0.1429532545256E+00 -0.6746814638897E+00
 0.4178320967193E+01 -0.2729687138253E+01  0.2897267701053E+00 -0.4589218598098E+00
-0.9562509199627E+00 -0.4105042275457E+01 -0.1012258654168E+01 -0.2514284596279E+00
-0.8280116232737E+00 -0.4158556153931E+01 -0.9973135703021E+00 -0.2954456021063E+00
-0.7004405407901E+00 -0.4207393786693E+01 -0.9815668801231E+00 -0.3197077189595E+00
-0.5804953347656E+00 -0.4247829064317E+01 -0.9656648942061E+00 -0.3259967695499E+00
-0.4734967517812E+00 -0.4277525845942E+01 -0.9502045337038E+00 -0.3180076075081E+00
-0.3823860968512E+00 -0.4295865235799E+01 -0.9356502804724E+00 -0.3001664713776E+00
-0.3078744168501E+00 -0.4303645909057E+01 -0.9223040789248E+00 -0.2765688653645E+00
-0.2490898951088E+00 -0.4302491136794E+01 -0.9103162199453E+00 -0.2503816995562E+00
-0.2043061409765E+00 -0.4294281408505E+01 -0.8997175233032E+00 -0.2237016376727E+00
-0.1715133483132E+00 -0.4280768939435E+01 -0.8904564708185E+00 -0.1976944052277E+00
-0.1487722112632E+00 -0.4263385839510E+01 -0.8824316233039E+00 -0.1728387382028E+00
-0.1343873991272E+00 -0.4243190354697E+01 -0.8755155638110E+00 -0.1491656523633E+00
-0.1269632997857E+00 -0.4220887658154E+01 -0.8695702045455E+00 -0.1264482526152E+00
-0.1253957331707E+00 -0.4196879088870E+01 -0.8644549772895E+00 -0.1043365865910E+00
-0.1288347437814E+00 -0.4171313909033E+01 -0.8600297433783E+00 -0.8244858012234E-01
-0.1366373805799E+00 -0.4144132147117E+01 -0.8561539182970E+00 -0.6043153711310E-01
-0.1483185219960E+00 -0.4115095561460E+01 -0.8526828293971E+00 -0.3800676498574E-01
-0.1635006152379E+00 -0.4083809275184E+01 -0.8494619907423E+00 -0.1500722026771E-01
-0.1818608947983E+00 -0.4049736006453E+01 -0.8463193928614E+00  0.8587548095943E-02
-0.2030712719030E+00 -0.4012209318269E+01 -0.8430561305970E+00  0.3261575592537E-01
-0.2267276793593E+00 -0.3970450244356E+01 -0.8394355972517E+00  0.5669793386953E-01
-0.2522688168496E+00 -0.3923587945620E+01 -0.8351713649390E+00  0.8020643377265E-01
-0.2788860875771E+00 -0.3870686436253E+01 -0.8299145171328E+00  0.1022416375531E+00
-0.3054289699017E+00 -0.3810793140822E+01 -0.8232444344119E+00  0.1216191982715E+00
-0.3303073288431E+00 -0.3743076852020E+01 -0.8146768483123E+00  0.1368813447878E+00
-0.3514012654378E+00 -0.3666912875633E+01 -0.8036628401897E+00  0.1463072573144E+00
-0.3659622514349E+00 -0.3581836789192E+01 -0.7895598198908E+00  0.1478807824661E+00
-0.3704599957979E+00 -0.3487552890744E+01 -0.7716025888061E+00  0.1392483414715E+00
-0.3603448694366E+00 -0.3384065423782E+01 -0.7488820698030E+00  0.1177075271998E+00
-0.3297144943408E+00 -0.3271944286276E+01 -0.7203317668572E+00  0.8027898250896E-01
-0.2709004753399E+00 -0.3152719197456E+01 -0.6847239447624E+00  0.2393709971449E-01
-0.1740401167524E+00 -0.3029370860630E+01 -0.6406822050234E+00 -0.5389773442682E-01
-0.2678581189689E-01 -0.2906834834675E+01 -0.5867241380572E+00 -0.1544792091782E+00
 0.1856034132295E+00 -0.2792256605007E+01 -0.5213306461238E+00 -0.2763947765726E+00
 0.4793413578182E+00 -0.2694742284396E+01 -0.4430801919179E+00 -0.4137464908969E+00
 0.8696198617712E+00 -0.2624287409144E+01 -0.3509335147038E+00 -0.5540391755400E+00
 0.1366059132188E+01 -0.2589217782728E+01 -0.2446317337535E+00 -0.6767205800272E+00
 0.1966551948005E+01 -0.2592113395741E+01 -0.1251122914116E+00 -0.7539737106958E+00
 0.2651217483487E+01 -0.2625641850622E+01  0.5115126649064E-02 -0.7551465677226E+00
 0.3379268453581E+01 -0.2670230639816E+01  0.1418075648662E+00 -0.6553292666286E+00
 0.4094540679205E+01 -0.2697931300345E+01  0.2793218799341E+00 -0.4492497165973E+00
-0.9358467034457E+00 -0.4008166850950E+01 -0.9888027256135E+00 -0.2313550624953E+00
-0.8146878855524E+00 -0.4058940405881E+01 -0.9747256728112E+00 -0.2762900441860E+00
-0.6940343702886E+00 -0.4105598687093E+01 -0.9599266257803E+00 -0.3029373177453E+00
-0.5800315562025E+00 -0.4144800375159E+01 -0.9449664003533E+00 -0.3127445665861E+00
-0.4775193336583E+00 -0.4174330309593E+01 -0.9303699425139E+00 -0.3088279655563E+00
-0.3893621948158E+00 -0.4193418235882E+01 -0.9165560997973E+00 -0.2950352398993E+00
-0.3164918728880E+00 -0.4202549696476E+01 -0.9038083273406E+00 -0.2750518551723E+00
-0.2583902724295E+00 -0.4203004797879E+01 -0.8922790273577E+00 -0.2518476304913E+00
-0.2136871115506E+00 -0.4196378582812E+01 -0.8820131520156E+00 -0.2274943941273E+00
-0.1806625874948E+00 -0.4184227032268E+01 -0.8729779369610E+00 -0.2032367392666E+00
-0.1575828771568E+00 -0.4167868607577E+01 -0.8650903098377E+00 -0.1796766887250E+00
-0.1428822869504E+00 -0.4148308241399E+01 -0.8582381184587E+00 -0.1569752576860E+00
-0.1352367360831E+00 -0.4126235078339E+01 -0.8522943755846E+00 -0.1350239404769E+00
-0.1335725423256E+00 -0.4102054159871E+01 -0.8471253530625E+00 -0.1135739000318E+00
-0.1370420149785E+00 -0.4075927197142E+01 -0.8425938549798E+00 -0.9232782700714E-01
-0.1449843585060E+00 -0.4047809941386E+01 -0.8385588724738E+00 -0.7100493058611E-01
-0.1568807868779E+00 -0.4017481704786E+01 -0.8348725107734E+00 -0.4938934596103E-01
-0.1723058811018E+00 -0.3984568352602E+01 -0.8313748591292E+00 -0.2737063345197E-01
-0.1908749854487E+00 -0.3948559583820E+01 -0.8278869261902E+00 -0.4980109717147E-02
-0.2121839995544E+00 -0.3908826108145E+01 -0.8242020338214E+00  0.1757375787591E-01
-0.2357393575292E+00 -0.3864640356397E+01 -0.8200759550053E+00  0.3987150151990E-01
-0.2608786030576E+00 -0.3815200851423E+01 -0.8152159030437E+00  0.6125425516304E-01
-0.2866828361677E+00 -0.3759662682293E+01 -0.8092691157511E+00  0.8080179075230E-01
-0.3118840786166E+00 -0.3697189435786E+01 -0.8018147148285E+00  0.9732109745162E-01
-0.3347684379101E+00 -0.3627089535076E+01 -0.7923716064044E+00  0.1093592941774E+00
-0.3530835676650E+00 -0.3548905390984E+01 -0.7803978033587E+00  0.1152183408419E+00
-0.3639359186986E+00 -0.3462383919954E+01 -0.7652639791339E+00  0.1129342361311E+00
-0.3636401132047E+00 -0.3367501142532E+01 -0.7462282622671E+00  0.1002569221680E+00
-0.3474989632211E+00 -0.3264600122358E+01 -0.7224198278807E+00  0.7467208083054E-01
-0.3095123243209E+00 -0.3154646480449E+01 -0.6928317712779E+00  0.3351534601518E-01
-0.2420419801501E+00 -0.3039585304899E+01 -0.6563254667899E+00 -0.2575198204941E-01
-0.1355091337356E+00 -0.2922754081800E+01 -0.6116526522214E+00 -0.1050185809232E+00
 0.2171834218340E-01 -0.2809253553697E+01 -0.5575070506101E+00 -0.2046566060198E+00
 0.2430226204585E+00 -0.2706025084977E+01 -0.4926005002441E+00 -0.3222901200169E+00
 0.5424444230835E+00 -0.2621413610022E+01 -0.4157938435836E+00 -0.4512480262103E+00
 0.9322307154004E+00 -0.2563993411079E+01 -0.3263525439988E+00 -0.5789426133680E+00
 0.1418790197236E+01 -0.2540198734141E+01 -0.2242817107230E+00 -0.6860347279281E+00
 0.1997634195119E+01 -0.2550921304112E+01 -0.1106574234474E+00 -0.7476359311434E+00
 0.2648860740961E+01 -0.2588278695050E+01  0.1211640936267E-01 -0.7375147482454E+00
 0.3335697064288E+01 -0.2634346427880E+01  0.1402701293718E+00 -0.6356012451360E+00
 0.4012232032854E+01 -0.2665632777660E+01  0.2693198550519E+00 -0.4379392875485E+00
-0.9153982395849E+00 -0.3912230629450E+01 -0.9655257881944E+00 -0.2123465566611E+00
-0.8007952470124E+00 -0.3960435206450E+01 -0.9522461048821E+00 -0.2580920747890E+00
-0.6865791447419E+00 -0.4004994159024E+01 -0.9383146747352E+00 -0.2868501946854E+00
-0.5782029139641E+00 -0.4042901658961E+01 -0.9242209283570E+00 -0.2998031061451E+00
-0.4800704117514E+00 -0.4072069997666E+01 -0.9104280954498E+00 -0.2995901168603E+00
-0.3949393567304E+00 -0.4091629664420E+01 -0.8973138176011E+00 -0.2895614987305E+00
-0.3238940624439E+00 -0.4101818359367E+01 -0.8851424975518E+00 -0.2730278313081E+00
-0.2667013110679E+00 -0.4103624590923E+01 -0.8740651934227E+00 -0.2527567334280E+00
-0.2222972965699E+00 -0.4098385657015E+01 -0.8641366035936E+00 -0.2307687336567E+00
-0.1892251010278E+00 -0.4087468297087E+01 -0.8553386923685E+00 -0.2083565243227E+00
-0.1659464497017E+00 -0.4072071859236E+01 -0.8476036744179E+00 -0.1862198088296E+00
-0.1510254195519E+00 -0.4053137634921E+01 -0.8408326234239E+00 -0.1646319878156E+00
-0.1432140513512E+00 -0.4031328430551E+01 -0.8349085088215E+00 -0.1435924819518E+00
-0.1414747894898E+00 -0.4007045068378E+01 -0.8297039839371E+00 -0.1229481491933E+00
-0.1449672072934E+00 -0.3980456927513E+01 -0.8250848392561E+00 -0.1024839530118E+00
-0.1530164782941E+00 -0.3951533760726E+01 -0.8209100600366E+00 -0.8198975559802E-01
-0.1650728531690E+00 -0.3920073327015E+01 -0.8170292482115E+00 -0.6131128366414E-01
-0.1806650469187E+00 -0.3885725141294E+01 -0.8132780497613E+00 -0.4039264696767E-01
-0.1993483727180E+00 -0.3848010149874E+01 -0.8094717165804E+00 -0.1931356215853E-01
-0.2206449882112E+00 -0.3806341178658E+01 -0.8053972453752E+00  0.1675699952057E-02
-0.2439748824988E+00 -0.3760047162007E+01 -0.8008044208341E+00  0.2212203787143E-01
-0.2685783651225E+00 -0.3708400851802E+01 -0.7953958552371E+00  0.4134313892488E-01
-0.2934309217990E+00 -0.3650652803013E+01 -0.7888167567167E+00  0.5840750131802E-01
-0.3171526680500E+00 -0.3586086367544E+01 -0.7806478187514E+00  0.7212491859718E-01
-0.3379130983472E+00 -0.3514151874116E+01 -0.7704130059727E+00  0.8106171329764E-01
-0.3533380860313E+00 -0.3434558492227E+01 -0.7575793269404E+00  0.8356050667872E-01
-0.3604065624728E+00 -0.3347258799195E+01 -0.7415330833833E+00  0.7773123837686E-01
-0.3553065375008E+00 -0.3252485314042E+01 -0.7215583810605E+00  0.6145185086609E-01
-0.3332368021484E+00 -0.3150889608943E+01 -0.6968252926017E+00  0.3241952148553E-01
-0.2881607747853E+00 -0.3043781214617E+01 -0.6663884078104E+00 -0.1170028151099E-01
-0.2125483130975E+00 -0.2933441507897E+01 -0.6291979735747E+00 -0.7296586517528E-01
-0.9718867695430E-01 -0.2823457281129E+01 -0.5841292003208E+00 -0.1526220116920E+00
 0.6877162532581E-01 -0.2718969710261E+01 -0.5300396248853E+00 -0.2502700682794E+00
 0.2973660373915E+00 -0.2626605833326E+01 -0.4658479661286E+00 -0.3627623070914E+00
 0.6006209202524E+00 -0.2553911991690E+01 -0.3906582201087E+00 -0.4829156115438E+00
 0.9882208336903E+00 -0.2508148359364E+01 -0.3039855096644E+00 -0.5983096379838E+00
 0.1463964508325E+01 -0.2494149617286E+01 -0.2060370248624E+00 -0.6909225425455E+00
 0.2021657823560E+01 -0.2511500978569E+01 -0.9796863246167E-01 -0.7385791933094E+00
 0.2641822310814E+01 -0.2552095115338E+01  0.1794543936241E-01 -0.7188590510926E+00
 0.3291567539305E+01 -0.2599673503381E+01  0.1383788092469E+00 -0.6154777062594E+00
 0.3931827309697E+01 -0.2634137818711E+01  0.2595379020646E+00 -0.4250829932070E+00
-0.8949111460409E+00 -0.3817127933603E+01 -0.9424078299718E+00 -0.1943303806604E+00
-0.7864001538899E+00 -0.3862919478876E+01 -0.9298639404092E+00 -0.2407969497226E+00
-0.6781914940763E+00 -0.3905461253956E+01 -0.9167305632667E+00 -0.2714344164659E+00
-0.5751451219209E+00 -0.3942040543009E+01 -0.9034371464483E+00 -0.2872123371661E+00
-0.4812712921409E+00 -0.3970697712739E+01 -0.8903938142438E+00 -0.2903752480006E+00
-0.3992030153101E+00 -0.3990502577275E+01 -0.8779411315994E+00 -0.2838459131340E+00
-0.3301245835237E+00 -0.4001498014949E+01 -0.8663245326039E+00 -0.2705953679049E+00
-0.2740299132912E+00 -0.4004426361967E+01 -0.8556912678024E+00 -0.2531908543879E+00
-0.2301167714743E+00 -0.4000394755967E+01 -0.8461023180961E+00 -0.2335832207689E+00
-0.1971640349880E+00 -0.3990590957012E+01 -0.8375510108805E+00 -0.2130884600199E+00
-0.1738168593385E+00 -0.3976093820273E+01 -0.8299821482900E+00 -0.1924814816779E+00
-0.1587666346659E+00 -0.3957774099702E+01 -0.8233081591418E+00 -0.1721313771426E+00
-0.1508439946676E+00 -0.3936260267304E+01 -0.8174208645748E+00 -0.1521346603869E+00
-0.1490517358910E+00 -0.3911942277034E+01 -0.8121988146876E+00 -0.1324275263452E+00
-0.1525609527297E+00 -0.3884992873534E+01 -0.8075107772855E+00 -0.1128736431813E+00
-0.1606863772788E+00 -0.3855394004799E+01 -0.8032160883844E+00 -0.9333127382733E-01
-0.1728501489591E+00 -0.3822962282696E+01 -0.7991624982394E+00 -0.7370567365696E-01
-0.1885375175061E+00 -0.3787372995114E+01 -0.7951821143731E+00 -0.5399283991213E-01
-0.2072461616925E+00 -0.3748181596595E+01 -0.7910855634456E+00 -0.3431715162337E-01
-0.2284273437953E+00 -0.3704846836634E+01 -0.7866548478080E+00 -0.1496566052355E-01
-0.2514182225825E+00 -0.3656757985584E+01 -0.7816352532805E+00  0.3581225629384E-02
-0.2753663679815E+00 -0.3603265496819E+01 -0.7757263845194E+00  0.2062536523814E-01
-0.2991470471251E+00 -0.3543718178817E+01 -0.7685730566411E+00  0.3523306223462E-01
-0.3212750118007E+00 -0.3477520797121E+01 -0.7597591731055E+00  0.4622790464462E-01
-0.3398116124560E+00 -0.3404265442859E+01 -0.7488154222212E+00  0.5220877657314E-01
-0.3522730936715E+00 -0.3323824781445E+01 -0.7352195859789E+00  0.5157502739315E-01
-0.3555295542848E+00 -0.3236348058307E+01 -0.7183755332230E+00  0.4252916261402E-01
-0.3456709691590E+00 -0.3142305723314E+01 -0.6975953488896E+00  0.2309658214755E-01
-0.3178334752153E+00 -0.3042625010312E+01 -0.6720917071205E+00 -0.8797957140971E-02
-0.2659991828931E+00 -0.2938907443853E+01 -0.6409813349006E+00 -0.5515404742123E-01
-0.1828113550178E+00 -0.2833696657073E+01 -0.6033016114080E+00 -0.1175673789639E+00
-0.5949036142749E-01 -0.2730735098725E+01 -0.5580451003460E+00 -0.1966955289614E+00
 0.1140050719237E+00 -0.2635105203016E+01 -0.5042200337319E+00 -0.2914811819661E+00
 0.3484010628464E+00 -0.2553045841810E+01 -0.4409289623632E+00 -0.3981794940800E+00
 0.6538851458686E+00 -0.2491304143467E+01 -0.3674838049956E+00 -0.5093125488930E+00
 0.1037934029687E+01 -0.2455950751695E+01 -0.2836033486276E+00 -0.6128167617119E+00
 0.1502248155981E+01 -0.2450481078057E+01 -0.1896465872413E+00 -0.6920272980770E+00
 0.2039454498201E+01 -0.2473496584854E+01 -0.8680841862419E-01 -0.7272483115479E+00
 0.2630803558507E+01 -0.2516911311338E+01  0.2277844977331E-01 -0.6993136980164E+00
 0.3246842471263E+01 -0.2566074524448E+01  0.1361535913918E+00 -0.5948432840968E+00
 0.3853367413145E+01 -0.2603495617926E+01  0.2499743627687E+00 -0.4108561825855E+00
-0.8743898033477E+00 -0.3722768540674E+01 -0.9194316825050E+00 -0.1772414265716E+00
-0.7715582925971E+00 -0.3766289367085E+01 -0.9075695454603E+00 -0.2243538121297E+00
-0.6689706488769E+00 -0.3806896300211E+01 -0.8951734031566E+00 -0.2566739780725E+00
-0.5709764375700E+00 -0.3842133364275E+01 -0.8826219735211E+00 -0.2749997308859E+00
-0.4812315034244E+00 -0.3870166015343E+01 -0.8702795167216E+00 -0.2812473081296E+00
-0.4022346050708E+00 -0.3890031848019E+01 -0.8584533034100E+00 -0.2779720145232E+00
-0.3352296392701E+00 -0.3901621799296E+01 -0.8473703003400E+00 -0.2678394550897E+00
-0.2803895711490E+00 -0.3905471567468E+01 -0.8371722401983E+00 -0.2532230010891E+00
-0.2371336988269E+00 -0.3902484606174E+01 -0.8279236733371E+00 -0.2359918115135E+00
-0.2044504795942E+00 -0.3893681953081E+01 -0.8196264987485E+00 -0.2174655921620E+00
-0.1811550757719E+00 -0.3880023689810E+01 -0.8122357652196E+00 -0.1984750762866E+00
-0.1660617618368E+00 -0.3862306010803E+01 -0.8056735665335E+00 -0.1794695722407E+00
-0.1580804545545E+00 -0.3841117148314E+01 -0.7998395324923E+00 -0.1606318568022E+00
-0.1562572619462E+00 -0.3816830780734E+01 -0.7946176203767E+00 -0.1419804864725E+00
-0.1597783360525E+00 -0.3789619247932E+01 -0.7898795285670E+00 -0.1234534312103E+00
-0.1679512961886E+00 -0.3759474882155E+01 -0.7854852473734E+00 -0.1049742783760E+00
-0.1801731076709E+00 -0.3726233153342E+01 -0.7812812638445E+00 -0.8650505383716E-01
-0.1958882756000E+00 -0.3689596550610E+01 -0.7770969768216E+00 -0.6809047328142E-01
-0.2145396934553E+00 -0.3649157385747E+01 -0.7727394273552E+00 -0.4989554603069E-01
-0.2355110747769E+00 -0.3604423072184E+01 -0.7679868408360E+00 -0.3223899400544E-01
-0.2580608655565E+00 -0.3554845863151E+01 -0.7625813571048E+00 -0.1562228761035E-01
-0.2812489191369E+00 -0.3499856070813E+01 -0.7562210092586E+00 -0.7519970414197E-03
-0.3038563220917E+00 -0.3438902029564E+01 -0.7485516814855E+00  0.1144470084935E-01
-0.3242998522774E+00 -0.3371509753204E+01 -0.7391619321106E+00  0.1981553725820E-01
-0.3405422261721E+00 -0.3297410783635E+01 -0.7275906128034E+00  0.2300416852993E-01
-0.3500032381507E+00 -0.3216635526681E+01 -0.7133277635958E+00  0.1948076092170E-01
-0.3494633859268E+00 -0.3129518265956E+01 -0.6957963407447E+00  0.7555798837588E-02
-0.3349424811353E+00 -0.3036746492599E+01 -0.6743378047952E+00 -0.1458322214261E-01
-0.3015523056864E+00 -0.2939489148243E+01 -0.6482083004450E+00 -0.4877451633814E-01
-0.2433418631428E+00 -0.2839589485979E+01 -0.6165862790123E+00 -0.9668583801189E-01
-0.1531806644001E+00 -0.2739786045743E+01 -0.5785933506503E+00 -0.1594765142158E+00
-0.2276411546589E-01 -0.2643897555815E+01 -0.5333323422035E+00 -0.2372791244502E+00
 0.1571274556796E+00 -0.2556871715180E+01 -0.4799488590518E+00 -0.3284865763118E+00
 0.3959765697143E+00 -0.2484514751321E+01 -0.4177076425457E+00 -0.4289121894118E+00
 0.7023127359766E+00 -0.2432800036300E+01 -0.3460974652220E+00 -0.5309597430414E+00
 0.1081727343424E+01 -0.2406738430685E+01 -0.2650022214011E+00 -0.6230557641418E+00
 0.1534251273866E+01 -0.2408717254253E+01 -0.1748931986835E+00 -0.6898844511460E+00
 0.2051740987070E+01 -0.2436618944512E+01 -0.7697559263529E-01 -0.7139902105163E+00
 0.2616339157697E+01 -0.2482555378590E+01  0.2675675621998E-01 -0.6789548049602E+00
 0.3201530550289E+01 -0.2533335555430E+01  0.1336390009631E+00 -0.5736411871114E+00
 0.3776842007710E+01 -0.2573507975608E+01  0.2406668100065E+00 -0.3954297956727E+00
-0.8538376320680E+00 -0.3629074800794E+01 -0.8965824999325E+00 -0.1610209813638E+00
-0.7563166638788E+00 -0.3670455178032E+01 -0.8853543815749E+00 -0.2087154385138E+00
-0.6590014997826E+00 -0.3709208504345E+01 -0.8736420138438E+00 -0.2425501762159E+00
-0.5658002035712E+00 -0.3743104395522E+01 -0.8617809326601E+00 -0.2631830856169E+00
-0.4800498087457E+00 -0.3770428291700E+01 -0.8500956327566E+00 -0.2722561513542E+00
-0.4041110530440E+00 -0.3790206447497E+01 -0.8388635126082E+00 -0.2720086204636E+00
-0.3392566522510E+00 -0.3802212445551E+01 -0.8282938319029E+00 -0.2648327430979E+00
-0.2857988089016E+00 -0.3806809444423E+01 -0.8185216628619E+00 -0.2529175364421E+00
-0.2433430470179E+00 -0.3804721992725E+01 -0.8096130200127E+00 -0.2380433986384E+00
-0.2110626194955E+00 -0.3796817701799E+01 -0.8015760762033E+00 -0.2215186107662E+00
-0.1879286569394E+00 -0.3783941866692E+01 -0.7943741165633E+00 -0.2042132739154E+00
-0.1728724605210E+00 -0.3766814444836E+01 -0.7879373928126E+00 -0.1866428290386E+00
-0.1648824688389E+00 -0.3745979359567E+01 -0.7821723773364E+00 -0.1690657683804E+00
-0.1630499509080E+00 -0.3721789773283E+01 -0.7769679564159E+00 -0.1515756886439E+00
-0.1665789772430E+00 -0.3694414401705E+01 -0.7721986872964E+00 -0.1341798445031E+00
-0.1747731034490E+00 -0.3663854205172E+01 -0.7677254731643E+00 -0.1168634161561E+00
-0.1870070899172E+00 -0.3629963191811E+01 -0.7633940677210E+00 -0.9964187475502E-01
-0.2026876667006E+00 -0.3592471869371E+01 -0.7590319185248E+00 -0.8260507602380E-01
-0.2212061666939E+00 -0.3551010934034E+01 -0.7544434313876E+00 -0.6595440608131E-01
-0.2418825298456E+00 -0.3505138228214E+01 -0.7494041627789E+00 -0.5003511272080E-01
-0.2639010502967E+00 -0.3454370538081E+01 -0.7436543287569E+00 -0.3536361811940E-01
-0.2862393606723E+00 -0.3398218964969E+01 -0.7368916761088E+00 -0.2264780190756E-01
-0.3075909641803E+00 -0.3336231234266E+01 -0.7287644505487E+00 -0.1280007140850E-01
-0.3262827423835E+00 -0.3268052795989E+01 -0.7188671183864E+00 -0.6938974921436E-02
-0.3401890487609E+00 -0.3193550437256E+01 -0.7067479077347E+00 -0.6365153359598E-02
-0.3466470096705E+00 -0.3112904490075E+01 -0.6919103102593E+00 -0.1252559066291E-01
-0.3423667357525E+00 -0.3026620660840E+01 -0.6737974893589E+00 -0.2698955708152E-01
-0.3233243836593E+00 -0.2935581189768E+01 -0.6517811243977E+00 -0.5139730103448E-01
-0.2846419772267E+00 -0.2841162849549E+01 -0.6251609746709E+00 -0.8734637562249E-01
-0.2204763667365E+00 -0.2745403297213E+01 -0.5931759416290E+00 -0.1361824442931E+00
-0.1239642371433E+00 -0.2651176229432E+01 -0.5550281015857E+00 -0.1986606819987E+00
 0.1269680759175E-01 -0.2562311174769E+01 -0.5099228810339E+00 -0.2744530481774E+00
 0.1979146738519E+00 -0.2483565357895E+01 -0.4571301436204E+00 -0.3615051459185E+00
 0.4400067130374E+00 -0.2420291015244E+01 -0.3960568663430E+00 -0.4553235081861E+00
 0.7460228481941E+00 -0.2377730385368E+01 -0.3263415122977E+00 -0.5483340655967E+00
 0.1119957372339E+01 -0.2359962585269E+01 -0.2480010462815E+00 -0.6295421924981E+00
 0.1560527475098E+01 -0.2368468561831E+01 -0.1615882197546E+00 -0.6849401350734E+00
 0.2059127138081E+01 -0.2400624444945E+01 -0.6829946239064E-01 -0.6990763291889E+00
 0.2598850932304E+01 -0.2448846538423E+01  0.3000087922327E-01 -0.6578402330420E+00
 0.3155681367859E+01 -0.2501222500829E+01  0.1308917753564E+00 -0.5518683296755E+00
 0.3702189123851E+01 -0.2543955746593E+01  0.2316466789033E+00 -0.3789333201132E+00
-0.8332572922431E+00 -0.3535979347195E+01 -0.8738473409090E+00 -0.1456158406539E+00
-0.7407152066225E+00 -0.3575338893482E+01 -0.8632108328837E+00 -0.1938379584178E+00
-0.6483570698124E+00 -0.3612317925342E+01 -0.8521350117287E+00 -0.2290425925728E+00
-0.5597070253279E+00 -0.3644885019562E+01 -0.8409184215087E+00 -0.2517726820838E+00
-0.4778152495201E+00 -0.3671439373058E+01 -0.8298509368814E+00 -0.2634400911737E+00
-0.4049045857516E+00 -0.3691011119063E+01 -0.8191831531696E+00 -0.2660119480859E+00
-0.3422532665019E+00 -0.3703284334152E+01 -0.8091075321874E+00 -0.2616367774521E+00
-0.2902799303783E+00 -0.3708478851077E+01 -0.7997517682082E+00 -0.2523305509442E+00
-0.2487454777428E+00 -0.3707163085420E+01 -0.7911817244220E+00 -0.2397815934910E+00
-0.2169849352523E+00 -0.3700064860162E+01 -0.7834099707566E+00 -0.2252753578457E+00
-0.1941112744469E+00 -0.3687920255088E+01 -0.7764063174764E+00 -0.2097075437928E+00
-0.1791659983177E+00 -0.3671373174865E+01 -0.7701078461120E+00 -0.1936470981904E+00
-0.1712141629930E+00 -0.3650920736156E+01 -0.7644269912207E+00 -0.1774181659376E+00
-0.1693931021186E+00 -0.3626892407853E+01 -0.7592571133082E+00 -0.1611819398668E+00
-0.1729270503211E+00 -0.3599450604718E+01 -0.7544755422503E+00 -0.1450095242691E+00
-0.1811182651153E+00 -0.3568603254700E+01 -0.7499443151380E+00 -0.1289434629017E+00
-0.1933222618970E+00 -0.3534222324150E+01 -0.7455089283184E+00 -0.1130489025823E+00
-0.2089111527864E+00 -0.3496066624060E+01 -0.7409955664110E+00 -0.9745694521644E-01
-0.2272282412976E+00 -0.3453806026025E+01 -0.7362068644348E+00 -0.8240094942616E-01
-0.2475338304848E+00 -0.3407049680264E+01 -0.7309167130412E+00 -0.6824756505303E-01
-0.2689430059483E+00 -0.3355379449027E+01 -0.7248645017963E+00 -0.5552223710331E-01
-0.2903570838455E+00 -0.3298387022602E+01 -0.7177488319848E+00 -0.4492737667459E-01
-0.3103890450516E+00 -0.3235718098162E+01 -0.7092214392109E+00 -0.3735291622387E-01
-0.3272844751896E+00 -0.3167134287975E+01 -0.6988837630470E+00 -0.3387497373097E-01
-0.3388401296984E+00 -0.3092631810301E+01 -0.6862943982264E+00 -0.3572891529945E-01
-0.3423244729956E+00 -0.3012531475738E+01 -0.6709711997449E+00 -0.4426890140691E-01
-0.3343959510255E+00 -0.2927495415334E+01 -0.6523782829932E+00 -0.6093468052457E-01
-0.3110117038003E+00 -0.2838577719337E+01 -0.6299178940140E+00 -0.8718812552503E-01
-0.2673344972326E+00 -0.2747330129657E+01 -0.6029329343623E+00 -0.1243874319197E+00
-0.1976627434999E+00 -0.2655941199729E+01 -0.5707207971502E+00 -0.1735710635270E+00
-0.9543022663978E-01 -0.2567367986294E+01 -0.5325596505226E+00 -0.2351260202370E+00
 0.4665038063544E-01 -0.2485398306277E+01 -0.4877495923963E+00 -0.3083276084727E+00
 0.2361997832180E+00 -0.2414560381161E+01 -0.4356721260805E+00 -0.3907682058739E+00
 0.4804572658318E+00 -0.2359748753915E+01 -0.3758583032174E+00 -0.4777628234165E+00
 0.7851640462254E+00 -0.2325527624497E+01 -0.3080727202450E+00 -0.5618688638876E+00
 0.1152971314936E+01 -0.2315166064789E+01 -0.2324389534342E+00 -0.6327244722898E+00
 0.1581574673874E+01 -0.2329411811077E+01 -0.1495674296693E+00 -0.6775670642868E+00
 0.2062131358520E+01 -0.2365299931933E+01 -0.6063371558619E-01 -0.6827245396622E+00
 0.2578686490020E+01 -0.2415603560548E+01  0.3261658638045E-01 -0.6360266002028E+00
 0.3109362131251E+01 -0.2469517705774E+01  0.1279688870022E+00 -0.5295478713845E+00
 0.3629316946859E+01 -0.2514635951626E+01  0.2229362023687E+00 -0.3614650658371E+00
-0.8126508396499E+00 -0.3443423256406E+01 -0.8512148318953E+00 -0.1309775817095E+00
-0.7247880862860E+00 -0.3480872135175E+01 -0.8411320568261E+00 -0.1796805795611E+00
-0.6371005293106E+00 -0.3516153748223E+01 -0.8306508678845E+00 -0.2161298035203E+00
-0.5527766392705E+00 -0.3547412890989E+01 -0.8200379182714E+00 -0.2407729558790E+00
-0.4746081736190E+00 -0.3573155827483E+01 -0.8095528122837E+00 -0.2548279848863E+00
-0.4046827582714E+00 -0.3592427567807E+01 -0.7994220771281E+00 -0.2600274509469E+00
-0.3442666565805E+00 -0.3604845079599E+01 -0.7898223590051E+00 -0.2583031897358E+00
-0.2938580304852E+00 -0.3610509775386E+01 -0.7808735728103E+00 -0.2515103554537E+00
-0.2533463985362E+00 -0.3609854583358E+01 -0.7726402078921E+00 -0.2412446965634E+00
-0.2222074730396E+00 -0.3603481024358E+01 -0.7651377108810E+00 -0.2287605193233E+00
-0.1996822389047E+00 -0.3592022569671E+01 -0.7583409730153E+00 -0.2149677631146E+00
-0.1849149912273E+00 -0.3576048691072E+01 -0.7521927476684E+00 -0.2004777072345E+00
-0.1770446348371E+00 -0.3556008512928E+01 -0.7466106406784E+00 -0.1856707064479E+00
-0.1752546881135E+00 -0.3532205575542E+01 -0.7414920637803E+00 -0.1707681612301E+00
-0.1787912504018E+00 -0.3504793830047E+01 -0.7367170270678E+00 -0.1558993426033E+00
-0.1869577710673E+00 -0.3473786632261E+01 -0.7321488915754E+00 -0.1411595747401E+00
-0.1990934403727E+00 -0.3439073121261E+01 -0.7276333231694E+00 -0.1266595811405E+00
-0.2145390445585E+00 -0.3400440234442E+01 -0.7229958665736E+00 -0.1125675897855E+00
-0.2325936333557E+00 -0.3357597154909E+01 -0.7180381683526E+00 -0.9914444440511E-01
-0.2524623081043E+00 -0.3310204419912E+01 -0.7125333562209E+00 -0.8677314618070E-01
-0.2731962095623E+00 -0.3257908595230E+01 -0.7062209714820E+00 -0.7598246337772E-01
-0.2936265796374E+00 -0.3200380732134E+01 -0.6988014727673E+00 -0.6746295539404E-01
-0.3122932998295E+00 -0.3137361929686E+01 -0.6899310561839E+00 -0.6207498408117E-01
-0.3273696195250E+00 -0.3068725420478E+01 -0.6792190181217E+00 -0.6084445836641E-01
-0.3365857088603E+00 -0.2994589715887E+01 -0.6662350948771E+00 -0.6493328533318E-01
-0.3371552704149E+00 -0.2915405426350E+01 -0.6505121490463E+00 -0.7559482869595E-01
-0.3257029319777E+00 -0.2831975265400E+01 -0.6315356488862E+00 -0.9413280304542E-01
-0.2981892229866E+00 -0.2745502330750E+01 -0.6087383198182E+00 -0.1218281305998E+00
-0.2498438674201E+00 -0.2657682191027E+01 -0.5815052203545E+00 -0.1598049992172E+00
-0.1751335775928E+00 -0.2570815131788E+01 -0.5491897500596E+00 -0.2088133257193E+00
-0.6780928176675E-01 -0.2487897657776E+01 -0.5111413955252E+00 -0.2689098429517E+00
 0.7890027030536E-01 -0.2412635078493E+01 -0.4667469685925E+00 -0.3390348548913E+00
 0.2718639823550E+00 -0.2349302336405E+01 -0.4154876770013E+00 -0.4165121462941E+00
 0.5173342011103E+00 -0.2302345609361E+01 -0.3570022869700E+00 -0.4965619110573E+00
 0.8199034918293E+00 -0.2275709618985E+01 -0.2911612297698E+00 -0.5719560229971E+00
 0.1181101154435E+01 -0.2271965927517E+01 -0.2181729578674E+00 -0.6329927052478E+00
 0.1597838281163E+01 -0.2291275167026E+01 -0.1386873792392E+00 -0.6680786988390E+00
 0.2061197263105E+01 -0.2330455746140E+01 -0.5385169740939E-01 -0.6651153670501E+00
 0.2556140366784E+01 -0.2382655311160E+01  0.3469701164194E-01 -0.6135718797568E+00
 0.3062642987306E+01 -0.2438029327730E+01  0.1249227337767E+00 -0.5067132104493E+00
 0.3558116998106E+01 -0.2485368461525E+01  0.2145497105133E+00 -0.3431037776353E+00
-0.7920198423507E+00 -0.3351354557382E+01 -0.8286748922947E+00 -0.1170619579005E+00
-0.7085647252988E+00 -0.3386994509429E+01 -0.8191118591513E+00 -0.1662053289103E+00
-0.6252868446136E+00 -0.3420652842521E+01 -0.8091879494848E+00 -0.2037898923002E+00
-0.5450795113093E+00 -0.3450631167545E+01 -0.7991421476790E+00 -0.2301838015224E+00
-0.4705012118192E+00 -0.3475536090500E+01 -0.7892074722240E+00 -0.2464409360085E+00
-0.4035086258481E+00 -0.3494435359617E+01 -0.7795888087097E+00 -0.2540914035888E+00
-0.3453430657171E+00 -0.3506896834390E+01 -0.7704479915020E+00 -0.2548748126016E+00
-0.2965602194612E+00 -0.3512924661442E+01 -0.7618969875338E+00 -0.2504980363602E+00
-0.2571551575126E+00 -0.3512834806475E+01 -0.7539980040330E+00 -0.2424657977994E+00
-0.2267251783419E+00 -0.3507115486080E+01 -0.7467681440121E+00 -0.2319954534610E+00
-0.2046260285310E+00 -0.3496304773639E+01 -0.7401861714636E+00 -0.2200019457462E+00
-0.1900971097594E+00 -0.3480900397104E+01 -0.7341995123130E+00 -0.2071291116828E+00
-0.1823477867977E+00 -0.3461303371755E+01 -0.7287302425695E+00 -0.1938047755793E+00
-0.1806072535688E+00 -0.3437789889527E+01 -0.7236794394029E+00 -0.1803033505569E+00
-0.1841447042484E+00 -0.3410503747343E+01 -0.7189297010312E+00 -0.1668064880016E+00
-0.1922670106020E+00 -0.3379462322225E+01 -0.7143458772099E+00 -0.1534574839867E+00
-0.2042998956500E+00 -0.3344570980001E+01 -0.7097741857066E+00 -0.1404083162918E+00
-0.2195562022070E+00 -0.3305644210844E+01 -0.7050400931162E+00 -0.1278600760948E+00
-0.2372946905864E+00 -0.3262430067120E+01 -0.6999449619713E+00 -0.1160965857839E+00
-0.2566699347915E+00 -0.3214639836983E+01 -0.6942619647002E+00 -0.1055122703768E+00
-0.2766746529003E+00 -0.3161983593454E+01 -0.6877316595188E+00 -0.9663379517390E-01
-0.2960765195114E+00 -0.3104209600157E+01 -0.6800572340672E+00 -0.9013392485838E-01
-0.3133499983730E+00 -0.3041150776772E+01 -0.6709001650262E+00 -0.8683701149922E-01
-0.3266051664032E+00 -0.2972786361839E+01 -0.6598783154814E+00 -0.8771194083088E-01
-0.3335166492823E+00 -0.2899348971604E+01 -0.6465731338120E+00 -0.9384035212495E-01
-0.3312569055051E+00 -0.2821407474290E+01 -0.6305328853548E+00 -0.1063687311655E+00
-0.3164334199714E+00 -0.2739888944792E+01 -0.6112644820613E+00 -0.1264607375160E+00
-0.2850300540902E+00 -0.2656123232291E+01 -0.5882306660416E+00 -0.1552167889530E+00
-0.2323654061179E+00 -0.2571920802063E+01 -0.5608572499937E+00 -0.1935356048585E+00
-0.1530946919017E+00 -0.2489659090918E+01 -0.5285507644399E+00 -0.2418997420589E+00
-0.4129736740944E-01 -0.2412337656807E+01 -0.4907270121558E+00 -0.3000740225333E+00
 0.1092903244425E+00 -0.2343548815900E+01 -0.4468517049500E+00 -0.3667217541409E+00
 0.3048284546910E+00 -0.2287301484424E+01 -0.3964946118547E+00 -0.4389729517712E+00
 0.5506741179413E+00 -0.2247612056967E+01 -0.3393875928624E+00 -0.5120328140019E+00
 0.8504186242501E+00 -0.2227866164980E+01 -0.2754895122511E+00 -0.5789488523028E+00
 0.1204660129881E+01 -0.2230039716441E+01 -0.2050759203679E+00 -0.6306868688521E+00
 0.1609715886297E+01 -0.2253827592928E+01 -0.1288223432458E+00 -0.6567411440152E+00
 0.2056707580408E+01 -0.2295923180655E+01 -0.4784312076226E-01 -0.6464023440810E+00
 0.2531466103490E+01 -0.2349846396758E+01  0.3632394188757E-01 -0.5905340671306E+00
 0.3015589251007E+01 -0.2406591282530E+01  0.1217995955104E+00 -0.4834005980662E+00
 0.3488474214830E+01 -0.2455994893717E+01  0.2064958672997E+00 -0.3239174038893E+00
-0.7713654682217E+00 -0.3259727009725E+01 -0.8062185076029E+00 -0.1038283934364E+00
-0.6920706305449E+00 -0.3293652231146E+01 -0.7971445842165E+00 -0.1533768130279E+00
-0.6129641310255E+00 -0.3325758520941E+01 -0.7877445421315E+00 -0.1920008154371E+00
-0.5366782010390E+00 -0.3354487766634E+01 -0.7782332051312E+00 -0.2200015894793E+00
-0.4655601844299E+00 -0.3378540424348E+01 -0.7688201332119E+00 -0.2382936822961E+00
-0.4014410060519E+00 -0.3397012518782E+01 -0.7596907162870E+00 -0.2482322585645E+00
-0.3455275201089E+00 -0.3409437263539E+01 -0.7509929679202E+00 -0.2513867031781E+00
-0.2984150273430E+00 -0.3415739457564E+01 -0.7428309080504E+00 -0.2493280372181E+00
-0.2601843725387E+00 -0.3416134592067E+01 -0.7352638038775E+00 -0.2434729713878E+00
-0.2305373045417E+00 -0.3411009870969E+01 -0.7283094459548E+00 -0.2349981330251E+00
-0.2089318421274E+00 -0.3400815451758E+01 -0.7219494695349E+00 -0.2248160722515E+00
-0.1946947758805E+00 -0.3385980768532E+01 -0.7161351195537E+00 -0.2135947210812E+00
-0.1871021313774E+00 -0.3366859458400E+01 -0.7107923285470E+00 -0.2018013765112E+00
-0.1854277814431E+00 -0.3343699633934E+01 -0.7058254935929E+00 -0.1897565655998E+00
-0.1889648494892E+00 -0.3316633669026E+01 -0.7011197141506E+00 -0.1776885498795E+00
-0.1970256228163E+00 -0.3285681690885E+01 -0.6965414731195E+00 -0.1657836761117E+00
-0.2089251384505E+00 -0.3250764222350E+01 -0.6919378824707E+00 -0.1542307265425E+00
-0.2239517311254E+00 -0.3211722394262E+01 -0.6871348353166E+00 -0.1432593270046E+00
-0.2413279750352E+00 -0.3168342179702E+01 -0.6819340411091E+00 -0.1331718128502E+00
-0.2601627747465E+00 -0.3120384348003E+01 -0.6761094346247E+00 -0.1243692753435E+00
-0.2793961453181E+00 -0.3067620551375E+01 -0.6694033493135E+00 -0.1173711632705E+00
-0.2977388920854E+00 -0.3009873305742E+01 -0.6615224494228E+00 -0.1128269799220E+00
-0.3136079006405E+00 -0.2947062899674E+01 -0.6521341697805E+00 -0.1115193148278E+00
-0.3250593003858E+00 -0.2879268081985E+01 -0.6408654860239E+00 -0.1143541878137E+00
-0.3297230515832E+00 -0.2806826591181E+01 -0.6273099379004E+00 -0.1223274899820E+00
-0.3247432814314E+00 -0.2730413474824E+01 -0.6110313603562E+00 -0.1364744949373E+00
-0.3067256236568E+00 -0.2651063957594E+01 -0.5915579250650E+00 -0.1578169746825E+00
-0.2716946337736E+00 -0.2570213374873E+01 -0.5683816101989E+00 -0.1872777856817E+00
-0.2150755207614E+00 -0.2489760681492E+01 -0.5409672485117E+00 -0.2255411107693E+00
-0.1317262334387E+00 -0.2412130485795E+01 -0.5087713514281E+00 -0.2728448119597E+00
-0.1605871168452E-01 -0.2340295958714E+01 -0.4712709411021E+00 -0.3286994474484E+00
 0.1376994364672E+00 -0.2277714807281E+01 -0.4280030805406E+00 -0.3915448360849E+00
 0.3350473139824E+00 -0.2228126284379E+01 -0.3786157997212E+00 -0.4583823631453E+00
 0.5805365135318E+00 -0.2195141818948E+01 -0.3229210658951E+00 -0.5244670588338E+00
 0.8768910567662E+00 -0.2181647616154E+01 -0.2609513157660E+00 -0.5831654567929E+00
 0.1223941114233E+01 -0.2189114570808E+01 -0.1930346941915E+00 -0.6261042236848E+00
 0.1617562411236E+01 -0.2216871407408E+01 -0.1198618010207E+00 -0.6437825415877E+00
 0.2048994976164E+01 -0.2261553057065E+01 -0.4251161681354E-01 -0.6267184235670E+00
 0.2504883662345E+01 -0.2317038842666E+01  0.3756896449574E-01 -0.5669694804712E+00
 0.2968258109940E+01 -0.2375060281218E+01  0.1186395675122E+00 -0.4596463793559E+00
 0.3420273606271E+01 -0.2426376195170E+01  0.1987794851822E+00 -0.3039684791084E+00
-0.7506885572704E+00 -0.3168499099333E+01 -0.7838375430009E+00 -0.9123956785654E-01
-0.6753280686849E+00 -0.3200796988599E+01 -0.7752250230086E+00 -0.1411620065226E+00
-0.6001747755128E+00 -0.3231419493966E+01 -0.7663188653149E+00 -0.1807406718975E+00
-0.5276285327594E+00 -0.3258934698531E+01 -0.7573126575429E+00 -0.2102199711582E+00
-0.4598449360373E+00 -0.3282130811061E+01 -0.7483951605717E+00 -0.2303957381910E+00
-0.3985347968939E+00 -0.3300135959116E+01 -0.7397341622248E+00 -0.2424718134328E+00
-0.3448636756395E+00 -0.3312460327662E+01 -0.7314648115600E+00 -0.2478670775969E+00
-0.2994519537793E+00 -0.3318964512775E+01 -0.7236833040945E+00 -0.2480287469216E+00
-0.2624493749479E+00 -0.3319778111414E+01 -0.7164455079483E+00 -0.2442895374621E+00
-0.2336468889082E+00 -0.3315198770077E+01 -0.7097691423734E+00 -0.2377831758397E+00
-0.2125931757182E+00 -0.3305596233486E+01 -0.7036378923258E+00 -0.2294140015639E+00
-0.1986948520414E+00 -0.3291335598479E+01 -0.6980061005052E+00 -0.2198667852184E+00
-0.1912905701804E+00 -0.3272724506878E+01 -0.6928030257352E+00 -0.2096410526975E+00
-0.1896975246330E+00 -0.3249982829054E+01 -0.6879360809885E+00 -0.1990969156250E+00
-0.1932332786644E+00 -0.3223230614604E+01 -0.6832927888355E+00 -0.1885035884630E+00
-0.2012173160461E+00 -0.3192489601094E+01 -0.6787413935420E+00 -0.1780855316970E+00
-0.2129566833984E+00 -0.3157694304628E+01 -0.6741302076505E+00 -0.1680638403876E+00
-0.2277186641701E+00 -0.3118711298569E+01 -0.6692860025210E+00 -0.1586923509605E+00
-0.2446938441439E+00 -0.3075363089509E+01 -0.6640113966252E+00 -0.1502875417320E+00
-0.2629504479397E+00 -0.3027458103637E+01 -0.6580817201216E+00 -0.1432526250595E+00
-0.2813816459019E+00 -0.2974827003497E+01 -0.6512417395841E+00 -0.1380950661707E+00
-0.2986481916982E+00 -0.2917362894883E+01 -0.6432022269007E+00 -0.1354361433419E+00
-0.3131172956113E+00 -0.2855068251784E+01 -0.6336371189209E+00 -0.1360116312670E+00
-0.3228002985806E+00 -0.2788114138049E+01 -0.6221828965971E+00 -0.1406597967221E+00
-0.3252930543844E+00 -0.2716933870112E+01 -0.6084453939657E+00 -0.1502865567398E+00
-0.3177234964188E+00 -0.2642296341982E+01 -0.5920039765017E+00 -0.1658132149967E+00
-0.2967091787173E+00 -0.2565329038611E+01 -0.5724076519951E+00 -0.1881196972200E+00
-0.2583301120195E+00 -0.2487552796305E+01 -0.5491765898482E+00 -0.2179562331198E+00
-0.1981318945140E+00 -0.2410931333166E+01 -0.5218126533116E+00 -0.2558050760590E+00
-0.1111840916639E+00 -0.2337910902397E+01 -0.4898190061110E+00 -0.3016826538067E+00
 0.7771151913341E-02 -0.2271415125615E+01 -0.4527288014865E+00 -0.3548813308288E+00
 0.1640367419560E+00 -0.2214752963793E+01 -0.4101432504790E+00 -0.4136659644567E+00
 0.3625014480087E+00 -0.2171397394586E+01 -0.3617791947064E+00 -0.4749652248811E+00
 0.6069974727655E+00 -0.2144583581892E+01 -0.3075172264076E+00 -0.5341357414285E+00
 0.8995020747573E+00 -0.2136755545342E+01 -0.2474506978042E+00 -0.5848922342657E+00
 0.1239216149135E+01 -0.2148958796212E+01 -0.1819485321266E+00 -0.6195057747882E+00
 0.1621694973962E+01 -0.2180236987872E+01 -0.1117084044465E+00 -0.6294003309460E+00
 0.2038350321841E+01 -0.2227214461565E+01 -0.3777282850767E-01 -0.6061801810448E+00
 0.2476584625063E+01 -0.2284111733922E+01  0.3849457880184E-01 -0.5429317734076E+00
 0.2920698040762E+01 -0.2343312647466E+01  0.1154770803799E+00 -0.4354863813014E+00
 0.3353404612696E+01 -0.2396390460367E+01  0.1914028333180E+00 -0.2833172376174E+00
-0.7299896737559E+00 -0.3077633204177E+01 -0.7615245869342E+00 -0.7926106437020E-01
-0.6583566167074E+00 -0.3108384995560E+01 -0.7533483336792E+00 -0.1295300621810E+00
-0.5869563673554E+00 -0.3137588977882E+01 -0.7449090801476E+00 -0.1699878951859E+00
-0.5179805962585E+00 -0.3163927460845E+01 -0.7363816223936E+00 -0.2008305125355E+00
-0.4534100910643E+00 -0.3186270791404E+01 -0.7279361873407E+00 -0.2227523301503E+00
-0.3948413196488E+00 -0.3203781772166E+01 -0.7197246290877E+00 -0.2368262050130E+00
-0.3433937589057E+00 -0.3215956890003E+01 -0.7118701403894E+00 -0.2443381486216E+00
-0.2997011328138E+00 -0.3222605316554E+01 -0.7044613003709E+00 -0.2466230691836E+00
-0.2639677513229E+00 -0.3223783579025E+01 -0.6975502764638E+00 -0.2449343599036E+00
-0.2360602924720E+00 -0.3219710319191E+01 -0.6911541326316E+00 -0.2403619360801E+00
-0.2156074281836E+00 -0.3210682209637E+01 -0.6852579377752E+00 -0.2337974437472E+00
-0.2020883323058E+00 -0.3197004267428E+01 -0.6798185300769E+00 -0.2259363273718E+00
-0.1949001583955E+00 -0.3178940004562E+01 -0.6747680426464E+00 -0.2173038376073E+00
-0.1934018154891E+00 -0.3156681343249E+01 -0.6700166417316E+00 -0.2082935590337E+00
-0.1969355603434E+00 -0.3130335420462E+01 -0.6654542060771E+00 -0.1992101912191E+00
-0.2048296683775E+00 -0.3099924566444E+01 -0.6609508568132E+00 -0.1903114375315E+00
-0.2163858009030E+00 -0.3065396056940E+01 -0.6563563813490E+00 -0.1818462473924E+00
-0.2308536420054E+00 -0.3026640470901E+01 -0.6514988322894E+00 -0.1740884110830E+00
-0.2473960414635E+00 -0.2983515085963E+01 -0.6461822351141E+00 -0.1673643251858E+00
-0.2650456169462E+00 -0.2935873682212E+01 -0.6401838693712E+00 -0.1620750282257E+00
-0.2826546352368E+00 -0.2883602811812E+01 -0.6332514988460E+00 -0.1587116092358E+00
-0.2988406678802E+00 -0.2826661912482E+01 -0.6251005253871E+00 -0.1578626784229E+00
-0.3119291296415E+00 -0.2765129861802E+01 -0.6154118074591E+00 -0.1602128438421E+00
-0.3198955568588E+00 -0.2699262312480E+01 -0.6038315828656E+00 -0.1665286533356E+00
-0.3203118091879E+00 -0.2629578258950E+01 -0.5899780224189E+00 -0.1776229846462E+00
-0.3103008670556E+00 -0.2556928090156E+01 -0.5734457999872E+00 -0.1943018050999E+00
-0.2865043857711E+00 -0.2482516224381E+01 -0.5538041302828E+00 -0.2173047954224E+00
-0.2450700488633E+00 -0.2407930481746E+01 -0.5306001140284E+00 -0.2472160123619E+00
-0.1816739577213E+00 -0.2335178332876E+01 -0.5033704656203E+00 -0.2843294325894E+00
-0.9160148730321E-01 -0.2266706336965E+01 -0.4716615718819E+00 -0.3284631882176E+00
 0.3008241670460E-01 -0.2205370953436E+01 -0.4350577138292E+00 -0.3787253223157E+00
 0.1882372723649E+00 -0.2154324447743E+01 -0.3932174409351E+00 -0.4332490838976E+00
 0.3871932750133E+00 -0.2116782181819E+01 -0.3459177865157E+00 -0.4889377786570E+00
 0.6301446346192E+00 -0.2095633850645E+01 -0.2930978475727E+00 -0.5412902160351E+00
 0.9184294487636E+00 -0.2092935069572E+01 -0.2349011276620E+00 -0.5843873048657E+00
 0.1250736755949E+01 -0.2109375279605E+01 -0.1717277072902E+00 -0.6111217814279E+00
 0.1622397263668E+01 -0.2143778773212E+01 -0.1042763034626E+00 -0.6137668442874E+00
 0.2025029114643E+01 -0.2192793348542E+01 -0.3355284727989E-01 -0.5848907683423E+00
 0.2446736269077E+01 -0.2250959969651E+01  0.3915526046860E-01 -0.5184715954944E+00
 0.2872949558539E+01 -0.2311241598182E+01  0.1123415937454E+00 -0.4109560675940E+00
 0.3287763885375E+01 -0.2365931169371E+01  0.1843665459480E+00 -0.2620232540127E+00
-0.7092691512989E+00 -0.2987094898302E+01 -0.7392728209362E+00 -0.6786108202910E-01
-0.6411736171806E+00 -0.3016376191098E+01 -0.7315099725560E+00 -0.1184521472932E+00
-0.5733424778992E+00 -0.3044223923547E+01 -0.7235132910705E+00 -0.1597213955014E+00
-0.5077796073380E+00 -0.3069424480553E+01 -0.7154408282391E+00 -0.1918232005463E+00
-0.4463057366629E+00 -0.3090925256586E+01 -0.7074462091916E+00 -0.2153651698670E+00
-0.3904086719861E+00 -0.3107925389421E+01 -0.6996668227073E+00 -0.2313067615283E+00
-0.3411585792437E+00 -0.3119915159425E+01 -0.6922147580485E+00 -0.2408168776195E+00
-0.2991930920527E+00 -0.3126663078691E+01 -0.6851712443586E+00 -0.2451289698208E+00
-0.2647589714919E+00 -0.3128163833227E+01 -0.6785845710554E+00 -0.2454221704938E+00
-0.2377868011007E+00 -0.3124566689280E+01 -0.6724707080967E+00 -0.2427426475025E+00
-0.2179755398385E+00 -0.3116102295022E+01 -0.6668155769085E+00 -0.2379659898860E+00
-0.2048700431194E+00 -0.3103019982840E+01 -0.6615780150501E+00 -0.2317931264843E+00
-0.1979218635532E+00 -0.3085541339344E+01 -0.6566926503649E+00 -0.2247692386167E+00
-0.1965298619885E+00 -0.3063830989621E+01 -0.6520721800384E+00 -0.2173157184648E+00
-0.2000610455632E+00 -0.3037982830158E+01 -0.6476087847943E+00 -0.2097675307080E+00
-0.2078539168133E+00 -0.3008018876677E+01 -0.6431745682822E+00 -0.2024108846778E+00
-0.2192072644001E+00 -0.2973897880865E+01 -0.6386210385692E+00 -0.1955182236213E+00
-0.2333565979810E+00 -0.2935532794235E+01 -0.6337778878872E+00 -0.1893791576702E+00
-0.2494413030701E+00 -0.2892813587081E+01 -0.6284509873948E+00 -0.1843259662578E+00
-0.2664635027197E+00 -0.2845636684471E+01 -0.6224200467128E+00 -0.1807535020955E+00
-0.2832405321855E+00 -0.2793940941654E+01 -0.6154363039386E+00 -0.1791324816461E+00
-0.2983536401538E+00 -0.2737747377785E+01 -0.6072202126361E+00 -0.1800149334878E+00
-0.3100942263514E+00 -0.2677205019642E+01 -0.5974598581016E+00 -0.1840306358282E+00
-0.3164107406121E+00 -0.2612646004761E+01 -0.5858113578039E+00 -0.1918713243115E+00
-0.3148606185699E+00 -0.2544664928191E+01 -0.5719051178742E+00 -0.2042548258263E+00
-0.3025721549760E+00 -0.2474181494529E+01 -0.5553507381764E+00 -0.2218716051606E+00
-0.2762216831886E+00 -0.2402462465829E+01 -0.5357368377867E+00 -0.2453239567739E+00
-0.2320343518218E+00 -0.2331145699333E+01 -0.5126360178699E+00 -0.2750373078444E+00
-0.1658235545470E+00 -0.2262264062189E+01 -0.4856175305835E+00 -0.3111315179253E+00
-0.7309062920791E-01 -0.2198246926715E+01 -0.4542675179538E+00 -0.3532488737068E+00
 0.5078819824827E-01 -0.2141870791416E+01 -0.4182165248654E+00 -0.4003443550860E+00
 0.2102580980188E+00 -0.2096128300959E+01 -0.3771740462083E+00 -0.4504577961694E+00
 0.4091423402702E+00 -0.2063989688356E+01 -0.3309694745489E+00 -0.5005066962108E+00
 0.6500732320101E+00 -0.2048030752968E+01 -0.2795915083578E+00 -0.5461631801103E+00
 0.9338452462256E+00 -0.2049968488900E+01 -0.2232246518612E+00 -0.5818837512635E+00
 0.1258734688133E+01 -0.2070196233707E+01 -0.1622923115332E+00 -0.6011564005778E+00
 0.1619923346318E+01 -0.2107372046449E+01 -0.9748974147885E-01 -0.5970336611248E+00
 0.2009256532759E+01 -0.2158191014966E+01 -0.2978689688515E-01 -0.5629421352518E+00
 0.2415484918473E+01 -0.2217492721567E+01  0.3959843997112E-01 -0.4936366479830E+00
 0.2825046447155E+01 -0.2278755035056E+01  0.1092582840478E+00 -0.3860908455493E+00
 0.3223256799896E+01 -0.2334905738764E+01  0.1776702148739E+00 -0.2401461718514E+00
-0.6885271283639E+00 -0.2896852369221E+01 -0.7170759102021E+00 -0.5701019526119E-01
-0.6237945578443E+00 -0.2924733572468E+01 -0.7097056366379E+00 -0.1079013027724E+00
-0.5593633174850E+00 -0.2951284367867E+01 -0.7021295475329E+00 -0.1499206647850E+00
-0.4970666498652E+00 -0.2975386632933E+01 -0.6944906669084E+00 -0.1831868495796E+00
-0.4385780369251E+00 -0.2996060251744E+01 -0.6869276679698E+00 -0.2082330947779E+00
-0.3852820781098E+00 -0.3012541700067E+01 -0.6795647657618E+00 -0.2259207316480E+00
-0.3381975894202E+00 -0.3024321062293E+01 -0.6725037403638E+00 -0.2373156439627E+00
-0.2979585840071E+00 -0.3031135244582E+01 -0.6658187756394E+00 -0.2435599909719E+00
-0.2648440861693E+00 -0.3032926882272E+01 -0.6595542035163E+00 -0.2457639002736E+00
-0.2388382781057E+00 -0.3029784581925E+01 -0.6537245817475E+00 -0.2449305966501E+00
-0.2197016597745E+00 -0.3021879633645E+01 -0.6483162683445E+00 -0.2419171776136E+00
-0.2070383527863E+00 -0.3009410090990E+01 -0.6432896983410E+00 -0.2374257282791E+00
-0.2003503189706E+00 -0.2992558039291E+01 -0.6385816811679E+00 -0.2320162361680E+00
-0.1990745311076E+00 -0.2971461727154E+01 -0.6341072611013E+00 -0.2261326946359E+00
-0.2026026596608E+00 -0.2946201694655E+01 -0.6297608802474E+00 -0.2201354042373E+00
-0.2102847345032E+00 -0.2916798833724E+01 -0.6254167229648E+00 -0.2143345321619E+00
-0.2214190917440E+00 -0.2883222054792E+01 -0.6209282385596E+00 -0.2090218076549E+00
-0.2352304459141E+00 -0.2845404891585E+01 -0.6161270766809E+00 -0.2044986973880E+00
-0.2508389779617E+00 -0.2803267668244E+01 -0.6108213383430E+00 -0.2010995556905E+00
-0.2672214278961E+00 -0.2756746408987E+01 -0.6047935763887E+00 -0.1992093479066E+00
-0.2831661549295E+00 -0.2705828302048E+01 -0.5977989003033E+00 -0.1992748337755E+00
-0.2972248781808E+00 -0.2650590802592E+01 -0.5895631449398E+00 -0.2018080774832E+00
-0.3076625984166E+00 -0.2591246475879E+01 -0.5797818234985E+00 -0.2073810312548E+00
-0.3124090596750E+00 -0.2528195598301E+01 -0.5681209400608E+00 -0.2166083390784E+00
-0.3090162347350E+00 -0.2462098260386E+01 -0.5542229072828E+00 -0.2301117048715E+00
-0.2946269889786E+00 -0.2393931623455E+01 -0.5377117304991E+00 -0.2484669355834E+00
-0.2659613395701E+00 -0.2325011057380E+01 -0.5181944871118E+00 -0.2721427724850E+00
-0.2193294307543E+00 -0.2257009111212E+01 -0.4952677157732E+00 -0.3014142649384E+00
-0.1506857772505E+00 -0.2191968215037E+01 -0.4685308054392E+00 -0.3362413716713E+00
-0.5574441944423E-01 -0.2132286520853E+01 -0.4376061945802E+00 -0.3761118634307E+00
 0.6982188199840E-01 -0.2080651870632E+01 -0.4021660037195E+00 -0.4198560491932E+00
 0.2300748867916E+00 -0.2039898363825E+01 -0.3619647008004E+00 -0.4654535426324E+00
 0.4283815884354E+00 -0.2012766253543E+01 -0.3168769377434E+00 -0.5098686136006E+00
 0.6668829459524E+00 -0.2001548856888E+01 -0.2669331861648E+00 -0.5489699604184E+00
 0.9459143303014E+00 -0.2007670151546E+01 -0.2123511674132E+00 -0.5775925987777E+00
 0.1263422882181E+01 -0.2031279074650E+01 -0.1535712407822E+00 -0.5897916084933E+00
 0.1614500944028E+01 -0.2070910376872E+01 -0.9128188792908E-01 -0.5793351004081E+00
 0.1991231556281E+01 -0.2123322679705E+01 -0.2641822507857E-01 -0.5404168554382E+00
 0.2382958898050E+01 -0.2183632019705E+01  0.3986537626311E-01 -0.4684720045204E+00
 0.2777017241388E+01 -0.2245773892741E+01  0.1062486713127E+00 -0.3609263669915E+00
 0.3159798406410E+01 -0.2303234404459E+01  0.1713128029431E+00 -0.2177459897097E+00
-0.6677635769943E+00 -0.2806875925743E+01 -0.6949279109026E+00 -0.4668115471155E-01
-0.6062333887602E+00 -0.2833422623856E+01 -0.6879312127741E+00 -0.9785232244980E-01
-0.5450462901685E+00 -0.2858732865982E+01 -0.6807558413742E+00 -0.1405658539543E+00
-0.4858793152053E+00 -0.2881776797436E+01 -0.6735312325647E+00 -0.1749094279260E+00
-0.4302697816979E+00 -0.2901642755670E+01 -0.6663825174035E+00 -0.2013525983420E+00
-0.3795042264797E+00 -0.2917605088661E+01 -0.6594218728542E+00 -0.2206719066284E+00
-0.3345489789400E+00 -0.2929158499391E+01 -0.6527415053928E+00 -0.2338428375664E+00
-0.2960284741742E+00 -0.2936015887016E+01 -0.6464088818703E+00 -0.2419257288816E+00
-0.2642454842070E+00 -0.2938076338719E+01 -0.6404643741289E+00 -0.2459670102836E+00
-0.2392288652225E+00 -0.2935375634672E+01 -0.6349209094400E+00 -0.2469283186212E+00
-0.2207928448208E+00 -0.2928031935844E+01 -0.6297649655172E+00 -0.2456465886567E+00
-0.2085948967293E+00 -0.2916196337481E+01 -0.6249582561547E+00 -0.2428214871219E+00
-0.2021835814387E+00 -0.2900013970321E+01 -0.6204395195972E+00 -0.2390233058305E+00
-0.2010321301736E+00 -0.2879597822007E+01 -0.6161259996172E+00 -0.2347138922086E+00
-0.2045566907242E+00 -0.2855015128857E+01 -0.6119143730346E+00 -0.2302742740048E+00
-0.2121200072684E+00 -0.2826284935413E+01 -0.6076809975913E+00 -0.2260342602712E+00
-0.2230222916997E+00 -0.2793384974520E+01 -0.6032814622336E+00 -0.2223008565953E+00
-0.2364807812025E+00 -0.2756267449884E+01 -0.5985496551365E+00 -0.2193836342921E+00
-0.2516006720285E+00 -0.2714880492077E+01 -0.5932962416619E+00 -0.2176154744822E+00
-0.2673383958978E+00 -0.2669196407009E+01 -0.5873069693330E+00 -0.2173680863088E+00
-0.2824592323879E+00 -0.2619246440076E+01 -0.5803411431405E+00 -0.2190611112852E+00
-0.2954920497930E+00 -0.2565159033366E+01 -0.5721302251572E+00 -0.2231637919828E+00
-0.3046828480234E+00 -0.2507203429293E+01 -0.5623772638434E+00 -0.2301878966690E+00
-0.3079506552927E+00 -0.2445839573420E+01 -0.5507580539495E+00 -0.2406694466690E+00
-0.3028502934910E+00 -0.2381783041147E+01 -0.5369266749283E+00 -0.2551337738665E+00
-0.2865474404222E+00 -0.2316057021083E+01 -0.5205209000574E+00 -0.2740437011254E+00
-0.2558133024987E+00 -0.2250012674421E+01 -0.5011652028519E+00 -0.2977389654593E+00
-0.2070484836226E+00 -0.2185343471937E+01 -0.4784783982418E+00 -0.3263528676784E+00
-0.1363498613329E+00 -0.2124087912479E+01 -0.4520875614990E+00 -0.3596993717074E+00
-0.3963809053856E-01 -0.2068601946932E+01 -0.4216480137771E+00 -0.3971316234440E+00
 0.8713472766994E-01 -0.2021479501178E+01 -0.3868689604663E+00 -0.4373806630637E+00
 0.2476789430701E+00 -0.1985400322374E+01 -0.3475442810395E+00 -0.4783943351305E+00
 0.4449543104070E+00 -0.1962891572732E+01 -0.3035874569887E+00 -0.5172100778108E+00
 0.6806754987760E+00 -0.1955994704511E+01 -0.2550638449478E+00 -0.5499099205038E+00
 0.9547934252976E+00 -0.1965882169946E+01 -0.2022177519430E+00 -0.5717055212133E+00
 0.1264996525750E+01 -0.1992503032864E+01 -0.1455013035908E+00 -0.5771905012145E+00
 0.1606334258992E+01 -0.2034303435570E+01 -0.8559383659104E-01 -0.5607910309623E+00
 0.1971130347787E+01 -0.2088116106609E+01 -0.2339715211312E-01 -0.5173896112146E+00
 0.2349271049608E+01 -0.2149311441096E+01  0.3999192229835E-01 -0.4430204576924E+00
 0.2728886551803E+01 -0.2212230792680E+01  0.1033311533644E+00 -0.3354986652983E+00
 0.3097313771085E+01 -0.2270849231197E+01  0.1652929104405E+00 -0.1948830152027E+00
-0.6469783293832E+00 -0.2717137582865E+01 -0.6728231924755E+00 -0.3684872678189E-01
-0.5885027925562E+00 -0.2742410834373E+01 -0.6661827353127E+00 -0.8828165377920E-01
-0.5304164687136E+00 -0.2766534008052E+01 -0.6593901051789E+00 -0.1316378340615E+00
-0.4742522589420E+00 -0.2788559471380E+01 -0.6525623557884E+00 -0.1669783255616E+00
-0.4214208796691E+00 -0.2807640477032E+01 -0.6458122809635E+00 -0.1947182746357E+00
-0.3731155931491E+00 -0.2823089449341E+01 -0.6392410180235E+00 -0.2155611555860E+00
-0.3302497901721E+00 -0.2834409554713E+01 -0.6329318784083E+00 -0.2304033854930E+00
-0.2934336737031E+00 -0.2841296045612E+01 -0.6269459532053E+00 -0.2402322768284E+00
-0.2629866991021E+00 -0.2843611814290E+01 -0.6213197119368E+00 -0.2460358165422E+00
-0.2389747252041E+00 -0.2841346808918E+01 -0.6160643160045E+00 -0.2487358068363E+00
-0.2212587868395E+00 -0.2834571821691E+01 -0.6111661308133E+00 -0.2491479689189E+00
-0.2095443176718E+00 -0.2823395154200E+01 -0.6065879034133E+00 -0.2479666294710E+00
-0.2034228935331E+00 -0.2807927574663E+01 -0.6022701026137E+00 -0.2457684546288E+00
-0.2024021869019E+00 -0.2788258057803E+01 -0.5981320578538E+00 -0.2430288491946E+00
-0.2059225751635E+00 -0.2764440719875E+01 -0.5940726678600E+00 -0.2401452988059E+00
-0.2133606094879E+00 -0.2736492109141E+01 -0.5899705525171E+00 -0.2374632035052E+00
-0.2240206151711E+00 -0.2704397438315E+01 -0.5856836194245E+00 -0.2353010705485E+00
-0.2371155946156E+00 -0.2668125579572E+01 -0.5810482434958E+00 -0.2339730691749E+00
-0.2517399148992E+00 -0.2627649762275E+01 -0.5758779440161E+00 -0.2338073457684E+00
-0.2668347053544E+00 -0.2582975046269E+01 -0.5699619588178E+00 -0.2351593344370E+00
-0.2811479659047E+00 -0.2534172225523E+01 -0.5630640466759E+00 -0.2384188250329E+00
-0.2931922371051E+00 -0.2481415060519E+01 -0.5549214677937E+00 -0.2440098962263E+00
-0.3012016560510E+00 -0.2425022453429E+01 -0.5452448300208E+00 -0.2523823784211E+00
-0.3030920982131E+00 -0.2365505526231E+01 -0.5337195328419E+00 -0.2639928192192E+00
-0.2964288805977E+00 -0.2303625519572E+01 -0.5200108877828E+00 -0.2792706382307E+00
-0.2784077456376E+00 -0.2240440723798E+01 -0.5037697013939E+00 -0.2985680073700E+00
-0.2458571938086E+00 -0.2177326217751E+01 -0.4846366895336E+00 -0.3221006938957E+00
-0.1952719017076E+00 -0.2115984128566E+01 -0.4622512129428E+00 -0.3498689764133E+00
-0.1228901341047E+00 -0.2058437652318E+01 -0.4362655637854E+00 -0.3815541287555E+00
-0.2483078264578E-01 -0.2006992201639E+01 -0.4063646029123E+00 -0.4163929034584E+00
 0.1026936906598E+00 -0.1964145350770E+01 -0.3722903375696E+00 -0.4530394560320E+00
 0.2630746373841E+00 -0.1932429053920E+01 -0.3338708882822E+00 -0.4894338809848E+00
 0.4589116149930E+00 -0.1914175295116E+01 -0.2910527403617E+00 -0.5227077615051E+00
 0.6915527880164E+00 -0.1911203079386E+01 -0.2439300619088E+00 -0.5491678983788E+00
 0.9606305490769E+00 -0.1924470932295E+01 -0.1927680795162E+00 -0.5643972829057E+00
 0.1263634129534E+01 -0.1953766427894E+01 -0.1380264617286E+00 -0.5635001111106E+00
 0.1595606399349E+01 -0.1997475199646E+01 -0.8037376125711E-01 -0.5415092100398E+00
 0.1949109083573E+01 -0.2052510408390E+01 -0.2068026527162E-01 -0.4939284709372E+00
 0.2314520928467E+01 -0.2114475019754E+01  0.4000918233882E-01 -0.4173228861542E+00
 0.2680676271925E+01 -0.2178068996077E+01  0.1005214566674E+00 -0.3098442000487E+00
 0.3035738060956E+01 -0.2237693285136E+01  0.1596089575424E+00 -0.1716177094648E+00
-0.6261710989805E+00 -0.2627610708948E+01 -0.6507563712828E+00 -0.2748956074075E-01
-0.5706144145017E+00 -0.2651667286349E+01 -0.6444563497732E+00 -0.7916731472293E-01
-0.5154970012350E+00 -0.2674654001409E+01 -0.6380302100363E+00 -0.1231182426185E+00
-0.4622176847868E+00 -0.2695700426645E+01 -0.6315836316976E+00 -0.1593805715970E+00
-0.4120687984925E+00 -0.2714021658813E+01 -0.6252181007777E+00 -0.1883231883604E+00
-0.3661547451762E+00 -0.2728968173101E+01 -0.6190245928796E+00 -0.2105868822728E+00
-0.3253360462388E+00 -0.2740054652965E+01 -0.6130781489763E+00 -0.2269992147955E+00
-0.2902051043949E+00 -0.2746964006513E+01 -0.6074338312330E+00 -0.2384826289015E+00
-0.2610922548304E+00 -0.2749529260708E+01 -0.6021243120800E+00 -0.2459718005839E+00
-0.2380938201153E+00 -0.2747700738142E+01 -0.5971589205498E+00 -0.2503507265859E+00
-0.2211115665405E+00 -0.2741507141554E+01 -0.5925237504483E+00 -0.2524133617091E+00
-0.2098940221862E+00 -0.2731017938218E+01 -0.5881824008455E+00 -0.2528463317824E+00
-0.2040724541567E+00 -0.2716312111591E+01 -0.5840769218530E+00 -0.2522292673522E+00
-0.2031872329390E+00 -0.2697455953375E+01 -0.5801286459073E+00 -0.2510472685244E+00
-0.2067026857298E+00 -0.2674490743088E+01 -0.5762386943502E+00 -0.2497103586866E+00
-0.2140101847249E+00 -0.2647429949468E+01 -0.5722880353664E+00 -0.2485757671471E+00
-0.2244203162880E+00 -0.2616264928425E+01 -0.5681370574085E+00 -0.2479699920511E+00
-0.2371450034044E+00 -0.2580979160075E+01 -0.5636248410945E+00 -0.2482085662292E+00
-0.2512718535759E+00 -0.2541568149798E+01 -0.5585680089980E+00 -0.2496119476839E+00
-0.2657316026739E+00 -0.2498066030643E+01 -0.5527595349001E+00 -0.2525166392263E+00
-0.2792606423787E+00 -0.2450578471589E+01 -0.5459678309291E+00 -0.2572802746893E+00
-0.2903615192682E+00 -0.2399318740333E+01 -0.5379360599360E+00 -0.2642799267453E+00
-0.2972633545095E+00 -0.2344648308650E+01 -0.5283823405055E+00 -0.2739023008497E+00
-0.2978859865323E+00 -0.2287121042904E+01 -0.5170014135912E+00 -0.2865242309906E+00
-0.2898122110664E+00 -0.2227534293274E+01 -0.5034693083703E+00 -0.3024802844654E+00
-0.2702741458845E+00 -0.2166971074363E+01 -0.4874490513130E+00 -0.3220148205340E+00
-0.2361624107968E+00 -0.2106819440543E+01 -0.4685963772506E+00 -0.3452249564887E+00
-0.1840677437135E+00 -0.2048779310905E+01 -0.4465694175781E+00 -0.3719865403241E+00
-0.1103669609306E+00 -0.1994849092991E+01 -0.4210432170583E+00 -0.4018606357507E+00
-0.1136700943670E-01 -0.1947277568850E+01 -0.3917289214947E+00 -0.4339840315863E+00
 0.1164794929931E+00 -0.1908465797084E+01 -0.3583972661587E+00 -0.4669534065997E+00
 0.2762772253700E+00 -0.1880806234114E+01 -0.3209058065307E+00 -0.4987210274526E+00
 0.4703103817984E+00 -0.1866454076258E+01 -0.2792287430528E+00 -0.5265288716617E+00
 0.6996154835618E+00 -0.1867033869301E+01 -0.2334836806269E+00 -0.5469156306640E+00
 0.9635647353826E+00 -0.1883324234021E+01 -0.1839519024687E+00 -0.5558279334875E+00
 0.1259498581151E+01 -0.1914984442514E+01 -0.1310971742261E+00 -0.5488538207651E+00
 0.1582481476047E+01 -0.1960362450777E+01 -0.7557619607215E-01 -0.5215872440775E+00
 0.1925306339571E+01 -0.2016455006817E+01 -0.1822973372089E-01 -0.4700959748461E+00
 0.2278796687605E+01 -0.2079076328348E+01  0.3994407244663E-01 -0.3914185718438E+00
 0.2632406587735E+01 -0.2143241545348E+01  0.9783300993525E-01 -0.2839998039327E+00
 0.2975016451350E+01 -0.2203719897836E+01  0.1542593130013E+00 -0.1480104468653E+00
-0.6053415015424E+00 -0.2538269725603E+01 -0.6287222547977E+00 -0.1858208566200E-01
-0.5525790618979E+00 -0.2561162300565E+01 -0.6227482817722E+00 -0.7048882821395E-01
-0.5003094639196E+00 -0.2583060304942E+01 -0.6166739629615E+00 -0.1149895228026E+00
-0.4498057688859E+00 -0.2603166399794E+01 -0.6105944428346E+00 -0.1521030149644E+00
-0.4022489594497E+00 -0.2620754886962E+01 -0.6046007782916E+00 -0.1821591866856E+00
-0.3586586243723E+00 -0.2635214108500E+01 -0.5987745554970E+00 -0.2057454182648E+00
-0.3198428854846E+00 -0.2646072667292E+01 -0.5931831193945E+00 -0.2236296619386E+00
-0.2863736886802E+00 -0.2653005521308E+01 -0.5878758507576E+00 -0.2366770497314E+00
-0.2585875443985E+00 -0.2655821250500E+01 -0.5828817676654E+00 -0.2457739067191E+00
-0.2366057211201E+00 -0.2654436024580E+01 -0.5782083577560E+00 -0.2517686316839E+00
-0.2203654323646E+00 -0.2648841256506E+01 -0.5738413463251E+00 -0.2554332535486E+00
-0.2096539544471E+00 -0.2639071300935E+01 -0.5697450595663E+00 -0.2574448137007E+00
-0.2041391996674E+00 -0.2625175875474E+01 -0.5658630234602E+00 -0.2583829657003E+00
-0.2033925940361E+00 -0.2607199960645E+01 -0.5621185193125E+00 -0.2587390568221E+00
-0.2069021253271E+00 -0.2585172356879E+01 -0.5584149047623E+00 -0.2589320797006E+00
-0.2140749342960E+00 -0.2559102929015E+01 -0.5546355809270E+00 -0.2593276365990E+00
-0.2242299262019E+00 -0.2528987857145E+01 -0.5506435648746E+00 -0.2602569914592E+00
-0.2365810021001E+00 -0.2494823137997E+01 -0.5462808361597E+00 -0.2620340998753E+00
-0.2502129746349E+00 -0.2456623657113E+01 -0.5413673344165E+00 -0.2649691019165E+00
-0.2640509737618E+00 -0.2414448840405E+01 -0.5356999708159E+00 -0.2693772836385E+00
-0.2768252986873E+00 -0.2368434455834E+01 -0.5290519587878E+00 -0.2755822448296E+00
-0.2870346199415E+00 -0.2318827393877E+01 -0.5211724105298E+00 -0.2839126924956E+00
-0.2929095775897E+00 -0.2266024605410E+01 -0.5117868442262E+00 -0.2946915482546E+00
-0.2923806347098E+00 -0.2210614398114E+01 -0.5005990140242E+00 -0.3082162370801E+00
-0.2830544076154E+00 -0.2153420992004E+01 -0.4872950871851E+00 -0.3247280337250E+00
-0.2622048249289E+00 -0.2095542315353E+01 -0.4715494350830E+00 -0.3443666916153E+00
-0.2267883074492E+00 -0.2038369348769E+01 -0.4530315379943E+00 -0.3671161133239E+00
-0.1734922489841E+00 -0.1983590212553E+01 -0.4314164987360E+00 -0.3927359868083E+00
-0.9882766075100E-01 -0.1933170679296E+01 -0.4063996740653E+00 -0.4206786564751E+00
 0.7220054794554E-03 -0.1889298672335E+01 -0.3777153389995E+00 -0.4499954962795E+00
 0.1284849402690E+00 -0.1854280349148E+01 -0.3451590869191E+00 -0.4792422295027E+00
 0.2873110202081E+00 -0.1830378174323E+01 -0.3086134354216E+00 -0.5063994577570E+00
 0.4792116237259E+00 -0.1819589015887E+01 -0.2680754824269E+00 -0.5288316917206E+00
 0.7049619922019E+00 -0.1823369415557E+01 -0.2236814880042E+00 -0.5433131349313E+00
 0.9637259566871E+00 -0.1842348898531E+01 -0.1757245909872E+00 -0.5461447791098E+00
 0.1252738138957E+01 -0.1876087281238E+01 -0.1246698303138E+00 -0.5333734456151E+00
 0.1567106393682E+01 -0.1922913503473E+01 -0.7116142301852E-01 -0.5011142474592E+00
 0.1899845075747E+01 -0.1979908722285E+01 -0.1601272954620E-01 -0.4459500526991E+00
 0.2242176633251E+01 -0.2043077682941E+01  0.3981979065536E-01 -0.3653454469808E+00
 0.2584096751343E+01 -0.2107710515471E+01  0.9527724859420E-01 -0.2580025494879E+00
 0.2915103833062E+01 -0.2168891971497E+01  0.1492423745367E+00 -0.1241212305122E+00
-0.5844890741966E+00 -0.2449089852465E+01 -0.6067157943730E+00 -0.1010642948193E-01
-0.5344068789628E+00 -0.2470867135102E+01 -0.6010548117695E+00 -0.6222717117396E-01
-0.4848741696193E+00 -0.2491721317644E+01 -0.5953191063237E+00 -0.1072349566758E+00
-0.4370450343638E+00 -0.2510924826259E+01 -0.5895939809101E+00 -0.1451324744794E+00
-0.3919950922813E+00 -0.2527808924211E+01 -0.5839608120001E+00 -0.1762171615710E+00
-0.3506628112849E+00 -0.2541799526624E+01 -0.5784924762021E+00 -0.2010313602219E+00
-0.3138046977166E+00 -0.2552441015354E+01 -0.5732491511562E+00 -0.2202918327152E+00
-0.2819703575081E+00 -0.2559404007683E+01 -0.5682748815062E+00 -0.2348134093639E+00
-0.2554987342123E+00 -0.2562477242330E+01 -0.5635952037067E+00 -0.2454388210842E+00
-0.2345314445545E+00 -0.2561547529930E+01 -0.5592158032299E+00 -0.2529831765789E+00
-0.2190366014299E+00 -0.2556573325213E+01 -0.5551219936005E+00 -0.2581967236032E+00
-0.2088363861689E+00 -0.2547557335792E+01 -0.5512787526068E+00 -0.2617454372739E+00
-0.2036325960064E+00 -0.2534522441944E+01 -0.5476310157504E+00 -0.2642064711722E+00
-0.2030261881219E+00 -0.2517493696626E+01 -0.5441039850574E+00 -0.2660743615352E+00
-0.2065285282693E+00 -0.2496487833682E+01 -0.5406032804458E+00 -0.2677738500023E+00
-0.2135634155142E+00 -0.2471510644281E+01 -0.5370148199612E+00 -0.2696757705326E+00
-0.2234600412343E+00 -0.2442561843074E+01 -0.5332043848070E+00 -0.2721132288995E+00
-0.2354372344773E+00 -0.2409647847810E+01 -0.5290170243405E+00 -0.2753959716649E+00
-0.2485808562612E+00 -0.2372799994421E+01 -0.5242761779487E+00 -0.2798215269946E+00
-0.2618150758703E+00 -0.2332099171184E+01 -0.5187828571414E+00 -0.2856820538647E+00
-0.2738694379169E+00 -0.2287706423850E+01 -0.5123151799874E+00 -0.2932656604967E+00
-0.2832446191570E+00 -0.2239896370085E+01 -0.5046282053680E+00 -0.3028517913153E+00
-0.2881789895923E+00 -0.2189094411195E+01 -0.4954546875403E+00 -0.3146994149997E+00
-0.2866198499088E+00 -0.2135915176226E+01 -0.4845070124467E+00 -0.3290273340254E+00
-0.2762033716692E+00 -0.2081200865495E+01 -0.4714808544585E+00 -0.3459855000633E+00
-0.2542499346260E+00 -0.2026055075245E+01 -0.4560610087700E+00 -0.3656125184265E+00
-0.2177844437970E+00 -0.1971862496209E+01 -0.4379293945269E+00 -0.3877844880280E+00
-0.1635903780559E+00 -0.1920290989910E+01 -0.4167762798036E+00 -0.4121527422602E+00
-0.8830738385573E-01 -0.1873267238777E+01 -0.3923149303725E+00 -0.4380712945035E+00
 0.1141711695186E-01 -0.1832915585666E+01 -0.3642996991712E+00 -0.4645187429709E+00
 0.1387134604357E+00 -0.1801450243057E+01 -0.3325473614795E+00 -0.4900236102080E+00
 0.2962078693796E+00 -0.1781013965362E+01 -0.2969612236215E+00 -0.5126075597860E+00
 0.4856791870877E+00 -0.1773463519790E+01 -0.2575568703783E+00 -0.5297661987972E+00
 0.7076877098347E+00 -0.1780112352418E+01 -0.2144849317128E+00 -0.5385100326894E+00
 0.9612351893252E+00 -0.1801468873028E+01 -0.1680467392447E+00 -0.5354841662655E+00
 0.1243487362036E+01 -0.1837018710136E+01 -0.1187062713889E+00 -0.5171710666373E+00
 0.1549612398037E+01 -0.1885087192234E+01 -0.6709495983905E-01 -0.4801722906552E+00
 0.1872834317355E+01 -0.1942839042215E+01 -0.1400094518065E-01 -0.4215448373781E+00
 0.2204730546064E+01 -0.2006449505886E+01  0.3965620862660E-01 -0.3391403156869E+00
 0.2535765716313E+01 -0.2071446399912E+01  0.9286386466393E-01 -0.2318896012344E+00
 0.2855964528230E+01 -0.2133181367023E+01  0.1445566343956E+00 -0.1000094354504E+00
-0.5636132943719E+00 -0.2360046889337E+01 -0.5847320454550E+00 -0.2044359507293E-02
-0.5161075019049E+00 -0.2380753724228E+01 -0.5793722538600E+00 -0.5436473724066E-01
-0.4692104401157E+00 -0.2400606104721E+01 -0.5739633175201E+00 -0.9983869497762E-01
-0.4239626834546E+00 -0.2418943600839E+01 -0.5685812653313E+00 -0.1384558643793E+00
-0.3813395543044E+00 -0.2435152551744E+01 -0.5632984296036E+00 -0.1704872708617E+00
-0.3422017690393E+00 -0.2448696073000E+01 -0.5581795767254E+00 -0.1964378592697E+00
-0.3072552581512E+00 -0.2459135724803E+01 -0.5532782048354E+00 -0.2169809185015E+00
-0.2770260703487E+00 -0.2466140708899E+01 -0.5486333640248E+00 -0.2328874862135E+00
-0.2518526887398E+00 -0.2469483802229E+01 -0.5442673063040E+00 -0.2449612330657E+00
-0.2318933103828E+00 -0.2469026624903E+01 -0.5401839951065E+00 -0.2539863234179E+00
-0.2171430807636E+00 -0.2464698555591E+01 -0.5363683352635E+00 -0.2606915965220E+00
-0.2074557229280E+00 -0.2456473856915E+01 -0.5327859239078E+00 -0.2657308133551E+00
-0.2025644435164E+00 -0.2444350889426E+01 -0.5293830744769E+00 -0.2696764749503E+00
-0.2020983338791E+00 -0.2428336152339E+01 -0.5260869050829E+00 -0.2730236121361E+00
-0.2055918719920E+00 -0.2408434766286E+01 -0.5228053354461E+00 -0.2761998356256E+00
-0.2124863526140E+00 -0.2384648031817E+01 -0.5194268846263E+00 -0.2795783889163E+00
-0.2221231280660E+00 -0.2356977949833E+01 -0.5158202232661E+00 -0.2834916066122E+00
-0.2337287887925E+00 -0.2325439284312E+01 -0.5118336222477E+00 -0.2882427139374E+00
-0.2463939513665E+00 -0.2290076894390E+01 -0.5072941767106E+00 -0.2941146759441E+00
-0.2590463096038E+00 -0.2250989295783E+01 -0.5020071285577E+00 -0.3013749902009E+00
-0.2704197956863E+00 -0.2208357997950E+01 -0.4957555661146E+00 -0.3102752280584E+00
-0.2790227254085E+00 -0.2162479494297E+01 -0.4883004512174E+00 -0.3210451165359E+00
-0.2831070821991E+00 -0.2113800722584E+01 -0.4793815681000E+00 -0.3338799551330E+00
-0.2806427837388E+00 -0.2062954738295E+01 -0.4687195113913E+00 -0.3489211352578E+00
-0.2693007296979E+00 -0.2010793201888E+01 -0.4560187931124E+00 -0.3662295861250E+00
-0.2464516855992E+00 -0.1958416678425E+01 -0.4409736793758E+00 -0.3857463754641E+00
-0.2091908753532E+00 -0.1907195111148E+01 -0.4232772036076E+00 -0.4072450748137E+00
-0.1543963495205E+00 -0.1858768621687E+01 -0.4026330002412E+00 -0.4302758976234E+00
-0.7882992213675E-01 -0.1815019494210E+01 -0.3787698889134E+00 -0.4541037420914E+00
 0.2071019379191E-01 -0.1778006942588E+01 -0.3514593549963E+00 -0.4776451698089E+00
 0.1471778721083E+00 -0.1749857145785E+01 -0.3205358595117E+00 -0.4994126283455E+00
 0.3030059235591E+00 -0.1732603844476E+01 -0.2859195884440E+00 -0.5174784335799E+00
 0.4897787574876E+00 -0.1727981481695E+01 -0.2476405485316E+00 -0.5294747287816E+00
 0.7078845189695E+00 -0.1737183815430E+01 -0.2058598623597E+00 -0.5326468052122E+00
 0.9562045853045E+00 -0.1760623674831E+01 -0.1608838203027E+00 -0.5239730953175E+00
 0.1231867963728E+01 -0.1797734869341E+01 -0.1131733828089E+00 -0.5003506449916E+00
 0.1530116388675E+01 -0.1846852034828E+01 -0.6334713017453E-01 -0.4588376593393E+00
 0.1844370533914E+01 -0.1905221498576E+01 -0.1217019311377E-01 -0.3969313658539E+00
 0.2166520727580E+01 -0.1969169769053E+01  0.3947019229352E-01 -0.3128390221570E+00
 0.2487432573337E+01 -0.2034427547515E+01  0.9060100651447E-01 -0.2056980377693E+00
 0.2797571913004E+01 -0.2096568313938E+01  0.1402007219023E+00 -0.7573354454583E-01
-0.5427135991566E+00 -0.2271117030688E+01 -0.5627661343548E+00  0.5620758037743E-02
-0.4976901990982E+00 -0.2290794453891E+01 -0.5576969389083E+00 -0.4688531226254E-01
-0.4533368497215E+00 -0.2309684160182E+01 -0.5526042102151E+00 -0.9278578519247E-01
-0.4105848950943E+00 -0.2327190867956E+01 -0.5475551607694E+00 -0.1320603002208E+00
-0.3703136191402E+00 -0.2342754427833E+01 -0.5426136174801E+00 -0.1649591250196E+00
-0.3333090685210E+00 -0.2355874721266E+01 -0.5378367659717E+00 -0.1919568693453E+00
-0.3002278570578E+00 -0.2366131487240E+01 -0.5332718768058E+00 -0.2136904738384E+00
-0.2715718432422E+00 -0.2373194833602E+01 -0.5289533432508E+00 -0.2308932403175E+00
-0.2476769109790E+00 -0.2376824803060E+01 -0.5249003506294E+00 -0.2443340786373E+00
-0.2287148193368E+00 -0.2376861419821E+01 -0.5211152555968E+00 -0.2547685416530E+00
-0.2147045064780E+00 -0.2373208443121E+01 -0.5175825976323E+00 -0.2629045952438E+00
-0.2055283259159E+00 -0.2365814630542E+01 -0.5142685989548E+00 -0.2693829115039E+00
-0.2009486945951E+00 -0.2354656018331E+01 -0.5111209502014E+00 -0.2747695113461E+00
-0.2006215706761E+00 -0.2339721901991E+01 -0.5080687021042E+00 -0.2795575624475E+00
-0.2041043004090E+00 -0.2321006274152E+01 -0.5050221224375E+00 -0.2841749935204E+00
-0.2108564616059E+00 -0.2298505581220E+01 -0.5018724160437E+00 -0.2889949539308E+00
-0.2202333470910E+00 -0.2272222915578E+01 -0.4984912599618E+00 -0.2943467100156E+00
-0.2314720171681E+00 -0.2242179357190E+01 -0.4947302822436E+00 -0.3005249787437E+00
-0.2436714023101E+00 -0.2208430397837E+01 -0.4904203673373E+00 -0.3077965568842E+00
-0.2557670311221E+00 -0.2171088383520E+01 -0.4853710901609E+00 -0.3164031201008E+00
-0.2665021559251E+00 -0.2130350528027E+01 -0.4793705439335E+00 -0.3265590596195E+00
-0.2743981063420E+00 -0.2086529442229E+01 -0.4721855167502E+00 -0.3384443514747E+00
-0.2777260380887E+00 -0.2040086845733E+01 -0.4635625836719E+00 -0.3521913281878E+00
-0.2744838546492E+00 -0.1991666582143E+01 -0.4532300941120E+00 -0.3678655561047E+00
-0.2623818481900E+00 -0.1942121628538E+01 -0.4409007019154E+00 -0.3854415076458E+00
-0.2388444946338E+00 -0.1892541335675E+01 -0.4262771724138E+00 -0.4047663977699E+00
-0.2010384736680E+00 -0.1844273115574E+01 -0.4090623239439E+00 -0.4255163291762E+00
-0.1459341659166E+00 -0.1798922692248E+01 -0.3889713774291E+00 -0.4471469880330E+00
-0.7040844980187E-01 -0.1758323554516E+01 -0.3657464063136E+00 -0.4688421679050E+00
 0.2860319360834E-01 -0.1724469103762E+01 -0.3391731870848E+00 -0.4894652723531E+00
 0.1538993606380E+00 -0.1699402010060E+01 -0.3091005344904E+00 -0.5075213159649E+00
 0.3077486602187E+00 -0.1685057809659E+01 -0.2754618339928E+00 -0.5211399888155E+00
 0.4915771223072E+00 -0.1683065788232E+01 -0.2382977367359E+00 -0.5280926580590E+00
 0.7056404819875E+00 -0.1694522005173E+01 -0.1977763075842E+00 -0.5258559795538E+00
 0.9487377180620E+00 -0.1719767170124E+01 -0.1542058927103E+00 -0.5117306931458E+00
 0.1217989587869E+01 -0.1758203350013E+01 -0.1080427540387E+00 -0.4830094705985E+00
 0.1508722028915E+01 -0.1808185579742E+01 -0.5989271105791E-01 -0.4371819793887E+00
 0.1814538764346E+01 -0.1867039170540E+01 -0.1050008139518E-01 -0.3721582102777E+00
 0.2127602821385E+01 -0.1931223528470E+01  0.3927585916822E-01 -0.2864766012012E+00
 0.2439116838947E+01 -0.1996639662762E+01  0.8849543655568E-01 -0.1794646798671E+00
 0.2739908025268E+01 -0.2059040854269E+01  0.1361734362289E+00 -0.5135091291719E-01
-0.5217894055960E+00 -0.2182276707997E+01 -0.5408132307774E+00  0.1290398125490E-01
-0.4791640001002E+00 -0.2200961968422E+01 -0.5360252016919E+00 -0.3977406152907E-01
-0.4372714462263E+00 -0.2218925200856E+01 -0.5312393373325E+00 -0.8606219881756E-01
-0.3969370941289E+00 -0.2235634838398E+01 -0.5265143943510E+00 -0.1259331884487E+00
-0.3589477392281E+00 -0.2250582963117E+01 -0.5219061482461E+00 -0.1596219444993E+00
-0.3240175959970E+00 -0.2263305731203E+01 -0.5174646731508E+00 -0.1875793597643E+00
-0.2927554233483E+00 -0.2273401705228E+01 -0.5132314333630E+00 -0.2104126594545E+00
-0.2656387814215E+00 -0.2280543681052E+01 -0.5092365000830E+00 -0.2288230590871E+00
-0.2429994948889E+00 -0.2284481606440E+01 -0.5054962277982E+00 -0.2435487658825E+00
-0.2250205455762E+00 -0.2285036978851E+01 -0.5020115123660E+00 -0.2553189990858E+00
-0.2117419989404E+00 -0.2282090996517E+01 -0.4987666065236E+00 -0.2648214920589E+00
-0.2030723484512E+00 -0.2275569598291E+01 -0.4957283967354E+00 -0.2726831717799E+00
-0.1988012845626E+00 -0.2265428565786E+01 -0.4928459774137E+00 -0.2794620338222E+00
-0.1986104909335E+00 -0.2251641309507E+01 -0.4900503673904E+00 -0.2856473340325E+00
-0.2020799603490E+00 -0.2234191206468E+01 -0.4872542406241E+00 -0.2916650828495E+00
-0.2086882905683E+00 -0.2213069541637E+01 -0.4843515736585E+00 -0.2978861458710E+00
-0.2178063952903E+00 -0.2188279370130E+01 -0.4812171602548E+00 -0.3046347406608E+00
-0.2286843801529E+00 -0.2159846124817E+01 -0.4777061081123E+00 -0.3121954162348E+00
-0.2404328877614E+00 -0.2127833107915E+01 -0.4736532061933E+00 -0.3208175417335E+00
-0.2519994043884E+00 -0.2092362775293E+01 -0.4688724429231E+00 -0.3307161794621E+00
-0.2621412149856E+00 -0.2053643383670E+01 -0.4631569266326E+00 -0.3420682877760E+00
-0.2693977756043E+00 -0.2011998039803E+01 -0.4562791698806E+00 -0.3550044590093E+00
-0.2720646567241E+00 -0.1967896687597E+01 -0.4479922755397E+00 -0.3695951481989E+00
-0.2681727346950E+00 -0.1921986600316E+01 -0.4380318735293E+00 -0.3858320142440E+00
-0.2554759087187E+00 -0.1875114303034E+01 -0.4261180487002E+00 -0.4036058501095E+00
-0.2314551782454E+00 -0.1828350226237E+01 -0.4119610870352E+00 -0.4226737177087E+00
-0.1933492664469E+00 -0.1783012050847E+01 -0.3952722693489E+00 -0.4426190346214E+00
-0.1382181180015E+00 -0.1740665114198E+01 -0.3757766520393E+00 -0.4628088704999E+00
-0.6304618770014E-01 -0.1703090398260E+01 -0.3532273224556E+00 -0.4823527182790E+00
 0.3510737655459E-01 -0.1672215388845E+01 -0.3274216073371E+00 -0.5000679039245E+00
 0.1589066512528E+00 -0.1650004079580E+01 -0.2982194901093E+00 -0.5144583136858E+00
 0.3104841402175E+00 -0.1638304467426E+01 -0.2655640693989E+00 -0.5237150993513E+00
 0.4911416603561E+00 -0.1638657119371E+01 -0.2295030952229E+00 -0.5257490823051E+00
 0.7010397013689E+00 -0.1652081069566E+01 -0.1902082764737E+00 -0.5182632461112E+00
 0.9389298854571E+00 -0.1678866648123E+01 -0.1479873547384E+00 -0.4988695679908E+00
 0.1201950511614E+01 -0.1718402508363E+01 -0.1032904008889E+00 -0.4652394807110E+00
 0.1485520675546E+01 -0.1769073923291E+01 -0.5671065039390E-01 -0.4152732422869E+00
 0.1783413515478E+01 -0.1828282303971E+01 -0.8973757832251E-02 -0.3472720630962E+00
 0.2088026427611E+01 -0.1892602540384E+01  0.3908477802782E-01 -0.2600874275188E+00
 0.2390838610638E+01 -0.1958075357852E+01  0.8655265184690E-01 -0.1532259398963E+00
 0.2682963167036E+01 -0.2020594318190E+01  0.1324737717433E+00 -0.2691756578556E-01
-0.5008401324788E+00 -0.2093502456028E+01 -0.5188685254332E+00  0.1981879984596E-01
-0.4605378166732E+00 -0.2111229003069E+01 -0.5143533716129E+00 -0.3301752790619E-01
-0.4210319542314E+00 -0.2128298986069E+01 -0.5098661956577E+00 -0.7965485840240E-01
-0.3830441972763E+00 -0.2144243627679E+01 -0.5054575725230E+00 -0.1200623020489E+00
-0.3472717856074E+00 -0.2158606209456E+01 -0.5011756064807E+00 -0.1544646916236E+00
-0.3143597440648E+00 -0.2170958609924E+01 -0.4970636782046E+00 -0.1832954962769E+00
-0.2848706405527E+00 -0.2180918532271E+01 -0.4931578419133E+00 -0.2071384543083E+00
-0.2592581134022E+00 -0.2188162751596E+01 -0.4894841802936E+00 -0.2266679777572E+00
-0.2378490862524E+00 -0.2192433225797E+01 -0.4860564696527E+00 -0.2425953834211E+00
-0.2208360418152E+00 -0.2193535514690E+01 -0.4828743184964E+00 -0.2556257439544E+00
-0.2082780318512E+00 -0.2191330945524E+01 -0.4799218026265E+00 -0.2664272570137E+00
-0.2001075862289E+00 -0.2185725085122E+01 -0.4771665413805E+00 -0.2756126176145E+00
-0.1961399756155E+00 -0.2176655407194E+01 -0.4745590836333E+00 -0.2837304933672E+00
-0.1960815854009E+00 -0.2164080722598E+01 -0.4720324686335E+00 -0.2912644613436E+00
-0.1995348518409E+00 -0.2147974331412E+01 -0.4695018436466E+00 -0.2986366763423E+00
-0.2059980761645E+00 -0.2128322110764E+01 -0.4668640443426E+00 -0.3062138370106E+00
-0.2148593692165E+00 -0.2105126028519E+01 -0.4639970864611E+00 -0.3143134452490E+00
-0.2253843166736E+00 -0.2078413996024E+01 -0.4607596694053E+00 -0.3232085478599E+00
-0.2366985013770E+00 -0.2048254401724E+01 -0.4569905874299E+00 -0.3331301694924E+00
-0.2477652924003E+00 -0.2014776203659E+01 -0.4525083059547E+00 -0.3442663296309E+00
-0.2573604920708E+00 -0.1978194177536E+01 -0.4471109405837E+00 -0.3567566790090E+00
-0.2640465325948E+00 -0.1938836479889E+01 -0.4405766090618E+00 -0.3706831749738E+00
-0.2661483375361E+00 -0.1897174950441E+01 -0.4326646640425E+00 -0.3860558444765E+00
-0.2617343941892E+00 -0.1853853230449E+01 -0.4231175312325E+00 -0.4027946529592E+00
-0.2486060349292E+00 -0.1809703991259E+01 -0.4116620113719E+00 -0.4207096623066E+00
-0.2243031830141E+00 -0.1765771470604E+01 -0.3980149366544E+00 -0.4394714550359E+00
-0.1861367876137E+00 -0.1723336910791E+01 -0.3818947453716E+00 -0.4585752395241E+00
-0.1312532593093E+00 -0.1683919791612E+01 -0.3630346155939E+00 -0.4773046858718E+00
-0.5673698704563E-01 -0.1649245349342E+01 -0.3411964723618E+00 -0.4947006098528E+00
 0.4024265578188E-01 -0.1621175368771E+01 -0.3161865473094E+00 -0.5095396225234E+00
 0.1622353687959E+00 -0.1601600031628E+01 -0.2878729368560E+00 -0.5203285928374E+00
 0.3112644787004E+00 -0.1592290091281E+01 -0.2562051263338E+00 -0.5253217868149E+00
 0.4885400349549E+00 -0.1594713012307E+01 -0.2212345987671E+00 -0.5225674759553E+00
 0.6941623245290E+00 -0.1609830267293E+01 -0.1831335912817E+00 -0.5099885085062E+00
 0.9268684569215E+00 -0.1637902154597E+01 -0.1422067416541E+00 -0.4854970640411E+00
 0.1183838276155E+01 -0.1678320988627E+01 -0.9889654396815E-01 -0.4471284750674E+00
 0.1460592141466E+01 -0.1729511378176E+01 -0.5378384814341E-01 -0.3931767556366E+00
 0.1751059448686E+01 -0.1788948034858E+01 -0.7577717347336E-02 -0.3223182929807E+00
 0.2047835517112E+01 -0.1853304944881E+01  0.3890611502583E-01 -0.2337053749457E+00
 0.2342618585273E+01 -0.1918733741427E+01  0.8477697003254E-01 -0.1270176999967E+00
 0.2626735490400E+01 -0.1981230816747E+01  0.1291009366543E+00 -0.2488025931087E-02
-0.4798652243328E+00 -0.2004770799968E+01 -0.4969272122649E+00  0.2637712707170E-01
-0.4418205588955E+00 -0.2021568238535E+01 -0.4926777668276E+00 -0.2660364039970E-01
-0.4046359656169E+00 -0.2037775159265E+01 -0.4884822322553E+00 -0.7355166488021E-01
-0.3689308406773E+00 -0.2052985113494E+01 -0.4843831980521E+00 -0.1144358442554E+00
-0.3353152683807E+00 -0.2066791761787E+01 -0.4804214131924E+00 -0.1494761801688E+00
-0.3043675871029E+00 -0.2078802077739E+01 -0.4766339400708E+00 -0.1790947943409E+00
-0.2766060541913E+00 -0.2088652908754E+01 -0.4730517996382E+00 -0.2038578400119E+00
-0.2524612241152E+00 -0.2096025845917E+01 -0.4696974210055E+00 -0.2244178768802E+00
-0.2322548490447E+00 -0.2100656473690E+01 -0.4665822714995E+00 -0.2414628928478E+00
-0.2161877542640E+00 -0.2102336565802E+01 -0.4637048709230E+00 -0.2556758781196E+00
-0.2043363132960E+00 -0.2100909931678E+01 -0.4610492558650E+00 -0.2677062030956E+00
-0.1966553402075E+00 -0.2096263991690E+01 -0.4585838732129E+00 -0.2781519690639E+00
-0.1929842134837E+00 -0.2088319743456E+01 -0.4562607981868E+00 -0.2875514188190E+00
-0.1930531014450E+00 -0.2077022652676E+01 -0.4540151575895E+00 -0.2963809388247E+00
-0.1964866925789E+00 -0.2062336509699E+01 -0.4517646471874E+00 -0.3050571726783E+00
-0.2028036167215E+00 -0.2044241604530E+01 -0.4494090509471E+00 -0.3139410652645E+00
-0.2114106482508E+00 -0.2022737859369E+01 -0.4468297081823E+00 -0.3233420434257E+00
-0.2215911392217E+00 -0.1997853898742E+01 -0.4438890142072E+00 -0.3335206379347E+00
-0.2324886616895E+00 -0.1969660598807E+01 -0.4404298586622E+00 -0.3446889484259E+00
-0.2430861862313E+00 -0.1938289958133E+01 -0.4362752353739E+00 -0.3570078750736E+00
-0.2521822840754E+00 -0.1903958921118E+01 -0.4312282474645E+00 -0.3705802510568E+00
-0.2583669523392E+00 -0.1866995458292E+01 -0.4250724884604E+00 -0.3854405107005E+00
-0.2599991167252E+00 -0.1827867233468E+01 -0.4175732762610E+00 -0.4015400388059E+00
-0.2551891994584E+00 -0.1787207503544E+01 -0.4084793466873E+00 -0.4187295902605E+00
-0.2417894658871E+00 -0.1745828039737E+01 -0.3975235070485E+00 -0.4367415869848E+00
-0.2174008469157E+00 -0.1704740002755E+01 -0.3844281756626E+00 -0.4551637560450E+00
-0.1794064323611E+00 -0.1665181891615E+01 -0.3689176702926E+00 -0.4734072539505E+00
-0.1250358483133E+00 -0.1628622232717E+01 -0.3507316214323E+00 -0.4906768878155E+00
-0.5146583384837E-01 -0.1596727551144E+01 -0.3296386819104E+00 -0.5059492891707E+00
 0.4403707776130E-01 -0.1571294219778E+01 -0.3054514329550E+00 -0.5179640944987E+00
 0.1639275710420E+00 -0.1554143252083E+01 -0.2780431403514E+00 -0.5252332124792E+00
 0.3101455121446E+00 -0.1546977878626E+01 -0.2473664769824E+00 -0.5260734070873E+00
 0.4838400703669E+00 -0.1551207170410E+01 -0.2134734231896E+00 -0.5186663180166E+00
 0.6850846763832E+00 -0.1567753391188E+01 -0.1765337455915E+00 -0.5011468678036E+00
 0.9126332566110E+00 -0.1596866065505E+01 -0.1368465638181E+00 -0.4717164332393E+00
 0.1163730249141E+01 -0.1637957442143E+01 -0.9484544001381E-01 -0.4287612536001E+00
 0.1434005305414E+01 -0.1689500288653E+01 -0.5109899740926E-01 -0.3709560443609E+00
 0.1717531872009E+01 -0.1749040217223E+01 -0.6301669136706E-02 -0.2973414927521E+00
 0.2007068657726E+01 -0.1813335017305E+01  0.3874672866161E-01 -0.2073640037994E+00
 0.2294477944498E+01 -0.1878620041794E+01  0.8317158178005E-01 -0.1008752332899E+00
 0.2571230564044E+01 -0.1940958743832E+01  0.1260543659208E+00  0.2188482477525E-01
-0.4588641787129E+00 -0.1916058161502E+01 -0.4749844751208E+00  0.3258927644285E-01
-0.4230212499816E+00 -0.1931952177211E+01 -0.4709946924568E+00 -0.2052173312094E-01
-0.3881011223947E+00 -0.1947323113196E+01 -0.4670848540783E+00 -0.6774152596863E-01
-0.3546215945093E+00 -0.1961826816897E+01 -0.4632896891847E+00 -0.1090425022288E+00
-0.3231075421371E+00 -0.1975106681344E+01 -0.4596428515454E+00 -0.1446451657196E+00
-0.2940730435709E+00 -0.1986804050803E+01 -0.4561754256723E+00 -0.1749662483008E+00
-0.2679941710028E+00 -0.1996574609199E+01 -0.4529137627892E+00 -0.2005599612226E+00
-0.2452796862385E+00 -0.2004105170792E+01 -0.4498769781098E+00 -0.2220616597024E+00
-0.2262464359337E+00 -0.2009126112679E+01 -0.4470745163844E+00 -0.2401393069362E+00
-0.2111029461394E+00 -0.2011417176499E+01 -0.4445040311514E+00 -0.2554557220097E+00
-0.1999416780499E+00 -0.2010806703050E+01 -0.4421496828084E+00 -0.2686421280027E+00
-0.1927382920634E+00 -0.2007165992824E+01 -0.4399808635338E+00 -0.2802817557390E+00
-0.1893549973158E+00 -0.2000401296468E+01 -0.4379512652827E+00 -0.2909014982449E+00
-0.1895449153165E+00 -0.1990445964284E+01 -0.4359981824169E+00 -0.3009692691277E+00
-0.1929547978027E+00 -0.1977254877339E+01 -0.4340419414961E+00 -0.3108948092562E+00
-0.1991241632228E+00 -0.1960802633682E+01 -0.4319853658180E+00 -0.3210320072482E+00
-0.2074797994845E+00 -0.1941086255774E+01 -0.4297132174550E+00 -0.3316811541714E+00
-0.2173249555431E+00 -0.1918133444545E+01 -0.4270916863818E+00 -0.3430895635484E+00
-0.2278240543266E+00 -0.1892015116967E+01 -0.4239678405763E+00 -0.3554501571534E+00
-0.2379831727780E+00 -0.1862863027555E+01 -0.4201692463276E+00 -0.3688969815878E+00
-0.2466276654485E+00 -0.1830892146140E+01 -0.4155039685092E+00 -0.3834968937459E+00
-0.2523794257315E+00 -0.1796425263628E+01 -0.4097609439778E+00 -0.3992382634164E+00
-0.2536357575325E+00 -0.1759920077538E+01 -0.4027111730150E+00 -0.4160159364465E+00
-0.2485530632339E+00 -0.1721993027387E+01 -0.3941092239968E+00 -0.4336141891208E+00
-0.2350377752591E+00 -0.1683428280436E+01 -0.3836932168564E+00 -0.4516910207089E+00
-0.2107536915714E+00 -0.1645197380367E+01 -0.3711902199188E+00 -0.4697548696384E+00
-0.1731558183265E+00 -0.1608490096632E+01 -0.3563291883014E+00 -0.4871366889676E+00
-0.1195537614621E+00 -0.1574719148081E+01 -0.3388545869580E+00 -0.5029663154604E+00
-0.4720928027899E-01 -0.1545489471881E+01 -0.3185397551787E+00 -0.5161596305096E+00
 0.4652642300621E-01 -0.1522532167272E+01 -0.2952011532520E+00 -0.5254215230621E+00
 0.1640314436647E+00 -0.1507603265603E+01 -0.2687143683919E+00 -0.5292690805577E+00
 0.3071866493800E+00 -0.1502347424103E+01 -0.2390321585064E+00 -0.5260788162851E+00
 0.4771098027275E+00 -0.1508129032361E+01 -0.2062038489994E+00 -0.5141596747881E+00
 0.6738795182743E+00 -0.1525848466576E+01 -0.1703937921995E+00 -0.4918495499257E+00
 0.8962969922729E+00 -0.1555762918707E+01 -0.1318931872523E+00 -0.4576279505593E+00
 0.1141694141571E+01 -0.1597320466096E+01 -0.9112526626291E-01 -0.4102207136894E+00
 0.1405818603933E+01 -0.1649051023471E+01 -0.4864648463235E-01 -0.3486737422125E+00
 0.1682877081463E+01 -0.1708569393689E+01 -0.5138462521794E-02 -0.2723860583374E+00
 0.1965759096071E+01 -0.1772703028183E+01  0.3861121415285E-01 -0.1810968172397E+00
 0.2246438147373E+01 -0.1837745298701E+01  0.8173857095239E-01 -0.7483320450288E-01
 0.2516460956037E+01 -0.1899792323322E+01  0.1233337283809E+00  0.4614981797196E-01
-0.4378365758923E+00 -0.1827340780178E+01 -0.4530354779648E+00  0.3846392550238E-01
-0.4041491407557E+00 -0.1842353032199E+01 -0.4493004412860E+00 -0.1476257288663E-01
-0.3714452935970E+00 -0.1856911866029E+01 -0.4456714385662E+00 -0.6221438364315E-01
-0.3401411658732E+00 -0.1870735791476E+01 -0.4421753980588E+00 -0.1038714892461E+00
-0.3106779961692E+00 -0.1883517421962E+01 -0.4388390901654E+00 -0.1399604160943E+00
-0.2835080232256E+00 -0.1894931619808E+01 -0.4356879350989E+00 -0.1708984364208E+00
-0.2590675465646E+00 -0.1904652277183E+01 -0.4327439711979E+00 -0.1972332621891E+00
-0.2377452853672E+00 -0.1912371424229E+01 -0.4300233483271E+00 -0.2195874094290E+00
-0.2198539583594E+00 -0.1917814978594E+01 -0.4275337937614E+00 -0.2386118532165E+00
-0.2056096255416E+00 -0.1920752044366E+01 -0.4252723403187E+00 -0.2549509706217E+00
-0.1951199875643E+00 -0.1920997273147E+01 -0.4232234584488E+00 -0.2692184518052E+00
-0.1883803893123E+00 -0.1918407698200E+01 -0.4213576237812E+00 -0.2819824291809E+00
-0.1852747604160E+00 -0.1912876465203E+01 -0.4196302513767E+00 -0.2937576620815E+00
-0.1855784162998E+00 -0.1904326023057E+01 -0.4179808940998E+00 -0.3050025144960E+00
-0.1889599735071E+00 -0.1892702983739E+01 -0.4163325976531E+00 -0.3161186790715E+00
-0.1949803258712E+00 -0.1877976231018E+01 -0.4145913175557E+00 -0.3274519563674E+00
-0.2030875013913E+00 -0.1860139150339E+01 -0.4126453364950E+00 -0.3392927284913E+00
-0.2126066132965E+00 -0.1839217029128E+01 -0.4103647345999E+00 -0.3518746926682E+00
-0.2227256021411E+00 -0.1815278554165E+01 -0.4076008373350E+00 -0.3653716566653E+00
-0.2324769357463E+00 -0.1788452157351E+01 -0.4041858246423E+00 -0.3798914091428E+00
-0.2407165264205E+00 -0.1758946928926E+01 -0.3999326970288E+00 -0.3954660092046E+00
-0.2461022422170E+00 -0.1727075758311E+01 -0.3946356059861E+00 -0.4120395518054E+00
-0.2470738848210E+00 -0.1693280890481E+01 -0.3880709608432E+00 -0.4294527489098E+00
-0.2418376375146E+00 -0.1658155843077E+01 -0.3799987017807E+00 -0.4474263664242E+00
-0.2283571256479E+00 -0.1622450806485E+01 -0.3701615919424E+00 -0.4655473187358E+00
-0.2043607350294E+00 -0.1587091471645E+01 -0.3582904466739E+00 -0.4832482726309E+00
-0.1673751439023E+00 -0.1553213134001E+01 -0.3441176607085E+00 -0.4997835454088E+00
-0.1147868707768E+00 -0.1522167971281E+01 -0.3273909732900E+00 -0.5142113096928E+00
-0.4393580048684E-01 -0.1495496375864E+01 -0.3078864398579E+00 -0.5253891640196E+00
 0.4775392519703E-01 -0.1474863951436E+01 -0.2854220095010E+00 -0.5319880862205E+00
 0.1626011505968E+00 -0.1461965250343E+01 -0.2598728238217E+00 -0.5325286984503E+00
 0.3024508971958E+00 -0.1458394337492E+01 -0.2311886915042E+00 -0.5254424941336E+00
 0.4684176943894E+00 -0.1465483530338E+01 -0.1994131701613E+00 -0.5091577207474E+00
 0.6606164211084E+00 -0.1484127655891E+01 -0.1647022494107E+00 -0.4822047640757E+00
 0.8779257156035E+00 -0.1514609437948E+01 -0.1273367463664E+00 -0.4433299658944E+00
 0.1117788460826E+01 -0.1556428699283E+01 -0.8772804899856E-01 -0.3915888989821E+00
 0.1376080381613E+01 -0.1608182088925E+01 -0.4642034215412E-01 -0.3263924574092E+00
 0.1647132518604E+01 -0.1667552858391E+01 -0.4084068018384E-02 -0.2474967750868E+00
 0.1923934645746E+01 -0.1731425163370E+01  0.3850189704898E-01 -0.1549375626560E+00
 0.2198520544315E+01 -0.1796126067564E+01  0.8047889654955E-01 -0.4892572993058E-01
 0.2462445747453E+01 -0.1857751124355E+01  0.1209389264218E+00  0.7025755243430E-01
-0.4167821148086E+00 -0.1738594650127E+01 -0.4310753594106E+00  0.4400806180168E-01
-0.3852138292237E+00 -0.1752742633257E+01 -0.4275912988678E+00 -0.9318398077157E-02
-0.3546867533918E+00 -0.1766509956671E+01 -0.4242393483342E+00 -0.5696124396949E-01
-0.3255145971776E+00 -0.1779678533994E+01 -0.4210386325083E+00 -0.9891257934297E-01
-0.2980562355574E+00 -0.1791989778614E+01 -0.4180092090630E+00 -0.1354107667940E+00
-0.2727045636304E+00 -0.1803151049436E+01 -0.4151711287999E+00 -0.1668796075911E+00
-0.2498588640869E+00 -0.1812853477758E+01 -0.4125424745163E+00 -0.1938656056190E+00
-0.2298900406763E+00 -0.1820793894180E+01 -0.4101367930827E+00 -0.2169825322286E+00
-0.2131079572769E+00 -0.1826694114149E+01 -0.4079604203643E+00 -0.2368671279182E+00
-0.1997364786610E+00 -0.1830313676302E+01 -0.4060100370425E+00 -0.2541468444207E+00
-0.1898980387475E+00 -0.1831455088293E+01 -0.4042706314322E+00 -0.2694183531654E+00
-0.1836067414654E+00 -0.1829962822475E+01 -0.4027139187890E+00 -0.2832344763017E+00
-0.1807672634599E+00 -0.1825718492611E+01 -0.4012971571939E+00 -0.2960971687905E+00
-0.1811764045937E+00 -0.1818634855363E+01 -0.3999622579513E+00 -0.3084543513563E+00
-0.1845244249996E+00 -0.1808650941204E+01 -0.3986350791808E+00 -0.3206987511207E+00
-0.1903939983973E+00 -0.1795729988097E+01 -0.3972248032180E+00 -0.3331673047335E+00
-0.1982554886234E+00 -0.1779861135909E+01 -0.3956233308018E+00 -0.3461399865175E+00
-0.2074576702197E+00 -0.1761065932724E+01 -0.3937047264554E+00 -0.3598367677584E+00
-0.2172144660592E+00 -0.1739408762748E+01 -0.3913246515926E+00 -0.3744127096285E+00
-0.2265877930365E+00 -0.1715011889984E+01 -0.3883199423904E+00 -0.3899502545492E+00
-0.2344676532087E+00 -0.1688074887744E+01 -0.3845085139201E+00 -0.4064481652343E+00
-0.2395517191244E+00 -0.1658896322048E+01 -0.3796896138922E+00 -0.4238083687542E+00
-0.2403261689698E+00 -0.1627897825329E+01 -0.3736448044275E+00 -0.4418201383495E+00
-0.2350505550020E+00 -0.1595644227379E+01 -0.3661389619320E+00 -0.4601439277417E+00
-0.2217485657191E+00 -0.1562845691127E+01 -0.3569188566878E+00 -0.4782990286898E+00
-0.1982148347946E+00 -0.1530376089736E+01 -0.3457181900577E+00 -0.4956458241214E+00
-0.1620475559958E+00 -0.1499310675909E+01 -0.3322716513322E+00 -0.5113653275408E+00
-0.1107074011551E+00 -0.1470936366755E+01 -0.3163287582957E+00 -0.5244468441773E+00
-0.4160608841584E-01 -0.1446725820985E+01 -0.2976663863157E+00 -0.5336913017889E+00
 0.4777009032114E-01 -0.1428278370613E+01 -0.2761016601726E+00 -0.5377353505806E+00
 0.1596968235106E+00 -0.1417229690347E+01 -0.2515065771149E+00 -0.5350998583014E+00
 0.2960050504943E+00 -0.1415130059178E+01 -0.2238250050720E+00 -0.5242646030113E+00
 0.4578330120229E+00 -0.1423291093454E+01 -0.1930916191635E+00 -0.5037671916349E+00
 0.6453622657469E+00 -0.1442617430971E+01 -0.1594510354208E+00 -0.4723185074651E+00
 0.8575793394190E+00 -0.1473434815014E+01 -0.1231710969544E+00 -0.4289199294912E+00
 0.1092062936427E+01 -0.1515311143595E+01 -0.8464964269498E-01 -0.3729480511165E+00
 0.1344829149638E+01 -0.1566920436506E+01 -0.4441825803558E-01 -0.3041756677385E+00
 0.1610326812800E+01 -0.1626014899680E+01 -0.3137617422755E-02 -0.2227194687007E+00
 0.1881617458720E+01 -0.1689523603203E+01  0.3841877167602E-01 -0.1289206478445E+00
 0.2150745891990E+01 -0.1753784223999E+01  0.7939233478126E-01 -0.2318657308050E-01
 0.2409210008334E+01 -0.1814859621609E+01  0.1188700791163E+00  0.9416035847207E-01
-0.3957006525672E+00 -0.1649795469332E+01 -0.4090992304759E+00  0.4922691680153E-01
-0.3662253861581E+00 -0.1663092344703E+01 -0.4058635522201E+00 -0.4182965481767E-02
-0.3378443616898E+00 -0.1676085352885E+01 -0.4027859489170E+00 -0.5197420484156E-01
-0.3107674608551E+00 -0.1688620909434E+01 -0.3998776800165E+00 -0.9415613003119E-01
-0.2852722525879E+00 -0.1700488850848E+01 -0.3971522266053E+00 -0.1309851577040E+00
-0.2616949539490E+00 -0.1711427790895E+01 -0.3946245548491E+00 -0.1628977467799E+00
-0.2404010012865E+00 -0.1721144758817E+01 -0.3923091578665E+00 -0.1904443715567E+00
-0.2217462175047E+00 -0.1729340560972E+01 -0.3902173615101E+00 -0.2142338838264E+00
-0.2060393710478E+00 -0.1735732901343E+01 -0.3883544602651E+00 -0.2348912378969E+00
-0.1935128051989E+00 -0.1740072539751E+01 -0.3867170747525E+00 -0.2530282323729E+00
-0.1843034789648E+00 -0.1742151188256E+01 -0.3852909391854E+00 -0.2692249010764E+00
-0.1784435251630E+00 -0.1741802348046E+01 -0.3840491803646E+00 -0.2840185308715E+00
-0.1758574985277E+00 -0.1738897625071E+01 -0.3829510304261E+00 -0.2978976903910E+00
-0.1763630014796E+00 -0.1733341300232E+01 -0.3819408660336E+00 -0.3112991262087E+00
-0.1796716794011E+00 -0.1725065565570E+01 -0.3809474546708E+00 -0.3246058934233E+00
-0.1853882985605E+00 -0.1714028180547E+01 -0.3798833014823E+00 -0.3381455292026E+00
-0.1930065160818E+00 -0.1700213570695E+01 -0.3786440229976E+00 -0.3521873606523E+00
-0.2019003875101E+00 -0.1683638398944E+01 -0.3771077629102E+00 -0.3669377979230E+00
-0.2113120737991E+00 -0.1664360894470E+01 -0.3751345992439E+00 -0.3825338113481E+00
-0.2203357670283E+00 -0.1642494567133E+01 -0.3725660723839E+00 -0.3990337095731E+00
-0.2278988460036E+00 -0.1618226131881E+01 -0.3692250010788E+00 -0.4164047684794E+00
-0.2327423727662E+00 -0.1591835736851E+01 -0.3649156273611E+00 -0.4345091585726E+00
-0.2334025536571E+00 -0.1563719590669E+01 -0.3594244342211E+00 -0.4530876909423E+00
-0.2281957134574E+00 -0.1534408420012E+01 -0.3525208319469E+00 -0.4717439346219E+00
-0.2152083647619E+00 -0.1504566628441E+01 -0.3439550037658E+00 -0.4899331580187E+00
-0.1923030567418E+00 -0.1475010551888E+01 -0.3334627266949E+00 -0.5069469509851E+00
-0.1571495246316E+00 -0.1446749954059E+01 -0.3207799005180E+00 -0.5218961794053E+00
-0.1072802670899E+00 -0.1421001696495E+01 -0.3056563972716E+00 -0.5337036633408E+00
-0.4017329957524E-01 -0.1399167150329E+01 -0.2878680942704E+00 -0.5411145477310E+00
 0.4663261273092E-01 -0.1382777867082E+01 -0.2672290548523E+00 -0.5427296407466E+00
 0.1553846885579E+00 -0.1373412128954E+01 -0.2436054917093E+00 -0.5370652684086E+00
 0.2879200495559E+00 -0.1372581838699E+01 -0.2169323610611E+00 -0.5226409571193E+00
 0.4454263779254E+00 -0.1381587868016E+01 -0.1872323008081E+00 -0.4980917488311E+00
 0.6281818861491E+00 -0.1401358992328E+01 -0.1546354235399E+00 -0.4622953056647E+00
 0.8353122275313E+00 -0.1432281233646E+01 -0.1193938030020E+00 -0.4144953919343E+00
 0.1064558928036E+01 -0.1474007693192E+01 -0.8188975425143E-01 -0.3543816694444E+00
 0.1312093757019E+01 -0.1525301947602E+01 -0.4264163875205E-01 -0.2820886409743E+00
 0.1572479715725E+01 -0.1583987220741E+01 -0.2301501037501E-02 -0.1981017063417E+00
 0.1838823688771E+01 -0.1647026778239E+01  0.3835938267802E-01 -0.1030816700620E+00
 0.2103133724403E+01 -0.1710746876172E+01  0.7847737081575E-01  0.2350502327558E-02
 0.2356784223146E+01 -0.1771146770632E+01  0.1171274922481E+00  0.1178121726086E+00
-0.3745922517030E+00 -0.1560918600042E+01 -0.3871021761173E+00  0.5412388078017E-01
-0.3471944906089E+00 -0.1573372989422E+01 -0.3841135017300E+00  0.6483920219664E-03
-0.3209377519818E+00 -0.1585605363981E+01 -0.3813086288744E+00 -0.4724648417353E-01
-0.2959260538696E+00 -0.1597528080395E+01 -0.3786908324958E+00 -0.8959309543137E-01
-0.2723565901362E+00 -0.1608979009565E+01 -0.3762671255471E+00 -0.1266726540894E+00
-0.2505118458357E+00 -0.1619726494121E+01 -0.3740476735652E+00 -0.1589406233339E+00
-0.2307270838962E+00 -0.1629491705681E+01 -0.3720437634594E+00 -0.1869565412318E+00
-0.2133463297891E+00 -0.1637978184873E+01 -0.3702649084497E+00 -0.2113278849763E+00
-0.1986794982613E+00 -0.1644899170982E+01 -0.3687157393429E+00 -0.2326699356604E+00
-0.1869684538762E+00 -0.1649997184410E+01 -0.3673931331317E+00 -0.2515798318128E+00
-0.1783647252640E+00 -0.1653054332500E+01 -0.3662838170109E+00 -0.2686211864583E+00
-0.1729178963596E+00 -0.1653894650112E+01 -0.3653625147386E+00 -0.2843154872900E+00
-0.1705716019749E+00 -0.1652381231723E+01 -0.3645905721724E+00 -0.2991374023637E+00
-0.1711635696146E+00 -0.1648411118805E+01 -0.3639149431068E+00 -0.3135119179125E+00
-0.1744265196124E+00 -0.1641910471378E+01 -0.3632674036112E+00 -0.3278119046531E+00
-0.1799875219500E+00 -0.1632831843806E+01 -0.3625638785539E+00 -0.3423551886351E+00
-0.1873643388704E+00 -0.1621154628305E+01 -0.3617037988250E+00 -0.3574004530894E+00
-0.1959577424987E+00 -0.1606889651500E+01 -0.3605694841727E+00 -0.3731409692173E+00
-0.2050401720054E+00 -0.1590087374903E+01 -0.3590255147315E+00 -0.3896965433284E+00
-0.2137406828424E+00 -0.1570850251573E+01 -0.3569181922015E+00 -0.4071028466369E+00
-0.2210270694753E+00 -0.1549349119959E+01 -0.3540752431629E+00 -0.4252977705258E+00
-0.2256871259650E+00 -0.1525841970705E+01 -0.3503058245539E+00 -0.4441064324659E+00
-0.2263105225275E+00 -0.1500695149875E+01 -0.3454011396274E+00 -0.4632244331713E+00
-0.2212735989561E+00 -0.1474400232071E+01 -0.3391347712589E+00 -0.4822021177184E+00
-0.2087283825376E+00 -0.1447570450987E+01 -0.3312597716410E+00 -0.5004344870073E+00
-0.1866070707601E+00 -0.1420959116769E+01 -0.3215132422966E+00 -0.5171478735228E+00
-0.1526512293949E+00 -0.1395505142189E+01 -0.3096312789307E+00 -0.5313860487532E+00
-0.1044633988295E+00 -0.1372350392781E+01 -0.2953627627234E+00 -0.5420074266659E+00
-0.3958325192465E-01 -0.1352820921390E+01 -0.2784808388126E+00 -0.5477016838214E+00
 0.4440636904992E-01 -0.1338378096037E+01 -0.2587943492537E+00 -0.5470313494745E+00
 0.1497373101636E+00 -0.1330542964123E+01 -0.2361611343110E+00 -0.5385020852879E+00
 0.2782714869539E+00 -0.1330792821911E+01 -0.2105042701282E+00 -0.5206628767969E+00
 0.4312704829778E+00 -0.1340426109953E+01 -0.1818311281045E+00 -0.4922322319238E+00
 0.6091388484873E+00 -0.1360408902969E+01 -0.1502540131353E+00 -0.4522388747261E+00
 0.8111738468083E+00 -0.1391204609620E+01 -0.1160061542909E+00 -0.4001549785832E+00
 0.1035309790094E+01 -0.1432569840079E+01 -0.7945201118094E-01 -0.3359755847397E+00
 0.1277893434944E+01 -0.1483372056508E+01 -0.4109572492527E-01 -0.2601993718594E+00
 0.1533601897094E+01 -0.1541509517803E+01 -0.1581524165218E-02 -0.1736935175492E+00
 0.1795563024397E+01 -0.1603969820225E+01  0.3831864140537E-01 -0.7745804355231E-01
 0.2055701523199E+01 -0.1667046392950E+01  0.7773102720805E-01  0.2765118400852E-01
 0.2305203482036E+01 -0.1726645560501E+01  0.1157115860313E+00  0.1411683211536E+00
-0.3534572356202E+00 -0.1471939040914E+01 -0.3650792607470E+00  0.5870040021093E-01
-0.3281325806724E+00 -0.1483554787399E+01 -0.3623374790134E+00  0.5178697457591E-02
-0.3039875328074E+00 -0.1495036573375E+01 -0.3598048265980E+00 -0.4277244686051E-01
-0.2810175982070E+00 -0.1506364464471E+01 -0.3574764178625E+00 -0.8521502816843E-01
-0.2593405017656E+00 -0.1517423899204E+01 -0.3553528854891E+00 -0.1224624512040E+00
-0.2391883548137E+00 -0.1528011059756E+01 -0.3534398881805E+00 -0.1549958228430E+00
-0.2208705283911E+00 -0.1537859036217E+01 -0.3517459181631E+00 -0.1833887676490E+00
-0.2047231347291E+00 -0.1546672432720E+01 -0.3502791187093E+00 -0.2082506278421E+00
-0.1910599580267E+00 -0.1554159349519E+01 -0.3490438667104E+00 -0.2301887489788E+00
-0.1801337608656E+00 -0.1560054400630E+01 -0.3480376374854E+00 -0.2497862855411E+00
-0.1721108909672E+00 -0.1564131164228E+01 -0.3472484162135E+00 -0.2675904527069E+00
-0.1670579129730E+00 -0.1566205662028E+01 -0.3466527201657E+00 -0.2841066144577E+00
-0.1649367798134E+00 -0.1566133967227E+01 -0.3462141545671E+00 -0.2997950745777E+00
-0.1656046473952E+00 -0.1563807150162E+01 -0.3458823646655E+00 -0.3150686019685E+00
-0.1688149340134E+00 -0.1559146215423E+01 -0.3455922350369E+00 -0.3302895489924E+00
-0.1742171137380E+00 -0.1552098897762E+01 -0.3452632074449E+00 -0.3457659259941E+00
-0.1813537132525E+00 -0.1542639395371E+01 -0.3447986268627E+00 -0.3617460002724E+00
-0.1896534662910E+00 -0.1530771955192E+01 -0.3440850894238E+00 -0.3784105645100E+00
-0.1984209081241E+00 -0.1516537916792E+01 -0.3429917700942E+00 -0.3958634394839E+00
-0.2068223016416E+00 -0.1500026680866E+01 -0.3413698015884E+00 -0.4141194206483E+00
-0.2138686436910E+00 -0.1481390541457E+01 -0.3390518420819E+00 -0.4330893937689E+00
-0.2183975608179E+00 -0.1460861974940E+01 -0.3358519121563E+00 -0.4525644071928E+00
-0.2190554146061E+00 -0.1438773424414E+01 -0.3315657727448E+00 -0.4721983738411E+00
-0.2142816591349E+00 -0.1415572649775E+01 -0.3259708666394E+00 -0.4914923163028E+00
-0.2022964869632E+00 -0.1391816636299E+01 -0.3188226294033E+00 -0.5097849054648E+00
-0.1811035872942E+00 -0.1368190408055E+01 -0.3098588036872E+00 -0.5262408468291E+00
-0.1485169734099E+00 -0.1345556728430E+01 -0.2988147448206E+00 -0.5398398514821E+00
-0.1022080744504E+00 -0.1324977333251E+01 -0.2854370857935E+00 -0.5493778295498E+00
-0.3977460112703E-01 -0.1307698362358E+01 -0.2694945967129E+00 -0.5534889005342E+00
 0.4116347973482E-01 -0.1295107561837E+01 -0.2507888201574E+00 -0.5506941549264E+00
 0.1428339527421E+00 -0.1288667368295E+01 -0.2291666865254E+00 -0.5394813195546E+00
 0.2671402835925E+00 -0.1289822334450E+01 -0.2045364132193E+00 -0.5184169005027E+00
 0.4154410064121E+00 -0.1299874850050E+01 -0.1768867713634E+00 -0.4862867851301E+00
 0.5882964390200E+00 -0.1319840056347E+01 -0.1463087256456E+00 -0.4422527152773E+00
 0.7852095721704E+00 -0.1350275680685E+01 -0.1130132233869E+00 -0.3859993841158E+00
 0.1004341283269E+01 -0.1391061683267E+01 -0.7734408115229E-01 -0.3178191225991E+00
 0.1242237801939E+01 -0.1441186620772E+01 -0.3978976435948E-01 -0.2385796074659E+00
 0.1493694725505E+01 -0.1498630347971E+01 -0.9871245079271E-03 -0.1495481752038E+00
 0.1751838281747E+01 -0.1560395419814E+01  0.3828857295725E-01 -0.5208978856517E-01
 0.2008463830872E+01 -0.1622720776044E+01  0.7714861211511E-01  0.5267971203043E-01
 0.2254506530363E+01 -0.1681392679856E+01  0.1146227718094E+00  0.1641850573473E+00
-0.3322962520024E+00 -0.1382831406662E+01 -0.3430255368444E+00  0.6295585768598E-01
-0.3090520201838E+00 -0.1393607291841E+01 -0.3405318674793E+00  0.9409252855439E-02
-0.2870155027856E+00 -0.1404344765050E+01 -0.3382720586078E+00 -0.3854762667254E-01
-0.2660704445588E+00 -0.1415093684911E+01 -0.3362328309043E+00 -0.8101406516241E-01
-0.2462561029198E+00 -0.1425786432009E+01 -0.3344085119688E+00 -0.1183438581163E+00
-0.2277581444768E+00 -0.1436244678209E+01 -0.3328005694963E+00 -0.1510507594823E+00
-0.2108650654438E+00 -0.1446210673849E+01 -0.3314151527971E+00 -0.1797274310706E+00
-0.1959096112671E+00 -0.1455387970766E+01 -0.3302595213279E+00 -0.2049879721047E+00
-0.1832126397958E+00 -0.1463478560337E+01 -0.3293382449341E+00 -0.2274331040233E+00
-0.1730394836628E+00 -0.1470209322243E+01 -0.3286497660785E+00 -0.2476323150524E+00
-0.1655717123732E+00 -0.1475346311170E+01 -0.3281836095989E+00 -0.2661162242663E+00
-0.1608924606873E+00 -0.1478698971826E+01 -0.3279182913891E+00 -0.2833736694633E+00
-0.1589812379578E+00 -0.1480117861445E+01 -0.3278198247655E+00 -0.2998501641784E+00
-0.1597138891565E+00 -0.1479489390276E+01 -0.3278406607718E+00 -0.3159459195205E+00
-0.1628640728252E+00 -0.1476730359411E+01 -0.3279188913337E+00 -0.3320125992015E+00
-0.1681036482536E+00 -0.1471784185706E+01 -0.3279775716791E+00 -0.3483484829504E+00
-0.1750004072156E+00 -0.1464619877605E+01 -0.3279240618506E+00 -0.3651918549495E+00
-0.1830120935590E+00 -0.1455234578249E+01 -0.3276493392439E+00 -0.3827119067830E+00
-0.1914769276976E+00 -0.1443659426500E+01 -0.3270272757126E+00 -0.4009978822522E+00
-0.1996004731623E+00 -0.1429969104806E+01 -0.3259139204501E+00 -0.4200457075866E+00
-0.2064394583094E+00 -0.1414295071923E+01 -0.3241469108766E+00 -0.4397419009164E+00
-0.2108841986133E+00 -0.1396841344940E+01 -0.3215451135020E+00 -0.4598466936858E+00
-0.2116407700889E+00 -0.1377902850426E+01 -0.3179087288402E+00 -0.4799761009554E+00
-0.2072147088152E+00 -0.1357879282518E+01 -0.3130188029309E+00 -0.4995859747989E+00
-0.1958970042519E+00 -0.1337266650653E+01 -0.3066327355502E+00 -0.5179628040132E+00
-0.1757648235611E+00 -0.1316676671518E+01 -0.2984883034637E+00 -0.5342134474167E+00
-0.1447056199813E+00 -0.1296890722370E+01 -0.2883192727665E+00 -0.5472566624662E+00
-0.1004592614049E+00 -0.1278885059586E+01 -0.2758688683089E+00 -0.5558277200261E+00
-0.4067900350583E-01 -0.1263820692434E+01 -0.2608999430757E+00 -0.5585048806109E+00
 0.3698341542433E-01 -0.1253007154837E+01 -0.2432047515065E+00 -0.5537641401788E+00
 0.1347610303434E+00 -0.1247845165629E+01 -0.2226168303743E+00 -0.5400670937304E+00
 0.2546135009978E+00 -0.1249746199778E+01 -0.1990265427218E+00 -0.5159843148378E+00
 0.3980177111042E+00 -0.1260020683654E+01 -0.1724005970788E+00 -0.4803508035280E+00
 0.5657188312741E+00 -0.1279742851032E+01 -0.1428048060796E+00 -0.4324405801040E+00
 0.7574616022926E+00 -0.1309581336586E+01 -0.1104239485040E+00 -0.3721323412910E+00
 0.9716719438809E+00 -0.1349561115879E+01 -0.7557783552575E-01 -0.3000063269349E+00
 0.1205126677898E+01 -0.1398812858771E+01 -0.3873723675191E-01 -0.2173059011611E+00
 0.1452749880964E+01 -0.1455408104995E+01 -0.5316448140408E-03 -0.1257228871686E+00
 0.1707644986253E+01 -0.1516355036578E+01  0.3825799050519E-01 -0.2702031691612E-01
 0.1961431163162E+01 -0.1577814381498E+01  0.7672335747616E-01  0.7739760897001E-01
 0.2204734278282E+01 -0.1635428142194E+01  0.1138612289143E+00  0.1868188415633E+00
-0.3111103512216E+00 -0.1293569917872E+01 -0.3209360586011E+00  0.6688742397868E-01
-0.2899662913350E+00 -0.1303499335029E+01 -0.3186931300217E+00  0.1333954829053E-01
-0.2700448906485E+00 -0.1313494865520E+01 -0.3167079559531E+00 -0.3456874721677E-01
-0.2511142892346E+00 -0.1323678547197E+01 -0.3149585719796E+00 -0.7698290118097E-01
-0.2331365209417E+00 -0.1334028817808E+01 -0.3134330724204E+00 -0.1143062661587E+00
-0.2162554996263E+00 -0.1344389909027E+01 -0.3121290863817E+00 -0.1470926764730E+00
-0.2007447497097E+00 -0.1354509860266E+01 -0.3110509266301E+00 -0.1759586887365E+00
-0.1869389282402E+00 -0.1364088593461E+01 -0.3102055089626E+00 -0.2015256406357E+00
-0.1751696490098E+00 -0.1372820757020E+01 -0.3095980858193E+00 -0.2243884512143E+00
-0.1657167369739E+00 -0.1380425559190E+01 -0.3092284638407E+00 -0.2451028576881E+00
-0.1587774821994E+00 -0.1386662516374E+01 -0.3090880043204E+00 -0.2641824393624E+00
-0.1544511884615E+00 -0.1391335950805E+01 -0.3091574324600E+00 -0.2820990155736E+00
-0.1527341238230E+00 -0.1394292444176E+01 -0.3094053182102E+00 -0.2992829133713E+00
-0.1535200177396E+00 -0.1395415108986E+01 -0.3097870299612E+00 -0.3161215525354E+00
-0.1566022178875E+00 -0.1394617572736E+01 -0.3102439627477E+00 -0.3329558878998E+00
-0.1616748235480E+00 -0.1391839554112E+01 -0.3107028801618E+00 -0.3500747254710E+00
-0.1683312284503E+00 -0.1387045045650E+01 -0.3110752594555E+00 -0.3677069826809E+00
-0.1760590331502E+00 -0.1380223791459E+01 -0.3112565695600E+00 -0.3860113209643E+00
-0.1842314968232E+00 -0.1371395942184E+01 -0.3111254924375E+00 -0.4050640217929E+00
-0.1920953185117E+00 -0.1360620147623E+01 -0.3105430978543E+00 -0.4248443709694E+00
-0.1987552225722E+00 -0.1348005144248E+01 -0.3093520779737E+00 -0.4452173970565E+00
-0.2031568210854E+00 -0.1333723986851E+01 -0.3073761661676E+00 -0.4659160222982E+00
-0.2040687225342E+00 -0.1318030930400E+01 -0.3044199351231E+00 -0.4865224178652E+00
-0.2000653860778E+00 -0.1301273794791E+01 -0.3002678406482E+00 -0.5064516786157E+00
-0.1895112218629E+00 -0.1283883265993E+01 -0.2946789019622E+00 -0.5249425003614E+00
-0.1705590222435E+00 -0.1266392996061E+01 -0.2873904079433E+00 -0.5410478838948E+00
-0.1411710770455E+00 -0.1249497820132E+01 -0.2781337835801E+00 -0.5536289102393E+00
-0.9915599422829E-01 -0.1234082954467E+01 -0.2666477937124E+00 -0.5613621875008E+00
-0.4222129266978E-01 -0.1221218411684E+01 -0.2526879446362E+00 -0.5627698106872E+00
 0.3195312750481E-01 -0.1212129686884E+01 -0.2360353153930E+00 -0.5562787873723E+00
 0.1256126369926E+00 -0.1208150762498E+01 -0.2165076283272E+00 -0.5403157223762E+00
 0.2407853066954E+00 -0.1210657195120E+01 -0.1939743805754E+00 -0.5134404738116E+00
 0.3790857668337E+00 -0.1220968807784E+01 -0.1683766106990E+00 -0.4745166781972E+00
 0.5414725296444E+00 -0.1240226728950E+01 -0.1397508419435E+00 -0.4229068158342E+00
 0.7279701195063E+00 -0.1269226389047E+01 -0.1082512555213E+00 -0.3586616144428E+00
 0.9373135325955E+00 -0.1308161394128E+01 -0.7416957341163E-01 -0.2826373694603E+00
 0.1166549767067E+01 -0.1356330470870E+01 -0.3795614132618E-01 -0.1964608365306E+00
 0.1410748883880E+01 -0.1411912173129E+01 -0.2326578532983E-03 -0.1022794094785E+00
 0.1662971244796E+01 -0.1471910757046E+01  0.3821209811935E-01 -0.2297154051971E-02
 0.1914609061674E+01 -0.1532379484588E+01  0.7644591655634E-01  0.1017618017347E+00
 0.2155927589136E+01 -0.1588795130563E+01  0.1134264934048E+00  0.2090249812385E+00
-0.2899010763010E+00 -0.1204128397749E+01 -0.2988058992626E+00  0.7048989022558E-01
-0.2708902158094E+00 -0.1213198975870E+01 -0.2968178427588E+00  0.1696716216577E-01
-0.2531006216441E+00 -0.1222450890668E+01 -0.2951103068599E+00 -0.3083373232378E-01
-0.2361804025250E+00 -0.1232081029397E+01 -0.2936522907601E+00 -0.7311473942324E-01
-0.2200160386562E+00 -0.1242112615182E+01 -0.2924257351250E+00 -0.1103390924408E+00
-0.2047153812343E+00 -0.1252408783053E+01 -0.2914248372000E+00 -0.1431086274021E+00
-0.1905439488258E+00 -0.1262719285818E+01 -0.2906526512599E+00 -0.1720685134095E+00
-0.1778443961266E+00 -0.1272737361422E+01 -0.2901163558328E+00 -0.1978493100033E+00
-0.1669632436834E+00 -0.1282148857596E+01 -0.2898224245745E+00 -0.2210403887341E+00
-0.1581969265447E+00 -0.1290665325461E+01 -0.2897724547191E+00 -0.2421832019795E+00
-0.1517589860393E+00 -0.1298040761672E+01 -0.2899599538629E+00 -0.2617735806315E+00
-0.1477644500132E+00 -0.1304075874514E+01 -0.2903680692322E+00 -0.2802657381800E+00
-0.1462254753157E+00 -0.1308614863265E+01 -0.2909680720519E+00 -0.2980744461884E+00
-0.1470527851099E+00 -0.1311538961491E+01 -0.2917183536672E+00 -0.3155742001332E+00
-0.1500587610731E+00 -0.1312759730353E+01 -0.2925637026447E+00 -0.3330953632730E+00
-0.1549594656201E+00 -0.1312213926970E+01 -0.2934346828906E+00 -0.3509176781194E+00
-0.1613740637672E+00 -0.1309860873458E+01 -0.2942469918297E+00 -0.3692614722407E+00
-0.1688206528255E+00 -0.1305682856137E+01 -0.2949007061868E+00 -0.3882761155970E+00
-0.1767086423458E+00 -0.1299688555383E+01 -0.2952794439458E+00 -0.4080267215083E+00
-0.1843274350878E+00 -0.1291919646427E+01 -0.2952494207025E+00 -0.4284783613630E+00
-0.1908317423470E+00 -0.1282460687422E+01 -0.2946584903445E+00 -0.4494776712946E+00
-0.1952248238911E+00 -0.1271451741690E+01 -0.2933353174872E+00 -0.4707340133319E+00
-0.1963404283987E+00 -0.1259103731084E+01 -0.2910888362340E+00 -0.4918000287202E+00
-0.1928246504749E+00 -0.1245709272493E+01 -0.2877067888808E+00 -0.5120547403126E+00
-0.1831179377144E+00 -0.1231629798996E+01 -0.2829495515584E+00 -0.5306937120644E+00
-0.1654510192509E+00 -0.1217316444864E+01 -0.2765534969440E+00 -0.5467203428361E+00
-0.1378628307676E+00 -0.1203372468948E+01 -0.2682470639403E+00 -0.5589415849507E+00
-0.9823179592775E-01 -0.1190586311525E+01 -0.2577636253315E+00 -0.5659776289968E+00
-0.4431968400308E-01 -0.1179930486754E+01 -0.2448500378000E+00 -0.5662943189335E+00
 0.2616718363540E-01 -0.1172539343442E+01 -0.2292744353779E+00 -0.5582658327882E+00
 0.1154911385912E+00 -0.1169673044399E+01 -0.2108363843033E+00 -0.5402745840538E+00
 0.2257580828466E+00 -0.1172665562876E+01 -0.1893814988280E+00 -0.5108538575591E+00
 0.3587373108650E+00 -0.1182844240872E+01 -0.1648213884575E+00 -0.4688732749533E+00
 0.5156281287863E+00 -0.1201422043605E+01 -0.1371587850076E+00 -0.4137565065931E+00
 0.6967747649249E+00 -0.1229335805391E+01 -0.1065122096803E+00 -0.3456999695117E+00
 0.9012716000954E+00 -0.1266973146868E+01 -0.7314031044433E-01 -0.2658201898198E+00
 0.1126486093003E+01 -0.1313832853325E+01 -0.3746935262285E-01 -0.1761345211721E+00
 0.1367662349229E+01 -0.1368223961763E+01 -0.1123225085628E-03 -0.7928444805225E-01
 0.1617798075100E+01 -0.1427137827351E+01  0.3813205011794E-01  0.2202781086975E-01
 0.1867997591179E+01 -0.1486479220778E+01  0.7630367521710E-01  0.1257220482049E+00
 0.2108123822662E+01 -0.1541540146261E+01  0.1133167369689E+00  0.2307551538341E+00
-0.2686705731544E+00 -0.1114480274543E+01 -0.2766301736617E+00  0.7375546475458E-01
-0.2518402132412E+00 -0.1122673440665E+01 -0.2749027348777E+00  0.2028764694250E-01
-0.2362096184738E+00 -0.1131175886336E+01 -0.2734771050371E+00 -0.2734170880158E-01
-0.2213018716009E+00 -0.1140262273344E+01 -0.2723128330468E+00 -0.6940322083799E-01
-0.2069302299992E+00 -0.1149998788482E+01 -0.2713858077402E+00 -0.1064317020363E+00
-0.1931734593239E+00 -0.1160262907302E+01 -0.2706872773587E+00 -0.1390854450179E+00
-0.1802973076791E+00 -0.1170801211497E+01 -0.2702197078617E+00 -0.1680427294951E+00
-0.1686593995097E+00 -0.1181296716301E+01 -0.2699912271854E+00 -0.1939447049989E+00
-0.1586257600077E+00 -0.1191424842091E+01 -0.2700101244431E+00 -0.2173747920529E+00
-0.1505116793308E+00 -0.1200889520374E+01 -0.2702802439684E+00 -0.2388591282342E+00
-0.1445474399064E+00 -0.1209440338392E+01 -0.2707975596948E+00 -0.2588748095940E+00
-0.1408632486143E+00 -0.1216875987746E+01 -0.2715478513185E+00 -0.2778577640354E+00
-0.1394861736382E+00 -0.1223039944980E+01 -0.2725052277843E+00 -0.2962068694670E+00
-0.1403429364745E+00 -0.1227813040787E+01 -0.2736311995297E+00 -0.3142836616112E+00
-0.1432641858152E+00 -0.1231105949888E+01 -0.2748740312365E+00 -0.3324081553677E+00
-0.1479875358177E+00 -0.1232853316814E+01 -0.2761681746416E+00 -0.3508515740688E+00
-0.1541579225414E+00 -0.1233010309698E+01 -0.2774336505819E+00 -0.3698265679246E+00
-0.1613243698625E+00 -0.1231551940126E+01 -0.2785752661488E+00 -0.3894745934934E+00
-0.1689333008264E+00 -0.1228475254205E+01 -0.2794817151708E+00 -0.4098515402671E+00
-0.1763181142166E+00 -0.1223804403342E+01 -0.2800245076844E+00 -0.4309108605911E+00
-0.1826852147440E+00 -0.1217598769676E+01 -0.2800568010572E+00 -0.4524840908666E+00
-0.1870975932966E+00 -0.1209963903266E+01 -0.2794123034761E+00 -0.4742610069474E+00
-0.1884565261413E+00 -0.1201065263568E+01 -0.2779043620829E+00 -0.4957692884196E+00
-0.1854823179486E+00 -0.1191137458688E+01 -0.2753239594300E+00 -0.5163568522526E+00
-0.1766940541088E+00 -0.1180469205801E+01 -0.2714326560266E+00 -0.5351810926531E+00
-0.1604028649053E+00 -0.1169425027305E+01 -0.2659655824053E+00 -0.5512003870080E+00
-0.1347265409568E+00 -0.1158511757093E+01 -0.2586476634640E+00 -0.5631714761051E+00
-0.9761516653722E-01 -0.1148415216927E+01 -0.2492060804062E+00 -0.5696608068396E+00
-0.4688604299637E-01 -0.1140003341402E+01 -0.2373778804168E+00 -0.5690783465282E+00
 0.1972786039457E-01 -0.1134310950957E+01 -0.2229166214342E+00 -0.5597419791292E+00
 0.1045077712451E+00 -0.1132515130498E+01 -0.2056014749143E+00 -0.5399807632137E+00
 0.2096436270241E+00 -0.1135899470698E+01 -0.1852511714952E+00 -0.5082848242429E+00
 0.3370732118370E+00 -0.1145793139667E+01 -0.1617439879762E+00 -0.4635050795532E+00
 0.4882623821017E+00 -0.1163482204953E+01 -0.1350439665826E+00 -0.4050953404751E+00
 0.6639164794566E+00 -0.1190057417270E+01 -0.1052281891308E+00 -0.3333660406223E+00
 0.8635462256527E+00 -0.1226126971861E+01 -0.7251615032218E-01 -0.2496724144813E+00
 0.1084902996068E+01 -0.1271428385633E+01 -0.3730507846886E-01 -0.1564266080065E+00
 0.1323448502743E+01 -0.1324437240867E+01 -0.1977476277569E-03 -0.5680980538016E-01
 0.1572100316174E+01 -0.1382127615649E+01  0.3799454067123E-01  0.4589934740433E-01
 0.1821592089018E+01 -0.1440192956621E+01  0.7627982761606E-01  0.1492177284306E+00
 0.2061350885270E+01 -0.1493713638917E+01  0.1135274509624E+00  0.2519527886804E+00
-0.2474217235590E+00 -0.1024598591274E+01 -0.2544040667575E+00  0.7667353515391E-01
-0.2328346093136E+00 -0.1031889072168E+01 -0.2529447400654E+00  0.2329440195019E-01
-0.2194011483871E+00 -0.1039631891077E+01 -0.2518066116450E+00 -0.2409299495670E-01
-0.2065138655940E+00 -0.1048182620477E+01 -0.2509393009535E+00 -0.6584232514978E-01
-0.1939160910354E+00 -0.1057647828572E+01 -0.2503127876513E+00 -0.1025733050579E+00
-0.1816661257867E+00 -0.1067913641681E+01 -0.2499159572175E+00 -0.1350096982394E+00
-0.1700396913581E+00 -0.1078717660850E+01 -0.2497514741631E+00 -0.1638670504804E+00
-0.1594173160772E+00 -0.1089728659897E+01 -0.2498291989176E+00 -0.1897977015337E+00
-0.1501895347491E+00 -0.1100609910528E+01 -0.2501598927830E+00 -0.2133779527143E+00
-0.1426927788126E+00 -0.1111057870891E+01 -0.2507501336772E+00 -0.2351170558790E+00
-0.1371744379856E+00 -0.1120818983802E+01 -0.2515986881067E+00 -0.2554721048579E+00
-0.1337791943443E+00 -0.1129691642459E+01 -0.2526941711262E+00 -0.2748599823896E+00
-0.1325479091303E+00 -0.1137520335299E+01 -0.2540136526710E+00 -0.2936633756784E+00
-0.1334221874204E+00 -0.1144187018498E+01 -0.2555218449912E+00 -0.3122309229776E+00
-0.1362500618278E+00 -0.1149602723338E+01 -0.2571705608653E+00 -0.3308726489900E+00
-0.1407901522971E+00 -0.1153700934724E+01 -0.2588982212621E+00 -0.3498519159896E+00
-0.1467129960858E+00 -0.1156433350392E+01 -0.2606292731792E+00 -0.3693747179845E+00
-0.1535987606348E+00 -0.1157768134892E+01 -0.2622733830135E+00 -0.3895760845635E+00
-0.1609314907435E+00 -0.1157690864818E+01 -0.2637244750422E+00 -0.4105047433939E+00
-0.1680895874020E+00 -0.1156208030425E+01 -0.2648595275121E+00 -0.4321052614806E+00
-0.1743325576245E+00 -0.1153353326124E+01 -0.2655371807064E+00 -0.4541975372633E+00
-0.1787849246795E+00 -0.1149196809629E+01 -0.2655963508194E+00 -0.4764559406667E+00
-0.1804176445244E+00 -0.1143856923265E+01 -0.2648549175044E+00 -0.4983880040663E+00
-0.1780276527589E+00 -0.1137508033006E+01 -0.2631071410735E+00 -0.5193157918570E+00
-0.1702152369704E+00 -0.1130363201251E+01 -0.2601156915204E+00 -0.5383638169170E+00
-0.1553745190690E+00 -0.1122696673180E+01 -0.2556142422587E+00 -0.5544503921117E+00
-0.1317047183922E+00 -0.1114914281031E+01 -0.2493238035998E+00 -0.5662864272017E+00
-0.9723015779001E-01 -0.1107593381921E+01 -0.2409647115328E+00 -0.5723878857399E+00
-0.4982623380049E-01 -0.1101489776304E+01 -0.2302632054521E+00 -0.5711099403390E+00
 0.1274518396046E-01 -0.1097529167662E+01 -0.2169567999733E+00 -0.5607114474124E+00
 0.9278325263706E-01 -0.1096794083309E+01 -0.2008021691265E+00 -0.5394594345017E+00
 0.1925644840084E+00 -0.1100505515291E+01 -0.1815882089624E+00 -0.5057840106554E+00
 0.3142051354198E+00 -0.1109984335978E+01 -0.1591558424832E+00 -0.4584909483834E+00
 0.4594607385999E+00 -0.1126586279257E+01 -0.1334251101196E+00 -0.3970291528622E+00
 0.6294399743248E+00 -0.1151565314525E+01 -0.1044250695962E+00 -0.3217850328958E+00
 0.8241333805171E+00 -0.1185777106196E+01 -0.7232874621360E-01 -0.2343235858151E+00
 0.1041754827744E+01 -0.1229242421115E+01 -0.3749751923305E-01 -0.1374494808728E+00
 0.1278050419556E+01 -0.1280656996661E+01 -0.5213154286830E-03 -0.3493270880680E-01
 0.1525848256244E+01 -0.1336990341233E+01  0.3777158356494E-01  0.6926244688601E-01
 0.1775387672720E+01 -0.1393626200456E+01  0.7635229559057E-01  0.1721747209600E+00
 0.2015616347564E+01 -0.1445372435334E+01  0.1140487841455E+00  0.2725435109288E+00
-0.2261583041529E+00 -0.9344560155680E+00 -0.2321228674031E+00  0.7923039086159E-01
-0.2138940000243E+00 -0.9408112596080E+00 -0.2309410553678E+00  0.2597853544178E-01
-0.2027072185013E+00 -0.9477798808648E+00 -0.2300974233019E+00 -0.2108906603774E-01
-0.1918539155290E+00 -0.9558016394095E+00 -0.2295311144080E+00 -0.6242623283987E-01
-0.1810121516127E+00 -0.9650198703127E+00 -0.2292064078005E+00 -0.9875282084580E-01
-0.1702304697136E+00 -0.9753222626955E+00 -0.2291105498958E+00 -0.1308676341001E+00
-0.1598060907700E+00 -0.9864305771299E+00 -0.2292473369960E+00 -0.1595271167143E+00
-0.1501514087055E+00 -0.9979948739083E+00 -0.2296292599445E+00 -0.1853944364011E+00
-0.1416868126936E+00 -0.1009664561165E+01 -0.2302702782029E+00 -0.2090367228812E+00
-0.1347720940131E+00 -0.1021128980431E+01 -0.2311802183336E+00 -0.2309441920657E+00
-0.1296718983609E+00 -0.1032132916058E+01 -0.2323609663463E+00 -0.2515523974153E+00
-0.1265444601827E+00 -0.1042476329768E+01 -0.2338041614742E+00 -0.2712583613002E+00
-0.1254431448563E+00 -0.1052006532478E+01 -0.2354899389759E+00 -0.2904283416842E+00
-0.1263231969511E+00 -0.1060608174566E+01 -0.2373862778408E+00 -0.3093982425404E+00
-0.1290490338976E+00 -0.1068193934948E+01 -0.2394485973372E+00 -0.3284685607080E+00
-0.1333996042261E+00 -0.1074697183304E+01 -0.2416193611064E+00 -0.3478955476688E+00
-0.1390707092565E+00 -0.1080066990609E+01 -0.2438275436064E+00 -0.3678796417714E+00
-0.1456736629760E+00 -0.1084265346831E+01 -0.2459878056269E+00 -0.3885510064671E+00
-0.1527304792900E+00 -0.1087266861255E+01 -0.2479994718044E+00 -0.4099533514403E+00
-0.1596652703407E+00 -0.1089060655673E+01 -0.2497451889243E+00 -0.4320251957533E+00
-0.1657917414556E+00 -0.1089654738866E+01 -0.2510892998058E+00 -0.4545784006839E+00
-0.1702974494325E+00 -0.1089083276909E+01 -0.2518761490216E+00 -0.4772762944933E+00
-0.1722249271102E+00 -0.1087416760656E+01 -0.2519283413073E+00 -0.4996113115513E+00
-0.1704499857175E+00 -0.1084767708187E+01 -0.2510435425217E+00 -0.5208852065154E+00
-0.1636566147001E+00 -0.1081271178865E+01 -0.2489855624233E+00 -0.5401952455021E+00
-0.1503246032985E+00 -0.1077107987186E+01 -0.2454865217550E+00 -0.5564250547228E+00
-0.1287374807949E+00 -0.1072578767101E+01 -0.2402632531594E+00 -0.5682446412153E+00
-0.9699705059567E-01 -0.1068146699158E+01 -0.2330287534231E+00 -0.5741234819579E+00
-0.5304059040046E-01 -0.1064447580412E+01 -0.2234976374928E+00 -0.5723639925310E+00
 0.5336843405853E-02 -0.1062287345129E+01 -0.2113901034947E+00 -0.5611643793551E+00
 0.8044830437087E-01 -0.1062640298565E+01 -0.1964384017661E+00 -0.5387219668293E+00
 0.1746552733200E+00 -0.1066648994577E+01 -0.1783987469097E+00 -0.5033903227536E+00
 0.2902577950450E+00 -0.1075610790800E+01 -0.1570706014915E+00 -0.4539023253072E+00
 0.4293202406071E+00 -0.1090941870396E+01 -0.1323243279295E+00 -0.3896629967834E+00
 0.5933966900740E+00 -0.1114063657493E+01 -0.1041333950355E+00 -0.3110890909121E+00
 0.7830271264994E+00 -0.1146106065058E+01 -0.7261578879376E-01 -0.2199172532610E+00
 0.9969815492999E+00 -0.1187421061195E+01 -0.3808790294652E-01 -0.1193331035233E+00
 0.1231389868020E+01 -0.1236995646535E+01 -0.1121155719893E-02 -0.1373801873128E-01
 0.1479009369432E+01 -0.1291852848419E+01  0.3743130476038E-01  0.9207162289967E-01
 0.1729390324278E+01 -0.1346930645730E+01  0.7649193684929E-01  0.1945043851638E+00
 0.1970890816153E+01 -0.1396581518167E+01  0.1148618613087E+00  0.2924169998006E+00
-0.2048851855165E+00 -0.8440248509735E+00 -0.2097820104240E+00  0.8140888672106E-01
-0.1950416947323E+00 -0.8494043700035E+00 -0.2088892160599E+00  0.2832871022996E-01
-0.1861630392714E+00 -0.8555797325207E+00 -0.2083485574631E+00 -0.1833249783945E-01
-0.1773622208553E+00 -0.8630782012556E+00 -0.2080880875229E+00 -0.5914914857580E-01
-0.1682585723282E+00 -0.8720748809325E+00 -0.2080666937526E+00 -0.9495871602649E-01
-0.1589042189105E+00 -0.8824501995712E+00 -0.2082708867998E+00 -0.1266451192457E+00
-0.1496314982670E+00 -0.8939020398872E+00 -0.2087067107408E+00 -0.1550085518482E+00
-0.1408947021012E+00 -0.9060568843318E+00 -0.2093903204068E+00 -0.1807214418922E+00
-0.1331496531134E+00 -0.9185487047557E+00 -0.2103396747081E+00 -0.2043386811920E+00
-0.1267815168657E+00 -0.9310604132602E+00 -0.2115683891778E+00 -0.2263286943879E+00
-0.1220720209547E+00 -0.9433369102482E+00 -0.2130817894157E+00 -0.2471037138349E+00
-0.1191917505235E+00 -0.9551817613841E+00 -0.2148747055834E+00 -0.2670400685529E+00
-0.1182050911330E+00 -0.9664469777952E+00 -0.2169304170181E+00 -0.2864874318702E+00
-0.1190795496541E+00 -0.9770214929324E+00 -0.2192202117839E+00 -0.3057692430861E+00
-0.1216948184496E+00 -0.9868209513649E+00 -0.2217031572665E+00 -0.3251770264809E+00
-0.1258493732719E+00 -0.9957797264223E+00 -0.2243258232816E+00 -0.3449607417091E+00
-0.1312637799884E+00 -0.1003845255407E+01 -0.2270218104619E+00 -0.3653164196135E+00
-0.1375802884686E+00 -0.1010974268070E+01 -0.2297109147307E+00 -0.3863709556997E+00
-0.1443589625965E+00 -0.1017131252284E+01 -0.2322980464375E+00 -0.4081652278766E+00
-0.1510700254286E+00 -0.1022288700780E+01 -0.2346717487387E+00 -0.4306346096902E+00
-0.1570821461937E+00 -0.1026429480380E+01 -0.2367023288419E+00 -0.4535866309144E+00
-0.1616470947871E+00 -0.1029552084730E+01 -0.2382398394534E+00 -0.4766781002750E+00
-0.1638805989545E+00 -0.1031678788558E+01 -0.2391118810655E+00 -0.4993916226736E+00
-0.1627393856875E+00 -0.1032859344426E+01 -0.2391197495858E+00 -0.5210144728784E+00
-0.1569935439597E+00 -0.1033149125354E+01 -0.2380285374096E+00 -0.5406226638385E+00
-0.1452112371240E+00 -0.1032632968738E+01 -0.2355688446826E+00 -0.5570709680865E+00
-0.1257634142041E+00 -0.1031502621619E+01 -0.2314532106134E+00 -0.5689940368425E+00
-0.9683316140193E-01 -0.1030101681765E+01 -0.2253869719919E+00 -0.5748197286223E+00
-0.5642453772889E-01 -0.1028937973923E+01 -0.2170725055651E+00 -0.5728009352601E+00
-0.2372044606678E-02 -0.1028686174654E+01 -0.2062116469249E+00 -0.5610750945949E+00
 0.6764405740301E-01 -0.1030196671599E+01 -0.1925105257077E+00 -0.5377637475524E+00
 0.1560640582610E+00 -0.1034514003856E+01 -0.1756899917370E+00 -0.5011284599471E+00
 0.2653713558680E+00 -0.1042891127202E+01 -0.1555039565839E+00 -0.4498009248448E+00
 0.3979531999198E+00 -0.1056788196961E+01 -0.1317670013718E+00 -0.3830994261244E+00
 0.5558480671887E+00 -0.1077791903027E+01 -0.1043887687232E+00 -0.3014177595257E+00
 0.7402234883935E+00 -0.1107328755871E+01 -0.7342105458959E-01 -0.2066120073660E+00
 0.9505088002492E+00 -0.1146140796750E+01 -0.3912639988311E-01 -0.1022315735299E+00
 0.1183356601410E+01 -0.1193567380796E+01 -0.2042155907685E-02  0.6672794630377E-02
 0.1431542349678E+01 -0.1246841541153E+01  0.3694016225545E-01  0.1143072286455E+00
 0.1683656226908E+01 -0.1300336116175E+01  0.7666402328900E-01  0.2161200248348E+00
 0.1927045183755E+01 -0.1347438127240E+01  0.1159214130305E+00  0.3113748822455E+00
-0.1836085717358E+00 -0.7532770367738E+00 -0.1873771244940E+00  0.8318805650507E-01
-0.1763042536775E+00 -0.7576316799765E+00 -0.1867871895141E+00  0.3033098460125E-01
-0.1698075623976E+00 -0.7629901935108E+00 -0.1865595539616E+00 -0.1582687090416E-01
-0.1630819778184E+00 -0.7699705950562E+00 -0.1866105173556E+00 -0.5600506321605E-01
-0.1556972108447E+00 -0.7787729128081E+00 -0.1868940275155E+00 -0.9117880243935E-01
-0.1477256311069E+00 -0.7892593250719E+00 -0.1873969940282E+00 -0.1223275761526E+00
-0.1395507423798E+00 -0.8010945125595E+00 -0.1881290537912E+00 -0.1502970356068E+00
-0.1316798382658E+00 -0.8138762329468E+00 -0.1891112170605E+00 -0.1757658012554E+00
-0.1246098324791E+00 -0.8272217722927E+00 -0.1903663237910E+00 -0.1992723122074E+00
-0.1187529055563E+00 -0.8408087695831E+00 -0.1919123378876E+00 -0.2212598370138E+00
-0.1144072544249E+00 -0.8543843694069E+00 -0.1937583276536E+00 -0.2421153151853E+00
-0.1117542776322E+00 -0.8677579531520E+00 -0.1959024490760E+00 -0.2621935849048E+00
-0.1108676854186E+00 -0.8807881556910E+00 -0.1983311711773E+00 -0.2818276940731E+00
-0.1117257405225E+00 -0.8933697728044E+00 -0.2010191056608E+00 -0.3013290001906E+00
-0.1142222006074E+00 -0.9054227321400E+00 -0.2039289895882E+00 -0.3209806907907E+00
-0.1181741542737E+00 -0.9168835825967E+00 -0.2070115504588E+00 -0.3410272956723E+00
-0.1233262777669E+00 -0.9276992561708E+00 -0.2102051099199E+00 -0.3616615994658E+00
-0.1293513347146E+00 -0.9378223725938E+00 -0.2134347446421E+00 -0.3830088250376E+00
-0.1358472485174E+00 -0.9472084913634E+00 -0.2166111512039E+00 -0.4051092037515E+00
-0.1423304310997E+00 -0.9558146770288E+00 -0.2196290248984E+00 -0.4278978879254E+00
-0.1482249309737E+00 -0.9635997671041E+00 -0.2223649429291E+00 -0.4511818473946E+00
-0.1528475640543E+00 -0.9705274607113E+00 -0.2246750083010E+00 -0.4746160204828E+00
-0.1553885630976E+00 -0.9765722740571E+00 -0.2263921708044E+00 -0.4976786503645E+00
-0.1548873726431E+00 -0.9817210301938E+00 -0.2273216839547E+00 -0.5196486406247E+00
-0.1502024323887E+00 -0.9859484784758E+00 -0.2272301855589E+00 -0.5395871083308E+00
-0.1399929519507E+00 -0.9892416449314E+00 -0.2258469227418E+00 -0.5563262820890E+00
-0.1227205393610E+00 -0.9916803538400E+00 -0.2228801819614E+00 -0.5684716756788E+00
-0.9665378831794E-01 -0.9934837219868E+00 -0.2180275053098E+00 -0.5744153813059E+00
-0.5986938774534E-01 -0.9950238037062E+00 -0.2109786414341E+00 -0.5723654148320E+00
-0.1024937628611E-01 -0.9968320167252E+00 -0.2014162816036E+00 -0.5604002236579E+00
 0.5452229221858E-01 -0.9996173935891E+00 -0.1890190230907E+00 -0.5365617104734E+00
 0.1369535806325E+00 -0.1004303217764E+01 -0.1734699300112E+00 -0.4990059596941E+00
 0.2397042282670E+00 -0.1012070937327E+01 -0.1544733441138E+00 -0.4462355950820E+00
 0.3654906802965E+00 -0.1024399706978E+01 -0.1317818072999E+00 -0.3774363460774E+00
 0.5168721378098E+00 -0.1043029670378E+01 -0.1052315080816E+00 -0.2929163671078E+00
 0.6957186798597E+00 -0.1069702377996E+01 -0.7479674074189E-01 -0.1945871461575E+00
 0.9022653263951E+00 -0.1105604281384E+01 -0.4066779160382E-01 -0.8631577159394E-01
 0.1133774094133E+01 -0.1150535799492E+01 -0.3352341121626E-02  0.2613840114586E-01
 0.1383396368975E+01 -0.1201954575243E+01  0.3628835928713E-01  0.1360167399500E+00
 0.1638325053487E+01 -0.1254293696920E+01  0.7680627245783E-01  0.2369736987324E+00
 0.1883874858206E+01 -0.1297997490977E+01  0.1171754751919E+00  0.3290656455257E+00
-0.1623362876130E+00 -0.6621840947404E+00 -0.1649040789279E+00  0.8454266885434E-01
-0.1577121496606E+00 -0.6654553509304E+00 -0.1646335025714E+00  0.3196864563895E-01
-0.1536841012770E+00 -0.6699687993429E+00 -0.1647305825786E+00 -0.1357664350017E-01
-0.1490597340201E+00 -0.6764366824577E+00 -0.1650992857557E+00 -0.5298743727410E-01
-0.1433716363540E+00 -0.6850743929644E+00 -0.1656892083326E+00 -0.8740000499458E-01
-0.1367333208865E+00 -0.6957122617543E+00 -0.1664891190091E+00 -0.1178999290053E+00
-0.1295982725546E+00 -0.7079710619391E+00 -0.1675138693949E+00 -0.1453784114998E+00
-0.1225389085361E+00 -0.7214145829345E+00 -0.1687907008093E+00 -0.1705153390147E+00
-0.1160987431863E+00 -0.7356427344736E+00 -0.1703482980704E+00 -0.1938272077387E+00
-0.1107180327040E+00 -0.7503296641531E+00 -0.1722095419375E+00 -0.2157281840679E+00
-0.1067102684847E+00 -0.7652272989237E+00 -0.1743875160803E+00 -0.2365778331780E+00
-0.1042657399649E+00 -0.7801532145994E+00 -0.1768837935486E+00 -0.2567088103020E+00
-0.1034655692373E+00 -0.7949746023912E+00 -0.1796880370033E+00 -0.2764376488743E+00
-0.1042971521546E+00 -0.8095936498480E+00 -0.1827781631241E+00 -0.2960641274154E+00
-0.1066670196545E+00 -0.8239358505808E+00 -0.1861205768205E+00 -0.3158637982604E+00
-0.1104098611843E+00 -0.8379411284025E+00 -0.1896702007437E+00 -0.3360766379225E+00
-0.1152936652415E+00 -0.8515571560117E+00 -0.1933701671321E+00 -0.3568933219781E+00
-0.1210210799274E+00 -0.8647338196246E+00 -0.1971509828482E+00 -0.3784389496150E+00
-0.1272274226279E+00 -0.8774192907080E+00 -0.2009293456613E+00 -0.4007552425215E+00
-0.1334750373394E+00 -0.8895568802559E+00 -0.2046063865679E+00 -0.4237800298144E+00
-0.1392433952228E+00 -0.9010831046792E+00 -0.2080653030808E+00 -0.4473235144145E+00
-0.1439148159555E+00 -0.9119284465542E+00 -0.2111686556486E+00 -0.4710435040514E+00
-0.1467550065446E+00 -0.9220208991067E+00 -0.2137551843154E+00 -0.4944195216005E+00
-0.1468876543227E+00 -0.9312850154850E+00 -0.2156345371747E+00 -0.5167284726700E+00
-0.1432616045576E+00 -0.9396148162728E+00 -0.2165752873933E+00 -0.5370232949756E+00
-0.1346296759494E+00 -0.9468985062806E+00 -0.2163056396692E+00 -0.5541204669701E+00
-0.1195473881634E+00 -0.9531017611046E+00 -0.2145298330503E+00 -0.5666032859945E+00
-0.9637331913869E-01 -0.9583150534744E+00 -0.2109376776658E+00 -0.5728349967798E+00
-0.6326336370532E-01 -0.9627673622355E+00 -0.2052061482460E+00 -0.5709849860959E+00
-0.1815678440452E-01 -0.9668347533114E+00 -0.1969983104787E+00 -0.5590767538655E+00
 0.4124533419872E-01 -0.9710661873477E+00 -0.1859641734009E+00 -0.5350716035737E+00
 0.1175023443655E+00 -0.9762370623560E+00 -0.1717469461573E+00 -0.4970096791525E+00
 0.2134354570588E+00 -0.9834237510153E+00 -0.1539976610861E+00 -0.4432384662619E+00
 0.3320878697565E+00 -0.9940892991888E+00 -0.1324002878594E+00 -0.3727632819564E+00
 0.4765656104635E+00 -0.1010103831531E+01 -0.1067076458036E+00 -0.2857356447825E+00
 0.6495280744056E+00 -0.1033531407704E+01 -0.7680066780402E-01 -0.1840388744248E+00
 0.8521362326350E+00 -0.1066064328076E+01 -0.4278561972576E-01 -0.7180129491781E-01
 0.1082565461696E+01 -0.1108058567362E+01 -0.5098621209130E-02  0.4452011276433E-01
 0.1334018429069E+01 -0.1157349861460E+01  0.3533371404826E-01  0.1569654255099E+00
 0.1594603824431E+01 -0.1208380431173E+01  0.7724467980270E-01  0.2578894275030E+00
 0.1839179807745E+01 -0.1250642284690E+01  0.1177075063650E+00  0.3438182098658E+00
-0.1410765700824E+00 -0.5707147977902E+00 -0.1423582756958E+00  0.8544474744229E-01
-0.1392978697892E+00 -0.5728249745177E+00 -0.1424245709837E+00  0.3322326190913E-01
-0.1378377063366E+00 -0.5764533263528E+00 -0.1428582086666E+00 -0.1158495617126E-01
-0.1353416406089E+00 -0.5824079559535E+00 -0.1435499214515E+00 -0.5008643912759E-01
-0.1313225503008E+00 -0.5909068081102E+00 -0.1444458738346E+00 -0.8360509187513E-01
-0.1259610928920E+00 -0.6017316349395E+00 -0.1455385477350E+00 -0.1133428835642E+00
-0.1198026491404E+00 -0.6144472384708E+00 -0.1468499797105E+00 -0.1402344379223E+00
-0.1134977127806E+00 -0.6285784280778E+00 -0.1484152303832E+00 -0.1649537450886E+00
-0.1076414324587E+00 -0.6437079484768E+00 -0.1502698784263E+00 -0.1879885065692E+00
-0.1027023550678E+00 -0.6595090808725E+00 -0.1524422894596E+00 -0.2097193402683E+00
-0.9900738006851E-01 -0.6757415783199E+00 -0.1549497939866E+00 -0.2304763611940E+00
-0.9675331857295E-01 -0.6922337859790E+00 -0.1577974232618E+00 -0.2505695370680E+00
-0.9602655929343E-01 -0.7088634041729E+00 -0.1609779950920E+00 -0.2702991856313E+00
-0.9682189623198E-01 -0.7255415087515E+00 -0.1644726834475E+00 -0.2899541300871E+00
-0.9905727096982E-01 -0.7422004367259E+00 -0.1682515440463E+00 -0.3098030348498E+00
-0.1025838812519E+00 -0.7587847533325E+00 -0.1722737294840E+00 -0.3300821834049E+00
-0.1071921097955E+00 -0.7752442828144E+00 -0.1764872811519E+00 -0.3509812189589E+00
-0.1126136853424E+00 -0.7915278329577E+00 -0.1808283063546E+00 -0.3726265809207E+00
-0.1185206222188E+00 -0.8075781310501E+00 -0.1852197534138E+00 -0.3950635307498E+00
-0.1245206624102E+00 -0.8233269422186E+00 -0.1895695237506E+00 -0.4182354109750E+00
-0.1301484469073E+00 -0.8386908250742E+00 -0.1937678572837E+00 -0.4419594456478E+00
-0.1348519843251E+00 -0.8535693768376E+00 -0.1976842751783E+00 -0.4659011295432E+00
-0.1379732209838E+00 -0.8678461172550E+00 -0.2011638706453E+00 -0.4895470820733E+00
-0.1387215096975E+00 -0.8813848203867E+00 -0.2040212690570E+00 -0.5121788608162E+00
-0.1361381632527E+00 -0.8939994715616E+00 -0.2060275300329E+00 -0.5328483122787E+00
-0.1290722754583E+00 -0.9054791984415E+00 -0.2069102978631E+00 -0.5503634475719E+00
-0.1161767396179E+00 -0.9156740227229E+00 -0.2063701555433E+00 -0.5632929761168E+00
-0.9590499953954E-01 -0.9245422602611E+00 -0.2040894550013E+00 -0.5699793068833E+00
-0.6649954363647E-01 -0.9321629479082E+00 -0.1997325012852E+00 -0.5685611303012E+00
-0.2596815951784E-01 -0.9387446131334E+00 -0.1929425574053E+00 -0.5570135258232E+00
 0.2795445586446E-01 -0.9446561662741E+00 -0.1833403448139E+00 -0.5332195951011E+00
 0.9785733399714E-01 -0.9504949963143E+00 -0.1705275350045E+00 -0.4950969478195E+00
 0.1866999885622E+00 -0.9571916360846E+00 -0.1540983318007E+00 -0.4408148353379E+00
 0.2978380807583E+00 -0.9661461388788E+00 -0.1336616136158E+00 -0.3691494504535E+00
 0.4349434340272E+00 -0.9793191488595E+00 -0.1088751445888E+00 -0.2800155294214E+00
 0.6015381584753E+00 -0.9990927901062E+00 -0.7951092751100E-01 -0.1751649532183E+00
 0.7999052390963E+00 -0.1027718617777E+01 -0.4556267641502E-01 -0.5890016300976E-01
 0.1029242918442E+01 -0.1066240468287E+01 -0.7399510079271E-02  0.6163985968995E-01
 0.1283616428273E+01 -0.1112975160479E+01  0.3412825406728E-01  0.1771292087624E+00
 0.1549344749224E+01 -0.1162479162094E+01  0.7737311857910E-01  0.2786473735876E+00
 0.1806103578300E+01 -0.1203817626033E+01  0.1204571922483E+00  0.3581604575136E+00
-0.1198434868448E+00 -0.4788403736840E+00 -0.1197367738900E+00  0.8585400427687E-01
-0.1211030556992E+00 -0.4796995837563E+00 -0.1201605296816E+00  0.3406936705839E-01
-0.1223238889630E+00 -0.4823987918232E+00 -0.1209445379595E+00 -0.9859897931081E-02
-0.1219830148133E+00 -0.4878420587543E+00 -0.1219650165310E+00 -0.4729592434626E-01
-0.1195978121316E+00 -0.4962324854407E+00 -0.1231660613498E+00 -0.7978102004536E-01
-0.1154485042919E+00 -0.5072826242946E+00 -0.1245462275732E+00 -0.1086428355241E+00
-0.1101977446976E+00 -0.5204879017567E+00 -0.1261371311704E+00 -0.1348541730198E+00
-0.1045876238983E+00 -0.5353297514062E+00 -0.1279834769680E+00 -0.1590732308438E+00
-0.9926909642078E-01 -0.5513751996836E+00 -0.1301288611599E+00 -0.1817506251722E+00
-0.9473811491064E-01 -0.5683002546355E+00 -0.1326076758852E+00 -0.2032286088506E+00
-0.9133229774816E-01 -0.5858760007066E+00 -0.1354416617092E+00 -0.2238059311132E+00
-0.8925217274973E-01 -0.6039442008489E+00 -0.1386392767856E+00 -0.2437696572963E+00
-0.8858706848018E-01 -0.6223948997378E+00 -0.1421963957625E+00 -0.2634044194293E+00
-0.8933738417316E-01 -0.6411493990501E+00 -0.1460973588217E+00 -0.2829888324663E+00
-0.9143108099111E-01 -0.6601480414329E+00 -0.1503158267247E+00 -0.3027854449683E+00
-0.9473471699283E-01 -0.6793412710350E+00 -0.1548151999125E+00 -0.3230276571005E+00
-0.9906003537068E-01 -0.6986825538772E+00 -0.1595485202270E+00 -0.3439050526765E+00
-0.1041668483819E+00 -0.7181214793098E+00 -0.1644576679890E+00 -0.3655467381427E+00
-0.1097628898294E+00 -0.7375976210279E+00 -0.1694721046968E+00 -0.3880034185295E+00
-0.1155004018355E+00 -0.7570339085664E+00 -0.1745068646807E+00 -0.4112266616026E+00
-0.1209685188711E+00 -0.7763299684289E+00 -0.1794597001342E+00 -0.4350444356545E+00
-0.1256806794812E+00 -0.7953576517878E+00 -0.1842076689987E+00 -0.4591347697140E+00
-0.1290554180836E+00 -0.8139589783855E+00 -0.1886028821042E+00 -0.4829973427091E+00
-0.1303888183209E+00 -0.8319394370035E+00 -0.1924656539328E+00 -0.5059252810889E+00
-0.1288164272179E+00 -0.8490347185786E+00 -0.1955702320735E+00 -0.5269768101543E+00
-0.1232860233144E+00 -0.8649357029342E+00 -0.1976443481948E+00 -0.5449592779319E+00
-0.1125511066451E+00 -0.8793764117139E+00 -0.1983855066280E+00 -0.5584352033545E+00
-0.9516473849074E-01 -0.8921807313064E+00 -0.1974690969019E+00 -0.5657353800022E+00
-0.6946356533792E-01 -0.9032721337676E+00 -0.1945471427201E+00 -0.5649776463897E+00
-0.3353610097660E-01 -0.9126804138852E+00 -0.1892433057923E+00 -0.5540981239983E+00
 0.1483044884346E-01 -0.9205745779320E+00 -0.1811488285170E+00 -0.5309083577039E+00
 0.7822796354384E-01 -0.9273418634560E+00 -0.1698227825130E+00 -0.4932023201051E+00
 0.1597214503120E+00 -0.9337200524777E+00 -0.1547997227398E+00 -0.4389534666846E+00
 0.2629510242627E+00 -0.9409866001973E+00 -0.1356071172076E+00 -0.3666625020988E+00
 0.3921536088959E+00 -0.9511343633709E+00 -0.1117961525609E+00 -0.2759199202824E+00
 0.5517916556598E+00 -0.9668364062307E+00 -0.8300895135110E-01 -0.1682220870784E+00
 0.7454263286611E+00 -0.9909555783957E+00 -0.4910585067866E-01 -0.4791423729236E-01
 0.9736816838819E+00 -0.1025340197726E+01 -0.1033170292282E-01  0.7719033518495E-01
 0.1231302510799E+01 -0.1069041388807E+01  0.3245222488188E-01  0.1964353966084E+00
 0.1504919061045E+01 -0.1116330872765E+01  0.7771763881418E-01  0.2984677964712E+00
 0.1771474192732E+01 -0.1157653615833E+01  0.1227641172091E+00  0.3753758583631E+00
-0.9865241847744E-01 -0.3865338588436E+00 -0.9703725691018E-01  0.8573029650238E-01
-0.1031777311273E+00 -0.3860474629188E+00 -0.9784504026723E-01  0.3448120714300E-01
-0.1072070025555E+00 -0.3877775024529E+00 -0.9899690247685E-01 -0.8405912027452E-02
-0.1090460714835E+00 -0.3927232762314E+00 -0.1003538710384E+00 -0.4460472389891E-01
-0.1082494796646E+00 -0.4010492356242E+00 -0.1018597445756E+00 -0.7591060113546E-01
-0.1052377383349E+00 -0.4123734328915E+00 -0.1035222357879E+00 -0.1037841280820E+00
-0.1008198325634E+00 -0.4261073850222E+00 -0.1053854450875E+00 -0.1292267327096E+00
-0.9584306069062E-01 -0.4416859555807E+00 -0.1075058048562E+00 -0.1528676563823E+00
-0.9101694836802E-01 -0.4586635431560E+00 -0.1099360999430E+00 -0.1751107172753E+00
-0.8686255971359E-01 -0.4767235443476E+00 -0.1127172224919E+00 -0.1962548451366E+00
-0.8372465000151E-01 -0.4956522405882E+00 -0.1158753798446E+00 -0.2165658776540E+00
-0.8180425037835E-01 -0.5153073637894E+00 -0.1194223246131E+00 -0.2363081714428E+00
-0.8119118483244E-01 -0.5355928536675E+00 -0.1233568095382E+00 -0.2557514751127E+00
-0.8188966793247E-01 -0.5564412746466E+00 -0.1276661904182E+00 -0.2751650604877E+00
-0.8383630582303E-01 -0.5778019034445E+00 -0.1323276438253E+00 -0.2948061278615E+00
-0.8691183907119E-01 -0.5996321679141E+00 -0.1373088034431E+00 -0.3149059107400E+00
-0.9094822837267E-01 -0.6218906512321E+00 -0.1425677780454E+00 -0.3356547490136E+00
-0.9573216058455E-01 -0.6445297029811E+00 -0.1480523749193E+00 -0.3571855399999E+00
-0.1010057823468E+00 -0.6674883078658E+00 -0.1536988203328E+00 -0.3795561071373E+00
-0.1064644864134E+00 -0.6906837240413E+00 -0.1594296444666E+00 -0.4027287323750E+00
-0.1117506628029E+00 -0.7140023222188E+00 -0.1651505994653E+00 -0.4265456755291E+00
-0.1164422877071E+00 -0.7372921926337E+00 -0.1707468986125E+00 -0.4507022625333E+00
-0.1200341761493E+00 -0.7603578472333E+00 -0.1760784073003E+00 -0.4747172309294E+00
-0.1219095643565E+00 -0.7829501441278E+00 -0.1809719443935E+00 -0.4979023591349E+00
-0.1212993681433E+00 -0.8047294954972E+00 -0.1852057754879E+00 -0.5193300105914E+00
-0.1172517945233E+00 -0.8252907631141E+00 -0.1885085143365E+00 -0.5378151070628E+00
-0.1086234486787E+00 -0.8442532143649E+00 -0.1905753354485E+00 -0.5519230603450E+00
-0.9407100333593E-01 -0.8613058758220E+00 -0.1910753786788E+00 -0.5599834148359E+00
-0.7203222535689E-01 -0.8762131291581E+00 -0.1896490737290E+00 -0.5601049192069E+00
-0.4068851572202E-01 -0.8888170567127E+00 -0.1859011172571E+00 -0.5501973346270E+00
 0.2100170399286E-02 -0.8990687200490E+00 -0.1793937126031E+00 -0.5280122129929E+00
 0.5889735169760E-01 -0.9071131585971E+00 -0.1696431639078E+00 -0.4912258851036E+00
 0.1328311434544E+00 -0.9134442217595E+00 -0.1561226179874E+00 -0.4376071400466E+00
 0.2277799912866E+00 -0.9191450043322E+00 -0.1382730046696E+00 -0.3653416274660E+00
 0.3485239000136E+00 -0.9261587896756E+00 -0.1155269796539E+00 -0.2736066075224E+00
 0.5005115366814E+00 -0.9373955552333E+00 -0.8737680501241E-01 -0.1634940908900E+00
 0.6887900894210E+00 -0.9563513347358E+00 -0.5351224986035E-01 -0.3923131049479E-01
 0.9156791411515E+00 -0.9858535256392E+00 -0.1403487710668E-01  0.9082137545947E-01
 0.1177263770438E+01 -0.1025771615798E+01  0.3029843137935E-01  0.2143805274124E+00
 0.1459805969374E+01 -0.1070760464644E+01  0.7780910210555E-01  0.3179446076253E+00
 0.1739164614002E+01 -0.1109392130683E+01  0.1259544985406E+00  0.3911966313568E+00
-0.7752273286455E-01 -0.2937656849420E+00 -0.7425768466784E-01  0.8502394375519E-01
-0.8557850033368E-01 -0.2918236113206E+00 -0.7548042345561E-01  0.3442893437505E-01
-0.9255714295200E-01 -0.2925424208255E+00 -0.7701991390319E-01 -0.7227227679916E-02
-0.9659423308655E-01 -0.2970113977105E+00 -0.7872112733245E-01 -0.4199902477734E-01
-0.9732653008374E-01 -0.3053244622726E+00 -0.8053019967125E-01 -0.7197426453769E-01
-0.9536537458577E-01 -0.3169744090941E+00 -0.8246795796485E-01 -0.9874997941583E-01
-0.9169881359909E-01 -0.3312738106136E+00 -0.8459452610310E-01 -0.1233410065935E+00
-0.8729220695326E-01 -0.3476098944835E+00 -0.8698042158347E-01 -0.1463307590253E+00
-0.8291429543041E-01 -0.3655297346616E+00 -0.8968880735486E-01 -0.1680653287416E+00
-0.7910720070732E-01 -0.3847299999169E+00 -0.9276744150719E-01 -0.1887955781597E+00
-0.7621825758640E-01 -0.4050163373146E+00 -0.9624692041440E-01 -0.2087535086985E+00
-0.7444540855281E-01 -0.4262648074716E+00 -0.1001420446971E+00 -0.2281814818803E+00
-0.7387646209319E-01 -0.4483944526170E+00 -0.1044541844985E+00 -0.2473354571262E+00
-0.7451770332017E-01 -0.4713498210414E+00 -0.1091735064991E+00 -0.2664763228781E+00
-0.7631305747823E-01 -0.4950898327048E+00 -0.1142805797395E+00 -0.2858566559698E+00
-0.7915627054603E-01 -0.5195799003978E+00 -0.1197472359731E+00 -0.3057061051052E+00
-0.8289830438739E-01 -0.5447852173950E+00 -0.1255367062271E+00 -0.3262163814799E+00
-0.8735134668561E-01 -0.5706630210634E+00 -0.1316028755108E+00 -0.3475250475534E+00
-0.9229037951066E-01 -0.5971545724142E+00 -0.1378889924397E+00 -0.3696984389792E+00
-0.9745221371408E-01 -0.6241751026487E+00 -0.1443254654232E+00 -0.3927117588996E+00
-0.1025307759263E+00 -0.6516020844287E+00 -0.1508265743185E+00 -0.4164248707282E+00
-0.1071671526316E+00 -0.6792647121547E+00 -0.1572863753010E+00 -0.4405550243367E+00
-0.1109316052857E+00 -0.7069350292821E+00 -0.1635733293510E+00 -0.4646460147350E+00
-0.1132944710395E+00 -0.7343140844493E+00 -0.1695217136238E+00 -0.4880354927832E+00
-0.1135827418715E+00 -0.7609912631086E+00 -0.1749148036024E+00 -0.5098179696677E+00
-0.1109463473271E+00 -0.7864689558327E+00 -0.1794830633065E+00 -0.5288245427745E+00
-0.1043469479626E+00 -0.8102544010755E+00 -0.1829202725333E+00 -0.5436331795095E+00
-0.9254817094165E-01 -0.8319030736112E+00 -0.1848902516657E+00 -0.5525835398909E+00
-0.7409521803072E-01 -0.8510188185938E+00 -0.1850228100820E+00 -0.5537887791310E+00
-0.4727417902323E-01 -0.8672494535365E+00 -0.1829047292374E+00 -0.5451478620266E+00
-0.1003865623519E-01 -0.8803125346832E+00 -0.1780702408371E+00 -0.5243688577682E+00
 0.4011205233691E-01 -0.8900802243542E+00 -0.1699936369366E+00 -0.4890242495133E+00
 0.1063177510317E+00 -0.8967487296179E+00 -0.1580861980729E+00 -0.4366799806581E+00
 0.1926312661239E+00 -0.9011234010210E+00 -0.1416984290909E+00 -0.3651782258267E+00
 0.3043227271644E+00 -0.9049911715933E+00 -0.1201336906759E+00 -0.2731959110105E+00
 0.4478511748949E+00 -0.9114044019616E+00 -0.9271064679483E-01 -0.1612553454950E+00
 0.6299255412156E+00 -0.9244938169378E+00 -0.5891365602232E-01 -0.3323685276855E-01
 0.8550018659819E+00 -0.9481981683171E+00 -0.1863926074478E-01  0.1020831352265E+00
 0.1120938457195E+01 -0.9835759935663E+00  0.2747249313515E-01  0.2307658988108E+00
 0.1414124420178E+01 -0.1025499112780E+01  0.7772506263775E-01  0.3364485810581E+00
 0.1708370439352E+01 -0.1061359588570E+01  0.1294021720846E+00  0.4061176051033E+00
-0.5647873078149E-01 -0.2005055519215E+00 -0.5139685730647E-01  0.8367636065314E-01
-0.6837274574558E-01 -0.1969806584569E+00 -0.5307068163131E-01  0.3387903853109E-01
-0.7845420885199E-01 -0.1966456892364E+00 -0.5501998043754E-01 -0.6326083046925E-02
-0.8469572804294E-01 -0.2006685957345E+00 -0.5707286560594E-01 -0.3946116008385E-01
-0.8687804898918E-01 -0.2090296106512E+00 -0.5918153280995E-01 -0.6795009220543E-01
-0.8586591640723E-01 -0.2210594069311E+00 -0.6138506558237E-01 -0.9352379089791E-01
-0.8286240996879E-01 -0.2359570978435E+00 -0.6376390251261E-01 -0.1171878257191E+00
-0.7896186461173E-01 -0.2530645384254E+00 -0.6640528159694E-01 -0.1394588471998E+00
-0.7498990910425E-01 -0.2719295494909E+00 -0.6938389275294E-01 -0.1606134838851E+00
-0.7150359771413E-01 -0.2922691789333E+00 -0.7275455641361E-01 -0.1808504836331E+00
-0.6884731381638E-01 -0.3139126985009E+00 -0.7655200360418E-01 -0.2003679943197E+00
-0.6721204029214E-01 -0.3367564571398E+00 -0.8079370069032E-01 -0.2193877181654E+00
-0.6668108805764E-01 -0.3607353227333E+00 -0.8548328343198E-01 -0.2381532138281E+00
-0.6726118004632E-01 -0.3858061503341E+00 -0.9061346742632E-01 -0.2569180046924E+00
-0.6890232708255E-01 -0.4119379453563E+00 -0.9616805592079E-01 -0.2759306807063E+00
-0.7151013441620E-01 -0.4391049707486E+00 -0.1021230225547E+00 -0.2954197070447E+00
-0.7495329933517E-01 -0.4672805112454E+00 -0.1084467637321E+00 -0.3155785343882E+00
-0.7906799151098E-01 -0.4964289373964E+00 -0.1150993874966E+00 -0.3365499621739E+00
-0.8366019259109E-01 -0.5264969217877E+00 -0.1220314246942E+00 -0.3584098861262E+00
-0.8850601301559E-01 -0.5574017725583E+00 -0.1291815590397E+00 -0.3811482761163E+00
-0.9334869025660E-01 -0.5890171067699E+00 -0.1364731614389E+00 -0.4046455871345E+00
-0.9789041039916E-01 -0.6211590067392E+00 -0.1438098855706E+00 -0.4286453996534E+00
-0.1017754615983E+00 -0.6535732077839E+00 -0.1510697361276E+00 -0.4527224969556E+00
-0.1045607007655E+00 -0.6859170348320E+00 -0.1580955494753E+00 -0.4762477101620E+00
-0.1056694224629E+00 -0.7177144437860E+00 -0.1646767757037E+00 -0.4983459112550E+00
-0.1043540484818E+00 -0.7483803318107E+00 -0.1705468785999E+00 -0.5178732775757E+00
-0.9968256518552E-01 -0.7773142484157E+00 -0.1753993653339E+00 -0.5334304831347E+00
-0.9052801753819E-01 -0.8039413579431E+00 -0.1788938777620E+00 -0.5433795363666E+00
-0.7554831869782E-01 -0.8277059421319E+00 -0.1806508548579E+00 -0.5458530506860E+00
-0.5314502354144E-01 -0.8480580898080E+00 -0.1802406253557E+00 -0.5387575269029E+00
-0.2138580687316E-01 -0.8644700438243E+00 -0.1771711727795E+00 -0.5197789851394E+00
 0.2213106097802E-01 -0.8765140263037E+00 -0.1708765956114E+00 -0.4864083216155E+00
 0.8049836574097E-01 -0.8840354838876E+00 -0.1607074260241E+00 -0.4360236983223E+00
 0.1578601500866E+00 -0.8874701036186E+00 -0.1459219928808E+00 -0.3661117079274E+00
 0.2598897525040E+00 -0.8883143074877E+00 -0.1256849128696E+00 -0.2747734517408E+00
 0.3940321990153E+00 -0.8896223366802E+00 -0.9911802900995E-01 -0.1617793355527E+00
 0.5688273048785E+00 -0.8961014463133E+00 -0.6545482926233E-01 -0.3038316046154E-01
 0.7913326419495E+00 -0.9129642220587E+00 -0.2432631638433E-01  0.1104822270745E+00
 0.1061880378402E+01 -0.9427829897133E+00  0.2381947809264E-01  0.2451496904890E+00
 0.1367490520335E+01 -0.9810307295202E+00  0.7729195931468E-01  0.3538104666641E+00
 0.1679191948760E+01 -0.1013874653562E+01  0.1330634610224E+00  0.4200786353643E+00
-0.3555105757495E-01 -0.1067222001167E+00 -0.2845465196233E-01  0.8161842157794E-01
-0.5164135586856E-01 -0.1014681934847E+00 -0.3062191032694E-01  0.3279443240472E-01
-0.6498964226689E-01 -0.1000391450949E+00 -0.3300575796419E-01 -0.5701305241306E-02
-0.7342346638780E-01 -0.1036608686999E+00 -0.3541686754529E-01 -0.3696837628147E-01
-0.7695217734025E-01 -0.1121416219491E+00 -0.3781876042142E-01 -0.6381369808128E-01
-0.7677083727320E-01 -0.1246065015544E+00 -0.4027546836567E-01 -0.8808981500621E-01
-0.7433572809595E-01 -0.1401289435496E+00 -0.4289293496827E-01 -0.1107607810250E+00
-0.7087742576662E-01 -0.1580125899112E+00 -0.4577800381770E-01 -0.1322513860218E+00
-0.6727217109861E-01 -0.1778173660786E+00 -0.4901790816586E-01 -0.1527569785366E+00
-0.6408351436632E-01 -0.1992888572971E+00 -0.5267447511759E-01 -0.1724214741918E+00
-0.6164648127454E-01 -0.2222839692465E+00 -0.5678609095038E-01 -0.1914103584788E+00
-0.6014110218523E-01 -0.2467206351235E+00 -0.6137234837626E-01 -0.2099267026909E+00
-0.5964385551750E-01 -0.2725496335196E+00 -0.6643869879744E-01 -0.2282033188213E+00
-0.6016045411766E-01 -0.2997399715312E+00 -0.7198008620235E-01 -0.2464873872010E+00
-0.6164589674327E-01 -0.3282708737052E+00 -0.7798335525173E-01 -0.2650240049947E+00
-0.6401656222857E-01 -0.3581261543312E+00 -0.8442854457003E-01 -0.2840406264538E+00
-0.6715759314068E-01 -0.3892886308207E+00 -0.9128924615260E-01 -0.3037325173799E+00
-0.7092750103464E-01 -0.4217321346726E+00 -0.9853192860969E-01 -0.3242479329499E+00
-0.7516119188793E-01 -0.4554121145213E+00 -0.1061146628631E+00 -0.3456729658941E+00
-0.7967157538637E-01 -0.4902524839982E+00 -0.1139848135754E+00 -0.3680137516206E+00
-0.8424844461986E-01 -0.5261287220275E+00 -0.1220754351485E+00 -0.3911738988890E+00
-0.8865243926098E-01 -0.5628505342487E+00 -0.1303005966436E+00 -0.4149274034311E+00
-0.9259980167631E-01 -0.6001447079645E+00 -0.1385489039927E+00 -0.4388858174144E+00
-0.9573273621385E-01 -0.6376323045580E+00 -0.1466730103400E+00 -0.4624604892268E+00
-0.9757053397038E-01 -0.6747789109364E+00 -0.1544698912831E+00 -0.4848150175364E+00
-0.9746828895590E-01 -0.7109184527991E+00 -0.1616773507602E+00 -0.5048397990947E+00
-0.9460078696783E-01 -0.7453488602368E+00 -0.1679899319442E+00 -0.5211687506410E+00
-0.8795186847690E-01 -0.7773703078135E+00 -0.1730644378369E+00 -0.5321991687604E+00
-0.7629603913832E-01 -0.8062711631357E+00 -0.1765134430850E+00 -0.5360994740536E+00
-0.5815940787829E-01 -0.8313039693050E+00 -0.1778926780875E+00 -0.5308044263485E+00
-0.3174245380127E-01 -0.8516888444538E+00 -0.1766862622838E+00 -0.5140039631005E+00
 0.5221840000621E-02 -0.8666771148932E+00 -0.1722910575458E+00 -0.4831382634735E+00
 0.5571578985884E-01 -0.8757152363163E+00 -0.1639998917353E+00 -0.4354279078015E+00
 0.1238740535378E+00 -0.8787737119409E+00 -0.1509799339304E+00 -0.3680143456084E+00
 0.2156455130901E+00 -0.8768995441522E+00 -0.1322508081831E+00 -0.2783691537262E+00
 0.3393760148767E+00 -0.8729489724522E+00 -0.1067145931053E+00 -0.1653271706130E+00
 0.5055551278346E+00 -0.8720760429199E+00 -0.7330418410937E-01 -0.3116884698487E-01
 0.7243625738944E+00 -0.8808845988439E+00 -0.3130440545638E-01  0.1153993050990E+00
 0.9995254285354E+00 -0.9039092220431E+00  0.1912324158342E-01  0.2570219336571E+00
 0.1319412059135E+01 -0.9377414588957E+00  0.7633412118536E-01  0.3698218928739E+00
 0.1651691362184E+01 -0.9671797579076E+00  0.1369023228952E+00  0.4329416738973E+00
-0.1477859086450E-01 -0.1238289232023E-01 -0.5432296717894E-02  0.7876832873175E-01
-0.3548231560638E-01 -0.5232015622514E-02 -0.8142866367116E-02  0.3113479658403E-01
-0.5226839988168E-01 -0.2675142831503E-02 -0.1098870870638E-01 -0.5346236150485E-02
-0.6285452182120E-01 -0.5960147579828E-02 -0.1376293408529E-01 -0.3449138594529E-01
-0.6759458291036E-01 -0.1464475781087E-01 -0.1644786838934E-01 -0.5953836900822E-01
-0.6810744901438E-01 -0.2759866049815E-01 -0.1914122218773E-01 -0.8243421844245E-01
-0.6614088315544E-01 -0.4376254494259E-01 -0.2198068594714E-01 -0.1040572829656E+00
-0.6306298180399E-01 -0.6241585371869E-01 -0.2509576747849E-01 -0.1247116408429E+00
-0.5978932789352E-01 -0.8314560051671E-01 -0.2858698610803E-01 -0.1445006302901E+00
-0.5687913187407E-01 -0.1057346764925E+00 -0.3252276215794E-01 -0.1635127199616E+00
-0.5465100936924E-01 -0.1300708898467E+00 -0.3694438039369E-01 -0.1818834080861E+00
-0.5327014102557E-01 -0.1560940804053E+00 -0.4187284491012E-01 -0.1997998694003E+00
-0.5280412060070E-01 -0.1837702295878E+00 -0.4731487074274E-01 -0.2174860201669E+00
-0.5325646113889E-01 -0.2130797954836E+00 -0.5326725211824E-01 -0.2351836474398E+00
-0.5458622757088E-01 -0.2440120159402E+00 -0.5971964959212E-01 -0.2531346446129E+00
-0.5671957380009E-01 -0.2765607727477E+00 -0.6665607030282E-01 -0.2715653499006E+00
-0.5955679816848E-01 -0.3107197906562E+00 -0.7405531886844E-01 -0.2906725850212E+00
-0.6297702063901E-01 -0.3464747327420E+00 -0.8189035189645E-01 -0.3106098806195E+00
-0.6684178428562E-01 -0.3837933651220E+00 -0.9012703122453E-01 -0.3314736900640E+00
-0.7099793022078E-01 -0.4226111073566E+00 -0.9872180898654E-01 -0.3532871768786E+00
-0.7527850625738E-01 -0.4628116643357E+00 -0.1076180357223E+00 -0.3759791240544E+00
-0.7949926947956E-01 -0.5042060751175E+00 -0.1167410706590E+00 -0.3993575822505E+00
-0.8344561351871E-01 -0.5465108226038E+00 -0.1259912891019E+00 -0.4230764014552E+00
-0.8684325634939E-01 -0.5893196656809E+00 -0.1352325864212E+00 -0.4465947453442E+00
-0.8930659658252E-01 -0.6320484812664E+00 -0.1442710177196E+00 -0.4691234058349E+00
-0.9029293550730E-01 -0.6739584071677E+00 -0.1528502708127E+00 -0.4895963075696E+00
-0.8908343615113E-01 -0.7142536471928E+00 -0.1606674190629E+00 -0.5066914266992E+00
-0.8477285459593E-01 -0.7521168719319E+00 -0.1673779477997E+00 -0.5188548188276E+00
-0.7625447679161E-01 -0.7866870016140E+00 -0.1725882982529E+00 -0.5243080416151E+00
-0.6218578251643E-01 -0.8170232492996E+00 -0.1758418089835E+00 -0.5210366760972E+00
-0.4091584823671E-01 -0.8420928546400E+00 -0.1766017432069E+00 -0.5067642921576E+00
-0.1034527313585E-01 -0.8608139608275E+00 -0.1742318493889E+00 -0.4789191891726E+00
 0.3233358506919E-01 -0.8721957885505E+00 -0.1679724431993E+00 -0.4346106736393E+00
 0.9113165150209E-01 -0.8756526187289E+00 -0.1569041957834E+00 -0.3706735194452E+00
 0.1721032079845E+00 -0.8716044497867E+00 -0.1399002504451E+00 -0.2839323469006E+00
 0.2843283053034E+00 -0.8624453321567E+00 -0.1156234070936E+00 -0.1721195687251E+00
 0.4402778122104E+00 -0.8535367900782E+00 -0.8265179680517E-01 -0.3613721552209E-01
 0.6537978057654E+00 -0.8529168364286E+00 -0.3982380672606E-01  0.1160855108594E+00
 0.9331844396937E+00 -0.8676175342204E+00  0.1311338129007E-01  0.2657376253477E+00
 0.1269251843322E+01 -0.8960414407568E+00  0.7464208162535E-01  0.3841788652775E+00
 0.1625926330431E+01 -0.9215266085588E+00  0.1408799464738E+00  0.4445155090580E+00
 0.5788960028323E-02  0.8254750703884E-01  0.1766729367670E-01  0.7502885653137E-01
-0.2001547744928E-01  0.9178682878432E-01  0.1435427048090E-01  0.2885740106776E-01
-0.4041112384369E-01  0.9549200626156E-01  0.1101617664773E-01 -0.5245749202283E-02
-0.5306894366675E-01  0.9245266908175E-01  0.7876745200373E-02 -0.3199272345715E-01
-0.5884631774787E-01  0.8346715944295E-01  0.4924168412392E-02 -0.5509569300869E-01
-0.5989762262540E-01  0.6997578242795E-01  0.2015631990546E-02 -0.7654669317913E-01
-0.5829677789550E-01  0.5316809199004E-01 -0.1025737196377E-02 -0.9707988551886E-01
-0.5554163116531E-01  0.3376572117378E-01 -0.4355182063203E-02 -0.1168473349187E+00
-0.5256987465074E-01  0.1213603383269E-01 -0.8086768284112E-02 -0.1358524393874E+00
-0.4992332001789E-01 -0.1154972217869E-01 -0.1229460862252E-01 -0.1541305696013E+00
-0.4789686500838E-01 -0.3721213856436E-01 -0.1702180096819E-01 -0.1717915831052E+00
-0.4663731143556E-01 -0.6481197641273E-01 -0.2228985790180E-01 -0.1890101265124E+00
-0.4620174174471E-01 -0.9432877952348E-01 -0.2810610467245E-01 -0.2060031516429E+00
-0.4659060498221E-01 -0.1257531604177E+00 -0.3446875359361E-01 -0.2230078325089E+00
-0.4776631906886E-01 -0.1590838092458E+00 -0.4137002627940E-01 -0.2402628730291E+00
-0.4966392333891E-01 -0.1943249952040E+00 -0.4879778443573E-01 -0.2579930643371E+00
-0.5219760685013E-01 -0.2314826360490E+00 -0.5673604942526E-01 -0.2763961531062E+00
-0.5526530292448E-01 -0.2705565973408E+00 -0.6516438102407E-01 -0.2956303278128E+00
-0.5875272992638E-01 -0.3115306163206E+00 -0.7405667035293E-01 -0.3158020366511E+00
-0.6253745364161E-01 -0.3543568154953E+00 -0.8337885506982E-01 -0.3369517066530E+00
-0.6649192503407E-01 -0.3989340816363E+00 -0.9308520272115E-01 -0.3590346427111E+00
-0.7048293666513E-01 -0.4450834780556E+00 -0.1031132844807E+00 -0.3818959949642E+00
-0.7436140917216E-01 -0.4925211981807E+00 -0.1133765231600E+00 -0.4052370600983E+00
-0.7793399506778E-01 -0.5408243103266E+00 -0.1237516629229E+00 -0.4285719939327E+00
-0.8090867590326E-01 -0.5893694020190E+00 -0.1340556175820E+00 -0.4511672970637E+00
-0.8284380461494E-01 -0.6373547996669E+00 -0.1440397230027E+00 -0.4720098421523E+00
-0.8312552367990E-01 -0.6839007738366E+00 -0.1534052617892E+00 -0.4898326693016E+00
-0.8095823665304E-01 -0.7280821601593E+00 -0.1618080817736E+00 -0.5031444261365E+00
-0.7535429470212E-01 -0.7688977145654E+00 -0.1688504043696E+00 -0.5102377736839E+00
-0.6510664827984E-01 -0.8052217081864E+00 -0.1740656738870E+00 -0.5091728275448E+00
-0.4872471952701E-01 -0.8357745308223E+00 -0.1768998527059E+00 -0.4977390675886E+00
-0.2430420003014E-01 -0.8591397949015E+00 -0.1766888016192E+00 -0.4733981933742E+00
 0.1072795122531E-01 -0.8738668321074E+00 -0.1726277787488E+00 -0.4332099718437E+00
 0.6013800631850E-01 -0.8787378652206E+00 -0.1637199742200E+00 -0.3737730648053E+00
 0.1298758657524E+00 -0.8733633697409E+00 -0.1486975030135E+00 -0.2912995500918E+00
 0.2294898354275E+00 -0.8593472835205E+00 -0.1259714914957E+00 -0.1822992863851E+00
 0.3733232517228E+00 -0.8418738606177E+00 -0.9371012317537E-01 -0.4585468481464E-01
 0.5793943130624E+00 -0.8303128823599E+00 -0.5018371460731E-01  0.1116415872927E+00
 0.8620330860212E+00 -0.8347738689110E+00  0.5451843503278E-02  0.2704500774375E+00
 0.1216186716010E+01 -0.8564340976726E+00  0.7195052473963E-01  0.3964422826463E+00
 0.1601917853981E+01 -0.8772342504323E+00  0.1449367228695E+00  0.4545619683524E+00
 0.2608739987906E-01  0.1781081215168E+00  0.4083910488772E-01  0.7028375804233E-01
-0.5388977759099E-02  0.1896532872691E+00  0.3685286245115E-01  0.2591878682161E-01
-0.2955638002803E-01  0.1945035143857E+00  0.3298942736311E-01 -0.5371969799288E-02
-0.4414748811179E-01  0.1915833199151E+00  0.2948716680006E-01 -0.2942503224823E-01
-0.5074090353632E-01  0.1821880958458E+00  0.2628943885364E-01 -0.5045703061724E-01
-0.5215646215404E-01  0.1681230950651E+00  0.2319332692782E-01 -0.7042280696288E-01
-0.5081917776396E-01  0.1506894475217E+00  0.1997405424918E-01 -0.8983786447395E-01
-0.4833605966551E-01  0.1305753839707E+00  0.1644786510613E-01 -0.1086712451449E+00
-0.4564308405632E-01  0.1080814255970E+00  0.1248766849421E-01 -0.1268236025080E+00
-0.4324995908280E-01  0.8332593196857E-01  0.8015194696590E-02 -0.1442833434705E+00
-0.4142086713561E-01  0.5635580756639E-01  0.2986988130665E-02 -0.1611407167384E+00
-0.4028137732286E-01  0.2719198380445E-01 -0.2617878742690E-02 -0.1775616604723E+00
-0.3987699474229E-01 -0.4155967843603E-02 -0.8806592648407E-02 -0.1937580067359E+00
-0.4020461936624E-01 -0.3768690196729E-01 -0.1557830449884E-01 -0.2099628103869E+00
-0.4122953885069E-01 -0.7340804912050E-01 -0.2292751793589E-01 -0.2264112512831E+00
-0.4289491160637E-01 -0.1113341906446E+00 -0.3084582090983E-01 -0.2433257713764E+00
-0.4512759785244E-01 -0.1514846175079E+00 -0.3932244365802E-01 -0.2609040103631E+00
-0.4784252266065E-01 -0.1938757249224E+00 -0.4834365023698E-01 -0.2793077321638E+00
-0.5094699207252E-01 -0.2385109096676E+00 -0.5789158121067E-01 -0.2986524394567E+00
-0.5434579834117E-01 -0.2853643881842E+00 -0.6794203831749E-01 -0.3189953433558E+00
-0.5794640654979E-01 -0.3343576851274E+00 -0.7846081950460E-01 -0.3403187998275E+00
-0.6166176494186E-01 -0.3853315374114E+00 -0.8939866180280E-01 -0.3625073235378E+00
-0.6540376882886E-01 -0.4380133237785E+00 -0.1006834200218E+00 -0.3853142599901E+00
-0.6905657647922E-01 -0.4919758673190E+00 -0.1122064904317E+00 -0.4083157090247E+00
-0.7241953165299E-01 -0.5465688567277E+00 -0.1237976795209E+00 -0.4308423936109E+00
-0.7515015284687E-01 -0.6009397374990E+00 -0.1352179800841E+00 -0.4519436267262E+00
-0.7673712622448E-01 -0.6541366056168E+00 -0.1461747485464E+00 -0.4704186407322E+00
-0.7649176028751E-01 -0.7051382607121E+00 -0.1563260065294E+00 -0.4848527340865E+00
-0.7354375250205E-01 -0.7528152309131E+00 -0.1652717991458E+00 -0.4936279434591E+00
-0.6682267285513E-01 -0.7958692409331E+00 -0.1725383853287E+00 -0.4949030172991E+00
-0.5500517535733E-01 -0.8327868627309E+00 -0.1775584102635E+00 -0.4865666620135E+00
-0.3640168968207E-01 -0.8618283909297E+00 -0.1796460187993E+00 -0.4661632347296E+00
-0.8723693521003E-02 -0.8810814650937E+00 -0.1779610343748E+00 -0.4307773758062E+00
 0.3143354399653E-01 -0.8886485493385E+00 -0.1714430036231E+00 -0.3768750135981E+00
 0.8967703481942E-01 -0.8831654073488E+00 -0.1586976768707E+00 -0.3001566186218E+00
 0.1756474200140E+00 -0.8650700614153E+00 -0.1378845303349E+00 -0.1958767771180E+00
 0.3052446997223E+00 -0.8388060086307E+00 -0.1067122633718E+00 -0.6086921373801E-01
 0.5010207460825E+00 -0.8147206174352E+00 -0.6273997520544E-01  0.1009998095911E+00
 0.7851084529200E+00 -0.8065483284797E+00 -0.4287975175837E-02  0.2700339662498E+00
 0.1159138562796E+01 -0.8195893216983E+00  0.6790984923143E-01  0.4059877536366E+00
 0.1579634435831E+01 -0.8347253017087E+00  0.1489818290444E+00  0.4627787777662E+00
 0.4603279832154E-01  0.2743448132856E+00  0.6407552327622E-01  0.6439303374596E-01
 0.8212032131775E-02  0.2884398504548E+00  0.5933037740141E-01  0.2227799466935E-01
-0.1986263914599E-01  0.2943917095530E+00  0.5490581489957E-01 -0.5678142715047E-02
-0.3616763989747E-01  0.2914178186680E+00  0.5105003651481E-01 -0.2672961427895E-01
-0.4330050373015E-01  0.2814968922903E+00  0.4763927842192E-01 -0.4559638619387E-01
-0.4489114580850E-01  0.2668449833083E+00  0.4439076816143E-01 -0.6406729506966E-01
-0.4372128311748E-01  0.2488306307751E+00  0.4102187014279E-01 -0.8234896481515E-01
-0.4146946529844E-01  0.2280613476415E+00  0.3731837702470E-01 -0.1002016090413E+00
-0.3903967875535E-01  0.2047490889221E+00  0.3314188252720E-01 -0.1174283068769E+00
-0.3689429515497E-01  0.1789556767493E+00  0.2841227674224E-01 -0.1339809686902E+00
-0.3526081014351E-01  0.1506987641917E+00  0.2308759115367E-01 -0.1499376945694E+00
-0.3424168687850E-01  0.1199854727547E+00  0.1714875743078E-01 -0.1654596778782E+00
-0.3387045742817E-01  0.8681825294058E-01  0.1058955926028E-01 -0.1807551750992E+00
-0.3414039865929E-01  0.5119251857709E-01  0.3410424034380E-02 -0.1960531976352E+00
-0.3501942077955E-01  0.1309373333452E-01 -0.4385137554350E-02 -0.2115846427822E+00
-0.3645816319533E-01 -0.2750334137354E-01 -0.1279230110439E-01 -0.2275683906962E+00
-0.3839499984979E-01 -0.7063243604292E-01 -0.2180548750347E-01 -0.2442005219344E+00
-0.4076003622300E-01 -0.1163287160691E+00 -0.3141775092658E-01 -0.2616448156659E+00
-0.4347951327092E-01 -0.1646188722587E+00 -0.4161967772610E-01 -0.2800242861483E+00
-0.4648173171345E-01 -0.2155046658424E+00 -0.5239728029196E-01 -0.2994116576381E+00
-0.4970428565751E-01 -0.2689380733523E+00 -0.6372847275160E-01 -0.3198158907685E+00
-0.5310056071635E-01 -0.3247900448036E+00 -0.7557812223020E-01 -0.3411621235794E+00
-0.5663782178946E-01 -0.3828121598437E+00 -0.8788999763630E-01 -0.3632595837736E+00
-0.6027331924866E-01 -0.4425875012754E+00 -0.1005721656034E+00 -0.3857529029012E+00
-0.6389476337857E-01 -0.5034534990695E+00 -0.1134696541804E+00 -0.4080454872702E+00
-0.6725618080846E-01 -0.5645208187444E+00 -0.1263554017934E+00 -0.4292586446331E+00
-0.6994527743650E-01 -0.6247791730158E+00 -0.1389448921609E+00 -0.4482690376347E+00
-0.7137600576566E-01 -0.6831251282688E+00 -0.1509002290555E+00 -0.4637528261690E+00
-0.7079170552046E-01 -0.7383152423942E+00 -0.1618213919943E+00 -0.4741997319576E+00
-0.6725679630864E-01 -0.7888945894272E+00 -0.1712302796987E+00 -0.4778908610001E+00
-0.5961682236689E-01 -0.8331355396527E+00 -0.1785504750645E+00 -0.4728467574654E+00
-0.4640691912207E-01 -0.8689994188118E+00 -0.1830812703149E+00 -0.4567443828910E+00
-0.2565737656400E-01 -0.8941351579517E+00 -0.1839585096443E+00 -0.4267753045360E+00
 0.5575525475286E-02 -0.9059591103765E+00 -0.1800767196636E+00 -0.3794045170069E+00
 0.5231024417915E-01 -0.9020156402922E+00 -0.1699410817549E+00 -0.3099972824419E+00
 0.1237995986175E+00 -0.8811931985121E+00 -0.1514787222361E+00 -0.2126560395620E+00
 0.2369053909035E+00 -0.8464378326197E+00 -0.1219064901598E+00 -0.8163640145096E-01
 0.4187613592603E+00 -0.8083253582661E+00 -0.7791280096215E-01  0.8292309094192E-01
 0.7013199632306E+00 -0.7845707689526E+00 -0.1665016139252E-01  0.2629894584546E+00
 0.1096678340323E+01 -0.7864398653337E+00  0.6204769592241E-01  0.4119225475705E+00
 0.1558971608050E+01 -0.7945753324032E+00  0.1528792574074E+00  0.4687694420824E+00
 0.6551376642420E-01  0.3713150109396E+00  0.8736575677461E-01  0.5718664644577E-01
 0.2055336977542E-01  0.3882283401623E+00  0.8175634320580E-01  0.1790259873846E-01
-0.1150929409338E-01  0.3951722832506E+00  0.7673259897486E-01 -0.6089888863720E-02
-0.2919697591588E-01  0.3919133146057E+00  0.7254326881894E-01 -0.2383598802679E-01
-0.3653114288118E-01  0.3813545686578E+00  0.6896468618297E-01 -0.4049553093283E-01
-0.3810034042872E-01  0.3661410021174E+00  0.6560813331538E-01 -0.5749844504384E-01
-0.3701506032150E-01  0.3476266522209E+00  0.6212231930558E-01 -0.7464110052024E-01
-0.3496687555442E-01  0.3262789782013E+00  0.5826242139755E-01 -0.9146216085740E-01
-0.3279261870967E-01  0.3022032656582E+00  0.5388213019261E-01 -0.1076832277593E+00
-0.3089329838107E-01  0.2754067912786E+00  0.4890269930822E-01 -0.1232344298269E+00
-0.2945555518136E-01  0.2458848765626E+00  0.4328586492126E-01 -0.1381900037871E+00
-0.2855810721505E-01  0.2136373498823E+00  0.3701584908502E-01 -0.1527100827259E+00
-0.2822285500103E-01  0.1786643646202E+00  0.3008830237218E-01 -0.1670003401677E+00
-0.2843979195759E-01  0.1409586478638E+00  0.2250377151658E-01 -0.1812852619160E+00
-0.2917942737200E-01  0.1004998600115E+00  0.1426408674045E-01 -0.1957902092624E+00
-0.3039936573438E-01  0.5725250836676E-01  0.5370628606505E-02 -0.2107288464000E+00
-0.3204840976792E-01  0.1116746887356E-01 -0.4176188241101E-02 -0.2262938149497E+00
-0.3407008061061E-01 -0.3781130970996E-01 -0.1437627827834E-01 -0.2426488755672E+00
-0.3640690774121E-01 -0.8973729680262E-01 -0.2522884128471E-01 -0.2599224044900E+00
-0.3900686331599E-01 -0.1446451417027E+00 -0.3673040155106E-01 -0.2782005222859E+00
-0.4183237243367E-01 -0.2025252361310E+00 -0.4887152244118E-01 -0.2975172122706E+00
-0.4487068613264E-01 -0.2632900307275E+00 -0.6163214429043E-01 -0.3178382119798E+00
-0.4813763907736E-01 -0.3267299178801E+00 -0.7497351250869E-01 -0.3390313940907E+00
-0.5165799562803E-01 -0.3924550866221E+00 -0.8882261777359E-01 -0.3608159467204E+00
-0.5540394832561E-01 -0.4598079880198E+00 -0.1030423888045E+00 -0.3826763098130E+00
-0.5922254820137E-01 -0.5278790918625E+00 -0.1174203297625E+00 -0.4038154372413E+00
-0.6279586235425E-01 -0.5956156371076E+00 -0.1316823018546E+00 -0.4231988354068E+00
-0.6563470039826E-01 -0.6618475597405E+00 -0.1454964541958E+00 -0.4396079091724E+00
-0.6709049031586E-01 -0.7252335256318E+00 -0.1584648055508E+00 -0.4516582507491E+00
-0.6635814401546E-01 -0.7841805084060E+00 -0.1701077330191E+00 -0.4577760278792E+00
-0.6244875391705E-01 -0.8367717241282E+00 -0.1798440982889E+00 -0.4561437464533E+00
-0.5412152331886E-01 -0.8807062173478E+00 -0.1869655509193E+00 -0.4446177492172E+00
-0.3973977420100E-01 -0.9132435625870E+00 -0.1905966701977E+00 -0.4205791672946E+00
-0.1688874426826E-01 -0.9311594491050E+00 -0.1896096415001E+00 -0.3806415992309E+00
 0.1864156579743E-01 -0.9308752990616E+00 -0.1824467493715E+00 -0.3200833392743E+00
 0.7516675307727E-01 -0.9094114995938E+00 -0.1668489517896E+00 -0.2321397744505E+00
 0.1695789592521E+00 -0.8673019226777E+00 -0.1395445947645E+00 -0.1083956530991E+00
 0.3330772851787E+00 -0.8140378313175E+00 -0.9619211066114E-01  0.5604413807244E-01
 0.6094957991949E+00 -0.7711708424713E+00 -0.3233500913710E-01  0.2473209997249E+00
 0.1026892368007E+01 -0.7583335304083E+00  0.5371176832013E-01  0.4129480013127E+00
 0.1539725609133E+01 -0.7575912736643E+00  0.1564268694248E+00  0.4719944619146E+00
 0.8437979204842E-01  0.4690963747236E+00  0.1106952350039E+00  0.4845613696611E-01
 0.3133511725322E-01  0.4891115456339E+00  0.1040893341285E+00  0.1277990983085E-01
-0.4695248396736E-02  0.4968304827363E+00  0.9842704833459E-01 -0.6492907557983E-02
-0.2328248272528E-01  0.4929851774946E+00  0.9394054035369E-01 -0.2066403327308E-01
-0.3041722588849E-01  0.4817029917941E+00  0.9025715452607E-01 -0.3515261103154E-01
-0.3177490012926E-01  0.4660135803573E+00  0.8684773733973E-01 -0.5075352030445E-01
-0.3071362942455E-01  0.4471230144379E+00  0.8328187824366E-01 -0.6675357981607E-01
-0.2885684471863E-01  0.4252932760366E+00  0.7928728744507E-01 -0.8248157311921E-01
-0.2693794209475E-01  0.4005149970940E+00  0.7471541211320E-01 -0.9760666699296E-01
-0.2528598587006E-01  0.3727507716411E+00  0.6949295818974E-01 -0.1120550205387E+00
-0.2404506700566E-01  0.3419845561640E+00  0.6358789877921E-01 -0.1259051721769E+00
-0.2327090605655E-01  0.3082173966266E+00  0.5698929896322E-01 -0.1393190938564E+00
-0.2297485981378E-01  0.2714529147410E+00  0.4969561172597E-01 -0.1525000432965E+00
-0.2314435804366E-01  0.2316846144540E+00  0.4170805190356E-01 -0.1656668038234E+00
-0.2375267646341E-01  0.1888880409515E+00  0.3302707338976E-01 -0.1790373911081E+00
-0.2476397273000E-01  0.1430177509892E+00  0.2365075600427E-01 -0.1928181377312E+00
-0.2613646835940E-01  0.9400837202033E-01  0.1357438093446E-01 -0.2071959447024E+00
-0.2782541448988E-01  0.4178100541603E-01  0.2791118226821E-02 -0.2223320702322E+00
-0.2978706785933E-01 -0.1374783572329E-01 -0.8706980846268E-02 -0.2383575227814E+00
-0.3198524877034E-01 -0.7265072695285E-01 -0.2092719545648E-01 -0.2553688402093E+00
-0.3440164445507E-01 -0.1349642953910E+00 -0.3387318847397E-01 -0.2734221654161E+00
-0.3704998002120E-01 -0.2006542703498E+00 -0.4754085078262E-01 -0.2925221988855E+00
-0.3998651288092E-01 -0.2695660592503E+00 -0.6191051534878E-01 -0.3125967340283E+00
-0.4329653731847E-01 -0.3413564935398E+00 -0.7693060731800E-01 -0.3334446780309E+00
-0.4703177973070E-01 -0.4153935256660E+00 -0.9248506245748E-01 -0.3546396624600E+00
-0.5112791331287E-01 -0.4907669733724E+00 -0.1083789789520E+00 -0.3754761360477E+00
-0.5535551867401E-01 -0.5663997577504E+00 -0.1243510571379E+00 -0.3950202284556E+00
-0.5931497477066E-01 -0.6410722881049E+00 -0.1400774546624E+00 -0.4121733007550E+00
-0.6245862918589E-01 -0.7133625693682E+00 -0.1551642420229E+00 -0.4256948546611E+00
-0.6410556085892E-01 -0.7815595563260E+00 -0.1691330259573E+00 -0.4341773715811E+00
-0.6342499678404E-01 -0.8435859025263E+00 -0.1814021825652E+00 -0.4359913925443E+00
-0.5938925307191E-01 -0.8969249638218E+00 -0.1912628462288E+00 -0.4292121796685E+00
-0.5068648427760E-01 -0.9385211837880E+00 -0.1978415365612E+00 -0.4114853090259E+00
-0.3545602726617E-01 -0.9646110390680E+00 -0.2000134162473E+00 -0.3797238447473E+00
-0.1045015275418E-01 -0.9705794595595E+00 -0.1962059253864E+00 -0.3294159959189E+00
 0.3116879901039E-01 -0.9514331255628E+00 -0.1840528680531E+00 -0.2534192950390E+00
 0.1050533086987E+00 -0.9043541512476E+00 -0.1598601708919E+00 -0.1409749416153E+00
 0.2450513615362E+00 -0.8357280318558E+00 -0.1181353358243E+00  0.1898663081967E-01
 0.5085055903086E+00 -0.7697559719219E+00 -0.5225007710127E-01  0.2203945750529E+00
 0.9471965859303E+00 -0.7372949238971E+00  0.4198033303219E-01  0.4071300196531E+00
 0.1521556911830E+01 -0.7249479070717E+00  0.1593218033258E+00  0.4716894677967E+00
 0.1024231259150E+00  0.5678028405109E+00  0.1340451952826E+00  0.3794351628177E-01
 0.4016823596714E-01  0.5911934060586E+00  0.1262723302868E+00  0.6937930539679E-02
 0.3679103690821E-03  0.5992961209184E+00  0.1199328080446E+00 -0.6716228128131E-02
-0.1843390677275E-01  0.5944894753174E+00  0.1152111154257E+00 -0.1713195589779E-01
-0.2491630350721E-01  0.5824674516202E+00  0.1115102312842E+00 -0.2959584520141E-01
-0.2590098888155E-01  0.5664770575382E+00  0.1081152153424E+00 -0.4389462507792E-01
-0.2483494007566E-01  0.5473815469097E+00  0.1045093229241E+00 -0.5873714479598E-01
-0.2317339846795E-01  0.5251813932694E+00  0.1004016004564E+00 -0.7329208945821E-01
-0.2151556371446E-01  0.4997630582818E+00  0.9564950033876E-01 -0.8721729940998E-01
-0.2011366295049E-01  0.4710635132762E+00  0.9018997140907E-01 -0.1004533886741E+00
-0.1907036875668E-01  0.4390702938290E+00  0.8399998626617E-01 -0.1130901004650E+00
-0.1842056549415E-01  0.4037959609559E+00  0.7707508024085E-01 -0.1252928079364E+00
-0.1816683786334E-01  0.3652540823681E+00  0.6941744993535E-01 -0.1372614174717E+00
-0.1829507716728E-01  0.3234426538621E+00  0.6102951624837E-01 -0.1492070187734E+00
-0.1878163042414E-01  0.2783348704322E+00  0.5191064877513E-01 -0.1613378703912E+00
-0.1959687006572E-01  0.2298756785964E+00  0.4205576233282E-01 -0.1738503898978E+00
-0.2070749471151E-01  0.1779826759960E+00  0.3145503672561E-01 -0.1869230336016E+00
-0.2207890355396E-01  0.1225523250234E+00  0.2009468459332E-01 -0.2007116656810E+00
-0.2367868318959E-01  0.6346821245039E-01  0.7957905970743E-02 -0.2153466789462E+00
-0.2548285510891E-01  0.6153181415048E-03 -0.4973507467591E-02 -0.2309312287691E+00
-0.2748674971191E-01 -0.6609650851534E-01 -0.1871665192435E-01 -0.2475393739692E+00
-0.2972247750291E-01 -0.1366981111866E+00 -0.3328411823387E-01 -0.2652111533116E+00
-0.3227708163496E-01 -0.2111075697035E+00 -0.4867693099304E-01 -0.2839334923707E+00
-0.3528767282911E-01 -0.2890509984080E+00 -0.6486773521403E-01 -0.3035888463680E+00
-0.3887921755422E-01 -0.3699463555440E+00 -0.8176511583804E-01 -0.3238478615876E+00
-0.4307051929031E-01 -0.4529060614390E+00 -0.9919531762399E-01 -0.3441067240960E+00
-0.4771355582207E-01 -0.5368493274105E+00 -0.1169125783886E+00 -0.3635447222298E+00
-0.5248955225932E-01 -0.6205251972144E+00 -0.1346029519005E+00 -0.3811985523660E+00
-0.5694331048950E-01 -0.7024485406839E+00 -0.1518783724978E+00 -0.3959896355014E+00
-0.6051061190375E-01 -0.7808106279818E+00 -0.1682642504844E+00 -0.4066964086767E+00
-0.6250899199168E-01 -0.8534032479651E+00 -0.1831824507210E+00 -0.4118984595014E+00
-0.6210439420073E-01 -0.9175462901616E+00 -0.1959301397921E+00 -0.4099185063967E+00
-0.5827934572944E-01 -0.9699631798141E+00 -0.2056485081731E+00 -0.3987248874633E+00
-0.4970497171461E-01 -0.1006504627528E+01 -0.2112419229963E+00 -0.3756632109107E+00
-0.3414770489400E-01 -0.1021737704868E+01 -0.2111770850991E+00 -0.3367322318661E+00
-0.6653972642817E-02 -0.1008805209632E+01 -0.2030918394812E+00 -0.2750682031872E+00
 0.4570519467795E-01 -0.9608627883226E+00 -0.1830315214563E+00 -0.1785049678317E+00
 0.1567437208978E+00 -0.8784789822252E+00 -0.1443470544164E+00 -0.2935540044227E-01
 0.3975379266475E+00 -0.7854120871471E+00 -0.7757483325587E-01  0.1788042859641E+00
 0.8540831739201E+00 -0.7265027534831E+00  0.2551608446761E-01  0.3915124731191E+00
 0.1503937798210E+01 -0.6984426710513E+00  0.1610990278322E+00  0.4667161759745E+00
 0.1193498482008E+00  0.6676155746839E+00  0.1573930869223E+00  0.2532705776630E-01
 0.4654180106732E-01  0.6945837878233E+00  0.1482251199869E+00  0.4852449664144E-03
 0.3474216853564E-02  0.7023974634443E+00  0.1411743381632E+00 -0.6511131448185E-02
-0.1459881219486E-01  0.6962014662255E+00  0.1363205328375E+00 -0.1317655568017E-01
-0.1995655330884E-01  0.6835683364405E+00  0.1327223586040E+00 -0.2390385919427E-01
-0.2046725067322E-01  0.6675720598270E+00  0.1294209637593E+00 -0.3701323512477E-01
-0.1940666061831E-01  0.6484867660567E+00  0.1258160229625E+00 -0.5065188185754E-01
-0.1795792847691E-01  0.6260348218590E+00  0.1216153804886E+00 -0.6392726626421E-01
-0.1656992791321E-01  0.6000346423559E+00  0.1166929446274E+00 -0.7653253031375E-01
-0.1542003312175E-01  0.5704252692148E+00  0.1110010488726E+00 -0.8843837966263E-01
-0.1457338497390E-01  0.5372163121171E+00  0.1045285869862E+00 -0.9975030544729E-01
-0.1404751531235E-01  0.5004434930330E+00  0.9727919699370E-01 -0.1106367205969E+00
-0.1383853630720E-01  0.4601371672968E+00  0.8925972752799E-01 -0.1212918992661E+00
-0.1393201773725E-01  0.4163035785115E+00  0.8047431335402E-01 -0.1319163448194E+00
-0.1430774848299E-01  0.3689152804564E+00  0.7092150745149E-01 -0.1427055199616E+00
-0.1494200866421E-01  0.3179079092318E+00  0.6059318101642E-01 -0.1538428860985E+00
-0.1580908456884E-01  0.2631812873291E+00  0.4947444128928E-01 -0.1654953811175E+00
-0.1688305789278E-01  0.2046056155341E+00  0.3754451208773E-01 -0.1778102352353E+00
-0.1814067895998E-01  0.1420290342767E+00  0.2477767143256E-01 -0.1909135571199E+00
-0.1956688009533E-01  0.7529028490781E-01  0.1114468112856E-01 -0.2049106183712E+00
-0.2116528226018E-01  0.4239419435765E-02 -0.3385172615327E-02 -0.2198877682746E+00
-0.2297786480263E-01 -0.7123072497619E-01 -0.1884171823653E-01 -0.2359143849108E+00
-0.2511124325956E-01 -0.1511296206948E+00 -0.3524817331611E-01 -0.2530328786564E+00
-0.2774347846765E-01 -0.2352788622687E+00 -0.5260446893114E-01 -0.2712109847484E+00
-0.3106468008335E-01 -0.3231761725288E+00 -0.7084817157814E-01 -0.2902235702954E+00
-0.3516987341803E-01 -0.4139847597317E+00 -0.8983092796854E-01 -0.3095795303862E+00
-0.3998391911014E-01 -0.5066435245489E+00 -0.1093254903609E+00 -0.3285853226853E+00
-0.4525887167559E-01 -0.5998886657602E+00 -0.1290295094099E+00 -0.3464296325418E+00
-0.5062263210257E-01 -0.6921886072620E+00 -0.1485622500867E+00 -0.3622139934678E+00
-0.5561997234393E-01 -0.7816562454721E+00 -0.1674552460585E+00 -0.3749208997250E+00
-0.5970670146855E-01 -0.8659807808197E+00 -0.1851374992164E+00 -0.3833547986561E+00
-0.6221803635802E-01 -0.9423704780414E+00 -0.2009177058738E+00 -0.3861008557367E+00
-0.6238081836392E-01 -0.1007432396185E+01 -0.2139626460980E+00 -0.3814831085162E+00
-0.5933110087722E-01 -0.1056826050703E+01 -0.2232314336425E+00 -0.3673771265647E+00
-0.5178807020181E-01 -0.1084634675970E+01 -0.2272845526212E+00 -0.3405410829947E+00
-0.3680486603433E-01 -0.1082660468826E+01 -0.2238930703083E+00 -0.2950821750565E+00
-0.5525733909004E-02 -0.1040093647796E+01 -0.2091238794571E+00 -0.2190453766064E+00
 0.7166933341996E-01 -0.9487636117435E+00 -0.1754188582787E+00 -0.8925094317985E-01
 0.2766823310572E+00 -0.8258488767773E+00 -0.1098333107806E+00  0.1183515064033E+00
 0.7427955838802E+00 -0.7312051097225E+00  0.2318094866090E-02  0.3614639448178E+00
 0.1486075375506E+01 -0.6810093378720E+00  0.1610132099261E+00  0.4552638845405E+00
 0.1347324713338E+00  0.7688460335068E+00  0.1807157036610E+00  0.1020525323454E-01
 0.4977764377209E-01  0.7993759281088E+00  0.1698307169068E+00 -0.6311004950579E-02
 0.4465523892329E-02  0.8057744478791E+00  0.1620479967690E+00 -0.5530228851118E-02
-0.1162758922781E-01  0.7977965523976E+00  0.1572337949769E+00 -0.8798438025072E-02
-0.1544258024358E-01  0.7849515459018E+00  0.1539017954250E+00 -0.1823232307275E-01
-0.1547778641052E-01  0.7693848686714E+00  0.1507814186990E+00 -0.3022948582997E-01
-0.1447142737341E-01  0.7505510886021E+00  0.1472159344394E+00 -0.4256228425128E-01
-0.1326063323364E-01  0.7279610176830E+00  0.1429400790198E+00 -0.5441899750655E-01
-0.1215045089094E-01  0.7014256513827E+00  0.1378550421526E+00 -0.6556645487504E-01
-0.1125111050043E-01  0.6709202752557E+00  0.1319338349170E+00 -0.7601570791618E-01
-0.1059664533809E-01  0.6364980135921E+00  0.1251802755161E+00 -0.8588910574346E-01
-0.1019177695314E-01  0.5982299359048E+00  0.1176076335428E+00 -0.9535522290234E-01
-0.1002870760692E-01  0.5561699744327E+00  0.1092282549928E+00 -0.1045989332293E+00
-0.1009395791897E-01  0.5103361670300E+00  0.1000484433130E+00 -0.1138063067560E+00
-0.1037110429147E-01  0.4607019272572E+00  0.9006616593523E-01 -0.1231563469577E+00
-0.1084200758160E-01  0.4071937534181E+00  0.7927035034853E-01 -0.1328160877660E+00
-0.1148767966172E-01  0.3496929345983E+00  0.6764105199524E-01 -0.1429375502944E+00
-0.1228953369955E-01  0.2880419374677E+00  0.5515048157543E-01 -0.1536558145221E+00
-0.1323159118947E-01  0.2220513459399E+00  0.4176395157241E-01 -0.1650887407655E+00
-0.1430493108927E-01  0.1515107424113E+00  0.2744116267331E-01 -0.1773387224421E+00
-0.1551679327935E-01  0.7620565336307E-01  0.1213777219761E-01 -0.1904975655217E+00
-0.1691058386947E-01 -0.4056942610604E-02 -0.4193505358503E-02 -0.2046553083732E+00
-0.1859976958591E-01 -0.8939681156599E-01 -0.2159931655223E-01 -0.2199022758335E+00
-0.2078981676542E-01 -0.1797611682062E+00 -0.4011019759202E-01 -0.2362898564109E+00
-0.2372532958550E-01 -0.2747643786345E+00 -0.5969794253358E-01 -0.2537031428578E+00
-0.2756860398436E-01 -0.3736555824515E+00 -0.8024483848291E-01 -0.2717759780072E+00
-0.3230724712702E-01 -0.4754201249631E+00 -0.1015454759312E+00 -0.2899587549464E+00
-0.3775314962048E-01 -0.5787990710919E+00 -0.1233104459799E+00 -0.3076110982219E+00
-0.4360761900188E-01 -0.6822286255967E+00 -0.1451672510829E+00 -0.3240332180015E+00
-0.4951725329160E-01 -0.7837605182719E+00 -0.1666555567961E+00 -0.3384283324888E+00
-0.5506810809335E-01 -0.8810062572383E+00 -0.1872148758560E+00 -0.3498371911286E+00
-0.5974105921325E-01 -0.9711073015704E+00 -0.2061696752289E+00 -0.3571089413532E+00
-0.6294410930791E-01 -0.1050654057312E+01 -0.2227196366427E+00 -0.3589232748133E+00
-0.6417208371812E-01 -0.1115333851525E+01 -0.2359011905638E+00 -0.3537300184947E+00
-0.6295034750866E-01 -0.1159157941869E+01 -0.2444216615177E+00 -0.3392050701823E+00
-0.5809329688807E-01 -0.1173422331432E+01 -0.2463031293341E+00 -0.3109360146680E+00
-0.4539814816540E-01 -0.1144663358817E+01 -0.2380123049431E+00 -0.2591975618861E+00
-0.4662790747725E-02 -0.1054275778315E+01 -0.2117877169684E+00 -0.1590874500414E+00
 0.1480922569951E+00 -0.9028171243615E+00 -0.1509449757226E+00  0.3442437284809E-01
 0.6069840669399E+00 -0.7605573616190E+00 -0.3071465939349E-01  0.3095956757220E+00
 0.1466800013489E+01 -0.6778477003058E+00  0.1577904649879E+00  0.4341898636171E+00
 0.1479312722203E+00  0.8720741097967E+00  0.2040010794433E+00 -0.7912663937553E-02
 0.4897006755533E-01  0.9055687539761E+00  0.1909077671510E+00 -0.1286730790908E-01
 0.3323394789571E-02  0.9087134560228E+00  0.1824073728806E+00 -0.3326810512429E-02
-0.9231051330000E-02  0.8988599082965E+00  0.1779257740446E+00 -0.4155279727885E-02
-0.1128112506164E-01  0.8866519138635E+00  0.1750741603692E+00 -0.1283876319839E-01
-0.1097107724378E-01  0.8720655466089E+00  0.1722188964393E+00 -0.2367978627936E-01
-0.1009024347690E-01  0.8537171592270E+00  0.1687253856642E+00 -0.3453031592296E-01
-0.9141380191839E-02  0.8310847013620E+00  0.1643886666836E+00 -0.4479405238931E-01
-0.8311694461085E-02  0.8040402878243E+00  0.1591457210441E+00 -0.5432734645136E-01
-0.7654829558172E-02  0.7726360229931E+00  0.1529962409668E+00 -0.6318655562287E-01
-0.7182841552075E-02  0.7369912252617E+00  0.1459616789169E+00 -0.7150677186465E-01
-0.6892505270256E-02  0.6972239787145E+00  0.1380662967462E+00 -0.7945108986363E-01
-0.6774665801709E-02  0.6534181154567E+00  0.1293286918581E+00 -0.8718967797746E-01
-0.6817960864984E-02  0.6056064963200E+00  0.1197577088755E+00 -0.9488935893766E-01
-0.7009968472047E-02  0.5537645384749E+00  0.1093509156300E+00 -0.1027084303249E+00
-0.7337729262945E-02  0.4978095513512E+00  0.9809436587937E-01 -0.1107936397373E+00
-0.7788112159785E-02  0.4376034631461E+00  0.8596307147822E-01 -0.1192784252077E+00
-0.8348609418307E-02  0.3729596473843E+00  0.7292220867983E-01 -0.1282820036214E+00
-0.9008901153421E-02  0.3036494111608E+00  0.5892810287958E-01 -0.1379098633188E+00
-0.9764084661884E-02  0.2294111704619E+00  0.4392941781459E-01 -0.1482563139461E+00
-0.1062150200553E-01  0.1499632017256E+00  0.2786834035929E-01 -0.1594110145913E+00
-0.1161846175131E-01  0.6502018394067E-01  0.1068034459702E-01 -0.1714732793942E+00
-0.1286147199595E-01 -0.2566524039078E-01 -0.7705342592163E-02 -0.1845685195246E+00
-0.1456660522627E-01 -0.1222000119402E+00 -0.2735332384089E-01 -0.1988246787537E+00
-0.1701853012830E-01 -0.2243620138569E+00 -0.4827610951641E-01 -0.2142406507026E+00
-0.2043462979870E-01 -0.3315318793039E+00 -0.7039330286947E-01 -0.2305895776090E+00
-0.2485308514691E-01 -0.4427724281066E+00 -0.9352510404433E-01 -0.2474875530856E+00
-0.3013436317354E-01 -0.5568445100735E+00 -0.1173957763988E+00 -0.2644881183476E+00
-0.3604403762710E-01 -0.6721612152470E+00 -0.1416410526854E+00 -0.2811090318724E+00
-0.4232437886642E-01 -0.7867275625552E+00 -0.1658103907551E+00 -0.2967891388996E+00
-0.4868737348070E-01 -0.8980983706182E+00 -0.1893571516414E+00 -0.3108142817542E+00
-0.5474253048799E-01 -0.1003380597134E+01 -0.2116246286779E+00 -0.3222890930856E+00
-0.6001711381282E-01 -0.1099222592855E+01 -0.2318479447883E+00 -0.3302150124104E+00
-0.6422322299101E-01 -0.1181548566731E+01 -0.2491543616571E+00 -0.3335824610596E+00
-0.6750010700323E-01 -0.1244770140547E+01 -0.2624540534210E+00 -0.3310444811273E+00
-0.6994695597202E-01 -0.1280593784892E+01 -0.2701081521978E+00 -0.3198327057606E+00
-0.7107473288010E-01 -0.1275496810654E+01 -0.2693143127200E+00 -0.2939524886399E+00
-0.6443371957810E-01 -0.1202782084825E+01 -0.2534431646571E+00 -0.2336637506715E+00
 0.1821080603838E-01 -0.1033928782969E+01 -0.2031435984131E+00 -0.7648510581711E-01
 0.4385810634993E+00 -0.8314696650314E+00 -0.7857772147732E-01  0.2241009096846E+00
 0.1444455004918E+01 -0.6991482157084E+00  0.1490613600631E+00  0.3974268640004E+00
 0.1579675874348E+00  0.9784824406934E+00  0.2272900090125E+00 -0.2957121267656E-01
 0.4291419712564E-01  0.1012802522423E+01  0.2111433470560E+00 -0.1795102199916E-01
 0.3659365572214E-03  0.1009840719776E+01  0.2020413342772E+00  0.5510379085882E-03
-0.6951060137241E-02  0.9990127501796E+00  0.1984123409650E+00  0.2630862593660E-03
-0.7447850576631E-02  0.9888935916892E+00  0.1962891511475E+00 -0.8073532233624E-02
-0.7037426696589E-02  0.9758268226061E+00  0.1937578820691E+00 -0.1748884281600E-01
-0.6341179447207E-02  0.9581602430087E+00  0.1903638155489E+00 -0.2661053779815E-01
-0.5670940183633E-02  0.9355482597555E+00  0.1859754666856E+00 -0.3506918958758E-01
-0.5112809586703E-02  0.9079895240552E+00  0.1805753455845E+00 -0.4281493593339E-01
-0.4680339469506E-02  0.8756623077467E+00  0.1741963962512E+00 -0.4994622362771E-01
-0.4374245771412E-02  0.8387711443121E+00  0.1668793821948E+00 -0.5659964246828E-01
-0.4187406972472E-02  0.7974921848338E+00  0.1586609579365E+00 -0.6292500489465E-01
-0.4111782435834E-02  0.7519442113301E+00  0.1495664880076E+00 -0.6907072291854E-01
-0.4138902365509E-02  0.7021772107905E+00  0.1396076637653E+00 -0.7517873952711E-01
-0.4260359962577E-02  0.6481692136715E+00  0.1287817726608E+00 -0.8138185928956E-01
-0.4467831060323E-02  0.5898279750716E+00  0.1170720305468E+00 -0.8780236674607E-01
-0.4753131564320E-02  0.5269951036619E+00  0.1044483959759E+00 -0.9455124482582E-01
-0.5108648496968E-02  0.4594535809974E+00  0.9086898785415E-01 -0.1017280216909E+00
-0.5528362574687E-02  0.3869340530328E+00  0.7628113922829E-01 -0.1094216635787E+00
-0.6009885846759E-02  0.3091225810613E+00  0.6062253994625E-01 -0.1177132708119E+00
-0.6558705034218E-02  0.2256696147105E+00  0.4382218258827E-01 -0.1266827345846E+00
-0.7200702150437E-02  0.1361958804414E+00  0.2579903604263E-01 -0.1364251953804E+00
-0.8021673563489E-02  0.4031411917261E-01  0.6458489218063E-02 -0.1470816567323E+00
-0.9227814594603E-02 -0.6227927851220E-01 -0.1430141883447E-01 -0.1588404821796E+00
-0.1112361866282E-01 -0.1715871102445E+00 -0.3654214632599E-01 -0.1718128982872E+00
-0.1396386903475E-01 -0.2871835927441E+00 -0.6022949325325E-01 -0.1859291644800E+00
-0.1782238422486E-01 -0.4082457264601E+00 -0.8521362340678E-01 -0.2010018075173E+00
-0.2259803539786E-01 -0.5335628207882E+00 -0.1112321728947E+00 -0.2168081075081E+00
-0.2811407866436E-01 -0.6615245444688E+00 -0.1379277266819E+00 -0.2331022492627E+00
-0.3420264978202E-01 -0.7900997361789E+00 -0.1648604796488E+00 -0.2495695361591E+00
-0.4070227688577E-01 -0.9168079635910E+00 -0.1915020509490E+00 -0.2657502410746E+00
-0.4734402837827E-01 -0.1038735634292E+01 -0.2172159357708E+00 -0.2809915050819E+00
-0.5373300880271E-01 -0.1152624471906E+01 -0.2412714997369E+00 -0.2945609357737E+00
-0.5965263491648E-01 -0.1254765201852E+01 -0.2628835712710E+00 -0.3058580521255E+00
-0.6557412108531E-01 -0.1340488597640E+01 -0.2812125479355E+00 -0.3144187504442E+00
-0.7256942005862E-01 -0.1402811596845E+01 -0.2950762077777E+00 -0.3191009220300E+00
-0.8145720515780E-01 -0.1430736333688E+01 -0.3024387122758E+00 -0.3173245284620E+00
-0.9830441842402E-01 -0.1398781468770E+01 -0.2994171819006E+00 -0.3020172891693E+00
-0.9825759336613E-01 -0.1243771823461E+01 -0.2684058873649E+00 -0.2123934107780E+00
 0.2287876537010E+00 -0.9768268589650E+00 -0.1496078432821E+00  0.8687120550683E-01
 0.1416951565910E+01 -0.7675361204207E+00  0.1298830910332E+00  0.3317639781115E+00
 0.1633622587239E+00  0.1090787233817E+01  0.2508299022458E+00 -0.5511278280301E-01
 0.3004379288890E-01  0.1119379645543E+01  0.2298846911120E+00 -0.1895131713256E-01
-0.3323391063954E-02  0.1106664381518E+01  0.2206682013790E+00  0.6101940062760E-02
-0.4231527416231E-02  0.1098407185753E+01  0.2188351349282E+00  0.3381157709068E-02
-0.4120681319492E-02  0.1092133190214E+01  0.2176025050214E+00 -0.4252102721098E-02
-0.3804208566306E-02  0.1080915873365E+01  0.2154223361697E+00 -0.1175146148069E-01
-0.3318798798452E-02  0.1064101923063E+01  0.2121566280143E+00 -0.1884742725312E-01
-0.2932919734307E-02  0.1041504923975E+01  0.2077144039434E+00 -0.2524259758155E-01
-0.2615009170402E-02  0.1013390632241E+01  0.2021551276265E+00 -0.3101914413657E-01
-0.2377581969133E-02  0.9800893497325E+00  0.1955423564665E+00 -0.3628232288463E-01
-0.2211731565345E-02  0.9419112240758E+00  0.1879399013026E+00 -0.4115944745445E-01
-0.2112123927969E-02  0.8990979762104E+00  0.1793971731297E+00 -0.4577507726938E-01
-0.2072895055483E-02  0.8518070542672E+00  0.1699468343748E+00 -0.5024783842240E-01
-0.2088961304391E-02  0.8001067689101E+00  0.1596035638994E+00 -0.5468833019320E-01
-0.2155566186860E-02  0.7439777278841E+00  0.1483644345503E+00 -0.5919866862300E-01
-0.2268296538858E-02  0.6833173464061E+00  0.1362098120031E+00 -0.6387225160663E-01
-0.2422920716143E-02  0.6179457685457E+00  0.1231045714003E+00 -0.6879360449066E-01
-0.2615557340229E-02  0.5476142841050E+00  0.1089997469772E+00 -0.7403870060647E-01
-0.2843348786416E-02  0.4720117278513E+00  0.9383367721120E-01 -0.7967594426215E-01
-0.3105390646784E-02  0.3907712906916E+00  0.7753318116430E-01 -0.8576838314154E-01
-0.3404963309050E-02  0.3034767167911E+00  0.6001435159069E-01 -0.9237941052889E-01
-0.3755034880137E-02  0.2096591034820E+00  0.4118081433401E-01 -0.9958639945564E-01
-0.4209557987881E-02  0.1087899435473E+00  0.2091607742355E-01 -0.1075191292616E+00
-0.4940996976441E-02  0.3336009273782E-03 -0.9214792235437E-03 -0.1163951884444E+00
-0.6244228227920E-02 -0.1160209151684E+00 -0.2445302904364E-01 -0.1264259038286E+00
-0.8383874798194E-02 -0.2401313758475E+00 -0.4970305086977E-01 -0.1377222891178E+00
-0.1145043443745E-01 -0.3713330284868E+00 -0.7655669372562E-01 -0.1503401616355E+00
-0.1537479409857E-01 -0.5084400321678E+00 -0.1047629668144E+00 -0.1643216042059E+00
-0.2003725992154E-01 -0.6498021945785E+00 -0.1339678928963E+00 -0.1796753264019E+00
-0.2535515047802E-01 -0.7933562274193E+00 -0.1637422780194E+00 -0.1963353779668E+00
-0.3129097608837E-01 -0.9366157123711E+00 -0.1935813405765E+00 -0.2141042437788E+00
-0.3771690160702E-01 -0.1076655187135E+01 -0.2228744210696E+00 -0.2325768837959E+00
-0.4427687873716E-01 -0.1210258052639E+01 -0.2509069900140E+00 -0.2512034689986E+00
-0.5080177946737E-01 -0.1334142962178E+01 -0.2769889524564E+00 -0.2696386090647E+00
-0.5760936707202E-01 -0.1444808210118E+01 -0.3004835199156E+00 -0.2878175603413E+00
-0.6660549128118E-01 -0.1538074270014E+01 -0.3209359570413E+00 -0.3063675228699E+00
-0.7866031929699E-01 -0.1605931469931E+01 -0.3369183628661E+00 -0.3243496035139E+00
-0.9970517236947E-01 -0.1637077281278E+01 -0.3473564959056E+00 -0.3468384593496E+00
-0.1721237393804E+00 -0.1558757223935E+01 -0.3461761978215E+00 -0.3549564390597E+00
-0.2738410942627E-01 -0.1263002735769E+01 -0.2580773728847E+00 -0.1255573789481E+00
 0.1384528339838E+01 -0.9407362769774E+00  0.8875841389481E-01  0.2050271651383E+00
 0.1622861954198E+00  0.1216411251790E+01  0.2757394935508E+00 -0.8328937430648E-01
 0.8382709868292E-02  0.1217980221083E+01  0.2452725898451E+00 -0.1029808177912E-01
-0.4862242854696E-02  0.1195995506582E+01  0.2382266562953E+00  0.1104712092511E-01
-0.9737750837093E-03  0.1198909511545E+01  0.2395871508623E+00  0.3625031607184E-02
-0.1800384323970E-02  0.1196613976551E+01  0.2389627220063E+00 -0.1346876221426E-02
-0.1331790667021E-02  0.1187748364534E+01  0.2372833183093E+00 -0.6626029545883E-02
-0.1178457355503E-02  0.1171768714102E+01  0.2341180548380E+00 -0.1122668725743E-01
-0.1005344911719E-02  0.1149124216305E+01  0.2296237777003E+00 -0.1530012413153E-01
-0.8848311866351E-03  0.1120362264224E+01  0.2238954899438E+00 -0.1891479118823E-01
-0.7945804662181E-03  0.1086006393385E+01  0.2170423658179E+00 -0.2217425603687E-01
-0.7341920155278E-03  0.1046481588434E+01  0.2091494824003E+00 -0.2517244916971E-01
-0.6993621646041E-03  0.1002100523352E+01  0.2002802352219E+00 -0.2799650850295E-01
-0.6876997087152E-03  0.9530606569137E+00  0.1904745942793E+00 -0.3072575560073E-01
-0.6970611450011E-03  0.8994486137305E+00  0.1797503131956E+00 -0.3343255123902E-01
-0.7256447939733E-03  0.8412467766458E+00  0.1681042288753E+00 -0.3618279413238E-01
-0.7719502995608E-03  0.7783409158206E+00  0.1555137954215E+00 -0.3903641407772E-01
-0.8346110217766E-03  0.7105282987601E+00  0.1419387396627E+00 -0.4204745439518E-01
-0.9122564183671E-03  0.6375272477082E+00  0.1273230001552E+00 -0.4526445096904E-01
-0.1004222107725E-02  0.5589836032198E+00  0.1115958778853E+00 -0.4873145801997E-01
-0.1110386820435E-02  0.4744777852853E+00  0.9467348110372E-01 -0.5248907011310E-01
-0.1232354600042E-02  0.3835288522946E+00  0.7645930067824E-01 -0.5657875489612E-01
-0.1373824322451E-02  0.2855871065422E+00  0.5684265729096E-01 -0.6105002863898E-01
-0.1553624422375E-02  0.1800012477078E+00  0.3568952518890E-01 -0.6599011589815E-01
-0.1885940029485E-02  0.6598390389851E-01  0.1281959296483E-01 -0.7158963376969E-01
-0.2611638454132E-02 -0.5720192952367E-01 -0.1196271377382E-01 -0.7812377638381E-01
-0.3959015257256E-02 -0.1898381316348E+00 -0.3875942995597E-01 -0.8591855512522E-01
-0.6010552771744E-02 -0.3314699086157E+00 -0.6749609328325E-01 -0.9534962425453E-01
-0.8731360376087E-02 -0.4809092103385E+00 -0.9792811560216E-01 -0.1067818426619E+00
-0.1207064851305E-01 -0.6364251504130E+00 -0.1296991617179E+00 -0.1204948278629E+00
-0.1602786927038E-01 -0.7959123296902E+00 -0.1623880422119E+00 -0.1366574015637E+00
-0.2067874070091E-01 -0.9569259431995E+00 -0.1955209396936E+00 -0.1553317282616E+00
-0.2605201880627E-01 -0.1116564808014E+01 -0.2285233687693E+00 -0.1763992471256E+00
-0.3191556632895E-01 -0.1271508282114E+01 -0.2606847735730E+00 -0.1994661915987E+00
-0.3795952738178E-01 -0.1418691295752E+01 -0.2913301689679E+00 -0.2241072700470E+00
-0.4475371844411E-01 -0.1556131319476E+01 -0.3201770123550E+00 -0.2503662365274E+00
-0.5232477052501E-01 -0.1682707329710E+01 -0.3470064252178E+00 -0.2788611671075E+00
-0.6725851796963E-01 -0.1797804826533E+01 -0.3730126744589E+00 -0.3134405912622E+00
-0.7553770063411E-01 -0.1896869256688E+01 -0.3944813973426E+00 -0.3515218127709E+00
-0.1580820347141E+00 -0.1981537162676E+01 -0.4279238458546E+00 -0.4511177108640E+00
-0.3091191638275E+00 -0.1809929798723E+01 -0.4238097988254E+00 -0.4172620019664E+00
 0.1355688891901E+01 -0.1410177012488E+01 -0.1089762427979E-01 -0.7506633603127E-01
 0.1564533227247E+00  0.1381903445486E+01  0.3076713582269E+00 -0.1028224778963E+00
-0.2553077646651E-01  0.1271592219205E+01  0.2492122922613E+00  0.1881032278605E-01
 0.4124943126282E-02  0.1287779892089E+01  0.2583809708933E+00  0.3965869159108E-02
-0.9994994664919E-03  0.1300252117127E+01  0.2598505274043E+00  0.2615901982479E-02
 0.1179231918208E-03  0.1303280743714E+01  0.2606797372656E+00 -0.1512582736726E-04
-0.7056202967259E-04  0.1296680862828E+01  0.2593220640240E+00 -0.2022779257977E-02
 0.3872564651064E-05  0.1281431861477E+01  0.2562871506273E+00 -0.3736635807257E-02
 0.6260411658521E-05  0.1258575458412E+01  0.2517163475156E+00 -0.5194497944347E-02
 0.1777942006931E-04  0.1229023565519E+01  0.2458082726506E+00 -0.6463435558117E-02
 0.2168061120889E-04  0.1193498758878E+01  0.2387040914549E+00 -0.7591350494837E-02
 0.2320863372957E-04  0.1152547501282E+01  0.2305141454180E+00 -0.8619116547924E-02
 0.2180652723344E-04  0.1106553434635E+01  0.2213150515303E+00 -0.9581267154426E-02
 0.1796637504375E-04  0.1055753220939E+01  0.2111542406093E+00 -0.1050803157714E-01
 0.1171909348591E-04  0.1000250287716E+01  0.2000524043429E+00 -0.1142627256367E-01
 0.3078202635676E-05  0.9400271089556E+00  0.1880060402332E+00 -0.1236008058021E-01
-0.7943941731758E-05  0.8749562051033E+00  0.1749896548399E+00 -0.1333107000810E-01
-0.2181225233169E-04  0.8048095400137E+00  0.1609575479507E+00 -0.1435910595880E-01
-0.3816965814626E-04  0.7292722551803E+00  0.1458468192777E+00 -0.1546123900402E-01
-0.5774962381863E-04  0.6479446349037E+00  0.1295773789868E+00 -0.1665368568282E-01
-0.8071658007752E-04  0.5603555983004E+00  0.1120549780138E+00 -0.1795109880825E-01
-0.1076105911886E-03  0.4659619369503E+00  0.9317086666017E-01 -0.1936828033548E-01
-0.1390636705254E-03  0.3641414900590E+00  0.7280048636251E-01 -0.2092304000277E-01
-0.1737845462578E-03  0.2541603160807E+00  0.5079730706382E-01 -0.2263865596219E-01
-0.2515841789973E-03  0.1350216771225E+00  0.2695401899035E-01 -0.2458327396384E-01
-0.4900560923538E-03  0.5385351381429E-02  0.9790590724041E-03 -0.2700141385165E-01
-0.9984124451878E-03 -0.1356970548291E+00 -0.2733909386224E-01 -0.3049215539464E-01
-0.1818404516287E-02 -0.2880280457099E+00 -0.5796929090904E-01 -0.3588336543513E-01
-0.2971665245379E-02 -0.4503504023939E+00 -0.9066441487886E-01 -0.4394290563122E-01
-0.4505626548486E-02 -0.6207747894223E+00 -0.1250560850576E+00 -0.5523190732802E-01
-0.6513448423673E-02 -0.7971261002022E+00 -0.1607279121202E+00 -0.7012131775402E-01
-0.9140606183127E-02 -0.9770474940044E+00 -0.1972376229766E+00 -0.8888730448824E-01
-0.1257808982206E-01 -0.1157829248643E+01 -0.2340814711811E+00 -0.1117831314881E+00
-0.1682965632985E-01 -0.1335811415321E+01 -0.2705282183614E+00 -0.1387058903857E+00
-0.2175356809234E-01 -0.1507474992391E+01 -0.3058457166541E+00 -0.1687757620030E+00
-0.2716413184005E-01 -0.1672444904334E+01 -0.3399218123001E+00 -0.2012093243772E+00
-0.3462430949363E-01 -0.1833585021441E+01 -0.3736418717545E+00 -0.2365126191405E+00
-0.3983209485086E-01 -0.1996725488161E+01 -0.4073115226717E+00 -0.2771163140469E+00
-0.7016032869505E-01 -0.2175022486660E+01 -0.4490365697622E+00 -0.3305552639428E+00
-0.3872112392222E-02 -0.2401019087533E+01 -0.4809782471521E+00 -0.3997540646374E+00
-0.5721521268586E+00 -0.2773713767467E+01 -0.6691731888367E+00 -0.6727372615997E+00
 0.1622995216341E+01 -0.2827982854115E+01 -0.2409975311460E+00 -0.7417187667023E+00
-0.1998898663393E+01 -0.2813587615253E+01 -0.2261868545227E+01 -0.8301504461487E+00
-0.1728873563744E+01 -0.2895441732029E+01 -0.2173428183501E+01 -0.8187787629372E+00
-0.1463735522467E+01 -0.2968360518216E+01 -0.2083085133838E+01 -0.7973117688195E+00
-0.1211852335307E+01 -0.3028982395852E+01 -0.1993192318589E+01 -0.7679223048458E+00
-0.9775942394995E+00 -0.3076811349123E+01 -0.1905570621819E+01 -0.7334469008737E+00
-0.7626491551356E+00 -0.3112046617095E+01 -0.1821107008329E+01 -0.6961612948261E+00
-0.5678408649997E+00 -0.3135450316783E+01 -0.1740546851023E+01 -0.6579769084923E+00
-0.3935354162080E+00 -0.3148742193836E+01 -0.1664870472498E+01 -0.6209136486109E+00
-0.2391487144967E+00 -0.3153945836402E+01 -0.1594754434878E+01 -0.5866288530382E+00
-0.1035646792744E+00 -0.3153054571563E+01 -0.1530611044012E+01 -0.5561882257210E+00
 0.1444107342459E-01 -0.3147930077132E+01 -0.1472739828007E+01 -0.5302299338490E+00
 0.1160819658237E+00 -0.3140260688640E+01 -0.1421363996118E+01 -0.5091293510308E+00
 0.2024983945922E+00 -0.3131551426242E+01 -0.1376654921383E+01 -0.4930560465576E+00
 0.2747113708218E+00 -0.3123060809267E+01 -0.1338724232674E+01 -0.4820190381053E+00
 0.3335720783393E+00 -0.3115793873715E+01 -0.1307644240510E+01 -0.4759536648520E+00
 0.3797965050734E+00 -0.3110466825939E+01 -0.1283415047552E+01 -0.4747566961627E+00
 0.4126501986767E+00 -0.3108371776900E+01 -0.1266989138551E+01 -0.4781416657582E+00
 0.4313207238700E+00 -0.3110629804259E+01 -0.1259275264589E+01 -0.4865235339595E+00
 0.4384029646020E+00 -0.3116526616914E+01 -0.1258718113394E+01 -0.5003234391804E+00
 0.4229600455235E+00 -0.3140204702630E+01 -0.1277104985601E+01 -0.5155406002932E+00
-0.1994072897402E+01 -0.2779193343503E+01 -0.2243435127535E+01 -0.7908862920874E+00
-0.1724837075705E+01 -0.2860020389539E+01 -0.2154883003199E+01 -0.7816679334081E+00
-0.1462615449950E+01 -0.2933502477150E+01 -0.2066175420496E+01 -0.7646591824399E+00
-0.1213414507203E+01 -0.2996087095064E+01 -0.1978465748048E+01 -0.7406791476268E+00
-0.9809832046808E+00 -0.3046778253984E+01 -0.1893047880771E+01 -0.7117363833327E+00
-0.7671609692180E+00 -0.3085807530893E+01 -0.1810895190459E+01 -0.6797503266365E+00
-0.5728971746399E+00 -0.3114000297041E+01 -0.1732841807295E+01 -0.6463875240698E+00
-0.3984567341728E+00 -0.3132681652022E+01 -0.1659635037302E+01 -0.6134119255445E+00
-0.2433940881525E+00 -0.3143582258343E+01 -0.1591878878815E+01 -0.5823668251618E+00
-0.1067884505611E+00 -0.3148518061871E+01 -0.1529994056962E+01 -0.5543369557670E+00
 0.1244719187697E-01 -0.3149226472863E+01 -0.1474286258324E+01 -0.5300374824601E+00
 0.1154227543641E+00 -0.3147331213087E+01 -0.1424996971985E+01 -0.5099352353991E+00
 0.2032107479638E+00 -0.3144313003803E+01 -0.1382318056738E+01 -0.4942973647557E+00
 0.2767792025989E+00 -0.3141477142050E+01 -0.1346408028127E+01 -0.4832288183917E+00
 0.3369438877904E+00 -0.3139942704172E+01 -0.1317409440358E+01 -0.4767202810445E+00
 0.3840712331804E+00 -0.3140808435747E+01 -0.1295666481920E+01 -0.4746233255879E+00
 0.4177419816413E+00 -0.3145031985369E+01 -0.1281826298501E+01 -0.4767199467664E+00
 0.4376597427959E+00 -0.3153372947998E+01 -0.1276385203207E+01 -0.4832427970433E+00
 0.4406458269846E+00 -0.3168847625439E+01 -0.1282254842021E+01 -0.4938770766696E+00
 0.4262696114280E+00 -0.3189497527885E+01 -0.1298717117441E+01 -0.5090115781794E+00
-0.1988376912222E+01 -0.2745494446405E+01 -0.2224919532911E+01 -0.7516881078984E+00
-0.1720259735548E+01 -0.2826727977677E+01 -0.2137084219795E+01 -0.7448630390304E+00
-0.1460162587275E+01 -0.2900675477897E+01 -0.2049593885432E+01 -0.7318712848660E+00
-0.1213257758092E+01 -0.2964782838921E+01 -0.1963679075616E+01 -0.7128043255986E+00
-0.9826655282439E+00 -0.3017979638899E+01 -0.1880303223788E+01 -0.6889589770881E+00
-0.7701282127677E+00 -0.3060383086730E+01 -0.1800340306197E+01 -0.6618529836392E+00
-0.5765734475608E+00 -0.3092719262183E+01 -0.1724567569206E+01 -0.6329457496922E+00
-0.4022717621634E+00 -0.3116152627454E+01 -0.1653659458926E+01 -0.6038015723084E+00
-0.2468519891801E+00 -0.3132183319817E+01 -0.1588146591201E+01 -0.5758377837020E+00
-0.1095293636971E+00 -0.3142449821796E+01 -0.1528430213305E+01 -0.5501267801662E+00
 0.1066105708972E-01 -0.3148574243532E+01 -0.1474819193887E+01 -0.5274320466676E+00
 0.1147366134147E+00 -0.3152110280242E+01 -0.1427565619788E+01 -0.5082872878177E+00
 0.2036922913366E+00 -0.3154516302552E+01 -0.1386887281754E+01 -0.4930315093722E+00
 0.2784270304208E+00 -0.3157123709812E+01 -0.1352987435882E+01 -0.4818330708117E+00
 0.3396251340792E+00 -0.3161150785149E+01 -0.1326117052639E+01 -0.4747131575436E+00
 0.3875757205597E+00 -0.3167694128060E+01 -0.1306655648211E+01 -0.4715580041570E+00
 0.4219718268135E+00 -0.3177636914107E+01 -0.1295162587743E+01 -0.4722062226517E+00
 0.4417021801929E+00 -0.3192155740672E+01 -0.1292713170147E+01 -0.4767761579778E+00
 0.4456946314118E+00 -0.3211521547603E+01 -0.1299938647313E+01 -0.4856883904982E+00
 0.4337282614093E+00 -0.3235021415648E+01 -0.1316607779153E+01 -0.5004447514457E+00
-0.1982285138848E+01 -0.2713005252225E+01 -0.2206786478207E+01 -0.7123739283858E+00
-0.1714803637811E+01 -0.2794778924101E+01 -0.2119503798723E+01 -0.7081421068444E+00
-0.1456512230688E+01 -0.2869366590664E+01 -0.2033163040879E+01 -0.6989668058045E+00
-0.1211627139041E+01 -0.2934758419127E+01 -0.1948801207396E+01 -0.6844155384371E+00
-0.9828393425925E+00 -0.2990095287308E+01 -0.1867279271317E+01 -0.6652630166446E+00
-0.7716910405760E+00 -0.3035429291127E+01 -0.1789346551362E+01 -0.6426699589784E+00
-0.5790305003782E+00 -0.3071393139715E+01 -0.1715699106492E+01 -0.6178941217456E+00
-0.4051078984371E+00 -0.3099022863534E+01 -0.1646941453949E+01 -0.5923260171812E+00
-0.2496111481925E+00 -0.3119657506908E+01 -0.1583556263881E+01 -0.5672666050290E+00
-0.1118540076548E+00 -0.3134783036356E+01 -0.1525919406815E+01 -0.5437576101971E+00
 0.9028667570979E-02 -0.3145911116798E+01 -0.1474334747397E+01 -0.5225865642074E+00
 0.1139661432129E+00 -0.3154525937583E+01 -0.1429063099730E+01 -0.5043321451438E+00
 0.2038723565348E+00 -0.3162052973563E+01 -0.1390344886477E+01 -0.4893845680614E+00
 0.2795556297158E+00 -0.3169828862493E+01 -0.1358428415960E+01 -0.4779596568904E+00
 0.3416073095981E+00 -0.3179075989746E+01 -0.1333610276287E+01 -0.4701222954061E+00
 0.3902568488082E+00 -0.3190860222684E+01 -0.1316283582383E+01 -0.4658187514348E+00
 0.4251134534343E+00 -0.3206089529259E+01 -0.1307058752323E+01 -0.4649817528604E+00
 0.4455106403308E+00 -0.3225396853316E+01 -0.1306546516789E+01 -0.4679244871845E+00
 0.4508575277539E+00 -0.3249038875841E+01 -0.1315145230265E+01 -0.4754353337682E+00
 0.4412148298700E+00 -0.3277134357942E+01 -0.1332882174813E+01 -0.4891246132908E+00
-0.1975661141057E+01 -0.2681505385271E+01 -0.2188868261822E+01 -0.6728929645240E+00
-0.1708485000321E+01 -0.2763907945781E+01 -0.2102024679337E+01 -0.6714304943967E+00
-0.1451700333887E+01 -0.2839133827325E+01 -0.2016692050655E+01 -0.6659374471901E+00
-0.1208683128365E+01 -0.2905659216458E+01 -0.1933740897162E+01 -0.6555989176285E+00
-0.9816733552593E+00 -0.2962818283069E+01 -0.1853911065312E+01 -0.6407901475589E+00
-0.7720037325210E+00 -0.3010679139914E+01 -0.1777860945535E+01 -0.6223792884934E+00
-0.5804041356963E+00 -0.3049809198983E+01 -0.1706200262972E+01 -0.6014378998477E+00
-0.4070834816015E+00 -0.3081145809938E+01 -0.1639467762865E+01 -0.5792002680478E+00
-0.2517638374519E+00 -0.3105901193241E+01 -0.1578102560423E+01 -0.5568601885397E+00
-0.1138339639920E+00 -0.3125436134961E+01 -0.1522456942646E+01 -0.5354196884949E+00
 0.7488652826138E-02 -0.3141161472542E+01 -0.1472826221531E+01 -0.5156725701165E+00
 0.1130520146469E+00 -0.3154490230455E+01 -0.1429475957804E+01 -0.4982253103778E+00
 0.2036874343515E+00 -0.3166804066767E+01 -0.1392664813703E+01 -0.4835058909295E+00
 0.2801193974956E+00 -0.3179412702012E+01 -0.1362667849667E+01 -0.4717743759047E+00
 0.3428629471011E+00 -0.3193509085998E+01 -0.1339803681883E+01 -0.4631502158328E+00
 0.3920884976876E+00 -0.3210125498583E+01 -0.1324477387061E+01 -0.4576628732617E+00
 0.4275379843483E+00 -0.3230046265732E+01 -0.1317178888910E+01 -0.4553950061358E+00
 0.4487915892654E+00 -0.3253834188156E+01 -0.1318370018135E+01 -0.4568122121506E+00
 0.4556022881238E+00 -0.3281901819848E+01 -0.1328360776541E+01 -0.4628189251480E+00
 0.4482868416558E+00 -0.3314862311086E+01 -0.1347290467215E+01 -0.4748981980831E+00
-0.1968374445020E+01 -0.2650773559476E+01 -0.2170999556607E+01 -0.6332154432294E+00
-0.1701273591719E+01 -0.2733825804362E+01 -0.2084496710871E+01 -0.6346939110201E+00
-0.1445793947357E+01 -0.2809653873784E+01 -0.2000060470863E+01 -0.6327923725504E+00
-0.1204539473908E+01 -0.2877155280271E+01 -0.1918396529599E+01 -0.6264250574135E+00
-0.9793104736621E+00 -0.2935863373356E+01 -0.1840131703431E+01 -0.6156635048273E+00
-0.7712058959034E+00 -0.2985889990327E+01 -0.1765835062050E+01 -0.6011385706145E+00
-0.5808218640196E+00 -0.3027771822233E+01 -0.1696039028237E+01 -0.5837577735051E+00
-0.4083081547219E+00 -0.3062372241214E+01 -0.1631219781953E+01 -0.5646161646782E+00
-0.2534005522595E+00 -0.3090802578174E+01 -0.1571775467317E+01 -0.5448092342770E+00
-0.1155428640152E+00 -0.3114318694120E+01 -0.1518034928473E+01 -0.5252947032314E+00
 0.5978468799334E-02 -0.3134240493245E+01 -0.1470283147760E+01 -0.5068608380958E+00
 0.1119377154245E+00 -0.3151909115399E+01 -0.1428786554364E+01 -0.4901300535969E+00
 0.2030896445373E+00 -0.3168651182669E+01 -0.1393813919387E+01 -0.4755605642465E+00
 0.2800848059617E+00 -0.3185731432258E+01 -0.1365653910896E+01 -0.4634565243464E+00
 0.3433767809809E+00 -0.3204300192217E+01 -0.1344633999870E+01 -0.4540006156860E+00
 0.3931359400655E+00 -0.3225331802966E+01 -0.1331132052187E+01 -0.4473210637031E+00
 0.4292192824393E+00 -0.3249576277846E+01 -0.1325567784479E+01 -0.4436345409406E+00
 0.4514068098531E+00 -0.3277625699266E+01 -0.1328322874655E+01 -0.4434952635167E+00
 0.4596789054607E+00 -0.3310065450247E+01 -0.1339681672652E+01 -0.4478110732440E+00
 0.4545546092326E+00 -0.3347770558276E+01 -0.1359811492602E+01 -0.4578691600104E+00
-0.1960287817961E+01 -0.2620586165831E+01 -0.2153010766921E+01 -0.5933302787122E+00
-0.1693139324714E+01 -0.2704272275643E+01 -0.2066783446926E+01 -0.5979191779025E+00
-0.1438842127559E+01 -0.2780638166682E+01 -0.1983155733263E+01 -0.5995505092328E+00
-0.1199295444792E+01 -0.2848961290255E+01 -0.1902680660646E+01 -0.5969590880935E+00
-0.9758706975832E+00 -0.2908969708485E+01 -0.1825874986221E+01 -0.5899907193857E+00
-0.7694222217191E+00 -0.2960839170538E+01 -0.1753222849914E+01 -0.5790871418666E+00
-0.5804004367190E+00 -0.3005097902287E+01 -0.1685184215059E+01 -0.5650149819723E+00
-0.4088846696380E+00 -0.3042557105482E+01 -0.1622177630192E+01 -0.5487473636411E+00
-0.2546078966599E+00 -0.3074247438794E+01 -0.1564562003695E+01 -0.5312906386446E+00
-0.1170527179941E+00 -0.3101335980840E+01 -0.1512642684616E+01 -0.5135566823848E+00
 0.4437674027447E-02 -0.3125060158610E+01 -0.1466692564034E+01 -0.4963209156424E+00
 0.1105727535107E+00 -0.3146689493442E+01 -0.1426974864148E+01 -0.4802142207410E+00
 0.2020396660512E+00 -0.3167489252661E+01 -0.1393761302171E+01 -0.4657205856003E+00
 0.2794266848462E+00 -0.3188670962336E+01 -0.1367344806952E+01 -0.4531882627353E+00
 0.3431490007493E+00 -0.3211335397778E+01 -0.1348047603184E+01 -0.4428667990811E+00
 0.3933912472576E+00 -0.3236420210235E+01 -0.1336223609210E+01 -0.4349782987519E+00
 0.4301116650906E+00 -0.3264678852959E+01 -0.1332246574919E+01 -0.4298435416710E+00
 0.4532378888184E+00 -0.3296767927801E+01 -0.1336459114932E+01 -0.4280604759764E+00
 0.4629073101851E+00 -0.3333400459765E+01 -0.1349131776880E+01 -0.4304917751629E+00
 0.4597667320131E+00 -0.3375577684960E+01 -0.1370431144409E+01 -0.4382228027745E+00
-0.1951270438241E+01 -0.2590734755188E+01 -0.2134742435497E+01 -0.5532407149734E+00
-0.1684047443576E+01 -0.2675008477366E+01 -0.2048756277646E+01 -0.5611069325561E+00
-0.1430883347791E+01 -0.2751830508658E+01 -0.1965875507545E+01 -0.5662367950462E+00
-0.1193033783026E+01 -0.2820822963631E+01 -0.1886512666144E+01 -0.5672619601853E+00
-0.9714584187282E+00 -0.2881903212755E+01 -0.1811079962204E+01 -0.5638677748698E+00
-0.7667629285862E+00 -0.2935322505450E+01 -0.1739980149584E+01 -0.5563491246806E+00
-0.5792458651958E+00 -0.2981616865978E+01 -0.1673605479407E+01 -0.5453546932658E+00
-0.4089080666950E+00 -0.3021561785538E+01 -0.1612320826460E+01 -0.5317526054187E+00
-0.2554673257481E+00 -0.3056123579056E+01 -0.1556447721310E+01 -0.5164696376300E+00
-0.1184316827240E+00 -0.3086393547646E+01 -0.1506267854453E+01 -0.5003725915460E+00
 0.2810040569637E-02 -0.3113534117371E+01 -0.1462040312388E+01 -0.4842200321332E+00
 0.1089120815385E+00 -0.3138745067971E+01 -0.1424021500011E+01 -0.4686467186682E+00
 0.2005039759307E+00 -0.3163228564084E+01 -0.1392480552900E+01 -0.4541592741193E+00
 0.2781248743042E+00 -0.3188140650297E+01 -0.1367707411248E+01 -0.4411484956687E+00
 0.3421649923288E+00 -0.3214538182722E+01 -0.1350015396061E+01 -0.4299273873293E+00
 0.3928291049981E+00 -0.3243338066787E+01 -0.1339739208643E+01 -0.4207988126517E+00
 0.4301566298388E+00 -0.3275315863215E+01 -0.1337224836295E+01 -0.4141596338356E+00
 0.4541836200577E+00 -0.3311192084495E+01 -0.1342793974880E+01 -0.4106241945382E+00
 0.4651473635030E+00 -0.3351766306832E+01 -0.1356710899923E+01 -0.4109925178578E+00
 0.4637347683947E+00 -0.3398095522062E+01 -0.1379149550726E+01 -0.4161650732111E+00
-0.1941199408773E+01 -0.2561028128577E+01 -0.2116046937188E+01 -0.5129621577078E+00
-0.1673961394029E+01 -0.2645818053188E+01 -0.2030296335042E+01 -0.5242678183034E+00
-0.1421946299630E+01 -0.2723001374770E+01 -0.1948125402027E+01 -0.5328799158237E+00
-0.1185824124064E+01 -0.2792513501683E+01 -0.1869818679359E+01 -0.5373909606913E+00
-0.9661640871851E+00 -0.2854453374247E+01 -0.1795690202319E+01 -0.5373812246731E+00
-0.7633256701828E+00 -0.2909154276214E+01 -0.1726065570428E+01 -0.5330361566775E+00
-0.5774535508995E+00 -0.2957171087240E+01 -0.1661273575712E+01 -0.5249086206737E+00
-0.4084652323634E+00 -0.2999256056864E+01 -0.1601629001875E+01 -0.5137780285276E+00
-0.2560540894101E+00 -0.3036323949233E+01 -0.1547417674238E+01 -0.5005012966784E+00
-0.1197427920229E+00 -0.3069401004404E+01 -0.1498897580519E+01 -0.4859025884434E+00
 0.1044238280807E-02 -0.3099581576211E+01 -0.1456312545134E+01 -0.4707218620110E+00
 0.1069154495487E+00 -0.3127999130845E+01 -0.1419909326608E+01 -0.4555948648261E+00
 0.1984529233078E+00 -0.3155794229105E+01 -0.1389950410199E+01 -0.4410479441037E+00
 0.2761573874833E+00 -0.3184070266769E+01 -0.1366719049798E+01 -0.4275106779863E+00
 0.3404029303048E+00 -0.3213847257621E+01 -0.1350518830413E+01 -0.4153520696446E+00
 0.3914143715119E+00 -0.3246032031199E+01 -0.1341670296650E+01 -0.4049405607792E+00
 0.4292941787931E+00 -0.3281427082487E+01 -0.1340502461336E+01 -0.3967267118372E+00
 0.4541543106450E+00 -0.3320807188410E+01 -0.1347326849132E+01 -0.3913257303428E+00
 0.4662829323671E+00 -0.3365029135338E+01 -0.1362410711941E+01 -0.3894731083129E+00
 0.4663400334248E+00 -0.3415158691117E+01 -0.1385944765600E+01 -0.3919144433158E+00
-0.1929960938562E+01 -0.2531293089794E+01 -0.2096789388009E+01 -0.4725204524696E+00
-0.1662843953559E+01 -0.2616506236187E+01 -0.2011294584079E+01 -0.4874202800003E+00
-0.1412051903815E+01 -0.2693945588325E+01 -0.1929818816411E+01 -0.4995111014486E+00
-0.1177724722517E+01 -0.2763830385501E+01 -0.1852530896070E+01 -0.5074001271564E+00
-0.9600659755557E+00 -0.2826431422283E+01 -0.1779653772470E+01 -0.5106098442752E+00
-0.7591964714432E+00 -0.2882166486496E+01 -0.1711440585891E+01 -0.5092495071531E+00
-0.5751086695019E+00 -0.2931616512099E+01 -0.1648160831172E+01 -0.5037971507867E+00
-0.4076345430435E+00 -0.2975519632069E+01 -0.1590082458270E+01 -0.4949589492261E+00
-0.2564365041581E+00 -0.3014749047293E+01 -0.1537457205282E+01 -0.4835316041917E+00
-0.1210432051932E+00 -0.3050274825620E+01 -0.1490519470702E+01 -0.4703001467147E+00
-0.9058791940575E-03 -0.3083129831796E+01 -0.1449496780489E+01 -0.4559856228513E+00
 0.1045469537976E+00 -0.3114385745149E+01 -0.1414624228347E+01 -0.4412227826456E+00
 0.1958590033984E+00 -0.3145125282729E+01 -0.1386155147769E+01 -0.4265545146382E+00
 0.2735011398809E+00 -0.3176403785593E+01 -0.1364364240024E+01 -0.4124438804860E+00
 0.3378367703002E+00 -0.3209210674207E+01 -0.1349545731413E+01 -0.3993066924841E+00
 0.3891084326630E+00 -0.3244448120120E+01 -0.1342009649701E+01 -0.3875625057608E+00
 0.4274658267736E+00 -0.3282944199519E+01 -0.1342074831786E+01 -0.3776985551910E+00
 0.4530701292377E+00 -0.3325517056952E+01 -0.1350050052602E+01 -0.3703227521835E+00
 0.4662236893848E+00 -0.3373059137997E+01 -0.1366212657383E+01 -0.3661128658239E+00
 0.4675095779323E+00 -0.3426620835634E+01 -0.1390782287592E+01 -0.3656963463104E+00
-0.1917451092968E+01 -0.2501374193998E+01 -0.2076847879606E+01 -0.4319503176570E+00
-0.1650658435076E+01 -0.2586898924746E+01 -0.1991651954065E+01 -0.4505889576452E+00
-0.1401214937014E+01 -0.2664480445363E+01 -0.1910876824871E+01 -0.4661633254334E+00
-0.1168784182359E+01 -0.2734593375654E+01 -0.1834587447613E+01 -0.4773405565943E+00
-0.9532315372451E+00 -0.2797668828653E+01 -0.1762923167501E+01 -0.4836258026833E+00
-0.7544506895621E+00 -0.2854208365041E+01 -0.1696069751362E+01 -0.4850816428568E+00
-0.5722865921690E+00 -0.2904823073371E+01 -0.1634241538659E+01 -0.4821309386469E+00
-0.4064858349691E+00 -0.2950243419241E+01 -0.1577662745477E+01 -0.4754211836785E+00
-0.2566756138430E+00 -0.2991308745668E+01 -0.1526552645098E+01 -0.4656982428128E+00
-0.1223838656083E+00 -0.3028940369915E+01 -0.1481122386939E+01 -0.4537121212843E+00
-0.3081180458501E-02 -0.3064115878005E+01 -0.1441582613822E+01 -0.4401655043287E+00
 0.1017747068819E+00 -0.3097850309995E+01 -0.1408155529892E+01 -0.4256905990312E+00
 0.1926968949853E+00 -0.3131173263590E+01 -0.1381083889741E+01 -0.4108433790402E+00
 0.2701330412539E+00 -0.3165096859228E+01 -0.1360632990997E+01 -0.3961143326517E+00
 0.3344392379958E+00 -0.3200584449698E+01 -0.1347088246083E+01 -0.3819565986811E+00
 0.3858725364774E+00 -0.3238535500608E+01 -0.1340751589741E+01 -0.3688280394807E+00
 0.4246166730960E+00 -0.3279799621705E+01 -0.1341935982443E+01 -0.3572397861698E+00
 0.4508619768768E+00 -0.3325227921877E+01 -0.1350951990724E+01 -0.3477887433017E+00
 0.4648993484909E+00 -0.3375734947245E+01 -0.1368092727944E+01 -0.3411058010218E+00
 0.4672097057386E+00 -0.3432343961187E+01 -0.1393613096526E+01 -0.3377380555243E+00
-0.1903576007335E+01 -0.2471132888316E+01 -0.2056113175741E+01 -0.3912940220185E+00
-0.1637369516019E+01 -0.2556841527835E+01 -0.1971279185612E+01 -0.4138035462028E+00
-0.1389445274561E+01 -0.2634444129271E+01 -0.1891228015004E+01 -0.4328708362298E+00
-0.1159042720619E+01 -0.2704642881237E+01 -0.1815932228267E+01 -0.4472607421264E+00
-0.9457184330086E+00 -0.2768016116642E+01 -0.1745455233909E+01 -0.4564956090396E+00
-0.7491536870653E+00 -0.2825145848397E+01 -0.1679920777407E+01 -0.4606174576100E+00
-0.5690532026779E+00 -0.2876674916122E+01 -0.1619492211728E+01 -0.4600121559893E+00
-0.4050803795354E+00 -0.2923330378598E+01 -0.1564353052355E+01 -0.4552820752761E+00
-0.2568249519669E+00 -0.2965923566816E+01 -0.1514691799986E+01 -0.4471311978746E+00
-0.1238092195346E+00 -0.3005333221028E+01 -0.1470696943334E+01 -0.4362788646739E+00
-0.5517071411871E-02 -0.3042487392524E+01 -0.1432562094416E+01 -0.4234104204900E+00
 0.9857106913173E-01 -0.3078349731460E+01 -0.1400495967742E+01 -0.4091542156303E+00
 0.1889440858983E+00 -0.3113901579154E+01 -0.1374730018343E+01 -0.3940757429947E+00
 0.2660315261577E+00 -0.3150116128304E+01 -0.1355519759570E+01 -0.3786867058862E+00
 0.3301841959519E+00 -0.3187933553439E+01 -0.1343142194612E+01 -0.3634685494876E+00
 0.3816703344741E+00 -0.3228250373681E+01 -0.1337892615034E+01 -0.3489064711405E+00
 0.4206973291640E+00 -0.3271932522715E+01 -0.1340080537570E+01 -0.3355258730120E+00
 0.4474702971745E+00 -0.3319855156674E+01 -0.1350020880540E+01 -0.3239112668268E+00
 0.4622549879919E+00 -0.3372945571724E+01 -0.1368024570884E+01 -0.3146575970578E+00
 0.4654180893278E+00 -0.3432203041926E+01 -0.1394388924184E+01 -0.3082632326132E+00
-0.1888252230398E+01 -0.2440446746068E+01 -0.2034488513779E+01 -0.3506001962192E+00
-0.1622944031594E+01 -0.2526197914841E+01 -0.1950096709879E+01 -0.3770978858342E+00
-0.1376749054781E+01 -0.2603694456455E+01 -0.1870808445536E+01 -0.3996688220199E+00
-0.1148533356277E+01 -0.2673838751617E+01 -0.1796514886154E+01 -0.4172068568590E+00
-0.9375755163765E+00 -0.2737341985640E+01 -0.1727211221567E+01 -0.4292808493995E+00
-0.7433615426802E+00 -0.2794861212998E+01 -0.1662964690951E+01 -0.4359352194971E+00
-0.5654653192426E+00 -0.2847070571859E+01 -0.1603891864750E+01 -0.4375354505318E+00
-0.4034710393841E+00 -0.2894696167513E+01 -0.1550138583310E+01 -0.4346512870082E+00
-0.2569305026015E+00 -0.2938525614017E+01 -0.1501864371001E+01 -0.4279532447641E+00
-0.1253570793895E+00 -0.2979400142648E+01 -0.1459235890656E+01 -0.4181343813724E+00
-0.8243279493431E-02 -0.3018203425454E+01 -0.1422429947718E+01 -0.4058639589806E+00
 0.9491305532849E-01 -0.3055852697129E+01 -0.1391641628117E+01 -0.3917653187941E+00
 0.1845817174661E+00 -0.3093285549389E+01 -0.1367090797536E+01 -0.3764099810612E+00
 0.2611780095690E+00 -0.3131439721809E+01 -0.1349023001331E+01 -0.3603248912756E+00
 0.3250486272367E+00 -0.3171233743331E+01 -0.1337707001171E+01 -0.3440115938961E+00
 0.3764699807753E+00 -0.3213559567302E+01 -0.1333432102285E+01 -0.3279733631632E+00
 0.4156652253725E+00 -0.3259293937987E+01 -0.1336505491539E+01 -0.3127425092175E+00
 0.4428449301072E+00 -0.3309328256940E+01 -0.1347247160194E+01 -0.2988908004526E+00
 0.4582434925288E+00 -0.3364596706113E+01 -0.1365986006920E+01 -0.2869864390232E+00
 0.4621202373086E+00 -0.3426077761791E+01 -0.1393060032973E+01 -0.2775033546756E+00
-0.1871406737834E+01 -0.2409208434527E+01 -0.2011889125907E+01 -0.3099226986410E+00
-0.1607351523558E+01 -0.2494849273800E+01 -0.1928034369868E+01 -0.3405091617259E+00
-0.1363129544853E+01 -0.2572107634735E+01 -0.1849561469715E+01 -0.3665931162834E+00
-0.1137282827780E+01 -0.2642059136644E+01 -0.1776290718774E+01 -0.3872229609166E+00
-0.9288436113083E+00 -0.2705532462979E+01 -0.1708156750582E+01 -0.4020387466561E+00
-0.7371216231565E+00 -0.2763252628235E+01 -0.1645175893981E+01 -0.4111072929473E+00
-0.5615710484822E+00 -0.2815922935004E+01 -0.1587422168212E+01 -0.4147886773861E+00
-0.4017024119970E+00 -0.2864269478576E+01 -0.1535006784676E+01 -0.4136314089448E+00
-0.2570306704616E+00 -0.2909059132308E+01 -0.1488062203527E+01 -0.4082803371441E+00
-0.1270584563862E+00 -0.2951099675890E+01 -0.1446734318500E+01 -0.3994064875832E+00
-0.1128353498809E-01 -0.2991234878812E+01 -0.1411183650907E+01 -0.3876644062484E+00
 0.9078290046350E-01 -0.3030340021358E+01 -0.1381591843316E+01 -0.3736714282656E+00
 0.1795955287593E+00 -0.3069312850738E+01 -0.1358167137885E+01 -0.3580018306371E+00
 0.2555582814708E+00 -0.3109058258558E+01 -0.1341144985829E+01 -0.3411922965928E+00
 0.3190143862632E+00 -0.3150473587419E+01 -0.1330785821168E+01 -0.3237572029526E+00
 0.3702458856199E+00 -0.3194443766011E+01 -0.1327373000417E+01 -0.3062101374935E+00
 0.4094860491326E+00 -0.3241850829143E+01 -0.1331211443229E+01 -0.2890845732917E+00
 0.4369453520455E+00 -0.3293595670492E+01 -0.1342625646264E+01 -0.2729395707519E+00
 0.4528269341522E+00 -0.3350614605166E+01 -0.1361960201922E+01 -0.2583241455428E+00
 0.4573016389658E+00 -0.3413867414739E+01 -0.1389585911089E+01 -0.2457052921122E+00
-0.1852976970490E+01 -0.2377324835711E+01 -0.1988241843872E+01 -0.2693196719510E+00
-0.1590564727566E+01 -0.2462693111608E+01 -0.1905031179580E+01 -0.3040772879118E+00
-0.1348587921588E+01 -0.2539577226840E+01 -0.1827437615127E+01 -0.3336800119559E+00
-0.1125312428523E+01 -0.2609199557104E+01 -0.1755220628793E+01 -0.3573512163256E+00
-0.9195562439159E+00 -0.2672490216283E+01 -0.1688261832011E+01 -0.3748226485949E+00
-0.7304731495823E+00 -0.2730233781420E+01 -0.1626532253446E+01 -0.3862007481643E+00
-0.5574101693443E+00 -0.2783159208547E+01 -0.1570067603627E+01 -0.3918535106546E+00
-0.3998110289743E+00 -0.2831992257035E+01 -0.1518947540572E+01 -0.3923184720435E+00
-0.2571563072123E+00 -0.2877480897968E+01 -0.1473279482698E+01 -0.3882219542987E+00
-0.1289374219507E+00 -0.2920402584924E+01 -0.1433189799596E+01 -0.3802169840641E+00
-0.1465524193095E-01 -0.2961564937681E+01 -0.1398823480870E+01 -0.3689448000490E+00
 0.8616864395299E-01 -0.3001805108135E+01 -0.1370349134690E+01 -0.3550159064446E+00
 0.1739767676897E+00 -0.3041984207918E+01 -0.1347963493488E+01 -0.3390043890764E+00
 0.2491637630677E+00 -0.3082976064427E+01 -0.1331891778260E+01 -0.3214517508413E+00
 0.3120696948825E+00 -0.3125656462045E+01 -0.1322385777212E+01 -0.3028788824928E+00
 0.3629802433283E+00 -0.3170900321835E+01 -0.1319722433551E+01 -0.2838031841804E+00
 0.4021350048833E+00 -0.3219589615819E+01 -0.1324203663781E+01 -0.2647546933125E+00
 0.4297419360036E+00 -0.3272628709878E+01 -0.1336156780332E+01 -0.2462798441751E+00
 0.4459774880449E+00 -0.3330952068883E+01 -0.1355938049555E+01 -0.2289141855535E+00
 0.4509452836944E+00 -0.3395504220317E+01 -0.1383942696702E+01 -0.2131288682227E+00
-0.1832910768859E+01 -0.2344716139477E+01 -0.1963484641938E+01 -0.2288526106437E+00
-0.1572559934216E+01 -0.2429642250853E+01 -0.1881035022211E+01 -0.2678443025407E+00
-0.1333123908321E+01 -0.2506013136574E+01 -0.1804394406524E+01 -0.3009660376916E+00
-0.1112638718227E+01 -0.2575171998591E+01 -0.1733271032508E+01 -0.3276320038866E+00
-0.9097402902713E+00 -0.2638133853472E+01 -0.1667500843330E+01 -0.3476823736522E+00
-0.7234477216420E+00 -0.2695733431559E+01 -0.1607015137928E+01 -0.3612778111152E+00
-0.5530145106297E+00 -0.2748720712915E+01 -0.1551815551130E+01 -0.3688059003063E+00
-0.3978255746558E+00 -0.2797819727315E+01 -0.1501953288117E+01 -0.3708023320738E+00
-0.2573307672860E+00 -0.2843760396029E+01 -0.1457512843061E+01 -0.3678813558670E+00
-0.1310109935136E+00 -0.2887292118492E+01 -0.1418602459045E+01 -0.3606817651819E+00
-0.1836916818242E-01 -0.2929189393604E+01 -0.1385352520526E+01 -0.3498329111363E+00
 0.8106467856482E-01 -0.2970254397724E+01 -0.1357919164561E+01 -0.3359378348320E+00
 0.1677230155283E+00 -0.3011314113425E+01 -0.1336487812622E+01 -0.3195678676993E+00
 0.2419925961707E+00 -0.3053212353786E+01 -0.1321273282728E+01 -0.3012650484370E+00
 0.3042104082090E+00 -0.3096802326861E+01 -0.1312518198438E+01 -0.2815513619164E+00
 0.3546642934636E+00 -0.3142945641659E+01 -0.1310492230328E+01 -0.2609425612671E+00
 0.3935979275486E+00 -0.3192519076043E+01 -0.1315492936456E+01 -0.2399614359859E+00
 0.4212166871637E+00 -0.3246425109817E+01 -0.1327847955279E+01 -0.2191416100416E+00
 0.4376770644217E+00 -0.3305593403157E+01 -0.1347920675787E+01 -0.1990088415445E+00
 0.4430361012391E+00 -0.3370956595565E+01 -0.1376122628843E+01 -0.1800443710421E+00
-0.1811166203305E+01 -0.2311314960190E+01 -0.1937566141929E+01 -0.1885855505444E+00
-0.1553317253178E+01 -0.2395623885294E+01 -0.1856002330374E+01 -0.2318538623385E+00
-0.1316736294074E+01 -0.2471340658546E+01 -0.1780396163216E+01 -0.2684877813330E+00
-0.1099274129625E+01 -0.2539904059602E+01 -0.1710413744598E+01 -0.2981040293177E+00
-0.8994165475739E+00 -0.2602397243631E+01 -0.1645852477692E+01 -0.3206645037436E+00
-0.7160697947300E+00 -0.2659694936302E+01 -0.1586609419561E+01 -0.3363962398407E+00
-0.5484083065721E+00 -0.2712562616964E+01 -0.1532656330174E+01 -0.3457164509299E+00
-0.3957671025186E+00 -0.2761720300264E+01 -0.1484019075544E+01 -0.3491669842010E+00
-0.2575699735082E+00 -0.2807879860492E+01 -0.1440761418326E+01 -0.3473557819947E+00
-0.1332890368024E+00 -0.2851764147070E+01 -0.1402974992862E+01 -0.3409108786738E+00
-0.2242916274596E-01 -0.2894116879572E+01 -0.1370776636413E+01 -0.3304511545587E+00
 0.7547224553563E-01 -0.2935707757075E+01 -0.1344310687014E+01 -0.3165717649249E+00
 0.1608389096467E+00 -0.2977331481074E+01 -0.1323751505214E+01 -0.2998391414861E+00
 0.2340505708319E+00 -0.3019802264044E+01 -0.1309303292489E+01 -0.2807922160966E+00
 0.2954410617568E+00 -0.3063949213605E+01 -0.1301198828068E+01 -0.2599494713200E+00
 0.3452993458750E+00 -0.3110617119452E+01 -0.1299699350285E+01 -0.2378203968900E+00
 0.3838721078744E+00 -0.3160672678922E+01 -0.1305096265082E+01 -0.2149172113659E+00
 0.4113636023096E+00 -0.3215011774633E+01 -0.1317714637650E+01 -0.1917600381375E+00
 0.4279180136899E+00 -0.3274556924750E+01 -0.1337920284805E+01 -0.1688665786870E+00
 0.4335644736667E+00 -0.3340231526885E+01 -0.1366133511547E+01 -0.1467302384713E+00
-0.1787711447841E+01 -0.2277065581501E+01 -0.1910445198945E+01 -0.1485843238662E+00
-0.1532820848571E+01 -0.2360578718812E+01 -0.1829897792029E+01 -0.1961507788894E+00
-0.1299423422818E+01 -0.2435499617778E+01 -0.1755413824628E+01 -0.2362817135183E+00
-0.1085227551037E+01 -0.2503338171047E+01 -0.1686625885101E+01 -0.2688043891185E+00
-0.8886003020167E+00 -0.2565228878360E+01 -0.1623299710660E+01 -0.2938126105224E+00
-0.7083571749827E+00 -0.2622075779624E+01 -0.1565303484695E+01 -0.3116096247097E+00
-0.5436085886772E+00 -0.2674653629244E+01 -0.1512583238586E+01 -0.3226507261587E+00
-0.3936493030903E+00 -0.2723675407644E+01 -0.1465142610329E+01 -0.3274908123286E+00
-0.2578825462413E+00 -0.2769834224091E+01 -0.1423026878447E+01 -0.3267365984310E+00
-0.1357742426059E+00 -0.2813827209124E+01 -0.1386312678797E+01 -0.3210085309402E+00
-0.2683196332700E-01 -0.2856369022108E+01 -0.1355104459717E+01 -0.3109164276129E+00
 0.6939981282388E-01 -0.2898198784449E+01 -0.1329535513292E+01 -0.2970473554310E+00
 0.1533367109705E+00 -0.2940080177812E+01 -0.1309769426093E+01 -0.2799611333886E+00
 0.2253518535179E+00 -0.2982797688742E+01 -0.1295999539268E+01 -0.2601905714676E+00
 0.2857756833573E+00 -0.3027154397992E+01 -0.1288447992610E+01 -0.2382467976625E+00
 0.3348975516839E+00 -0.3073974624500E+01 -0.1287366220958E+01 -0.2146290946002E+00
 0.3729668779481E+00 -0.3124110316711E+01 -0.1293037412939E+01 -0.1898360452001E+00
 0.4001891487256E+00 -0.3178446526853E+01 -0.1305780964408E+01 -0.1643729564999E+00
 0.4167040330224E+00 -0.3237896592804E+01 -0.1325960499734E+01 -0.1387495120784E+00
 0.4225290399313E+00 -0.3303376332375E+01 -0.1353998224014E+01 -0.1134706133822E+00
-0.1762524493059E+01 -0.2241923130592E+01 -0.1882090378342E+01 -0.1089158509768E+00
-0.1511059059965E+01 -0.2324460082113E+01 -0.1802693992205E+01 -0.1607805754837E+00
-0.1281183557361E+01 -0.2398443477963E+01 -0.1729424702216E+01 -0.2043839984450E+00
-0.1070504801564E+01 -0.2465430776180E+01 -0.1661889717324E+01 -0.2397685912068E+00
-0.8773018133894E+00 -0.2526591172255E+01 -0.1599829699195E+01 -0.2671674152271E+00
-0.7003214569761E+00 -0.2582847012526E+01 -0.1543089176752E+01 -0.2869676137793E+00
-0.5386255444458E+00 -0.2634975575702E+01 -0.1491592522686E+01 -0.2996694776494E+00
-0.3914787619018E+00 -0.2683679201033E+01 -0.1445324238913E+01 -0.3058467667660E+00
-0.2582699450172E+00 -0.2729630918769E+01 -0.1404313402418E+01 -0.3061093732083E+00
-0.1384621393484E+00 -0.2773502401885E+01 -0.1368623330909E+01 -0.3010730195259E+00
-0.3156706706545E-01 -0.2815980431414E+01 -0.1338347320891E+01 -0.2913398573010E+00
 0.6286335635171E-01 -0.2857774932469E+01 -0.1313608437443E+01 -0.2774888882826E+00
 0.1452367354756E+00 -0.2899619329028E+01 -0.1294559815686E+01 -0.2600720417987E+00
 0.2159195418078E+00 -0.2942267810660E+01 -0.1281383683111E+01 -0.2396135985606E+00
 0.2752384086189E+00 -0.2986495177029E+01 -0.1274290677921E+01 -0.2166141556713E+00
 0.3234824786915E+00 -0.3033101496482E+01 -0.1273520935132E+01 -0.1915593889792E+00
 0.3609040951381E+00 -0.3082919402999E+01 -0.1279347191450E+01 -0.1649312824695E+00
 0.3877127745015E+00 -0.3136819150628E+01 -0.1292079993502E+01 -0.1372183369191E+00
 0.4040511521855E+00 -0.3195702968002E+01 -0.1312076350106E+01 -0.1089208290652E+00
 0.4099389712926E+00 -0.3260479856066E+01 -0.1339754212445E+01 -0.8055263533081E-01
-0.1735592900971E+01 -0.2205852879687E+01 -0.1852479512210E+01 -0.6964753144928E-01
-0.1488024515548E+01 -0.2287233136619E+01 -0.1774371092018E+01 -0.1257891101089E+00
-0.1262015235674E+01 -0.2360138535237E+01 -0.1702412268010E+01 -0.1728303344556E+00
-0.1055109098907E+01 -0.2426151576938E+01 -0.1636192513497E+01 -0.2110305730611E+00
-0.8655268031494E+00 -0.2486459805764E+01 -0.1575433702193E+01 -0.2407669255374E+00
-0.6919684776123E+00 -0.2541992707600E+01 -0.1519961753194E+01 -0.2625161062249E+00
-0.5334629060610E+00 -0.2593522962178E+01 -0.1469683354345E+01 -0.2768288400901E+00
-0.3892552627423E+00 -0.2641738208309E+01 -0.1424566927781E+01 -0.2843025091904E+00
-0.2587266729713E+00 -0.2687289609796E+01 -0.1384627649389E+01 -0.2855539212731E+00
-0.1413411890317E+00 -0.2730823183279E+01 -0.1349917251562E+01 -0.2811966287022E+00
-0.3661670963720E-01 -0.2772998575611E+01 -0.1320519180718E+01 -0.2718264971808E+00
 0.5588650333295E-01 -0.2814497475434E+01 -0.1296547153599E+01 -0.2580147123451E+00
 0.1365676166575E+00 -0.2856023409661E+01 -0.1278144219470E+01 -0.2403044720036E+00
 0.2057860262075E+00 -0.2898299343365E+01 -0.1265481255854E+01 -0.2192097111541E+00
 0.2638638975011E+00 -0.2942069270092E+01 -0.1258756521925E+01 -0.1952179496016E+00
 0.3110895321734E+00 -0.2988105075547E+01 -0.1258197302194E+01 -0.1687983231445E+00
 0.3477185157809E+00 -0.3037215488146E+01 -0.1264063573805E+01 -0.1404132757955E+00
 0.3739673618019E+00 -0.3090251936147E+01 -0.1276653746704E+01 -0.1105318167375E+00
 0.3899886721040E+00 -0.3148103582081E+01 -0.1296314004401E+01 -0.7964216974895E-01
 0.3958158909276E+00 -0.3211672959266E+01 -0.1323452818762E+01 -0.4826348881170E-01
-0.1706913489277E+01 -0.2168829538885E+01 -0.1821599218616E+01 -0.3084666666469E-01
-0.1463714188996E+01 -0.2248874081082E+01 -0.1744916482511E+01 -0.9122221053168E-01
-0.1241917567298E+01 -0.2320563104962E+01 -0.1674365911716E+01 -0.1416557801350E+00
-0.1039041478037E+01 -0.2385482764105E+01 -0.1609526389724E+01 -0.1826226837798E+00
-0.8532769080585E+00 -0.2444823035489E+01 -0.1550106969536E+01 -0.2146465240725E+00
-0.6832987531134E+00 -0.2499509361904E+01 -0.1495919810264E+01 -0.2382973942260E+00
-0.5281183410008E+00 -0.2550302464645E+01 -0.1446857774984E+01 -0.2541804766233E+00
-0.3869721138135E+00 -0.2597870897007E+01 -0.1402876211527E+01 -0.2629205121327E+00
-0.2592405277981E+00 -0.2642841815521E+01 -0.1363978697900E+01 -0.2651443069668E+00
-0.1443929564095E+00 -0.2685835035554E+01 -0.1330207152849E+01 -0.2614654821428E+00
-0.4195594760803E-01 -0.2727483485500E+01 -0.1301636530260E+01 -0.2524749744061E+00
 0.4850054019686E-01 -0.2768441263675E+01 -0.1278372136792E+01 -0.2387366250380E+00
 0.1273664029417E+00 -0.2809382063762E+01 -0.1260547357388E+01 -0.2207844918938E+00
 0.1949931674113E+00 -0.2850996431439E+01 -0.1248321530927E+01 -0.1991209316457E+00
 0.2516975760100E+00 -0.2893994803453E+01 -0.1241879693748E+01 -0.1742184524348E+00
 0.2977662363947E+00 -0.2939116771304E+01 -0.1241434748259E+01 -0.1465271593702E+00
 0.3334581457674E+00 -0.2987142379584E+01 -0.1247231586730E+01 -0.1164870306156E+00
 0.3589995162876E+00 -0.3038899970895E+01 -0.1259553210471E+01 -0.8454425395763E-01
 0.3745598431155E+00 -0.3095262884749E+01 -0.1278730426324E+01 -0.5117107965762E-01
 0.3801957366177E+00 -0.3157127798872E+01 -0.1305158065949E+01 -0.1688729032944E-01
-0.1676491985897E+01 -0.2130836581235E+01 -0.1789444422014E+01  0.7420057237745E-02
-0.1438129424285E+01 -0.2209369382262E+01 -0.1714324434729E+01 -0.5712534406292E-01
-0.1220890498638E+01 -0.2279706728594E+01 -0.1645280692626E+01 -0.1108945880342E+00
-0.1022301182405E+01 -0.2343418256780E+01 -0.1581888132404E+01 -0.1545756520469E+00
-0.8405501160973E+00 -0.2401680999521E+01 -0.1523848620475E+01 -0.1888390307489E+00
-0.6743079109021E+00 -0.2455405277020E+01 -0.1470965194593E+01 -0.2143502752826E+00
-0.5225838530832E+00 -0.2505332376484E+01 -0.1423120624287E+01 -0.2317716963723E+00
-0.3846165033830E+00 -0.2552107172436E+01 -0.1380260124134E+01 -0.2417581346750E+00
-0.2597929052315E+00 -0.2596330436674E+01 -0.1342377967291E+01 -0.2449488269414E+00
-0.1475923577144E+00 -0.2638595008098E+01 -0.1309508058610E+01 -0.2419593779499E+00
-0.4755285084411E-01 -0.2679507299474E+01 -0.1281718267399E+01 -0.2333771171309E+00
 0.4074427872271E-01 -0.2719694267265E+01 -0.1259106491421E+01 -0.2197592285756E+00
 0.1176784850357E+00 -0.2759799650754E+01 -0.1241796944738E+01 -0.2016306547575E+00
 0.1835922889148E+00 -0.2800480206054E+01 -0.1229937317936E+01 -0.1794815304827E+00
 0.2387956986902E+00 -0.2842409885877E+01 -0.1223698664874E+01 -0.1537680417126E+00
 0.2835723965186E+00 -0.2886291663921E+01 -0.1223278052576E+01 -0.1249192407710E+00
 0.3181845089592E+00 -0.2932871839217E+01 -0.1228903042104E+01 -0.9334979050915E-01
 0.3428701827791E+00 -0.2982950879756E+01 -0.1240837924432E+01 -0.5947921935292E-01
 0.3578218566922E+00 -0.3037382944494E+01 -0.1259393708073E+01 -0.2375887083275E-01
 0.3631314442263E+00 -0.3097056127427E+01 -0.1284944597845E+01  0.1329666155480E-01
-0.1644342664757E+01 -0.2091865599321E+01 -0.1756017879663E+01  0.4508702890566E-01
-0.1411275941444E+01 -0.2168715029797E+01 -0.1682595752216E+01 -0.2354331843749E-01
-0.1198935058265E+01 -0.2237569399299E+01 -0.1615157090958E+01 -0.8058004394425E-01
-0.1004886037749E+01 -0.2299962953153E+01 -0.1553279021784E+01 -0.1269185409737E+00
-0.8273411913979E+00 -0.2357045022258E+01 -0.1496661516622E+01 -0.1633747427796E+00
-0.6649871207825E+00 -0.2409699923355E+01 -0.1445102907079E+01 -0.1907101411653E+00
-0.5168461968200E+00 -0.2458642021582E+01 -0.1398479459102E+01 -0.2096455525567E+00
-0.3821698871698E+00 -0.2504487819806E+01 -0.1356729118837E+01 -0.2208676853834E+00
-0.2603591574102E+00 -0.2547809203419E+01 -0.1319839126242E+01 -0.2250299878350E+00
-0.1509079920068E+00 -0.2589171145011E+01 -0.1287837191132E+01 -0.2227516250028E+00
-0.5336880893048E-01 -0.2629153650672E+01 -0.1260785552815E+01 -0.2146175873823E+00
 0.3266377559201E-01 -0.2668356908020E+01 -0.1238775769099E+01 -0.2011792927300E+00
 0.1075573484294E+00 -0.2707394515029E+01 -0.1221923465203E+01 -0.1829530266245E+00
 0.1716439773080E+00 -0.2746887994305E+01 -0.1210364684919E+01 -0.1604166650830E+00
 0.2252252275837E+00 -0.2787471768749E+01 -0.1204255871293E+01 -0.1340094248355E+00
 0.2685800956109E+00 -0.2829807655659E+01 -0.1203776950169E+01 -0.1041378212504E+00
 0.3019728971176E+00 -0.2874602753715E+01 -0.1209136029534E+01 -0.7118853994759E-01
 0.3256551449936E+00 -0.2922624307649E+01 -0.1220575503352E+01 -0.3555028172119E-01
 0.3398478772873E+00 -0.2974702840781E+01 -0.1238381829701E+01  0.2352072234388E-02
 0.3446896123603E+00 -0.3031714820513E+01 -0.1262901844629E+01  0.4201571166305E-01
-0.1610487958991E+01 -0.2051915677706E+01 -0.1721329704882E+01  0.8209012484925E-01
-0.1383163824265E+01 -0.2126915801085E+01 -0.1649737419730E+01  0.9479996473656E-02
-0.1176053584653E+01 -0.2194160794665E+01 -0.1584000754262E+01 -0.5074430346729E-01
-0.9867928097261E+00 -0.2255131983797E+01 -0.1523704649091E+01 -0.9967868477325E-01
-0.8136420878816E+00 -0.2310936913563E+01 -0.1468552126954E+01 -0.1382814506861E+00
-0.6553235236610E+00 -0.2362423286491E+01 -0.1418340997174E+01 -0.1674090450168E+00
-0.5108873025252E+00 -0.2410271133317E+01 -0.1372944461364E+01 -0.1878409257988E+00
-0.3796084046442E+00 -0.2455063892035E+01 -0.1332295976060E+01 -0.2002964804546E+00
-0.2609090035873E+00 -0.2497342042672E+01 -0.1296377988454E+01 -0.2054444908577E+00
-0.1543025533990E+00 -0.2537641800072E+01 -0.1265213842923E+01 -0.2039088982028E+00
-0.5935895113708E-01 -0.2576516898472E+01 -0.1238861646174E+01 -0.1962735435939E+00
 0.2431190417106E-01 -0.2614541180983E+01 -0.1217407757014E+01 -0.1830851552464E+00
 0.9706414669001E-01 -0.2652297979824E+01 -0.1200959898527E+01 -0.1648522547816E+00
 0.1592176831377E+00 -0.2690372180721E+01 -0.1189642610847E+01 -0.1420410565483E+00
 0.2110635046845E+00 -0.2729355592813E+01 -0.1183597278419E+01 -0.1150738875782E+00
 0.2528735175374E+00 -0.2769864140788E+01 -0.1182985589927E+01 -0.8433388564977E-01
 0.2849123990599E+00 -0.2812559850329E+01 -0.1187994299083E+01 -0.5017742439607E-01
 0.3074455484030E+00 -0.2858170700895E+01 -0.1198840818631E+01 -0.1295802124774E-01
 0.3207274661648E+00 -0.2907498427169E+01 -0.1215782348588E+01  0.2693210027793E-01
 0.3249541040147E+00 -0.2961404520402E+01 -0.1239131692559E+01  0.6900929152730E-01
-0.1574958047036E+01 -0.2010992768544E+01 -0.1685396879048E+01  0.1183670761728E+00
-0.1353807491655E+01 -0.2083984526620E+01 -0.1615762244491E+01  0.4190192795886E-01
-0.1152249938032E+01 -0.2149499509744E+01 -0.1551822236519E+01 -0.2141822413359E-01
-0.9680175451238E+00 -0.2208949964134E+01 -0.1493174725564E+01 -0.7288160705859E-01
-0.7994423490325E+00 -0.2263388262224E+01 -0.1439530383639E+01 -0.1135844323857E+00
-0.6453006531898E+00 -0.2313615197974E+01 -0.1390690446520E+01 -0.1444757511217E+00
-0.5046847061367E+00 -0.2360269203594E+01 -0.1346528334158E+01 -0.1663925996130E+00
-0.3769033172977E+00 -0.2403896049005E+01 -0.1306975698847E+01 -0.1800869069047E+00
-0.2614069859189E+00 -0.2445002373133E+01 -0.1272012395528E+01 -0.1862432368857E+00
-0.1577333173138E+00 -0.2484094848069E+01 -0.1241659234580E+01 -0.1854911314061E+00
-0.6547267439477E-01 -0.2521701214169E+01 -0.1215971724541E+01 -0.1784143581104E+00
 0.1574778142655E-01 -0.2558369575246E+01 -0.1195032240064E+01 -0.1655561920794E+00
 0.8626709436173E-01 -0.2594653073753E+01 -0.1178941407324E+01 -0.1474187152636E+00
 0.1463911117504E+00 -0.2631098727974E+01 -0.1167812576663E+01 -0.1244577445625E+00
 0.1963977022146E+00 -0.2668252715195E+01 -0.1161771853154E+01 -0.9707960439605E-01
 0.2365485342921E+00 -0.2706680195334E+01 -0.1160961877745E+01 -0.6564399140531E-01
 0.2671057311922E+00 -0.2746991830771E+01 -0.1165546463846E+01 -0.3047512743153E-01
 0.2883478661319E+00 -0.2789869644455E+01 -0.1175715232830E+01  0.8113081808568E-02
 0.3005667486119E+00 -0.2836080704350E+01 -0.1191691556174E+01  0.4976791790983E-01
 0.3040268752851E+00 -0.2886467654503E+01 -0.1213747163154E+01  0.9403336053293E-01
-0.1537790437664E+01 -0.1969109092899E+01 -0.1648242775184E+01  0.1538577582631E+00
-0.1323225676687E+01 -0.2039941378938E+01 -0.1580688512135E+01  0.7368121692394E-01
-0.1127529714302E+01 -0.2103612315531E+01 -0.1518636750169E+01  0.7368787721929E-02
-0.9485559086112E+00 -0.2161450275667E+01 -0.1461702902903E+01 -0.4655093785454E-01
-0.7847294989287E+00 -0.2214439755609E+01 -0.1409609546057E+01 -0.8930644225178E-01
-0.6348988500999E+00 -0.2263324683375E+01 -0.1362165057278E+01 -0.1219357847001E+00
-0.4982119791532E+00 -0.2308694834782E+01 -0.1319246199204E+01 -0.1453313460045E+00
-0.3740214608305E+00 -0.2351053881484E+01 -0.1280785407639E+01 -0.1602765096786E+00
-0.2618129597626E+00 -0.2390872362675E+01 -0.1246762098383E+01 -0.1674713730607E+00
-0.1611526889458E+00 -0.2428626829165E+01 -0.1217196370425E+01 -0.1675514730853E+00
-0.7165426785682E-01 -0.2464819558890E+01 -0.1192142695547E+01 -0.1611014206838E+00
 0.7036059111138E-02 -0.2499973831295E+01 -0.1171680749955E+01 -0.1486623952690E+00
 0.7524068333758E-01 -0.2534613024006E+01 -0.1155904997182E+01 -0.1307317830070E+00
 0.1332493999351E+00 -0.2569245384171E+01 -0.1144918109687E+01 -0.1077569681112E+00
 0.1813240261335E+00 -0.2604368638467E+01 -0.1138830964908E+01 -0.8013005972699E-01
 0.2197120376214E+00 -0.2640492265027E+01 -0.1137766703995E+01 -0.4818818180323E-01
 0.2486687744497E+00 -0.2678168918591E+01 -0.1141865064850E+01 -0.1222224817883E-01
 0.2684836761976E+00 -0.2718027376160E+01 -0.1151285536062E+01  0.2749780323827E-01
 0.2794883123630E+00 -0.2760793390490E+01 -0.1166213383762E+01  0.7066623847805E-01
 0.2820267585601E+00 -0.2807286488258E+01 -0.1186872069948E+01  0.1168647716879E+00
-0.1499029558143E+01 -0.1926282539848E+01 -0.1609896681972E+01  0.1885044662461E+00
-0.1291441406776E+01 -0.1994813140932E+01 -0.1544539633506E+01  0.1047782543304E+00
-0.1101900463958E+01 -0.2056533406214E+01 -0.1484463915215E+01  0.3558897141101E-01
-0.9284035185574E+00 -0.2112674341872E+01 -0.1429306590776E+01 -0.2070828360097E-01
-0.7694894299017E+00 -0.2164140495105E+01 -0.1378806061256E+01 -0.6546766011513E-01
-0.6240956754009E+00 -0.2211609298556E+01 -0.1332781334379E+01 -0.9981145646535E-01
-0.4914391654604E+00 -0.2255615066540E+01 -0.1291115485765E+01 -0.1246840038848E+00
-0.3709257179105E+00 -0.2296615194345E+01 -0.1253744225580E+01 -0.1408980920809E+00
-0.2620826246191E+00 -0.2335042128317E+01 -0.1220648630784E+01 -0.1491683771829E+00
-0.1645088199138E+00 -0.2371342014708E+01 -0.1191849889249E+01 -0.1501363097047E+00
-0.7784364115872E-01 -0.2405992550216E+01 -0.1167403006985E+01 -0.1443880440517E+00
-0.1753930823986E-02 -0.2439493536203E+01 -0.1147386306592E+01 -0.1324640868478E+00
 0.6406470820401E-01 -0.2472339517400E+01 -0.1131889157451E+01 -0.1148592642046E+00
 0.1198840560565E+00 -0.2504999575860E+01 -0.1121004291464E+01 -0.9201522026385E-01
 0.1659466392547E+00 -0.2537920537462E+01 -0.1114827729330E+01 -0.6431263850626E-01
 0.2024809503565E+00 -0.2571551346829E+01 -0.1113463083518E+01 -0.3206804326756E-01
 0.2297297983844E+00 -0.2606379726874E+01 -0.1117025463557E+01  0.4461226552518E-02
 0.2479891812064E+00 -0.2642973428637E+01 -0.1125642593437E+01  0.4505332466738E-01
 0.2576306926176E+00 -0.2682009610934E+01 -0.1139458088719E+01  0.8945755931312E-01
 0.2590875290219E+00 -0.2724279928505E+01 -0.1158640424818E+01  0.1373057494830E+00
-0.1458726284108E+01 -0.1882536017679E+01 -0.1570393277857E+01  0.2222520989494E+00
-0.1258481978969E+01 -0.1948632460498E+01 -0.1507343782726E+01  0.1351552658752E+00
-0.1075371892821E+01 -0.2008303645557E+01 -0.1449327499362E+01  0.6321638990658E-01
-0.9075562539135E+00 -0.2062670924135E+01 -0.1396006770142E+01  0.4626902502412E-02
-0.7537067509129E+00 -0.2112547339303E+01 -0.1347139418984E+01 -0.4208564187006E-01
-0.6128662816567E+00 -0.2158534488578E+01 -0.1302558358707E+01 -0.7812189935854E-01
-0.4843331804225E+00 -0.2201104711812E+01 -0.1262155806149E+01 -0.1044735827256E+00
-0.3675754635822E+00 -0.2240665284909E+01 -0.1225873148682E+01 -0.1219798562960E+00
-0.2621680448934E+00 -0.2277608920641E+01 -0.1193695170774E+01 -0.1313682022440E+00
-0.1677462408450E+00 -0.2312351446686E+01 -0.1165645910183E+01 -0.1332853785610E+00
-0.8397710562286E-01 -0.2345347280618E+01 -0.1141782458637E+01 -0.1283194980312E+00
-0.1054913083383E-01 -0.2377074624667E+01 -0.1122183162239E+01 -0.1170118036954E+00
 0.5282313894935E-01 -0.2408000791918E+01 -0.1106933494088E+01 -0.9985703375209E-01
 0.1063916950015E+00 -0.2438556036504E+01 -0.1096117237726E+01 -0.7729452364103E-01
 0.1503763273565E+00 -0.2469134426459E+01 -0.1089816303814E+01 -0.4969743511121E-01
 0.1849809125218E+00 -0.2500119722078E+01 -0.1088115237732E+01 -0.1736497600778E-01
 0.2104283216010E+00 -0.2531927495228E+01 -0.1091104608837E+01  0.1947825276353E-01
 0.2270143826472E+00 -0.2565056335982E+01 -0.1098879715280E+01  0.6066226598084E-01
 0.2351476652404E+00 -0.2600127217518E+01 -0.1111540386751E+01  0.1059999273523E+00
 0.2353555292893E+00 -0.2637898663460E+01 -0.1129195270196E+01  0.1551881473044E+00
-0.1416937567696E+01 -0.1837896867106E+01 -0.1529772180477E+01  0.2550482874646E+00
-0.1224378999102E+01 -0.1901437122054E+01 -0.1469133573217E+01  0.1647765072447E+00
-0.1047956123523E+01 -0.1958969861047E+01 -0.1413255209163E+01  0.9022715099149E-01
-0.8860105964503E+00 -0.2011495485121E+01 -0.1361827854884E+01  0.2943749674603E-01
-0.7373651532796E+00 -0.2059724320482E+01 -0.1314632049334E+01 -0.1917523985244E-01
-0.6011837920751E+00 -0.2104173005217E+01 -0.1271517691502E+01 -0.5688309892080E-01
-0.4768582164085E+00 -0.2145245726212E+01 -0.1232388849906E+01 -0.8471938122750E-01
-0.3639270210192E+00 -0.2183296232138E+01 -0.1197194925947E+01 -0.1035455774847E+00
-0.2620181905777E+00 -0.2218676308435E+01 -0.1165926411579E+01 -0.1140994769908E+00
-0.1708065329089E+00 -0.2251771976426E+01 -0.1138611896500E+01 -0.1170319720367E+00
-0.8998822816680E-01 -0.2283016127789E+01 -0.1115312044471E+01 -0.1129331877423E+00
-0.1927383459134E-01 -0.2312867834219E+01 -0.1096106581561E+01 -0.1023463896909E+00
 0.4160281279919E-01 -0.2341769597931E+01 -0.1081078386270E+01 -0.8576893521133E-01
 0.9287253687735E-01 -0.2370114183440E+01 -0.1070303571170E+01 -0.6364199559332E-01
 0.1347288842918E+00 -0.2398241958041E+01 -0.1063851141964E+01 -0.3633634932518E-01
 0.1673446411336E+00 -0.2426467247291E+01 -0.1061787622201E+01 -0.4138755372639E-02
 0.1909134671438E+00 -0.2455125870870E+01 -0.1064179827052E+01  0.3275669984465E-01
 0.2057217884173E+00 -0.2484638396924E+01 -0.1071090803282E+01  0.7423530810760E-01
 0.2122075007816E+00 -0.2515562299692E+01 -0.1082576752742E+01  0.1201823639875E+00
 0.2109882460019E+00 -0.2548617652047E+01 -0.1098685818054E+01  0.1703770228611E+00
-0.1373725963260E+01 -0.1792396119489E+01 -0.1488077375117E+01  0.2868434829408E+00
-0.1189168406588E+01 -0.1853269220426E+01 -0.1429945681070E+01  0.1936084764291E+00
-0.1019667926335E+01 -0.1908584079576E+01 -0.1376278439287E+01  0.1165996854521E+00
-0.8637639278107E+00 -0.1959209543638E+01 -0.1326797528216E+01  0.5370893970410E-01
-0.7204477173166E+00 -0.2005742071136E+01 -0.1281309197323E+01  0.3251510448969E-02
-0.5890196184295E+00 -0.2048604321527E+01 -0.1239683248635E+01 -0.3610792141810E-01
-0.4689760927077E+00 -0.2088126544759E+01 -0.1201838236561E+01 -0.6543712608674E-01
-0.3599340698053E+00 -0.2124606130312E+01 -0.1167733891093E+01 -0.8561481060640E-01
-0.2615794392449E+00 -0.2158353308451E+01 -0.1137368388532E+01 -0.9738575294232E-01
-0.1736289767602E+00 -0.2189725275267E+01 -0.1110776495635E+01 -0.1014032196409E+00
-0.9580869667100E-01 -0.2219135569152E+01 -0.1088023802177E+01 -0.9825897084503E-01
-0.2785083423058E-01 -0.2247027161903E+01 -0.1069192655471E+01 -0.8849931348242E-01
 0.3049198009380E-01 -0.2273821083084E+01 -0.1054364675731E+01 -0.7262699107946E-01
 0.7942869138790E-01 -0.2299875264940E+01 -0.1043609886922E+01 -0.5108976657002E-01
 0.1191232490906E+00 -0.2325476828256E+01 -0.1036986179578E+01 -0.2426251736865E-01
 0.1497100448419E+00 -0.2350867185354E+01 -0.1034543853417E+01  0.7573606907221E-02
 0.1713420531775E+00 -0.2376294316651E+01 -0.1036327561204E+01  0.4425092184048E-01
 0.1842842196256E+00 -0.2402090445567E+01 -0.1042368923549E+01  0.8571299403700E-01
 0.1889925584663E+00 -0.2428740705779E+01 -0.1052681626567E+01  0.1319271368991E+00
 0.1861577411568E+00 -0.2456924504903E+01 -0.1067260376254E+01  0.1827721714093E+00
-0.1329159261260E+01 -0.1746067781218E+01 -0.1445356706299E+01  0.3175909065964E+00
-0.1152890605829E+01 -0.1804174349499E+01 -0.1389820525479E+01  0.2216200993370E+00
-0.9905250349538E+00 -0.1857202866973E+01 -0.1338432110511E+01  0.1423150564608E+00
-0.8408148614450E+00 -0.1905880203941E+01 -0.1290946677457E+01  0.7742950070701E-01
-0.7029372165300E+00 -0.1950677447320E+01 -0.1247198888846E+01  0.2518549510415E-01
-0.5763437571613E+00 -0.1991914211051E+01 -0.1207081241998E+01 -0.1580619250637E-01
-0.4606465789999E+00 -0.2029841527653E+01 -0.1170529407158E+01 -0.4663918299233E-01
-0.3555480233994E+00 -0.2064698385762E+01 -0.1137515809421E+01 -0.6820316967115E-01
-0.2607960387088E+00 -0.2096753572668E+01 -0.1108048314537E+01 -0.8124581838851E-01
-0.1761511545128E+00 -0.2126336946962E+01 -0.1082169404948E+01 -0.8642045273887E-01
-0.1013691555602E+00 -0.2153845176546E+01 -0.1059950733402E+01 -0.8431962105168E-01
-0.3620259626112E-01 -0.2179708549983E+01 -0.1041478236093E+01 -0.7549324970038E-01
 0.1957872438414E-01 -0.2204330844240E+01 -0.1026833493728E+01 -0.6045201230753E-01
 0.6616222201940E-01 -0.2228039459893E+01 -0.1016082299223E+01 -0.3965537918130E-01
 0.1036793932334E+00 -0.2251070848077E+01 -0.1009273981217E+01 -0.1349018635121E-01
 0.1322181619138E+00 -0.2273591554679E+01 -0.1006445492047E+01  0.1775868586645E-01
 0.1518767278304E+00 -0.2295753192522E+01 -0.1007621935849E+01  0.5394305678573E-01
 0.1628829576451E+00 -0.2317786958085E+01 -0.1012804877638E+01  0.9506669876317E-01
 0.1656970233603E+00 -0.2340092520649E+01 -0.1021965881134E+01  0.1411891798869E+00
 0.1610678815438E+00 -0.2363301251261E+01 -0.1035049681142E+01  0.1923046184564E+00
-0.1283310071248E+01 -0.1698947890267E+01 -0.1401661238357E+01  0.3472464882397E+00
-0.1115590628347E+01 -0.1754200608949E+01 -0.1348801878108E+01  0.2487830484782E+00
-0.9605484759995E+00 -0.1804886621848E+01 -0.1299754492691E+01  0.1673574593389E+00
-0.8171635507514E+00 -0.1851579759476E+01 -0.1254309352625E+01  0.1005906960435E+00
-0.6848163653072E+00 -0.1894613250358E+01 -0.1212331916288E+01  0.4662069685844E-01
-0.5631250289923E+00 -0.1934194372583E+01 -0.1173740115763E+01  0.4015217171689E-02
-0.4518276746372E+00 -0.1970490358645E+01 -0.1138489472755E+01 -0.2833481095263E-01
-0.3507183764605E+00 -0.2003680897648E+01 -0.1106567656025E+01 -0.5132264533777E-01
-0.2596105275517E+00 -0.2033994441768E+01 -0.1077994332846E+01 -0.6569402578741E-01
-0.1783094855040E+00 -0.2061735576401E+01 -0.1052821176425E+01 -0.7209957538693E-01
-0.1065999650188E+00 -0.2087286694540E+01 -0.1031126727377E+01 -0.7113135627636E-01
-0.4425242636905E-01 -0.2111068824908E+01 -0.1013000985531E+01 -0.6334288309633E-01
 0.8949256958950E-02 -0.2133473250130E+01 -0.9985262742580E+00 -0.4925465911426E-01
 0.5317292271258E-01 -0.2154802987492E+01 -0.9877661279409E+00 -0.2934281671512E-01
 0.8851584961055E-01 -0.2175249536850E+01 -0.9807648305150E+00 -0.4015193569887E-02
 0.1150108834081E+00 -0.2194905606103E+01 -0.9775505171873E+00  0.2642713617977E-01
 0.1326841778086E+00 -0.2213818195244E+01 -0.9781329857139E+00  0.6184434024863E-01
 0.1417072006327E+00 -0.2232101184748E+01 -0.9824851700423E+00  0.1022998545925E+00
 0.1425271666487E+00 -0.2250049930748E+01 -0.9905356966143E+00  0.1479547541893E+00
 0.1359563263804E+00 -0.2268227880921E+01 -0.1002167628092E+01  0.1989332424850E+00
-0.1236255305828E+01 -0.1651073233602E+01 -0.1357044410090E+01  0.3757686331071E+00
-0.1077318360921E+01 -0.1703397409324E+01 -0.1306936408700E+01  0.2750721141766E+00
-0.9297629301979E+00 -0.1751698935009E+01 -0.1260287073451E+01  0.1917148726948E+00
-0.7928119374173E+00 -0.1796385540659E+01 -0.1216922811609E+01  0.1231878115580E+00
-0.6660679653133E+00 -0.1837638236776E+01 -0.1176741911997E+01  0.6755435872668E-01
-0.5493311904774E+00 -0.1875542214500E+01 -0.1139690497449E+01  0.2335220000654E-01
-0.4424757988511E+00 -0.1910177470220E+01 -0.1105747033659E+01 -0.1053054808834E-01
-0.3453929782977E+00 -0.1941665140103E+01 -0.1074917312922E+01 -0.3498201692367E-01
-0.2579640765192E+00 -0.1970195862194E+01 -0.1047235168539E+01 -0.5074063956822E-01
-0.1800396069836E+00 -0.1996051687490E+01 -0.1022762905808E+01 -0.5845138510681E-01
-0.1114317479979E+00 -0.2019603251322E+01 -0.1001586447140E+01 -0.5870432150146E-01
-0.5192543432864E-01 -0.2041265087090E+01 -0.9837995425717E+00 -0.5205583348912E-01
-0.1313816908072E-02 -0.2061420475797E+01 -0.9694851151126E+00 -0.3903697622168E-01
 0.4055579402816E-01 -0.2080355642981E+01 -0.9587059265762E+00 -0.2014437810120E-01
 0.7374675775306E-01 -0.2098227300548E+01 -0.9515058527004E+00  0.4183643832485E-02
 0.9822827294598E-01 -0.2115060993425E+01 -0.9479113762211E+00  0.3361372986110E-01
 0.1139334047581E+00 -0.2130793287307E+01 -0.9479241423937E+00  0.6799681448938E-01
 0.1209530658910E+00 -0.2145400674342E+01 -0.9514903735587E+00  0.1074506746113E+00
 0.1197039379273E+00 -0.2159044954417E+01 -0.9584902753188E+00  0.1522453640264E+00
 0.1110723102792E+00 -0.2172203976659E+01 -0.9687318807414E+00  0.2026544577969E+00
-0.1188075795614E+01 -0.1602479705302E+01 -0.1311561082104E+01  0.4031178768954E+00
-0.1038129045616E+01 -0.1651814084138E+01 -0.1264273267777E+01  0.3004658483210E+00
-0.8981972613799E+00 -0.1697706159809E+01 -0.1220074604864E+01  0.2153800835735E+00
-0.7677641414340E+00 -0.1740380396673E+01 -0.1178827929920E+01  0.1452206398185E+00
-0.6466749992751E+00 -0.1779847633101E+01 -0.1140465634324E+01  0.8798712467882E-01
-0.5349290513950E+00 -0.1816061014195E+01 -0.1104965328025E+01  0.4220303650612E-01
-0.4325459732404E+00 -0.1849011551237E+01 -0.1072332033785E+01  0.6769177998115E-02
-0.3395183946588E+00 -0.1878765226714E+01 -0.1042593299401E+01 -0.1918743792996E-01
-0.2557968754181E+00 -0.1905479171084E+01 -0.1015799739280E+01 -0.3639225620042E-01
-0.1812767121433E+00 -0.1929416610620E+01 -0.9920258591825E+00 -0.4548183476733E-01
-0.1157956450854E+00 -0.1950938647852E+01 -0.9713651152167E+00 -0.4704291749523E-01
-0.5914917266014E-01 -0.1970454827568E+01 -0.9539138776877E+00 -0.4163354845905E-01
-0.1113302729203E-01 -0.1988342872184E+01 -0.9397536703700E+00 -0.2979439310032E-01
 0.2839800736278E-01 -0.2004879950577E+01 -0.9289465109547E+00 -0.1204380269531E-01
 0.5947811890522E-01 -0.2020202729855E+01 -0.9215405648092E+00  0.1114146219548E-01
 0.8200519718957E-01 -0.2034287019542E+01 -0.9175724541784E+00  0.3937633077074E-01
 0.9579343572635E-01 -0.2046961070511E+01 -0.9170487860227E+00  0.7247545251005E-01
 0.1008225953278E+00 -0.2058041065308E+01 -0.9198926785577E+00  0.1105967428779E+00
 0.9745616249189E-01 -0.2067512401706E+01 -0.9259264300819E+00  0.1541237273050E+00
 0.8668193582473E-01 -0.2075739232601E+01 -0.9348569271137E+00  0.2035087199056E+00
-0.1138855429193E+01 -0.1553199391599E+01 -0.1265265762563E+01  0.4292564028139E+00
-0.9980835012131E+00 -0.1599497398255E+01 -0.1220863019654E+01  0.3249477485122E+00
-0.8658852769329E+00 -0.1642977459171E+01 -0.1179165482978E+01  0.2383523749436E+00
-0.7420264077421E+00 -0.1683653558200E+01 -0.1140069581101E+01  0.1666945551444E+00
-0.6266206139594E+00 -0.1721344393078E+01 -0.1103543550509E+01  0.1079231393556E+00
-0.5198840943432E+00 -0.1755859937203E+01 -0.1069599692114E+01  0.6056777609050E-01
-0.4219919369024E+00 -0.1787104948751E+01 -0.1038275533624E+01  0.2356121489978E-01
-0.3330401643581E+00 -0.1815096523980E+01 -0.1009624240958E+01 -0.3943166220683E-02
-0.2530485761272E+00 -0.1839965437723E+01 -0.9837165840143E+00 -0.2265222142701E-01
-0.1819557656323E+00 -0.1861960745825E+01 -0.9606407579486E+00 -0.3319208473793E-01
-0.1196232461477E+00 -0.1881436234627E+01 -0.9404979535787E+00 -0.3614566066463E-01
-0.6585324806218E-01 -0.1898795965478E+01 -0.9233851280217E+00 -0.3207156583163E-01
-0.2043711919501E-01 -0.1914411306759E+01 -0.9093787578917E+00 -0.2151762399598E-01
 0.1677596711666E-01 -0.1928552859782E+01 -0.8985351372738E+00 -0.5020654419192E-02
 0.4580192563098E-01 -0.1941356226221E+01 -0.8909105190175E+00  0.1690152273611E-01
 0.6646682655155E-01 -0.1952778313009E+01 -0.8865663963862E+00  0.4379250476214E-01
 0.7843105399867E-01 -0.1962566136666E+01 -0.8855434866078E+00  0.7539084829682E-01
 0.8152128136634E-01 -0.1970356792813E+01 -0.8877526881283E+00  0.1118628184043E+00
 0.7601748224723E-01 -0.1975888900380E+01 -0.8929395642577E+00  0.1537013082314E+00
 0.6305361671357E-01 -0.1979361591267E+01 -0.9006647457557E+00  0.2015861768831E+00
-0.1088678718418E+01 -0.1503254382321E+01 -0.1218208554257E+01  0.4541474977253E+00
-0.9572500412303E+00 -0.1546489713620E+01 -0.1176757681795E+01  0.3485084476346E+00
-0.8328655568115E+00 -0.1587584486350E+01 -0.1137611517401E+01  0.2606402947585E+00
-0.7156086239666E+00 -0.1626305124966E+01 -0.1100699459206E+01  0.1876218710174E+00
-0.6058867563377E+00 -0.1662240358285E+01 -0.1066019741169E+01  0.1273696819908E+00
-0.5041606341198E+00 -0.1695055243278E+01 -0.1033631459755E+01  0.7844707452827E-01
-0.4107658002444E+00 -0.1724572587522E+01 -0.1003609039705E+01  0.3984234687360E-01
-0.3259035622168E+00 -0.1750774571522E+01 -0.9760387203817E+00  0.1074736998886E-01
-0.2496589147818E+00 -0.1773773526761E+01 -0.9510132451130E+00 -0.9521301403841E-02
-0.1820119838076E+00 -0.1793811458938E+01 -0.9286370157351E+00 -0.2157854426740E-01
-0.1228462830666E+00 -0.1811237150358E+01 -0.9090192114040E+00 -0.2600459986631E-01
-0.7196836228773E-01 -0.1826446956902E+01 -0.8922551977562E+00 -0.2335882591464E-01
-0.2915879577103E-01 -0.1839799537323E+01 -0.8784104143263E+00 -0.1419330280445E-01
 0.5750906673828E-02 -0.1851555640822E+01 -0.8675282228493E+00  0.9443589035198E-03
 0.3278998389682E-01 -0.1861852012619E+01 -0.8596591513192E+00  0.2150484892554E-01
 0.5171690269124E-01 -0.1870685027807E+01 -0.8549150166360E+00  0.4694967817034E-01
 0.6201046685208E-01 -0.1877780920932E+01 -0.8534121112528E+00  0.7689033417516E-01
 0.6326159876452E-01 -0.1882635896379E+01 -0.8551059177097E+00  0.1114355415454E+00
 0.5561724097062E-01 -0.1884624927891E+01 -0.8596336106722E+00  0.1511512428793E+00
 0.4045495278447E-01 -0.1883630141116E+01 -0.8662923363188E+00  0.1970239699209E+00
-0.1037631826568E+01 -0.1452650938378E+01 -0.1170432896556E+01  0.4777542212222E+00
-0.9156983232116E+00 -0.1492815375422E+01 -0.1132001435487E+01  0.3711508814879E+00
-0.7991904854217E+00 -0.1531614040777E+01 -0.1095478124535E+01  0.2822667957555E+00
-0.6885185459226E+00 -0.1568445728390E+01 -0.1060773206236E+01  0.2080231869673E+00
-0.5844570462627E+00 -0.1602663910399E+01 -0.1027946847024E+01  0.1463361891576E+00
-0.4877176589774E+00 -0.1633766665091E+01 -0.9970976297832E+00  0.9584019146127E-01
-0.3988195530888E+00 -0.1661532515778E+01 -0.9683654699115E+00  0.5560788079669E-01
-0.3180538205664E+00 -0.1685912968979E+01 -0.9418643886975E+00  0.2488016477879E-01
-0.2455687973708E+00 -0.1707017671041E+01 -0.9177156378257E+00  0.3001467354906E-02
-0.1813816423040E+00 -0.1725089935747E+01 -0.8960416394115E+00 -0.1063288286280E-01
-0.1253966287566E+00 -0.1740477197079E+01 -0.8769606959185E+00 -0.1660417360271E-01
-0.7742418638225E-01 -0.1753564777835E+01 -0.8605648109993E+00 -0.1547545737854E-01
-0.3723199800897E-01 -0.1764687512533E+01 -0.8469021678067E+00 -0.7802021787645E-02
-0.4621310392530E-02 -0.1774078901435E+01 -0.8359890974384E+00  0.5867852136136E-02
 0.2046961046472E-01 -0.1781875882010E+01 -0.8278609455267E+00  0.2497397488155E-01
 0.3783093218551E-01 -0.1788095409591E+01 -0.8226243022943E+00  0.4892117590198E-01
 0.4667188542580E-01 -0.1792665661517E+01 -0.8206170726815E+00  0.7714877420266E-01
 0.4628902007549E-01 -0.1795033220572E+01 -0.8219097721485E+00  0.1095893528905E+00
 0.3649851921627E-01 -0.1794180361704E+01 -0.8261104638740E+00  0.1467501338307E+00
 0.1909265910806E-01 -0.1789264306572E+01 -0.8319806721979E+00  0.1900042169768E+00
-0.9857516825921E+00 -0.1401309961233E+01 -0.1121918969752E+01  0.5000452559254E+00
-0.8735397687493E+00 -0.1438519188949E+01 -0.1086667707362E+01  0.3929027729739E+00
-0.7648932760426E+00 -0.1475140173649E+01 -0.1052815718685E+01  0.3032779575171E+00
-0.6607938720264E+00 -0.1510247423808E+01 -0.1020389406454E+01  0.2279281902093E+00
-0.5622908562048E+00 -0.1542735798889E+01 -0.9893625253845E+00  0.1648288275614E+00
-0.4705170103177E+00 -0.1572125815880E+01 -0.9600421258780E+00  0.1127439969898E+00
-0.3861028882947E+00 -0.1598103370881E+01 -0.9325769394473E+00  0.7084936414837E-01
-0.3094380237832E+00 -0.1620622705704E+01 -0.9071285405583E+00  0.3844856976149E-01
-0.2407210765843E+00 -0.1639803843169E+01 -0.8838467100425E+00  0.1491733124880E-01
-0.1800038578223E+00 -0.1655907765380E+01 -0.8628784607166E+00 -0.3423516595826E-03
-0.1272075731707E+00 -0.1669282974897E+01 -0.8443505554504E+00 -0.7920181463737E-02
-0.8214753756145E-01 -0.1680300153205E+01 -0.8283504125592E+00 -0.8389390656444E-02
-0.4458489502805E-01 -0.1689259782397E+01 -0.8149069963231E+00 -0.2312835739343E-02
-0.1428693109568E-01 -0.1696337621706E+01 -0.8039935377774E+00  0.9768079010321E-02
 0.8872720757089E-02 -0.1701631035812E+01 -0.7955964060578E+00  0.2730980338971E-01
 0.2471279901995E-01 -0.1705209570761E+01 -0.7898334807149E+00  0.4970778363608E-01
 0.3259035727671E-01 -0.1706981838815E+01 -0.7869639943271E+00  0.7631773172763E-01
 0.3085503489588E-01 -0.1707445130919E+01 -0.7879973431323E+00  0.1067237839010E+00
 0.1900331833813E-01 -0.1704905098327E+01 -0.7923738345850E+00  0.1409840846670E+00
-0.8350108158863E-03 -0.1697291980309E+01 -0.7981196838043E+00  0.1808279962051E+00
-0.9331896753237E+00 -0.1349200879093E+01 -0.1072723557855E+01  0.5209695720334E+00
-0.8306744442210E+00 -0.1383348926960E+01 -0.1040590981816E+01  0.4138584796964E+00
-0.7302566590933E+00 -0.1418584700486E+01 -0.1009955436441E+01  0.3237666707287E+00
-0.6323377790388E+00 -0.1451782819513E+01 -0.9795366788348E+00  0.2473474858026E+00
-0.5393732958716E+00 -0.1482613170972E+01 -0.9503336370062E+00  0.1828538647112E+00
-0.4525075965737E+00 -0.1510263530636E+01 -0.9225024274486E+00  0.1291514138403E+00
-0.3725723416826E+00 -0.1534415397773E+01 -0.8962842352707E+00  0.8555162969484E-01
-0.3000013175519E+00 -0.1555004423314E+01 -0.8718526959956E+00  0.5143959657505E-01
-0.2350626983038E+00 -0.1572226042438E+01 -0.8494257059943E+00  0.2622650690379E-01
-0.1778240877669E+00 -0.1586364772984E+01 -0.8291687624500E+00  0.9309555730281E-02
-0.1282158255597E+00 -0.1597766620494E+01 -0.8112117475879E+00  0.8054113685288E-04
-0.8606443706458E-01 -0.1606791618187E+01 -0.7956423439502E+00 -0.2053178988281E-02
-0.5113137059525E-01 -0.1613694514691E+01 -0.7824681641000E+00  0.2326234964556E-02
-0.2317598225589E-01 -0.1618573327295E+01 -0.7716221735316E+00  0.1267774804757E-01
-0.1978974245963E-02 -0.1621394589077E+01 -0.7629855728267E+00  0.2850235162285E-01
 0.1237921816616E-01 -0.1622206338253E+01 -0.7566187445218E+00  0.4924249297669E-01
 0.1909358748382E-01 -0.1621137720019E+01 -0.7529607403818E+00  0.7427640589424E-01
 0.1797162804101E-01 -0.1618098784650E+01 -0.7520597616989E+00  0.1033130800703E+00
 0.3557223261089E-02 -0.1616875901001E+01 -0.7582597766145E+00  0.1349066141246E+00
-0.1930620353440E-01 -0.1609760726608E+01 -0.7656614552251E+00  0.1700639867181E+00
-0.8776459026497E+00 -0.1293347124842E+01 -0.1020366720333E+01  0.5408475770193E+00
-0.7887705886717E+00 -0.1329285168519E+01 -0.9954862033548E+00  0.4344774299454E+00
-0.6947695981440E+00 -0.1361749438521E+01 -0.9665639447811E+00  0.3437087473595E+00
-0.6032116020987E+00 -0.1393257320092E+01 -0.9383403910496E+00  0.2662871394981E+00
-0.5156041196483E+00 -0.1422372529252E+01 -0.9108490226730E+00  0.2004262883971E+00
-0.4336981790788E+00 -0.1448406083331E+01 -0.8845890010890E+00  0.1450541513769E+00
-0.3581594115950E+00 -0.1470578184880E+01 -0.8595066681631E+00  0.9968011808136E-01
-0.2896880603119E+00 -0.1489138101722E+01 -0.8360482940354E+00  0.6383199550237E-01
-0.2285531978164E+00 -0.1504369829128E+01 -0.8144738205982E+00  0.3692759063461E-01
-0.1747931980481E+00 -0.1516541297257E+01 -0.7949272107770E+00  0.1834173680270E-01
-0.1283685459953E+00 -0.1526024068810E+01 -0.7775645269865E+00  0.7439318888823E-02
-0.8910306013105E-01 -0.1533154772344E+01 -0.7624611793295E+00  0.3597035826546E-02
-0.5677861867639E-01 -0.1538152966798E+01 -0.7496178432715E+00  0.6196097282310E-02
-0.3116211346373E-01 -0.1541012449907E+01 -0.7389220429100E+00  0.1467187018017E-01
-0.1204917370539E-01 -0.1541558670252E+01 -0.7301956848079E+00  0.2855301953362E-01
 0.8023844717568E-03 -0.1539444349369E+01 -0.7231617216674E+00  0.4742758088930E-01
 0.6410735703730E-02 -0.1535069056229E+01 -0.7184694088246E+00  0.7074109217824E-01
 0.3845477888288E-02 -0.1529246388569E+01 -0.7169384262016E+00  0.9865117854895E-01
-0.2700059589032E-02 -0.1519988065231E+01 -0.7156634168502E+00  0.1305215352823E+00
-0.3475369158124E-01 -0.1531883136782E+01 -0.7363193074631E+00  0.1595685694040E+00
-0.5586246598267E+01 -0.1031726779620E+02 -0.7474651746441E+01 -0.1241848779937E+01
 0.3424707285746E+00 -0.4097976775127E+01 -0.1765087837403E+01  0.7964330153181E+00
-0.8071801930560E-01 -0.3194054503110E+01 -0.1539143081631E+01  0.7950981488902E+00
-0.1808840677196E+00 -0.2577059459346E+01 -0.1296233454433E+01  0.7307519047912E+00
-0.2455881570825E+00 -0.2047583548667E+01 -0.1077790698968E+01  0.6695553764744E+00
-0.2185223351314E+00 -0.1516605191618E+01 -0.8155099355037E+00  0.5621649737117E+00
-0.1309949379432E+00 -0.1072172597791E+01 -0.5654887403608E+00  0.4273055023734E+00
-0.6683695934601E-01 -0.7988610192601E+00 -0.4068780489129E+00  0.3025567440395E+00
-0.3696711110219E-01 -0.6237732747422E+00 -0.3105479805592E+00  0.2032209748225E+00
-0.2022422412777E-01 -0.4795304595110E+00 -0.2348847007145E+00  0.1279296255096E+00
-0.8670357940235E-02 -0.3458053021337E+00 -0.1666035598122E+00  0.7115554111819E-01
-0.5173953482736E-03 -0.2193572487895E+00 -0.1033410824827E+00  0.2944700909056E-01
 0.2836349500145E-02 -0.1023247657362E+00 -0.4675955551235E-01  0.7958748695129E-03
 0.4315252973571E-02  0.4617812038514E-02  0.4198540545031E-02 -0.1478241599439E-01
 0.6458222112432E-02  0.9772990330403E-01  0.4896841882153E-01 -0.1718364782760E-01
 0.1270696044635E-01  0.1719090172718E+00  0.8676950930744E-01 -0.8206532866121E-02
 0.8568432887840E-02  0.2049180411589E+00  0.1003386425475E+00  0.1401223935493E-01
 0.3955119859956E-01  0.2172938094406E+00  0.1207171534727E+00  0.5777226300455E-01
 0.8823933589117E-01  0.1936451376148E+00  0.1324857022118E+00  0.1033934129932E+00
 0.1483008944764E+00  0.1311701154629E+00  0.1313513743383E+00  0.1266385820670E+00
-0.3072282340948E+01 -0.7118000854746E+01 -0.4789433089828E+01 -0.1677180722040E+01
-0.8763168734981E+00 -0.5590469624713E+01 -0.3039389646450E+01  0.3094168489841E-01
 0.4887340937834E-02 -0.3530671409101E+01 -0.1657118507834E+01  0.5889148658009E+00
-0.1283458320685E+00 -0.2814445009470E+01 -0.1383111692015E+01  0.6263533080771E+00
-0.1683826381765E+00 -0.2257149723687E+01 -0.1140000207184E+01  0.5858272703884E+00
-0.1591035615600E+00 -0.1769009935160E+01 -0.9062133411600E+00  0.5069560663808E+00
-0.1027303444960E+00 -0.1354978539804E+01 -0.6851231738834E+00  0.4072567070961E+00
-0.4162853896008E-01 -0.1047409507827E+01 -0.5118478806916E+00  0.3063635246182E+00
-0.7448775377033E-02 -0.8340758440996E+00 -0.3955165701508E+00  0.2133060257838E+00
 0.7668669067857E-02 -0.6716850751969E+00 -0.3120877100891E+00  0.1340659437721E+00
 0.1508230553029E-01 -0.5314331978090E+00 -0.2426849187554E+00  0.7031491009993E-01
 0.1796592371105E-01 -0.4033792295463E+00 -0.1811442532831E+00  0.2134230115548E-01
 0.1643669914220E-01 -0.2847373825588E+00 -0.1261013208860E+00 -0.1417899876849E-01
 0.1147683063496E-01 -0.1757817162859E+00 -0.7722329606006E-01 -0.3641292815754E-01
 0.5394691729574E-02 -0.7874071629917E-01 -0.3447263146027E-01 -0.4482924463544E-01
-0.2861921498486E-02  0.3446363301605E-03 -0.1183124026112E-02 -0.3914132168684E-01
-0.9725027419321E-02  0.6408434980478E-01  0.2554888145636E-01 -0.1938447642712E-01
 0.8052142072278E-03  0.9913483901380E-01  0.4697182489475E-01  0.1681162113479E-01
 0.2982161305498E-01  0.9526678205951E-01  0.5879154555469E-01  0.5510849441475E-01
 0.6721928933525E-01  0.5399005141390E-01  0.5696839000761E-01  0.7210605867639E-01
-0.2512167865194E+01 -0.5988417662210E+01 -0.3995275187746E+01 -0.1714343591932E+01
-0.9240790824239E+00 -0.5345178298839E+01 -0.2946550961720E+01 -0.4185985410469E+00
-0.2912147068214E+00 -0.4067170003360E+01 -0.2048440808589E+01  0.2508473559291E+00
-0.9540321234529E-01 -0.3072422575178E+01 -0.1488878116360E+01  0.4749653988815E+00
-0.1176574882963E+00 -0.2483279535151E+01 -0.1222440397920E+01  0.4921620534993E+00
-0.1056486352059E+00 -0.2003830146962E+01 -0.9914550251041E+00  0.4456793300796E+00
-0.6536849580706E-01 -0.1607606498450E+01 -0.7862982453066E+00  0.3732183744332E+00
-0.1443522382326E-01 -0.1294545670777E+01 -0.6152210189015E+00  0.2926490748676E+00
 0.2100316738803E-01 -0.1057995765377E+01 -0.4873865198186E+00  0.2110516842717E+00
 0.3738955572278E-01 -0.8760007322576E+00 -0.3941472519716E+00  0.1343428794604E+00
 0.4255030755295E-01 -0.7255549014056E+00 -0.3210121582965E+00  0.6748708883451E-01
 0.4139418947323E-01 -0.5931009927691E+00 -0.2593021968914E+00  0.1284784078550E-01
 0.3504677356817E-01 -0.4724337549878E+00 -0.2055718807458E+00 -0.2922539648927E-01
 0.2427756712472E-01 -0.3614004958595E+00 -0.1584477761035E+00 -0.5842287582749E-01
 0.9890643606322E-02 -0.2612933188929E+00 -0.1181592570850E+00 -0.7393538042766E-01
-0.6996853976688E-02 -0.1735135649871E+00 -0.8483989669781E-01 -0.7530585071079E-01
-0.2473041482000E-01 -0.9601932951903E-01 -0.5675237969540E-01 -0.6257257494942E-01
-0.2986146528783E-01 -0.4076619464765E-01 -0.3319500008548E-01 -0.3581525474484E-01
-0.2120460130364E-01 -0.2707639097249E-01 -0.2269206631223E-01 -0.9157598896785E-02
-0.1124366435553E-01 -0.5982090210657E-01 -0.3340034615247E-01 -0.4957016601739E-02
-0.2270777008652E+01 -0.5303519409507E+01 -0.3559919307506E+01 -0.1679849310529E+01
-0.9906742123354E+00 -0.5043470759744E+01 -0.2836048129684E+01 -0.6896232132627E+00
-0.4192883376687E+00 -0.4212963541859E+01 -0.2177158377856E+01 -0.4861146560823E-01
-0.1659976294031E+00 -0.3364008923508E+01 -0.1659103075660E+01  0.2747383937483E+00
-0.8954542389784E-01 -0.2714769911692E+01 -0.1318028204384E+01  0.3764568643788E+00
-0.6458489655931E-01 -0.2232383075245E+01 -0.1079574944010E+01  0.3732883372166E+00
-0.2850576028799E-01 -0.1843966675743E+01 -0.8800620427023E+00  0.3279392765640E+00
 0.1520914935342E-01 -0.1531917739998E+01 -0.7128530357947E+00  0.2658982398516E+00
 0.4958581275441E-01 -0.1284853144023E+01 -0.5805756442239E+00  0.1968327660025E+00
 0.6746083397746E-01 -0.1088621631136E+01 -0.4799455734471E+00  0.1265123847577E+00
 0.7235843952503E-01 -0.9274795409368E+00 -0.4019069166441E+00  0.6043000052869E-01
 0.6871000044301E-01 -0.7890901595752E+00 -0.3385786739334E+00  0.2655642722075E-02
 0.5862720508406E-01 -0.6654170557876E+00 -0.2851912291073E+00 -0.4474685186375E-01
 0.4280740569426E-01 -0.5524242238911E+00 -0.2395199039450E+00 -0.8060232129183E-01
 0.2198083491573E-01 -0.4493297103897E+00 -0.2008539709633E+00 -0.1038666575562E+00
-0.2937784367870E-02 -0.3561679516743E+00 -0.1687796955117E+00 -0.1139398886287E+00
-0.2996609913544E-01 -0.2692294218302E+00 -0.1406218944972E+00 -0.1106903066550E+00
-0.5017028073722E-01 -0.2015611969071E+00 -0.1183137941927E+00 -0.9594028266290E-01
-0.6100829361525E-01 -0.1772105183403E+00 -0.1119628413351E+00 -0.8330799195421E-01
-0.7554543625918E-01 -0.2100096975946E+00 -0.1342109125709E+00 -0.9357627469301E-01
-0.2156288588532E+01 -0.4833733518610E+01 -0.3285310382024E+01 -0.1621333607534E+01
-0.1063390167052E+01 -0.4755010629398E+01 -0.2734648367395E+01 -0.8616172082994E+00
-0.5189444863750E+00 -0.4216516001591E+01 -0.2225666423699E+01 -0.2886149731603E+00
-0.2309027773085E+00 -0.3546608410072E+01 -0.1775430253566E+01  0.7032986773452E-01
-0.9990568472860E-01 -0.2941996068360E+01 -0.1429693820325E+01  0.2375723515055E+00
-0.3865493960574E-01 -0.2454363978256E+01 -0.1171718888423E+01  0.2852858987674E+00
 0.2491428304362E-02 -0.2069942805428E+01 -0.9717021447836E+00  0.2707451824506E+00
 0.4423302019029E-01 -0.1759815982573E+01 -0.8063239902749E+00  0.2279460919871E+00
 0.7809688626305E-01 -0.1508674184844E+01 -0.6723713286275E+00  0.1720266784588E+00
 0.9742390902968E-01 -0.1304157661348E+01 -0.5671648621509E+00  0.1101055351737E+00
 0.1032381191321E+00 -0.1134704401872E+01 -0.4847891516583E+00  0.4770892654168E-01
 0.9877691562525E-01 -0.9904450852280E+00 -0.4190840386503E+00 -0.1053553843752E-01
 0.8639635679482E-01 -0.8634200738606E+00 -0.3652011460946E+00 -0.6143688334619E-01
 0.6698453125118E-01 -0.7484532630512E+00 -0.3202903031336E+00 -0.1029809818899E+00
 0.4116991177003E-01 -0.6434090264356E+00 -0.2830523831749E+00 -0.1337622870351E+00
 0.9925980023775E-02 -0.5470674444952E+00 -0.2524564876613E+00 -0.1529816686429E+00
-0.2487232678409E-01 -0.4550339955834E+00 -0.2255559709406E+00 -0.1602994165140E+00
-0.5808800004247E-01 -0.3809212037316E+00 -0.2063343252505E+00 -0.1585944052628E+00
-0.8663880841564E-01 -0.3525055190670E+00 -0.2063978333933E+00 -0.1605132877173E+00
-0.1200674105456E+00 -0.3894210157116E+00 -0.2394595597335E+00 -0.1843263161533E+00
-0.2095465684613E+01 -0.4482772729955E+01 -0.3091772047005E+01 -0.1556177859137E+01
-0.1140446990518E+01 -0.4500628619110E+01 -0.2651305529800E+01 -0.9719474185570E+00
-0.6094701475048E+00 -0.4153918470362E+01 -0.2238792644719E+01 -0.4755904049313E+00
-0.2963786994205E+00 -0.3645764004952E+01 -0.1852807066356E+01 -0.1175215135755E+00
-0.1256493986543E+00 -0.3124088703278E+01 -0.1527376904034E+01  0.8914255668276E-01
-0.3206030613892E-01 -0.2662896747885E+01 -0.1266629812179E+01  0.1817179230682E+00
 0.2438023326217E-01 -0.2285216760022E+01 -0.1062593164882E+01  0.2005457908718E+00
 0.6949718632452E-01 -0.1978505363620E+01 -0.8972338410529E+00  0.1790597255097E+00
 0.1050180120260E+00 -0.1726789451027E+01 -0.7622325743973E+00  0.1374718997613E+00
 0.1265178898944E+00 -0.1518442916995E+01 -0.6542047610782E+00  0.8537332386418E-01
 0.1342128138751E+00 -0.1343889727700E+01 -0.5685481480557E+00  0.2873983868744E-01
 0.1304020013195E+00 -0.1195217755645E+01 -0.5004634032637E+00 -0.2763774315382E-01
 0.1173352407180E+00 -0.1065323318008E+01 -0.4455543951963E+00 -0.7999799388149E-01
 0.9595199509292E-01 -0.9488332416452E+00 -0.4008541848629E+00 -0.1257291992355E+00
 0.6687740885133E-01 -0.8428374564479E+00 -0.3647012214454E+00 -0.1630616224303E+00
 0.3109606764283E-01 -0.7453754176677E+00 -0.3357112936602E+00 -0.1909305854585E+00
-0.9514355748492E-02 -0.6516763630655E+00 -0.3107596370544E+00 -0.2087067616773E+00
-0.5340885831200E-01 -0.5759308439943E+00 -0.2957896593337E+00 -0.2197819721432E+00
-0.9668929689451E-01 -0.5477382069417E+00 -0.3028809260348E+00 -0.2353740632301E+00
-0.1435815391971E+00 -0.5900599638248E+00 -0.3448115055458E+00 -0.2706373155486E+00
-0.2060929834352E+01 -0.4207669401199E+01 -0.2946241633237E+01 -0.1490781341322E+01
-0.1215824550038E+01 -0.4278876587929E+01 -0.2582509528294E+01 -0.1041409915858E+01
-0.6970154000447E+00 -0.4062491642306E+01 -0.2236968304231E+01 -0.6189874560703E+00
-0.3644736435172E+00 -0.3686513677733E+01 -0.1903964036158E+01 -0.2813607730182E+00
-0.1624817949701E+00 -0.3256988097084E+01 -0.1607150845189E+01 -0.5712434028058E-01
-0.4017205774787E-01 -0.2843499237672E+01 -0.1355325505410E+01  0.6828350497507E-01
 0.3480760645629E-01 -0.2485224768637E+01 -0.1151696063304E+01  0.1181900450480E+00
 0.8843994452759E-01 -0.2186160213645E+01 -0.9859285239846E+00  0.1193772114385E+00
 0.1283815478486E+00 -0.1937169004250E+01 -0.8501301023524E+00  0.9356407139082E-01
 0.1534896221435E+00 -0.1728461004844E+01 -0.7402365479918E+00  0.5263911332064E-01
 0.1642083649901E+00 -0.1551886937597E+01 -0.6522089274710E+00  0.3415429256215E-02
 0.1624172984673E+00 -0.1400893797554E+01 -0.5820839530941E+00 -0.4912973516834E-01
 0.1502303688409E+00 -0.1269352621913E+01 -0.5259874576096E+00 -0.1009520889863E+00
 0.1285721222864E+00 -0.1152220871892E+01 -0.4811149110942E+00 -0.1490857327304E+00
 0.9803658148184E-01 -0.1046377810640E+01 -0.4457203765737E+00 -0.1914785360184E+00
 0.5962414157721E-01 -0.9495250999297E+00 -0.4182534493648E+00 -0.2267837126419E+00
 0.1521320024375E-01 -0.8568717690313E+00 -0.3955795263268E+00 -0.2540133519047E+00
-0.3676752776031E-01 -0.7828523826731E+00 -0.3852213569266E+00 -0.2766646703607E+00
-0.9141857667223E-01 -0.7573230190775E+00 -0.3989085489906E+00 -0.3042324208295E+00
-0.1471943056146E+00 -0.8045435401500E+00 -0.4473167863748E+00 -0.3484540632818E+00
-0.2040159733448E+01 -0.3985022970809E+01 -0.2831835863818E+01 -0.1427707206837E+01
-0.1286421427095E+01 -0.4085666870760E+01 -0.2524881493588E+01 -0.1082533428701E+01
-0.7819054257559E+00 -0.3959762461969E+01 -0.2228583901578E+01 -0.7272773303713E+00
-0.4357027569445E+00 -0.3688532075640E+01 -0.1938390366398E+01 -0.4197087418297E+00
-0.2084333145428E+00 -0.3346376568510E+01 -0.1670760640797E+01 -0.1936936880010E+00
-0.6071587087587E-01 -0.2990683215046E+01 -0.1434157566746E+01 -0.4816905134811E-01
 0.3388916751517E-01 -0.2663290616087E+01 -0.1235818677694E+01  0.2704018868456E-01
 0.9918486809687E-01 -0.2379162573664E+01 -0.1071589518899E+01  0.5006214354849E-01
 0.1463056940209E+00 -0.2137202991247E+01 -0.9357217273230E+00  0.4085613911953E-01
 0.1768180321786E+00 -0.1931540734038E+01 -0.8247196677819E+00  0.1226907107621E-01
 0.1919515036221E+00 -0.1755859083061E+01 -0.7350365604720E+00 -0.2814898763941E-01
 0.1935716698170E+00 -0.1604835963604E+01 -0.6632942163973E+00 -0.7518009541731E-01
 0.1837783292295E+00 -0.1473289465089E+01 -0.6060702323167E+00 -0.1246084479759E+00
 0.1635025212209E+00 -0.1356750351235E+01 -0.5608264786843E+00 -0.1732701284724E+00
 0.1333004562030E+00 -0.1252249603104E+01 -0.5259060977097E+00 -0.2189250889120E+00
 0.9415964777800E-01 -0.1157481545345E+01 -0.4997612905891E+00 -0.2599721986183E+00
 0.4796055441415E-01 -0.1067880615716E+01 -0.4793624275961E+00 -0.2950439199414E+00
-0.9454908985457E-02 -0.9977514054712E+00 -0.4733869665939E+00 -0.3274719650061E+00
-0.7213567534126E-01 -0.9759657870520E+00 -0.4926076860754E+00 -0.3648911298881E+00
-0.1332423588577E+00 -0.1026615892451E+01 -0.5451333767322E+00 -0.4155999237389E+00
-0.2027001525074E+01 -0.3800760689478E+01 -0.2739048233892E+01 -0.1367869017828E+01
-0.1350807053146E+01 -0.3916781298180E+01 -0.2475766518844E+01 -0.1103392189960E+01
-0.8633275674589E+00 -0.3854584817791E+01 -0.2217418815443E+01 -0.8073371322349E+00
-0.5091403164353E+00 -0.3665299004588E+01 -0.1961986475905E+01 -0.5336664877183E+00
-0.2619873247442E+00 -0.3400492422801E+01 -0.1721365476980E+01 -0.3163853466886E+00
-0.9206805937775E-01 -0.3104573911059E+01 -0.1502421722295E+01 -0.1617726745240E+00
 0.2200638502388E-01 -0.2815479764169E+01 -0.1312932484868E+01 -0.6846258137266E-01
 0.1008497692804E+00 -0.2553414706184E+01 -0.1152705517421E+01 -0.2644891026925E-01
 0.1572808754147E+00 -0.2323714829552E+01 -0.1018223955862E+01 -0.1943963778447E-01
 0.1950005728049E+00 -0.2124882659380E+01 -0.9070445783897E+00 -0.3508523498839E-01
 0.2160538958117E+00 -0.1953077616318E+01 -0.8164011465671E+00 -0.6563069619833E-01
 0.2225175467056E+00 -0.1804405014354E+01 -0.7434871079090E+00 -0.1057337061409E+00
 0.2165914916419E+00 -0.1674698322060E+01 -0.6853102085582E+00 -0.1510927844187E+00
 0.1992837106039E+00 -0.1560190778342E+01 -0.6396263202147E+00 -0.1984439860642E+00
 0.1711372245976E+00 -0.1458276266414E+01 -0.6049553481195E+00 -0.2454364705616E+00
 0.1331096416529E+00 -0.1366852902177E+01 -0.5798593309755E+00 -0.2902661100731E+00
 0.8707009547583E-01 -0.1281743326146E+01 -0.5614964169908E+00 -0.3312148485855E+00
 0.2681880153456E-01 -0.1216765630202E+01 -0.5592750080552E+00 -0.3712883976438E+00
-0.4079367775427E-01 -0.1198930284563E+01 -0.5826702608113E+00 -0.4162636159215E+00
-0.1045739992984E+00 -0.1251100754573E+01 -0.6371671327034E+00 -0.4711973734287E+00
-0.2018234197682E+01 -0.3645707441784E+01 -0.2662052563797E+01 -0.1311435229268E+01
-0.1408564764833E+01 -0.3768559003012E+01 -0.2433248164716E+01 -0.1109445674958E+01
-0.9404192867973E+00 -0.3751506920080E+01 -0.2205205311639E+01 -0.8646286808426E+00
-0.5834152659880E+00 -0.3625914773504E+01 -0.1978385113543E+01 -0.6253540280490E+00
-0.3214697528047E+00 -0.3427115646967E+01 -0.1761835133424E+01 -0.4232842737163E+00
-0.1327273202139E+00 -0.3188195267395E+01 -0.1560833612217E+01 -0.2681987638868E+00
-0.2142803248546E-03 -0.2940697005407E+01 -0.1382228300788E+01 -0.1639452104295E+00
 0.9308204581194E-01 -0.2706035886969E+01 -0.1228088302229E+01 -0.1069913531131E+00
 0.1603244799079E+00 -0.2493602116348E+01 -0.1096640486345E+01 -0.8537190228202E-01
 0.2067651085213E+00 -0.2305606589524E+01 -0.9864554935693E+00 -0.8828854010288E-01
 0.2351713462793E+00 -0.2140808371308E+01 -0.8956493994916E+00 -0.1084001169616E+00
 0.2478763747285E+00 -0.1996959406324E+01 -0.8220690227647E+00 -0.1405067854796E+00
 0.2472322907364E+00 -0.1871041778910E+01 -0.7631904575061E+00 -0.1803610400672E+00
 0.2343866907074E+00 -0.1760101532696E+01 -0.7170859739160E+00 -0.2246933507310E+00
 0.2099132512188E+00 -0.1662023201695E+01 -0.6824916749929E+00 -0.2711122171474E+00
 0.1747382099208E+00 -0.1575031225054E+01 -0.6581377154431E+00 -0.3176760335934E+00
 0.1307026418190E+00 -0.1495426766413E+01 -0.6414203369323E+00 -0.3623836964120E+00
 0.7008201370983E-01 -0.1436245729489E+01 -0.6420969447878E+00 -0.4078349169996E+00
 0.3121664363785E-03 -0.1422058555941E+01 -0.6682208013725E+00 -0.4580613021769E+00
-0.6417740919713E-01 -0.1473754769458E+01 -0.7228281221347E+00 -0.5152349471914E+00
-0.2012107266990E+01 -0.3513517319460E+01 -0.2597043549044E+01 -0.1258228770875E+01
-0.1459830040368E+01 -0.3637929890654E+01 -0.2395947161504E+01 -0.1104520384911E+01
-0.1012576891656E+01 -0.3652844451218E+01 -0.2192748025589E+01 -0.9034847005357E+00
-0.6571651638787E+00 -0.3576512885107E+01 -0.1989828677976E+01 -0.6971998998773E+00
-0.3851460892923E+00 -0.3432786779378E+01 -0.1794428443724E+01 -0.5139019565451E+00
-0.1811024787109E+00 -0.3245643640643E+01 -0.1610570672011E+01 -0.3645771757935E+00
-0.3187656958728E-01 -0.3039881592299E+01 -0.1443726332425E+01 -0.2556850359434E+00
 0.7595628351613E-01 -0.2835731355219E+01 -0.1297094280411E+01 -0.1882665728074E+00
 0.1549030414837E+00 -0.2644534270922E+01 -0.1170126674868E+01 -0.1545099906160E+00
 0.2111846863795E+00 -0.2471088969725E+01 -0.1062155010478E+01 -0.1457200070262E+00
 0.2481440645150E+00 -0.2316408116505E+01 -0.9720841019697E+00 -0.1554526892723E+00
 0.2683451181004E+00 -0.2179890798044E+01 -0.8984264672945E+00 -0.1789433018300E+00
 0.2742801990601E+00 -0.2059754776365E+01 -0.8391730492048E+00 -0.2121808437041E+00
 0.2672676731796E+00 -0.1953945881027E+01 -0.7927387556778E+00 -0.2520058288260E+00
 0.2479536445509E+00 -0.1860924665397E+01 -0.7580963778747E+00 -0.2960660992542E+00
 0.2172418119751E+00 -0.1779311453351E+01 -0.7341727295843E+00 -0.3423635902012E+00
 0.1769250273514E+00 -0.1705929156010E+01 -0.7186319386466E+00 -0.3887105919777E+00
 0.1182246563436E+00 -0.1652803401284E+01 -0.7212520082924E+00 -0.4372780717710E+00
 0.4873983173048E-01 -0.1641719996197E+01 -0.7487006754003E+00 -0.4905461173693E+00
-0.1498788539282E-01 -0.1691100017710E+01 -0.8018613124246E+00 -0.5482591070680E+00
-0.2007642870549E+01 -0.3399591800625E+01 -0.2541400289006E+01 -0.1207919139229E+01
-0.1505026095952E+01 -0.3522329305145E+01 -0.2362857032523E+01 -0.1091369813958E+01
-0.1079482605843E+01 -0.3559693664162E+01 -0.2180412841372E+01 -0.9273613952493E+00
-0.7292341008606E+00 -0.3521245103157E+01 -0.1997725220821E+01 -0.7516196685638E+00
-0.4513652365609E+00 -0.3422741342958E+01 -0.1820830087756E+01 -0.5886112384312E+00
-0.2355439539428E+00 -0.3281144266720E+01 -0.1652843459519E+01 -0.4492217723317E+00
-0.7182865415466E-01 -0.3115140736157E+01 -0.1497875609647E+01 -0.3408041475284E+00
 0.4992012965088E-01 -0.2942577106447E+01 -0.1359548775646E+01 -0.2672485317885E+00
 0.1408843913057E+00 -0.2775207263656E+01 -0.1238131746864E+01 -0.2242753170353E+00
 0.2076935976611E+00 -0.2619301483662E+01 -0.1133455703546E+01 -0.2054293385806E+00
 0.2540848128881E+00 -0.2477537883038E+01 -0.1045022940320E+01 -0.2054387636917E+00
 0.2827956875515E+00 -0.2350744122420E+01 -0.9719357619232E+00 -0.2201983404665E+00
 0.2964158293690E+00 -0.2238337235720E+01 -0.9127030586703E+00 -0.2461074069036E+00
 0.2964344324654E+00 -0.2139190986397E+01 -0.8660955781513E+00 -0.2802414171265E+00
 0.2836004612503E+00 -0.2052389962177E+01 -0.8313310633267E+00 -0.3203794528884E+00
 0.2588078406305E+00 -0.1976989277644E+01 -0.8075452733482E+00 -0.3645639215011E+00
 0.2237769197800E+00 -0.1910349962452E+01 -0.7926893280451E+00 -0.4105408431688E+00
 0.1690894800416E+00 -0.1863322777161E+01 -0.7962896476264E+00 -0.4600743756346E+00
 0.1020294177110E+00 -0.1854742638561E+01 -0.8237752117103E+00 -0.5143409157111E+00
 0.4020649798713E-01 -0.1900276101548E+01 -0.8742327114561E+00 -0.5711598734845E+00
-0.2004281367940E+01 -0.3300472118489E+01 -0.2493234132298E+01 -0.1160118823887E+01
-0.1544710464589E+01 -0.3419598222768E+01 -0.2333225077140E+01 -0.1072012959969E+01
-0.1141058541334E+01 -0.3472459347779E+01 -0.2168353402383E+01 -0.9390348945329E+00
-0.7987301282044E+00 -0.3462925585999E+01 -0.2002978180596E+01 -0.7908761202521E+00
-0.5186602805878E+00 -0.3401074140581E+01 -0.1842275173277E+01 -0.6482819053606E+00
-0.2944309118514E+00 -0.3298611675121E+01 -0.1688730011594E+01 -0.5213400015630E+00
-0.1187411117177E+00 -0.3169117375584E+01 -0.1545293485112E+01 -0.4172579919602E+00
 0.1573568224631E-01 -0.3027619758536E+01 -0.1415585512266E+01 -0.3413957208153E+00
 0.1184924668534E+00 -0.2885292825865E+01 -0.1300396165437E+01 -0.2922101640399E+00
 0.1960764751732E+00 -0.2748967952366E+01 -0.1199858991237E+01 -0.2653417414588E+00
 0.2524150898845E+00 -0.2622360246515E+01 -0.1113874220791E+01 -0.2567725331514E+00
 0.2903451873038E+00 -0.2507377474735E+01 -0.1042005172450E+01 -0.2631756833805E+00
 0.3124989018535E+00 -0.2404479199201E+01 -0.9832307372597E+00 -0.2814834802408E+00
 0.3205170572866E+00 -0.2313416715706E+01 -0.9366628370814E+00 -0.3091126723153E+00
 0.3152726662410E+00 -0.2233902106362E+01 -0.9017558345699E+00 -0.3440631680971E+00
 0.2976664532140E+00 -0.2165442847828E+01 -0.8778549032418E+00 -0.3845226492725E+00
 0.2693237723513E+00 -0.2105938998164E+01 -0.8632091539427E+00 -0.4283098879982E+00
 0.2205417712572E+00 -0.2064958137283E+01 -0.8668756898335E+00 -0.4768456414828E+00
 0.1577909008312E+00 -0.2058350622504E+01 -0.8932630669207E+00 -0.5302845740255E+00
 0.9881191134212E-01 -0.2098918225317E+01 -0.9400499651838E+00 -0.5850218700633E+00
-0.2001691752034E+01 -0.3213476419209E+01 -0.2451129034267E+01 -0.1114433108310E+01
-0.1579486934251E+01 -0.3327898483507E+01 -0.2306471140496E+01 -0.1047948931120E+01
-0.1197407647834E+01 -0.3391142380855E+01 -0.2156618508013E+01 -0.9407487228947E+00
-0.8650203136694E+00 -0.3403451269070E+01 -0.2006181638799E+01 -0.8170250566716E+00
-0.5857964848893E+00 -0.3370945404121E+01 -0.1859668683118E+01 -0.6940496801643E+00
-0.3562518029220E+00 -0.3301479536623E+01 -0.1719133725226E+01 -0.5807844052833E+00
-0.1712035992350E+00 -0.3204587033091E+01 -0.1586621593169E+01 -0.4837346172772E+00
-0.2559942986265E-01 -0.3092497299070E+01 -0.1465505458881E+01 -0.4087249655206E+00
 0.8825470408744E-01 -0.2975242132284E+01 -0.1356884087811E+01 -0.3561498511122E+00
 0.1764412295937E+00 -0.2859557584798E+01 -0.1261064683747E+01 -0.3234398036688E+00
 0.2428716076666E+00 -0.2749642303339E+01 -0.1178182223978E+01 -0.3077691804624E+00
 0.2903951822499E+00 -0.2648098993653E+01 -0.1108120788549E+01 -0.3066073578096E+00
 0.3216277791925E+00 -0.2556194630091E+01 -0.1050246417258E+01 -0.3174729168558E+00
 0.3383333849988E+00 -0.2474435346766E+01 -0.1003967919484E+01 -0.3381877856999E+00
 0.3415241730267E+00 -0.2403120804619E+01 -0.9689504143907E+00 -0.3670387257295E+00
 0.3321388749026E+00 -0.2342207621195E+01 -0.9447323083611E+00 -0.4024536093907E+00
 0.3116970864749E+00 -0.2290136372291E+01 -0.9298664619753E+00 -0.4424721733905E+00
 0.2705235989406E+00 -0.2255126725642E+01 -0.9327634671838E+00 -0.4882796614200E+00
 0.2137688250762E+00 -0.2250114410795E+01 -0.9570824228601E+00 -0.5393185013591E+00
 0.1584579346093E+00 -0.2285059990159E+01 -0.9995029635733E+00 -0.5910193295745E+00
-0.1999666550552E+01 -0.3136471779054E+01 -0.2413985008792E+01 -0.1070486056225E+01
-0.1609955287700E+01 -0.3245646079089E+01 -0.2282132636603E+01 -0.1020298527221E+01
-0.1248760942395E+01 -0.3315503694802E+01 -0.2145204374041E+01 -0.9343236568188E+00
-0.9277003294470E+00 -0.3344078969170E+01 -0.2007736265258E+01 -0.8319013519147E+00
-0.6517825828259E+00 -0.3334769340816E+01 -0.1873679399360E+01 -0.7271707032418E+00
-0.4196590233405E+00 -0.3292662863833E+01 -0.1744791282546E+01 -0.6278569095533E+00
-0.2278141472094E+00 -0.3224223757158E+01 -0.1622457810938E+01 -0.5395265755288E+00
-0.7293936719795E-01 -0.3139143306208E+01 -0.1509678852672E+01 -0.4678031287312E+00
 0.5093815127894E-01 -0.3046055972066E+01 -0.1407705372199E+01 -0.4143101910216E+00
 0.1491794140310E+00 -0.2951178128398E+01 -0.1316939392412E+01 -0.3778939588128E+00
 0.2254933399872E+00 -0.2858760505113E+01 -0.1237635564470E+01 -0.3567702933630E+00
 0.2826477728846E+00 -0.2771742934241E+01 -0.1169874722870E+01 -0.3491469331605E+00
 0.3231810973205E+00 -0.2691931283964E+01 -0.1113312584899E+01 -0.3531168513338E+00
 0.3489422917896E+00 -0.2620413201470E+01 -0.1067591324842E+01 -0.3669177596662E+00
 0.3611013671098E+00 -0.2557989199449E+01 -0.1032537278580E+01 -0.3891446547875E+00
 0.3606749754302E+00 -0.2505060627181E+01 -0.1007861253767E+01 -0.4185266378175E+00
 0.3491250722078E+00 -0.2460602772051E+01 -0.9923945164091E+00 -0.4534601178653E+00
 0.3170823641973E+00 -0.2431504886094E+01 -0.9937785827709E+00 -0.4950546218431E+00
 0.2679018026934E+00 -0.2427902804576E+01 -0.1015200468310E+01 -0.5423922949640E+00
 0.2170244357948E+00 -0.2457061433109E+01 -0.1052817386067E+01 -0.5903377092545E+00
-0.1998060942289E+01 -0.3067722568710E+01 -0.2380918244131E+01 -0.1027933842681E+01
-0.1636684411239E+01 -0.3171460892487E+01 -0.2259828287019E+01 -0.9899004340158E+00
-0.1295434166983E+01 -0.3245161372254E+01 -0.2134079898029E+01 -0.9212396515994E+00
-0.9865572865753E+00 -0.3285613497460E+01 -0.2007920263404E+01 -0.8371235419321E+00
-0.7158590967634E+00 -0.3294369313058E+01 -0.1884807347835E+01 -0.7489304186827E+00
-0.4834983334389E+00 -0.3274581059512E+01 -0.1766297310207E+01 -0.6631604838524E+00
-0.2872491855368E+00 -0.3230475887919E+01 -0.1653330780331E+01 -0.5844047051496E+00
-0.1250742141683E+00 -0.3169579143624E+01 -0.1548487074235E+01 -0.5176966366953E+00
 0.7478470154920E-02 -0.3099076236603E+01 -0.1453050946545E+01 -0.4653148906543E+00
 0.1149152017877E+00 -0.3024426984638E+01 -0.1367470534471E+01 -0.4271407768955E+00
 0.2005933966286E+00 -0.2949632653473E+01 -0.1292048447440E+01 -0.4022380931698E+00
 0.2671052679185E+00 -0.2877675439467E+01 -0.1226967977516E+01 -0.3894515154787E+00
 0.3168443792556E+00 -0.2810635692623E+01 -0.1172081914310E+01 -0.3873911887948E+00
 0.3516965792283E+00 -0.2749972111498E+01 -0.1127189497308E+01 -0.3946732045767E+00
 0.3729873268431E+00 -0.2696864633240E+01 -0.1092222331236E+01 -0.4101664560716E+00
 0.3819074621646E+00 -0.2652101033872E+01 -0.1066990975996E+01 -0.4328912145940E+00
 0.3799142857245E+00 -0.2615285015537E+01 -0.1050624240347E+01 -0.4616902311518E+00
 0.3583903084030E+00 -0.2591982556682E+01 -0.1049788354029E+01 -0.4977931773512E+00
 0.3183493111126E+00 -0.2589852500033E+01 -0.1067606496085E+01 -0.5403795406596E+00
 0.2727078982782E+00 -0.2613526939622E+01 -0.1100184946641E+01 -0.5841063124447E+00
-0.1996759662541E+01 -0.3005786690256E+01 -0.2351196779851E+01 -0.9864718759766E+00
-0.1660193324120E+01 -0.3104120697047E+01 -0.2239227584269E+01 -0.9573765835871E+00
-0.1337801120374E+01 -0.3179661285385E+01 -0.2123207325322E+01 -0.9026964945210E+00
-0.1041527887164E+01 -0.3228534753049E+01 -0.2006929435810E+01 -0.8341071883881E+00
-0.7774776232007E+00 -0.3251104644349E+01 -0.1893433660946E+01 -0.7605875701183E+00
-0.5468157757026E+00 -0.3249201642721E+01 -0.1784128182134E+01 -0.6874891264230E+00
-0.3483130858725E+00 -0.3225509620796E+01 -0.1679696667874E+01 -0.6185051088625E+00
-0.1808029966312E+00 -0.3185778686659E+01 -0.1582293387133E+01 -0.5579032975597E+00
-0.4109261647313E-01 -0.3135819697085E+01 -0.1493148783585E+01 -0.5081861840377E+00
 0.7444448680018E-01 -0.3080239029893E+01 -0.1412723431670E+01 -0.4699212106890E+00
 0.1687155713999E+00 -0.3022606919641E+01 -0.1341328930271E+01 -0.4428169474975E+00
 0.2440524397872E+00 -0.2965735823667E+01 -0.1279191187179E+01 -0.4262395245285E+00
 0.3026293631884E+00 -0.2911751227856E+01 -0.1226287273284E+01 -0.4192433497315E+00
 0.3462905301084E+00 -0.2862261312729E+01 -0.1182506264833E+01 -0.4207631305551E+00
 0.3764998004222E+00 -0.2818631734399E+01 -0.1147802006058E+01 -0.4298615035602E+00
 0.3946365184850E+00 -0.2781973169048E+01 -0.1122048222919E+01 -0.4457467878190E+00
 0.4025244043600E+00 -0.2752393948793E+01 -0.1104438683082E+01 -0.4676362519381E+00
 0.3925510615574E+00 -0.2734749553496E+01 -0.1100833288419E+01 -0.4970892408070E+00
 0.3636102353450E+00 -0.2734140777403E+01 -0.1114149351941E+01 -0.5339887383299E+00
 0.3240757055558E+00 -0.2753287326051E+01 -0.1141729458737E+01 -0.5733057537683E+00
-0.1995616952959E+01 -0.2949389024599E+01 -0.2324152803557E+01 -0.9458323006124E+00
-0.1680976258317E+01 -0.3042564867331E+01 -0.2220064323423E+01 -0.9231712767458E+00
-0.1376243872919E+01 -0.3118499343388E+01 -0.2112529306306E+01 -0.8796574557008E+00
-0.1092687080247E+01 -0.3173126461136E+01 -0.2004932359365E+01 -0.8240828971338E+00
-0.8362559940856E+00 -0.3205948620103E+01 -0.1899836163850E+01 -0.7633450763575E+00
-0.6088560704411E+00 -0.3218091583468E+01 -0.1798665392775E+01 -0.7017458023361E+00
-0.4099672302355E+00 -0.3211190268286E+01 -0.1701944019988E+01 -0.6422314762071E+00
-0.2389915744682E+00 -0.3189587791305E+01 -0.1611432297826E+01 -0.5882789979086E+00
-0.9371552188054E-01 -0.3157858806847E+01 -0.1528239930626E+01 -0.5423156557566E+00
 0.2866709317449E-01 -0.3119755230283E+01 -0.1452811420756E+01 -0.5052945097380E+00
 0.1305722162452E+00 -0.3078336953409E+01 -0.1385449422953E+01 -0.4773736813955E+00
 0.2140119668433E+00 -0.3036125981032E+01 -0.1326393583305E+01 -0.4583292655913E+00
 0.2808685342163E+00 -0.2995133227128E+01 -0.1275704402433E+01 -0.4475987535584E+00
 0.3328302359091E+00 -0.2956925298677E+01 -0.1233324676373E+01 -0.4443987303427E+00
 0.3713834936060E+00 -0.2922832533668E+01 -0.1199181045787E+01 -0.4479142558721E+00
 0.3981323271865E+00 -0.2894004563579E+01 -0.1173059948129E+01 -0.4573769986508E+00
 0.4151212672502E+00 -0.2871140906012E+01 -0.1154329227290E+01 -0.4720867656001E+00
 0.4179110453297E+00 -0.2857669258700E+01 -0.1146686357376E+01 -0.4936682588547E+00
 0.4018873326903E+00 -0.2859303139773E+01 -0.1154985426400E+01 -0.5237593264769E+00
 0.3707120999349E+00 -0.2874718836367E+01 -0.1176883163138E+01 -0.5586515041209E+00
-0.1994570594721E+01 -0.2897471772937E+01 -0.2299259906967E+01 -0.9058050727938E+00
-0.1699290798330E+01 -0.2985607379758E+01 -0.2201902138117E+01 -0.8875486118310E+00
-0.1411350483540E+01 -0.3061458399256E+01 -0.2102220169582E+01 -0.8528654153104E+00
-0.1140101028214E+01 -0.3119441214435E+01 -0.2001984848967E+01 -0.8081459772867E+00
-0.8919733035806E+00 -0.3159567994324E+01 -0.1904224405186E+01 -0.7583347932507E+00
-0.6690450765838E+00 -0.3182452688436E+01 -0.1810203944968E+01 -0.7068807555378E+00
-0.4713423462929E+00 -0.3189081686123E+01 -0.1720399290872E+01 -0.6561688446911E+00
-0.2986152632257E+00 -0.3182687395752E+01 -0.1636212245569E+01 -0.6089633611918E+00
-0.1493583629089E+00 -0.3166746603438E+01 -0.1558569330230E+01 -0.5674250543145E+00
-0.2147928611260E-01 -0.3144226626771E+01 -0.1487881775282E+01 -0.5326404582952E+00
 0.8696454138441E-01 -0.3117675231426E+01 -0.1424434020707E+01 -0.5050347462466E+00
 0.1776555914173E+00 -0.3089282195907E+01 -0.1368464500639E+01 -0.4846854553149E+00
 0.2521439205758E+00 -0.3060879007819E+01 -0.1320105487656E+01 -0.4713667785245E+00
 0.3118454424276E+00 -0.3033900832172E+01 -0.1279366029935E+01 -0.4645943407096E+00
 0.3580441799103E+00 -0.3009506387190E+01 -0.1246187234261E+01 -0.4637188374037E+00
 0.3922989339194E+00 -0.2988586831782E+01 -0.1220255308901E+01 -0.4679254162649E+00
 0.4170166037146E+00 -0.2971700982940E+01 -0.1200701655190E+01 -0.4762688724256E+00
 0.4296910165946E+00 -0.2961962911981E+01 -0.1190167787813E+01 -0.4895122910564E+00
 0.4334630400775E+00 -0.2959818408568E+01 -0.1187387020179E+01 -0.5100999428027E+00
 0.4122543317889E+00 -0.2976747482203E+01 -0.1205311777637E+01 -0.5399785084926E+00
-0.1991404766994E+01 -0.2846507803716E+01 -0.2273818902466E+01 -0.8659045341122E+00
-0.1716844598307E+01 -0.2934088816826E+01 -0.2185938699568E+01 -0.8503184533723E+00
-0.1443064364517E+01 -0.3007944427891E+01 -0.2091974127125E+01 -0.8230147260694E+00
-0.1184003775986E+01 -0.3067517951141E+01 -0.1998215206681E+01 -0.7872939775003E+00
-0.9445165977172E+00 -0.3112318235786E+01 -0.1906712366910E+01 -0.7466300153130E+00
-0.7269423132626E+00 -0.3143084478133E+01 -0.1818912587343E+01 -0.7038340344290E+00
-0.5317668742441E+00 -0.3160494564605E+01 -0.1735362871857E+01 -0.6609946554051E+00
-0.3587812769191E+00 -0.3166593803441E+01 -0.1656926283567E+01 -0.6203074587050E+00
-0.2070452013238E+00 -0.3163969325983E+01 -0.1584376823816E+01 -0.5835204877548E+00
-0.7506774166159E-01 -0.3154959594160E+01 -0.1518112843986E+01 -0.5516517766368E+00
 0.3870605665378E-01 -0.3141618202757E+01 -0.1458368704970E+01 -0.5252303615749E+00
 0.1356762741430E+00 -0.3125799602010E+01 -0.1405357960533E+01 -0.5045124045544E+00
 0.2170977414510E+00 -0.3109160780622E+01 -0.1359269624963E+01 -0.4895375091839E+00
 0.2840786150239E+00 -0.3093051204989E+01 -0.1320217113935E+01 -0.4801432330331E+00
 0.3375595491527E+00 -0.3078523432186E+01 -0.1288253021758E+01 -0.4760063086315E+00
 0.3784591940781E+00 -0.3066375014424E+01 -0.1263320432358E+01 -0.4765769149191E+00
 0.4087680238454E+00 -0.3056499122045E+01 -0.1244433612997E+01 -0.4807779991199E+00
 0.4284562845885E+00 -0.3049696923136E+01 -0.1231983096992E+01 -0.4881979530762E+00
 0.4384666039150E+00 -0.3048848958201E+01 -0.1226879703403E+01 -0.4990981514884E+00
 0.4672297622569E+00 -0.3033934444193E+01 -0.1206351197450E+01 -0.5176351754410E+00
-0.8434118841695E+00 -0.1257027542172E+01 -0.9872065278765E+00  0.5571765273715E+00
-0.7509075996898E+00 -0.1281920721567E+01 -0.9554293085674E+00  0.4494615339128E+00
-0.6600170464120E+00 -0.1309691819824E+01 -0.9257631647828E+00  0.3579992058326E+00
-0.5702191921253E+00 -0.1336081073430E+01 -0.8959611225385E+00  0.2801317033761E+00
-0.4845309468384E+00 -0.1360207274366E+01 -0.8670269617671E+00  0.2139943874798E+00
-0.4049122641958E+00 -0.1381043727618E+01 -0.8393993140237E+00  0.1584630617249E+00
-0.3332021444038E+00 -0.1398584723048E+01 -0.8139398256379E+00  0.1129067279878E+00
-0.2693221303616E+00 -0.1412889151460E+01 -0.7906393004506E+00  0.7679655406821E-01
-0.2130203639223E+00 -0.1424079913548E+01 -0.7694371284595E+00  0.4957700878424E-01
-0.1642267921343E+00 -0.1432379466016E+01 -0.7504049394271E+00  0.3063478953770E-01
-0.1228238260415E+00 -0.1438109928980E+01 -0.7336388629995E+00  0.1932545934515E-01
-0.8864428480196E-01 -0.1441630957286E+01 -0.7192293619571E+00  0.1500461436842E-01
-0.6134746571290E-01 -0.1443098099245E+01 -0.7070894137369E+00  0.1699059607696E-01
-0.4060899716227E-01 -0.1442462881991E+01 -0.6970437814342E+00  0.2456707959425E-01
-0.2607859843639E-01 -0.1439522040420E+01 -0.6888322985151E+00  0.3696566195695E-01
-0.1707220571406E-01 -0.1433879549172E+01 -0.6819473230669E+00  0.5322517605327E-01
-0.1110252789871E-01 -0.1424076661941E+01 -0.6745342175138E+00  0.7189702612881E-01
-0.7940222908929E-02 -0.1410796553327E+01 -0.6668062831397E+00  0.9222877811440E-01
-0.5435937611458E-02 -0.1397346254631E+01 -0.6593076286815E+00  0.1140719361709E+00
 0.4002954774612E-01 -0.1349504515211E+01 -0.6154532331473E+00  0.1443641398322E+00
-0.7878447452134E+00 -0.1203765789056E+01 -0.9360569487323E+00  0.5717751986957E+00
-0.7020611864591E+00 -0.1226962475882E+01 -0.9066411190006E+00  0.4612265429314E+00
-0.6129551211501E+00 -0.1250229886096E+01 -0.8756969511848E+00  0.3679161409760E+00
-0.5252016165384E+00 -0.1272329686813E+01 -0.8448397104321E+00  0.2883957166248E+00
-0.4414273862234E+00 -0.1291013054511E+01 -0.8142470050801E+00  0.2209397514557E+00
-0.3642566861551E+00 -0.1305241175747E+01 -0.7846639931039E+00  0.1644807969839E+00
-0.2957767765777E+00 -0.1315309243066E+01 -0.7572104273118E+00  0.1183360037059E+00
-0.2361697929397E+00 -0.1322231504560E+01 -0.7324486079671E+00  0.8184825867043E-01
-0.1849162525065E+00 -0.1326412256987E+01 -0.7103243976604E+00  0.5445878158945E-01
-0.1416736554520E+00 -0.1328049243458E+01 -0.6907697607355E+00  0.3554811444473E-01
-0.1061401658415E+00 -0.1327419604609E+01 -0.6737730904028E+00  0.2439631244496E-01
-0.7795164072485E-01 -0.1324817895124E+01 -0.6593016801769E+00  0.2021816619220E-01
-0.5652518228845E-01 -0.1320348913042E+01 -0.6471308231639E+00  0.2214130002719E-01
-0.4123862115779E-01 -0.1313941237894E+01 -0.6369345321387E+00  0.2925505537809E-01
-0.3132285169976E-01 -0.1305476927992E+01 -0.6282958948616E+00  0.4061820827286E-01
-0.2534352370620E-01 -0.1294726443637E+01 -0.6204328830776E+00  0.5525969476008E-01
-0.2075841955085E-01 -0.1281237959998E+01 -0.6119382968359E+00  0.7243711081492E-01
-0.1984828811331E-01 -0.1268321963647E+01 -0.6054400167919E+00  0.9301349468507E-01
-0.1663844651911E-01 -0.1254396790373E+01 -0.5973865598243E+00  0.1202022908462E+00
-0.4348726743045E-01 -0.1258210381818E+01 -0.6117978935952E+00  0.1576621376897E+00
-0.7339379602503E+00 -0.1152095831405E+01 -0.8864358798298E+00  0.5849446881797E+00
-0.6531712788499E+00 -0.1170851969220E+01 -0.8572909244183E+00  0.4721428466095E+00
-0.5671248768179E+00 -0.1190440254089E+01 -0.8260556094310E+00  0.3768507893661E+00
-0.4812746985483E+00 -0.1207800581815E+01 -0.7938653797573E+00  0.2955555120013E+00
-0.3996023692895E+00 -0.1220706240671E+01 -0.7615450447500E+00  0.2265322734649E+00
-0.3250036548945E+00 -0.1227819041068E+01 -0.7298266652512E+00  0.1688422839254E+00
-0.2600924037975E+00 -0.1230162201055E+01 -0.7004196625040E+00  0.1218478633959E+00
-0.2050545309943E+00 -0.1229461235354E+01 -0.6742224084734E+00  0.8483300100769E-01
-0.1590839053905E+00 -0.1226431050582E+01 -0.6511920276553E+00  0.5718023938080E-01
-0.1215342083809E+00 -0.1221314099218E+01 -0.6311387029705E+00  0.3819303600031E-01
-0.9185367681807E-01 -0.1214369090338E+01 -0.6139246990064E+00  0.2702625383370E-01
-0.6945304730830E-01 -0.1205891156071E+01 -0.5994117740677E+00  0.2274113169308E-01
-0.5349482986660E-01 -0.1195983858375E+01 -0.5872549819839E+00  0.2431982543928E-01
-0.4312942873732E-01 -0.1184634148215E+01 -0.5770488797040E+00  0.3078530001456E-01
-0.3741189491944E-01 -0.1171907839297E+01 -0.5683802736399E+00  0.4129433604330E-01
-0.3503281891239E-01 -0.1157890792405E+01 -0.5606740958970E+00  0.5527871869815E-01
-0.3447534106733E-01 -0.1142350822072E+01 -0.5531082952725E+00  0.7267983245033E-01
-0.3874904438511E-01 -0.1127785191579E+01 -0.5482710895125E+00  0.9524077900609E-01
-0.5468088951823E-01 -0.1120427813243E+01 -0.5523010888968E+00  0.1249246146572E+00
-0.8263890270725E-01 -0.1116805597031E+01 -0.5637389134472E+00  0.1578888435935E+00
-0.6805328769658E+00 -0.1100534763107E+01 -0.8371017887111E+00  0.5965378681953E+00
-0.6052407059631E+00 -0.1114864807279E+01 -0.8084495891735E+00  0.4820181624065E+00
-0.5221407895998E+00 -0.1130237385797E+01 -0.7766177404669E+00  0.3848288871483E+00
-0.4384202738437E+00 -0.1142706309540E+01 -0.7431294923053E+00  0.3015495269471E+00
-0.3589192936806E+00 -0.1149379464185E+01 -0.7089004143989E+00  0.2306864999369E+00
-0.2871160180528E+00 -0.1148937796390E+01 -0.6749452910760E+00  0.1714958222306E+00
-0.2260559676535E+00 -0.1143171129927E+01 -0.6435367342304E+00  0.1234597719980E+00
-0.1758815568256E+00 -0.1134611032580E+01 -0.6159315154585E+00  0.8583251513572E-01
-0.1353944213998E+00 -0.1124281095741E+01 -0.5920474915546E+00  0.5789753869939E-01
-0.1036053020086E+00 -0.1112498172329E+01 -0.5715686314891E+00  0.3881872264692E-01
-0.7969765578822E-01 -0.1099530631751E+01 -0.5542372937376E+00  0.2759110319753E-01
-0.6286551604392E-01 -0.1085684422356E+01 -0.5398184696789E+00  0.2312843711687E-01
-0.5208616019068E-01 -0.1071055561853E+01 -0.5278766080216E+00  0.2431843368694E-01
-0.4643317298810E-01 -0.1055634209086E+01 -0.5179716682613E+00  0.3019892245719E-01
-0.4505679315422E-01 -0.1039509905983E+01 -0.5097463473018E+00  0.4007785809503E-01
-0.4708355924745E-01 -0.1022704596908E+01 -0.5028004321177E+00  0.5361874408351E-01
-0.5151337449671E-01 -0.1004218964399E+01 -0.4961941980226E+00  0.7087326648515E-01
-0.6381495890427E-01 -0.9876135698431E+00 -0.4941714072579E+00  0.9302612912449E-01
-0.8532676802642E-01 -0.9765535200154E+00 -0.4990837341138E+00  0.1197663096217E+00
-0.1123645795522E+00 -0.9734835820395E+00 -0.5103486346537E+00  0.1475852425868E+00
-0.6278386863648E+00 -0.1049258448106E+01 -0.7882356512019E+00  0.6065930205974E+00
-0.5582363870655E+00 -0.1059023966909E+01 -0.7601123644402E+00  0.4908379733363E+00
-0.4781069401804E+00 -0.1069973609387E+01 -0.7275978564512E+00  0.3917853083433E+00
-0.3965052730061E+00 -0.1077139172121E+01 -0.6926128874528E+00  0.3062973709142E+00
-0.3193179443314E+00 -0.1077109823918E+01 -0.6563210494125E+00  0.2333030393787E+00
-0.2505314000372E+00 -0.1068583825186E+01 -0.6199841542825E+00  0.1723784128266E+00
-0.1936309599393E+00 -0.1054304834209E+01 -0.5865298217622E+00  0.1231946351346E+00
-0.1485997027378E+00 -0.1037685732064E+01 -0.5575541529426E+00  0.8498224621817E-01
-0.1137610332126E+00 -0.1020091675043E+01 -0.5329107715285E+00  0.5686255045453E-01
-0.8775247929151E-01 -0.1001915866335E+01 -0.5121441211454E+00  0.3779574463145E-01
-0.6950184080204E-01 -0.9834197531706E+00 -0.4948731479119E+00  0.2658189315174E-01
-0.5802621523623E-01 -0.9648775744566E+00 -0.4807647799363E+00  0.2198087627948E-01
-0.5219603442244E-01 -0.9462970902457E+00 -0.4692917674037E+00  0.2279330866661E-01
-0.5111026651354E-01 -0.9275364135755E+00 -0.4599639384752E+00  0.2805359669917E-01
-0.5409627173488E-01 -0.9085171941613E+00 -0.4524283278237E+00  0.3710637120667E-01
-0.6052672379233E-01 -0.8889115717717E+00 -0.4462359977833E+00  0.4958201161415E-01
-0.7000827576301E-01 -0.8673574750904E+00 -0.4405619017837E+00  0.6522483648786E-01
-0.8689568176920E-01 -0.8471417831089E+00 -0.4389976073793E+00  0.8438939583821E-01
-0.1104218827988E+00 -0.8340758785284E+00 -0.4439139466978E+00  0.1064270997874E+00
-0.1339210747556E+00 -0.8317288061217E+00 -0.4538554428612E+00  0.1294681629621E+00
-0.5760022937977E+00 -0.9984308128438E+00 -0.7399835582446E+00  0.6151314175804E+00
-0.5122441044666E+00 -0.1003565744392E+01 -0.7124306271564E+00  0.4985996733004E+00
-0.4349879533704E+00 -0.1009827851285E+01 -0.6790634264656E+00  0.3976460969812E+00
-0.3554817818767E+00 -0.1011217241851E+01 -0.6423485395228E+00  0.3096739829011E+00
-0.2807382437775E+00 -0.1003866248698E+01 -0.6037641099320E+00  0.2342595956054E+00
-0.2152318742201E+00 -0.9866469560118E+00 -0.5648830487762E+00  0.1714293390945E+00
-0.1628198193857E+00 -0.9634379592584E+00 -0.5293411546201E+00  0.1211146817932E+00
-0.1232037865863E+00 -0.9386390178904E+00 -0.4990661168383E+00  0.8249077728327E-01
-0.9413828909886E-01 -0.9139665904579E+00 -0.4738092921899E+00  0.5442094562873E-01
-0.7387982262531E-01 -0.8898591384845E+00 -0.4529573105727E+00  0.3558316470572E-01
-0.6112403894655E-01 -0.8665075288257E+00 -0.4359868357471E+00  0.2453622490815E-01
-0.5475211554793E-01 -0.8440654645640E+00 -0.4224442615811E+00  0.1985805336088E-01
-0.5357925877779E-01 -0.8223439019008E+00 -0.4116838844748E+00  0.2023302507138E-01
-0.5676222292122E-01 -0.8009562466179E+00 -0.4031276796609E+00  0.2463097673906E-01
-0.6373753384521E-01 -0.7795547865142E+00 -0.3963473895637E+00  0.3231873835722E-01
-0.7402221582610E-01 -0.7575518593868E+00 -0.3908398143588E+00  0.4275258144567E-01
-0.8713816705612E-01 -0.7332047420756E+00 -0.3855611663140E+00  0.5531230914258E-01
-0.1062666336456E+00 -0.7103692075402E+00 -0.3838188443838E+00  0.6994836295092E-01
-0.1287384865404E+00 -0.6960608607100E+00 -0.3876556922245E+00  0.8648547834121E-01
-0.1482423513652E+00 -0.6951819305917E+00 -0.3964094115143E+00  0.1048992123692E+00
-0.5252173381153E+00 -0.9483135364325E+00 -0.6925595092809E+00  0.6221764995043E+00
-0.4673242344697E+00 -0.9487594844809E+00 -0.6655593462187E+00  0.5052857914705E+00
-0.3927614874748E+00 -0.9499942947666E+00 -0.6310952160528E+00  0.4023013939227E+00
-0.3152998916109E+00 -0.9449743522841E+00 -0.5923288931283E+00  0.3115125977398E+00
-0.2431629342294E+00 -0.9295225693997E+00 -0.5511621853077E+00  0.2334103811540E+00
-0.1812393876402E+00 -0.9028956455388E+00 -0.5095434643017E+00  0.1686073161969E+00
-0.1336711531313E+00 -0.8703519771847E+00 -0.4718908700516E+00  0.1173453296233E+00
-0.9972251203371E-01 -0.8373714487189E+00 -0.4404341604366E+00  0.7865747519211E-01
-0.7650086891271E-01 -0.8059956807252E+00 -0.4147733772778E+00  0.5101154446459E-01
-0.6189311795492E-01 -0.7766271795752E+00 -0.3941045388396E+00  0.3270871746521E-01
-0.5439266294715E-01 -0.7492783769478E+00 -0.3777253877926E+00  0.2201127968203E-01
-0.5277637644359E-01 -0.7238687436737E+00 -0.3650232055293E+00  0.1727867953106E-01
-0.5583179666184E-01 -0.6999165179453E+00 -0.3552017069644E+00  0.1704716969253E-01
-0.6275978542070E-01 -0.6767310575671E+00 -0.3475606953227E+00  0.2018019077584E-01
-0.7304181381363E-01 -0.6537175560033E+00 -0.3415769029476E+00  0.2582065910817E-01
-0.8613975473269E-01 -0.6300957202767E+00 -0.3366306724006E+00  0.3324689712572E-01
-0.1013887907610E+00 -0.6040384532315E+00 -0.3315508038355E+00  0.4162991698941E-01
-0.1205154593449E+00 -0.5797745661040E+00 -0.3291363111262E+00  0.5081845268238E-01
-0.1400247110555E+00 -0.5653325360503E+00 -0.3315179052988E+00  0.6146041980412E-01
-0.1549163756658E+00 -0.5661859495634E+00 -0.3389180919981E+00  0.7517962271912E-01
-0.4757073244111E+00 -0.8992526520580E+00 -0.6462311873014E+00  0.6277511534609E+00
-0.4235380046929E+00 -0.8949402812292E+00 -0.6196847928117E+00  0.5108460272996E+00
-0.3514037091996E+00 -0.8906534144534E+00 -0.5837668466363E+00  0.4055850656121E+00
-0.2759339418894E+00 -0.8783610504450E+00 -0.5425186450211E+00  0.3115944047014E+00
-0.2066131926473E+00 -0.8538158748473E+00 -0.4984016604583E+00  0.2305944234302E+00
-0.1486245229152E+00 -0.8169634732889E+00 -0.4538263570649E+00  0.1639120899561E+00
-0.1062714638853E+00 -0.7747338383957E+00 -0.4140724910218E+00  0.1121021306333E+00
-0.7820202709916E-01 -0.7337515407307E+00 -0.3816181759121E+00  0.7389052652585E-01
-0.6081829027032E-01 -0.6962921541560E+00 -0.3558419079778E+00  0.4716897727279E-01
-0.5167005692742E-01 -0.6625788941812E+00 -0.3356970061696E+00  0.2975961983907E-01
-0.4908051271889E-01 -0.6322967219132E+00 -0.3202472994648E+00  0.1957814844550E-01
-0.5174779436997E-01 -0.6050095331580E+00 -0.3086759431552E+00  0.1474279424576E-01
-0.5844815258564E-01 -0.5798740993642E+00 -0.3000114576555E+00  0.1363683078055E-01
-0.6841010636157E-01 -0.5558927089620E+00 -0.2934223224578E+00  0.1502154437509E-01
-0.8108834545959E-01 -0.5322745479486E+00 -0.2882805591707E+00  0.1793831122617E-01
-0.9581426245968E-01 -0.5081666617595E+00 -0.2838710336630E+00  0.2156827810768E-01
-0.1116562536208E+00 -0.4817481707116E+00 -0.2789000787289E+00  0.2504611786113E-01
-0.1289685039486E+00 -0.4574946459925E+00 -0.2756376797732E+00  0.2830670471210E-01
-0.1440241993812E+00 -0.4440082888620E+00 -0.2763752687733E+00  0.3287624923427E-01
-0.1535919867396E+00 -0.4468885346146E+00 -0.2822258443206E+00  0.4179071966417E-01
-0.4277402408452E+00 -0.8517077067238E+00 -0.6013405338322E+00  0.6318772410369E+00
-0.3809497303922E+00 -0.8425169277741E+00 -0.5750293278796E+00  0.5151768802174E+00
-0.3109020222466E+00 -0.8319632088881E+00 -0.5371466572709E+00  0.4072514636401E+00
-0.2373893447509E+00 -0.8112052266579E+00 -0.4928394473121E+00  0.3096393665342E+00
-0.1711577758191E+00 -0.7763101956655E+00 -0.4453099454683E+00  0.2256484454663E+00
-0.1175034176973E+00 -0.7283288491591E+00 -0.3975411644142E+00  0.1574154909417E+00
-0.8073255843737E-01 -0.6761907091142E+00 -0.3557539348469E+00  0.1057234721941E+00
-0.5868399195912E-01 -0.6276581871298E+00 -0.3225808233536E+00  0.6872640147485E-01
-0.4703203505329E-01 -0.5850515453338E+00 -0.2970792820284E+00  0.4352543124820E-01
-0.4304189915894E-01 -0.5481937195800E+00 -0.2778807401025E+00  0.2737268063717E-01
-0.4490044238446E-01 -0.5162566363712E+00 -0.2637438263462E+00  0.1781321897757E-01
-0.5125331019035E-01 -0.4883326157554E+00 -0.2536053845512E+00  0.1273665946692E-01
-0.6088589360212E-01 -0.4631841392009E+00 -0.2463129147927E+00  0.1041155268038E-01
-0.7304141083532E-01 -0.4395405736879E+00 -0.2409135321149E+00  0.9548553872494E-02
-0.8711016611641E-01 -0.4164942073959E+00 -0.2366940549504E+00  0.9157334933955E-02
-0.1022523155806E+00 -0.3932010516098E+00 -0.2328630819888E+00  0.8428691315367E-02
-0.1172925801122E+00 -0.3679250357518E+00 -0.2280522788776E+00  0.6612409579287E-02
-0.1313257238687E+00 -0.3452014149428E+00 -0.2239677546733E+00  0.3816885414410E-02
-0.1407727265018E+00 -0.3338374247034E+00 -0.2230667705007E+00  0.2368650608151E-02
-0.1442428416868E+00 -0.3391184307845E+00 -0.2271797974853E+00  0.6477248426217E-02
-0.3816491739806E+00 -0.8062951007098E+00 -0.5583338076883E+00  0.6345726797388E+00
-0.3396370762203E+00 -0.7919915176398E+00 -0.5318654377652E+00  0.5180938934236E+00
-0.2712660002708E+00 -0.7740333723155E+00 -0.4912907038694E+00  0.4069464771188E+00
-0.1997137891703E+00 -0.7431567312907E+00 -0.4431491434927E+00  0.3052988081076E+00
-0.1369161635771E+00 -0.6963441749129E+00 -0.3916323580970E+00  0.2184301898665E+00
-0.8803019270929E-01 -0.6363028412884E+00 -0.3404365251154E+00  0.1493050871592E+00
-0.5717124214397E-01 -0.5742864487300E+00 -0.2967851139580E+00  0.9870985973723E-01
-0.4118168998316E-01 -0.5190505781151E+00 -0.2633091653383E+00  0.6384675682646E-01
-0.3503633964709E-01 -0.4726274075055E+00 -0.2386019605566E+00  0.4080333982969E-01
-0.3578365497111E-01 -0.4341285201611E+00 -0.2208587217519E+00  0.2621161013256E-01
-0.4151021869357E-01 -0.4020035922889E+00 -0.2084514906331E+00  0.1727261936276E-01
-0.5084392692741E-01 -0.3747834540326E+00 -0.2000448685438E+00  0.1171199430251E-01
-0.6260929778816E-01 -0.3508496172619E+00 -0.1943256895806E+00  0.7768638148050E-02
-0.7606379817792E-01 -0.3287323731804E+00 -0.1902542000559E+00  0.4190524262668E-02
-0.9051584277458E-01 -0.3074964585199E+00 -0.1870657811339E+00  0.4756346183469E-04
-0.1049556359580E+00 -0.2863827537456E+00 -0.1839290426942E+00 -0.5353451543289E-02
-0.1180099279592E+00 -0.2637926485886E+00 -0.1794472105223E+00 -0.1253201464306E-01
-0.1276678041332E+00 -0.2441607220813E+00 -0.1747594068776E+00 -0.2117704347439E-01
-0.1306850607389E+00 -0.2361474194541E+00 -0.1724112652534E+00 -0.2830762010941E-01
-0.1273735642953E+00 -0.2443252399537E+00 -0.1746984375539E+00 -0.2879410884425E-01
-0.3378683277175E+00 -0.7638580430696E+00 -0.5178113929566E+00  0.6358453550119E+00
-0.2997074099869E+00 -0.7439860516109E+00 -0.4905359257068E+00  0.5192907273887E+00
-0.2325424617109E+00 -0.7168807083406E+00 -0.4462288887924E+00  0.4041694457954E+00
-0.1630060425821E+00 -0.6736008531879E+00 -0.3932052400146E+00  0.2981527325235E+00
-0.1040556741402E+00 -0.6129654021340E+00 -0.3369999049941E+00  0.2088587334905E+00
-0.6038057413182E-01 -0.5400332132317E+00 -0.2821944793451E+00  0.1399448167919E+00
-0.3568294534341E-01 -0.4686147950660E+00 -0.2370199373913E+00  0.9176700076808E-01
-0.2565584764535E-01 -0.4080707575821E+00 -0.2038515039399E+00  0.6008437543010E-01
-0.2466329227668E-01 -0.3596173212289E+00 -0.1806118878895E+00  0.3978841765288E-01
-0.2960934712929E-01 -0.3212577970037E+00 -0.1649075573242E+00  0.2692280714647E-01
-0.3852079826337E-01 -0.2905223706419E+00 -0.1546502889932E+00  0.1844700776089E-01
-0.5005736471054E-01 -0.2653518427262E+00 -0.1482423271193E+00  0.1204792646898E-01
-0.6312440890248E-01 -0.2438251065004E+00 -0.1442662718735E+00  0.6059124014755E-02
-0.7700147481157E-01 -0.2243875447522E+00 -0.1416528388357E+00 -0.6281894599866E-03
-0.9091570734204E-01 -0.2061780176768E+00 -0.1396340504047E+00 -0.8790941137740E-02
-0.1037096276657E+00 -0.1885877999076E+00 -0.1373797906110E+00 -0.1891720277923E-01
-0.1138661049585E+00 -0.1701971203925E+00 -0.1335097155763E+00 -0.3121410502896E-01
-0.1184535522561E+00 -0.1552021000298E+00 -0.1286181562482E+00 -0.4517018665449E-01
-0.1146309525353E+00 -0.1517934857521E+00 -0.1252194856775E+00 -0.5733403987716E-01
-0.1040956134343E+00 -0.1634708031462E+00 -0.1257562154739E+00 -0.6193673411977E-01
-0.2969954486685E+00 -0.7255794046642E+00 -0.4806101798474E+00  0.6356809912750E+00
-0.2613261346618E+00 -0.6992789091800E+00 -0.4514843694605E+00  0.5182761645134E+00
-0.1948333813380E+00 -0.6603483829938E+00 -0.4019354282165E+00  0.3982217938763E+00
-0.1274182076020E+00 -0.6015248083726E+00 -0.3426032166391E+00  0.2877178341874E+00
-0.7277673807518E-01 -0.5248528351117E+00 -0.2808858986854E+00  0.1969821420483E+00
-0.3472585453302E-01 -0.4385463065434E+00 -0.2224379151417E+00  0.1299559771580E+00
-0.1631166934180E-01 -0.3589293453492E+00 -0.1763632764575E+00  0.8584457631021E-01
-0.1199381823518E-01 -0.2951815013729E+00 -0.1443723998496E+00  0.5840425672180E-01
-0.1567284744332E-01 -0.2469441953350E+00 -0.1234300097928E+00  0.4127168812263E-01
-0.2417097703540E-01 -0.2106787806851E+00 -0.1103793858487E+00  0.3006639634031E-01
-0.3550705674924E-01 -0.1828829350639E+00 -0.1026432958918E+00  0.2170322420701E-01
-0.4844130155235E-01 -0.1609883300808E+00 -0.9843192661790E-01  0.1401054150860E-01
-0.6200844769746E-01 -0.1429289957429E+00 -0.9632059817268E-01  0.5559592332644E-02
-0.7552041351549E-01 -0.1272153752471E+00 -0.9528582047676E-01 -0.4514734768321E-02
-0.8813405078395E-01 -0.1131635165006E+00 -0.9460985638379E-01 -0.1676118628918E-01
-0.9857967568709E-01 -0.1003643088293E+00 -0.9350367248554E-01 -0.3139990285371E-01
-0.1052492787807E+00 -0.8759612816260E-01 -0.9063734103346E-01 -0.4827379500493E-01
-0.1045172888611E+00 -0.7869911574874E-01 -0.8611170994820E-01 -0.6668945739958E-01
-0.9393931541378E-01 -0.8110197454976E-01 -0.8226940607420E-01 -0.8293045378990E-01
-0.7612742585173E-01 -0.9693764536226E-01 -0.8134058326426E-01 -0.9089100048334E-01
-0.2599044202870E+00 -0.6931706701828E+00 -0.4479452913847E+00  0.6340192411499E+00
-0.2247658067205E+00 -0.6588525487088E+00 -0.4153006259984E+00  0.5142733932808E+00
-0.1583126209679E+00 -0.6039557390950E+00 -0.3582661283209E+00  0.3881373103666E+00
-0.9314046974548E-01 -0.5253099875791E+00 -0.2906717142053E+00  0.2734788835314E+00
-0.4327978941999E-01 -0.4302405653382E+00 -0.2225545661718E+00  0.1830883956451E+00
-0.1120026848189E-01 -0.3308676033282E+00 -0.1607718993430E+00  0.1203181699947E+00
 0.9763768540558E-03 -0.2453552953189E+00 -0.1148580913871E+00  0.8215265419270E-01
 0.2950040513539E-05 -0.1813281188180E+00 -0.8522282910927E-01  0.5983968342156E-01
-0.7747569354784E-02 -0.1359001103820E+00 -0.6751440930505E-01  0.4595162066545E-01
-0.1906143730938E-01 -0.1036559697495E+00 -0.5767718117139E-01  0.3602818809152E-01
-0.3202385471195E-01 -0.8013890968040E-01 -0.5271649913069E-01  0.2722782584459E-01
-0.4558077384409E-01 -0.6250220506011E-01 -0.5079899995613E-01  0.1772685492614E-01
-0.5893948443440E-01 -0.4876460242347E-01 -0.5062092069480E-01  0.6462910266863E-02
-0.7144948752824E-01 -0.3766643432045E-01 -0.5128448313881E-01 -0.7115415699491E-02
-0.8221431782757E-01 -0.2878641258200E-01 -0.5217034316017E-01 -0.2328571118963E-01
-0.8989732071789E-01 -0.2193415242316E-01 -0.5256079224298E-01 -0.4196774303775E-01
-0.9285354943187E-01 -0.1607068720417E-01 -0.5119439108909E-01 -0.6261422675302E-01
-0.8703233817056E-01 -0.1457135698359E-01 -0.4775373660133E-01 -0.8437769657054E-01
-0.7033786994753E-01 -0.2384588607045E-01 -0.4426636521617E-01 -0.1034881355102E+00
-0.4570768236938E-01 -0.4446418679156E-01 -0.4238077839815E-01 -0.1138048325111E+00
-0.2279596298020E+00 -0.6692051992510E+00 -0.4216674685854E+00  0.6307054353116E+00
-0.1904913364611E+00 -0.6239491817530E+00 -0.3827870425897E+00  0.5060521886280E+00
-0.1232267897758E+00 -0.5466088264625E+00 -0.3148227388335E+00  0.3725890101767E+00
-0.6034534141113E-01 -0.4424087750402E+00 -0.2362944341328E+00  0.2549704679284E+00
-0.1571158578782E-01 -0.3268890490121E+00 -0.1610222979475E+00  0.1678829157769E+00
 0.1012351152557E-01 -0.2162938775575E+00 -0.9690007178922E-01  0.1124779425145E+00
 0.1630081040723E-01 -0.1286998842324E+00 -0.5282756456384E-01  0.8212067682143E-01
 0.1062270990293E-01 -0.6807478399127E-01 -0.2700247475304E-01  0.6535924224075E-01
-0.4904617686603E-03 -0.2809857790654E-01 -0.1343684861326E-01  0.5429835319594E-01
-0.1382335854492E-01 -0.1482858555035E-02 -0.7193922018731E-02  0.4493243615889E-01
-0.2763334703303E-01  0.1681055224404E-01 -0.5086713537923E-02  0.3499470095846E-01
-0.4113202881193E-01  0.2953923688329E-01 -0.5448612192641E-02  0.2318787933074E-01
-0.5372506184223E-01  0.3833524871874E-01 -0.7233212149695E-02  0.8893236491763E-02
-0.6479376585697E-01  0.4408515336927E-01 -0.9733047844533E-02 -0.8106503311800E-02
-0.7341105642578E-01  0.4690238318911E-01 -0.1245907638963E-01 -0.2781297668343E-01
-0.7823026814804E-01  0.4678087225040E-01 -0.1478121603440E-01 -0.4984249835243E-01
-0.7762997317183E-01  0.4463585749635E-01 -0.1550723432814E-01 -0.7325590432164E-01
-0.6743435098336E-01  0.3767240336012E-01 -0.1398811534745E-01 -0.9708856876216E-01
-0.4582673016588E-01  0.2072606311177E-01 -0.1179731348551E-01 -0.1177161320719E+00
-0.1541329574767E-01 -0.5133559187111E-02 -0.9657021794852E-02 -0.1292317711206E+00
-0.2034503206377E+00 -0.6577444845243E+00 -0.4047615573995E+00  0.6253891921182E+00
-0.1593095748235E+00 -0.5961146356508E+00 -0.3550493780224E+00  0.4916349440466E+00
-0.8982766665778E-01 -0.4860109066665E+00 -0.2706441287760E+00  0.3497732342228E+00
-0.2905419187942E-01 -0.3488631143563E+00 -0.1776211334803E+00  0.2319673111599E+00
 0.9893175674496E-02 -0.2122293118707E+00 -0.9509798377100E-01  0.1527615838890E+00
 0.2920220897666E-01 -0.9493964606151E-01 -0.3089659535151E-01  0.1084212192278E+00
 0.2985326106391E-01 -0.1081077986311E-01  0.8949966141676E-02  0.8724057956641E-01
 0.2024578712779E-01  0.4239363733769E-01  0.2944052942410E-01  0.7565126103006E-01
 0.6581510209595E-02  0.7473019768071E-01  0.3821650261151E-01  0.6640841607265E-01
-0.7978848681871E-02  0.9472024496145E-01  0.4076845614800E-01  0.5659176785438E-01
-0.2194502330792E-01  0.1073642680333E+00  0.4014704491910E-01  0.4477796610219E-01
-0.3486020366621E-01  0.1148825113142E+00  0.3761048449918E-01  0.3028691812279E-01
-0.4632507799034E-01  0.1183247797260E+00  0.3383985972991E-01  0.1294160732450E-01
-0.5573502023208E-01  0.1181253030523E+00  0.2932343285111E-01 -0.7176214787868E-02
-0.6216391982657E-01  0.1141019651727E+00  0.2441088125075E-01 -0.2982087496422E-01
-0.6433105215765E-01  0.1061125706261E+00  0.1963731363037E-01 -0.5432642837599E-01
-0.6070797198061E-01  0.9505051019663E-01  0.1614099292059E-01 -0.7938755607317E-01
-0.4730530603753E-01  0.7883926991508E-01  0.1482096298486E-01 -0.1039739093042E+00
-0.2249418414660E-01  0.5378384026264E-01  0.1470613833724E-01 -0.1247740941086E+00
 0.1211777918253E-01  0.2254866365526E-01  0.1629322809243E-01 -0.1363151416188E+00
-0.1905696039583E+00 -0.6656389982923E+00 -0.4024180420371E+00  0.6172936572369E+00
-0.1325972980224E+00 -0.5771085344809E+00 -0.3335617404305E+00  0.4677507545559E+00
-0.5810550126680E-01 -0.4174263439988E+00 -0.2234999667080E+00  0.3172988787861E+00
 0.1160096727152E-02 -0.2386378072364E+00 -0.1116145236562E+00  0.2049123257697E+00
 0.3352257125352E-01 -0.8407283477434E-01 -0.2375862379452E-01  0.1401913879348E+00
 0.4589976350750E-01  0.3138028050711E-01  0.3632162059474E-01  0.1105938114272E+00
 0.4186748490253E-01  0.1052065887959E+00  0.6912481446296E-01  0.9872371823093E-01
 0.2941534579625E-01  0.1476237469097E+00  0.8320837336074E-01  0.9086364321202E-01
 0.1399338771645E-01  0.1710396244234E+00  0.8696551548515E-01  0.8191977808234E-01
-0.1077478251483E-02  0.1842234237782E+00  0.8607859417921E-01  0.7052762275863E-01
-0.1466325795035E-01  0.1913247735785E+00  0.8303091213465E-01  0.5621786830857E-01
-0.2667299726215E-01  0.1936049391522E+00  0.7845801248931E-01  0.3888665463099E-01
-0.3686369593697E-01  0.1914129280116E+00  0.7263813889082E-01  0.1870959995134E-01
-0.4461342175279E-01  0.1847564166022E+00  0.6586720741217E-01 -0.4009440136010E-02
-0.4905355610409E-01  0.1732141883246E+00  0.5835549699564E-01 -0.2882314125568E-01
-0.4906319184500E-01  0.1565920504074E+00  0.5053856339613E-01 -0.5482250881413E-01
-0.4329333992666E-01  0.1358778529114E+00  0.4351472099247E-01 -0.8039992251571E-01
-0.2822738888834E-01  0.1099062381533E+00  0.3838905905718E-01 -0.1045377520731E+00
-0.2299757582315E-02  0.7671654773710E-01  0.3497589128404E-01 -0.1243529644150E+00
 0.3453463688689E-01  0.4045460897759E-01  0.3524494546691E-01 -0.1349073942027E+00
-0.1977601511780E+00 -0.7054477736711E+00 -0.4245077236024E+00  0.6046555860382E+00
-0.1127208719604E+00 -0.5683943998636E+00 -0.3201241769453E+00  0.4287278158310E+00
-0.2662113724682E-01 -0.3306263432772E+00 -0.1679063154204E+00  0.2722415704747E+00
 0.3133259421592E-01 -0.1034436257921E+00 -0.3389218475483E-01  0.1758584673534E+00
 0.5479624140386E-01  0.5754717323768E-01  0.5280140474760E-01  0.1340966147885E+00
 0.5954580605811E-01  0.1579053983383E+00  0.1022020658071E+00  0.1214150162916E+00
 0.5305318181546E-01  0.2158428528901E+00  0.1263811359910E+00  0.1169909506904E+00
 0.3872109158541E-01  0.2453018024686E+00  0.1334907598668E+00  0.1104633452267E+00
 0.2224893322802E-01  0.2597915822053E+00  0.1325590419174E+00  0.1000357881049E+00
 0.7250988514431E-02  0.2668646638632E+00  0.1288343562907E+00  0.8606811840818E-01
-0.5629810327750E-02  0.2689278597975E+00  0.1237500829369E+00  0.6893108271970E-01
-0.1664813118043E-01  0.2660518509548E+00  0.1172197479967E+00  0.4889652531291E-01
-0.2561841789837E-01  0.2579940543969E+00  0.1092165488773E+00  0.2634229422356E-01
-0.3189512046517E-01  0.2444363763024E+00  0.9989438999011E-01  0.1713344884981E-02
-0.3473533058011E-01  0.2248084111489E+00  0.8933434764077E-01 -0.2438051259094E-01
-0.3332334554610E-01  0.1988903037354E+00  0.7781647015162E-01 -0.5084203429811E-01
-0.2654451170295E-01  0.1679077615187E+00  0.6644072724489E-01 -0.7588471835392E-01
-0.1164309281189E-01  0.1318173252264E+00  0.5648188909155E-01 -0.9862661286945E-01
 0.1314377978383E-01  0.9085603127874E-01  0.4887991107543E-01 -0.1166618860571E+00
 0.5011826458912E-01  0.5049272403843E-01  0.4728716453501E-01 -0.1255606749570E+00
-0.2457695817024E+00 -0.8044610777750E+00 -0.4936084087024E+00  0.5829253300570E+00
-0.1015744600889E+00 -0.5665522823628E+00 -0.3140195681558E+00  0.3641254019809E+00
 0.9503444577632E-02 -0.2044154736209E+00 -0.9160865341797E-01  0.2119967552384E+00
 0.6393371865335E-01  0.6654948985803E-01  0.6132710784480E-01  0.1505082963361E+00
 0.6909326016357E-01  0.2035023293805E+00  0.1281199267608E+00  0.1395976465362E+00
 0.7140265313947E-01  0.2800733989549E+00  0.1651937440654E+00  0.1421132224176E+00
 0.6413864229020E-01  0.3175355043963E+00  0.1793868484877E+00  0.1414842582363E+00
 0.4868382557640E-01  0.3336499370744E+00  0.1796968679901E+00  0.1332579514212E+00
 0.3179025369058E-01  0.3407896662009E+00  0.1751125619048E+00  0.1196437568303E+00
 0.1726630137744E-01  0.3431483786315E+00  0.1693948991746E+00  0.1025197025882E+00
 0.5117262581672E-02  0.3407206873517E+00  0.1625438360564E+00  0.8264308090805E-01
-0.5025872123601E-02  0.3327198706992E+00  0.1540161789399E+00  0.6032904855241E-01
-0.1299933583512E-01  0.3185499682567E+00  0.1436087968739E+00  0.3603095140128E-01
-0.1810384362186E-01  0.2977539508959E+00  0.1314355500854E+00  0.1029876927743E-01
-0.1990524846965E-01  0.2695652076430E+00  0.1173401805139E+00 -0.1611465483657E-01
-0.1791564428506E-01  0.2338414955857E+00  0.1014851498539E+00 -0.4199098209331E-01
-0.1150876534375E-01  0.1918701088730E+00  0.8476983124376E-01 -0.6557615408043E-01
 0.1292778233165E-02  0.1452989821726E+00  0.6889812721597E-01 -0.8633514213915E-01
 0.2268202664683E-01  0.9709643961258E-01  0.5629587899913E-01 -0.1022853060680E+00
 0.5808047468300E-01  0.5422402047202E-01  0.5278311258898E-01 -0.1093536880517E+00
-0.3869506669860E+00 -0.1026376315085E+01 -0.6642636798885E+00  0.5398541363876E+00
-0.1041483553962E+00 -0.5563161536130E+00 -0.3104183184470E+00  0.2518579179982E+00
 0.8453475091960E-01  0.2689888707477E-01  0.5237380972452E-01  0.1400411131792E+00
 0.7502530278374E-01  0.2432933739895E+00  0.1496097777040E+00  0.1414104607571E+00
 0.8050873563893E-01  0.3498793018218E+00  0.2022823770935E+00  0.1593087982039E+00
 0.8258703665940E-01  0.3930287192966E+00  0.2235394047324E+00  0.1726626057418E+00
 0.7553022172118E-01  0.4066322422234E+00  0.2266163574792E+00  0.1707216333220E+00
 0.5973911196301E-01  0.4120595828725E+00  0.2217453860103E+00  0.1574387955728E+00
 0.4310230804428E-01  0.4151052202562E+00  0.2153575377550E+00  0.1395634705627E+00
 0.2897654316206E-01  0.4139924696560E+00  0.2081954354964E+00  0.1194118946444E+00
 0.1732889955455E-01  0.4073258077709E+00  0.1995877119367E+00  0.9728138050281E-01
 0.7810189609960E-02  0.3941134119082E+00  0.1889040922344E+00  0.7329376942200E-01
 0.5767029109480E-03  0.3736730908281E+00  0.1758974026112E+00  0.4799170159383E-01
-0.3906643559088E-02  0.3452411736221E+00  0.1604272287227E+00  0.2200536581824E-01
-0.5096381701112E-02  0.3084715170176E+00  0.1425863132371E+00 -0.3728595689058E-02
-0.3647251458558E-02  0.2622928603272E+00  0.1215634358599E+00 -0.2791854844040E-01
 0.1163351163654E-02  0.2086253700925E+00  0.9860069874032E-01 -0.4921284215237E-01
 0.9518023476828E-02  0.1503017756684E+00  0.7511530540772E-01 -0.6778029643705E-01
 0.2583931343133E-01  0.9571000817846E-01  0.5712818101170E-01 -0.8196321734101E-01
 0.5854390142145E-01  0.5235009190156E-01  0.5212017672962E-01 -0.8755621027627E-01
-0.1025018398448E+01 -0.1778113120763E+01 -0.1317471810688E+01  0.3956379035220E+00
 0.1581743760672E+00 -0.1385532763625E+00  0.9221916837858E-02  0.5220738533164E-01
 0.7677974821276E-01  0.2430017268322E+00  0.1502972928899E+00  0.9609489728006E-01
 0.8051246361229E-01  0.4285852761994E+00  0.2392759371046E+00  0.1523115057392E+00
 0.9299675964788E-01  0.4948741041341E+00  0.2762993052767E+00  0.1940474248600E+00
 0.9245239108093E-01  0.4884797557069E+00  0.2730381082977E+00  0.2124140748689E+00
 0.8716611273145E-01  0.4802801822141E+00  0.2666997579479E+00  0.2018527917344E+00
 0.7302198896558E-01  0.4828991577239E+00  0.2612829382814E+00  0.1808465077269E+00
 0.5628248450492E-01  0.4844822710314E+00  0.2541594344574E+00  0.1590514279803E+00
 0.4218079027221E-01  0.4803397568249E+00  0.2455846565127E+00  0.1366941507949E+00
 0.3042831907550E-01  0.4689907428811E+00  0.2347269585242E+00  0.1129417369281E+00
 0.2151325491732E-01  0.4508688711640E+00  0.2220195986951E+00  0.8789404484007E-01
 0.1476531774293E-01  0.4241563680916E+00  0.2062931918190E+00  0.6245994794388E-01
 0.1013557212912E-01  0.3874181855312E+00  0.1868502656264E+00  0.3711126122052E-01
 0.8226208160364E-02  0.3415384656527E+00  0.1643893962752E+00  0.1276371290235E-01
 0.1066463779970E-01  0.2878735457600E+00  0.1403129459172E+00 -0.8311577919923E-02
 0.9762417027374E-02  0.2173314378333E+00  0.1067341115138E+00 -0.2591059061974E-01
 0.1229097464540E-01  0.1453854328232E+00  0.7410791132229E-01 -0.4296508825965E-01
 0.2306431584186E-01  0.8631279825275E-01  0.5140724349408E-01 -0.5658891205462E-01
 0.5277836350557E-01  0.4537982705742E-01  0.4613434944759E-01 -0.6138106225186E-01
 0.3786470850187E+00 -0.3154972153473E+01 -0.1304872778864E+01 -0.5406179011395E+00
 0.3821809376265E+00 -0.3041016865310E+01 -0.1249652882841E+01 -0.5593988370302E+00
 0.3486714096671E+00 -0.2942635126638E+01 -0.1219162943884E+01 -0.5798062896991E+00
 0.3074041227655E+00 -0.2828364940851E+01 -0.1184851581495E+01 -0.5984670507131E+00
 0.2581324322454E+00 -0.2698284724659E+01 -0.1146871574525E+01 -0.6140242459845E+00
 0.2032263512685E+00 -0.2552022091095E+01 -0.1103933994919E+01 -0.6253791903024E+00
 0.1444218248747E+00 -0.2390214989947E+01 -0.1055522784907E+01 -0.6313458124182E+00
 0.8372516109500E-01 -0.2213668387699E+01 -0.1001073313965E+01 -0.6306574172994E+00
 0.2332634128623E-01 -0.2023445942365E+01 -0.9400562101226E+00 -0.6219870145866E+00
-0.3435027412560E-01 -0.1820891258083E+01 -0.8719635179262E+00 -0.6039832825774E+00
-0.8663159038879E-01 -0.1607712885052E+01 -0.7963419014372E+00 -0.5753205377162E+00
-0.1305643182302E+00 -0.1386099905100E+01 -0.7128321831573E+00 -0.5347756974966E+00
-0.1628756291219E+00 -0.1158884883998E+01 -0.6212274395907E+00 -0.4813507011853E+00
-0.1799399054539E+00 -0.9297657844223E+00 -0.5215616729190E+00 -0.4144700157218E+00
-0.1777953258921E+00 -0.7035990521902E+00 -0.4142553566479E+00 -0.3342991871985E+00
-0.1523337499228E+00 -0.4867838109351E+00 -0.3003852528413E+00 -0.2422554281064E+00
-0.9986416572082E-01 -0.2876731688531E+00 -0.1821425467878E+00 -0.1418026180302E+00
-0.1886370597338E-01 -0.1171184807386E+00 -0.6391162759254E-01 -0.3965824101368E-01
 0.8681029868760E-01  0.1224539889163E-01  0.4655617774416E-01  0.5268911593845E-01
 0.1968487252245E+00  0.8545138802686E-01  0.1326810528916E+00  0.1172266367859E+00
 0.4068725420731E+00 -0.3187786945869E+01 -0.1307029766469E+01 -0.5391363469421E+00
 0.3856298527681E+00 -0.3126397304745E+01 -0.1288160699162E+01 -0.5610090604458E+00
 0.3581617012564E+00 -0.3036063854229E+01 -0.1258614008705E+01 -0.5829926599761E+00
 0.3165932537009E+00 -0.2936076692163E+01 -0.1231157212954E+01 -0.6056473946658E+00
 0.2673938801701E+00 -0.2820921608206E+01 -0.1200158029133E+01 -0.6262327510452E+00
 0.2118021286115E+00 -0.2690206655895E+01 -0.1164850124869E+01 -0.6433403151150E+00
 0.1516858179850E+00 -0.2543695221773E+01 -0.1124244416929E+01 -0.6556471635542E+00
 0.8890487114323E-01 -0.2381691660863E+01 -0.1077609788435E+01 -0.6618300236110E+00
 0.2557304499600E-01 -0.2204718407288E+01 -0.1024198317680E+01 -0.6605054442084E+00
-0.3595335740172E-01 -0.2013523298429E+01 -0.9632540257972E+00 -0.6502373071456E+00
-0.9303758097644E-01 -0.1809108505331E+01 -0.8940086582969E+00 -0.6295566192410E+00
-0.1427135048639E+00 -0.1592819955211E+01 -0.8157007241663E+00 -0.5969976321579E+00
-0.1815997877311E+00 -0.1366494231659E+01 -0.7276041872679E+00 -0.5511624641000E+00
-0.2057712531197E+00 -0.1132685343896E+01 -0.6290745990019E+00 -0.4908427169921E+00
-0.2105981077129E+00 -0.8950064810033E+00 -0.5196341553786E+00 -0.4152510570883E+00
-0.1905954447498E+00 -0.6586242707039E+00 -0.3991332652509E+00 -0.3244576491111E+00
-0.1395262869767E+00 -0.4310336704577E+00 -0.2681631793140E+00 -0.2202089526908E+00
-0.5103689333708E-01 -0.2230100833684E+00 -0.1288020787249E+00 -0.1074264921081E+00
 0.7742265256367E-01 -0.5108751956643E-01  0.1237751247731E-01  0.2897471322703E-02
 0.2396891027039E+00  0.6391999436715E-01  0.1426962752615E+00  0.8914334507317E-01
 0.4174366267303E+00 -0.3234133289064E+01 -0.1323847427939E+01 -0.5295847340973E+00
 0.3971491659246E+00 -0.3190027149542E+01 -0.1312652648971E+01 -0.5570518455632E+00
 0.3666351997020E+00 -0.3124006926008E+01 -0.1295964708077E+01 -0.5820849074337E+00
 0.3267325904524E+00 -0.3040190484441E+01 -0.1275325206940E+01 -0.6075172359872E+00
 0.2777925733543E+00 -0.2942104528568E+01 -0.1252226615774E+01 -0.6320598314653E+00
 0.2220695042074E+00 -0.2828878354444E+01 -0.1225200156504E+01 -0.6540782274628E+00
 0.1611158133830E+00 -0.2700273420708E+01 -0.1193404072416E+01 -0.6721443163380E+00
 0.9673774790252E-01 -0.2556178179888E+01 -0.1155937000101E+01 -0.6848763249020E+00
 0.3093081770061E-01 -0.2396713759193E+01 -0.1111917979681E+01 -0.6908810535450E+00
-0.3404106901791E-01 -0.2222149064316E+01 -0.1060409359978E+01 -0.6887263918861E+00
-0.9562136921853E-01 -0.2032894618042E+01 -0.1000402511475E+01 -0.6769351942508E+00
-0.1509060532939E+00 -0.1829524100106E+01 -0.9308021697371E+00 -0.6539842705207E+00
-0.1965464717685E+00 -0.1612844035581E+01 -0.8504135362972E+00 -0.6183097273008E+00
-0.2285782635172E+00 -0.1384029732510E+01 -0.7579257562106E+00 -0.5683330712894E+00
-0.2421369294276E+00 -0.1144861220547E+01 -0.6518891288348E+00 -0.5025452464607E+00
-0.2310357966307E+00 -0.8981307510703E+00 -0.5307082760734E+00 -0.4197312517566E+00
-0.1871472779901E+00 -0.6482790014699E+00 -0.3926503503503E+00 -0.3195071927988E+00
-0.9993267476335E-01 -0.4026365074722E+00 -0.2362075150516E+00 -0.2035492288705E+00
 0.4444865170197E-01 -0.1727720015555E+00 -0.6031197427821E-01 -0.7831356292809E-01
 0.2554914438008E+00  0.1767712237706E-01  0.1283892257780E+00  0.3829791589947E-01
 0.4267121302297E+00 -0.3279727748469E+01 -0.1340917337171E+01 -0.5156898443331E+00
 0.4059062499997E+00 -0.3250409306499E+01 -0.1336916433164E+01 -0.5467630900995E+00
 0.3761769144361E+00 -0.3202599624512E+01 -0.1328418670366E+01 -0.5752153150777E+00
 0.3367078392869E+00 -0.3138264713532E+01 -0.1316731727556E+01 -0.6033966962892E+00
 0.2886924027731E+00 -0.3058660438327E+01 -0.1301884973408E+01 -0.6310578639901E+00
 0.2332435460643E+00 -0.2964505670277E+01 -0.1283693195124E+01 -0.6570298490913E+00
 0.1719352150729E+00 -0.2855581077688E+01 -0.1261313552230E+01 -0.6799360645257E+00
 0.1063977202075E+00 -0.2731723413180E+01 -0.1233903072568E+01 -0.6984017220888E+00
 0.3850700941667E-01 -0.2592839717256E+01 -0.1200536369640E+01 -0.7110499888363E+00
-0.2959882143248E-01 -0.2438943250442E+01 -0.1160214770838E+01 -0.7164926921842E+00
-0.9547558711439E-01 -0.2270123011644E+01 -0.1111831338596E+01 -0.7133201116635E+00
-0.1563259146094E+00 -0.2086522361552E+01 -0.1054138687122E+01 -0.7000878351386E+00
-0.2089110425476E+00 -0.1888327609700E+01 -0.9857021640561E+00 -0.6752927765092E+00
-0.2493850496377E+00 -0.1675779960803E+01 -0.9048275526121E+00 -0.6373365761217E+00
-0.2729902073074E+00 -0.1449230711353E+01 -0.8094438297173E+00 -0.5844860839746E+00
-0.2734950022600E+00 -0.1209260599681E+01 -0.6968951311447E+00 -0.5148669294137E+00
-0.2422427226817E+00 -0.9569553034473E+00 -0.5636230708511E+00 -0.4265919262661E+00
-0.1663198874617E+00 -0.6942560539932E+00 -0.4044706914579E+00 -0.3182638130085E+00
-0.2588096584180E-01 -0.4250377747495E+00 -0.2119318075404E+00 -0.1904037340963E+00
 0.2143690174271E+00 -0.1543961351496E+00  0.2818725459895E-01 -0.4971376764895E-01
 0.4350480121207E+00 -0.3322577105044E+01 -0.1357138670232E+01 -0.4983236011875E+00
 0.4141747837844E+00 -0.3305827928215E+01 -0.1359076974435E+01 -0.5312131938623E+00
 0.3851524850017E+00 -0.3274283659730E+01 -0.1357891648678E+01 -0.5621160065975E+00
 0.3469278093927E+00 -0.3227987870504E+01 -0.1354098225288E+01 -0.5926116618690E+00
 0.2999865933863E+00 -0.3167490630250E+01 -0.1347726893908E+01 -0.6227455899688E+00
 0.2453354437982E+00 -0.3093070337261E+01 -0.1338435396533E+01 -0.6517451432147E+00
 0.1841732939929E+00 -0.3004771383072E+01 -0.1325681098505E+01 -0.6784585784667E+00
 0.1179649322205E+00 -0.2902431033966E+01 -0.1308699064501E+01 -0.7015968845944E+00
 0.4839465221730E-01 -0.2785911351206E+01 -0.1286632845261E+01 -0.7198291879542E+00
-0.2257907256384E-01 -0.2655139005002E+01 -0.1258527493264E+01 -0.7318108609249E+00
-0.9269453084232E-01 -0.2510116539127E+01 -0.1223321199783E+01 -0.7361940810036E+00
-0.1593439612408E+00 -0.2350902597045E+01 -0.1179815879402E+01 -0.7316258923876E+00
-0.2195064414078E+00 -0.2177582845203E+01 -0.1126631961849E+01 -0.7167287079074E+00
-0.2696213482495E+00 -0.1990236585180E+01 -0.1062133226018E+01 -0.6900525771276E+00
-0.3053382731543E+00 -0.1788902723908E+01 -0.9842932661228E+00 -0.6499871349573E+00
-0.3210314472597E+00 -0.1573558164287E+01 -0.8904571151686E+00 -0.5946244746665E+00
-0.3088005248073E+00 -0.1344079589088E+01 -0.7768536515604E+00 -0.5215797101022E+00
-0.2566438803325E+00 -0.1100320720612E+01 -0.6377733608264E+00 -0.4278311899412E+00
-0.1443723050294E+00 -0.8418136067451E+00 -0.4635073773584E+00 -0.3097231886513E+00
 0.6587830385688E-01 -0.5668154991286E+00 -0.2354404811806E+00 -0.1629685034226E+00
 0.4426425817782E+00 -0.3361345704577E+01 -0.1371790464236E+01 -0.4780139514094E+00
 0.4220955007764E+00 -0.3355643448010E+01 -0.1378767531703E+01 -0.5111667765636E+00
 0.3940848269455E+00 -0.3338249376105E+01 -0.1383757334595E+01 -0.5433049616789E+00
 0.3573573714374E+00 -0.3308394066390E+01 -0.1386987243110E+01 -0.5752574711026E+00
 0.3120045682246E+00 -0.3265919003419E+01 -0.1388339781020E+01 -0.6070754811651E+00
 0.2586560585739E+00 -0.3210801334709E+01 -0.1387508276264E+01 -0.6381973286299E+00
 0.1982614532284E+00 -0.3142941515066E+01 -0.1383999625553E+01 -0.6676803820846E+00
 0.1320077755292E+00 -0.3062185646234E+01 -0.1377183595738E+01 -0.6943721487993E+00
 0.6133556874347E-01 -0.2968368727434E+01 -0.1366305581119E+01 -0.7170142566303E+00
-0.1205330408532E-01 -0.2861386943726E+01 -0.1350516913046E+01 -0.7342997374496E+00
-0.8616784621980E-01 -0.2741225393521E+01 -0.1328874819308E+01 -0.7449035246301E+00
-0.1587015482693E+00 -0.2607967667485E+01 -0.1300334528107E+01 -0.7474972149001E+00
-0.2269953916908E+00 -0.2461790938028E+01 -0.1263729571762E+01 -0.7407451988100E+00
-0.2879740278662E+00 -0.2302954953514E+01 -0.1217736618160E+01 -0.7232705019149E+00
-0.3380198356346E+00 -0.2131793383447E+01 -0.1160812210024E+01 -0.6935688005059E+00
-0.3726990431491E+00 -0.1948710906143E+01 -0.1091062673400E+01 -0.6498352714666E+00
-0.3862008481706E+00 -0.1754225563849E+01 -0.1006000411098E+01 -0.5896487835372E+00
-0.3699998991571E+00 -0.1548966132600E+01 -0.9019140326383E+00 -0.5094267001389E+00
-0.3106472348499E+00 -0.1334171244620E+01 -0.7730646833903E+00 -0.4035695874952E+00
-0.1857087627297E+00 -0.1112520320536E+01 -0.6101676675875E+00 -0.2626087617569E+00
 0.4492474393840E+00 -0.3395389589385E+01 -0.1384686806988E+01 -0.4551524838943E+00
 0.4295047586568E+00 -0.3399449296810E+01 -0.1395873929391E+01 -0.4873590462326E+00
 0.4027507335191E+00 -0.3394434821436E+01 -0.1406091517755E+01 -0.5195543780985E+00
 0.3677822121231E+00 -0.3379211510356E+01 -0.1415371766580E+01 -0.5519923154178E+00
 0.3243737690503E+00 -0.3353238657354E+01 -0.1423566493892E+01 -0.5846132336371E+00
 0.2728407529865E+00 -0.3316197255439E+01 -0.1430377552525E+01 -0.6169538224752E+00
 0.2138257808391E+00 -0.3267833377759E+01 -0.1435383566912E+01 -0.6482273480815E+00
 0.1482314126453E+00 -0.3207902710664E+01 -0.1438045506421E+01 -0.6774208518191E+00
 0.7720140667841E-01 -0.3136187718065E+01 -0.1437723562705E+01 -0.7033726596337E+00
 0.2130749899653E-02 -0.3052528673467E+01 -0.1433687020440E+01 -0.7248277750137E+00
-0.7532242284603E-01 -0.2956859029912E+01 -0.1425125279182E+01 -0.7404759021264E+00
-0.1532237353826E+00 -0.2849229020580E+01 -0.1411152791723E+01 -0.7489756249401E+00
-0.2293547623974E+00 -0.2729821727266E+01 -0.1390812946614E+01 -0.7489632269469E+00
-0.3012102149536E+00 -0.2598965518363E+01 -0.1363082591202E+01 -0.7390363305427E+00
-0.3659951781107E+00 -0.2457149959508E+01 -0.1326878211315E+01 -0.7176912575657E+00
-0.4206137979930E+00 -0.2305064665231E+01 -0.1281068874466E+01 -0.6831738271099E+00
-0.4615843356968E+00 -0.2143669958596E+01 -0.1224469515212E+01 -0.6331678577632E+00
-0.4848690459291E+00 -0.1974441172570E+01 -0.1155875799763E+01 -0.5641810825108E+00
-0.4847755245089E+00 -0.1799436078875E+01 -0.1073579450867E+01 -0.4703780297491E+00
-0.4551919249658E+00 -0.1624071579347E+01 -0.9772538445484E+00 -0.3420465710014E+00
 0.4546688266397E+00 -0.3424159509167E+01 -0.1395660617248E+01 -0.4300222181932E+00
 0.4361461522236E+00 -0.3436859924283E+01 -0.1410335469291E+01 -0.4603787049040E+00
 0.4109254079781E+00 -0.3442625810942E+01 -0.1424899185779E+01 -0.4916012474454E+00
 0.3779436972412E+00 -0.3440264184344E+01 -0.1439290625288E+01 -0.5235624252639E+00
 0.3367960109348E+00 -0.3429045655377E+01 -0.1453357329202E+01 -0.5560798139767E+00
 0.2875271199109E+00 -0.3408472602460E+01 -0.1466844373078E+01 -0.5887314631556E+00
 0.2304942447807E+00 -0.3378152377064E+01 -0.1479399318421E+01 -0.6208469343471E+00
 0.1663021789399E+00 -0.3337745781494E+01 -0.1490578489420E+01 -0.6515455581863E+00
 0.9578477124380E-01 -0.3286957104151E+01 -0.1499850992662E+01 -0.6797814475086E+00
 0.2000475853160E-01 -0.3225550325327E+01 -0.1506606412572E+01 -0.7043836995969E+00
-0.5973879763553E-01 -0.3153373259322E+01 -0.1510162662939E+01 -0.7240894745299E+00
-0.1419067102541E+00 -0.3070383738731E+01 -0.1509776507193E+01 -0.7375699169964E+00
-0.2247269074683E+00 -0.2976673796880E+01 -0.1504658327227E+01 -0.7434474261848E+00
-0.3062237596540E+00 -0.2872493463614E+01 -0.1493997091147E+01 -0.7402987317757E+00
-0.3842873016713E+00 -0.2758280074814E+01 -0.1477006663202E+01 -0.7266306517383E+00
-0.4568088868218E+00 -0.2634702518706E+01 -0.1453010356913E+01 -0.7008016799150E+00
-0.5219545776302E+00 -0.2502762964939E+01 -0.1421617241402E+01 -0.6608350125159E+00
-0.5785893459166E+00 -0.2363949630389E+01 -0.1382993315356E+01 -0.6040128308179E+00
-0.6273226512705E+00 -0.2220863670376E+01 -0.1338647567779E+01 -0.5260149499914E+00
-0.6677726286359E+00 -0.2075241855452E+01 -0.1289216804252E+01 -0.4192760573618E+00
 0.4587404119333E+00 -0.3447228754526E+01 -0.1404589517456E+01 -0.4028511799558E+00
 0.4417726312919E+00 -0.3467525518811E+01 -0.1422103853527E+01 -0.4307071309391E+00
 0.4183391160057E+00 -0.3482622852498E+01 -0.1440213352498E+01 -0.4601076250454E+00
 0.3875553751920E+00 -0.3491426103606E+01 -0.1458819238655E+01 -0.4907134001818E+00
 0.3489303572033E+00 -0.3493163854213E+01 -0.1477789739846E+01 -0.5222516343428E+00
 0.3023093591910E+00 -0.3487255152208E+01 -0.1496924518921E+01 -0.5543233091722E+00
 0.2477997466194E+00 -0.3473225948679E+01 -0.1515950311123E+01 -0.5863504560274E+00
 0.1857285791127E+00 -0.3450665223270E+01 -0.1534520218862E+01 -0.6175761373182E+00
 0.1166261032766E+00 -0.3419210824459E+01 -0.1552214815019E+01 -0.6470823598464E+00
 0.4122505027812E-01 -0.3378553352649E+01 -0.1568544298136E+01 -0.6738128371133E+00
-0.3953446627921E-01 -0.3328450809788E+01 -0.1582953075737E+01 -0.6965959117097E+00
-0.1245017950153E+00 -0.3268747511740E+01 -0.1594827170130E+01 -0.7141661772596E+00
-0.2123232040697E+00 -0.3199394247475E+01 -0.1603507198159E+01 -0.7251841326318E+00
-0.3014720573497E+00 -0.3120468331524E+01 -0.1608311978691E+01 -0.7282523760657E+00
-0.3903218986903E+00 -0.3032193965407E+01 -0.1608582452046E+01 -0.7219245562763E+00
-0.4773034972572E+00 -0.2934969082615E+01 -0.1603768108472E+01 -0.7046986073580E+00
-0.5612125432521E+00 -0.2829401674308E+01 -0.1593588678211E+01 -0.6749768535531E+00
-0.6418768079645E+00 -0.2716431542628E+01 -0.1578404920775E+01 -0.6309521652419E+00
-0.7212828255318E+00 -0.2597424572547E+01 -0.1559792473141E+01 -0.5703297659182E+00
-0.8072365839454E+00 -0.2475880679625E+01 -0.1543065109964E+01 -0.4892741666097E+00
 0.4613320603004E+00 -0.3464265612151E+01 -0.1411378765790E+01 -0.3738368043767E+00
 0.4461320770097E+00 -0.3491179760096E+01 -0.1431172407421E+01 -0.3987376352738E+00
 0.4246692669547E+00 -0.3514298488664E+01 -0.1452125730520E+01 -0.4256457601811E+00
 0.3962282778361E+00 -0.3532701591639E+01 -0.1474142453749E+01 -0.4541378663112E+00
 0.3602975079207E+00 -0.3545662596384E+01 -0.1497121587780E+01 -0.4838966839273E+00
 0.3165869570935E+00 -0.3552591981873E+01 -0.1520922357789E+01 -0.5145474536538E+00
 0.2650046568012E+00 -0.3552987343592E+01 -0.1545351858872E+01 -0.5455915906720E+00
 0.2056359600499E+00 -0.3546403358452E+01 -0.1570160673266E+01 -0.5763859854009E+00
 0.1387352012164E+00 -0.3532438479861E+01 -0.1595040536917E+01 -0.6061426433026E+00
 0.6472695883537E-01 -0.3510734192207E+01 -0.1619623395577E+01 -0.6339372992553E+00
-0.1578743430435E-01 -0.3480982059191E+01 -0.1643481657775E+01 -0.6587221739690E+00
-0.1020231908027E+00 -0.3442934839025E+01 -0.1666130269793E+01 -0.6793411825359E+00
-0.1930107623429E+00 -0.3396418315123E+01 -0.1687031662130E+01 -0.6945475518386E+00
-0.2876078349370E+00 -0.3341340951527E+01 -0.1705605925312E+01 -0.7030248859436E+00
-0.3845378852092E+00 -0.3277698464221E+01 -0.1721251079866E+01 -0.7034138122741E+00
-0.4824772444378E+00 -0.3205567676182E+01 -0.1733381108295E+01 -0.6943482835780E+00
-0.5802415241895E+00 -0.3125088081704E+01 -0.1741504910353E+01 -0.6745093793007E+00
-0.6771436233346E+00 -0.3036400772054E+01 -0.1745365861406E+01 -0.6427154884701E+00
-0.7738859237687E+00 -0.2939662260079E+01 -0.1745367641982E+01 -0.5980762229621E+00
-0.8751658141444E+00 -0.2835386559961E+01 -0.1743959611406E+01 -0.5403762785342E+00
 0.4623459434934E+00 -0.3475024205948E+01 -0.1415958779762E+01 -0.3431572721265E+00
 0.4490027832164E+00 -0.3507618349262E+01 -0.1437549312395E+01 -0.3647875948585E+00
 0.4295877118245E+00 -0.3537570667516E+01 -0.1460751985470E+01 -0.3886854769555E+00
 0.4035353009332E+00 -0.3564149118426E+01 -0.1485488490454E+01 -0.4144311081030E+00
 0.3703474706835E+00 -0.3586718819490E+01 -0.1511694530105E+01 -0.4417059907675E+00
 0.3296507696132E+00 -0.3604728393264E+01 -0.1539286479211E+01 -0.4701690268282E+00
 0.2812036068436E+00 -0.3617687114666E+01 -0.1568147244699E+01 -0.4993936898575E+00
 0.2248936378091E+00 -0.3625147360253E+01 -0.1598119245495E+01 -0.5288392087433E+00
 0.1607376987621E+00 -0.3626695681769E+01 -0.1629000247882E+01 -0.5578398307078E+00
 0.8888688001645E-01 -0.3621951338971E+01 -0.1660540291497E+01 -0.5856037897414E+00
 0.9635721695506E-02 -0.3610570237378E+01 -0.1692439218078E+01 -0.6112179846181E+00
-0.7656635082434E-01 -0.3592251825969E+01 -0.1724344538719E+01 -0.6336568843196E+00
-0.1691036357212E+00 -0.3566746461523E+01 -0.1755849541251E+01 -0.6517958754332E+00
-0.2671854888541E+00 -0.3533860364204E+01 -0.1786491546406E+01 -0.6644308641400E+00
-0.3698435651842E+00 -0.3493453985075E+01 -0.1815749844017E+01 -0.6703081492202E+00
-0.4759400378110E+00 -0.3445427677384E+01 -0.1843042821467E+01 -0.6681723426707E+00
-0.5841887480744E+00 -0.3389678949081E+01 -0.1867717812926E+01 -0.6568478036998E+00
-0.6932016517550E+00 -0.3326013361236E+01 -0.1889031051315E+01 -0.6353848002013E+00
-0.8015261843264E+00 -0.3253914326955E+01 -0.1906057035468E+01 -0.6033523205912E+00
-0.9071814062513E+00 -0.3171672091976E+01 -0.1917061139304E+01 -0.5615365619589E+00
 0.4617043454276E+00 -0.3479285356777E+01 -0.1418263071737E+01 -0.3109763910889E+00
 0.4501438160402E+00 -0.3516660816058E+01 -0.1441262986353E+01 -0.3291055031906E+00
 0.4327068245630E+00 -0.3552369977170E+01 -0.1466241678006E+01 -0.3495941343290E+00
 0.4089386652736E+00 -0.3585857831273E+01 -0.1493152004232E+01 -0.3720790880518E+00
 0.3783669459814E+00 -0.3616597589690E+01 -0.1521968398683E+01 -0.3962734183771E+00
 0.3405688856726E+00 -0.3644101826632E+01 -0.1552660478313E+01 -0.4218807226886E+00
 0.2951945440583E+00 -0.3667916852575E+01 -0.1585179480982E+01 -0.4485430377092E+00
 0.2419756277255E+00 -0.3687615189465E+01 -0.1619450589910E+01 -0.4758113148847E+00
 0.1807319684586E+00 -0.3702791159728E+01 -0.1655367815698E+01 -0.5031297774903E+00
 0.1113799453964E+00 -0.3713060654973E+01 -0.1692789929208E+01 -0.5298287803823E+00
 0.3394403479611E-01 -0.3718064502814E+01 -0.1731536615577E+01 -0.5551232725261E+00
-0.5142841157027E-01 -0.3717474280446E+01 -0.1771384260755E+01 -0.5781156470793E+00
-0.1444490517561E+00 -0.3710999089855E+01 -0.1812060621961E+01 -0.5978030198611E+00
-0.2446662473488E+00 -0.3698391422712E+01 -0.1853237100228E+01 -0.6130902079149E+00
-0.3514361510828E+00 -0.3679449603939E+01 -0.1894516300055E+01 -0.6228113012193E+00
-0.4638807382141E+00 -0.3654012222539E+01 -0.1935409686645E+01 -0.6257652942331E+00
-0.5808194253272E+00 -0.3621937577920E+01 -0.1975295786516E+01 -0.6207753438302E+00
-0.7006327082449E+00 -0.3583046020723E+01 -0.2013328997508E+01 -0.6067888420205E+00
-0.8209338314656E+00 -0.3536969730248E+01 -0.2048214668810E+01 -0.5830473216516E+00
-0.9376569349889E+00 -0.3482775046458E+01 -0.2077603026010E+01 -0.5493324057384E+00
 0.4593610239322E+00 -0.3476843199487E+01 -0.1418216618913E+01 -0.2774781451179E+00
 0.4493972637522E+00 -0.3518069835220E+01 -0.1442276104932E+01 -0.2919159866266E+00
 0.4337658719523E+00 -0.3558472395961E+01 -0.1468612062559E+01 -0.3086770313901E+00
 0.4120823889373E+00 -0.3597649571136E+01 -0.1497216571836E+01 -0.3274791830417E+00
 0.3838986971245E+00 -0.3635183755283E+01 -0.1528103973458E+01 -0.3480880810250E+00
 0.3487628501314E+00 -0.3670663151109E+01 -0.1561293137500E+01 -0.3702616976636E+00
 0.3062470470367E+00 -0.3703686034220E+01 -0.1596796319926E+01 -0.3937103402426E+00
 0.2559619223626E+00 -0.3733859780070E+01 -0.1634611988976E+01 -0.4180699552290E+00
 0.1975666105979E+00 -0.3760799945524E+01 -0.1674719663167E+01 -0.4428848757474E+00
 0.1307789933744E+00 -0.3784131348075E+01 -0.1717075602354E+01 -0.4675969803385E+00
 0.5538811065673E-01 -0.3803491563897E+01 -0.1761608618555E+01 -0.4915393558823E+00
-0.2873019920126E-01 -0.3818536572221E+01 -0.1808215377982E+01 -0.5139334664795E+00
-0.1215933449048E+00 -0.3828947968520E+01 -0.1856754412600E+01 -0.5338895039114E+00
-0.2230857879154E+00 -0.3834441017361E+01 -0.1907037593643E+01 -0.5504101359697E+00
-0.3329227075682E+00 -0.3834772616542E+01 -0.1958816797364E+01 -0.5623983990680E+00
-0.4505963721896E+00 -0.3829748338429E+01 -0.2011762008888E+01 -0.5686710375772E+00
-0.5752913155696E+00 -0.3819227033829E+01 -0.2065423618979E+01 -0.5679789265578E+00
-0.7057443330671E+00 -0.3803123325624E+01 -0.2119167794210E+01 -0.5590342004056E+00
-0.8400079616012E+00 -0.3781415296318E+01 -0.2172068925713E+01 -0.5405306694365E+00
-0.9752119913897E+00 -0.3754303086194E+01 -0.2222872080826E+01 -0.5111004912191E+00
 0.4552982864180E+00 -0.3467519763526E+01 -0.1415744090650E+01 -0.2428857002806E+00
 0.4466928795440E+00 -0.3511596930078E+01 -0.1440504900097E+01 -0.2534669602338E+00
 0.4326432887665E+00 -0.3555573707656E+01 -0.1467777293155E+01 -0.2662398979310E+00
 0.4128077623237E+00 -0.3599175439596E+01 -0.1497592804519E+01 -0.2810089323237E+00
 0.3867571644603E+00 -0.3642086405339E+01 -0.1530004739332E+01 -0.2976032384834E+00
 0.3540223435571E+00 -0.3683973152688E+01 -0.1565076876322E+01 -0.3158421150345E+00
 0.3141201316598E+00 -0.3724493214980E+01 -0.1602875345095E+01 -0.3355056394396E+00
 0.2665684956446E+00 -0.3763297715857E+01 -0.1643462729331E+01 -0.3563120792796E+00
 0.2108973202391E+00 -0.3800032467987E+01 -0.1686893515163E+01 -0.3779009243179E+00
 0.1466585069206E+00 -0.3834339736704E+01 -0.1733210173602E+01 -0.3998200872412E+00
 0.7343740441138E-01 -0.3865861577325E+01 -0.1782439356748E+01 -0.4215161374906E+00
-0.9133218246774E-02 -0.3894245033931E+01 -0.1834587773871E+01 -0.4423267930781E+00
-0.1013556302032E+00 -0.3919149219373E+01 -0.1889637274508E+01 -0.4614751099005E+00
-0.2034446248777E+00 -0.3940254235989E+01 -0.1947538459667E+01 -0.4780648053188E+00
-0.3154976916640E+00 -0.3957272090245E+01 -0.2008201792404E+01 -0.4910758656465E+00
-0.4374537527258E+00 -0.3969960127806E+01 -0.2071484518596E+01 -0.4993589014876E+00
-0.5690352259107E+00 -0.3978139488448E+01 -0.2137172110328E+01 -0.5016253646572E+00
-0.7096705470209E+00 -0.3981725534221E+01 -0.2204956152591E+01 -0.4964277786584E+00
-0.8584218510346E+00 -0.3980796575150E+01 -0.2274432654538E+01 -0.4821174604463E+00
-0.1013945345742E+01 -0.3975701888562E+01 -0.2345134194174E+01 -0.4567644320759E+00
 0.4495118939623E+00 -0.3451175389176E+01 -0.1410781839172E+01 -0.2074528404258E+00
 0.4419957852429E+00 -0.3497037462197E+01 -0.1435869584527E+01 -0.2140377480391E+00
 0.4292719878956E+00 -0.3543404973730E+01 -0.1463642499630E+01 -0.2226123632051E+00
 0.4110258864939E+00 -0.3590105103142E+01 -0.1494167228035E+01 -0.2330631082838E+00
 0.3868437228223E+00 -0.3636912011124E+01 -0.1527532091627E+01 -0.2452861621068E+00
 0.3562476700816E+00 -0.3683567265395E+01 -0.1563840205831E+01 -0.2591659105514E+00
 0.3187170286827E+00 -0.3729789269924E+01 -0.1603203949317E+01 -0.2745539241838E+00
 0.2737012879965E+00 -0.3775277103873E+01 -0.1645740629288E+01 -0.2912506233798E+00
 0.2206293565665E+00 -0.3819712224777E+01 -0.1691568943768E+01 -0.3089896803536E+00
 0.1589177432304E+00 -0.3862760031641E+01 -0.1740805871138E+01 -0.3274246132030E+00
 0.8797938887865E-01 -0.3904072357854E+01 -0.1793563690869E+01 -0.3461169809565E+00
 0.7234140012912E-02 -0.3943291454762E+01 -0.1849946933240E+01 -0.3645256661707E+00
-0.8387857818272E-01 -0.3980055779792E+01 -0.1910049143403E+01 -0.3819967292468E+00
-0.1858845900464E+00 -0.4014007848253E+01 -0.1973949440994E+01 -0.3977531082919E+00
-0.2992570808740E+00 -0.4044804481373E+01 -0.2041708929078E+01 -0.4108828972470E+00
-0.4243959180702E+00 -0.4072130201605E+01 -0.2113367270887E+01 -0.4203239375132E+00
-0.5616038024370E+00 -0.4095714737427E+01 -0.2188939708184E+01 -0.4248409908743E+00
-0.7110625860223E+00 -0.4115358734167E+01 -0.2268418014736E+01 -0.4229909655923E+00
-0.8728174810411E+00 -0.4130969949007E+01 -0.2351780086158E+01 -0.4130747768972E+00
-0.1046793186709E+01 -0.4142614479129E+01 -0.2439021596758E+01 -0.3930799447205E+00
 0.4420032850840E+00 -0.3427717630078E+01 -0.1403285738588E+01 -0.1714559927180E+00
 0.4352863469626E+00 -0.3474248793924E+01 -0.1428312346449E+01 -0.1739351859782E+00
 0.4236073678075E+00 -0.3521770216847E+01 -0.1456136535355E+01 -0.1781504305697E+00
 0.4066728830547E+00 -0.3570188915171E+01 -0.1486852531324E+01 -0.1840615679631E+00
 0.3840842726488E+00 -0.3619354894857E+01 -0.1520577188581E+01 -0.1916303813127E+00
 0.3553631963065E+00 -0.3669077385044E+01 -0.1557445664756E+01 -0.2008070934746E+00
 0.3199673405508E+00 -0.3719133057049E+01 -0.1597607882702E+01 -0.2115156246932E+00
 0.2772999574254E+00 -0.3769269477066E+01 -0.1641225670068E+01 -0.2236392660358E+00
 0.2267160896117E+00 -0.3819206273647E+01 -0.1688470382214E+01 -0.2370071325010E+00
 0.1675275635816E+00 -0.3868635659776E+01 -0.1739520800799E+01 -0.2513812686357E+00
 0.9900811228159E-01 -0.3917223341900E+01 -0.1794561153369E+01 -0.2664441548984E+00
 0.2039939282245E-01 -0.3964610460177E+01 -0.1853779196955E+01 -0.2817863667479E+00
-0.6908190131908E-01 -0.4010416984274E+01 -0.1917364471366E+01 -0.2968941331395E+00
-0.1702362741721E+00 -0.4054246870335E+01 -0.1985507072882E+01 -0.3111364259631E+00
-0.2838743187848E+00 -0.4095695257141E+01 -0.2058397695464E+01 -0.3237508831546E+00
-0.4108125309422E+00 -0.4134357805671E+01 -0.2136230052790E+01 -0.3338272014425E+00
-0.5518756594030E+00 -0.4169842336553E+01 -0.2219207452470E+01 -0.3402855528451E+00
-0.7079036064550E+00 -0.4201777917626E+01 -0.2307550310465E+01 -0.3418461347012E+00
-0.8797566705821E+00 -0.4229818522919E+01 -0.2401500334855E+01 -0.3369879389545E+00
-0.1068318724709E+01 -0.4253645997753E+01 -0.2501323413213E+01 -0.3239061889288E+00
 0.4327782099556E+00 -0.3397106102512E+01 -0.1393234105968E+01 -0.1351885319015E+00
 0.4265538696155E+00 -0.3443157161035E+01 -0.1417803543371E+01 -0.1334880187180E+00
 0.4156180433645E+00 -0.3490557932404E+01 -0.1445221744183E+01 -0.1332331230676E+00
 0.3996986076858E+00 -0.3539276081629E+01 -0.1475601409011E+01 -0.1344477864806E+00
 0.3784153362042E+00 -0.3589222684237E+01 -0.1509079449748E+01 -0.1371552088473E+00
 0.3512986082608E+00 -0.3640264776601E+01 -0.1545814095199E+01 -0.1413697043471E+00
 0.3178003112829E+00 -0.3692231678855E+01 -0.1585982738736E+01 -0.1470869124656E+00
 0.2772994900573E+00 -0.3744917221054E+01 -0.1629780329435E+01 -0.1542732845400E+00
 0.2291049070707E+00 -0.3798079647845E+01 -0.1677418123910E+01 -0.1628551353946E+00
 0.1724561478618E+00 -0.3851440501152E+01 -0.1729122641661E+01 -0.1727072570395E+00
 0.1065244311487E+00 -0.3904683377450E+01 -0.1785134700234E+01 -0.1836410055528E+00
 0.3041383569882E-01 -0.3957453186268E+01 -0.1845708490086E+01 -0.1953918031438E+00
-0.5683683365873E-01 -0.4009356356847E+01 -0.1911110794690E+01 -0.2076060907544E+00
-0.1562519891125E+00 -0.4059962320128E+01 -0.1981620720317E+01 -0.2198278839887E+00
-0.2689184484409E+00 -0.4108806464101E+01 -0.2057530703676E+01 -0.2314851889841E+00
-0.3959889491962E+00 -0.4155394695788E+01 -0.2139150307717E+01 -0.2418765480034E+00
-0.5386945822010E+00 -0.4199208899232E+01 -0.2226814630626E+01 -0.2501576578629E+00
-0.6983756722688E+00 -0.4239714304774E+01 -0.2320902283324E+01 -0.2553264094552E+00
-0.8765136364821E+00 -0.4276347373898E+01 -0.2421844668736E+01 -0.2561972133788E+00
-0.1074724147575E+01 -0.4308472995599E+01 -0.2530102650875E+01 -0.2513555513503E+00
 0.4218470564568E+00 -0.3359356163740E+01 -0.1380629276921E+01 -0.9895627617849E-01
 0.4157953000165E+00 -0.3403761412277E+01 -0.1404344069200E+01 -0.9304140020486E-01
 0.4052837153094E+00 -0.3449746532353E+01 -0.1430897520381E+01 -0.8825773730778E-01
 0.3900651281487E+00 -0.3497322512019E+01 -0.1460410966715E+01 -0.8468493615401E-01
 0.3697835521861E+00 -0.3546446544328E+01 -0.1493031602520E+01 -0.8240210903677E-01
 0.3439887403821E+00 -0.3597032064064E+01 -0.1528930358253E+01 -0.8148399610725E-01
 0.3121433617304E+00 -0.3648953316637E+01 -0.1568300674828E+01 -0.8199554213536E-01
 0.2736251166201E+00 -0.3702046148838E+01 -0.1611357881055E+01 -0.8398522975617E-01
 0.2277256075381E+00 -0.3756106414907E+01 -0.1658338975257E+01 -0.8747729624473E-01
 0.1736473829234E+00 -0.3810886991809E+01 -0.1709502611840E+01 -0.9246281842730E-01
 0.1105002207734E+00 -0.3866094144515E+01 -0.1765129139681E+01 -0.9888959930517E-01
 0.3729747064572E-01 -0.3921383792466E+01 -0.1825520566626E+01 -0.1066508445555E+00
-0.4704697585234E-01 -0.3976358110984E+01 -0.1891000386017E+01 -0.1155727811030E+00
-0.1437208549148E+00 -0.4030562821532E+01 -0.1961913322954E+01 -0.1254016650410E+00
-0.2540152093533E+00 -0.4083485477334E+01 -0.2038625317572E+01 -0.1357910903692E+00
-0.3793269952710E+00 -0.4134554963925E+01 -0.2121524515441E+01 -0.1462911981304E+00
-0.5211669865806E+00 -0.4183143064107E+01 -0.2211025718215E+01 -0.1563422731212E+00
-0.6811811998147E+00 -0.4228568138797E+01 -0.2307582183295E+01 -0.1652760538806E+00
-0.8612357394713E+00 -0.4270125335585E+01 -0.2411739699159E+01 -0.1723259829995E+00
-0.1063495959324E+01 -0.4307047254877E+01 -0.2524155304272E+01 -0.1766094411067E+00
 0.4092254989866E+00 -0.3314542009863E+01 -0.1365498756648E+01 -0.6307334967915E-01
 0.4030154676798E+00 -0.3356136363862E+01 -0.1387966817685E+01 -0.5295137312011E-01
 0.3925954362487E+00 -0.3399408856738E+01 -0.1413202304046E+01 -0.4363440072958E-01
 0.3777479955042E+00 -0.3444397054410E+01 -0.1441325054030E+01 -0.3525096983321E-01
 0.3581485380342E+00 -0.3491089065577E+01 -0.1472482044210E+01 -0.2793015673679E-01
 0.3333778201958E+00 -0.3539432218175E+01 -0.1506845563228E+01 -0.2180202365767E-01
 0.3029267487619E+00 -0.3589336324111E+01 -0.1544612496496E+01 -0.1699651600728E-01
 0.2661956920060E+00 -0.3640673376095E+01 -0.1586004507499E+01 -0.1364088216484E-01
 0.2224901670439E+00 -0.3693274672259E+01 -0.1631268713314E+01 -0.1185568205633E-01
 0.1710141193351E+00 -0.3746926178284E+01 -0.1680678663443E+01 -0.1174932078775E-01
 0.1108617947326E+00 -0.3801362696433E+01 -0.1734535419400E+01 -0.1341097722598E-01
 0.4100912546834E-01 -0.3856261276507E+01 -0.1793168506440E+01 -0.1690181052370E-01
-0.3969439761041E-01 -0.3911234231837E+01 -0.1856936451130E+01 -0.2224444928143E-01
-0.1325322550502E+00 -0.3965822107915E+01 -0.1926226545708E+01 -0.2941104671227E-01
-0.2389245249111E+00 -0.4019486975156E+01 -0.2001453399955E+01 -0.3831070439168E-01
-0.3604271743497E+00 -0.4071606515327E+01 -0.2083055828865E+01 -0.4877796510522E-01
-0.4987256155697E+00 -0.4121469434411E+01 -0.2171491667983E+01 -0.6056573094422E-01
-0.6556250391358E+00 -0.4168275137550E+01 -0.2267233077292E+01 -0.7334909747728E-01
-0.8330409133074E+00 -0.4211136349560E+01 -0.2370763307534E+01 -0.8675636824143E-01
-0.1033289002543E+01 -0.4249287199947E+01 -0.2482810808873E+01 -0.1004635370756E+00
 0.3949350061573E+00 -0.3262799511343E+01 -0.1347896314019E+01 -0.2785800679083E-01
 0.3882277847428E+00 -0.3300436892533E+01 -0.1368738277190E+01 -0.1357930586711E-01
 0.3775569561498E+00 -0.3339717575430E+01 -0.1392215487531E+01  0.2195410645482E-03
 0.3627387326798E+00 -0.3380688516851E+01 -0.1418436394963E+01  0.1336642368449E-01
 0.3434867699983E+00 -0.3423353219507E+01 -0.1447537227598E+01  0.2568828366120E-01
 0.3194247333199E+00 -0.3467679146567E+01 -0.1479679570473E+01  0.3700588114935E-01
 0.2900895600834E+00 -0.3513600724748E+01 -0.1515050243549E+01  0.4713045242985E-01
 0.2549291014761E+00 -0.3561018537875E+01 -0.1553862031166E+01  0.5586187088513E-01
 0.2132955644980E+00 -0.3609795785839E+01 -0.1596355099981E+01  0.6298821934190E-01
 0.1644358204656E+00 -0.3659752634696E+01 -0.1642798898522E+01  0.6828684729322E-01
 0.1074793978897E+00 -0.3710658883678E+01 -0.1693494354025E+01  0.7152711333048E-01
 0.4142499810483E-01 -0.3762225222195E+01 -0.1748776100887E+01  0.7247510593752E-01
-0.3487338794579E-01 -0.3814093278977E+01 -0.1809014328865E+01  0.7090067801899E-01
-0.1227191830494E+00 -0.3865824671256E+01 -0.1874615606769E+01  0.6658708411970E-01
-0.2235823058195E+00 -0.3916889320505E+01 -0.1946021659437E+01  0.5934331517172E-01
-0.3391008008944E+00 -0.3966653414283E+01 -0.2023704476001E+01  0.4901877143745E-01
-0.4710684037710E+00 -0.4014367162121E+01 -0.2108154710622E+01  0.3551903490436E-01
-0.6213953688980E+00 -0.4059151499651E+01 -0.2199857022638E+01  0.1881914652592E-01
-0.7920096520218E+00 -0.4099975673737E+01 -0.2299233097275E+01 -0.1033712904228E-02
-0.9845151696216E+00 -0.4135532135881E+01 -0.2406422227483E+01 -0.2399148026487E-01
 0.3790051145700E+00 -0.3204327700567E+01 -0.1327901612051E+01  0.6372112282197E-02
 0.3714596239630E+00 -0.3236899516736E+01 -0.1346756746188E+01  0.2471323708203E-01
 0.3601933612955E+00 -0.3270945602357E+01 -0.1368053549829E+01  0.4288381715411E-01
 0.3450562077125E+00 -0.3306506347387E+01 -0.1391881562117E+01  0.6067269040313E-01
 0.3258065890642E+00 -0.3343583558838E+01 -0.1418355172196E+01  0.7786837981943E-01
 0.3021221515087E+00 -0.3382149586473E+01 -0.1447612890761E+01  0.9424924051165E-01
 0.2736031307598E+00 -0.3422150617741E+01 -0.1479817315128E+01  0.1095755410340E+00
 0.2397696185449E+00 -0.3463506190047E+01 -0.1515156184763E+01  0.1235829207414E+00
 0.2000541505374E+00 -0.3506105789798E+01 -0.1553844266511E+01  0.1359770452848E+00
 0.1537903867277E+00 -0.3549803159787E+01 -0.1596125999289E+01  0.1464294538765E+00
 0.1001984054593E+00 -0.3594408619833E+01 -0.1642278796590E+01  0.1545747714219E+00
 0.3836706582995E-01 -0.3639679498585E+01 -0.1692616839102E+01  0.1600096712480E+00
-0.3276591611262E-01 -0.3685308633814E+01 -0.1747495034033E+01  0.1622942306302E+00
-0.1144350073326E+00 -0.3730910822281E+01 -0.1807312535334E+01  0.1609566242745E+00
-0.2080669142273E+00 -0.3776007142965E+01 -0.1872514802131E+01  0.1555024444144E+00
-0.3152958236714E+00 -0.3820007060758E+01 -0.1943592350752E+01  0.1454303581943E+00
-0.4379675302192E+00 -0.3862188586491E+01 -0.2021073369728E+01  0.1302564272106E+00
-0.5781172312447E+00 -0.3901673616734E+01 -0.2105501693210E+01  0.1095512758079E+00
-0.7378995618414E+00 -0.3937400790886E+01 -0.2197391160208E+01  0.8299843592371E-01
-0.9192152862692E+00 -0.3967941189220E+01 -0.2296963537654E+01  0.5053543328135E-01
 0.3614794957045E+00 -0.3139388268367E+01 -0.1305617119840E+01  0.3930222791027E-01
 0.3527714522854E+00 -0.3165831109030E+01 -0.1322138035317E+01  0.6156291884421E-01
 0.3405762131681E+00 -0.3193450025607E+01 -0.1340850688445E+01  0.8393016496462E-01
 0.3247809141785E+00 -0.3222258418723E+01 -0.1361814423682E+01  0.1061568316562E+00
 0.3051933535947E+00 -0.3252237938740E+01 -0.1385110951505E+01  0.1279978393211E+00
 0.2815547283093E+00 -0.3283348633964E+01 -0.1410843132079E+01  0.1491961581519E+00
 0.2535444048439E+00 -0.3315533479766E+01 -0.1439134861563E+01  0.1694702144324E+00
 0.2207784782229E+00 -0.3348718791799E+01 -0.1470131943652E+01  0.1885025140427E+00
 0.1828032277094E+00 -0.3382811759645E+01 -0.1504004006195E+01  0.2059291819760E+00
 0.1390841038423E+00 -0.3417695771375E+01 -0.1540947479832E+01  0.2213301975920E+00
 0.8899039612534E-01 -0.3453223818465E+01 -0.1581189704489E+01  0.2342202734631E+00
 0.3177541698249E-01 -0.3489209948360E+01 -0.1624994225626E+01  0.2440405986725E+00
-0.3344810658525E-01 -0.3525418468673E+01 -0.1672667286129E+01  0.2501520709838E+00
-0.1077376646743E+00 -0.3561550387379E+01 -0.1724565380091E+01  0.2518312230642E+00
-0.1923553867061E+00 -0.3597226335414E+01 -0.1781103404879E+01  0.2482708690641E+00
-0.2888065417107E+00 -0.3631965383890E+01 -0.1842762800359E+01  0.2385886131129E+00
-0.3988800228573E+00 -0.3665158778666E+01 -0.1910098231871E+01  0.2218480495320E+00
-0.5246943847019E+00 -0.3696042756297E+01 -0.1983746451238E+01  0.1971003974691E+00
-0.6687415489212E+00 -0.3723660611147E+01 -0.2064429009996E+01  0.1634630240920E+00
-0.8342802957504E+00 -0.3747063865938E+01 -0.2153231750532E+01  0.1202746329563E+00
 0.3424116045665E+00 -0.3068303482181E+01 -0.1281169179229E+01  0.7062263649232E-01
 0.3322382487733E+00 -0.3087617399044E+01 -0.1295028197343E+01  0.9660553163802E-01
 0.3188030917488E+00 -0.3107683080822E+01 -0.1310773591540E+01  0.1229231494065E+00
 0.3020312921673E+00 -0.3128465718946E+01 -0.1328424177216E+01  0.1492926061136E+00
 0.2817826392040E+00 -0.3149906169213E+01 -0.1348018055685E+01  0.1754392112491E+00
 0.2578689893718E+00 -0.3171933319127E+01 -0.1369610231511E+01  0.2010776940447E+00
 0.2300624870250E+00 -0.3194469961879E+01 -0.1393271509647E+01  0.2258946930738E+00
 0.1980970353764E+00 -0.3217434392680E+01 -0.1419088554333E+01  0.2495325610482E+00
 0.1616645597088E+00 -0.3240739341895E+01 -0.1447165143957E+01  0.2715739852813E+00
 0.1204067460381E+00 -0.3264289201783E+01 -0.1477624750452E+01  0.2915267893120E+00
 0.7390218899998E-01 -0.3287975943627E+01 -0.1510614660843E+01  0.3088083631305E+00
 0.2164817805105E-01 -0.3311673698161E+01 -0.1546311990530E+01  0.3227293892998E+00
-0.3696433809356E-01 -0.3335231608473E+01 -0.1584932090866E+01  0.3324769019344E+00
-0.1026847448209E+00 -0.3358464169054E+01 -0.1626739985395E+01  0.3370973063920E+00
-0.1764485729065E+00 -0.3381137850636E+01 -0.1672065614824E+01  0.3354809140834E+00
-0.2594381885140E+00 -0.3402951923764E+01 -0.1721323348405E+01  0.3263509203403E+00
-0.3531640369061E+00 -0.3423512629040E+01 -0.1775038028492E+01  0.3082613190161E+00
-0.4595715352439E+00 -0.3442296732850E+01 -0.1833878081353E+01  0.2796094970531E+00
-0.5812277867624E+00 -0.3458634356751E+01 -0.1898735202635E+01  0.2386674174402E+00
-0.7214902068898E+00 -0.3471592646364E+01 -0.1970748936031E+01  0.1835913249044E+00
 0.3218695592853E+00 -0.2991458757442E+01 -0.1254706919951E+01  0.1000382966371E+00
 0.3099553219977E+00 -0.3002727702997E+01 -0.1265603015860E+01  0.1294893540316E+00
 0.2950001545839E+00 -0.3014203746829E+01 -0.1278025685114E+01  0.1594344783168E+00
 0.2769630929689E+00 -0.3025780381802E+01 -0.1291944122475E+01  0.1895526102025E+00
 0.2557546501296E+00 -0.3037335789840E+01 -0.1307343132348E+01  0.2195424807011E+00
 0.2312613395165E+00 -0.3048747967402E+01 -0.1324218711748E+01  0.2490973956622E+00
 0.2033588493296E+00 -0.3059901568019E+01 -0.1342575074379E+01  0.2778821520173E+00
 0.1719177993893E+00 -0.3070690234818E+01 -0.1362423041196E+01  0.3055121936051E+00
 0.1368046116330E+00 -0.3081016872904E+01 -0.1383779759287E+01  0.3315340267310E+00
 0.9787871766362E-01 -0.3090793245635E+01 -0.1406669824579E+01  0.3554055862753E+00
 0.5498620492732E-01 -0.3099939548787E+01 -0.1431128067984E+01  0.3764752134125E+00
 0.7948937123464E-02 -0.3108384135530E+01 -0.1457204539555E+01  0.3939579760484E+00
-0.4345300922854E-01 -0.3116063213682E+01 -0.1484972621001E+01  0.4069081777221E+00
-0.9950928397843E-01 -0.3122920000863E+01 -0.1514541760034E+01  0.4141871052444E+00
-0.1606231489746E+00 -0.3128902224780E+01 -0.1546076921743E+01  0.4144254991404E+00
-0.2273794931620E+00 -0.3133956179748E+01 -0.1579827762261E+01  0.4059811265856E+00
-0.3006438489288E+00 -0.3138011249741E+01 -0.1616167892276E+01  0.3868933759780E+00
-0.3817059626183E+00 -0.3140954009179E+01 -0.1655650182546E+01  0.3548370377691E+00
-0.4724412064449E+00 -0.3142559151849E+01 -0.1699050164089E+01  0.3070713162491E+00
-0.5754434613321E+00 -0.3142367584619E+01 -0.1747371187165E+01  0.2403827259156E+00
 0.2999404854405E+00 -0.2909301873079E+01 -0.1226399849080E+01  0.1272751884887E+00
 0.2860468347590E+00 -0.2911714624818E+01 -0.1234063858198E+01  0.1598836427377E+00
 0.2693334249856E+00 -0.2913677530919E+01 -0.1242841726636E+01  0.1930523056577E+00
 0.2497827212200E+00 -0.2914986110270E+01 -0.1252645589676E+01  0.2264179418443E+00
 0.2273500671693E+00 -0.2915434017968E+01 -0.1263399453671E+01  0.2596552469304E+00
 0.2019974679337E+00 -0.2914829828852E+01 -0.1275031206398E+01  0.2924420515926E+00
 0.1737122477897E+00 -0.2913003226330E+01 -0.1287466756648E+01  0.3244295911233E+00
 0.1425175598152E+00 -0.2909806754421E+01 -0.1300625918166E+01  0.3552174187138E+00
 0.1084790711638E+00 -0.2905116687633E+01 -0.1314419676407E+01  0.3843309974744E+00
 0.7171013544778E-01 -0.2898834893468E+01 -0.1328748632899E+01  0.4111996719386E+00
 0.3237630084007E-01 -0.2890892643556E+01 -0.1343502677669E+01  0.4351327086230E+00
-0.9301201532477E-02 -0.2881256897412E+01 -0.1358562303058E+01  0.4552910370559E+00
-0.5304465018431E-01 -0.2869939442949E+01 -0.1373802520288E+01  0.4706520647380E+00
-0.9852518367642E-01 -0.2857009289557E+01 -0.1389101198896E+01  0.4799644233658E+00
-0.1453807329782E+00 -0.2842608826246E+01 -0.1404355089273E+01  0.4816887695803E+00
-0.1932568811864E+00 -0.2826973620993E+01 -0.1419508332424E+01  0.4739200646464E+00
-0.2418884964968E+00 -0.2810455911039E+01 -0.1434601867903E+01  0.4542871227982E+00
-0.2912206793692E+00 -0.2793528693546E+01 -0.1449832201593E+01  0.4198296422725E+00
-0.3415785126281E+00 -0.2776769765286E+01 -0.1465623686902E+01  0.3668592491423E+00
-0.3938758246150E+00 -0.2760807877024E+01 -0.1482701336010E+01  0.2908285736932E+00
 0.2767328651571E+00 -0.2822340385804E+01 -0.1196435531670E+01  0.1520870749741E+00
 0.2606710253949E+00 -0.2815212498774E+01 -0.1200634489443E+01  0.1874864945530E+00
 0.2420168573342E+00 -0.2806873826153E+01 -0.1205482772287E+01  0.2233897019569E+00
 0.2207575817614E+00 -0.2796994331679E+01 -0.1210831269390E+01  0.2593880017216E+00
 0.1968833495742E+00 -0.2785264181036E+01 -0.1216538987702E+01  0.2951351227355E+00
 0.1704308061176E+00 -0.2771408519419E+01 -0.1222459522151E+01  0.3302978619386E+00
 0.1415059097703E+00 -0.2755189724940E+01 -0.1228431390014E+01  0.3645184260921E+00
 0.1102981422781E+00 -0.2736406324909E+01 -0.1234270842706E+01  0.3973859819793E+00
 0.7709307326817E-01 -0.2714893107307E+01 -0.1239766012854E+01  0.4284136083151E+00
 0.4228710570582E-01 -0.2690524560605E+01 -0.1244671600646E+01  0.4570170365058E+00
 0.6406516599299E-02 -0.2663222726649E+01 -0.1248703615556E+01  0.4824919321008E+00
-0.2986801886525E-01 -0.2632970284043E+01 -0.1251533999193E+01  0.5039865231329E+00
-0.6567087667943E-01 -0.2599829900025E+01 -0.1252785361873E+01  0.5204659112188E+00
-0.9991525112645E-01 -0.2563971530293E+01 -0.1252026784092E+01  0.5306632182769E+00
-0.1312535180991E+00 -0.2525710528378E+01 -0.1248773098677E+01  0.5330105507565E+00
-0.1580416063046E+00 -0.2485561828068E+01 -0.1242493611003E+01  0.5255393774065E+00
-0.1783243937081E+00 -0.2444317522540E+01 -0.1232641697510E+01  0.5057354187215E+00
-0.1899023999101E+00 -0.2403173553009E+01 -0.1218745694781E+01  0.4703322757572E+00
-0.1904585887472E+00 -0.2363818358377E+01 -0.1200510162103E+01  0.4150552560787E+00
-0.1778400583309E+00 -0.2328529876193E+01 -0.1177993866238E+01  0.3343383132823E+00
 0.2523781583546E+00 -0.2731138878680E+01 -0.1165017535598E+01  0.1742634443591E+00
 0.2340253285412E+00 -0.2713934456590E+01 -0.1165557287227E+01  0.2120330132741E+00
 0.2133193556788E+00 -0.2694660573575E+01 -0.1166230369453E+01  0.2500931391001E+00
 0.1902242549809E+00 -0.2672836474991E+01 -0.1166827740445E+01  0.2879911904651E+00
 0.1647531897513E+00 -0.2648037478741E+01 -0.1167143612865E+01  0.3253647880942E+00
 0.1370183435424E+00 -0.2619900327014E+01 -0.1166954529272E+01  0.3618715723603E+00
 0.1072535235728E+00 -0.2588116622199E+01 -0.1166005653397E+01  0.3971427849095E+00
 0.7582898454444E-01 -0.2552426030627E+01 -0.1164000608706E+01  0.4307531803525E+00
 0.4326839417428E-01 -0.2512613996686E+01 -0.1160592430237E+01  0.4622003847455E+00
 0.1027321285771E-01 -0.2468515704249E+01 -0.1155373968023E+01  0.4908885102704E+00
-0.2224206540402E-01 -0.2420027011271E+01 -0.1147866463126E+01  0.5161121731526E+00
-0.5310053750389E-01 -0.2367123038289E+01 -0.1137505077738E+01  0.5370377128247E+00
-0.8079523540277E-01 -0.2309885635281E+01 -0.1123620006371E+01  0.5526782827332E+00
-0.1033973993016E+00 -0.2248542067976E+01 -0.1105411546817E+01  0.5618583765685E+00
-0.1184326373092E+00 -0.2183519183265E+01 -0.1081917352926E+01  0.5631607632720E+00
-0.1227156291744E+00 -0.2115521496184E+01 -0.1051971446250E+01  0.5548434238532E+00
-0.1121399754417E+00 -0.2045651812753E+01 -0.1014162137879E+01  0.5347036354838E+00
-0.8144891828353E-01 -0.1975616007515E+01 -0.9668205126729E+00  0.4998429322831E+00
-0.2432607863906E-01 -0.1908252699146E+01 -0.9083120232553E+00  0.4462529955298E+00
 0.6646452229648E-01 -0.1847828109649E+01 -0.8372408839322E+00  0.3682680100073E+00
 0.2270325260779E+00 -0.2636315932940E+01 -0.1132363198353E+01  0.1936378425678E+00
 0.2063523871648E+00 -0.2608666656948E+01 -0.1129087703934E+01  0.2333017832968E+00
 0.1835716442184E+00 -0.2577993321403E+01 -0.1125378185422E+01  0.2728487097933E+00
 0.1585954056762E+00 -0.2543648748591E+01 -0.1120975068327E+01  0.3117939936879E+00
 0.1314515526902E+00 -0.2505095696918E+01 -0.1115612744957E+01  0.3497666841910E+00
 0.1023360759383E+00 -0.2461891714534E+01 -0.1108991147327E+01  0.3864127836373E+00
 0.7162713865759E-01 -0.2413667983164E+01 -0.1100759194126E+01  0.4213408574005E+00
 0.3989526337444E-01 -0.2360114043827E+01 -0.1090502824047E+01  0.4540933377292E+00
 0.7921678257979E-02 -0.2300971770669E+01 -0.1077733540700E+01  0.4841321569349E+00
-0.2326953964334E-01 -0.2236038968590E+01 -0.1061874996177E+01  0.5108318266412E+00
-0.5236152405299E-01 -0.2165182093757E+01 -0.1042245497727E+01  0.5334761105052E+00
-0.7767204795513E-01 -0.2088357761967E+01 -0.1018034008081E+01  0.5512563215591E+00
-0.9705077682355E-01 -0.2005643332973E+01 -0.9882662290978E+00  0.5632703336732E+00
-0.1077337460010E+00 -0.1917277625823E+01 -0.9517553423432E+00  0.5685217971052E+00
-0.1061340336494E+00 -0.1823714074459E+01 -0.9070286085105E+00  0.5659185815427E+00
-0.8753153525149E-01 -0.1725689481790E+01 -0.8522138758478E+00  0.5542671912295E+00
-0.4560088104846E-01 -0.1624318543181E+01 -0.7848621273971E+00  0.5322513109802E+00
 0.2833758167569E-01 -0.1521229586897E+01 -0.7016592406743E+00  0.4983575615336E+00
 0.1465140328443E+00 -0.1418840413856E+01 -0.5979933975589E+00  0.4505868090329E+00
 0.3240969842576E+00 -0.1322825124782E+01 -0.4694022248557E+00  0.3854467602318E+00
 0.2008807491983E+00 -0.2538539281584E+01 -0.1098699507435E+01  0.2100947454118E+00
 0.1779501279977E+00 -0.2500253779223E+01 -0.1091482713307E+01  0.2511158041910E+00
 0.1531765112489E+00 -0.2457890188792E+01 -0.1083215425698E+01  0.2913813313978E+00
 0.1263703237127E+00 -0.2410638291973E+01 -0.1073605942359E+01  0.3304023736446E+00
 0.9757809521352E-01 -0.2357870420888E+01 -0.1062337390372E+01  0.3678093216450E+00
 0.6710279900066E-01 -0.2299093421958E+01 -0.1049035590129E+01  0.4032270706187E+00
 0.3549702276160E-01 -0.2233907595551E+01 -0.1033252966590E+01  0.4362164128858E+00
 0.3561865234669E-02 -0.2161980862011E+01 -0.1014456925912E+01  0.4662515670851E+00
-0.2763742896296E-01 -0.2083038831255E+01 -0.9920178397862E+00  0.4927167053837E+00
-0.5673519557786E-01 -0.1996868232445E+01 -0.9651936087227E+00  0.5149129247987E+00
-0.8200586397816E-01 -0.1903330763033E+01 -0.9331082123286E+00  0.5320725682772E+00
-0.1012770469583E+00 -0.1802384848638E+01 -0.8947210886610E+00  0.5433814356483E+00
-0.1118071029436E+00 -0.1694113014447E+01 -0.8487824530209E+00  0.5480123818701E+00
-0.1101124710711E+00 -0.1578752266343E+01 -0.7937664245712E+00  0.5451770562960E+00
-0.9171735396370E-01 -0.1456722511312E+01 -0.7277667348335E+00  0.5342071655188E+00
-0.5077533049419E-01 -0.1328644018177E+01 -0.6483270922313E+00  0.5146840171228E+00
 0.2055499152185E-01 -0.1195310007158E+01 -0.5521348559485E+00  0.4866483870050E+00
 0.1332152294998E+00 -0.1057566555796E+01 -0.4344451222573E+00  0.4509402903167E+00
 0.3038197731366E+00 -0.9156511013311E+00 -0.2875607235220E+00  0.4097742501873E+00
 0.5619552951969E+00 -0.7670449359553E+00 -0.9639213091194E-01  0.3671316149443E+00
 0.1741499024925E+00 -0.2438509619887E+01 -0.1064249064476E+01  0.2235684614823E+00
 0.1491946564863E+00 -0.2389556304768E+01 -0.1052969972022E+01  0.2653275614203E+00
 0.1226340240599E+00 -0.2335365649448E+01 -0.1039983861295E+01  0.3054334211364E+00
 0.9416516969798E-01 -0.2274995371254E+01 -0.1024990192131E+01  0.3434386054899E+00
 0.6388088042015E-01 -0.2207775499478E+01 -0.1007630468402E+01  0.3789864845393E+00
 0.3223635571323E-01 -0.2133217805965E+01 -0.9874612791140E+00  0.4116627774908E+00
 0.7677678102169E-05 -0.2050948914236E+01 -0.9639423787374E+00  0.4409411914348E+00
-0.3172791175174E-01 -0.1960674272916E+01 -0.9364290244187E+00  0.4661753324217E+00
-0.6158328425748E-01 -0.1862167462239E+01 -0.9041628485602E+00  0.4866124661618E+00
-0.8782576216762E-01 -0.1755277293953E+01 -0.8662584341798E+00  0.5014193498905E+00
-0.1083168125308E+00 -0.1639946265729E+01 -0.8216836446981E+00  0.5097187593748E+00
-0.1204271778456E+00 -0.1516234546747E+01 -0.7692310086075E+00  0.5106407673365E+00
-0.1209247199205E+00 -0.1384343698396E+01 -0.7074761548142E+00  0.5033976489391E+00
-0.1058281826836E+00 -0.1244632221547E+01 -0.6347163883783E+00  0.4873974195123E+00
-0.7021492976317E-01 -0.1097610406654E+01 -0.5488779067238E+00  0.4624209376140E+00
-0.7956034072201E-02 -0.9438864112598E+00 -0.4473659481714E+00  0.4289061444671E+00
 0.8865756579050E-01 -0.7840191766908E+00 -0.3268199562942E+00  0.3884215833792E+00
 0.2296051961796E+00 -0.6180657354718E+00 -0.1825764530042E+00  0.3445095518889E+00
 0.4281112552421E+00 -0.4447634190712E+00 -0.7826516979838E-02  0.3043319778995E+00
 0.7082473117765E+00 -0.2546050372835E+00  0.2132118684709E+00  0.2831772965973E+00
 0.1471464669215E+00 -0.2336909795523E+01 -0.1029188761832E+01  0.2340205871064E+00
 0.1205844787221E+00 -0.2277344700383E+01 -0.1013677301609E+01  0.2757704688869E+00
 0.9259359115916E-01 -0.2211276258493E+01 -0.9957808511211E+00  0.3146997697307E+00
 0.6278048218054E-01 -0.2137692527488E+01 -0.9752086588210E+00  0.3504690501741E+00
 0.3134068993734E-01 -0.2055974968724E+01 -0.9515781086163E+00  0.3827524841574E+00
-0.1049577867684E-02 -0.1965742676673E+01 -0.9243923572893E+00  0.4110770814062E+00
-0.3332705479386E-01 -0.1866758171570E+01 -0.8930400541262E+00  0.4347919451485E+00
-0.6408697731759E-01 -0.1758890056156E+01 -0.8567992035594E+00  0.4530916609701E+00
-0.9158523269990E-01 -0.1642115150003E+01 -0.8148391778034E+00  0.4650617750135E+00
-0.1137105857250E+00 -0.1516546869267E+01 -0.7662210019027E+00  0.4697376324401E+00
-0.1279379406059E+00 -0.1382479142725E+01 -0.7098960273651E+00  0.4661792756385E+00
-0.1312722668284E+00 -0.1240438177857E+01 -0.6447039073669E+00  0.4535718470636E+00
-0.1201929107720E+00 -0.1091234595763E+01 -0.5693709266271E+00  0.4313666675050E+00
-0.9061327830779E-01 -0.9360073979156E+00 -0.4825117166012E+00  0.3994852049266E+00
-0.3788272632085E-01 -0.7762455651316E+00 -0.3826402960122E+00  0.3586189745197E+00
 0.4310564440272E-01 -0.6137684882986E+00 -0.2682115359508E+00  0.3106772865272E+00
 0.1575784993522E+00 -0.4506136131305E+00 -0.1377265031265E+00  0.2594711662573E+00
 0.3097966655646E+00 -0.2889031389897E+00  0.9819957465334E-02  0.2117987170771E+00
 0.5005888096492E+00 -0.1302310239154E+00  0.1740681588534E+00  0.1792975254988E+00
 0.7089745931788E+00  0.1731498477552E-01  0.3413561007727E+00  0.1819668278468E+00
 0.1202502543883E+00 -0.2234372682289E+01 -0.9936375385931E+00  0.2414201612381E+00
 0.9265950067896E-01 -0.2164289418031E+01 -0.9736660586861E+00  0.2822358463256E+00
 0.6373612081340E-01 -0.2086325772535E+01 -0.9506171338980E+00  0.3188124305749E+00
 0.3303921849660E-01 -0.1999533407903E+01 -0.9242522666766E+00  0.3510182553982E+00
 0.9517621513133E-03 -0.1903510507791E+01 -0.8942026081825E+00  0.3785893691237E+00
-0.3154811655721E-01 -0.1798152129676E+01 -0.8599591135483E+00  0.4009871991255E+00
-0.6305466255671E-01 -0.1683537196068E+01 -0.8208981714714E+00  0.4174290383085E+00
-0.9181015796866E-01 -0.1559905728668E+01 -0.7763064647500E+00  0.4269721001605E+00
-0.1157234980819E+00 -0.1427694630187E+01 -0.7254065184466E+00  0.4286143312564E+00
-0.1323613712623E+00 -0.1287605710123E+01 -0.6673845265584E+00  0.4214081055790E+00
-0.1389374511499E+00 -0.1140690152160E+01 -0.6014249720303E+00  0.4045954795949E+00
-0.1323206784338E+00 -0.9884352191823E+00 -0.5267552705435E+00  0.3777791076622E+00
-0.1090903351543E+00 -0.8328420736425E+00 -0.4427082310116E+00  0.3411457140197E+00
-0.6567991487051E-01 -0.6764809162572E+00 -0.3488155897453E+00  0.2957605686480E+00
 0.1312615973824E-02 -0.5225079759402E+00 -0.2449618185629E+00  0.2439516547585E+00
 0.9450198289330E-01 -0.3746246288774E+00 -0.1316576432786E+00  0.1897977849917E+00
 0.2144301116527E+00 -0.2370081660077E+00 -0.1061168551996E-01  0.1397146422838E+00
 0.3569788942185E+00 -0.1142423918240E+00  0.1140861558361E+00  0.1030419829122E+00
 0.5065324588698E+00 -0.1265220772864E-01  0.2321237174476E+00  0.9219902491219E-01
 0.6245739376123E+00  0.5756982600090E-01  0.3206075680850E+00  0.1190997729068E+00
 0.9383552299881E-01 -0.2131574834952E+01 -0.9577374741889E+00  0.2457691407680E+00
 0.6585988647955E-01 -0.2051152939749E+01 -0.9330877326700E+00  0.2845532955497E+00
 0.3655827229597E-01 -0.1961378210049E+01 -0.9046653684492E+00  0.3174915980089E+00
 0.5486305483515E-02 -0.1861616027288E+01 -0.8723809670357E+00  0.3448122559219E+00
-0.2667254999352E-01 -0.1751922026978E+01 -0.8359394490562E+00  0.3663570952822E+00
-0.5856409421751E-01 -0.1632692105945E+01 -0.7948904120601E+00  0.3815354265660E+00
-0.8841534078513E-01 -0.1504536828656E+01 -0.7486875177385E+00  0.3894727223498E+00
-0.1141420458028E+00 -0.1368293332018E+01 -0.6967446258086E+00  0.3891892756202E+00
-0.1333836431875E+00 -0.1225100474814E+01 -0.6384875338411E+00  0.3797753624344E+00
-0.1435272985894E+00 -0.1076501377570E+01 -0.5734134763403E+00  0.3605680283711E+00
-0.1417529344019E+00 -0.9245365140757E+00 -0.5011560395133E+00  0.3313435128495E+00
-0.1251350362818E+00 -0.7718078375383E+00 -0.4215631496262E+00  0.2925383709833E+00
-0.9083976736092E-01 -0.6214918133606E+00 -0.3347958420900E+00  0.2455060596781E+00
-0.3647848092133E-01 -0.4772815254105E+00 -0.2414672023635E+00  0.1928046761688E+00
 0.3928560420228E-01 -0.3432357867089E+00 -0.1428565854158E+00  0.1384911592590E+00
 0.1357077635980E+00 -0.2235279481693E+00 -0.4127548664381E-01  0.8835599574782E-01
 0.2482594699010E+00 -0.1221032750844E+00  0.5929341141337E-01  0.4993415834747E-01
 0.3657835198293E+00 -0.4244913807474E-01  0.1519671590392E+00  0.3189097107511E-01
 0.4672625181129E+00  0.1279355534461E-01  0.2256263539528E+00  0.4159742477495E-01
 0.5273460568601E+00  0.4596624876423E-01  0.2694567829600E+00  0.7892370096886E-01
 0.6828544432843E-01 -0.2029262206101E+01 -0.9216590756953E+00  0.2471041937576E+00
 0.4063099010941E-01 -0.1938755969906E+01 -0.8921187382414E+00  0.2826223144462E+00
 0.1150399244207E-01 -0.1837387265689E+01 -0.8581651362495E+00  0.3106267070940E+00
-0.1944108307154E-01 -0.1725201380615E+01 -0.8199819558530E+00  0.3319118483458E+00
-0.5109338107295E-01 -0.1603020992708E+01 -0.7774337537054E+00  0.3464643923832E+00
-0.8166904093670E-01 -0.1471964551986E+01 -0.7302077868217E+00  0.3536639859054E+00
-0.1090573946054E+00 -0.1333344715962E+01 -0.6779289902474E+00  0.3526197791582E+00
-0.1309305776827E+00 -0.1188714906186E+01 -0.6202333758449E+00  0.3424673353648E+00
-0.1448014056004E+00 -0.1039992622691E+01 -0.5568531918846E+00  0.3226125238163E+00
-0.1480798151011E+00 -0.8895565575467E+00 -0.4876890939075E+00  0.2929457067427E+00
-0.1381877209628E+00 -0.7402952234409E+00 -0.4128869828225E+00  0.2540470318001E+00
-0.1127573657306E+00 -0.5955726644495E+00 -0.3329151133402E+00  0.2073906825899E+00
-0.6995842780211E-01 -0.4591043336819E+00 -0.2486594972668E+00  0.1555383212303E+00
-0.9004214022709E-02 -0.3347324175069E+00 -0.1615562164091E+00  0.1022880935161E+00
 0.6909617484013E-01 -0.2260995166238E+00 -0.7379157045117E-01  0.5271151797123E-01
 0.1604813105617E+00 -0.1362318399151E+00  0.1139725117496E-01  0.1295013297663E-01
 0.2571042503644E+00 -0.6707302689307E-01  0.8931467480500E-01 -0.1046654334411E-01
 0.3457082591714E+00 -0.1890823369757E-01  0.1535960115831E+00 -0.1222881746931E-01
 0.4099255264376E+00  0.1101954276093E-01  0.1978441820215E+00  0.8700141543388E-02
 0.4382700730791E+00  0.2986255043754E-01  0.2200223324948E+00  0.4585646688922E-01
 0.4395761427379E-01 -0.1928251834919E+01 -0.8856182814570E+00  0.2455073775297E+00
 0.1733726963987E-01 -0.1827988415938E+01 -0.8510060366014E+00  0.2764360054428E+00
-0.1112073992866E-01 -0.1715370344795E+01 -0.8114508077619E+00  0.2983392811480E+00
-0.4150508975880E-01 -0.1591664771376E+01 -0.7675898327866E+00  0.3128037337427E+00
-0.7211597695333E-01 -0.1458759103234E+01 -0.7195112858632E+00  0.3199468076663E+00
-0.1007548052688E+00 -0.1318651447035E+01 -0.6671209368906E+00  0.3191132520541E+00
-0.1250414254194E+00 -0.1173344392297E+01 -0.6102413327791E+00  0.3094725574127E+00
-0.1425468931446E+00 -0.1025033402930E+01 -0.5487627377632E+00  0.2904267973969E+00
-0.1508265313839E+00 -0.8762393591955E+00 -0.4827209673480E+00  0.2618800245532E+00
-0.1475329678571E+00 -0.7299006525065E+00 -0.4123938005249E+00  0.2244303691545E+00
-0.1305821221532E+00 -0.5893206881959E+00 -0.3383543200059E+00  0.1795213858565E+00
-0.9842898965062E-01 -0.4580170643224E+00 -0.2615296447040E+00  0.1295591977906E+00
-0.5046623435787E-01 -0.3394779146520E+00 -0.1832737495698E+00  0.7796900550640E-01
 0.1243640509547E-01 -0.2368409636463E+00 -0.1054701422514E+00  0.2913935117852E-01
 0.8726398066229E-01 -0.1525120550090E+00 -0.3066659486517E-01 -0.1182956116412E-01
 0.1681598079203E+00 -0.8774585370816E-01  0.3779455838384E-01 -0.3970157943515E-01
 0.2460554653430E+00 -0.4219508895201E-01  0.9581437666074E-01 -0.5018268662453E-01
 0.3096419865250E+00 -0.1333124244167E-01  0.1392660493659E+00 -0.4163339630459E-01
 0.3488609624682E+00  0.3948822625538E-02  0.1658205985735E+00 -0.1692529447870E-01
 0.3600351643991E+00  0.1651844687846E-01  0.1769801968516E+00  0.1650949230460E-01
 0.2115204702529E-01 -0.1829420395189E+01 -0.8498861214814E+00  0.2410807963029E+00
-0.3738709772637E-02 -0.1719670223131E+01 -0.8100021964104E+00  0.2660662523010E+00
-0.3116667723837E-01 -0.1596228647904E+01 -0.7648758008770E+00  0.2809942974760E+00
-0.6059856524191E-01 -0.1462205267016E+01 -0.7157177993459E+00  0.2884111120805E+00
-0.8971073344018E-01 -0.1320904770109E+01 -0.6629892849864E+00  0.2884030074097E+00
-0.1158890568545E+00 -0.1175043998704E+01 -0.6067385345736E+00  0.2802085515882E+00
-0.1366700933911E+00 -0.1027124191124E+01 -0.5469833123347E+00  0.2631087563612E+00
-0.1496389694494E+00 -0.8796245094792E+00 -0.4837538338695E+00  0.2368916499477E+00
-0.1525866582318E+00 -0.7353559339980E+00 -0.4173330172895E+00  0.2020550496738E+00
-0.1435928392647E+00 -0.5974165955690E+00 -0.3482744334885E+00  0.1598995710156E+00
-0.1212433465596E+00 -0.4690449961225E+00 -0.2774355203569E+00  0.1125817558640E+00
-0.8493169564326E-01 -0.3533804169230E+00 -0.2060066923836E+00  0.6311343522421E-01
-0.3524730712220E-01 -0.2531737641140E+00 -0.1355579031372E+00  0.1527090971199E-01
 0.2558588928906E-01 -0.1704649204003E+00 -0.6809314444959E-01 -0.2663980991058E-01
 0.9330805265954E-01 -0.1062449786394E+00 -0.6080355195107E-02 -0.5823022427880E-01
 0.1614665774740E+00 -0.6012148499762E-01  0.4763219334308E-01 -0.7576453649341E-01
 0.2219371138076E+00 -0.3000221190886E-01  0.9020940366360E-01 -0.7721311360846E-01
 0.2666266784168E+00 -0.1197600540490E-01  0.1196858160120E+00 -0.6341613726613E-01
 0.2902551133681E+00 -0.8311323280714E-03  0.1360292707438E+00 -0.3858618141795E-01
 0.2919459757023E+00  0.8002841274512E-02  0.1409759436215E+00 -0.9053355010126E-02
 0.1513207522805E-03 -0.1733620382211E+01 -0.8147304568194E+00  0.2338897038478E+00
-0.2256308277448E-01 -0.1614525264714E+01 -0.7694315213682E+00  0.2516236291196E+00
-0.4857702786953E-01 -0.1480459101802E+01 -0.7186469791231E+00  0.2592244005704E+00
-0.7678271092979E-01 -0.1337797711785E+01 -0.6648527969897E+00  0.2600993578427E+00
-0.1038641546285E+00 -0.1190899744503E+01 -0.6085390310485E+00  0.2538966674510E+00
-0.1272839484311E+00 -0.1043081686070E+01 -0.5500718468202E+00  0.2395822943305E+00
-0.1443777757721E+00 -0.8964484905743E+00 -0.4891883439420E+00  0.2166284350445E+00
-0.1529930250789E+00 -0.7534971115696E+00 -0.4260503631442E+00  0.1853201776456E+00
-0.1512865594645E+00 -0.6169996315774E+00 -0.3610945088739E+00  0.1467377883060E+00
-0.1378932086022E+00 -0.4898790410433E+00 -0.2950529565850E+00  0.1027373308318E+00
-0.1121315774382E+00 -0.3749563562857E+00 -0.2289313282696E+00  0.5590785720117E-01
-0.7428547090543E-01 -0.2746912021024E+00 -0.1640190358977E+00  0.9473592250175E-02
-0.2590120786813E-01 -0.1909123926105E+00 -0.1019023919665E+00 -0.3290151317409E-01
 0.2996136606553E-01 -0.1245520032029E+00 -0.4445759934180E-01 -0.6744721120832E-01
 0.8864613817561E-01 -0.7539586147381E-01  0.6227630034048E-02 -0.9079358598223E-01
 0.1441932894920E+00 -0.4187822936709E-01  0.4808807813673E-01 -0.1006562317252E+00
 0.1902457564701E+00 -0.2102333194863E-01  0.7953453932334E-01 -0.9660288384037E-01
 0.2216634748429E+00 -0.8724114865199E-02  0.1000814989357E+00 -0.8057973026823E-01
 0.2360940901056E+00 -0.7666215380900E-03  0.1106039099462E+00 -0.5667840102385E-01
 0.2345144541613E+00  0.5876134058603E-02  0.1129835761768E+00 -0.2997487347789E-01
-0.1959897624335E-01 -0.1642561744182E+01 -0.7812155366184E+00  0.2239247037160E+00
-0.3945969526248E-01 -0.1513105122755E+01 -0.7297054626176E+00  0.2333515773086E+00
-0.6408570784775E-01 -0.1368719727960E+01 -0.6734185531217E+00  0.2341191297468E+00
-0.8988897549014E-01 -0.1218837590171E+01 -0.6151014843004E+00  0.2299095276892E+00
-0.1149501560010E+00 -0.1070543877488E+01 -0.5571821943267E+00  0.2189061395198E+00
-0.1352585590026E+00 -0.9242791807224E+00 -0.4979827364077E+00  0.1998534284244E+00
-0.1486539546929E+00 -0.7819545124419E+00 -0.4373859784440E+00  0.1727192609768E+00
-0.1532682718891E+00 -0.6458710387372E+00 -0.3755954750418E+00  0.1383303073390E+00
-0.1477471759560E+00 -0.5186437636566E+00 -0.3132037408235E+00  0.9823498322997E-01
-0.1313160937898E+00 -0.4028355595258E+00 -0.2510512764215E+00  0.5461581732166E-01
-0.1039898474322E+00 -0.3007104958723E+00 -0.1902091608707E+00  0.1019757843064E-01
-0.6677634794545E-01 -0.2139988768111E+00 -0.1319643553009E+00 -0.3190467351790E-01
-0.2184296432112E-01 -0.1436830990589E+00 -0.7779724959128E-01 -0.6842758164234E-01
 0.2743192702905E-01 -0.8980282017548E-01 -0.2931431970447E-01 -0.9631124200524E-01
 0.7662796592819E-01 -0.5130044351035E-01  0.1190393550619E-01 -0.1131607584925E+00
 0.1207944743955E+00 -0.2596722221978E-01  0.4456880840954E-01 -0.1177697698491E+00
 0.1553829442997E+00 -0.1059775993054E-01  0.6804903648090E-01 -0.1105616611536E+00
 0.1773719539861E+00 -0.1559208435687E-02  0.8263199019911E-01 -0.9368472564719E-01
 0.1864373614125E+00  0.4497916359616E-02  0.8973958032530E-01 -0.7053955026729E-01
 0.1849918909869E+00  0.9556172188354E-02  0.9143758946045E-01 -0.4506217382601E-01
-0.3888544354103E-01 -0.1558312506391E+01 -0.7506830345640E+00  0.2106594628709E+00
-0.5766421683538E-01 -0.1416622258821E+01 -0.6929146418011E+00  0.2111269748543E+00
-0.7505308525367E-01 -0.1256105237795E+01 -0.6256444102458E+00  0.2077677000517E+00
-0.1006046497720E+00 -0.1106960298627E+01 -0.5675555243079E+00  0.2004180984171E+00
-0.1229113252790E+00 -0.9608493693175E+00 -0.5093675251684E+00  0.1855758838343E+00
-0.1400703810309E+00 -0.8188294217387E+00 -0.4506829061586E+00  0.1629437971992E+00
-0.1499165041445E+00 -0.6825123310787E+00 -0.3912415515626E+00  0.1331189129708E+00
-0.1510776620609E+00 -0.5542902973925E+00 -0.3315229401022E+00  0.9737641787954E-01
-0.1426688311488E+00 -0.4365445688664E+00 -0.2722302973167E+00  0.5752290287026E-01
-0.1244777352523E+00 -0.3314192774125E+00 -0.2142715954090E+00  0.1582807859500E-01
-0.9709371519225E-01 -0.2406049051215E+00 -0.1587183511449E+00 -0.2508483325730E-01
-0.6202405813244E-01 -0.1651667159117E+00 -0.1067796635299E+00 -0.6240948568705E-01
-0.2172884249113E-01 -0.1053900158815E+00 -0.5974586328360E-01 -0.9340094181051E-01
 0.2047995759920E-01 -0.6065833424631E-01 -0.1888383697624E-01 -0.1156932456358E+00
 0.6074062625430E-01 -0.2940114529315E-01  0.1472955601438E-01 -0.1276655607972E+00
 0.9519237329044E-01 -0.9177779775954E-02  0.4042685884927E-01 -0.1287874878096E+00
 0.1207159463659E+00  0.2994909542383E-02  0.5814410212944E-01 -0.1198111434805E+00
 0.1357577057940E+00  0.1010561553626E-01  0.6855576085136E-01 -0.1026579849129E+00
 0.1405714436180E+00  0.1421577857228E-01  0.7274999424491E-01 -0.7991290967532E-01
 0.1391495132971E+00  0.1721919315267E-01  0.7349329184497E-01 -0.5412490582160E-01
-0.8030805180315E-01 -0.1498704926514E+01 -0.7421360979268E+00  0.1892055293046E+00
-0.6005457155832E-01 -0.1295934616704E+01 -0.6373149168667E+00  0.1880315939600E+00
-0.8532605335905E-01 -0.1149011369389E+01 -0.5801385872204E+00  0.1842391907744E+00
-0.1078591508735E+00 -0.1004289514931E+01 -0.5227098716024E+00  0.1734291527913E+00
-0.1278045296366E+00 -0.8631070297033E+00 -0.4657284317085E+00  0.1551397385360E+00
-0.1418855005625E+00 -0.7264938942146E+00 -0.4081383145100E+00  0.1299306852822E+00
-0.1486657339328E+00 -0.5969424657305E+00 -0.3504358529529E+00  0.9880578013866E-01
-0.1471024370083E+00 -0.4767624517823E+00 -0.2932164969879E+00  0.6320030493905E-01
-0.1367854433040E+00 -0.3680353078553E+00 -0.2372657524431E+00  0.2494416277726E-01
-0.1179697154932E+00 -0.2724333076898E+00 -0.1834894204306E+00 -0.1380697425564E-01
-0.9166100992318E-01 -0.1911025518196E+00 -0.1328988736820E+00 -0.5069041463613E-01
-0.5963968417307E-01 -0.1245456007002E+00 -0.8656708367087E-01 -0.8330562509308E-01
-0.2439909790579E-01 -0.7252758565049E-01 -0.4555554115591E-01 -0.1094329781110E+00
 0.1104085901375E-01 -0.3402892710613E-01 -0.1080439197602E-01 -0.1272903035679E+00
 0.4346982162425E-01 -0.7288164488828E-02  0.1700537881052E-01 -0.1357942968000E+00
 0.6995833217422E-01  0.1000506842627E-01  0.3758279818691E-01 -0.1347609745904E+00
 0.8840833077091E-01  0.2034390595051E-01  0.5111355112942E-01 -0.1249526879409E+00
 0.9796372175982E-01  0.2583820738649E-01  0.5818690655118E-01 -0.1078851358745E+00
 0.9946971905964E-01  0.2791962815069E-01  0.5987299303699E-01 -0.8543864651802E-01
 0.9308020772757E-01  0.2511156163314E-01  0.5555013145864E-01 -0.5893187961767E-01
</DataArray>
<DataArray type="Float64" Name="S_Mises" NumberOfComponents="1" ComponentName0="S_Mises" format="ascii">
 0.7216952194817E+01
 0.6503794928417E+01
 0.5959943096656E+01
 0.5787488183307E+01
 0.5672522316694E+01
 0.5606433758909E+01
 0.5562848623836E+01
 0.5533771090334E+01
 0.5513690302915E+01
 0.5499776630306E+01
 0.5490365761884E+01
 0.5484584209188E+01
 0.5482052533415E+01
 0.5482743365264E+01
 0.5486896445432E+01
 0.5494975728575E+01
 0.5507653697855E+01
 0.5525820636005E+01
 0.5550616384395E+01
 0.5583507955990E+01
 0.5626432111721E+01
 0.5682131372928E+01
 0.5754969302819E+01
 0.5851222765426E+01
 0.5972468287660E+01
 0.6112533140697E+01
 0.6264192803329E+01
 0.6423560377222E+01
 0.6590931752499E+01
 0.6769824144121E+01
 0.6965371540160E+01
 0.7182646865449E+01
 0.7424764548600E+01
 0.7699102700300E+01
 0.8030031884124E+01
 0.8449098457207E+01
 0.9025493783530E+01
 0.9738340166804E+01
 0.1127353800380E+02
 0.1125689916506E+02
 0.2188811393736E+02
 0.6188273732154E+01
 0.6421085082445E+01
 0.6013525514528E+01
 0.5781692015789E+01
 0.5658814314734E+01
 0.5577523517718E+01
 0.5524468307053E+01
 0.5487791941541E+01
 0.5462004966641E+01
 0.5443668197832E+01
 0.5430822098389E+01
 0.5422343252231E+01
 0.5417670983405E+01
 0.5416633371080E+01
 0.5419351740096E+01
 0.5426187459673E+01
 0.5437719013385E+01
 0.5454742822592E+01
 0.5478299535266E+01
 0.5509733085072E+01
 0.5550806644280E+01
 0.5603905294048E+01
 0.5671886971976E+01
 0.5757003505084E+01
 0.5859219561685E+01
 0.5975743149593E+01
 0.6102747329095E+01
 0.6237559310116E+01
 0.6379602868202E+01
 0.6530102027406E+01
 0.6691118187278E+01
 0.6864797526170E+01
 0.7053999344736E+01
 0.7264466447269E+01
 0.7504486800609E+01
 0.7788801574037E+01
 0.8107046967750E+01
 0.8514491684600E+01
 0.8692397680416E+01
 0.7517846190092E+01
 0.1447742973361E+02
 0.5612683008156E+01
 0.6071151162114E+01
 0.5957254496465E+01
 0.5748737509498E+01
 0.5622933909736E+01
 0.5537911997541E+01
 0.5478927276744E+01
 0.5437237086529E+01
 0.5407105874980E+01
 0.5385181843642E+01
 0.5369370018039E+01
 0.5358433634344E+01
 0.5351696453811E+01
 0.5348882240067E+01
 0.5350014927016E+01
 0.5355361996247E+01
 0.5365405850379E+01
 0.5380837056390E+01
 0.5402567889201E+01
 0.5431765879784E+01
 0.5469908993002E+01
 0.5518726405095E+01
 0.5579600980926E+01
 0.5652869364508E+01
 0.5737933400346E+01
 0.5833478955114E+01
 0.5937573637151E+01
 0.6048328423093E+01
 0.6164540251342E+01
 0.6285710924533E+01
 0.6411631167173E+01
 0.6542343263381E+01
 0.6678735163725E+01
 0.6821297963271E+01
 0.6968058065145E+01
 0.7107526336128E+01
 0.7213279502516E+01
 0.7218782344796E+01
 0.6600161251581E+01
 0.6030826809349E+01
 0.1206433010311E+02
 0.5236228573009E+01
 0.5728355674151E+01
 0.5804005352529E+01
 0.5680049976295E+01
 0.5567336385238E+01
 0.5485823168917E+01
 0.5425731411694E+01
 0.5381485292947E+01
 0.5348570667613E+01
 0.5323978727899E+01
 0.5305752151154E+01
 0.5292657888183E+01
 0.5283981000398E+01
 0.5279383459126E+01
 0.5278816083902E+01
 0.5282463443641E+01
 0.5290712471513E+01
 0.5304137985478E+01
 0.5323500330559E+01
 0.5349747229197E+01
 0.5383980844945E+01
 0.5427207550315E+01
 0.5479741536150E+01
 0.5540981252104E+01
 0.5610121856016E+01
 0.5686507191035E+01
 0.5769146160597E+01
 0.5856562287836E+01
 0.5947067891809E+01
 0.6038900847280E+01
 0.6130186035115E+01
 0.6219118921607E+01
 0.6303784908582E+01
 0.6379780777029E+01
 0.6435622305120E+01
 0.6446357659497E+01
 0.6367887266134E+01
 0.6059137984826E+01
 0.5331467130413E+01
 0.5660207812759E+01
 0.1084247428268E+02
 0.4963615718004E+01
 0.5432683462067E+01
 0.5612126876704E+01
 0.5575362554425E+01
 0.5493174525659E+01
 0.5421451606109E+01
 0.5364502231975E+01
 0.5320245254538E+01
 0.5286100509085E+01
 0.5259817509789E+01
 0.5239771679874E+01
 0.5224863243589E+01
 0.5214410755934E+01
 0.5208059066571E+01
 0.5205711392616E+01
 0.5207482325777E+01
 0.5213666327877E+01
 0.5224716182036E+01
 0.5241223982149E+01
 0.5263887213381E+01
 0.5293397058230E+01
 0.5330120155674E+01
 0.5373661305117E+01
 0.5422953055309E+01
 0.5477102497663E+01
 0.5535706822346E+01
 0.5598169883212E+01
 0.5663161818311E+01
 0.5728608906278E+01
 0.5791844851988E+01
 0.5849755976064E+01
 0.5898878132691E+01
 0.5934704921020E+01
 0.5948782062274E+01
 0.5923783719483E+01
 0.5829545102872E+01
 0.5611579571847E+01
 0.5173554258262E+01
 0.4674654067074E+01
 0.5687294022406E+01
 0.1004103047727E+02
 0.4751314631774E+01
 0.5182158298354E+01
 0.5413005166009E+01
 0.5446328736797E+01
 0.5401846094933E+01
 0.5345729897418E+01
 0.5295346563228E+01
 0.5253428772477E+01
 0.5219551342998E+01
 0.5192546349476E+01
 0.5171295489004E+01
 0.5154941894101E+01
 0.5142906607407E+01
 0.5134859831072E+01
 0.5130683020405E+01
 0.5130434936864E+01
 0.5134322942319E+01
 0.5142675829555E+01
 0.5155909054291E+01
 0.5174458153405E+01
 0.5198620296177E+01
 0.5228251867126E+01
 0.5262505325666E+01
 0.5300081331371E+01
 0.5340032146065E+01
 0.5381999709214E+01
 0.5425485185834E+01
 0.5469147454252E+01
 0.5510612561279E+01
 0.5546592795563E+01
 0.5573071847585E+01
 0.5585270792638E+01
 0.5576731293622E+01
 0.5536514167933E+01
 0.5445497161547E+01
 0.5274109702819E+01
 0.4980637873746E+01
 0.4562900941206E+01
 0.4392792721717E+01
 0.5802776390441E+01
 0.9440223623592E+01
 0.4576811783006E+01
 0.4968052497059E+01
 0.5220379102004E+01
 0.5304325610613E+01
 0.5296812438192E+01
 0.5259865297803E+01
 0.5218773002626E+01
 0.5181156550650E+01
 0.5148912961717E+01
 0.5122103460743E+01
 0.5100251656194E+01
 0.5082830780883E+01
 0.5069423757608E+01
 0.5059764851319E+01
 0.5053738423782E+01
 0.5051362198149E+01
 0.5052764031731E+01
 0.5058151241703E+01
 0.5067762848164E+01
 0.5081780091638E+01
 0.5100153784953E+01
 0.5122357088311E+01
 0.5147262471607E+01
 0.5173456974887E+01
 0.5199944244648E+01
 0.5226307667216E+01
 0.5251997403444E+01
 0.5275589029068E+01
 0.5294496030293E+01
 0.5305042375711E+01
 0.5302628137463E+01
 0.5281624791986E+01
 0.5234503761604E+01
 0.5149712263033E+01
 0.5009655052343E+01
 0.4792006510382E+01
 0.4484596070893E+01
 0.4173503992719E+01
 0.4316336407652E+01
 0.5903346328463E+01
 0.8958292737549E+01
 0.4427408289202E+01
 0.4782116343190E+01
 0.5039296921813E+01
 0.5157443301715E+01
 0.5182195782689E+01
 0.5165485464821E+01
 0.5135520503368E+01
 0.5103738909259E+01
 0.5074293032774E+01
 0.5048509645112E+01
 0.5026626414510E+01
 0.5008509662046E+01
 0.4993950589202E+01
 0.4982780517022E+01
 0.4974909164094E+01
 0.4970328026766E+01
 0.4969094992648E+01
 0.4971302703384E+01
 0.4977022336038E+01
 0.4986203361594E+01
 0.4998510255889E+01
 0.5013140819569E+01
 0.5028800953269E+01
 0.5044026111988E+01
 0.5057773555691E+01
 0.5069526181807E+01
 0.5078624942546E+01
 0.5083550912807E+01
 0.5081599445980E+01
 0.5068914639167E+01
 0.5040634902816E+01
 0.4990810268586E+01
 0.4911816719345E+01
 0.4793208007234E+01
 0.4621725396770E+01
 0.4387621675812E+01
 0.4112746439962E+01
 0.3944675190041E+01
 0.4339463595461E+01
 0.5964666385792E+01
 0.8556685779417E+01
 0.4295455126483E+01
 0.4617816588436E+01
 0.4870847282903E+01
 0.5010727930294E+01
 0.5061730377320E+01
 0.5064447983080E+01
 0.5046492517965E+01
 0.5021622563676E+01
 0.4995900946656E+01
 0.4971857974565E+01
 0.4950459210292E+01
 0.4931998248943E+01
 0.4916506780792E+01
 0.4903938986820E+01
 0.4894249324031E+01
 0.4887417332586E+01
 0.4883441990892E+01
 0.4882311887469E+01
 0.4883945934468E+01
 0.4888093417296E+01
 0.4894193614848E+01
 0.4901255161535E+01
 0.4907892588469E+01
 0.4912625277146E+01
 0.4914370785859E+01
 0.4912506984377E+01
 0.4906261738402E+01
 0.4894050491431E+01
 0.4873152050851E+01
 0.4839726636524E+01
 0.4788970381436E+01
 0.4715149381790E+01
 0.4611457253033E+01
 0.4469966285596E+01
 0.4283849822640E+01
 0.4058356060940E+01
 0.3845237686984E+01
 0.3825000031270E+01
 0.4402204208386E+01
 0.5988175036860E+01
 0.8213661602913E+01
 0.4176097004742E+01
 0.4470226690114E+01
 0.4714434380364E+01
 0.4867051114335E+01
 0.4938372386377E+01
 0.4958584267934E+01
 0.4952683913938E+01
 0.4935345667943E+01
 0.4914025077884E+01
 0.4892302663110E+01
 0.4871836257793E+01
 0.4853352493410E+01
 0.4837140813249E+01
 0.4823296214215E+01
 0.4811833567584E+01
 0.4802733699853E+01
 0.4795948778836E+01
 0.4791377019761E+01
 0.4788805573540E+01
 0.4787819201545E+01
 0.4787688596650E+01
 0.4787300457632E+01
 0.4785229304212E+01
 0.4780002314876E+01
 0.4770510660794E+01
 0.4756045661773E+01
 0.4735750283831E+01
 0.4708027702218E+01
 0.4670246236376E+01
 0.4618767438307E+01
 0.4549148075831E+01
 0.4456364100189E+01
 0.4335184690076E+01
 0.4181226194014E+01
 0.3995213965792E+01
 0.3797034359016E+01
 0.3660463537787E+01
 0.3775447978044E+01
 0.4473476217197E+01
 0.5981758652544E+01
 0.7915340674217E+01
 0.4066115849562E+01
 0.4335676345716E+01
 0.4568839075939E+01
 0.4727879095982E+01
 0.4814278686024E+01
 0.4849527493788E+01
 0.4855099882771E+01
 0.4845497988997E+01
 0.4829009505947E+01
 0.4810046626592E+01
 0.4790883380097E+01
 0.4772660190764E+01
 0.4755927009820E+01
 0.4740929616089E+01
 0.4727754925685E+01
 0.4716396859938E+01
 0.4706773384236E+01
 0.4698708115742E+01
 0.4691879762104E+01
 0.4685744774388E+01
 0.4679455145867E+01
 0.4671827887154E+01
 0.4661434367878E+01
 0.4646829046089E+01
 0.4626896157874E+01
 0.4600872678315E+01
 0.4567862668152E+01
 0.4526323489543E+01
 0.4473818864825E+01
 0.4407082241989E+01
 0.4322300913261E+01
 0.4215571646399E+01
 0.4083796400370E+01
 0.3926728769652E+01
 0.3752783474046E+01
 0.3594318214791E+01
 0.3538624501076E+01
 0.3768249817102E+01
 0.4538674231231E+01
 0.5953445975184E+01
 0.7652142999798E+01
 0.3963299818325E+01
 0.4211425707802E+01
 0.4432699651295E+01
 0.4593819570467E+01
 0.4690930363385E+01
 0.4738636740835E+01
 0.4754689087880E+01
 0.4752684458985E+01
 0.4741232406415E+01
 0.4725328727153E+01
 0.4707758421319E+01
 0.4690036163179E+01
 0.4672962214087E+01
 0.4656935458471E+01
 0.4642122364630E+01
 0.4628540022404E+01
 0.4616084778900E+01
 0.4604522521428E+01
 0.4593447840756E+01
 0.4582223454518E+01
 0.4569925474949E+01
 0.4555342201167E+01
 0.4537070026307E+01
 0.4513709045944E+01
 0.4484160620836E+01
 0.4447646986124E+01
 0.4403287710275E+01
 0.4349665469998E+01
 0.4284639816141E+01
 0.4205465979007E+01
 0.4109184510010E+01
 0.3993319249346E+01
 0.3857246397040E+01
 0.3705029535666E+01
 0.3552142174406E+01
 0.3440409676448E+01
 0.3463027494830E+01
 0.3784606178590E+01
 0.4591933408819E+01
 0.5909746811352E+01
 0.7417119291423E+01
 0.3866080955377E+01
 0.4095413069185E+01
 0.4304717661296E+01
 0.4464979118798E+01
 0.4569287921859E+01
 0.4626987189040E+01
 0.4652300861795E+01
 0.4657494594813E+01
 0.4651086806414E+01
 0.4638411630382E+01
 0.4622643613500E+01
 0.4605617264081E+01
 0.4588362265362E+01
 0.4571426072951E+01
 0.4555058240687E+01
 0.4539307176027E+01
 0.4524059675360E+01
 0.4509040943317E+01
 0.4493785415640E+01
 0.4477593825488E+01
 0.4459502669199E+01
 0.4438304211280E+01
 0.4412642813509E+01
 0.4381182621917E+01
 0.4342868975933E+01
 0.4296951912399E+01
 0.4242622999136E+01
 0.4178659784841E+01
 0.4103307602256E+01
 0.4014466883764E+01
 0.3910198089390E+01
 0.3789646542021E+01
 0.3654797824845E+01
 0.3513846710032E+01
 0.3388216111658E+01
 0.3326037143435E+01
 0.3420288889856E+01
 0.3812315846793E+01
 0.4631751532608E+01
 0.5855523169865E+01
 0.7205053445020E+01
 0.3773317889160E+01
 0.3986070520134E+01
 0.4183734937075E+01
 0.4341186970697E+01
 0.4449932291909E+01
 0.4515395698582E+01
 0.4548665057056E+01
 0.4560479939746E+01
 0.4558964331557E+01
 0.4549570826491E+01
 0.4535738263050E+01
 0.4519557405228E+01
 0.4502258406507E+01
 0.4484526998726E+01
 0.4466695720848E+01
 0.4448850441994E+01
 0.4430879546480E+01
 0.4412484031736E+01
 0.4393160826716E+01
 0.4372177073149E+01
 0.4348560181684E+01
 0.4321132951084E+01
 0.4288607378177E+01
 0.4249730248186E+01
 0.4203518778074E+01
 0.4149293080606E+01
 0.4086370951892E+01
 0.4013788244363E+01
 0.3930251481802E+01
 0.3834399199235E+01
 0.3725419147276E+01
 0.3604165174091E+01
 0.3475190001587E+01
 0.3350388330358E+01
 0.3255801111346E+01
 0.3242933179017E+01
 0.3400054798898E+01
 0.3843761188055E+01
 0.4658651970491E+01
 0.5794285125611E+01
 0.7011926531079E+01
 0.3684160529212E+01
 0.3882191869231E+01
 0.4068751670488E+01
 0.4222131137278E+01
 0.4333178029325E+01
 0.4404460767982E+01
 0.4444388639337E+01
 0.4462139827267E+01
 0.4465242419615E+01
 0.4459085143522E+01
 0.4447252022671E+01
 0.4432022771832E+01
 0.4414793729077E+01
 0.4396374122026E+01
 0.4377176224558E+01
 0.4357327528536E+01
 0.4336727907555E+01
 0.4315069494627E+01
 0.4291832451823E+01
 0.4266275241341E+01
 0.4237441826618E+01
 0.4204207531597E+01
 0.4165369384523E+01
 0.4119775196988E+01
 0.4066541474891E+01
 0.4005098112992E+01
 0.3934938150918E+01
 0.3855409887627E+01
 0.3765739139581E+01
 0.3665363228152E+01
 0.3554647242371E+01
 0.3436146243493E+01
 0.3316800925498E+01
 0.3211622469588E+01
 0.3149901389062E+01
 0.3184004924568E+01
 0.3394535178709E+01
 0.3874374081002E+01
 0.4673985231909E+01
 0.5728542183509E+01
 0.6834573252677E+01
 0.3597963003299E+01
 0.3782838343532E+01
 0.3958919050360E+01
 0.4107439159350E+01
 0.4219158568326E+01
 0.4294604867235E+01
 0.4339962779395E+01
 0.4362914370678E+01
 0.4370275122290E+01
 0.4367228955358E+01
 0.4357398945766E+01
 0.4343187380937E+01
 0.4326119770645E+01
 0.4307110903667E+01
 0.4286646963945E+01
 0.4264899356175E+01
 0.4241787910137E+01
 0.4217009726636E+01
 0.4190046707839E+01
 0.4160170165054E+01
 0.4126462107391E+01
 0.4087868818446E+01
 0.4043287927602E+01
 0.3991685891289E+01
 0.3932304171117E+01
 0.3864717967428E+01
 0.3788637443353E+01
 0.3703766230489E+01
 0.3609888899671E+01
 0.3507270673742E+01
 0.3397452592726E+01
 0.3284607479118E+01
 0.3177791152752E+01
 0.3094479210009E+01
 0.3065922070505E+01
 0.3143334043299E+01
 0.3398000753900E+01
 0.3901544640123E+01
 0.4679333613207E+01
 0.5660105511917E+01
 0.6670451320845E+01
 0.3514225982753E+01
 0.3687270985845E+01
 0.3853522305451E+01
 0.3996724582185E+01
 0.4107887987489E+01
 0.4186113232409E+01
 0.4235775456329E+01
 0.4263182946924E+01
 0.4274387208550E+01
 0.4274266115380E+01
 0.4266392408372E+01
 0.4253229062663E+01
 0.4236393320861E+01
 0.4216885730808E+01
 0.4195258602889E+01
 0.4171727857317E+01
 0.4146240220473E+01
 0.4118509863449E+01
 0.4088036570662E+01
 0.4054122854904E+01
 0.4015906729364E+01
 0.3972420970429E+01
 0.3922677674130E+01
 0.3865778202816E+01
 0.3801111925848E+01
 0.3728429621421E+01
 0.3647692202023E+01
 0.3558989325607E+01
 0.3462685157416E+01
 0.3359872984599E+01
 0.3253225474910E+01
 0.3148393741965E+01
 0.3056221481480E+01
 0.2995989131624E+01
 0.2999761089770E+01
 0.3116088253235E+01
 0.3406319610603E+01
 0.3923878264395E+01
 0.4676218167293E+01
 0.5590325213894E+01
 0.6517480142447E+01
 0.3432557475208E+01
 0.3594901806573E+01
 0.3751961474083E+01
 0.3889612552474E+01
 0.3999304590369E+01
 0.4079166824831E+01
 0.4132126162363E+01
 0.4163266436998E+01
 0.4177871057120E+01
 0.4180445540928E+01
 0.4174440941796E+01
 0.4162325934115E+01
 0.4145773503228E+01
 0.4125849450016E+01
 0.4103163081283E+01
 0.4077973981864E+01
 0.4050261186628E+01
 0.4019766218164E+01
 0.3986020518765E+01
 0.3948373227463E+01
 0.3906033264879E+01
 0.3858132937033E+01
 0.3803810926021E+01
 0.3742317882286E+01
 0.3673210626202E+01
 0.3596439912148E+01
 0.3512242298536E+01
 0.3421111903281E+01
 0.3323995856661E+01
 0.3222790747102E+01
 0.3121223335841E+01
 0.3026246855916E+01
 0.2950142952575E+01
 0.2913370297172E+01
 0.2947836969700E+01
 0.3098391040654E+01
 0.3416569144051E+01
 0.3940709091919E+01
 0.4665939484564E+01
 0.5520269453811E+01
 0.6373907939893E+01
 0.3352645555259E+01
 0.3505258134109E+01
 0.3653733088228E+01
 0.3785752890713E+01
 0.3893301031437E+01
 0.3973869075113E+01
 0.4029240620526E+01
 0.4063431758188E+01
 0.4080985735510E+01
 0.4085998284747E+01
 0.4081744970349E+01
 0.4070653410767E+01
 0.4054419189139E+01
 0.4034153136071E+01
 0.4010511651422E+01
 0.3983795942265E+01
 0.3954021303843E+01
 0.3920965074797E+01
 0.3884201845940E+01
 0.3843140133495E+01
 0.3797071982236E+01
 0.3745240012239E+01
 0.3686919757165E+01
 0.3621523247287E+01
 0.3548790447691E+01
 0.3468890359296E+01
 0.3382351395166E+01
 0.3290078932652E+01
 0.3193590965449E+01
 0.3095542521534E+01
 0.3000613475675E+01
 0.2916863017192E+01
 0.2857661592416E+01
 0.2844076878944E+01
 0.2907077631894E+01
 0.3087179162127E+01
 0.3426721359230E+01
 0.3951826078563E+01
 0.4649432283486E+01
 0.5450870984388E+01
 0.6238166112662E+01
 0.3274239024710E+01
 0.3417956269450E+01
 0.3558413990094E+01
 0.3684825769817E+01
 0.3789744747704E+01
 0.3870266911849E+01
 0.3927284354325E+01
 0.3963897555009E+01
 0.3983957650904E+01
 0.3991135846152E+01
 0.3988494374349E+01
 0.3978381738662E+01
 0.3962486746901E+01
 0.3941946100146E+01
 0.3917453121973E+01
 0.3889347677901E+01
 0.3857683933982E+01
 0.3822281765517E+01
 0.3782768248947E+01
 0.3738621596166E+01
 0.3689226789115E+01
 0.3633945441507E+01
 0.3572198236210E+01
 0.3503568099150E+01
 0.3427989767270E+01
 0.3345862678415E+01
 0.3258015066273E+01
 0.3165759873078E+01
 0.3071160913542E+01
 0.2977571764648E+01
 0.2890509905860E+01
 0.2818937666826E+01
 0.2776981849435E+01
 0.2785821158313E+01
 0.2874885242903E+01
 0.3080068551952E+01
 0.3435387145197E+01
 0.3957337129731E+01
 0.4627266234470E+01
 0.5382712230805E+01
 0.6108557658244E+01
 0.3197134031216E+01
 0.3332690859784E+01
 0.3465663946979E+01
 0.3586568019679E+01
 0.3688525157450E+01
 0.3768409013938E+01
 0.3826424615768E+01
 0.3864897664926E+01
 0.3887046571638E+01
 0.3896120480099E+01
 0.3894944456576E+01
 0.3885758531418E+01
 0.3870219805532E+01
 0.3849473457108E+01
 0.3824239828682E+01
 0.3794893902495E+01
 0.3761530192983E+01
 0.3724016236109E+01
 0.3682038926993E+01
 0.3635154221030E+01
 0.3582847541716E+01
 0.3524605963289E+01
 0.3460001266835E+01
 0.3388793659581E+01
 0.3311119685950E+01
 0.3227614971179E+01
 0.3139407180608E+01
 0.3048202978405E+01
 0.2956575328597E+01
 0.2868504492557E+01
 0.2790221024784E+01
 0.2731388789287E+01
 0.2706584151158E+01
 0.2736676935896E+01
 0.2849135909484E+01
 0.3075216701098E+01
 0.3441645843943E+01
 0.3957379462961E+01
 0.4600631241479E+01
 0.5313030006283E+01
 0.5998274800496E+01
 0.3121164397692E+01
 0.3249203340244E+01
 0.3375182389054E+01
 0.3490722984783E+01
 0.3589495422301E+01
 0.3668273761176E+01
 0.3726740278029E+01
 0.3766572217896E+01
 0.3790419412835E+01
 0.3801123476120E+01
 0.3801259847387E+01
 0.3792938582508E+01
 0.3777764573256E+01
 0.3756876078705E+01
 0.3731011039560E+01
 0.3700575575844E+01
 0.3665704979447E+01
 0.3626318060672E+01
 0.3582167010012E+01
 0.3532891535454E+01
 0.3478082974621E+01
 0.3417358373194E+01
 0.3350444443581E+01
 0.3277282265782E+01
 0.3198213269267E+01
 0.3114109707027E+01
 0.3026391796834E+01
 0.2937138874674E+01
 0.2849389272803E+01
 0.2767672709281E+01
 0.2698808031178E+01
 0.2652970221177E+01
 0.2644912753501E+01
 0.2694857209873E+01
 0.2828042667808E+01
 0.3071260042063E+01
 0.3444969105837E+01
 0.3952377983916E+01
 0.4569900676618E+01
 0.5243336301992E+01
 0.5897355618358E+01
 0.3046187383469E+01
 0.3167267515438E+01
 0.3286694577881E+01
 0.3397034857004E+01
 0.3492475048509E+01
 0.3569775989885E+01
 0.3628228262278E+01
 0.3668971506813E+01
 0.3694151408678E+01
 0.3706224452036E+01
 0.3707512838207E+01
 0.3699981922666E+01
 0.3685168052573E+01
 0.3664189235008E+01
 0.3637792213606E+01
 0.3606409957292E+01
 0.3570218026034E+01
 0.3529188736571E+01
 0.3483143378441E+01
 0.3431809627089E+01
 0.3374888450968E+01
 0.3312129690839E+01
 0.3243416996679E+01
 0.3168873550991E+01
 0.3089045532344E+01
 0.3005038173233E+01
 0.2918552740979E+01
 0.2832015738668E+01
 0.2748883907791E+01
 0.2674159104005E+01
 0.2615129721170E+01
 0.2582308741079E+01
 0.2590392464964E+01
 0.2658690668068E+01
 0.2810069107999E+01
 0.3067136418017E+01
 0.3445050820587E+01
 0.3942660173397E+01
 0.4535532209206E+01
 0.5174488845990E+01
 0.5797293202629E+01
 0.2972085678909E+01
 0.3086702423819E+01
 0.3199982190844E+01
 0.3305301450648E+01
 0.3397326027847E+01
 0.3472862872267E+01
 0.3530914569851E+01
 0.3572178959897E+01
 0.3598359738379E+01
 0.3611555697611E+01
 0.3613839188586E+01
 0.3607022124047E+01
 0.3592560017888E+01
 0.3571539540029E+01
 0.3544708337972E+01
 0.3512521895789E+01
 0.3475194833000E+01
 0.3432754043371E+01
 0.3385092249068E+01
 0.3332027675691E+01
 0.3273372955429E+01
 0.3209011804104E+01
 0.3138984823237E+01
 0.3063595986538E+01
 0.2983592792872E+01
 0.2900305813512E+01
 0.2815701530258E+01
 0.2732524145935E+01
 0.2654599367020E+01
 0.2587324555275E+01
 0.2538345423947E+01
 0.2518356788553E+01
 0.2541799715377E+01
 0.2626878535122E+01
 0.2794045374265E+01
 0.3062084962565E+01
 0.3441731525542E+01
 0.3928580113992E+01
 0.4498144979824E+01
 0.5106185007277E+01
 0.5699603790522E+01
 0.2898760300777E+01
 0.3007354967973E+01
 0.3114858113304E+01
 0.3215343763232E+01
 0.3303918135331E+01
 0.3377474017729E+01
 0.3434807565409E+01
 0.3476256628102E+01
 0.3503141094618E+01
 0.3517232164183E+01
 0.3520360892484E+01
 0.3514181973780E+01
 0.3500061449507E+01
 0.3479045760341E+01
 0.3451876545363E+01
 0.3419027560284E+01
 0.3380750721673E+01
 0.3337127561885E+01
 0.3288123260346E+01
 0.3233647701905E+01
 0.3173625665302E+01
 0.3108074177803E+01
 0.3037188918734E+01
 0.2961451000948E+01
 0.2881802925876E+01
 0.2799789662374E+01
 0.2717623786935E+01
 0.2638335226238E+01
 0.2566068583081E+01
 0.2506542896904E+01
 0.2467657492451E+01
 0.2460151123741E+01
 0.2498047356408E+01
 0.2598314236355E+01
 0.2779030679000E+01
 0.3055551108022E+01
 0.3434963523433E+01
 0.3910498809125E+01
 0.4458182781791E+01
 0.5038274808723E+01
 0.5604364933168E+01
 0.2826127009045E+01
 0.2929094765278E+01
 0.3031161106620E+01
 0.3127003218036E+01
 0.3212129705299E+01
 0.3283544851283E+01
 0.3339902192781E+01
 0.3381248821243E+01
 0.3408574115205E+01
 0.3423352694057E+01
 0.3427186499942E+01
 0.3421573227924E+01
 0.3407783996837E+01
 0.3386818183804E+01
 0.3359405523474E+01
 0.3326033989394E+01
 0.3286990606495E+01
 0.3242410741452E+01
 0.3192331898980E+01
 0.3136755408238E+01
 0.3075717259313E+01
 0.3009365700127E+01
 0.2938047867719E+01
 0.2862416267492E+01
 0.2783599632681E+01
 0.2703343776248E+01
 0.2624085941887E+01
 0.2549108560879E+01
 0.2482825918939E+01
 0.2431209202357E+01
 0.2402317341416E+01
 0.2406813863511E+01
 0.2458176791905E+01
 0.2572061806482E+01
 0.2764274196332E+01
 0.3047138655203E+01
 0.3424773390534E+01
 0.3888748249771E+01
 0.4415954590806E+01
 0.4970583521751E+01
 0.5511399988364E+01
 0.2754113527133E+01
 0.2851809991802E+01
 0.2948751485206E+01
 0.3040139093678E+01
 0.3121847795125E+01
 0.3191008997225E+01
 0.3246183305825E+01
 0.3287185224475E+01
 0.3314721665212E+01
 0.3330001354993E+01
 0.3334411674705E+01
 0.3329296648590E+01
 0.3315829730236E+01
 0.3294958267865E+01
 0.3267395193180E+01
 0.3233638900644E+01
 0.3194009017750E+01
 0.3148693206893E+01
 0.3097800152198E+01
 0.3041421230299E+01
 0.2979701421969E+01
 0.2912916708850E+01
 0.2841560488481E+01
 0.2766449092199E+01
 0.2688886705616E+01
 0.2610804474997E+01
 0.2534841450174E+01
 0.2464499157048E+01
 0.2404414322419E+01
 0.2360746022712E+01
 0.2341629078555E+01
 0.2357551182522E+01
 0.2421348648089E+01
 0.2547334812383E+01
 0.2749181323085E+01
 0.3036571643201E+01
 0.3411232414312E+01
 0.3863616695982E+01
 0.4371665865044E+01
 0.4902955181388E+01
 0.5420468588101E+01
 0.2682657346482E+01
 0.2775404046409E+01
 0.2867507551806E+01
 0.2954626185193E+01
 0.3032967936546E+01
 0.3099799892362E+01
 0.3153628236185E+01
 0.3194083488077E+01
 0.3221632872356E+01
 0.3237248741451E+01
 0.3242119840417E+01
 0.3237442180119E+01
 0.3224291041023E+01
 0.3203558426451E+01
 0.3175936509391E+01
 0.3141930604534E+01
 0.3101890209584E+01
 0.3056053128485E+01
 0.3004597197860E+01
 0.2947701398922E+01
 0.2885616330625E+01
 0.2818740968030E+01
 0.2747708382934E+01
 0.2673489633767E+01
 0.2597552004255E+01
 0.2521995106518E+01
 0.2449636254744E+01
 0.2384163306597E+01
 0.2330390952076E+01
 0.2294607745028E+01
 0.2284951135600E+01
 0.2311650305317E+01
 0.2386832633183E+01
 0.2523476561093E+01
 0.2733284982266E+01
 0.3023664227120E+01
 0.3394435873256E+01
 0.3835346513700E+01
 0.4325458758979E+01
 0.4835263307849E+01
 0.5331317299390E+01
 0.2611703965457E+01
 0.2699792851800E+01
 0.2787322630339E+01
 0.2870352688535E+01
 0.2945393615449E+01
 0.3009851804619E+01
 0.3062208717093E+01
 0.3101951319279E+01
 0.3129344872938E+01
 0.3145153162977E+01
 0.3150382825322E+01
 0.3146089176443E+01
 0.3133250606722E+01
 0.3112701875457E+01
 0.3085111304254E+01
 0.3050987940144E+01
 0.3010708265421E+01
 0.2964557561812E+01
 0.2912780033730E+01
 0.2855638908088E+01
 0.2793486012027E+01
 0.2726837471136E+01
 0.2656458254801E+01
 0.2583463805979E+01
 0.2509470986109E+01
 0.2436730181774E+01
 0.2368213373614E+01
 0.2307763270722E+01
 0.2260331331820E+01
 0.2232283283246E+01
 0.2231696264183E+01
 0.2268475241200E+01
 0.2353997059381E+01
 0.2499941916320E+01
 0.2716221424752E+01
 0.3008297348667E+01
 0.3374489514449E+01
 0.3804140786938E+01
 0.4277439163462E+01
 0.4767405975737E+01
 0.5243697018475E+01
 0.2541205468758E+01
 0.2624902672759E+01
 0.2708102616796E+01
 0.2787218351038E+01
 0.2859035654542E+01
 0.2921100492318E+01
 0.2971892385323E+01
 0.3010788251768E+01
 0.3037884403110E+01
 0.3053761836335E+01
 0.3059261624718E+01
 0.3055306813642E+01
 0.3042781574682E+01
 0.3022462709322E+01
 0.2994992363473E+01
 0.2960880440247E+01
 0.2920527425684E+01
 0.2874262999669E+01
 0.2822394305734E+01
 0.2765264665995E+01
 0.2703321861868E+01
 0.2637192378438E+01
 0.2567764316559E+01
 0.2496286195720E+01
 0.2424510140639E+01
 0.2354819253338E+01
 0.2290317023830E+01
 0.2234971267863E+01
 0.2193832599887E+01
 0.2173297761621E+01
 0.2181330617899E+01
 0.2227461979017E+01
 0.2322298677418E+01
 0.2476281079676E+01
 0.2697710229951E+01
 0.2990401071855E+01
 0.3351501954544E+01
 0.3770171889426E+01
 0.4227691747083E+01
 0.4699298923280E+01
 0.5157371031283E+01
 0.2471119368380E+01
 0.2550668323352E+01
 0.2629763920078E+01
 0.2705132818701E+01
 0.2773811499783E+01
 0.2833483530275E+01
 0.2882643857482E+01
 0.2920587029378E+01
 0.2947269112008E+01
 0.2963111913254E+01
 0.2968807084855E+01
 0.2965154473908E+01
 0.2952947737401E+01
 0.2932905969625E+01
 0.2905643482798E+01
 0.2871668457428E+01
 0.2831402352270E+01
 0.2785215832417E+01
 0.2733475012822E+01
 0.2676598487274E+01
 0.2615123965127E+01
 0.2549780706130E+01
 0.2481570384064E+01
 0.2411862581958E+01
 0.2342529908317E+01
 0.2276070131898E+01
 0.2215695913467E+01
 0.2165472463370E+01
 0.2130515646867E+01
 0.2117213093851E+01
 0.2133371916796E+01
 0.2188113203047E+01
 0.2291272896019E+01
 0.2452125236543E+01
 0.2677537894858E+01
 0.2969941449312E+01
 0.3325580768240E+01
 0.3733588695129E+01
 0.4176287609115E+01
 0.4630870123541E+01
 0.5072118917128E+01
 0.2401407650818E+01
 0.2477031694104E+01
 0.2552231742646E+01
 0.2624014196257E+01
 0.2689644506157E+01
 0.2746940450122E+01
 0.2794425538597E+01
 0.2831334745721E+01
 0.2857508717036E+01
 0.2873231450953E+01
 0.2879060614002E+01
 0.2875682214226E+01
 0.2863803825174E+01
 0.2844087845230E+01
 0.2817119658275E+01
 0.2783403418376E+01
 0.2743378510263E+01
 0.2697452910374E+01
 0.2646047294858E+01
 0.2589650145042E+01
 0.2528882447043E+01
 0.2464568007141E+01
 0.2397811908675E+01
 0.2330092316815E+01
 0.2263387361114E+01
 0.2200291739751E+01
 0.2144106034003E+01
 0.2098967337473E+01
 0.2070026566966E+01
 0.2063627915249E+01
 0.2087387151480E+01
 0.2149992947114E+01
 0.2260524698300E+01
 0.2427174100657E+01
 0.2655544558563E+01
 0.2946910915736E+01
 0.3296830630707E+01
 0.3694521952933E+01
 0.4123288310320E+01
 0.4562056558620E+01
 0.4987738604109E+01
 0.2332035990668E+01
 0.2403940531947E+01
 0.2475438634504E+01
 0.2543787787553E+01
 0.2606463236891E+01
 0.2661412737685E+01
 0.2707198204366E+01
 0.2743013757421E+01
 0.2768605988488E+01
 0.2784140286864E+01
 0.2790054865103E+01
 0.2786931254681E+01
 0.2775395846063E+01
 0.2756055931037E+01
 0.2729467334644E+01
 0.2696128127855E+01
 0.2656492585086E+01
 0.2611002122960E+01
 0.2560127214571E+01
 0.2504420389973E+01
 0.2444578758168E+01
 0.2381511944168E+01
 0.2316417846717E+01
 0.2250870472421E+01
 0.2186938559655E+01
 0.2127296539121E+01
 0.2075312927085E+01
 0.2035173454499E+01
 0.2012037499594E+01
 0.2012176990670E+01
 0.2042989975188E+01
 0.2112721335809E+01
 0.2229720343844E+01
 0.2401185235881E+01
 0.2631613365419E+01
 0.2921321289687E+01
 0.3265352497994E+01
 0.3653088116046E+01
 0.4068748212386E+01
 0.4492802564820E+01
 0.4904047372079E+01
 0.2262973093675E+01
 0.2331347417362E+01
 0.2399323262013E+01
 0.2464384981542E+01
 0.2524200776575E+01
 0.2576843712517E+01
 0.2620921384878E+01
 0.2655602383312E+01
 0.2680557553077E+01
 0.2695850786183E+01
 0.2701814343688E+01
 0.2698934431105E+01
 0.2687761412937E+01
 0.2668849482048E+01
 0.2642724646185E+01
 0.2609877054096E+01
 0.2570772864001E+01
 0.2525882920279E+01
 0.2475722455723E+01
 0.2420901854793E+01
 0.2362186808174E+01
 0.2300563666608E+01
 0.2237312277151E+01
 0.2174089667766E+01
 0.2113040511092E+01
 0.2056902477912E+01
 0.2009093396488E+01
 0.1973826639527E+01
 0.1956246902548E+01
 0.1962530163785E+01
 0.1999837856659E+01
 0.2075969469355E+01
 0.2198579836043E+01
 0.2373964932883E+01
 0.2605661931366E+01
 0.2893198592597E+01
 0.3231243223507E+01
 0.3609392002878E+01
 0.4012715968227E+01
 0.4423059039224E+01
 0.4820881992739E+01
 0.2194190148282E+01
 0.2259208912317E+01
 0.2323829373419E+01
 0.2385742294214E+01
 0.2442794107963E+01
 0.2493178372823E+01
 0.2535553650567E+01
 0.2569075492931E+01
 0.2593354614691E+01
 0.2608368555266E+01
 0.2614356032469E+01
 0.2611716706315E+01
 0.2600930158120E+01
 0.2582499771631E+01
 0.2556921768151E+01
 0.2524676723328E+01
 0.2486239719279E+01
 0.2442106923969E+01
 0.2392833093663E+01
 0.2339080009388E+01
 0.2281674122455E+01
 0.2221669174517E+01
 0.2160415960624E+01
 0.2099641780923E+01
 0.2041552948667E+01
 0.1988934693611E+01
 0.1945236928979E+01
 0.1914681848466E+01
 0.1902379556971E+01
 0.1914391146355E+01
 0.1957629271650E+01
 0.2039454683157E+01
 0.2166870280922E+01
 0.2345360567177E+01
 0.2577635593853E+01
 0.2862579259883E+01
 0.3194595485211E+01
 0.3563528833398E+01
 0.3955235804086E+01
 0.4352783343667E+01
 0.4738098646948E+01
 0.2125660363157E+01
 0.2187484836336E+01
 0.2248904908296E+01
 0.2307800518050E+01
 0.2362183516708E+01
 0.2410363179223E+01
 0.2451052771573E+01
 0.2483404941615E+01
 0.2506983529214E+01
 0.2521693036346E+01
 0.2527689929399E+01
 0.2525295621739E+01
 0.2514924105552E+01
 0.2497030413979E+01
 0.2472081229893E+01
 0.2440546066101E+01
 0.2402906027349E+01
 0.2359678453403E+01
 0.2311452256242E+01
 0.2258933976927E+01
 0.2203002825309E+01
 0.2144770468692E+01
 0.2085647637627E+01
 0.2027419347907E+01
 0.1972339744263E+01
 0.1923226804061E+01
 0.1883546676990E+01
 0.1857513612217E+01
 0.1850186210758E+01
 0.1867496073615E+01
 0.1916100869248E+01
 0.2002936107869E+01
 0.2134400000352E+01
 0.2315254161999E+01
 0.2547502009444E+01
 0.2829507279447E+01
 0.3155497789957E+01
 0.3515585732594E+01
 0.3896348529743E+01
 0.4281939332137E+01
 0.4655572407373E+01
 0.2057358575757E+01
 0.2116137654482E+01
 0.2174501238912E+01
 0.2230503983632E+01
 0.2282312053284E+01
 0.2328345830064E+01
 0.2367375818512E+01
 0.2398559926134E+01
 0.2421426307098E+01
 0.2435818055074E+01
 0.2441819569628E+01
 0.2439681761187E+01
 0.2429758075841E+01
 0.2412457731390E+01
 0.2388218276507E+01
 0.2357496808777E+01
 0.2320777623965E+01
 0.2278595073799E+01
 0.2231566788041E+01
 0.2180437330085E+01
 0.2126130574982E+01
 0.2069806618735E+01
 0.2012925205218E+01
 0.1957316796951E+01
 0.1905270114207E+01
 0.1859621958699E+01
 0.1823840189952E+01
 0.1802116251418E+01
 0.1799443058283E+01
 0.1821612013679E+01
 0.1875024777610E+01
 0.1966210648439E+01
 0.2101013427490E+01
 0.2283557047964E+01
 0.2515246878994E+01
 0.2794032067172E+01
 0.3114034585618E+01
 0.3465642968322E+01
 0.3836092476055E+01
 0.4210497530065E+01
 0.4573196629504E+01
 0.1989260920582E+01
 0.2045131955490E+01
 0.2100572517940E+01
 0.2153799912403E+01
 0.2203125041874E+01
 0.2247075028429E+01
 0.2284479209347E+01
 0.2314507262810E+01
 0.2336661037644E+01
 0.2350732304897E+01
 0.2356742506104E+01
 0.2354879194104E+01
 0.2345440086233E+01
 0.2328791124758E+01
 0.2305341234800E+01
 0.2275533864104E+01
 0.2239853747767E+01
 0.2198848117390E+01
 0.2153157868113E+01
 0.2103558817166E+01
 0.2051011400795E+01
 0.1996714701246E+01
 0.1942166728575E+01
 0.1889231481576E+01
 0.1840219592233E+01
 0.1797973637731E+01
 0.1765949896912E+01
 0.1748303878031E+01
 0.1749951081787E+01
 0.1776535458763E+01
 0.1834206070041E+01
 0.1929109375949E+01
 0.2066586713701E+01
 0.2250205453917E+01
 0.2480870568923E+01
 0.2756206887043E+01
 0.3070286432878E+01
 0.3413774979557E+01
 0.3774504319415E+01
 0.4138435300608E+01
 0.4490882261130E+01
 0.1921344545136E+01
 0.1974434001724E+01
 0.2027075110639E+01
 0.2077637842368E+01
 0.2124569626878E+01
 0.2166500240680E+01
 0.2202318707307E+01
 0.2231211592513E+01
 0.2252662234381E+01
 0.2266419760566E+01
 0.2272450734058E+01
 0.2270885877870E+01
 0.2261971720951E+01
 0.2246033419933E+01
 0.2223451854449E+01
 0.2194655690490E+01
 0.2160127440976E+01
 0.2120423145696E+01
 0.2076201548815E+01
 0.2028262985592E+01
 0.1977596410389E+01
 0.1925430577865E+01
 0.1873291260539E+01
 0.1823064491230E+01
 0.1777070756315E+01
 0.1738146195629E+01
 0.1709723346467E+01
 0.1695910197238E+01
 0.1701535270789E+01
 0.1732090811690E+01
 0.1793480393191E+01
 0.1891494303720E+01
 0.2031023959019E+01
 0.2215156866494E+01
 0.2444385426460E+01
 0.2716087656103E+01
 0.3024330181150E+01
 0.3360051200037E+01
 0.3711619734166E+01
 0.4065736897219E+01
 0.4408557008523E+01
 0.1853587367692E+01
 0.1904011343853E+01
 0.1953967106515E+01
 0.2001969129334E+01
 0.2046594371823E+01
 0.2086571474424E+01
 0.2120849407946E+01
 0.2148635556408E+01
 0.2169401147294E+01
 0.2182860066302E+01
 0.2188931104292E+01
 0.2187694064102E+01
 0.2179348518039E+01
 0.2164181238391E+01
 0.2142545675834E+01
 0.2114854675060E+01
 0.2081585966126E+01
 0.2043300415789E+01
 0.2000669282689E+01
 0.1954510773914E+01
 0.1905834442784E+01
 0.1855889593987E+01
 0.1806219555949E+01
 0.1758721333303E+01
 0.1715713810916E+01
 0.1680015258076E+01
 0.1655023319129E+01
 0.1644788227104E+01
 0.1654043834333E+01
 0.1688128974031E+01
 0.1752711846558E+01
 0.1853255603511E+01
 0.1994254068178E+01
 0.2178387104147E+01
 0.2405813716549E+01
 0.2673732110065E+01
 0.2976239213628E+01
 0.3304536798060E+01
 0.3647473982878E+01
 0.3992393509039E+01
 0.4326164579276E+01
 0.1785967868926E+01
 0.1833832484859E+01
 0.1881207889976E+01
 0.1926746502218E+01
 0.1969148891695E+01
 0.2007239060092E+01
 0.2040025700754E+01
 0.2066739925624E+01
 0.2086846019746E+01
 0.2100028869295E+01
 0.2106165688422E+01
 0.2105290665237E+01
 0.2097560323197E+01
 0.2083225337943E+01
 0.2062612366489E+01
 0.2036117479263E+01
 0.2004211174982E+01
 0.1967455284489E+01
 0.1926528369587E+01
 0.1882260003427E+01
 0.1835672598090E+01
 0.1788027129979E+01
 0.1740874615144E+01
 0.1696112425157E+01
 0.1656046969153E+01
 0.1623467923626E+01
 0.1601727769792E+01
 0.1594809898536E+01
 0.1607347371068E+01
 0.1644526000010E+01
 0.1711791069794E+01
 0.1814309196783E+01
 0.1956228129563E+01
 0.2139887964771E+01
 0.2365186028961E+01
 0.2629199208118E+01
 0.2926083685078E+01
 0.3247293267195E+01
 0.3582102340660E+01
 0.3918403173980E+01
 0.4243663860861E+01
 0.1718464912546E+01
 0.1763866587050E+01
 0.1808757763838E+01
 0.1851923670023E+01
 0.1892183523118E+01
 0.1928453448437E+01
 0.1959801224091E+01
 0.1985483707423E+01
 0.2004962313780E+01
 0.2017898121602E+01
 0.2024132117853E+01
 0.2023657602120E+01
 0.2016591630931E+01
 0.2003150944226E+01
 0.1983636047934E+01
 0.1958425370364E+01
 0.1927979854846E+01
 0.1892858577770E+01
 0.1853742353611E+01
 0.1811465801500E+01
 0.1767056678870E+01
 0.1721779043308E+01
 0.1677182099067E+01
 0.1635153443171E+01
 0.1597976686524E+01
 0.1568402825685E+01
 0.1549729658207E+01
 0.1545865593207E+01
 0.1561338051636E+01
 0.1601181863931E+01
 0.1670633572405E+01
 0.1774594731419E+01
 0.1916917293579E+01
 0.2099665395212E+01
 0.2322540103007E+01
 0.2582548757312E+01
 0.2873930778700E+01
 0.3188378919500E+01
 0.3515540404837E+01
 0.3843770616350E+01
 0.4161028114528E+01
 0.1651057590517E+01
 0.1694083214777E+01
 0.1736577617022E+01
 0.1777454973237E+01
 0.1815649029080E+01
 0.1850165025476E+01
 0.1880128818841E+01
 0.1904824234995E+01
 0.1923712910492E+01
 0.1936436355161E+01
 0.1942803898631E+01
 0.1942772132282E+01
 0.1936421910831E+01
 0.1923938069553E+01
 0.1905595608907E+01
 0.1881754534748E+01
 0.1852864048447E+01
 0.1819476922201E+01
 0.1782271367557E+01
 0.1742080955511E+01
 0.1699931543731E+01
 0.1657082004390E+01
 0.1615070621642E+01
 0.1575765537813E+01
 0.1541417758648E+01
 0.1514730070187E+01
 0.1498936684514E+01
 0.1497863636458E+01
 0.1515928828636E+01
 0.1558019352286E+01
 0.1629178307855E+01
 0.1734073928277E+01
 0.1876311110883E+01
 0.2057738125199E+01
 0.2277920014967E+01
 0.2533841226346E+01
 0.2819844981897E+01
 0.3127849294308E+01
 0.3447824296593E+01
 0.3768507010957E+01
 0.4078244191574E+01
 0.1583725089021E+01
 0.1624452105963E+01
 0.1664628627882E+01
 0.1703295071716E+01
 0.1739496332962E+01
 0.1772323943118E+01
 0.1800960481778E+01
 0.1824717242990E+01
 0.1843058286876E+01
 0.1855608929286E+01
 0.1862150698926E+01
 0.1862607153150E+01
 0.1857025911115E+01
 0.1845561809817E+01
 0.1828464994797E+01
 0.1806076362427E+01
 0.1778831336845E+01
 0.1747273028129E+01
 0.1712072415224E+01
 0.1674056188768E+01
 0.1634241365927E+01
 0.1593873720842E+01
 0.1554471916434E+01
 0.1517875414305E+01
 0.1486293285028E+01
 0.1462371052633E+01
 0.1449270933933E+01
 0.1450729748416E+01
 0.1471052675355E+01
 0.1514983078002E+01
 0.1587386481948E+01
 0.1692729273554E+01
 0.1834416288913E+01
 0.2014136712392E+01
 0.2231375678614E+01
 0.2483137717901E+01
 0.2763888371375E+01
 0.3065757481718E+01
 0.3378990747398E+01
 0.3692629658030E+01
 0.3995311750119E+01
 0.1516446571926E+01
 0.1554942967025E+01
 0.1592871996731E+01
 0.1629398663579E+01
 0.1663676279115E+01
 0.1694879966146E+01
 0.1722247322224E+01
 0.1745116933858E+01
 0.1762956674192E+01
 0.1775378254594E+01
 0.1782138611458E+01
 0.1783131480800E+01
 0.1778373938752E+01
 0.1767992617889E+01
 0.1752213471366E+01
 0.1731357700925E+01
 0.1705845083895E+01
 0.1676205923872E+01
 0.1643099591794E+01
 0.1607340359782E+01
 0.1569929799833E+01
 0.1532093054757E+01
 0.1495320884123E+01
 0.1461415287282E+01
 0.1432534508498E+01
 0.1411258164512E+01
 0.1400668439729E+01
 0.1404406460355E+01
 0.1426661857427E+01
 0.1472038617171E+01
 0.1545240589385E+01
 0.1650563040579E+01
 0.1791255838642E+01
 0.1968902964353E+01
 0.2182962629833E+01
 0.2430500085985E+01
 0.2706120911710E+01
 0.3002154374312E+01
 0.3309077080575E+01
 0.3616161570458E+01
 0.3912242463465E+01
 0.1449201079390E+01
 0.1485525288675E+01
 0.1521268705756E+01
 0.1555720235904E+01
 0.1588139424937E+01
 0.1617782345249E+01
 0.1643939535913E+01
 0.1665976052032E+01
 0.1683364216732E+01
 0.1695704013026E+01
 0.1702730410765E+01
 0.1704310124347E+01
 0.1700432136556E+01
 0.1691196574557E+01
 0.1676805884717E+01
 0.1657561101660E+01
 0.1633864666720E+01
 0.1606231166771E+01
 0.1575304269590E+01
 0.1541880613771E+01
 0.1506940085719E+01
 0.1471680064960E+01
 0.1437555554181E+01
 0.1406322743755E+01
 0.1380080564913E+01
 0.1361334422694E+01
 0.1353078695845E+01
 0.1358852524728E+01
 0.1382727262781E+01
 0.1429171790597E+01
 0.1502743697161E+01
 0.1607596654866E+01
 0.1746868621570E+01
 0.1922089748737E+01
 0.2132742115735E+01
 0.2375991234553E+01
 0.2646600822019E+01
 0.2937088916582E+01
 0.3238121160314E+01
 0.3539131037642E+01
 0.3829059282401E+01
 0.1381967438843E+01
 0.1416168174044E+01
 0.1449779293982E+01
 0.1482213832431E+01
 0.1512835848284E+01
 0.1540979698854E+01
 0.1565986377231E+01
 0.1587245944488E+01
 0.1604235105920E+01
 0.1616543344661E+01
 0.1623885771585E+01
 0.1626104517950E+01
 0.1623162715446E+01
 0.1615135611922E+01
 0.1602202869808E+01
 0.1584645009041E+01
 0.1562845640915E+01
 0.1537300978828E+01
 0.1508635196469E+01
 0.1477622433615E+01
 0.1445215040500E+01
 0.1412575922747E+01
 0.1381116910166E+01
 0.1352540464632E+01
 0.1328878093444E+01
 0.1312552971327E+01
 0.1306464066782E+01
 0.1314042263664E+01
 0.1339237731717E+01
 0.1386388029186E+01
 0.1459918910766E+01
 0.1563870334889E+01
 0.1701309226385E+01
 0.1873761119646E+01
 0.2080781415627E+01
 0.2319675524187E+01
 0.2585384938057E+01
 0.2870608278828E+01
 0.3166161223245E+01
 0.3461571042663E+01
 0.3745795611159E+01
 0.1314724186086E+01
 0.1346840179611E+01
 0.1378363650635E+01
 0.1408832846432E+01
 0.1437714984346E+01
 0.1464419924099E+01
 0.1488336155790E+01
 0.1508876638384E+01
 0.1525521724182E+01
 0.1537851038814E+01
 0.1545561488474E+01
 0.1548472753023E+01
 0.1546524186863E+01
 0.1539767736750E+01
 0.1528361057477E+01
 0.1512563944728E+01
 0.1492739895250E+01
 0.1469364363881E+01
 0.1443038565723E+01
 0.1414509650783E+01
 0.1384696996303E+01
 0.1354722763813E+01
 0.1325948641640E+01
 0.1300015867115E+01
 0.1278880767969E+01
 0.1264876513390E+01
 0.1260799147247E+01
 0.1269964903232E+01
 0.1296199429759E+01
 0.1343711863064E+01
 0.1416809063268E+01
 0.1519443052925E+01
 0.1654648228814E+01
 0.1823992826509E+01
 0.2027154473014E+01
 0.2261619377481E+01
 0.2522529176797E+01
 0.2802758089882E+01
 0.3093235743924E+01
 0.3383518677448E+01
 0.3662494490470E+01
 0.1247449495658E+01
 0.1277509164160E+01
 0.1306980820903E+01
 0.1335529832742E+01
 0.1362725486786E+01
 0.1388050132339E+01
 0.1410936252609E+01
 0.1430816929966E+01
 0.1447174791078E+01
 0.1459579719808E+01
 0.1467711684905E+01
 0.1471369796972E+01
 0.1470471580083E+01
 0.1465047237247E+01
 0.1455233262602E+01
 0.1441268669141E+01
 0.1423495777804E+01
 0.1402367188332E+01
 0.1378458039877E+01
 0.1352484399237E+01
 0.1325327670561E+01
 0.1298063460814E+01
 0.1271996807620E+01
 0.1248700652814E+01
 0.1230048733283E+01
 0.1218276653254E+01
 0.1216070049167E+01
 0.1226623866473E+01
 0.1253635231976E+01
 0.1301186500592E+01
 0.1373476594403E+01
 0.1474392789010E+01
 0.1606972818620E+01
 0.1772873201152E+01
 0.1971942838352E+01
 0.2201892075859E+01
 0.2458089092018E+01
 0.2733582733117E+01
 0.3019383356521E+01
 0.3305014522780E+01
 0.3579207751271E+01
 0.1180121116676E+01
 0.1208142138451E+01
 0.1235588814655E+01
 0.1262256329139E+01
 0.1287815103283E+01
 0.1311816598804E+01
 0.1333733143938E+01
 0.1353014470371E+01
 0.1369143494349E+01
 0.1381680007021E+01
 0.1390287988560E+01
 0.1394747672554E+01
 0.1394956616249E+01
 0.1390924843217E+01
 0.1382768621807E+01
 0.1370706287482E+01
 0.1355058159869E+01
 0.1336252191172E+01
 0.1314834693715E+01
 0.1291486977382E+01
 0.1267047932573E+01
 0.1242541281255E+01
 0.1219209375706E+01
 0.1198550224453E+01
 0.1182347906645E+01
 0.1172733106785E+01
 0.1172273566922E+01
 0.1184035969020E+01
 0.1211584055391E+01
 0.1258873428662E+01
 0.1330003550618E+01
 0.1428817015931E+01
 0.1558387746178E+01
 0.1720504391296E+01
 0.1915236893996E+01
 0.2140566700840E+01
 0.2392120454198E+01
 0.2663125661373E+01
 0.2944642828462E+01
 0.3226101949419E+01
 0.3495994945638E+01
 0.1112716314519E+01
 0.1138705120628E+01
 0.1164144429659E+01
 0.1188962707028E+01
 0.1212930594398E+01
 0.1235664763345E+01
 0.1256672476466E+01
 0.1275415897788E+01
 0.1291375660564E+01
 0.1304100708914E+01
 0.1313239737507E+01
 0.1318555667475E+01
 0.1319927913549E+01
 0.1317347918588E+01
 0.1310912763980E+01
 0.1300820387360E+01
 0.1287368528206E+01
 0.1270959016822E+01
 0.1252106972487E+01
 0.1231455715827E+01
 0.1209797565415E+01
 0.1188099530001E+01
 0.1167535735653E+01
 0.1149523068294E+01
 0.1135749238693E+01
 0.1128232868378E+01
 0.1129416303991E+01
 0.1142230593389E+01
 0.1170100209313E+01
 0.1216852101978E+01
 0.1286491780466E+01
 0.1382833509704E+01
 0.1509016717705E+01
 0.1667004111729E+01
 0.1857137561391E+01
 0.2077721412726E+01
 0.2324680027694E+01
 0.2591429953027E+01
 0.2869053433364E+01
 0.3146826660344E+01
 0.3412922251953E+01
 0.1045211814810E+01
 0.1069162982772E+01
 0.1092603068422E+01
 0.1115598025643E+01
 0.1138017664365E+01
 0.1159539243475E+01
 0.1179699145868E+01
 0.1197966957832E+01
 0.1213817897133E+01
 0.1226788973375E+01
 0.1236514131065E+01
 0.1242740480428E+01
 0.1245331122965E+01
 0.1244260579794E+01
 0.1239607901985E+01
 0.1231551092203E+01
 0.1220364986410E+01
 0.1206424149006E+01
 0.1190210541737E+01
 0.1172326726387E+01
 0.1153514898204E+01
 0.1134681051298E+01
 0.1116926062210E+01
 0.1101579976513E+01
 0.1090227806212E+01
 0.1084769203603E+01
 0.1087513622992E+01
 0.1101248693978E+01
 0.1129252603033E+01
 0.1175219548429E+01
 0.1243063145596E+01
 0.1336581309967E+01
 0.1459004081132E+01
 0.1612507780386E+01
 0.1797758365554E+01
 0.2013440887735E+01
 0.2255826261750E+01
 0.2518538820314E+01
 0.2792655613638E+01
 0.3067236351172E+01
 0.3330060872423E+01
 0.9775837480311E+00
 0.9994792952689E+00
 0.1020918565511E+01
 0.1042109919418E+01
 0.1063020945462E+01
 0.1083383910781E+01
 0.1102757436880E+01
 0.1120612676183E+01
 0.1136415775519E+01
 0.1149690470432E+01
 0.1160056407947E+01
 0.1167246392759E+01
 0.1171109090152E+01
 0.1171603841479E+01
 0.1168792952290E+01
 0.1162835141742E+01
 0.1153982280502E+01
 0.1142580863769E+01
 0.1129078148991E+01
 0.1114033653695E+01
 0.1098136430271E+01
 0.1082227711071E+01
 0.1067330646091E+01
 0.1054683225323E+01
 0.1045761848063E+01
 0.1042340572557E+01
 0.1046588516068E+01
 0.1061141719620E+01
 0.1089123887314E+01
 0.1134089960418E+01
 0.1199859822502E+01
 0.1290221931906E+01
 0.1408516955867E+01
 0.1557171266745E+01
 0.1737228157511E+01
 0.1947818206850E+01
 0.2185620055171E+01
 0.2444496206555E+01
 0.2715492449619E+01
 0.2987381207470E+01
 0.3247484983074E+01
 0.9098075943352E+00
 0.9296161633301E+00
 0.9490430222296E+00
 0.9684445193298E+00
 0.9878840382452E+00
 0.1007142030241E+01
 0.1025791218421E+01
 0.1043297569971E+01
 0.1059114035758E+01
 0.1072749582349E+01
 0.1083810022958E+01
 0.1092015434216E+01
 0.1097202009703E+01
 0.1099315753970E+01
 0.1098403645589E+01
 0.1094605961586E+01
 0.1088151810090E+01
 0.1079359162612E+01
 0.1068639458193E+01
 0.1056507390499E+01
 0.1043596408549E+01
 0.1030679821002E+01
 0.1018699154552E+01
 0.1008795669618E+01
 0.1002331703143E+01
 0.1000949438866E+01
 0.1006670343361E+01
 0.1021970390035E+01
 0.1049809450361E+01
 0.1093594176459E+01
 0.1157044590797E+01
 0.1243940737295E+01
 0.1357747752775E+01
 0.1501174262524E+01
 0.1675694590272E+01
 0.1880957295562E+01
 0.2114125424985E+01
 0.2369347053176E+01
 0.2637612103242E+01
 0.2907315957242E+01
 0.3165268843176E+01
 0.8418581227712E+00
 0.8595340480405E+00
 0.8769266461932E+00
 0.8945464127343E+00
 0.9125496143848E+00
 0.9307564648623E+00
 0.9487441873924E+00
 0.9659658816830E+00
 0.9818567875431E+00
 0.9959095700317E+00
 0.1007716786600E+01
 0.1016987503778E+01
 0.1023547530100E+01
 0.1027331488621E+01
 0.1028372582608E+01
 0.1026793674552E+01
 0.1022801576515E+01
 0.1016685636265E+01
 0.1008820806687E+01
 0.9996757057662E+00
 0.9898263067138E+00
 0.9799754521565E+00
 0.9709797681972E+00
 0.9638796989418E+00
 0.9599185920362E+00
 0.9606009005095E+00
 0.9677933664744E+00
 0.9838032380176E+00
 0.1011416158417E+01
 0.1053878917750E+01
 0.1114800952838E+01
 0.1197948312429E+01
 0.1306916972917E+01
 0.1444724228930E+01
 0.1613328420562E+01
 0.1812976112872E+01
 0.2041409914768E+01
 0.2293136339469E+01
 0.2559071134461E+01
 0.2827105081094E+01
 0.3083482108215E+01
 0.7737093260464E+00
 0.7891915877910E+00
 0.8045176369150E+00
 0.8203587089738E+00
 0.8369596675211E+00
 0.8541700388993E+00
 0.8715602558708E+00
 0.8885619307490E+00
 0.9045878055397E+00
 0.9191128184849E+00
 0.9317170772234E+00
 0.9421005627687E+00
 0.9500809340428E+00
 0.9555835025590E+00
 0.9586293726702E+00
 0.9593251964609E+00
 0.9578562148979E+00
 0.9544834090715E+00
 0.9495450367089E+00
 0.9434629384338E+00
 0.9367543585400E+00
 0.9300497892502E+00
 0.9241183428051E+00
 0.9198962004549E+00
 0.9185033841075E+00
 0.9213012791565E+00
 0.9299952064091E+00
 0.9467150360467E+00
 0.9740609439681E+00
 0.1015105864438E+01
 0.1073333160847E+01
 0.1152481947064E+01
 0.1256276460394E+01
 0.1388061216292E+01
 0.1550329067352E+01
 0.1744011433393E+01
 0.1967545430727E+01
 0.2215905761271E+01
 0.2479938242059E+01
 0.2746835171608E+01
 0.3002182297376E+01
 0.7053343444856E+00
 0.7185454095757E+00
 0.7317621216672E+00
 0.7458232269189E+00
 0.7610559246615E+00
 0.7773260510521E+00
 0.7941840426711E+00
 0.8110305133122E+00
 0.8272508236671E+00
 0.8423010457295E+00
 0.8557499940675E+00
 0.8672907554613E+00
 0.8767352381537E+00
 0.8840016172445E+00
 0.8891006814158E+00
 0.8921242363017E+00
 0.8932369250609E+00
 0.8926719756731E+00
 0.8907312111811E+00
 0.8877895659256E+00
 0.8843049550439E+00
 0.8808343362928E+00
 0.8780574085133E+00
 0.8768033426696E+00
 0.8780651641603E+00
 0.8830564798303E+00
 0.8933150302066E+00
 0.9107848942987E+00
 0.9378689969401E+00
 0.9774502783466E+00
 0.1032865801597E+01
 0.1107806826387E+01
 0.1206112716026E+01
 0.1331463311594E+01
 0.1486931100148E+01
 0.1674225349601E+01
 0.1892610663126E+01
 0.2137685223455E+01
 0.2400293847297E+01
 0.2666641674304E+01
 0.2921401589391E+01
 0.6367053759954E+00
 0.6475499699122E+00
 0.6586042439830E+00
 0.6708809632663E+00
 0.6847806055339E+00
 0.7001691223546E+00
 0.7165616368940E+00
 0.7333175015414E+00
 0.7497899705902E+00
 0.7654156157344E+00
 0.7797535950041E+00
 0.7924926065952E+00
 0.8034413678479E+00
 0.8125131728035E+00
 0.8197103551048E+00
 0.8251113728492E+00
 0.8288614770453E+00
 0.8311671080990E+00
 0.8322943929616E+00
 0.8325718262004E+00
 0.8323980822956E+00
 0.8322561473570E+00
 0.8327351759528E+00
 0.8345553447795E+00
 0.8385797583843E+00
 0.8458702751722E+00
 0.8577916136692E+00
 0.8760941665832E+00
 0.9029716750434E+00
 0.9410992577221E+00
 0.9936429822591E+00
 0.1064216978693E+01
 0.1156750349863E+01
 0.1275252962307E+01
 0.1423412430333E+01
 0.1603812936783E+01
 0.1816700062862E+01
 0.2058478830663E+01
 0.2320210226449E+01
 0.2586770537771E+01
 0.2841111702395E+01
 0.5677935684590E+00
 0.5761574874990E+00
 0.5849865576604E+00
 0.5954730750254E+00
 0.6080777855681E+00
 0.6226465944088E+00
 0.6386417876424E+00
 0.6553707383083E+00
 0.6721503984990E+00
 0.6883979780555E+00
 0.7036652224468E+00
 0.7176392863110E+00
 0.7301283885719E+00
 0.7410432323940E+00
 0.7503795905826E+00
 0.7582041729853E+00
 0.7646442538093E+00
 0.7698807941636E+00
 0.7741454475155E+00
 0.7777213528574E+00
 0.7809487593105E+00
 0.7842370419428E+00
 0.7880845090372E+00
 0.7931011916269E+00
 0.8000181798920E+00
 0.8097424740919E+00
 0.8234612369340E+00
 0.8427241105735E+00
 0.8695040554028E+00
 0.9062494920781E+00
 0.9559269239100E+00
 0.1022035661776E+01
 0.1108555514092E+01
 0.1219803658459E+01
 0.1360105141271E+01
 0.1533010559642E+01
 0.1739935768086E+01
 0.1978276788903E+01
 0.2239641160928E+01
 0.2507729178678E+01
 0.2761182073009E+01
 0.4985688708537E+00
 0.5043181472818E+00
 0.5108510398762E+00
 0.5195428982428E+00
 0.5308959034280E+00
 0.5447109319046E+00
 0.5603778426013E+00
 0.5771414284080E+00
 0.5942792151732E+00
 0.6111902815422E+00
 0.6274219227166E+00
 0.6426629188186E+00
 0.6567237490272E+00
 0.6695147769610E+00
 0.6810270798605E+00
 0.6913172722618E+00
 0.7004962456427E+00
 0.7087211176708E+00
 0.7161907770076E+00
 0.7231447299243E+00
 0.7298663820310E+00
 0.7366927107990E+00
 0.7440317704037E+00
 0.7523832006385E+00
 0.7623449003641E+00
 0.7746668808335E+00
 0.7903553157903E+00
 0.8107531953390E+00
 0.8376019909230E+00
 0.8731043261979E+00
 0.9199956383871E+00
 0.9816148401855E+00
 0.1061938486664E+01
 0.1165547743390E+01
 0.1297404792196E+01
 0.1462117705718E+01
 0.1662449672608E+01
 0.1897151474810E+01
 0.2158239103918E+01
 0.2430219273741E+01
 0.2681683109355E+01
 0.4289988108946E+00
 0.4319722410971E+00
 0.4361270420686E+00
 0.4430192098753E+00
 0.4531651340742E+00
 0.4662901554995E+00
 0.4816907847598E+00
 0.4985399044845E+00
 0.5160744243695E+00
 0.5336780499180E+00
 0.5508974367959E+00
 0.5674264690574E+00
 0.5830806586305E+00
 0.5977722003011E+00
 0.6114892928308E+00
 0.6242801616910E+00
 0.6362410996189E+00
 0.6475073614042E+00
 0.6582472843822E+00
 0.6686591196284E+00
 0.6789717834412E+00
 0.6894519032002E+00
 0.7004187036553E+00
 0.7122619715688E+00
 0.7254459588940E+00
 0.7405622784896E+00
 0.7584334954248E+00
 0.7801909480590E+00
 0.8073346609801E+00
 0.8418022363219E+00
 0.8860639635760E+00
 0.9432450071643E+00
 0.1017248838654E+01
 0.1112851872115E+01
 0.1235627384039E+01
 0.1391308393760E+01
 0.1584243550014E+01
 0.1814775788278E+01
 0.2076140431717E+01
 0.2351374394403E+01
 0.2612922998238E+01
 0.3590502552101E+00
 0.3590687188372E+00
 0.3607665560409E+00
 0.3658680434142E+00
 0.3748632859625E+00
 0.3873653930997E+00
 0.4025572054272E+00
 0.4195337493275E+00
 0.4374932750379E+00
 0.4558087466291E+00
 0.4740306972512E+00
 0.4918615873350E+00
 0.5091244267877E+00
 0.5257350649419E+00
 0.5416803861728E+00
 0.5570018342627E+00
 0.5717829692026E+00
 0.5861394406338E+00
 0.6002117302859E+00
 0.6141598976546E+00
 0.6281615894920E+00
 0.6424161257327E+00
 0.6571563872251E+00
 0.6726639292129E+00
 0.6892700097917E+00
 0.7074076476364E+00
 0.7277146437732E+00
 0.7511074921510E+00
 0.7788368709341E+00
 0.8125579074493E+00
 0.8544415954790E+00
 0.9073408972334E+00
 0.9750012226658E+00
 0.1062297158836E+01
 0.1175346027907E+01
 0.1321051469668E+01
 0.1505553788604E+01
 0.1731273097042E+01
 0.1992750893300E+01
 0.2273060377896E+01
 0.2543374156817E+01
 0.2886924098285E+00
 0.2855734224134E+00
 0.2847643289446E+00
 0.2881216582757E+00
 0.2960463454921E+00
 0.3079970290214E+00
 0.3230289455744E+00
 0.3401615062626E+00
 0.3585615585959E+00
 0.3775981020067E+00
 0.3968302365447E+00
 0.4159717737358E+00
 0.4348547876167E+00
 0.4533998182074E+00
 0.4715934358523E+00
 0.4894715941515E+00
 0.5071069172572E+00
 0.5245978863129E+00
 0.5420602574761E+00
 0.5596196577350E+00
 0.5774066279817E+00
 0.5955573714557E+00
 0.6142222006425E+00
 0.6335774482236E+00
 0.6538235264690E+00
 0.6752363784335E+00
 0.6982700170040E+00
 0.7236256344600E+00
 0.7523000901458E+00
 0.7856524484873E+00
 0.8255233234201E+00
 0.8744338357875E+00
 0.9358745716293E+00
 0.1014690302822E+01
 0.1117426308472E+01
 0.1252142440580E+01
 0.1426993602221E+01
 0.1646910156058E+01
 0.1908425836462E+01
 0.2194640502198E+01
 0.2474146691150E+01
 0.2178938239685E+00
 0.2114750480533E+00
 0.2081891782043E+00
 0.2099251413325E+00
 0.2168844358277E+00
 0.2283311007643E+00
 0.2432049747661E+00
 0.2604737201671E+00
 0.2792898115588E+00
 0.2990267823194E+00
 0.3192552876466E+00
 0.3397007969996E+00
 0.3602038522607E+00
 0.3806891364122E+00
 0.4011428719046E+00
 0.4215962284859E+00
 0.4421124674988E+00
 0.4627754227516E+00
 0.4836796252306E+00
 0.5049206758486E+00
 0.5265870761275E+00
 0.5487572041613E+00
 0.5715037924108E+00
 0.5949022126328E+00
 0.6190254564853E+00
 0.6439953220968E+00
 0.6700847739384E+00
 0.6977816004080E+00
 0.7278275534576E+00
 0.7612761649495E+00
 0.7996109917325E+00
 0.8449635393494E+00
 0.9004649211416E+00
 0.9707733785479E+00
 0.1062686365238E+01
 0.1185335874559E+01
 0.1349064119237E+01
 0.1561867303046E+01
 0.1823028788923E+01
 0.2115990289040E+01
 0.2406497328822E+01
 0.1466338184995E+00
 0.1369018440490E+00
 0.1314842775575E+00
 0.1319705692209E+00
 0.1380987825031E+00
 0.1489504736855E+00
 0.1634827712035E+00
 0.1807084488421E+00
 0.1998016421834E+00
 0.2201427675949E+00
 0.2413053092010E+00
 0.2630167169993E+00
 0.2851184846876E+00
 0.3075345081969E+00
 0.3302479965478E+00
 0.3532845496388E+00
 0.3766988928289E+00
 0.4005625084015E+00
 0.4249523846961E+00
 0.4499390428866E+00
 0.4755748740206E+00
 0.5018868426229E+00
 0.5288763642022E+00
 0.5565234440658E+00
 0.5847784358972E+00
 0.6136134141408E+00
 0.6431248939426E+00
 0.6735916685951E+00
 0.7055026291817E+00
 0.7396013252927E+00
 0.7769941598769E+00
 0.8193714456801E+00
 0.8693990051619E+00
 0.9313679536671E+00
 0.1012087935778E+01
 0.1121575493415E+01
 0.1272459011948E+01
 0.1476415365739E+01
 0.1736457022644E+01
 0.2037180809548E+01
 0.2340789189977E+01
 0.7497165997029E-01
 0.6302272080353E-01
 0.5807284862051E-01
 0.5922856467848E-01
 0.6439568726745E-01
 0.7325259683998E-01
 0.8594253255589E-01
 0.1020272515758E+00
 0.1207119683523E+00
 0.1412558458887E+00
 0.1631219998292E+00
 0.1859669667962E+00
 0.2095909797844E+00
 0.2338937945219E+00
 0.2588432274409E+00
 0.2844534081171E+00
 0.3107687044865E+00
 0.3378492774913E+00
 0.3657578374169E+00
 0.3945449534824E+00
 0.4242334966807E+00
 0.4548064702846E+00
 0.4862015210523E+00
 0.5183102749699E+00
 0.5509666610762E+00
 0.5839990134007E+00
 0.6173339264704E+00
 0.6510482003847E+00
 0.6853838324881E+00
 0.7207755837809E+00
 0.7579410521596E+00
 0.7980885329895E+00
 0.8433200664552E+00
 0.8973658783789E+00
 0.9667440955186E+00
 0.1062036682400E+01
 0.1198119824576E+01
 0.1390977637179E+01
 0.1648672321311E+01
 0.1958102914289E+01
 0.2277286655029E+01
 0.8408429253348E-02
 0.2890500982423E-01
 0.4600336632209E-01
 0.5342208009803E-01
 0.5207168900718E-01
 0.4533310919993E-01
 0.3824501549184E-01
 0.3764782181862E-01
 0.4741172855921E-01
 0.6457585224463E-01
 0.8565696073232E-01
 0.1089705269932E+00
 0.1337952138993E+00
 0.1598179391283E+00
 0.1869119546942E+00
 0.2150451938849E+00
 0.2442366967763E+00
 0.2745301089628E+00
 0.3059742006971E+00
 0.3386035420577E+00
 0.3724179826376E+00
 0.4073646721245E+00
 0.4433261781310E+00
 0.4801141243237E+00
 0.5174537152854E+00
 0.5550371576681E+00
 0.5926296361803E+00
 0.6301155641201E+00
 0.6674997359373E+00
 0.7049152193767E+00
 0.7426889244764E+00
 0.7815212071234E+00
 0.8228688877456E+00
 0.8697105559297E+00
 0.9279177949302E+00
 0.1008165198660E+01
 0.1127314347007E+01
 0.1306219780372E+01
 0.1559664298383E+01
 0.1878538526281E+01
 0.2216256633047E+01
 0.7156259999241E-01
 0.9918880062121E-01
 0.1188498922953E+00
 0.1265780464156E+00
 0.1234682188567E+00
 0.1125142979465E+00
 0.9654367002359E-01
 0.7761784272029E-01
 0.5733481956955E-01
 0.3800662960731E-01
 0.2715771244892E-01
 0.3695434685709E-01
 0.5928366769539E-01
 0.8586760854187E-01
 0.1146495331020E+00
 0.1450960802085E+00
 0.1770594373261E+00
 0.2105163838305E+00
 0.2454839561519E+00
 0.2819769130643E+00
 0.3199754104913E+00
 0.3593980512623E+00
 0.4000815372269E+00
 0.4417670742939E+00
 0.4840803392569E+00
 0.5265867207427E+00
 0.5689005322076E+00
 0.6107259621474E+00
 0.6518438356815E+00
 0.6920983711851E+00
 0.7314342457421E+00
 0.7700360041900E+00
 0.8086604554351E+00
 0.8493676712884E+00
 0.8970040980449E+00
 0.9617065765775E+00
 0.1061737531863E+01
 0.1223160739259E+01
 0.1469500683079E+01
 0.1798184015313E+01
 0.2157987797914E+01
 0.1452079466390E+00
 0.1777270773352E+00
 0.2002518596838E+00
 0.2088854220760E+00
 0.2055407303357E+00
 0.1939140424720E+00
 0.1770648494221E+00
 0.1568938369328E+00
 0.1344406479776E+00
 0.1102752903780E+00
 0.8479553824669E-01
 0.5856543986087E-01
 0.3363770176489E-01
 0.2346896212949E-01
 0.4426457116833E-01
 0.7519139965596E-01
 0.1093751998580E+00
 0.1457832844566E+00
 0.1841898372795E+00
 0.2245294243703E+00
 0.2667463607056E+00
 0.3107311731417E+00
 0.3562821902626E+00
 0.4030802781457E+00
 0.4506621599513E+00
 0.4984774751818E+00
 0.5460022849927E+00
 0.5927751764836E+00
 0.6383694307126E+00
 0.6823584343432E+00
 0.7243231231717E+00
 0.7639440312622E+00
 0.8012576674382E+00
 0.8372854193328E+00
 0.8754901219304E+00
 0.9247145388321E+00
 0.1003623887363E+01
 0.1143345173783E+01
 0.1378430213132E+01
 0.1716653565019E+01
 0.2102805214785E+01
 0.2198466402083E+00
 0.2584877811696E+00
 0.2843410022619E+00
 0.2938501543640E+00
 0.2902178285390E+00
 0.2780616408240E+00
 0.2607225588074E+00
 0.2400388135924E+00
 0.2169010999529E+00
 0.1917282895007E+00
 0.1647272149722E+00
 0.1360190879132E+00
 0.1057196094266E+00
 0.7407732314254E-01
 0.4218320658198E-01
 0.2069633503990E-01
 0.4300311102624E-01
 0.8064668520675E-01
 0.1220799023998E+00
 0.1661441620968E+00
 0.2125689437211E+00
 0.2611771418865E+00
 0.3117254232986E+00
 0.3638424251177E+00
 0.4169873806212E+00
 0.4705070513151E+00
 0.5237540200178E+00
 0.5761182319264E+00
 0.6269845435292E+00
 0.6756777298452E+00
 0.7214423145746E+00
 0.7634860854191E+00
 0.8011441122856E+00
 0.8343462691322E+00
 0.8648892139775E+00
 0.8995198422217E+00
 0.9558567288440E+00
 0.1069095303897E+01
 0.1287061464607E+01
 0.1633481846917E+01
 0.2051091063215E+01
 0.2954818857141E+00
 0.3412153079246E+00
 0.3705269015638E+00
 0.3805799392557E+00
 0.3763942590761E+00
 0.3636526610519E+00
 0.3458975218040E+00
 0.3248254480385E+00
 0.3011628637130E+00
 0.2752192306618E+00
 0.2471335945087E+00
 0.2169720462724E+00
 0.1847665540485E+00
 0.1505367659474E+00
 0.1143255550749E+00
 0.7633502792312E-01
 0.3794667780747E-01
 0.2180645940631E-01
 0.5970938117438E-01
 0.1067947079229E+00
 0.1572914648142E+00
 0.2105396159101E+00
 0.2661908239937E+00
 0.3238182688703E+00
 0.3828144074586E+00
 0.4424377544241E+00
 0.5019344546224E+00
 0.5605649550061E+00
 0.6175468818162E+00
 0.6719815092355E+00
 0.7228110523046E+00
 0.7688191934157E+00
 0.8086980902891E+00
 0.8413143132094E+00
 0.8666498950385E+00
 0.8886408370193E+00
 0.9220385196105E+00
 0.1003854517189E+01
 0.1196675718512E+01
 0.1548148822815E+01
 0.2003323417370E+01
 0.3722571211378E+00
 0.4260836407365E+00
 0.4587415196027E+00
 0.4687804158450E+00
 0.4637128782783E+00
 0.4503506622269E+00
 0.4322633493447E+00
 0.4108939216177E+00
 0.3867782240616E+00
 0.3601260959625E+00
 0.3310301501170E+00
 0.2995344323957E+00
 0.2656548637834E+00
 0.2293847582324E+00
 0.1906995751246E+00
 0.1495713412796E+00
 0.1060220758699E+00
 0.6042614115902E-01
 0.1906616445282E-01
 0.4717671761240E-01
 0.1008279175792E+00
 0.1586192633869E+00
 0.2194404872721E+00
 0.2827472700766E+00
 0.3478694096862E+00
 0.4139932160819E+00
 0.4802778634990E+00
 0.5458754312625E+00
 0.6098588536077E+00
 0.6711323487719E+00
 0.7283738511901E+00
 0.7800050434322E+00
 0.8241697042731E+00
 0.8587833530780E+00
 0.8820453115572E+00
 0.8946226488761E+00
 0.9064639702299E+00
 0.9526090362048E+00
 0.1109777961826E+01
 0.1460170886789E+01
 0.1960153222700E+01
 0.4504020031164E+00
 0.5134171110461E+00
 0.5489990673386E+00
 0.5582310500733E+00
 0.5519637346667E+00
 0.5380370206853E+00
 0.5197583347705E+00
 0.4981975664145E+00
 0.4736912611070E+00
 0.4463667578871E+00
 0.4162879340744E+00
 0.3834923385526E+00
 0.3479956340455E+00
 0.3097884138585E+00
 0.2688340952823E+00
 0.2250710116418E+00
 0.1784223398174E+00
 0.1288300661715E+00
 0.7640958486620E-01
 0.2380108148141E-01
 0.4366050217671E-01
 0.1052400242901E+00
 0.1712206338525E+00
 0.2403424026216E+00
 0.3118437726225E+00
 0.3848548134599E+00
 0.4584698359492E+00
 0.5317553633162E+00
 0.6036626451518E+00
 0.6729249677247E+00
 0.7379944867111E+00
 0.7970006386517E+00
 0.8476620790906E+00
 0.8871309196542E+00
 0.9120531584901E+00
 0.9198013296811E+00
 0.9139258912583E+00
 0.9223045558460E+00
 0.1031051998630E+01
 0.1369362557591E+01
 0.1922564384712E+01
 0.5302686026280E+00
 0.6036578947820E+00
 0.6412590835162E+00
 0.6486448735938E+00
 0.6409716888983E+00
 0.6266861941268E+00
 0.6084225352946E+00
 0.5867905690675E+00
 0.5619516821033E+00
 0.5339792236030E+00
 0.5029293275498E+00
 0.4688475680549E+00
 0.4317593629223E+00
 0.3916608985882E+00
 0.3485141350981E+00
 0.3022461762206E+00
 0.2527530241209E+00
 0.1999112366966E+00
 0.1436039761419E+00
 0.8383239299175E-01
 0.2257947708860E-01
 0.5044826186557E-01
 0.1212680886486E+00
 0.1962892487600E+00
 0.2743913904243E+00
 0.3546577615281E+00
 0.4361427869075E+00
 0.5178513654282E+00
 0.5986354005022E+00
 0.6770814818119E+00
 0.7514513790530E+00
 0.8196517956669E+00
 0.8791171081101E+00
 0.9264824552039E+00
 0.9572409206663E+00
 0.9659962170798E+00
 0.9492875563303E+00
 0.9220623834003E+00
 0.9689292276487E+00
 0.1276526781573E+01
 0.1892227241719E+01
 0.6124180566703E+00
 0.6973655788741E+00
 0.7352931290572E+00
 0.7395952454944E+00
 0.7305929312262E+00
 0.7163524757212E+00
 0.6983607811039E+00
 0.6767782860622E+00
 0.6516534098995E+00
 0.6230433817190E+00
 0.5910214459407E+00
 0.5556561290618E+00
 0.5169913303179E+00
 0.4750341460024E+00
 0.4297489464058E+00
 0.3810563559417E+00
 0.3288358684593E+00
 0.2729336718521E+00
 0.2131737727720E+00
 0.1493834571485E+00
 0.8149378996838E-01
 0.1278590686752E-01
 0.6934593991458E-01
 0.1502457341952E+00
 0.2351257163380E+00
 0.3229867234281E+00
 0.4128711712029E+00
 0.5037462792456E+00
 0.5943845846450E+00
 0.6832470591941E+00
 0.7684344719374E+00
 0.8476907866343E+00
 0.9183067476202E+00
 0.9766866829751E+00
 0.1017680055403E+01
 0.1034149846788E+01
 0.1016735056499E+01
 0.9629055748731E+00
 0.9378554052395E+00
 0.1185221412729E+01
 0.1872339573588E+01
 0.6977994863788E+00
 0.7951880111754E+00
 0.8304585361709E+00
 0.8304826591113E+00
 0.8207785736937E+00
 0.8071857218995E+00
 0.7897315961895E+00
 0.7683020720875E+00
 0.7429154498977E+00
 0.7136581956741E+00
 0.6806482977722E+00
 0.6439916112051E+00
 0.6037583773000E+00
 0.5599706064562E+00
 0.5125970011426E+00
 0.4615527766652E+00
 0.4067025355462E+00
 0.3478673577706E+00
 0.2848325609047E+00
 0.2173606167603E+00
 0.1452171997557E+00
 0.6827714448465E-01
 0.1601686742896E-01
 0.1018438624984E+00
 0.1936163761428E+00
 0.2893706306512E+00
 0.3881662767191E+00
 0.4889546618112E+00
 0.5904436620613E+00
 0.6909859004547E+00
 0.7885433228500E+00
 0.8807393734269E+00
 0.9648348672837E+00
 0.1037298029369E+01
 0.1092912775141E+01
 0.1124013225619E+01
 0.1118555919835E+01
 0.1056599724667E+01
 0.9607808048673E+00
 0.1106193550105E+01
 0.1869831402432E+01
 0.7881434805815E+00
 0.8976752875856E+00
 0.9252708120360E+00
 0.9206243341923E+00
 0.9117090639602E+00
 0.8994366893596E+00
 0.8827420922885E+00
 0.8615338936196E+00
 0.8358730016317E+00
 0.8059325306997E+00
 0.7719004125895E+00
 0.7339329309724E+00
 0.6921331512329E+00
 0.6465408039012E+00
 0.5971297478291E+00
 0.5438095375354E+00
 0.4864292751570E+00
 0.4247848714673E+00
 0.3586256928225E+00
 0.2876635380968E+00
 0.2115853431816E+00
 0.1300750281050E+00
 0.4296642673778E-01
 0.5070539568448E-01
 0.1493850326487E+00
 0.2532762214301E+00
 0.3614704032723E+00
 0.4729187025213E+00
 0.5862684892940E+00
 0.6997771079547E+00
 0.8112861434316E+00
 0.9183159576788E+00
 0.1018159460287E+01
 0.1107570772055E+01
 0.1181941750498E+01
 0.1234125441695E+01
 0.1253483648808E+01
 0.1212495100476E+01
 0.1070628787815E+01
 0.1067937452568E+01
 0.1901827141440E+01
 0.8869317876673E+00
 0.1004437717940E+01
 0.1016669641523E+01
 0.1009756866830E+01
 0.1003926700899E+01
 0.9934175851542E+00
 0.9776572617170E+00
 0.9566685255720E+00
 0.9306721539436E+00
 0.8999798771529E+00
 0.8648695145556E+00
 0.8255587548638E+00
 0.7821876739761E+00
 0.7348152209604E+00
 0.6834202068783E+00
 0.6279054524999E+00
 0.5681031034441E+00
 0.5037824762507E+00
 0.4346564328008E+00
 0.3603883548522E+00
 0.2805996243337E+00
 0.1948714434078E+00
 0.1027667291723E+00
 0.4772480078432E-02
 0.1018998508147E+00
 0.2140994225911E+00
 0.3321501121732E+00
 0.4550048062967E+00
 0.5812353606094E+00
 0.7090100057584E+00
 0.8360774839091E+00
 0.9598483381904E+00
 0.1077627617069E+01
 0.1186528513929E+01
 0.1283118755392E+01
 0.1362227959173E+01
 0.1415918191586E+01
 0.1429724428609E+01
 0.1308319422707E+01
 0.1137947221214E+01
 0.2018134603753E+01
 0.1002226182574E+01
 0.1110270933205E+01
 0.1099652835638E+01
 0.1099520089022E+01
 0.1098011789339E+01
 0.1089548665692E+01
 0.1074792601970E+01
 0.1053913861844E+01
 0.1027466281472E+01
 0.9959135939266E+00
 0.9596450133785E+00
 0.9189440090165E+00
 0.8739898321282E+00
 0.8248603320248E+00
 0.7715380659201E+00
 0.7139172621439E+00
 0.6518111328420E+00
 0.5849605352838E+00
 0.5130404096236E+00
 0.4356661383883E+00
 0.3523981336222E+00
 0.2627353779351E+00
 0.1660949984851E+00
 0.6184259200790E-01
 0.5056742592991E-01
 0.1711532776044E+00
 0.2994882628581E+00
 0.4345011519337E+00
 0.5746417313337E+00
 0.7179812304833E+00
 0.8622256659654E+00
 0.1004696568322E+01
 0.1142516874411E+01
 0.1273098583847E+01
 0.1394220802639E+01
 0.1504839106544E+01
 0.1599735729255E+01
 0.1684657680162E+01
 0.1704628631834E+01
 0.1446878563959E+01
 0.2395365912917E+01
 0.1157274702682E+01
 0.1183907203866E+01
 0.1177301638199E+01
 0.1192420641826E+01
 0.1194391613834E+01
 0.1188478453692E+01
 0.1174448910674E+01
 0.1153498951733E+01
 0.1126405899522E+01
 0.1093844067163E+01
 0.1056310519310E+01
 0.1014157270646E+01
 0.9676008711245E+00
 0.9167360913777E+00
 0.8615468588324E+00
 0.8019163276743E+00
 0.7376358341639E+00
 0.6684165486554E+00
 0.5938926539915E+00
 0.5136325160989E+00
 0.4271386657468E+00
 0.3338413397255E+00
 0.2330669435570E+00
 0.1239306636816E+00
 0.5295947708526E-02
 0.1236507247501E+00
 0.2626746194585E+00
 0.4106164648462E+00
 0.5657106716392E+00
 0.7258970725108E+00
 0.8889116002648E+00
 0.1052134478358E+01
 0.1212209579787E+01
 0.1366014168265E+01
 0.1513338028636E+01
 0.1655691177570E+01
 0.1801486835414E+01
 0.1943324380463E+01
 0.2197783054919E+01
 0.2154689976652E+01
 0.3871573827762E+01
 0.7201615024646E+00
 0.1019758222683E+01
 0.1309809685627E+01
 0.1578815206186E+01
 0.1822039719761E+01
 0.2037955658831E+01
 0.2226388702062E+01
 0.2388444315682E+01
 0.2526339937299E+01
 0.2642742224506E+01
 0.2740306615894E+01
 0.2821534459184E+01
 0.2888708634141E+01
 0.2943797483947E+01
 0.2988404388006E+01
 0.3023766607189E+01
 0.3050366705535E+01
 0.3068472093035E+01
 0.3079707511978E+01
 0.3086867723771E+01
 0.6948498048788E+00
 0.9926730049153E+00
 0.1280634512270E+01
 0.1548996152760E+01
 0.1793106931164E+01
 0.2011330962118E+01
 0.2203437700878E+01
 0.2370276665582E+01
 0.2513691113801E+01
 0.2636024770452E+01
 0.2739706319712E+01
 0.2827091404917E+01
 0.2900382996490E+01
 0.2961544052305E+01
 0.3012246072737E+01
 0.3053755417656E+01
 0.3086537389248E+01
 0.3110992515047E+01
 0.3126984332292E+01
 0.3132443278100E+01
 0.6708865822663E+00
 0.9678902660665E+00
 0.1254361694314E+01
 0.1522034987685E+01
 0.1766715113847E+01
 0.1986745096122E+01
 0.2181824846175E+01
 0.2352658792366E+01
 0.2500825615300E+01
 0.2628397365579E+01
 0.2737597050969E+01
 0.2830639423437E+01
 0.2909640930903E+01
 0.2976527317570E+01
 0.3032942289981E+01
 0.3080083428327E+01
 0.3118448594637E+01
 0.3148094826657E+01
 0.3168328810945E+01
 0.3178341653165E+01
 0.6483094101719E+00
 0.9450199294706E+00
 0.1230430813999E+01
 0.1497450940571E+01
 0.1742415883319E+01
 0.1963778984507E+01
 0.2161225735295E+01
 0.2335366014015E+01
 0.2487587455917E+01
 0.2619744552827E+01
 0.2733878163214E+01
 0.2832066536261E+01
 0.2916327441454E+01
 0.2988512730999E+01
 0.3050189219859E+01
 0.3102476212913E+01
 0.3145820524416E+01
 0.3180192818267E+01
 0.3205303711902E+01
 0.3221308539719E+01
 0.6270425459385E+00
 0.9238183076672E+00
 0.1208428279780E+01
 0.1474798601680E+01
 0.1719797817392E+01
 0.1942068100381E+01
 0.2141338747105E+01
 0.2318169099089E+01
 0.2473807097997E+01
 0.2609933775326E+01
 0.2728431073803E+01
 0.2831245230474E+01
 0.2920284536500E+01
 0.2997304968258E+01
 0.3063781802449E+01
 0.3120754148607E+01
 0.3168676467832E+01
 0.3207672002226E+01
 0.3237883859952E+01
 0.3260117204849E+01
 0.6070043579268E+00
 0.9040609223221E+00
 0.1188016573126E+01
 0.1453694237735E+01
 0.1698490555081E+01
 0.1921281713370E+01
 0.2121884263570E+01
 0.2300844017407E+01
 0.2459309459669E+01
 0.2598823034621E+01
 0.2721128216173E+01
 0.2828045152658E+01
 0.2921368216219E+01
 0.3002750431275E+01
 0.3073576959292E+01
 0.3134836647444E+01
 0.3187053741871E+01
 0.3230549698273E+01
 0.3265814081394E+01
 0.3294053906492E+01
 0.5881168238200E+00
 0.8855483558956E+00
 0.1168903790646E+01
 0.1433805285515E+01
 0.1678164660283E+01
 0.1901119288399E+01
 0.2102602808206E+01
 0.2283176313963E+01
 0.2443920725295E+01
 0.2586268000161E+01
 0.2711841066560E+01
 0.2822341973273E+01
 0.2919453433998E+01
 0.3004728490303E+01
 0.3079476148472E+01
 0.3144665792354E+01
 0.3200912217447E+01
 0.3248720489033E+01
 0.3288826579732E+01
 0.3322657348626E+01
 0.5703093818462E+00
 0.8681037155187E+00
 0.1150835191628E+01
 0.1414840328414E+01
 0.1658527371076E+01
 0.1881308819065E+01
 0.2083255046558E+01
 0.2264963775173E+01
 0.2427473286891E+01
 0.2572127920368E+01
 0.2700446190464E+01
 0.2814021965152E+01
 0.2914433463725E+01
 0.3003143168169E+01
 0.3081400425476E+01
 0.3150174064662E+01
 0.3210168256668E+01
 0.3262037230864E+01
 0.3306678361697E+01
 0.3345601488606E+01
 0.5535194489703E+00
 0.8515711777790E+00
 0.1133587563773E+01
 0.1396543061092E+01
 0.1639318373830E+01
 0.1861605141772E+01
 0.2063622029265E+01
 0.2246018506383E+01
 0.2409809359408E+01
 0.2556269988179E+01
 0.2686829204114E+01
 0.2802983858218E+01
 0.2906217774198E+01
 0.2997914596286E+01
 0.3079277807123E+01
 0.3151284850313E+01
 0.3214717780095E+01
 0.3270343509319E+01
 0.3319152990945E+01
 0.3362640367392E+01
 0.5376920840568E+00
 0.8358141943825E+00
 0.1116965468965E+01
 0.1378688018634E+01
 0.1620306697162E+01
 0.1841788488489E+01
 0.2043505399894E+01
 0.2226168576861E+01
 0.2390783690424E+01
 0.2538572423144E+01
 0.2670887215854E+01
 0.2789139474372E+01
 0.2894729755117E+01
 0.2988974264878E+01
 0.3073040756330E+01
 0.3147917976305E+01
 0.3214451011301E+01
 0.3273486932850E+01
 0.3326059860431E+01
 0.3373584068097E+01
 0.5227791671047E+00
 0.8207136500009E+00
 0.1100798210695E+01
 0.1361077346872E+01
 0.1601288237844E+01
 0.1821663223784E+01
 0.2022727389054E+01
 0.2205259135480E+01
 0.2370265436016E+01
 0.2518926516445E+01
 0.2652530300181E+01
 0.2772413931799E+01
 0.2879905519795E+01
 0.2976263779712E+01
 0.3062627575227E+01
 0.3139995880958E+01
 0.3209261897567E+01
 0.3271326485514E+01
 0.3327233011571E+01
 0.3378283872115E+01
 0.5087385196347E+00
 0.8061661443494E+00
 0.1084937385138E+01
 0.1343538296154E+01
 0.1582083840602E+01
 0.1801056813873E+01
 0.2001130734900E+01
 0.2183153173849E+01
 0.2348139471303E+01
 0.2497238035963E+01
 0.2631682512622E+01
 0.2752745993249E+01
 0.2861693896048E+01
 0.2959735587514E+01
 0.3047985307177E+01
 0.3127449177218E+01
 0.3199055017617E+01
 0.3263737327406E+01
 0.3322528767106E+01
 0.3376612132654E+01
 0.4955330060030E+00
 0.7920823981344E+00
 0.1069254788458E+01
 0.1325921147170E+01
 0.1562537687758E+01
 0.1779818893068E+01
 0.1978578469128E+01
 0.2159731950098E+01
 0.2324307230708E+01
 0.2473428171902E+01
 0.2608282673054E+01
 0.2730088655699E+01
 0.2840057194341E+01
 0.2939354668308E+01
 0.3029073043751E+01
 0.3110221581691E+01
 0.3183751127472E+01
 0.3250614983935E+01
 0.3311824661568E+01
 0.3368452062976E+01
 0.4831296923844E+00
 0.7783857912121E+00
 0.1053640593353E+01
 0.1308097430975E+01
 0.1542515892361E+01
 0.1757820382204E+01
 0.1954953590514E+01
 0.2134895157604E+01
 0.2298687219855E+01
 0.2447434199220E+01
 0.2582285056777E+01
 0.2704409938770E+01
 0.2814972409093E+01
 0.2915100609339E+01
 0.3005865190807E+01
 0.3088274229922E+01
 0.3163291926268E+01
 0.3231879738967E+01
 0.3295023992919E+01
 0.3353703853274E+01
 0.4714991220939E+00
 0.7650110777397E+00
 0.1038001777647E+01
 0.1289958402650E+01
 0.1521905270550E+01
 0.1734952674444E+01
 0.1930158686048E+01
 0.2108560941158E+01
 0.2271215330337E+01
 0.2419209983603E+01
 0.2553660052692E+01
 0.2675693790998E+01
 0.2786432606052E+01
 0.2886969746291E+01
 0.2978354493933E+01
 0.3061589433749E+01
 0.3137644206591E+01
 0.3207481115280E+01
 0.3272061801005E+01
 0.3332294063465E+01
 0.4606146591456E+00
 0.7519032081070E+00
 0.1022260697323E+01
 0.1271413642839E+01
 0.1500612175990E+01
 0.1711126795938E+01
 0.1904115439195E+01
 0.2080665731042E+01
 0.2241844945303E+01
 0.2388726306820E+01
 0.2522394711478E+01
 0.2643940951516E+01
 0.2754448258785E+01
 0.2854977129174E+01
 0.2946554671358E+01
 0.3030173840862E+01
 0.3106803330882E+01
 0.3177401593466E+01
 0.3242908847838E+01
 0.3304182299094E+01
 0.4504519411933E+00
 0.7390162856793E+00
 0.1006353816592E+01
 0.1252389796912E+01
 0.1478561418772E+01
 0.1686272584073E+01
 0.1876764089698E+01
 0.2051163975694E+01
 0.2210546917580E+01
 0.2355971070017E+01
 0.2488493193596E+01
 0.2609169716431E+01
 0.2719048439957E+01
 0.2819158221007E+01
 0.2910502609661E+01
 0.2994060995735E+01
 0.3070795966688E+01
 0.3141659303648E+01
 0.3207574398309E+01
 0.3269366304494E+01
 0.4409884050034E+00
 0.7263126214427E+00
 0.9902305421823E+00
 0.1232829397122E+01
 0.1455695222400E+01
 0.1660337850982E+01
 0.1848062827656E+01
 0.2020027766799E+01
 0.2177309414507E+01
 0.2320949353838E+01
 0.2451977067385E+01
 0.2571416529801E+01
 0.2680281772807E+01
 0.2779570249418E+01
 0.2870260081422E+01
 0.2953313296045E+01
 0.3029682094014E+01
 0.3100309955005E+01
 0.3166108418233E+01
 0.3227885915911E+01
 0.4322028830217E+00
 0.7137618682419E+00
 0.9738521387837E+00
 0.1212689743198E+01
 0.1431972199971E+01
 0.1633287521205E+01
 0.1817987117815E+01
 0.1987246355485E+01
 0.2142137622561E+01
 0.2283683312817E+01
 0.2412885412184E+01
 0.2530736333322E+01
 0.2638217068747E+01
 0.2736293148201E+01
 0.2825914950998E+01
 0.2908023352557E+01
 0.2983556375514E+01
 0.3053448181362E+01
 0.3118603258317E+01
 0.3179826064701E+01
 0.4240752670875E+00
 0.7013402379164E+00
 0.9571907254394E+00
 0.1191941846986E+01
 0.1407366364111E+01
 0.1605102767382E+01
 0.1786528984753E+01
 0.1952825592568E+01
 0.2105053340169E+01
 0.2244211920664E+01
 0.2371274727259E+01
 0.2487202661779E+01
 0.2592943633105E+01
 0.2689430079382E+01
 0.2777581882220E+01
 0.2858314812301E+01
 0.2932549012939E+01
 0.3001208405033E+01
 0.3065194786300E+01
 0.3125318863684E+01
 0.4165862147949E+00
 0.6890297697400E+00
 0.9402283177695E+00
 0.1170569405511E+01
 0.1381866138415E+01
 0.1575780115716E+01
 0.1753696233761E+01
 0.1916787268270E+01
 0.2066094431158E+01
 0.2202590532361E+01
 0.2327218604564E+01
 0.2440907436818E+01
 0.2544571192801E+01
 0.2639107499845E+01
 0.2725402533816E+01
 0.2804342661664E+01
 0.2876826154504E+01
 0.2943765339503E+01
 0.3006062927679E+01
 0.3064544593102E+01
 0.4097168964758E+00
 0.6768176477651E+00
 0.9229559146265E+00
 0.1148567805823E+01
 0.1355473379850E+01
 0.1545330536025E+01
 0.1719511625423E+01
 0.1879168369863E+01
 0.2025314154385E+01
 0.2158890272745E+01
 0.2280807167788E+01
 0.2391960455543E+01
 0.2493229440062E+01
 0.2585474769563E+01
 0.2669545245433E+01
 0.2746293020521E+01
 0.2816589864642E+01
 0.2881334296637E+01
 0.2941432265899E+01
 0.2997732548704E+01
 0.4034487708406E+00
 0.6646955559948E+00
 0.9053726184421E+00
 0.1125943154673E+01
 0.1328202410154E+01
 0.1513778518691E+01
 0.1684012009029E+01
 0.1840020263321E+01
 0.1982780374598E+01
 0.2113197253765E+01
 0.2232146276075E+01
 0.2340488568853E+01
 0.2439067185142E+01
 0.2528703293398E+01
 0.2610204204819E+01
 0.2684382404080E+01
 0.2752077620910E+01
 0.2814171170394E+01
 0.2871573272980E+01
 0.2925162946792E+01
 0.3977633774685E+00
 0.6526590581830E+00
 0.8874847771018E+00
 0.1102711324347E+01
 0.1300079052019E+01
 0.1481161138118E+01
 0.1647247417076E+01
 0.1799407802864E+01
 0.1938574658925E+01
 0.2065611624200E+01
 0.2181356494642E+01
 0.2286634549548E+01
 0.2382251115111E+01
 0.2468985188978E+01
 0.2547598078129E+01
 0.2618856416714E+01
 0.2683561226007E+01
 0.2742571832743E+01
 0.2796802470658E+01
 0.2847168864052E+01
 0.3926421381066E+00
 0.6407069924722E+00
 0.8693051400185E+00
 0.1078897011968E+01
 0.1271139672283E+01
 0.1447527108760E+01
 0.1609280129687E+01
 0.1757408379391E+01
 0.1892791271715E+01
 0.2016246465535E+01
 0.2128571845637E+01
 0.2230555661250E+01
 0.2322964164920E+01
 0.2406531477566E+01
 0.2481968084282E+01
 0.2549987825851E+01
 0.2611345043607E+01
 0.2666870662855E+01
 0.2717481164885E+01
 0.2764135237153E+01
 0.3880661638577E+00
 0.6288408801743E+00
 0.8508520347269E+00
 0.1054532827625E+01
 0.1241430255303E+01
 0.1412935862360E+01
 0.1570183741393E+01
 0.1714110943558E+01
 0.1845536106888E+01
 0.1965226576011E+01
 0.2073938382074E+01
 0.2172421968277E+01
 0.2261403533607E+01
 0.2341569818051E+01
 0.2413575511001E+01
 0.2478073979788E+01
 0.2535763471882E+01
 0.2587438199788E+01
 0.2634013252125E+01
 0.2676496122959E+01
 0.3840160417123E+00
 0.6170643160456E+00
 0.8321485297740E+00
 0.1029658378772E+01
 0.1211005475608E+01
 0.1377456615935E+01
 0.1530042200157E+01
 0.1669614975769E+01
 0.1796925535393E+01
 0.1912687127631E+01
 0.2017612575670E+01
 0.2112414378957E+01
 0.2197778334128E+01
 0.2274341764043E+01
 0.2342698639722E+01
 0.2403433509557E+01
 0.2457177557329E+01
 0.2504677816334E+01
 0.2546841904780E+01
 0.2584730256065E+01
 0.3804716137809E+00
 0.6053823509379E+00
 0.8132216127664E+00
 0.1004319397001E+01
 0.1179927828445E+01
 0.1341167495495E+01
 0.1488948886887E+01
 0.1624029475526E+01
 0.1747085247926E+01
 0.1858772286542E+01
 0.1959759617138E+01
 0.2050722520871E+01
 0.2132306964310E+01
 0.2205099614286E+01
 0.2269629136580E+01
 0.2326402360893E+01
 0.2375970747406E+01
 0.2419021283478E+01
 0.2456444902996E+01
 0.2489354782807E+01
 0.3774117142534E+00
 0.5938008343472E+00
 0.7941013578907E+00
 0.9785668929171E+00
 0.1148266808910E+01
 0.1304154703822E+01
 0.1447005718309E+01
 0.1577471951228E+01
 0.1696149080639E+01
 0.1803633799092E+01
 0.1900551646628E+01
 0.1987542470747E+01
 0.2065214208518E+01
 0.2134102840840E+01
 0.2194667881193E+01
 0.2247329160630E+01
 0.2292543811170E+01
 0.2330923113349E+01
 0.2363328365390E+01
 0.2390917521563E+01
 0.3748138493214E+00
 0.5823256845698E+00
 0.7748200694749E+00
 0.9524563427238E+00
 0.1116098150786E+01
 0.1266511738468E+01
 0.1404322269552E+01
 0.1530067402860E+01
 0.1644257826696E+01
 0.1747429573124E+01
 0.1840165977892E+01
 0.1923074424783E+01
 0.1996728147026E+01
 0.2061614132782E+01
 0.2118120239853E+01
 0.2166569972781E+01
 0.2207309207619E+01
 0.2240854129551E+01
 0.2268019049081E+01
 0.2289989860998E+01
 0.3726538010178E+00
 0.5709620797709E+00
 0.7554114426911E+00
 0.9260469959904E+00
 0.1083503238047E+01
 0.1228338771272E+01
 0.1361015014065E+01
 0.1481947385944E+01
 0.1591558131652E+01
 0.1690322388035E+01
 0.1778783504371E+01
 0.1857520542704E+01
 0.1927077101480E+01
 0.1987895208550E+01
 0.2040290833582E+01
 0.2084482484137E+01
 0.2120685209136E+01
 0.2149295622655E+01
 0.2171057605337E+01
 0.2187165857445E+01
 0.3709050746203E+00
 0.5597134647778E+00
 0.7359096731936E+00
 0.8994012685855E+00
 0.1050568650404E+01
 0.1189742116141E+01
 0.1317206560664E+01
 0.1433249001075E+01
 0.1538201309331E+01
 0.1632478606890E+01
 0.1716587243785E+01
 0.1791083020971E+01
 0.1856486706514E+01
 0.1913202388506E+01
 0.1961477582270E+01
 0.2001419248321E+01
 0.2033089532531E+01
 0.2056734659721E+01
 0.2072996951889E+01
 0.2083067017906E+01
 0.3695381373868E+00
 0.5485803258103E+00
 0.7163485963403E+00
 0.8725843985226E+00
 0.1017386045929E+01
 0.1150833945679E+01
 0.1273024990786E+01
 0.1384113861878E+01
 0.1484342107906E+01
 0.1574066943855E+01
 0.1653761181081E+01
 0.1723962729514E+01
 0.1785177573882E+01
 0.1837782277123E+01
 0.1881964970998E+01
 0.1917719449129E+01
 0.1944931719431E+01
 0.1963659340747E+01
 0.1974402544232E+01
 0.1978341828286E+01
 0.3685192407922E+00
 0.5375585642831E+00
 0.6967608647143E+00
 0.8456645289581E+00
 0.9840525264623E+00
 0.1111732327872E+01
 0.1228603273996E+01
 0.1334686971484E+01
 0.1430137322268E+01
 0.1515257190207E+01
 0.1590489431694E+01
 0.1656358760448E+01
 0.1713364290460E+01
 0.1761868404209E+01
 0.1802016737353E+01
 0.1833698400530E+01
 0.1856602813042E+01
 0.1870552555506E+01
 0.1875849053809E+01
 0.1873662108429E+01
 0.3678085550220E+00
 0.5266371531002E+00
 0.6771773388318E+00
 0.8187135025445E+00
 0.9506717417317E+00
 0.1072561570856E+01
 0.1184078650189E+01
 0.1285115299209E+01
 0.1375743973791E+01
 0.1456218522626E+01
 0.1526955326854E+01
 0.1588468796090E+01
 0.1641256513231E+01
 0.1685680155199E+01
 0.1721868738930E+01
 0.1749632977057E+01
 0.1768458967008E+01
 0.1777881788354E+01
 0.1777916874554E+01
 0.1769717470172E+01
 0.3673568316838E+00
 0.5157949064993E+00
 0.6576269595619E+00
 0.7918094417836E+00
 0.9173560705504E+00
 0.1033453130706E+01
 0.1139591992371E+01
 0.1235546186122E+01
 0.1321317094452E+01
 0.1397117264853E+01
 0.1463340152421E+01
 0.1520490031908E+01
 0.1569062977131E+01
 0.1609427539337E+01
 0.1641725355404E+01
 0.1665742977641E+01
 0.1680791566921E+01
 0.1686080338238E+01
 0.1681194663868E+01
 0.1667223785810E+01
 0.3670994487104E+00
 0.5049939740154E+00
 0.6381399403607E+00
 0.7650414264338E+00
 0.8842307743144E+00
 0.9945460621792E+00
 0.1095286978602E+01
 0.1186125323191E+01
 0.1267006686076E+01
 0.1338113463868E+01
 0.1399820441521E+01
 0.1452619265501E+01
 0.1496996706328E+01
 0.1533324010801E+01
 0.1561771190909E+01
 0.1582170135473E+01
 0.1593774012761E+01
 0.1595494591434E+01
 0.1586291075093E+01
 0.1566983198255E+01
 0.3669397356240E+00
 0.4941784741174E+00
 0.6187519429454E+00
 0.7385259515351E+00
 0.8514353986296E+00
 0.9559872496074E+00
 0.1051309775782E+01
 0.1136994535529E+01
 0.1212953905821E+01
 0.1279356390080E+01
 0.1336563522302E+01
 0.1385050337376E+01
 0.1425279695253E+01
 0.1457602314512E+01
 0.1482209908810E+01
 0.1499004742075E+01
 0.1507350920460E+01
 0.1506252123308E+01
 0.1493804943867E+01
 0.1470057808034E+01
 0.3667251935676E+00
 0.4832168486232E+00
 0.5995851791243E+00
 0.7124091758822E+00
 0.8191188455421E+00
 0.9179340585010E+00
 0.1007810700238E+01
 0.1088288352653E+01
 0.1159285995878E+01
 0.1220979636505E+01
 0.1273721228624E+01
 0.1317967205669E+01
 0.1354140747991E+01
 0.1382532214209E+01
 0.1403300398315E+01
 0.1416416197714E+01
 0.1421294813763E+01
 0.1417691490724E+01
 0.1404170627196E+01
 0.1378240786590E+01
 0.3658517727022E+00
 0.4723923716184E+00
 0.5809069842909E+00
 0.6868161886678E+00
 0.7874337368331E+00
 0.8805749163338E+00
 0.9649437800636E+00
 0.1040124080035E+01
 0.1106112009590E+01
 0.1163095233693E+01
 0.1211422318586E+01
 0.1251532084796E+01
 0.1283799788021E+01
 0.1308419118093E+01
 0.1325413823224E+01
 0.1334691229530E+01
 0.1335748134382E+01
 0.1328484913938E+01
 0.1314803745974E+01
 0.1297403694999E+01
 0.4124869790992E+01
 0.3847190399364E+01
 0.2698017747972E+01
 0.2076797536682E+01
 0.1562089407386E+01
 0.1125377237962E+01
 0.8158825844191E+00
 0.6344831817823E+00
 0.5085754864004E+00
 0.3980533163833E+00
 0.2921610269192E+00
 0.1896356281592E+00
 0.9112109124398E-01
 0.3748015234776E-03
 0.7910536954190E-01
 0.1379842234780E+00
 0.1701643186204E+00
 0.1541223514242E+00
 0.9167497070742E-01
 0.1704087259065E-01
 0.3517006740332E+01
 0.4087182956412E+01
 0.3063710135618E+01
 0.2327904768218E+01
 0.1810388311957E+01
 0.1395419205320E+01
 0.1085360115728E+01
 0.8716443779239E+00
 0.7163250522116E+00
 0.5886747475689E+00
 0.4735497365444E+00
 0.3650787486494E+00
 0.2609485722370E+00
 0.1622455516617E+00
 0.7289661747225E-01
 0.2777987200105E-02
 0.6394159496920E-01
 0.8520871756739E-01
 0.5680127645199E-01
 0.1202007017000E-01
 0.3021302443067E+01
 0.3833400832571E+01
 0.3272686170106E+01
 0.2579925352394E+01
 0.2050174172593E+01
 0.1645091091598E+01
 0.1336559951366E+01
 0.1109303455014E+01
 0.9349582028312E+00
 0.7914191718159E+00
 0.6655141281769E+00
 0.5497381600320E+00
 0.4396868678908E+00
 0.3341600857235E+00
 0.2349732731966E+00
 0.1443093444544E+00
 0.6184419512734E-01
 0.9678547508695E-02
 0.5287379728829E-02
 0.4212310739189E-01
 0.2636243127287E+01
 0.3514489964220E+01
 0.3288356831219E+01
 0.2771582946701E+01
 0.2275067136394E+01
 0.1878632524921E+01
 0.1573238471952E+01
 0.1340623576338E+01
 0.1156252046042E+01
 0.1001665359348E+01
 0.8662650283378E+00
 0.7431910176723E+00
 0.6273049045981E+00
 0.5157123791746E+00
 0.4083682002254E+00
 0.3060959401354E+00
 0.2074024333521E+00
 0.1313256981392E+00
 0.1008875173621E+00
 0.1167641458206E+00
 0.2328198420850E+01
 0.3201798657001E+01
 0.3205340615541E+01
 0.2873720674503E+01
 0.2463013634119E+01
 0.2093401836485E+01
 0.1795852070702E+01
 0.1563199765193E+01
 0.1374854072434E+01
 0.1214344992016E+01
 0.1072536150665E+01
 0.9436731374402E+00
 0.8228953932740E+00
 0.7064857089743E+00
 0.5931379812136E+00
 0.4826395395077E+00
 0.3728090329713E+00
 0.2798917902330E+00
 0.2306239229884E+00
 0.2337672861873E+00
 0.2076865931692E+01
 0.2914919380661E+01
 0.3072906819396E+01
 0.2903062673279E+01
 0.2598554101101E+01
 0.2279805211439E+01
 0.2001319301742E+01
 0.1774546622293E+01
 0.1587137695602E+01
 0.1425189724929E+01
 0.1280588665058E+01
 0.1148464738011E+01
 0.1024607126276E+01
 0.9051722537783E+00
 0.7881800268650E+00
 0.6727853678200E+00
 0.5564822446514E+00
 0.4529110075767E+00
 0.3910979386263E+00
 0.3872875477620E+00
 0.1868618174333E+01
 0.2657797661376E+01
 0.2918083338614E+01
 0.2879536758113E+01
 0.2681883748060E+01
 0.2429293408174E+01
 0.2183649804549E+01
 0.1970866509249E+01
 0.1789642102083E+01
 0.1630501794958E+01
 0.1486765079778E+01
 0.1354376841559E+01
 0.1229853280669E+01
 0.1109624302011E+01
 0.9915001975359E+00
 0.8743565491984E+00
 0.7556697000072E+00
 0.6465961314558E+00
 0.5772519995024E+00
 0.5699966987689E+00
 0.1693972344988E+01
 0.2429568828390E+01
 0.2755778761346E+01
 0.2819748626261E+01
 0.2719630288425E+01
 0.2539076881829E+01
 0.2337157775179E+01
 0.2147401453022E+01
 0.1978478264197E+01
 0.1826650941509E+01
 0.1687505788908E+01
 0.1558042044464E+01
 0.1435584135959E+01
 0.1317064179760E+01
 0.1200391006172E+01
 0.1084422355651E+01
 0.9668310871248E+00
 0.8564230799674E+00
 0.7833711241888E+00
 0.7744662336320E+00
 0.1546037746498E+01
 0.2227810721304E+01
 0.2594368474675E+01
 0.2736181024554E+01
 0.2720245038773E+01
 0.2610668553923E+01
 0.2458763689310E+01
 0.2299837711015E+01
 0.2149588067247E+01
 0.2009911853509E+01
 0.1879245636995E+01
 0.1756007811128E+01
 0.1638489041064E+01
 0.1524296467002E+01
 0.1411641703075E+01
 0.1299532852593E+01
 0.1185968868574E+01
 0.1077567192965E+01
 0.1003665045763E+01
 0.9937538775702E+00
 0.1419638715977E+01
 0.2049707772964E+01
 0.2438539115423E+01
 0.2637906187611E+01
 0.2691918278700E+01
 0.2647987718462E+01
 0.2548060646113E+01
 0.2425374337437E+01
 0.2299433528111E+01
 0.2176688605239E+01
 0.2058452822212E+01
 0.1944792823270E+01
 0.1835125842366E+01
 0.1727883815637E+01
 0.1621729732088E+01
 0.1515926959089E+01
 0.1408864388120E+01
 0.1305161758385E+01
 0.1232547394857E+01
 0.1221601392819E+01
 0.1310783500732E+01
 0.1892479236584E+01
 0.2290818441473E+01
 0.2531417580370E+01
 0.2641818366806E+01
 0.2655960792405E+01
 0.2606638216468E+01
 0.2522954300482E+01
 0.2425534041671E+01
 0.2323906285906E+01
 0.2221833896077E+01
 0.2121009885003E+01
 0.2022043169081E+01
 0.1924292762364E+01
 0.1826983115076E+01
 0.1729700772257E+01
 0.1631244609272E+01
 0.1534446064408E+01
 0.1464760953119E+01
 0.1452457769653E+01
 0.1216328795251E+01
 0.1753533875426E+01
 0.2152430006461E+01
 0.2421312453013E+01
 0.2575910481157E+01
 0.2639676369598E+01
 0.2637319172678E+01
 0.2593031141268E+01
 0.2526645720495E+01
 0.2449318305187E+01
 0.2366594871166E+01
 0.2281555986162E+01
 0.2195933464128E+01
 0.2110037810691E+01
 0.2023722856186E+01
 0.1936943080857E+01
 0.1848900548452E+01
 0.1760854358385E+01
 0.1695429875768E+01
 0.1681433439839E+01
 0.1133758888374E+01
 0.1630516177705E+01
 0.2023790597943E+01
 0.2310800427944E+01
 0.2499011831194E+01
 0.2603928859292E+01
 0.2643544122240E+01
 0.2637171506743E+01
 0.2602678280141E+01
 0.2551632916390E+01
 0.2490643471579E+01
 0.2423811622128E+01
 0.2353808880290E+01
 0.2281836940890E+01
 0.2208400335369E+01
 0.2133851049559E+01
 0.2057775683093E+01
 0.1980074255869E+01
 0.1920081600708E+01
 0.1904235725484E+01
 0.1061034750984E+01
 0.1521309107110E+01
 0.1904810587140E+01
 0.2202072126996E+01
 0.2414928798864E+01
 0.2553001351777E+01
 0.2628938504332E+01
 0.2657658213596E+01
 0.2654479398528E+01
 0.2630483948496E+01
 0.2592683964641E+01
 0.2545793374823E+01
 0.2493168731754E+01
 0.2436771961542E+01
 0.2377736781667E+01
 0.2316836900800E+01
 0.2254035450132E+01
 0.2188087511148E+01
 0.2134659805053E+01
 0.2117110077321E+01
 0.9964870911340E+00
 0.1424019822065E+01
 0.1795081743395E+01
 0.2096565665017E+01
 0.2326610580956E+01
 0.2490585574120E+01
 0.2597032503247E+01
 0.2657158383504E+01
 0.2683580277977E+01
 0.2686303919115E+01
 0.2672210138186E+01
 0.2646233734862E+01
 0.2612130717237E+01
 0.2572440019994E+01
 0.2528865553308E+01
 0.2482633472590E+01
 0.2434120051207E+01
 0.2381191426368E+01
 0.2335534393808E+01
 0.2316801116893E+01
 0.9387374203873E+00
 0.1336959450520E+01
 0.1693998949164E+01
 0.1995161872079E+01
 0.2236293795884E+01
 0.2419776422214E+01
 0.2551092808547E+01
 0.2638470573374E+01
 0.2691953526589E+01
 0.2720150870107E+01
 0.2729422030531E+01
 0.2724585811202E+01
 0.2709510250220E+01
 0.2687087280618E+01
 0.2659483720230E+01
 0.2628410939494E+01
 0.2594785412156E+01
 0.2555976344478E+01
 0.2519498379677E+01
 0.2500538970988E+01
 0.8866366684251E+00
 0.1258619686253E+01
 0.1600844580832E+01
 0.1898330678869E+01
 0.2145630328961E+01
 0.2343103882704E+01
 0.2494030856708E+01
 0.2604344381809E+01
 0.2681806345170E+01
 0.2733523804408E+01
 0.2765092160886E+01
 0.2780957088321E+01
 0.2784835489533E+01
 0.2779712358261E+01
 0.2768034817624E+01
 0.2751956807303E+01
 0.2733148744558E+01
 0.2709233130884E+01
 0.2683673504114E+01
 0.2666070776224E+01
 0.8392071561509E+00
 0.1187654542968E+01
 0.1514850830825E+01
 0.1806252602246E+01
 0.2055793723565E+01
 0.2262578937493E+01
 0.2428361461167E+01
 0.2557360586185E+01
 0.2655418237475E+01
 0.2728190185655E+01
 0.2780403555276E+01
 0.2815975036376E+01
 0.2838269043857E+01
 0.2850099278254E+01
 0.2853901422476E+01
 0.2852057226197E+01
 0.2846940135165E+01
 0.2837679848867E+01
 0.2825235826777E+01
 0.2811629334913E+01
 0.7955889488949E+00
 0.1122813967742E+01
 0.1435321399177E+01
 0.1718915358881E+01
 0.1967552477189E+01
 0.2179739433987E+01
 0.2356191667520E+01
 0.2499862310500E+01
 0.2615027866636E+01
 0.2706045590977E+01
 0.2776788386306E+01
 0.2830599175586E+01
 0.2870399064090E+01
 0.2898651794890E+01
 0.2917468910484E+01
 0.2928968770880E+01
 0.2935716085232E+01
 0.2938240704866E+01
 0.2939645126040E+01
 0.2935969845640E+01
 0.7546295531383E+00
 0.1063358209004E+01
 0.1361788361794E+01
 0.1636150094153E+01
 0.1881312062277E+01
 0.2095658993813E+01
 0.2279238133370E+01
 0.2433935872506E+01
 0.2562767561662E+01
 0.2669024191908E+01
 0.2755814227111E+01
 0.2825945049439E+01
 0.2881930679789E+01
 0.2925893993430E+01
 0.2959557196066E+01
 0.2984403532681E+01
 0.3002060413576E+01
 0.3013195333036E+01
 0.3021119007794E+01
 0.3033074723197E+01
 0.3637019328097E+00
 0.4638969216165E+00
 0.5657294065182E+00
 0.6657168308062E+00
 0.7603745960921E+00
 0.8470508547690E+00
 0.9241099537136E+00
 0.9916430811168E+00
 0.1049957624065E+01
 0.1099296429438E+01
 0.1140033338276E+01
 0.1172619831911E+01
 0.1197481996075E+01
 0.1214856077049E+01
 0.1224867323275E+01
 0.1227763015164E+01
 0.1224428721130E+01
 0.1215654533832E+01
 0.1206164071012E+01
 0.1204012847287E+01
 0.3651199769733E+00
 0.4582467043583E+00
 0.5547194401771E+00
 0.6492751898715E+00
 0.7375961435146E+00
 0.8164541372539E+00
 0.8842628999337E+00
 0.9417182616914E+00
 0.9896037332310E+00
 0.1028377048497E+01
 0.1058533034472E+01
 0.1080637579647E+01
 0.1095282621516E+01
 0.1102942348594E+01
 0.1104178331617E+01
 0.1100030942488E+01
 0.1092305899989E+01
 0.1081900334288E+01
 0.1072608160498E+01
 0.1052705637244E+01
 0.3665288737303E+00
 0.4516517772055E+00
 0.5423759549871E+00
 0.6312270370231E+00
 0.7127562948714E+00
 0.7832476292966E+00
 0.8412938438681E+00
 0.8882054233312E+00
 0.9252838120934E+00
 0.9532889246000E+00
 0.9729163563435E+00
 0.9849276795558E+00
 0.9901343154345E+00
 0.9892580207464E+00
 0.9831719049884E+00
 0.9730818473523E+00
 0.9600976455515E+00
 0.9437820296179E+00
 0.9236369262794E+00
 0.8963371933802E+00
 0.3676359207740E+00
 0.4443539471778E+00
 0.5289550275749E+00
 0.6117712647562E+00
 0.6860524248606E+00
 0.7476019053355E+00
 0.7953065260312E+00
 0.8312143572073E+00
 0.8572343584449E+00
 0.8744882130927E+00
 0.8839094951768E+00
 0.8864570698526E+00
 0.8830964181946E+00
 0.8746188574439E+00
 0.8618360643002E+00
 0.8455219151242E+00
 0.8256749175964E+00
 0.8006546427858E+00
 0.7724821508927E+00
 0.7464620633528E+00
 0.3684119314152E+00
 0.4364001927459E+00
 0.5146712677127E+00
 0.5911018049192E+00
 0.6576027746106E+00
 0.7095585855469E+00
 0.7463050635439E+00
 0.7707931120458E+00
 0.7856420839672E+00
 0.7923633403534E+00
 0.7921062065690E+00
 0.7859556220369E+00
 0.7748934205795E+00
 0.7595749257979E+00
 0.7405135358604E+00
 0.7179675355510E+00
 0.6910970253226E+00
 0.6589884554386E+00
 0.6273429665139E+00
 0.6050131851915E+00
 0.3688703648999E+00
 0.4279201176697E+00
 0.4997093402804E+00
 0.5693617697332E+00
 0.6274318860044E+00
 0.6690373553587E+00
 0.6941784103789E+00
 0.7069057373843E+00
 0.7106359692261E+00
 0.7072500240407E+00
 0.6980375166722E+00
 0.6840970384362E+00
 0.6662880943608E+00
 0.6450043965801E+00
 0.6204319319705E+00
 0.5924794883939E+00
 0.5600510519639E+00
 0.5237414863983E+00
 0.4919382804689E+00
 0.4743389142920E+00
 0.3690690434628E+00
 0.4190938903129E+00
 0.4842561254670E+00
 0.5466231855533E+00
 0.5954450720705E+00
 0.6258183681392E+00
 0.6386949457054E+00
 0.6394410027434E+00
 0.6323155308434E+00
 0.6194888125228E+00
 0.6022714629751E+00
 0.5816498808883E+00
 0.5582543203124E+00
 0.5321773241515E+00
 0.5033523611516E+00
 0.4715694681645E+00
 0.4358214970131E+00
 0.3982845225447E+00
 0.3689347306752E+00
 0.3568262694292E+00
 0.3691130545064E+00
 0.4101580504616E+00
 0.4684881203201E+00
 0.5228651577355E+00
 0.5613960658859E+00
 0.5795229405875E+00
 0.5795084235505E+00
 0.5682448551468E+00
 0.5508050185001E+00
 0.5294963097325E+00
 0.5054935286190E+00
 0.4795436485915E+00
 0.4519739741149E+00
 0.4225875583961E+00
 0.3911717457197E+00
 0.3575670420962E+00
 0.3210030159934E+00
 0.2850554589074E+00
 0.2603920975519E+00
 0.2546402716445E+00
 0.3691674383735E+00
 0.4014105030746E+00
 0.4525528666405E+00
 0.4979338262689E+00
 0.5248476107404E+00
 0.5295985931277E+00
 0.5161816022450E+00
 0.4931761197984E+00
 0.4663242667906E+00
 0.4378337297219E+00
 0.4085534282932E+00
 0.3788677568889E+00
 0.3487550620247E+00
 0.3177698751602E+00
 0.2856547577651E+00
 0.2524070163456E+00
 0.2175416360218E+00
 0.1857726533782E+00
 0.1678040899411E+00
 0.1693890366703E+00
 0.3694769449594E+00
 0.3932186803071E+00
 0.4365371216440E+00
 0.4714846528843E+00
 0.4851233507702E+00
 0.4753150170489E+00
 0.4482353930964E+00
 0.4141877350678E+00
 0.3792708890130E+00
 0.3452646947493E+00
 0.3124798207391E+00
 0.2808302970292E+00
 0.2499314201675E+00
 0.2191541251115E+00
 0.1882897053240E+00
 0.1575584985782E+00
 0.1267700560965E+00
 0.1015006441682E+00
 0.9199370250532E-01
 0.1018951168620E+00
 0.3703955307136E+00
 0.3860284964455E+00
 0.4204151719979E+00
 0.4428997804261E+00
 0.4412533748010E+00
 0.4157817188343E+00
 0.3752350922905E+00
 0.3314365390406E+00
 0.2903076912088E+00
 0.2527942062666E+00
 0.2184628957855E+00
 0.1866904359534E+00
 0.1567620897907E+00
 0.1279599235030E+00
 0.1002172058949E+00
 0.7402784682808E-01
 0.4952282509145E-01
 0.3286701237394E-01
 0.3316133583832E-01
 0.5204317898308E-01
 0.3724301934256E+00
 0.3803714769042E+00
 0.4039633212215E+00
 0.4111703100142E+00
 0.3919196896757E+00
 0.3500068656427E+00
 0.2969290810645E+00
 0.2454207997027E+00
 0.2004417576547E+00
 0.1616740844676E+00
 0.1277993032252E+00
 0.9767087549322E-01
 0.7034842389947E-01
 0.4518039867363E-01
 0.2250165011685E-01
 0.6165186736652E-02
 0.1634612228023E-01
 0.2302487731500E-01
 0.1229526333223E-01
 0.1875514052698E-01
 0.3763073869250E+00
 0.3768636066160E+00
 0.3866151695674E+00
 0.3747293716899E+00
 0.3354188142668E+00
 0.2770301664444E+00
 0.2134554250684E+00
 0.1571315001441E+00
 0.1110669911386E+00
 0.7335345796856E-01
 0.4180450124098E-01
 0.1500882620095E-01
 0.9385431373962E-02
 0.2943954262285E-01
 0.4638959841402E-01
 0.5895337000490E-01
 0.6657615181242E-01
 0.6282703499652E-01
 0.4036225893285E-01
 0.2911628566590E-02
 0.3830765638013E+00
 0.3761798237588E+00
 0.3672098494748E+00
 0.3312202228682E+00
 0.2696835143235E+00
 0.1961807359561E+00
 0.1256195497604E+00
 0.6817581921687E-01
 0.2392470809521E-01
 0.1069704666114E-01
 0.3849091525048E-01
 0.6120409953406E-01
 0.7972790444485E-01
 0.9429395659799E-01
 0.1041975299746E+00
 0.1082669343609E+00
 0.1058899417429E+00
 0.9102949825580E-01
 0.5764132856706E-01
 0.8923827304972E-02
 0.3942776704334E+00
 0.3789625246354E+00
 0.3435393730388E+00
 0.2771946058700E+00
 0.1924594646378E+00
 0.1075280865594E+00
 0.3522072575761E-01
 0.1927243574949E-01
 0.5906888468522E-01
 0.8897808460376E-01
 0.1120144473875E+00
 0.1297032140330E+00
 0.1426073185226E+00
 0.1505790898576E+00
 0.1526586861781E+00
 0.1476138290832E+00
 0.1348947369123E+00
 0.1092485033470E+00
 0.6606537591072E-01
 0.9093079746804E-02
 0.4122232174206E+00
 0.3855463573570E+00
 0.3115078145323E+00
 0.2077932437778E+00
 0.1018518995186E+00
 0.1278618492979E-01
 0.5503043946673E-01
 0.1025091611950E+00
 0.1361192633110E+00
 0.1605693196591E+00
 0.1784695778391E+00
 0.1908320114685E+00
 0.1977477173100E+00
 0.1986845945582E+00
 0.1925255487916E+00
 0.1781318758957E+00
 0.1551916620206E+00
 0.1196523233423E+00
 0.6846653527772E-01
 0.5598714215249E-02
 0.4405045376416E+00
 0.3951535135478E+00
 0.2634942829843E+00
 0.1167396766780E+00
 0.4127306494608E-02
 0.8543133834956E-01
 0.1412105956766E+00
 0.1791069364693E+00
 0.2058919006060E+00
 0.2249823788171E+00
 0.2379050839095E+00
 0.2449396699655E+00
 0.2457145181461E+00
 0.2393950260333E+00
 0.2248437911173E+00
 0.2011642497123E+00
 0.1684540000528E+00
 0.1242926639844E+00
 0.6737306501645E-01
 0.3035700835517E-02
 0.4848657823677E+00
 0.4031811447060E+00
 0.1853514750529E+00
 0.4522717810930E-02
 0.1166885853074E+00
 0.1810215235874E+00
 0.2197466380702E+00
 0.2470542951107E+00
 0.2678346727475E+00
 0.2824292036658E+00
 0.2908262153683E+00
 0.2926615538893E+00
 0.2872764015014E+00
 0.2736694969083E+00
 0.2508006296079E+00
 0.2181242872452E+00
 0.1762143639248E+00
 0.1247905457602E+00
 0.6454487459656E-01
 0.4743969844123E-02
 0.5553797021591E+00
 0.3920897606036E+00
 0.5002594638637E-01
 0.1460369882931E+00
 0.2336387958667E+00
 0.2692287467336E+00
 0.2871073729105E+00
 0.3054465915507E+00
 0.3224571037529E+00
 0.3336982875986E+00
 0.3379874106902E+00
 0.3347656239870E+00
 0.3233059582422E+00
 0.3025442232557E+00
 0.2717102374998E+00
 0.2304415654632E+00
 0.1797775768929E+00
 0.1220165431163E+00
 0.6061957029885E-01
 0.6311908438474E-02
 0.6575983103908E+00
 0.2569743591803E+00
 0.1442717706693E+00
 0.3018265638129E+00
 0.3484825432793E+00
 0.3434122728104E+00
 0.3408721160638E+00
 0.3553556157053E+00
 0.3711865794660E+00
 0.3797804430817E+00
 0.3801016010990E+00
 0.3721028275942E+00
 0.3547874872577E+00
 0.3269539292991E+00
 0.2888475333962E+00
 0.2402369591427E+00
 0.1798890998907E+00
 0.1153602044231E+00
 0.5487298892985E-01
 0.7051615716074E-02
 0.3061337269124E+01
 0.2965649147601E+01
 0.2851417160012E+01
 0.2716708566411E+01
 0.2561378674375E+01
 0.2387155345184E+01
 0.2196093592244E+01
 0.1990626994489E+01
 0.1773572106429E+01
 0.1548190635805E+01
 0.1318275370253E+01
 0.1088277285859E+01
 0.8634802677205E+00
 0.6502210691084E+00
 0.4561264511536E+00
 0.2902761730550E+00
 0.1630623589950E+00
 0.8518886437816E-01
 0.6464343771791E-01
 0.9684394186158E-01
 0.3114184124722E+01
 0.3042615929176E+01
 0.2940583171004E+01
 0.2817990748241E+01
 0.2675656530787E+01
 0.2514312923952E+01
 0.2335371223299E+01
 0.2140704697636E+01
 0.1932595089251E+01
 0.1713729113118E+01
 0.1487256167269E+01
 0.1256907875292E+01
 0.1027199137555E+01
 0.8037347935383E+00
 0.5936423515181E+00
 0.4061247261706E+00
 0.2530324105520E+00
 0.1491598979063E+00
 0.1112958779158E+00
 0.1524927710620E+00
 0.3163481079459E+01
 0.3107715493723E+01
 0.3024116338178E+01
 0.2916976999066E+01
 0.2789657992140E+01
 0.2643355449951E+01
 0.2479206294645E+01
 0.2298677044061E+01
 0.2103599505663E+01
 0.1896165552953E+01
 0.1678942599691E+01
 0.1454939450227E+01
 0.1227750217588E+01
 0.1001819109011E+01
 0.7828887193926E+00
 0.5787134646381E+00
 0.4001374678921E+00
 0.2625824174906E+00
 0.1881579903865E+00
 0.2061162234518E+00
 0.3211012014878E+01
 0.3167611823595E+01
 0.3100471082943E+01
 0.3010587904633E+01
 0.2900083401092E+01
 0.2770543963196E+01
 0.2623141806559E+01
 0.2459146554767E+01
 0.2280101171323E+01
 0.2087867276338E+01
 0.1884636574307E+01
 0.1672952801113E+01
 0.1455777652597E+01
 0.1236643629547E+01
 0.1019963594024E+01
 0.8116166877919E+00
 0.6200038897028E+00
 0.4579344700477E+00
 0.3459445237710E+00
 0.3193650581832E+00
 0.3255351583669E+01
 0.3222784607398E+01
 0.3170349672303E+01
 0.3097174041887E+01
 0.3004155296315E+01
 0.2892406179025E+01
 0.2763003132794E+01
 0.2617073130674E+01
 0.2455954496571E+01
 0.2281278590092E+01
 0.2095004543672E+01
 0.1899438902698E+01
 0.1697268050745E+01
 0.1491637978072E+01
 0.1286339718265E+01
 0.1086208039799E+01
 0.8979481428805E+00
 0.7317787752356E+00
 0.6047260400057E+00
 0.5481349564992E+00
 0.3295513936821E+01
 0.3272801370035E+01
 0.3233502782969E+01
 0.3175868063914E+01
 0.3099839651249E+01
 0.3005943212876E+01
 0.2894914849132E+01
 0.2767649013235E+01
 0.2625249864283E+01
 0.2469100572284E+01
 0.2300911270011E+01
 0.2122749962972E+01
 0.1937069943419E+01
 0.1746754911317E+01
 0.1555219481508E+01
 0.1366641904211E+01
 0.1186483038252E+01
 0.1022636407786E+01
 0.8877702034724E+00
 0.8035867139028E+00
 0.3330726225775E+01
 0.3317168277807E+01
 0.3289683687078E+01
 0.3246249113000E+01
 0.3186201734048E+01
 0.3109538741843E+01
 0.3016596946779E+01
 0.2907946461079E+01
 0.2784389324154E+01
 0.2646995009436E+01
 0.2497141290753E+01
 0.2336545874640E+01
 0.2167286860426E+01
 0.1991815627441E+01
 0.1812972524340E+01
 0.1634029588038E+01
 0.1458824063245E+01
 0.1292115407716E+01
 0.1140589821392E+01
 0.1014199555402E+01
 0.3360344927540E+01
 0.3355329478153E+01
 0.3338512368539E+01
 0.3307940990557E+01
 0.3262633660030E+01
 0.3202198734020E+01
 0.3126605956668E+01
 0.3036085692394E+01
 0.2931104257812E+01
 0.2812377788037E+01
 0.2680899535197E+01
 0.2537965762064E+01
 0.2385190313615E+01
 0.2224499711101E+01
 0.2058098496829E+01
 0.1888390108804E+01
 0.1717828695089E+01
 0.1548685310743E+01
 0.1382689655726E+01
 0.1221678736198E+01
 0.3383856424843E+01
 0.3386768176734E+01
 0.3379582675685E+01
 0.3360586793624E+01
 0.3328687959484E+01
 0.3283249744080E+01
 0.3223955211586E+01
 0.3150732255433E+01
 0.3063727051272E+01
 0.2963306806394E+01
 0.2850076670740E+01
 0.2724898818846E+01
 0.2588903416307E+01
 0.2443479835116E+01
 0.2290231050979E+01
 0.2130861173719E+01
 0.1966941303089E+01
 0.1799439752430E+01
 0.1627833937744E+01
 0.1448440821151E+01
 0.3400860723998E+01
 0.3411035540928E+01
 0.3412505159467E+01
 0.3403853868560E+01
 0.3384010216993E+01
 0.3352213269278E+01
 0.3307949052541E+01
 0.3250906633635E+01
 0.3180959391135E+01
 0.3098165473644E+01
 0.3002779545577E+01
 0.2895268214952E+01
 0.2776321408595E+01
 0.2646850355390E+01
 0.2507958209479E+01
 0.2360859511570E+01
 0.2206703315512E+01
 0.2046211644015E+01
 0.1878923029632E+01
 0.1701246722043E+01
 0.3411060154587E+01
 0.3427762784443E+01
 0.3436924905787E+01
 0.3437423493136E+01
 0.3428278104172E+01
 0.3408688614236E+01
 0.3378021692423E+01
 0.3335793356720E+01
 0.3281661208610E+01
 0.3215427577561E+01
 0.3137050915583E+01
 0.3046661693592E+01
 0.2944578662244E+01
 0.2831320665623E+01
 0.2707607634735E+01
 0.2574341089398E+01
 0.2432548851332E+01
 0.2283267790850E+01
 0.2127312304464E+01
 0.1964920327078E+01
 0.3414197576438E+01
 0.3436585138834E+01
 0.3452446510207E+01
 0.3460907803046E+01
 0.3461104412703E+01
 0.3452248906410E+01
 0.3433646267105E+01
 0.3404695020490E+01
 0.3364889051233E+01
 0.3313824727379E+01
 0.3251213853310E+01
 0.3176901540856E+01
 0.3090887803543E+01
 0.2993351988111E+01
 0.2884679946533E+01
 0.2765495526097E+01
 0.2636701834598E+01
 0.2499548917782E+01
 0.2355786587336E+01
 0.2208122697996E+01
 0.3410054610385E+01
 0.3437160377835E+01
 0.3458650344183E+01
 0.3473844534359E+01
 0.3481993909999E+01
 0.3482351296872E+01
 0.3474199306379E+01
 0.3456861887598E+01
 0.3429712278602E+01
 0.3392182855070E+01
 0.3343778956445E+01
 0.3284097376029E+01
 0.3212849954332E+01
 0.3129893307687E+01
 0.3035267254438E+01
 0.2929247382055E+01
 0.2812422411712E+01
 0.2685817262568E+01
 0.2551103610343E+01
 0.2410942132880E+01
 0.3398461743316E+01
 0.3429212436777E+01
 0.3455167656362E+01
 0.3475794089869E+01
 0.3490447368864E+01
 0.3498433283160E+01
 0.3499037853994E+01
 0.3491542734457E+01
 0.3475235535540E+01
 0.3449420147844E+01
 0.3413429592749E+01
 0.3366642703343E+01
 0.3308505543536E+01
 0.3238558748845E+01
 0.3156472950046E+01
 0.3062096297682E+01
 0.2955520770391E+01
 0.2837175736272E+01
 0.2707950178917E+01
 0.2569320588707E+01
 0.3379294297133E+01
 0.3412533830701E+01
 0.3441707384947E+01
 0.3466393340071E+01
 0.3486038483020E+01
 0.3500006069365E+01
 0.3507602359259E+01
 0.3508091282182E+01
 0.3500703947654E+01
 0.3484647141043E+01
 0.3459113205936E+01
 0.3423292662014E+01
 0.3376390320617E+01
 0.3317645392161E+01
 0.3246356077537E+01
 0.3161909379842E+01
 0.3063817329990E+01
 0.2951760340603E+01
 0.2825633067112E+01
 0.2685576114097E+01
 0.3352473417151E+01
 0.3386983986899E+01
 0.3418061141428E+01
 0.3445370716291E+01
 0.3468438287629E+01
 0.3486685263535E+01
 0.3499449658454E+01
 0.3505997377068E+01
 0.3505528664155E+01
 0.3497182945771E+01
 0.3480044139375E+01
 0.3453147660952E+01
 0.3415489680607E+01
 0.3366038527209E+01
 0.3303747374973E+01
 0.3227566386187E+01
 0.3136451389400E+01
 0.3029366724882E+01
 0.2905285320846E+01
 0.2763190792722E+01
 0.3317969092933E+01
 0.3352489746753E+01
 0.3384105169128E+01
 0.3412552190816E+01
 0.3437425192221E+01
 0.3458203183867E+01
 0.3474264746765E+01
 0.3484894889329E+01
 0.3489287234244E+01
 0.3486544079129E+01
 0.3475676117548E+01
 0.3455602988485E+01
 0.3425155247784E+01
 0.3383077678597E+01
 0.3328032903811E+01
 0.3258602808090E+01
 0.3173283277137E+01
 0.3070465069604E+01
 0.2948397677110E+01
 0.2805161250530E+01
 0.3275803627924E+01
 0.3309047484821E+01
 0.3339803218293E+01
 0.3367866764436E+01
 0.3392893410696E+01
 0.3414419101157E+01
 0.3431870633187E+01
 0.3444568212821E+01
 0.3451723151151E+01
 0.3452432794319E+01
 0.3445674258790E+01
 0.3430298168114E+01
 0.3405023275736E+01
 0.3368432504316E+01
 0.3318970385879E+01
 0.3254940927450E+01
 0.3174502965129E+01
 0.3075656132857E+01
 0.2956195864720E+01
 0.2813614617924E+01
 0.3226054885336E+01
 0.3256726224414E+01
 0.3285210686306E+01
 0.3311352969771E+01
 0.3334862273349E+01
 0.3355330699355E+01
 0.3372240251112E+01
 0.3384962012631E+01
 0.3392749978849E+01
 0.3394731294969E+01
 0.3389894271234E+01
 0.3377075358162E+01
 0.3354946254480E+01
 0.3322002435414E+01
 0.3276554591808E+01
 0.3216724686298E+01
 0.3140448402110E+01
 0.3045484534307E+01
 0.2929427578210E+01
 0.2789641259459E+01
 0.3168859184803E+01
 0.3195671790460E+01
 0.3220480463216E+01
 0.3243167109302E+01
 0.3263487344880E+01
 0.3281087807993E+01
 0.3295511608193E+01
 0.3306195622632E+01
 0.3312461803247E+01
 0.3313503964384E+01
 0.3308371134860E+01
 0.3295948447512E+01
 0.3274936690930E+01
 0.3243832094435E+01
 0.3200908727929E+01
 0.3144207219782E+01
 0.3071535737808E+01
 0.2980493613406E+01
 0.2868539309599E+01
 0.2733180260994E+01
 0.3104414558583E+01
 0.3126112831935E+01
 0.3145870763616E+01
 0.3163593682700E+01
 0.3179074444528E+01
 0.3192010587740E+01
 0.3202010125535E+01
 0.3208588788915E+01
 0.3211160710395E+01
 0.3209023758348E+01
 0.3201340244163E+01
 0.3187113491005E+01
 0.3165160801600E+01
 0.3134083758809E+01
 0.3092237647643E+01
 0.3037703293558E+01
 0.2968267102427E+01
 0.2881420129123E+01
 0.2774396993511E+01
 0.2644341712747E+01
 0.3032985563125E+01
 0.3048367589893E+01
 0.3061752944464E+01
 0.3073055785495E+01
 0.3082094193076E+01
 0.3088609991144E+01
 0.3092276816501E+01
 0.3092699254820E+01
 0.3089405076776E+01
 0.3081831707987E+01
 0.3069307318796E+01
 0.3051026372592E+01
 0.3026019123593E+01
 0.2993114439998E+01
 0.2950895537072E+01
 0.2897648786754E+01
 0.2831306669086E+01
 0.2749385573469E+01
 0.2648917087416E+01
 0.2526285997163E+01
 0.2954897712381E+01
 0.2962835194929E+01
 0.2968603322289E+01
 0.2972107361187E+01
 0.2973174999604E+01
 0.2971582154505E+01
 0.2967065184881E+01
 0.2959323564762E+01
 0.2948015750344E+01
 0.2932749664106E+01
 0.2913068086709E+01
 0.2888428273254E+01
 0.2858174203212E+01
 0.2821498953026E+01
 0.2777393707246E+01
 0.2724579003248E+01
 0.2661412654383E+01
 0.2585766679884E+01
 0.2494852674097E+01
 0.2384978264344E+01
 0.2870543927058E+01
 0.2870004797796E+01
 0.2867015435559E+01
 0.2861448277094E+01
 0.2853120565134E+01
 0.2841828671557E+01
 0.2827365428599E+01
 0.2809527138453E+01
 0.2788114573979E+01
 0.2762930229199E+01
 0.2733772476090E+01
 0.2700425946782E+01
 0.2662646125677E+01
 0.2620134522963E+01
 0.2572498665527E+01
 0.2519188311107E+01
 0.2459396722824E+01
 0.2391914621736E+01
 0.2314931702565E+01
 0.2225817714706E+01
 0.2780387612805E+01
 0.2770462683916E+01
 0.2757709622083E+01
 0.2741936231257E+01
 0.2722925278199E+01
 0.2700478256253E+01
 0.2674436886098E+01
 0.2644693723391E+01
 0.2611198692632E+01
 0.2573965170343E+01
 0.2533077179173E+01
 0.2488697838917E+01
 0.2441077970518E+01
 0.2390562190792E+01
 0.2337587391825E+01
 0.2282664564246E+01
 0.2226328603036E+01
 0.2169037380929E+01
 0.2111011372505E+01
 0.2052006903640E+01
 0.2684962451779E+01
 0.2664895439803E+01
 0.2641537704161E+01
 0.2614592368801E+01
 0.2583782627277E+01
 0.2548902222526E+01
 0.2509837128058E+01
 0.2466576887691E+01
 0.2419225561002E+01
 0.2368017429962E+01
 0.2313340231774E+01
 0.2255767649777E+01
 0.2196102427521E+01
 0.2135431261874E+01
 0.2075191989482E+01
 0.2017251239371E+01
 0.1963984233894E+01
 0.1918327015121E+01
 0.1883743988524E+01
 0.1864069129932E+01
 0.2584871420861E+01
 0.2554091839746E+01
 0.2519484431578E+01
 0.2480601657897E+01
 0.2437087101395E+01
 0.2388723225938E+01
 0.2335445221156E+01
 0.2277347909006E+01
 0.2214698398948E+01
 0.2147960551928E+01
 0.2077834857686E+01
 0.2005317140745E+01
 0.1931780740160E+01
 0.1859089211115E+01
 0.1789750238458E+01
 0.1727126270119E+01
 0.1675721181450E+01
 0.1641557213820E+01
 0.1632558117960E+01
 0.1658687174055E+01
 0.2480785657935E+01
 0.2438943042983E+01
 0.2392663938912E+01
 0.2341305668610E+01
 0.2284427021779E+01
 0.2221814320325E+01
 0.2153475219753E+01
 0.2079634241891E+01
 0.2000743359380E+01
 0.1917512825790E+01
 0.1830965269988E+01
 0.1742516943205E+01
 0.1654092908402E+01
 0.1568288045607E+01
 0.1488594229485E+01
 0.1419728877991E+01
 0.1368127136103E+01
 0.1342711682188E+01
 0.1356173971490E+01
 0.1426591054616E+01
 0.2373443650448E+01
 0.2320438732589E+01
 0.2262306902047E+01
 0.2198182346749E+01
 0.2127561653875E+01
 0.2050279742216E+01
 0.1966468331731E+01
 0.1876532539896E+01
 0.1781155706999E+01
 0.1681333610321E+01
 0.1578437739219E+01
 0.1474309109621E+01
 0.1371387695417E+01
 0.1272888123162E+01
 0.1183041507842E+01
 0.1107440203949E+01
 0.1053559592891E+01
 0.1031620050233E+01
 0.1056252249276E+01
 0.1150964407091E+01
 0.2263649029270E+01
 0.2199649888299E+01
 0.2129724949306E+01
 0.2052796061540E+01
 0.1968363200048E+01
 0.1876397214295E+01
 0.1777245883579E+01
 0.1671585549199E+01
 0.1560419261610E+01
 0.1445113588744E+01
 0.1327466522387E+01
 0.1209801410952E+01
 0.1095084419691E+01
 0.9870650172615E+00
 0.8904400788171E+00
 0.8110423274456E+00
 0.7560480789463E+00
 0.7341970564619E+00
 0.7559318073466E+00
 0.8339656448345E+00
 0.2152258626113E+01
 0.2077675314991E+01
 0.1996221968630E+01
 0.1906681891143E+01
 0.1808688537043E+01
 0.1702496894047E+01
 0.1588820800692E+01
 0.1468761052045E+01
 0.1343805199375E+01
 0.1215875895986E+01
 0.1087409051284E+01
 0.9614469274824E+00
 0.8417317069827E+00
 0.7327803000815E+00
 0.6399072477613E+00
 0.5691272354717E+00
 0.5267831782535E+00
 0.5184896188600E+00
 0.5464189740704E+00
 0.5993909470088E+00
 0.2040149367826E+01
 0.1955562911803E+01
 0.1862996615999E+01
 0.1761247853348E+01
 0.1650300021295E+01
 0.1530908334064E+01
 0.1404356883448E+01
 0.1272373295286E+01
 0.1137143400959E+01
 0.1001377445251E+01
 0.8683922257402E+00
 0.7421789303493E+00
 0.6274240569850E+00
 0.5294375505571E+00
 0.4539113234402E+00
 0.4063624677998E+00
 0.3909576034489E+00
 0.4081545714891E+00
 0.4498711643047E+00
 0.4914662094938E+00
 0.1928231207508E+01
 0.1834354036098E+01
 0.1731227044466E+01
 0.1617916572886E+01
 0.1495062332280E+01
 0.1364178712986E+01
 0.1227327909909E+01
 0.1087037000234E+01
 0.9463324794506E+00
 0.8088078245893E+00
 0.6786647739537E+00
 0.5606811391854E+00
 0.4600547468855E+00
 0.3820576493826E+00
 0.3313987145829E+00
 0.3111184076901E+00
 0.3207658741246E+00
 0.3536728966888E+00
 0.3938450673254E+00
 0.4172417860846E+00
 0.1817481910918E+01
 0.1715144933806E+01
 0.1602123474732E+01
 0.1478158666828E+01
 0.1344924521651E+01
 0.1204933029597E+01
 0.1061146575898E+01
 0.9169231604267E+00
 0.7760727090088E+00
 0.6428917794508E+00
 0.5221059686651E+00
 0.4186699390118E+00
 0.3373837855208E+00
 0.2822773216216E+00
 0.2556903542184E+00
 0.2569621557401E+00
 0.2808036342348E+00
 0.3159193070907E+00
 0.3456934525683E+00
 0.3539700012236E+00
 0.1708918690900E+01
 0.1599021818625E+01
 0.1476831991561E+01
 0.1343371429833E+01
 0.1201746059105E+01
 0.1055588658219E+01
 0.9086922240523E+00
 0.7650580039681E+00
 0.6289810856058E+00
 0.5050316731951E+00
 0.3978658543642E+00
 0.3118595141994E+00
 0.2505646908806E+00
 0.2159854777388E+00
 0.2076613638645E+00
 0.2216339335576E+00
 0.2497072079241E+00
 0.2798442424448E+00
 0.2988901394109E+00
 0.2977086071685E+00
 0.1603560608185E+01
 0.1486939421641E+01
 0.1356262438910E+01
 0.1214686399187E+01
 0.1067084776190E+01
 0.9180723013963E+00
 0.7719458210565E+00
 0.6329396586906E+00
 0.5053955079752E+00
 0.3936510978813E+00
 0.3017251843958E+00
 0.2328549822068E+00
 0.1889280909277E+00
 0.1698406044699E+00
 0.1728184303051E+00
 0.1919249744514E+00
 0.2182618221091E+00
 0.2413979159974E+00
 0.2522375694614E+00
 0.2460665561621E+00
 0.1502390649000E+01
 0.1379554183122E+01
 0.1240894379769E+01
 0.1092895264161E+01
 0.9422014394810E+00
 0.7938809120030E+00
 0.6520603940662E+00
 0.5207623454215E+00
 0.4039773960249E+00
 0.3054099014526E+00
 0.2280815150089E+00
 0.1738719329783E+00
 0.1430518285257E+00
 0.1338425889335E+00
 0.1420650951135E+00
 0.1611718931235E+00
 0.1830348147186E+00
 0.1996237460218E+00
 0.2052488456970E+00
 0.1981378811335E+00
 0.1406411252166E+01
 0.1277064033795E+01
 0.1130663558822E+01
 0.9784861878256E+00
 0.8283322865873E+00
 0.6840508127356E+00
 0.5491644801906E+00
 0.4272796224365E+00
 0.3218274045256E+00
 0.2356881444100E+00
 0.1707971436670E+00
 0.1277763906753E+00
 0.1056334360728E+00
 0.1015455098950E+00
 0.1107918579644E+00
 0.1271311908332E+00
 0.1438091169180E+00
 0.1550486690551E+00
 0.1576682653691E+00
 0.1520438510084E+00
 0.1316734554432E+01
 0.1177722967686E+01
 0.1023600471193E+01
 0.8722821566930E+00
 0.7264036122144E+00
 0.5885260542417E+00
 0.4619170706842E+00
 0.3498329766706E+00
 0.2550963568630E+00
 0.1797377514495E+00
 0.1246965619281E+00
 0.8958381537451E-01
 0.7255299604209E-01
 0.7027815929986E-01
 0.7807072550013E-01
 0.9042403053461E-01
 0.1020169388998E+00
 0.1089058508015E+00
 0.1095256990131E+00
 0.1056989038957E+00
 0.1229280775335E+01
 0.1071076304767E+01
 0.9219224852171E+00
 0.7770480908420E+00
 0.6374841489559E+00
 0.5069555256591E+00
 0.3888629060117E+00
 0.2861067645005E+00
 0.2008400719508E+00
 0.1342811381583E+00
 0.8653568573390E-01
 0.5648110568894E-01
 0.4178179991219E-01
 0.3903767182932E-01
 0.4397110490842E-01
 0.5197643799716E-01
 0.5903574162774E-01
 0.6257285030030E-01
 0.6208193677854E-01
 0.5896927170011E-01
</DataArray>
<DataArray type="Float64" Name="S_Hyd" NumberOfComponents="1" ComponentName0="S_Hyd" format="ascii">
 0.3905186065113E+01
 0.2730455153099E+01
 0.2622324170615E+01
 0.2522541045351E+01
 0.2476925310192E+01
 0.2446892658776E+01
 0.2428049853984E+01
 0.2415265644547E+01
 0.2406494636256E+01
 0.2400406948401E+01
 0.2396294172549E+01
 0.2393768255657E+01
 0.2392663942178E+01
 0.2392968566378E+01
 0.2394786735495E+01
 0.2398321074508E+01
 0.2403865353915E+01
 0.2411809004031E+01
 0.2422650331704E+01
 0.2437031779290E+01
 0.2455802650437E+01
 0.2480164456383E+01
 0.2512191502582E+01
 0.2555248769257E+01
 0.2610224286438E+01
 0.2673957573572E+01
 0.2743113769608E+01
 0.2816184892501E+01
 0.2893702452558E+01
 0.2977707019048E+01
 0.3071039181959E+01
 0.3176631933339E+01
 0.3295878457045E+01
 0.3431840996161E+01
 0.3595113524586E+01
 0.3806509194038E+01
 0.4079692584023E+01
 0.4516922733761E+01
 0.4927150288661E+01
 0.7211661620326E+01
 0.2095117778696E+01
 0.3498456316673E+01
 0.2921813732568E+01
 0.2628303633936E+01
 0.2537079496352E+01
 0.2473636214482E+01
 0.2437185866523E+01
 0.2412717968215E+01
 0.2396183558059E+01
 0.2384587388928E+01
 0.2376402403765E+01
 0.2370698579494E+01
 0.2366959988472E+01
 0.2364924084207E+01
 0.2364506817738E+01
 0.2365756468730E+01
 0.2368829383598E+01
 0.2373979576926E+01
 0.2381559489342E+01
 0.2392032829025E+01
 0.2406005298851E+01
 0.2424283973462E+01
 0.2448025667157E+01
 0.2479073677289E+01
 0.2519444284418E+01
 0.2569382983354E+01
 0.2626833837394E+01
 0.2689325952105E+01
 0.2755574402079E+01
 0.2825783864386E+01
 0.2901286764759E+01
 0.2983985992886E+01
 0.3075535814478E+01
 0.3177075427709E+01
 0.3291166404932E+01
 0.3425155863730E+01
 0.3586656146537E+01
 0.3799248140307E+01
 0.4028759714242E+01
 0.4481418830252E+01
 0.4517037830010E+01
-0.1632922373698E+00
 0.3286607452913E+01
 0.2926380894837E+01
 0.2660194471651E+01
 0.2537037620597E+01
 0.2469287725626E+01
 0.2425206855914E+01
 0.2396353734548E+01
 0.2376313857992E+01
 0.2362147417494E+01
 0.2351991014787E+01
 0.2344775800458E+01
 0.2339865094085E+01
 0.2336912555826E+01
 0.2335768131374E+01
 0.2336427140611E+01
 0.2339000927525E+01
 0.2343703091484E+01
 0.2350847383686E+01
 0.2360857852851E+01
 0.2374294886905E+01
 0.2391907830343E+01
 0.2414757856829E+01
 0.2444280426270E+01
 0.2481702154163E+01
 0.2526966320858E+01
 0.2578566562014E+01
 0.2634639211524E+01
 0.2694055528841E+01
 0.2756733244035E+01
 0.2823392492038E+01
 0.2895055237558E+01
 0.2972470609925E+01
 0.3056103594323E+01
 0.3147394962827E+01
 0.3248634974466E+01
 0.3364169305329E+01
 0.3486652324644E+01
 0.3614421511784E+01
 0.3678978767112E+01
 0.2794710710757E+01
-0.9132268596593E+00
 0.3142206005207E+01
 0.2887896621204E+01
 0.2666431249505E+01
 0.2535372747238E+01
 0.2460143188150E+01
 0.2411538318419E+01
 0.2378603756999E+01
 0.2355592618269E+01
 0.2339082991789E+01
 0.2327115988149E+01
 0.2318480448893E+01
 0.2312449982096E+01
 0.2308604013219E+01
 0.2306734012168E+01
 0.2306786004096E+01
 0.2308827999029E+01
 0.2313033084487E+01
 0.2319674508175E+01
 0.2329132341041E+01
 0.2341913578111E+01
 0.2358694870030E+01
 0.2380383078208E+01
 0.2408037252960E+01
 0.2442381154859E+01
 0.2483187223141E+01
 0.2529259700435E+01
 0.2579118553725E+01
 0.2631726970865E+01
 0.2686743920867E+01
 0.2744341274799E+01
 0.2804788905157E+01
 0.2868025556386E+01
 0.2933688439825E+01
 0.3001303331245E+01
 0.3070023773714E+01
 0.3135101548045E+01
 0.3182210047401E+01
 0.3175500101509E+01
 0.2916004706707E+01
 0.1733925132313E+01
-0.1109705797387E+01
 0.3029938821645E+01
 0.2837107282662E+01
 0.2653585339960E+01
 0.2527153270804E+01
 0.2447699923518E+01
 0.2395524873987E+01
 0.2359485024178E+01
 0.2333896768019E+01
 0.2315336206773E+01
 0.2301724379786E+01
 0.2291774357127E+01
 0.2284685127945E+01
 0.2279976594087E+01
 0.2277388836814E+01
 0.2276822963751E+01
 0.2278305634204E+01
 0.2281969681565E+01
 0.2288046364248E+01
 0.2296868001627E+01
 0.2308881609863E+01
 0.2324673919186E+01
 0.2344977788915E+01
 0.2370539726862E+01
 0.2401742114858E+01
 0.2438245703408E+01
 0.2479034971213E+01
 0.2522860423468E+01
 0.2568717926062E+01
 0.2616025214149E+01
 0.2664470977127E+01
 0.2713668381569E+01
 0.2762809910450E+01
 0.2810514379189E+01
 0.2854572168162E+01
 0.2890504889235E+01
 0.2907731669766E+01
 0.2882568413365E+01
 0.2746901307253E+01
 0.2287908512040E+01
 0.1076472919352E+01
-0.1138601129261E+01
 0.2936120522308E+01
 0.2782795140229E+01
 0.2628992556819E+01
 0.2511786682831E+01
 0.2431749895998E+01
 0.2377229921695E+01
 0.2338865645772E+01
 0.2311179190973E+01
 0.2290849470279E+01
 0.2275776014511E+01
 0.2264624684600E+01
 0.2256545765493E+01
 0.2251011886678E+01
 0.2247719933702E+01
 0.2246530605854E+01
 0.2247431558162E+01
 0.2250515949913E+01
 0.2255971973687E+01
 0.2264081308086E+01
 0.2275225001420E+01
 0.2289889295619E+01
 0.2308636118994E+01
 0.2331958560802E+01
 0.2359994678238E+01
 0.2392321902322E+01
 0.2428025035765E+01
 0.2465983151888E+01
 0.2505178049287E+01
 0.2544800942822E+01
 0.2584114460420E+01
 0.2622154839996E+01
 0.2657396966118E+01
 0.2687457584022E+01
 0.2708408311163E+01
 0.2712751653100E+01
 0.2685392241604E+01
 0.2593614349257E+01
 0.2356644333288E+01
 0.1795584032941E+01
 0.6544652300539E+00
-0.1111421128474E+01
 0.2854122700794E+01
 0.2727953047272E+01
 0.2597247874927E+01
 0.2490349109896E+01
 0.2412212229680E+01
 0.2356683153275E+01
 0.2316712492076E+01
 0.2287394506956E+01
 0.2265586353047E+01
 0.2249237985478E+01
 0.2237005493121E+01
 0.2228011570604E+01
 0.2221695063608E+01
 0.2217717564818E+01
 0.2215904178233E+01
 0.2216206121571E+01
 0.2218677789396E+01
 0.2223463747373E+01
 0.2230792922609E+01
 0.2240976250314E+01
 0.2254396152083E+01
 0.2271456602653E+01
 0.2292445152951E+01
 0.2317316769122E+01
 0.2345579674766E+01
 0.2376367240845E+01
 0.2408619292368E+01
 0.2441270834143E+01
 0.2473300875731E+01
 0.2503597236047E+01
 0.2530683384844E+01
 0.2552371779711E+01
 0.2565335433937E+01
 0.2564126598606E+01
 0.2538906925399E+01
 0.2471045150871E+01
 0.2322702955968E+01
 0.2015623140006E+01
 0.1414311997697E+01
 0.3740557866210E+00
-0.1067432520062E+01
 0.2780241609510E+01
 0.2673674638362E+01
 0.2561082975749E+01
 0.2464149464405E+01
 0.2389324422327E+01
 0.2333930929335E+01
 0.2293034554498E+01
 0.2262522103310E+01
 0.2239522661162E+01
 0.2222087212480E+01
 0.2208896902140E+01
 0.2199066860908E+01
 0.2192014794186E+01
 0.2187374900380E+01
 0.2184941518591E+01
 0.2184632195957E+01
 0.2186463785188E+01
 0.2190537189929E+01
 0.2197027393560E+01
 0.2206173458630E+01
 0.2218255878666E+01
 0.2233536848583E+01
 0.2252135729675E+01
 0.2273864666623E+01
 0.2298170110284E+01
 0.2324199793646E+01
 0.2350909637177E+01
 0.2377167268221E+01
 0.2401755197751E+01
 0.2423232253438E+01
 0.2439671111714E+01
 0.2448292662085E+01
 0.2444938089323E+01
 0.2422933218486E+01
 0.2370724765104E+01
 0.2267499571462E+01
 0.2074625371106E+01
 0.1723912870675E+01
 0.1118511943072E+01
 0.1818793440559E+00
-0.1020328023912E+01
 0.2712204722551E+01
 0.2620337205443E+01
 0.2522142372954E+01
 0.2434316034106E+01
 0.2363485972073E+01
 0.2309082785798E+01
 0.2267866926761E+01
 0.2236563843408E+01
 0.2212647023229E+01
 0.2194309358481E+01
 0.2180285194302E+01
 0.2169700405598E+01
 0.2161963204052E+01
 0.2156687941017E+01
 0.2153642969317E+01
 0.2152715052355E+01
 0.2153885020497E+01
 0.2157210608680E+01
 0.2162812694599E+01
 0.2170858913134E+01
 0.2181532894493E+01
 0.2194971330546E+01
 0.2211154342269E+01
 0.2229778837290E+01
 0.2250233967500E+01
 0.2271659391499E+01
 0.2292998507870E+01
 0.2313040745123E+01
 0.2330389561202E+01
 0.2343318105929E+01
 0.2349510948934E+01
 0.2345682765058E+01
 0.2326994109570E+01
 0.2285863133652E+01
 0.2209661500434E+01
 0.2076873718439E+01
 0.1851203679481E+01
 0.1476863422077E+01
 0.8873460272748E+00
 0.4675327902012E-01
-0.9746702548459E+00
 0.2648525211420E+01
 0.2568026859460E+01
 0.2481439179712E+01
 0.2401731347046E+01
 0.2335132667650E+01
 0.2282301620298E+01
 0.2241269940548E+01
 0.2209539230812E+01
 0.2184960281953E+01
 0.2165898220287E+01
 0.2151162494448E+01
 0.2139905274065E+01
 0.2131535747226E+01
 0.2125655415078E+01
 0.2122011259483E+01
 0.2120462210002E+01
 0.2120954857015E+01
 0.2123504783180E+01
 0.2128179602405E+01
 0.2135077690245E+01
 0.2144292553048E+01
 0.2155850493425E+01
 0.2169615004578E+01
 0.2185187491940E+01
 0.2201903198477E+01
 0.2218879541625E+01
 0.2235030119207E+01
 0.2249062833631E+01
 0.2259421453660E+01
 0.2264135847385E+01
 0.2260566783608E+01
 0.2245019306229E+01
 0.2212142912623E+01
 0.2153770423577E+01
 0.2056831497258E+01
 0.1900367675527E+01
 0.1652150130644E+01
 0.1268395357503E+01
 0.7050378178673E+00
-0.5015654189910E-01
-0.9316951864437E+00
 0.2588183932899E+01
 0.2516709534381E+01
 0.2439611422286E+01
 0.2367062514029E+01
 0.2304673273999E+01
 0.2253778181039E+01
 0.2213325424725E+01
 0.2181482232091E+01
 0.2156473888563E+01
 0.2136855087510E+01
 0.2121526352003E+01
 0.2109678605094E+01
 0.2100731044717E+01
 0.2094278642498E+01
 0.2090051364374E+01
 0.2087883262435E+01
 0.2087688694325E+01
 0.2089442594890E+01
 0.2093161027145E+01
 0.2098876484345E+01
 0.2106599800379E+01
 0.2116260443217E+01
 0.2127623216975E+01
 0.2140208826708E+01
 0.2153301849633E+01
 0.2165989278152E+01
 0.2177145745972E+01
 0.2185399949789E+01
 0.2189057112137E+01
 0.2185945912520E+01
 0.2173168901540E+01
 0.2146723578364E+01
 0.2100921520476E+01
 0.2027319978654E+01
 0.1912967972199E+01
 0.1738350091915E+01
 0.1475967810128E+01
 0.1092498885459E+01
 0.5599252169394E+00
-0.1206158314593E+00
-0.8914785626234E+00
 0.2530457026804E+01
 0.2466304710415E+01
 0.2397068391103E+01
 0.2330808250749E+01
 0.2272465439717E+01
 0.2223709300856E+01
 0.2184129773353E+01
 0.2152438410530E+01
 0.2127208169395E+01
 0.2107187896712E+01
 0.2091379265388E+01
 0.2079021309250E+01
 0.2069550680273E+01
 0.2062561364888E+01
 0.2057770335769E+01
 0.2054989677129E+01
 0.2054103702239E+01
 0.2055048625796E+01
 0.2057791362324E+01
 0.2062302670521E+01
 0.2068518301367E+01
 0.2076282877384E+01
 0.2085277033922E+01
 0.2094952439495E+01
 0.2104546538513E+01
 0.2113112108916E+01
 0.2119481500900E+01
 0.2122210699903E+01
 0.2119488916842E+01
 0.2108985400257E+01
 0.2087609953943E+01
 0.2051154473349E+01
 0.1993758882122E+01
 0.1906983281456E+01
 0.1778438043374E+01
 0.1590567375306E+01
 0.1320594274384E+01
 0.9438100500957E+00
 0.4434238620634E+00
-0.1722221782730E+00
-0.8537386765094E+00
 0.2474815577573E+01
 0.2416718272163E+01
 0.2354076499491E+01
 0.2293340916815E+01
 0.2238811173581E+01
 0.2192283918407E+01
 0.2153786622976E+01
 0.2122461830041E+01
 0.2097190626408E+01
 0.2076910282934E+01
 0.2060728146721E+01
 0.2047937731827E+01
 0.2037998965426E+01
 0.2030509554459E+01
 0.2025177116075E+01
 0.2021794582903E+01
 0.2020218543986E+01
 0.2020348760829E+01
 0.2022105904688E+01
 0.2025403582998E+01
 0.2030109871658E+01
 0.2035995121304E+01
 0.2042667819486E+01
 0.2049520240881E+01
 0.2055746683414E+01
 0.2060365160859E+01
 0.2062166618045E+01
 0.2059643806689E+01
 0.2050893317512E+01
 0.2033465902366E+01
 0.2004142158848E+01
 0.1958605493811E+01
 0.1890975291658E+01
 0.1793046294377E+01
 0.1653298386995E+01
 0.1456357483446E+01
 0.1183796443907E+01
 0.8177600623331E+00
 0.3491835815183E+00
-0.2100385742428E+00
-0.8181239341174E+00
 0.2420863979682E+01
 0.2367857090567E+01
 0.2310811051650E+01
 0.2254939435099E+01
 0.2203960777833E+01
 0.2159675647267E+01
 0.2122400811687E+01
 0.2091611949536E+01
 0.2066454268883E+01
 0.2046040607871E+01
 0.2029583746941E+01
 0.2016435288468E+01
 0.2006082683452E+01
 0.1998131207903E+01
 0.1992282342422E+01
 0.1988312551872E+01
 0.1986053101017E+01
 0.1985369813962E+01
 0.1986140358440E+01
 0.1988225968349E+01
 0.1991434106819E+01
 0.1995470205484E+01
 0.1999880786617E+01
 0.2004007048529E+01
 0.2007004596797E+01
 0.2007858501964E+01
 0.2005322151859E+01
 0.1997836547689E+01
 0.1983429297952E+01
 0.1959572037573E+01
 0.1922975983149E+01
 0.1869304668972E+01
 0.1792786767238E+01
 0.1685629336029E+01
 0.1537366696971E+01
 0.1334822953441E+01
 0.1063389575151E+01
 0.7105443821015E+00
 0.2724618722909E+00
-0.2375392647957E+00
-0.7843045667574E+00
 0.2368300443556E+01
 0.2319635116130E+01
 0.2267388234050E+01
 0.2215813863123E+01
 0.2168119725952E+01
 0.2126039734712E+01
 0.2090074083659E+01
 0.2059950840259E+01
 0.2035036015575E+01
 0.2014601002324E+01
 0.1997960063783E+01
 0.1984524080302E+01
 0.1973810815333E+01
 0.1965436125434E+01
 0.1959098139767E+01
 0.1954559375240E+01
 0.1951628201209E+01
 0.1950139181650E+01
 0.1949930414507E+01
 0.1950815565973E+01
 0.1952548130914E+01
 0.1954776944495E+01
 0.1956995376992E+01
 0.1958500972450E+01
 0.1958415501142E+01
 0.1955694609765E+01
 0.1949060009747E+01
 0.1936913629172E+01
 0.1917237354715E+01
 0.1887460742944E+01
 0.1844280222224E+01
 0.1783416917409E+01
 0.1699313854387E+01
 0.1584714228275E+01
 0.1430291426791E+01
 0.1224955589740E+01
 0.9573460985603E+00
 0.6190269995164E+00
 0.2096737248923E+00
-0.2571738244585E+00
-0.7519912527015E+00
 0.2316890809090E+01
 0.2271975470670E+01
 0.2223885314309E+01
 0.2176123403695E+01
 0.2131455971776E+01
 0.2091512635570E+01
 0.2056902388181E+01
 0.2027540926317E+01
 0.2002975242346E+01
 0.1982616456798E+01
 0.1965873759225E+01
 0.1952216505555E+01
 0.1941194260541E+01
 0.1932435686375E+01
 0.1925637914108E+01
 0.1920551845165E+01
 0.1916965364648E+01
 0.1914684537001E+01
 0.1913511406455E+01
 0.1913216794471E+01
 0.1913506433192E+01
 0.1913980019367E+01
 0.1914085544583E+01
 0.1913083685331E+01
 0.1910067532466E+01
 0.1903967996128E+01
 0.1893482293265E+01
 0.1876986474958E+01
 0.1852439004463E+01
 0.1817261343693E+01
 0.1768183354194E+01
 0.1701048478252E+01
 0.1610593615612E+01
 0.1490173712335E+01
 0.1331611350099E+01
 0.1125719796974E+01
 0.8638404636739E+00
 0.5406313094038E+00
 0.1580709367724E+00
-0.2707153845819E+00
-0.7209267544950E+00
 0.2266450680791E+01
 0.2224810670884E+01
 0.2180353628648E+01
 0.2135989531217E+01
 0.2094106650240E+01
 0.2056212989827E+01
 0.2022974409323E+01
 0.1994443289344E+01
 0.1970312527289E+01
 0.1950113980189E+01
 0.1933343596453E+01
 0.1919526870714E+01
 0.1908245550769E+01
 0.1899142616723E+01
 0.1891916139676E+01
 0.1886307535742E+01
 0.1882086559125E+01
 0.1879033552510E+01
 0.1876918019342E+01
 0.1875472504732E+01
 0.1874360750112E+01
 0.1873140043411E+01
 0.1871219959147E+01
 0.1867830608634E+01
 0.1862041738423E+01
 0.1852764952793E+01
 0.1838680881126E+01
 0.1818152855719E+01
 0.1789136747572E+01
 0.1749076288366E+01
 0.1694775908978E+01
 0.1622252828002E+01
 0.1526593159895E+01
 0.1401799427522E+01
 0.1240802373131E+01
 0.1036104630892E+01
 0.7812589697360E+00
 0.4732391682968E+00
 0.1155120256733E+00
-0.2794855478278E+00
-0.6908698900907E+00
 0.2216832943139E+01
 0.2178082023959E+01
 0.2136827065434E+01
 0.2095505564250E+01
 0.2056183830860E+01
 0.2020243258668E+01
 0.1988370962717E+01
 0.1960716490572E+01
 0.1937088622274E+01
 0.1917121849271E+01
 0.1900389911942E+01
 0.1886471012880E+01
 0.1874978565407E+01
 0.1865570756013E+01
 0.1857948146932E+01
 0.1851844589919E+01
 0.1847013971519E+01
 0.1843213654157E+01
 0.1840184046741E+01
 0.1837623787061E+01
 0.1835159982133E+01
 0.1832313619527E+01
 0.1828462162709E+01
 0.1822811057542E+01
 0.1814412099380E+01
 0.1802163419026E+01
 0.1784737234542E+01
 0.1760496831434E+01
 0.1727414451125E+01
 0.1682982460838E+01
 0.1624113629667E+01
 0.1547037495466E+01
 0.1447223387242E+01
 0.1319326338017E+01
 0.1157312590121E+01
 0.9551533538289E+00
 0.7081921289688E+00
 0.4151062038031E+00
 0.8029731867252E-01
-0.2845189680747E+00
-0.6615629821860E+00
 0.2167918852816E+01
 0.2131738701004E+01
 0.2093327683160E+01
 0.2054743672917E+01
 0.2017779294401E+01
 0.1983691588270E+01
 0.1953164963441E+01
 0.1926415824404E+01
 0.1903343654120E+01
 0.1883668966149E+01
 0.1867034138107E+01
 0.1853065946772E+01
 0.1841408260701E+01
 0.1831734834617E+01
 0.1823749922352E+01
 0.1817181523361E+01
 0.1811769805381E+01
 0.1807251814440E+01
 0.1803342198627E+01
 0.1799709831539E+01
 0.1795950148567E+01
 0.1791553406735E+01
 0.1785870713987E+01
 0.1778088386096E+01
 0.1767245603825E+01
 0.1752232983925E+01
 0.1731722421309E+01
 0.1704088992648E+01
 0.1667338117131E+01
 0.1619032981756E+01
 0.1556221193926E+01
 0.1475371277934E+01
 0.1372351896371E+01
 0.1242453236373E+01
 0.1080586354934E+01
 0.8819814263497E+00
 0.6434098408125E+00
 0.3648124593622E+00
 0.5102887241293E-01
-0.2866642281726E+00
-0.6327896150461E+00
 0.2119611581616E+01
 0.2085736713405E+01
 0.2049869486611E+01
 0.2013760027286E+01
 0.1978968424787E+01
 0.1946633660881E+01
 0.1917421739897E+01
 0.1891592901791E+01
 0.1869116530629E+01
 0.1849784321903E+01
 0.1833298377394E+01
 0.1819329535918E+01
 0.1807550410341E+01
 0.1797650257617E+01
 0.1789337914717E+01
 0.1782337038495E+01
 0.1776376095675E+01
 0.1771174371504E+01
 0.1766423942464E+01
 0.1761767820661E+01
 0.1756774361665E+01
 0.1750908185322E+01
 0.1743499318692E+01
 0.1733720130757E+01
 0.1720602364661E+01
 0.1703034991223E+01
 0.1679697307268E+01
 0.1648986929338E+01
 0.1608956934705E+01
 0.1557259331143E+01
 0.1491096212043E+01
 0.1407191309930E+01
 0.1301814576274E+01
 0.1170858638746E+01
 0.1010081927650E+01
 0.8157789150848E+00
 0.5858571451831E+00
 0.3211423586663E+00
 0.2676056125986E-01
-0.2872329889747E+00
-0.6033269715800E+00
 0.2071834183853E+01
 0.2040044423657E+01
 0.2006470593784E+01
 0.1972611032735E+01
 0.1939828251496E+01
 0.1909151606368E+01
 0.1881218938062E+01
 0.1856317082169E+01
 0.1834468393359E+01
 0.1815522783528E+01
 0.1799233702083E+01
 0.1785311423348E+01
 0.1773455270653E+01
 0.1763369615951E+01
 0.1754768523900E+01
 0.1747372652917E+01
 0.1740900680535E+01
 0.1735056601829E+01
 0.1729513000034E+01
 0.1723890746567E+01
 0.1717735431008E+01
 0.1710490775919E+01
 0.1701470640664E+01
 0.1689838344042E+01
 0.1674623179108E+01
 0.1654718111417E+01
 0.1628817001434E+01
 0.1595349450513E+01
 0.1552428164051E+01
 0.1497807711898E+01
 0.1428857687283E+01
 0.1342563797801E+01
 0.1235587404648E+01
 0.1104380029712E+01
 0.9454469920016E+00
 0.7559732016106E+00
 0.5347500427145E+00
 0.2832423665137E+00
 0.6541403928556E-02
-0.2859065055009E+00
-0.5794535330151E+00
 0.2024517283196E+01
 0.1994627115836E+01
 0.1963133735869E+01
 0.1931329764430E+01
 0.1900409043809E+01
 0.1871300537708E+01
 0.1844608134944E+01
 0.1820632417283E+01
 0.1799435024262E+01
 0.1780912919522E+01
 0.1764863224692E+01
 0.1751031105878E+01
 0.1739140387495E+01
 0.1728909933110E+01
 0.1720059465397E+01
 0.1712307815331E+01
 0.1705365637618E+01
 0.1698923960388E+01
 0.1692638764704E+01
 0.1686112240256E+01
 0.1678871173656E+01
 0.1670342709136E+01
 0.1659829013654E+01
 0.1646488848378E+01
 0.1629353676392E+01
 0.1607325660420E+01
 0.1579119620173E+01
 0.1543205158449E+01
 0.1497764121007E+01
 0.1440663515825E+01
 0.1369447872519E+01
 0.1281364394135E+01
 0.1173448261543E+01
 0.1042661279300E+01
 0.8861603728319E+00
 0.7018670206921E+00
 0.4892634614314E+00
 0.2502245797160E+00
-0.1023025317109E-01
-0.2836151262106E+00
-0.5586437529312E+00
 0.1977605426670E+01
 0.1949451321415E+01
 0.1919853227721E+01
 0.1889932777238E+01
 0.1860739861922E+01
 0.1833112176832E+01
 0.1807616632235E+01
 0.1784558032555E+01
 0.1764026282126E+01
 0.1745955852241E+01
 0.1730180598191E+01
 0.1716476215603E+01
 0.1704588730002E+01
 0.1694250685086E+01
 0.1685187689034E+01
 0.1677117724122E+01
 0.1669745000813E+01
 0.1662749697611E+01
 0.1655773831820E+01
 0.1648404047174E+01
 0.1640151889644E+01
 0.1630431785841E+01
 0.1618538211404E+01
 0.1603629409744E+01
 0.1584743193130E+01
 0.1560795587336E+01
 0.1530527939262E+01
 0.1492456506001E+01
 0.1444839637820E+01
 0.1385663525349E+01
 0.1312650917280E+01
 0.1223305289252E+01
 0.1115014087374E+01
 0.9852009882543E+00
 0.8315876768409E+00
 0.6527050798926E+00
 0.4485634158758E+00
 0.2213148441467E+00
-0.2423281842442E-01
-0.2805402552599E+00
-0.5386397034152E+00
 0.1931051552410E+01
 0.1904492186115E+01
 0.1876629326167E+01
 0.1848441833761E+01
 0.1820856168289E+01
 0.1794627612917E+01
 0.1770284973121E+01
 0.1748130365138E+01
 0.1728273185726E+01
 0.1710677363495E+01
 0.1695207327785E+01
 0.1681665225965E+01
 0.1669816996908E+01
 0.1659407947268E+01
 0.1650169658021E+01
 0.1641820099686E+01
 0.1634058476132E+01
 0.1626556079325E+01
 0.1618943413057E+01
 0.1610794470748E+01
 0.1601608821780E+01
 0.1590791690720E+01
 0.1577633493843E+01
 0.1561295618115E+01
 0.1540825992812E+01
 0.1515158635066E+01
 0.1483066148350E+01
 0.1443116744201E+01
 0.1393650567898E+01
 0.1332776799071E+01
 0.1258395931523E+01
 0.1168258386135E+01
 0.1060079236607E+01
 0.9316959206878E+00
 0.7813164305153E+00
 0.6079710117792E+00
 0.4120740446079E+00
 0.1959372624903E+00
-0.3589087827915E-01
-0.2767576150572E+00
-0.5190757976836E+00
 0.1884815636539E+01
 0.1859727857725E+01
 0.1833461103766E+01
 0.1806874270459E+01
 0.1780787606374E+01
 0.1755882241395E+01
 0.1732649043692E+01
 0.1711382514353E+01
 0.1692204615179E+01
 0.1675102000960E+01
 0.1659964275967E+01
 0.1646616297837E+01
 0.1634841708849E+01
 0.1624397609204E+01
 0.1615021534516E+01
 0.1606432156821E+01
 0.1598324976631E+01
 0.1590364208998E+01
 0.1582171107244E+01
 0.1573309676079E+01
 0.1563270487149E+01
 0.1551452749773E+01
 0.1537146094195E+01
 0.1519518327342E+01
 0.1497630825845E+01
 0.1470439153698E+01
 0.1436751048605E+01
 0.1395190680454E+01
 0.1344183397549E+01
 0.1281962653882E+01
 0.1206603207833E+01
 0.1116090186833E+01
 0.1008440054941E+01
 0.8818579137757E+00
 0.7349676008645E+00
 0.5672066902118E+00
 0.3792931697726E+00
 0.1736168350925E+00
-0.4555689898091E-01
-0.2723071794022E+00
-0.4999487193293E+00
 0.1838863342176E+01
 0.1815139068381E+01
 0.1790346784081E+01
 0.1765243925122E+01
 0.1740559011830E+01
 0.1716906585500E+01
 0.1694740579635E+01
 0.1674344459605E+01
 0.1655847326113E+01
 0.1639252977141E+01
 0.1624471510267E+01
 0.1611347113058E+01
 0.1599679045120E+01
 0.1589235221019E+01
 0.1579759037517E+01
 0.1570970475239E+01
 0.1562562508286E+01
 0.1554193934344E+01
 0.1545478835519E+01
 0.1535973662599E+01
 0.1525162695271E+01
 0.1512441999736E+01
 0.1497103344380E+01
 0.1478323845864E+01
 0.1455181207537E+01
 0.1426655509476E+01
 0.1391592664209E+01
 0.1348675592843E+01
 0.1296416584792E+01
 0.1233172542711E+01
 0.1157186686931E+01
 0.1066664671161E+01
 0.9598977061839E+00
 0.8354152747176E+00
 0.6921949218486E+00
 0.5300044362208E+00
 0.3497863930235E+00
 0.1539511833589E+00
-0.5351351177545E-01
-0.2672779986073E+00
-0.4813336140360E+00
 0.1793164977598E+01
 0.1770708741162E+01
 0.1747284005991E+01
 0.1723561843918E+01
 0.1700191244401E+01
 0.1677727004383E+01
 0.1656587643235E+01
 0.1637043305396E+01
 0.1619226019918E+01
 0.1603152132499E+01
 0.1588748213398E+01
 0.1575874766056E+01
 0.1564344735247E+01
 0.1553935893536E+01
 0.1544397355415E+01
 0.1535450927262E+01
 0.1526788116483E+01
 0.1518063818199E+01
 0.1508886844038E+01
 0.1498808306946E+01
 0.1487308639045E+01
 0.1473783333917E+01
 0.1457528882998E+01
 0.1437734218919E+01
 0.1413495797917E+01
 0.1383820603335E+01
 0.1347594961984E+01
 0.1303562232608E+01
 0.1250321933816E+01
 0.1186351868526E+01
 0.1110056189387E+01
 0.1019845749404E+01
 0.9142602758879E+00
 0.7921137228498E+00
 0.6526830164906E+00
 0.4960020864039E+00
 0.3231764354961E+00
 0.1365989230850E+00
-0.6000175770145E-01
-0.2617835474621E+00
-0.4632933520535E+00
 0.1747694660116E+01
 0.1726421644329E+01
 0.1704270002294E+01
 0.1681836822133E+01
 0.1659701853153E+01
 0.1638366285995E+01
 0.1618215044280E+01
 0.1599503516554E+01
 0.1582363429195E+01
 0.1566819922057E+01
 0.1552812615671E+01
 0.1540215673098E+01
 0.1528853963457E+01
 0.1518514207760E+01
 0.1508951065763E+01
 0.1499888611651E+01
 0.1491017838122E+01
 0.1481991114419E+01
 0.1472413710586E+01
 0.1461833407930E+01
 0.1449728985590E+01
 0.1435497646144E+01
 0.1418442860808E+01
 0.1397767508737E+01
 0.1372588779409E+01
 0.1341942382826E+01
 0.1304756549784E+01
 0.1259835772384E+01
 0.1205865853751E+01
 0.1141441580126E+01
 0.1065119287819E+01
 0.9754991726793E+00
 0.8713442413410E+00
 0.7517165971003E+00
 0.6161454328390E+00
 0.4648779010958E+00
 0.2991348556240E+00
 0.1212674296665E+00
-0.6523317195087E-01
-0.2559377708263E+00
-0.4458723992007E+00
 0.1702429642650E+01
 0.1682264092762E+01
 0.1661301715140E+01
 0.1640075816177E+01
 0.1619105604462E+01
 0.1598844134402E+01
 0.1579644698395E+01
 0.1561747126227E+01
 0.1545280396595E+01
 0.1530275402760E+01
 0.1516681927197E+01
 0.1504385476656E+01
 0.1493221262815E+01
 0.1482984109145E+01
 0.1473434035839E+01
 0.1464297764968E+01
 0.1455266628268E+01
 0.1445991715191E+01
 0.1436076318873E+01
 0.1425066694746E+01
 0.1412441925425E+01
 0.1397602928180E+01
 0.1379862095233E+01
 0.1358438019375E+01
 0.1332470173208E+01
 0.1301024281937E+01
 0.1263071282088E+01
 0.1217476624518E+01
 0.1163010426267E+01
 0.1098379486480E+01
 0.1022282778356E+01
 0.9334939255933E+00
 0.8309753436838E+00
 0.7140045650737E+00
 0.5823224523086E+00
 0.4363459103165E+00
 0.2773747550340E+00
 0.1077033934814E+00
-0.6939402242217E-01
-0.2498454644509E+00
-0.4290994156982E+00
 0.1657349764009E+01
 0.1638223697960E+01
 0.1618375878873E+01
 0.1598284275511E+01
 0.1578414924848E+01
 0.1559177598058E+01
 0.1540895963870E+01
 0.1523793956146E+01
 0.1507995989340E+01
 0.1493536269478E+01
 0.1480372324544E+01
 0.1468399006392E+01
 0.1457460467041E+01
 0.1447358860833E+01
 0.1437859384208E+01
 0.1428691736679E+01
 0.1419548353786E+01
 0.1410080168722E+01
 0.1399889906559E+01
 0.1388523912158E+01
 0.1375463301958E+01
 0.1360114451245E+01
 0.1341800313390E+01
 0.1319756614575E+01
 0.1293146251566E+01
 0.1261065755050E+01
 0.1222528948942E+01
 0.1176461317474E+01
 0.1121714486058E+01
 0.1057101515753E+01
 0.9814540121242E+00
 0.8937033988024E+00
 0.7929892138624E+00
 0.6787751772959E+00
 0.5509790176603E+00
 0.4101518356427E+00
 0.2576446832922E+00
 0.9568624033632E-01
-0.7264788287302E-01
-0.2435991879960E+00
-0.4129917294710E+00
 0.1612436995183E+01
 0.1594289148636E+01
 0.1575489064699E+01
 0.1556466390935E+01
 0.1537640247330E+01
 0.1519381413707E+01
 0.1501985917189E+01
 0.1485661797652E+01
 0.1470527589495E+01
 0.1456618873822E+01
 0.1443898921140E+01
 0.1432270221322E+01
 0.1421584639441E+01
 0.1411650969657E+01
 0.1402239410889E+01
 0.1393082928940E+01
 0.1383875747757E+01
 0.1374269653568E+01
 0.1363868065282E+01
 0.1352218852458E+01
 0.1338806682002E+01
 0.1323044882417E+01
 0.1304268323365E+01
 0.1281730956132E+01
 0.1254619860221E+01
 0.1222062705537E+01
 0.1183115835438E+01
 0.1136763206282E+01
 0.1081934483588E+01
 0.1017542690221E+01
 0.9425418705000E+00
 0.8560061504516E+00
 0.7572315900394E+00
 0.6458421237703E+00
 0.5219026250512E+00
 0.3860693835889E+00
 0.2397235990645E+00
 0.8502323257130E-01
-0.7513792805845E-01
-0.2372791320780E+00
-0.3975589654276E+00
 0.1567675066535E+01
 0.1550450026764E+01
 0.1532637711598E+01
 0.1514625296278E+01
 0.1496790302557E+01
 0.1479468306078E+01
 0.1462929604954E+01
 0.1447366590216E+01
 0.1432890998104E+01
 0.1419538267119E+01
 0.1407275767177E+01
 0.1396012183675E+01
 0.1385606034264E+01
 0.1375872144892E+01
 0.1366585560701E+01
 0.1357482770227E+01
 0.1348260398559E+01
 0.1338571988420E+01
 0.1328022776760E+01
 0.1316163423900E+01
 0.1302483462994E+01
 0.1286404437827E+01
 0.1267274222105E+01
 0.1244365777742E+01
 0.1216890772821E+01
 0.1184007938301E+01
 0.1144815289774E+01
 0.1098353166057E+01
 0.1043625293664E+01
 0.9796380000571E+00
 0.9054575917293E+00
 0.8202864907721E+00
 0.7235583804279E+00
 0.6150344451779E+00
 0.4949013894629E+00
 0.3638970597344E+00
 0.2234168061186E+00
 0.7554565607724E-01
-0.7698915664766E-01
-0.2309541578919E+00
-0.3828056618825E+00
 0.1523049154956E+01
 0.1506696648649E+01
 0.1489818141795E+01
 0.1472763226499E+01
 0.1455872356603E+01
 0.1439449240301E+01
 0.1423740263099E+01
 0.1408922583246E+01
 0.1395100535604E+01
 0.1382308248098E+01
 0.1370515858532E+01
 0.1359637043270E+01
 0.1349536068535E+01
 0.1340033266823E+01
 0.1330908395628E+01
 0.1321901697212E+01
 0.1312712746397E+01
 0.1302997648399E+01
 0.1292364454180E+01
 0.1280367722843E+01
 0.1266502981965E+01
 0.1250201035250E+01
 0.1230823599634E+01
 0.1207663150735E+01
 0.1179956030186E+01
 0.1146891585733E+01
 0.1107608246812E+01
 0.1061200214879E+01
 0.1006740918739E+01
 0.9433231320499E+00
 0.8701154168535E+00
 0.7864348721045E+00
 0.6918355644404E+00
 0.5861956878663E+00
 0.4698022494902E+00
 0.3434554103154E+00
 0.2085526043354E+00
 0.6710569372649E-01
-0.7831051996477E-01
-0.2246831847007E+00
-0.3687330873172E+00
 0.1478545623512E+01
 0.1463019926945E+01
 0.1447026564172E+01
 0.1430881638710E+01
 0.1414892400814E+01
 0.1399333628038E+01
 0.1384429498906E+01
 0.1370342471701E+01
 0.1357169125258E+01
 0.1344941399492E+01
 0.1333631137256E+01
 0.1323156013670E+01
 0.1313385284421E+01
 0.1304144343883E+01
 0.1295217553505E+01
 0.1286349120591E+01
 0.1277242061278E+01
 0.1267555760034E+01
 0.1256901959182E+01
 0.1244840077968E+01
 0.1230872592593E+01
 0.1214440410192E+01
 0.1194919701365E+01
 0.1171622701059E+01
 0.1143810221545E+01
 0.1110701462560E+01
 0.1071473662268E+01
 0.1025272023008E+01
 0.9712350491065E+00
 0.9085350246257E+00
 0.8364330393443E+00
 0.7543480830494E+00
 0.6619389408781E+00
 0.5591830097718E+00
 0.4464492981786E+00
 0.3245846190359E+00
 0.1949794805365E+00
 0.5957379303054E-01
-0.7919687895880E-01
-0.2185165653822E+00
-0.3553404253352E+00
 0.1434151802596E+01
 0.1419411255650E+01
 0.1404259077628E+01
 0.1388981316569E+01
 0.1373855318880E+01
 0.1359129514646E+01
 0.1345007464026E+01
 0.1331637534743E+01
 0.1319108390652E+01
 0.1307449147260E+01
 0.1296632520588E+01
 0.1286579380706E+01
 0.1277163346477E+01
 0.1268214506454E+01
 0.1259521744855E+01
 0.1250833430397E+01
 0.1241856461698E+01
 0.1232254138060E+01
 0.1221642661516E+01
 0.1209587137757E+01
 0.1195597785760E+01
 0.1179126275238E+01
 0.1159563632598E+01
 0.1136241866012E+01
 0.1108445800801E+01
 0.1075423447644E+01
 0.1036388961354E+01
 0.9905354192463E+00
 0.9370615992422E+00
 0.8752123782923E+00
 0.8043319974512E+00
 0.7239293926112E+00
 0.6337538676171E+00
 0.5338663657003E+00
 0.4247023295526E+00
 0.3071424777504E+00
 0.1825637735912E+00
 0.5283644950104E-01
-0.7973075153615E-01
-0.2124973399867E+00
-0.3426256016316E+00
 0.1389855804547E+01
 0.1375862408463E+01
 0.1361511665842E+01
 0.1347062448402E+01
 0.1332765018257E+01
 0.1318843729332E+01
 0.1305482994575E+01
 0.1292817747687E+01
 0.1280928732352E+01
 0.1269841803112E+01
 0.1259529915394E+01
 0.1249916496788E+01
 0.1240879023786E+01
 0.1232251983933E+01
 0.1223828730872E+01
 0.1215361980091E+01
 0.1206562909484E+01
 0.1197099295408E+01
 0.1186592468589E+01
 0.1174613924080E+01
 0.1160682271868E+01
 0.1144260436105E+01
 0.1124754513720E+01
 0.1101516094221E+01
 0.1073853336522E+01
 0.1041041787188E+01
 0.1002330393257E+01
 0.9569567846005E+00
 0.9041751117703E+00
 0.8432960170824E+00
 0.7737379113247E+00
 0.6950885534477E+00
 0.6071749064378E+00
 0.5101276835610E+00
 0.4044354988640E+00
 0.2910026035681E+00
 0.1711876710563E+00
 0.4679430364516E-01
-0.7998384360348E-01
-0.2066623041625E+00
-0.3305858167760E+00
 0.1345646368241E+01
 0.1332365454081E+01
 0.1318780193982E+01
 0.1305124695370E+01
 0.1291624545888E+01
 0.1278482020171E+01
 0.1265863741098E+01
 0.1253891890840E+01
 0.1242639408443E+01
 0.1232128616709E+01
 0.1222332246448E+01
 0.1213175791762E+01
 0.1204540190270E+01
 0.1196264100853E+01
 0.1188145320966E+01
 0.1179941090382E+01
 0.1171367224303E+01
 0.1162096472561E+01
 0.1151755873730E+01
 0.1139923903480E+01
 0.1126128079368E+01
 0.1109842921806E+01
 0.1090489646500E+01
 0.1067439052429E+01
 0.1040021762651E+01
 0.1007539390276E+01
 0.9692733670311E+00
 0.9245024144055E+00
 0.8725311167361E+00
 0.8127291957325E+00
 0.7445806658933E+00
 0.6677417682726E+00
 0.5821054734949E+00
 0.4878601177595E+00
 0.3855361542449E+00
 0.2760529200293E+00
 0.1607475205181E+00
 0.4136053002963E-01
-0.8001836368401E-01
-0.2010429108384E+00
-0.3192179111209E+00
 0.1301512726404E+01
 0.1288912683541E+01
 0.1276060404227E+01
 0.1263167247710E+01
 0.1250436186028E+01
 0.1238049170386E+01
 0.1226156282727E+01
 0.1214867647380E+01
 0.1204248609206E+01
 0.1194317826269E+01
 0.1185047486181E+01
 0.1176364787083E+01
 0.1168153829200E+01
 0.1160257277407E+01
 0.1152477374389E+01
 0.1144576056520E+01
 0.1136274100707E+01
 0.1127249668191E+01
 0.1117136004124E+01
 0.1105519056072E+01
 0.1091935648299E+01
 0.1075872106512E+01
 0.1056764667888E+01
 0.1034002814343E+01
 0.1006938604237E+01
 0.9748980905201E+00
 0.9371927428635E+00
 0.8931388240654E+00
 0.8420864236599E+00
 0.7834578332606E+00
 0.7167945234165E+00
 0.6418116050917E+00
 0.5584574791709E+00
 0.4669673554552E+00
 0.3679038003689E+00
 0.2621943451963E+00
 0.1511523902673E+00
 0.3645946698903E-01
-0.7988814390124E-01
-0.1956660174408E+00
-0.3085186221715E+00
 0.1257444493981E+01
 0.1245496548078E+01
 0.1233347910608E+01
 0.1221188870505E+01
 0.1209201541568E+01
 0.1197549096123E+01
 0.1186366224057E+01
 0.1175751686915E+01
 0.1165763520855E+01
 0.1156416701152E+01
 0.1147682678399E+01
 0.1139490104983E+01
 0.1131726032867E+01
 0.1124237024665E+01
 0.1116829795656E+01
 0.1109271148079E+01
 0.1101287116074E+01
 0.1092561658752E+01
 0.1082734655388E+01
 0.1071399928328E+01
 0.1058103904436E+01
 0.1042344808116E+01
 0.1023573675742E+01
 0.1001198015616E+01
 0.9745901622681E+00
 0.9430988584549E+00
 0.9060630647374E+00
 0.8628329867576E+00
 0.8127993380376E+00
 0.7554306686184E+00
 0.6903181652662E+00
 0.6172268631787E+00
 0.5361509581961E+00
 0.4473629704532E+00
 0.3514491776103E+00
 0.2493396575315E+00
 0.1423228442697E+00
 0.3202545869472E-01
-0.7963958032179E-01
-0.1905544948222E+00
-0.2984847453670E+00
 0.1213431573678E+01
 0.1202109608612E+01
 0.1190638197862E+01
 0.1179187947178E+01
 0.1167921609497E+01
 0.1156984938037E+01
 0.1146498288076E+01
 0.1136549748899E+01
 0.1127190393416E+01
 0.1118431592571E+01
 0.1110243973414E+01
 0.1102557491522E+01
 0.1095262017900E+01
 0.1088207956602E+01
 0.1081206547466E+01
 0.1074029626586E+01
 0.1066408756372E+01
 0.1058034035543E+01
 0.1048552342877E+01
 0.1037565701399E+01
 0.1024630347251E+01
 0.1009256398203E+01
 0.9909093627759E+00
 0.9690140128605E+00
 0.9429616972076E+00
 0.9121220062136E+00
 0.8758587781777E+00
 0.8335525492564E+00
 0.7846298510018E+00
 0.7285993892950E+00
 0.6650947147001E+00
 0.5939224398680E+00
 0.5151137343601E+00
 0.4289698580988E+00
 0.3360934743159E+00
 0.2374125398296E+00
 0.1341899180118E+00
 0.2800189001358E-01
-0.7931241626833E-01
-0.1857277270216E+00
-0.2891132652010E+00
 0.1169464076388E+01
 0.1158744493331E+01
 0.1147926620786E+01
 0.1137162516542E+01
 0.1126596845217E+01
 0.1116359139588E+01
 0.1106556395930E+01
 0.1097266714424E+01
 0.1088534599091E+01
 0.1080367976797E+01
 0.1072736657206E+01
 0.1065571834584E+01
 0.1058766135806E+01
 0.1052173797100E+01
 0.1045610657908E+01
 0.1038853756352E+01
 0.1031640433722E+01
 0.1023667231784E+01
 0.1014588340822E+01
 0.1004014244648E+01
 0.9915111199171E+00
 0.9766008903078E+00
 0.9587631242944E+00
 0.9374390111419E+00
 0.9120375748994E+00
 0.8819473477998E+00
 0.8465543967031E+00
 0.8052659904829E+00
 0.7575397684199E+00
 0.7029187012641E+00
 0.6410717110628E+00
 0.5718391697870E+00
 0.4952810909130E+00
 0.4117197196068E+00
 0.3217676366098E+00
 0.2263467628071E+00
 0.1266942587758E+00
 0.2434038592529E-01
-0.7894038360678E-01
-0.1812020107788E+00
-0.2804014403227E+00
 0.1125532254733E+01
 0.1115393863966E+01
 0.1105208406706E+01
 0.1095110307940E+01
 0.1085227221484E+01
 0.1075673518586E+01
 0.1066543740368E+01
 0.1057906673365E+01
 0.1049800688223E+01
 0.1042230498251E+01
 0.1035165182410E+01
 0.1028537185138E+01
 0.1022241887709E+01
 0.1016137391590E+01
 0.1010044232333E+01
 0.1003744819623E+01
 0.9969825075435E+00
 0.9894605522005E+00
 0.9808407224948E+00
 0.9707421682676E+00
 0.9587410759617E+00
 0.9443710217736E+00
 0.9271251558311E+00
 0.9064601769679E+00
 0.8818013928810E+00
 0.8525543342408E+00
 0.8181246377286E+00
 0.7779427451981E+00
 0.7314928035439E+00
 0.6783463657462E+00
 0.6182010613042E+00
 0.5509236611445E+00
 0.4765954675535E+00
 0.3955526102566E+00
 0.3084117815908E+00
 0.2160855053942E+00
 0.1197854206284E+00
 0.2100016252958E-01
-0.7855171736102E-01
-0.1769908709136E+00
-0.2723468690759E+00
 0.1081626448124E+01
 0.1072050390072E+01
 0.1062478661472E+01
 0.1053028775626E+01
 0.1043812283530E+01
 0.1034929333450E+01
 0.1026462853980E+01
 0.1018472987519E+01
 0.1010992443042E+01
 0.1004023012264E+01
 0.9975332006603E+00
 0.9914567811592E+00
 0.9856919425873E+00
 0.9801007226103E+00
 0.9745084691472E+00
 0.9687031352879E+00
 0.9624343085584E+00
 0.9554122043607E+00
 0.9473064006232E+00
 0.9377448742016E+00
 0.9263138417626E+00
 0.9125583284294E+00
 0.8959845399535E+00
 0.8760637361799E+00
 0.8522360868176E+00
 0.8239221638393E+00
 0.7905445288811E+00
 0.7515532947461E+00
 0.7064546361387E+00
 0.6548432065426E+00
 0.5964389728122E+00
 0.5311281322024E+00
 0.4590061847460E+00
 0.3804165482235E+00
 0.2959747058016E+00
 0.2065807992125E+00
 0.1134212993794E+00
 0.1794751544164E-01
-0.7816955508495E-01
-0.1731053015442E+00
-0.2649475401965E+00
 0.1037737037980E+01
 0.1028706730452E+01
 0.1019732378653E+01
 0.1010915132493E+01
 0.1002351200515E+01
 0.9941273440645E+00
 0.9863156715789E+00
 0.9789683484308E+00
 0.9721129272340E+00
 0.9657486250006E+00
 0.9598435933340E+00
 0.9543330709105E+00
 0.9491181554809E+00
 0.9440649255440E+00
 0.9390036756331E+00
 0.9337280770905E+00
 0.9279941613988E+00
 0.9215193273676E+00
 0.9139811635103E+00
 0.9050166006712E+00
 0.8942218700634E+00
 0.8811532071817E+00
 0.8653293173397E+00
 0.8462350519568E+00
 0.8233240125200E+00
 0.7960298634241E+00
 0.7637894812588E+00
 0.7260692221717E+00
 0.6823929362498E+00
 0.6323730867663E+00
 0.5757458665626E+00
 0.5124102463047E+00
 0.4424691920397E+00
 0.3662671780153E+00
 0.2844134797766E+00
 0.1977930854802E+00
 0.1075676949511E+00
 0.1515543450648E-01
-0.7781222908542E-01
-0.1695539379596E+00
-0.2582018701024E+00
 0.9938544121884E+00
 0.9853555214194E+00
 0.9769644523791E+00
 0.9687663840745E+00
 0.9608428144535E+00
 0.9532678683044E+00
 0.9461035875280E+00
 0.9393948303460E+00
 0.9331645314113E+00
 0.9274097303297E+00
 0.9220985002797E+00
 0.9171677350368E+00
 0.9125215850422E+00
 0.9080303039034E+00
 0.9035292831551E+00
 0.8988180907329E+00
 0.8936594052675E+00
 0.8877780173904E+00
 0.8808597063862E+00
 0.8725504599128E+00
 0.8624564842193E+00
 0.8501449663639E+00
 0.8351465421515E+00
 0.8169586832300E+00
 0.7950470042244E+00
 0.7688563417779E+00
 0.7378353314231E+00
 0.7014632341540E+00
 0.6592773556342E+00
 0.6109028583240E+00
 0.5560862737975E+00
 0.4947329478213E+00
 0.4269468410775E+00
 0.3530674867988E+00
 0.2736931242375E+00
 0.1896908776721E+00
 0.1021979935495E+00
 0.1260333811691E-01
-0.7749345636094E-01
-0.1663431614945E+00
-0.2521087287109E+00
 0.9499689384452E+00
 0.9419893732163E+00
 0.9341696965564E+00
 0.9265793668636E+00
 0.9192856916753E+00
 0.9123508400154E+00
 0.9058275143302E+00
 0.8997539450469E+00
 0.8941490216656E+00
 0.8890080512634E+00
 0.8842993546360E+00
 0.8799617161405E+00
 0.8759025196887E+00
 0.8719963540057E+00
 0.8680838722126E+00
 0.8639707209075E+00
 0.8594264242379E+00
 0.8541833621566E+00
 0.8479356706233E+00
 0.8403384822202E+00
 0.8310079266993E+00
 0.8195218777791E+00
 0.8054223360287E+00
 0.7882184382058E+00
 0.7673864241838E+00
 0.7423804306189E+00
 0.7126583677533E+00
 0.6777091655004E+00
 0.6370795024464E+00
 0.5904022991727E+00
 0.5374287301101E+00
 0.4780643110763E+00
 0.4124076928777E+00
 0.3407875801672E+00
 0.2637863712289E+00
 0.1822505302627E+00
 0.9729296805656E-01
 0.1027692491597E-01
-0.7722242734678E-01
-0.1634771398748E+00
-0.2466674536987E+00
 0.9060709446783E+00
 0.8986008714135E+00
 0.8913428660641E+00
 0.8843507851360E+00
 0.8776781694322E+00
 0.8713758593774E+00
 0.8654879316486E+00
 0.8600466859744E+00
 0.8550675769048E+00
 0.8505446700756E+00
 0.8464469063867E+00
 0.8427152370978E+00
 0.8392604923317E+00
 0.8359617778190E+00
 0.8326651849666E+00
 0.8291826248150E+00
 0.8252906627418E+00
 0.8207294590083E+00
 0.8152016645470E+00
 0.8083716392466E+00
 0.7998653841252E+00
 0.7892712021713E+00
 0.7761419120485E+00
 0.7599973941240E+00
 0.7403231746918E+00
 0.7165808844496E+00
 0.6882353128707E+00
 0.6547819384492E+00
 0.6157728720694E+00
 0.5708440119134E+00
 0.5197456411893E+00
 0.4623773772667E+00
 0.3988263353701E+00
 0.3294044947310E+00
 0.2546734895704E+00
 0.1754560958184E+00
 0.9284068315537E-01
 0.8168135935339E-02
-0.7700379314176E-01
-0.1609577911004E+00
-0.2418778498401E+00
 0.8621507081152E+00
 0.8551825871163E+00
 0.8484786861323E+00
 0.8420772545599E+00
 0.8360184077447E+00
 0.8303422472888E+00
 0.8250849387869E+00
 0.8202735759796E+00
 0.8159208305969E+00
 0.8120200640017E+00
 0.8085412528241E+00
 0.8054278275766E+00
 0.8025943044215E+00
 0.7999245059694E+00
 0.7972701484613E+00
 0.7944495965707E+00
 0.7912466517781E+00
 0.7874094431330E+00
 0.7826492934666E+00
 0.7766398751368E+00
 0.7690170182908E+00
 0.7593792183548E+00
 0.7472895995755E+00
 0.7322779147709E+00
 0.7138377045114E+00
 0.6914363715295E+00
 0.6645432944123E+00
 0.6326575087352E+00
 0.5953327652387E+00
 0.5522033134882E+00
 0.5030131479837E+00
 0.4476500045853E+00
 0.3861832335315E+00
 0.3189020668816E+00
 0.2463421908498E+00
 0.1692992832877E+00
 0.8883651496803E-01
 0.6275234767587E-02
-0.7683754239790E-01
-0.1587846675908E+00
-0.2377401552804E+00
 0.8181984507917E+00
 0.8117270943605E+00
 0.8055718878308E+00
 0.7997553501019E+00
 0.7943044433472E+00
 0.7892490998975E+00
 0.7846183059898E+00
 0.7804347133290E+00
 0.7767089108852E+00
 0.7734341399007E+00
 0.7705818688020E+00
 0.7680983511911E+00
 0.7659020513415E+00
 0.7638817225816E+00
 0.7618948998806E+00
 0.7597665935301E+00
 0.7572880365915E+00
 0.7542155164547E+00
 0.7502691891711E+00
 0.7451321355149E+00
 0.7384499929877E+00
 0.7298312456594E+00
 0.7188488595157E+00
 0.7050416551389E+00
 0.6879099989895E+00
 0.6669254451082E+00
 0.6415597930694E+00
 0.6113127869522E+00
 0.5757361813916E+00
 0.5344581030679E+00
 0.4872109773685E+00
 0.4338647167346E+00
 0.3744645969662E+00
 0.3092708432395E+00
 0.2387876030389E+00
 0.1637795064691E+00
 0.8528327644508E-01
 0.4603002017844E-02
-0.7671876440338E-01
-0.1569547396825E+00
-0.2342549815874E+00
 0.7742043426209E+00
 0.7682269939204E+00
 0.7626172482790E+00
 0.7573816555867E+00
 0.7525342417495E+00
 0.7480953378408E+00
 0.7440875176790E+00
 0.7405298077038E+00
 0.7374314695287E+00
 0.7347862571392E+00
 0.7325676249251E+00
 0.7307250204034E+00
 0.7291811352900E+00
 0.7278298771756E+00
 0.7265347982005E+00
 0.7251277481034E+00
 0.7234075886669E+00
 0.7211389593906E+00
 0.7180510205465E+00
 0.7138363755389E+00
 0.7081504775323E+00
 0.7006116404079E+00
 0.6908022706768E+00
 0.6782695340953E+00
 0.6625195350551E+00
 0.6430264766084E+00
 0.6192625501715E+00
 0.5907255181113E+00
 0.5569616707090E+00
 0.5175886920802E+00
 0.4723222627568E+00
 0.4210085350284E+00
 0.3636622516931E+00
 0.3005080225389E+00
 0.2320123057008E+00
 0.1589040203887E+00
 0.8219144882992E-01
 0.3163048291159E-02
-0.7663728185908E-01
-0.1554620524856E+00
-0.2314231691888E+00
 0.7301585124271E+00
 0.7246749490281E+00
 0.7196096442601E+00
 0.7149528268469E+00
 0.7107057621529E+00
 0.7068797675833E+00
 0.7034918275905E+00
 0.7005582287194E+00
 0.6980877247521E+00
 0.6960752663271E+00
 0.6944968238030E+00
 0.6933054317222E+00
 0.6924283005359E+00
 0.6917647207410E+00
 0.6911844614910E+00
 0.6905264063151E+00
 0.6895972451621E+00
 0.6881701703021E+00
 0.6859835316700E+00
 0.6827395946987E+00
 0.6781036757433E+00
 0.6717038159715E+00
 0.6631315372550E+00
 0.6519417251832E+00
 0.6376452508886E+00
 0.6197175996789E+00
 0.5976294822201E+00
 0.5708741644982E+00
 0.5389891867328E+00
 0.5015776340864E+00
 0.4583333673594E+00
 0.4090728213589E+00
 0.3537735383337E+00
 0.2926174476577E+00
 0.2260264439670E+00
 0.1546881603837E+00
 0.7957952773078E-01
 0.1974248991339E-02
-0.7657714496359E-01
-0.1542972223142E+00
-0.2292455407720E+00
 0.6860510651697E+00
 0.6810637265013E+00
 0.6765441088145E+00
 0.6724656534581E+00
 0.6688170156325E+00
 0.6656011307274E+00
 0.6628302973634E+00
 0.6605190344537E+00
 0.6586764816890E+00
 0.6572995239949E+00
 0.6563672110473E+00
 0.6558365746343E+00
 0.6556396413895E+00
 0.6556813134016E+00
 0.6558377745234E+00
 0.6559551352129E+00
 0.6558481155572E+00
 0.6552986703506E+00
 0.6540545433034E+00
 0.6518278328061E+00
 0.6482938137029E+00
 0.6430902190183E+00
 0.6358174497851E+00
 0.6260375980879E+00
 0.6132654634852E+00
 0.5969765995145E+00
 0.5766385383726E+00
 0.5517377297666E+00
 0.5217998796720E+00
 0.4864094969729E+00
 0.4452336552199E+00
 0.3980530805006E+00
 0.3448011898761E+00
 0.2856096086127E+00
 0.2208478942657E+00
 0.1511556691745E+00
 0.7747447254178E-01
 0.1063289614878E-02
-0.7651598006023E-01
-0.1534467130469E+00
-0.2277224550007E+00
 0.6418721092316E+00
 0.6373862521286E+00
 0.6334159040407E+00
 0.6299171361370E+00
 0.6268661370567E+00
 0.6242581650115E+00
 0.6221018455352E+00
 0.6204110102211E+00
 0.6191961639497E+00
 0.6184569200017E+00
 0.6181760009645E+00
 0.6183148572421E+00
 0.6188106287362E+00
 0.6195740522288E+00
 0.6204879177904E+00
 0.6214057526071E+00
 0.6221505111854E+00
 0.6225131313899E+00
 0.6222509771481E+00
 0.6210861879962E+00
 0.6187041482645E+00
 0.6147523247015E+00
 0.6088398626858E+00
 0.6005356738391E+00
 0.5893577966059E+00
 0.5747808087491E+00
 0.5562675602526E+00
 0.5332955808025E+00
 0.5053758829967E+00
 0.4720706249240E+00
 0.4330152512774E+00
 0.3879487563334E+00
 0.3367532172164E+00
 0.2795016804162E+00
 0.2165025083542E+00
 0.1483391449812E+00
 0.7591228170971E-01
 0.4653157008186E-03
-0.7642419528970E-01
-0.1528918312141E+00
-0.2268529839927E+00
 0.5976117911042E+00
 0.5936356781461E+00
 0.5902206063906E+00
 0.5873045742272E+00
 0.5848514629876E+00
 0.5828496671624E+00
 0.5813052953013E+00
 0.5802327044604E+00
 0.5796448419512E+00
 0.5795449022416E+00
 0.5799199005246E+00
 0.5807361312530E+00
 0.5819361368776E+00
 0.5834367000894E+00
 0.5851273980236E+00
 0.5868693584936E+00
 0.5884939763517E+00
 0.5898014050496E+00
 0.5905588805582E+00
 0.5904988340724E+00
 0.5893169733710E+00
 0.5866706276893E+00
 0.5821776652388E+00
 0.5754135706164E+00
 0.5658990960897E+00
 0.5531069870198E+00
 0.5364941212186E+00
 0.5155272442613E+00
 0.4897000695192E+00
 0.4585488650616E+00
 0.4216727633703E+00
 0.3787629929526E+00
 0.3296427728216E+00
 0.2743175666089E+00
 0.2130244167153E+00
 0.1462806190722E+00
 0.7493870431514E-01
 0.2246450143360E-03
-0.7626409928886E-01
-0.1526073485392E+00
-0.2266334711236E+00
 0.5532603404532E+00
 0.5498054629281E+00
 0.5469542032823E+00
 0.5446256593305E+00
 0.5427716087404E+00
 0.5413745479949E+00
 0.5404394090125E+00
 0.5399824476654E+00
 0.5400202421805E+00
 0.5405604812244E+00
 0.5415951126644E+00
 0.5430956958930E+00
 0.5450104488008E+00
 0.5472623922636E+00
 0.5497480556465E+00
 0.5523363424245E+00
 0.5548672942736E+00
 0.5571505253792E+00
 0.5589634234005E+00
 0.5600490084143E+00
 0.5601135951591E+00
 0.5588246000130E+00
 0.5558087172639E+00
 0.5506479120223E+00
 0.5428653053121E+00
 0.5319311582053E+00
 0.5172953205045E+00
 0.4984121546234E+00
 0.4747557549383E+00
 0.4458332373322E+00
 0.4112029447224E+00
 0.3705023383897E+00
 0.3234879719354E+00
 0.2700879298113E+00
 0.2104563756482E+00
 0.1450322988434E+00
 0.7461015601124E-01
 0.3954952506027E-03
-0.7598908039886E-01
-0.1525596533377E+00
-0.2270548991052E+00
 0.5088081271968E+00
 0.5058894738489E+00
 0.5036132170364E+00
 0.5018785956749E+00
 0.5006255690861E+00
 0.4998319082284E+00
 0.4995029421237E+00
 0.4996583916306E+00
 0.5003197793533E+00
 0.5015002611269E+00
 0.5031973699648E+00
 0.5053883359766E+00
 0.5080272990336E+00
 0.5110436836365E+00
 0.5143411153436E+00
 0.5177964360943E+00
 0.5212585398856E+00
 0.5245467595133E+00
 0.5274489435347E+00
 0.5297190484464E+00
 0.5310743548182E+00
 0.5311926950427E+00
 0.5297098284311E+00
 0.5262142756128E+00
 0.5202313765807E+00
 0.5112284781692E+00
 0.4986476010075E+00
 0.4819294170812E+00
 0.4605264051855E+00
 0.4339135945584E+00
 0.4016043332661E+00
 0.3631764134151E+00
 0.3183116810137E+00
 0.2668502169255E+00
 0.2088501365989E+00
 0.1446574906309E+00
 0.7499503753483E-01
 0.1042630844419E-02
-0.7554316619181E-01
-0.1527045892849E+00
-0.2280975654585E+00
 0.4642457290413E+00
 0.4618821050000E+00
 0.4601948408893E+00
 0.4590622231155E+00
 0.4584128099087E+00
 0.4582210941017E+00
 0.4584946682987E+00
 0.4592585141861E+00
 0.4605405506870E+00
 0.4623604309258E+00
 0.4647219269218E+00
 0.4676083171417E+00
 0.4709798721034E+00
 0.4747725497860E+00
 0.4788971887276E+00
 0.4832387162120E+00
 0.4876550811572E+00
 0.4919756051446E+00
 0.4959989374497E+00
 0.4994903716460E+00
 0.5021785933758E+00
 0.5037522917878E+00
 0.5038566763579E+00
 0.5020870788086E+00
 0.4979711186629E+00
 0.4909730374132E+00
 0.4805265003518E+00
 0.4660575010589E+00
 0.4469952694351E+00
 0.4227802017394E+00
 0.3928767986535E+00
 0.3567974893888E+00
 0.3141411990821E+00
 0.2646486525727E+00
 0.2082667874849E+00
 0.1452315757841E+00
 0.7617580494711E-01
 0.2242311411942E-02
-0.7486260859113E-01
-0.1529838717989E+00
-0.2297237197648E+00
 0.4195640156380E+00
 0.4177784269319E+00
 0.4166971097517E+00
 0.4161761698780E+00
 0.4161333823378E+00
 0.4165417684272E+00
 0.4174134162983E+00
 0.4187806356133E+00
 0.4206793441924E+00
 0.4231367731012E+00
 0.4261635735396E+00
 0.4297494058303E+00
 0.4338608286488E+00
 0.4384404181235E+00
 0.4434063090270E+00
 0.4486516409919E+00
 0.4540436152857E+00
 0.4594218237566E+00
 0.4645960871059E+00
 0.4693434916492E+00
 0.4734046518052E+00
 0.4764796729901E+00
 0.4782237561926E+00
 0.4782394932329E+00
 0.4760570689076E+00
 0.4711376835148E+00
 0.4629064154787E+00
 0.4507739383862E+00
 0.4341450057391E+00
 0.4124232887284E+00
 0.3850210466344E+00
 0.3513799791107E+00
 0.3110079093058E+00
 0.2635339994711E+00
 0.2087775348540E+00
 0.1468421073557E+00
 0.7825279879450E-01
 0.4084311764653E-02
-0.7388032359348E-01
-0.1533280446740E+00
-0.2318428231820E+00
 0.3747542443345E+00
 0.3735743743894E+00
 0.3731191032900E+00
 0.3732210300768E+00
 0.3737880503894E+00
 0.3747939834023E+00
 0.3762581029102E+00
 0.3782224294244E+00
 0.3807326428543E+00
 0.3838246710090E+00
 0.3875166504951E+00
 0.3918048932868E+00
 0.3966623374290E+00
 0.4020382063292E+00
 0.4078579741119E+00
 0.4140230957764E+00
 0.4204102146192E+00
 0.4268694839835E+00
 0.4332222970283E+00
 0.4392580443423E+00
 0.4447298803356E+00
 0.4493500110222E+00
 0.4527843359864E+00
 0.4546433622639E+00
 0.4544603654745E+00
 0.4516938398746E+00
 0.4457603583875E+00
 0.4360550052048E+00
 0.4219572776286E+00
 0.4028325582050E+00
 0.3780380414871E+00
 0.3469398557142E+00
 0.3089466843912E+00
 0.2635636113270E+00
 0.2104630135498E+00
 0.1495934796262E+00
 0.8133558219765E-01
 0.6704682159995E-02
-0.7257671767303E-01
-0.1536125430081E+00
-0.2343509474738E+00
 0.3298081537605E+00
 0.3292670010541E+00
 0.3294611610662E+00
 0.3301985674112E+00
 0.3313784125503E+00
 0.3329782338833E+00
 0.3350277346295E+00
 0.3375813974266E+00
 0.3406965919101E+00
 0.3444190795982E+00
 0.3487750278295E+00
 0.3537675827043E+00
 0.3593760695439E+00
 0.3655563217089E+00
 0.3722411490186E+00
 0.3793403967768E+00
 0.3867403294618E+00
 0.3943019608001E+00
 0.4018586863324E+00
 0.4092127680544E+00
 0.4161306009942E+00
 0.4223373060528E+00
 0.4275103633222E+00
 0.4312690689941E+00
 0.4331505694079E+00
 0.4326112739664E+00
 0.4290596607728E+00
 0.4218753500930E+00
 0.4104122913956E+00
 0.3939966160649E+00
 0.3719283421833E+00
 0.3434938880493E+00
 0.3079953183475E+00
 0.2648005724306E+00
 0.2134152889571E+00
 0.1536013337007E+00
 0.8557123838894E-01
 0.1019724229163E-01
-0.7066742721900E-01
-0.1544893576870E+00
-0.2354150098066E+00
 0.2847165478562E+00
 0.2848491384302E+00
 0.2857164137853E+00
 0.2870998393380E+00
 0.2888917440819E+00
 0.2910770918555E+00
 0.2936999557739E+00
 0.2968304570805E+00
 0.3005397531206E+00
 0.3048845751333E+00
 0.3098995841250E+00
 0.3155948426046E+00
 0.3219559861861E+00
 0.3289453628104E+00
 0.3365030839140E+00
 0.3445474546894E+00
 0.3529745579206E+00
 0.3616566082182E+00
 0.3704395022276E+00
 0.3791390427931E+00
 0.3875357097551E+00
 0.3953685454470E+00
 0.4023277362947E+00
 0.4080425330471E+00
 0.4120550549491E+00
 0.4138205905876E+00
 0.4127403059613E+00
 0.4081789049340E+00
 0.3994649976100E+00
 0.3858851100189E+00
 0.3666806850745E+00
 0.3410550657739E+00
 0.3081966597743E+00
 0.2673232239121E+00
 0.2177502864737E+00
 0.1590218530473E+00
 0.9112535169848E-01
 0.1479901997477E-01
-0.6825650728698E-01
-0.1547462352366E+00
-0.2409143815050E+00
 0.2394735448062E+00
 0.2403210563790E+00
 0.2418890729152E+00
 0.2439300300329E+00
 0.2463321196407E+00
 0.2490924520532E+00
 0.2522742592082E+00
 0.2559669507575E+00
 0.2602577190881E+00
 0.2652153484771E+00
 0.2708833200547E+00
 0.2772785501281E+00
 0.2843927879935E+00
 0.2921947140150E+00
 0.3006316497162E+00
 0.3096303959801E+00
 0.3190970364917E+00
 0.3289153318936E+00
 0.3389442051847E+00
 0.3490137250276E+00
 0.3589193958114E+00
 0.3684153334226E+00
 0.3772057595244E+00
 0.3849313030858E+00
 0.3911404592900E+00
 0.3952886914811E+00
 0.3967710083290E+00
 0.3949381888997E+00
 0.3890942806085E+00
 0.3784866068847E+00
 0.3622976525352E+00
 0.3396455608084E+00
 0.3095994416352E+00
 0.2712142310474E+00
 0.2235923023453E+00
 0.1660179006406E+00
 0.9821170013776E-01
 0.2066340558904E-01
-0.6490444895780E-01
-0.1554352756982E+00
-0.2455282313693E+00
 0.1940745114104E+00
 0.1956900781045E+00
 0.1979938024951E+00
 0.2007077395844E+00
 0.2037194866215E+00
 0.2070444690047E+00
 0.2107708875577E+00
 0.2150116070425E+00
 0.2198721971557E+00
 0.2254344421843E+00
 0.2317507568114E+00
 0.2388446462603E+00
 0.2467136160127E+00
 0.2553323776658E+00
 0.2646552843643E+00
 0.2746176034761E+00
 0.2851355525500E+00
 0.2961047461616E+00
 0.3073976368485E+00
 0.3188592849738E+00
 0.3303011948290E+00
 0.3414937929844E+00
 0.3521568102277E+00
 0.3619438842926E+00
 0.3704115463761E+00
 0.3770170239913E+00
 0.3811506661640E+00
 0.3821507526123E+00
 0.3792981427480E+00
 0.3718022298973E+00
 0.3587874207509E+00
 0.3392863236024E+00
 0.3122452320975E+00
 0.2765460059051E+00
 0.2310539564386E+00
 0.1747536078548E+00
 0.1070244983917E+00
 0.2806975386481E-01
-0.6059686200622E-01
-0.1556182022787E+00
-0.2519089939531E+00
 0.1485153674915E+00
 0.1509608450366E+00
 0.1540398258936E+00
 0.1574422527098E+00
 0.1610603973425E+00
 0.1649359138816E+00
 0.1691890501053E+00
 0.1739608410068E+00
 0.1793776124823E+00
 0.1855348807105E+00
 0.1924938384385E+00
 0.2002840869072E+00
 0.2089083664029E+00
 0.2183470102869E+00
 0.2285611566408E+00
 0.2394944689723E+00
 0.2510734093365E+00
 0.2632057477533E+00
 0.2757779814548E+00
 0.2886509272620E+00
 0.3016531448912E+00
 0.3145727466958E+00
 0.3271466546396E+00
 0.3390434230375E+00
 0.3498296028608E+00
 0.3589661221554E+00
 0.3658405405238E+00
 0.3697804987395E+00
 0.3700456155688E+00
 0.3658094539324E+00
 0.3561404772518E+00
 0.3399872696513E+00
 0.3161723922197E+00
 0.2833968546627E+00
 0.2402673783683E+00
 0.1854212912872E+00
 0.1178273105815E+00
 0.3727852102665E-01
-0.5494498558802E-01
-0.1554501233452E+00
-0.2588043409554E+00
 0.1027937133365E+00
 0.1061413619446E+00
 0.1100399595086E+00
 0.1141457297945E+00
 0.1183630641501E+00
 0.1227701296402E+00
 0.1275278034416E+00
 0.1328105615447E+00
 0.1387677837827E+00
 0.1455091110203E+00
 0.1531040053072E+00
 0.1615873993741E+00
 0.1709665647410E+00
 0.1812269326022E+00
 0.1923361094532E+00
 0.2042460425732E+00
 0.2168935247709E+00
 0.2301987721347E+00
 0.2440628463576E+00
 0.2583631148712E+00
 0.2729463194885E+00
 0.2876197675696E+00
 0.3021394685033E+00
 0.3161910950243E+00
 0.3293535473175E+00
 0.3410937529641E+00
 0.3507987263117E+00
 0.3577877510811E+00
 0.3613017052292E+00
 0.3604812462350E+00
 0.3543423411590E+00
 0.3417531869790E+00
 0.3214148480569E+00
 0.2918439821376E+00
 0.2513698226178E+00
 0.1982360555583E+00
 0.1309096568991E+00
 0.4865263216451E-01
-0.4763895559372E-01
-0.1545839167098E+00
-0.2661269187402E+00
 0.5690930321798E-01
 0.6124381989339E-01
 0.6601151510867E-01
 0.7083373421099E-01
 0.7563751990361E-01
 0.8055093573109E-01
 0.8578586887129E-01
 0.9155600649849E-01
 0.9803581511434E-01
 0.1053489489270E+00
 0.1135721804905E+00
 0.1227446952283E+00
 0.1328773959449E+00
 0.1439601706171E+00
 0.1559667085667E+00
 0.1688570870433E+00
 0.1825784900380E+00
 0.1970638547723E+00
 0.2122293230908E+00
 0.2279696243200E+00
 0.2441508672653E+00
 0.2606011900511E+00
 0.2770978045445E+00
 0.2933460170373E+00
 0.3089397787300E+00
 0.3233546975050E+00
 0.3359798597163E+00
 0.3461288713758E+00
 0.3530268817863E+00
 0.3557853517569E+00
 0.3533725201796E+00
 0.3445821108128E+00
 0.3279997793976E+00
 0.3019598641111E+00
 0.2645016130817E+00
 0.2134291835603E+00
 0.1466083663982E+00
 0.6260881013531E-01
-0.3824648269191E-01
-0.1526682404749E+00
-0.2738046423904E+00
 0.1086459330088E-01
 0.1628573253200E-01
 0.2197741713985E-01
 0.2752586782877E-01
 0.3289573637019E-01
 0.3828244390009E-01
 0.4396137134839E-01
 0.5019153433372E-01
 0.5717397150608E-01
 0.6504552350816E-01
 0.7388875986986E-01
 0.8374568878031E-01
 0.9462974031040E-01
 0.1065345029136E+00
 0.1194392977011E+00
 0.1333121389502E+00
 0.1481106358977E+00
 0.1637807017591E+00
 0.1802540602107E+00
 0.1974436155213E+00
 0.2152360687718E+00
 0.2334821384187E+00
 0.2519825750748E+00
 0.2704651694838E+00
 0.2885420318562E+00
 0.3057005378292E+00
 0.3213348341356E+00
 0.3347558914425E+00
 0.3451765922195E+00
 0.3516836135998E+00
 0.3532034820279E+00
 0.3484636944507E+00
 0.3359448822269E+00
 0.3138083876701E+00
 0.2798004974157E+00
 0.2312468113156E+00
 0.1653035915577E+00
 0.7964761246308E-01
-0.2622676225446E-01
-0.1492841613969E+00
-0.2817598894487E+00
-0.3533458691462E-01
-0.2870854060531E-01
-0.2203235302186E-01
-0.1575349020513E-01
-0.9848336702490E-02
-0.4031263931034E-02
 0.2051474367280E-02
 0.8710364018245E-02
 0.1617353636739E-01
 0.2458921693970E-01
 0.3404360151364E-01
 0.4457971525003E-01
 0.5621220864688E-01
 0.6893750633119E-01
 0.8274005153137E-01
 0.9759556765955E-01
 0.1134720974415E+00
 0.1303287604298E+00
 0.1481133388666E+00
 0.1667577080689E+00
 0.1861704031305E+00
 0.2062265664005E+00
 0.2267530435043E+00
 0.2475033227724E+00
 0.2681112318348E+00
 0.2880794424282E+00
 0.3068105197686E+00
 0.3236161595286E+00
 0.3377008045457E+00
 0.3481313434511E+00
 0.3537997010184E+00
 0.3533775988503E+00
 0.3452555532103E+00
 0.3274399443740E+00
 0.2973950023340E+00
 0.2519429798629E+00
 0.1874202440234E+00
 0.1003674279683E+00
-0.1090368687116E-01
-0.1439010476924E+00
-0.2898734421394E+00
-0.8167820876119E-01
-0.7370572398705E-01
-0.6597885390693E-01
-0.5897433286779E-01
-0.5257887705438E-01
-0.4638665327962E-01
-0.3994810800229E-01
-0.3289572980378E-01
-0.2497533667828E-01
-0.1603038919412E-01
-0.5973976187148E-02
 0.5235757420365E-02
 0.1761318507810E-01
 0.3115660861079E-01
 0.4585503530236E-01
 0.6169164105360E-01
 0.7864488633946E-01
 0.9668729927333E-01
 0.1157831609836E+00
 0.1358840749476E+00
 0.1569216370606E+00
 0.1787973213854E+00
 0.2013668375430E+00
 0.2244129780766E+00
 0.2475953559672E+00
 0.2704359568100E+00
 0.2923494934626E+00
 0.3126520091763E+00
 0.3305435941870E+00
 0.3450767663723E+00
 0.3551168161172E+00
 0.3592920331370E+00
 0.3559220643298E+00
 0.3428860029883E+00
 0.3173953498000E+00
 0.2757690572454E+00
 0.2134245240934E+00
 0.1254799488527E+00
 0.8575950245180E-02
-0.1358196967763E+00
-0.2979636543888E+00
-0.1281510449611E+00
-0.1186607533293E+00
-0.1098116284355E+00
-0.1021000717618E+00
-0.9527855566071E-01
-0.8878153522040E-01
-0.8204373926679E-01
-0.7463675312260E-01
-0.6628376423132E-01
-0.5682455277886E-01
-0.4617518173395E-01
-0.3429751443567E-01
-0.2117911825756E-01
-0.6820847984061E-02
 0.8770274999794E-02
 0.2558460189109E-01
 0.4361097446539E-01
 0.6283550107289E-01
 0.8323935441857E-01
 0.1047945592826E+00
 0.1274569439205E+00
 0.1511562425834E+00
 0.1757799930898E+00
 0.2011443287092E+00
 0.2269393055428E+00
 0.2527108004488E+00
 0.2778897808711E+00
 0.3018004543633E+00
 0.3236427799697E+00
 0.3424605551448E+00
 0.3571009456947E+00
 0.3661625360829E+00
 0.3679170147200E+00
 0.3601534348550E+00
 0.3398821592893E+00
 0.3029574407102E+00
 0.2438129772920E+00
 0.1558255999893E+00
 0.3330032237153E-01
-0.1240953903038E+00
-0.3057585110179E+00
-0.1747315113795E+00
-0.1635126843812E+00
-0.1534651960440E+00
-0.1450865358362E+00
-0.1379293706532E+00
-0.1312162650014E+00
-0.1242446370683E+00
-0.1165248413481E+00
-0.1077642590470E+00
-0.9780539740193E-01
-0.8657172876750E-01
-0.7403169725075E-01
-0.6017660399710E-01
-0.4500754247428E-01
-0.2852817312666E-01
-0.1074125707963E-01
 0.8352376378486E-02
 0.2875255619964E-01
 0.5045768194285E-01
 0.7346080218992E-01
 0.9774304366863E-01
 0.1232642870502E+00
 0.1499470231554E+00
 0.1776452333412E+00
 0.2060847750500E+00
 0.2348406566088E+00
 0.2633646004388E+00
 0.2909929047782E+00
 0.3169296071662E+00
 0.3402154618135E+00
 0.3596881921114E+00
 0.3739310971953E+00
 0.3811933356619E+00
 0.3792192782911E+00
 0.3648934942119E+00
 0.3336978994354E+00
 0.2790891860634E+00
 0.1923842189333E+00
 0.6467001747115E-01
-0.1074235353063E+00
-0.3128537349646E+00
-0.2213904672587E+00
-0.2081786656719E+00
-0.1968540942247E+00
-0.1878810783743E+00
-0.1805143068106E+00
-0.1736954725226E+00
-0.1665637544190E+00
-0.1585745729210E+00
-0.1494308223708E+00
-0.1389859146536E+00
-0.1271757959792E+00
-0.1139785965111E+00
-0.9939122221774E-01
-0.8341610277129E-01
-0.6605414595929E-01
-0.4730151142116E-01
-0.2714876153180E-01
-0.5582236384323E-02
 0.1741396147630E-01
 0.4185439039323E-01
 0.6774637610669E-01
 0.9508170038455E-01
 0.1238210291600E+00
 0.1538612127254E+00
 0.1849701226181E+00
 0.2167579552124E+00
 0.2487021111874E+00
 0.2801549058460E+00
 0.3103284801923E+00
 0.3382660477141E+00
 0.3628043606252E+00
 0.3825256877075E+00
 0.3956830682089E+00
 0.4000268275271E+00
 0.3924118459000E+00
 0.3681057315352E+00
 0.3197203378136E+00
 0.2362706687146E+00
 0.1045001529049E+00
-0.8396066502179E-01
-0.3186436026948E+00
-0.2680903872362E+00
-0.2525446574375E+00
-0.2398656131107E+00
-0.2304222279901E+00
-0.2230204597991E+00
-0.2162304279997E+00
-0.2090186432527E+00
-0.2008031984193E+00
-0.1912989983020E+00
-0.1803799405783E+00
-0.1679999704462E+00
-0.1541501585675E+00
-0.1388348981467E+00
-0.1220590309811E+00
-0.1038212962611E+00
-0.8411152362117E-01
-0.6291007267002E-01
-0.4018936868759E-01
-0.1591581174385E-01
 0.9947014811664E-02
 0.3743330338387E-01
 0.6656823564113E-01
 0.9735386077717E-01
 0.1297354688170E+00
 0.1635302296454E+00
 0.1983906327844E+00
 0.2338251538737E+00
 0.2692059004581E+00
 0.3037567412237E+00
 0.3365284967900E+00
 0.3663648968926E+00
 0.3918602747181E+00
 0.4112970112389E+00
 0.4224838407463E+00
 0.4223541649536E+00
 0.4061836739186E+00
 0.3660630383670E+00
 0.2886941052480E+00
 0.1551496645851E+00
-0.5103216830152E-01
-0.3221980516635E+00
-0.3147861699357E+00
-0.2964502362925E+00
-0.2823486728204E+00
-0.2726410622894E+00
-0.2654447139119E+00
-0.2588419243044E+00
-0.2516320428003E+00
-0.2432307579569E+00
-0.2333858863567E+00
-0.2220020949886E+00
-0.2090571713765E+00
-0.1945583915714E+00
-0.1785194528392E+00
-0.1609486247094E+00
-0.1418430131416E+00
-0.1211863605280E+00
-0.9894888134984E-01
-0.7508902324303E-01
-0.4955534224975E-01
-0.2228936198035E-01
 0.6770345146582E-02
 0.3768343600512E-01
 0.7049634575682E-01
 0.1052089365558E+00
 0.1416963413968E+00
 0.1796618537061E+00
 0.2186509780066E+00
 0.2580590156152E+00
 0.2971244964838E+00
 0.3349104879582E+00
 0.3702749938349E+00
 0.4018354067577E+00
 0.4279252868822E+00
 0.4464628617409E+00
 0.4545690995978E+00
 0.4477861350561E+00
 0.4182477537206E+00
 0.3508377122007E+00
 0.2196666188336E+00
-0.4636189674610E-02
-0.3220264158534E+00
-0.3614314028339E+00
-0.3396614295959E+00
-0.3240959895135E+00
-0.3144675860489E+00
-0.3078035870277E+00
-0.3015628336533E+00
-0.2944318652227E+00
-0.2858801544897E+00
-0.2757100808814E+00
-0.2638676665574E+00
-0.2503605479234E+00
-0.2352152641648E+00
-0.2184565072728E+00
-0.2000968841414E+00
-0.1801323296337E+00
-0.1585406987284E+00
-0.1352821023106E+00
-0.1103009617812E+00
-0.8352790210760E-01
-0.5488232466512E-01
-0.2427554409377E-01
 0.8387010612859E-02
 0.4319863256804E-01
 0.8022039418788E-01
 0.1193958835845E+00
 0.1604896749729E+00
 0.2030909493404E+00
 0.2466208888974E+00
 0.2903344985605E+00
 0.3333111094532E+00
 0.3744297470626E+00
 0.4123393453375E+00
 0.4454392677541E+00
 0.4718023752690E+00
 0.4888433169650E+00
 0.4926062525513E+00
 0.4760246039751E+00
 0.4235754286770E+00
 0.3018899476963E+00
 0.6142931802418E-01
-0.3155809260570E+00
-0.4080021538201E+00
-0.3818155295608E+00
-0.3648147412310E+00
-0.3558515436704E+00
-0.3501483163904E+00
-0.3444377886015E+00
-0.3374507671381E+00
-0.3287773292846E+00
-0.3182914381358E+00
-0.3059924781339E+00
-0.2919233542089E+00
-0.2761325900635E+00
-0.2586573805044E+00
-0.2395154147768E+00
-0.2187018285443E+00
-0.1961887293225E+00
-0.1719261408215E+00
-0.1458444155486E+00
-0.1178562042957E+00
-0.8785883453819E-01
-0.5573668002646E-01
-0.2136068892879E-01
 0.1541068499296E-01
 0.5470664700244E-01
 0.9655221783386E-01
 0.1407866039907E+00
 0.1870502057659E+00
 0.2347915498819E+00
 0.2832821018532E+00
 0.3316207773922E+00
 0.3787142985801E+00
 0.4232492521000E+00
 0.4636958838186E+00
 0.4983087171264E+00
 0.5249081003238E+00
 0.5402162976873E+00
 0.5386286187514E+00
 0.5068863230199E+00
 0.4062871917811E+00
 0.1571554410032E+00
-0.2981227164243E+00
-0.4545800123802E+00
-0.4222866888681E+00
-0.4040826635367E+00
-0.3968246770025E+00
-0.3925782974200E+00
-0.3875157593262E+00
-0.3807276263701E+00
-0.3719509287525E+00
-0.3611506866843E+00
-0.3483927881761E+00
-0.3337587602452E+00
-0.3173219119326E+00
-0.2991329723006E+00
-0.2792153240634E+00
-0.2575635421232E+00
-0.2341440581860E+00
-0.2088967893578E+00
-0.1817379734515E+00
-0.1525622765621E+00
-0.1212450783869E+00
-0.8764436408820E-01
-0.5159807144453E-01
-0.1291697827573E-01
 0.2860283731376E-01
 0.7308429174445E-01
 0.1204589850107E+00
 0.1704272446973E+00
 0.2224643430269E+00
 0.2758554499384E+00
 0.3297209552032E+00
 0.3830040971419E+00
 0.4344318661470E+00
 0.4825429934818E+00
 0.5257671360132E+00
 0.5624250888869E+00
 0.5901524082272E+00
 0.6048774170405E+00
 0.5988343563650E+00
 0.5368117680639E+00
 0.2992156828487E+00
-0.2597661788408E+00
-0.5016597982622E+00
-0.4597693765148E+00
-0.4413363972777E+00
-0.4376702644215E+00
-0.4352050046386E+00
-0.4308446669893E+00
-0.4243132507597E+00
-0.4154288027281E+00
-0.4043102502325E+00
-0.3910847080766E+00
-0.3758797979377E+00
-0.3587943418040E+00
-0.3398936645288E+00
-0.3192071238350E+00
-0.2967288654158E+00
-0.2724196206235E+00
-0.2462091397433E+00
-0.2179994912473E+00
-0.1876673520920E+00
-0.1550663604031E+00
-0.1200287016909E+00
-0.8236162764528E-01
-0.4183215432764E-01
 0.1842958424202E-02
 0.4890605747998E-01
 0.9940610050515E-01
 0.1531133855499E+00
 0.2095259310269E+00
 0.2679357824654E+00
 0.3274845519722E+00
 0.3871626763453E+00
 0.4457488366040E+00
 0.5018139737966E+00
 0.5539778980338E+00
 0.6009670323686E+00
 0.6418719061121E+00
 0.6738367173648E+00
 0.6947129831845E+00
 0.6923523870455E+00
 0.5161547393601E+00
-0.1775168255853E+00
-0.5514789802535E+00
-0.4905451735988E+00
-0.4764533066742E+00
-0.4791742957745E+00
-0.4779254380778E+00
-0.4745666307256E+00
-0.4682361038616E+00
-0.4592475496978E+00
-0.4477909743271E+00
-0.4340847262455E+00
-0.4182989596063E+00
-0.4005604654697E+00
-0.3809491838281E+00
-0.3595006219270E+00
-0.3362084535757E+00
-0.3110275869809E+00
-0.2838774758004E+00
-0.2546459971483E+00
-0.2231917529992E+00
-0.1893469598562E+00
-0.1529185994576E+00
-0.1136853131702E+00
-0.7137904949145E-01
-0.2563918561129E-01
 0.2392542725054E-01
 0.7751885894934E-01
 0.1349921848902E+00
 0.1958562287723E+00
 0.2593983202146E+00
 0.3247760803908E+00
 0.3910418745313E+00
 0.4570467318631E+00
 0.5213695406719E+00
 0.5826603307006E+00
 0.6403540167584E+00
 0.6940128418176E+00
 0.7460253396540E+00
 0.7889627848881E+00
 0.8558476810816E+00
 0.8476195871255E+00
 0.2179524828893E-01
-0.6153427088126E+00
-0.4984245783333E+00
-0.5167619353696E+00
-0.5197010483551E+00
-0.5213594680572E+00
-0.5186441216076E+00
-0.5125742948896E+00
-0.5034326887797E+00
-0.4916165391964E+00
-0.4774081769815E+00
-0.4610282851112E+00
-0.4426300975641E+00
-0.4223084759745E+00
-0.4001048037174E+00
-0.3760120757971E+00
-0.3499793053338E+00
-0.3219150919040E+00
-0.2916936349333E+00
-0.2591547547556E+00
-0.2241099532447E+00
-0.1863417310064E+00
-0.1456009709170E+00
-0.1015946128661E+00
-0.5390803731129E-01
-0.1958118120493E-02
 0.5467818704550E-01
 0.1159385803784E+00
 0.1813288275061E+00
 0.2501121670095E+00
 0.3214558202487E+00
 0.3944752410547E+00
 0.4681629365486E+00
 0.5410564300043E+00
 0.6116914257124E+00
 0.6798436161581E+00
 0.7472837342296E+00
 0.8146230352277E+00
 0.8980731283724E+00
 0.9619564823590E+00
 0.1338346361054E+01
 0.4819950563067E+00
 0.2358118274624E+01
 0.2265914493091E+01
 0.2171727058174E+01
 0.2078009016583E+01
 0.1986658736814E+01
 0.1898600926853E+01
 0.1814612677602E+01
 0.1735716027514E+01
 0.1662616328592E+01
 0.1595743431616E+01
 0.1535409610572E+01
 0.1481847572978E+01
 0.1435235984344E+01
 0.1395691223706E+01
 0.1363288678628E+01
 0.1338028456139E+01
 0.1320903572258E+01
 0.1312861448326E+01
 0.1312280588569E+01
 0.1331449880902E+01
 0.2338900456146E+01
 0.2246580156148E+01
 0.2154097782532E+01
 0.2062655783438E+01
 0.1973603113145E+01
 0.1887954563523E+01
 0.1806579759659E+01
 0.1730257807832E+01
 0.1659618408437E+01
 0.1595100189798E+01
 0.1537021846437E+01
 0.1485635143569E+01
 0.1441140104192E+01
 0.1403701989193E+01
 0.1373469418913E+01
 0.1350801228162E+01
 0.1336372100743E+01
 0.1330699469470E+01
 0.1336818880159E+01
 0.1353981677966E+01
 0.2319596963846E+01
 0.2228023977673E+01
 0.2136810650202E+01
 0.2047239890876E+01
 0.1960316130310E+01
 0.1876950535232E+01
 0.1797953426316E+01
 0.1724027949515E+01
 0.1655727300066E+01
 0.1593469799599E+01
 0.1537577460110E+01
 0.1488313095538E+01
 0.1445903764323E+01
 0.1410561371758E+01
 0.1382547567903E+01
 0.1362258018570E+01
 0.1350275891679E+01
 0.1347722243542E+01
 0.1355255187835E+01
 0.1372633644464E+01
 0.2300692289760E+01
 0.2209695453545E+01
 0.2119680620744E+01
 0.2031728921855E+01
 0.1946737967072E+01
 0.1865488961022E+01
 0.1788707582195E+01
 0.1717024071973E+01
 0.1650941639660E+01
 0.1590852150275E+01
 0.1537072398875E+01
 0.1489874298033E+01
 0.1449508501168E+01
 0.1416233882912E+01
 0.1390359652145E+01
 0.1372295652086E+01
 0.1362678276049E+01
 0.1362144243258E+01
 0.1371108859451E+01
 0.1389600567629E+01
 0.2282011596050E+01
 0.2191472541813E+01
 0.2102508737289E+01
 0.2016027747328E+01
 0.1932800901213E+01
 0.1853514605990E+01
 0.1778804532551E+01
 0.1709232351468E+01
 0.1645255863705E+01
 0.1587242347200E+01
 0.1535499680416E+01
 0.1490304724537E+01
 0.1451927148706E+01
 0.1420653718061E+01
 0.1396816606927E+01
 0.1380838129319E+01
 0.1373229056765E+01
 0.1374470872342E+01
 0.1384886769422E+01
 0.1404621978882E+01
 0.2263382520367E+01
 0.2173198702317E+01
 0.2085169430668E+01
 0.2000030427926E+01
 0.1918435183483E+01
 0.1840976982760E+01
 0.1768210904830E+01
 0.1700633392629E+01
 0.1638659532584E+01
 0.1582632162203E+01
 0.1532848390735E+01
 0.1489585984779E+01
 0.1453125152506E+01
 0.1423766845731E+01
 0.1401852470369E+01
 0.1387775971696E+01
 0.1381974926628E+01
 0.1384847254689E+01
 0.1396689405813E+01
 0.1417675813882E+01
 0.2244628250238E+01
 0.2154731682428E+01
 0.2067545342501E+01
 0.1983645798565E+01
 0.1903571797430E+01
 0.1827828080724E+01
 0.1756894184688E+01
 0.1691206468437E+01
 0.1631139113050E+01
 0.1577010461150E+01
 0.1529105016206E+01
 0.1487697201360E+01
 0.1453070296260E+01
 0.1425529694814E+01
 0.1405411333404E+01
 0.1393084190729E+01
 0.1388937920929E+01
 0.1393329717972E+01
 0.1406541642153E+01
 0.1428747365785E+01
 0.2225582542975E+01
 0.2135937399530E+01
 0.2049529787998E+01
 0.1966789804267E+01
 0.1888147197896E+01
 0.1814021861207E+01
 0.1744822736860E+01
 0.1680930226231E+01
 0.1622679542038E+01
 0.1570364361608E+01
 0.1524254796397E+01
 0.1484618162148E+01
 0.1451735047018E+01
 0.1425907729080E+01
 0.1407462862152E+01
 0.1396749390144E+01
 0.1394128023224E+01
 0.1399934146439E+01
 0.1414443281084E+01
 0.1437836768131E+01
 0.2206091491513E+01
 0.2116691927420E+01
 0.2031024358809E+01
 0.1949385435036E+01
 0.1872102554584E+01
 0.1799515172275E+01
 0.1731966071284E+01
 0.1669783430367E+01
 0.1613265237627E+01
 0.1562680458982E+01
 0.1518283294355E+01
 0.1480331002635E+01
 0.1449097238665E+01
 0.1424877309695E+01
 0.1407987719243E+01
 0.1398762652112E+01
 0.1397545121677E+01
 0.1404659908966E+01
 0.1420385638304E+01
 0.1444921141098E+01
 0.2186014472122E+01
 0.2096881591275E+01
 0.2011938769517E+01
 0.1931362001362E+01
 0.1855383723436E+01
 0.1784267847943E+01
 0.1718295337591E+01
 0.1657745544461E+01
 0.1602880918911E+01
 0.1553945833838E+01
 0.1511177497160E+01
 0.1474821006566E+01
 0.1445140475700E+01
 0.1422422295245E+01
 0.1406973211773E+01
 0.1399116445719E+01
 0.1399184401511E+01
 0.1407498993439E+01
 0.1424349368665E+01
 0.1449964515098E+01
 0.2165224388858E+01
 0.2076403104629E+01
 0.1992190735749E+01
 0.1912655001875E+01
 0.1837941177800E+01
 0.1768242935322E+01
 0.1703783734733E+01
 0.1644797333229E+01
 0.1591512334870E+01
 0.1544148874154E+01
 0.1502926557429E+01
 0.1468077044335E+01
 0.1439853419448E+01
 0.1418532269657E+01
 0.1404411152595E+01
 0.1397804851290E+01
 0.1399039643684E+01
 0.1408439311908E+01
 0.1426309442233E+01
 0.1452915783991E+01
 0.2143607357131E+01
 0.2055163409822E+01
 0.1971705806278E+01
 0.1893205943374E+01
 0.1819729927853E+01
 0.1751406770956E+01
 0.1688406776843E+01
 0.1630921270163E+01
 0.1579146772923E+01
 0.1533279794632E+01
 0.1493522186117E+01
 0.1460091543357E+01
 0.1433229170533E+01
 0.1413201453905E+01
 0.1400297184033E+01
 0.1394824218080E+01
 0.1397105243707E+01
 0.1407468580013E+01
 0.1426238384872E+01
 0.1453724625594E+01
 0.2121062496749E+01
 0.2033079552105E+01
 0.1950417318924E+01
 0.1872962331349E+01
 0.1800709574528E+01
 0.1733729148876E+01
 0.1672142585284E+01
 0.1616101930069E+01
 0.1565773495873E+01
 0.1521331037565E+01
 0.1482958884222E+01
 0.1450860423306E+01
 0.1425264876486E+01
 0.1406428237857E+01
 0.1394630705755E+01
 0.1390173896271E+01
 0.1393378068051E+01
 0.1404576829009E+01
 0.1424113073501E+01
 0.1452339185819E+01
 0.2097501432756E+01
 0.2010078389075E+01
 0.1928266216435E+01
 0.1851877561066E+01
 0.1780844274956E+01
 0.1715183381791E+01
 0.1654972050566E+01
 0.1600326225083E+01
 0.1551384002099E+01
 0.1508297483592E+01
 0.1471234021569E+01
 0.1440382988070E+01
 0.1415961486621E+01
 0.1398214987639E+01
 0.1387415007441E+01
 0.1383856960269E+01
 0.1387858741080E+01
 0.1399758654903E+01
 0.1419915957646E+01
 0.1448717228954E+01
 0.2072847883357E+01
 0.1986096339585E+01
 0.1905200921185E+01
 0.1829910871473E+01
 0.1760102764070E+01
 0.1695746394816E+01
 0.1636878993840E+01
 0.1583583608860E+01
 0.1535972229293E+01
 0.1494176602157E+01
 0.1458347886827E+01
 0.1428661866290E+01
 0.1405323644572E+01
 0.1388568026540E+01
 0.1378657514792E+01
 0.1375880837353E+01
 0.1380552758239E+01
 0.1393014518069E+01
 0.1413637543464E+01
 0.1442833877775E+01
 0.2047037183425E+01
 0.1961079069093E+01
 0.1881177150473E+01
 0.1807027249775E+01
 0.1738458329024E+01
 0.1675398763710E+01
 0.1617850258225E+01
 0.1565866196696E+01
 0.1519534668792E+01
 0.1478968523683E+01
 0.1444303694104E+01
 0.1415702961240E+01
 0.1393359636840E+01
 0.1377497680115E+01
 0.1368370039030E+01
 0.1366257859508E+01
 0.1371471361650E+01
 0.1384352125978E+01
 0.1405279004841E+01
 0.1434681041056E+01
 0.2020015768475E+01
 0.1934981156282E+01
 0.1856157705279E+01
 0.1783197311275E+01
 0.1715888756299E+01
 0.1654124716864E+01
 0.1597875751237E+01
 0.1547168826109E+01
 0.1502070417442E+01
 0.1462676058911E+01
 0.1429107559577E+01
 0.1401515399518E+01
 0.1380081358880E+01
 0.1365018328567E+01
 0.1356568993305E+01
 0.1355005707954E+01
 0.1360632278710E+01
 0.1373787603324E+01
 0.1394853065288E+01
 0.1424266854922E+01
 0.1991740742762E+01
 0.1907765786471E+01
 0.1830112288408E+01
 0.1758397202395E+01
 0.1692376297012E+01
 0.1631912146434E+01
 0.1576948485502E+01
 0.1527489107021E+01
 0.1483581216260E+01
 0.1445304710175E+01
 0.1412768481717E+01
 0.1386111494972E+01
 0.1365504297645E+01
 0.1351148458164E+01
 0.1343275569082E+01
 0.1342147764592E+01
 0.1348060283900E+01
 0.1361346114179E+01
 0.1382384353172E+01
 0.1411615172153E+01
 0.1962179333998E+01
 0.1879404378094E+01
 0.1803017245847E+01
 0.1732608431689E+01
 0.1667907561613E+01
 0.1608752548752E+01
 0.1555064547611E+01
 0.1506827400616E+01
 0.1464071422068E+01
 0.1426862624047E+01
 0.1395298273123E+01
 0.1369506671187E+01
 0.1349647469746E+01
 0.1335910650654E+01
 0.1328515815444E+01
 0.1327713317641E+01
 0.1333787499770E+01
 0.1347062123209E+01
 0.1367909388641E+01
 0.1396765032406E+01
 0.1931308430956E+01
 0.1849876248062E+01
 0.1774855346307E+01
 0.1705817729781E+01
 0.1642473437036E+01
 0.1584640979469E+01
 0.1532223074195E+01
 0.1485186799611E+01
 0.1443547977386E+01
 0.1407360541291E+01
 0.1376711488655E+01
 0.1351719375233E+01
 0.1332533337491E+01
 0.1319331524337E+01
 0.1312320631505E+01
 0.1311737615189E+01
 0.1317853515390E+01
 0.1330979440350E+01
 0.1351476304793E+01
 0.1379769962367E+01
 0.1899114082259E+01
 0.1819168250863E+01
 0.1745615527992E+01
 0.1678016877289E+01
 0.1616068971028E+01
 0.1559575975094E+01
 0.1508426193543E+01
 0.1462573074116E+01
 0.1422020347073E+01
 0.1386811714937E+01
 0.1357025321123E+01
 0.1332770953423E+01
 0.1314187672736E+01
 0.1301441598318E+01
 0.1294725640397E+01
 0.1294261761056E+01
 0.1300305273516E+01
 0.1313151221693E+01
 0.1333144489319E+01
 0.1360696709401E+01
 0.1865590996382E+01
 0.1787274413759E+01
 0.1715292639953E+01
 0.1649202523863E+01
 0.1588693245364E+01
 0.1533559460838E+01
 0.1483678951285E+01
 0.1438994599984E+01
 0.1399500436399E+01
 0.1365231808141E+01
 0.1336259472572E+01
 0.1312685493321E+01
 0.1294639370152E+01
 0.1282275078359E+01
 0.1275770950687E+01
 0.1275332439993E+01
 0.1281196790787E+01
 0.1293639540470E+01
 0.1312984931958E+01
 0.1339623093682E+01
 0.1830742047914E+01
 0.1754195574486E+01
 0.1683887182841E+01
 0.1619376004229E+01
 0.1560349243426E+01
 0.1506596650406E+01
 0.1457989225835E+01
 0.1414462275271E+01
 0.1376002495690E+01
 0.1342638776050E+01
 0.1314436004139E+01
 0.1291489633843E+01
 0.1273920210601E+01
 0.1261869567305E+01
 0.1255500804153E+01
 0.1255001503406E+01
 0.1260588628711E+01
 0.1272514888669E+01
 0.1291078931065E+01
 0.1316642350927E+01
 0.1794577780526E+01
 0.1719939015027E+01
 0.1651405044526E+01
 0.1588543147538E+01
 0.1531043709466E+01
 0.1478695935775E+01
 0.1431367632402E+01
 0.1388989424247E+01
 0.1351543011571E+01
 0.1319052732131E+01
 0.1291579165261E+01
 0.1269212344609E+01
 0.1252064577221E+01
 0.1240265702810E+01
 0.1233963122182E+01
 0.1233325404392E+01
 0.1238547250117E+01
 0.1249855323708E+01
 0.1267517769864E+01
 0.1291860702982E+01
 0.1757115898209E+01
 0.1684518087588E+01
 0.1617857228098E+01
 0.1556714078274E+01
 0.1500786998299E+01
 0.1449868765895E+01
 0.1403827414630E+01
 0.1362591688383E+01
 0.1326140584860E+01
 0.1294495799988E+01
 0.1267715204368E+01
 0.1245884677961E+01
 0.1229109128905E+01
 0.1217506730962E+01
 0.1211208955378E+01
 0.1210364512929E+01
 0.1215144187808E+01
 0.1225745670384E+01
 0.1242401837304E+01
 0.1265395980791E+01
 0.1718380768582E+01
 0.1647951855920E+01
 0.1583259593334E+01
 0.1523903029061E+01
 0.1469592933532E+01
 0.1420129530251E+01
 0.1375384337713E+01
 0.1335286916651E+01
 0.1299815806940E+01
 0.1268991962845E+01
 0.1242872174098E+01
 0.1221539507380E+01
 0.1205092445950E+01
 0.1193638031308E+01
 0.1187291859081E+01
 0.1186182310467E+01
 0.1190455069664E+01
 0.1200276412008E+01
 0.1215839487296E+01
 0.1237377266549E+01
 0.1678402926654E+01
 0.1610264727071E+01
 0.1547632595129E+01
 0.1490128150402E+01
 0.1437478662088E+01
 0.1389495436112E+01
 0.1346056572589E+01
 0.1307095045945E+01
 0.1272591127907E+01
 0.1242566907957E+01
 0.1217079732787E+01
 0.1196211257873E+01
 0.1180054655549E+01
 0.1168706603756E+01
 0.1162267209179E+01
 0.1160844493330E+01
 0.1164558464015E+01
 0.1173542280289E+01
 0.1187945669012E+01
 0.1207944274767E+01
 0.1637218526548E+01
 0.1571486074064E+01
 0.1511001012580E+01
 0.1455411316063E+01
 0.1404464503067E+01
 0.1357986376314E+01
 0.1315864566128E+01
 0.1278037965724E+01
 0.1244490712103E+01
 0.1215247865905E+01
 0.1190368948293E+01
 0.1169935639247E+01
 0.1154037049019E+01
 0.1142760526410E+01
 0.1136191467639E+01
 0.1134418015763E+01
 0.1137534594155E+01
 0.1145640556205E+01
 0.1158839979676E+01
 0.1177246134789E+01
 0.1594868871760E+01
 0.1531649898125E+01
 0.1473393731244E+01
 0.1419777978819E+01
 0.1370573841032E+01
 0.1325624829598E+01
 0.1284830930842E+01
 0.1248139393035E+01
 0.1215540303531E+01
 0.1187063468612E+01
 0.1162772133476E+01
 0.1142749416790E+01
 0.1127081723800E+01
 0.1115848405911E+01
 0.1109121405238E+01
 0.1106970076119E+01
 0.1109464076926E+01
 0.1116669137263E+01
 0.1128643850551E+01
 0.1145438408033E+01
 0.1551399819289E+01
 0.1490794436028E+01
 0.1434843481733E+01
 0.1383256999888E+01
 0.1335832995259E+01
 0.1292435729531E+01
 0.1252980291343E+01
 0.1217424697070E+01
 0.1185767045410E+01
 0.1158043582554E+01
 0.1134322689333E+01
 0.1114690217202E+01
 0.1099231259574E+01
 0.1088018820158E+01
 0.1081113252914E+01
 0.1078566997976E+01
 0.1080426608226E+01
 0.1086725049830E+01
 0.1097476591293E+01
 0.1112675713334E+01
 0.1506861249593E+01
 0.1448961826936E+01
 0.1395386670813E+01
 0.1345880580948E+01
 0.1300271184232E+01
 0.1258446403404E+01
 0.1220339171270E+01
 0.1185920739528E+01
 0.1155199308638E+01
 0.1128219168808E+01
 0.1105055021836E+01
 0.1085796460779E+01
 0.1070528537861E+01
 0.1059319845699E+01
 0.1052221812020E+01
 0.1049272961604E+01
 0.1050499466847E+01
 0.1055902959359E+01
 0.1065453792808E+01
 0.1079094350286E+01
 0.1461306399957E+01
 0.1406197705135E+01
 0.1355063196846E+01
 0.1307684220951E+01
 0.1263920510651E+01
 0.1223686505779E+01
 0.1186935835346E+01
 0.1153655643378E+01
 0.1123866434055E+01
 0.1097622079443E+01
 0.1075004462312E+01
 0.1056107412269E+01
 0.1041016755810E+01
 0.1029798730907E+01
 0.1022499505918E+01
 0.1019148413294E+01
 0.1019755667717E+01
 0.1024293051386E+01
 0.1032686153571E+01
 0.1044813060877E+01
 0.1414790983173E+01
 0.1362550726315E+01
 0.1313916312886E+01
 0.1268706763229E+01
 0.1226816038029E+01
 0.1188187967476E+01
 0.1152800100910E+01
 0.1120658477108E+01
 0.1091798369084E+01
 0.1066284733427E+01
 0.1044207148820E+01
 0.1025663354664E+01
 0.1010739802606E+01
 0.9995019251764E+00
 0.9919954651652E+00
 0.9882480322335E+00
 0.9882613416475E+00
 0.9919793273366E+00
 0.9992770972694E+00
 0.1009954515707E+01
 0.1367372194340E+01
 0.1318072132510E+01
 0.1271992675351E+01
 0.1228990822676E+01
 0.1188996088900E+01
 0.1151985131205E+01
 0.1117963186087E+01
 0.1086958973591E+01
 0.1059025261927E+01
 0.1034239727315E+01
 0.1012699802718E+01
 0.9945059593052E+00
 0.9797431899486E+00
 0.9684761513898E+00
 0.9607550585864E+00
 0.9566180921770E+00
 0.9560721402690E+00
 0.9590370495128E+00
 0.9653275564319E+00
 0.9746380746300E+00
 0.1319106861118E+01
 0.1272814639707E+01
 0.1229342739694E+01
 0.1188583182348E+01
 0.1150502852515E+01
 0.1115114574553E+01
 0.1082457473092E+01
 0.1052586976432E+01
 0.1025576865955E+01
 0.1001519089802E+01
 0.9805191447845E+00
 0.9626781138539E+00
 0.9480757279484E+00
 0.9367706766465E+00
 0.9288216065357E+00
 0.9242926276144E+00
 0.9232261897585E+00
 0.9255293998584E+00
 0.9309369941303E+00
 0.9389909067697E+00
 0.1270047218332E+01
 0.1226832478882E+01
 0.1186020520188E+01
 0.1147537736046E+01
 0.1111382285264E+01
 0.1077615779051E+01
 0.1046315809157E+01
 0.1017572284707E+01
 0.9914818955520E+00
 0.9681534861603E+00
 0.9477008816095E+00
 0.9302235056488E+00
 0.9157895824735E+00
 0.9044443189992E+00
 0.8962403933472E+00
 0.8912943805839E+00
 0.8897275217774E+00
 0.8914934051079E+00
 0.8962137658642E+00
 0.9031558415503E+00
 0.1220238553834E+01
 0.1180171711373E+01
 0.1142094216911E+01
 0.1105912493516E+01
 0.1071689267895E+01
 0.1039527317951E+01
 0.1009572512926E+01
 0.9819437260810E+00
 0.9567673687457E+00
 0.9341710724876E+00
 0.9142781739181E+00
 0.8971845917388E+00
 0.8829405594495E+00
 0.8715631030886E+00
 0.8630890723574E+00
 0.8576295932334E+00
 0.8555369495909E+00
 0.8568846575482E+00
 0.8612641021207E+00
 0.8673841065540E+00
 0.1169660204526E+01
 0.1132908888354E+01
 0.1097616389459E+01
 0.1063810234096E+01
 0.1031463060159E+01
 0.1000894984025E+01
 0.9722610662078E+00
 0.9457297566819E+00
 0.9214572099320E+00
 0.8995966946397E+00
 0.8802803678395E+00
 0.8635993677752E+00
 0.8495838912495E+00
 0.8382060301930E+00
 0.8294515737042E+00
 0.8234434174853E+00
 0.8204518252885E+00
 0.8215291463852E+00
 0.8260918715246E+00
 0.8320822249763E+00
 0.1118371370757E+01
 0.1084871450999E+01
 0.1052932265340E+01
 0.1021219092462E+01
 0.9907733679500E+00
 0.9617578515526E+00
 0.9344239915753E+00
 0.9089528122872E+00
 0.8855714822455E+00
 0.8644525410671E+00
 0.8457313978806E+00
 0.8294994664006E+00
 0.8157646831288E+00
 0.8044571610274E+00
 0.7954530453834E+00
 0.7888152882030E+00
 0.7850016243057E+00
 0.7840623061028E+00
 0.7905261514515E+00
 0.7982427951226E+00
 0.1063786582608E+01
 0.1037847320182E+01
 0.1007694327149E+01
 0.9782697710801E+00
 0.9496085571912E+00
 0.9222310878329E+00
 0.8960814215460E+00
 0.8716248186897E+00
 0.8491322825143E+00
 0.8287539020273E+00
 0.8106523805974E+00
 0.7949063372682E+00
 0.7815164762485E+00
 0.7703655354268E+00
 0.7612678429218E+00
 0.7539345621881E+00
 0.7490425764499E+00
 0.7474464456275E+00
 0.7461171805567E+00
 0.7676520452754E+00
 0.7792722046969E+01
 0.1840197961319E+01
 0.1604638534682E+01
 0.1351392327166E+01
 0.1123654134906E+01
 0.8502124874177E+00
 0.5895520920317E+00
 0.4241920091730E+00
 0.3237627888012E+00
 0.2448797947844E+00
 0.1736930732954E+00
 0.1077385755402E+00
 0.4874932391614E-01
-0.4377201852372E-02
-0.5105218141266E-01
-0.9046182900852E-01
-0.1046083721981E+00
-0.1258540538376E+00
-0.1381233919059E+00
-0.1369407947592E+00
 0.4993238761841E+01
 0.3168725381554E+01
 0.1727634191999E+01
 0.1441967511185E+01
 0.1188510856349E+01
 0.9447756126267E+00
 0.7142773527279E+00
 0.5336286424929E+00
 0.4123470632092E+00
 0.3253680387394E+00
 0.2530119370114E+00
 0.1888525197061E+00
 0.1314673347675E+00
 0.8050939390366E-01
 0.3593955200996E-01
 0.1233469731479E-02
-0.2663606794727E-01
-0.4897062603859E-01
-0.6129331355639E-01
-0.5939257691892E-01
 0.4165286905050E+01
 0.3071936114328E+01
 0.2135608506257E+01
 0.1552234634628E+01
 0.1274459140456E+01
 0.1033644602424E+01
 0.8197577465213E+00
 0.6414006378338E+00
 0.5081263726025E+00
 0.4109194761688E+00
 0.3346722507164E+00
 0.2703363333957E+00
 0.2143196207218E+00
 0.1651902349461E+00
 0.1231873107905E+00
 0.8845010522054E-01
 0.5916737467815E-01
 0.3460755334032E-01
 0.2365768619612E-01
 0.3482163753819E-01
 0.3711405241889E+01
 0.2956731033921E+01
 0.2269803419128E+01
 0.1729703209524E+01
 0.1374114513325E+01
 0.1125514305272E+01
 0.9175114929110E+00
 0.7431872088130E+00
 0.6052809918309E+00
 0.5003687902018E+00
 0.4190093393520E+00
 0.3529862776885E+00
 0.2973270266036E+00
 0.2497122407139E+00
 0.2094009488124E+00
 0.1759618105179E+00
 0.1466058051543E+00
 0.1233484239457E+00
 0.1167272177636E+00
 0.1399220154749E+00
 0.3425110829722E+01
 0.2851016387948E+01
 0.2320375637222E+01
 0.1850980480315E+01
 0.1490531857805E+01
 0.1221579268762E+01
 0.1013051173969E+01
 0.8406356508860E+00
 0.7009828757360E+00
 0.5912995381563E+00
 0.5054184781329E+00
 0.4369174027510E+00
 0.3807416210535E+00
 0.3339196783112E+00
 0.2950971659468E+00
 0.2631993173776E+00
 0.2351540977694E+00
 0.2151145096748E+00
 0.2151807202920E+00
 0.2496493286636E+00
 0.3223336820524E+01
 0.2764127046476E+01
 0.2334060420862E+01
 0.1931649923576E+01
 0.1592371668656E+01
 0.1320528955401E+01
 0.1107809897214E+01
 0.9354140061160E+00
 0.7946680044662E+00
 0.6820432627264E+00
 0.5927416872935E+00
 0.5217597191964E+00
 0.4645141574955E+00
 0.4179118104717E+00
 0.3802204230140E+00
 0.3499968812284E+00
 0.3239834519561E+00
 0.3083764538800E+00
 0.3157694766237E+00
 0.3594843361892E+00
 0.3071613622929E+01
 0.2692403555420E+01
 0.2332158448861E+01
 0.1984983785803E+01
 0.1675540245748E+01
 0.1412998933610E+01
 0.1200704408495E+01
 0.1027882931034E+01
 0.8863058529179E+00
 0.7717359768975E+00
 0.6799625000259E+00
 0.6068534840601E+00
 0.5483699035604E+00
 0.5015878868999E+00
 0.4646872019105E+00
 0.4360514692391E+00
 0.4124126983715E+00
 0.4016137557867E+00
 0.4158833815801E+00
 0.4663515440465E+00
 0.2952339522692E+01
 0.2632323263814E+01
 0.2323417263101E+01
 0.2020875066328E+01
 0.1741856841283E+01
 0.1495185550889E+01
 0.1288406708755E+01
 0.1117189074822E+01
 0.9755396748498E+00
 0.8598141232136E+00
 0.7663147133037E+00
 0.6915195033946E+00
 0.6318604560587E+00
 0.5846914362329E+00
 0.5482850815370E+00
 0.5210277293855E+00
 0.4997608296327E+00
 0.4935310936835E+00
 0.5135697161562E+00
 0.5683305426802E+00
 0.2855603482815E+01
 0.2581118290057E+01
 0.2311777066898E+01
 0.2045475265643E+01
 0.1794615074842E+01
 0.1566354564244E+01
 0.1368801954671E+01
 0.1201756818108E+01
 0.1061552636666E+01
 0.9456422216550E+00
 0.8511416223577E+00
 0.7751248585192E+00
 0.7144723463254E+00
 0.6668444626510E+00
 0.6306981299788E+00
 0.6045341971665E+00
 0.5853898825537E+00
 0.5830739455742E+00
 0.6074647410429E+00
 0.6642806288582E+00
 0.2775331401088E+01
 0.2536790644187E+01
 0.2299043839506E+01
 0.2062571717678E+01
 0.1836806844399E+01
 0.1627252066609E+01
 0.1441046528840E+01
 0.1280347381129E+01
 0.1143306040929E+01
 0.1028432324857E+01
 0.9337621415066E+00
 0.8570506847866E+00
 0.7956666485600E+00
 0.7476002719683E+00
 0.7115338751565E+00
 0.6861435768587E+00
 0.6687148205088E+00
 0.6694202201891E+00
 0.6966557302925E+00
 0.7535867669300E+00
 0.2707556045165E+01
 0.2497902364175E+01
 0.2286056456154E+01
 0.2074502242321E+01
 0.1870787104131E+01
 0.1679105597122E+01
 0.1505161498103E+01
 0.1352289784038E+01
 0.1219919301435E+01
 0.1107353097941E+01
 0.1013449384653E+01
 0.9366573824126E+00
 0.8748825421698E+00
 0.8264723211752E+00
 0.7903557995735E+00
 0.7654141236533E+00
 0.7492120224350E+00
 0.7519435844108E+00
 0.7805602799557E+00
 0.8359830718425E+00
 0.2649544986727E+01
 0.2463404144540E+01
 0.2273196370459E+01
 0.2082734808279E+01
 0.1898312222425E+01
 0.1723177226727E+01
 0.1561614999986E+01
 0.1417401917481E+01
 0.1290818206405E+01
 0.1181687863182E+01
 0.1089492003490E+01
 0.1013294732264E+01
 0.9515414883406E+00
 0.9029507106944E+00
 0.8667068547510E+00
 0.8419089034540E+00
 0.8264207902388E+00
 0.8301743149152E+00
 0.8588294775202E+00
 0.9114341050055E+00
 0.2599329206242E+01
 0.2432511254832E+01
 0.2260623763832E+01
 0.2088211298266E+01
 0.1920669864815E+01
 0.1760590866189E+01
 0.1611050657471E+01
 0.1475823196185E+01
 0.1355732174816E+01
 0.1250916822810E+01
 0.1161273125807E+01
 0.1086345819960E+01
 0.1025070344869E+01
 0.9765208318336E+00
 0.9401284248971E+00
 0.9152104326185E+00
 0.8999414599185E+00
 0.9037640186199E+00
 0.9312742628646E+00
 0.9800520930529E+00
 0.2555432401837E+01
 0.2404618852752E+01
 0.2248389512234E+01
 0.2091551073846E+01
 0.1938803524043E+01
 0.1792288354924E+01
 0.1654137408498E+01
 0.1527867395938E+01
 0.1414623838669E+01
 0.1314727012984E+01
 0.1228317639883E+01
 0.1155274866650E+01
 0.1094937756052E+01
 0.1046689960417E+01
 0.1010182348661E+01
 0.9849336848844E+00
 0.9694352492639E+00
 0.9724555312950E+00
 0.9978093361929E+00
 0.1042035006374E+01
 0.2516707779466E+01
 0.2379244667797E+01
 0.2236489670413E+01
 0.2093171854625E+01
 0.1953410441001E+01
 0.1819037723240E+01
 0.1691498571768E+01
 0.1573920508692E+01
 0.1467607730995E+01
 0.1372979368927E+01
 0.1290300909865E+01
 0.1219656628075E+01
 0.1160687590514E+01
 0.1113020744841E+01
 0.1076475036973E+01
 0.1050748968506E+01
 0.1034624072084E+01
 0.1036067034889E+01
 0.1058400490064E+01
 0.1097618127794E+01
 0.2482233918376E+01
 0.2355991196915E+01
 0.2224891812422E+01
 0.2093363682480E+01
 0.1965011919219E+01
 0.1841458901053E+01
 0.1723685284595E+01
 0.1614380144009E+01
 0.1514882904331E+01
 0.1425660772441E+01
 0.1347029234762E+01
 0.1279179383022E+01
 0.1221957742559E+01
 0.1175155009859E+01
 0.1138699879211E+01
 0.1112394849234E+01
 0.1095331656720E+01
 0.1094460200769E+01
 0.1113036561668E+01
 0.1147001329328E+01
 0.2451247710883E+01
 0.2334513868479E+01
 0.2213556577027E+01
 0.2092330692007E+01
 0.1974005309499E+01
 0.1860048533519E+01
 0.1751173124848E+01
 0.1649625023474E+01
 0.1556687032381E+01
 0.1472839324921E+01
 0.1398406759504E+01
 0.1333624857020E+01
 0.1278469712650E+01
 0.1232825682485E+01
 0.1196644646678E+01
 0.1169794957827E+01
 0.1151436075839E+01
 0.1147677260119E+01
 0.1161559964666E+01
 0.1190313693077E+01
 0.2423052927039E+01
 0.2314535149690E+01
 0.2202424174204E+01
 0.2090248633583E+01
 0.1980680259346E+01
 0.1875204348895E+01
 0.1774367172837E+01
 0.1680003887866E+01
 0.1593271419784E+01
 0.1514633185955E+01
 0.1444404720039E+01
 0.1382835865831E+01
 0.1329989698448E+01
 0.1285806579713E+01
 0.1250210028616E+01
 0.1222977394841E+01
 0.1203449622017E+01
 0.1195481523582E+01
 0.1204133744494E+01
 0.1226963299857E+01
 0.2397100758208E+01
 0.2295600105402E+01
 0.2191676350792E+01
 0.2087175697205E+01
 0.1985255234363E+01
 0.1887233903329E+01
 0.1793607774429E+01
 0.1705838301516E+01
 0.1624891432192E+01
 0.1551195896055E+01
 0.1485048236916E+01
 0.1426697035043E+01
 0.1376280191633E+01
 0.1333807139893E+01
 0.1299216480513E+01
 0.1272181068921E+01
 0.1251795344805E+01
 0.1240813227733E+01
 0.1237914129557E+01
 0.1256601642684E+01
 0.2370577157725E+01
 0.2278957371567E+01
 0.2180994306511E+01
 0.2083245644603E+01
 0.1987849066805E+01
 0.1896313126246E+01
 0.1809208103569E+01
 0.1727433787976E+01
 0.1651797117041E+01
 0.1582713393269E+01
 0.1520426950358E+01
 0.1465160429467E+01
 0.1417110888045E+01
 0.1376396567967E+01
 0.1343072301597E+01
 0.1317078750901E+01
 0.1297388237066E+01
 0.1284407911847E+01
 0.1279087352563E+01
 0.1257685293129E+01
 0.1029215318073E+01
 0.9960858766081E+00
 0.9651573436729E+00
 0.9340871293646E+00
 0.9039217276572E+00
 0.8751184352793E+00
 0.8485755643633E+00
 0.8242835274240E+00
 0.8021791353100E+00
 0.7823370658590E+00
 0.7648575393405E+00
 0.7498348680150E+00
 0.7371783262317E+00
 0.7267052201960E+00
 0.7181443124570E+00
 0.7109663593177E+00
 0.7032378024512E+00
 0.6951810197920E+00
 0.6873632736412E+00
 0.6416427335372E+00
 0.9758891610004E+00
 0.9452215937805E+00
 0.9129606528104E+00
 0.8807903379277E+00
 0.8488958152716E+00
 0.8180539516687E+00
 0.7894321489851E+00
 0.7636166351556E+00
 0.7405509690514E+00
 0.7201642198817E+00
 0.7024442869511E+00
 0.6873570720088E+00
 0.6746683061648E+00
 0.6640381303967E+00
 0.6550318915179E+00
 0.6468342834735E+00
 0.6379782254616E+00
 0.6312034228509E+00
 0.6228072655723E+00
 0.6378318476146E+00
 0.9241565571617E+00
 0.8937713908293E+00
 0.8612069134459E+00
 0.8276468867069E+00
 0.7939512182369E+00
 0.7608831204046E+00
 0.7302247557854E+00
 0.7029127249404E+00
 0.6789023278759E+00
 0.6579956701897E+00
 0.6400491553876E+00
 0.6249186591489E+00
 0.6122445567418E+00
 0.6016041522188E+00
 0.5925666692853E+00
 0.5845325690714E+00
 0.5766448194705E+00
 0.5716017751588E+00
 0.5758032638859E+00
 0.5877278043952E+00
 0.8727231429280E+00
 0.8428517008054E+00
 0.8096653052881E+00
 0.7747520252295E+00
 0.7390663907549E+00
 0.7036663685061E+00
 0.6709212772701E+00
 0.6421413682881E+00
 0.6172410028985E+00
 0.5958907019423E+00
 0.5778218604256E+00
 0.5627894693597E+00
 0.5503394433551E+00
 0.5400130167786E+00
 0.5314376821465E+00
 0.5241961960910E+00
 0.5173088456396E+00
 0.5151999786684E+00
 0.5203213407186E+00
 0.5320655987485E+00
 0.8217775952241E+00
 0.7924575728050E+00
 0.7585594686729E+00
 0.7220857775264E+00
 0.6842496058872E+00
 0.6463664598353E+00
 0.6114885386370E+00
 0.5812798625814E+00
 0.5555878265947E+00
 0.5339374889239E+00
 0.5159315806282E+00
 0.5012228565430E+00
 0.4892616306906E+00
 0.4795368728548E+00
 0.4716805979066E+00
 0.4652247644491E+00
 0.4593092175457E+00
 0.4576783574191E+00
 0.4628039026750E+00
 0.4731684412462E+00
 0.7714722216287E+00
 0.7427468253382E+00
 0.7079597437070E+00
 0.6696825210835E+00
 0.6294562008025E+00
 0.5889206263360E+00
 0.5518663110881E+00
 0.5203029737717E+00
 0.4939713905822E+00
 0.4722320905608E+00
 0.4545394678398E+00
 0.4404206138977E+00
 0.4292023483845E+00
 0.4202820497333E+00
 0.4132132366410E+00
 0.4074712965239E+00
 0.4019680251486E+00
 0.4001515618565E+00
 0.4041516798250E+00
 0.4132778978237E+00
 0.7220301279429E+00
 0.6938810217231E+00
 0.6579503327647E+00
 0.6175343790077E+00
 0.5746158963123E+00
 0.5312261658269E+00
 0.4919713334559E+00
 0.4591760403964E+00
 0.4324233089719E+00
 0.4108749454566E+00
 0.3937988092292E+00
 0.3805561085489E+00
 0.3703166738572E+00
 0.3623505127702E+00
 0.3561120909215E+00
 0.3509553824700E+00
 0.3456593492760E+00
 0.3431421121917E+00
 0.3456250508015E+00
 0.3533401390757E+00
 0.6737303879235E+00
 0.6460543595779E+00
 0.6086079900964E+00
 0.5656045457852E+00
 0.5196102426510E+00
 0.4731381177564E+00
 0.4316925977676E+00
 0.3978572479140E+00
 0.3709841174680E+00
 0.3499819857594E+00
 0.3338748446989E+00
 0.3218110902277E+00
 0.3127779032018E+00
 0.3059083792605E+00
 0.3005478175263E+00
 0.2959506526274E+00
 0.2907681676871E+00
 0.2873669432381E+00
 0.2881359190055E+00
 0.2942354552249E+00
 0.6269294938004E+00
 0.5994986620153E+00
 0.5600039628019E+00
 0.5138113395736E+00
 0.4642593056510E+00
 0.4144578104235E+00
 0.3708924007995E+00
 0.3363076674809E+00
 0.3097209541385E+00
 0.2897054529471E+00
 0.2749669683673E+00
 0.2643971034990E+00
 0.2567943158652E+00
 0.2511651722127E+00
 0.2467661428209E+00
 0.2427721497264E+00
 0.2377566315805E+00
 0.2334982978283E+00
 0.2325589739020E+00
 0.2368470233188E+00
 0.5820926941262E+00
 0.5544980105418E+00
 0.5121966921519E+00
 0.4620065546512E+00
 0.4082975655290E+00
 0.3549231863710E+00
 0.3094142682773E+00
 0.2745138111455E+00
 0.2487552359031E+00
 0.2302569656280E+00
 0.2173217672052E+00
 0.2085574165013E+00
 0.2025948682102E+00
 0.1983501238047E+00
 0.1950260274761E+00
 0.1917558107992E+00
 0.1870832623567E+00
 0.1821959776974E+00
 0.1797479151488E+00
 0.1821324139343E+00
 0.5398459212479E+00
 0.5114097957682E+00
 0.4652173529480E+00
 0.4099373785949E+00
 0.3513403270895E+00
 0.2942027555695E+00
 0.2471058926002E+00
 0.2125260363891E+00
 0.1882975004650E+00
 0.1719249004857E+00
 0.1612311526329E+00
 0.1545505115187E+00
 0.1504052624254E+00
 0.1476806194665E+00
 0.1455759251412E+00
 0.1432257393948E+00
 0.1391909803091E+00
 0.1340912695114E+00
 0.1305479746550E+00
 0.1311075440181E+00
 0.5010616777267E+00
 0.4706964711008E+00
 0.4190390641828E+00
 0.3571820775379E+00
 0.2928384906241E+00
 0.2319033587394E+00
 0.1838680970495E+00
 0.1505159064859E+00
 0.1286823508570E+00
 0.1150763811897E+00
 0.1070110959017E+00
 0.1026205194170E+00
 0.1004193472044E+00
 0.9934053641313E-01
 0.9863580788946E-01
 0.9748255233397E-01
 0.9449424932559E-01
 0.8977603818600E-01
 0.8577023201258E-01
 0.8480188482608E-01
 0.4670067939515E+00
 0.4329729938092E+00
 0.3735114961279E+00
 0.3030407238433E+00
 0.2320249736433E+00
 0.1676132570510E+00
 0.1197456699507E+00
 0.8884933262892E-01
 0.7038736301395E-01
 0.6013152941009E-01
 0.5495975450768E-01
 0.5296065962011E-01
 0.5277500251756E-01
 0.5346680166250E-01
 0.5439035785658E-01
 0.5479742179468E-01
 0.5337287590837E-01
 0.4978581058516E-01
 0.4615004041138E-01
 0.4418421585303E-01
 0.4396107658795E+00
 0.3990758536012E+00
 0.3282194516906E+00
 0.2463495168614E+00
 0.1678743109158E+00
 0.1010234792737E+00
 0.5507554612967E-01
 0.2815151628046E-01
 0.1400862942949E-01
 0.7500046372894E-02
 0.5303169442304E-02
 0.5680468040427E-02
 0.7541008424396E-02
 0.1014722011074E-01
 0.1298924987543E-01
 0.1541020397734E-01
 0.1616711666787E-01
 0.1458335432356E-01
 0.1229932684654E-01
 0.1006795890988E-01
 0.4219854541872E+00
 0.3701578628323E+00
 0.2821609007001E+00
 0.1851794799053E+00
 0.9914470665572E-01
 0.3221134414545E-01
-0.9330815780826E-02
-0.3069331796319E-01
-0.3984273683394E-01
-0.4250328414252E-01
-0.4185542988150E-01
-0.3921093071573E-01
-0.3527985382184E-01
-0.3057123855710E-01
-0.2544964219895E-01
-0.2047294403294E-01
-0.1682784371220E-01
-0.1545164228747E-01
-0.1533193148443E-01
-0.1698655697674E-01
 0.4195422147626E+00
 0.3477558576446E+00
 0.2330106039912E+00
 0.1163640780551E+00
 0.2476962910511E-01
-0.3786722153645E-01
-0.7206629605381E-01
-0.8674915535555E-01
-0.9066617587500E-01
-0.8974151323529E-01
-0.8656414258761E-01
-0.8179665145977E-01
-0.7572912365514E-01
-0.6867006742053E-01
-0.6083870973873E-01
-0.5268914065283E-01
-0.4536641132574E-01
-0.4002263610739E-01
-0.3646422714627E-01
-0.3674473044380E-01
 0.4425718828171E+00
 0.3337464829231E+00
 0.1750512653148E+00
 0.3533440544366E-01
-0.5504827312971E-01
-0.1065510900679E+00
-0.1317590568989E+00
-0.1391712179736E+00
-0.1381998524503E+00
-0.1343166695561E+00
-0.1290160441356E+00
-0.1222078225904E+00
-0.1138640617920E+00
-0.1041452152758E+00
-0.9313580940320E-01
-0.8112780944699E-01
-0.6926799235355E-01
-0.5888537383535E-01
-0.5095990737933E-01
-0.4929938438752E-01
 0.5146130227266E+00
 0.3273821035358E+00
 0.9550689415373E-01
-0.6393677211873E-01
-0.1335718387683E+00
-0.1722232653866E+00
-0.1870203317247E+00
-0.1873435435470E+00
-0.1825641605988E+00
-0.1766031930612E+00
-0.1694605953299E+00
-0.1605700591718E+00
-0.1497198097651E+00
-0.1370285524532E+00
-0.1223333798958E+00
-0.1058036670515E+00
-0.8837705825768E-01
-0.7182996254059E-01
-0.5869144841951E-01
-0.5502920258133E-01
 0.6925302206531E+00
 0.3236276091521E+00
-0.5460248257296E-01
-0.1559761514924E+00
-0.2108901381847E+00
-0.2330517202295E+00
-0.2362596071412E+00
-0.2311813602819E+00
-0.2245216886852E+00
-0.2170548161049E+00
-0.2080808064207E+00
-0.1969425645842E+00
-0.1833823987834E+00
-0.1672539195953E+00
-0.1486538161845E+00
-0.1267363482429E+00
-0.1027964733322E+00
-0.7831170151764E-01
-0.5955916754050E-01
-0.5433805668421E-01
 0.1373534443299E+01
-0.9614338847547E-02
-0.1566929226450E+00
-0.2494578923054E+00
-0.2880567230196E+00
-0.2846567516952E+00
-0.2780486842978E+00
-0.2724013616570E+00
-0.2649747299979E+00
-0.2560350678699E+00
-0.2447153401603E+00
-0.2314672415921E+00
-0.2150716258845E+00
-0.1948013410956E+00
-0.1713846900294E+00
-0.1462837098256E+00
-0.1112759887915E+00
-0.7726143959697E-01
-0.5359478586290E-01
-0.4809751333686E-01
 0.1360399282439E+01
 0.1302829603508E+01
 0.1271042220285E+01
 0.1235270799860E+01
 0.1195674622313E+01
 0.1150909911582E+01
 0.1100438649993E+01
 0.1043672180190E+01
 0.9800586037337E+00
 0.9090683500448E+00
 0.8302287922925E+00
 0.7431654688293E+00
 0.6476626509035E+00
 0.5437557875984E+00
 0.4318832449101E+00
 0.3131676045664E+00
 0.1898932937872E+00
 0.6663127143485E-01
-0.4853729177446E-01
-0.1383270553810E+00
 0.1362648056755E+01
 0.1342976050380E+01
 0.1312172053892E+01
 0.1283546883805E+01
 0.1251228585723E+01
 0.1214418217384E+01
 0.1172084606905E+01
 0.1123465526051E+01
 0.1067781226657E+01
 0.1004243560543E+01
 0.9320515815348E+00
 0.8504113947470E+00
 0.7585660688860E+00
 0.6558437320059E+00
 0.5417462480316E+00
 0.4161176602348E+00
 0.2795743789161E+00
 0.1342830184768E+00
-0.1290421515818E-01
-0.1487684574442E+00
 0.1380181363424E+01
 0.1368510210863E+01
 0.1351112144794E+01
 0.1329594366976E+01
 0.1305512856996E+01
 0.1277336335580E+01
 0.1244187226580E+01
 0.1205125810696E+01
 0.1159233640391E+01
 0.1105533164437E+01
 0.1042972832912E+01
 0.9704107743790E+00
 0.8866013478822E+00
 0.7901779174127E+00
 0.6796290929366E+00
 0.5532916079248E+00
 0.4093588766035E+00
 0.2462588990957E+00
 0.6287844137726E-01
-0.1338525973186E+00
 0.1397977651803E+01
 0.1393806496555E+01
 0.1384947126814E+01
 0.1372762867267E+01
 0.1357284336321E+01
 0.1338318439779E+01
 0.1314986471615E+01
 0.1286409588513E+01
 0.1251623025826E+01
 0.1209585614238E+01
 0.1159143312451E+01
 0.1098995654428E+01
 0.1027646938768E+01
 0.9433308543508E+00
 0.8438882494592E+00
 0.7265502443619E+00
 0.5876070323267E+00
 0.4216822109710E+00
 0.2209501827106E+00
-0.2938671229217E-01
 0.1414889254385E+01
 0.1416910039622E+01
 0.1415674274469E+01
 0.1411719428799E+01
 0.1405076976924E+01
 0.1395390096665E+01
 0.1382093062528E+01
 0.1364388388749E+01
 0.1341383181416E+01
 0.1312081856943E+01
 0.1275377423250E+01
 0.1230020812563E+01
 0.1174573749487E+01
 0.1107330386483E+01
 0.1026178087728E+01
 0.9283489089052E+00
 0.8099112551519E+00
 0.6649126539237E+00
 0.4832310963776E+00
 0.2454592254841E+00
 0.1430164529012E+01
 0.1437438492979E+01
 0.1442640627918E+01
 0.1446007979354E+01
 0.1447418072071E+01
 0.1446551184133E+01
 0.1442893229130E+01
 0.1435787155481E+01
 0.1424446246603E+01
 0.1407985720286E+01
 0.1385422686350E+01
 0.1355667914620E+01
 0.1317505300494E+01
 0.1269555199847E+01
 0.1210208476368E+01
 0.1137490874231E+01
 0.1048808941039E+01
 0.9402933547985E+00
 0.8059610542869E+00
 0.6361322502846E+00
 0.1443609652330E+01
 0.1455272822515E+01
 0.1465925201891E+01
 0.1475600354938E+01
 0.1484143794065E+01
 0.1491244684992E+01
 0.1496463721277E+01
 0.1499238934813E+01
 0.1498903291364E+01
 0.1494694981336E+01
 0.1485768910647E+01
 0.1471201849228E+01
 0.1449996478759E+01
 0.1421086108173E+01
 0.1383341116312E+01
 0.1335582445897E+01
 0.1276574603168E+01
 0.1205062006087E+01
 0.1119263684750E+01
 0.1018839116287E+01
 0.1455050433258E+01
 0.1470349747117E+01
 0.1485533196248E+01
 0.1500537037463E+01
 0.1515202324548E+01
 0.1529263285209E+01
 0.1542352483568E+01
 0.1554007363991E+01
 0.1563674441857E+01
 0.1570717326456E+01
 0.1574424906632E+01
 0.1574022318726E+01
 0.1568686343858E+01
 0.1557571438138E+01
 0.1539858013229E+01
 0.1514840587480E+01
 0.1482111594657E+01
 0.1441844097220E+01
 0.1395611296475E+01
 0.1344077096113E+01
 0.1464359286683E+01
 0.1482618913682E+01
 0.1501499029664E+01
 0.1520896655690E+01
 0.1540674412285E+01
 0.1560623437313E+01
 0.1580458837728E+01
 0.1599818954340E+01
 0.1618266512067E+01
 0.1635290866836E+01
 0.1650312783935E+01
 0.1662692158962E+01
 0.1671741549901E+01
 0.1676750789188E+01
 0.1677032772048E+01
 0.1672013562781E+01
 0.1661400965257E+01
 0.1645571090456E+01
 0.1626166623740E+01
 0.1608727457845E+01
 0.1471437439213E+01
 0.1492073363502E+01
 0.1513918317410E+01
 0.1536871922517E+01
 0.1560828892081E+01
 0.1585642460856E+01
 0.1611111515221E+01
 0.1636976023890E+01
 0.1662914605187E+01
 0.1688543542983E+01
 0.1713417050423E+01
 0.1737029433207E+01
 0.1758820246532E+01
 0.1778184903926E+01
 0.1794495809765E+01
 0.1807142009638E+01
 0.1815611505415E+01
 0.1819636752265E+01
 0.1819638608610E+01
 0.1818170661837E+01
 0.1476212347405E+01
 0.1498721626147E+01
 0.1522911647054E+01
 0.1548700769316E+01
 0.1576021959637E+01
 0.1604788034287E+01
 0.1634876917507E+01
 0.1666124322646E+01
 0.1698319410296E+01
 0.1731201583484E+01
 0.1764457911254E+01
 0.1797720905171E+01
 0.1830566546165E+01
 0.1862512466488E+01
 0.1893015798092E+01
 0.1921470178887E+01
 0.1947195170027E+01
 0.1969415354769E+01
 0.1987165848916E+01
 0.1998638212511E+01
 0.1478614694362E+01
 0.1502593328790E+01
 0.1528634943538E+01
 0.1556690390077E+01
 0.1586733014130E+01
 0.1618731139758E+01
 0.1652633929833E+01
 0.1688363383883E+01
 0.1725809002323E+01
 0.1764823546262E+01
 0.1805219027865E+01
 0.1846762317590E+01
 0.1889169587857E+01
 0.1932098256763E+01
 0.1975134018359E+01
 0.2017767549133E+01
 0.2059350929921E+01
 0.2099002575492E+01
 0.2135372743508E+01
 0.2166011669152E+01
 0.1478566264823E+01
 0.1503649558800E+01
 0.1531106195523E+01
 0.1560927918011E+01
 0.1593129677206E+01
 0.1627731146159E+01
 0.1664745102370E+01
 0.1704169948895E+01
 0.1745984332698E+01
 0.1790142652352E+01
 0.1836570690598E+01
 0.1885160716468E+01
 0.1935765242008E+01
 0.1988188132973E+01
 0.2042170707158E+01
 0.2097368906502E+01
 0.2153313989459E+01
 0.2209345150967E+01
 0.2264497394544E+01
 0.2317462386136E+01
 0.1475988522586E+01
 0.1501802983544E+01
 0.1530235904015E+01
 0.1561320160597E+01
 0.1595111326737E+01
 0.1631675895151E+01
 0.1671082809472E+01
 0.1713397316514E+01
 0.1758676220970E+01
 0.1806963801129E+01
 0.1858287843221E+01
 0.1912655342016E+01
 0.1970047374695E+01
 0.2030412440178E+01
 0.2093657191438E+01
 0.2159632799709E+01
 0.2228115608229E+01
 0.2298784077944E+01
 0.2371217026907E+01
 0.2444927142826E+01
 0.1470815111462E+01
 0.1496970420494E+01
 0.1525925161822E+01
 0.1557748814894E+01
 0.1592533459976E+01
 0.1630386600382E+01
 0.1671425396853E+01
 0.1715772148388E+01
 0.1763550603993E+01
 0.1814882719849E+01
 0.1869885553282E+01
 0.1928668082663E+01
 0.1991327833793E+01
 0.2057947293098E+01
 0.2128590163775E+01
 0.2203297796854E+01
 0.2282086082683E+01
 0.2364946444975E+01
 0.2451855838735E+01
 0.2542809754199E+01
 0.1463000027861E+01
 0.1489091597804E+01
 0.1518099794798E+01
 0.1550122854480E+01
 0.1585282603596E+01
 0.1623719951165E+01
 0.1665591199733E+01
 0.1711065063236E+01
 0.1760320188750E+01
 0.1813542965664E+01
 0.1870925460996E+01
 0.1932663421437E+01
 0.1998954452320E+01
 0.2069996739130E+01
 0.2145989090463E+01
 0.2227133463135E+01
 0.2313641816142E+01
 0.2405743944849E+01
 0.2503691842785E+01
 0.2607762711892E+01
 0.1452520666175E+01
 0.1478135611597E+01
 0.1506720544407E+01
 0.1538392960985E+01
 0.1573295599260E+01
 0.1611593421180E+01
 0.1653471368769E+01
 0.1699132686810E+01
 0.1748797621561E+01
 0.1802702331650E+01
 0.1861097882178E+01
 0.1924249280218E+01
 0.1992434661732E+01
 0.2065945009852E+01
 0.2145085205406E+01
 0.2230177984234E+01
 0.2321572704020E+01
 0.2419664086789E+01
 0.2524901893039E+01
 0.2637766598016E+01
 0.1439379461401E+01
 0.1464103393820E+01
 0.1491786779142E+01
 0.1522556116862E+01
 0.1556564864887E+01
 0.1593991227311E+01
 0.1635036876578E+01
 0.1679926304424E+01
 0.1728906594209E+01
 0.1782247406909E+01
 0.1840241021141E+01
 0.1903202296149E+01
 0.1971468490951E+01
 0.2045398999800E+01
 0.2125375334753E+01
 0.2211802158212E+01
 0.2305111922968E+01
 0.2405777173969E+01
 0.2514366924738E+01
 0.2631566172825E+01
 0.1423605089175E+01
 0.1447029237956E+01
 0.1473338574845E+01
 0.1502658037645E+01
 0.1535140857251E+01
 0.1570966653736E+01
 0.1610340690615E+01
 0.1653494063863E+01
 0.1700684406176E+01
 0.1752196907464E+01
 0.1808345440367E+01
 0.1869473552493E+01
 0.1935955026859E+01
 0.2008193636224E+01
 0.2086621633341E+01
 0.2171696506180E+01
 0.2263895572655E+01
 0.2363711084659E+01
 0.2471646856801E+01
 0.2588462337121E+01
 0.1405253606401E+01
 0.1426982461660E+01
 0.1451458702270E+01
 0.1478795393045E+01
 0.1509134559035E+01
 0.1542644661240E+01
 0.1579520469405E+01
 0.1619983822522E+01
 0.1664285107107E+01
 0.1712705237584E+01
 0.1765557946604E+01
 0.1823192108326E+01
 0.1885993665263E+01
 0.1954386487025E+01
 0.2028831095254E+01
 0.2109819563726E+01
 0.2197863425505E+01
 0.2293467963729E+01
 0.2397072807678E+01
 0.2508823177662E+01
 0.1384408066016E+01
 0.1404065546320E+01
 0.1426268596964E+01
 0.1451110567264E+01
 0.1478710713990E+01
 0.1509213441908E+01
 0.1542788267370E+01
 0.1579630918755E+01
 0.1619965301924E+01
 0.1664046257449E+01
 0.1712163003655E+01
 0.1764643090619E+01
 0.1821856527986E+01
 0.1884219454983E+01
 0.1952196286441E+01
 0.2026298411727E+01
 0.2107076495479E+01
 0.2195097513729E+01
 0.2290897170979E+01
 0.2394706671048E+01
 0.1361175297501E+01
 0.1378399230687E+01
 0.1397908166961E+01
 0.1419763976075E+01
 0.1444051845550E+01
 0.1470879012578E+01
 0.1500374645495E+01
 0.1532690752410E+01
 0.1568004179377E+01
 0.1606519715788E+01
 0.1648474375610E+01
 0.1694142919001E+01
 0.1743844620462E+01
 0.1797951144048E+01
 0.1856895042333E+01
 0.1921178241987E+01
 0.1991379011132E+01
 0.2068161197412E+01
 0.2152277056688E+01
 0.2244858637407E+01
 0.1335687018948E+01
 0.1350135782538E+01
 0.1366551193538E+01
 0.1384952867998E+01
 0.1405380528565E+01
 0.1427891520422E+01
 0.1452559661500E+01
 0.1479475303879E+01
 0.1508746642048E+01
 0.1540502402066E+01
 0.1574896138490E+01
 0.1612112503547E+01
 0.1652376012477E+01
 0.1695962966423E+01
 0.1743217346122E+01
 0.1794571153561E+01
 0.1850571564813E+01
 0.1911915449816E+01
 0.1979532448716E+01
 0.2054610596428E+01
 0.1308098706036E+01
 0.1319458465620E+01
 0.1332409759120E+01
 0.1346920470436E+01
 0.1362974757353E+01
 0.1380568446544E+01
 0.1399705931023E+01
 0.1420398492208E+01
 0.1442664006853E+01
 0.1466528117517E+01
 0.1492027137281E+01
 0.1519213245987E+01
 0.1548162947970E+01
 0.1578990348292E+01
 0.1611867431833E+01
 0.1647054478390E+01
 0.1684940996982E+01
 0.1726103384781E+01
 0.1771350174128E+01
 0.1821727411039E+01
 0.1278587078906E+01
 0.1286577216085E+01
 0.1295728610856E+01
 0.1305949659576E+01
 0.1317161134823E+01
 0.1329287855772E+01
 0.1342252578396E+01
 0.1355971704257E+01
 0.1370352430959E+01
 0.1385291130306E+01
 0.1400673006795E+01
 0.1416373467334E+01
 0.1432262204474E+01
 0.1448211890710E+01
 0.1464114882832E+01
 0.1479912944868E+01
 0.1495648758480E+01
 0.1511527191503E+01
 0.1527990654939E+01
 0.1545795012550E+01
 0.1247347684106E+01
 0.1251725320941E+01
 0.1256779913702E+01
 0.1262356006436E+01
 0.1268306606388E+01
 0.1274479078484E+01
 0.1280705068394E+01
 0.1286793008446E+01
 0.1292522015631E+01
 0.1297636351849E+01
 0.1301839941869E+01
 0.1304790767367E+01
 0.1306095379526E+01
 0.1305304521837E+01
 0.1301912381718E+01
 0.1295365681792E+01
 0.1285094537919E+01
 0.1270607215900E+01
 0.1251595703076E+01
 0.1228121266921E+01
 0.1214592751974E+01
 0.1215155471758E+01
 0.1215857195783E+01
 0.1216479986818E+01
 0.1216809300618E+01
 0.1216612170914E+01
 0.1215622917341E+01
 0.1213532551596E+01
 0.1209979344250E+01
 0.1204538819805E+01
 0.1196711846600E+01
 0.1185909551177E+01
 0.1171433625685E+01
 0.1152450338031E+01
 0.1127956391166E+01
 0.1096736190536E+01
 0.1057317975358E+01
 0.1007961812824E+01
 0.9469636003468E+00
 0.8728681570950E+00
 0.1180548868405E+01
 0.1177133991239E+01
 0.1173266620869E+01
 0.1168676137081E+01
 0.1163085629728E+01
 0.1156182261974E+01
 0.1147600012877E+01
 0.1136907201500E+01
 0.1123594544370E+01
 0.1107061168137E+01
 0.1086596371846E+01
 0.1061354606001E+01
 0.1030320112965E+01
 0.9922555713890E+00
 0.9456255722063E+00
 0.8884782976296E+00
 0.8182605172088E+00
 0.7315170819652E+00
 0.6234399261902E+00
 0.4893767884599E+00
 0.1145452679940E+01
 0.1137928788178E+01
 0.1129309701080E+01
 0.1119291303540E+01
 0.1107543238682E+01
 0.1093675404362E+01
 0.1077221179793E+01
 0.1057625307563E+01
 0.1034231366668E+01
 0.1006265678915E+01
 0.9728149464466E+00
 0.9327943280858E+00
 0.8849008568039E+00
 0.8275437206617E+00
 0.7587355333696E+00
 0.6759154803010E+00
 0.5756299571948E+00
 0.4529321495178E+00
 0.2997973505722E+00
 0.1004939238901E+00
 0.1109536260623E+01
 0.1097777206768E+01
 0.1084238495561E+01
 0.1068606797896E+01
 0.1050508362487E+01
 0.1029480909789E+01
 0.1004961205099E+01
 0.9762770696955E+00
 0.9426378650189E+00
 0.9031204967670E+00
 0.8566489076527E+00
 0.8019642444001E+00
 0.7375815243768E+00
 0.6617255975362E+00
 0.5722344143803E+00
 0.4664027978345E+00
 0.3407271890648E+00
 0.1903456640988E+00
 0.8159560269655E-02
-0.2222847143213E+00
 0.1072984030145E+01
 0.1056812507757E+01
 0.1038154506152E+01
 0.1016706901376E+01
 0.9920707958011E+00
 0.9637282039432E+00
 0.9310417601635E+00
 0.8932587456776E+00
 0.8495131868353E+00
 0.7988261522982E+00
 0.7401043702321E+00
 0.6721381173508E+00
 0.5935994777206E+00
 0.5030441309415E+00
 0.3989228624882E+00
 0.2796247932822E+00
 0.1435872056349E+00
-0.1023782801344E-01
-0.1814753148624E+00
-0.3558818929090E+00
 0.1035919988831E+01
 0.1015098658680E+01
 0.9910689285398E+00
 0.9635821520276E+00
 0.9322537846073E+00
 0.8965531199271E+00
 0.8558300100320E+00
 0.8093407837954E+00
 0.7562748822385E+00
 0.6957838693146E+00
 0.6270175251135E+00
 0.5491703893865E+00
 0.4615468799361E+00
 0.3636588069577E+00
 0.2553857261764E+00
 0.1372600964209E+00
 0.1106324662501E-01
-0.1189408860769E+00
-0.2420013228629E+00
-0.3342504438994E+00
 0.9984922620474E+00
 0.9727935953131E+00
 0.9431617687340E+00
 0.9095035629469E+00
 0.8715113420091E+00
 0.8287155374074E+00
 0.7805465623933E+00
 0.7263933345431E+00
 0.6656572172808E+00
 0.5978140508331E+00
 0.5224818293303E+00
 0.4395020078155E+00
 0.3490424742705E+00
 0.2517424028985E+00
 0.1489355893075E+00
 0.4303189040503E-01
-0.6181653540996E-01
-0.1584338469313E+00
-0.2352274758034E+00
-0.2809230295281E+00
 0.9608786124891E+00
 0.9300812393458E+00
 0.8946828031655E+00
 0.8548748065133E+00
 0.8105160424956E+00
 0.7612804599149E+00
 0.7067770336051E+00
 0.6466262865710E+00
 0.5805490733920E+00
 0.5084418221851E+00
 0.4304566424087E+00
 0.3470817145068E+00
 0.2592407529170E+00
 0.1684309493129E+00
 0.7693163741161E-01
-0.1188224060716E-01
-0.9311529942545E-01
-0.1601320123523E+00
-0.2062630837400E+00
-0.2293849853371E+00
 0.9233041673674E+00
 0.8872190609664E+00
 0.8459806308285E+00
 0.8002532313072E+00
 0.7501287886836E+00
 0.6955090630647E+00
 0.6362090501653E+00
 0.5721143446126E+00
 0.5032622859758E+00
 0.4299424736295E+00
 0.3527523767850E+00
 0.2726585662257E+00
 0.1910726328599E+00
 0.1099582336008E+00
 0.3197155640396E-01
-0.3940283753198E-01
-0.9989158435058E-01
-0.1451922644831E+00
-0.1728767945558E+00
-0.1845112693764E+00
 0.8860514898817E+00
 0.8444703764381E+00
 0.7974237086732E+00
 0.7461738772013E+00
 0.6912015961784E+00
 0.6325571967108E+00
 0.5702591989499E+00
 0.5043391042660E+00
 0.4350918698398E+00
 0.3630946227740E+00
 0.2892412876796E+00
 0.2147729349833E+00
 0.1413263247911E+00
 0.7099072518695E-01
 0.6339093724985E-02
-0.4965909527315E-01
-0.9404810185411E-01
-0.1247788296746E+00
-0.1418177505946E+00
-0.1469749201994E+00
 0.8493998394262E+00
 0.8021732896190E+00
 0.7492277029317E+00
 0.6931444065682E+00
 0.6344343100602E+00
 0.5734791604404E+00
 0.5100048700961E+00
 0.4441801665976E+00
 0.3764602333053E+00
 0.3076084020768E+00
 0.2386730873312E+00
 0.1709985696351E+00
 0.1062386641484E+00
 0.4634941215972E-01
-0.6492635578614E-02
-0.5013437942054E-01
-0.8291898794826E-01
-0.1043402863044E+00
-0.1153104595046E+00
-0.1177913881322E+00
 0.8144587523479E+00
 0.7607567602118E+00
 0.7020746629765E+00
 0.6412760166537E+00
 0.5808920759387E+00
 0.5191734920442E+00
 0.4559981485263E+00
 0.3915782618894E+00
 0.3265315601453E+00
 0.2617343099124E+00
 0.1983031680584E+00
 0.1375798600192E+00
 0.8110777099043E-01
 0.3056173761697E-01
-0.1241048597468E-01
-0.4646535352841E-01
-0.7094474028335E-01
-0.8614824524984E-01
-0.9355828603249E-01
-0.9532855087857E-01
 0.7826269948320E+00
 0.7224003724859E+00
 0.6522675777647E+00
 0.5917068242355E+00
 0.5310427399216E+00
 0.4698609029761E+00
 0.4078901289286E+00
 0.3456302998519E+00
 0.2838145657773E+00
 0.2233895360246E+00
 0.1654723238195E+00
 0.1113234791914E+00
 0.6228824055207E-01
 0.1968740454112E-01
-0.1535634565851E-01
-0.4214715078792E-01
-0.6061831934592E-01
-0.7147302739389E-01
-0.7584573881173E-01
-0.7662066609824E-01
 0.7737163587480E+00
 0.6644347017096E+00
 0.6048253366563E+00
 0.5449528458024E+00
 0.4855466636828E+00
 0.4255059030957E+00
 0.3653480175387E+00
 0.3056937952595E+00
 0.2473621678675E+00
 0.1912974812046E+00
 0.1385541451416E+00
 0.9025078951471E-01
 0.4749407490407E-01
 0.1126415335614E-01
-0.1772901198198E-01
-0.3918206626247E-01
-0.5328859595028E-01
-0.6066294523250E-01
-0.6242078008244E-01
-0.5791396693978E-01
</DataArray>
<DataArray type="Float64" Name="S_Oct" NumberOfComponents="1" ComponentName0="S_Oct" format="ascii">
 0.3402103890969E+01
 0.3065918331553E+01
 0.2809544119421E+01
 0.2728248093635E+01
 0.2674052664378E+01
 0.2642898219465E+01
 0.2622351989753E+01
 0.2608644709006E+01
 0.2599178535036E+01
 0.2592619566867E+01
 0.2588183240948E+01
 0.2585457790870E+01
 0.2584264347466E+01
 0.2584590008723E+01
 0.2586547789489E+01
 0.2590356400087E+01
 0.2596332852120E+01
 0.2604896828893E+01
 0.2616585656781E+01
 0.2632090892326E+01
 0.2652325533389E+01
 0.2678582416927E+01
 0.2712918546363E+01
 0.2758292863777E+01
 0.2815448551084E+01
 0.2881475756010E+01
 0.2952968806596E+01
 0.3028095401396E+01
 0.3106995024353E+01
 0.3191325706499E+01
 0.3283507633020E+01
 0.3385932203618E+01
 0.3500067574019E+01
 0.3629391818956E+01
 0.3785393332272E+01
 0.3982943209336E+01
 0.4254658571927E+01
 0.4590697579632E+01
 0.5314396780298E+01
 0.5306553156498E+01
 0.1031815586166E+02
 0.2917180213230E+01
 0.3026928536249E+01
 0.2834803113441E+01
 0.2725515754064E+01
 0.2667590650283E+01
 0.2629269801070E+01
 0.2604259334912E+01
 0.2586969930403E+01
 0.2574813833858E+01
 0.2566169798145E+01
 0.2560114088792E+01
 0.2556117122382E+01
 0.2553914593735E+01
 0.2553425458595E+01
 0.2554706910038E+01
 0.2557929299150E+01
 0.2563365325701E+01
 0.2571390426322E+01
 0.2582495167172E+01
 0.2597313084655E+01
 0.2616675346151E+01
 0.2641706289699E+01
 0.2673753160005E+01
 0.2713877478506E+01
 0.2762062589685E+01
 0.2816992335804E+01
 0.2876862680181E+01
 0.2940413657491E+01
 0.3007373632922E+01
 0.3078319616946E+01
 0.3154223362630E+01
 0.3236096588152E+01
 0.3325287180765E+01
 0.3424502324377E+01
 0.3537649004024E+01
 0.3671676273545E+01
 0.3821698590862E+01
 0.4013769872358E+01
 0.4097635563062E+01
 0.3543946680621E+01
 0.6824725825859E+01
 0.2645844143812E+01
 0.2861968104226E+01
 0.2808276701136E+01
 0.2709980850819E+01
 0.2650676465159E+01
 0.2610596751384E+01
 0.2582791087343E+01
 0.2563138143202E+01
 0.2548934153862E+01
 0.2538599066374E+01
 0.2531145300303E+01
 0.2525989839589E+01
 0.2522813902228E+01
 0.2521487269147E+01
 0.2522021222895E+01
 0.2524541855504E+01
 0.2529276573747E+01
 0.2536550914022E+01
 0.2546794926850E+01
 0.2560558991609E+01
 0.2578539827617E+01
 0.2601552576370E+01
 0.2630249126619E+01
 0.2664788173870E+01
 0.2704887744921E+01
 0.2749928351380E+01
 0.2798999055083E+01
 0.2851209361875E+01
 0.2905992143081E+01
 0.2963112546210E+01
 0.3022471917850E+01
 0.3084090190925E+01
 0.3148385949346E+01
 0.3215590697549E+01
 0.3284774073044E+01
 0.3350520046492E+01
 0.3400372567215E+01
 0.3402966631943E+01
 0.3111345851945E+01
 0.2842959022035E+01
 0.5687179750923E+01
 0.2468381821212E+01
 0.2700372761494E+01
 0.2736034361877E+01
 0.2677601237145E+01
 0.2624467540766E+01
 0.2586041842087E+01
 0.2557714316070E+01
 0.2536856495666E+01
 0.2521340392483E+01
 0.2509747640927E+01
 0.2501155550251E+01
 0.2494982855490E+01
 0.2490892531362E+01
 0.2488725229622E+01
 0.2488457766376E+01
 0.2490177148246E+01
 0.2494065777277E+01
 0.2500394625254E+01
 0.2509522122258E+01
 0.2521895028933E+01
 0.2538032910159E+01
 0.2558410174490E+01
 0.2583174932908E+01
 0.2612043611860E+01
 0.2644636805115E+01
 0.2680645197364E+01
 0.2719601581210E+01
 0.2760809938780E+01
 0.2803474689650E+01
 0.2846765160016E+01
 0.2889797410243E+01
 0.2931720774982E+01
 0.2971632704000E+01
 0.3007457499947E+01
 0.3033781448737E+01
 0.3038842143323E+01
 0.3001850845143E+01
 0.2856305038144E+01
 0.2513277707726E+01
 0.2668247551552E+01
 0.5111191393416E+01
 0.2339870888937E+01
 0.2560991544045E+01
 0.2645581980931E+01
 0.2628251113205E+01
 0.2589507304890E+01
 0.2555696796370E+01
 0.2528850603947E+01
 0.2507987664706E+01
 0.2491891677338E+01
 0.2479501752651E+01
 0.2470052057805E+01
 0.2463024153543E+01
 0.2458096803609E+01
 0.2455102588528E+01
 0.2453995884413E+01
 0.2454830710310E+01
 0.2457745876857E+01
 0.2462954828062E+01
 0.2470736679664E+01
 0.2481420229322E+01
 0.2495331303591E+01
 0.2512642737744E+01
 0.2533168232432E+01
 0.2556404586310E+01
 0.2581930878234E+01
 0.2609557221827E+01
 0.2639002591102E+01
 0.2669640083123E+01
 0.2700492136263E+01
 0.2730301846948E+01
 0.2757601412641E+01
 0.2780757819346E+01
 0.2797646729330E+01
 0.2804282757357E+01
 0.2792498425553E+01
 0.2748073915649E+01
 0.2645323978947E+01
 0.2438836865902E+01
 0.2203653060353E+01
 0.2681016113230E+01
 0.4733387160386E+01
 0.2239791197119E+01
 0.2442892849299E+01
 0.2551715106322E+01
 0.2567423988240E+01
 0.2546454669769E+01
 0.2520001240570E+01
 0.2496250309061E+01
 0.2476490072999E+01
 0.2460520099590E+01
 0.2447789823560E+01
 0.2437772071863E+01
 0.2430062913294E+01
 0.2424389424738E+01
 0.2420596137996E+01
 0.2418627170565E+01
 0.2418510222862E+01
 0.2420343046210E+01
 0.2424280635015E+01
 0.2430518836980E+01
 0.2439262966159E+01
 0.2450653109494E+01
 0.2464621565997E+01
 0.2480768801206E+01
 0.2498482300168E+01
 0.2517315294824E+01
 0.2537098993820E+01
 0.2557598244087E+01
 0.2578180834807E+01
 0.2597727673715E+01
 0.2614688918815E+01
 0.2627171263645E+01
 0.2632921901492E+01
 0.2628896343050E+01
 0.2609937808187E+01
 0.2567031979908E+01
 0.2486239157057E+01
 0.2347895210107E+01
 0.2150972131606E+01
 0.2070782347916E+01
 0.2735455023593E+01
 0.4450164093440E+01
 0.2157529765318E+01
 0.2341962406641E+01
 0.2460910308928E+01
 0.2500483072591E+01
 0.2496941329146E+01
 0.2479524280136E+01
 0.2460153186420E+01
 0.2442420620902E+01
 0.2427220847313E+01
 0.2414582727354E+01
 0.2404281687902E+01
 0.2396069408524E+01
 0.2389749277142E+01
 0.2385196025052E+01
 0.2382355139866E+01
 0.2381234976360E+01
 0.2381895807049E+01
 0.2384435362183E+01
 0.2388966316921E+01
 0.2395574108864E+01
 0.2404235550956E+01
 0.2414702288536E+01
 0.2426442798814E+01
 0.2438791006080E+01
 0.2451277224789E+01
 0.2463705061370E+01
 0.2475815319166E+01
 0.2486936518138E+01
 0.2495849363990E+01
 0.2500820958898E+01
 0.2499682876074E+01
 0.2489781804064E+01
 0.2467568737318E+01
 0.2427597641567E+01
 0.2361574039278E+01
 0.2258973532654E+01
 0.2114058861741E+01
 0.1967408649707E+01
 0.2034740495822E+01
 0.2782864147033E+01
 0.4222979695050E+01
 0.2087100282917E+01
 0.2254311263129E+01
 0.2375547350551E+01
 0.2431242088152E+01
 0.2442910519584E+01
 0.2435033200197E+01
 0.2420907581903E+01
 0.2405925594762E+01
 0.2392044675468E+01
 0.2379890269963E+01
 0.2369574416128E+01
 0.2361034097114E+01
 0.2354170884357E+01
 0.2348905261834E+01
 0.2345194670479E+01
 0.2343035101632E+01
 0.2342453843774E+01
 0.2343494568596E+01
 0.2346190829286E+01
 0.2350518806239E+01
 0.2356320331846E+01
 0.2363217245707E+01
 0.2370599503529E+01
 0.2377776712179E+01
 0.2384257319290E+01
 0.2389797560373E+01
 0.2394086757318E+01
 0.2396408881968E+01
 0.2395488951684E+01
 0.2389509276407E+01
 0.2376178080845E+01
 0.2352690523022E+01
 0.2315452606796E+01
 0.2259539923702E+01
 0.2178702245892E+01
 0.2068344693498E+01
 0.1938767264665E+01
 0.1859537717638E+01
 0.2045642756708E+01
 0.2811770699273E+01
 0.4033660359405E+01
 0.2024896965479E+01
 0.2176859615973E+01
 0.2296139429243E+01
 0.2362079798794E+01
 0.2386122582894E+01
 0.2387403674535E+01
 0.2378939387107E+01
 0.2367215578223E+01
 0.2355090291678E+01
 0.2343756325941E+01
 0.2333668851723E+01
 0.2324966271085E+01
 0.2317663522965E+01
 0.2311739008070E+01
 0.2307171257227E+01
 0.2303950625574E+01
 0.2302076631527E+01
 0.2301543895665E+01
 0.2302314192807E+01
 0.2304269334962E+01
 0.2307144995666E+01
 0.2310473840698E+01
 0.2313602753761E+01
 0.2315833764599E+01
 0.2316656605297E+01
 0.2315778000853E+01
 0.2312833963667E+01
 0.2307077526640E+01
 0.2297225907273E+01
 0.2281469015850E+01
 0.2257542287743E+01
 0.2222742734781E+01
 0.2173861796514E+01
 0.2107162314814E+01
 0.2019426172782E+01
 0.1913127394107E+01
 0.1812662429160E+01
 0.1803122306766E+01
 0.2075218965279E+01
 0.2822852783664E+01
 0.3871957211861E+01
 0.1968631007297E+01
 0.2107285070681E+01
 0.2222405679876E+01
 0.2294349898219E+01
 0.2327971068288E+01
 0.2337499040627E+01
 0.2334717587079E+01
 0.2326544259535E+01
 0.2316493636995E+01
 0.2306253592468E+01
 0.2296605636477E+01
 0.2287892306386E+01
 0.2280250047068E+01
 0.2273723640495E+01
 0.2268320097053E+01
 0.2264030378266E+01
 0.2260831935825E+01
 0.2258676787930E+01
 0.2257464596556E+01
 0.2256999616339E+01
 0.2256938048600E+01
 0.2256755078113E+01
 0.2255778727027E+01
 0.2253314700624E+01
 0.2248840291980E+01
 0.2242021426048E+01
 0.2232454093135E+01
 0.2219385542835E+01
 0.2201575189035E+01
 0.2177307850900E+01
 0.2144488968695E+01
 0.2100750183120E+01
 0.2043625661366E+01
 0.1971048930308E+01
 0.1883361925002E+01
 0.1789939162439E+01
 0.1725559059904E+01
 0.1779763244861E+01
 0.2108816912438E+01
 0.2819828071090E+01
 0.3731327377427E+01
 0.1916785393544E+01
 0.2043857430057E+01
 0.2153771395164E+01
 0.2228743579599E+01
 0.2269472736939E+01
 0.2286089184272E+01
 0.2288716033630E+01
 0.2284189657497E+01
 0.2276416912046E+01
 0.2267477724991E+01
 0.2258444083960E+01
 0.2249853590125E+01
 0.2241965492981E+01
 0.2234895653776E+01
 0.2228685045160E+01
 0.2223330801620E+01
 0.2218794251668E+01
 0.2214992247638E+01
 0.2211773330864E+01
 0.2208881269920E+01
 0.2205916310601E+01
 0.2202320786362E+01
 0.2197421234388E+01
 0.2190536219670E+01
 0.2181139766052E+01
 0.2168872180142E+01
 0.2153311112119E+01
 0.2133729355533E+01
 0.2108978438079E+01
 0.2077518492371E+01
 0.2037552190731E+01
 0.1987239531831E+01
 0.1925120085125E+01
 0.1851077693934E+01
 0.1769079095215E+01
 0.1694377855614E+01
 0.1668123587189E+01
 0.1776369999252E+01
 0.2139551551000E+01
 0.2806481346987E+01
 0.3607254803844E+01
 0.1868317451609E+01
 0.1985285117634E+01
 0.2089594654930E+01
 0.2165547313217E+01
 0.2211325780016E+01
 0.2233814782016E+01
 0.2241381930982E+01
 0.2240436939859E+01
 0.2235038390505E+01
 0.2227541324204E+01
 0.2219258602602E+01
 0.2210904249996E+01
 0.2202855513206E+01
 0.2195300428155E+01
 0.2188317468752E+01
 0.2181914691223E+01
 0.2176043233128E+01
 0.2170592732685E+01
 0.2165372078150E+01
 0.2160080851735E+01
 0.2154283528569E+01
 0.2147408907380E+01
 0.2138795321547E+01
 0.2127782849793E+01
 0.2113853588615E+01
 0.2096640896142E+01
 0.2075729732967E+01
 0.2050451966486E+01
 0.2019798579290E+01
 0.1982475674537E+01
 0.1937088154783E+01
 0.1882468747104E+01
 0.1818323389370E+01
 0.1746567672777E+01
 0.1674495879508E+01
 0.1621824674851E+01
 0.1632486816687E+01
 0.1784080462001E+01
 0.2164658168089E+01
 0.2785881363602E+01
 0.3496463565223E+01
 0.1822488040109E+01
 0.1930596235320E+01
 0.2029263366264E+01
 0.2104811341839E+01
 0.2153982983160E+01
 0.2181182678556E+01
 0.2193115658330E+01
 0.2195564007555E+01
 0.2192543347135E+01
 0.2186568211852E+01
 0.2179135097410E+01
 0.2171108799321E+01
 0.2162974714919E+01
 0.2154990917251E+01
 0.2147275047126E+01
 0.2139849924038E+01
 0.2132662183293E+01
 0.2125582285111E+01
 0.2118390760398E+01
 0.2110757971601E+01
 0.2102229718740E+01
 0.2092236669843E+01
 0.2080139770924E+01
 0.2065309294383E+01
 0.2047248068458E+01
 0.2025602557127E+01
 0.1999991661805E+01
 0.1969839113422E+01
 0.1934317753900E+01
 0.1892437837572E+01
 0.1843285056527E+01
 0.1786456512109E+01
 0.1722888217209E+01
 0.1656443224476E+01
 0.1597220392453E+01
 0.1567908945734E+01
 0.1612339645089E+01
 0.1797142924861E+01
 0.2183428611652E+01
 0.2760320093871E+01
 0.3396494766523E+01
 0.1778759111332E+01
 0.1879051663383E+01
 0.1972231563129E+01
 0.2046455163585E+01
 0.2097718199620E+01
 0.2128577945472E+01
 0.2144261271461E+01
 0.2149830860573E+01
 0.2149116396021E+01
 0.2144688255267E+01
 0.2138167522326E+01
 0.2130539792799E+01
 0.2122384966597E+01
 0.2114026300809E+01
 0.2105620555806E+01
 0.2097208210679E+01
 0.2088736649291E+01
 0.2080064920479E+01
 0.2070955874276E+01
 0.2061064037982E+01
 0.2049930928578E+01
 0.2037001608080E+01
 0.2021668905970E+01
 0.2003342051137E+01
 0.1981557755214E+01
 0.1955995516285E+01
 0.1926333740351E+01
 0.1892117923890E+01
 0.1852738316367E+01
 0.1807553117037E+01
 0.1756179427867E+01
 0.1699019756744E+01
 0.1638220277356E+01
 0.1579388205336E+01
 0.1534799362685E+01
 0.1528733361212E+01
 0.1602801203138E+01
 0.1811966400890E+01
 0.2196109599682E+01
 0.2731452202965E+01
 0.3305453866205E+01
 0.1736729928790E+01
 0.1830082797734E+01
 0.1918027931444E+01
 0.1990331705486E+01
 0.2042679712416E+01
 0.2076282717673E+01
 0.2095104896736E+01
 0.2103472886975E+01
 0.2104935463034E+01
 0.2102032895248E+01
 0.2096454708584E+01
 0.2089275570890E+01
 0.2081153722247E+01
 0.2072470636212E+01
 0.2063420660556E+01
 0.2054063895519E+01
 0.2044353141062E+01
 0.2034143267294E+01
 0.2023189220267E+01
 0.2011141435707E+01
 0.1997549233657E+01
 0.1981882436739E+01
 0.1963573958629E+01
 0.1942080652503E+01
 0.1916986035248E+01
 0.1888021356676E+01
 0.1854947633376E+01
 0.1817457650530E+01
 0.1775186454518E+01
 0.1727868796092E+01
 0.1675676779871E+01
 0.1619814873282E+01
 0.1563554950844E+01
 0.1513973351238E+01
 0.1484877754850E+01
 0.1500954315662E+01
 0.1600199229228E+01
 0.1826397457020E+01
 0.2203337768432E+01
 0.2700460682848E+01
 0.3221848728989E+01
 0.1696096025394E+01
 0.1783247096563E+01
 0.1866252337786E+01
 0.1936265388591E+01
 0.1988930423043E+01
 0.2024496149426E+01
 0.2045878074271E+01
 0.2056697558162E+01
 0.2060167449748E+01
 0.2058731472885E+01
 0.2054097561924E+01
 0.2047398166016E+01
 0.2039352417365E+01
 0.2030391551537E+01
 0.2020744757839E+01
 0.2010492837219E+01
 0.1999597997075E+01
 0.1987917449356E+01
 0.1975206960401E+01
 0.1961123023066E+01
 0.1945232892297E+01
 0.1927039841416E+01
 0.1906024207931E+01
 0.1881698774731E+01
 0.1853705963390E+01
 0.1821845521428E+01
 0.1785980818435E+01
 0.1745972145006E+01
 0.1701717946858E+01
 0.1653343251240E+01
 0.1601574511384E+01
 0.1548378814680E+01
 0.1498025115537E+01
 0.1458751489092E+01
 0.1445289524429E+01
 0.1481781878368E+01
 0.1601832917040E+01
 0.1839205781422E+01
 0.2205859019555E+01
 0.2668199326472E+01
 0.3144480908363E+01
 0.1656622015351E+01
 0.1738196212109E+01
 0.1816567835759E+01
 0.1884074036398E+01
 0.1936476968205E+01
 0.1973352702301E+01
 0.1996763699169E+01
 0.2009683714139E+01
 0.2014965453722E+01
 0.2014908369854E+01
 0.2011196668775E+01
 0.2004991408099E+01
 0.1997054963303E+01
 0.1987858997162E+01
 0.1977663871290E+01
 0.1966571371449E+01
 0.1954556384216E+01
 0.1941484168552E+01
 0.1927118920569E+01
 0.1911131841644E+01
 0.1893116587298E+01
 0.1872617203945E+01
 0.1849167989191E+01
 0.1822345321183E+01
 0.1791861345878E+01
 0.1757598578989E+01
 0.1719538594488E+01
 0.1677723657538E+01
 0.1632325437282E+01
 0.1583859314224E+01
 0.1533585196025E+01
 0.1484167043192E+01
 0.1440716622908E+01
 0.1412322820888E+01
 0.1414100939010E+01
 0.1468938089759E+01
 0.1605754463697E+01
 0.1849733952870E+01
 0.2204390384267E+01
 0.2635304578522E+01
 0.3072369603315E+01
 0.1618123111688E+01
 0.1694652963418E+01
 0.1768691600716E+01
 0.1833580941362E+01
 0.1885290263920E+01
 0.1922937682286E+01
 0.1947902953417E+01
 0.1962582619659E+01
 0.1969467303608E+01
 0.1970680926914E+01
 0.1967850331738E+01
 0.1962139262347E+01
 0.1954336371597E+01
 0.1944944082841E+01
 0.1934249626060E+01
 0.1922375370719E+01
 0.1909311433761E+01
 0.1894935967766E+01
 0.1879028092511E+01
 0.1861280989196E+01
 0.1841321739424E+01
 0.1818741308330E+01
 0.1793133666761E+01
 0.1764145567947E+01
 0.1731568095009E+01
 0.1695378033340E+01
 0.1655686897643E+01
 0.1612727617339E+01
 0.1566946673921E+01
 0.1519238127747E+01
 0.1471358790914E+01
 0.1426586448908E+01
 0.1390710724824E+01
 0.1373375928825E+01
 0.1389623674071E+01
 0.1460595543743E+01
 0.1610586140101E+01
 0.1857668081053E+01
 0.2199544966761E+01
 0.2602279976511E+01
 0.3004689017971E+01
 0.1580452271359E+01
 0.1652394530959E+01
 0.1722386295554E+01
 0.1784621027280E+01
 0.1835319707020E+01
 0.1873299847040E+01
 0.1899402243871E+01
 0.1915520100736E+01
 0.1923795125003E+01
 0.1926158063374E+01
 0.1924153031739E+01
 0.1918924420409E+01
 0.1911271534942E+01
 0.1901718025907E+01
 0.1890573323166E+01
 0.1877979417093E+01
 0.1863943517936E+01
 0.1848360662123E+01
 0.1831030309841E+01
 0.1811673632963E+01
 0.1789956898195E+01
 0.1765523073217E+01
 0.1738030641321E+01
 0.1707202430921E+01
 0.1672915860382E+01
 0.1635250597500E+01
 0.1594455738585E+01
 0.1550958082612E+01
 0.1505473218670E+01
 0.1459252738952E+01
 0.1414502757580E+01
 0.1375022412833E+01
 0.1347114593556E+01
 0.1340710698211E+01
 0.1370409537965E+01
 0.1455310213518E+01
 0.1615371940232E+01
 0.1862908678814E+01
 0.2191763397547E+01
 0.2569565224289E+01
 0.2940699706954E+01
 0.1543491078399E+01
 0.1611240037285E+01
 0.1677452441776E+01
 0.1737043526219E+01
 0.1786502806712E+01
 0.1824461318914E+01
 0.1851339599060E+01
 0.1868599227384E+01
 0.1878055647276E+01
 0.1881439480967E+01
 0.1880194279218E+01
 0.1875427137038E+01
 0.1867934166064E+01
 0.1858251212323E+01
 0.1846705111685E+01
 0.1833456078290E+01
 0.1818529646262E+01
 0.1801840904002E+01
 0.1783214053659E+01
 0.1762403121960E+01
 0.1739118186612E+01
 0.1713058309434E+01
 0.1683950397711E+01
 0.1651597840839E+01
 0.1615969873516E+01
 0.1577254792551E+01
 0.1535843031047E+01
 0.1492353515908E+01
 0.1447759138721E+01
 0.1403640790835E+01
 0.1362599437014E+01
 0.1328859959970E+01
 0.1309081797978E+01
 0.1313248688144E+01
 0.1355233900260E+01
 0.1451958239736E+01
 0.1619457030913E+01
 0.1865506613249E+01
 0.2181314221833E+01
 0.2537434879719E+01
 0.2879601695609E+01
 0.1507143435890E+01
 0.1571045537701E+01
 0.1633729652149E+01
 0.1690724378601E+01
 0.1738787434273E+01
 0.1776445045360E+01
 0.1803793862339E+01
 0.1821930231641E+01
 0.1832371326396E+01
 0.1836648807865E+01
 0.1836094425060E+01
 0.1831764138413E+01
 0.1824439112783E+01
 0.1814659190346E+01
 0.1802763943830E+01
 0.1788930141558E+01
 0.1773202338064E+01
 0.1755518089201E+01
 0.1735729795913E+01
 0.1713628133566E+01
 0.1688970528470E+01
 0.1661515185101E+01
 0.1631060239129E+01
 0.1597492651154E+01
 0.1560876788837E+01
 0.1521512288786E+01
 0.1479930737542E+01
 0.1436936664309E+01
 0.1393742975960E+01
 0.1352225985701E+01
 0.1315322805089E+01
 0.1287589023308E+01
 0.1275896004757E+01
 0.1290081879526E+01
 0.1343095548079E+01
 0.1449671055310E+01
 0.1622407409797E+01
 0.1865526569325E+01
 0.2168758365726E+01
 0.2504586364060E+01
 0.2827613857901E+01
 0.1471331007204E+01
 0.1531689143560E+01
 0.1591076236695E+01
 0.1645542595856E+01
 0.1692104369432E+01
 0.1729240834517E+01
 0.1756802214877E+01
 0.1775579171402E+01
 0.1786820846904E+01
 0.1791866790728E+01
 0.1791931076760E+01
 0.1788008394877E+01
 0.1780855298317E+01
 0.1771008367553E+01
 0.1758815471170E+01
 0.1744468055982E+01
 0.1728029899197E+01
 0.1709462727627E+01
 0.1688649722748E+01
 0.1665421041277E+01
 0.1639584037923E+01
 0.1610958186287E+01
 0.1579414657363E+01
 0.1544925675998E+01
 0.1507652193587E+01
 0.1468005394132E+01
 0.1426654774713E+01
 0.1384580543712E+01
 0.1343214984693E+01
 0.1304693427225E+01
 0.1272230306644E+01
 0.1250622155787E+01
 0.1246823829098E+01
 0.1270367871621E+01
 0.1333152098595E+01
 0.1447805868353E+01
 0.1623974010477E+01
 0.1863168849493E+01
 0.2154271838524E+01
 0.2471732436787E+01
 0.2780040099206E+01
 0.1435986503744E+01
 0.1493064225332E+01
 0.1549362682473E+01
 0.1601377588876E+01
 0.1646368526617E+01
 0.1682808539843E+01
 0.1710363205300E+01
 0.1729569754965E+01
 0.1741439674538E+01
 0.1747130961756E+01
 0.1747738312821E+01
 0.1744188205190E+01
 0.1737204879858E+01
 0.1727315370417E+01
 0.1714871695192E+01
 0.1700077957693E+01
 0.1683016917682E+01
 0.1663675525145E+01
 0.1641969535161E+01
 0.1617770572704E+01
 0.1590937672952E+01
 0.1561352909708E+01
 0.1528961435045E+01
 0.1493821317752E+01
 0.1456190028876E+01
 0.1416588580011E+01
 0.1375818956264E+01
 0.1335025022160E+01
 0.1295836301262E+01
 0.1260610690943E+01
 0.1232783973015E+01
 0.1217312014623E+01
 0.1221122718607E+01
 0.1253318800312E+01
 0.1324679281246E+01
 0.1445861973336E+01
 0.1624012531179E+01
 0.1858587829682E+01
 0.2138070387613E+01
 0.2439277434783E+01
 0.2732870224071E+01
 0.1401054625216E+01
 0.1455085476925E+01
 0.1508486071215E+01
 0.1558134046413E+01
 0.1601514848128E+01
 0.1637123258074E+01
 0.1664489090755E+01
 0.1683941310770E+01
 0.1696283048104E+01
 0.1702503682942E+01
 0.1703580130911E+01
 0.1700366535869E+01
 0.1693549033646E+01
 0.1683639885354E+01
 0.1670991535406E+01
 0.1655818701052E+01
 0.1638222554906E+01
 0.1618215774809E+01
 0.1595747789506E+01
 0.1570732909722E+01
 0.1543082809424E+01
 0.1512742671727E+01
 0.1479731636368E+01
 0.1444192997931E+01
 0.1406479130759E+01
 0.1367217272166E+01
 0.1327334430562E+01
 0.1288124235565E+01
 0.1251390142502E+01
 0.1219676492110E+01
 0.1196587508178E+01
 0.1187164775088E+01
 0.1198215876774E+01
 0.1238322417026E+01
 0.1317125620724E+01
 0.1443480694400E+01
 0.1622447800490E+01
 0.1851950426025E+01
 0.2120445878662E+01
 0.2407078696426E+01
 0.2686818993570E+01
 0.1366488710476E+01
 0.1417680727526E+01
 0.1468358196234E+01
 0.1515727585885E+01
 0.1557481945319E+01
 0.1592156520812E+01
 0.1619183814381E+01
 0.1638723089917E+01
 0.1651396548972E+01
 0.1658039142868E+01
 0.1659514039533E+01
 0.1656601269322E+01
 0.1649944790344E+01
 0.1640037899464E+01
 0.1627230208696E+01
 0.1611745048627E+01
 0.1593701173864E+01
 0.1573137019129E+01
 0.1550036169845E+01
 0.1524356145324E+01
 0.1496061485922E+01
 0.1465160218370E+01
 0.1431744586788E+01
 0.1396041389948E+01
 0.1358494927287E+01
 0.1319833504107E+01
 0.1281100138970E+01
 0.1243723153011E+01
 0.1209656330724E+01
 0.1181595653157E+01
 0.1163264897705E+01
 0.1159726361561E+01
 0.1177590816961E+01
 0.1224857077453E+01
 0.1310047625497E+01
 0.1440400605830E+01
 0.1619257333698E+01
 0.1843426817169E+01
 0.2101607517849E+01
 0.2375065521820E+01
 0.2641922965658E+01
 0.1332249048393E+01
 0.1380788514178E+01
 0.1428903048907E+01
 0.1474083453510E+01
 0.1514212464445E+01
 0.1547877887115E+01
 0.1574444992677E+01
 0.1593935980253E+01
 0.1606817247359E+01
 0.1613783936241E+01
 0.1615591209667E+01
 0.1612945087861E+01
 0.1606444781988E+01
 0.1596561402943E+01
 0.1583638950936E+01
 0.1567907458905E+01
 0.1549502231699E+01
 0.1528487081782E+01
 0.1504879689045E+01
 0.1478680680059E+01
 0.1449907020715E+01
 0.1418628595754E+01
 0.1385009047143E+01
 0.1349355968881E+01
 0.1312201450918E+01
 0.1274368477376E+01
 0.1237005975950E+01
 0.1201661299585E+01
 0.1170415362525E+01
 0.1146083008980E+01
 0.1132463255118E+01
 0.1134582935962E+01
 0.1158795652608E+01
 0.1212481563330E+01
 0.1303091352857E+01
 0.1436434937540E+01
 0.1614453658982E+01
 0.1833173505160E+01
 0.2081700957714E+01
 0.2343155543123E+01
 0.2598098870402E+01
 0.1298301567462E+01
 0.1344356122572E+01
 0.1390054780816E+01
 0.1433135312593E+01
 0.1471653163843E+01
 0.1504256067177E+01
 0.1530265485682E+01
 0.1549593975495E+01
 0.1562574778145E+01
 0.1569777692984E+01
 0.1571856737634E+01
 0.1569445491200E+01
 0.1563097125006E+01
 0.1553258223289E+01
 0.1540264865276E+01
 0.1524351996369E+01
 0.1505670290415E+01
 0.1484308212313E+01
 0.1460316996253E+01
 0.1433739717593E+01
 0.1404644720924E+01
 0.1373162105240E+01
 0.1339524460371E+01
 0.1304116608601E+01
 0.1267553348922E+01
 0.1230745032415E+01
 0.1194935719101E+01
 0.1161776044118E+01
 0.1133451781443E+01
 0.1112866347546E+01
 0.1103854533647E+01
 0.1111360285437E+01
 0.1141434699121E+01
 0.1200825146526E+01
 0.1295976504177E+01
 0.1431453600311E+01
 0.1608070381576E+01
 0.1821326377090E+01
 0.2060823052170E+01
 0.2311275237742E+01
 0.2555233397237E+01
 0.1264616800865E+01
 0.1308338014499E+01
 0.1351756023324E+01
 0.1392824140947E+01
 0.1429754796702E+01
 0.1461259682807E+01
 0.1486634607432E+01
 0.1505705396064E+01
 0.1518692300357E+01
 0.1526053691645E+01
 0.1528349949719E+01
 0.1526144879508E+01
 0.1519945373084E+01
 0.1510171924847E+01
 0.1497150828272E+01
 0.1481120290989E+01
 0.1462245067795E+01
 0.1440637260545E+01
 0.1416380702227E+01
 0.1389559765394E+01
 0.1360292583525E+01
 0.1328767235268E+01
 0.1295282153531E+01
 0.1260295099646E+01
 0.1224497757796E+01
 0.1188879894626E+01
 0.1154769604780E+01
 0.1123905361034E+01
 0.1098556830019E+01
 0.1081688464448E+01
 0.1077136295108E+01
 0.1089722404414E+01
 0.1125163693654E+01
 0.1189578259010E+01
 0.1288482897250E+01
 0.1425368986018E+01
 0.1600152416188E+01
 0.1807999685358E+01
 0.2039040813478E+01
 0.2279364982535E+01
 0.2513207076704E+01
 0.1231169056284E+01
 0.1272694555538E+01
 0.1313956488845E+01
 0.1353097233640E+01
 0.1388471865832E+01
 0.1418857747609E+01
 0.1443539032843E+01
 0.1462273875182E+01
 0.1475187320217E+01
 0.1482639419608E+01
 0.1485104706079E+01
 0.1483080660587E+01
 0.1477028500780E+01
 0.1467341735965E+01
 0.1454335415969E+01
 0.1438249507863E+01
 0.1419261487103E+01
 0.1397505836783E+01
 0.1373097675970E+01
 0.1346161091020E+01
 0.1316861934836E+01
 0.1285443511356E+01
 0.1252266430606E+01
 0.1217856517439E+01
 0.1182975967646E+01
 0.1148685623636E+01
 0.1116386490520E+01
 0.1087890038734E+01
 0.1065530408305E+01
 0.1052308431408E+01
 0.1052031707968E+01
 0.1069369484004E+01
 0.1109684855721E+01
 0.1178483921068E+01
 0.1280439059098E+01
 0.1418124970045E+01
 0.1590749612473E+01
 0.1793289164688E+01
 0.2016404159064E+01
 0.2247376729409E+01
 0.2471902480168E+01
 0.1197935746231E+01
 0.1237390986575E+01
 0.1276611816323E+01
 0.1313907331111E+01
 0.1347762332654E+01
 0.1377019977763E+01
 0.1400963505746E+01
 0.1419299193028E+01
 0.1432072441267E+01
 0.1439557135067E+01
 0.1442149760175E+01
 0.1440285444354E+01
 0.1434380990085E+01
 0.1424802585097E+01
 0.1411852939876E+01
 0.1395772425054E+01
 0.1376749831561E+01
 0.1354940571986E+01
 0.1330489435178E+01
 0.1303558264734E+01
 0.1274358146838E+01
 0.1243184409391E+01
 0.1210455707152E+01
 0.1176760597851E+01
 0.1142925041001E+01
 0.1110072441669E+01
 0.1079665799078E+01
 0.1053575559509E+01
 0.1034182605445E+01
 0.1024502389853E+01
 0.1028289114617E+01
 0.1050035646799E+01
 0.1094742095162E+01
 0.1167330095709E+01
 0.1271712798183E+01
 0.1409688584251E+01
 0.1579913172812E+01
 0.1777276072835E+01
 0.1992953002086E+01
 0.2215270756983E+01
 0.2431208019543E+01
 0.1164896841669E+01
 0.1202396578667E+01
 0.1239682600538E+01
 0.1275211840076E+01
 0.1307587280820E+01
 0.1335716945758E+01
 0.1358891346248E+01
 0.1376777929012E+01
 0.1389355983388E+01
 0.1396824351518E+01
 0.1399509081157E+01
 0.1397787223844E+01
 0.1392032913071E+01
 0.1382585133136E+01
 0.1369733473598E+01
 0.1353717493044E+01
 0.1334735869038E+01
 0.1312963334780E+01
 0.1288572478514E+01
 0.1261760627243E+01
 0.1232781259590E+01
 0.1201978151895E+01
 0.1169823497709E+01
 0.1136962924662E+01
 0.1104279188869E+01
 0.1072949749814E+01
 0.1044489070307E+01
 0.1020813508881E+01
 0.1004334707549E+01
 0.9980638239191E+00
 0.1005681166106E+01
 0.1031486455919E+01
 0.1080116401549E+01
 0.1155942922052E+01
 0.1262203468225E+01
 0.1400043825690E+01
 0.1567693808404E+01
 0.1760030589658E+01
 0.1968720859061E+01
 0.2183013111433E+01
 0.2391019787524E+01
 0.1132034422858E+01
 0.1167683938743E+01
 0.1203133581590E+01
 0.1236972154735E+01
 0.1267910579523E+01
 0.1294920146531E+01
 0.1317304831909E+01
 0.1334703999005E+01
 0.1347042527410E+01
 0.1354454295258E+01
 0.1357202189072E+01
 0.1355609596144E+01
 0.1350010069846E+01
 0.1340715867768E+01
 0.1328002942520E+01
 0.1312108954608E+01
 0.1293241031979E+01
 0.1271591496571E+01
 0.1247358657023E+01
 0.1220772785640E+01
 0.1192126618085E+01
 0.1161808500363E+01
 0.1130339373756E+01
 0.1098416052007E+01
 0.1066971034330E+01
 0.1037227473178E+01
 0.1010741277485E+01
 0.9894626918773E+00
 0.9758198818253E+00
 0.9728035284790E+00
 0.9840037398486E+00
 0.1013516394938E+01
 0.1065621562138E+01
 0.1144180843797E+01
 0.1251835710069E+01
 0.1389187128046E+01
 0.1554140863598E+01
 0.1741614350774E+01
 0.1943736750009E+01
 0.2150574085838E+01
 0.2351242526501E+01
 0.1099332308648E+01
 0.1133228434473E+01
 0.1166932963246E+01
 0.1199153062986E+01
 0.1228698553146E+01
 0.1254601996235E+01
 0.1276185472215E+01
 0.1293069085840E+01
 0.1305133379263E+01
 0.1312456317744E+01
 0.1315244476664E+01
 0.1313771992590E+01
 0.1308334148819E+01
 0.1299217225444E+01
 0.1286683240902E+01
 0.1270966988103E+01
 0.1252282614057E+01
 0.1230838204558E+01
 0.1206855542749E+01
 0.1180595093795E+01
 0.1152385478030E+01
 0.1122655496799E+01
 0.1091969844983E+01
 0.1061070516414E+01
 0.1030932723714E+01
 0.1002817205605E+01
 0.9783118958841E+00
 0.9593899670449E+00
 0.9484835733097E+00
 0.9485493300334E+00
 0.9630747102342E+00
 0.9959463888719E+00
 0.1051100250188E+01
 0.1131929575451E+01
 0.1240554437432E+01
 0.1377124062642E+01
 0.1539301929531E+01
 0.1722082252752E+01
 0.1918026301279E+01
 0.2117927440078E+01
 0.2311790101371E+01
 0.1066775746787E+01
 0.1099007712079E+01
 0.1131051832552E+01
 0.1161722221268E+01
 0.1189919657462E+01
 0.1214735775453E+01
 0.1235514189469E+01
 0.1251862968917E+01
 0.1263626948761E+01
 0.1270836247985E+01
 0.1273647495953E+01
 0.1272289892142E+01
 0.1267022880866E+01
 0.1258107711148E+01
 0.1245792345418E+01
 0.1230307842010E+01
 0.1211873950017E+01
 0.1190712627608E+01
 0.1167066757852E+01
 0.1141224078741E+01
 0.1113545540326E+01
 0.1084496112806E+01
 0.1054679121870E+01
 0.1024875697990E+01
 0.9960968495432E+00
 0.9696331269141E+00
 0.9470957097958E+00
 0.9304708011310E+00
 0.9221836336446E+00
 0.9251455913971E+00
 0.9427326064782E+00
 0.9786213928779E+00
 0.1036420474031E+01
 0.1119097801560E+01
 0.1228320814099E+01
 0.1363866896097E+01
 0.1523222663336E+01
 0.1701483707464E+01
 0.1891612448073E+01
 0.2085050026816E+01
 0.2272585565577E+01
 0.1034351155376E+01
 0.1065001294678E+01
 0.1095463672177E+01
 0.1124649702935E+01
 0.1151544185856E+01
 0.1175295556087E+01
 0.1195271453585E+01
 0.1211073801621E+01
 0.1222519089380E+01
 0.1229596728842E+01
 0.1232419252663E+01
 0.1231175062382E+01
 0.1226090234799E+01
 0.1217402067289E+01
 0.1205344480816E+01
 0.1190144020913E+01
 0.1172024643438E+01
 0.1151220244214E+01
 0.1127992337851E+01
 0.1102652890917E+01
 0.1075591496297E+01
 0.1047304892570E+01
 0.1018429850627E+01
 0.9897806275691E+00
 0.9623972894360E+00
 0.9375928061262E+00
 0.9169934823306E+00
 0.9025896792433E+00
 0.8967903234165E+00
 0.9024526409541E+00
 0.9228352886888E+00
 0.9614081575886E+00
 0.1021472446394E+01
 0.1105613574252E+01
 0.1215109071894E+01
 0.1349432804231E+01
 0.1505946753827E+01
 0.1679863602033E+01
 0.1864516038841E+01
 0.2051921746228E+01
 0.2233561122125E+01
 0.1002045904858E+01
 0.1031190241010E+01
 0.1060143940600E+01
 0.1087907597293E+01
 0.1113543988714E+01
 0.1136256099434E+01
 0.1155437357217E+01
 0.1170688316432E+01
 0.1181803369220E+01
 0.1188737497381E+01
 0.1191564459876E+01
 0.1190435772422E+01
 0.1185546592804E+01
 0.1177111425702E+01
 0.1165350267534E+01
 0.1150484448759E+01
 0.1132740764328E+01
 0.1112363090547E+01
 0.1089629043185E+01
 0.1064871688892E+01
 0.1038505491166E+01
 0.1011054495000E+01
 0.9831837251545E+00
 0.9557346461424E+00
 0.9297698719813E+00
 0.9066178099408E+00
 0.8879124186538E+00
 0.8756403142298E+00
 0.8721861440565E+00
 0.8803460916616E+00
 0.9032586120554E+00
 0.9441931361049E+00
 0.1006165809342E+01
 0.1091421278747E+01
 0.1200903963976E+01
 0.1333842523142E+01
 0.1487515923532E+01
 0.1657263007573E+01
 0.1836756311498E+01
 0.2018525558922E+01
 0.2194657879706E+01
 0.9698481334999E+00
 0.9975568569391E+00
 0.1025069714489E+01
 0.1051469661527E+01
 0.1075892219774E+01
 0.1097592750257E+01
 0.1115991663258E+01
 0.1130691992568E+01
 0.1141471307928E+01
 0.1148255642986E+01
 0.1151084784079E+01
 0.1150077011515E+01
 0.1145398941380E+01
 0.1137243480795E+01
 0.1125816892181E+01
 0.1111334653408E+01
 0.1094025063688E+01
 0.1074140018841E+01
 0.1051970672330E+01
 0.1027868014704E+01
 0.1002267564839E+01
 0.9757161972347E+00
 0.9489020417540E+00
 0.9226879867028E+00
 0.8981529451653E+00
 0.8766341982929E+00
 0.8597665107435E+00
 0.8495257479092E+00
 0.8482655925805E+00
 0.8587161383756E+00
 0.8838951567606E+00
 0.9268805885014E+00
 0.9904272279615E+00
 0.1076479115894E+01
 0.1185698749663E+01
 0.1317119347700E+01
 0.1467969981560E+01
 0.1633719762715E+01
 0.1808351335385E+01
 0.1984847570452E+01
 0.2155825565614E+01
 0.9377465909953E+00
 0.9640844494323E+00
 0.9902193812063E+00
 0.1015311015586E+01
 0.1038563104607E+01
 0.1059281326958E+01
 0.1076913826939E+01
 0.1091069187092E+01
 0.1101512576701E+01
 0.1108145835698E+01
 0.1110979071718E+01
 0.1110100698017E+01
 0.1105651059895E+01
 0.1097802664189E+01
 0.1086748280051E+01
 0.1072696950752E+01
 0.1055877182608E+01
 0.1036546943071E+01
 0.1015008353005E+01
 0.9916271361619E+00
 0.9668560465288E+00
 0.9412603368974E+00
 0.9155461759804E+00
 0.8905922612355E+00
 0.8674878350267E+00
 0.8475729010897E+00
 0.8324767648946E+00
 0.8241583518201E+00
 0.8249348511176E+00
 0.8374668466065E+00
 0.8646530334798E+00
 0.9093908809226E+00
 0.9741983194453E+00
 0.1060757023685E+01
 0.1169493601688E+01
 0.1299288386787E+01
 0.1447346904582E+01
 0.1609268958327E+01
 0.1779318399918E+01
 0.1950877109708E+01
 0.2117022200237E+01
 0.9057305045744E+00
 0.9307571144160E+00
 0.9555723711382E+00
 0.9794078714587E+00
 0.1001531726846E+01
 0.1021298007751E+01
 0.1038182994847E+01
 0.1051803231552E+01
 0.1061915161102E+01
 0.1068400521141E+01
 0.1071243549310E+01
 0.1070505869029E+01
 0.1066303695158E+01
 0.1058790308004E+01
 0.1048145255948E+01
 0.1034570614077E+01
 0.1018293841161E+01
 0.9995770568711E+00
 0.9787307961845E+00
 0.9561323407613E+00
 0.9322478881575E+00
 0.9076566788747E+00
 0.8830779689765E+00
 0.8594008428596E+00
 0.8377191882922E+00
 0.8193699744154E+00
 0.8059713148264E+00
 0.7994597338334E+00
 0.8021114189351E+00
 0.8165154390512E+00
 0.8454547653003E+00
 0.8916589658243E+00
 0.9574338761165E+00
 0.1044234961127E+01
 0.1152294340589E+01
 0.1280375999952E+01
 0.1425682919759E+01
 0.1583943325787E+01
 0.1749674322143E+01
 0.1916606753696E+01
 0.2078213703983E+01
 0.8737894648114E+00
 0.8975595551298E+00
 0.9211089274880E+00
 0.9437372980520E+00
 0.9647738391027E+00
 0.9836192259972E+00
 0.9997779988229E+00
 0.1012876514823E+01
 0.1022665508244E+01
 0.1029010103509E+01
 0.1031872018263E+01
 0.1031288871926E+01
 0.1027354743783E+01
 0.1020204819589E+01
 0.1010005717590E+01
 0.9969520546394E+00
 0.9812690348468E+00
 0.9632210533373E+00
 0.9431245444672E+00
 0.9213652147580E+00
 0.8984189722078E+00
 0.8748747446944E+00
 0.8514600642157E+00
 0.8290691873309E+00
 0.8087952468493E+00
 0.7919667876549E+00
 0.7801854746520E+00
 0.7753606060005E+00
 0.7797237410911E+00
 0.7957916300365E+00
 0.8262362881112E+00
 0.8736330696762E+00
 0.9401003833448E+00
 0.1026901528928E+01
 0.1134111462162E+01
 0.1260409404069E+01
 0.1403012620260E+01
 0.1557773585726E+01
 0.1719435724996E+01
 0.1882032348938E+01
 0.2039373540357E+01
 0.8419133273994E+00
 0.8644769237362E+00
 0.8868099038825E+00
 0.9082770115640E+00
 0.9282656896558E+00
 0.9462215672359E+00
 0.9616773378653E+00
 0.9742705442386E+00
 0.9837486479032E+00
 0.9899631027773E+00
 0.9928560270569E+00
 0.9924435371720E+00
 0.9887994189867E+00
 0.9820418421329E+00
 0.9723247942026E+00
 0.9598349845860E+00
 0.9447942085066E+00
 0.9274673155622E+00
 0.9081741828554E+00
 0.8873058749197E+00
 0.8653443614319E+00
 0.8428840723691E+00
 0.8206561637093E+00
 0.7995550649887E+00
 0.7806680279012E+00
 0.7653101185565E+00
 0.7550617117563E+00
 0.7518005959720E+00
 0.7577108172030E+00
 0.7752369909629E+00
 0.8069460489507E+00
 0.8552735574761E+00
 0.9221747839746E+00
 0.1008752860579E+01
 0.1114959386564E+01
 0.1239416392767E+01
 0.1379369077359E+01
 0.1530788726490E+01
 0.1688619237323E+01
 0.1847152970496E+01
 0.2000482328727E+01
 0.8100921285947E+00
 0.8314946832075E+00
 0.8526565868891E+00
 0.8730051902089E+00
 0.8919838669642E+00
 0.9090816737282E+00
 0.9238591568883E+00
 0.9359659956362E+00
 0.9451482987313E+00
 0.9512462970189E+00
 0.9541850310343E+00
 0.9539613421727E+00
 0.9506304114102E+00
 0.9442944109350E+00
 0.9350950006001E+00
 0.9232105732217E+00
 0.9088584195686E+00
 0.8923020907790E+00
 0.8738625258741E+00
 0.8539331680853E+00
 0.8329985069131E+00
 0.8116544248185E+00
 0.7906312236898E+00
 0.7708187252978E+00
 0.7532934341459E+00
 0.7393521824493E+00
 0.7305495668829E+00
 0.7287280291733E+00
 0.7360218160244E+00
 0.7548043692659E+00
 0.7875442186169E+00
 0.8365519789630E+00
 0.9036434781757E+00
 0.9897917594516E+00
 0.1094855904276E+01
 0.1217425159360E+01
 0.1354783961520E+01
 0.1503016236647E+01
 0.1657241639864E+01
 0.1811970845431E+01
 0.1961527464327E+01
 0.7783160122561E+00
 0.7985984860419E+00
 0.8186305393685E+00
 0.8379003098866E+00
 0.8559051604783E+00
 0.8721761572189E+00
 0.8863012248711E+00
 0.8979427556888E+00
 0.9068469627101E+00
 0.9128448520470E+00
 0.9158465408249E+00
 0.9158315660247E+00
 0.9128380429244E+00
 0.9069531037092E+00
 0.8983063848381E+00
 0.8870675946994E+00
 0.8734484888492E+00
 0.8577096466007E+00
 0.8401707799427E+00
 0.8212248380121E+00
 0.8013554147503E+00
 0.7811559481909E+00
 0.7613515924390E+00
 0.7428229982316E+00
 0.7266312998543E+00
 0.7140506028644E+00
 0.7066055294594E+00
 0.7060996897547E+00
 0.7146157030166E+00
 0.7344573661477E+00
 0.7680020194974E+00
 0.8174502891755E+00
 0.8845015400807E+00
 0.9700270548229E+00
 0.1073821793056E+01
 0.1194464209066E+01
 0.1329287672396E+01
 0.1474482297690E+01
 0.1625319960307E+01
 0.1776491241598E+01
 0.1922502748798E+01
 0.7465751666546E+00
 0.7657740665595E+00
 0.7847134606216E+00
 0.8029409970480E+00
 0.8200064352577E+00
 0.8354815190919E+00
 0.8489809128763E+00
 0.8601799575107E+00
 0.8688260085146E+00
 0.8747424380855E+00
 0.8778262578680E+00
 0.8780414324527E+00
 0.8754104097258E+00
 0.8700061805468E+00
 0.8619466646556E+00
 0.8513925621417E+00
 0.8385491339134E+00
 0.8236724045163E+00
 0.8070786764582E+00
 0.7891576554433E+00
 0.7703887679618E+00
 0.7513592775751E+00
 0.7327850888495E+00
 0.7155333323011E+00
 0.7006453737834E+00
 0.6893683252851E+00
 0.6831928701072E+00
 0.6838805618493E+00
 0.6934608814843E+00
 0.7141698718922E+00
 0.7483011638328E+00
 0.7979602320285E+00
 0.8647521316064E+00
 0.9494731517128E+00
 0.1051880582482E+01
 0.1170562345965E+01
 0.1302909473228E+01
 0.1445211936531E+01
 0.1592871514034E+01
 0.1740722314402E+01
 0.1883408020975E+01
 0.7148597695438E+00
 0.7330071442280E+00
 0.7508870603005E+00
 0.7681058961818E+00
 0.7842645191078E+00
 0.7989740782393E+00
 0.8118751736166E+00
 0.8226560119297E+00
 0.8310657461726E+00
 0.8369213353296E+00
 0.8401081981178E+00
 0.8405762412142E+00
 0.8383335143845E+00
 0.8334397127978E+00
 0.8260013517927E+00
 0.8161698473223E+00
 0.8041430843171E+00
 0.7901710502902E+00
 0.7745645756818E+00
 0.7577075120509E+00
 0.7400720049658E+00
 0.7222355922848E+00
 0.7049010248088E+00
 0.6889177731777E+00
 0.6753032434952E+00
 0.6652734787542E+00
 0.6602814346177E+00
 0.6620435544396E+00
 0.6725348492311E+00
 0.6939256589135E+00
 0.7284333995459E+00
 0.7780828791796E+00
 0.8444061002294E+00
 0.9281497583950E+00
 0.1029058452421E+01
 0.1145748728316E+01
 0.1275677631587E+01
 0.1415229144163E+01
 0.1559913895429E+01
 0.1704674912225E+01
 0.1844248783708E+01
 0.6831599403598E+00
 0.7002833368310E+00
 0.7171329452313E+00
 0.7333735522911E+00
 0.7486561045620E+00
 0.7626299112062E+00
 0.7749605291366E+00
 0.7853486424573E+00
 0.7935455019055E+00
 0.7993625376640E+00
 0.8026748133230E+00
 0.8034194974473E+00
 0.8015913964711E+00
 0.7972377107924E+00
 0.7904538745444E+00
 0.7813817968098E+00
 0.7702111902524E+00
 0.7571846334514E+00
 0.7426055543060E+00
 0.7268494918519E+00
 0.7103783689693E+00
 0.6937566357803E+00
 0.6776701871293E+00
 0.6629468990972E+00
 0.6505762173558E+00
 0.6417392011666E+00
 0.6378474142072E+00
 0.6405692232449E+00
 0.6518238826958E+00
 0.6737180430745E+00
 0.7084001724320E+00
 0.7578283307123E+00
 0.8234817654361E+00
 0.9060817969209E+00
 0.1005384275039E+01
 0.1120053009328E+01
 0.1247619592229E+01
 0.1384556993242E+01
 0.1526464953841E+01
 0.1668362370816E+01
 0.1805035856101E+01
 0.6514656982565E+00
 0.6675880794447E+00
 0.6834325133322E+00
 0.6987223013872E+00
 0.7131576580957E+00
 0.7264247964871E+00
 0.7382130577239E+00
 0.7482349138387E+00
 0.7562436813424E+00
 0.7620458407277E+00
 0.7655070939736E+00
 0.7665530210404E+00
 0.7651662420408E+00
 0.7613822291507E+00
 0.7552856760516E+00
 0.7470088211110E+00
 0.7367325004257E+00
 0.7246906312362E+00
 0.7111774518398E+00
 0.6965578952284E+00
 0.6812809036070E+00
 0.6658946759437E+00
 0.6510647551933E+00
 0.6375936895801E+00
 0.6264391408297E+00
 0.6187434044614E+00
 0.6158730673321E+00
 0.6194454636016E+00
 0.6313227211455E+00
 0.6535495845288E+00
 0.6882123745234E+00
 0.7372155457978E+00
 0.8020048605816E+00
 0.8832994626836E+00
 0.9808897661044E+00
 0.1093505528870E+01
 0.1218762147785E+01
 0.1353217720060E+01
 0.1492542714191E+01
 0.1631800238550E+01
 0.1765784985060E+01
 0.6197669249143E+00
 0.6349065494517E+00
 0.6497668562035E+00
 0.6641301728470E+00
 0.6777453432295E+00
 0.6903341725567E+00
 0.7016083922963E+00
 0.7112912686501E+00
 0.7191378373443E+00
 0.7249499319999E+00
 0.7285846728274E+00
 0.7299570560966E+00
 0.7290384931999E+00
 0.7258534720722E+00
 0.7204763118958E+00
 0.7130294815302E+00
 0.7036843349859E+00
 0.6926650038227E+00
 0.6802549035577E+00
 0.6668062440816E+00
 0.6527524239828E+00
 0.6386224352801E+00
 0.6250581840058E+00
 0.6128333568583E+00
 0.6028701755731E+00
 0.5962685066545E+00
 0.5943464178217E+00
 0.5986671966294E+00
 0.6110342710353E+00
 0.6334318468887E+00
 0.6678901975221E+00
 0.7162723242332E+00
 0.7800086553819E+00
 0.8598384643067E+00
 0.9556097829206E+00
 0.1066137598853E+01
 0.1189131657770E+01
 0.1321232834254E+01
 0.1458165313558E+01
 0.1595006000730E+01
 0.1726516460180E+01
 0.5880533317119E+00
 0.6022235953368E+00
 0.6161166675606E+00
 0.6295748008060E+00
 0.6423949550681E+00
 0.6543331074693E+00
 0.6651217280278E+00
 0.6744935692104E+00
 0.6822047388890E+00
 0.6880524783726E+00
 0.6918859234823E+00
 0.6936103740482E+00
 0.6931869505461E+00
 0.6906298908107E+00
 0.6860035387960E+00
 0.6794205663078E+00
 0.6710423449836E+00
 0.6610822323885E+00
 0.6498113517186E+00
 0.6375672600996E+00
 0.6247654554318E+00
 0.6119129837013E+00
 0.5996250455436E+00
 0.5886431328513E+00
 0.5798505336628E+00
 0.5743011219182E+00
 0.5732609187758E+00
 0.5782360359656E+00
 0.5909693157763E+00
 0.6133851987713E+00
 0.6474630758024E+00
 0.6950354261608E+00
 0.7575342514859E+00
 0.8357404418124E+00
 0.9295827687406E+00
 0.1037981878854E+01
 0.1158754310484E+01
 0.1288623258348E+01
 0.1423350964265E+01
 0.1557998787318E+01
 0.1687254714799E+01
 0.5563144294820E+00
 0.5695236658239E+00
 0.5824621530674E+00
 0.5950333399531E+00
 0.6070818616308E+00
 0.6183962751249E+00
 0.6287278335814E+00
 0.6378171380286E+00
 0.6454204328476E+00
 0.6513302015964E+00
 0.6553880430085E+00
 0.6574903582046E+00
 0.6575888552073E+00
 0.6556882591732E+00
 0.6518433795277E+00
 0.6461571405959E+00
 0.6387805424970E+00
 0.6299153238353E+00
 0.6198190187103E+00
 0.6088127996807E+00
 0.5972921234736E+00
 0.5857395772530E+00
 0.5747408114984E+00
 0.5650019942021E+00
 0.5573641483403E+00
 0.5528316882195E+00
 0.5526150590508E+00
 0.5581599085750E+00
 0.5711462010296E+00
 0.5934386253751E+00
 0.6269696864294E+00
 0.6735508006932E+00
 0.7346310286937E+00
 0.8110535480977E+00
 0.9028513302157E+00
 0.1009072819831E+01
 0.1127656396386E+01
 0.1255409476206E+01
 0.1388117941452E+01
 0.1520799043489E+01
 0.1648027822036E+01
 0.5245395010222E+00
 0.5367907417119E+00
 0.5487829469951E+00
 0.5604823951450E+00
 0.5717809656051E+00
 0.5824979556231E+00
 0.5924010865597E+00
 0.6012368201059E+00
 0.6087603244295E+00
 0.6147589697487E+00
 0.6190671491432E+00
 0.6215731025623E+00
 0.6222199855655E+00
 0.6210037642769E+00
 0.6179702033030E+00
 0.6132126113386E+00
 0.6068713441202E+00
 0.5991358262698E+00
 0.5902488873441E+00
 0.5805137915947E+00
 0.5703040415784E+00
 0.5600754895920E+00
 0.5503816239720E+00
 0.5418903711474E+00
 0.5353973256048E+00
 0.5318540746585E+00
 0.5324119515562E+00
 0.5384526655094E+00
 0.5515905284486E+00
 0.5736295820066E+00
 0.6064580412724E+00
 0.6518739679756E+00
 0.7113573026754E+00
 0.7858332744465E+00
 0.8754630421706E+00
 0.9794472669033E+00
 0.1095864674447E+01
 0.1221611795170E+01
 0.1352484758879E+01
 0.1483428313832E+01
 0.1608866978679E+01
 0.4927175746856E+00
 0.5040082635411E+00
 0.5150580258841E+00
 0.5258979526735E+00
 0.5364666717216E+00
 0.5466120414090E+00
 0.5561155105357E+00
 0.5647270396803E+00
 0.5721992441253E+00
 0.5783138681054E+00
 0.5828983514061E+00
 0.5858334806439E+00
 0.5870547212474E+00
 0.5865500623571E+00
 0.5843567690040E+00
 0.5805587524498E+00
 0.5752855716086E+00
 0.5687137978331E+00
 0.5610706300682E+00
 0.5526401186629E+00
 0.5437721378134E+00
 0.5348937772379E+00
 0.5265239951150E+00
 0.5192897809410E+00
 0.5139383165402E+00
 0.5113651065933E+00
 0.5126588383004E+00
 0.5191336128564E+00
 0.5323347821848E+00
 0.5540038080516E+00
 0.5859855864629E+00
 0.6300704719234E+00
 0.6877811196984E+00
 0.7601434574847E+00
 0.8474714208120E+00
 0.9491451368238E+00
 0.1063406697908E+01
 0.1187250585684E+01
 0.1316470481281E+01
 0.1445909082277E+01
 0.1569805749770E+01
 0.4608373982737E+00
 0.4711590582268E+00
 0.4812656271412E+00
 0.4912553271749E+00
 0.5011128793863E+00
 0.5107120732944E+00
 0.5198448410810E+00
 0.5282618816083E+00
 0.5357115340778E+00
 0.5419692852720E+00
 0.5468558350786E+00
 0.5502452264234E+00
 0.5520661194371E+00
 0.5522993474493E+00
 0.5509742815780E+00
 0.5481657427518E+00
 0.5439924639415E+00
 0.5386177845498E+00
 0.5322525437605E+00
 0.5251605006651E+00
 0.5176664776750E+00
 0.5101670355242E+00
 0.5031444917459E+00
 0.4971824404195E+00
 0.4929768628475E+00
 0.4913640581073E+00
 0.4933665578823E+00
 0.5002270038286E+00
 0.5134179241812E+00
 0.5346151343246E+00
 0.5656193446430E+00
 0.6082164515243E+00
 0.6639812606067E+00
 0.7340575747896E+00
 0.8189372070962E+00
 0.9182103083882E+00
 0.1030311174739E+01
 0.1152346562826E+01
 0.1280095416924E+01
 0.1408265006528E+01
 0.1530879102222E+01
 0.4288874130196E+00
 0.4382252619942E+00
 0.4473831711042E+00
 0.4565291245473E+00
 0.4656930016461E+00
 0.4747713061342E+00
 0.4835626177514E+00
 0.4918151910145E+00
 0.4992711444896E+00
 0.5056990027961E+00
 0.5109129445009E+00
 0.5147810124631E+00
 0.5172259875952E+00
 0.5182224161981E+00
 0.5177924441842E+00
 0.5160021987766E+00
 0.5129596825832E+00
 0.5088147888127E+00
 0.5037614716880E+00
 0.4980423601303E+00
 0.4919560648715E+00
 0.4858671271085E+00
 0.4802193867820E+00
 0.4755508392123E+00
 0.4725036961936E+00
 0.4718520905645E+00
 0.4745489508067E+00
 0.4817614619769E+00
 0.4948849208695E+00
 0.5155252386934E+00
 0.5454360508583E+00
 0.5863992871568E+00
 0.6400484287521E+00
 0.7076603338492E+00
 0.7899300053194E+00
 0.8866917725429E+00
 0.9966082828572E+00
 0.1116920912190E+01
 0.1243382269562E+01
 0.1370521885612E+01
 0.1492122042192E+01
 0.3968557249390E+00
 0.4051882360201E+00
 0.4133871854176E+00
 0.4216932230204E+00
 0.4301800136671E+00
 0.4387628052916E+00
 0.4472422990110E+00
 0.4553606835552E+00
 0.4628517284172E+00
 0.4694762736120E+00
 0.4750422488803E+00
 0.4794125068688E+00
 0.4825049329337E+00
 0.4842887080871E+00
 0.4847794844989E+00
 0.4840351801035E+00
 0.4821532870414E+00
 0.4792702051589E+00
 0.4755626889404E+00
 0.4712516470232E+00
 0.4666085957828E+00
 0.4619648584108E+00
 0.4577242523248E+00
 0.4543772475799E+00
 0.4525099638772E+00
 0.4528316071761E+00
 0.4562221681476E+00
 0.4637692939703E+00
 0.4767861494790E+00
 0.4968032861935E+00
 0.5255222089501E+00
 0.5647182501530E+00
 0.6160865693315E+00
 0.6810495328141E+00
 0.7605303109737E+00
 0.8546451356942E+00
 0.9623298626094E+00
 0.1080994837216E+01
 0.1206357701811E+01
 0.1332710115979E+01
 0.1453567405591E+01
 0.3647300740765E+00
 0.3720284822549E+00
 0.3792532510979E+00
 0.3867208040805E+00
 0.3945465709892E+00
 0.4026596178614E+00
 0.4108574447593E+00
 0.4188721111579E+00
 0.4264267809838E+00
 0.4332739377508E+00
 0.4392156423013E+00
 0.4441104643289E+00
 0.4478724474251E+00
 0.4504663830997E+00
 0.4519022200398E+00
 0.4522302345204E+00
 0.4515377499706E+00
 0.4499477940563E+00
 0.4476198229993E+00
 0.4447526943765E+00
 0.4415902394865E+00
 0.4384296752133E+00
 0.4356335645443E+00
 0.4336432275529E+00
 0.4329866476302E+00
 0.4343055880049E+00
 0.4384039446152E+00
 0.4462857478933E+00
 0.4591767325125E+00
 0.4785254935775E+00
 0.5059741043382E+00
 0.5432851999760E+00
 0.5922144027933E+00
 0.6543383324946E+00
 0.7308321310634E+00
 0.8221348740127E+00
 0.9275098109062E+00
 0.1044587993510E+01
 0.1169054098589E+01
 0.1294870517764E+01
 0.1415242307222E+01
 0.3324977986597E+00
 0.3387255544676E+00
 0.3449559722976E+00
 0.3515844408805E+00
 0.3587652034602E+00
 0.3664350145946E+00
 0.3743819480552E+00
 0.3823234504748E+00
 0.3899697781048E+00
 0.3970645208239E+00
 0.4034044158703E+00
 0.4088447829647E+00
 0.4132969548024E+00
 0.4167223587556E+00
 0.4191260806578E+00
 0.4205513980998E+00
 0.4210759246112E+00
 0.4208096049158E+00
 0.4198947197605E+00
 0.4185080148884E+00
 0.4168653535656E+00
 0.4152292881964E+00
 0.4139202318872E+00
 0.4133290595791E+00
 0.4139238879343E+00
 0.4162768167058E+00
 0.4211127437300E+00
 0.4293481166406E+00
 0.4421156850673E+00
 0.4607744800611E+00
 0.4868976082432E+00
 0.5222251461219E+00
 0.5685669869183E+00
 0.6276578243527E+00
 0.7009460427145E+00
 0.7892373986249E+00
 0.8921852226950E+00
 0.1007714478365E+01
 0.1131509370843E+01
 0.1257066940597E+01
 0.1377161916285E+01
 0.3001457926562E+00
 0.3052579832547E+00
 0.3104690180257E+00
 0.3162563189964E+00
 0.3228086731987E+00
 0.3300628895962E+00
 0.3377903950573E+00
 0.3456891854018E+00
 0.3534543817800E+00
 0.3608203815413E+00
 0.3675793697880E+00
 0.3735845974424E+00
 0.3787458929940E+00
 0.3830223828618E+00
 0.3864151671356E+00
 0.3889612313172E+00
 0.3907290473887E+00
 0.3918159322907E+00
 0.3923473394711E+00
 0.3924781227541E+00
 0.3923962190919E+00
 0.3923293103202E+00
 0.3925551265659E+00
 0.3934131623794E+00
 0.3953102891462E+00
 0.3987470717190E+00
 0.4043668445803E+00
 0.4129947507660E+00
 0.4256649297617E+00
 0.4436384446033E+00
 0.4684077938892E+00
 0.5016766948584E+00
 0.5452973443519E+00
 0.6011600115837E+00
 0.6710030546093E+00
 0.7560446689024E+00
 0.8564006225545E+00
 0.9703762267274E+00
 0.1093757589933E+01
 0.1219415325754E+01
 0.1339312900581E+01
 0.2676604550476E+00
 0.2716032442946E+00
 0.2757653078831E+00
 0.2807086995763E+00
 0.2866506171094E+00
 0.2935184194595E+00
 0.3010586258607E+00
 0.3089447288327E+00
 0.3168547365039E+00
 0.3245139189588E+00
 0.3317109669849E+00
 0.3382984038643E+00
 0.3441858231306E+00
 0.3493311298521E+00
 0.3537323313100E+00
 0.3574208748279E+00
 0.3604567580426E+00
 0.3629252868389E+00
 0.3649356637086E+00
 0.3666213616527E+00
 0.3681427756451E+00
 0.3696928869436E+00
 0.3715066003255E+00
 0.3738714871777E+00
 0.3771321867161E+00
 0.3817162629635E+00
 0.3881833497869E+00
 0.3972639555040E+00
 0.4098881425630E+00
 0.4272101075302E+00
 0.4506282734770E+00
 0.4817922313710E+00
 0.5225780808910E+00
 0.5750209590752E+00
 0.6411597123463E+00
 0.7226681082355E+00
 0.8202135869616E+00
 0.9325686216648E+00
 0.1055776968211E+01
 0.1182154871749E+01
 0.1301633711944E+01
 0.2350276196461E+00
 0.2377378545456E+00
 0.2408174896484E+00
 0.2449148709765E+00
 0.2502667289454E+00
 0.2567791958241E+00
 0.2641646483534E+00
 0.2720670784873E+00
 0.2801459086448E+00
 0.2881178617825E+00
 0.2957695308120E+00
 0.3029542052759E+00
 0.3095825442022E+00
 0.3156122925958E+00
 0.3210392442273E+00
 0.3258900874451E+00
 0.3302170969931E+00
 0.3340943388501E+00
 0.3376155700302E+00
 0.3408936948725E+00
 0.3440623120628E+00
 0.3472802743045E+00
 0.3507399401805E+00
 0.3546768421482E+00
 0.3593728324336E+00
 0.3651814697320E+00
 0.3725770688948E+00
 0.3821927215286E+00
 0.3948493651447E+00
 0.4115853264919E+00
 0.4336901030437E+00
 0.4627376733390E+00
 0.5006026034154E+00
 0.5494444754318E+00
 0.6116024843370E+00
 0.6892488964039E+00
 0.7836862912549E+00
 0.8943257818507E+00
 0.1017403670535E+01
 0.1145616352155E+01
 0.1264157541079E+01
 0.2022319788697E+00
 0.2036336673094E+00
 0.2055922592704E+00
 0.2088412583325E+00
 0.2136240928674E+00
 0.2198112873028E+00
 0.2270712135591E+00
 0.2350139647687E+00
 0.2432798167124E+00
 0.2515782453783E+00
 0.2596955421978E+00
 0.2674874027301E+00
 0.2748668584642E+00
 0.2817925176251E+00
 0.2882588170558E+00
 0.2942884904613E+00
 0.2999269306734E+00
 0.3052378974114E+00
 0.3103007456562E+00
 0.3152089318610E+00
 0.3200703682037E+00
 0.3250107440365E+00
 0.3301805433497E+00
 0.3357635133851E+00
 0.3419785046122E+00
 0.3491044060073E+00
 0.3575289784626E+00
 0.3677855399953E+00
 0.3805812089773E+00
 0.3968293798142E+00
 0.4176945581398E+00
 0.4446499605908E+00
 0.4795357013108E+00
 0.5246034034857E+00
 0.5824803348490E+00
 0.6558690666329E+00
 0.7468195715107E+00
 0.8554935108165E+00
 0.9787019853085E+00
 0.1108448519594E+01
 0.1231743713848E+01
 0.1692579134972E+00
 0.1692666173345E+00
 0.1700669854679E+00
 0.1724718496784E+00
 0.1767122476813E+00
 0.1826057975052E+00
 0.1897672865154E+00
 0.1977701060574E+00
 0.2062363076685E+00
 0.2148703037771E+00
 0.2234602136780E+00
 0.2318657758732E+00
 0.2400035564329E+00
 0.2478338863520E+00
 0.2553505828657E+00
 0.2625731827604E+00
 0.2695410765934E+00
 0.2763087821287E+00
 0.2829425230886E+00
 0.2895177522429E+00
 0.2961182130738E+00
 0.3028378658995E+00
 0.3097864918046E+00
 0.3170968172040E+00
 0.3249249986615E+00
 0.3334751631380E+00
 0.3430479729205E+00
 0.3540754674000E+00
 0.3671472219171E+00
 0.3830434709761E+00
 0.4027876308607E+00
 0.4277246008544E+00
 0.4596199841415E+00
 0.5007716830989E+00
 0.5540634310492E+00
 0.6227496349989E+00
 0.7097248622421E+00
 0.8161299646694E+00
 0.9393917799121E+00
 0.1071530938171E+01
 0.1198958075586E+01
 0.1360909071112E+00
 0.1346206023434E+00
 0.1342391920245E+00
 0.1358218522490E+00
 0.1395575856286E+00
 0.1451911918709E+00
 0.1522773052901E+00
 0.1603536718513E+00
 0.1690275397040E+00
 0.1780014523281E+00
 0.1870675674937E+00
 0.1960909746605E+00
 0.2049925127701E+00
 0.2137347240288E+00
 0.2223112776362E+00
 0.2307391222818E+00
 0.2390524933194E+00
 0.2472978152053E+00
 0.2555296559154E+00
 0.2638072365798E+00
 0.2721920947653E+00
 0.2807484372947E+00
 0.2895471221531E+00
 0.2986712733639E+00
 0.3082153661770E+00
 0.3183094813961E+00
 0.3291676427485E+00
 0.3411203954447E+00
 0.3546376634862E+00
 0.3703601159875E+00
 0.3891554266787E+00
 0.4122120633229E+00
 0.4411755039594E+00
 0.4783295959530E+00
 0.5267598134647E+00
 0.5902656071639E+00
 0.6726912352268E+00
 0.7763608929024E+00
 0.8996405669028E+00
 0.1034563454247E+01
 0.1166323935308E+01
 0.1027161336712E+00
 0.9969029368681E-01
 0.9814131978528E-01
 0.9895966065184E-01
 0.1022403035384E+00
 0.1076363131375E+00
 0.1146479245836E+00
 0.1227884892340E+00
 0.1316584797797E+00
 0.1409625770230E+00
 0.1504983858830E+00
 0.1601364914219E+00
 0.1698017243620E+00
 0.1794585799208E+00
 0.1891005632989E+00
 0.1987423680567E+00
 0.2084138158770E+00
 0.2181544263961E+00
 0.2280087619482E+00
 0.2380218892359E+00
 0.2482355282767E+00
 0.2586866268583E+00
 0.2694094713917E+00
 0.2804395924637E+00
 0.2918113986719E+00
 0.3035823062047E+00
 0.3158809917478E+00
 0.3289374009571E+00
 0.3431011990562E+00
 0.3588690257277E+00
 0.3769402363769E+00
 0.3983196323529E+00
 0.4244832346399E+00
 0.4576269593111E+00
 0.5009551567563E+00
 0.5587726899229E+00
 0.6359549246451E+00
 0.7362713075318E+00
 0.8593840126304E+00
 0.9974873882035E+00
 0.1134433720078E+01
 0.6912384494153E-01
 0.6453614818935E-01
 0.6198228285353E-01
 0.6221152294210E-01
 0.6510039038768E-01
 0.7021592666931E-01
 0.7706651741678E-01
 0.8518677972930E-01
 0.9418739738674E-01
 0.1037762958637E+00
 0.1137524136482E+00
 0.1239872694371E+00
 0.1344061426428E+00
 0.1449731574632E+00
 0.1556803985548E+00
 0.1665399338254E+00
 0.1775775610565E+00
 0.1888269773199E+00
 0.2003244752667E+00
 0.2121032988971E+00
 0.2241881455879E+00
 0.2365917265380E+00
 0.2493147090244E+00
 0.2623476674588E+00
 0.2756671983431E+00
 0.2892601374440E+00
 0.3031719824378E+00
 0.3175341577429E+00
 0.3325771288262E+00
 0.3486514083260E+00
 0.3662785595942E+00
 0.3862554037007E+00
 0.4098386214045E+00
 0.4390510638786E+00
 0.4771028283639E+00
 0.5287157580043E+00
 0.5998429307537E+00
 0.6959888779747E+00
 0.8185736906339E+00
 0.9603362432897E+00
 0.1103458606374E+01
 0.3534197944120E-01
 0.2970919549934E-01
 0.2737580337492E-01
 0.2792061314940E-01
 0.3035641809732E-01
 0.3453160531005E-01
 0.4051369837508E-01
 0.4809610763673E-01
 0.5690416759487E-01
 0.6658864434011E-01
 0.7689644815995E-01
 0.8766566886554E-01
 0.9880213538738E-01
 0.1102585921226E+00
 0.1220198675918E+00
 0.1340926225408E+00
 0.1464977722153E+00
 0.1592636767554E+00
 0.1724198980731E+00
 0.1859902747269E+00
 0.1999855882063E+00
 0.2143978261772E+00
 0.2291975950395E+00
 0.2443338067932E+00
 0.2597281748365E+00
 0.2752997750546E+00
 0.2910140037758E+00
 0.3069070649142E+00
 0.3230930371120E+00
 0.3397768686701E+00
 0.3572968384811E+00
 0.3762225424427E+00
 0.3975448918008E+00
 0.4230223318714E+00
 0.4557275370755E+00
 0.5006488933291E+00
 0.5647991017547E+00
 0.6557131464852E+00
 0.7771915855689E+00
 0.9230585659699E+00
 0.1073523224318E+01
 0.3963771562780E-02
 0.1362595230465E-01
 0.2168619485584E-01
 0.2518341006827E-01
 0.2454682960321E-01
 0.2137023261836E-01
 0.1802887320058E-01
 0.1774735340323E-01
 0.2235010318133E-01
 0.3044134868205E-01
 0.4037907852644E-01
 0.5136919905756E-01
 0.6307166869235E-01
 0.7533889900857E-01
 0.8811114043272E-01
 0.1013732765717E+00
 0.1151342830034E+00
 0.1294147344583E+00
 0.1442376214540E+00
 0.1596192404818E+00
 0.1755595206393E+00
 0.1920335480501E+00
 0.2089859645560E+00
 0.2263279687018E+00
 0.2439300206857E+00
 0.2616470253317E+00
 0.2793682896502E+00
 0.2970393255470E+00
 0.3146623931476E+00
 0.3323002211886E+00
 0.3501069165396E+00
 0.3684126301320E+00
 0.3879041137016E+00
 0.4099854878450E+00
 0.4374246434526E+00
 0.4752536323524E+00
 0.5314210795315E+00
 0.6157579096138E+00
 0.7352328011741E+00
 0.8855515537690E+00
 0.1044753396051E+01
 0.3373493315598E-01
 0.4675804902468E-01
 0.5602637652351E-01
 0.5966946331323E-01
 0.5820347654306E-01
 0.5303974870559E-01
 0.4551112250288E-01
 0.3658940195239E-01
 0.2702789314383E-01
 0.1791649701692E-01
 0.1280226842276E-01
 0.1742044617131E-01
 0.2794658896068E-01
 0.4047837885615E-01
 0.5404630821087E-01
 0.6839894815935E-01
 0.8346661920426E-01
 0.9923837503828E-01
 0.1157222467117E+00
 0.1329251915772E+00
 0.1508378550476E+00
 0.1694218661285E+00
 0.1886002453338E+00
 0.2082509959588E+00
 0.2281976603518E+00
 0.2482353607466E+00
 0.2681822827631E+00
 0.2878989795207E+00
 0.3072821309900E+00
 0.3262583010088E+00
 0.3448014101042E+00
 0.3629984535470E+00
 0.3812061944771E+00
 0.4003957600591E+00
 0.4228517869864E+00
 0.4533528278731E+00
 0.5005078724138E+00
 0.5766035021407E+00
 0.6927292653091E+00
 0.8476720740327E+00
 0.1017285203749E+01
 0.6845168250041E-01
 0.8378134772279E-01
 0.9439963195175E-01
 0.9846953229395E-01
 0.9689282948692E-01
 0.9141195626616E-01
 0.8346917049076E-01
 0.7396046401438E-01
 0.6337592923470E-01
 0.5198427041575E-01
 0.3997300007240E-01
 0.2760801311253E-01
 0.1585696468099E-01
 0.1106337484612E-01
 0.2086651895963E-01
 0.3544556572243E-01
 0.5155996367548E-01
 0.6872289934859E-01
 0.8682792197734E-01
 0.1058441856988E+00
 0.1257454403412E+00
 0.1464800797697E+00
 0.1679530351671E+00
 0.1900138653596E+00
 0.2124441795505E+00
 0.2349845353132E+00
 0.2573879455078E+00
 0.2794368980071E+00
 0.3009302355727E+00
 0.3216668507493E+00
 0.3414491947766E+00
 0.3601266699683E+00
 0.3777164867488E+00
 0.3947001318659E+00
 0.4127100013859E+00
 0.4359146140466E+00
 0.4731128376769E+00
 0.5389780837460E+00
 0.6497982340653E+00
 0.8092382511819E+00
 0.9912718845924E+00
 0.1036367000749E+00
 0.1218523086126E+00
 0.1340396339125E+00
 0.1385222912023E+00
 0.1368099963874E+00
 0.1310795145430E+00
 0.1229057928940E+00
 0.1131553818928E+00
 0.1022481590823E+00
 0.9038158243416E-01
 0.7765315383523E-01
 0.6412001295614E-01
 0.4983670181995E-01
 0.3492038501749E-01
 0.1988535428421E-01
 0.9756345901614E-02
 0.2027186094585E-01
 0.3801721199327E-01
 0.5754901788899E-01
 0.7832110911545E-01
 0.1002059610499E+00
 0.1231200854126E+00
 0.1469487737885E+00
 0.1715169640560E+00
 0.1965697363377E+00
 0.2217991510540E+00
 0.2469000128189E+00
 0.2715847390402E+00
 0.2955633482858E+00
 0.3185175364469E+00
 0.3400911685804E+00
 0.3599107922276E+00
 0.3776629563366E+00
 0.3933146031741E+00
 0.4077126854524E+00
 0.4240377201646E+00
 0.4505951832056E+00
 0.5039763594136E+00
 0.6067265929519E+00
 0.7700307272667E+00
 0.9668935997538E+00
 0.1392914967375E+00
 0.1608504387188E+00
 0.1746680564719E+00
 0.1794071038875E+00
 0.1774339553283E+00
 0.1714275084175E+00
 0.1630576555088E+00
 0.1531241846733E+00
 0.1419695354487E+00
 0.1297395895426E+00
 0.1164998936907E+00
 0.1022816034981E+00
 0.8709978886944E-01
 0.7096371201288E-01
 0.5389358350427E-01
 0.3598467725767E-01
 0.1788823546744E-01
 0.1027966354658E-01
 0.2814727221924E-01
 0.5034350811140E-01
 0.7414790759524E-01
 0.9924932674561E-01
 0.1254835578237E+00
 0.1526493958602E+00
 0.1804604422999E+00
 0.2085671576041E+00
 0.2366141710498E+00
 0.2642528539869E+00
 0.2911143918886E+00
 0.3167751213416E+00
 0.3407363977341E+00
 0.3624248434471E+00
 0.3812239357173E+00
 0.3965993706531E+00
 0.4085426784642E+00
 0.4189093079304E+00
 0.4346531264878E+00
 0.4732215576196E+00
 0.5641183436274E+00
 0.7298043539323E+00
 0.9443757155546E+00
 0.1754836898010E+00
 0.2008577544783E+00
 0.2162528262153E+00
 0.2209852072876E+00
 0.2185963471694E+00
 0.2122973381150E+00
 0.2037708970534E+00
 0.1936972522161E+00
 0.1823290033662E+00
 0.1697650696916E+00
 0.1560491092833E+00
 0.1412018855639E+00
 0.1252309037576E+00
 0.1081330120313E+00
 0.8989664182667E-01
 0.7050860645997E-01
 0.4997928586870E-01
 0.2848515611632E-01
 0.8987876117203E-02
 0.2223931795857E-01
 0.4753073616877E-01
 0.7477383784515E-01
 0.1034452377446E+00
 0.1332883413554E+00
 0.1639872123710E+00
 0.1951582736378E+00
 0.2264051560893E+00
 0.2573281460859E+00
 0.2874902206351E+00
 0.3163748232602E+00
 0.3433587262770E+00
 0.3676979037137E+00
 0.3885173244934E+00
 0.4048343550211E+00
 0.4158001474106E+00
 0.4217291610823E+00
 0.4273112135006E+00
 0.4490642062133E+00
 0.5231543482792E+00
 0.6883311571599E+00
 0.9240250906237E+00
 0.2123215404424E+00
 0.2420271471986E+00
 0.2588006422535E+00
 0.2631526406505E+00
 0.2601981998346E+00
 0.2536330839040E+00
 0.2450164287296E+00
 0.2348525850549E+00
 0.2233002019451E+00
 0.2104193075988E+00
 0.1962400140734E+00
 0.1807800220824E+00
 0.1640467151046E+00
 0.1460356587816E+00
 0.1267296078588E+00
 0.1060994923870E+00
 0.8410909760004E-01
 0.6073107560706E-01
 0.3601982373769E-01
 0.1121993741005E-01
 0.2058175810611E-01
 0.4961062321850E-01
 0.8071418085077E-01
 0.1132984951336E+00
 0.1470045641948E+00
 0.1814222989132E+00
 0.2161247533128E+00
 0.2506718822221E+00
 0.2845692999572E+00
 0.3172198719386E+00
 0.3478939373545E+00
 0.3757097041337E+00
 0.3995917361864E+00
 0.4181975260585E+00
 0.4299459821140E+00
 0.4335985050413E+00
 0.4308287968071E+00
 0.4347785371720E+00
 0.4860425733246E+00
 0.6455237002501E+00
 0.9063055424653E+00
 0.2499710165124E+00
 0.2845670606114E+00
 0.3022924309678E+00
 0.3057741258000E+00
 0.3021569518457E+00
 0.2954227050287E+00
 0.2868131336890E+00
 0.2766157270160E+00
 0.2649065634096E+00
 0.2517202200150E+00
 0.2370831586454E+00
 0.2210168631430E+00
 0.2035333155754E+00
 0.1846307182116E+00
 0.1642911388448E+00
 0.1424802138622E+00
 0.1191489182142E+00
 0.9423906073570E-01
 0.6769556355687E-01
 0.3951896904504E-01
 0.1064406757666E-01
 0.2378153870948E-01
 0.5716632521663E-01
 0.9253163924814E-01
 0.1293493419121E+00
 0.1671872721180E+00
 0.2055996814586E+00
 0.2441174747607E+00
 0.2821994341023E+00
 0.3191792714700E+00
 0.3542375772403E+00
 0.3863875619519E+00
 0.4144197790678E+00
 0.4367480178167E+00
 0.4512476974882E+00
 0.4553749837985E+00
 0.4474984455848E+00
 0.4346643759862E+00
 0.4567576182402E+00
 0.6017604957445E+00
 0.8920044761104E+00
 0.2886966405284E+00
 0.3287412865253E+00
 0.3466205051442E+00
 0.3486485422816E+00
 0.3444048106380E+00
 0.3376917955348E+00
 0.3292104293555E+00
 0.3190363436229E+00
 0.3071923634155E+00
 0.2937054667913E+00
 0.2786101815009E+00
 0.2619388112450E+00
 0.2437120503216E+00
 0.2239332439556E+00
 0.2025855961409E+00
 0.1796316888671E+00
 0.1550147149900E+00
 0.1286621667872E+00
 0.1004910801988E+00
 0.7042003703118E-01
 0.3841654100749E-01
 0.6027334299762E-02
 0.3268998957424E-01
 0.7082651832916E-01
 0.1108393256360E+00
 0.1522574015795E+00
 0.1946293366093E+00
 0.2374682733680E+00
 0.2801955802902E+00
 0.3220857525213E+00
 0.3622434840029E+00
 0.3996052690523E+00
 0.4328939523011E+00
 0.4604145177509E+00
 0.4797389788360E+00
 0.4875029129512E+00
 0.4792935020806E+00
 0.4539180410901E+00
 0.4421092778782E+00
 0.5587187320989E+00
 0.8826293394453E+00
 0.3289458324846E+00
 0.3748552233469E+00
 0.3914819082805E+00
 0.3914932799436E+00
 0.3869187302076E+00
 0.3805109984214E+00
 0.3722830446552E+00
 0.3621810701152E+00
 0.3502137016473E+00
 0.3364216997403E+00
 0.3208606846385E+00
 0.3035805568736E+00
 0.2846144285247E+00
 0.2639726753935E+00
 0.2416405436826E+00
 0.2175780655036E+00
 0.1917214138736E+00
 0.1639862450887E+00
 0.1342713568790E+00
 0.1024647773827E+00
 0.6845604446144E-01
 0.3218615457677E-01
 0.7550423714922E-02
 0.4800965719655E-01
 0.9127163501287E-01
 0.1364106234731E+00
 0.1829833376640E+00
 0.2304954380397E+00
 0.2783378115681E+00
 0.3257338772772E+00
 0.3717228872311E+00
 0.4151845222721E+00
 0.4548275182543E+00
 0.4889869804524E+00
 0.5152040230316E+00
 0.5298649159855E+00
 0.5272923173676E+00
 0.4980858868746E+00
 0.4529164149037E+00
 0.5214646403894E+00
 0.8814469762235E+00
 0.3715343997781E+00
 0.4231681887703E+00
 0.4361768437497E+00
 0.4339864730885E+00
 0.4297837743970E+00
 0.4239985215294E+00
 0.4161286129973E+00
 0.4061309722670E+00
 0.3940343117763E+00
 0.3799202384244E+00
 0.3638773440951E+00
 0.3459793016178E+00
 0.3262746964805E+00
 0.3047822578349E+00
 0.2814896626254E+00
 0.2563542744435E+00
 0.2293049593541E+00
 0.2002455087733E+00
 0.1690577728684E+00
 0.1356058923256E+00
 0.9974228730894E-01
 0.6131795629071E-01
 0.2025456780643E-01
 0.2390275275416E-01
 0.7042077972913E-01
 0.1193955557910E+00
 0.1703987822347E+00
 0.2229360143352E+00
 0.2763696162505E+00
 0.3298780922359E+00
 0.3824439556688E+00
 0.4328982939643E+00
 0.4799649724654E+00
 0.5221138690430E+00
 0.5571726844964E+00
 0.5817723124380E+00
 0.5908978587858E+00
 0.5715756718013E+00
 0.5046992506649E+00
 0.5034305430627E+00
 0.8965299122380E+00
 0.4181036543397E+00
 0.4734964810898E+00
 0.4792626651648E+00
 0.4760039519233E+00
 0.4732555853466E+00
 0.4683015406750E+00
 0.4608720529576E+00
 0.4509778678531E+00
 0.4387230607434E+00
 0.4242545827108E+00
 0.4077033990558E+00
 0.3891721292214E+00
 0.3687268056194E+00
 0.3463952171068E+00
 0.3221673751224E+00
 0.2959974689378E+00
 0.2678063712390E+00
 0.2374853367999E+00
 0.2048990074132E+00
 0.1698886997178E+00
 0.1322759314432E+00
 0.9186327939550E-01
 0.4844470071873E-01
 0.2249768684358E-02
 0.4803605034199E-01
 0.1009274357082E+00
 0.1565770644597E+00
 0.2144913226699E+00
 0.2739969766349E+00
 0.3342305220006E+00
 0.3941307056463E+00
 0.4524768458967E+00
 0.5079985304154E+00
 0.5593349055137E+00
 0.6048679820034E+00
 0.6421604183020E+00
 0.6674702365841E+00
 0.6739785591317E+00
 0.6167476905029E+00
 0.5364334645021E+00
 0.9513577757739E+00
 0.4724539533204E+00
 0.5233867372158E+00
 0.5183813180202E+00
 0.5183187406657E+00
 0.5176077213760E+00
 0.5136181666289E+00
 0.5066620914815E+00
 0.4968197589977E+00
 0.4843522500462E+00
 0.4694781704942E+00
 0.4523809976612E+00
 0.4331943602042E+00
 0.4120027579906E+00
 0.3888428895377E+00
 0.3637065322371E+00
 0.3365438248454E+00
 0.3072667147237E+00
 0.2757530408171E+00
 0.2418495684451E+00
 0.2053749871918E+00
 0.1661220733078E+00
 0.1238546449303E+00
 0.7829793316667E-01
 0.2915287744996E-01
 0.2383771318812E-01
 0.8068242881091E-01
 0.1411801210351E+00
 0.2048258073105E+00
 0.2708887099859E+00
 0.3384595978929E+00
 0.4064570768782E+00
 0.4736185043303E+00
 0.5385876196774E+00
 0.6001444278383E+00
 0.6572419893447E+00
 0.7093879578880E+00
 0.7541226548415E+00
 0.7941552464135E+00
 0.8035696433163E+00
 0.6820650960861E+00
 0.1129186320298E+01
 0.5455445266413E+00
 0.5580992080996E+00
 0.5549853145817E+00
 0.5621124812413E+00
 0.5630416063561E+00
 0.5602541159331E+00
 0.5536405259296E+00
 0.5437646205748E+00
 0.5309928332804E+00
 0.5156430383011E+00
 0.4979495541617E+00
 0.4780783221756E+00
 0.4561314249694E+00
 0.4321535378478E+00
 0.4061370841269E+00
 0.3780269821618E+00
 0.3477248669223E+00
 0.3150945828077E+00
 0.2799636819562E+00
 0.2421286901143E+00
 0.2013550980377E+00
 0.1573743167735E+00
 0.1098688108397E+00
 0.5842147512414E-01
 0.2496533691672E-02
 0.5828951064630E-01
 0.1238260031098E+00
 0.1935664578397E+00
 0.2666785680704E+00
 0.3421911616106E+00
 0.4190369469484E+00
 0.4959809495781E+00
 0.5714410760578E+00
 0.6439452543847E+00
 0.7133943881838E+00
 0.7805003061402E+00
 0.8492290383598E+00
 0.9160918983139E+00
 0.1036044867807E+01
 0.1015730595897E+01
 0.1825077404983E+01
 0.3394873879615E+00
 0.4807186362867E+00
 0.6174502071803E+00
 0.7442606256898E+00
 0.8589177609561E+00
 0.9607015107448E+00
 0.1049529699190E+01
 0.1125923448070E+01
 0.1190928067498E+01
 0.1245800631918E+01
 0.1291792927086E+01
 0.1330084099627E+01
 0.1361750309382E+01
 0.1387719442226E+01
 0.1408747338458E+01
 0.1425417248446E+01
 0.1437956655059E+01
 0.1446491616578E+01
 0.1451788043861E+01
 0.1455163400070E+01
 0.3275553392906E+00
 0.4679505421843E+00
 0.6036968985651E+00
 0.7302037890990E+00
 0.8452787136122E+00
 0.9481505083493E+00
 0.1038710493475E+01
 0.1117359135681E+01
 0.1184965354918E+01
 0.1242633993708E+01
 0.1291509944752E+01
 0.1332703668967E+01
 0.1367253656571E+01
 0.1396085254778E+01
 0.1419986416423E+01
 0.1439554109273E+01
 0.1455007678882E+01
 0.1466535935740E+01
 0.1474074550685E+01
 0.1476647922418E+01
 0.3162589678184E+00
 0.4562678470534E+00
 0.5913117734068E+00
 0.7174941739967E+00
 0.8328374916173E+00
 0.9365606199711E+00
 0.1028522096061E+01
 0.1109053990600E+01
 0.1178900500762E+01
 0.1239038400569E+01
 0.1290515625931E+01
 0.1334376220938E+01
 0.1371617888706E+01
 0.1403148433761E+01
 0.1429742706795E+01
 0.1451965252527E+01
 0.1470050765366E+01
 0.1484026133165E+01
 0.1493564524832E+01
 0.1498284623920E+01
 0.3056159868264E+00
 0.4454866669901E+00
 0.5800306482395E+00
 0.7059051430479E+00
 0.8213827244944E+00
 0.9257342911309E+00
 0.1018811582068E+01
 0.1100902096708E+01
 0.1172659972583E+01
 0.1234959425520E+01
 0.1288762525431E+01
 0.1335048968374E+01
 0.1374769940008E+01
 0.1408798411834E+01
 0.1437872987510E+01
 0.1462521312414E+01
 0.1482954016807E+01
 0.1499157271518E+01
 0.1510994660299E+01
 0.1518539408486E+01
 0.2955906908837E+00
 0.4354921266238E+00
 0.5696585541400E+00
 0.6952267280884E+00
 0.8107204659653E+00
 0.9154996822035E+00
 0.1009436765930E+01
 0.1092795393269E+01
 0.1166163849561E+01
 0.1230334580654E+01
 0.1286194742858E+01
 0.1334661801114E+01
 0.1376635332502E+01
 0.1412943112226E+01
 0.1444280592392E+01
 0.1471137613931E+01
 0.1493728411860E+01
 0.1512111083064E+01
 0.1526353089378E+01
 0.1536833988675E+01
 0.2861445984666E+00
 0.4261784058532E+00
 0.5600363833463E+00
 0.6852780355160E+00
 0.8006761261859E+00
 0.9057008853956E+00
 0.1000265834442E+01
 0.1084628271441E+01
 0.1159329597312E+01
 0.1225096927256E+01
 0.1282752142756E+01
 0.1333153269964E+01
 0.1377146184021E+01
 0.1415510128110E+01
 0.1448898073609E+01
 0.1477776167547E+01
 0.1502391541922E+01
 0.1522895732406E+01
 0.1539519522032E+01
 0.1552831903250E+01
 0.2772409295020E+00
 0.4174514983482E+00
 0.5510265312805E+00
 0.6759022935258E+00
 0.7910944074893E+00
 0.8961962271144E+00
 0.9911764692161E+00
 0.1076299636165E+01
 0.1152075278359E+01
 0.1219178427253E+01
 0.1278374138443E+01
 0.1330464765419E+01
 0.1376243547026E+01
 0.1416442594079E+01
 0.1451678978058E+01
 0.1482409670893E+01
 0.1508924489960E+01
 0.1531461525317E+01
 0.1550367717784E+01
 0.1566315695182E+01
 0.2688464208519E+00
 0.4092280160110E+00
 0.5425089120186E+00
 0.6669621270119E+00
 0.7818373005808E+00
 0.8868574823112E+00
 0.9820558469082E+00
 0.1067714163044E+01
 0.1144321881540E+01
 0.1212512729714E+01
 0.1273002542338E+01
 0.1326542675978E+01
 0.1373877110345E+01
 0.1415695266058E+01
 0.1452586090937E+01
 0.1485006295360E+01
 0.1513287828693E+01
 0.1537739097618E+01
 0.1558783128506E+01
 0.1577131666494E+01
 0.2609315705904E+00
 0.4014345029804E+00
 0.5343783022750E+00
 0.6583367124782E+00
 0.7727820924394E+00
 0.8775690797591E+00
 0.9728007537997E+00
 0.1058783277689E+01
 0.1135995026270E+01
 0.1205037228790E+01
 0.1266583433413E+01
 0.1321339262468E+01
 0.1370004197160E+01
 0.1413230493635E+01
 0.1451585479049E+01
 0.1485529924738E+01
 0.1515432494604E+01
 0.1541654714833E+01
 0.1564663725129E+01
 0.1585163870983E+01
 0.2534704792179E+00
 0.3940065897732E+00
 0.5265425716376E+00
 0.6499197647446E+00
 0.7638199021101E+00
 0.8682274198147E+00
 0.9633176837708E+00
 0.1049425931175E+01
 0.1127026239899E+01
 0.1196694516626E+01
 0.1259068308077E+01
 0.1314812957336E+01
 0.1364588693031E+01
 0.1409015980992E+01
 0.1448645305109E+01
 0.1483942765110E+01
 0.1515306738589E+01
 0.1543136538896E+01
 0.1567919654629E+01
 0.1590322780969E+01
 0.2464404627485E+00
 0.3868881248853E+00
 0.5189212530003E+00
 0.6416180144619E+00
 0.7548545144092E+00
 0.8587402790506E+00
 0.9535228355281E+00
 0.1039569125981E+01
 0.1117353842013E+01
 0.1187433347393E+01
 0.1250414775041E+01
 0.1306928460954E+01
 0.1357600481483E+01
 0.1403024200823E+01
 0.1443736484461E+01
 0.1480208253549E+01
 0.1512860566916E+01
 0.1542118094255E+01
 0.1568472683380E+01
 0.1592538289830E+01
 0.2398216380563E+00
 0.3800303649550E+00
 0.5114443881294E+00
 0.6333500266630E+00
 0.7458014747301E+00
 0.8490263242614E+00
 0.9433420751256E+00
 0.1029148275732E+01
 0.1106923562220E+01
 0.1177209299644E+01
 0.1240587033737E+01
 0.1297656905807E+01
 0.1349015439717E+01
 0.1395232736300E+01
 0.1436834053108E+01
 0.1474293680685E+01
 0.1508048997564E+01
 0.1538540530814E+01
 0.1566255081272E+01
 0.1591750224291E+01
 0.2335964992310E+00
 0.3733912233195E+00
 0.5040515411568E+00
 0.6250452229884E+00
 0.7365873299153E+00
 0.8390146723816E+00
 0.9327108350867E+00
 0.1018107404973E+01
 0.1095688936263E+01
 0.1165985222086E+01
 0.1229556243578E+01
 0.1286976134457E+01
 0.1338815800717E+01
 0.1385625078849E+01
 0.1427918726630E+01
 0.1466172514271E+01
 0.1500834674564E+01
 0.1532354598778E+01
 0.1561209117530E+01
 0.1587903530555E+01
 0.2277495211184E+00
 0.3669345808969E+00
 0.4966909389958E+00
 0.6166430425970E+00
 0.7271489650510E+00
 0.8286444749094E+00
 0.9215739605049E+00
 0.1006399228710E+01
 0.1083611547324E+01
 0.1153731545851E+01
 0.1217300849736E+01
 0.1274871071208E+01
 0.1326990719548E+01
 0.1374191605803E+01
 0.1416978439835E+01
 0.1455826433428E+01
 0.1491190114624E+01
 0.1523522719602E+01
 0.1553289206377E+01
 0.1580951157828E+01
 0.2222668177040E+00
 0.3606296805017E+00
 0.4893187305721E+00
 0.6080922226418E+00
 0.7174330247529E+00
 0.8178645340913E+00
 0.9098855304469E+00
 0.9939851600252E+00
 0.1070661174411E+01
 0.1140426523013E+01
 0.1203806893402E+01
 0.1261334149329E+01
 0.1313536927372E+01
 0.1360930589788E+01
 0.1404009772958E+01
 0.1443247099875E+01
 0.1479099663621E+01
 0.1512021098095E+01
 0.1542464725301E+01
 0.1570858486122E+01
 0.2171358326639E+00
 0.3544505714989E+00
 0.4818983141453E+00
 0.5993501390298E+00
 0.7073953637159E+00
 0.8066329072516E+00
 0.8976086261446E+00
 0.9808352318684E+00
 0.1056815842128E+01
 0.1126056379967E+01
 0.1189068270210E+01
 0.1246365717249E+01
 0.1298459361476E+01
 0.1345849125447E+01
 0.1389019192836E+01
 0.1428437647365E+01
 0.1464561135387E+01
 0.1497841475528E+01
 0.1528721891384E+01
 0.1557606473311E+01
 0.2123450814776E+00
 0.3483756180074E+00
 0.4743997386566E+00
 0.5903822120569E+00
 0.6970005370762E+00
 0.7949165194178E+00
 0.8847150763417E+00
 0.9669279710258E+00
 0.1042061810368E+01
 0.1110615413259E+01
 0.1173086941419E+01
 0.1229974399837E+01
 0.1281771726845E+01
 0.1328963930208E+01
 0.1372024087968E+01
 0.1411413888914E+01
 0.1447587101124E+01
 0.1480992398525E+01
 0.1512065072137E+01
 0.1541194056060E+01
 0.2078839277350E+00
 0.3423870532557E+00
 0.4667991542101E+00
 0.5811613511672E+00
 0.6862213087332E+00
 0.7826907689934E+00
 0.8711851716631E+00
 0.9522502213923E+00
 0.1026393501159E+01
 0.1094106017926E+01
 0.1155873074441E+01
 0.1212177376985E+01
 0.1263496944695E+01
 0.1310301981432E+01
 0.1353053578228E+01
 0.1392205239068E+01
 0.1428205835678E+01
 0.1461500128643E+01
 0.1492517821669E+01
 0.1521640013358E+01
 0.2037423929553E+00
 0.3364705714575E+00
 0.4590783008046E+00
 0.5716674272603E+00
 0.6750381687136E+00
 0.7699391212478E+00
 0.8570073460780E+00
 0.9367969159010E+00
 0.1009813359432E+01
 0.1076538637717E+01
 0.1137445091454E+01
 0.1193000548458E+01
 0.1243667453035E+01
 0.1289900960272E+01
 0.1332149083271E+01
 0.1370855354961E+01
 0.1406461963452E+01
 0.1439409276695E+01
 0.1470123674524E+01
 0.1498984382229E+01
 0.1999109980607E+00
 0.3306149587664E+00
 0.4512240352314E+00
 0.5618867751892E+00
 0.6634388664512E+00
 0.7566527008779E+00
 0.8421778399370E+00
 0.9205708126528E+00
 0.9923316610618E+00
 0.1057931645014E+01
 0.1117829626467E+01
 0.1172478578886E+01
 0.1222325350802E+01
 0.1267809497772E+01
 0.1309364656146E+01
 0.1347422524362E+01
 0.1382416862141E+01
 0.1414783209968E+01
 0.1444946679367E+01
 0.1473289441254E+01
 0.1963806249535E+00
 0.3248117484151E+00
 0.4432278795723E+00
 0.5518117096574E+00
 0.6514179447767E+00
 0.7428298703211E+00
 0.8267003326891E+00
 0.9035821836571E+00
 0.9739662552290E+00
 0.1038311134406E+01
 0.1097061371060E+01
 0.1150654800548E+01
 0.1199522363761E+01
 0.1244087206280E+01
 0.1284767075416E+01
 0.1321979808556E+01
 0.1356148854763E+01
 0.1387704289190E+01
 0.1417071653890E+01
 0.1444640175354E+01
 0.1931423972432E+00
 0.3190548989076E+00
 0.4350855906457E+00
 0.5414400561001E+00
 0.6389762790731E+00
 0.7284758007985E+00
 0.8105855537771E+00
 0.8858484648809E+00
 0.9547422483993E+00
 0.1017710634464E+01
 0.1075182809948E+01
 0.1127580972296E+01
 0.1175319629414E+01
 0.1218804494763E+01
 0.1258435697153E+01
 0.1294614945290E+01
 0.1327753195406E+01
 0.1358274013345E+01
 0.1386604467745E+01
 0.1413144675581E+01
 0.1901875744818E+00
 0.3133404900456E+00
 0.4267967453340E+00
 0.5307746932668E+00
 0.6261206206721E+00
 0.7136020371872E+00
 0.7938508741228E+00
 0.8673938704766E+00
 0.9346916323213E+00
 0.9961707387479E+00
 0.1052243845608E+01
 0.1103316892217E+01
 0.1149787297589E+01
 0.1192042164247E+01
 0.1230462062339E+01
 0.1265430000815E+01
 0.1297341832065E+01
 0.1326613012004E+01
 0.1353672622666E+01
 0.1378935037168E+01
 0.1875074543437E+00
 0.3076664305627E+00
 0.4183643360590E+00
 0.5198231034247E+00
 0.6128631425076E+00
 0.6982260565289E+00
 0.7765198792709E+00
 0.8482489730167E+00
 0.9138528581082E+00
 0.9737386578465E+00
 0.1028301313031E+01
 0.1077929864054E+01
 0.1123003945323E+01
 0.1163890779850E+01
 0.1200949251189E+01
 0.1234540754142E+01
 0.1265042893759E+01
 0.1292860760549E+01
 0.1318425328428E+01
 0.1342168273969E+01
 0.1850932789565E+00
 0.3020321727538E+00
 0.4097943729516E+00
 0.5085969289098E+00
 0.5992209880709E+00
 0.6823708230369E+00
 0.7586219283535E+00
 0.8284502549209E+00
 0.8922703624000E+00
 0.9504676988819E+00
 0.1003418390862E+01
 0.1051494022589E+01
 0.1095055808979E+01
 0.1134449817950E+01
 0.1170010975390E+01
 0.1202075789068E+01
 0.1230999858902E+01
 0.1257174886835E+01
 0.1281032906291E+01
 0.1303025846872E+01
 0.1829361440086E+00
 0.2964384337724E+00
 0.4010954956945E+00
 0.4971115422650E+00
 0.5852158345966E+00
 0.6660643531042E+00
 0.7401917141652E+00
 0.8080396479307E+00
 0.8699940640701E+00
 0.9264166923101E+00
 0.9776639291518E+00
 0.1024089536912E+01
 0.1066035849075E+01
 0.1103826597977E+01
 0.1137770407156E+01
 0.1168175276927E+01
 0.1195370364302E+01
 0.1219730064648E+01
 0.1241685754875E+01
 0.1261712372243E+01
 0.1810268981195E+00
 0.2908869082027E+00
 0.3922785789051E+00
 0.4853856146233E+00
 0.5708734559045E+00
 0.6493392759450E+00
 0.7212688101549E+00
 0.7870640475581E+00
 0.8470788209090E+00
 0.9016493588239E+00
 0.9511116893759E+00
 0.9958016880245E+00
 0.1036042642405E+01
 0.1072134989394E+01
 0.1104358729616E+01
 0.1132989421826E+01
 0.1158324608911E+01
 0.1180716445745E+01
 0.1200592787653E+01
 0.1218453527734E+01
 0.1793560387690E+00
 0.2853799770392E+00
 0.3833563446630E+00
 0.4734407040642E+00
 0.5562233125359E+00
 0.6322324205142E+00
 0.7018972365055E+00
 0.7655748366609E+00
 0.8235838840794E+00
 0.8762336589970E+00
 0.9238395431826E+00
 0.9667198672267E+00
 0.1005179142690E+01
 0.1039493926969E+01
 0.1069913435503E+01
 0.1096676590104E+01
 0.1120043351595E+01
 0.1140337568921E+01
 0.1157979232346E+01
 0.1173493098468E+01
 0.1779135882986E+00
 0.2799203977608E+00
 0.3743429700760E+00
 0.4613008572176E+00
 0.5412981647945E+00
 0.6147844231925E+00
 0.6821250372216E+00
 0.7436274092300E+00
 0.7995723445486E+00
 0.8502411267433E+00
 0.8959286382173E+00
 0.9369365059743E+00
 0.9735513142973E+00
 0.1006025727005E+01
 0.1034576360829E+01
 0.1059401126026E+01
 0.1080715516697E+01
 0.1098807693249E+01
 0.1114083675559E+01
 0.1127089328503E+01
 0.1766889430252E+00
 0.2745109602789E+00
 0.3652536835501E+00
 0.4489922258161E+00
 0.5261337139271E+00
 0.5970393591489E+00
 0.6620038665144E+00
 0.7212806908233E+00
 0.7751105728505E+00
 0.8237462005344E+00
 0.8674625609840E+00
 0.9065459776604E+00
 0.9412666752988E+00
 0.9718542223202E+00
 0.9984914566459E+00
 0.1021330879779E+01
 0.1040535539255E+01
 0.1056348767103E+01
 0.1069154432977E+01
 0.1079511573040E+01
 0.1756706864897E+00
 0.2691541056042E+00
 0.3561043691419E+00
 0.4365427403748E+00
 0.5107683247071E+00
 0.5790444498403E+00
 0.6415886304948E+00
 0.6985966973084E+00
 0.7502676983624E+00
 0.7968256153142E+00
 0.8385265854689E+00
 0.8756435812930E+00
 0.9084328575504E+00
 0.9371027881691E+00
 0.9618023226789E+00
 0.9826344665318E+00
 0.9997005947613E+00
 0.1013187673036E+01
 0.1023446370053E+01
 0.1031039872919E+01
 0.1748463289603E+00
 0.2638514576439E+00
 0.3469111468373E+00
 0.4239818240164E+00
 0.4952428112020E+00
 0.5608498121244E+00
 0.6209371275129E+00
 0.6756400585261E+00
 0.7251150511055E+00
 0.7695577953827E+00
 0.8092069870526E+00
 0.8443246331978E+00
 0.8751562262391E+00
 0.9018922551299E+00
 0.9246493997123E+00
 0.9434780816566E+00
 0.9584075968079E+00
 0.9695540166602E+00
 0.9772201347063E+00
 0.9819672093514E+00
 0.1742019485689E+00
 0.2586032456040E+00
 0.3376899667771E+00
 0.4113402302353E+00
 0.4796003814408E+00
 0.5425083246730E+00
 0.6001097357364E+00
 0.6524775317790E+00
 0.6997255800674E+00
 0.7420222733610E+00
 0.7795904970703E+00
 0.8126838243683E+00
 0.8415407787427E+00
 0.8663388736653E+00
 0.8871667952990E+00
 0.9040216179283E+00
 0.9168496051698E+00
 0.9256778905215E+00
 0.9307422852123E+00
 0.9325992815240E+00
 0.1737216361079E+00
 0.2534075373930E+00
 0.3284562215366E+00
 0.3986500820235E+00
 0.4638868096702E+00
 0.5240756452683E+00
 0.5791691376202E+00
 0.6291774721984E+00
 0.6741731990691E+00
 0.7142990896249E+00
 0.7497639083710E+00
 0.7808150077272E+00
 0.8076876722848E+00
 0.8305527307828E+00
 0.8494788365294E+00
 0.8644137157769E+00
 0.8752109593815E+00
 0.8817869310429E+00
 0.8842837242873E+00
 0.8832527883482E+00
 0.1733866156230E+00
 0.2482591347879E+00
 0.3192244589025E+00
 0.3859452463321E+00
 0.4481509568406E+00
 0.5056103733284E+00
 0.5581800286713E+00
 0.6058091617848E+00
 0.6485319286959E+00
 0.6864679948256E+00
 0.7198136441250E+00
 0.7488113716121E+00
 0.7736957401149E+00
 0.7946372457687E+00
 0.8116967077405E+00
 0.8247848951096E+00
 0.8336595518808E+00
 0.8381015124619E+00
 0.8381180522554E+00
 0.8342528159621E+00
 0.1731736711992E+00
 0.2431480507248E+00
 0.3100083217315E+00
 0.3732625504618E+00
 0.4324457988325E+00
 0.4871744778404E+00
 0.5372088170610E+00
 0.5824420577842E+00
 0.6228748517230E+00
 0.6586073947271E+00
 0.6898251633062E+00
 0.7167658748589E+00
 0.7396633808252E+00
 0.7586914179292E+00
 0.7739167544346E+00
 0.7852387701359E+00
 0.7923327431541E+00
 0.7948258938620E+00
 0.7925227648771E+00
 0.7859368298010E+00
 0.1730523397020E+00
 0.2380564423231E+00
 0.3008220527834E+00
 0.3606439870133E+00
 0.4168303844344E+00
 0.4688335098462E+00
 0.5163232332765E+00
 0.5591448395767E+00
 0.5972726796885E+00
 0.6307927361987E+00
 0.6598816844286E+00
 0.6847712887453E+00
 0.7056910149723E+00
 0.7228158705289E+00
 0.7362259998358E+00
 0.7458421545225E+00
 0.7513122747349E+00
 0.7521233632998E+00
 0.7477847840895E+00
 0.7386829636608E+00
 0.1729770502310E+00
 0.2329579667766E+00
 0.2916824631527E+00
 0.3481444722751E+00
 0.4013704960755E+00
 0.4506567112835E+00
 0.4955921810555E+00
 0.5359843641630E+00
 0.5717919547151E+00
 0.6030943859867E+00
 0.6300620867377E+00
 0.6529189905621E+00
 0.6718832917341E+00
 0.6871203205763E+00
 0.6987204517742E+00
 0.7066376121013E+00
 0.7105720383235E+00
 0.7100540603786E+00
 0.7041864037187E+00
 0.6929918965315E+00
 0.1728759141357E+00
 0.2277906069634E+00
 0.2826471640385E+00
 0.3358329061639E+00
 0.3861363268537E+00
 0.4327182649654E+00
 0.4750865201936E+00
 0.5130240493647E+00
 0.5464926593467E+00
 0.5755753204423E+00
 0.6004379454007E+00
 0.6212956990068E+00
 0.6383480703902E+00
 0.6517319359175E+00
 0.6615221517937E+00
 0.6677049989241E+00
 0.6700048005848E+00
 0.6683061778144E+00
 0.6619323816223E+00
 0.6497089375373E+00
 0.1724641795913E+00
 0.2226878995681E+00
 0.2738421785538E+00
 0.3237682562904E+00
 0.3711998233665E+00
 0.4151069964550E+00
 0.4548788602312E+00
 0.4903191935121E+00
 0.5214262018220E+00
 0.5482883512734E+00
 0.5710699575688E+00
 0.5899778826881E+00
 0.6051890238635E+00
 0.6167946873585E+00
 0.6248060681865E+00
 0.6291794794608E+00
 0.6296777091858E+00
 0.6262537942328E+00
 0.6198044298051E+00
 0.6116019671136E+00
 0.1944482267148E+01
 0.1813582946604E+01
 0.1271857763568E+01
 0.9790117475596E+00
 0.7363760085218E+00
 0.5305079175708E+00
 0.3846107387298E+00
 0.2990982402580E+00
 0.2397447834526E+00
 0.1876441328590E+00
 0.1377260288886E+00
 0.8939509241728E-01
 0.4295489435182E-01
 0.1766831325667E-03
 0.3729062882090E-01
 0.6504638674537E-01
 0.8021622907498E-01
 0.7265397321629E-01
 0.4321599563486E-01
 0.8033144377458E-02
 0.1657932877045E+01
 0.1926716522953E+01
 0.1444246808324E+01
 0.1097384831709E+01
 0.8534252346436E+00
 0.6578069217864E+00
 0.5116436652406E+00
 0.4108971002754E+00
 0.3376788679684E+00
 0.2775039372795E+00
 0.2232334866264E+00
 0.1720997725581E+00
 0.1230123366465E+00
 0.7648328653156E-01
 0.3436379502679E-01
 0.1309555724829E-02
 0.3014235693507E-01
 0.4016777467207E-01
 0.2677637850617E-01
 0.5666315418365E-02
 0.1424255630339E+01
 0.1807082482478E+01
 0.1542759055718E+01
 0.1216188474422E+01
 0.9664613733693E+00
 0.7755033776925E+00
 0.6300604033823E+00
 0.5229306636227E+00
 0.4407435235653E+00
 0.3730785754347E+00
 0.3137263686729E+00
 0.2591490538904E+00
 0.2072703772562E+00
 0.1575245750780E+00
 0.1107674632500E+00
 0.6802807736818E-01
 0.2915363316771E-01
 0.4562511050290E-02
 0.2492494707309E-02
 0.1985702325430E-01
 0.1242736928107E+01
 0.1656746457408E+01
 0.1550146276211E+01
 0.1306536730822E+01
 0.1072476933199E+01
 0.8855958651528E+00
 0.7416317279606E+00
 0.6319760145648E+00
 0.5450624416779E+00
 0.4721895787164E+00
 0.4083612505616E+00
 0.3503436055420E+00
 0.2957143679419E+00
 0.2431091469708E+00
 0.1925066157336E+00
 0.1442950099756E+00
 0.9777044470526E-01
 0.6190752779885E-01
 0.4755883177586E-01
 0.5504314620615E-01
 0.1097523260887E+01
 0.1509342361573E+01
 0.1511012056841E+01
 0.1354684917451E+01
 0.1161075761894E+01
 0.9868390895513E+00
 0.8465727848006E+00
 0.7368994362117E+00
 0.6481124251734E+00
 0.5724477190363E+00
 0.5055983901351E+00
 0.4448517831383E+00
 0.3879166085275E+00
 0.3330405570847E+00
 0.2796079257969E+00
 0.2275184608365E+00
 0.1757438635344E+00
 0.1319422552481E+00
 0.1087171598993E+00
 0.1101989555217E+00
 0.9790439892764E+00
 0.1374106173785E+01
 0.1448582166633E+01
 0.1368516868323E+01
 0.1224970150779E+01
 0.1074710483195E+01
 0.9434309663877E+00
 0.8365293001035E+00
 0.7481838848248E+00
 0.6718408793166E+00
 0.6036752859821E+00
 0.5413914694673E+00
 0.4830044313612E+00
 0.4267022925257E+00
 0.3715516278613E+00
 0.3171540639124E+00
 0.2623282458686E+00
 0.2135042964877E+00
 0.1843653363405E+00
 0.1825691008611E+00
 0.8808750550131E+00
 0.1252897832920E+01
 0.1375597677868E+01
 0.1357426645558E+01
 0.1264252123072E+01
 0.1145179894941E+01
 0.1029382389689E+01
 0.9290753823356E+00
 0.8436453775197E+00
 0.7686259173013E+00
 0.7008677799616E+00
 0.6384593659656E+00
 0.5797583964171E+00
 0.5230819123475E+00
 0.4673976754836E+00
 0.4121756300754E+00
 0.3562261128082E+00
 0.3048083394942E+00
 0.2721192022011E+00
 0.2686990206356E+00
 0.7985462215223E+00
 0.1145309729276E+01
 0.1299086566399E+01
 0.1329242249914E+01
 0.1282046012844E+01
 0.1196932320730E+01
 0.1101746741021E+01
 0.1012294752908E+01
 0.9326635980290E+00
 0.8610915117345E+00
 0.7954978577521E+00
 0.7344680633429E+00
 0.6767408516669E+00
 0.6208700085106E+00
 0.5658697470264E+00
 0.5112016009007E+00
 0.4557685453119E+00
 0.4037217116064E+00
 0.3692846893998E+00
 0.3650868837342E+00
 0.7288091830126E+00
 0.1050200045489E+01
 0.1222997027560E+01
 0.1289848104677E+01
 0.1282335808937E+01
 0.1230680958606E+01
 0.1159072318698E+01
 0.1084153894058E+01
 0.1013325532739E+01
 0.9474815341358E+00
 0.8858848889564E+00
 0.8277900207102E+00
 0.7723911412241E+00
 0.7185602455704E+00
 0.6654542805665E+00
 0.6126056616287E+00
 0.5590710861632E+00
 0.5079700462197E+00
 0.4731322399324E+00
 0.4684600704402E+00
 0.6692241086016E+00
 0.9662415104759E+00
 0.1149538363136E+01
 0.1243520902262E+01
 0.1268982446179E+01
 0.1248273381482E+01
 0.1201167307827E+01
 0.1143332427279E+01
 0.1083963360410E+01
 0.1026100848864E+01
 0.9703639662257E+00
 0.9167841288916E+00
 0.8650866183119E+00
 0.8145322420928E+00
 0.7644907272077E+00
 0.7146148217037E+00
 0.6641450417414E+00
 0.6152591532663E+00
 0.5810284140249E+00
 0.5758684191795E+00
 0.6179092680232E+00
 0.8921232676291E+00
 0.1079902169622E+01
 0.1193321691396E+01
 0.1245365121221E+01
 0.1252031924583E+01
 0.1228781039310E+01
 0.1189332062996E+01
 0.1143407712576E+01
 0.1095499929071E+01
 0.1047382543057E+01
 0.9998536484330E+00
 0.9532002911395E+00
 0.9071203075040E+00
 0.8612480998559E+00
 0.8153887636575E+00
 0.7689760833270E+00
 0.7233448116719E+00
 0.6904949351787E+00
 0.6846951588722E+00
 0.5733828928498E+00
 0.8266237962362E+00
 0.1014665235732E+01
 0.1141417636598E+01
 0.1214295845970E+01
 0.1244355374054E+01
 0.1243244180769E+01
 0.1222366602546E+01
 0.1191072215079E+01
 0.1154619721921E+01
 0.1115623521148E+01
 0.1075535806315E+01
 0.1035172962346E+01
 0.9946813629998E+00
 0.9539921032341E+00
 0.9130837248310E+00
 0.8715800770333E+00
 0.8300747049974E+00
 0.7992333081213E+00
 0.7926353249491E+00
 0.5344590654663E+00
 0.7686326973929E+00
 0.9540240370049E+00
 0.1089321768378E+01
 0.1178045474735E+01
 0.1227503836088E+01
 0.1246178650135E+01
 0.1243174570380E+01
 0.1226914307423E+01
 0.1202851292186E+01
 0.1174100592181E+01
 0.1142595756217E+01
 0.1109596147247E+01
 0.1075668249644E+01
 0.1041049901809E+01
 0.1005907031457E+01
 0.9700447597838E+00
 0.9334159557186E+00
 0.9051351468614E+00
 0.8976653296451E+00
 0.5001765783303E+00
 0.7171519906124E+00
 0.8979363220286E+00
 0.1038066755774E+01
 0.1138408353173E+01
 0.1203496378813E+01
 0.1239293495824E+01
 0.1252832096607E+01
 0.1251333588813E+01
 0.1240022025189E+01
 0.1222202941914E+01
 0.1200098505891E+01
 0.1175291011244E+01
 0.1148705318807E+01
 0.1120875868129E+01
 0.1092167388973E+01
 0.1062562501216E+01
 0.1031474344642E+01
 0.1006288282453E+01
 0.9980152614614E+00
 0.4697485196705E+00
 0.6712893818174E+00
 0.8462096490260E+00
 0.9883305326242E+00
 0.1096774745983E+01
 0.1174073299057E+01
 0.1224252862672E+01
 0.1252596474442E+01
 0.1265051874944E+01
 0.1266335811689E+01
 0.1259691939644E+01
 0.1247446545684E+01
 0.1231370229003E+01
 0.1212659854889E+01
 0.1192118654302E+01
 0.1170324642446E+01
 0.1147455196287E+01
 0.1122504403259E+01
 0.1100981471704E+01
 0.1092150520277E+01
 0.4425250638063E+00
 0.6302487290892E+00
 0.7985587628513E+00
 0.9405283262081E+00
 0.1054199005197E+01
 0.1140693544735E+01
 0.1202596682907E+01
 0.1243786956262E+01
 0.1268999062194E+01
 0.1282291417402E+01
 0.1286661884339E+01
 0.1284382068684E+01
 0.1277275381083E+01
 0.1266705091844E+01
 0.1253692648687E+01
 0.1239044799374E+01
 0.1223193573773E+01
 0.1204898803822E+01
 0.1187702926305E+01
 0.1178765375338E+01
 0.4179645337947E+00
 0.5933190100562E+00
 0.7546453724880E+00
 0.8948816639749E+00
 0.1011459837018E+01
 0.1104549762990E+01
 0.1175697420845E+01
 0.1227699715281E+01
 0.1264215634999E+01
 0.1288595479088E+01
 0.1303476945046E+01
 0.1310955743560E+01
 0.1312784039425E+01
 0.1310368972183E+01
 0.1304864126735E+01
 0.1297284879984E+01
 0.1288418674179E+01
 0.1277144745775E+01
 0.1265095822166E+01
 0.1256797816661E+01
 0.3956060472897E+00
 0.5598657206931E+00
 0.7141075299751E+00
 0.8514756423893E+00
 0.9691104551024E+00
 0.1066589939781E+01
 0.1144740570909E+01
 0.1205551341620E+01
 0.1251776161737E+01
 0.1286081187095E+01
 0.1310694805581E+01
 0.1327463362582E+01
 0.1337972858495E+01
 0.1343549684472E+01
 0.1345342032447E+01
 0.1344472669984E+01
 0.1342060450138E+01
 0.1337695109313E+01
 0.1331828941043E+01
 0.1325414779266E+01
 0.3750442272004E+00
 0.5292995804011E+00
 0.6766169963601E+00
 0.8103044710335E+00
 0.9275131326403E+00
 0.1027539023328E+01
 0.1110719403919E+01
 0.1178446394525E+01
 0.1232735958327E+01
 0.1275642125053E+01
 0.1308990598585E+01
 0.1334357247918E+01
 0.1353119095286E+01
 0.1366437560310E+01
 0.1375308033669E+01
 0.1380729119848E+01
 0.1383909834337E+01
 0.1385099951446E+01
 0.1385762001937E+01
 0.1384029458141E+01
 0.3557357828719E+00
 0.5012718669446E+00
 0.6419531901105E+00
 0.7712885510765E+00
 0.8868590111760E+00
 0.9879031237198E+00
 0.1074443160030E+01
 0.1147368373615E+01
 0.1208100214304E+01
 0.1258190070166E+01
 0.1299103285120E+01
 0.1332163271813E+01
 0.1358555151059E+01
 0.1379279655858E+01
 0.1395148641765E+01
 0.1406861317170E+01
 0.1415184850648E+01
 0.1420433902020E+01
 0.1424169158122E+01
 0.1429805136412E+01
 0.1714507353469E+00
 0.2186831060311E+00
 0.2666873997771E+00
 0.3138219236087E+00
 0.3584440220924E+00
 0.3993036022780E+00
 0.4356296098886E+00
 0.4674650314496E+00
 0.4949547706235E+00
 0.5182133065267E+00
 0.5374168695159E+00
 0.5527782899323E+00
 0.5644984265158E+00
 0.5726886468316E+00
 0.5774079935610E+00
 0.5787730358082E+00
 0.5772012345271E+00
 0.5730650429685E+00
 0.5685911958907E+00
 0.5675770993015E+00
 0.1721192077763E+00
 0.2160195680721E+00
 0.2614972518702E+00
 0.3060712597429E+00
 0.3477061565708E+00
 0.3848801713200E+00
 0.4168455285965E+00
 0.4439302458728E+00
 0.4665036736368E+00
 0.4847815897393E+00
 0.4989972578566E+00
 0.5094174403822E+00
 0.5163211793264E+00
 0.5199320092990E+00
 0.5205146572839E+00
 0.5185595592987E+00
 0.5149179393416E+00
 0.5100127086287E+00
 0.5056323358962E+00
 0.4962501964590E+00
 0.1727833680769E+00
 0.2129106895980E+00
 0.2556784771493E+00
 0.2975632788982E+00
 0.3359965396246E+00
 0.3692264733493E+00
 0.3965897213131E+00
 0.4187040519494E+00
 0.4361829720356E+00
 0.4493847086765E+00
 0.4586371687319E+00
 0.4642993607948E+00
 0.4667537924861E+00
 0.4663407032086E+00
 0.4634716807262E+00
 0.4587151819416E+00
 0.4525943705138E+00
 0.4449031154032E+00
 0.4354066226176E+00
 0.4225374051126E+00
 0.1733052350580E+00
 0.2094704595310E+00
 0.2493517912940E+00
 0.2883917398961E+00
 0.3234082145789E+00
 0.3524229179272E+00
 0.3749110917857E+00
 0.3918382057339E+00
 0.4041041519483E+00
 0.4122376970303E+00
 0.4166789319965E+00
 0.4178798702157E+00
 0.4162956438313E+00
 0.4122992833681E+00
 0.4062734168918E+00
 0.3985828532174E+00
 0.3892268888587E+00
 0.3774322182015E+00
 0.3641515781612E+00
 0.3518855912635E+00
 0.1736710499825E+00
 0.2057210237345E+00
 0.2426183623210E+00
 0.2786480630866E+00
 0.3099969208362E+00
 0.3344891249929E+00
 0.3518115808438E+00
 0.3633553576130E+00
 0.3703552301058E+00
 0.3735236607517E+00
 0.3734024467232E+00
 0.3705030333693E+00
 0.3652882615924E+00
 0.3580670539007E+00
 0.3490814285116E+00
 0.3384531420400E+00
 0.3257862620423E+00
 0.3106501370428E+00
 0.2957323105011E+00
 0.2852059506375E+00
 0.1738871575997E+00
 0.2017234780069E+00
 0.2355652420897E+00
 0.2683997122178E+00
 0.2957742275509E+00
 0.3153872338942E+00
 0.3272388408881E+00
 0.3332385603761E+00
 0.3349970085299E+00
 0.3334008586623E+00
 0.3290580410410E+00
 0.3224864365786E+00
 0.3140912198309E+00
 0.3040579884780E+00
 0.2924744175740E+00
 0.2792975093048E+00
 0.2640105977696E+00
 0.2468941044140E+00
 0.2319019293632E+00
 0.2236055085843E+00
 0.1739808155724E+00
 0.1975627545294E+00
 0.2282805267659E+00
 0.2576806408390E+00
 0.2806954988568E+00
 0.2950136079349E+00
 0.3010836848119E+00
 0.3014353794724E+00
 0.2980763998060E+00
 0.2920298268027E+00
 0.2839134903899E+00
 0.2741923833683E+00
 0.2631636103464E+00
 0.2508707964675E+00
 0.2372825785977E+00
 0.2222999791598E+00
 0.2054482239499E+00
 0.1877531244887E+00
 0.1739174999171E+00
 0.1682095165459E+00
 0.1740015625773E+00
 0.1933503592264E+00
 0.2208474178558E+00
 0.2464809991206E+00
 0.2646446434129E+00
 0.2731897340951E+00
 0.2731828906982E+00
 0.2678731936324E+00
 0.2596519757953E+00
 0.2496069541501E+00
 0.2382919346216E+00
 0.2260590438626E+00
 0.2130625746776E+00
 0.1992096854579E+00
 0.1844001293380E+00
 0.1685587201300E+00
 0.1513222729269E+00
 0.1343764320051E+00
 0.1227500119642E+00
 0.1200385752287E+00
 0.1740271993781E+00
 0.1892267258424E+00
 0.2133354672313E+00
 0.2347282567579E+00
 0.2474155364294E+00
 0.2496551710050E+00
 0.2433303408474E+00
 0.2324854524192E+00
 0.2198273675196E+00
 0.2063967995457E+00
 0.1925939330821E+00
 0.1785999733794E+00
 0.1644047128872E+00
 0.1497981557217E+00
 0.1346589441959E+00
 0.1189858085847E+00
 0.1025501106810E+00
 0.8757406864181E-01
 0.7910360660546E-01
 0.7985075765883E-01
 0.1741731021819E+00
 0.1853650635563E+00
 0.2057855726361E+00
 0.2222599968533E+00
 0.2286893406944E+00
 0.2240656478367E+00
 0.2113001906842E+00
 0.1952499707672E+00
 0.1787900116852E+00
 0.1627593379743E+00
 0.1473044001524E+00
 0.1323846715946E+00
 0.1178188013547E+00
 0.1033102453276E+00
 0.8876061830817E-01
 0.7427378851882E-01
 0.5975997754483E-01
 0.4784786252407E-01
 0.4336624724531E-01
 0.4803381873530E-01
 0.1746061276592E+00
 0.1819755783786E+00
 0.1981856126889E+00
 0.2087849587502E+00
 0.2080088356955E+00
 0.1960013819208E+00
 0.1768875188652E+00
 0.1562406828591E+00
 0.1368523580562E+00
 0.1191683316638E+00
 0.1029843966984E+00
 0.8800671549688E-01
 0.7389835781596E-01
 0.6032088641939E-01
 0.4724284391992E-01
 0.3489706165918E-01
 0.2334528363045E-01
 0.1549365821797E-01
 0.1563240362965E-01
 0.2453338984896E-01
 0.1755652768599E+00
 0.1793088337926E+00
 0.1904301358576E+00
 0.1938275429557E+00
 0.1847527135001E+00
 0.1649948187719E+00
 0.1399737111681E+00
 0.1156924744760E+00
 0.9448915071373E-01
 0.7621389431280E-01
 0.6024516929431E-01
 0.4604249225712E-01
 0.3316256505673E-01
 0.2129824418589E-01
 0.1060737959034E-01
 0.2906296899179E-02
 0.7705635940301E-02
 0.1085403125695E-01
 0.5796042719129E-02
 0.8841258032489E-02
 0.1773930034035E+00
 0.1776552078804E+00
 0.1822521387405E+00
 0.1766491198878E+00
 0.1581179454037E+00
 0.1305932728574E+00
 0.1006238523646E+00
 0.7407249952660E-01
 0.5235748173339E-01
 0.3457915170203E-01
 0.1970683087441E-01
 0.7075228522896E-02
 0.4424334779260E-02
 0.1387793348243E-01
 0.2186826641005E-01
 0.2779088513618E-01
 0.3138429894125E-01
 0.2961694832526E-01
 0.1902695133028E-01
 0.1372554869155E-02
 0.1805840239850E+00
 0.1773328695503E+00
 0.1731043831214E+00
 0.1561387104375E+00
 0.1271300278349E+00
 0.9248048582181E-01
 0.5921762365678E-01
 0.3213838938747E-01
 0.1127821555469E-01
 0.5042636155176E-02
 0.1814479145846E-01
 0.2885188921130E-01
 0.3758409458850E-01
 0.4445059742357E-01
 0.4911918668528E-01
 0.5103752230992E-01
 0.4991699724390E-01
 0.4291171700312E-01
 0.2717238287091E-01
 0.4206732534322E-02
 0.1858642762892E+00
 0.1786446473235E+00
 0.1619460135202E+00
 0.1306707903460E+00
 0.9072626169929E-01
 0.5068922611609E-01
 0.1660320934768E-01
 0.9085113338963E-02
 0.2784533927869E-01
 0.4194467133354E-01
 0.5280411689239E-01
 0.6114268145629E-01
 0.6722573464945E-01
 0.7098366369545E-01
 0.7196399480236E-01
 0.6958582636112E-01
 0.6358998881138E-01
 0.5150023836743E-01
 0.3114351687207E-01
 0.4286518900557E-02
 0.1943238882671E+00
 0.1817482958326E+00
 0.1468461920323E+00
 0.9795467450668E-01
 0.4801344588424E-01
 0.6027465379571E-02
 0.2594159794573E-01
 0.4832328200980E-01
 0.6416723609156E-01
 0.7569310318762E-01
 0.8413136581704E-01
 0.8995907291789E-01
 0.9321916791606E-01
 0.9366081608627E-01
 0.9075741406814E-01
 0.8397217159422E-01
 0.7315805106559E-01
 0.5640464614673E-01
 0.3227543425282E-01
 0.2639259191685E-02
 0.2076558304732E+00
 0.1862771526929E+00
 0.1242123962014E+00
 0.5503161134171E-01
 0.1945630940248E-02
 0.4027271911521E-01
 0.6656731318554E-01
 0.8443181955667E-01
 0.9705837273993E-01
 0.1060577104727E+00
 0.1121495320741E+00
 0.1154656677428E+00
 0.1158309346780E+00
 0.1128518975270E+00
 0.1059923796045E+00
 0.9482973673593E-01
 0.7940997717023E-01
 0.5859212370342E-01
 0.3175996742830E-01
 0.1431043097632E-02
 0.2285679217850E+00
 0.1900614143121E+00
 0.8737552327523E-01
 0.2132029622334E-02
 0.5500752663860E-01
 0.8533436457957E-01
 0.1035895586149E+00
 0.1164625115960E+00
 0.1262584755577E+00
 0.1331384034115E+00
 0.1370967926892E+00
 0.1379619795652E+00
 0.1354233943843E+00
 0.1290090380452E+00
 0.1182285506144E+00
 0.1028247751017E+00
 0.8306824778245E-01
 0.5882682742333E-01
 0.3042674567871E-01
 0.2236328831016E-02
 0.2618085023534E+00
 0.1848328857044E+00
 0.2358245728339E-01
 0.6884249648408E-01
 0.1101383846037E+00
 0.1269156483371E+00
 0.1353437135425E+00
 0.1439889041172E+00
 0.1520077364703E+00
 0.1573068813542E+00
 0.1593287933698E+00
 0.1578100285529E+00
 0.1524078903141E+00
 0.1426207145820E+00
 0.1280854343026E+00
 0.1086311957375E+00
 0.8474796248418E-01
 0.5751915003632E-01
 0.2857633948729E-01
 0.2975462172716E-02
 0.3099948163828E+00
 0.1211388746450E+00
 0.6801036491602E-01
 0.1422824066762E+00
 0.1642762463186E+00
 0.1618860978980E+00
 0.1606886565241E+00
 0.1675162437320E+00
 0.1749790316172E+00
 0.1790302177767E+00
 0.1791816131180E+00
 0.1754109551271E+00
 0.1672484254134E+00
 0.1541275603620E+00
 0.1361640330623E+00
 0.1132487886009E+00
 0.8480053492949E-01
 0.5438132188443E-01
 0.2586737505085E-01
 0.3324163527438E-02
 0.1443128228331E+01
 0.1398020415259E+01
 0.1344170939891E+01
 0.1280668699878E+01
 0.1207445486558E+01
 0.1125315821550E+01
 0.1035248447464E+01
 0.9383905644110E+00
 0.8360699089197E+00
 0.7298240647646E+00
 0.6214409691849E+00
 0.5130188324282E+00
 0.4070485018173E+00
 0.3065171514913E+00
 0.2150200711262E+00
 0.1368375002560E+00
 0.7686833320111E-01
 0.4015841578892E-01
 0.3047320877970E-01
 0.4565267200477E-01
 0.1468040474970E+01
 0.1434302904044E+01
 0.1386204200573E+01
 0.1328413578268E+01
 0.1261316584697E+01
 0.1185258479034E+01
 0.1100904552388E+01
 0.1009137872144E+01
 0.9110340619315E+00
 0.8078596513349E+00
 0.7010992808250E+00
 0.5925120546305E+00
 0.4842263171961E+00
 0.3788842151910E+00
 0.2798456882386E+00
 0.1914490319219E+00
 0.1192806222409E+00
 0.7031465019377E-01
 0.5246537999489E-01
 0.7188578166657E-01
 0.1491279282294E+01
 0.1464991133074E+01
 0.1425582113215E+01
 0.1375076144403E+01
 0.1315057388955E+01
 0.1246089709165E+01
 0.1168709055269E+01
 0.1083606750409E+01
 0.9916463169032E+00
 0.8938610138304E+00
 0.7914611316428E+00
 0.6858650343141E+00
 0.5787670029731E+00
 0.4722620570025E+00
 0.3690572815980E+00
 0.2728081434730E+00
 0.1886266113022E+00
 0.1237825386853E+00
 0.8869852729117E-01
 0.9716411954354E-01
 0.1513685580128E+01
 0.1493226533754E+01
 0.1461576085081E+01
 0.1419204748483E+01
 0.1367112425946E+01
 0.1306046949301E+01
 0.1236560906288E+01
 0.1159252803205E+01
 0.1074850000023E+01
 0.9842300728772E+00
 0.8884262011765E+00
 0.7886375135149E+00
 0.6862601667008E+00
 0.5829593975759E+00
 0.4808154492650E+00
 0.3825997757746E+00
 0.2922726365139E+00
 0.2158723794066E+00
 0.1630798124485E+00
 0.1505501322103E+00
 0.1534587453306E+01
 0.1519235233463E+01
 0.1494517168012E+01
 0.1460021845022E+01
 0.1416172387841E+01
 0.1363493348756E+01
 0.1302492167759E+01
 0.1233700105041E+01
 0.1157748052540E+01
 0.1075405040553E+01
 0.9875946129647E+00
 0.8954040856982E+00
 0.8000998321152E+00
 0.7031648862465E+00
 0.6063863584634E+00
 0.5120433804809E+00
 0.4232968139898E+00
 0.3449638228650E+00
 0.2850705890988E+00
 0.2583932964973E+00
 0.1553520168147E+01
 0.1542813361486E+01
 0.1524287829882E+01
 0.1497118562765E+01
 0.1461278425326E+01
 0.1417015219791E+01
 0.1364675947186E+01
 0.1304682256802E+01
 0.1237554654229E+01
 0.1163945172063E+01
 0.1084659974622E+01
 0.1000673929054E+01
 0.9131435284161E+00
 0.8234281619089E+00
 0.7331374944052E+00
 0.6442411719476E+00
 0.5593134680740E+00
 0.4820754257560E+00
 0.4184988873404E+00
 0.3788144097814E+00
 0.1570119400348E+01
 0.1563728122383E+01
 0.1550771762061E+01
 0.1530296507482E+01
 0.1501989901583E+01
 0.1465850620480E+01
 0.1422037438116E+01
 0.1370819107971E+01
 0.1312573715049E+01
 0.1247805413959E+01
 0.1177163693515E+01
 0.1101458288341E+01
 0.1021668823856E+01
 0.9389508913579E+00
 0.8546434440440E+00
 0.7702889349073E+00
 0.6876962584525E+00
 0.6091090445812E+00
 0.5376791981722E+00
 0.4780982554008E+00
 0.1584081790260E+01
 0.1581717484745E+01
 0.1573789823246E+01
 0.1559378337459E+01
 0.1538020257023E+01
 0.1509530959688E+01
 0.1473896182705E+01
 0.1431224520903E+01
 0.1381735798042E+01
 0.1325767603453E+01
 0.1263788160678E+01
 0.1196408533850E+01
 0.1124389496785E+01
 0.1048639220311E+01
 0.9701969356384E+00
 0.8901956343071E+00
 0.8097922128094E+00
 0.7300572567670E+00
 0.6518061545601E+00
 0.5759048791981E+00
 0.1595165216379E+01
 0.1596537829384E+01
 0.1593150551705E+01
 0.1584195807025E+01
 0.1569158552403E+01
 0.1547738772245E+01
 0.1519787061570E+01
 0.1485269429013E+01
 0.1444254782439E+01
 0.1396916225025E+01
 0.1343539027188E+01
 0.1284529621902E+01
 0.1220420774339E+01
 0.1151867440735E+01
 0.1079625271087E+01
 0.1004497590469E+01
 0.9272250224066E+00
 0.8482640341864E+00
 0.7673682773497E+00
 0.6828015511888E+00
 0.1603181119873E+01
 0.1607977574572E+01
 0.1608670359395E+01
 0.1604592101751E+01
 0.1595237714693E+01
 0.1580248489793E+01
 0.1559382137914E+01
 0.1532492083765E+01
 0.1499518637434E+01
 0.1460489210434E+01
 0.1415523852724E+01
 0.1364842525431E+01
 0.1308770463180E+01
 0.1247737223388E+01
 0.1182262837903E+01
 0.1112919846707E+01
 0.1040249918977E+01
 0.9645934194841E+00
 0.8857328103867E+00
 0.8019753957518E+00
 0.1607989177563E+01
 0.1615862872786E+01
 0.1620181938207E+01
 0.1620416974538E+01
 0.1616105796836E+01
 0.1606871222720E+01
 0.1592414697138E+01
 0.1572508068782E+01
 0.1546989929443E+01
 0.1515767096339E+01
 0.1478819983557E+01
 0.1436210095680E+01
 0.1388087693207E+01
 0.1334697361584E+01
 0.1276378479542E+01
 0.1213556027601E+01
 0.1146714525563E+01
 0.1076342758783E+01
 0.1002824637459E+01
 0.9262723251788E+00
 0.1609468172407E+01
 0.1620021770530E+01
 0.1627498892701E+01
 0.1631487584397E+01
 0.1631580267078E+01
 0.1627405741378E+01
 0.1618636373110E+01
 0.1604988624574E+01
 0.1586223910712E+01
 0.1562151957595E+01
 0.1532636908509E+01
 0.1497605748468E+01
 0.1457058483848E+01
 0.1411079659514E+01
 0.1359851167831E+01
 0.1303667093230E+01
 0.1242953164807E+01
 0.1178298659781E+01
 0.1110528447289E+01
 0.1040919022297E+01
 0.1607515159480E+01
 0.1620292940795E+01
 0.1630423408083E+01
 0.1637586018022E+01
 0.1641427670540E+01
 0.1641596144328E+01
 0.1637753259156E+01
 0.1629580321564E+01
 0.1616781873146E+01
 0.1599090333230E+01
 0.1576272516594E+01
 0.1548138349778E+01
 0.1514551993095E+01
 0.1475445854837E+01
 0.1430838705551E+01
 0.1380860458416E+01
 0.1325788639255E+01
 0.1266106399593E+01
 0.1202601774922E+01
 0.1136529020805E+01
 0.1602050229534E+01
 0.1616546245449E+01
 0.1628781653300E+01
 0.1638505047303E+01
 0.1645412669266E+01
 0.1649177265367E+01
 0.1649462262792E+01
 0.1645929029558E+01
 0.1638241742267E+01
 0.1626072251801E+01
 0.1609106141424E+01
 0.1587050590244E+01
 0.1559644470285E+01
 0.1526671235053E+01
 0.1487975618406E+01
 0.1443486037825E+01
 0.1393245852454E+01
 0.1337457468357E+01
 0.1276539956419E+01
 0.1211189340878E+01
 0.1593014608752E+01
 0.1608683875145E+01
 0.1622436420504E+01
 0.1634073491350E+01
 0.1643334300547E+01
 0.1649918683895E+01
 0.1653499609292E+01
 0.1653730089768E+01
 0.1650247666875E+01
 0.1642678415649E+01
 0.1630641603206E+01
 0.1613755636864E+01
 0.1591645661094E+01
 0.1563953036246E+01
 0.1530346931048E+01
 0.1490538375989E+01
 0.1444297340235E+01
 0.1391473168852E+01
 0.1332016201933E+01
 0.1265992721114E+01
 0.1580371124677E+01
 0.1596639563271E+01
 0.1611289474409E+01
 0.1624163331461E+01
 0.1635037488873E+01
 0.1643639195806E+01
 0.1649656389276E+01
 0.1652743013431E+01
 0.1652522060045E+01
 0.1648587850670E+01
 0.1640508539854E+01
 0.1627829418332E+01
 0.1610077276153E+01
 0.1586765778883E+01
 0.1557401448114E+01
 0.1521489385602E+01
 0.1478537364204E+01
 0.1428057169243E+01
 0.1369564634435E+01
 0.1302580631497E+01
 0.1564105630254E+01
 0.1580378822525E+01
 0.1595282475559E+01
 0.1608692530186E+01
 0.1620417775494E+01
 0.1630212614689E+01
 0.1637784108050E+01
 0.1642795205311E+01
 0.1644865776561E+01
 0.1643572640839E+01
 0.1638449434618E+01
 0.1628986870831E+01
 0.1614633668217E+01
 0.1594798111878E+01
 0.1568849756198E+01
 0.1536120095196E+01
 0.1495900082593E+01
 0.1447431114742E+01
 0.1389887994079E+01
 0.1322365695048E+01
 0.1544228639427E+01
 0.1559899943857E+01
 0.1574398335656E+01
 0.1587627618177E+01
 0.1599425292364E+01
 0.1609572600160E+01
 0.1617799331254E+01
 0.1623785027697E+01
 0.1627157897972E+01
 0.1627492426969E+01
 0.1624306422767E+01
 0.1617058064110E+01
 0.1605143365581E+01
 0.1587894310514E+01
 0.1564577644275E+01
 0.1534393868108E+01
 0.1496475049027E+01
 0.1449878205428E+01
 0.1393564094973E+01
 0.1326350650653E+01
 0.1520776857267E+01
 0.1535235465167E+01
 0.1548663169276E+01
 0.1560986759885E+01
 0.1572069151872E+01
 0.1581718060425E+01
 0.1589689299567E+01
 0.1595686395460E+01
 0.1599357677943E+01
 0.1600291679319E+01
 0.1598011484463E+01
 0.1591968590890E+01
 0.1581536831373E+01
 0.1566006966133E+01
 0.1544582647197E+01
 0.1516378559261E+01
 0.1480421574065E+01
 0.1435655177472E+01
 0.1380945403698E+01
 0.1315049501094E+01
 0.1493814545466E+01
 0.1506454128987E+01
 0.1518149049479E+01
 0.1528843637006E+01
 0.1538422687921E+01
 0.1546719625800E+01
 0.1553519070422E+01
 0.1558555563128E+01
 0.1561509468998E+01
 0.1562000748469E+01
 0.1559581109427E+01
 0.1553724998451E+01
 0.1543819961409E+01
 0.1529157114004E+01
 0.1508922844985E+01
 0.1482193497709E+01
 0.1447935832574E+01
 0.1405018163548E+01
 0.1352242398612E+01
 0.1288433531169E+01
 0.1463435057326E+01
 0.1473663721477E+01
 0.1482977699793E+01
 0.1491332363971E+01
 0.1498630065082E+01
 0.1504728221473E+01
 0.1509442048796E+01
 0.1512543260454E+01
 0.1513755675867E+01
 0.1512748307011E+01
 0.1509126263689E+01
 0.1502419707934E+01
 0.1492071110905E+01
 0.1477421252440E+01
 0.1457694806459E+01
 0.1431987065405E+01
 0.1399254530999E+01
 0.1358314475167E+01
 0.1307863285210E+01
 0.1246554637905E+01
 0.1429763105951E+01
 0.1437014262908E+01
 0.1443324179566E+01
 0.1448652389925E+01
 0.1452913136120E+01
 0.1455984712785E+01
 0.1457713270836E+01
 0.1457912410169E+01
 0.1456359519747E+01
 0.1452789399462E+01
 0.1446885345777E+01
 0.1438267625093E+01
 0.1426479094862E+01
 0.1410967678260E+01
 0.1391065496558E+01
 0.1365964737740E+01
 0.1334690763553E+01
 0.1296072788731E+01
 0.1248711490209E+01
 0.1190902639874E+01
 0.1392952140091E+01
 0.1396693905248E+01
 0.1399413026562E+01
 0.1401064846340E+01
 0.1401568135916E+01
 0.1400817261536E+01
 0.1398687941635E+01
 0.1395038506912E+01
 0.1389707952075E+01
 0.1382511450008E+01
 0.1373233465447E+01
 0.1361618145992E+01
 0.1347356240602E+01
 0.1330067361864E+01
 0.1309275949612E+01
 0.1284378859383E+01
 0.1254601956966E+01
 0.1218942102608E+01
 0.1176084829277E+01
 0.1124289535800E+01
 0.1353187384344E+01
 0.1352933236373E+01
 0.1351524037500E+01
 0.1348899653832E+01
 0.1344973932766E+01
 0.1339650883085E+01
 0.1332832844970E+01
 0.1324423794352E+01
 0.1314329814657E+01
 0.1302457800674E+01
 0.1288712704043E+01
 0.1272992999374E+01
 0.1255183420911E+01
 0.1235143259205E+01
 0.1212687500658E+01
 0.1187556758580E+01
 0.1159370733558E+01
 0.1127559366033E+01
 0.1091269269912E+01
 0.1049260533169E+01
 0.1310687290228E+01
 0.1306008633881E+01
 0.1299996782879E+01
 0.1292561135135E+01
 0.1283599285919E+01
 0.1273017658295E+01
 0.1260741638677E+01
 0.1246720577314E+01
 0.1230930868390E+01
 0.1213378817659E+01
 0.1194104033775E+01
 0.1173183412148E+01
 0.1150735190906E+01
 0.1126921823971E+01
 0.1101949264250E+01
 0.1076058395035E+01
 0.1049501368238E+01
 0.1022494027135E+01
 0.9951403044400E+00
 0.9673253310701E+00
 0.1265703437923E+01
 0.1256243757758E+01
 0.1245232815582E+01
 0.1232530662678E+01
 0.1218006811240E+01
 0.1201564030753E+01
 0.1183148568616E+01
 0.1162755495736E+01
 0.1140433866270E+01
 0.1116294121796E+01
 0.1090519043386E+01
 0.1063379067959E+01
 0.1035252612453E+01
 0.1006651950686E+01
 0.9782548853512E+00
 0.9509413538107E+00
 0.9258310466201E+00
 0.9043080272837E+00
 0.8880054322033E+00
 0.8787306149168E+00
 0.1218520073457E+01
 0.1204010439772E+01
 0.1187696351109E+01
 0.1169366835814E+01
 0.1148853877159E+01
 0.1126054927626E+01
 0.1100939435313E+01
 0.1073552099720E+01
 0.1044018837453E+01
 0.1012558314660E+01
 0.9795007453702E+00
 0.9453155657669E+00
 0.9106501740884E+00
 0.8763830586733E+00
 0.8436963534958E+00
 0.8141751317111E+00
 0.7899425405210E+00
 0.7738374917320E+00
 0.7695952772606E+00
 0.7819126324278E+00
 0.1169453574264E+01
 0.1149728776414E+01
 0.1127912597537E+01
 0.1103702076736E+01
 0.1076889225484E+01
 0.1047373314959E+01
 0.1015157954003E+01
 0.9803489832191E+00
 0.9431594645544E+00
 0.9039242147522E+00
 0.8631253056836E+00
 0.8214303645820E+00
 0.7797468748290E+00
 0.7392980746017E+00
 0.7017300494026E+00
 0.6692666113824E+00
 0.6449413169758E+00
 0.6329603571022E+00
 0.6393065411396E+00
 0.6725014724662E+00
 0.1118852066664E+01
 0.1093865308761E+01
 0.1066461701042E+01
 0.1036233095780E+01
 0.1002942181898E+01
 0.9665111393671E+00
 0.9270020615703E+00
 0.8846059227184E+00
 0.8396448525119E+00
 0.7925882648632E+00
 0.7440826860549E+00
 0.6949959793189E+00
 0.6464783593768E+00
 0.6000452157198E+00
 0.5576911150799E+00
 0.5220523186473E+00
 0.4966527550113E+00
 0.4863103554184E+00
 0.4979220854042E+00
 0.5425698247721E+00
 0.1067094385882E+01
 0.1036924901502E+01
 0.1003961969144E+01
 0.9676973436719E+00
 0.9278953110612E+00
 0.8845421296183E+00
 0.8378017440764E+00
 0.7879929847812E+00
 0.7355886942525E+00
 0.6812330787904E+00
 0.6257737198521E+00
 0.5703058543823E+00
 0.5162277460903E+00
 0.4653069114518E+00
 0.4197574786479E+00
 0.3823290197107E+00
 0.3564044823506E+00
 0.3461038115676E+00
 0.3563496713929E+00
 0.3931351751594E+00
 0.1014584446261E+01
 0.9794255362226E+00
 0.9410280605148E+00
 0.8988184631954E+00
 0.8526239530649E+00
 0.8025647324866E+00
 0.7489773081732E+00
 0.6923805998960E+00
 0.6334758460480E+00
 0.5731693940885E+00
 0.5126095427242E+00
 0.4532304281159E+00
 0.3967961319648E+00
 0.3454359462050E+00
 0.3016551694816E+00
 0.2682891517067E+00
 0.2483279717054E+00
 0.2444183503138E+00
 0.2575843746228E+00
 0.2825556021411E+00
 0.9617356350822E+00
 0.9218611973154E+00
 0.8782250270003E+00
 0.8302602003020E+00
 0.7779588907000E+00
 0.7216771095944E+00
 0.6620201836614E+00
 0.5998025235317E+00
 0.5360545399999E+00
 0.4720538547096E+00
 0.4093640210337E+00
 0.3498665030025E+00
 0.2957705369158E+00
 0.2495792548092E+00
 0.2139758499080E+00
 0.1915611044006E+00
 0.1842991817034E+00
 0.1924059101815E+00
 0.2120713006267E+00
 0.2316793929714E+00
 0.9089769083495E+00
 0.8647227853481E+00
 0.8161082552771E+00
 0.7626931867210E+00
 0.7047791423014E+00
 0.6430800124684E+00
 0.5785679252242E+00
 0.5124341561775E+00
 0.4461054089844E+00
 0.3812756649625E+00
 0.3199256425434E+00
 0.2643076237342E+00
 0.2168718874932E+00
 0.1801037031218E+00
 0.1562228522387E+00
 0.1466626238864E+00
 0.1512104831778E+00
 0.1667230023803E+00
 0.1856603452284E+00
 0.1966896642232E+00
 0.8567691892627E+00
 0.8085270756080E+00
 0.7552482488543E+00
 0.6968106779891E+00
 0.6340034996291E+00
 0.5680108774023E+00
 0.5002292931001E+00
 0.4322417230432E+00
 0.3658441834893E+00
 0.3030620912125E+00
 0.2461231139607E+00
 0.1973629019695E+00
 0.1590442417361E+00
 0.1330668055292E+00
 0.1205335889012E+00
 0.1211331218881E+00
 0.1323721026328E+00
 0.1489257895677E+00
 0.1629614563486E+00
 0.1668630588012E+00
 0.8055919965545E+00
 0.7537861141434E+00
 0.6961852772705E+00
 0.6332713651246E+00
 0.5665085251048E+00
 0.4976092655802E+00
 0.4283616224259E+00
 0.3606518017379E+00
 0.2965045272466E+00
 0.2380742138869E+00
 0.1875557624157E+00
 0.1470119848453E+00
 0.1181173280317E+00
 0.1018165306313E+00
 0.9789250571936E-01
 0.1044792382397E+00
 0.1177131066895E+00
 0.1319198410058E+00
 0.1408981629382E+00
 0.1403411832976E+00
 0.7559257200610E+00
 0.7009499655040E+00
 0.6393482450812E+00
 0.5726086599202E+00
 0.5030285875635E+00
 0.4327834332912E+00
 0.3638987498518E+00
 0.2983706164947E+00
 0.2382457272470E+00
 0.1855689071556E+00
 0.1422346159607E+00
 0.1097688913010E+00
 0.8906155616774E-01
 0.8006362876097E-01
 0.8146738932181E-01
 0.9047430060909E-01
 0.1028896096583E+00
 0.1137960689107E+00
 0.1189059305575E+00
 0.1159968869903E+00
 0.7082337439326E+00
 0.6503280785997E+00
 0.5849632204473E+00
 0.5151957682765E+00
 0.4441580180672E+00
 0.3742390508879E+00
 0.3073842175916E+00
 0.2454897238894E+00
 0.1904367707835E+00
 0.1439716082391E+00
 0.1075186572841E+00
 0.8196401524466E-01
 0.6743527867444E-01
 0.6309400149762E-01
 0.6697012808309E-01
 0.7597715904287E-01
 0.8628343912048E-01
 0.9410353633193E-01
 0.9675523374868E-01
 0.9340309290630E-01
 0.6629886223623E+00
 0.6020137588707E+00
 0.5329999131223E+00
 0.4612628124726E+00
 0.3904795846144E+00
 0.3224646455744E+00
 0.2588786186197E+00
 0.2014215456585E+00
 0.1517108934078E+00
 0.1111044567717E+00
 0.8051454566283E-01
 0.6023436821468E-01
 0.4979607931139E-01
 0.4786901243055E-01
 0.5222778271126E-01
 0.5993021809231E-01
 0.6779226784609E-01
 0.7309064353522E-01
 0.7432553308028E-01
 0.7167415872386E-01
 0.6207146216410E+00
 0.5551839312066E+00
 0.4825298896041E+00
 0.4111977520704E+00
 0.3424299467168E+00
 0.2774338425728E+00
 0.2177497953511E+00
 0.1649128467243E+00
 0.1202535758626E+00
 0.8472918859013E-01
 0.5878252301998E-01
 0.4223021555725E-01
 0.3420181033117E-01
 0.3312944200682E-01
 0.3680289294219E-01
 0.4262629678216E-01
 0.4809124619463E-01
 0.5133871040841E-01
 0.5163090965757E-01
 0.4982694113910E-01
 0.5794885148143E+00
 0.5049102121795E+00
 0.4345984273503E+00
 0.3663039828950E+00
 0.3005129097504E+00
 0.2389811266357E+00
 0.1833117318619E+00
 0.1348720222144E+00
 0.9467691787360E-01
 0.6330073558478E-01
 0.4079331346471E-01
 0.2662544856104E-01
 0.1969612936539E-01
 0.1840253498150E-01
 0.2072817763800E-01
 0.2450192784648E-01
 0.2782971549157E-01
 0.2949712451034E-01
 0.2926570565687E-01
 0.2779838126719E-01
</DataArray>
<DataArray type="Float64" Name="OI" NumberOfComponents="1" ComponentName0="OI" format="ascii">
 0.3402103890969E+01
 0.3065918331553E+01
 0.2809544119421E+01
 0.2728248093635E+01
 0.2674052664378E+01
 0.2642898219465E+01
 0.2622351989753E+01
 0.2608644709006E+01
 0.2599178535036E+01
 0.2592619566867E+01
 0.2588183240948E+01
 0.2585457790870E+01
 0.2584264347466E+01
 0.2584590008723E+01
 0.2586547789489E+01
 0.2590356400087E+01
 0.2596332852120E+01
 0.2604896828893E+01
 0.2616585656781E+01
 0.2632090892326E+01
 0.2652325533389E+01
 0.2678582416927E+01
 0.2712918546363E+01
 0.2758292863777E+01
 0.2815448551084E+01
 0.2881475756010E+01
 0.2952968806596E+01
 0.3028095401396E+01
 0.3106995024353E+01
 0.3191325706499E+01
 0.3283507633020E+01
 0.3385932203618E+01
 0.3500067574019E+01
 0.3629391818956E+01
 0.3785393332272E+01
 0.3982943209336E+01
 0.4254658571927E+01
 0.4590697579632E+01
 0.5314396780298E+01
 0.5306553156498E+01
 0.1031815586166E+02
 0.2917180213230E+01
 0.3026928536249E+01
 0.2834803113441E+01
 0.2725515754064E+01
 0.2667590650283E+01
 0.2629269801070E+01
 0.2604259334912E+01
 0.2586969930403E+01
 0.2574813833858E+01
 0.2566169798145E+01
 0.2560114088792E+01
 0.2556117122382E+01
 0.2553914593735E+01
 0.2553425458595E+01
 0.2554706910038E+01
 0.2557929299150E+01
 0.2563365325701E+01
 0.2571390426322E+01
 0.2582495167172E+01
 0.2597313084655E+01
 0.2616675346151E+01
 0.2641706289699E+01
 0.2673753160005E+01
 0.2713877478506E+01
 0.2762062589685E+01
 0.2816992335804E+01
 0.2876862680181E+01
 0.2940413657491E+01
 0.3007373632922E+01
 0.3078319616946E+01
 0.3154223362630E+01
 0.3236096588152E+01
 0.3325287180765E+01
 0.3424502324377E+01
 0.3537649004024E+01
 0.3671676273545E+01
 0.3821698590862E+01
 0.4013769872358E+01
 0.4097635563062E+01
 0.3543946680621E+01
 0.6824725825859E+01
 0.2645844143812E+01
 0.2861968104226E+01
 0.2808276701136E+01
 0.2709980850819E+01
 0.2650676465159E+01
 0.2610596751384E+01
 0.2582791087343E+01
 0.2563138143202E+01
 0.2548934153862E+01
 0.2538599066374E+01
 0.2531145300303E+01
 0.2525989839589E+01
 0.2522813902228E+01
 0.2521487269147E+01
 0.2522021222895E+01
 0.2524541855504E+01
 0.2529276573747E+01
 0.2536550914022E+01
 0.2546794926850E+01
 0.2560558991609E+01
 0.2578539827617E+01
 0.2601552576370E+01
 0.2630249126619E+01
 0.2664788173870E+01
 0.2704887744921E+01
 0.2749928351380E+01
 0.2798999055083E+01
 0.2851209361875E+01
 0.2905992143081E+01
 0.2963112546210E+01
 0.3022471917850E+01
 0.3084090190925E+01
 0.3148385949346E+01
 0.3215590697549E+01
 0.3284774073044E+01
 0.3350520046492E+01
 0.3400372567215E+01
 0.3402966631943E+01
 0.3111345851945E+01
 0.2842959022035E+01
 0.5687179750923E+01
 0.2468381821212E+01
 0.2700372761494E+01
 0.2736034361877E+01
 0.2677601237145E+01
 0.2624467540766E+01
 0.2586041842087E+01
 0.2557714316070E+01
 0.2536856495666E+01
 0.2521340392483E+01
 0.2509747640927E+01
 0.2501155550251E+01
 0.2494982855490E+01
 0.2490892531362E+01
 0.2488725229622E+01
 0.2488457766376E+01
 0.2490177148246E+01
 0.2494065777277E+01
 0.2500394625254E+01
 0.2509522122258E+01
 0.2521895028933E+01
 0.2538032910159E+01
 0.2558410174490E+01
 0.2583174932908E+01
 0.2612043611860E+01
 0.2644636805115E+01
 0.2680645197364E+01
 0.2719601581210E+01
 0.2760809938780E+01
 0.2803474689650E+01
 0.2846765160016E+01
 0.2889797410243E+01
 0.2931720774982E+01
 0.2971632704000E+01
 0.3007457499947E+01
 0.3033781448737E+01
 0.3038842143323E+01
 0.3001850845143E+01
 0.2856305038144E+01
 0.2513277707726E+01
 0.2668247551552E+01
 0.5111191393416E+01
 0.2339870888937E+01
 0.2560991544045E+01
 0.2645581980931E+01
 0.2628251113205E+01
 0.2589507304890E+01
 0.2555696796370E+01
 0.2528850603947E+01
 0.2507987664706E+01
 0.2491891677338E+01
 0.2479501752651E+01
 0.2470052057805E+01
 0.2463024153543E+01
 0.2458096803609E+01
 0.2455102588528E+01
 0.2453995884413E+01
 0.2454830710310E+01
 0.2457745876857E+01
 0.2462954828062E+01
 0.2470736679664E+01
 0.2481420229322E+01
 0.2495331303591E+01
 0.2512642737744E+01
 0.2533168232432E+01
 0.2556404586310E+01
 0.2581930878234E+01
 0.2609557221827E+01
 0.2639002591102E+01
 0.2669640083123E+01
 0.2700492136263E+01
 0.2730301846948E+01
 0.2757601412641E+01
 0.2780757819346E+01
 0.2797646729330E+01
 0.2804282757357E+01
 0.2792498425553E+01
 0.2748073915649E+01
 0.2645323978947E+01
 0.2438836865902E+01
 0.2203653060353E+01
 0.2681016113230E+01
 0.4733387160386E+01
 0.2239791197119E+01
 0.2442892849299E+01
 0.2551715106322E+01
 0.2567423988240E+01
 0.2546454669769E+01
 0.2520001240570E+01
 0.2496250309061E+01
 0.2476490072999E+01
 0.2460520099590E+01
 0.2447789823560E+01
 0.2437772071863E+01
 0.2430062913294E+01
 0.2424389424738E+01
 0.2420596137996E+01
 0.2418627170565E+01
 0.2418510222862E+01
 0.2420343046210E+01
 0.2424280635015E+01
 0.2430518836980E+01
 0.2439262966159E+01
 0.2450653109494E+01
 0.2464621565997E+01
 0.2480768801206E+01
 0.2498482300168E+01
 0.2517315294824E+01
 0.2537098993820E+01
 0.2557598244087E+01
 0.2578180834807E+01
 0.2597727673715E+01
 0.2614688918815E+01
 0.2627171263645E+01
 0.2632921901492E+01
 0.2628896343050E+01
 0.2609937808187E+01
 0.2567031979908E+01
 0.2486239157057E+01
 0.2347895210107E+01
 0.2150972131606E+01
 0.2070782347916E+01
 0.2735455023593E+01
 0.4450164093440E+01
 0.2157529765318E+01
 0.2341962406641E+01
 0.2460910308928E+01
 0.2500483072591E+01
 0.2496941329146E+01
 0.2479524280136E+01
 0.2460153186420E+01
 0.2442420620902E+01
 0.2427220847313E+01
 0.2414582727354E+01
 0.2404281687902E+01
 0.2396069408524E+01
 0.2389749277142E+01
 0.2385196025052E+01
 0.2382355139866E+01
 0.2381234976360E+01
 0.2381895807049E+01
 0.2384435362183E+01
 0.2388966316921E+01
 0.2395574108864E+01
 0.2404235550956E+01
 0.2414702288536E+01
 0.2426442798814E+01
 0.2438791006080E+01
 0.2451277224789E+01
 0.2463705061370E+01
 0.2475815319166E+01
 0.2486936518138E+01
 0.2495849363990E+01
 0.2500820958898E+01
 0.2499682876074E+01
 0.2489781804064E+01
 0.2467568737318E+01
 0.2427597641567E+01
 0.2361574039278E+01
 0.2258973532654E+01
 0.2114058861741E+01
 0.1967408649707E+01
 0.2034740495822E+01
 0.2782864147033E+01
 0.4222979695050E+01
 0.2087100282917E+01
 0.2254311263129E+01
 0.2375547350551E+01
 0.2431242088152E+01
 0.2442910519584E+01
 0.2435033200197E+01
 0.2420907581903E+01
 0.2405925594762E+01
 0.2392044675468E+01
 0.2379890269963E+01
 0.2369574416128E+01
 0.2361034097114E+01
 0.2354170884357E+01
 0.2348905261834E+01
 0.2345194670479E+01
 0.2343035101632E+01
 0.2342453843774E+01
 0.2343494568596E+01
 0.2346190829286E+01
 0.2350518806239E+01
 0.2356320331846E+01
 0.2363217245707E+01
 0.2370599503529E+01
 0.2377776712179E+01
 0.2384257319290E+01
 0.2389797560373E+01
 0.2394086757318E+01
 0.2396408881968E+01
 0.2395488951684E+01
 0.2389509276407E+01
 0.2376178080845E+01
 0.2352690523022E+01
 0.2315452606796E+01
 0.2259539923702E+01
 0.2178702245892E+01
 0.2068344693498E+01
 0.1938767264665E+01
 0.1859537717638E+01
 0.2045642756708E+01
 0.2811770699273E+01
 0.4033660359405E+01
 0.2024896965479E+01
 0.2176859615973E+01
 0.2296139429243E+01
 0.2362079798794E+01
 0.2386122582894E+01
 0.2387403674535E+01
 0.2378939387107E+01
 0.2367215578223E+01
 0.2355090291678E+01
 0.2343756325941E+01
 0.2333668851723E+01
 0.2324966271085E+01
 0.2317663522965E+01
 0.2311739008070E+01
 0.2307171257227E+01
 0.2303950625574E+01
 0.2302076631527E+01
 0.2301543895665E+01
 0.2302314192807E+01
 0.2304269334962E+01
 0.2307144995666E+01
 0.2310473840698E+01
 0.2313602753761E+01
 0.2315833764599E+01
 0.2316656605297E+01
 0.2315778000853E+01
 0.2312833963667E+01
 0.2307077526640E+01
 0.2297225907273E+01
 0.2281469015850E+01
 0.2257542287743E+01
 0.2222742734781E+01
 0.2173861796514E+01
 0.2107162314814E+01
 0.2019426172782E+01
 0.1913127394107E+01
 0.1812662429160E+01
 0.1803122306766E+01
 0.2075218965279E+01
 0.2822852783664E+01
 0.3871957211861E+01
 0.1968631007297E+01
 0.2107285070681E+01
 0.2222405679876E+01
 0.2294349898219E+01
 0.2327971068288E+01
 0.2337499040627E+01
 0.2334717587079E+01
 0.2326544259535E+01
 0.2316493636995E+01
 0.2306253592468E+01
 0.2296605636477E+01
 0.2287892306386E+01
 0.2280250047068E+01
 0.2273723640495E+01
 0.2268320097053E+01
 0.2264030378266E+01
 0.2260831935825E+01
 0.2258676787930E+01
 0.2257464596556E+01
 0.2256999616339E+01
 0.2256938048600E+01
 0.2256755078113E+01
 0.2255778727027E+01
 0.2253314700624E+01
 0.2248840291980E+01
 0.2242021426048E+01
 0.2232454093135E+01
 0.2219385542835E+01
 0.2201575189035E+01
 0.2177307850900E+01
 0.2144488968695E+01
 0.2100750183120E+01
 0.2043625661366E+01
 0.1971048930308E+01
 0.1883361925002E+01
 0.1789939162439E+01
 0.1725559059904E+01
 0.1779763244861E+01
 0.2108816912438E+01
 0.2819828071090E+01
 0.3731327377427E+01
 0.1916785393544E+01
 0.2043857430057E+01
 0.2153771395164E+01
 0.2228743579599E+01
 0.2269472736939E+01
 0.2286089184272E+01
 0.2288716033630E+01
 0.2284189657497E+01
 0.2276416912046E+01
 0.2267477724991E+01
 0.2258444083960E+01
 0.2249853590125E+01
 0.2241965492981E+01
 0.2234895653776E+01
 0.2228685045160E+01
 0.2223330801620E+01
 0.2218794251668E+01
 0.2214992247638E+01
 0.2211773330864E+01
 0.2208881269920E+01
 0.2205916310601E+01
 0.2202320786362E+01
 0.2197421234388E+01
 0.2190536219670E+01
 0.2181139766052E+01
 0.2168872180142E+01
 0.2153311112119E+01
 0.2133729355533E+01
 0.2108978438079E+01
 0.2077518492371E+01
 0.2037552190731E+01
 0.1987239531831E+01
 0.1925120085125E+01
 0.1851077693934E+01
 0.1769079095215E+01
 0.1694377855614E+01
 0.1668123587189E+01
 0.1776369999252E+01
 0.2139551551000E+01
 0.2806481346987E+01
 0.3607254803844E+01
 0.1868317451609E+01
 0.1985285117634E+01
 0.2089594654930E+01
 0.2165547313217E+01
 0.2211325780016E+01
 0.2233814782016E+01
 0.2241381930982E+01
 0.2240436939859E+01
 0.2235038390505E+01
 0.2227541324204E+01
 0.2219258602602E+01
 0.2210904249996E+01
 0.2202855513206E+01
 0.2195300428155E+01
 0.2188317468752E+01
 0.2181914691223E+01
 0.2176043233128E+01
 0.2170592732685E+01
 0.2165372078150E+01
 0.2160080851735E+01
 0.2154283528569E+01
 0.2147408907380E+01
 0.2138795321547E+01
 0.2127782849793E+01
 0.2113853588615E+01
 0.2096640896142E+01
 0.2075729732967E+01
 0.2050451966486E+01
 0.2019798579290E+01
 0.1982475674537E+01
 0.1937088154783E+01
 0.1882468747104E+01
 0.1818323389370E+01
 0.1746567672777E+01
 0.1674495879508E+01
 0.1621824674851E+01
 0.1632486816687E+01
 0.1784080462001E+01
 0.2164658168089E+01
 0.2785881363602E+01
 0.3496463565223E+01
 0.1822488040109E+01
 0.1930596235320E+01
 0.2029263366264E+01
 0.2104811341839E+01
 0.2153982983160E+01
 0.2181182678556E+01
 0.2193115658330E+01
 0.2195564007555E+01
 0.2192543347135E+01
 0.2186568211852E+01
 0.2179135097410E+01
 0.2171108799321E+01
 0.2162974714919E+01
 0.2154990917251E+01
 0.2147275047126E+01
 0.2139849924038E+01
 0.2132662183293E+01
 0.2125582285111E+01
 0.2118390760398E+01
 0.2110757971601E+01
 0.2102229718740E+01
 0.2092236669843E+01
 0.2080139770924E+01
 0.2065309294383E+01
 0.2047248068458E+01
 0.2025602557127E+01
 0.1999991661805E+01
 0.1969839113422E+01
 0.1934317753900E+01
 0.1892437837572E+01
 0.1843285056527E+01
 0.1786456512109E+01
 0.1722888217209E+01
 0.1656443224476E+01
 0.1597220392453E+01
 0.1567908945734E+01
 0.1612339645089E+01
 0.1797142924861E+01
 0.2183428611652E+01
 0.2760320093871E+01
 0.3396494766523E+01
 0.1778759111332E+01
 0.1879051663383E+01
 0.1972231563129E+01
 0.2046455163585E+01
 0.2097718199620E+01
 0.2128577945472E+01
 0.2144261271461E+01
 0.2149830860573E+01
 0.2149116396021E+01
 0.2144688255267E+01
 0.2138167522326E+01
 0.2130539792799E+01
 0.2122384966597E+01
 0.2114026300809E+01
 0.2105620555806E+01
 0.2097208210679E+01
 0.2088736649291E+01
 0.2080064920479E+01
 0.2070955874276E+01
 0.2061064037982E+01
 0.2049930928578E+01
 0.2037001608080E+01
 0.2021668905970E+01
 0.2003342051137E+01
 0.1981557755214E+01
 0.1955995516285E+01
 0.1926333740351E+01
 0.1892117923890E+01
 0.1852738316367E+01
 0.1807553117037E+01
 0.1756179427867E+01
 0.1699019756744E+01
 0.1638220277356E+01
 0.1579388205336E+01
 0.1534799362685E+01
 0.1528733361212E+01
 0.1602801203138E+01
 0.1811966400890E+01
 0.2196109599682E+01
 0.2731452202965E+01
 0.3305453866205E+01
 0.1736729928790E+01
 0.1830082797734E+01
 0.1918027931444E+01
 0.1990331705486E+01
 0.2042679712416E+01
 0.2076282717673E+01
 0.2095104896736E+01
 0.2103472886975E+01
 0.2104935463034E+01
 0.2102032895248E+01
 0.2096454708584E+01
 0.2089275570890E+01
 0.2081153722247E+01
 0.2072470636212E+01
 0.2063420660556E+01
 0.2054063895519E+01
 0.2044353141062E+01
 0.2034143267294E+01
 0.2023189220267E+01
 0.2011141435707E+01
 0.1997549233657E+01
 0.1981882436739E+01
 0.1963573958629E+01
 0.1942080652503E+01
 0.1916986035248E+01
 0.1888021356676E+01
 0.1854947633376E+01
 0.1817457650530E+01
 0.1775186454518E+01
 0.1727868796092E+01
 0.1675676779871E+01
 0.1619814873282E+01
 0.1563554950844E+01
 0.1513973351238E+01
 0.1484877754850E+01
 0.1500954315662E+01
 0.1600199229228E+01
 0.1826397457020E+01
 0.2203337768432E+01
 0.2700460682848E+01
 0.3221848728989E+01
 0.1696096025394E+01
 0.1783247096563E+01
 0.1866252337786E+01
 0.1936265388591E+01
 0.1988930423043E+01
 0.2024496149426E+01
 0.2045878074271E+01
 0.2056697558162E+01
 0.2060167449748E+01
 0.2058731472885E+01
 0.2054097561924E+01
 0.2047398166016E+01
 0.2039352417365E+01
 0.2030391551537E+01
 0.2020744757839E+01
 0.2010492837219E+01
 0.1999597997075E+01
 0.1987917449356E+01
 0.1975206960401E+01
 0.1961123023066E+01
 0.1945232892297E+01
 0.1927039841416E+01
 0.1906024207931E+01
 0.1881698774731E+01
 0.1853705963390E+01
 0.1821845521428E+01
 0.1785980818435E+01
 0.1745972145006E+01
 0.1701717946858E+01
 0.1653343251240E+01
 0.1601574511384E+01
 0.1548378814680E+01
 0.1498025115537E+01
 0.1458751489092E+01
 0.1445289524429E+01
 0.1481781878368E+01
 0.1601832917040E+01
 0.1839205781422E+01
 0.2205859019555E+01
 0.2668199326472E+01
 0.3144480908363E+01
 0.1656622015351E+01
 0.1738196212109E+01
 0.1816567835759E+01
 0.1884074036398E+01
 0.1936476968205E+01
 0.1973352702301E+01
 0.1996763699169E+01
 0.2009683714139E+01
 0.2014965453722E+01
 0.2014908369854E+01
 0.2011196668775E+01
 0.2004991408099E+01
 0.1997054963303E+01
 0.1987858997162E+01
 0.1977663871290E+01
 0.1966571371449E+01
 0.1954556384216E+01
 0.1941484168552E+01
 0.1927118920569E+01
 0.1911131841644E+01
 0.1893116587298E+01
 0.1872617203945E+01
 0.1849167989191E+01
 0.1822345321183E+01
 0.1791861345878E+01
 0.1757598578989E+01
 0.1719538594488E+01
 0.1677723657538E+01
 0.1632325437282E+01
 0.1583859314224E+01
 0.1533585196025E+01
 0.1484167043192E+01
 0.1440716622908E+01
 0.1412322820888E+01
 0.1414100939010E+01
 0.1468938089759E+01
 0.1605754463697E+01
 0.1849733952870E+01
 0.2204390384267E+01
 0.2635304578522E+01
 0.3072369603315E+01
 0.1618123111688E+01
 0.1694652963418E+01
 0.1768691600716E+01
 0.1833580941362E+01
 0.1885290263920E+01
 0.1922937682286E+01
 0.1947902953417E+01
 0.1962582619659E+01
 0.1969467303608E+01
 0.1970680926914E+01
 0.1967850331738E+01
 0.1962139262347E+01
 0.1954336371597E+01
 0.1944944082841E+01
 0.1934249626060E+01
 0.1922375370719E+01
 0.1909311433761E+01
 0.1894935967766E+01
 0.1879028092511E+01
 0.1861280989196E+01
 0.1841321739424E+01
 0.1818741308330E+01
 0.1793133666761E+01
 0.1764145567947E+01
 0.1731568095009E+01
 0.1695378033340E+01
 0.1655686897643E+01
 0.1612727617339E+01
 0.1566946673921E+01
 0.1519238127747E+01
 0.1471358790914E+01
 0.1426586448908E+01
 0.1390710724824E+01
 0.1373375928825E+01
 0.1389623674071E+01
 0.1460595543743E+01
 0.1610586140101E+01
 0.1857668081053E+01
 0.2199544966761E+01
 0.2602279976511E+01
 0.3004689017971E+01
 0.1580452271359E+01
 0.1652394530959E+01
 0.1722386295554E+01
 0.1784621027280E+01
 0.1835319707020E+01
 0.1873299847040E+01
 0.1899402243871E+01
 0.1915520100736E+01
 0.1923795125003E+01
 0.1926158063374E+01
 0.1924153031739E+01
 0.1918924420409E+01
 0.1911271534942E+01
 0.1901718025907E+01
 0.1890573323166E+01
 0.1877979417093E+01
 0.1863943517936E+01
 0.1848360662123E+01
 0.1831030309841E+01
 0.1811673632963E+01
 0.1789956898195E+01
 0.1765523073217E+01
 0.1738030641321E+01
 0.1707202430921E+01
 0.1672915860382E+01
 0.1635250597500E+01
 0.1594455738585E+01
 0.1550958082612E+01
 0.1505473218670E+01
 0.1459252738952E+01
 0.1414502757580E+01
 0.1375022412833E+01
 0.1347114593556E+01
 0.1340710698211E+01
 0.1370409537965E+01
 0.1455310213518E+01
 0.1615371940232E+01
 0.1862908678814E+01
 0.2191763397547E+01
 0.2569565224289E+01
 0.2940699706954E+01
 0.1543491078399E+01
 0.1611240037285E+01
 0.1677452441776E+01
 0.1737043526219E+01
 0.1786502806712E+01
 0.1824461318914E+01
 0.1851339599060E+01
 0.1868599227384E+01
 0.1878055647276E+01
 0.1881439480967E+01
 0.1880194279218E+01
 0.1875427137038E+01
 0.1867934166064E+01
 0.1858251212323E+01
 0.1846705111685E+01
 0.1833456078290E+01
 0.1818529646262E+01
 0.1801840904002E+01
 0.1783214053659E+01
 0.1762403121960E+01
 0.1739118186612E+01
 0.1713058309434E+01
 0.1683950397711E+01
 0.1651597840839E+01
 0.1615969873516E+01
 0.1577254792551E+01
 0.1535843031047E+01
 0.1492353515908E+01
 0.1447759138721E+01
 0.1403640790835E+01
 0.1362599437014E+01
 0.1328859959970E+01
 0.1309081797978E+01
 0.1313248688144E+01
 0.1355233900260E+01
 0.1451958239736E+01
 0.1619457030913E+01
 0.1865506613249E+01
 0.2181314221833E+01
 0.2537434879719E+01
 0.2879601695609E+01
 0.1507143435890E+01
 0.1571045537701E+01
 0.1633729652149E+01
 0.1690724378601E+01
 0.1738787434273E+01
 0.1776445045360E+01
 0.1803793862339E+01
 0.1821930231641E+01
 0.1832371326396E+01
 0.1836648807865E+01
 0.1836094425060E+01
 0.1831764138413E+01
 0.1824439112783E+01
 0.1814659190346E+01
 0.1802763943830E+01
 0.1788930141558E+01
 0.1773202338064E+01
 0.1755518089201E+01
 0.1735729795913E+01
 0.1713628133566E+01
 0.1688970528470E+01
 0.1661515185101E+01
 0.1631060239129E+01
 0.1597492651154E+01
 0.1560876788837E+01
 0.1521512288786E+01
 0.1479930737542E+01
 0.1436936664309E+01
 0.1393742975960E+01
 0.1352225985701E+01
 0.1315322805089E+01
 0.1287589023308E+01
 0.1275896004757E+01
 0.1290081879526E+01
 0.1343095548079E+01
 0.1449671055310E+01
 0.1622407409797E+01
 0.1865526569325E+01
 0.2168758365726E+01
 0.2504586364060E+01
 0.2827613857901E+01
 0.1471331007204E+01
 0.1531689143560E+01
 0.1591076236695E+01
 0.1645542595856E+01
 0.1692104369432E+01
 0.1729240834517E+01
 0.1756802214877E+01
 0.1775579171402E+01
 0.1786820846904E+01
 0.1791866790728E+01
 0.1791931076760E+01
 0.1788008394877E+01
 0.1780855298317E+01
 0.1771008367553E+01
 0.1758815471170E+01
 0.1744468055982E+01
 0.1728029899197E+01
 0.1709462727627E+01
 0.1688649722748E+01
 0.1665421041277E+01
 0.1639584037923E+01
 0.1610958186287E+01
 0.1579414657363E+01
 0.1544925675998E+01
 0.1507652193587E+01
 0.1468005394132E+01
 0.1426654774713E+01
 0.1384580543712E+01
 0.1343214984693E+01
 0.1304693427225E+01
 0.1272230306644E+01
 0.1250622155787E+01
 0.1246823829098E+01
 0.1270367871621E+01
 0.1333152098595E+01
 0.1447805868353E+01
 0.1623974010477E+01
 0.1863168849493E+01
 0.2154271838524E+01
 0.2471732436787E+01
 0.2780040099206E+01
 0.1435986503744E+01
 0.1493064225332E+01
 0.1549362682473E+01
 0.1601377588876E+01
 0.1646368526617E+01
 0.1682808539843E+01
 0.1710363205300E+01
 0.1729569754965E+01
 0.1741439674538E+01
 0.1747130961756E+01
 0.1747738312821E+01
 0.1744188205190E+01
 0.1737204879858E+01
 0.1727315370417E+01
 0.1714871695192E+01
 0.1700077957693E+01
 0.1683016917682E+01
 0.1663675525145E+01
 0.1641969535161E+01
 0.1617770572704E+01
 0.1590937672952E+01
 0.1561352909708E+01
 0.1528961435045E+01
 0.1493821317752E+01
 0.1456190028876E+01
 0.1416588580011E+01
 0.1375818956264E+01
 0.1335025022160E+01
 0.1295836301262E+01
 0.1260610690943E+01
 0.1232783973015E+01
 0.1217312014623E+01
 0.1221122718607E+01
 0.1253318800312E+01
 0.1324679281246E+01
 0.1445861973336E+01
 0.1624012531179E+01
 0.1858587829682E+01
 0.2138070387613E+01
 0.2439277434783E+01
 0.2732870224071E+01
 0.1401054625216E+01
 0.1455085476925E+01
 0.1508486071215E+01
 0.1558134046413E+01
 0.1601514848128E+01
 0.1637123258074E+01
 0.1664489090755E+01
 0.1683941310770E+01
 0.1696283048104E+01
 0.1702503682942E+01
 0.1703580130911E+01
 0.1700366535869E+01
 0.1693549033646E+01
 0.1683639885354E+01
 0.1670991535406E+01
 0.1655818701052E+01
 0.1638222554906E+01
 0.1618215774809E+01
 0.1595747789506E+01
 0.1570732909722E+01
 0.1543082809424E+01
 0.1512742671727E+01
 0.1479731636368E+01
 0.1444192997931E+01
 0.1406479130759E+01
 0.1367217272166E+01
 0.1327334430562E+01
 0.1288124235565E+01
 0.1251390142502E+01
 0.1219676492110E+01
 0.1196587508178E+01
 0.1187164775088E+01
 0.1198215876774E+01
 0.1238322417026E+01
 0.1317125620724E+01
 0.1443480694400E+01
 0.1622447800490E+01
 0.1851950426025E+01
 0.2120445878662E+01
 0.2407078696426E+01
 0.2686818993570E+01
 0.1366488710476E+01
 0.1417680727526E+01
 0.1468358196234E+01
 0.1515727585885E+01
 0.1557481945319E+01
 0.1592156520812E+01
 0.1619183814381E+01
 0.1638723089917E+01
 0.1651396548972E+01
 0.1658039142868E+01
 0.1659514039533E+01
 0.1656601269322E+01
 0.1649944790344E+01
 0.1640037899464E+01
 0.1627230208696E+01
 0.1611745048627E+01
 0.1593701173864E+01
 0.1573137019129E+01
 0.1550036169845E+01
 0.1524356145324E+01
 0.1496061485922E+01
 0.1465160218370E+01
 0.1431744586788E+01
 0.1396041389948E+01
 0.1358494927287E+01
 0.1319833504107E+01
 0.1281100138970E+01
 0.1243723153011E+01
 0.1209656330724E+01
 0.1181595653157E+01
 0.1163264897705E+01
 0.1159726361561E+01
 0.1177590816961E+01
 0.1224857077453E+01
 0.1310047625497E+01
 0.1440400605830E+01
 0.1619257333698E+01
 0.1843426817169E+01
 0.2101607517849E+01
 0.2375065521820E+01
 0.2641922965658E+01
 0.1332249048393E+01
 0.1380788514178E+01
 0.1428903048907E+01
 0.1474083453510E+01
 0.1514212464445E+01
 0.1547877887115E+01
 0.1574444992677E+01
 0.1593935980253E+01
 0.1606817247359E+01
 0.1613783936241E+01
 0.1615591209667E+01
 0.1612945087861E+01
 0.1606444781988E+01
 0.1596561402943E+01
 0.1583638950936E+01
 0.1567907458905E+01
 0.1549502231699E+01
 0.1528487081782E+01
 0.1504879689045E+01
 0.1478680680059E+01
 0.1449907020715E+01
 0.1418628595754E+01
 0.1385009047143E+01
 0.1349355968881E+01
 0.1312201450918E+01
 0.1274368477376E+01
 0.1237005975950E+01
 0.1201661299585E+01
 0.1170415362525E+01
 0.1146083008980E+01
 0.1132463255118E+01
 0.1134582935962E+01
 0.1158795652608E+01
 0.1212481563330E+01
 0.1303091352857E+01
 0.1436434937540E+01
 0.1614453658982E+01
 0.1833173505160E+01
 0.2081700957714E+01
 0.2343155543123E+01
 0.2598098870402E+01
 0.1298301567462E+01
 0.1344356122572E+01
 0.1390054780816E+01
 0.1433135312593E+01
 0.1471653163843E+01
 0.1504256067177E+01
 0.1530265485682E+01
 0.1549593975495E+01
 0.1562574778145E+01
 0.1569777692984E+01
 0.1571856737634E+01
 0.1569445491200E+01
 0.1563097125006E+01
 0.1553258223289E+01
 0.1540264865276E+01
 0.1524351996369E+01
 0.1505670290415E+01
 0.1484308212313E+01
 0.1460316996253E+01
 0.1433739717593E+01
 0.1404644720924E+01
 0.1373162105240E+01
 0.1339524460371E+01
 0.1304116608601E+01
 0.1267553348922E+01
 0.1230745032415E+01
 0.1194935719101E+01
 0.1161776044118E+01
 0.1133451781443E+01
 0.1112866347546E+01
 0.1103854533647E+01
 0.1111360285437E+01
 0.1141434699121E+01
 0.1200825146526E+01
 0.1295976504177E+01
 0.1431453600311E+01
 0.1608070381576E+01
 0.1821326377090E+01
 0.2060823052170E+01
 0.2311275237742E+01
 0.2555233397237E+01
 0.1264616800865E+01
 0.1308338014499E+01
 0.1351756023324E+01
 0.1392824140947E+01
 0.1429754796702E+01
 0.1461259682807E+01
 0.1486634607432E+01
 0.1505705396064E+01
 0.1518692300357E+01
 0.1526053691645E+01
 0.1528349949719E+01
 0.1526144879508E+01
 0.1519945373084E+01
 0.1510171924847E+01
 0.1497150828272E+01
 0.1481120290989E+01
 0.1462245067795E+01
 0.1440637260545E+01
 0.1416380702227E+01
 0.1389559765394E+01
 0.1360292583525E+01
 0.1328767235268E+01
 0.1295282153531E+01
 0.1260295099646E+01
 0.1224497757796E+01
 0.1188879894626E+01
 0.1154769604780E+01
 0.1123905361034E+01
 0.1098556830019E+01
 0.1081688464448E+01
 0.1077136295108E+01
 0.1089722404414E+01
 0.1125163693654E+01
 0.1189578259010E+01
 0.1288482897250E+01
 0.1425368986018E+01
 0.1600152416188E+01
 0.1807999685358E+01
 0.2039040813478E+01
 0.2279364982535E+01
 0.2513207076704E+01
 0.1231169056284E+01
 0.1272694555538E+01
 0.1313956488845E+01
 0.1353097233640E+01
 0.1388471865832E+01
 0.1418857747609E+01
 0.1443539032843E+01
 0.1462273875182E+01
 0.1475187320217E+01
 0.1482639419608E+01
 0.1485104706079E+01
 0.1483080660587E+01
 0.1477028500780E+01
 0.1467341735965E+01
 0.1454335415969E+01
 0.1438249507863E+01
 0.1419261487103E+01
 0.1397505836783E+01
 0.1373097675970E+01
 0.1346161091020E+01
 0.1316861934836E+01
 0.1285443511356E+01
 0.1252266430606E+01
 0.1217856517439E+01
 0.1182975967646E+01
 0.1148685623636E+01
 0.1116386490520E+01
 0.1087890038734E+01
 0.1065530408305E+01
 0.1052308431408E+01
 0.1052031707968E+01
 0.1069369484004E+01
 0.1109684855721E+01
 0.1178483921068E+01
 0.1280439059098E+01
 0.1418124970045E+01
 0.1590749612473E+01
 0.1793289164688E+01
 0.2016404159064E+01
 0.2247376729409E+01
 0.2471902480168E+01
 0.1197935746231E+01
 0.1237390986575E+01
 0.1276611816323E+01
 0.1313907331111E+01
 0.1347762332654E+01
 0.1377019977763E+01
 0.1400963505746E+01
 0.1419299193028E+01
 0.1432072441267E+01
 0.1439557135067E+01
 0.1442149760175E+01
 0.1440285444354E+01
 0.1434380990085E+01
 0.1424802585097E+01
 0.1411852939876E+01
 0.1395772425054E+01
 0.1376749831561E+01
 0.1354940571986E+01
 0.1330489435178E+01
 0.1303558264734E+01
 0.1274358146838E+01
 0.1243184409391E+01
 0.1210455707152E+01
 0.1176760597851E+01
 0.1142925041001E+01
 0.1110072441669E+01
 0.1079665799078E+01
 0.1053575559509E+01
 0.1034182605445E+01
 0.1024502389853E+01
 0.1028289114617E+01
 0.1050035646799E+01
 0.1094742095162E+01
 0.1167330095709E+01
 0.1271712798183E+01
 0.1409688584251E+01
 0.1579913172812E+01
 0.1777276072835E+01
 0.1992953002086E+01
 0.2215270756983E+01
 0.2431208019543E+01
 0.1164896841669E+01
 0.1202396578667E+01
 0.1239682600538E+01
 0.1275211840076E+01
 0.1307587280820E+01
 0.1335716945758E+01
 0.1358891346248E+01
 0.1376777929012E+01
 0.1389355983388E+01
 0.1396824351518E+01
 0.1399509081157E+01
 0.1397787223844E+01
 0.1392032913071E+01
 0.1382585133136E+01
 0.1369733473598E+01
 0.1353717493044E+01
 0.1334735869038E+01
 0.1312963334780E+01
 0.1288572478514E+01
 0.1261760627243E+01
 0.1232781259590E+01
 0.1201978151895E+01
 0.1169823497709E+01
 0.1136962924662E+01
 0.1104279188869E+01
 0.1072949749814E+01
 0.1044489070307E+01
 0.1020813508881E+01
 0.1004334707549E+01
 0.9980638239191E+00
 0.1005681166106E+01
 0.1031486455919E+01
 0.1080116401549E+01
 0.1155942922052E+01
 0.1262203468225E+01
 0.1400043825690E+01
 0.1567693808404E+01
 0.1760030589658E+01
 0.1968720859061E+01
 0.2183013111433E+01
 0.2391019787524E+01
 0.1132034422858E+01
 0.1167683938743E+01
 0.1203133581590E+01
 0.1236972154735E+01
 0.1267910579523E+01
 0.1294920146531E+01
 0.1317304831909E+01
 0.1334703999005E+01
 0.1347042527410E+01
 0.1354454295258E+01
 0.1357202189072E+01
 0.1355609596144E+01
 0.1350010069846E+01
 0.1340715867768E+01
 0.1328002942520E+01
 0.1312108954608E+01
 0.1293241031979E+01
 0.1271591496571E+01
 0.1247358657023E+01
 0.1220772785640E+01
 0.1192126618085E+01
 0.1161808500363E+01
 0.1130339373756E+01
 0.1098416052007E+01
 0.1066971034330E+01
 0.1037227473178E+01
 0.1010741277485E+01
 0.9894626918773E+00
 0.9758198818253E+00
 0.9728035284790E+00
 0.9840037398486E+00
 0.1013516394938E+01
 0.1065621562138E+01
 0.1144180843797E+01
 0.1251835710069E+01
 0.1389187128046E+01
 0.1554140863598E+01
 0.1741614350774E+01
 0.1943736750009E+01
 0.2150574085838E+01
 0.2351242526501E+01
 0.1099332308648E+01
 0.1133228434473E+01
 0.1166932963246E+01
 0.1199153062986E+01
 0.1228698553146E+01
 0.1254601996235E+01
 0.1276185472215E+01
 0.1293069085840E+01
 0.1305133379263E+01
 0.1312456317744E+01
 0.1315244476664E+01
 0.1313771992590E+01
 0.1308334148819E+01
 0.1299217225444E+01
 0.1286683240902E+01
 0.1270966988103E+01
 0.1252282614057E+01
 0.1230838204558E+01
 0.1206855542749E+01
 0.1180595093795E+01
 0.1152385478030E+01
 0.1122655496799E+01
 0.1091969844983E+01
 0.1061070516414E+01
 0.1030932723714E+01
 0.1002817205605E+01
 0.9783118958841E+00
 0.9593899670449E+00
 0.9484835733097E+00
 0.9485493300334E+00
 0.9630747102342E+00
 0.9959463888719E+00
 0.1051100250188E+01
 0.1131929575451E+01
 0.1240554437432E+01
 0.1377124062642E+01
 0.1539301929531E+01
 0.1722082252752E+01
 0.1918026301279E+01
 0.2117927440078E+01
 0.2311790101371E+01
 0.1066775746787E+01
 0.1099007712079E+01
 0.1131051832552E+01
 0.1161722221268E+01
 0.1189919657462E+01
 0.1214735775453E+01
 0.1235514189469E+01
 0.1251862968917E+01
 0.1263626948761E+01
 0.1270836247985E+01
 0.1273647495953E+01
 0.1272289892142E+01
 0.1267022880866E+01
 0.1258107711148E+01
 0.1245792345418E+01
 0.1230307842010E+01
 0.1211873950017E+01
 0.1190712627608E+01
 0.1167066757852E+01
 0.1141224078741E+01
 0.1113545540326E+01
 0.1084496112806E+01
 0.1054679121870E+01
 0.1024875697990E+01
 0.9960968495432E+00
 0.9696331269141E+00
 0.9470957097958E+00
 0.9304708011310E+00
 0.9221836336446E+00
 0.9251455913971E+00
 0.9427326064782E+00
 0.9786213928779E+00
 0.1036420474031E+01
 0.1119097801560E+01
 0.1228320814099E+01
 0.1363866896097E+01
 0.1523222663336E+01
 0.1701483707464E+01
 0.1891612448073E+01
 0.2085050026816E+01
 0.2272585565577E+01
 0.1034351155376E+01
 0.1065001294678E+01
 0.1095463672177E+01
 0.1124649702935E+01
 0.1151544185856E+01
 0.1175295556087E+01
 0.1195271453585E+01
 0.1211073801621E+01
 0.1222519089380E+01
 0.1229596728842E+01
 0.1232419252663E+01
 0.1231175062382E+01
 0.1226090234799E+01
 0.1217402067289E+01
 0.1205344480816E+01
 0.1190144020913E+01
 0.1172024643438E+01
 0.1151220244214E+01
 0.1127992337851E+01
 0.1102652890917E+01
 0.1075591496297E+01
 0.1047304892570E+01
 0.1018429850627E+01
 0.9897806275691E+00
 0.9623972894360E+00
 0.9375928061262E+00
 0.9169934823306E+00
 0.9025896792433E+00
 0.8967903234165E+00
 0.9024526409541E+00
 0.9228352886888E+00
 0.9614081575886E+00
 0.1021472446394E+01
 0.1105613574252E+01
 0.1215109071894E+01
 0.1349432804231E+01
 0.1505946753827E+01
 0.1679863602033E+01
 0.1864516038841E+01
 0.2051921746228E+01
 0.2233561122125E+01
 0.1002045904858E+01
 0.1031190241010E+01
 0.1060143940600E+01
 0.1087907597293E+01
 0.1113543988714E+01
 0.1136256099434E+01
 0.1155437357217E+01
 0.1170688316432E+01
 0.1181803369220E+01
 0.1188737497381E+01
 0.1191564459876E+01
 0.1190435772422E+01
 0.1185546592804E+01
 0.1177111425702E+01
 0.1165350267534E+01
 0.1150484448759E+01
 0.1132740764328E+01
 0.1112363090547E+01
 0.1089629043185E+01
 0.1064871688892E+01
 0.1038505491166E+01
 0.1011054495000E+01
 0.9831837251545E+00
 0.9557346461424E+00
 0.9297698719813E+00
 0.9066178099408E+00
 0.8879124186538E+00
 0.8756403142298E+00
 0.8721861440565E+00
 0.8803460916616E+00
 0.9032586120554E+00
 0.9441931361049E+00
 0.1006165809342E+01
 0.1091421278747E+01
 0.1200903963976E+01
 0.1333842523142E+01
 0.1487515923532E+01
 0.1657263007573E+01
 0.1836756311498E+01
 0.2018525558922E+01
 0.2194657879706E+01
 0.9698481334999E+00
 0.9975568569391E+00
 0.1025069714489E+01
 0.1051469661527E+01
 0.1075892219774E+01
 0.1097592750257E+01
 0.1115991663258E+01
 0.1130691992568E+01
 0.1141471307928E+01
 0.1148255642986E+01
 0.1151084784079E+01
 0.1150077011515E+01
 0.1145398941380E+01
 0.1137243480795E+01
 0.1125816892181E+01
 0.1111334653408E+01
 0.1094025063688E+01
 0.1074140018841E+01
 0.1051970672330E+01
 0.1027868014704E+01
 0.1002267564839E+01
 0.9757161972347E+00
 0.9489020417540E+00
 0.9226879867028E+00
 0.8981529451653E+00
 0.8766341982929E+00
 0.8597665107435E+00
 0.8495257479092E+00
 0.8482655925805E+00
 0.8587161383756E+00
 0.8838951567606E+00
 0.9268805885014E+00
 0.9904272279615E+00
 0.1076479115894E+01
 0.1185698749663E+01
 0.1317119347700E+01
 0.1467969981560E+01
 0.1633719762715E+01
 0.1808351335385E+01
 0.1984847570452E+01
 0.2155825565614E+01
 0.9377465909953E+00
 0.9640844494323E+00
 0.9902193812063E+00
 0.1015311015586E+01
 0.1038563104607E+01
 0.1059281326958E+01
 0.1076913826939E+01
 0.1091069187092E+01
 0.1101512576701E+01
 0.1108145835698E+01
 0.1110979071718E+01
 0.1110100698017E+01
 0.1105651059895E+01
 0.1097802664189E+01
 0.1086748280051E+01
 0.1072696950752E+01
 0.1055877182608E+01
 0.1036546943071E+01
 0.1015008353005E+01
 0.9916271361619E+00
 0.9668560465288E+00
 0.9412603368974E+00
 0.9155461759804E+00
 0.8905922612355E+00
 0.8674878350267E+00
 0.8475729010897E+00
 0.8324767648946E+00
 0.8241583518201E+00
 0.8249348511176E+00
 0.8374668466065E+00
 0.8646530334798E+00
 0.9093908809226E+00
 0.9741983194453E+00
 0.1060757023685E+01
 0.1169493601688E+01
 0.1299288386787E+01
 0.1447346904582E+01
 0.1609268958327E+01
 0.1779318399918E+01
 0.1950877109708E+01
 0.2117022200237E+01
 0.9057305045744E+00
 0.9307571144160E+00
 0.9555723711382E+00
 0.9794078714587E+00
 0.1001531726846E+01
 0.1021298007751E+01
 0.1038182994847E+01
 0.1051803231552E+01
 0.1061915161102E+01
 0.1068400521141E+01
 0.1071243549310E+01
 0.1070505869029E+01
 0.1066303695158E+01
 0.1058790308004E+01
 0.1048145255948E+01
 0.1034570614077E+01
 0.1018293841161E+01
 0.9995770568711E+00
 0.9787307961845E+00
 0.9561323407613E+00
 0.9322478881575E+00
 0.9076566788747E+00
 0.8830779689765E+00
 0.8594008428596E+00
 0.8377191882922E+00
 0.8193699744154E+00
 0.8059713148264E+00
 0.7994597338334E+00
 0.8021114189351E+00
 0.8165154390512E+00
 0.8454547653003E+00
 0.8916589658243E+00
 0.9574338761165E+00
 0.1044234961127E+01
 0.1152294340589E+01
 0.1280375999952E+01
 0.1425682919759E+01
 0.1583943325787E+01
 0.1749674322143E+01
 0.1916606753696E+01
 0.2078213703983E+01
 0.8737894648114E+00
 0.8975595551298E+00
 0.9211089274880E+00
 0.9437372980520E+00
 0.9647738391027E+00
 0.9836192259972E+00
 0.9997779988229E+00
 0.1012876514823E+01
 0.1022665508244E+01
 0.1029010103509E+01
 0.1031872018263E+01
 0.1031288871926E+01
 0.1027354743783E+01
 0.1020204819589E+01
 0.1010005717590E+01
 0.9969520546394E+00
 0.9812690348468E+00
 0.9632210533373E+00
 0.9431245444672E+00
 0.9213652147580E+00
 0.8984189722078E+00
 0.8748747446944E+00
 0.8514600642157E+00
 0.8290691873309E+00
 0.8087952468493E+00
 0.7919667876549E+00
 0.7801854746520E+00
 0.7753606060005E+00
 0.7797237410911E+00
 0.7957916300365E+00
 0.8262362881112E+00
 0.8736330696762E+00
 0.9401003833448E+00
 0.1026901528928E+01
 0.1134111462162E+01
 0.1260409404069E+01
 0.1403012620260E+01
 0.1557773585726E+01
 0.1719435724996E+01
 0.1882032348938E+01
 0.2039373540357E+01
 0.8419133273994E+00
 0.8644769237362E+00
 0.8868099038825E+00
 0.9082770115640E+00
 0.9282656896558E+00
 0.9462215672359E+00
 0.9616773378653E+00
 0.9742705442386E+00
 0.9837486479032E+00
 0.9899631027773E+00
 0.9928560270569E+00
 0.9924435371720E+00
 0.9887994189867E+00
 0.9820418421329E+00
 0.9723247942026E+00
 0.9598349845860E+00
 0.9447942085066E+00
 0.9274673155622E+00
 0.9081741828554E+00
 0.8873058749197E+00
 0.8653443614319E+00
 0.8428840723691E+00
 0.8206561637093E+00
 0.7995550649887E+00
 0.7806680279012E+00
 0.7653101185565E+00
 0.7550617117563E+00
 0.7518005959720E+00
 0.7577108172030E+00
 0.7752369909629E+00
 0.8069460489507E+00
 0.8552735574761E+00
 0.9221747839746E+00
 0.1008752860579E+01
 0.1114959386564E+01
 0.1239416392767E+01
 0.1379369077359E+01
 0.1530788726490E+01
 0.1688619237323E+01
 0.1847152970496E+01
 0.2000482328727E+01
 0.8100921285947E+00
 0.8314946832075E+00
 0.8526565868891E+00
 0.8730051902089E+00
 0.8919838669642E+00
 0.9090816737282E+00
 0.9238591568883E+00
 0.9359659956362E+00
 0.9451482987313E+00
 0.9512462970189E+00
 0.9541850310343E+00
 0.9539613421727E+00
 0.9506304114102E+00
 0.9442944109350E+00
 0.9350950006001E+00
 0.9232105732217E+00
 0.9088584195686E+00
 0.8923020907790E+00
 0.8738625258741E+00
 0.8539331680853E+00
 0.8329985069131E+00
 0.8116544248185E+00
 0.7906312236898E+00
 0.7708187252978E+00
 0.7532934341459E+00
 0.7393521824493E+00
 0.7305495668829E+00
 0.7287280291733E+00
 0.7360218160244E+00
 0.7548043692659E+00
 0.7875442186169E+00
 0.8365519789630E+00
 0.9036434781757E+00
 0.9897917594516E+00
 0.1094855904276E+01
 0.1217425159360E+01
 0.1354783961520E+01
 0.1503016236647E+01
 0.1657241639864E+01
 0.1811970845431E+01
 0.1961527464327E+01
 0.7783160122561E+00
 0.7985984860419E+00
 0.8186305393685E+00
 0.8379003098866E+00
 0.8559051604783E+00
 0.8721761572189E+00
 0.8863012248711E+00
 0.8979427556888E+00
 0.9068469627101E+00
 0.9128448520470E+00
 0.9158465408249E+00
 0.9158315660247E+00
 0.9128380429244E+00
 0.9069531037092E+00
 0.8983063848381E+00
 0.8870675946994E+00
 0.8734484888492E+00
 0.8577096466007E+00
 0.8401707799427E+00
 0.8212248380121E+00
 0.8013554147503E+00
 0.7811559481909E+00
 0.7613515924390E+00
 0.7428229982316E+00
 0.7266312998543E+00
 0.7140506028644E+00
 0.7066055294594E+00
 0.7060996897547E+00
 0.7146157030166E+00
 0.7344573661477E+00
 0.7680020194974E+00
 0.8174502891755E+00
 0.8845015400807E+00
 0.9700270548229E+00
 0.1073821793056E+01
 0.1194464209066E+01
 0.1329287672396E+01
 0.1474482297690E+01
 0.1625319960307E+01
 0.1776491241598E+01
 0.1922502748798E+01
 0.7465751666546E+00
 0.7657740665595E+00
 0.7847134606216E+00
 0.8029409970480E+00
 0.8200064352577E+00
 0.8354815190919E+00
 0.8489809128763E+00
 0.8601799575107E+00
 0.8688260085146E+00
 0.8747424380855E+00
 0.8778262578680E+00
 0.8780414324527E+00
 0.8754104097258E+00
 0.8700061805468E+00
 0.8619466646556E+00
 0.8513925621417E+00
 0.8385491339134E+00
 0.8236724045163E+00
 0.8070786764582E+00
 0.7891576554433E+00
 0.7703887679618E+00
 0.7513592775751E+00
 0.7327850888495E+00
 0.7155333323011E+00
 0.7006453737834E+00
 0.6893683252851E+00
 0.6831928701072E+00
 0.6838805618493E+00
 0.6934608814843E+00
 0.7141698718922E+00
 0.7483011638328E+00
 0.7979602320285E+00
 0.8647521316064E+00
 0.9494731517128E+00
 0.1051880582482E+01
 0.1170562345965E+01
 0.1302909473228E+01
 0.1445211936531E+01
 0.1592871514034E+01
 0.1740722314402E+01
 0.1883408020975E+01
 0.7148597695438E+00
 0.7330071442280E+00
 0.7508870603005E+00
 0.7681058961818E+00
 0.7842645191078E+00
 0.7989740782393E+00
 0.8118751736166E+00
 0.8226560119297E+00
 0.8310657461726E+00
 0.8369213353296E+00
 0.8401081981178E+00
 0.8405762412142E+00
 0.8383335143845E+00
 0.8334397127978E+00
 0.8260013517927E+00
 0.8161698473223E+00
 0.8041430843171E+00
 0.7901710502902E+00
 0.7745645756818E+00
 0.7577075120509E+00
 0.7400720049658E+00
 0.7222355922848E+00
 0.7049010248088E+00
 0.6889177731777E+00
 0.6753032434952E+00
 0.6652734787542E+00
 0.6602814346177E+00
 0.6620435544396E+00
 0.6725348492311E+00
 0.6939256589135E+00
 0.7284333995459E+00
 0.7780828791796E+00
 0.8444061002294E+00
 0.9281497583950E+00
 0.1029058452421E+01
 0.1145748728316E+01
 0.1275677631587E+01
 0.1415229144163E+01
 0.1559913895429E+01
 0.1704674912225E+01
 0.1844248783708E+01
 0.6831599403598E+00
 0.7002833368310E+00
 0.7171329452313E+00
 0.7333735522911E+00
 0.7486561045620E+00
 0.7626299112062E+00
 0.7749605291366E+00
 0.7853486424573E+00
 0.7935455019055E+00
 0.7993625376640E+00
 0.8026748133230E+00
 0.8034194974473E+00
 0.8015913964711E+00
 0.7972377107924E+00
 0.7904538745444E+00
 0.7813817968098E+00
 0.7702111902524E+00
 0.7571846334514E+00
 0.7426055543060E+00
 0.7268494918519E+00
 0.7103783689693E+00
 0.6937566357803E+00
 0.6776701871293E+00
 0.6629468990972E+00
 0.6505762173558E+00
 0.6417392011666E+00
 0.6378474142072E+00
 0.6405692232449E+00
 0.6518238826958E+00
 0.6737180430745E+00
 0.7084001724320E+00
 0.7578283307123E+00
 0.8234817654361E+00
 0.9060817969209E+00
 0.1005384275039E+01
 0.1120053009328E+01
 0.1247619592229E+01
 0.1384556993242E+01
 0.1526464953841E+01
 0.1668362370816E+01
 0.1805035856101E+01
 0.6514656982565E+00
 0.6675880794447E+00
 0.6834325133322E+00
 0.6987223013872E+00
 0.7131576580957E+00
 0.7264247964871E+00
 0.7382130577239E+00
 0.7482349138387E+00
 0.7562436813424E+00
 0.7620458407277E+00
 0.7655070939736E+00
 0.7665530210404E+00
 0.7651662420408E+00
 0.7613822291507E+00
 0.7552856760516E+00
 0.7470088211110E+00
 0.7367325004257E+00
 0.7246906312362E+00
 0.7111774518398E+00
 0.6965578952284E+00
 0.6812809036070E+00
 0.6658946759437E+00
 0.6510647551933E+00
 0.6375936895801E+00
 0.6264391408297E+00
 0.6187434044614E+00
 0.6158730673321E+00
 0.6194454636016E+00
 0.6313227211455E+00
 0.6535495845288E+00
 0.6882123745234E+00
 0.7372155457978E+00
 0.8020048605816E+00
 0.8832994626836E+00
 0.9808897661044E+00
 0.1093505528870E+01
 0.1218762147785E+01
 0.1353217720060E+01
 0.1492542714191E+01
 0.1631800238550E+01
 0.1765784985060E+01
 0.6197669249143E+00
 0.6349065494517E+00
 0.6497668562035E+00
 0.6641301728470E+00
 0.6777453432295E+00
 0.6903341725567E+00
 0.7016083922963E+00
 0.7112912686501E+00
 0.7191378373443E+00
 0.7249499319999E+00
 0.7285846728274E+00
 0.7299570560966E+00
 0.7290384931999E+00
 0.7258534720722E+00
 0.7204763118958E+00
 0.7130294815302E+00
 0.7036843349859E+00
 0.6926650038227E+00
 0.6802549035577E+00
 0.6668062440816E+00
 0.6527524239828E+00
 0.6386224352801E+00
 0.6250581840058E+00
 0.6128333568583E+00
 0.6028701755731E+00
 0.5962685066545E+00
 0.5943464178217E+00
 0.5986671966294E+00
 0.6110342710353E+00
 0.6334318468887E+00
 0.6678901975221E+00
 0.7162723242332E+00
 0.7800086553819E+00
 0.8598384643067E+00
 0.9556097829206E+00
 0.1066137598853E+01
 0.1189131657770E+01
 0.1321232834254E+01
 0.1458165313558E+01
 0.1595006000730E+01
 0.1726516460180E+01
 0.5880533317119E+00
 0.6022235953368E+00
 0.6161166675606E+00
 0.6295748008060E+00
 0.6423949550681E+00
 0.6543331074693E+00
 0.6651217280278E+00
 0.6744935692104E+00
 0.6822047388890E+00
 0.6880524783726E+00
 0.6918859234823E+00
 0.6936103740482E+00
 0.6931869505461E+00
 0.6906298908107E+00
 0.6860035387960E+00
 0.6794205663078E+00
 0.6710423449836E+00
 0.6610822323885E+00
 0.6498113517186E+00
 0.6375672600996E+00
 0.6247654554318E+00
 0.6119129837013E+00
 0.5996250455436E+00
 0.5886431328513E+00
 0.5798505336628E+00
 0.5743011219182E+00
 0.5732609187758E+00
 0.5782360359656E+00
 0.5909693157763E+00
 0.6133851987713E+00
 0.6474630758024E+00
 0.6950354261608E+00
 0.7575342514859E+00
 0.8357404418124E+00
 0.9295827687406E+00
 0.1037981878854E+01
 0.1158754310484E+01
 0.1288623258348E+01
 0.1423350964265E+01
 0.1557998787318E+01
 0.1687254714799E+01
 0.5563144294820E+00
 0.5695236658239E+00
 0.5824621530674E+00
 0.5950333399531E+00
 0.6070818616308E+00
 0.6183962751249E+00
 0.6287278335814E+00
 0.6378171380286E+00
 0.6454204328476E+00
 0.6513302015964E+00
 0.6553880430085E+00
 0.6574903582046E+00
 0.6575888552073E+00
 0.6556882591732E+00
 0.6518433795277E+00
 0.6461571405959E+00
 0.6387805424970E+00
 0.6299153238353E+00
 0.6198190187103E+00
 0.6088127996807E+00
 0.5972921234736E+00
 0.5857395772530E+00
 0.5747408114984E+00
 0.5650019942021E+00
 0.5573641483403E+00
 0.5528316882195E+00
 0.5526150590508E+00
 0.5581599085750E+00
 0.5711462010296E+00
 0.5934386253751E+00
 0.6269696864294E+00
 0.6735508006932E+00
 0.7346310286937E+00
 0.8110535480977E+00
 0.9028513302157E+00
 0.1009072819831E+01
 0.1127656396386E+01
 0.1255409476206E+01
 0.1388117941452E+01
 0.1520799043489E+01
 0.1648027822036E+01
 0.5245395010222E+00
 0.5367907417119E+00
 0.5487829469951E+00
 0.5604823951450E+00
 0.5717809656051E+00
 0.5824979556231E+00
 0.5924010865597E+00
 0.6012368201059E+00
 0.6087603244295E+00
 0.6147589697487E+00
 0.6190671491432E+00
 0.6215731025623E+00
 0.6222199855655E+00
 0.6210037642769E+00
 0.6179702033030E+00
 0.6132126113386E+00
 0.6068713441202E+00
 0.5991358262698E+00
 0.5902488873441E+00
 0.5805137915947E+00
 0.5703040415784E+00
 0.5600754895920E+00
 0.5503816239720E+00
 0.5418903711474E+00
 0.5353973256048E+00
 0.5318540746585E+00
 0.5324119515562E+00
 0.5384526655094E+00
 0.5515905284486E+00
 0.5736295820066E+00
 0.6064580412724E+00
 0.6518739679756E+00
 0.7113573026754E+00
 0.7858332744465E+00
 0.8754630421706E+00
 0.9794472669033E+00
 0.1095864674447E+01
 0.1221611795170E+01
 0.1352484758879E+01
 0.1483428313832E+01
 0.1608866978679E+01
 0.4927175746856E+00
 0.5040082635411E+00
 0.5150580258841E+00
 0.5258979526735E+00
 0.5364666717216E+00
 0.5466120414090E+00
 0.5561155105357E+00
 0.5647270396803E+00
 0.5721992441253E+00
 0.5783138681054E+00
 0.5828983514061E+00
 0.5858334806439E+00
 0.5870547212474E+00
 0.5865500623571E+00
 0.5843567690040E+00
 0.5805587524498E+00
 0.5752855716086E+00
 0.5687137978331E+00
 0.5610706300682E+00
 0.5526401186629E+00
 0.5437721378134E+00
 0.5348937772379E+00
 0.5265239951150E+00
 0.5192897809410E+00
 0.5139383165402E+00
 0.5113651065933E+00
 0.5126588383004E+00
 0.5191336128564E+00
 0.5323347821848E+00
 0.5540038080516E+00
 0.5859855864629E+00
 0.6300704719234E+00
 0.6877811196984E+00
 0.7601434574847E+00
 0.8474714208120E+00
 0.9491451368238E+00
 0.1063406697908E+01
 0.1187250585684E+01
 0.1316470481281E+01
 0.1445909082277E+01
 0.1569805749770E+01
 0.4608373982737E+00
 0.4711590582268E+00
 0.4812656271412E+00
 0.4912553271749E+00
 0.5011128793863E+00
 0.5107120732944E+00
 0.5198448410810E+00
 0.5282618816083E+00
 0.5357115340778E+00
 0.5419692852720E+00
 0.5468558350786E+00
 0.5502452264234E+00
 0.5520661194371E+00
 0.5522993474493E+00
 0.5509742815780E+00
 0.5481657427518E+00
 0.5439924639415E+00
 0.5386177845498E+00
 0.5322525437605E+00
 0.5251605006651E+00
 0.5176664776750E+00
 0.5101670355242E+00
 0.5031444917459E+00
 0.4971824404195E+00
 0.4929768628475E+00
 0.4913640581073E+00
 0.4933665578823E+00
 0.5002270038286E+00
 0.5134179241812E+00
 0.5346151343246E+00
 0.5656193446430E+00
 0.6082164515243E+00
 0.6639812606067E+00
 0.7340575747896E+00
 0.8189372070962E+00
 0.9182103083882E+00
 0.1030311174739E+01
 0.1152346562826E+01
 0.1280095416924E+01
 0.1408265006528E+01
 0.1530879102222E+01
 0.4288874130196E+00
 0.4382252619942E+00
 0.4473831711042E+00
 0.4565291245473E+00
 0.4656930016461E+00
 0.4747713061342E+00
 0.4835626177514E+00
 0.4918151910145E+00
 0.4992711444896E+00
 0.5056990027961E+00
 0.5109129445009E+00
 0.5147810124631E+00
 0.5172259875952E+00
 0.5182224161981E+00
 0.5177924441842E+00
 0.5160021987766E+00
 0.5129596825832E+00
 0.5088147888127E+00
 0.5037614716880E+00
 0.4980423601303E+00
 0.4919560648715E+00
 0.4858671271085E+00
 0.4802193867820E+00
 0.4755508392123E+00
 0.4725036961936E+00
 0.4718520905645E+00
 0.4745489508067E+00
 0.4817614619769E+00
 0.4948849208695E+00
 0.5155252386934E+00
 0.5454360508583E+00
 0.5863992871568E+00
 0.6400484287521E+00
 0.7076603338492E+00
 0.7899300053194E+00
 0.8866917725429E+00
 0.9966082828572E+00
 0.1116920912190E+01
 0.1243382269562E+01
 0.1370521885612E+01
 0.1492122042192E+01
 0.3968557249390E+00
 0.4051882360201E+00
 0.4133871854176E+00
 0.4216932230204E+00
 0.4301800136671E+00
 0.4387628052916E+00
 0.4472422990110E+00
 0.4553606835552E+00
 0.4628517284172E+00
 0.4694762736120E+00
 0.4750422488803E+00
 0.4794125068688E+00
 0.4825049329337E+00
 0.4842887080871E+00
 0.4847794844989E+00
 0.4840351801035E+00
 0.4821532870414E+00
 0.4792702051589E+00
 0.4755626889404E+00
 0.4712516470232E+00
 0.4666085957828E+00
 0.4619648584108E+00
 0.4577242523248E+00
 0.4543772475799E+00
 0.4525099638772E+00
 0.4528316071761E+00
 0.4562221681476E+00
 0.4637692939703E+00
 0.4767861494790E+00
 0.4968032861935E+00
 0.5255222089501E+00
 0.5647182501530E+00
 0.6160865693315E+00
 0.6810495328141E+00
 0.7605303109737E+00
 0.8546451356942E+00
 0.9623298626094E+00
 0.1080994837216E+01
 0.1206357701811E+01
 0.1332710115979E+01
 0.1453567405591E+01
 0.3647300740765E+00
 0.3720284822549E+00
 0.3792532510979E+00
 0.3867208040805E+00
 0.3945465709892E+00
 0.4026596178614E+00
 0.4108574447593E+00
 0.4188721111579E+00
 0.4264267809838E+00
 0.4332739377508E+00
 0.4392156423013E+00
 0.4441104643289E+00
 0.4478724474251E+00
 0.4504663830997E+00
 0.4519022200398E+00
 0.4522302345204E+00
 0.4515377499706E+00
 0.4499477940563E+00
 0.4476198229993E+00
 0.4447526943765E+00
 0.4415902394865E+00
 0.4384296752133E+00
 0.4356335645443E+00
 0.4336432275529E+00
 0.4329866476302E+00
 0.4343055880049E+00
 0.4384039446152E+00
 0.4462857478933E+00
 0.4591767325125E+00
 0.4785254935775E+00
 0.5059741043382E+00
 0.5432851999760E+00
 0.5922144027933E+00
 0.6543383324946E+00
 0.7308321310634E+00
 0.8221348740127E+00
 0.9275098109062E+00
 0.1044587993510E+01
 0.1169054098589E+01
 0.1294870517764E+01
 0.1415242307222E+01
 0.3324977986597E+00
 0.3387255544676E+00
 0.3449559722976E+00
 0.3515844408805E+00
 0.3587652034602E+00
 0.3664350145946E+00
 0.3743819480552E+00
 0.3823234504748E+00
 0.3899697781048E+00
 0.3970645208239E+00
 0.4034044158703E+00
 0.4088447829647E+00
 0.4132969548024E+00
 0.4167223587556E+00
 0.4191260806578E+00
 0.4205513980998E+00
 0.4210759246112E+00
 0.4208096049158E+00
 0.4198947197605E+00
 0.4185080148884E+00
 0.4168653535656E+00
 0.4152292881964E+00
 0.4139202318872E+00
 0.4133290595791E+00
 0.4139238879343E+00
 0.4162768167058E+00
 0.4211127437300E+00
 0.4293481166406E+00
 0.4421156850673E+00
 0.4607744800611E+00
 0.4868976082432E+00
 0.5222251461219E+00
 0.5685669869183E+00
 0.6276578243527E+00
 0.7009460427145E+00
 0.7892373986249E+00
 0.8921852226950E+00
 0.1007714478365E+01
 0.1131509370843E+01
 0.1257066940597E+01
 0.1377161916285E+01
 0.3001457926562E+00
 0.3052579832547E+00
 0.3104690180257E+00
 0.3162563189964E+00
 0.3228086731987E+00
 0.3300628895962E+00
 0.3377903950573E+00
 0.3456891854018E+00
 0.3534543817800E+00
 0.3608203815413E+00
 0.3675793697880E+00
 0.3735845974424E+00
 0.3787458929940E+00
 0.3830223828618E+00
 0.3864151671356E+00
 0.3889612313172E+00
 0.3907290473887E+00
 0.3918159322907E+00
 0.3923473394711E+00
 0.3924781227541E+00
 0.3923962190919E+00
 0.3923293103202E+00
 0.3925551265659E+00
 0.3934131623794E+00
 0.3953102891462E+00
 0.3987470717190E+00
 0.4043668445803E+00
 0.4129947507660E+00
 0.4256649297617E+00
 0.4436384446033E+00
 0.4684077938892E+00
 0.5016766948584E+00
 0.5452973443519E+00
 0.6011600115837E+00
 0.6710030546093E+00
 0.7560446689024E+00
 0.8564006225545E+00
 0.9703762267274E+00
 0.1093757589933E+01
 0.1219415325754E+01
 0.1339312900581E+01
 0.2676604550476E+00
 0.2716032442946E+00
 0.2757653078831E+00
 0.2807086995763E+00
 0.2866506171094E+00
 0.2935184194595E+00
 0.3010586258607E+00
 0.3089447288327E+00
 0.3168547365039E+00
 0.3245139189588E+00
 0.3317109669849E+00
 0.3382984038643E+00
 0.3441858231306E+00
 0.3493311298521E+00
 0.3537323313100E+00
 0.3574208748279E+00
 0.3604567580426E+00
 0.3629252868389E+00
 0.3649356637086E+00
 0.3666213616527E+00
 0.3681427756451E+00
 0.3696928869436E+00
 0.3715066003255E+00
 0.3738714871777E+00
 0.3771321867161E+00
 0.3817162629635E+00
 0.3881833497869E+00
 0.3972639555040E+00
 0.4098881425630E+00
 0.4272101075302E+00
 0.4506282734770E+00
 0.4817922313710E+00
 0.5225780808910E+00
 0.5750209590752E+00
 0.6411597123463E+00
 0.7226681082355E+00
 0.8202135869616E+00
 0.9325686216648E+00
 0.1055776968211E+01
 0.1182154871749E+01
 0.1301633711944E+01
 0.2350276196461E+00
 0.2377378545456E+00
 0.2408174896484E+00
 0.2449148709765E+00
 0.2502667289454E+00
 0.2567791958241E+00
 0.2641646483534E+00
 0.2720670784873E+00
 0.2801459086448E+00
 0.2881178617825E+00
 0.2957695308120E+00
 0.3029542052759E+00
 0.3095825442022E+00
 0.3156122925958E+00
 0.3210392442273E+00
 0.3258900874451E+00
 0.3302170969931E+00
 0.3340943388501E+00
 0.3376155700302E+00
 0.3408936948725E+00
 0.3440623120628E+00
 0.3472802743045E+00
 0.3507399401805E+00
 0.3546768421482E+00
 0.3593728324336E+00
 0.3651814697320E+00
 0.3725770688948E+00
 0.3821927215286E+00
 0.3948493651447E+00
 0.4115853264919E+00
 0.4336901030437E+00
 0.4627376733390E+00
 0.5006026034154E+00
 0.5494444754318E+00
 0.6116024843370E+00
 0.6892488964039E+00
 0.7836862912549E+00
 0.8943257818507E+00
 0.1017403670535E+01
 0.1145616352155E+01
 0.1264157541079E+01
 0.2022319788697E+00
 0.2036336673094E+00
 0.2055922592704E+00
 0.2088412583325E+00
 0.2136240928674E+00
 0.2198112873028E+00
 0.2270712135591E+00
 0.2350139647687E+00
 0.2432798167124E+00
 0.2515782453783E+00
 0.2596955421978E+00
 0.2674874027301E+00
 0.2748668584642E+00
 0.2817925176251E+00
 0.2882588170558E+00
 0.2942884904613E+00
 0.2999269306734E+00
 0.3052378974114E+00
 0.3103007456562E+00
 0.3152089318610E+00
 0.3200703682037E+00
 0.3250107440365E+00
 0.3301805433497E+00
 0.3357635133851E+00
 0.3419785046122E+00
 0.3491044060073E+00
 0.3575289784626E+00
 0.3677855399953E+00
 0.3805812089773E+00
 0.3968293798142E+00
 0.4176945581398E+00
 0.4446499605908E+00
 0.4795357013108E+00
 0.5246034034857E+00
 0.5824803348490E+00
 0.6558690666329E+00
 0.7468195715107E+00
 0.8554935108165E+00
 0.9787019853085E+00
 0.1108448519594E+01
 0.1231743713848E+01
 0.1692579134972E+00
 0.1692666173345E+00
 0.1700669854679E+00
 0.1724718496784E+00
 0.1767122476813E+00
 0.1826057975052E+00
 0.1897672865154E+00
 0.1977701060574E+00
 0.2062363076685E+00
 0.2148703037771E+00
 0.2234602136780E+00
 0.2318657758732E+00
 0.2400035564329E+00
 0.2478338863520E+00
 0.2553505828657E+00
 0.2625731827604E+00
 0.2695410765934E+00
 0.2763087821287E+00
 0.2829425230886E+00
 0.2895177522429E+00
 0.2961182130738E+00
 0.3028378658995E+00
 0.3097864918046E+00
 0.3170968172040E+00
 0.3249249986615E+00
 0.3334751631380E+00
 0.3430479729205E+00
 0.3540754674000E+00
 0.3671472219171E+00
 0.3830434709761E+00
 0.4027876308607E+00
 0.4277246008544E+00
 0.4596199841415E+00
 0.5007716830989E+00
 0.5540634310492E+00
 0.6227496349989E+00
 0.7097248622421E+00
 0.8161299646694E+00
 0.9393917799121E+00
 0.1071530938171E+01
 0.1198958075586E+01
 0.1360909071112E+00
 0.1346206023434E+00
 0.1342391920245E+00
 0.1358218522490E+00
 0.1395575856286E+00
 0.1451911918709E+00
 0.1522773052901E+00
 0.1603536718513E+00
 0.1690275397040E+00
 0.1780014523281E+00
 0.1870675674937E+00
 0.1960909746605E+00
 0.2049925127701E+00
 0.2137347240288E+00
 0.2223112776362E+00
 0.2307391222818E+00
 0.2390524933194E+00
 0.2472978152053E+00
 0.2555296559154E+00
 0.2638072365798E+00
 0.2721920947653E+00
 0.2807484372947E+00
 0.2895471221531E+00
 0.2986712733639E+00
 0.3082153661770E+00
 0.3183094813961E+00
 0.3291676427485E+00
 0.3411203954447E+00
 0.3546376634862E+00
 0.3703601159875E+00
 0.3891554266787E+00
 0.4122120633229E+00
 0.4411755039594E+00
 0.4783295959530E+00
 0.5267598134647E+00
 0.5902656071639E+00
 0.6726912352268E+00
 0.7763608929024E+00
 0.8996405669028E+00
 0.1034563454247E+01
 0.1166323935308E+01
 0.1027161336712E+00
 0.9969029368681E-01
 0.9814131978528E-01
 0.9895966065184E-01
 0.1022403035384E+00
 0.1076363131375E+00
 0.1146479245836E+00
 0.1227884892340E+00
 0.1316584797797E+00
 0.1409625770230E+00
 0.1504983858830E+00
 0.1601364914219E+00
 0.1698017243620E+00
 0.1794585799208E+00
 0.1891005632989E+00
 0.1987423680567E+00
 0.2084138158770E+00
 0.2181544263961E+00
 0.2280087619482E+00
 0.2380218892359E+00
 0.2482355282767E+00
 0.2586866268583E+00
 0.2694094713917E+00
 0.2804395924637E+00
 0.2918113986719E+00
 0.3035823062047E+00
 0.3158809917478E+00
 0.3289374009571E+00
 0.3431011990562E+00
 0.3588690257277E+00
 0.3769402363769E+00
 0.3983196323529E+00
 0.4244832346399E+00
 0.4576269593111E+00
 0.5009551567563E+00
 0.5587726899229E+00
 0.6359549246451E+00
 0.7362713075318E+00
 0.8593840126304E+00
 0.9974873882035E+00
 0.1134433720078E+01
 0.6912384494153E-01
 0.6453614818935E-01
 0.6198228285353E-01
 0.6221152294210E-01
 0.6510039038768E-01
 0.7021592666931E-01
 0.7706651741678E-01
 0.8518677972930E-01
 0.9418739738674E-01
 0.1037762958637E+00
 0.1137524136482E+00
 0.1239872694371E+00
 0.1344061426428E+00
 0.1449731574632E+00
 0.1556803985548E+00
 0.1665399338254E+00
 0.1775775610565E+00
 0.1888269773199E+00
 0.2003244752667E+00
 0.2121032988971E+00
 0.2241881455879E+00
 0.2365917265380E+00
 0.2493147090244E+00
 0.2623476674588E+00
 0.2756671983431E+00
 0.2892601374440E+00
 0.3031719824378E+00
 0.3175341577429E+00
 0.3325771288262E+00
 0.3486514083260E+00
 0.3662785595942E+00
 0.3862554037007E+00
 0.4098386214045E+00
 0.4390510638786E+00
 0.4771028283639E+00
 0.5287157580043E+00
 0.5998429307537E+00
 0.6959888779747E+00
 0.8185736906339E+00
 0.9603362432897E+00
 0.1103458606374E+01
 0.3534197944120E-01
 0.2970919549934E-01
 0.2737580337492E-01
 0.2792061314940E-01
 0.3035641809732E-01
 0.3453160531005E-01
 0.4051369837508E-01
 0.4809610763673E-01
 0.5690416759487E-01
 0.6658864434011E-01
 0.7689644815995E-01
 0.8766566886554E-01
 0.9880213538738E-01
 0.1102585921226E+00
 0.1220198675918E+00
 0.1340926225408E+00
 0.1464977722153E+00
 0.1592636767554E+00
 0.1724198980731E+00
 0.1859902747269E+00
 0.1999855882063E+00
 0.2143978261772E+00
 0.2291975950395E+00
 0.2443338067932E+00
 0.2597281748365E+00
 0.2752997750546E+00
 0.2910140037758E+00
 0.3069070649142E+00
 0.3230930371120E+00
 0.3397768686701E+00
 0.3572968384811E+00
 0.3762225424427E+00
 0.3975448918008E+00
 0.4230223318714E+00
 0.4557275370755E+00
 0.5006488933291E+00
 0.5647991017547E+00
 0.6557131464852E+00
 0.7771915855689E+00
 0.9230585659699E+00
 0.1073523224318E+01
 0.3963771562780E-02
 0.1362595230465E-01
 0.2168619485584E-01
 0.2518341006827E-01
 0.2454682960321E-01
 0.2137023261836E-01
 0.1802887320058E-01
 0.1774735340323E-01
 0.2235010318133E-01
 0.3044134868205E-01
 0.4037907852644E-01
 0.5136919905756E-01
 0.6307166869235E-01
 0.7533889900857E-01
 0.8811114043272E-01
 0.1013732765717E+00
 0.1151342830034E+00
 0.1294147344583E+00
 0.1442376214540E+00
 0.1596192404818E+00
 0.1755595206393E+00
 0.1920335480501E+00
 0.2089859645560E+00
 0.2263279687018E+00
 0.2439300206857E+00
 0.2616470253317E+00
 0.2793682896502E+00
 0.2970393255470E+00
 0.3146623931476E+00
 0.3323002211886E+00
 0.3501069165396E+00
 0.3684126301320E+00
 0.3879041137016E+00
 0.4099854878450E+00
 0.4374246434526E+00
 0.4752536323524E+00
 0.5314210795315E+00
 0.6157579096138E+00
 0.7352328011741E+00
 0.8855515537690E+00
 0.1044753396051E+01
 0.3373493315598E-01
 0.4675804902468E-01
 0.5602637652351E-01
 0.5966946331323E-01
 0.5820347654306E-01
 0.5303974870559E-01
 0.4551112250288E-01
 0.3658940195239E-01
 0.2702789314383E-01
 0.1791649701692E-01
 0.1280226842276E-01
 0.1742044617131E-01
 0.2794658896068E-01
 0.4047837885615E-01
 0.5404630821087E-01
 0.6839894815935E-01
 0.8346661920426E-01
 0.9923837503828E-01
 0.1157222467117E+00
 0.1329251915772E+00
 0.1508378550476E+00
 0.1694218661285E+00
 0.1886002453338E+00
 0.2082509959588E+00
 0.2281976603518E+00
 0.2482353607466E+00
 0.2681822827631E+00
 0.2878989795207E+00
 0.3072821309900E+00
 0.3262583010088E+00
 0.3448014101042E+00
 0.3629984535470E+00
 0.3812061944771E+00
 0.4003957600591E+00
 0.4228517869864E+00
 0.4533528278731E+00
 0.5005078724138E+00
 0.5766035021407E+00
 0.6927292653091E+00
 0.8476720740327E+00
 0.1017285203749E+01
 0.6845168250041E-01
 0.8378134772279E-01
 0.9439963195175E-01
 0.9846953229395E-01
 0.9689282948692E-01
 0.9141195626616E-01
 0.8346917049076E-01
 0.7396046401438E-01
 0.6337592923470E-01
 0.5198427041575E-01
 0.3997300007240E-01
 0.2760801311253E-01
 0.1585696468099E-01
 0.1106337484612E-01
 0.2086651895963E-01
 0.3544556572243E-01
 0.5155996367548E-01
 0.6872289934859E-01
 0.8682792197734E-01
 0.1058441856988E+00
 0.1257454403412E+00
 0.1464800797697E+00
 0.1679530351671E+00
 0.1900138653596E+00
 0.2124441795505E+00
 0.2349845353132E+00
 0.2573879455078E+00
 0.2794368980071E+00
 0.3009302355727E+00
 0.3216668507493E+00
 0.3414491947766E+00
 0.3601266699683E+00
 0.3777164867488E+00
 0.3947001318659E+00
 0.4127100013859E+00
 0.4359146140466E+00
 0.4731128376769E+00
 0.5389780837460E+00
 0.6497982340653E+00
 0.8092382511819E+00
 0.9912718845924E+00
 0.1036367000749E+00
 0.1218523086126E+00
 0.1340396339125E+00
 0.1385222912023E+00
 0.1368099963874E+00
 0.1310795145430E+00
 0.1229057928940E+00
 0.1131553818928E+00
 0.1022481590823E+00
 0.9038158243416E-01
 0.7765315383523E-01
 0.6412001295614E-01
 0.4983670181995E-01
 0.3492038501749E-01
 0.1988535428421E-01
 0.9756345901614E-02
 0.2027186094585E-01
 0.3801721199327E-01
 0.5754901788899E-01
 0.7832110911545E-01
 0.1002059610499E+00
 0.1231200854126E+00
 0.1469487737885E+00
 0.1715169640560E+00
 0.1965697363377E+00
 0.2217991510540E+00
 0.2469000128189E+00
 0.2715847390402E+00
 0.2955633482858E+00
 0.3185175364469E+00
 0.3400911685804E+00
 0.3599107922276E+00
 0.3776629563366E+00
 0.3933146031741E+00
 0.4077126854524E+00
 0.4240377201646E+00
 0.4505951832056E+00
 0.5039763594136E+00
 0.6067265929519E+00
 0.7700307272667E+00
 0.9668935997538E+00
 0.1392914967375E+00
 0.1608504387188E+00
 0.1746680564719E+00
 0.1794071038875E+00
 0.1774339553283E+00
 0.1714275084175E+00
 0.1630576555088E+00
 0.1531241846733E+00
 0.1419695354487E+00
 0.1297395895426E+00
 0.1164998936907E+00
 0.1022816034981E+00
 0.8709978886944E-01
 0.7096371201288E-01
 0.5389358350427E-01
 0.3598467725767E-01
 0.1788823546744E-01
 0.1027966354658E-01
 0.2814727221924E-01
 0.5034350811140E-01
 0.7414790759524E-01
 0.9924932674561E-01
 0.1254835578237E+00
 0.1526493958602E+00
 0.1804604422999E+00
 0.2085671576041E+00
 0.2366141710498E+00
 0.2642528539869E+00
 0.2911143918886E+00
 0.3167751213416E+00
 0.3407363977341E+00
 0.3624248434471E+00
 0.3812239357173E+00
 0.3965993706531E+00
 0.4085426784642E+00
 0.4189093079304E+00
 0.4346531264878E+00
 0.4732215576196E+00
 0.5641183436274E+00
 0.7298043539323E+00
 0.9443757155546E+00
 0.1754836898010E+00
 0.2008577544783E+00
 0.2162528262153E+00
 0.2209852072876E+00
 0.2185963471694E+00
 0.2122973381150E+00
 0.2037708970534E+00
 0.1936972522161E+00
 0.1823290033662E+00
 0.1697650696916E+00
 0.1560491092833E+00
 0.1412018855639E+00
 0.1252309037576E+00
 0.1081330120313E+00
 0.8989664182667E-01
 0.7050860645997E-01
 0.4997928586870E-01
 0.2848515611632E-01
 0.8987876117203E-02
 0.2223931795857E-01
 0.4753073616877E-01
 0.7477383784515E-01
 0.1034452377446E+00
 0.1332883413554E+00
 0.1639872123710E+00
 0.1951582736378E+00
 0.2264051560893E+00
 0.2573281460859E+00
 0.2874902206351E+00
 0.3163748232602E+00
 0.3433587262770E+00
 0.3676979037137E+00
 0.3885173244934E+00
 0.4048343550211E+00
 0.4158001474106E+00
 0.4217291610823E+00
 0.4273112135006E+00
 0.4490642062133E+00
 0.5231543482792E+00
 0.6883311571599E+00
 0.9240250906237E+00
 0.2123215404424E+00
 0.2420271471986E+00
 0.2588006422535E+00
 0.2631526406505E+00
 0.2601981998346E+00
 0.2536330839040E+00
 0.2450164287296E+00
 0.2348525850549E+00
 0.2233002019451E+00
 0.2104193075988E+00
 0.1962400140734E+00
 0.1807800220824E+00
 0.1640467151046E+00
 0.1460356587816E+00
 0.1267296078588E+00
 0.1060994923870E+00
 0.8410909760004E-01
 0.6073107560706E-01
 0.3601982373769E-01
 0.1121993741005E-01
 0.2058175810611E-01
 0.4961062321850E-01
 0.8071418085077E-01
 0.1132984951336E+00
 0.1470045641948E+00
 0.1814222989132E+00
 0.2161247533128E+00
 0.2506718822221E+00
 0.2845692999572E+00
 0.3172198719386E+00
 0.3478939373545E+00
 0.3757097041337E+00
 0.3995917361864E+00
 0.4181975260585E+00
 0.4299459821140E+00
 0.4335985050413E+00
 0.4308287968071E+00
 0.4347785371720E+00
 0.4860425733246E+00
 0.6455237002501E+00
 0.9063055424653E+00
 0.2499710165124E+00
 0.2845670606114E+00
 0.3022924309678E+00
 0.3057741258000E+00
 0.3021569518457E+00
 0.2954227050287E+00
 0.2868131336890E+00
 0.2766157270160E+00
 0.2649065634096E+00
 0.2517202200150E+00
 0.2370831586454E+00
 0.2210168631430E+00
 0.2035333155754E+00
 0.1846307182116E+00
 0.1642911388448E+00
 0.1424802138622E+00
 0.1191489182142E+00
 0.9423906073570E-01
 0.6769556355687E-01
 0.3951896904504E-01
 0.1064406757666E-01
 0.2378153870948E-01
 0.5716632521663E-01
 0.9253163924814E-01
 0.1293493419121E+00
 0.1671872721180E+00
 0.2055996814586E+00
 0.2441174747607E+00
 0.2821994341023E+00
 0.3191792714700E+00
 0.3542375772403E+00
 0.3863875619519E+00
 0.4144197790678E+00
 0.4367480178167E+00
 0.4512476974882E+00
 0.4553749837985E+00
 0.4474984455848E+00
 0.4346643759862E+00
 0.4567576182402E+00
 0.6017604957445E+00
 0.8920044761104E+00
 0.2886966405284E+00
 0.3287412865253E+00
 0.3466205051442E+00
 0.3486485422816E+00
 0.3444048106380E+00
 0.3376917955348E+00
 0.3292104293555E+00
 0.3190363436229E+00
 0.3071923634155E+00
 0.2937054667913E+00
 0.2786101815009E+00
 0.2619388112450E+00
 0.2437120503216E+00
 0.2239332439556E+00
 0.2025855961409E+00
 0.1796316888671E+00
 0.1550147149900E+00
 0.1286621667872E+00
 0.1004910801988E+00
 0.7042003703118E-01
 0.3841654100749E-01
 0.6027334299762E-02
 0.3268998957424E-01
 0.7082651832916E-01
 0.1108393256360E+00
 0.1522574015795E+00
 0.1946293366093E+00
 0.2374682733680E+00
 0.2801955802902E+00
 0.3220857525213E+00
 0.3622434840029E+00
 0.3996052690523E+00
 0.4328939523011E+00
 0.4604145177509E+00
 0.4797389788360E+00
 0.4875029129512E+00
 0.4792935020806E+00
 0.4539180410901E+00
 0.4421092778782E+00
 0.5587187320989E+00
 0.8826293394453E+00
 0.3289458324846E+00
 0.3748552233469E+00
 0.3914819082805E+00
 0.3914932799436E+00
 0.3869187302076E+00
 0.3805109984214E+00
 0.3722830446552E+00
 0.3621810701152E+00
 0.3502137016473E+00
 0.3364216997403E+00
 0.3208606846385E+00
 0.3035805568736E+00
 0.2846144285247E+00
 0.2639726753935E+00
 0.2416405436826E+00
 0.2175780655036E+00
 0.1917214138736E+00
 0.1639862450887E+00
 0.1342713568790E+00
 0.1024647773827E+00
 0.6845604446144E-01
 0.3218615457677E-01
 0.7550423714922E-02
 0.4800965719655E-01
 0.9127163501287E-01
 0.1364106234731E+00
 0.1829833376640E+00
 0.2304954380397E+00
 0.2783378115681E+00
 0.3257338772772E+00
 0.3717228872311E+00
 0.4151845222721E+00
 0.4548275182543E+00
 0.4889869804524E+00
 0.5152040230316E+00
 0.5298649159855E+00
 0.5272923173676E+00
 0.4980858868746E+00
 0.4529164149037E+00
 0.5214646403894E+00
 0.8814469762235E+00
 0.3715343997781E+00
 0.4231681887703E+00
 0.4361768437497E+00
 0.4339864730885E+00
 0.4297837743970E+00
 0.4239985215294E+00
 0.4161286129973E+00
 0.4061309722670E+00
 0.3940343117763E+00
 0.3799202384244E+00
 0.3638773440951E+00
 0.3459793016178E+00
 0.3262746964805E+00
 0.3047822578349E+00
 0.2814896626254E+00
 0.2563542744435E+00
 0.2293049593541E+00
 0.2002455087733E+00
 0.1690577728684E+00
 0.1356058923256E+00
 0.9974228730894E-01
 0.6131795629071E-01
 0.2025456780643E-01
 0.2390275275416E-01
 0.7042077972913E-01
 0.1193955557910E+00
 0.1703987822347E+00
 0.2229360143352E+00
 0.2763696162505E+00
 0.3298780922359E+00
 0.3824439556688E+00
 0.4328982939643E+00
 0.4799649724654E+00
 0.5221138690430E+00
 0.5571726844964E+00
 0.5817723124380E+00
 0.5908978587858E+00
 0.5715756718013E+00
 0.5046992506649E+00
 0.5034305430627E+00
 0.8965299122380E+00
 0.4181036543397E+00
 0.4734964810898E+00
 0.4792626651648E+00
 0.4760039519233E+00
 0.4732555853466E+00
 0.4683015406750E+00
 0.4608720529576E+00
 0.4509778678531E+00
 0.4387230607434E+00
 0.4242545827108E+00
 0.4077033990558E+00
 0.3891721292214E+00
 0.3687268056194E+00
 0.3463952171068E+00
 0.3221673751224E+00
 0.2959974689378E+00
 0.2678063712390E+00
 0.2374853367999E+00
 0.2048990074132E+00
 0.1698886997178E+00
 0.1322759314432E+00
 0.9186327939550E-01
 0.4844470071873E-01
 0.2249768684358E-02
 0.4803605034199E-01
 0.1009274357082E+00
 0.1565770644597E+00
 0.2144913226699E+00
 0.2739969766349E+00
 0.3342305220006E+00
 0.3941307056463E+00
 0.4524768458967E+00
 0.5079985304154E+00
 0.5593349055137E+00
 0.6048679820034E+00
 0.6421604183020E+00
 0.6674702365841E+00
 0.6739785591317E+00
 0.6167476905029E+00
 0.5364334645021E+00
 0.9513577757739E+00
 0.4724539533204E+00
 0.5233867372158E+00
 0.5183813180202E+00
 0.5183187406657E+00
 0.5176077213760E+00
 0.5136181666289E+00
 0.5066620914815E+00
 0.4968197589977E+00
 0.4843522500462E+00
 0.4694781704942E+00
 0.4523809976612E+00
 0.4331943602042E+00
 0.4120027579906E+00
 0.3888428895377E+00
 0.3637065322371E+00
 0.3365438248454E+00
 0.3072667147237E+00
 0.2757530408171E+00
 0.2418495684451E+00
 0.2053749871918E+00
 0.1661220733078E+00
 0.1238546449303E+00
 0.7829793316667E-01
 0.2915287744996E-01
 0.2383771318812E-01
 0.8068242881091E-01
 0.1411801210351E+00
 0.2048258073105E+00
 0.2708887099859E+00
 0.3384595978929E+00
 0.4064570768782E+00
 0.4736185043303E+00
 0.5385876196774E+00
 0.6001444278383E+00
 0.6572419893447E+00
 0.7093879578880E+00
 0.7541226548415E+00
 0.7941552464135E+00
 0.8035696433163E+00
 0.6820650960861E+00
 0.1129186320298E+01
 0.5455445266413E+00
 0.5580992080996E+00
 0.5549853145817E+00
 0.5621124812413E+00
 0.5630416063561E+00
 0.5602541159331E+00
 0.5536405259296E+00
 0.5437646205748E+00
 0.5309928332804E+00
 0.5156430383011E+00
 0.4979495541617E+00
 0.4780783221756E+00
 0.4561314249694E+00
 0.4321535378478E+00
 0.4061370841269E+00
 0.3780269821618E+00
 0.3477248669223E+00
 0.3150945828077E+00
 0.2799636819562E+00
 0.2421286901143E+00
 0.2013550980377E+00
 0.1573743167735E+00
 0.1098688108397E+00
 0.5842147512414E-01
 0.2496533691672E-02
 0.5828951064630E-01
 0.1238260031098E+00
 0.1935664578397E+00
 0.2666785680704E+00
 0.3421911616106E+00
 0.4190369469484E+00
 0.4959809495781E+00
 0.5714410760578E+00
 0.6439452543847E+00
 0.7133943881838E+00
 0.7805003061402E+00
 0.8492290383598E+00
 0.9160918983139E+00
 0.1036044867807E+01
 0.1015730595897E+01
 0.1825077404983E+01
 0.3394873879615E+00
 0.4807186362867E+00
 0.6174502071803E+00
 0.7442606256898E+00
 0.8589177609561E+00
 0.9607015107448E+00
 0.1049529699190E+01
 0.1125923448070E+01
 0.1190928067498E+01
 0.1245800631918E+01
 0.1291792927086E+01
 0.1330084099627E+01
 0.1361750309382E+01
 0.1387719442226E+01
 0.1408747338458E+01
 0.1425417248446E+01
 0.1437956655059E+01
 0.1446491616578E+01
 0.1451788043861E+01
 0.1455163400070E+01
 0.3275553392906E+00
 0.4679505421843E+00
 0.6036968985651E+00
 0.7302037890990E+00
 0.8452787136122E+00
 0.9481505083493E+00
 0.1038710493475E+01
 0.1117359135681E+01
 0.1184965354918E+01
 0.1242633993708E+01
 0.1291509944752E+01
 0.1332703668967E+01
 0.1367253656571E+01
 0.1396085254778E+01
 0.1419986416423E+01
 0.1439554109273E+01
 0.1455007678882E+01
 0.1466535935740E+01
 0.1474074550685E+01
 0.1476647922418E+01
 0.3162589678184E+00
 0.4562678470534E+00
 0.5913117734068E+00
 0.7174941739967E+00
 0.8328374916173E+00
 0.9365606199711E+00
 0.1028522096061E+01
 0.1109053990600E+01
 0.1178900500762E+01
 0.1239038400569E+01
 0.1290515625931E+01
 0.1334376220938E+01
 0.1371617888706E+01
 0.1403148433761E+01
 0.1429742706795E+01
 0.1451965252527E+01
 0.1470050765366E+01
 0.1484026133165E+01
 0.1493564524832E+01
 0.1498284623920E+01
 0.3056159868264E+00
 0.4454866669901E+00
 0.5800306482395E+00
 0.7059051430479E+00
 0.8213827244944E+00
 0.9257342911309E+00
 0.1018811582068E+01
 0.1100902096708E+01
 0.1172659972583E+01
 0.1234959425520E+01
 0.1288762525431E+01
 0.1335048968374E+01
 0.1374769940008E+01
 0.1408798411834E+01
 0.1437872987510E+01
 0.1462521312414E+01
 0.1482954016807E+01
 0.1499157271518E+01
 0.1510994660299E+01
 0.1518539408486E+01
 0.2955906908837E+00
 0.4354921266238E+00
 0.5696585541400E+00
 0.6952267280884E+00
 0.8107204659653E+00
 0.9154996822035E+00
 0.1009436765930E+01
 0.1092795393269E+01
 0.1166163849561E+01
 0.1230334580654E+01
 0.1286194742858E+01
 0.1334661801114E+01
 0.1376635332502E+01
 0.1412943112226E+01
 0.1444280592392E+01
 0.1471137613931E+01
 0.1493728411860E+01
 0.1512111083064E+01
 0.1526353089378E+01
 0.1536833988675E+01
 0.2861445984666E+00
 0.4261784058532E+00
 0.5600363833463E+00
 0.6852780355160E+00
 0.8006761261859E+00
 0.9057008853956E+00
 0.1000265834442E+01
 0.1084628271441E+01
 0.1159329597312E+01
 0.1225096927256E+01
 0.1282752142756E+01
 0.1333153269964E+01
 0.1377146184021E+01
 0.1415510128110E+01
 0.1448898073609E+01
 0.1477776167547E+01
 0.1502391541922E+01
 0.1522895732406E+01
 0.1539519522032E+01
 0.1552831903250E+01
 0.2772409295020E+00
 0.4174514983482E+00
 0.5510265312805E+00
 0.6759022935258E+00
 0.7910944074893E+00
 0.8961962271144E+00
 0.9911764692161E+00
 0.1076299636165E+01
 0.1152075278359E+01
 0.1219178427253E+01
 0.1278374138443E+01
 0.1330464765419E+01
 0.1376243547026E+01
 0.1416442594079E+01
 0.1451678978058E+01
 0.1482409670893E+01
 0.1508924489960E+01
 0.1531461525317E+01
 0.1550367717784E+01
 0.1566315695182E+01
 0.2688464208519E+00
 0.4092280160110E+00
 0.5425089120186E+00
 0.6669621270119E+00
 0.7818373005808E+00
 0.8868574823112E+00
 0.9820558469082E+00
 0.1067714163044E+01
 0.1144321881540E+01
 0.1212512729714E+01
 0.1273002542338E+01
 0.1326542675978E+01
 0.1373877110345E+01
 0.1415695266058E+01
 0.1452586090937E+01
 0.1485006295360E+01
 0.1513287828693E+01
 0.1537739097618E+01
 0.1558783128506E+01
 0.1577131666494E+01
 0.2609315705904E+00
 0.4014345029804E+00
 0.5343783022750E+00
 0.6583367124782E+00
 0.7727820924394E+00
 0.8775690797591E+00
 0.9728007537997E+00
 0.1058783277689E+01
 0.1135995026270E+01
 0.1205037228790E+01
 0.1266583433413E+01
 0.1321339262468E+01
 0.1370004197160E+01
 0.1413230493635E+01
 0.1451585479049E+01
 0.1485529924738E+01
 0.1515432494604E+01
 0.1541654714833E+01
 0.1564663725129E+01
 0.1585163870983E+01
 0.2534704792179E+00
 0.3940065897732E+00
 0.5265425716376E+00
 0.6499197647446E+00
 0.7638199021101E+00
 0.8682274198147E+00
 0.9633176837708E+00
 0.1049425931175E+01
 0.1127026239899E+01
 0.1196694516626E+01
 0.1259068308077E+01
 0.1314812957336E+01
 0.1364588693031E+01
 0.1409015980992E+01
 0.1448645305109E+01
 0.1483942765110E+01
 0.1515306738589E+01
 0.1543136538896E+01
 0.1567919654629E+01
 0.1590322780969E+01
 0.2464404627485E+00
 0.3868881248853E+00
 0.5189212530003E+00
 0.6416180144619E+00
 0.7548545144092E+00
 0.8587402790506E+00
 0.9535228355281E+00
 0.1039569125981E+01
 0.1117353842013E+01
 0.1187433347393E+01
 0.1250414775041E+01
 0.1306928460954E+01
 0.1357600481483E+01
 0.1403024200823E+01
 0.1443736484461E+01
 0.1480208253549E+01
 0.1512860566916E+01
 0.1542118094255E+01
 0.1568472683380E+01
 0.1592538289830E+01
 0.2398216380563E+00
 0.3800303649550E+00
 0.5114443881294E+00
 0.6333500266630E+00
 0.7458014747301E+00
 0.8490263242614E+00
 0.9433420751256E+00
 0.1029148275732E+01
 0.1106923562220E+01
 0.1177209299644E+01
 0.1240587033737E+01
 0.1297656905807E+01
 0.1349015439717E+01
 0.1395232736300E+01
 0.1436834053108E+01
 0.1474293680685E+01
 0.1508048997564E+01
 0.1538540530814E+01
 0.1566255081272E+01
 0.1591750224291E+01
 0.2335964992310E+00
 0.3733912233195E+00
 0.5040515411568E+00
 0.6250452229884E+00
 0.7365873299153E+00
 0.8390146723816E+00
 0.9327108350867E+00
 0.1018107404973E+01
 0.1095688936263E+01
 0.1165985222086E+01
 0.1229556243578E+01
 0.1286976134457E+01
 0.1338815800717E+01
 0.1385625078849E+01
 0.1427918726630E+01
 0.1466172514271E+01
 0.1500834674564E+01
 0.1532354598778E+01
 0.1561209117530E+01
 0.1587903530555E+01
 0.2277495211184E+00
 0.3669345808969E+00
 0.4966909389958E+00
 0.6166430425970E+00
 0.7271489650510E+00
 0.8286444749094E+00
 0.9215739605049E+00
 0.1006399228710E+01
 0.1083611547324E+01
 0.1153731545851E+01
 0.1217300849736E+01
 0.1274871071208E+01
 0.1326990719548E+01
 0.1374191605803E+01
 0.1416978439835E+01
 0.1455826433428E+01
 0.1491190114624E+01
 0.1523522719602E+01
 0.1553289206377E+01
 0.1580951157828E+01
 0.2222668177040E+00
 0.3606296805017E+00
 0.4893187305721E+00
 0.6080922226418E+00
 0.7174330247529E+00
 0.8178645340913E+00
 0.9098855304469E+00
 0.9939851600252E+00
 0.1070661174411E+01
 0.1140426523013E+01
 0.1203806893402E+01
 0.1261334149329E+01
 0.1313536927372E+01
 0.1360930589788E+01
 0.1404009772958E+01
 0.1443247099875E+01
 0.1479099663621E+01
 0.1512021098095E+01
 0.1542464725301E+01
 0.1570858486122E+01
 0.2171358326639E+00
 0.3544505714989E+00
 0.4818983141453E+00
 0.5993501390298E+00
 0.7073953637159E+00
 0.8066329072516E+00
 0.8976086261446E+00
 0.9808352318684E+00
 0.1056815842128E+01
 0.1126056379967E+01
 0.1189068270210E+01
 0.1246365717249E+01
 0.1298459361476E+01
 0.1345849125447E+01
 0.1389019192836E+01
 0.1428437647365E+01
 0.1464561135387E+01
 0.1497841475528E+01
 0.1528721891384E+01
 0.1557606473311E+01
 0.2123450814776E+00
 0.3483756180074E+00
 0.4743997386566E+00
 0.5903822120569E+00
 0.6970005370762E+00
 0.7949165194178E+00
 0.8847150763417E+00
 0.9669279710258E+00
 0.1042061810368E+01
 0.1110615413259E+01
 0.1173086941419E+01
 0.1229974399837E+01
 0.1281771726845E+01
 0.1328963930208E+01
 0.1372024087968E+01
 0.1411413888914E+01
 0.1447587101124E+01
 0.1480992398525E+01
 0.1512065072137E+01
 0.1541194056060E+01
 0.2078839277350E+00
 0.3423870532557E+00
 0.4667991542101E+00
 0.5811613511672E+00
 0.6862213087332E+00
 0.7826907689934E+00
 0.8711851716631E+00
 0.9522502213923E+00
 0.1026393501159E+01
 0.1094106017926E+01
 0.1155873074441E+01
 0.1212177376985E+01
 0.1263496944695E+01
 0.1310301981432E+01
 0.1353053578228E+01
 0.1392205239068E+01
 0.1428205835678E+01
 0.1461500128643E+01
 0.1492517821669E+01
 0.1521640013358E+01
 0.2037423929553E+00
 0.3364705714575E+00
 0.4590783008046E+00
 0.5716674272603E+00
 0.6750381687136E+00
 0.7699391212478E+00
 0.8570073460780E+00
 0.9367969159010E+00
 0.1009813359432E+01
 0.1076538637717E+01
 0.1137445091454E+01
 0.1193000548458E+01
 0.1243667453035E+01
 0.1289900960272E+01
 0.1332149083271E+01
 0.1370855354961E+01
 0.1406461963452E+01
 0.1439409276695E+01
 0.1470123674524E+01
 0.1498984382229E+01
 0.1999109980607E+00
 0.3306149587664E+00
 0.4512240352314E+00
 0.5618867751892E+00
 0.6634388664512E+00
 0.7566527008779E+00
 0.8421778399370E+00
 0.9205708126528E+00
 0.9923316610618E+00
 0.1057931645014E+01
 0.1117829626467E+01
 0.1172478578886E+01
 0.1222325350802E+01
 0.1267809497772E+01
 0.1309364656146E+01
 0.1347422524362E+01
 0.1382416862141E+01
 0.1414783209968E+01
 0.1444946679367E+01
 0.1473289441254E+01
 0.1963806249535E+00
 0.3248117484151E+00
 0.4432278795723E+00
 0.5518117096574E+00
 0.6514179447767E+00
 0.7428298703211E+00
 0.8267003326891E+00
 0.9035821836571E+00
 0.9739662552290E+00
 0.1038311134406E+01
 0.1097061371060E+01
 0.1150654800548E+01
 0.1199522363761E+01
 0.1244087206280E+01
 0.1284767075416E+01
 0.1321979808556E+01
 0.1356148854763E+01
 0.1387704289190E+01
 0.1417071653890E+01
 0.1444640175354E+01
 0.1931423972432E+00
 0.3190548989076E+00
 0.4350855906457E+00
 0.5414400561001E+00
 0.6389762790731E+00
 0.7284758007985E+00
 0.8105855537771E+00
 0.8858484648809E+00
 0.9547422483993E+00
 0.1017710634464E+01
 0.1075182809948E+01
 0.1127580972296E+01
 0.1175319629414E+01
 0.1218804494763E+01
 0.1258435697153E+01
 0.1294614945290E+01
 0.1327753195406E+01
 0.1358274013345E+01
 0.1386604467745E+01
 0.1413144675581E+01
 0.1901875744818E+00
 0.3133404900456E+00
 0.4267967453340E+00
 0.5307746932668E+00
 0.6261206206721E+00
 0.7136020371872E+00
 0.7938508741228E+00
 0.8673938704766E+00
 0.9346916323213E+00
 0.9961707387479E+00
 0.1052243845608E+01
 0.1103316892217E+01
 0.1149787297589E+01
 0.1192042164247E+01
 0.1230462062339E+01
 0.1265430000815E+01
 0.1297341832065E+01
 0.1326613012004E+01
 0.1353672622666E+01
 0.1378935037168E+01
 0.1875074543437E+00
 0.3076664305627E+00
 0.4183643360590E+00
 0.5198231034247E+00
 0.6128631425076E+00
 0.6982260565289E+00
 0.7765198792709E+00
 0.8482489730167E+00
 0.9138528581082E+00
 0.9737386578465E+00
 0.1028301313031E+01
 0.1077929864054E+01
 0.1123003945323E+01
 0.1163890779850E+01
 0.1200949251189E+01
 0.1234540754142E+01
 0.1265042893759E+01
 0.1292860760549E+01
 0.1318425328428E+01
 0.1342168273969E+01
 0.1850932789565E+00
 0.3020321727538E+00
 0.4097943729516E+00
 0.5085969289098E+00
 0.5992209880709E+00
 0.6823708230369E+00
 0.7586219283535E+00
 0.8284502549209E+00
 0.8922703624000E+00
 0.9504676988819E+00
 0.1003418390862E+01
 0.1051494022589E+01
 0.1095055808979E+01
 0.1134449817950E+01
 0.1170010975390E+01
 0.1202075789068E+01
 0.1230999858902E+01
 0.1257174886835E+01
 0.1281032906291E+01
 0.1303025846872E+01
 0.1829361440086E+00
 0.2964384337724E+00
 0.4010954956945E+00
 0.4971115422650E+00
 0.5852158345966E+00
 0.6660643531042E+00
 0.7401917141652E+00
 0.8080396479307E+00
 0.8699940640701E+00
 0.9264166923101E+00
 0.9776639291518E+00
 0.1024089536912E+01
 0.1066035849075E+01
 0.1103826597977E+01
 0.1137770407156E+01
 0.1168175276927E+01
 0.1195370364302E+01
 0.1219730064648E+01
 0.1241685754875E+01
 0.1261712372243E+01
 0.1810268981195E+00
 0.2908869082027E+00
 0.3922785789051E+00
 0.4853856146233E+00
 0.5708734559045E+00
 0.6493392759450E+00
 0.7212688101549E+00
 0.7870640475581E+00
 0.8470788209090E+00
 0.9016493588239E+00
 0.9511116893759E+00
 0.9958016880245E+00
 0.1036042642405E+01
 0.1072134989394E+01
 0.1104358729616E+01
 0.1132989421826E+01
 0.1158324608911E+01
 0.1180716445745E+01
 0.1200592787653E+01
 0.1218453527734E+01
 0.1793560387690E+00
 0.2853799770392E+00
 0.3833563446630E+00
 0.4734407040642E+00
 0.5562233125359E+00
 0.6322324205142E+00
 0.7018972365055E+00
 0.7655748366609E+00
 0.8235838840794E+00
 0.8762336589970E+00
 0.9238395431826E+00
 0.9667198672267E+00
 0.1005179142690E+01
 0.1039493926969E+01
 0.1069913435503E+01
 0.1096676590104E+01
 0.1120043351595E+01
 0.1140337568921E+01
 0.1157979232346E+01
 0.1173493098468E+01
 0.1779135882986E+00
 0.2799203977608E+00
 0.3743429700760E+00
 0.4613008572176E+00
 0.5412981647945E+00
 0.6147844231925E+00
 0.6821250372216E+00
 0.7436274092300E+00
 0.7995723445486E+00
 0.8502411267433E+00
 0.8959286382173E+00
 0.9369365059743E+00
 0.9735513142973E+00
 0.1006025727005E+01
 0.1034576360829E+01
 0.1059401126026E+01
 0.1080715516697E+01
 0.1098807693249E+01
 0.1114083675559E+01
 0.1127089328503E+01
 0.1766889430252E+00
 0.2745109602789E+00
 0.3652536835501E+00
 0.4489922258161E+00
 0.5261337139271E+00
 0.5970393591489E+00
 0.6620038665144E+00
 0.7212806908233E+00
 0.7751105728505E+00
 0.8237462005344E+00
 0.8674625609840E+00
 0.9065459776604E+00
 0.9412666752988E+00
 0.9718542223202E+00
 0.9984914566459E+00
 0.1021330879779E+01
 0.1040535539255E+01
 0.1056348767103E+01
 0.1069154432977E+01
 0.1079511573040E+01
 0.1756706864897E+00
 0.2691541056042E+00
 0.3561043691419E+00
 0.4365427403748E+00
 0.5107683247071E+00
 0.5790444498403E+00
 0.6415886304948E+00
 0.6985966973084E+00
 0.7502676983624E+00
 0.7968256153142E+00
 0.8385265854689E+00
 0.8756435812930E+00
 0.9084328575504E+00
 0.9371027881691E+00
 0.9618023226789E+00
 0.9826344665318E+00
 0.9997005947613E+00
 0.1013187673036E+01
 0.1023446370053E+01
 0.1031039872919E+01
 0.1748463289603E+00
 0.2638514576439E+00
 0.3469111468373E+00
 0.4239818240164E+00
 0.4952428112020E+00
 0.5608498121244E+00
 0.6209371275129E+00
 0.6756400585261E+00
 0.7251150511055E+00
 0.7695577953827E+00
 0.8092069870526E+00
 0.8443246331978E+00
 0.8751562262391E+00
 0.9018922551299E+00
 0.9246493997123E+00
 0.9434780816566E+00
 0.9584075968079E+00
 0.9695540166602E+00
 0.9772201347063E+00
 0.9819672093514E+00
 0.1742019485689E+00
 0.2586032456040E+00
 0.3376899667771E+00
 0.4113402302353E+00
 0.4796003814408E+00
 0.5425083246730E+00
 0.6001097357364E+00
 0.6524775317790E+00
 0.6997255800674E+00
 0.7420222733610E+00
 0.7795904970703E+00
 0.8126838243683E+00
 0.8415407787427E+00
 0.8663388736653E+00
 0.8871667952990E+00
 0.9040216179283E+00
 0.9168496051698E+00
 0.9256778905215E+00
 0.9307422852123E+00
 0.9325992815240E+00
 0.1737216361079E+00
 0.2534075373930E+00
 0.3284562215366E+00
 0.3986500820235E+00
 0.4638868096702E+00
 0.5240756452683E+00
 0.5791691376202E+00
 0.6291774721984E+00
 0.6741731990691E+00
 0.7142990896249E+00
 0.7497639083710E+00
 0.7808150077272E+00
 0.8076876722848E+00
 0.8305527307828E+00
 0.8494788365294E+00
 0.8644137157769E+00
 0.8752109593815E+00
 0.8817869310429E+00
 0.8842837242873E+00
 0.8832527883482E+00
 0.1733866156230E+00
 0.2482591347879E+00
 0.3192244589025E+00
 0.3859452463321E+00
 0.4481509568406E+00
 0.5056103733284E+00
 0.5581800286713E+00
 0.6058091617848E+00
 0.6485319286959E+00
 0.6864679948256E+00
 0.7198136441250E+00
 0.7488113716121E+00
 0.7736957401149E+00
 0.7946372457687E+00
 0.8116967077405E+00
 0.8247848951096E+00
 0.8336595518808E+00
 0.8381015124619E+00
 0.8381180522554E+00
 0.8342528159621E+00
 0.1731736711992E+00
 0.2431480507248E+00
 0.3100083217315E+00
 0.3732625504618E+00
 0.4324457988325E+00
 0.4871744778404E+00
 0.5372088170610E+00
 0.5824420577842E+00
 0.6228748517230E+00
 0.6586073947271E+00
 0.6898251633062E+00
 0.7167658748589E+00
 0.7396633808252E+00
 0.7586914179292E+00
 0.7739167544346E+00
 0.7852387701359E+00
 0.7923327431541E+00
 0.7948258938620E+00
 0.7925227648771E+00
 0.7859368298010E+00
 0.1730523397020E+00
 0.2380564423231E+00
 0.3008220527834E+00
 0.3606439870133E+00
 0.4168303844344E+00
 0.4688335098462E+00
 0.5163232332765E+00
 0.5591448395767E+00
 0.5972726796885E+00
 0.6307927361987E+00
 0.6598816844286E+00
 0.6847712887453E+00
 0.7056910149723E+00
 0.7228158705289E+00
 0.7362259998358E+00
 0.7458421545225E+00
 0.7513122747349E+00
 0.7521233632998E+00
 0.7477847840895E+00
 0.7386829636608E+00
 0.1729770502310E+00
 0.2329579667766E+00
 0.2916824631527E+00
 0.3481444722751E+00
 0.4013704960755E+00
 0.4506567112835E+00
 0.4955921810555E+00
 0.5359843641630E+00
 0.5717919547151E+00
 0.6030943859867E+00
 0.6300620867377E+00
 0.6529189905621E+00
 0.6718832917341E+00
 0.6871203205763E+00
 0.6987204517742E+00
 0.7066376121013E+00
 0.7105720383235E+00
 0.7100540603786E+00
 0.7041864037187E+00
 0.6929918965315E+00
 0.1728759141357E+00
 0.2277906069634E+00
 0.2826471640385E+00
 0.3358329061639E+00
 0.3861363268537E+00
 0.4327182649654E+00
 0.4750865201936E+00
 0.5130240493647E+00
 0.5464926593467E+00
 0.5755753204423E+00
 0.6004379454007E+00
 0.6212956990068E+00
 0.6383480703902E+00
 0.6517319359175E+00
 0.6615221517937E+00
 0.6677049989241E+00
 0.6700048005848E+00
 0.6683061778144E+00
 0.6619323816223E+00
 0.6497089375373E+00
 0.1724641795913E+00
 0.2226878995681E+00
 0.2738421785538E+00
 0.3237682562904E+00
 0.3711998233665E+00
 0.4151069964550E+00
 0.4548788602312E+00
 0.4903191935121E+00
 0.5214262018220E+00
 0.5482883512734E+00
 0.5710699575688E+00
 0.5899778826881E+00
 0.6051890238635E+00
 0.6167946873585E+00
 0.6248060681865E+00
 0.6291794794608E+00
 0.6296777091858E+00
 0.6262537942328E+00
 0.6198044298051E+00
 0.6116019671136E+00
 0.1944482267148E+01
 0.1813582946604E+01
 0.1271857763568E+01
 0.9790117475596E+00
 0.7363760085218E+00
 0.5305079175708E+00
 0.3846107387298E+00
 0.2990982402580E+00
 0.2397447834526E+00
 0.1876441328590E+00
 0.1377260288886E+00
 0.8939509241728E-01
 0.4295489435182E-01
 0.1766831325667E-03
 0.3729062882090E-01
 0.6504638674537E-01
 0.8021622907498E-01
 0.7265397321629E-01
 0.4321599563486E-01
 0.8033144377458E-02
 0.1657932877045E+01
 0.1926716522953E+01
 0.1444246808324E+01
 0.1097384831709E+01
 0.8534252346436E+00
 0.6578069217864E+00
 0.5116436652406E+00
 0.4108971002754E+00
 0.3376788679684E+00
 0.2775039372795E+00
 0.2232334866264E+00
 0.1720997725581E+00
 0.1230123366465E+00
 0.7648328653156E-01
 0.3436379502679E-01
 0.1309555724829E-02
 0.3014235693507E-01
 0.4016777467207E-01
 0.2677637850617E-01
 0.5666315418365E-02
 0.1424255630339E+01
 0.1807082482478E+01
 0.1542759055718E+01
 0.1216188474422E+01
 0.9664613733693E+00
 0.7755033776925E+00
 0.6300604033823E+00
 0.5229306636227E+00
 0.4407435235653E+00
 0.3730785754347E+00
 0.3137263686729E+00
 0.2591490538904E+00
 0.2072703772562E+00
 0.1575245750780E+00
 0.1107674632500E+00
 0.6802807736818E-01
 0.2915363316771E-01
 0.4562511050290E-02
 0.2492494707309E-02
 0.1985702325430E-01
 0.1242736928107E+01
 0.1656746457408E+01
 0.1550146276211E+01
 0.1306536730822E+01
 0.1072476933199E+01
 0.8855958651528E+00
 0.7416317279606E+00
 0.6319760145648E+00
 0.5450624416779E+00
 0.4721895787164E+00
 0.4083612505616E+00
 0.3503436055420E+00
 0.2957143679419E+00
 0.2431091469708E+00
 0.1925066157336E+00
 0.1442950099756E+00
 0.9777044470526E-01
 0.6190752779885E-01
 0.4755883177586E-01
 0.5504314620615E-01
 0.1097523260887E+01
 0.1509342361573E+01
 0.1511012056841E+01
 0.1354684917451E+01
 0.1161075761894E+01
 0.9868390895513E+00
 0.8465727848006E+00
 0.7368994362117E+00
 0.6481124251734E+00
 0.5724477190363E+00
 0.5055983901351E+00
 0.4448517831383E+00
 0.3879166085275E+00
 0.3330405570847E+00
 0.2796079257969E+00
 0.2275184608365E+00
 0.1757438635344E+00
 0.1319422552481E+00
 0.1087171598993E+00
 0.1101989555217E+00
 0.9790439892764E+00
 0.1374106173785E+01
 0.1448582166633E+01
 0.1368516868323E+01
 0.1224970150779E+01
 0.1074710483195E+01
 0.9434309663877E+00
 0.8365293001035E+00
 0.7481838848248E+00
 0.6718408793166E+00
 0.6036752859821E+00
 0.5413914694673E+00
 0.4830044313612E+00
 0.4267022925257E+00
 0.3715516278613E+00
 0.3171540639124E+00
 0.2623282458686E+00
 0.2135042964877E+00
 0.1843653363405E+00
 0.1825691008611E+00
 0.8808750550131E+00
 0.1252897832920E+01
 0.1375597677868E+01
 0.1357426645558E+01
 0.1264252123072E+01
 0.1145179894941E+01
 0.1029382389689E+01
 0.9290753823356E+00
 0.8436453775197E+00
 0.7686259173013E+00
 0.7008677799616E+00
 0.6384593659656E+00
 0.5797583964171E+00
 0.5230819123475E+00
 0.4673976754836E+00
 0.4121756300754E+00
 0.3562261128082E+00
 0.3048083394942E+00
 0.2721192022011E+00
 0.2686990206356E+00
 0.7985462215223E+00
 0.1145309729276E+01
 0.1299086566399E+01
 0.1329242249914E+01
 0.1282046012844E+01
 0.1196932320730E+01
 0.1101746741021E+01
 0.1012294752908E+01
 0.9326635980290E+00
 0.8610915117345E+00
 0.7954978577521E+00
 0.7344680633429E+00
 0.6767408516669E+00
 0.6208700085106E+00
 0.5658697470264E+00
 0.5112016009007E+00
 0.4557685453119E+00
 0.4037217116064E+00
 0.3692846893998E+00
 0.3650868837342E+00
 0.7288091830126E+00
 0.1050200045489E+01
 0.1222997027560E+01
 0.1289848104677E+01
 0.1282335808937E+01
 0.1230680958606E+01
 0.1159072318698E+01
 0.1084153894058E+01
 0.1013325532739E+01
 0.9474815341358E+00
 0.8858848889564E+00
 0.8277900207102E+00
 0.7723911412241E+00
 0.7185602455704E+00
 0.6654542805665E+00
 0.6126056616287E+00
 0.5590710861632E+00
 0.5079700462197E+00
 0.4731322399324E+00
 0.4684600704402E+00
 0.6692241086016E+00
 0.9662415104759E+00
 0.1149538363136E+01
 0.1243520902262E+01
 0.1268982446179E+01
 0.1248273381482E+01
 0.1201167307827E+01
 0.1143332427279E+01
 0.1083963360410E+01
 0.1026100848864E+01
 0.9703639662257E+00
 0.9167841288916E+00
 0.8650866183119E+00
 0.8145322420928E+00
 0.7644907272077E+00
 0.7146148217037E+00
 0.6641450417414E+00
 0.6152591532663E+00
 0.5810284140249E+00
 0.5758684191795E+00
 0.6179092680232E+00
 0.8921232676291E+00
 0.1079902169622E+01
 0.1193321691396E+01
 0.1245365121221E+01
 0.1252031924583E+01
 0.1228781039310E+01
 0.1189332062996E+01
 0.1143407712576E+01
 0.1095499929071E+01
 0.1047382543057E+01
 0.9998536484330E+00
 0.9532002911395E+00
 0.9071203075040E+00
 0.8612480998559E+00
 0.8153887636575E+00
 0.7689760833270E+00
 0.7233448116719E+00
 0.6904949351787E+00
 0.6846951588722E+00
 0.5733828928498E+00
 0.8266237962362E+00
 0.1014665235732E+01
 0.1141417636598E+01
 0.1214295845970E+01
 0.1244355374054E+01
 0.1243244180769E+01
 0.1222366602546E+01
 0.1191072215079E+01
 0.1154619721921E+01
 0.1115623521148E+01
 0.1075535806315E+01
 0.1035172962346E+01
 0.9946813629998E+00
 0.9539921032341E+00
 0.9130837248310E+00
 0.8715800770333E+00
 0.8300747049974E+00
 0.7992333081213E+00
 0.7926353249491E+00
 0.5344590654663E+00
 0.7686326973929E+00
 0.9540240370049E+00
 0.1089321768378E+01
 0.1178045474735E+01
 0.1227503836088E+01
 0.1246178650135E+01
 0.1243174570380E+01
 0.1226914307423E+01
 0.1202851292186E+01
 0.1174100592181E+01
 0.1142595756217E+01
 0.1109596147247E+01
 0.1075668249644E+01
 0.1041049901809E+01
 0.1005907031457E+01
 0.9700447597838E+00
 0.9334159557186E+00
 0.9051351468614E+00
 0.8976653296451E+00
 0.5001765783303E+00
 0.7171519906124E+00
 0.8979363220286E+00
 0.1038066755774E+01
 0.1138408353173E+01
 0.1203496378813E+01
 0.1239293495824E+01
 0.1252832096607E+01
 0.1251333588813E+01
 0.1240022025189E+01
 0.1222202941914E+01
 0.1200098505891E+01
 0.1175291011244E+01
 0.1148705318807E+01
 0.1120875868129E+01
 0.1092167388973E+01
 0.1062562501216E+01
 0.1031474344642E+01
 0.1006288282453E+01
 0.9980152614614E+00
 0.4697485196705E+00
 0.6712893818174E+00
 0.8462096490260E+00
 0.9883305326242E+00
 0.1096774745983E+01
 0.1174073299057E+01
 0.1224252862672E+01
 0.1252596474442E+01
 0.1265051874944E+01
 0.1266335811689E+01
 0.1259691939644E+01
 0.1247446545684E+01
 0.1231370229003E+01
 0.1212659854889E+01
 0.1192118654302E+01
 0.1170324642446E+01
 0.1147455196287E+01
 0.1122504403259E+01
 0.1100981471704E+01
 0.1092150520277E+01
 0.4425250638063E+00
 0.6302487290892E+00
 0.7985587628513E+00
 0.9405283262081E+00
 0.1054199005197E+01
 0.1140693544735E+01
 0.1202596682907E+01
 0.1243786956262E+01
 0.1268999062194E+01
 0.1282291417402E+01
 0.1286661884339E+01
 0.1284382068684E+01
 0.1277275381083E+01
 0.1266705091844E+01
 0.1253692648687E+01
 0.1239044799374E+01
 0.1223193573773E+01
 0.1204898803822E+01
 0.1187702926305E+01
 0.1178765375338E+01
 0.4179645337947E+00
 0.5933190100562E+00
 0.7546453724880E+00
 0.8948816639749E+00
 0.1011459837018E+01
 0.1104549762990E+01
 0.1175697420845E+01
 0.1227699715281E+01
 0.1264215634999E+01
 0.1288595479088E+01
 0.1303476945046E+01
 0.1310955743560E+01
 0.1312784039425E+01
 0.1310368972183E+01
 0.1304864126735E+01
 0.1297284879984E+01
 0.1288418674179E+01
 0.1277144745775E+01
 0.1265095822166E+01
 0.1256797816661E+01
 0.3956060472897E+00
 0.5598657206931E+00
 0.7141075299751E+00
 0.8514756423893E+00
 0.9691104551024E+00
 0.1066589939781E+01
 0.1144740570909E+01
 0.1205551341620E+01
 0.1251776161737E+01
 0.1286081187095E+01
 0.1310694805581E+01
 0.1327463362582E+01
 0.1337972858495E+01
 0.1343549684472E+01
 0.1345342032447E+01
 0.1344472669984E+01
 0.1342060450138E+01
 0.1337695109313E+01
 0.1331828941043E+01
 0.1325414779266E+01
 0.3750442272004E+00
 0.5292995804011E+00
 0.6766169963601E+00
 0.8103044710335E+00
 0.9275131326403E+00
 0.1027539023328E+01
 0.1110719403919E+01
 0.1178446394525E+01
 0.1232735958327E+01
 0.1275642125053E+01
 0.1308990598585E+01
 0.1334357247918E+01
 0.1353119095286E+01
 0.1366437560310E+01
 0.1375308033669E+01
 0.1380729119848E+01
 0.1383909834337E+01
 0.1385099951446E+01
 0.1385762001937E+01
 0.1384029458141E+01
 0.3557357828719E+00
 0.5012718669446E+00
 0.6419531901105E+00
 0.7712885510765E+00
 0.8868590111760E+00
 0.9879031237198E+00
 0.1074443160030E+01
 0.1147368373615E+01
 0.1208100214304E+01
 0.1258190070166E+01
 0.1299103285120E+01
 0.1332163271813E+01
 0.1358555151059E+01
 0.1379279655858E+01
 0.1395148641765E+01
 0.1406861317170E+01
 0.1415184850648E+01
 0.1420433902020E+01
 0.1424169158122E+01
 0.1429805136412E+01
 0.1714507353469E+00
 0.2186831060311E+00
 0.2666873997771E+00
 0.3138219236087E+00
 0.3584440220924E+00
 0.3993036022780E+00
 0.4356296098886E+00
 0.4674650314496E+00
 0.4949547706235E+00
 0.5182133065267E+00
 0.5374168695159E+00
 0.5527782899323E+00
 0.5644984265158E+00
 0.5726886468316E+00
 0.5774079935610E+00
 0.5787730358082E+00
 0.5772012345271E+00
 0.5730650429685E+00
 0.5685911958907E+00
 0.5675770993015E+00
 0.1721192077763E+00
 0.2160195680721E+00
 0.2614972518702E+00
 0.3060712597429E+00
 0.3477061565708E+00
 0.3848801713200E+00
 0.4168455285965E+00
 0.4439302458728E+00
 0.4665036736368E+00
 0.4847815897393E+00
 0.4989972578566E+00
 0.5094174403822E+00
 0.5163211793264E+00
 0.5199320092990E+00
 0.5205146572839E+00
 0.5185595592987E+00
 0.5149179393416E+00
 0.5100127086287E+00
 0.5056323358962E+00
 0.4962501964590E+00
 0.1727833680769E+00
 0.2129106895980E+00
 0.2556784771493E+00
 0.2975632788982E+00
 0.3359965396246E+00
 0.3692264733493E+00
 0.3965897213131E+00
 0.4187040519494E+00
 0.4361829720356E+00
 0.4493847086765E+00
 0.4586371687319E+00
 0.4642993607948E+00
 0.4667537924861E+00
 0.4663407032086E+00
 0.4634716807262E+00
 0.4587151819416E+00
 0.4525943705138E+00
 0.4449031154032E+00
 0.4354066226176E+00
 0.4225374051126E+00
 0.1733052350580E+00
 0.2094704595310E+00
 0.2493517912940E+00
 0.2883917398961E+00
 0.3234082145789E+00
 0.3524229179272E+00
 0.3749110917857E+00
 0.3918382057339E+00
 0.4041041519483E+00
 0.4122376970303E+00
 0.4166789319965E+00
 0.4178798702157E+00
 0.4162956438313E+00
 0.4122992833681E+00
 0.4062734168918E+00
 0.3985828532174E+00
 0.3892268888587E+00
 0.3774322182015E+00
 0.3641515781612E+00
 0.3518855912635E+00
 0.1736710499825E+00
 0.2057210237345E+00
 0.2426183623210E+00
 0.2786480630866E+00
 0.3099969208362E+00
 0.3344891249929E+00
 0.3518115808438E+00
 0.3633553576130E+00
 0.3703552301058E+00
 0.3735236607517E+00
 0.3734024467232E+00
 0.3705030333693E+00
 0.3652882615924E+00
 0.3580670539007E+00
 0.3490814285116E+00
 0.3384531420400E+00
 0.3257862620423E+00
 0.3106501370428E+00
 0.2957323105011E+00
 0.2852059506375E+00
 0.1738871575997E+00
 0.2017234780069E+00
 0.2355652420897E+00
 0.2683997122178E+00
 0.2957742275509E+00
 0.3153872338942E+00
 0.3272388408881E+00
 0.3332385603761E+00
 0.3349970085299E+00
 0.3334008586623E+00
 0.3290580410410E+00
 0.3224864365786E+00
 0.3140912198309E+00
 0.3040579884780E+00
 0.2924744175740E+00
 0.2792975093048E+00
 0.2640105977696E+00
 0.2468941044140E+00
 0.2319019293632E+00
 0.2236055085843E+00
 0.1739808155724E+00
 0.1975627545294E+00
 0.2282805267659E+00
 0.2576806408390E+00
 0.2806954988568E+00
 0.2950136079349E+00
 0.3010836848119E+00
 0.3014353794724E+00
 0.2980763998060E+00
 0.2920298268027E+00
 0.2839134903899E+00
 0.2741923833683E+00
 0.2631636103464E+00
 0.2508707964675E+00
 0.2372825785977E+00
 0.2222999791598E+00
 0.2054482239499E+00
 0.1877531244887E+00
 0.1739174999171E+00
 0.1682095165459E+00
 0.1740015625773E+00
 0.1933503592264E+00
 0.2208474178558E+00
 0.2464809991206E+00
 0.2646446434129E+00
 0.2731897340951E+00
 0.2731828906982E+00
 0.2678731936324E+00
 0.2596519757953E+00
 0.2496069541501E+00
 0.2382919346216E+00
 0.2260590438626E+00
 0.2130625746776E+00
 0.1992096854579E+00
 0.1844001293380E+00
 0.1685587201300E+00
 0.1513222729269E+00
 0.1343764320051E+00
 0.1227500119642E+00
 0.1200385752287E+00
 0.1740271993781E+00
 0.1892267258424E+00
 0.2133354672313E+00
 0.2347282567579E+00
 0.2474155364294E+00
 0.2496551710050E+00
 0.2433303408474E+00
 0.2324854524192E+00
 0.2198273675196E+00
 0.2063967995457E+00
 0.1925939330821E+00
 0.1785999733794E+00
 0.1644047128872E+00
 0.1497981557217E+00
 0.1346589441959E+00
 0.1189858085847E+00
 0.1025501106810E+00
 0.8757406864181E-01
 0.7910360660546E-01
 0.7985075765883E-01
 0.1741731021819E+00
 0.1853650635563E+00
 0.2057855726361E+00
 0.2222599968533E+00
 0.2286893406944E+00
 0.2240656478367E+00
 0.2113001906842E+00
 0.1952499707672E+00
 0.1787900116852E+00
 0.1627593379743E+00
 0.1473044001524E+00
 0.1323846715946E+00
 0.1178188013547E+00
 0.1033102453276E+00
 0.8876061830817E-01
 0.7427378851882E-01
 0.5975997754483E-01
 0.4784786252407E-01
 0.4336624724531E-01
 0.4803381873530E-01
 0.1746061276592E+00
 0.1819755783786E+00
 0.1981856126889E+00
 0.2087849587502E+00
 0.2080088356955E+00
 0.1960013819208E+00
 0.1768875188652E+00
 0.1562406828591E+00
 0.1368523580562E+00
 0.1191683316638E+00
 0.1029843966984E+00
 0.8800671549688E-01
 0.7389835781596E-01
 0.6032088641939E-01
 0.4724284391992E-01
 0.3489706165918E-01
 0.2334528363045E-01
 0.1549365821797E-01
 0.1563240362965E-01
 0.2453338984896E-01
 0.1755652768599E+00
 0.1793088337926E+00
 0.1904301358576E+00
 0.1938275429557E+00
 0.1847527135001E+00
 0.1649948187719E+00
 0.1399737111681E+00
 0.1156924744760E+00
 0.9448915071373E-01
 0.7621389431280E-01
 0.6024516929431E-01
 0.4604249225712E-01
 0.3316256505673E-01
 0.2129824418589E-01
 0.1060737959034E-01
 0.2906296899179E-02
 0.7705635940301E-02
 0.1085403125695E-01
 0.5796042719129E-02
 0.8841258032489E-02
 0.1773930034035E+00
 0.1776552078804E+00
 0.1822521387405E+00
 0.1766491198878E+00
 0.1581179454037E+00
 0.1305932728574E+00
 0.1006238523646E+00
 0.7407249952660E-01
 0.5235748173339E-01
 0.3457915170203E-01
 0.1970683087441E-01
 0.7075228522896E-02
 0.4424334779260E-02
 0.1387793348243E-01
 0.2186826641005E-01
 0.2779088513618E-01
 0.3138429894125E-01
 0.2961694832526E-01
 0.1902695133028E-01
 0.1372554869155E-02
 0.1805840239850E+00
 0.1773328695503E+00
 0.1731043831214E+00
 0.1561387104375E+00
 0.1271300278349E+00
 0.9248048582181E-01
 0.5921762365678E-01
 0.3213838938747E-01
 0.1127821555469E-01
 0.5042636155176E-02
 0.1814479145846E-01
 0.2885188921130E-01
 0.3758409458850E-01
 0.4445059742357E-01
 0.4911918668528E-01
 0.5103752230992E-01
 0.4991699724390E-01
 0.4291171700312E-01
 0.2717238287091E-01
 0.4206732534322E-02
 0.1858642762892E+00
 0.1786446473235E+00
 0.1619460135202E+00
 0.1306707903460E+00
 0.9072626169929E-01
 0.5068922611609E-01
 0.1660320934768E-01
 0.9085113338963E-02
 0.2784533927869E-01
 0.4194467133354E-01
 0.5280411689239E-01
 0.6114268145629E-01
 0.6722573464945E-01
 0.7098366369545E-01
 0.7196399480236E-01
 0.6958582636112E-01
 0.6358998881138E-01
 0.5150023836743E-01
 0.3114351687207E-01
 0.4286518900557E-02
 0.1943238882671E+00
 0.1817482958326E+00
 0.1468461920323E+00
 0.9795467450668E-01
 0.4801344588424E-01
 0.6027465379571E-02
 0.2594159794573E-01
 0.4832328200980E-01
 0.6416723609156E-01
 0.7569310318762E-01
 0.8413136581704E-01
 0.8995907291789E-01
 0.9321916791606E-01
 0.9366081608627E-01
 0.9075741406814E-01
 0.8397217159422E-01
 0.7315805106559E-01
 0.5640464614673E-01
 0.3227543425282E-01
 0.2639259191685E-02
 0.2076558304732E+00
 0.1862771526929E+00
 0.1242123962014E+00
 0.5503161134171E-01
 0.1945630940248E-02
 0.4027271911521E-01
 0.6656731318554E-01
 0.8443181955667E-01
 0.9705837273993E-01
 0.1060577104727E+00
 0.1121495320741E+00
 0.1154656677428E+00
 0.1158309346780E+00
 0.1128518975270E+00
 0.1059923796045E+00
 0.9482973673593E-01
 0.7940997717023E-01
 0.5859212370342E-01
 0.3175996742830E-01
 0.1431043097632E-02
 0.2285679217850E+00
 0.1900614143121E+00
 0.8737552327523E-01
 0.2132029622334E-02
 0.5500752663860E-01
 0.8533436457957E-01
 0.1035895586149E+00
 0.1164625115960E+00
 0.1262584755577E+00
 0.1331384034115E+00
 0.1370967926892E+00
 0.1379619795652E+00
 0.1354233943843E+00
 0.1290090380452E+00
 0.1182285506144E+00
 0.1028247751017E+00
 0.8306824778245E-01
 0.5882682742333E-01
 0.3042674567871E-01
 0.2236328831016E-02
 0.2618085023534E+00
 0.1848328857044E+00
 0.2358245728339E-01
 0.6884249648408E-01
 0.1101383846037E+00
 0.1269156483371E+00
 0.1353437135425E+00
 0.1439889041172E+00
 0.1520077364703E+00
 0.1573068813542E+00
 0.1593287933698E+00
 0.1578100285529E+00
 0.1524078903141E+00
 0.1426207145820E+00
 0.1280854343026E+00
 0.1086311957375E+00
 0.8474796248418E-01
 0.5751915003632E-01
 0.2857633948729E-01
 0.2975462172716E-02
 0.3099948163828E+00
 0.1211388746450E+00
 0.6801036491602E-01
 0.1422824066762E+00
 0.1642762463186E+00
 0.1618860978980E+00
 0.1606886565241E+00
 0.1675162437320E+00
 0.1749790316172E+00
 0.1790302177767E+00
 0.1791816131180E+00
 0.1754109551271E+00
 0.1672484254134E+00
 0.1541275603620E+00
 0.1361640330623E+00
 0.1132487886009E+00
 0.8480053492949E-01
 0.5438132188443E-01
 0.2586737505085E-01
 0.3324163527438E-02
 0.1443128228331E+01
 0.1398020415259E+01
 0.1344170939891E+01
 0.1280668699878E+01
 0.1207445486558E+01
 0.1125315821550E+01
 0.1035248447464E+01
 0.9383905644110E+00
 0.8360699089197E+00
 0.7298240647646E+00
 0.6214409691849E+00
 0.5130188324282E+00
 0.4070485018173E+00
 0.3065171514913E+00
 0.2150200711262E+00
 0.1368375002560E+00
 0.7686833320111E-01
 0.4015841578892E-01
 0.3047320877970E-01
 0.4565267200477E-01
 0.1468040474970E+01
 0.1434302904044E+01
 0.1386204200573E+01
 0.1328413578268E+01
 0.1261316584697E+01
 0.1185258479034E+01
 0.1100904552388E+01
 0.1009137872144E+01
 0.9110340619315E+00
 0.8078596513349E+00
 0.7010992808250E+00
 0.5925120546305E+00
 0.4842263171961E+00
 0.3788842151910E+00
 0.2798456882386E+00
 0.1914490319219E+00
 0.1192806222409E+00
 0.7031465019377E-01
 0.5246537999489E-01
 0.7188578166657E-01
 0.1491279282294E+01
 0.1464991133074E+01
 0.1425582113215E+01
 0.1375076144403E+01
 0.1315057388955E+01
 0.1246089709165E+01
 0.1168709055269E+01
 0.1083606750409E+01
 0.9916463169032E+00
 0.8938610138304E+00
 0.7914611316428E+00
 0.6858650343141E+00
 0.5787670029731E+00
 0.4722620570025E+00
 0.3690572815980E+00
 0.2728081434730E+00
 0.1886266113022E+00
 0.1237825386853E+00
 0.8869852729117E-01
 0.9716411954354E-01
 0.1513685580128E+01
 0.1493226533754E+01
 0.1461576085081E+01
 0.1419204748483E+01
 0.1367112425946E+01
 0.1306046949301E+01
 0.1236560906288E+01
 0.1159252803205E+01
 0.1074850000023E+01
 0.9842300728772E+00
 0.8884262011765E+00
 0.7886375135149E+00
 0.6862601667008E+00
 0.5829593975759E+00
 0.4808154492650E+00
 0.3825997757746E+00
 0.2922726365139E+00
 0.2158723794066E+00
 0.1630798124485E+00
 0.1505501322103E+00
 0.1534587453306E+01
 0.1519235233463E+01
 0.1494517168012E+01
 0.1460021845022E+01
 0.1416172387841E+01
 0.1363493348756E+01
 0.1302492167759E+01
 0.1233700105041E+01
 0.1157748052540E+01
 0.1075405040553E+01
 0.9875946129647E+00
 0.8954040856982E+00
 0.8000998321152E+00
 0.7031648862465E+00
 0.6063863584634E+00
 0.5120433804809E+00
 0.4232968139898E+00
 0.3449638228650E+00
 0.2850705890988E+00
 0.2583932964973E+00
 0.1553520168147E+01
 0.1542813361486E+01
 0.1524287829882E+01
 0.1497118562765E+01
 0.1461278425326E+01
 0.1417015219791E+01
 0.1364675947186E+01
 0.1304682256802E+01
 0.1237554654229E+01
 0.1163945172063E+01
 0.1084659974622E+01
 0.1000673929054E+01
 0.9131435284161E+00
 0.8234281619089E+00
 0.7331374944052E+00
 0.6442411719476E+00
 0.5593134680740E+00
 0.4820754257560E+00
 0.4184988873404E+00
 0.3788144097814E+00
 0.1570119400348E+01
 0.1563728122383E+01
 0.1550771762061E+01
 0.1530296507482E+01
 0.1501989901583E+01
 0.1465850620480E+01
 0.1422037438116E+01
 0.1370819107971E+01
 0.1312573715049E+01
 0.1247805413959E+01
 0.1177163693515E+01
 0.1101458288341E+01
 0.1021668823856E+01
 0.9389508913579E+00
 0.8546434440440E+00
 0.7702889349073E+00
 0.6876962584525E+00
 0.6091090445812E+00
 0.5376791981722E+00
 0.4780982554008E+00
 0.1584081790260E+01
 0.1581717484745E+01
 0.1573789823246E+01
 0.1559378337459E+01
 0.1538020257023E+01
 0.1509530959688E+01
 0.1473896182705E+01
 0.1431224520903E+01
 0.1381735798042E+01
 0.1325767603453E+01
 0.1263788160678E+01
 0.1196408533850E+01
 0.1124389496785E+01
 0.1048639220311E+01
 0.9701969356384E+00
 0.8901956343071E+00
 0.8097922128094E+00
 0.7300572567670E+00
 0.6518061545601E+00
 0.5759048791981E+00
 0.1595165216379E+01
 0.1596537829384E+01
 0.1593150551705E+01
 0.1584195807025E+01
 0.1569158552403E+01
 0.1547738772245E+01
 0.1519787061570E+01
 0.1485269429013E+01
 0.1444254782439E+01
 0.1396916225025E+01
 0.1343539027188E+01
 0.1284529621902E+01
 0.1220420774339E+01
 0.1151867440735E+01
 0.1079625271087E+01
 0.1004497590469E+01
 0.9272250224066E+00
 0.8482640341864E+00
 0.7673682773497E+00
 0.6828015511888E+00
 0.1603181119873E+01
 0.1607977574572E+01
 0.1608670359395E+01
 0.1604592101751E+01
 0.1595237714693E+01
 0.1580248489793E+01
 0.1559382137914E+01
 0.1532492083765E+01
 0.1499518637434E+01
 0.1460489210434E+01
 0.1415523852724E+01
 0.1364842525431E+01
 0.1308770463180E+01
 0.1247737223388E+01
 0.1182262837903E+01
 0.1112919846707E+01
 0.1040249918977E+01
 0.9645934194841E+00
 0.8857328103867E+00
 0.8019753957518E+00
 0.1607989177563E+01
 0.1615862872786E+01
 0.1620181938207E+01
 0.1620416974538E+01
 0.1616105796836E+01
 0.1606871222720E+01
 0.1592414697138E+01
 0.1572508068782E+01
 0.1546989929443E+01
 0.1515767096339E+01
 0.1478819983557E+01
 0.1436210095680E+01
 0.1388087693207E+01
 0.1334697361584E+01
 0.1276378479542E+01
 0.1213556027601E+01
 0.1146714525563E+01
 0.1076342758783E+01
 0.1002824637459E+01
 0.9262723251788E+00
 0.1609468172407E+01
 0.1620021770530E+01
 0.1627498892701E+01
 0.1631487584397E+01
 0.1631580267078E+01
 0.1627405741378E+01
 0.1618636373110E+01
 0.1604988624574E+01
 0.1586223910712E+01
 0.1562151957595E+01
 0.1532636908509E+01
 0.1497605748468E+01
 0.1457058483848E+01
 0.1411079659514E+01
 0.1359851167831E+01
 0.1303667093230E+01
 0.1242953164807E+01
 0.1178298659781E+01
 0.1110528447289E+01
 0.1040919022297E+01
 0.1607515159480E+01
 0.1620292940795E+01
 0.1630423408083E+01
 0.1637586018022E+01
 0.1641427670540E+01
 0.1641596144328E+01
 0.1637753259156E+01
 0.1629580321564E+01
 0.1616781873146E+01
 0.1599090333230E+01
 0.1576272516594E+01
 0.1548138349778E+01
 0.1514551993095E+01
 0.1475445854837E+01
 0.1430838705551E+01
 0.1380860458416E+01
 0.1325788639255E+01
 0.1266106399593E+01
 0.1202601774922E+01
 0.1136529020805E+01
 0.1602050229534E+01
 0.1616546245449E+01
 0.1628781653300E+01
 0.1638505047303E+01
 0.1645412669266E+01
 0.1649177265367E+01
 0.1649462262792E+01
 0.1645929029558E+01
 0.1638241742267E+01
 0.1626072251801E+01
 0.1609106141424E+01
 0.1587050590244E+01
 0.1559644470285E+01
 0.1526671235053E+01
 0.1487975618406E+01
 0.1443486037825E+01
 0.1393245852454E+01
 0.1337457468357E+01
 0.1276539956419E+01
 0.1211189340878E+01
 0.1593014608752E+01
 0.1608683875145E+01
 0.1622436420504E+01
 0.1634073491350E+01
 0.1643334300547E+01
 0.1649918683895E+01
 0.1653499609292E+01
 0.1653730089768E+01
 0.1650247666875E+01
 0.1642678415649E+01
 0.1630641603206E+01
 0.1613755636864E+01
 0.1591645661094E+01
 0.1563953036246E+01
 0.1530346931048E+01
 0.1490538375989E+01
 0.1444297340235E+01
 0.1391473168852E+01
 0.1332016201933E+01
 0.1265992721114E+01
 0.1580371124677E+01
 0.1596639563271E+01
 0.1611289474409E+01
 0.1624163331461E+01
 0.1635037488873E+01
 0.1643639195806E+01
 0.1649656389276E+01
 0.1652743013431E+01
 0.1652522060045E+01
 0.1648587850670E+01
 0.1640508539854E+01
 0.1627829418332E+01
 0.1610077276153E+01
 0.1586765778883E+01
 0.1557401448114E+01
 0.1521489385602E+01
 0.1478537364204E+01
 0.1428057169243E+01
 0.1369564634435E+01
 0.1302580631497E+01
 0.1564105630254E+01
 0.1580378822525E+01
 0.1595282475559E+01
 0.1608692530186E+01
 0.1620417775494E+01
 0.1630212614689E+01
 0.1637784108050E+01
 0.1642795205311E+01
 0.1644865776561E+01
 0.1643572640839E+01
 0.1638449434618E+01
 0.1628986870831E+01
 0.1614633668217E+01
 0.1594798111878E+01
 0.1568849756198E+01
 0.1536120095196E+01
 0.1495900082593E+01
 0.1447431114742E+01
 0.1389887994079E+01
 0.1322365695048E+01
 0.1544228639427E+01
 0.1559899943857E+01
 0.1574398335656E+01
 0.1587627618177E+01
 0.1599425292364E+01
 0.1609572600160E+01
 0.1617799331254E+01
 0.1623785027697E+01
 0.1627157897972E+01
 0.1627492426969E+01
 0.1624306422767E+01
 0.1617058064110E+01
 0.1605143365581E+01
 0.1587894310514E+01
 0.1564577644275E+01
 0.1534393868108E+01
 0.1496475049027E+01
 0.1449878205428E+01
 0.1393564094973E+01
 0.1326350650653E+01
 0.1520776857267E+01
 0.1535235465167E+01
 0.1548663169276E+01
 0.1560986759885E+01
 0.1572069151872E+01
 0.1581718060425E+01
 0.1589689299567E+01
 0.1595686395460E+01
 0.1599357677943E+01
 0.1600291679319E+01
 0.1598011484463E+01
 0.1591968590890E+01
 0.1581536831373E+01
 0.1566006966133E+01
 0.1544582647197E+01
 0.1516378559261E+01
 0.1480421574065E+01
 0.1435655177472E+01
 0.1380945403698E+01
 0.1315049501094E+01
 0.1493814545466E+01
 0.1506454128987E+01
 0.1518149049479E+01
 0.1528843637006E+01
 0.1538422687921E+01
 0.1546719625800E+01
 0.1553519070422E+01
 0.1558555563128E+01
 0.1561509468998E+01
 0.1562000748469E+01
 0.1559581109427E+01
 0.1553724998451E+01
 0.1543819961409E+01
 0.1529157114004E+01
 0.1508922844985E+01
 0.1482193497709E+01
 0.1447935832574E+01
 0.1405018163548E+01
 0.1352242398612E+01
 0.1288433531169E+01
 0.1463435057326E+01
 0.1473663721477E+01
 0.1482977699793E+01
 0.1491332363971E+01
 0.1498630065082E+01
 0.1504728221473E+01
 0.1509442048796E+01
 0.1512543260454E+01
 0.1513755675867E+01
 0.1512748307011E+01
 0.1509126263689E+01
 0.1502419707934E+01
 0.1492071110905E+01
 0.1477421252440E+01
 0.1457694806459E+01
 0.1431987065405E+01
 0.1399254530999E+01
 0.1358314475167E+01
 0.1307863285210E+01
 0.1246554637905E+01
 0.1429763105951E+01
 0.1437014262908E+01
 0.1443324179566E+01
 0.1448652389925E+01
 0.1452913136120E+01
 0.1455984712785E+01
 0.1457713270836E+01
 0.1457912410169E+01
 0.1456359519747E+01
 0.1452789399462E+01
 0.1446885345777E+01
 0.1438267625093E+01
 0.1426479094862E+01
 0.1410967678260E+01
 0.1391065496558E+01
 0.1365964737740E+01
 0.1334690763553E+01
 0.1296072788731E+01
 0.1248711490209E+01
 0.1190902639874E+01
 0.1392952140091E+01
 0.1396693905248E+01
 0.1399413026562E+01
 0.1401064846340E+01
 0.1401568135916E+01
 0.1400817261536E+01
 0.1398687941635E+01
 0.1395038506912E+01
 0.1389707952075E+01
 0.1382511450008E+01
 0.1373233465447E+01
 0.1361618145992E+01
 0.1347356240602E+01
 0.1330067361864E+01
 0.1309275949612E+01
 0.1284378859383E+01
 0.1254601956966E+01
 0.1218942102608E+01
 0.1176084829277E+01
 0.1124289535800E+01
 0.1353187384344E+01
 0.1352933236373E+01
 0.1351524037500E+01
 0.1348899653832E+01
 0.1344973932766E+01
 0.1339650883085E+01
 0.1332832844970E+01
 0.1324423794352E+01
 0.1314329814657E+01
 0.1302457800674E+01
 0.1288712704043E+01
 0.1272992999374E+01
 0.1255183420911E+01
 0.1235143259205E+01
 0.1212687500658E+01
 0.1187556758580E+01
 0.1159370733558E+01
 0.1127559366033E+01
 0.1091269269912E+01
 0.1049260533169E+01
 0.1310687290228E+01
 0.1306008633881E+01
 0.1299996782879E+01
 0.1292561135135E+01
 0.1283599285919E+01
 0.1273017658295E+01
 0.1260741638677E+01
 0.1246720577314E+01
 0.1230930868390E+01
 0.1213378817659E+01
 0.1194104033775E+01
 0.1173183412148E+01
 0.1150735190906E+01
 0.1126921823971E+01
 0.1101949264250E+01
 0.1076058395035E+01
 0.1049501368238E+01
 0.1022494027135E+01
 0.9951403044400E+00
 0.9673253310701E+00
 0.1265703437923E+01
 0.1256243757758E+01
 0.1245232815582E+01
 0.1232530662678E+01
 0.1218006811240E+01
 0.1201564030753E+01
 0.1183148568616E+01
 0.1162755495736E+01
 0.1140433866270E+01
 0.1116294121796E+01
 0.1090519043386E+01
 0.1063379067959E+01
 0.1035252612453E+01
 0.1006651950686E+01
 0.9782548853512E+00
 0.9509413538107E+00
 0.9258310466201E+00
 0.9043080272837E+00
 0.8880054322033E+00
 0.8787306149168E+00
 0.1218520073457E+01
 0.1204010439772E+01
 0.1187696351109E+01
 0.1169366835814E+01
 0.1148853877159E+01
 0.1126054927626E+01
 0.1100939435313E+01
 0.1073552099720E+01
 0.1044018837453E+01
 0.1012558314660E+01
 0.9795007453702E+00
 0.9453155657669E+00
 0.9106501740884E+00
 0.8763830586733E+00
 0.8436963534958E+00
 0.8141751317111E+00
 0.7899425405210E+00
 0.7738374917320E+00
 0.7695952772606E+00
 0.7819126324278E+00
 0.1169453574264E+01
 0.1149728776414E+01
 0.1127912597537E+01
 0.1103702076736E+01
 0.1076889225484E+01
 0.1047373314959E+01
 0.1015157954003E+01
 0.9803489832191E+00
 0.9431594645544E+00
 0.9039242147522E+00
 0.8631253056836E+00
 0.8214303645820E+00
 0.7797468748290E+00
 0.7392980746017E+00
 0.7017300494026E+00
 0.6692666113824E+00
 0.6449413169758E+00
 0.6329603571022E+00
 0.6393065411396E+00
 0.6725014724662E+00
 0.1118852066664E+01
 0.1093865308761E+01
 0.1066461701042E+01
 0.1036233095780E+01
 0.1002942181898E+01
 0.9665111393671E+00
 0.9270020615703E+00
 0.8846059227184E+00
 0.8396448525119E+00
 0.7925882648632E+00
 0.7440826860549E+00
 0.6949959793189E+00
 0.6464783593768E+00
 0.6000452157198E+00
 0.5576911150799E+00
 0.5220523186473E+00
 0.4966527550113E+00
 0.4863103554184E+00
 0.4979220854042E+00
 0.5425698247721E+00
 0.1067094385882E+01
 0.1036924901502E+01
 0.1003961969144E+01
 0.9676973436719E+00
 0.9278953110612E+00
 0.8845421296183E+00
 0.8378017440764E+00
 0.7879929847812E+00
 0.7355886942525E+00
 0.6812330787904E+00
 0.6257737198521E+00
 0.5703058543823E+00
 0.5162277460903E+00
 0.4653069114518E+00
 0.4197574786479E+00
 0.3823290197107E+00
 0.3564044823506E+00
 0.3461038115676E+00
 0.3563496713929E+00
 0.3931351751594E+00
 0.1014584446261E+01
 0.9794255362226E+00
 0.9410280605148E+00
 0.8988184631954E+00
 0.8526239530649E+00
 0.8025647324866E+00
 0.7489773081732E+00
 0.6923805998960E+00
 0.6334758460480E+00
 0.5731693940885E+00
 0.5126095427242E+00
 0.4532304281159E+00
 0.3967961319648E+00
 0.3454359462050E+00
 0.3016551694816E+00
 0.2682891517067E+00
 0.2483279717054E+00
 0.2444183503138E+00
 0.2575843746228E+00
 0.2825556021411E+00
 0.9617356350822E+00
 0.9218611973154E+00
 0.8782250270003E+00
 0.8302602003020E+00
 0.7779588907000E+00
 0.7216771095944E+00
 0.6620201836614E+00
 0.5998025235317E+00
 0.5360545399999E+00
 0.4720538547096E+00
 0.4093640210337E+00
 0.3498665030025E+00
 0.2957705369158E+00
 0.2495792548092E+00
 0.2139758499080E+00
 0.1915611044006E+00
 0.1842991817034E+00
 0.1924059101815E+00
 0.2120713006267E+00
 0.2316793929714E+00
 0.9089769083495E+00
 0.8647227853481E+00
 0.8161082552771E+00
 0.7626931867210E+00
 0.7047791423014E+00
 0.6430800124684E+00
 0.5785679252242E+00
 0.5124341561775E+00
 0.4461054089844E+00
 0.3812756649625E+00
 0.3199256425434E+00
 0.2643076237342E+00
 0.2168718874932E+00
 0.1801037031218E+00
 0.1562228522387E+00
 0.1466626238864E+00
 0.1512104831778E+00
 0.1667230023803E+00
 0.1856603452284E+00
 0.1966896642232E+00
 0.8567691892627E+00
 0.8085270756080E+00
 0.7552482488543E+00
 0.6968106779891E+00
 0.6340034996291E+00
 0.5680108774023E+00
 0.5002292931001E+00
 0.4322417230432E+00
 0.3658441834893E+00
 0.3030620912125E+00
 0.2461231139607E+00
 0.1973629019695E+00
 0.1590442417361E+00
 0.1330668055292E+00
 0.1205335889012E+00
 0.1211331218881E+00
 0.1323721026328E+00
 0.1489257895677E+00
 0.1629614563486E+00
 0.1668630588012E+00
 0.8055919965545E+00
 0.7537861141434E+00
 0.6961852772705E+00
 0.6332713651246E+00
 0.5665085251048E+00
 0.4976092655802E+00
 0.4283616224259E+00
 0.3606518017379E+00
 0.2965045272466E+00
 0.2380742138869E+00
 0.1875557624157E+00
 0.1470119848453E+00
 0.1181173280317E+00
 0.1018165306313E+00
 0.9789250571936E-01
 0.1044792382397E+00
 0.1177131066895E+00
 0.1319198410058E+00
 0.1408981629382E+00
 0.1403411832976E+00
 0.7559257200610E+00
 0.7009499655040E+00
 0.6393482450812E+00
 0.5726086599202E+00
 0.5030285875635E+00
 0.4327834332912E+00
 0.3638987498518E+00
 0.2983706164947E+00
 0.2382457272470E+00
 0.1855689071556E+00
 0.1422346159607E+00
 0.1097688913010E+00
 0.8906155616774E-01
 0.8006362876097E-01
 0.8146738932181E-01
 0.9047430060909E-01
 0.1028896096583E+00
 0.1137960689107E+00
 0.1189059305575E+00
 0.1159968869903E+00
 0.7082337439326E+00
 0.6503280785997E+00
 0.5849632204473E+00
 0.5151957682765E+00
 0.4441580180672E+00
 0.3742390508879E+00
 0.3073842175916E+00
 0.2454897238894E+00
 0.1904367707835E+00
 0.1439716082391E+00
 0.1075186572841E+00
 0.8196401524466E-01
 0.6743527867444E-01
 0.6309400149762E-01
 0.6697012808309E-01
 0.7597715904287E-01
 0.8628343912048E-01
 0.9410353633193E-01
 0.9675523374868E-01
 0.9340309290630E-01
 0.6629886223623E+00
 0.6020137588707E+00
 0.5329999131223E+00
 0.4612628124726E+00
 0.3904795846144E+00
 0.3224646455744E+00
 0.2588786186197E+00
 0.2014215456585E+00
 0.1517108934078E+00
 0.1111044567717E+00
 0.8051454566283E-01
 0.6023436821468E-01
 0.4979607931139E-01
 0.4786901243055E-01
 0.5222778271126E-01
 0.5993021809231E-01
 0.6779226784609E-01
 0.7309064353522E-01
 0.7432553308028E-01
 0.7167415872386E-01
 0.6207146216410E+00
 0.5551839312066E+00
 0.4825298896041E+00
 0.4111977520704E+00
 0.3424299467168E+00
 0.2774338425728E+00
 0.2177497953511E+00
 0.1649128467243E+00
 0.1202535758626E+00
 0.8472918859013E-01
 0.5878252301998E-01
 0.4223021555725E-01
 0.3420181033117E-01
 0.3312944200682E-01
 0.3680289294219E-01
 0.4262629678216E-01
 0.4809124619463E-01
 0.5133871040841E-01
 0.5163090965757E-01
 0.4982694113910E-01
 0.5794885148143E+00
 0.5049102121795E+00
 0.4345984273503E+00
 0.3663039828950E+00
 0.3005129097504E+00
 0.2389811266357E+00
 0.1833117318619E+00
 0.1348720222144E+00
 0.9467691787360E-01
 0.6330073558478E-01
 0.4079331346471E-01
 0.2662544856104E-01
 0.1969612936539E-01
 0.1840253498150E-01
 0.2072817763800E-01
 0.2450192784648E-01
 0.2782971549157E-01
 0.2949712451034E-01
 0.2926570565687E-01
 0.2779838126719E-01
</DataArray>
<DataArray type="Float64" Name="CK" NumberOfComponents="1" ComponentName0="CK" format="ascii">
 0.0000000000000E+00
 0.0000000000000E+00
 0.0000000000000E+00
 0.0000000000000E+00
 0.0000000000000E+00
 0.0000000000000E+00
 0.0000000000000E+00
 0.0000000000000E+00
 0.0000000000000E+00
 0.0000000000000E+00
 0.0000000000000E+00
 0.0000000000000E+00
 0.0000000000000E+00
 0.0000000000000E+00
 0.0000000000000E+00
 0.0000000000000E+00
 0.0000000000000E+00
 0.0000000000000E+00
 0.0000000000000E+00
 0.0000000000000E+00
 0.0000000000000E+00
 0.0000000000000E+00
 0.0000000000000E+00
 0.0000000000000E+00
 0.0000000000000E+00
 0.0000000000000E+00
 0.0000000000000E+00
 0.0000000000000E+00
 0.0000000000000E+00
 0.0000000000000E+00
 0.0000000000000E+00
 0.0000000000000E+00
 0.0000000000000E+00
 0.0000000000000E+00
 0.0000000000000E+00
 0.0000000000000E+00
 0.0000000000000E+00
 0.0000000000000E+00
 0.0000000000000E+00
 0.0000000000000E+00
 0.0000000000000E+00
 0.0000000000000E+00
 0.0000000000000E+00
 0.0000000000000E+00
 0.0000000000000E+00
 0.0000000000000E+00
 0.0000000000000E+00
 0.0000000000000E+00
 0.0000000000000E+00
 0.0000000000000E+00
 0.0000000000000E+00
 0.0000000000000E+00
 0.0000000000000E+00
 0.0000000000000E+00
 0.0000000000000E+00
 0.0000000000000E+00
 0.0000000000000E+00
 0.0000000000000E+00
 0.0000000000000E+00
 0.0000000000000E+00
 0.0000000000000E+00
 0.0000000000000E+00
 0.0000000000000E+00
 0.0000000000000E+00
 0.0000000000000E+00
 0.0000000000000E+00
 0.0000000000000E+00
 0.0000000000000E+00
 0.0000000000000E+00
 0.0000000000000E+00
 0.0000000000000E+00
 0.0000000000000E+00
 0.0000000000000E+00
 0.0000000000000E+00
 0.0000000000000E+00
 0.0000000000000E+00
 0.0000000000000E+00
 0.0000000000000E+00
 0.0000000000000E+00
 0.0000000000000E+00
 0.0000000000000E+00
 0.0000000000000E+00
 0.0000000000000E+00
 0.0000000000000E+00
 0.0000000000000E+00
 0.0000000000000E+00
 0.0000000000000E+00
 0.0000000000000E+00
 0.0000000000000E+00
 0.0000000000000E+00
 0.0000000000000E+00
 0.0000000000000E+00
 0.0000000000000E+00
 0.0000000000000E+00
 0.0000000000000E+00
 0.0000000000000E+00
 0.0000000000000E+00
 0.0000000000000E+00
 0.0000000000000E+00
 0.0000000000000E+00
 0.0000000000000E+00
 0.0000000000000E+00
 0.0000000000000E+00
 0.0000000000000E+00
 0.0000000000000E+00
 0.0000000000000E+00
 0.0000000000000E+00
 0.0000000000000E+00
 0.0000000000000E+00
 0.0000000000000E+00
 0.0000000000000E+00
 0.0000000000000E+00
 0.0000000000000E+00
 0.0000000000000E+00
 0.0000000000000E+00
 0.0000000000000E+00
 0.0000000000000E+00
 0.0000000000000E+00
 0.0000000000000E+00
 0.0000000000000E+00
 0.0000000000000E+00
 0.0000000000000E+00
 0.0000000000000E+00
 0.0000000000000E+00
 0.0000000000000E+00
 0.0000000000000E+00
 0.0000000000000E+00
 0.0000000000000E+00
 0.0000000000000E+00
 0.0000000000000E+00
 0.0000000000000E+00
 0.0000000000000E+00
 0.0000000000000E+00
 0.0000000000000E+00
 0.0000000000000E+00
 0.0000000000000E+00
 0.0000000000000E+00
 0.0000000000000E+00
 0.0000000000000E+00
 0.0000000000000E+00
 0.0000000000000E+00
 0.0000000000000E+00
 0.0000000000000E+00
 0.0000000000000E+00
 0.0000000000000E+00
 0.0000000000000E+00
 0.0000000000000E+00
 0.0000000000000E+00
 0.0000000000000E+00
 0.0000000000000E+00
 0.0000000000000E+00
 0.0000000000000E+00
 0.0000000000000E+00
 0.0000000000000E+00
 0.0000000000000E+00
 0.0000000000000E+00
 0.0000000000000E+00
 0.0000000000000E+00
 0.0000000000000E+00
 0.0000000000000E+00
 0.0000000000000E+00
 0.0000000000000E+00
 0.0000000000000E+00
 0.0000000000000E+00
 0.0000000000000E+00
 0.0000000000000E+00
 0.0000000000000E+00
 0.0000000000000E+00
 0.0000000000000E+00
 0.0000000000000E+00
 0.0000000000000E+00
 0.0000000000000E+00
 0.0000000000000E+00
 0.0000000000000E+00
 0.0000000000000E+00
 0.0000000000000E+00
 0.0000000000000E+00
 0.0000000000000E+00
 0.0000000000000E+00
 0.0000000000000E+00
 0.0000000000000E+00
 0.0000000000000E+00
 0.0000000000000E+00
 0.0000000000000E+00
 0.0000000000000E+00
 0.0000000000000E+00
 0.0000000000000E+00
 0.0000000000000E+00
 0.0000000000000E+00
 0.0000000000000E+00
 0.0000000000000E+00
 0.0000000000000E+00
 0.0000000000000E+00
 0.0000000000000E+00
 0.0000000000000E+00
 0.0000000000000E+00
 0.0000000000000E+00
 0.0000000000000E+00
 0.0000000000000E+00
 0.0000000000000E+00
 0.0000000000000E+00
 0.0000000000000E+00
 0.0000000000000E+00
 0.0000000000000E+00
 0.0000000000000E+00
 0.0000000000000E+00
 0.0000000000000E+00
 0.0000000000000E+00
 0.0000000000000E+00
 0.0000000000000E+00
 0.0000000000000E+00
 0.0000000000000E+00
 0.0000000000000E+00
 0.0000000000000E+00
 0.0000000000000E+00
 0.0000000000000E+00
 0.0000000000000E+00
 0.0000000000000E+00
 0.0000000000000E+00
 0.0000000000000E+00
 0.0000000000000E+00
 0.0000000000000E+00
 0.0000000000000E+00
 0.0000000000000E+00
 0.0000000000000E+00
 0.0000000000000E+00
 0.0000000000000E+00
 0.0000000000000E+00
 0.0000000000000E+00
 0.0000000000000E+00
 0.0000000000000E+00
 0.0000000000000E+00
 0.0000000000000E+00
 0.0000000000000E+00
 0.0000000000000E+00
 0.0000000000000E+00
 0.0000000000000E+00
 0.0000000000000E+00
 0.0000000000000E+00
 0.0000000000000E+00
 0.0000000000000E+00
 0.0000000000000E+00
 0.0000000000000E+00
 0.0000000000000E+00
 0.0000000000000E+00
 0.0000000000000E+00
 0.0000000000000E+00
 0.0000000000000E+00
 0.0000000000000E+00
 0.0000000000000E+00
 0.0000000000000E+00
 0.0000000000000E+00
 0.0000000000000E+00
 0.0000000000000E+00
 0.0000000000000E+00
 0.0000000000000E+00
 0.0000000000000E+00
 0.0000000000000E+00
 0.0000000000000E+00
 0.0000000000000E+00
 0.0000000000000E+00
 0.0000000000000E+00
 0.0000000000000E+00
 0.0000000000000E+00
 0.0000000000000E+00
 0.0000000000000E+00
 0.0000000000000E+00
 0.0000000000000E+00
 0.0000000000000E+00
 0.0000000000000E+00
 0.0000000000000E+00
 0.0000000000000E+00
 0.0000000000000E+00
 0.0000000000000E+00
 0.0000000000000E+00
 0.0000000000000E+00
 0.0000000000000E+00
 0.0000000000000E+00
 0.0000000000000E+00
 0.0000000000000E+00
 0.0000000000000E+00
 0.0000000000000E+00
 0.0000000000000E+00
 0.0000000000000E+00
 0.0000000000000E+00
 0.0000000000000E+00
 0.0000000000000E+00
 0.0000000000000E+00
 0.0000000000000E+00
 0.0000000000000E+00
 0.0000000000000E+00
 0.0000000000000E+00
 0.0000000000000E+00
 0.0000000000000E+00
 0.0000000000000E+00
 0.0000000000000E+00
 0.0000000000000E+00
 0.0000000000000E+00
 0.0000000000000E+00
 0.0000000000000E+00
 0.0000000000000E+00
 0.0000000000000E+00
 0.0000000000000E+00
 0.0000000000000E+00
 0.0000000000000E+00
 0.0000000000000E+00
 0.0000000000000E+00
 0.0000000000000E+00
 0.0000000000000E+00
 0.0000000000000E+00
 0.0000000000000E+00
 0.0000000000000E+00
 0.0000000000000E+00
 0.0000000000000E+00
 0.0000000000000E+00
 0.0000000000000E+00
 0.0000000000000E+00
 0.0000000000000E+00
 0.0000000000000E+00
 0.0000000000000E+00
 0.0000000000000E+00
 0.0000000000000E+00
 0.0000000000000E+00
 0.0000000000000E+00
 0.0000000000000E+00
 0.0000000000000E+00
 0.0000000000000E+00
 0.0000000000000E+00
 0.0000000000000E+00
 0.0000000000000E+00
 0.0000000000000E+00
 0.0000000000000E+00
 0.0000000000000E+00
 0.0000000000000E+00
 0.0000000000000E+00
 0.0000000000000E+00
 0.0000000000000E+00
 0.0000000000000E+00
 0.0000000000000E+00
 0.0000000000000E+00
 0.0000000000000E+00
 0.0000000000000E+00
 0.0000000000000E+00
 0.0000000000000E+00
 0.0000000000000E+00
 0.0000000000000E+00
 0.0000000000000E+00
 0.0000000000000E+00
 0.0000000000000E+00
 0.0000000000000E+00
 0.0000000000000E+00
 0.0000000000000E+00
 0.0000000000000E+00
 0.0000000000000E+00
 0.0000000000000E+00
 0.0000000000000E+00
 0.0000000000000E+00
 0.0000000000000E+00
 0.0000000000000E+00
 0.0000000000000E+00
 0.0000000000000E+00
 0.0000000000000E+00
 0.0000000000000E+00
 0.0000000000000E+00
 0.0000000000000E+00
 0.0000000000000E+00
 0.0000000000000E+00
 0.0000000000000E+00
 0.0000000000000E+00
 0.0000000000000E+00
 0.0000000000000E+00
 0.0000000000000E+00
 0.0000000000000E+00
 0.0000000000000E+00
 0.0000000000000E+00
 0.0000000000000E+00
 0.0000000000000E+00
 0.0000000000000E+00
 0.0000000000000E+00
 0.0000000000000E+00
 0.0000000000000E+00
 0.0000000000000E+00
 0.0000000000000E+00
 0.0000000000000E+00
 0.0000000000000E+00
 0.0000000000000E+00
 0.0000000000000E+00
 0.0000000000000E+00
 0.0000000000000E+00
 0.0000000000000E+00
 0.0000000000000E+00
 0.0000000000000E+00
 0.0000000000000E+00
 0.0000000000000E+00
 0.0000000000000E+00
 0.0000000000000E+00
 0.0000000000000E+00
 0.0000000000000E+00
 0.0000000000000E+00
 0.0000000000000E+00
 0.0000000000000E+00
 0.0000000000000E+00
 0.0000000000000E+00
 0.0000000000000E+00
 0.0000000000000E+00
 0.0000000000000E+00
 0.0000000000000E+00
 0.0000000000000E+00
 0.0000000000000E+00
 0.0000000000000E+00
 0.0000000000000E+00
 0.0000000000000E+00
 0.0000000000000E+00
 0.0000000000000E+00
 0.0000000000000E+00
 0.0000000000000E+00
 0.0000000000000E+00
 0.0000000000000E+00
 0.0000000000000E+00
 0.0000000000000E+00
 0.0000000000000E+00
 0.0000000000000E+00
 0.0000000000000E+00
 0.0000000000000E+00
 0.0000000000000E+00
 0.0000000000000E+00
 0.0000000000000E+00
 0.0000000000000E+00
 0.0000000000000E+00
 0.0000000000000E+00
 0.0000000000000E+00
 0.0000000000000E+00
 0.0000000000000E+00
 0.0000000000000E+00
 0.0000000000000E+00
 0.0000000000000E+00
 0.0000000000000E+00
 0.0000000000000E+00
 0.0000000000000E+00
 0.0000000000000E+00
 0.0000000000000E+00
 0.0000000000000E+00
 0.0000000000000E+00
 0.0000000000000E+00
 0.0000000000000E+00
 0.0000000000000E+00
 0.0000000000000E+00
 0.0000000000000E+00
 0.0000000000000E+00
 0.0000000000000E+00
 0.0000000000000E+00
 0.0000000000000E+00
 0.0000000000000E+00
 0.0000000000000E+00
 0.0000000000000E+00
 0.0000000000000E+00
 0.0000000000000E+00
 0.0000000000000E+00
 0.0000000000000E+00
 0.0000000000000E+00
 0.0000000000000E+00
 0.0000000000000E+00
 0.0000000000000E+00
 0.0000000000000E+00
 0.0000000000000E+00
 0.0000000000000E+00
 0.0000000000000E+00
 0.0000000000000E+00
 0.0000000000000E+00
 0.0000000000000E+00
 0.0000000000000E+00
 0.0000000000000E+00
 0.0000000000000E+00
 0.0000000000000E+00
 0.0000000000000E+00
 0.0000000000000E+00
 0.0000000000000E+00
 0.0000000000000E+00
 0.0000000000000E+00
 0.0000000000000E+00
 0.0000000000000E+00
 0.0000000000000E+00
 0.0000000000000E+00
 0.0000000000000E+00
 0.0000000000000E+00
 0.0000000000000E+00
 0.0000000000000E+00
 0.0000000000000E+00
 0.0000000000000E+00
 0.0000000000000E+00
 0.0000000000000E+00
 0.0000000000000E+00
 0.0000000000000E+00
 0.0000000000000E+00
 0.0000000000000E+00
 0.0000000000000E+00
 0.0000000000000E+00
 0.0000000000000E+00
 0.0000000000000E+00
 0.0000000000000E+00
 0.0000000000000E+00
 0.0000000000000E+00
 0.0000000000000E+00
 0.0000000000000E+00
 0.0000000000000E+00
 0.0000000000000E+00
 0.0000000000000E+00
 0.0000000000000E+00
 0.0000000000000E+00
 0.0000000000000E+00
 0.0000000000000E+00
 0.0000000000000E+00
 0.0000000000000E+00
 0.0000000000000E+00
 0.0000000000000E+00
 0.0000000000000E+00
 0.0000000000000E+00
 0.0000000000000E+00
 0.0000000000000E+00
 0.0000000000000E+00
 0.0000000000000E+00
 0.0000000000000E+00
 0.0000000000000E+00
 0.0000000000000E+00
 0.0000000000000E+00
 0.0000000000000E+00
 0.0000000000000E+00
 0.0000000000000E+00
 0.0000000000000E+00
 0.0000000000000E+00
 0.0000000000000E+00
 0.0000000000000E+00
 0.0000000000000E+00
 0.0000000000000E+00
 0.0000000000000E+00
 0.0000000000000E+00
 0.0000000000000E+00
 0.0000000000000E+00
 0.0000000000000E+00
 0.0000000000000E+00
 0.0000000000000E+00
 0.0000000000000E+00
 0.0000000000000E+00
 0.0000000000000E+00
 0.0000000000000E+00
 0.0000000000000E+00
 0.0000000000000E+00
 0.0000000000000E+00
 0.0000000000000E+00
 0.0000000000000E+00
 0.0000000000000E+00
 0.0000000000000E+00
 0.0000000000000E+00
 0.0000000000000E+00
 0.0000000000000E+00
 0.0000000000000E+00
 0.0000000000000E+00
 0.0000000000000E+00
 0.0000000000000E+00
 0.0000000000000E+00
 0.0000000000000E+00
 0.0000000000000E+00
 0.0000000000000E+00
 0.0000000000000E+00
 0.0000000000000E+00
 0.0000000000000E+00
 0.0000000000000E+00
 0.0000000000000E+00
 0.0000000000000E+00
 0.0000000000000E+00
 0.0000000000000E+00
 0.0000000000000E+00
 0.0000000000000E+00
 0.0000000000000E+00
 0.0000000000000E+00
 0.0000000000000E+00
 0.0000000000000E+00
 0.0000000000000E+00
 0.0000000000000E+00
 0.0000000000000E+00
 0.0000000000000E+00
 0.0000000000000E+00
 0.0000000000000E+00
 0.0000000000000E+00
 0.0000000000000E+00
 0.0000000000000E+00
 0.0000000000000E+00
 0.0000000000000E+00
 0.0000000000000E+00
 0.0000000000000E+00
 0.0000000000000E+00
 0.0000000000000E+00
 0.0000000000000E+00
 0.0000000000000E+00
 0.0000000000000E+00
 0.0000000000000E+00
 0.0000000000000E+00
 0.0000000000000E+00
 0.0000000000000E+00
 0.0000000000000E+00
 0.0000000000000E+00
 0.0000000000000E+00
 0.0000000000000E+00
 0.0000000000000E+00
 0.0000000000000E+00
 0.0000000000000E+00
 0.0000000000000E+00
 0.0000000000000E+00
 0.0000000000000E+00
 0.0000000000000E+00
 0.0000000000000E+00
 0.0000000000000E+00
 0.0000000000000E+00
 0.0000000000000E+00
 0.0000000000000E+00
 0.0000000000000E+00
 0.0000000000000E+00
 0.0000000000000E+00
 0.0000000000000E+00
 0.0000000000000E+00
 0.0000000000000E+00
 0.0000000000000E+00
 0.0000000000000E+00
 0.0000000000000E+00
 0.0000000000000E+00
 0.0000000000000E+00
 0.0000000000000E+00
 0.0000000000000E+00
 0.0000000000000E+00
 0.0000000000000E+00
 0.0000000000000E+00
 0.0000000000000E+00
 0.0000000000000E+00
 0.0000000000000E+00
 0.0000000000000E+00
 0.0000000000000E+00
 0.0000000000000E+00
 0.0000000000000E+00
 0.0000000000000E+00
 0.0000000000000E+00
 0.0000000000000E+00
 0.0000000000000E+00
 0.0000000000000E+00
 0.0000000000000E+00
 0.0000000000000E+00
 0.0000000000000E+00
 0.0000000000000E+00
 0.0000000000000E+00
 0.0000000000000E+00
 0.0000000000000E+00
 0.0000000000000E+00
 0.0000000000000E+00
 0.0000000000000E+00
 0.0000000000000E+00
 0.0000000000000E+00
 0.0000000000000E+00
 0.0000000000000E+00
 0.0000000000000E+00
 0.0000000000000E+00
 0.0000000000000E+00
 0.0000000000000E+00
 0.0000000000000E+00
 0.0000000000000E+00
 0.0000000000000E+00
 0.0000000000000E+00
 0.0000000000000E+00
 0.0000000000000E+00
 0.0000000000000E+00
 0.0000000000000E+00
 0.0000000000000E+00
 0.0000000000000E+00
 0.0000000000000E+00
 0.0000000000000E+00
 0.0000000000000E+00
 0.0000000000000E+00
 0.0000000000000E+00
 0.0000000000000E+00
 0.0000000000000E+00
 0.0000000000000E+00
 0.0000000000000E+00
 0.0000000000000E+00
 0.0000000000000E+00
 0.0000000000000E+00
 0.0000000000000E+00
 0.0000000000000E+00
 0.0000000000000E+00
 0.0000000000000E+00
 0.0000000000000E+00
 0.0000000000000E+00
 0.0000000000000E+00
 0.0000000000000E+00
 0.0000000000000E+00
 0.0000000000000E+00
 0.0000000000000E+00
 0.0000000000000E+00
 0.0000000000000E+00
 0.0000000000000E+00
 0.0000000000000E+00
 0.0000000000000E+00
 0.0000000000000E+00
 0.0000000000000E+00
 0.0000000000000E+00
 0.0000000000000E+00
 0.0000000000000E+00
 0.0000000000000E+00
 0.0000000000000E+00
 0.0000000000000E+00
 0.0000000000000E+00
 0.0000000000000E+00
 0.0000000000000E+00
 0.0000000000000E+00
 0.0000000000000E+00
 0.0000000000000E+00
 0.0000000000000E+00
 0.0000000000000E+00
 0.0000000000000E+00
 0.0000000000000E+00
 0.0000000000000E+00
 0.0000000000000E+00
 0.0000000000000E+00
 0.0000000000000E+00
 0.0000000000000E+00
 0.0000000000000E+00
 0.0000000000000E+00
 0.0000000000000E+00
 0.0000000000000E+00
 0.0000000000000E+00
 0.0000000000000E+00
 0.0000000000000E+00
 0.0000000000000E+00
 0.0000000000000E+00
 0.0000000000000E+00
 0.0000000000000E+00
 0.0000000000000E+00
 0.0000000000000E+00
 0.0000000000000E+00
 0.0000000000000E+00
 0.0000000000000E+00
 0.0000000000000E+00
 0.0000000000000E+00
 0.0000000000000E+00
 0.0000000000000E+00
 0.0000000000000E+00
 0.0000000000000E+00
 0.0000000000000E+00
 0.0000000000000E+00
 0.0000000000000E+00
 0.0000000000000E+00
 0.0000000000000E+00
 0.0000000000000E+00
 0.0000000000000E+00
 0.0000000000000E+00
 0.0000000000000E+00
 0.0000000000000E+00
 0.0000000000000E+00
 0.0000000000000E+00
 0.0000000000000E+00
 0.0000000000000E+00
 0.0000000000000E+00
 0.0000000000000E+00
 0.0000000000000E+00
 0.0000000000000E+00
 0.0000000000000E+00
 0.0000000000000E+00
 0.0000000000000E+00
 0.0000000000000E+00
 0.0000000000000E+00
 0.0000000000000E+00
 0.0000000000000E+00
 0.0000000000000E+00
 0.0000000000000E+00
 0.0000000000000E+00
 0.0000000000000E+00
 0.0000000000000E+00
 0.0000000000000E+00
 0.0000000000000E+00
 0.0000000000000E+00
 0.0000000000000E+00
 0.0000000000000E+00
 0.0000000000000E+00
 0.0000000000000E+00
 0.0000000000000E+00
 0.0000000000000E+00
 0.0000000000000E+00
 0.0000000000000E+00
 0.0000000000000E+00
 0.0000000000000E+00
 0.0000000000000E+00
 0.0000000000000E+00
 0.0000000000000E+00
 0.0000000000000E+00
 0.0000000000000E+00
 0.0000000000000E+00
 0.0000000000000E+00
 0.0000000000000E+00
 0.0000000000000E+00
 0.0000000000000E+00
 0.0000000000000E+00
 0.0000000000000E+00
 0.0000000000000E+00
 0.0000000000000E+00
 0.0000000000000E+00
 0.0000000000000E+00
 0.0000000000000E+00
 0.0000000000000E+00
 0.0000000000000E+00
 0.0000000000000E+00
 0.0000000000000E+00
 0.0000000000000E+00
 0.0000000000000E+00
 0.0000000000000E+00
 0.0000000000000E+00
 0.0000000000000E+00
 0.0000000000000E+00
 0.0000000000000E+00
 0.0000000000000E+00
 0.0000000000000E+00
 0.0000000000000E+00
 0.0000000000000E+00
 0.0000000000000E+00
 0.0000000000000E+00
 0.0000000000000E+00
 0.0000000000000E+00
 0.0000000000000E+00
 0.0000000000000E+00
 0.0000000000000E+00
 0.0000000000000E+00
 0.0000000000000E+00
 0.0000000000000E+00
 0.0000000000000E+00
 0.0000000000000E+00
 0.0000000000000E+00
 0.0000000000000E+00
 0.0000000000000E+00
 0.0000000000000E+00
 0.0000000000000E+00
 0.0000000000000E+00
 0.0000000000000E+00
 0.0000000000000E+00
 0.0000000000000E+00
 0.0000000000000E+00
 0.0000000000000E+00
 0.0000000000000E+00
 0.0000000000000E+00
 0.0000000000000E+00
 0.0000000000000E+00
 0.0000000000000E+00
 0.0000000000000E+00
 0.0000000000000E+00
 0.0000000000000E+00
 0.0000000000000E+00
 0.0000000000000E+00
 0.0000000000000E+00
 0.0000000000000E+00
 0.0000000000000E+00
 0.0000000000000E+00
 0.0000000000000E+00
 0.0000000000000E+00
 0.0000000000000E+00
 0.0000000000000E+00
 0.0000000000000E+00
 0.0000000000000E+00
 0.0000000000000E+00
 0.0000000000000E+00
 0.0000000000000E+00
 0.0000000000000E+00
 0.0000000000000E+00
 0.0000000000000E+00
 0.0000000000000E+00
 0.0000000000000E+00
 0.0000000000000E+00
 0.0000000000000E+00
 0.0000000000000E+00
 0.0000000000000E+00
 0.0000000000000E+00
 0.0000000000000E+00
 0.0000000000000E+00
 0.0000000000000E+00
 0.0000000000000E+00
 0.0000000000000E+00
 0.0000000000000E+00
 0.0000000000000E+00
 0.0000000000000E+00
 0.0000000000000E+00
 0.0000000000000E+00
 0.0000000000000E+00
 0.0000000000000E+00
 0.0000000000000E+00
 0.0000000000000E+00
 0.0000000000000E+00
 0.0000000000000E+00
 0.0000000000000E+00
 0.0000000000000E+00
 0.0000000000000E+00
 0.0000000000000E+00
 0.0000000000000E+00
 0.0000000000000E+00
 0.0000000000000E+00
 0.0000000000000E+00
 0.0000000000000E+00
 0.0000000000000E+00
 0.0000000000000E+00
 0.0000000000000E+00
 0.0000000000000E+00
 0.0000000000000E+00
 0.0000000000000E+00
 0.0000000000000E+00
 0.0000000000000E+00
 0.0000000000000E+00
 0.0000000000000E+00
 0.0000000000000E+00
 0.0000000000000E+00
 0.0000000000000E+00
 0.0000000000000E+00
 0.0000000000000E+00
 0.0000000000000E+00
 0.0000000000000E+00
 0.0000000000000E+00
 0.0000000000000E+00
 0.0000000000000E+00
 0.0000000000000E+00
 0.0000000000000E+00
 0.0000000000000E+00
 0.0000000000000E+00
 0.0000000000000E+00
 0.0000000000000E+00
 0.0000000000000E+00
 0.0000000000000E+00
 0.0000000000000E+00
 0.0000000000000E+00
 0.0000000000000E+00
 0.0000000000000E+00
 0.0000000000000E+00
 0.0000000000000E+00
 0.0000000000000E+00
 0.0000000000000E+00
 0.0000000000000E+00
 0.0000000000000E+00
 0.0000000000000E+00
 0.0000000000000E+00
 0.0000000000000E+00
 0.0000000000000E+00
 0.0000000000000E+00
 0.0000000000000E+00
 0.0000000000000E+00
 0.0000000000000E+00
 0.0000000000000E+00
 0.0000000000000E+00
 0.0000000000000E+00
 0.0000000000000E+00
 0.0000000000000E+00
 0.0000000000000E+00
 0.0000000000000E+00
 0.0000000000000E+00
 0.0000000000000E+00
 0.0000000000000E+00
 0.0000000000000E+00
 0.0000000000000E+00
 0.0000000000000E+00
 0.0000000000000E+00
 0.0000000000000E+00
 0.0000000000000E+00
 0.0000000000000E+00
 0.0000000000000E+00
 0.0000000000000E+00
 0.0000000000000E+00
 0.0000000000000E+00
 0.0000000000000E+00
 0.0000000000000E+00
 0.0000000000000E+00
 0.0000000000000E+00
 0.0000000000000E+00
 0.0000000000000E+00
 0.0000000000000E+00
 0.0000000000000E+00
 0.0000000000000E+00
 0.0000000000000E+00
 0.0000000000000E+00
 0.0000000000000E+00
 0.0000000000000E+00
 0.0000000000000E+00
 0.0000000000000E+00
 0.0000000000000E+00
 0.0000000000000E+00
 0.0000000000000E+00
 0.0000000000000E+00
 0.0000000000000E+00
 0.0000000000000E+00
 0.0000000000000E+00
 0.0000000000000E+00
 0.0000000000000E+00
 0.0000000000000E+00
 0.0000000000000E+00
 0.0000000000000E+00
 0.0000000000000E+00
 0.0000000000000E+00
 0.0000000000000E+00
 0.0000000000000E+00
 0.0000000000000E+00
 0.0000000000000E+00
 0.0000000000000E+00
 0.0000000000000E+00
 0.0000000000000E+00
 0.0000000000000E+00
 0.0000000000000E+00
 0.0000000000000E+00
 0.0000000000000E+00
 0.0000000000000E+00
 0.0000000000000E+00
 0.0000000000000E+00
 0.0000000000000E+00
 0.0000000000000E+00
 0.0000000000000E+00
 0.0000000000000E+00
 0.0000000000000E+00
 0.0000000000000E+00
 0.0000000000000E+00
 0.0000000000000E+00
 0.0000000000000E+00
 0.0000000000000E+00
 0.0000000000000E+00
 0.0000000000000E+00
 0.0000000000000E+00
 0.0000000000000E+00
 0.0000000000000E+00
 0.0000000000000E+00
 0.0000000000000E+00
 0.0000000000000E+00
 0.0000000000000E+00
 0.0000000000000E+00
 0.0000000000000E+00
 0.0000000000000E+00
 0.0000000000000E+00
 0.0000000000000E+00
 0.0000000000000E+00
 0.0000000000000E+00
 0.0000000000000E+00
 0.0000000000000E+00
 0.0000000000000E+00
 0.0000000000000E+00
 0.0000000000000E+00
 0.0000000000000E+00
 0.0000000000000E+00
 0.0000000000000E+00
 0.0000000000000E+00
 0.0000000000000E+00
 0.0000000000000E+00
 0.0000000000000E+00
 0.0000000000000E+00
 0.0000000000000E+00
 0.0000000000000E+00
 0.0000000000000E+00
 0.0000000000000E+00
 0.0000000000000E+00
 0.0000000000000E+00
 0.0000000000000E+00
 0.0000000000000E+00
 0.0000000000000E+00
 0.0000000000000E+00
 0.0000000000000E+00
 0.0000000000000E+00
 0.0000000000000E+00
 0.0000000000000E+00
 0.0000000000000E+00
 0.0000000000000E+00
 0.0000000000000E+00
 0.0000000000000E+00
 0.0000000000000E+00
 0.0000000000000E+00
 0.0000000000000E+00
 0.0000000000000E+00
 0.0000000000000E+00
 0.0000000000000E+00
 0.0000000000000E+00
 0.0000000000000E+00
 0.0000000000000E+00
 0.0000000000000E+00
 0.0000000000000E+00
 0.0000000000000E+00
 0.0000000000000E+00
 0.0000000000000E+00
 0.0000000000000E+00
 0.0000000000000E+00
 0.0000000000000E+00
 0.0000000000000E+00
 0.0000000000000E+00
 0.0000000000000E+00
 0.0000000000000E+00
 0.0000000000000E+00
 0.0000000000000E+00
 0.0000000000000E+00
 0.0000000000000E+00
 0.0000000000000E+00
 0.0000000000000E+00
 0.0000000000000E+00
 0.0000000000000E+00
 0.0000000000000E+00
 0.0000000000000E+00
 0.0000000000000E+00
 0.0000000000000E+00
 0.0000000000000E+00
 0.0000000000000E+00
 0.0000000000000E+00
 0.0000000000000E+00
 0.0000000000000E+00
 0.0000000000000E+00
 0.0000000000000E+00
 0.0000000000000E+00
 0.0000000000000E+00
 0.0000000000000E+00
 0.0000000000000E+00
 0.0000000000000E+00
 0.0000000000000E+00
 0.0000000000000E+00
 0.0000000000000E+00
 0.0000000000000E+00
 0.0000000000000E+00
 0.0000000000000E+00
 0.0000000000000E+00
 0.0000000000000E+00
 0.0000000000000E+00
 0.0000000000000E+00
 0.0000000000000E+00
 0.0000000000000E+00
 0.0000000000000E+00
 0.0000000000000E+00
 0.0000000000000E+00
 0.0000000000000E+00
 0.0000000000000E+00
 0.0000000000000E+00
 0.0000000000000E+00
 0.0000000000000E+00
 0.0000000000000E+00
 0.0000000000000E+00
 0.0000000000000E+00
 0.0000000000000E+00
 0.0000000000000E+00
 0.0000000000000E+00
 0.0000000000000E+00
 0.0000000000000E+00
 0.0000000000000E+00
 0.0000000000000E+00
 0.0000000000000E+00
 0.0000000000000E+00
 0.0000000000000E+00
 0.0000000000000E+00
 0.0000000000000E+00
 0.0000000000000E+00
 0.0000000000000E+00
 0.0000000000000E+00
 0.0000000000000E+00
 0.0000000000000E+00
 0.0000000000000E+00
 0.0000000000000E+00
 0.0000000000000E+00
 0.0000000000000E+00
 0.0000000000000E+00
 0.0000000000000E+00
 0.0000000000000E+00
 0.0000000000000E+00
 0.0000000000000E+00
 0.0000000000000E+00
 0.0000000000000E+00
 0.0000000000000E+00
 0.0000000000000E+00
 0.0000000000000E+00
 0.0000000000000E+00
 0.0000000000000E+00
 0.0000000000000E+00
 0.0000000000000E+00
 0.0000000000000E+00
 0.0000000000000E+00
 0.0000000000000E+00
 0.0000000000000E+00
 0.0000000000000E+00
 0.0000000000000E+00
 0.0000000000000E+00
 0.0000000000000E+00
 0.0000000000000E+00
 0.0000000000000E+00
 0.0000000000000E+00
 0.0000000000000E+00
 0.0000000000000E+00
 0.0000000000000E+00
 0.0000000000000E+00
 0.0000000000000E+00
 0.0000000000000E+00
 0.0000000000000E+00
 0.0000000000000E+00
 0.0000000000000E+00
 0.0000000000000E+00
 0.0000000000000E+00
 0.0000000000000E+00
 0.0000000000000E+00
 0.0000000000000E+00
 0.0000000000000E+00
 0.0000000000000E+00
 0.0000000000000E+00
 0.0000000000000E+00
 0.0000000000000E+00
 0.0000000000000E+00
 0.0000000000000E+00
 0.0000000000000E+00
 0.0000000000000E+00
 0.0000000000000E+00
 0.0000000000000E+00
 0.0000000000000E+00
 0.0000000000000E+00
 0.0000000000000E+00
 0.0000000000000E+00
 0.0000000000000E+00
 0.0000000000000E+00
 0.0000000000000E+00
 0.0000000000000E+00
 0.0000000000000E+00
 0.0000000000000E+00
 0.0000000000000E+00
 0.0000000000000E+00
 0.0000000000000E+00
 0.0000000000000E+00
 0.0000000000000E+00
 0.0000000000000E+00
 0.0000000000000E+00
 0.0000000000000E+00
 0.0000000000000E+00
 0.0000000000000E+00
 0.0000000000000E+00
 0.0000000000000E+00
 0.0000000000000E+00
 0.0000000000000E+00
 0.0000000000000E+00
 0.0000000000000E+00
 0.0000000000000E+00
 0.0000000000000E+00
 0.0000000000000E+00
 0.0000000000000E+00
 0.0000000000000E+00
 0.0000000000000E+00
 0.0000000000000E+00
 0.0000000000000E+00
 0.0000000000000E+00
 0.0000000000000E+00
 0.0000000000000E+00
 0.0000000000000E+00
 0.0000000000000E+00
 0.0000000000000E+00
 0.0000000000000E+00
 0.0000000000000E+00
 0.0000000000000E+00
 0.0000000000000E+00
 0.0000000000000E+00
 0.0000000000000E+00
 0.0000000000000E+00
 0.0000000000000E+00
 0.0000000000000E+00
 0.0000000000000E+00
 0.0000000000000E+00
 0.0000000000000E+00
 0.0000000000000E+00
 0.0000000000000E+00
 0.0000000000000E+00
 0.0000000000000E+00
 0.0000000000000E+00
 0.0000000000000E+00
 0.0000000000000E+00
 0.0000000000000E+00
 0.0000000000000E+00
 0.0000000000000E+00
 0.0000000000000E+00
 0.0000000000000E+00
 0.0000000000000E+00
 0.0000000000000E+00
 0.0000000000000E+00
 0.0000000000000E+00
 0.0000000000000E+00
 0.0000000000000E+00
 0.0000000000000E+00
 0.0000000000000E+00
 0.0000000000000E+00
 0.0000000000000E+00
 0.0000000000000E+00
 0.0000000000000E+00
 0.0000000000000E+00
 0.0000000000000E+00
 0.0000000000000E+00
 0.0000000000000E+00
 0.0000000000000E+00
 0.0000000000000E+00
 0.0000000000000E+00
 0.0000000000000E+00
 0.0000000000000E+00
 0.0000000000000E+00
 0.0000000000000E+00
 0.0000000000000E+00
 0.0000000000000E+00
 0.0000000000000E+00
 0.0000000000000E+00
 0.0000000000000E+00
 0.0000000000000E+00
 0.0000000000000E+00
 0.0000000000000E+00
 0.0000000000000E+00
 0.0000000000000E+00
 0.0000000000000E+00
 0.0000000000000E+00
 0.0000000000000E+00
 0.0000000000000E+00
 0.0000000000000E+00
 0.0000000000000E+00
 0.0000000000000E+00
 0.0000000000000E+00
 0.0000000000000E+00
 0.0000000000000E+00
 0.0000000000000E+00
 0.0000000000000E+00
 0.0000000000000E+00
 0.0000000000000E+00
 0.0000000000000E+00
 0.0000000000000E+00
 0.0000000000000E+00
 0.0000000000000E+00
 0.0000000000000E+00
 0.0000000000000E+00
 0.0000000000000E+00
 0.0000000000000E+00
 0.0000000000000E+00
 0.0000000000000E+00
 0.0000000000000E+00
 0.0000000000000E+00
 0.0000000000000E+00
 0.0000000000000E+00
 0.0000000000000E+00
 0.0000000000000E+00
 0.0000000000000E+00
 0.0000000000000E+00
 0.0000000000000E+00
 0.0000000000000E+00
 0.0000000000000E+00
 0.0000000000000E+00
 0.0000000000000E+00
 0.0000000000000E+00
 0.0000000000000E+00
 0.0000000000000E+00
 0.0000000000000E+00
 0.0000000000000E+00
 0.0000000000000E+00
 0.0000000000000E+00
 0.0000000000000E+00
 0.0000000000000E+00
 0.0000000000000E+00
 0.0000000000000E+00
 0.0000000000000E+00
 0.0000000000000E+00
 0.0000000000000E+00
 0.0000000000000E+00
 0.0000000000000E+00
 0.0000000000000E+00
 0.0000000000000E+00
 0.0000000000000E+00
 0.0000000000000E+00
 0.0000000000000E+00
 0.0000000000000E+00
 0.0000000000000E+00
 0.0000000000000E+00
 0.0000000000000E+00
 0.0000000000000E+00
 0.0000000000000E+00
 0.0000000000000E+00
 0.0000000000000E+00
 0.0000000000000E+00
 0.0000000000000E+00
 0.0000000000000E+00
 0.0000000000000E+00
 0.0000000000000E+00
 0.0000000000000E+00
 0.0000000000000E+00
 0.0000000000000E+00
 0.0000000000000E+00
 0.0000000000000E+00
 0.0000000000000E+00
 0.0000000000000E+00
 0.0000000000000E+00
 0.0000000000000E+00
 0.0000000000000E+00
 0.0000000000000E+00
 0.0000000000000E+00
 0.0000000000000E+00
 0.0000000000000E+00
 0.0000000000000E+00
 0.0000000000000E+00
 0.0000000000000E+00
 0.0000000000000E+00
 0.0000000000000E+00
 0.0000000000000E+00
 0.0000000000000E+00
 0.0000000000000E+00
 0.0000000000000E+00
 0.0000000000000E+00
 0.0000000000000E+00
 0.0000000000000E+00
 0.0000000000000E+00
 0.0000000000000E+00
 0.0000000000000E+00
 0.0000000000000E+00
 0.0000000000000E+00
 0.0000000000000E+00
 0.0000000000000E+00
 0.0000000000000E+00
 0.0000000000000E+00
 0.0000000000000E+00
 0.0000000000000E+00
 0.0000000000000E+00
 0.0000000000000E+00
 0.0000000000000E+00
 0.0000000000000E+00
 0.0000000000000E+00
 0.0000000000000E+00
 0.0000000000000E+00
 0.0000000000000E+00
 0.0000000000000E+00
 0.0000000000000E+00
 0.0000000000000E+00
 0.0000000000000E+00
 0.0000000000000E+00
 0.0000000000000E+00
 0.0000000000000E+00
 0.0000000000000E+00
 0.0000000000000E+00
 0.0000000000000E+00
 0.0000000000000E+00
 0.0000000000000E+00
 0.0000000000000E+00
 0.0000000000000E+00
 0.0000000000000E+00
 0.0000000000000E+00
 0.0000000000000E+00
 0.0000000000000E+00
 0.0000000000000E+00
 0.0000000000000E+00
 0.0000000000000E+00
 0.0000000000000E+00
 0.0000000000000E+00
 0.0000000000000E+00
 0.0000000000000E+00
 0.0000000000000E+00
 0.0000000000000E+00
 0.0000000000000E+00
 0.0000000000000E+00
 0.0000000000000E+00
 0.0000000000000E+00
 0.0000000000000E+00
 0.0000000000000E+00
 0.0000000000000E+00
 0.0000000000000E+00
 0.0000000000000E+00
 0.0000000000000E+00
 0.0000000000000E+00
 0.0000000000000E+00
 0.0000000000000E+00
 0.0000000000000E+00
 0.0000000000000E+00
 0.0000000000000E+00
 0.0000000000000E+00
 0.0000000000000E+00
 0.0000000000000E+00
 0.0000000000000E+00
 0.0000000000000E+00
 0.0000000000000E+00
 0.0000000000000E+00
 0.0000000000000E+00
 0.0000000000000E+00
 0.0000000000000E+00
 0.0000000000000E+00
 0.0000000000000E+00
 0.0000000000000E+00
 0.0000000000000E+00
 0.0000000000000E+00
 0.0000000000000E+00
 0.0000000000000E+00
 0.0000000000000E+00
 0.0000000000000E+00
 0.0000000000000E+00
 0.0000000000000E+00
 0.0000000000000E+00
 0.0000000000000E+00
 0.0000000000000E+00
 0.0000000000000E+00
 0.0000000000000E+00
 0.0000000000000E+00
 0.0000000000000E+00
 0.0000000000000E+00
 0.0000000000000E+00
 0.0000000000000E+00
 0.0000000000000E+00
 0.0000000000000E+00
 0.0000000000000E+00
 0.0000000000000E+00
 0.0000000000000E+00
 0.0000000000000E+00
 0.0000000000000E+00
 0.0000000000000E+00
 0.0000000000000E+00
 0.0000000000000E+00
 0.0000000000000E+00
 0.0000000000000E+00
 0.0000000000000E+00
 0.0000000000000E+00
 0.0000000000000E+00
 0.0000000000000E+00
 0.0000000000000E+00
 0.0000000000000E+00
 0.0000000000000E+00
 0.0000000000000E+00
 0.0000000000000E+00
 0.0000000000000E+00
 0.0000000000000E+00
 0.0000000000000E+00
 0.0000000000000E+00
 0.0000000000000E+00
 0.0000000000000E+00
 0.0000000000000E+00
 0.0000000000000E+00
 0.0000000000000E+00
 0.0000000000000E+00
 0.0000000000000E+00
 0.0000000000000E+00
 0.0000000000000E+00
 0.0000000000000E+00
 0.0000000000000E+00
 0.0000000000000E+00
 0.0000000000000E+00
 0.0000000000000E+00
 0.0000000000000E+00
 0.0000000000000E+00
 0.0000000000000E+00
 0.0000000000000E+00
 0.0000000000000E+00
 0.0000000000000E+00
 0.0000000000000E+00
 0.0000000000000E+00
 0.0000000000000E+00
 0.0000000000000E+00
 0.0000000000000E+00
 0.0000000000000E+00
 0.0000000000000E+00
 0.0000000000000E+00
 0.0000000000000E+00
 0.0000000000000E+00
 0.0000000000000E+00
 0.0000000000000E+00
 0.0000000000000E+00
 0.0000000000000E+00
 0.0000000000000E+00
 0.0000000000000E+00
 0.0000000000000E+00
 0.0000000000000E+00
 0.0000000000000E+00
 0.0000000000000E+00
 0.0000000000000E+00
 0.0000000000000E+00
 0.0000000000000E+00
 0.0000000000000E+00
 0.0000000000000E+00
 0.0000000000000E+00
 0.0000000000000E+00
 0.0000000000000E+00
 0.0000000000000E+00
 0.0000000000000E+00
 0.0000000000000E+00
 0.0000000000000E+00
 0.0000000000000E+00
 0.0000000000000E+00
 0.0000000000000E+00
 0.0000000000000E+00
 0.0000000000000E+00
 0.0000000000000E+00
 0.0000000000000E+00
 0.0000000000000E+00
 0.0000000000000E+00
 0.0000000000000E+00
 0.0000000000000E+00
 0.0000000000000E+00
 0.0000000000000E+00
 0.0000000000000E+00
 0.0000000000000E+00
 0.0000000000000E+00
 0.0000000000000E+00
 0.0000000000000E+00
 0.0000000000000E+00
 0.0000000000000E+00
 0.0000000000000E+00
 0.0000000000000E+00
 0.0000000000000E+00
 0.0000000000000E+00
 0.0000000000000E+00
 0.0000000000000E+00
 0.0000000000000E+00
 0.0000000000000E+00
 0.0000000000000E+00
 0.0000000000000E+00
 0.0000000000000E+00
 0.0000000000000E+00
 0.0000000000000E+00
 0.0000000000000E+00
 0.0000000000000E+00
 0.0000000000000E+00
 0.0000000000000E+00
 0.0000000000000E+00
 0.0000000000000E+00
 0.0000000000000E+00
 0.0000000000000E+00
 0.0000000000000E+00
 0.0000000000000E+00
 0.0000000000000E+00
 0.0000000000000E+00
 0.0000000000000E+00
 0.0000000000000E+00
 0.0000000000000E+00
 0.0000000000000E+00
 0.0000000000000E+00
 0.0000000000000E+00
 0.0000000000000E+00
 0.0000000000000E+00
 0.0000000000000E+00
 0.0000000000000E+00
 0.0000000000000E+00
 0.0000000000000E+00
 0.0000000000000E+00
 0.0000000000000E+00
 0.0000000000000E+00
 0.0000000000000E+00
 0.0000000000000E+00
 0.0000000000000E+00
 0.0000000000000E+00
 0.0000000000000E+00
 0.0000000000000E+00
 0.0000000000000E+00
 0.0000000000000E+00
 0.0000000000000E+00
 0.0000000000000E+00
 0.0000000000000E+00
 0.0000000000000E+00
 0.0000000000000E+00
 0.0000000000000E+00
 0.0000000000000E+00
 0.0000000000000E+00
 0.0000000000000E+00
 0.0000000000000E+00
 0.0000000000000E+00
 0.0000000000000E+00
 0.0000000000000E+00
 0.0000000000000E+00
 0.0000000000000E+00
 0.0000000000000E+00
 0.0000000000000E+00
 0.0000000000000E+00
 0.0000000000000E+00
 0.0000000000000E+00
 0.0000000000000E+00
 0.0000000000000E+00
 0.0000000000000E+00
 0.0000000000000E+00
 0.0000000000000E+00
 0.0000000000000E+00
 0.0000000000000E+00
 0.0000000000000E+00
 0.0000000000000E+00
 0.0000000000000E+00
 0.0000000000000E+00
 0.0000000000000E+00
 0.0000000000000E+00
 0.0000000000000E+00
 0.0000000000000E+00
 0.0000000000000E+00
 0.0000000000000E+00
 0.0000000000000E+00
 0.0000000000000E+00
 0.0000000000000E+00
 0.0000000000000E+00
 0.0000000000000E+00
 0.0000000000000E+00
 0.0000000000000E+00
 0.0000000000000E+00
 0.0000000000000E+00
 0.0000000000000E+00
 0.0000000000000E+00
 0.0000000000000E+00
 0.0000000000000E+00
 0.0000000000000E+00
 0.0000000000000E+00
 0.0000000000000E+00
 0.0000000000000E+00
 0.0000000000000E+00
 0.0000000000000E+00
 0.0000000000000E+00
 0.0000000000000E+00
 0.0000000000000E+00
 0.0000000000000E+00
 0.0000000000000E+00
 0.0000000000000E+00
 0.0000000000000E+00
 0.0000000000000E+00
 0.0000000000000E+00
 0.0000000000000E+00
 0.0000000000000E+00
 0.0000000000000E+00
 0.0000000000000E+00
 0.0000000000000E+00
 0.0000000000000E+00
 0.0000000000000E+00
 0.0000000000000E+00
 0.0000000000000E+00
 0.0000000000000E+00
 0.0000000000000E+00
 0.0000000000000E+00
 0.0000000000000E+00
 0.0000000000000E+00
 0.0000000000000E+00
 0.0000000000000E+00
 0.0000000000000E+00
 0.0000000000000E+00
 0.0000000000000E+00
 0.0000000000000E+00
 0.0000000000000E+00
 0.0000000000000E+00
 0.0000000000000E+00
 0.0000000000000E+00
 0.0000000000000E+00
 0.0000000000000E+00
 0.0000000000000E+00
 0.0000000000000E+00
 0.0000000000000E+00
 0.0000000000000E+00
 0.0000000000000E+00
 0.0000000000000E+00
 0.0000000000000E+00
 0.0000000000000E+00
 0.0000000000000E+00
 0.0000000000000E+00
 0.0000000000000E+00
 0.0000000000000E+00
 0.0000000000000E+00
 0.0000000000000E+00
 0.0000000000000E+00
 0.0000000000000E+00
 0.0000000000000E+00
 0.0000000000000E+00
 0.0000000000000E+00
 0.0000000000000E+00
 0.0000000000000E+00
 0.0000000000000E+00
 0.0000000000000E+00
 0.0000000000000E+00
 0.0000000000000E+00
 0.0000000000000E+00
 0.0000000000000E+00
 0.0000000000000E+00
 0.0000000000000E+00
 0.0000000000000E+00
 0.0000000000000E+00
 0.0000000000000E+00
 0.0000000000000E+00
 0.0000000000000E+00
 0.0000000000000E+00
 0.0000000000000E+00
 0.0000000000000E+00
 0.0000000000000E+00
 0.0000000000000E+00
 0.0000000000000E+00
 0.0000000000000E+00
 0.0000000000000E+00
 0.0000000000000E+00
 0.0000000000000E+00
 0.0000000000000E+00
 0.0000000000000E+00
 0.0000000000000E+00
 0.0000000000000E+00
 0.0000000000000E+00
 0.0000000000000E+00
 0.0000000000000E+00
 0.0000000000000E+00
 0.0000000000000E+00
 0.0000000000000E+00
 0.0000000000000E+00
 0.0000000000000E+00
 0.0000000000000E+00
 0.0000000000000E+00
 0.0000000000000E+00
 0.0000000000000E+00
 0.0000000000000E+00
 0.0000000000000E+00
 0.0000000000000E+00
 0.0000000000000E+00
 0.0000000000000E+00
 0.0000000000000E+00
 0.0000000000000E+00
 0.0000000000000E+00
 0.0000000000000E+00
 0.0000000000000E+00
 0.0000000000000E+00
 0.0000000000000E+00
 0.0000000000000E+00
 0.0000000000000E+00
 0.0000000000000E+00
 0.0000000000000E+00
 0.0000000000000E+00
 0.0000000000000E+00
 0.0000000000000E+00
 0.0000000000000E+00
 0.0000000000000E+00
 0.0000000000000E+00
 0.0000000000000E+00
 0.0000000000000E+00
 0.0000000000000E+00
 0.0000000000000E+00
 0.0000000000000E+00
 0.0000000000000E+00
 0.0000000000000E+00
 0.0000000000000E+00
 0.0000000000000E+00
 0.0000000000000E+00
 0.0000000000000E+00
 0.0000000000000E+00
 0.0000000000000E+00
 0.0000000000000E+00
 0.0000000000000E+00
 0.0000000000000E+00
 0.0000000000000E+00
 0.0000000000000E+00
 0.0000000000000E+00
 0.0000000000000E+00
 0.0000000000000E+00
 0.0000000000000E+00
 0.0000000000000E+00
 0.0000000000000E+00
 0.0000000000000E+00
 0.0000000000000E+00
 0.0000000000000E+00
 0.0000000000000E+00
 0.0000000000000E+00
 0.0000000000000E+00
 0.0000000000000E+00
 0.0000000000000E+00
 0.0000000000000E+00
 0.0000000000000E+00
 0.0000000000000E+00
 0.0000000000000E+00
 0.0000000000000E+00
 0.0000000000000E+00
 0.0000000000000E+00
 0.0000000000000E+00
 0.0000000000000E+00
 0.0000000000000E+00
 0.0000000000000E+00
 0.0000000000000E+00
 0.0000000000000E+00
 0.0000000000000E+00
 0.0000000000000E+00
 0.0000000000000E+00
 0.0000000000000E+00
 0.0000000000000E+00
 0.0000000000000E+00
 0.0000000000000E+00
 0.0000000000000E+00
 0.0000000000000E+00
 0.0000000000000E+00
 0.0000000000000E+00
 0.0000000000000E+00
 0.0000000000000E+00
 0.0000000000000E+00
 0.0000000000000E+00
 0.0000000000000E+00
 0.0000000000000E+00
 0.0000000000000E+00
 0.0000000000000E+00
 0.0000000000000E+00
 0.0000000000000E+00
 0.0000000000000E+00
 0.0000000000000E+00
 0.0000000000000E+00
 0.0000000000000E+00
 0.0000000000000E+00
 0.0000000000000E+00
 0.0000000000000E+00
 0.0000000000000E+00
 0.0000000000000E+00
 0.0000000000000E+00
 0.0000000000000E+00
 0.0000000000000E+00
 0.0000000000000E+00
 0.0000000000000E+00
 0.0000000000000E+00
 0.0000000000000E+00
 0.0000000000000E+00
 0.0000000000000E+00
 0.0000000000000E+00
 0.0000000000000E+00
 0.0000000000000E+00
 0.0000000000000E+00
 0.0000000000000E+00
 0.0000000000000E+00
 0.0000000000000E+00
 0.0000000000000E+00
 0.0000000000000E+00
 0.0000000000000E+00
 0.0000000000000E+00
 0.0000000000000E+00
 0.0000000000000E+00
 0.0000000000000E+00
 0.0000000000000E+00
 0.0000000000000E+00
 0.0000000000000E+00
 0.0000000000000E+00
 0.0000000000000E+00
 0.0000000000000E+00
 0.0000000000000E+00
 0.0000000000000E+00
 0.0000000000000E+00
 0.0000000000000E+00
 0.0000000000000E+00
 0.0000000000000E+00
 0.0000000000000E+00
 0.0000000000000E+00
 0.0000000000000E+00
 0.0000000000000E+00
 0.0000000000000E+00
 0.0000000000000E+00
 0.0000000000000E+00
 0.0000000000000E+00
 0.0000000000000E+00
 0.0000000000000E+00
 0.0000000000000E+00
 0.0000000000000E+00
 0.0000000000000E+00
 0.0000000000000E+00
 0.0000000000000E+00
 0.0000000000000E+00
 0.0000000000000E+00
 0.0000000000000E+00
 0.0000000000000E+00
 0.0000000000000E+00
 0.0000000000000E+00
 0.0000000000000E+00
 0.0000000000000E+00
 0.0000000000000E+00
 0.0000000000000E+00
 0.0000000000000E+00
 0.0000000000000E+00
 0.0000000000000E+00
 0.0000000000000E+00
 0.0000000000000E+00
 0.0000000000000E+00
 0.0000000000000E+00
 0.0000000000000E+00
 0.0000000000000E+00
 0.0000000000000E+00
 0.0000000000000E+00
 0.0000000000000E+00
 0.0000000000000E+00
 0.0000000000000E+00
 0.0000000000000E+00
 0.0000000000000E+00
 0.0000000000000E+00
 0.0000000000000E+00
 0.0000000000000E+00
 0.0000000000000E+00
 0.0000000000000E+00
 0.0000000000000E+00
 0.0000000000000E+00
 0.0000000000000E+00
 0.0000000000000E+00
 0.0000000000000E+00
 0.0000000000000E+00
 0.0000000000000E+00
 0.0000000000000E+00
 0.0000000000000E+00
 0.0000000000000E+00
 0.0000000000000E+00
 0.0000000000000E+00
 0.0000000000000E+00
 0.0000000000000E+00
 0.0000000000000E+00
 0.0000000000000E+00
 0.0000000000000E+00
 0.0000000000000E+00
 0.0000000000000E+00
 0.0000000000000E+00
 0.0000000000000E+00
 0.0000000000000E+00
 0.0000000000000E+00
 0.0000000000000E+00
 0.0000000000000E+00
 0.0000000000000E+00
 0.0000000000000E+00
 0.0000000000000E+00
 0.0000000000000E+00
 0.0000000000000E+00
 0.0000000000000E+00
 0.0000000000000E+00
 0.0000000000000E+00
 0.0000000000000E+00
 0.0000000000000E+00
 0.0000000000000E+00
 0.0000000000000E+00
 0.0000000000000E+00
 0.0000000000000E+00
 0.0000000000000E+00
 0.0000000000000E+00
 0.0000000000000E+00
 0.0000000000000E+00
 0.0000000000000E+00
 0.0000000000000E+00
 0.0000000000000E+00
 0.0000000000000E+00
 0.0000000000000E+00
 0.0000000000000E+00
 0.0000000000000E+00
 0.0000000000000E+00
 0.0000000000000E+00
 0.0000000000000E+00
 0.0000000000000E+00
 0.0000000000000E+00
 0.0000000000000E+00
 0.0000000000000E+00
 0.0000000000000E+00
 0.0000000000000E+00
 0.0000000000000E+00
 0.0000000000000E+00
 0.0000000000000E+00
 0.0000000000000E+00
 0.0000000000000E+00
 0.0000000000000E+00
 0.0000000000000E+00
 0.0000000000000E+00
 0.0000000000000E+00
 0.0000000000000E+00
 0.0000000000000E+00
 0.0000000000000E+00
 0.0000000000000E+00
 0.0000000000000E+00
 0.0000000000000E+00
 0.0000000000000E+00
 0.0000000000000E+00
 0.0000000000000E+00
 0.0000000000000E+00
 0.0000000000000E+00
 0.0000000000000E+00
 0.0000000000000E+00
 0.0000000000000E+00
 0.0000000000000E+00
 0.0000000000000E+00
 0.0000000000000E+00
 0.0000000000000E+00
 0.0000000000000E+00
 0.0000000000000E+00
 0.0000000000000E+00
 0.0000000000000E+00
 0.0000000000000E+00
 0.0000000000000E+00
 0.0000000000000E+00
 0.0000000000000E+00
 0.0000000000000E+00
 0.0000000000000E+00
 0.0000000000000E+00
 0.0000000000000E+00
 0.0000000000000E+00
 0.0000000000000E+00
 0.0000000000000E+00
 0.0000000000000E+00
 0.0000000000000E+00
 0.0000000000000E+00
 0.0000000000000E+00
 0.0000000000000E+00
 0.0000000000000E+00
 0.0000000000000E+00
 0.0000000000000E+00
 0.0000000000000E+00
 0.0000000000000E+00
 0.0000000000000E+00
 0.0000000000000E+00
 0.0000000000000E+00
 0.0000000000000E+00
 0.0000000000000E+00
 0.0000000000000E+00
 0.0000000000000E+00
 0.0000000000000E+00
 0.0000000000000E+00
 0.0000000000000E+00
 0.0000000000000E+00
 0.0000000000000E+00
 0.0000000000000E+00
 0.0000000000000E+00
 0.0000000000000E+00
 0.0000000000000E+00
 0.0000000000000E+00
 0.0000000000000E+00
 0.0000000000000E+00
 0.0000000000000E+00
 0.0000000000000E+00
 0.0000000000000E+00
 0.0000000000000E+00
 0.0000000000000E+00
 0.0000000000000E+00
 0.0000000000000E+00
 0.0000000000000E+00
 0.0000000000000E+00
 0.0000000000000E+00
 0.0000000000000E+00
 0.0000000000000E+00
 0.0000000000000E+00
 0.0000000000000E+00
 0.0000000000000E+00
 0.0000000000000E+00
 0.0000000000000E+00
 0.0000000000000E+00
 0.0000000000000E+00
 0.0000000000000E+00
 0.0000000000000E+00
 0.0000000000000E+00
 0.0000000000000E+00
 0.0000000000000E+00
 0.0000000000000E+00
 0.0000000000000E+00
 0.0000000000000E+00
 0.0000000000000E+00
 0.0000000000000E+00
 0.0000000000000E+00
 0.0000000000000E+00
 0.0000000000000E+00
 0.0000000000000E+00
 0.0000000000000E+00
 0.0000000000000E+00
 0.0000000000000E+00
 0.0000000000000E+00
 0.0000000000000E+00
 0.0000000000000E+00
 0.0000000000000E+00
 0.0000000000000E+00
 0.0000000000000E+00
 0.0000000000000E+00
 0.0000000000000E+00
 0.0000000000000E+00
 0.0000000000000E+00
 0.0000000000000E+00
 0.0000000000000E+00
 0.0000000000000E+00
 0.0000000000000E+00
 0.0000000000000E+00
 0.0000000000000E+00
 0.0000000000000E+00
 0.0000000000000E+00
 0.0000000000000E+00
 0.0000000000000E+00
 0.0000000000000E+00
 0.0000000000000E+00
 0.0000000000000E+00
 0.0000000000000E+00
 0.0000000000000E+00
 0.0000000000000E+00
 0.0000000000000E+00
 0.0000000000000E+00
 0.0000000000000E+00
 0.0000000000000E+00
 0.0000000000000E+00
 0.0000000000000E+00
 0.0000000000000E+00
 0.0000000000000E+00
 0.0000000000000E+00
 0.0000000000000E+00
 0.0000000000000E+00
 0.0000000000000E+00
 0.0000000000000E+00
 0.0000000000000E+00
 0.0000000000000E+00
 0.0000000000000E+00
 0.0000000000000E+00
 0.0000000000000E+00
 0.0000000000000E+00
 0.0000000000000E+00
 0.0000000000000E+00
 0.0000000000000E+00
 0.0000000000000E+00
 0.0000000000000E+00
 0.0000000000000E+00
 0.0000000000000E+00
 0.0000000000000E+00
 0.0000000000000E+00
 0.0000000000000E+00
 0.0000000000000E+00
 0.0000000000000E+00
 0.0000000000000E+00
 0.0000000000000E+00
 0.0000000000000E+00
 0.0000000000000E+00
 0.0000000000000E+00
 0.0000000000000E+00
 0.0000000000000E+00
 0.0000000000000E+00
 0.0000000000000E+00
 0.0000000000000E+00
 0.0000000000000E+00
 0.0000000000000E+00
 0.0000000000000E+00
 0.0000000000000E+00
 0.0000000000000E+00
 0.0000000000000E+00
 0.0000000000000E+00
 0.0000000000000E+00
 0.0000000000000E+00
 0.0000000000000E+00
 0.0000000000000E+00
 0.0000000000000E+00
 0.0000000000000E+00
 0.0000000000000E+00
 0.0000000000000E+00
 0.0000000000000E+00
 0.0000000000000E+00
 0.0000000000000E+00
 0.0000000000000E+00
 0.0000000000000E+00
 0.0000000000000E+00
 0.0000000000000E+00
 0.0000000000000E+00
 0.0000000000000E+00
 0.0000000000000E+00
 0.0000000000000E+00
 0.0000000000000E+00
 0.0000000000000E+00
 0.0000000000000E+00
 0.0000000000000E+00
 0.0000000000000E+00
 0.0000000000000E+00
 0.0000000000000E+00
 0.0000000000000E+00
 0.0000000000000E+00
 0.0000000000000E+00
 0.0000000000000E+00
 0.0000000000000E+00
 0.0000000000000E+00
 0.0000000000000E+00
 0.0000000000000E+00
 0.0000000000000E+00
 0.0000000000000E+00
 0.0000000000000E+00
 0.0000000000000E+00
 0.0000000000000E+00
 0.0000000000000E+00
 0.0000000000000E+00
 0.0000000000000E+00
 0.0000000000000E+00
 0.0000000000000E+00
 0.0000000000000E+00
 0.0000000000000E+00
 0.0000000000000E+00
 0.0000000000000E+00
 0.0000000000000E+00
 0.0000000000000E+00
 0.0000000000000E+00
 0.0000000000000E+00
 0.0000000000000E+00
 0.0000000000000E+00
 0.0000000000000E+00
 0.0000000000000E+00
 0.0000000000000E+00
 0.0000000000000E+00
 0.0000000000000E+00
 0.0000000000000E+00
 0.0000000000000E+00
 0.0000000000000E+00
 0.0000000000000E+00
 0.0000000000000E+00
 0.0000000000000E+00
 0.0000000000000E+00
 0.0000000000000E+00
 0.0000000000000E+00
 0.0000000000000E+00
 0.0000000000000E+00
 0.0000000000000E+00
 0.0000000000000E+00
 0.0000000000000E+00
 0.0000000000000E+00
 0.0000000000000E+00
 0.0000000000000E+00
 0.0000000000000E+00
 0.0000000000000E+00
 0.0000000000000E+00
 0.0000000000000E+00
 0.0000000000000E+00
 0.0000000000000E+00
 0.0000000000000E+00
 0.0000000000000E+00
 0.0000000000000E+00
 0.0000000000000E+00
 0.0000000000000E+00
 0.0000000000000E+00
 0.0000000000000E+00
 0.0000000000000E+00
 0.0000000000000E+00
 0.0000000000000E+00
 0.0000000000000E+00
 0.0000000000000E+00
 0.0000000000000E+00
 0.0000000000000E+00
 0.0000000000000E+00
 0.0000000000000E+00
 0.0000000000000E+00
 0.0000000000000E+00
 0.0000000000000E+00
 0.0000000000000E+00
 0.0000000000000E+00
 0.0000000000000E+00
 0.0000000000000E+00
 0.0000000000000E+00
 0.0000000000000E+00
 0.0000000000000E+00
 0.0000000000000E+00
 0.0000000000000E+00
 0.0000000000000E+00
 0.0000000000000E+00
 0.0000000000000E+00
 0.0000000000000E+00
 0.0000000000000E+00
 0.0000000000000E+00
 0.0000000000000E+00
 0.0000000000000E+00
 0.0000000000000E+00
 0.0000000000000E+00
 0.0000000000000E+00
 0.0000000000000E+00
 0.0000000000000E+00
 0.0000000000000E+00
 0.0000000000000E+00
 0.0000000000000E+00
 0.0000000000000E+00
 0.0000000000000E+00
 0.0000000000000E+00
 0.0000000000000E+00
 0.0000000000000E+00
 0.0000000000000E+00
 0.0000000000000E+00
 0.0000000000000E+00
 0.0000000000000E+00
 0.0000000000000E+00
 0.0000000000000E+00
 0.0000000000000E+00
 0.0000000000000E+00
 0.0000000000000E+00
 0.0000000000000E+00
 0.0000000000000E+00
 0.0000000000000E+00
 0.0000000000000E+00
 0.0000000000000E+00
 0.0000000000000E+00
 0.0000000000000E+00
 0.0000000000000E+00
 0.0000000000000E+00
 0.0000000000000E+00
 0.0000000000000E+00
 0.0000000000000E+00
 0.0000000000000E+00
 0.0000000000000E+00
 0.0000000000000E+00
 0.0000000000000E+00
 0.0000000000000E+00
 0.0000000000000E+00
 0.0000000000000E+00
 0.0000000000000E+00
 0.0000000000000E+00
 0.0000000000000E+00
 0.0000000000000E+00
 0.0000000000000E+00
 0.0000000000000E+00
 0.0000000000000E+00
 0.0000000000000E+00
 0.0000000000000E+00
 0.0000000000000E+00
 0.0000000000000E+00
 0.0000000000000E+00
 0.0000000000000E+00
 0.0000000000000E+00
 0.0000000000000E+00
 0.0000000000000E+00
 0.0000000000000E+00
 0.0000000000000E+00
 0.0000000000000E+00
 0.0000000000000E+00
 0.0000000000000E+00
 0.0000000000000E+00
 0.0000000000000E+00
 0.0000000000000E+00
 0.0000000000000E+00
 0.0000000000000E+00
 0.0000000000000E+00
 0.0000000000000E+00
 0.0000000000000E+00
 0.0000000000000E+00
 0.0000000000000E+00
 0.0000000000000E+00
 0.0000000000000E+00
 0.0000000000000E+00
 0.0000000000000E+00
 0.0000000000000E+00
 0.0000000000000E+00
 0.0000000000000E+00
 0.0000000000000E+00
 0.0000000000000E+00
 0.0000000000000E+00
 0.0000000000000E+00
 0.0000000000000E+00
 0.0000000000000E+00
 0.0000000000000E+00
 0.0000000000000E+00
 0.0000000000000E+00
 0.0000000000000E+00
 0.0000000000000E+00
 0.0000000000000E+00
 0.0000000000000E+00
 0.0000000000000E+00
 0.0000000000000E+00
 0.0000000000000E+00
 0.0000000000000E+00
 0.0000000000000E+00
 0.0000000000000E+00
 0.0000000000000E+00
 0.0000000000000E+00
 0.0000000000000E+00
 0.0000000000000E+00
 0.0000000000000E+00
 0.0000000000000E+00
 0.0000000000000E+00
 0.0000000000000E+00
 0.0000000000000E+00
 0.0000000000000E+00
 0.0000000000000E+00
 0.0000000000000E+00
 0.0000000000000E+00
 0.0000000000000E+00
 0.0000000000000E+00
 0.0000000000000E+00
 0.0000000000000E+00
 0.0000000000000E+00
 0.0000000000000E+00
 0.0000000000000E+00
 0.0000000000000E+00
 0.0000000000000E+00
 0.0000000000000E+00
 0.0000000000000E+00
 0.0000000000000E+00
 0.0000000000000E+00
 0.0000000000000E+00
 0.0000000000000E+00
 0.0000000000000E+00
 0.0000000000000E+00
 0.0000000000000E+00
 0.0000000000000E+00
 0.0000000000000E+00
 0.0000000000000E+00
 0.0000000000000E+00
 0.0000000000000E+00
 0.0000000000000E+00
 0.0000000000000E+00
 0.0000000000000E+00
 0.0000000000000E+00
 0.0000000000000E+00
 0.0000000000000E+00
 0.0000000000000E+00
 0.0000000000000E+00
 0.0000000000000E+00
 0.0000000000000E+00
 0.0000000000000E+00
 0.0000000000000E+00
 0.0000000000000E+00
 0.0000000000000E+00
 0.0000000000000E+00
 0.0000000000000E+00
 0.0000000000000E+00
 0.0000000000000E+00
 0.0000000000000E+00
 0.0000000000000E+00
 0.0000000000000E+00
 0.0000000000000E+00
 0.0000000000000E+00
 0.0000000000000E+00
 0.0000000000000E+00
 0.0000000000000E+00
 0.0000000000000E+00
 0.0000000000000E+00
 0.0000000000000E+00
 0.0000000000000E+00
 0.0000000000000E+00
 0.0000000000000E+00
 0.0000000000000E+00
 0.0000000000000E+00
 0.0000000000000E+00
 0.0000000000000E+00
 0.0000000000000E+00
 0.0000000000000E+00
 0.0000000000000E+00
 0.0000000000000E+00
 0.0000000000000E+00
 0.0000000000000E+00
 0.0000000000000E+00
 0.0000000000000E+00
 0.0000000000000E+00
 0.0000000000000E+00
 0.0000000000000E+00
 0.0000000000000E+00
 0.0000000000000E+00
 0.0000000000000E+00
 0.0000000000000E+00
 0.0000000000000E+00
 0.0000000000000E+00
 0.0000000000000E+00
 0.0000000000000E+00
 0.0000000000000E+00
 0.0000000000000E+00
 0.0000000000000E+00
 0.0000000000000E+00
 0.0000000000000E+00
 0.0000000000000E+00
 0.0000000000000E+00
 0.0000000000000E+00
 0.0000000000000E+00
 0.0000000000000E+00
 0.0000000000000E+00
 0.0000000000000E+00
 0.0000000000000E+00
 0.0000000000000E+00
 0.0000000000000E+00
 0.0000000000000E+00
 0.0000000000000E+00
 0.0000000000000E+00
 0.0000000000000E+00
 0.0000000000000E+00
 0.0000000000000E+00
 0.0000000000000E+00
 0.0000000000000E+00
 0.0000000000000E+00
 0.0000000000000E+00
 0.0000000000000E+00
 0.0000000000000E+00
 0.0000000000000E+00
 0.0000000000000E+00
 0.0000000000000E+00
 0.0000000000000E+00
 0.0000000000000E+00
 0.0000000000000E+00
 0.0000000000000E+00
 0.0000000000000E+00
 0.0000000000000E+00
 0.0000000000000E+00
 0.0000000000000E+00
 0.0000000000000E+00
 0.0000000000000E+00
 0.0000000000000E+00
 0.0000000000000E+00
 0.0000000000000E+00
 0.0000000000000E+00
 0.0000000000000E+00
 0.0000000000000E+00
 0.0000000000000E+00
 0.0000000000000E+00
 0.0000000000000E+00
 0.0000000000000E+00
 0.0000000000000E+00
 0.0000000000000E+00
 0.0000000000000E+00
 0.0000000000000E+00
 0.0000000000000E+00
 0.0000000000000E+00
 0.0000000000000E+00
 0.0000000000000E+00
 0.0000000000000E+00
 0.0000000000000E+00
 0.0000000000000E+00
 0.0000000000000E+00
 0.0000000000000E+00
 0.0000000000000E+00
 0.0000000000000E+00
 0.0000000000000E+00
 0.0000000000000E+00
 0.0000000000000E+00
 0.0000000000000E+00
 0.0000000000000E+00
 0.0000000000000E+00
 0.0000000000000E+00
 0.0000000000000E+00
 0.0000000000000E+00
 0.0000000000000E+00
 0.0000000000000E+00
 0.0000000000000E+00
 0.0000000000000E+00
 0.0000000000000E+00
 0.0000000000000E+00
 0.0000000000000E+00
 0.0000000000000E+00
 0.0000000000000E+00
 0.0000000000000E+00
 0.0000000000000E+00
 0.0000000000000E+00
 0.0000000000000E+00
 0.0000000000000E+00
 0.0000000000000E+00
 0.0000000000000E+00
 0.0000000000000E+00
 0.0000000000000E+00
 0.0000000000000E+00
 0.0000000000000E+00
 0.0000000000000E+00
 0.0000000000000E+00
 0.0000000000000E+00
 0.0000000000000E+00
 0.0000000000000E+00
 0.0000000000000E+00
 0.0000000000000E+00
 0.0000000000000E+00
 0.0000000000000E+00
 0.0000000000000E+00
 0.0000000000000E+00
 0.0000000000000E+00
 0.0000000000000E+00
 0.0000000000000E+00
 0.0000000000000E+00
 0.0000000000000E+00
 0.0000000000000E+00
 0.0000000000000E+00
 0.0000000000000E+00
 0.0000000000000E+00
 0.0000000000000E+00
 0.0000000000000E+00
 0.0000000000000E+00
 0.0000000000000E+00
 0.0000000000000E+00
 0.0000000000000E+00
 0.0000000000000E+00
 0.0000000000000E+00
 0.0000000000000E+00
 0.0000000000000E+00
 0.0000000000000E+00
 0.0000000000000E+00
 0.0000000000000E+00
 0.0000000000000E+00
 0.0000000000000E+00
 0.0000000000000E+00
 0.0000000000000E+00
 0.0000000000000E+00
 0.0000000000000E+00
 0.0000000000000E+00
 0.0000000000000E+00
 0.0000000000000E+00
 0.0000000000000E+00
 0.0000000000000E+00
 0.0000000000000E+00
 0.0000000000000E+00
 0.0000000000000E+00
 0.0000000000000E+00
 0.0000000000000E+00
 0.0000000000000E+00
 0.0000000000000E+00
 0.0000000000000E+00
 0.0000000000000E+00
 0.0000000000000E+00
 0.0000000000000E+00
 0.0000000000000E+00
 0.0000000000000E+00
 0.0000000000000E+00
 0.0000000000000E+00
 0.0000000000000E+00
 0.0000000000000E+00
 0.0000000000000E+00
 0.0000000000000E+00
 0.0000000000000E+00
 0.0000000000000E+00
 0.0000000000000E+00
 0.0000000000000E+00
 0.0000000000000E+00
 0.0000000000000E+00
 0.0000000000000E+00
 0.0000000000000E+00
 0.0000000000000E+00
 0.0000000000000E+00
 0.0000000000000E+00
 0.0000000000000E+00
 0.0000000000000E+00
 0.0000000000000E+00
 0.0000000000000E+00
 0.0000000000000E+00
 0.0000000000000E+00
 0.0000000000000E+00
 0.0000000000000E+00
 0.0000000000000E+00
 0.0000000000000E+00
 0.0000000000000E+00
 0.0000000000000E+00
 0.0000000000000E+00
 0.0000000000000E+00
 0.0000000000000E+00
 0.0000000000000E+00
 0.0000000000000E+00
 0.0000000000000E+00
 0.0000000000000E+00
 0.0000000000000E+00
 0.0000000000000E+00
 0.0000000000000E+00
 0.0000000000000E+00
 0.0000000000000E+00
 0.0000000000000E+00
 0.0000000000000E+00
 0.0000000000000E+00
 0.0000000000000E+00
 0.0000000000000E+00
 0.0000000000000E+00
 0.0000000000000E+00
 0.0000000000000E+00
 0.0000000000000E+00
 0.0000000000000E+00
 0.0000000000000E+00
 0.0000000000000E+00
 0.0000000000000E+00
 0.0000000000000E+00
 0.0000000000000E+00
 0.0000000000000E+00
 0.0000000000000E+00
 0.0000000000000E+00
 0.0000000000000E+00
 0.0000000000000E+00
 0.0000000000000E+00
 0.0000000000000E+00
 0.0000000000000E+00
 0.0000000000000E+00
 0.0000000000000E+00
 0.0000000000000E+00
 0.0000000000000E+00
 0.0000000000000E+00
 0.0000000000000E+00
 0.0000000000000E+00
 0.0000000000000E+00
 0.0000000000000E+00
 0.0000000000000E+00
 0.0000000000000E+00
 0.0000000000000E+00
 0.0000000000000E+00
 0.0000000000000E+00
 0.0000000000000E+00
 0.0000000000000E+00
 0.0000000000000E+00
 0.0000000000000E+00
 0.0000000000000E+00
 0.0000000000000E+00
 0.0000000000000E+00
 0.0000000000000E+00
 0.0000000000000E+00
 0.0000000000000E+00
 0.0000000000000E+00
 0.0000000000000E+00
 0.0000000000000E+00
 0.0000000000000E+00
 0.0000000000000E+00
 0.0000000000000E+00
 0.0000000000000E+00
 0.0000000000000E+00
 0.0000000000000E+00
 0.0000000000000E+00
 0.0000000000000E+00
 0.0000000000000E+00
 0.0000000000000E+00
 0.0000000000000E+00
 0.0000000000000E+00
 0.0000000000000E+00
 0.0000000000000E+00
 0.0000000000000E+00
 0.0000000000000E+00
 0.0000000000000E+00
 0.0000000000000E+00
 0.0000000000000E+00
 0.0000000000000E+00
 0.0000000000000E+00
 0.0000000000000E+00
 0.0000000000000E+00
 0.0000000000000E+00
 0.0000000000000E+00
 0.0000000000000E+00
 0.0000000000000E+00
 0.0000000000000E+00
 0.0000000000000E+00
 0.0000000000000E+00
 0.0000000000000E+00
 0.0000000000000E+00
 0.0000000000000E+00
 0.0000000000000E+00
 0.0000000000000E+00
 0.0000000000000E+00
 0.0000000000000E+00
 0.0000000000000E+00
 0.0000000000000E+00
 0.0000000000000E+00
 0.0000000000000E+00
 0.0000000000000E+00
 0.0000000000000E+00
 0.0000000000000E+00
 0.0000000000000E+00
 0.0000000000000E+00
 0.0000000000000E+00
 0.0000000000000E+00
 0.0000000000000E+00
 0.0000000000000E+00
 0.0000000000000E+00
 0.0000000000000E+00
 0.0000000000000E+00
 0.0000000000000E+00
 0.0000000000000E+00
 0.0000000000000E+00
 0.0000000000000E+00
 0.0000000000000E+00
 0.0000000000000E+00
 0.0000000000000E+00
 0.0000000000000E+00
 0.0000000000000E+00
 0.0000000000000E+00
 0.0000000000000E+00
 0.0000000000000E+00
 0.0000000000000E+00
 0.0000000000000E+00
 0.0000000000000E+00
 0.0000000000000E+00
 0.0000000000000E+00
 0.0000000000000E+00
 0.0000000000000E+00
 0.0000000000000E+00
 0.0000000000000E+00
 0.0000000000000E+00
 0.0000000000000E+00
 0.0000000000000E+00
 0.0000000000000E+00
 0.0000000000000E+00
 0.0000000000000E+00
 0.0000000000000E+00
 0.0000000000000E+00
 0.0000000000000E+00
 0.0000000000000E+00
 0.0000000000000E+00
 0.0000000000000E+00
 0.0000000000000E+00
 0.0000000000000E+00
 0.0000000000000E+00
 0.0000000000000E+00
 0.0000000000000E+00
 0.0000000000000E+00
 0.0000000000000E+00
 0.0000000000000E+00
 0.0000000000000E+00
 0.0000000000000E+00
 0.0000000000000E+00
 0.0000000000000E+00
 0.0000000000000E+00
 0.0000000000000E+00
 0.0000000000000E+00
 0.0000000000000E+00
 0.0000000000000E+00
 0.0000000000000E+00
 0.0000000000000E+00
 0.0000000000000E+00
 0.0000000000000E+00
 0.0000000000000E+00
 0.0000000000000E+00
 0.0000000000000E+00
 0.0000000000000E+00
 0.0000000000000E+00
 0.0000000000000E+00
 0.0000000000000E+00
 0.0000000000000E+00
 0.0000000000000E+00
 0.0000000000000E+00
 0.0000000000000E+00
 0.0000000000000E+00
 0.0000000000000E+00
 0.0000000000000E+00
 0.0000000000000E+00
 0.0000000000000E+00
 0.0000000000000E+00
 0.0000000000000E+00
 0.0000000000000E+00
 0.0000000000000E+00
 0.0000000000000E+00
 0.0000000000000E+00
 0.0000000000000E+00
 0.0000000000000E+00
 0.0000000000000E+00
 0.0000000000000E+00
 0.0000000000000E+00
 0.0000000000000E+00
 0.0000000000000E+00
 0.0000000000000E+00
 0.0000000000000E+00
 0.0000000000000E+00
 0.0000000000000E+00
 0.0000000000000E+00
 0.0000000000000E+00
 0.0000000000000E+00
 0.0000000000000E+00
 0.0000000000000E+00
 0.0000000000000E+00
 0.0000000000000E+00
 0.0000000000000E+00
 0.0000000000000E+00
 0.0000000000000E+00
 0.0000000000000E+00
 0.0000000000000E+00
 0.0000000000000E+00
 0.0000000000000E+00
 0.0000000000000E+00
 0.0000000000000E+00
 0.0000000000000E+00
 0.0000000000000E+00
 0.0000000000000E+00
 0.0000000000000E+00
 0.0000000000000E+00
 0.0000000000000E+00
 0.0000000000000E+00
 0.0000000000000E+00
 0.0000000000000E+00
 0.0000000000000E+00
 0.0000000000000E+00
 0.0000000000000E+00
 0.0000000000000E+00
 0.0000000000000E+00
 0.0000000000000E+00
 0.0000000000000E+00
 0.0000000000000E+00
 0.0000000000000E+00
 0.0000000000000E+00
 0.0000000000000E+00
 0.0000000000000E+00
 0.0000000000000E+00
 0.0000000000000E+00
 0.0000000000000E+00
 0.0000000000000E+00
 0.0000000000000E+00
 0.0000000000000E+00
 0.0000000000000E+00
 0.0000000000000E+00
 0.0000000000000E+00
 0.0000000000000E+00
 0.0000000000000E+00
 0.0000000000000E+00
 0.0000000000000E+00
 0.0000000000000E+00
 0.0000000000000E+00
 0.0000000000000E+00
 0.0000000000000E+00
 0.0000000000000E+00
 0.0000000000000E+00
 0.0000000000000E+00
 0.0000000000000E+00
 0.0000000000000E+00
 0.0000000000000E+00
 0.0000000000000E+00
 0.0000000000000E+00
 0.0000000000000E+00
 0.0000000000000E+00
 0.0000000000000E+00
 0.0000000000000E+00
 0.0000000000000E+00
 0.0000000000000E+00
 0.0000000000000E+00
 0.0000000000000E+00
 0.0000000000000E+00
 0.0000000000000E+00
 0.0000000000000E+00
 0.0000000000000E+00
 0.0000000000000E+00
 0.0000000000000E+00
 0.0000000000000E+00
 0.0000000000000E+00
 0.0000000000000E+00
 0.0000000000000E+00
 0.0000000000000E+00
 0.0000000000000E+00
 0.0000000000000E+00
 0.0000000000000E+00
 0.0000000000000E+00
 0.0000000000000E+00
 0.0000000000000E+00
 0.0000000000000E+00
 0.0000000000000E+00
 0.0000000000000E+00
 0.0000000000000E+00
 0.0000000000000E+00
 0.0000000000000E+00
 0.0000000000000E+00
 0.0000000000000E+00
 0.0000000000000E+00
 0.0000000000000E+00
 0.0000000000000E+00
 0.0000000000000E+00
 0.0000000000000E+00
 0.0000000000000E+00
 0.0000000000000E+00
 0.0000000000000E+00
 0.0000000000000E+00
 0.0000000000000E+00
 0.0000000000000E+00
 0.0000000000000E+00
 0.0000000000000E+00
 0.0000000000000E+00
 0.0000000000000E+00
 0.0000000000000E+00
 0.0000000000000E+00
 0.0000000000000E+00
 0.0000000000000E+00
 0.0000000000000E+00
 0.0000000000000E+00
 0.0000000000000E+00
 0.0000000000000E+00
 0.0000000000000E+00
 0.0000000000000E+00
 0.0000000000000E+00
 0.0000000000000E+00
 0.0000000000000E+00
 0.0000000000000E+00
 0.0000000000000E+00
 0.0000000000000E+00
 0.0000000000000E+00
 0.0000000000000E+00
 0.0000000000000E+00
 0.0000000000000E+00
 0.0000000000000E+00
 0.0000000000000E+00
 0.0000000000000E+00
 0.0000000000000E+00
 0.0000000000000E+00
 0.0000000000000E+00
 0.0000000000000E+00
 0.0000000000000E+00
 0.0000000000000E+00
 0.0000000000000E+00
 0.0000000000000E+00
 0.0000000000000E+00
 0.0000000000000E+00
 0.0000000000000E+00
 0.0000000000000E+00
 0.0000000000000E+00
 0.0000000000000E+00
 0.0000000000000E+00
 0.0000000000000E+00
 0.0000000000000E+00
 0.0000000000000E+00
 0.0000000000000E+00
 0.0000000000000E+00
 0.0000000000000E+00
 0.0000000000000E+00
 0.0000000000000E+00
 0.0000000000000E+00
 0.0000000000000E+00
 0.0000000000000E+00
 0.0000000000000E+00
 0.0000000000000E+00
 0.0000000000000E+00
 0.0000000000000E+00
 0.0000000000000E+00
 0.0000000000000E+00
 0.0000000000000E+00
 0.0000000000000E+00
 0.0000000000000E+00
 0.0000000000000E+00
 0.0000000000000E+00
 0.0000000000000E+00
 0.0000000000000E+00
 0.0000000000000E+00
 0.0000000000000E+00
 0.0000000000000E+00
 0.0000000000000E+00
 0.0000000000000E+00
 0.0000000000000E+00
 0.0000000000000E+00
 0.0000000000000E+00
 0.0000000000000E+00
 0.0000000000000E+00
 0.0000000000000E+00
 0.0000000000000E+00
 0.0000000000000E+00
 0.0000000000000E+00
 0.0000000000000E+00
 0.0000000000000E+00
 0.0000000000000E+00
 0.0000000000000E+00
 0.0000000000000E+00
 0.0000000000000E+00
 0.0000000000000E+00
 0.0000000000000E+00
 0.0000000000000E+00
 0.0000000000000E+00
 0.0000000000000E+00
 0.0000000000000E+00
 0.0000000000000E+00
 0.0000000000000E+00
 0.0000000000000E+00
 0.0000000000000E+00
 0.0000000000000E+00
 0.0000000000000E+00
 0.0000000000000E+00
 0.0000000000000E+00
 0.0000000000000E+00
 0.0000000000000E+00
 0.0000000000000E+00
 0.0000000000000E+00
 0.0000000000000E+00
 0.0000000000000E+00
 0.0000000000000E+00
 0.0000000000000E+00
 0.0000000000000E+00
 0.0000000000000E+00
 0.0000000000000E+00
 0.0000000000000E+00
 0.0000000000000E+00
 0.0000000000000E+00
 0.0000000000000E+00
 0.0000000000000E+00
 0.0000000000000E+00
 0.0000000000000E+00
 0.0000000000000E+00
 0.0000000000000E+00
 0.0000000000000E+00
 0.0000000000000E+00
 0.0000000000000E+00
 0.0000000000000E+00
 0.0000000000000E+00
 0.0000000000000E+00
 0.0000000000000E+00
 0.0000000000000E+00
 0.0000000000000E+00
 0.0000000000000E+00
 0.0000000000000E+00
 0.0000000000000E+00
 0.0000000000000E+00
 0.0000000000000E+00
 0.0000000000000E+00
 0.0000000000000E+00
 0.0000000000000E+00
 0.0000000000000E+00
 0.0000000000000E+00
 0.0000000000000E+00
 0.0000000000000E+00
 0.0000000000000E+00
 0.0000000000000E+00
 0.0000000000000E+00
 0.0000000000000E+00
 0.0000000000000E+00
 0.0000000000000E+00
 0.0000000000000E+00
 0.0000000000000E+00
 0.0000000000000E+00
 0.0000000000000E+00
 0.0000000000000E+00
 0.0000000000000E+00
 0.0000000000000E+00
 0.0000000000000E+00
 0.0000000000000E+00
 0.0000000000000E+00
 0.0000000000000E+00
 0.0000000000000E+00
 0.0000000000000E+00
 0.0000000000000E+00
 0.0000000000000E+00
 0.0000000000000E+00
 0.0000000000000E+00
 0.0000000000000E+00
 0.0000000000000E+00
 0.0000000000000E+00
 0.0000000000000E+00
 0.0000000000000E+00
 0.0000000000000E+00
 0.0000000000000E+00
 0.0000000000000E+00
 0.0000000000000E+00
 0.0000000000000E+00
 0.0000000000000E+00
 0.0000000000000E+00
 0.0000000000000E+00
 0.0000000000000E+00
 0.0000000000000E+00
 0.0000000000000E+00
 0.0000000000000E+00
 0.0000000000000E+00
 0.0000000000000E+00
 0.0000000000000E+00
 0.0000000000000E+00
 0.0000000000000E+00
 0.0000000000000E+00
 0.0000000000000E+00
 0.0000000000000E+00
 0.0000000000000E+00
 0.0000000000000E+00
 0.0000000000000E+00
 0.0000000000000E+00
 0.0000000000000E+00
 0.0000000000000E+00
 0.0000000000000E+00
 0.0000000000000E+00
 0.0000000000000E+00
 0.0000000000000E+00
 0.0000000000000E+00
 0.0000000000000E+00
 0.0000000000000E+00
 0.0000000000000E+00
 0.0000000000000E+00
 0.0000000000000E+00
 0.0000000000000E+00
 0.0000000000000E+00
 0.0000000000000E+00
 0.0000000000000E+00
 0.0000000000000E+00
 0.0000000000000E+00
 0.0000000000000E+00
 0.0000000000000E+00
 0.0000000000000E+00
 0.0000000000000E+00
 0.0000000000000E+00
 0.0000000000000E+00
 0.0000000000000E+00
 0.0000000000000E+00
 0.0000000000000E+00
 0.0000000000000E+00
 0.0000000000000E+00
 0.0000000000000E+00
 0.0000000000000E+00
 0.0000000000000E+00
 0.0000000000000E+00
 0.0000000000000E+00
 0.0000000000000E+00
 0.0000000000000E+00
 0.0000000000000E+00
 0.0000000000000E+00
 0.0000000000000E+00
 0.0000000000000E+00
 0.0000000000000E+00
 0.0000000000000E+00
 0.0000000000000E+00
 0.0000000000000E+00
 0.0000000000000E+00
 0.0000000000000E+00
 0.0000000000000E+00
 0.0000000000000E+00
 0.0000000000000E+00
 0.0000000000000E+00
 0.0000000000000E+00
 0.0000000000000E+00
 0.0000000000000E+00
 0.0000000000000E+00
 0.0000000000000E+00
 0.0000000000000E+00
 0.0000000000000E+00
 0.0000000000000E+00
 0.0000000000000E+00
 0.0000000000000E+00
 0.0000000000000E+00
 0.0000000000000E+00
 0.0000000000000E+00
 0.0000000000000E+00
 0.0000000000000E+00
 0.0000000000000E+00
 0.0000000000000E+00
 0.0000000000000E+00
 0.0000000000000E+00
 0.0000000000000E+00
 0.0000000000000E+00
 0.0000000000000E+00
 0.0000000000000E+00
 0.0000000000000E+00
 0.0000000000000E+00
 0.0000000000000E+00
 0.0000000000000E+00
 0.0000000000000E+00
 0.0000000000000E+00
 0.0000000000000E+00
 0.0000000000000E+00
 0.0000000000000E+00
 0.0000000000000E+00
 0.0000000000000E+00
 0.0000000000000E+00
 0.0000000000000E+00
 0.0000000000000E+00
 0.0000000000000E+00
 0.0000000000000E+00
 0.0000000000000E+00
 0.0000000000000E+00
 0.0000000000000E+00
 0.0000000000000E+00
 0.0000000000000E+00
 0.0000000000000E+00
 0.0000000000000E+00
 0.0000000000000E+00
 0.0000000000000E+00
 0.0000000000000E+00
 0.0000000000000E+00
 0.0000000000000E+00
 0.0000000000000E+00
 0.0000000000000E+00
 0.0000000000000E+00
 0.0000000000000E+00
 0.0000000000000E+00
 0.0000000000000E+00
 0.0000000000000E+00
 0.0000000000000E+00
 0.0000000000000E+00
 0.0000000000000E+00
 0.0000000000000E+00
 0.0000000000000E+00
 0.0000000000000E+00
 0.0000000000000E+00
 0.0000000000000E+00
 0.0000000000000E+00
 0.0000000000000E+00
 0.0000000000000E+00
 0.0000000000000E+00
 0.0000000000000E+00
 0.0000000000000E+00
 0.0000000000000E+00
 0.0000000000000E+00
 0.0000000000000E+00
 0.0000000000000E+00
 0.0000000000000E+00
 0.0000000000000E+00
 0.0000000000000E+00
 0.0000000000000E+00
 0.0000000000000E+00
 0.0000000000000E+00
 0.0000000000000E+00
 0.0000000000000E+00
 0.0000000000000E+00
 0.0000000000000E+00
 0.0000000000000E+00
 0.0000000000000E+00
 0.0000000000000E+00
 0.0000000000000E+00
 0.0000000000000E+00
 0.0000000000000E+00
 0.0000000000000E+00
 0.0000000000000E+00
 0.0000000000000E+00
 0.0000000000000E+00
 0.0000000000000E+00
 0.0000000000000E+00
 0.0000000000000E+00
 0.0000000000000E+00
 0.0000000000000E+00
 0.0000000000000E+00
 0.0000000000000E+00
 0.0000000000000E+00
 0.0000000000000E+00
 0.0000000000000E+00
 0.0000000000000E+00
 0.0000000000000E+00
 0.0000000000000E+00
 0.0000000000000E+00
 0.0000000000000E+00
 0.0000000000000E+00
 0.0000000000000E+00
 0.0000000000000E+00
 0.0000000000000E+00
 0.0000000000000E+00
 0.0000000000000E+00
 0.0000000000000E+00
 0.0000000000000E+00
 0.0000000000000E+00
 0.0000000000000E+00
 0.0000000000000E+00
 0.0000000000000E+00
 0.0000000000000E+00
 0.0000000000000E+00
 0.0000000000000E+00
 0.0000000000000E+00
 0.0000000000000E+00
 0.0000000000000E+00
 0.0000000000000E+00
 0.0000000000000E+00
 0.0000000000000E+00
 0.0000000000000E+00
 0.0000000000000E+00
 0.0000000000000E+00
 0.0000000000000E+00
 0.0000000000000E+00
 0.0000000000000E+00
 0.0000000000000E+00
 0.0000000000000E+00
 0.0000000000000E+00
 0.0000000000000E+00
 0.0000000000000E+00
 0.0000000000000E+00
 0.0000000000000E+00
 0.0000000000000E+00
 0.0000000000000E+00
 0.0000000000000E+00
 0.0000000000000E+00
 0.0000000000000E+00
 0.0000000000000E+00
 0.0000000000000E+00
 0.0000000000000E+00
 0.0000000000000E+00
 0.0000000000000E+00
 0.0000000000000E+00
 0.0000000000000E+00
 0.0000000000000E+00
 0.0000000000000E+00
 0.0000000000000E+00
 0.0000000000000E+00
 0.0000000000000E+00
 0.0000000000000E+00
 0.0000000000000E+00
 0.0000000000000E+00
 0.0000000000000E+00
 0.0000000000000E+00
 0.0000000000000E+00
 0.0000000000000E+00
 0.0000000000000E+00
 0.0000000000000E+00
 0.0000000000000E+00
 0.0000000000000E+00
 0.0000000000000E+00
 0.0000000000000E+00
 0.0000000000000E+00
 0.0000000000000E+00
 0.0000000000000E+00
 0.0000000000000E+00
 0.0000000000000E+00
 0.0000000000000E+00
 0.0000000000000E+00
 0.0000000000000E+00
 0.0000000000000E+00
 0.0000000000000E+00
 0.0000000000000E+00
 0.0000000000000E+00
 0.0000000000000E+00
 0.0000000000000E+00
 0.0000000000000E+00
 0.0000000000000E+00
 0.0000000000000E+00
 0.0000000000000E+00
 0.0000000000000E+00
 0.0000000000000E+00
 0.0000000000000E+00
 0.0000000000000E+00
 0.0000000000000E+00
 0.0000000000000E+00
 0.0000000000000E+00
 0.0000000000000E+00
 0.0000000000000E+00
 0.0000000000000E+00
 0.0000000000000E+00
 0.0000000000000E+00
 0.0000000000000E+00
 0.0000000000000E+00
 0.0000000000000E+00
 0.0000000000000E+00
 0.0000000000000E+00
 0.0000000000000E+00
 0.0000000000000E+00
 0.0000000000000E+00
 0.0000000000000E+00
 0.0000000000000E+00
 0.0000000000000E+00
 0.0000000000000E+00
 0.0000000000000E+00
 0.0000000000000E+00
 0.0000000000000E+00
 0.0000000000000E+00
 0.0000000000000E+00
 0.0000000000000E+00
 0.0000000000000E+00
 0.0000000000000E+00
 0.0000000000000E+00
 0.0000000000000E+00
 0.0000000000000E+00
 0.0000000000000E+00
 0.0000000000000E+00
 0.0000000000000E+00
 0.0000000000000E+00
 0.0000000000000E+00
 0.0000000000000E+00
 0.0000000000000E+00
 0.0000000000000E+00
 0.0000000000000E+00
 0.0000000000000E+00
 0.0000000000000E+00
 0.0000000000000E+00
 0.0000000000000E+00
 0.0000000000000E+00
 0.0000000000000E+00
 0.0000000000000E+00
 0.0000000000000E+00
 0.0000000000000E+00
 0.0000000000000E+00
 0.0000000000000E+00
 0.0000000000000E+00
 0.0000000000000E+00
 0.0000000000000E+00
 0.0000000000000E+00
 0.0000000000000E+00
 0.0000000000000E+00
 0.0000000000000E+00
 0.0000000000000E+00
 0.0000000000000E+00
 0.0000000000000E+00
 0.0000000000000E+00
 0.0000000000000E+00
 0.0000000000000E+00
 0.0000000000000E+00
 0.0000000000000E+00
 0.0000000000000E+00
 0.0000000000000E+00
 0.0000000000000E+00
 0.0000000000000E+00
 0.0000000000000E+00
 0.0000000000000E+00
 0.0000000000000E+00
 0.0000000000000E+00
 0.0000000000000E+00
 0.0000000000000E+00
 0.0000000000000E+00
 0.0000000000000E+00
 0.0000000000000E+00
 0.0000000000000E+00
 0.0000000000000E+00
 0.0000000000000E+00
 0.0000000000000E+00
 0.0000000000000E+00
 0.0000000000000E+00
 0.0000000000000E+00
 0.0000000000000E+00
 0.0000000000000E+00
 0.0000000000000E+00
 0.0000000000000E+00
 0.0000000000000E+00
 0.0000000000000E+00
 0.0000000000000E+00
 0.0000000000000E+00
 0.0000000000000E+00
 0.0000000000000E+00
 0.0000000000000E+00
 0.0000000000000E+00
 0.0000000000000E+00
 0.0000000000000E+00
 0.0000000000000E+00
 0.0000000000000E+00
 0.0000000000000E+00
 0.0000000000000E+00
 0.0000000000000E+00
 0.0000000000000E+00
 0.0000000000000E+00
 0.0000000000000E+00
 0.0000000000000E+00
 0.0000000000000E+00
 0.0000000000000E+00
 0.0000000000000E+00
 0.0000000000000E+00
 0.0000000000000E+00
 0.0000000000000E+00
 0.0000000000000E+00
 0.0000000000000E+00
 0.0000000000000E+00
 0.0000000000000E+00
 0.0000000000000E+00
 0.0000000000000E+00
 0.0000000000000E+00
 0.0000000000000E+00
 0.0000000000000E+00
 0.0000000000000E+00
 0.0000000000000E+00
 0.0000000000000E+00
 0.0000000000000E+00
 0.0000000000000E+00
 0.0000000000000E+00
 0.0000000000000E+00
 0.0000000000000E+00
 0.0000000000000E+00
 0.0000000000000E+00
 0.0000000000000E+00
 0.0000000000000E+00
 0.0000000000000E+00
 0.0000000000000E+00
 0.0000000000000E+00
 0.0000000000000E+00
 0.0000000000000E+00
 0.0000000000000E+00
 0.0000000000000E+00
 0.0000000000000E+00
 0.0000000000000E+00
 0.0000000000000E+00
 0.0000000000000E+00
 0.0000000000000E+00
 0.0000000000000E+00
 0.0000000000000E+00
 0.0000000000000E+00
 0.0000000000000E+00
 0.0000000000000E+00
 0.0000000000000E+00
 0.0000000000000E+00
 0.0000000000000E+00
 0.0000000000000E+00
 0.0000000000000E+00
 0.0000000000000E+00
 0.0000000000000E+00
 0.0000000000000E+00
 0.0000000000000E+00
 0.0000000000000E+00
 0.0000000000000E+00
 0.0000000000000E+00
 0.0000000000000E+00
 0.0000000000000E+00
 0.0000000000000E+00
 0.0000000000000E+00
 0.0000000000000E+00
 0.0000000000000E+00
 0.0000000000000E+00
 0.0000000000000E+00
 0.0000000000000E+00
 0.0000000000000E+00
 0.0000000000000E+00
 0.0000000000000E+00
 0.0000000000000E+00
 0.0000000000000E+00
 0.0000000000000E+00
 0.0000000000000E+00
 0.0000000000000E+00
 0.0000000000000E+00
 0.0000000000000E+00
 0.0000000000000E+00
 0.0000000000000E+00
 0.0000000000000E+00
 0.0000000000000E+00
 0.0000000000000E+00
 0.0000000000000E+00
 0.0000000000000E+00
 0.0000000000000E+00
 0.0000000000000E+00
 0.0000000000000E+00
 0.0000000000000E+00
 0.0000000000000E+00
 0.0000000000000E+00
 0.0000000000000E+00
 0.0000000000000E+00
 0.0000000000000E+00
 0.0000000000000E+00
 0.0000000000000E+00
 0.0000000000000E+00
 0.0000000000000E+00
 0.0000000000000E+00
 0.0000000000000E+00
 0.0000000000000E+00
 0.0000000000000E+00
 0.0000000000000E+00
 0.0000000000000E+00
 0.0000000000000E+00
 0.0000000000000E+00
 0.0000000000000E+00
 0.0000000000000E+00
 0.0000000000000E+00
 0.0000000000000E+00
 0.0000000000000E+00
 0.0000000000000E+00
 0.0000000000000E+00
 0.0000000000000E+00
 0.0000000000000E+00
 0.0000000000000E+00
 0.0000000000000E+00
 0.0000000000000E+00
 0.0000000000000E+00
 0.0000000000000E+00
 0.0000000000000E+00
 0.0000000000000E+00
 0.0000000000000E+00
 0.0000000000000E+00
 0.0000000000000E+00
 0.0000000000000E+00
 0.0000000000000E+00
 0.0000000000000E+00
 0.0000000000000E+00
 0.0000000000000E+00
 0.0000000000000E+00
 0.0000000000000E+00
 0.0000000000000E+00
 0.0000000000000E+00
 0.0000000000000E+00
 0.0000000000000E+00
 0.0000000000000E+00
 0.0000000000000E+00
 0.0000000000000E+00
 0.0000000000000E+00
 0.0000000000000E+00
 0.0000000000000E+00
 0.0000000000000E+00
 0.0000000000000E+00
 0.0000000000000E+00
 0.0000000000000E+00
 0.0000000000000E+00
 0.0000000000000E+00
 0.0000000000000E+00
 0.0000000000000E+00
 0.0000000000000E+00
 0.0000000000000E+00
 0.0000000000000E+00
 0.0000000000000E+00
 0.0000000000000E+00
 0.0000000000000E+00
 0.0000000000000E+00
 0.0000000000000E+00
 0.0000000000000E+00
 0.0000000000000E+00
 0.0000000000000E+00
 0.0000000000000E+00
 0.0000000000000E+00
 0.0000000000000E+00
 0.0000000000000E+00
 0.0000000000000E+00
 0.0000000000000E+00
 0.0000000000000E+00
 0.0000000000000E+00
 0.0000000000000E+00
 0.0000000000000E+00
 0.0000000000000E+00
 0.0000000000000E+00
 0.0000000000000E+00
 0.0000000000000E+00
 0.0000000000000E+00
 0.0000000000000E+00
 0.0000000000000E+00
 0.0000000000000E+00
 0.0000000000000E+00
 0.0000000000000E+00
 0.0000000000000E+00
 0.0000000000000E+00
 0.0000000000000E+00
 0.0000000000000E+00
 0.0000000000000E+00
 0.0000000000000E+00
 0.0000000000000E+00
 0.0000000000000E+00
 0.0000000000000E+00
 0.0000000000000E+00
 0.0000000000000E+00
 0.0000000000000E+00
 0.0000000000000E+00
 0.0000000000000E+00
 0.0000000000000E+00
 0.0000000000000E+00
 0.0000000000000E+00
 0.0000000000000E+00
 0.0000000000000E+00
 0.0000000000000E+00
 0.0000000000000E+00
 0.0000000000000E+00
 0.0000000000000E+00
 0.0000000000000E+00
 0.0000000000000E+00
 0.0000000000000E+00
 0.0000000000000E+00
 0.0000000000000E+00
 0.0000000000000E+00
 0.0000000000000E+00
 0.0000000000000E+00
 0.0000000000000E+00
 0.0000000000000E+00
 0.0000000000000E+00
 0.0000000000000E+00
 0.0000000000000E+00
 0.0000000000000E+00
 0.0000000000000E+00
 0.0000000000000E+00
 0.0000000000000E+00
 0.0000000000000E+00
 0.0000000000000E+00
 0.0000000000000E+00
 0.0000000000000E+00
 0.0000000000000E+00
 0.0000000000000E+00
 0.0000000000000E+00
 0.0000000000000E+00
 0.0000000000000E+00
 0.0000000000000E+00
 0.0000000000000E+00
 0.0000000000000E+00
 0.0000000000000E+00
 0.0000000000000E+00
 0.0000000000000E+00
 0.0000000000000E+00
 0.0000000000000E+00
 0.0000000000000E+00
 0.0000000000000E+00
 0.0000000000000E+00
 0.0000000000000E+00
 0.0000000000000E+00
 0.0000000000000E+00
 0.0000000000000E+00
 0.0000000000000E+00
 0.0000000000000E+00
 0.0000000000000E+00
 0.0000000000000E+00
 0.0000000000000E+00
 0.0000000000000E+00
 0.0000000000000E+00
 0.0000000000000E+00
 0.0000000000000E+00
 0.0000000000000E+00
 0.0000000000000E+00
 0.0000000000000E+00
 0.0000000000000E+00
 0.0000000000000E+00
 0.0000000000000E+00
 0.0000000000000E+00
 0.0000000000000E+00
 0.0000000000000E+00
 0.0000000000000E+00
 0.0000000000000E+00
 0.0000000000000E+00
 0.0000000000000E+00
 0.0000000000000E+00
 0.0000000000000E+00
 0.0000000000000E+00
 0.0000000000000E+00
 0.0000000000000E+00
 0.0000000000000E+00
 0.0000000000000E+00
 0.0000000000000E+00
 0.0000000000000E+00
 0.0000000000000E+00
 0.0000000000000E+00
 0.0000000000000E+00
 0.0000000000000E+00
 0.0000000000000E+00
 0.0000000000000E+00
 0.0000000000000E+00
 0.0000000000000E+00
 0.0000000000000E+00
 0.0000000000000E+00
 0.0000000000000E+00
 0.0000000000000E+00
 0.0000000000000E+00
 0.0000000000000E+00
 0.0000000000000E+00
 0.0000000000000E+00
 0.0000000000000E+00
 0.0000000000000E+00
 0.0000000000000E+00
 0.0000000000000E+00
 0.0000000000000E+00
 0.0000000000000E+00
 0.0000000000000E+00
 0.0000000000000E+00
 0.0000000000000E+00
 0.0000000000000E+00
 0.0000000000000E+00
 0.0000000000000E+00
 0.0000000000000E+00
 0.0000000000000E+00
 0.0000000000000E+00
 0.0000000000000E+00
 0.0000000000000E+00
 0.0000000000000E+00
 0.0000000000000E+00
 0.0000000000000E+00
 0.0000000000000E+00
 0.0000000000000E+00
 0.0000000000000E+00
 0.0000000000000E+00
 0.0000000000000E+00
 0.0000000000000E+00
 0.0000000000000E+00
 0.0000000000000E+00
 0.0000000000000E+00
 0.0000000000000E+00
 0.0000000000000E+00
 0.0000000000000E+00
 0.0000000000000E+00
 0.0000000000000E+00
 0.0000000000000E+00
 0.0000000000000E+00
 0.0000000000000E+00
 0.0000000000000E+00
 0.0000000000000E+00
 0.0000000000000E+00
 0.0000000000000E+00
 0.0000000000000E+00
 0.0000000000000E+00
 0.0000000000000E+00
 0.0000000000000E+00
 0.0000000000000E+00
 0.0000000000000E+00
 0.0000000000000E+00
 0.0000000000000E+00
 0.0000000000000E+00
 0.0000000000000E+00
 0.0000000000000E+00
 0.0000000000000E+00
 0.0000000000000E+00
 0.0000000000000E+00
 0.0000000000000E+00
 0.0000000000000E+00
 0.0000000000000E+00
 0.0000000000000E+00
 0.0000000000000E+00
 0.0000000000000E+00
 0.0000000000000E+00
 0.0000000000000E+00
 0.0000000000000E+00
 0.0000000000000E+00
 0.0000000000000E+00
 0.0000000000000E+00
 0.0000000000000E+00
 0.0000000000000E+00
 0.0000000000000E+00
 0.0000000000000E+00
 0.0000000000000E+00
 0.0000000000000E+00
 0.0000000000000E+00
 0.0000000000000E+00
 0.0000000000000E+00
 0.0000000000000E+00
 0.0000000000000E+00
 0.0000000000000E+00
 0.0000000000000E+00
 0.0000000000000E+00
 0.0000000000000E+00
 0.0000000000000E+00
 0.0000000000000E+00
 0.0000000000000E+00
 0.0000000000000E+00
 0.0000000000000E+00
 0.0000000000000E+00
 0.0000000000000E+00
 0.0000000000000E+00
 0.0000000000000E+00
 0.0000000000000E+00
 0.0000000000000E+00
 0.0000000000000E+00
 0.0000000000000E+00
 0.0000000000000E+00
 0.0000000000000E+00
 0.0000000000000E+00
 0.0000000000000E+00
 0.0000000000000E+00
 0.0000000000000E+00
 0.0000000000000E+00
 0.0000000000000E+00
 0.0000000000000E+00
 0.0000000000000E+00
 0.0000000000000E+00
 0.0000000000000E+00
 0.0000000000000E+00
 0.0000000000000E+00
 0.0000000000000E+00
 0.0000000000000E+00
 0.0000000000000E+00
 0.0000000000000E+00
 0.0000000000000E+00
 0.0000000000000E+00
 0.0000000000000E+00
 0.0000000000000E+00
 0.0000000000000E+00
 0.0000000000000E+00
 0.0000000000000E+00
 0.0000000000000E+00
 0.0000000000000E+00
 0.0000000000000E+00
 0.0000000000000E+00
 0.0000000000000E+00
 0.0000000000000E+00
 0.0000000000000E+00
 0.0000000000000E+00
 0.0000000000000E+00
 0.0000000000000E+00
 0.0000000000000E+00
 0.0000000000000E+00
 0.0000000000000E+00
 0.0000000000000E+00
 0.0000000000000E+00
 0.0000000000000E+00
 0.0000000000000E+00
 0.0000000000000E+00
 0.0000000000000E+00
 0.0000000000000E+00
 0.0000000000000E+00
 0.0000000000000E+00
 0.0000000000000E+00
 0.0000000000000E+00
 0.0000000000000E+00
 0.0000000000000E+00
 0.0000000000000E+00
 0.0000000000000E+00
 0.0000000000000E+00
 0.0000000000000E+00
 0.0000000000000E+00
 0.0000000000000E+00
 0.0000000000000E+00
 0.0000000000000E+00
 0.0000000000000E+00
 0.0000000000000E+00
 0.0000000000000E+00
 0.0000000000000E+00
 0.0000000000000E+00
 0.0000000000000E+00
 0.0000000000000E+00
 0.0000000000000E+00
 0.0000000000000E+00
 0.0000000000000E+00
 0.0000000000000E+00
 0.0000000000000E+00
 0.0000000000000E+00
 0.0000000000000E+00
 0.0000000000000E+00
 0.0000000000000E+00
 0.0000000000000E+00
 0.0000000000000E+00
 0.0000000000000E+00
 0.0000000000000E+00
 0.0000000000000E+00
 0.0000000000000E+00
 0.0000000000000E+00
 0.0000000000000E+00
 0.0000000000000E+00
 0.0000000000000E+00
 0.0000000000000E+00
 0.0000000000000E+00
 0.0000000000000E+00
 0.0000000000000E+00
 0.0000000000000E+00
 0.0000000000000E+00
 0.0000000000000E+00
 0.0000000000000E+00
 0.0000000000000E+00
 0.0000000000000E+00
 0.0000000000000E+00
 0.0000000000000E+00
 0.0000000000000E+00
 0.0000000000000E+00
 0.0000000000000E+00
 0.0000000000000E+00
 0.0000000000000E+00
 0.0000000000000E+00
 0.0000000000000E+00
 0.0000000000000E+00
 0.0000000000000E+00
 0.0000000000000E+00
 0.0000000000000E+00
 0.0000000000000E+00
 0.0000000000000E+00
 0.0000000000000E+00
 0.0000000000000E+00
 0.0000000000000E+00
 0.0000000000000E+00
 0.0000000000000E+00
 0.0000000000000E+00
 0.0000000000000E+00
 0.0000000000000E+00
 0.0000000000000E+00
 0.0000000000000E+00
 0.0000000000000E+00
 0.0000000000000E+00
 0.0000000000000E+00
 0.0000000000000E+00
 0.0000000000000E+00
 0.0000000000000E+00
 0.0000000000000E+00
 0.0000000000000E+00
 0.0000000000000E+00
 0.0000000000000E+00
 0.0000000000000E+00
 0.0000000000000E+00
 0.0000000000000E+00
 0.0000000000000E+00
 0.0000000000000E+00
 0.0000000000000E+00
 0.0000000000000E+00
 0.0000000000000E+00
 0.0000000000000E+00
 0.0000000000000E+00
 0.0000000000000E+00
 0.0000000000000E+00
 0.0000000000000E+00
 0.0000000000000E+00
 0.0000000000000E+00
 0.0000000000000E+00
 0.0000000000000E+00
 0.0000000000000E+00
 0.0000000000000E+00
 0.0000000000000E+00
 0.0000000000000E+00
 0.0000000000000E+00
 0.0000000000000E+00
 0.0000000000000E+00
 0.0000000000000E+00
 0.0000000000000E+00
 0.0000000000000E+00
 0.0000000000000E+00
 0.0000000000000E+00
 0.0000000000000E+00
 0.0000000000000E+00
 0.0000000000000E+00
 0.0000000000000E+00
 0.0000000000000E+00
 0.0000000000000E+00
 0.0000000000000E+00
 0.0000000000000E+00
 0.0000000000000E+00
 0.0000000000000E+00
 0.0000000000000E+00
 0.0000000000000E+00
 0.0000000000000E+00
 0.0000000000000E+00
 0.0000000000000E+00
 0.0000000000000E+00
 0.0000000000000E+00
 0.0000000000000E+00
 0.0000000000000E+00
 0.0000000000000E+00
 0.0000000000000E+00
 0.0000000000000E+00
 0.0000000000000E+00
 0.0000000000000E+00
 0.0000000000000E+00
 0.0000000000000E+00
 0.0000000000000E+00
 0.0000000000000E+00
 0.0000000000000E+00
 0.0000000000000E+00
 0.0000000000000E+00
 0.0000000000000E+00
 0.0000000000000E+00
 0.0000000000000E+00
 0.0000000000000E+00
 0.0000000000000E+00
 0.0000000000000E+00
 0.0000000000000E+00
 0.0000000000000E+00
 0.0000000000000E+00
 0.0000000000000E+00
 0.0000000000000E+00
 0.0000000000000E+00
 0.0000000000000E+00
 0.0000000000000E+00
 0.0000000000000E+00
 0.0000000000000E+00
 0.0000000000000E+00
 0.0000000000000E+00
 0.0000000000000E+00
 0.0000000000000E+00
 0.0000000000000E+00
 0.0000000000000E+00
 0.0000000000000E+00
 0.0000000000000E+00
 0.0000000000000E+00
 0.0000000000000E+00
 0.0000000000000E+00
 0.0000000000000E+00
 0.0000000000000E+00
 0.0000000000000E+00
 0.0000000000000E+00
 0.0000000000000E+00
 0.0000000000000E+00
 0.0000000000000E+00
 0.0000000000000E+00
 0.0000000000000E+00
 0.0000000000000E+00
 0.0000000000000E+00
 0.0000000000000E+00
 0.0000000000000E+00
 0.0000000000000E+00
 0.0000000000000E+00
 0.0000000000000E+00
 0.0000000000000E+00
 0.0000000000000E+00
 0.0000000000000E+00
 0.0000000000000E+00
 0.0000000000000E+00
 0.0000000000000E+00
 0.0000000000000E+00
 0.0000000000000E+00
 0.0000000000000E+00
 0.0000000000000E+00
 0.0000000000000E+00
 0.0000000000000E+00
 0.0000000000000E+00
 0.0000000000000E+00
 0.0000000000000E+00
 0.0000000000000E+00
 0.0000000000000E+00
 0.0000000000000E+00
 0.0000000000000E+00
 0.0000000000000E+00
 0.0000000000000E+00
 0.0000000000000E+00
 0.0000000000000E+00
 0.0000000000000E+00
 0.0000000000000E+00
 0.0000000000000E+00
 0.0000000000000E+00
 0.0000000000000E+00
 0.0000000000000E+00
 0.0000000000000E+00
 0.0000000000000E+00
 0.0000000000000E+00
 0.0000000000000E+00
 0.0000000000000E+00
 0.0000000000000E+00
 0.0000000000000E+00
 0.0000000000000E+00
 0.0000000000000E+00
 0.0000000000000E+00
 0.0000000000000E+00
 0.0000000000000E+00
 0.0000000000000E+00
 0.0000000000000E+00
 0.0000000000000E+00
 0.0000000000000E+00
 0.0000000000000E+00
 0.0000000000000E+00
 0.0000000000000E+00
 0.0000000000000E+00
 0.0000000000000E+00
 0.0000000000000E+00
 0.0000000000000E+00
 0.0000000000000E+00
 0.0000000000000E+00
 0.0000000000000E+00
 0.0000000000000E+00
 0.0000000000000E+00
 0.0000000000000E+00
 0.0000000000000E+00
 0.0000000000000E+00
 0.0000000000000E+00
 0.0000000000000E+00
 0.0000000000000E+00
 0.0000000000000E+00
 0.0000000000000E+00
 0.0000000000000E+00
 0.0000000000000E+00
 0.0000000000000E+00
 0.0000000000000E+00
 0.0000000000000E+00
 0.0000000000000E+00
 0.0000000000000E+00
 0.0000000000000E+00
 0.0000000000000E+00
 0.0000000000000E+00
 0.0000000000000E+00
 0.0000000000000E+00
 0.0000000000000E+00
 0.0000000000000E+00
 0.0000000000000E+00
 0.0000000000000E+00
 0.0000000000000E+00
 0.0000000000000E+00
 0.0000000000000E+00
 0.0000000000000E+00
 0.0000000000000E+00
 0.0000000000000E+00
 0.0000000000000E+00
 0.0000000000000E+00
 0.0000000000000E+00
 0.0000000000000E+00
 0.0000000000000E+00
 0.0000000000000E+00
 0.0000000000000E+00
 0.0000000000000E+00
 0.0000000000000E+00
 0.0000000000000E+00
 0.0000000000000E+00
 0.0000000000000E+00
 0.0000000000000E+00
 0.0000000000000E+00
 0.0000000000000E+00
 0.0000000000000E+00
 0.0000000000000E+00
 0.0000000000000E+00
 0.0000000000000E+00
 0.0000000000000E+00
 0.0000000000000E+00
 0.0000000000000E+00
 0.0000000000000E+00
 0.0000000000000E+00
 0.0000000000000E+00
 0.0000000000000E+00
 0.0000000000000E+00
 0.0000000000000E+00
 0.0000000000000E+00
 0.0000000000000E+00
 0.0000000000000E+00
 0.0000000000000E+00
 0.0000000000000E+00
 0.0000000000000E+00
 0.0000000000000E+00
 0.0000000000000E+00
 0.0000000000000E+00
 0.0000000000000E+00
 0.0000000000000E+00
 0.0000000000000E+00
 0.0000000000000E+00
 0.0000000000000E+00
 0.0000000000000E+00
 0.0000000000000E+00
 0.0000000000000E+00
 0.0000000000000E+00
 0.0000000000000E+00
 0.0000000000000E+00
 0.0000000000000E+00
 0.0000000000000E+00
 0.0000000000000E+00
 0.0000000000000E+00
 0.0000000000000E+00
 0.0000000000000E+00
 0.0000000000000E+00
 0.0000000000000E+00
 0.0000000000000E+00
 0.0000000000000E+00
 0.0000000000000E+00
 0.0000000000000E+00
 0.0000000000000E+00
 0.0000000000000E+00
 0.0000000000000E+00
 0.0000000000000E+00
 0.0000000000000E+00
 0.0000000000000E+00
 0.0000000000000E+00
 0.0000000000000E+00
 0.0000000000000E+00
 0.0000000000000E+00
 0.0000000000000E+00
 0.0000000000000E+00
 0.0000000000000E+00
 0.0000000000000E+00
 0.0000000000000E+00
 0.0000000000000E+00
 0.0000000000000E+00
 0.0000000000000E+00
 0.0000000000000E+00
 0.0000000000000E+00
 0.0000000000000E+00
 0.0000000000000E+00
 0.0000000000000E+00
 0.0000000000000E+00
 0.0000000000000E+00
 0.0000000000000E+00
 0.0000000000000E+00
 0.0000000000000E+00
 0.0000000000000E+00
 0.0000000000000E+00
 0.0000000000000E+00
 0.0000000000000E+00
 0.0000000000000E+00
 0.0000000000000E+00
 0.0000000000000E+00
 0.0000000000000E+00
 0.0000000000000E+00
 0.0000000000000E+00
 0.0000000000000E+00
 0.0000000000000E+00
 0.0000000000000E+00
 0.0000000000000E+00
 0.0000000000000E+00
 0.0000000000000E+00
 0.0000000000000E+00
 0.0000000000000E+00
 0.0000000000000E+00
 0.0000000000000E+00
 0.0000000000000E+00
 0.0000000000000E+00
 0.0000000000000E+00
 0.0000000000000E+00
 0.0000000000000E+00
 0.0000000000000E+00
 0.0000000000000E+00
 0.0000000000000E+00
 0.0000000000000E+00
 0.0000000000000E+00
 0.0000000000000E+00
 0.0000000000000E+00
 0.0000000000000E+00
 0.0000000000000E+00
 0.0000000000000E+00
 0.0000000000000E+00
 0.0000000000000E+00
 0.0000000000000E+00
 0.0000000000000E+00
 0.0000000000000E+00
 0.0000000000000E+00
 0.0000000000000E+00
 0.0000000000000E+00
 0.0000000000000E+00
 0.0000000000000E+00
 0.0000000000000E+00
 0.0000000000000E+00
 0.0000000000000E+00
 0.0000000000000E+00
 0.0000000000000E+00
 0.0000000000000E+00
 0.0000000000000E+00
 0.0000000000000E+00
 0.0000000000000E+00
 0.0000000000000E+00
 0.0000000000000E+00
 0.0000000000000E+00
 0.0000000000000E+00
 0.0000000000000E+00
 0.0000000000000E+00
 0.0000000000000E+00
 0.0000000000000E+00
 0.0000000000000E+00
 0.0000000000000E+00
 0.0000000000000E+00
 0.0000000000000E+00
 0.0000000000000E+00
 0.0000000000000E+00
 0.0000000000000E+00
 0.0000000000000E+00
 0.0000000000000E+00
 0.0000000000000E+00
 0.0000000000000E+00
 0.0000000000000E+00
 0.0000000000000E+00
 0.0000000000000E+00
 0.0000000000000E+00
 0.0000000000000E+00
 0.0000000000000E+00
 0.0000000000000E+00
 0.0000000000000E+00
 0.0000000000000E+00
 0.0000000000000E+00
 0.0000000000000E+00
 0.0000000000000E+00
 0.0000000000000E+00
 0.0000000000000E+00
 0.0000000000000E+00
 0.0000000000000E+00
 0.0000000000000E+00
 0.0000000000000E+00
 0.0000000000000E+00
 0.0000000000000E+00
 0.0000000000000E+00
 0.0000000000000E+00
 0.0000000000000E+00
 0.0000000000000E+00
 0.0000000000000E+00
 0.0000000000000E+00
 0.0000000000000E+00
 0.0000000000000E+00
 0.0000000000000E+00
 0.0000000000000E+00
 0.0000000000000E+00
 0.0000000000000E+00
 0.0000000000000E+00
 0.0000000000000E+00
 0.0000000000000E+00
 0.0000000000000E+00
 0.0000000000000E+00
 0.0000000000000E+00
 0.0000000000000E+00
 0.0000000000000E+00
 0.0000000000000E+00
 0.0000000000000E+00
 0.0000000000000E+00
 0.0000000000000E+00
 0.0000000000000E+00
 0.0000000000000E+00
 0.0000000000000E+00
 0.0000000000000E+00
 0.0000000000000E+00
 0.0000000000000E+00
 0.0000000000000E+00
 0.0000000000000E+00
 0.0000000000000E+00
 0.0000000000000E+00
 0.0000000000000E+00
 0.0000000000000E+00
 0.0000000000000E+00
 0.0000000000000E+00
 0.0000000000000E+00
 0.0000000000000E+00
 0.0000000000000E+00
 0.0000000000000E+00
 0.0000000000000E+00
 0.0000000000000E+00
 0.0000000000000E+00
 0.0000000000000E+00
 0.0000000000000E+00
 0.0000000000000E+00
 0.0000000000000E+00
 0.0000000000000E+00
 0.0000000000000E+00
 0.0000000000000E+00
 0.0000000000000E+00
 0.0000000000000E+00
 0.0000000000000E+00
 0.0000000000000E+00
 0.0000000000000E+00
 0.0000000000000E+00
 0.0000000000000E+00
 0.0000000000000E+00
 0.0000000000000E+00
 0.0000000000000E+00
 0.0000000000000E+00
 0.0000000000000E+00
 0.0000000000000E+00
 0.0000000000000E+00
 0.0000000000000E+00
 0.0000000000000E+00
 0.0000000000000E+00
 0.0000000000000E+00
 0.0000000000000E+00
 0.0000000000000E+00
 0.0000000000000E+00
 0.0000000000000E+00
 0.0000000000000E+00
 0.0000000000000E+00
 0.0000000000000E+00
 0.0000000000000E+00
 0.0000000000000E+00
 0.0000000000000E+00
 0.0000000000000E+00
 0.0000000000000E+00
 0.0000000000000E+00
 0.0000000000000E+00
 0.0000000000000E+00
 0.0000000000000E+00
 0.0000000000000E+00
 0.0000000000000E+00
 0.0000000000000E+00
 0.0000000000000E+00
 0.0000000000000E+00
 0.0000000000000E+00
 0.0000000000000E+00
 0.0000000000000E+00
 0.0000000000000E+00
 0.0000000000000E+00
 0.0000000000000E+00
 0.0000000000000E+00
 0.0000000000000E+00
 0.0000000000000E+00
 0.0000000000000E+00
 0.0000000000000E+00
 0.0000000000000E+00
 0.0000000000000E+00
 0.0000000000000E+00
 0.0000000000000E+00
 0.0000000000000E+00
 0.0000000000000E+00
 0.0000000000000E+00
 0.0000000000000E+00
 0.0000000000000E+00
 0.0000000000000E+00
 0.0000000000000E+00
 0.0000000000000E+00
 0.0000000000000E+00
 0.0000000000000E+00
 0.0000000000000E+00
 0.0000000000000E+00
 0.0000000000000E+00
 0.0000000000000E+00
 0.0000000000000E+00
 0.0000000000000E+00
 0.0000000000000E+00
 0.0000000000000E+00
 0.0000000000000E+00
 0.0000000000000E+00
 0.0000000000000E+00
 0.0000000000000E+00
 0.0000000000000E+00
 0.0000000000000E+00
 0.0000000000000E+00
 0.0000000000000E+00
 0.0000000000000E+00
 0.0000000000000E+00
 0.0000000000000E+00
 0.0000000000000E+00
 0.0000000000000E+00
 0.0000000000000E+00
 0.0000000000000E+00
 0.0000000000000E+00
 0.0000000000000E+00
 0.0000000000000E+00
 0.0000000000000E+00
 0.0000000000000E+00
 0.0000000000000E+00
 0.0000000000000E+00
 0.0000000000000E+00
 0.0000000000000E+00
 0.0000000000000E+00
 0.0000000000000E+00
 0.0000000000000E+00
 0.0000000000000E+00
 0.0000000000000E+00
 0.0000000000000E+00
 0.0000000000000E+00
 0.0000000000000E+00
 0.0000000000000E+00
 0.0000000000000E+00
 0.0000000000000E+00
 0.0000000000000E+00
 0.0000000000000E+00
 0.0000000000000E+00
 0.0000000000000E+00
 0.0000000000000E+00
 0.0000000000000E+00
 0.0000000000000E+00
 0.0000000000000E+00
 0.0000000000000E+00
 0.0000000000000E+00
 0.0000000000000E+00
 0.0000000000000E+00
 0.0000000000000E+00
 0.0000000000000E+00
 0.0000000000000E+00
 0.0000000000000E+00
 0.0000000000000E+00
 0.0000000000000E+00
 0.0000000000000E+00
 0.0000000000000E+00
 0.0000000000000E+00
 0.0000000000000E+00
 0.0000000000000E+00
 0.0000000000000E+00
 0.0000000000000E+00
 0.0000000000000E+00
 0.0000000000000E+00
 0.0000000000000E+00
 0.0000000000000E+00
 0.0000000000000E+00
 0.0000000000000E+00
 0.0000000000000E+00
 0.0000000000000E+00
 0.0000000000000E+00
 0.0000000000000E+00
 0.0000000000000E+00
 0.0000000000000E+00
 0.0000000000000E+00
 0.0000000000000E+00
 0.0000000000000E+00
 0.0000000000000E+00
 0.0000000000000E+00
 0.0000000000000E+00
 0.0000000000000E+00
 0.0000000000000E+00
 0.0000000000000E+00
 0.0000000000000E+00
 0.0000000000000E+00
 0.0000000000000E+00
 0.0000000000000E+00
 0.0000000000000E+00
 0.0000000000000E+00
 0.0000000000000E+00
 0.0000000000000E+00
 0.0000000000000E+00
 0.0000000000000E+00
 0.0000000000000E+00
 0.0000000000000E+00
 0.0000000000000E+00
 0.0000000000000E+00
 0.0000000000000E+00
 0.0000000000000E+00
 0.0000000000000E+00
 0.0000000000000E+00
 0.0000000000000E+00
 0.0000000000000E+00
 0.0000000000000E+00
 0.0000000000000E+00
 0.0000000000000E+00
 0.0000000000000E+00
 0.0000000000000E+00
 0.0000000000000E+00
 0.0000000000000E+00
 0.0000000000000E+00
 0.0000000000000E+00
 0.0000000000000E+00
 0.0000000000000E+00
 0.0000000000000E+00
 0.0000000000000E+00
 0.0000000000000E+00
 0.0000000000000E+00
 0.0000000000000E+00
 0.0000000000000E+00
 0.0000000000000E+00
 0.0000000000000E+00
 0.0000000000000E+00
 0.0000000000000E+00
 0.0000000000000E+00
 0.0000000000000E+00
 0.0000000000000E+00
 0.0000000000000E+00
 0.0000000000000E+00
 0.0000000000000E+00
 0.0000000000000E+00
 0.0000000000000E+00
 0.0000000000000E+00
 0.0000000000000E+00
 0.0000000000000E+00
 0.0000000000000E+00
 0.0000000000000E+00
 0.0000000000000E+00
 0.0000000000000E+00
 0.0000000000000E+00
 0.0000000000000E+00
 0.0000000000000E+00
 0.0000000000000E+00
 0.0000000000000E+00
 0.0000000000000E+00
 0.0000000000000E+00
 0.0000000000000E+00
 0.0000000000000E+00
 0.0000000000000E+00
 0.0000000000000E+00
 0.0000000000000E+00
 0.0000000000000E+00
 0.0000000000000E+00
 0.0000000000000E+00
 0.0000000000000E+00
 0.0000000000000E+00
 0.0000000000000E+00
 0.0000000000000E+00
 0.0000000000000E+00
 0.0000000000000E+00
 0.0000000000000E+00
 0.0000000000000E+00
 0.0000000000000E+00
 0.0000000000000E+00
 0.0000000000000E+00
 0.0000000000000E+00
 0.0000000000000E+00
 0.0000000000000E+00
 0.0000000000000E+00
 0.0000000000000E+00
 0.0000000000000E+00
 0.0000000000000E+00
 0.0000000000000E+00
 0.0000000000000E+00
 0.0000000000000E+00
 0.0000000000000E+00
 0.0000000000000E+00
 0.0000000000000E+00
 0.0000000000000E+00
 0.0000000000000E+00
 0.0000000000000E+00
 0.0000000000000E+00
 0.0000000000000E+00
 0.0000000000000E+00
 0.0000000000000E+00
 0.0000000000000E+00
 0.0000000000000E+00
 0.0000000000000E+00
 0.0000000000000E+00
 0.0000000000000E+00
 0.0000000000000E+00
 0.0000000000000E+00
 0.0000000000000E+00
 0.0000000000000E+00
 0.0000000000000E+00
 0.0000000000000E+00
 0.0000000000000E+00
 0.0000000000000E+00
 0.0000000000000E+00
 0.0000000000000E+00
 0.0000000000000E+00
 0.0000000000000E+00
 0.0000000000000E+00
 0.0000000000000E+00
 0.0000000000000E+00
 0.0000000000000E+00
 0.0000000000000E+00
 0.0000000000000E+00
 0.0000000000000E+00
 0.0000000000000E+00
 0.0000000000000E+00
 0.0000000000000E+00
 0.0000000000000E+00
 0.0000000000000E+00
 0.0000000000000E+00
 0.0000000000000E+00
 0.0000000000000E+00
 0.0000000000000E+00
 0.0000000000000E+00
 0.0000000000000E+00
 0.0000000000000E+00
 0.0000000000000E+00
 0.0000000000000E+00
 0.0000000000000E+00
 0.0000000000000E+00
 0.0000000000000E+00
 0.0000000000000E+00
 0.0000000000000E+00
 0.0000000000000E+00
 0.0000000000000E+00
 0.0000000000000E+00
 0.0000000000000E+00
 0.0000000000000E+00
 0.0000000000000E+00
 0.0000000000000E+00
 0.0000000000000E+00
 0.0000000000000E+00
 0.0000000000000E+00
 0.0000000000000E+00
 0.0000000000000E+00
 0.0000000000000E+00
 0.0000000000000E+00
 0.0000000000000E+00
 0.0000000000000E+00
 0.0000000000000E+00
 0.0000000000000E+00
 0.0000000000000E+00
 0.0000000000000E+00
 0.0000000000000E+00
 0.0000000000000E+00
 0.0000000000000E+00
 0.0000000000000E+00
 0.0000000000000E+00
 0.0000000000000E+00
 0.0000000000000E+00
 0.0000000000000E+00
 0.0000000000000E+00
 0.0000000000000E+00
 0.0000000000000E+00
 0.0000000000000E+00
 0.0000000000000E+00
 0.0000000000000E+00
 0.0000000000000E+00
 0.0000000000000E+00
 0.0000000000000E+00
 0.0000000000000E+00
 0.0000000000000E+00
 0.0000000000000E+00
 0.0000000000000E+00
 0.0000000000000E+00
 0.0000000000000E+00
 0.0000000000000E+00
 0.0000000000000E+00
 0.0000000000000E+00
 0.0000000000000E+00
 0.0000000000000E+00
 0.0000000000000E+00
 0.0000000000000E+00
 0.0000000000000E+00
 0.0000000000000E+00
 0.0000000000000E+00
 0.0000000000000E+00
 0.0000000000000E+00
 0.0000000000000E+00
 0.0000000000000E+00
 0.0000000000000E+00
 0.0000000000000E+00
 0.0000000000000E+00
 0.0000000000000E+00
 0.0000000000000E+00
 0.0000000000000E+00
 0.0000000000000E+00
 0.0000000000000E+00
 0.0000000000000E+00
 0.0000000000000E+00
 0.0000000000000E+00
 0.0000000000000E+00
 0.0000000000000E+00
 0.0000000000000E+00
 0.0000000000000E+00
 0.0000000000000E+00
 0.0000000000000E+00
 0.0000000000000E+00
 0.0000000000000E+00
 0.0000000000000E+00
 0.0000000000000E+00
 0.0000000000000E+00
 0.0000000000000E+00
 0.0000000000000E+00
 0.0000000000000E+00
 0.0000000000000E+00
 0.0000000000000E+00
 0.0000000000000E+00
 0.0000000000000E+00
 0.0000000000000E+00
 0.0000000000000E+00
 0.0000000000000E+00
 0.0000000000000E+00
 0.0000000000000E+00
 0.0000000000000E+00
 0.0000000000000E+00
 0.0000000000000E+00
 0.0000000000000E+00
 0.0000000000000E+00
 0.0000000000000E+00
 0.0000000000000E+00
 0.0000000000000E+00
 0.0000000000000E+00
 0.0000000000000E+00
 0.0000000000000E+00
 0.0000000000000E+00
 0.0000000000000E+00
 0.0000000000000E+00
 0.0000000000000E+00
 0.0000000000000E+00
 0.0000000000000E+00
 0.0000000000000E+00
 0.0000000000000E+00
 0.0000000000000E+00
 0.0000000000000E+00
 0.0000000000000E+00
 0.0000000000000E+00
 0.0000000000000E+00
 0.0000000000000E+00
 0.0000000000000E+00
 0.0000000000000E+00
 0.0000000000000E+00
 0.0000000000000E+00
 0.0000000000000E+00
 0.0000000000000E+00
 0.0000000000000E+00
 0.0000000000000E+00
 0.0000000000000E+00
 0.0000000000000E+00
 0.0000000000000E+00
 0.0000000000000E+00
 0.0000000000000E+00
 0.0000000000000E+00
 0.0000000000000E+00
 0.0000000000000E+00
 0.0000000000000E+00
 0.0000000000000E+00
 0.0000000000000E+00
 0.0000000000000E+00
 0.0000000000000E+00
 0.0000000000000E+00
 0.0000000000000E+00
 0.0000000000000E+00
 0.0000000000000E+00
 0.0000000000000E+00
 0.0000000000000E+00
 0.0000000000000E+00
 0.0000000000000E+00
 0.0000000000000E+00
 0.0000000000000E+00
 0.0000000000000E+00
 0.0000000000000E+00
 0.0000000000000E+00
 0.0000000000000E+00
 0.0000000000000E+00
 0.0000000000000E+00
 0.0000000000000E+00
 0.0000000000000E+00
 0.0000000000000E+00
 0.0000000000000E+00
 0.0000000000000E+00
 0.0000000000000E+00
 0.0000000000000E+00
 0.0000000000000E+00
 0.0000000000000E+00
 0.0000000000000E+00
 0.0000000000000E+00
 0.0000000000000E+00
 0.0000000000000E+00
 0.0000000000000E+00
 0.0000000000000E+00
 0.0000000000000E+00
 0.0000000000000E+00
 0.0000000000000E+00
 0.0000000000000E+00
 0.0000000000000E+00
 0.0000000000000E+00
 0.0000000000000E+00
 0.0000000000000E+00
 0.0000000000000E+00
 0.0000000000000E+00
 0.0000000000000E+00
 0.0000000000000E+00
 0.0000000000000E+00
 0.0000000000000E+00
 0.0000000000000E+00
 0.0000000000000E+00
 0.0000000000000E+00
 0.0000000000000E+00
 0.0000000000000E+00
 0.0000000000000E+00
 0.0000000000000E+00
 0.0000000000000E+00
 0.0000000000000E+00
 0.0000000000000E+00
 0.0000000000000E+00
 0.0000000000000E+00
 0.0000000000000E+00
 0.0000000000000E+00
 0.0000000000000E+00
 0.0000000000000E+00
 0.0000000000000E+00
 0.0000000000000E+00
 0.0000000000000E+00
 0.0000000000000E+00
 0.0000000000000E+00
 0.0000000000000E+00
 0.0000000000000E+00
 0.0000000000000E+00
 0.0000000000000E+00
 0.0000000000000E+00
 0.0000000000000E+00
 0.0000000000000E+00
 0.0000000000000E+00
 0.0000000000000E+00
 0.0000000000000E+00
 0.0000000000000E+00
 0.0000000000000E+00
 0.0000000000000E+00
 0.0000000000000E+00
 0.0000000000000E+00
 0.0000000000000E+00
 0.0000000000000E+00
 0.0000000000000E+00
 0.0000000000000E+00
 0.0000000000000E+00
 0.0000000000000E+00
 0.0000000000000E+00
 0.0000000000000E+00
 0.0000000000000E+00
 0.0000000000000E+00
 0.0000000000000E+00
 0.0000000000000E+00
 0.0000000000000E+00
 0.0000000000000E+00
 0.0000000000000E+00
 0.0000000000000E+00
 0.0000000000000E+00
 0.0000000000000E+00
 0.0000000000000E+00
 0.0000000000000E+00
 0.0000000000000E+00
 0.0000000000000E+00
 0.0000000000000E+00
 0.0000000000000E+00
 0.0000000000000E+00
 0.0000000000000E+00
 0.0000000000000E+00
 0.0000000000000E+00
 0.0000000000000E+00
 0.0000000000000E+00
 0.0000000000000E+00
 0.0000000000000E+00
 0.0000000000000E+00
 0.0000000000000E+00
 0.0000000000000E+00
 0.0000000000000E+00
 0.0000000000000E+00
 0.0000000000000E+00
 0.0000000000000E+00
 0.0000000000000E+00
 0.0000000000000E+00
 0.0000000000000E+00
 0.0000000000000E+00
 0.0000000000000E+00
 0.0000000000000E+00
 0.0000000000000E+00
 0.0000000000000E+00
 0.0000000000000E+00
 0.0000000000000E+00
 0.0000000000000E+00
 0.0000000000000E+00
 0.0000000000000E+00
 0.0000000000000E+00
 0.0000000000000E+00
 0.0000000000000E+00
 0.0000000000000E+00
 0.0000000000000E+00
 0.0000000000000E+00
 0.0000000000000E+00
 0.0000000000000E+00
 0.0000000000000E+00
 0.0000000000000E+00
 0.0000000000000E+00
 0.0000000000000E+00
 0.0000000000000E+00
 0.0000000000000E+00
 0.0000000000000E+00
 0.0000000000000E+00
 0.0000000000000E+00
 0.0000000000000E+00
 0.0000000000000E+00
 0.0000000000000E+00
 0.0000000000000E+00
 0.0000000000000E+00
 0.0000000000000E+00
 0.0000000000000E+00
 0.0000000000000E+00
 0.0000000000000E+00
 0.0000000000000E+00
 0.0000000000000E+00
 0.0000000000000E+00
 0.0000000000000E+00
 0.0000000000000E+00
 0.0000000000000E+00
 0.0000000000000E+00
 0.0000000000000E+00
 0.0000000000000E+00
 0.0000000000000E+00
 0.0000000000000E+00
 0.0000000000000E+00
 0.0000000000000E+00
 0.0000000000000E+00
 0.0000000000000E+00
 0.0000000000000E+00
 0.0000000000000E+00
 0.0000000000000E+00
 0.0000000000000E+00
 0.0000000000000E+00
 0.0000000000000E+00
 0.0000000000000E+00
 0.0000000000000E+00
 0.0000000000000E+00
 0.0000000000000E+00
 0.0000000000000E+00
 0.0000000000000E+00
 0.0000000000000E+00
 0.0000000000000E+00
 0.0000000000000E+00
 0.0000000000000E+00
 0.0000000000000E+00
 0.0000000000000E+00
 0.0000000000000E+00
 0.0000000000000E+00
 0.0000000000000E+00
 0.0000000000000E+00
 0.0000000000000E+00
 0.0000000000000E+00
 0.0000000000000E+00
 0.0000000000000E+00
 0.0000000000000E+00
 0.0000000000000E+00
 0.0000000000000E+00
 0.0000000000000E+00
 0.0000000000000E+00
 0.0000000000000E+00
 0.0000000000000E+00
 0.0000000000000E+00
 0.0000000000000E+00
 0.0000000000000E+00
 0.0000000000000E+00
 0.0000000000000E+00
 0.0000000000000E+00
 0.0000000000000E+00
 0.0000000000000E+00
 0.0000000000000E+00
 0.0000000000000E+00
 0.0000000000000E+00
 0.0000000000000E+00
 0.0000000000000E+00
 0.0000000000000E+00
 0.0000000000000E+00
 0.0000000000000E+00
 0.0000000000000E+00
 0.0000000000000E+00
 0.0000000000000E+00
 0.0000000000000E+00
 0.0000000000000E+00
 0.0000000000000E+00
 0.0000000000000E+00
 0.0000000000000E+00
 0.0000000000000E+00
 0.0000000000000E+00
 0.0000000000000E+00
 0.0000000000000E+00
 0.0000000000000E+00
 0.0000000000000E+00
 0.0000000000000E+00
 0.0000000000000E+00
 0.0000000000000E+00
 0.0000000000000E+00
 0.0000000000000E+00
 0.0000000000000E+00
 0.0000000000000E+00
 0.0000000000000E+00
 0.0000000000000E+00
 0.0000000000000E+00
 0.0000000000000E+00
 0.0000000000000E+00
 0.0000000000000E+00
 0.0000000000000E+00
 0.0000000000000E+00
 0.0000000000000E+00
 0.0000000000000E+00
 0.0000000000000E+00
 0.0000000000000E+00
 0.0000000000000E+00
 0.0000000000000E+00
 0.0000000000000E+00
 0.0000000000000E+00
 0.0000000000000E+00
 0.0000000000000E+00
 0.0000000000000E+00
 0.0000000000000E+00
 0.0000000000000E+00
 0.0000000000000E+00
 0.0000000000000E+00
 0.0000000000000E+00
 0.0000000000000E+00
 0.0000000000000E+00
 0.0000000000000E+00
 0.0000000000000E+00
 0.0000000000000E+00
 0.0000000000000E+00
 0.0000000000000E+00
 0.0000000000000E+00
 0.0000000000000E+00
 0.0000000000000E+00
 0.0000000000000E+00
 0.0000000000000E+00
 0.0000000000000E+00
 0.0000000000000E+00
 0.0000000000000E+00
 0.0000000000000E+00
 0.0000000000000E+00
 0.0000000000000E+00
 0.0000000000000E+00
 0.0000000000000E+00
 0.0000000000000E+00
 0.0000000000000E+00
 0.0000000000000E+00
 0.0000000000000E+00
 0.0000000000000E+00
 0.0000000000000E+00
 0.0000000000000E+00
 0.0000000000000E+00
 0.0000000000000E+00
 0.0000000000000E+00
 0.0000000000000E+00
 0.0000000000000E+00
 0.0000000000000E+00
 0.0000000000000E+00
 0.0000000000000E+00
 0.0000000000000E+00
 0.0000000000000E+00
 0.0000000000000E+00
 0.0000000000000E+00
 0.0000000000000E+00
 0.0000000000000E+00
 0.0000000000000E+00
 0.0000000000000E+00
 0.0000000000000E+00
 0.0000000000000E+00
 0.0000000000000E+00
 0.0000000000000E+00
 0.0000000000000E+00
 0.0000000000000E+00
 0.0000000000000E+00
 0.0000000000000E+00
 0.0000000000000E+00
 0.0000000000000E+00
 0.0000000000000E+00
 0.0000000000000E+00
 0.0000000000000E+00
 0.0000000000000E+00
 0.0000000000000E+00
 0.0000000000000E+00
 0.0000000000000E+00
 0.0000000000000E+00
 0.0000000000000E+00
 0.0000000000000E+00
 0.0000000000000E+00
 0.0000000000000E+00
 0.0000000000000E+00
 0.0000000000000E+00
 0.0000000000000E+00
 0.0000000000000E+00
 0.0000000000000E+00
 0.0000000000000E+00
 0.0000000000000E+00
 0.0000000000000E+00
 0.0000000000000E+00
 0.0000000000000E+00
 0.0000000000000E+00
 0.0000000000000E+00
 0.0000000000000E+00
 0.0000000000000E+00
 0.0000000000000E+00
 0.0000000000000E+00
 0.0000000000000E+00
 0.0000000000000E+00
 0.0000000000000E+00
 0.0000000000000E+00
 0.0000000000000E+00
 0.0000000000000E+00
 0.0000000000000E+00
 0.0000000000000E+00
 0.0000000000000E+00
 0.0000000000000E+00
 0.0000000000000E+00
 0.0000000000000E+00
 0.0000000000000E+00
 0.0000000000000E+00
 0.0000000000000E+00
 0.0000000000000E+00
 0.0000000000000E+00
 0.0000000000000E+00
 0.0000000000000E+00
 0.0000000000000E+00
 0.0000000000000E+00
 0.0000000000000E+00
 0.0000000000000E+00
 0.0000000000000E+00
 0.0000000000000E+00
 0.0000000000000E+00
 0.0000000000000E+00
 0.0000000000000E+00
 0.0000000000000E+00
 0.0000000000000E+00
 0.0000000000000E+00
 0.0000000000000E+00
 0.0000000000000E+00
 0.0000000000000E+00
 0.0000000000000E+00
 0.0000000000000E+00
 0.0000000000000E+00
 0.0000000000000E+00
 0.0000000000000E+00
 0.0000000000000E+00
 0.0000000000000E+00
 0.0000000000000E+00
 0.0000000000000E+00
 0.0000000000000E+00
 0.0000000000000E+00
 0.0000000000000E+00
 0.0000000000000E+00
 0.0000000000000E+00
 0.0000000000000E+00
 0.0000000000000E+00
 0.0000000000000E+00
 0.0000000000000E+00
 0.0000000000000E+00
 0.0000000000000E+00
 0.0000000000000E+00
 0.0000000000000E+00
 0.0000000000000E+00
 0.0000000000000E+00
 0.0000000000000E+00
 0.0000000000000E+00
 0.0000000000000E+00
 0.0000000000000E+00
 0.0000000000000E+00
 0.0000000000000E+00
 0.0000000000000E+00
 0.0000000000000E+00
 0.0000000000000E+00
 0.0000000000000E+00
 0.0000000000000E+00
 0.0000000000000E+00
 0.0000000000000E+00
 0.0000000000000E+00
 0.0000000000000E+00
 0.0000000000000E+00
 0.0000000000000E+00
 0.0000000000000E+00
 0.0000000000000E+00
 0.0000000000000E+00
 0.0000000000000E+00
 0.0000000000000E+00
 0.0000000000000E+00
 0.0000000000000E+00
 0.0000000000000E+00
 0.0000000000000E+00
 0.0000000000000E+00
 0.0000000000000E+00
 0.0000000000000E+00
 0.0000000000000E+00
 0.0000000000000E+00
 0.0000000000000E+00
 0.0000000000000E+00
 0.0000000000000E+00
 0.0000000000000E+00
 0.0000000000000E+00
 0.0000000000000E+00
 0.0000000000000E+00
 0.0000000000000E+00
 0.0000000000000E+00
 0.0000000000000E+00
 0.0000000000000E+00
 0.0000000000000E+00
 0.0000000000000E+00
 0.0000000000000E+00
 0.0000000000000E+00
 0.0000000000000E+00
 0.0000000000000E+00
 0.0000000000000E+00
 0.0000000000000E+00
 0.0000000000000E+00
 0.0000000000000E+00
 0.0000000000000E+00
 0.0000000000000E+00
 0.0000000000000E+00
 0.0000000000000E+00
 0.0000000000000E+00
 0.0000000000000E+00
 0.0000000000000E+00
 0.0000000000000E+00
 0.0000000000000E+00
 0.0000000000000E+00
 0.0000000000000E+00
 0.0000000000000E+00
 0.0000000000000E+00
 0.0000000000000E+00
 0.0000000000000E+00
 0.0000000000000E+00
 0.0000000000000E+00
 0.0000000000000E+00
 0.0000000000000E+00
 0.0000000000000E+00
 0.0000000000000E+00
 0.0000000000000E+00
 0.0000000000000E+00
 0.0000000000000E+00
 0.0000000000000E+00
 0.0000000000000E+00
 0.0000000000000E+00
 0.0000000000000E+00
 0.0000000000000E+00
 0.0000000000000E+00
 0.0000000000000E+00
 0.0000000000000E+00
 0.0000000000000E+00
 0.0000000000000E+00
 0.0000000000000E+00
 0.0000000000000E+00
 0.0000000000000E+00
 0.0000000000000E+00
 0.0000000000000E+00
 0.0000000000000E+00
 0.0000000000000E+00
 0.0000000000000E+00
 0.0000000000000E+00
 0.0000000000000E+00
 0.0000000000000E+00
 0.0000000000000E+00
 0.0000000000000E+00
 0.0000000000000E+00
 0.0000000000000E+00
 0.0000000000000E+00
 0.0000000000000E+00
 0.0000000000000E+00
 0.0000000000000E+00
 0.0000000000000E+00
 0.0000000000000E+00
 0.0000000000000E+00
 0.0000000000000E+00
 0.0000000000000E+00
 0.0000000000000E+00
 0.0000000000000E+00
 0.0000000000000E+00
 0.0000000000000E+00
 0.0000000000000E+00
 0.0000000000000E+00
 0.0000000000000E+00
 0.0000000000000E+00
 0.0000000000000E+00
 0.0000000000000E+00
 0.0000000000000E+00
 0.0000000000000E+00
 0.0000000000000E+00
 0.0000000000000E+00
 0.0000000000000E+00
 0.0000000000000E+00
 0.0000000000000E+00
 0.0000000000000E+00
 0.0000000000000E+00
 0.0000000000000E+00
 0.0000000000000E+00
 0.0000000000000E+00
 0.0000000000000E+00
 0.0000000000000E+00
 0.0000000000000E+00
 0.0000000000000E+00
 0.0000000000000E+00
 0.0000000000000E+00
 0.0000000000000E+00
 0.0000000000000E+00
 0.0000000000000E+00
 0.0000000000000E+00
 0.0000000000000E+00
 0.0000000000000E+00
 0.0000000000000E+00
 0.0000000000000E+00
 0.0000000000000E+00
 0.0000000000000E+00
 0.0000000000000E+00
 0.0000000000000E+00
 0.0000000000000E+00
 0.0000000000000E+00
 0.0000000000000E+00
 0.0000000000000E+00
 0.0000000000000E+00
 0.0000000000000E+00
 0.0000000000000E+00
 0.0000000000000E+00
 0.0000000000000E+00
 0.0000000000000E+00
 0.0000000000000E+00
 0.0000000000000E+00
 0.0000000000000E+00
 0.0000000000000E+00
 0.0000000000000E+00
 0.0000000000000E+00
 0.0000000000000E+00
 0.0000000000000E+00
 0.0000000000000E+00
 0.0000000000000E+00
 0.0000000000000E+00
 0.0000000000000E+00
 0.0000000000000E+00
 0.0000000000000E+00
 0.0000000000000E+00
 0.0000000000000E+00
 0.0000000000000E+00
 0.0000000000000E+00
 0.0000000000000E+00
 0.0000000000000E+00
 0.0000000000000E+00
 0.0000000000000E+00
 0.0000000000000E+00
 0.0000000000000E+00
 0.0000000000000E+00
 0.0000000000000E+00
 0.0000000000000E+00
 0.0000000000000E+00
 0.0000000000000E+00
 0.0000000000000E+00
 0.0000000000000E+00
 0.0000000000000E+00
 0.0000000000000E+00
 0.0000000000000E+00
 0.0000000000000E+00
 0.0000000000000E+00
 0.0000000000000E+00
 0.0000000000000E+00
 0.0000000000000E+00
 0.0000000000000E+00
 0.0000000000000E+00
 0.0000000000000E+00
 0.0000000000000E+00
 0.0000000000000E+00
 0.0000000000000E+00
 0.0000000000000E+00
 0.0000000000000E+00
 0.0000000000000E+00
 0.0000000000000E+00
 0.0000000000000E+00
 0.0000000000000E+00
 0.0000000000000E+00
 0.0000000000000E+00
 0.0000000000000E+00
 0.0000000000000E+00
 0.0000000000000E+00
 0.0000000000000E+00
 0.0000000000000E+00
 0.0000000000000E+00
 0.0000000000000E+00
 0.0000000000000E+00
 0.0000000000000E+00
 0.0000000000000E+00
 0.0000000000000E+00
 0.0000000000000E+00
 0.0000000000000E+00
 0.0000000000000E+00
 0.0000000000000E+00
 0.0000000000000E+00
 0.0000000000000E+00
 0.0000000000000E+00
 0.0000000000000E+00
 0.0000000000000E+00
 0.0000000000000E+00
 0.0000000000000E+00
 0.0000000000000E+00
 0.0000000000000E+00
 0.0000000000000E+00
 0.0000000000000E+00
 0.0000000000000E+00
 0.0000000000000E+00
 0.0000000000000E+00
 0.0000000000000E+00
 0.0000000000000E+00
 0.0000000000000E+00
 0.0000000000000E+00
 0.0000000000000E+00
 0.0000000000000E+00
 0.0000000000000E+00
 0.0000000000000E+00
 0.0000000000000E+00
 0.0000000000000E+00
 0.0000000000000E+00
 0.0000000000000E+00
 0.0000000000000E+00
 0.0000000000000E+00
 0.0000000000000E+00
 0.0000000000000E+00
 0.0000000000000E+00
 0.0000000000000E+00
 0.0000000000000E+00
 0.0000000000000E+00
 0.0000000000000E+00
 0.0000000000000E+00
 0.0000000000000E+00
 0.0000000000000E+00
 0.0000000000000E+00
 0.0000000000000E+00
 0.0000000000000E+00
 0.0000000000000E+00
 0.0000000000000E+00
 0.0000000000000E+00
 0.0000000000000E+00
 0.0000000000000E+00
 0.0000000000000E+00
 0.0000000000000E+00
 0.0000000000000E+00
 0.0000000000000E+00
 0.0000000000000E+00
 0.0000000000000E+00
 0.0000000000000E+00
 0.0000000000000E+00
 0.0000000000000E+00
 0.0000000000000E+00
 0.0000000000000E+00
 0.0000000000000E+00
 0.0000000000000E+00
 0.0000000000000E+00
 0.0000000000000E+00
 0.0000000000000E+00
 0.0000000000000E+00
 0.0000000000000E+00
 0.0000000000000E+00
 0.0000000000000E+00
 0.0000000000000E+00
 0.0000000000000E+00
 0.0000000000000E+00
 0.0000000000000E+00
 0.0000000000000E+00
 0.0000000000000E+00
 0.0000000000000E+00
 0.0000000000000E+00
 0.0000000000000E+00
 0.0000000000000E+00
 0.0000000000000E+00
 0.0000000000000E+00
 0.0000000000000E+00
 0.0000000000000E+00
 0.0000000000000E+00
 0.0000000000000E+00
 0.0000000000000E+00
 0.0000000000000E+00
 0.0000000000000E+00
 0.0000000000000E+00
 0.0000000000000E+00
 0.0000000000000E+00
 0.0000000000000E+00
 0.0000000000000E+00
 0.0000000000000E+00
 0.0000000000000E+00
 0.0000000000000E+00
 0.0000000000000E+00
 0.0000000000000E+00
 0.0000000000000E+00
 0.0000000000000E+00
 0.0000000000000E+00
 0.0000000000000E+00
 0.0000000000000E+00
 0.0000000000000E+00
 0.0000000000000E+00
 0.0000000000000E+00
 0.0000000000000E+00
 0.0000000000000E+00
 0.0000000000000E+00
 0.0000000000000E+00
 0.0000000000000E+00
 0.0000000000000E+00
 0.0000000000000E+00
 0.0000000000000E+00
 0.0000000000000E+00
 0.0000000000000E+00
 0.0000000000000E+00
 0.0000000000000E+00
 0.0000000000000E+00
 0.0000000000000E+00
 0.0000000000000E+00
 0.0000000000000E+00
 0.0000000000000E+00
 0.0000000000000E+00
 0.0000000000000E+00
</DataArray>
<DataArray type="Int32" Name="Region" format="ascii">
           1
           1
           1
           1
           1
           1
           1
           1
           1
           1
           1
           1
           1
           1
           1
           1
           1
           1
           1
           1
           1
           1
           1
           1
           1
           1
           1
           1
           1
           1
           1
           1
           1
           1
           1
           1
           1
           1
           1
           1
           1
           1
           1
           1
           1
           1
           1
           1
           1
           1
           1
           1
           1
           1
           1
           1
           1
           1
           1
           1
           1
           1
           1
           1
           1
           1
           1
           1
           1
           1
           1
           1
           1
           1
           1
           1
           1
           1
           1
           1
           1
           1
           1
           1
           1
           1
           1
           1
           1
           1
           1
           1
           1
           1
           1
           1
           1
           1
           1
           1
           1
           1
           1
           1
           1
           1
           1
           1
           1
           1
           1
           1
           1
           1
           1
           1
           1
           1
           1
           1
           1
           1
           1
           1
           1
           1
           1
           1
           1
           1
           1
           1
           1
           1
           1
           1
           1
           1
           1
           1
           1
           1
           1
           1
           1
           1
           1
           1
           1
           1
           1
           1
           1
           1
           1
           1
           1
           1
           1
           1
           1
           1
           1
           1
           1
           1
           1
           1
           1
           1
           1
           1
           1
           1
           1
           1
           1
           1
           1
           1
           1
           1
           1
           1
           1
           1
           1
           1
           1
           1
           1
           1
           1
           1
           1
           1
           1
           1
           1
           1
           1
           1
           1
           1
           1
           1
           1
           1
           1
           1
           1
           1
           1
           1
           1
           1
           1
           1
           1
           1
           1
           1
           1
           1
           1
           1
           1
           1
           1
           1
           1
           1
           1
           1
           1
           1
           1
           1
           1
           1
           1
           1
           1
           1
           1
           1
           1
           1
           1
           1
           1
           1
           1
           1
           1
           1
           1
           1
           1
           1
           1
           1
           1
           1
           1
           1
           1
           1
           1
           1
           1
           1
           1
           1
           1
           1
           1
           1
           1
           1
           1
           1
           1
           1
           1
           1
           1
           1
           1
           1
           1
           1
           1
           1
           1
           1
           1
           1
           1
           1
           1
           1
           1
           1
           1
           1
           1
           1
           1
           1
           1
           1
           1
           1
           1
           1
           1
           1
           1
           1
           1
           1
           1
           1
           1
           1
           1
           1
           1
           1
           1
           1
           1
           1
           1
           1
           1
           1
           1
           1
           1
           1
           1
           1
           1
           1
           1
           1
           1
           1
           1
           1
           1
           1
           1
           1
           1
           1
           1
           1
           1
           1
           1
           1
           1
           1
           1
           1
           1
           1
           1
           1
           1
           1
           1
           1
           1
           1
           1
           1
           1
           1
           1
           1
           1
           1
           1
           1
           1
           1
           1
           1
           1
           1
           1
           1
           1
           1
           1
           1
           1
           1
           1
           1
           1
           1
           1
           1
           1
           1
           1
           1
           1
           1
           1
           1
           1
           1
           1
           1
           1
           1
           1
           1
           1
           1
           1
           1
           1
           1
           1
           1
           1
           1
           1
           1
           1
           1
           1
           1
           1
           1
           1
           1
           1
           1
           1
           1
           1
           1
           1
           1
           1
           1
           1
           1
           1
           1
           1
           1
           1
           1
           1
           1
           1
           1
           1
           1
           1
           1
           1
           1
           1
           1
           1
           1
           1
           1
           1
           1
           1
           1
           1
           1
           1
           1
           1
           1
           1
           1
           1
           1
           1
           1
           1
           1
           1
           1
           1
           1
           1
           1
           1
           1
           1
           1
           1
           1
           1
           1
           1
           1
           1
           1
           1
           1
           1
           1
           1
           1
           1
           1
           1
           1
           1
           1
           1
           1
           1
           1
           1
           1
           1
           1
           1
           1
           1
           1
           1
           1
           1
           1
           1
           1
           1
           1
           1
           1
           1
           1
           1
           1
           1
           1
           1
           1
           1
           1
           1
           1
           1
           1
           1
           1
           1
           1
           1
           1
           1
           1
           1
           1
           1
           1
           1
           1
           1
           1
           1
           1
           1
           1
           1
           1
           1
           1
           1
           1
           1
           1
           1
           1
           1
           1
           1
           1
           1
           1
           1
           1
           1
           1
           1
           1
           1
           1
           1
           1
           1
           1
           1
           1
           1
           1
           1
           1
           1
           1
           1
           1
           1
           1
           1
           1
           1
           1
           1
           1
           1
           1
           1
           1
           1
           1
           1
           1
           1
           1
           1
           1
           1
           1
           1
           1
           1
           1
           1
           1
           1
           1
           1
           1
           1
           1
           1
           1
           1
           1
           1
           1
           1
           1
           1
           1
           1
           1
           1
           1
           1
           1
           1
           1
           1
           1
           1
           1
           1
           1
           1
           1
           1
           1
           1
           1
           1
           1
           1
           1
           1
           1
           1
           1
           1
           1
           1
           1
           1
           1
           1
           1
           1
           1
           1
           1
           1
           1
           1
           1
           1
           1
           1
           1
           1
           1
           1
           1
           1
           1
           1
           1
           1
           1
           1
           1
           1
           1
           1
           1
           1
           1
           1
           1
           1
           1
           1
           1
           1
           1
           1
           1
           1
           1
           1
           1
           1
           1
           1
           1
           1
           1
           1
           1
           1
           1
           1
           1
           1
           1
           1
           1
           1
           1
           1
           1
           1
           1
           1
           1
           1
           1
           1
           1
           1
           1
           1
           1
           1
           1
           1
           1
           1
           1
           1
           1
           1
           1
           1
           1
           1
           1
           1
           1
           1
           1
           1
           1
           1
           1
           1
           1
           1
           1
           1
           1
           1
           1
           1
           1
           1
           1
           1
           1
           1
           1
           1
           1
           1
           1
           1
           1
           1
           1
           1
           1
           1
           1
           1
           1
           1
           1
           1
           1
           1
           1
           1
           1
           1
           1
           1
           1
           1
           1
           1
           1
           1
           1
           1
           1
           1
           1
           1
           1
           1
           1
           1
           1
           1
           1
           1
           1
           1
           1
           1
           1
           1
           1
           1
           1
           1
           1
           1
           1
           1
           1
           1
           1
           1
           1
           1
           1
           1
           1
           1
           1
           1
           1
           1
           1
           1
           1
           1
           1
           1
           1
           1
           1
           1
           1
           1
           1
           1
           1
           1
           1
           1
           1
           1
           1
           1
           1
           1
           1
           1
           1
           1
           1
           1
           1
           1
           1
           1
           1
           1
           1
           1
           1
           1
           1
           1
           1
           1
           1
           1
           1
           1
           1
           1
           1
           1
           1
           1
           1
           1
           1
           1
           1
           1
           1
           1
           1
           1
           1
           1
           1
           1
           1
           1
           1
           1
           1
           1
           1
           1
           1
           1
           1
           1
           1
           1
           1
           1
           1
           1
           1
           1
           1
           1
           1
           1
           1
           1
           1
           1
           1
           1
           1
           1
           1
           1
           1
           1
           1
           1
           1
           1
           1
           1
           1
           1
           1
           1
           1
           1
           1
           1
           1
           1
           1
           1
           1
           1
           1
           1
           1
           1
           1
           1
           1
           1
           1
           1
           1
           1
           1
           1
           1
           1
           1
           1
           1
           1
           1
           1
           1
           1
           1
           1
           1
           1
           1
           1
           1
           1
           1
           1
           1
           1
           1
           1
           1
           1
           1
           1
           1
           1
           1
           1
           1
           1
           1
           1
           1
           1
           1
           1
           1
           1
           1
           1
           1
           1
           1
           1
           1
           1
           1
           1
           1
           1
           1
           1
           1
           1
           1
           1
           1
           1
           1
           1
           1
           1
           1
           1
           1
           1
           1
           1
           1
           1
           1
           1
           1
           1
           1
           1
           1
           1
           1
           1
           1
           1
           1
           1
           1
           1
           1
           1
           1
           1
           1
           1
           1
           1
           1
           1
           1
           1
           1
           1
           1
           1
           1
           1
           1
           1
           1
           1
           1
           1
           1
           1
           1
           1
           1
           1
           1
           1
           1
           1
           1
           1
           1
           1
           1
           1
           1
           1
           1
           1
           1
           1
           1
           1
           1
           1
           1
           1
           1
           1
           1
           1
           1
           1
           1
           1
           1
           1
           1
           1
           1
           1
           1
           1
           1
           1
           1
           1
           1
           1
           1
           1
           1
           1
           1
           1
           1
           1
           1
           1
           1
           1
           1
           1
           1
           1
           1
           1
           1
           1
           1
           1
           1
           1
           1
           1
           1
           1
           1
           1
           1
           1
           1
           1
           1
           1
           1
           1
           1
           1
           1
           1
           1
           1
           1
           1
           1
           1
           1
           1
           1
           1
           1
           1
           1
           1
           1
           1
           1
           1
           1
           1
           1
           1
           1
           1
           1
           1
           1
           1
           1
           1
           1
           1
           1
           1
           1
           1
           1
           1
           1
           1
           1
           1
           1
           1
           1
           1
           1
           1
           1
           1
           1
           1
           1
           1
           1
           1
           1
           1
           1
           1
           1
           1
           1
           1
           1
           1
           1
           1
           1
           1
           1
           1
           1
           1
           1
           1
           1
           1
           1
           1
           1
           1
           1
           1
           1
           1
           1
           1
           1
           1
           1
           1
           1
           1
           1
           1
           1
           1
           1
           1
           1
           1
           1
           1
           1
           1
           1
           1
           1
           1
           1
           1
           1
           1
           1
           1
           1
           1
           1
           1
           1
           1
           1
           1
           1
           1
           1
           1
           1
           1
           1
           1
           1
           1
           1
           1
           1
           1
           1
           1
           1
           1
           1
           1
           1
           1
           1
           1
           1
           1
           1
           1
           1
           1
           1
           1
           1
           1
           1
           1
           1
           1
           1
           1
           1
           1
           1
           1
           1
           1
           1
           1
           1
           1
           1
           1
           1
           1
           1
           1
           1
           1
           1
           1
           1
           1
           1
           1
           1
           1
           1
           1
           1
           1
           1
           1
           1
           1
           1
           1
           1
           1
           1
           1
           1
           1
           1
           1
           1
           1
           1
           1
           1
           1
           1
           1
           1
           1
           1
           1
           1
           1
           1
           1
           1
           1
           1
           1
           1
           1
           1
           1
           1
           1
           1
           1
           1
           1
           1
           1
           1
           1
           1
           1
           1
           1
           1
           1
           1
           1
           1
           1
           1
           1
           1
           1
           1
           1
           1
           1
           1
           1
           1
           1
           1
           1
           1
           1
           1
           1
           1
           1
           1
           1
           1
           1
           1
           1
           1
           1
           1
           1
           1
           1
           1
           1
           1
           1
           1
           1
           1
           1
           1
           1
           1
           1
           1
           1
           1
           1
           1
           1
           1
           1
           1
           1
           1
           1
           1
           1
           1
           1
           1
           1
           1
           1
           1
           1
           1
           1
           1
           1
           1
           1
           1
           1
           1
           1
           1
           1
           1
           1
           1
           1
           1
           1
           1
           1
           1
           1
           1
           1
           1
           1
           1
           1
           1
           1
           1
           1
           1
           1
           1
           1
           1
           1
           1
           1
           1
           1
           1
           1
           1
           1
           1
           1
           1
           1
           1
           1
           1
           1
           1
           1
           1
           1
           1
           1
           1
           1
           1
           1
           1
           1
           1
           1
           1
           1
           1
           1
           1
           1
           1
           1
           1
           1
           1
           1
           1
           1
           1
           1
           1
           1
           1
           1
           1
           1
           1
           1
           1
           1
           1
           1
           1
           1
           1
           1
           1
           1
           1
           1
           1
           1
           1
           1
           1
           1
           1
           1
           1
           1
           1
           1
           1
           1
           1
           1
           1
           1
           1
           1
           1
           1
           1
           1
           1
           1
           1
           1
           1
           1
           1
           1
           1
           1
           1
           1
           1
           1
           1
           1
           1
           1
           1
           1
           1
           1
           1
           1
           1
           1
           1
           1
           1
           1
           1
           1
           1
           1
           1
           1
           1
           1
           1
           1
           1
           1
           1
           1
           1
           1
           1
           1
           1
           1
           1
           1
           1
           1
           1
           1
           1
           1
           1
           1
           1
           1
           1
           1
           1
           1
           1
           1
           1
           1
           1
           1
           1
           1
           1
           1
           1
           1
           1
           1
           1
           1
           1
           1
           1
           1
           1
           1
           1
           1
           1
           1
           1
           1
           1
           1
           1
           1
           1
           1
           1
           1
           1
           1
           1
           1
           1
           1
           1
           1
           1
           1
           1
           1
           1
           1
           1
           1
           1
           1
           1
           1
           1
           1
           1
           1
           1
           1
           1
           1
           1
           1
           1
           1
           1
           1
           1
           1
           1
           1
           1
           1
           1
           1
           1
           1
           1
           1
           1
           1
           1
           1
           1
           1
           1
           1
           1
           1
           1
           1
           1
           1
           1
           1
           1
           1
           1
           1
           1
           1
           1
           1
           1
           1
           1
           1
           1
           1
           1
           1
           1
           1
           1
           1
           1
           1
           1
           1
           1
           1
           1
           1
           1
           1
           1
           1
           1
           1
           1
           1
           1
           1
           1
           1
           1
           1
           1
           1
           1
           1
           1
           1
           1
           1
           1
           1
           1
           1
           1
           1
           1
           1
           1
           1
           1
           1
           1
           1
           1
           1
           1
           1
           1
           1
           1
           1
           1
           1
           1
           1
           1
           1
           1
           1
           1
           1
           1
           1
           1
           1
           1
           1
           1
           1
           1
           1
           1
           1
           1
           1
           1
           1
           1
           1
           1
           1
           1
           1
           1
           1
           1
           1
           1
           1
           1
           1
           1
           1
           1
           1
           1
           1
           1
           1
           1
           1
           1
           1
           1
           1
           1
           1
           1
           1
           1
           1
           1
           1
           1
           1
           1
           1
           1
           1
           1
           1
           1
           1
           1
           1
           1
           1
           1
           1
           1
           1
           1
           1
           1
           1
           1
           1
           1
           1
           1
           1
           1
           1
           1
           1
           1
           1
           1
           1
           1
           1
           1
           1
           1
           1
           1
           1
           1
           1
           1
           1
           1
           1
           1
           1
           1
           1
           1
           1
           1
           1
           1
           1
           1
           1
           1
           1
           1
           1
           1
           1
           1
           1
           1
           1
           1
           1
           1
           1
           1
           1
           1
           1
           1
           1
           1
           1
           1
           1
           1
           1
           1
           1
           1
           1
           1
           1
           1
           1
           1
           1
           1
           1
           1
           1
           1
           1
           1
           1
           1
           1
           1
           1
           1
           1
           1
           1
           1
           1
           1
           1
           1
           1
           1
           1
           1
           1
           1
           1
           1
           1
           1
           1
           1
           1
           1
           1
           1
           1
           1
           1
           1
           1
           1
           1
           1
           1
           1
           1
           1
           1
           1
           1
           1
           1
           1
           1
           1
           1
           1
           1
           1
           1
           1
           1
           1
           1
           1
           1
           1
           1
           1
           1
           1
           1
           1
           1
           1
           1
           1
           1
           1
           1
           1
           1
           1
           1
           1
           1
           1
           1
           1
           1
           1
           1
           1
           1
           1
           1
           1
           1
           1
           1
           1
           1
           1
           1
           1
           1
           1
           1
           1
           1
           1
           1
           1
           1
           1
           1
           1
           1
           1
           1
           1
           1
           1
           1
           1
           1
           1
           1
           1
           1
           1
           1
           1
           1
           1
           1
           1
           1
           1
           1
           1
           1
           1
           1
           1
           1
           1
           1
           1
           1
           1
           1
           1
           1
           1
           1
           1
           1
           1
           1
           1
           1
           1
           1
           1
           1
           1
           1
           1
           1
           1
           1
           1
           1
           1
           1
           1
           1
           1
           1
           1
           1
           1
           1
           1
           1
           1
           1
           1
           1
           1
           1
           1
           1
           1
           1
           1
           1
           1
           1
           1
           1
           1
           1
           1
           1
           1
           1
           1
           1
           1
           1
           1
           1
           1
           1
           1
           1
           1
           1
           1
           1
           1
           1
           1
           1
           1
           1
           1
           1
           1
           1
           1
           1
           1
           1
           1
           1
           1
           1
           1
           1
           1
           1
           1
           1
           1
           1
           1
           1
           1
           1
           1
           1
           1
           1
           1
           1
           1
           1
           1
           1
           1
           1
           1
           1
           1
           1
           1
           1
           1
           1
           1
           1
           1
           1
           1
           1
           1
           1
           1
           1
           1
           1
           1
           1
           1
           1
           1
           1
           1
           1
           1
           1
           1
           1
           1
           1
           1
           1
           1
           1
           1
           1
           1
           1
           1
           1
           1
           1
           1
           1
           1
           1
           1
           1
           1
           1
           1
           1
           1
           1
           1
           1
           1
           1
           1
           1
           1
           1
           1
           1
           1
           1
           1
           1
           1
           1
           1
           1
           1
           1
           1
           1
           1
           1
           1
           1
           1
           1
           1
           1
           1
           1
           1
           1
           1
           1
           1
           1
           1
           1
           1
           1
           1
           1
           1
           1
           1
           1
           1
           1
           1
           1
           1
           1
           1
           1
           1
           1
           1
           1
           1
           1
           1
           1
           1
           1
           1
           1
           1
           1
           1
           1
           1
           1
           1
           1
           1
           1
           1
           1
           1
           1
           1
           1
           1
           1
           1
           1
           1
           1
           1
           1
           1
           1
           1
           1
           1
           1
           1
           1
           1
           1
           1
           1
           1
           1
           1
           1
           1
           1
           1
           1
           1
           1
           1
           1
           1
           1
           1
           1
           1
           1
           1
           1
           1
           1
           1
           1
           1
           1
           1
           1
           1
           1
           1
           1
           1
           1
           1
           1
           1
           1
           1
           1
           1
           1
           1
           1
           1
           1
           1
           1
           1
           1
           1
           1
           1
           1
           1
           1
           1
           1
           1
           1
           1
           1
           1
           1
           1
           1
           1
           1
           1
           1
           1
           1
           1
           1
           1
           1
           1
           1
           1
           1
           1
           1
           1
           1
           1
           1
           1
           1
           1
           1
           1
           1
           1
           1
           1
           1
           1
           1
           1
           1
           1
           1
           1
           1
           1
           1
           1
           1
           1
           1
           1
           1
           1
           1
           1
           1
           1
           1
           1
           1
           1
           1
           1
           1
           1
           1
           1
           1
           1
           1
           1
           1
           1
           1
           1
           1
           1
           1
           1
           1
           1
           1
           1
           1
           1
           1
           1
           1
           1
           1
           1
           1
           1
           1
           1
           1
           1
           1
           1
           1
           1
           1
           1
           1
           1
           1
           1
           1
           1
           1
           1
           1
           1
           1
           1
           1
           1
           1
           1
           1
           1
           1
           1
           1
           1
           1
           1
           1
           1
           1
           1
           1
           1
           1
           1
           1
           1
           1
           1
           1
           1
           1
           1
           1
           1
           1
           1
           1
           1
           1
           1
           1
           1
           1
           1
           1
           1
           1
           1
           1
           1
           1
           1
           1
           1
           1
           1
           1
           1
           1
           1
           1
           1
           1
           1
           1
           1
           1
           1
           1
           1
           1
           1
           1
           1
           1
           1
           1
           1
           1
           1
           1
           1
           1
           1
           1
           1
           1
           1
           1
           1
           1
           1
           1
           1
           1
           1
           1
           1
           1
           1
           1
           1
           1
           1
           1
           1
           1
           1
           1
           1
           1
           1
           1
           1
           1
           1
           1
           1
           1
           1
           1
           1
           1
           1
           1
           1
           1
           1
           1
           1
           1
           1
           1
           1
           1
           1
           1
           1
           1
           1
           1
           1
           1
           1
           1
           1
           1
           1
           1
           1
           1
           1
           1
           1
           1
           1
           1
           1
           1
           1
           1
           1
           1
           1
           1
           1
           1
           1
           1
           1
           1
           1
           1
           1
           1
           1
           1
           1
           1
           1
           1
           1
           1
           1
           1
           1
           1
           1
           1
           1
           1
           1
           1
           1
           1
           1
           1
           1
           1
           1
           1
           1
           1
           1
           1
           1
           1
           1
           1
           1
           1
           1
           1
           1
           1
           1
           1
           1
           1
           1
           1
           1
           1
           1
           1
           1
           1
           1
           1
           1
           1
           1
           1
           1
           1
           1
           1
           1
           1
           1
           1
           1
           1
           1
           1
           1
           1
           1
           1
           1
           1
           1
           1
           1
           1
           1
           1
           1
           1
           1
           1
           1
           1
           1
           1
           1
           1
           1
           1
           1
           1
           1
           1
           1
           1
           1
           1
           1
           1
           1
           1
           1
           1
           1
           1
           1
           1
           1
           1
           1
           1
           1
           1
           1
           1
           1
           1
           1
           1
           1
           1
           1
           1
           1
           1
           1
           1
           1
           1
           1
           1
           1
           1
           1
           1
           1
           1
           1
           1
           1
           1
           1
           1
           1
           1
           1
           1
           1
           1
           1
           1
           1
           1
           1
           1
           1
           1
           1
           1
           1
           1
           1
           1
           1
           1
           1
           1
           1
           1
           1
           1
           1
           1
           1
           1
           1
           1
           1
           1
           1
           1
           1
           1
           1
           1
           1
           1
           1
           1
           1
           1
           1
           1
           1
           1
           1
           1
           1
           1
           1
           1
           1
           1
           1
           1
           1
           1
           1
           1
           1
           1
           1
           1
           1
           1
           1
           1
           1
           1
           1
           1
           1
           1
           1
           1
           1
           1
           1
           1
           1
           1
           1
           1
           1
           1
           1
           1
           1
           1
           1
           1
           1
           1
           1
           1
           1
           1
           1
           1
           1
           1
           1
           1
           1
           1
           1
           1
           1
           1
           1
           1
           1
           1
           1
           1
           1
           1
           1
           1
           1
           1
           1
           1
           1
           1
           1
           1
           1
           1
           1
           1
           1
           1
           1
           1
           1
           1
           1
           1
           1
           1
           1
           1
           1
           1
           1
           1
           1
           1
           1
           1
           1
           1
           1
           1
           1
           1
           1
           1
           1
           1
           1
           1
           1
           1
           1
           1
           1
           1
           1
           1
           1
           1
           1
           1
           1
           1
           1
           1
           1
           1
           1
           1
           1
           1
           1
           1
           1
           1
           1
           1
           1
           1
           1
           1
           1
           1
           1
           1
           1
           1
           1
           1
           1
           1
           1
           1
           1
           1
           1
           1
           1
           1
           1
           1
           1
           1
           1
           1
           1
           1
           1
           1
           1
           1
           1
           1
           1
           1
           1
           1
           1
           1
           1
           1
           1
           1
           1
           1
           1
           1
           1
           1
           1
           1
           1
           1
           1
           1
           1
           1
           1
           1
           1
           1
           1
           1
           1
           1
           1
           1
           1
           1
           1
           1
           1
           1
           1
           1
           1
           1
           1
           1
           1
           1
           1
           1
           1
           2
           2
           2
           2
           2
           2
           2
           2
           2
           2
           2
           2
           2
           2
           2
           2
           2
           2
           2
           2
           2
           2
           2
           2
           2
           2
           2
           2
           2
           2
           2
           2
           2
           2
           2
           2
           2
           2
           2
           2
           2
           2
           2
           2
           2
           2
           2
           2
           2
           2
           2
           2
           2
           2
           2
           2
           2
           2
           2
           2
           2
           2
           2
           2
           2
           2
           2
           2
           2
           2
           2
           2
           2
           2
           2
           2
           2
           2
           2
           2
           2
           2
           2
           2
           2
           2
           2
           2
           2
           2
           2
           2
           2
           2
           2
           2
           2
           2
           2
           2
           2
           2
           2
           2
           2
           2
           2
           2
           2
           2
           2
           2
           2
           2
           2
           2
           2
           2
           2
           2
           2
           2
           2
           2
           2
           2
           2
           2
           2
           2
           2
           2
           2
           2
           2
           2
           2
           2
           2
           2
           2
           2
           2
           2
           2
           2
           2
           2
           2
           2
           2
           2
           2
           2
           2
           2
           2
           2
           2
           2
           2
           2
           2
           2
           2
           2
           2
           2
           2
           2
           2
           2
           2
           2
           2
           2
           2
           2
           2
           2
           2
           2
           2
           2
           2
           2
           2
           2
           2
           2
           2
           2
           2
           2
           2
           2
           2
           2
           2
           2
           2
           2
           2
           2
           2
           2
           2
           2
           2
           2
           2
           2
           2
           2
           2
           2
           2
           2
           2
           2
           2
           2
           2
           2
           2
           2
           2
           2
           2
           2
           2
           2
           2
           2
           2
           2
           2
           2
           2
           2
           2
           2
           2
           2
           2
           2
           2
           2
           2
           2
           2
           2
           2
           2
           2
           2
           2
           2
           2
           2
           2
           2
           2
           2
           2
           2
           2
           2
           2
           2
           2
           2
           2
           2
           2
           2
           2
           2
           2
           2
           2
           2
           2
           2
           2
           2
           2
           2
           2
           2
           2
           2
           2
           2
           2
           2
           2
           2
           2
           2
           2
           2
           2
           2
           2
           2
           2
           2
           2
           2
           2
           2
           2
           2
           2
           2
           2
           2
           2
           2
           2
           2
           2
           2
           2
           2
           2
           2
           2
           2
           2
           2
           2
           2
           2
           2
           2
           2
           2
           2
           2
           2
           2
           2
           2
           2
           2
           2
           2
           2
           2
           2
           2
           2
           2
           2
           2
           2
           2
           2
           2
           2
           2
           2
           2
           2
           2
           2
           2
           2
           2
           2
           2
           2
           2
           2
           2
           2
           2
           2
           2
           2
           2
           2
           2
           2
           2
           2
           2
           2
           2
           2
           2
           2
           2
           2
           2
           2
           2
           2
           2
           2
           2
           2
           2
           2
           2
           2
           2
           2
           2
           2
           2
           2
           2
           2
           2
           2
           2
           2
           2
           2
           2
           2
           2
           2
           2
           2
           2
           2
           2
           2
           2
           2
           2
           2
           2
           2
           2
           2
           2
           2
           2
           2
           2
           2
           2
           2
           2
           2
           2
           2
           2
           2
           2
           2
           2
           2
           2
           2
           2
           2
           2
           2
           2
           2
           2
           2
           2
           2
           2
           2
           2
           2
           2
           2
           2
           2
           2
           2
           2
           2
           2
           2
           2
           2
           2
           2
           2
           2
           2
           2
           2
           2
           2
           2
           2
           2
           2
           2
           2
           2
           2
           2
           2
           2
           2
           2
           2
           2
           2
           2
           2
           2
           2
           2
           2
           2
           2
           2
           2
           2
           2
           2
           2
           2
           2
           2
           2
           2
           2
           2
           2
           2
           2
           2
           2
           2
           2
           2
           2
           2
           2
           2
           2
           2
           2
           2
           2
           2
           2
           2
           2
           2
           2
           2
           2
           2
           2
           2
           2
           2
           2
           2
           2
           2
           2
           2
           2
           2
           2
           2
           2
           2
           2
           2
           2
           2
           2
           2
           2
           2
           2
           2
           2
           2
           2
           2
           2
           2
           2
           2
           2
           2
           2
           2
           2
           2
           2
           2
           2
           2
           2
           2
           2
           2
           2
           2
           2
           2
           2
           2
           2
           2
           2
           2
           2
           2
           2
           2
           2
           2
           2
           2
           2
           2
           2
           2
           2
           2
           2
           2
           2
           2
           2
           2
           2
           2
           2
           2
           2
           2
           2
           2
           2
           2
           2
           2
           2
           2
           2
           2
           2
           2
           2
           2
           2
           2
           2
           2
           2
           2
           2
           2
           2
           2
           2
           2
           2
           2
           2
           2
           2
           2
           2
           2
           2
           2
           2
           2
           2
           2
           2
           2
           2
           2
           2
           2
           2
           2
           2
           2
           2
           2
           2
           2
           2
           2
           2
           2
           2
           2
           2
           2
           2
           2
           2
           2
           2
           2
           2
           2
           2
           2
           2
           2
           2
           2
           2
           2
           2
           2
           2
           2
           2
           2
           2
           2
           2
           2
           2
           2
           2
           2
           2
           2
           2
           2
           2
           2
           2
           2
           2
           2
           2
           2
           2
           2
           2
           2
           2
           2
           2
           2
           2
           2
           2
           2
           2
           2
           2
           2
           2
           2
           2
           2
           2
           2
           2
           2
           2
           2
           2
           2
           2
           2
           2
           2
           2
           2
           2
           2
           2
           2
           2
           2
           2
           2
           2
           2
           2
           2
           2
           2
           2
           2
           2
           2
           2
           2
           2
           2
           2
           2
           2
           2
           2
           2
           2
           2
           2
           2
           2
           2
           2
           2
           2
           2
           2
           2
           2
           2
           2
           2
           2
           2
           2
           2
           2
           2
           2
           2
           2
           2
           2
           2
           2
           2
           2
           2
           2
           2
           2
           2
           2
           2
           2
           2
           2
           2
           2
           2
           2
           2
           2
           2
           2
           2
           2
           2
           2
           2
           2
           2
           2
           2
           2
           2
           2
           2
           2
           2
           2
           2
           2
           2
           2
           2
           2
           2
           2
           2
           2
           2
           2
           2
           2
           2
           2
           2
           2
           2
           2
           2
           2
           2
           2
           2
           2
           2
           2
           2
           2
           2
           2
           2
           2
           2
           2
           2
           2
           2
           2
           2
           2
           2
           2
           2
           2
           2
           2
           2
           2
           2
           2
           2
           2
           2
           2
           2
           2
           2
           2
           2
           2
           2
           2
           2
           2
           2
           2
           2
           2
           2
           2
           2
           2
           2
           2
           2
           2
           2
           2
           2
           2
           2
           2
           2
           2
           2
           2
           2
           2
           2
           2
           2
           2
           2
           2
           2
           2
           2
           2
           2
           2
           2
           2
           2
           2
           2
           2
           2
           2
           2
           2
           2
           2
           2
           2
           2
           2
           2
           2
           2
           2
           2
           2
           2
           2
           2
           2
           2
           2
           2
           2
           2
           2
           2
           2
           2
           2
           2
           2
           2
           2
           2
           2
           2
           2
           2
           2
           2
           2
           2
           2
           2
           2
           2
           2
           2
           2
           2
           2
           2
           2
           2
           2
           2
           2
           2
           2
           2
           2
           2
           2
           2
           2
           2
           2
           2
           2
           2
           2
           2
           2
           2
           2
           2
           2
           2
           2
           2
           2
           2
           2
           2
           2
           2
           2
           2
           2
           2
           2
           2
           2
           2
           2
           2
           2
           2
           2
           2
           2
           2
           2
           2
           2
           2
           2
           2
           2
           2
           2
           2
           2
           2
           2
           2
           2
           2
           2
           2
           2
           2
           2
           2
           2
           2
           2
           2
           2
           2
           2
           2
           2
           2
           2
           2
           2
           2
           2
           2
           2
           2
           2
           2
           2
           2
           2
           2
           2
           2
           2
           2
           2
           2
           2
           2
           2
           2
           2
           2
           2
           2
           2
           2
           2
           2
           2
           2
           2
           2
           2
           2
           2
           2
           2
           2
           2
           2
           2
           2
           2
           2
           2
           2
           2
           2
           2
           2
           2
           2
           2
           2
           2
           2
           2
           2
           2
           2
           2
           2
           2
           2
           2
           2
           2
           2
           2
           2
           2
           2
           2
           2
           2
           2
           2
           2
           2
           2
           2
           2
           2
           2
           2
           2
           2
           2
           2
           2
           2
           2
           2
           2
           2
           2
           2
           2
           2
           2
           2
           2
           2
           2
           2
           2
           2
           2
           2
           2
           2
           2
           2
           2
           2
           2
           2
           2
           2
           2
           2
           2
           2
           2
           2
           2
           2
           2
           2
           2
           2
           2
           2
           2
           2
           2
           2
           2
           2
           2
           2
           2
           2
           2
           2
           2
           2
           2
           2
           2
           2
           2
           2
           2
           2
           2
           2
           2
           2
           2
           2
           2
           2
           2
           2
           2
           2
           2
           2
           2
           2
           2
           2
           2
           2
           2
           2
           2
           2
           2
           2
           2
           2
           2
           2
           2
           2
           2
           2
           2
           2
           2
           2
           2
           2
           2
           2
           2
           2
           2
           2
           2
           2
           2
           2
           2
           2
           2
           2
           2
           2
           2
           2
           2
           2
           2
           2
           2
           2
           2
           2
           2
           2
           2
           2
           2
           2
           2
           2
           2
           2
           2
           2
           2
           2
           2
           2
           2
           2
           2
           2
           2
           2
           2
           2
           2
           2
           2
           2
           2
           2
           2
           2
           2
           2
           2
           2
           2
           2
           2
           2
           2
           2
           2
           2
           2
           2
           2
           2
           2
           2
           2
           2
           2
           2
           2
           2
           2
           2
           2
           2
           2
           2
           2
           2
           2
           2
           2
           2
           2
           2
           2
           2
           2
           2
           2
           2
           2
           2
           2
           2
           2
           2
           2
           2
           2
           2
           2
           2
           2
           2
           2
           2
           2
           2
           2
           2
           2
           2
           2
           2
           2
           2
           2
           2
           2
           2
           2
           2
           2
           2
           2
           2
           2
           2
           2
           2
           2
           2
           2
           2
           2
           2
           2
           2
           2
           2
           2
           2
           2
           2
           2
           2
           2
           2
           2
           2
           2
           2
           2
           2
           2
           2
           2
           2
           2
           2
           2
           2
           2
           2
           2
           2
           2
           2
           2
           2
           2
           2
           2
           2
           2
           2
           2
           2
           2
           2
           2
           2
           2
           2
           2
           2
           2
           2
           2
           2
           2
           2
           2
           2
           2
           2
           2
           2
           2
           2
           2
           2
           2
           2
           2
           2
           2
           2
           2
           2
           2
           2
           2
           2
           2
           2
           2
           2
           2
           2
           2
           2
           2
           2
           2
           2
           2
           2
           2
           2
           2
           2
           2
           2
           2
           2
           2
           2
           2
           2
           2
           2
           2
           2
           2
           2
           2
           2
           2
           2
           2
           2
           2
           2
           2
           2
           2
           2
           2
           2
           2
           2
           2
           2
           2
           2
           2
           2
           2
           2
           2
           2
           2
           2
           2
           2
           2
           2
           2
           2
           2
           2
           2
           2
           2
           2
           2
           2
           2
           2
           2
           2
           2
           2
           2
           2
           2
           2
           2
           2
           2
           2
           2
           2
           2
           2
           2
           2
           2
           2
           2
           2
           2
           2
           2
           2
           2
           2
           2
           2
           2
           2
           2
           2
           2
           2
           2
           2
           2
           2
           2
           2
           2
           2
           2
           2
           2
           2
           2
           2
           2
           2
           2
           2
           2
           2
           2
           2
           2
           2
           2
           2
           2
           2
           2
           2
           2
           2
           2
           2
           2
           2
           2
           2
           2
           2
           2
           2
           2
           2
           2
           2
           2
           2
           2
           2
           2
           2
           2
           2
           2
           2
           2
           2
           2
           2
           2
           2
           2
           2
           2
           2
           2
           2
           2
           2
           2
           2
           2
           2
           2
           2
           2
           2
           2
           2
           2
           2
           2
           2
           2
           2
           2
           2
           2
           2
           2
           2
           2
           2
           2
           2
           2
           2
           2
           2
           2
           2
           2
           2
           2
           2
           2
           2
           2
           2
           2
           2
           2
           2
           2
           2
           2
           2
           2
           2
           2
           2
           2
           2
           2
           2
           2
           2
           2
           2
           2
           2
           2
           2
           2
           2
           2
           2
           2
           2
           2
           2
           2
           2
           2
           2
           2
           2
           2
           2
           2
           2
           2
           2
           2
           2
           2
           2
           2
           2
           2
           2
           2
           2
           2
           2
           2
           2
           2
           2
           2
           2
           2
           2
           2
           2
           2
           2
           2
           2
           2
           2
           2
           2
           2
           2
           2
           2
           2
           2
           2
           2
           2
           2
           2
           2
           2
           2
           2
           2
           2
           2
           2
           2
           2
           2
           2
           2
           2
           2
           2
           2
           2
           2
           2
           2
           2
           2
           2
           2
           2
           2
           2
           2
           2
           2
           2
           2
           2
           2
           2
           2
           2
           2
           2
           2
           2
           2
           2
           2
           2
           2
           2
           2
           2
           2
           2
           2
           2
           2
           2
           2
           2
           2
           2
           2
           2
           2
           2
           2
           2
           2
           2
           2
           2
           2
           2
           2
           2
           2
           2
           2
           2
           2
           2
           2
           2
           2
           2
           2
           2
           2
           2
           2
           2
           2
           2
           2
           2
           2
           2
           2
           2
           2
           2
           2
           2
           2
           2
           2
           2
           2
           2
           2
           2
           2
           2
           2
           2
           2
           2
           2
           2
           2
           2
           2
           2
           2
           2
           2
           2
           2
           2
           2
           2
           2
           2
           2
           2
           2
           2
           2
           2
           2
           2
           2
           2
           2
           2
           2
           2
           2
           2
           2
           2
           2
           2
           2
           2
           2
           2
           2
           2
           2
           2
           2
           2
           2
           2
           2
           2
           2
           2
           2
           2
           2
           2
           2
           2
           2
           2
           2
           2
           2
           2
           2
           2
           2
           2
           2
           2
           2
           2
           2
           2
           2
           2
           2
           2
           2
           2
           2
           2
           2
           2
           2
           2
           2
           2
           2
           2
           2
           2
           2
           2
           2
           2
           2
           2
           2
           2
           2
           2
           2
           2
           2
           2
           2
           2
           2
           2
           2
           2
           2
           2
           2
           2
           2
           2
           2
           2
           2
           2
           2
           2
           2
           2
           2
           2
           2
           2
           2
           2
           2
           2
           2
           2
           2
           2
           2
           2
           2
           2
           2
           2
           2
           2
           2
           2
           2
           2
           2
           2
           2
           2
           2
           2
           2
           2
           2
           2
           2
           2
           2
           2
           2
           2
           2
           2
           2
           2
           2
           2
           2
           2
           2
           2
           2
           2
           2
           2
           2
           2
           2
           2
           2
           2
           2
           2
           2
           2
           2
           2
           2
           2
           2
           2
           2
           2
           2
           2
           2
           2
           2
           2
           2
           2
           2
           2
           2
           2
           2
           2
           2
           2
           2
           2
           2
           2
           2
           2
           2
           2
           2
           2
           2
           2
           2
           2
           2
           2
           2
           2
           2
           2
           2
           2
           2
           2
           2
           2
           2
           2
           2
           2
           2
           2
           2
           2
           2
           2
           2
           2
           2
           2
           2
           2
           2
           2
           2
           2
           2
           2
           2
           2
           2
           2
           2
           2
           2
           2
           2
           2
           2
           2
           2
           2
           2
           2
           2
           2
           2
           2
           2
           2
           2
           2
           2
           2
           2
           2
           2
           2
           2
           2
           2
           2
           2
           2
           2
           2
           2
           2
           2
           2
           2
           2
           2
           2
           2
           2
           2
           2
           2
           2
           2
           2
           2
           2
           2
           2
           2
           2
           2
           2
           2
           2
           2
           2
           2
           2
           2
           2
           2
           2
           2
           2
           2
           2
           2
           2
           2
           2
           2
           2
           2
           2
           2
           2
           2
           2
           2
           2
           2
           2
           2
           2
           2
           2
           2
           2
           2
           2
           2
           2
           2
           2
           2
           2
           2
           2
           2
           2
           2
           2
           2
           2
           2
           2
           2
           2
           2
           2
           2
           2
           2
           2
           2
           2
           2
           2
           2
           2
           2
           2
           2
           2
           2
           2
           2
           2
           2
           2
           2
           2
           2
           2
           2
           2
           2
           2
           2
           2
           2
           2
           2
           2
           2
           2
           2
           2
           2
           2
           2
           2
           2
           2
           2
           2
           2
           2
           2
           2
           2
           2
           2
           2
</DataArray>
</CellData>
</Piece>
</UnstructuredGrid>
</VTKFile>
