<VTKFile type="UnstructuredGrid" version="1,0" byte_order="LittleEndian">
<UnstructuredGrid>
<Piece NumberOfPoints="5802" NumberOfCells="5680">
<Points>
<DataArray type="Float64" NumberOfComponents="3" format="ascii">
-0.1100000000000E+01 -0.4731587125634E+01  0.0000000000000E+00
 0.0000000000000E+00 -0.4731587125634E+01  0.0000000000000E+00
 0.1100000000000E+01 -0.4731587125634E+01  0.0000000000000E+00
-0.1191315091097E+01 -0.1825930012610E+01  0.0000000000000E+00
-0.5956575398395E+00 -0.1755172846926E+01  0.0000000000000E+00
 0.5956575512579E+00 -0.1755172847830E+01  0.0000000000000E+00
 0.1191315091097E+01 -0.1825930012610E+01  0.0000000000000E+00
-0.1487255332335E+01  0.3711246317436E+00  0.0000000000000E+00
 0.1487255329206E+01  0.3711246337271E+00  0.0000000000000E+00
-0.6187500000000E+00 -0.4973806884503E+00  0.0000000000000E+00
 0.6187500000000E+00 -0.4973806884503E+00  0.0000000000000E+00
-0.1072500000000E+01 -0.4731587125634E+01  0.0000000000000E+00
-0.1045000000000E+01 -0.4731587125634E+01  0.0000000000000E+00
-0.1017500000000E+01 -0.4731587125634E+01  0.0000000000000E+00
-0.9900000000000E+00 -0.4731587125634E+01  0.0000000000000E+00
-0.9625000000000E+00 -0.4731587125634E+01  0.0000000000000E+00
-0.9350000000000E+00 -0.4731587125634E+01  0.0000000000000E+00
-0.9075000000000E+00 -0.4731587125634E+01  0.0000000000000E+00
-0.8800000000000E+00 -0.4731587125634E+01  0.0000000000000E+00
-0.8525000000000E+00 -0.4731587125634E+01  0.0000000000000E+00
-0.8250000000000E+00 -0.4731587125634E+01  0.0000000000000E+00
-0.7975000000000E+00 -0.4731587125634E+01  0.0000000000000E+00
-0.7700000000000E+00 -0.4731587125634E+01  0.0000000000000E+00
-0.7425000000000E+00 -0.4731587125634E+01  0.0000000000000E+00
-0.7150000000000E+00 -0.4731587125634E+01  0.0000000000000E+00
-0.6875000000000E+00 -0.4731587125634E+01  0.0000000000000E+00
-0.6600000000000E+00 -0.4731587125634E+01  0.0000000000000E+00
-0.6325000000000E+00 -0.4731587125634E+01  0.0000000000000E+00
-0.6050000000000E+00 -0.4731587125634E+01  0.0000000000000E+00
-0.5775000000000E+00 -0.4731587125634E+01  0.0000000000000E+00
-0.5500000000000E+00 -0.4731587125634E+01  0.0000000000000E+00
-0.5225000000000E+00 -0.4731587125634E+01  0.0000000000000E+00
-0.4950000000000E+00 -0.4731587125634E+01  0.0000000000000E+00
-0.4675000000000E+00 -0.4731587125634E+01  0.0000000000000E+00
-0.4400000000000E+00 -0.4731587125634E+01  0.0000000000000E+00
-0.4125000000000E+00 -0.4731587125634E+01  0.0000000000000E+00
-0.3850000000000E+00 -0.4731587125634E+01  0.0000000000000E+00
-0.3575000000000E+00 -0.4731587125634E+01  0.0000000000000E+00
-0.3300000000000E+00 -0.4731587125634E+01  0.0000000000000E+00
-0.3025000000000E+00 -0.4731587125634E+01  0.0000000000000E+00
-0.2750000000000E+00 -0.4731587125634E+01  0.0000000000000E+00
-0.2475000000000E+00 -0.4731587125634E+01  0.0000000000000E+00
-0.2200000000000E+00 -0.4731587125634E+01  0.0000000000000E+00
-0.1925000000000E+00 -0.4731587125634E+01  0.0000000000000E+00
-0.1650000000000E+00 -0.4731587125634E+01  0.0000000000000E+00
-0.1375000000000E+00 -0.4731587125634E+01  0.0000000000000E+00
-0.1100000000000E+00 -0.4731587125634E+01  0.0000000000000E+00
-0.8250000000000E-01 -0.4731587125634E+01  0.0000000000000E+00
-0.5500000000000E-01 -0.4731587125634E+01  0.0000000000000E+00
-0.2750000000000E-01 -0.4731587125634E+01  0.0000000000000E+00
 0.2750000000000E-01 -0.4731587125634E+01  0.0000000000000E+00
 0.5500000000000E-01 -0.4731587125634E+01  0.0000000000000E+00
 0.8250000000000E-01 -0.4731587125634E+01  0.0000000000000E+00
 0.1100000000000E+00 -0.4731587125634E+01  0.0000000000000E+00
 0.1375000000000E+00 -0.4731587125634E+01  0.0000000000000E+00
 0.1650000000000E+00 -0.4731587125634E+01  0.0000000000000E+00
 0.1925000000000E+00 -0.4731587125634E+01  0.0000000000000E+00
 0.2200000000000E+00 -0.4731587125634E+01  0.0000000000000E+00
 0.2475000000000E+00 -0.4731587125634E+01  0.0000000000000E+00
 0.2750000000000E+00 -0.4731587125634E+01  0.0000000000000E+00
 0.3025000000000E+00 -0.4731587125634E+01  0.0000000000000E+00
 0.3300000000000E+00 -0.4731587125634E+01  0.0000000000000E+00
 0.3575000000000E+00 -0.4731587125634E+01  0.0000000000000E+00
 0.3850000000000E+00 -0.4731587125634E+01  0.0000000000000E+00
 0.4125000000000E+00 -0.4731587125634E+01  0.0000000000000E+00
 0.4400000000000E+00 -0.4731587125634E+01  0.0000000000000E+00
 0.4675000000000E+00 -0.4731587125634E+01  0.0000000000000E+00
 0.4950000000000E+00 -0.4731587125634E+01  0.0000000000000E+00
 0.5225000000000E+00 -0.4731587125634E+01  0.0000000000000E+00
 0.5500000000000E+00 -0.4731587125634E+01  0.0000000000000E+00
 0.5775000000000E+00 -0.4731587125634E+01  0.0000000000000E+00
 0.6050000000000E+00 -0.4731587125634E+01  0.0000000000000E+00
 0.6325000000000E+00 -0.4731587125634E+01  0.0000000000000E+00
 0.6600000000000E+00 -0.4731587125634E+01  0.0000000000000E+00
 0.6875000000000E+00 -0.4731587125634E+01  0.0000000000000E+00
 0.7150000000000E+00 -0.4731587125634E+01  0.0000000000000E+00
 0.7425000000000E+00 -0.4731587125634E+01  0.0000000000000E+00
 0.7700000000000E+00 -0.4731587125634E+01  0.0000000000000E+00
 0.7975000000000E+00 -0.4731587125634E+01  0.0000000000000E+00
 0.8250000000000E+00 -0.4731587125634E+01  0.0000000000000E+00
 0.8525000000000E+00 -0.4731587125634E+01  0.0000000000000E+00
 0.8800000000000E+00 -0.4731587125634E+01  0.0000000000000E+00
 0.9075000000000E+00 -0.4731587125634E+01  0.0000000000000E+00
 0.9350000000000E+00 -0.4731587125634E+01  0.0000000000000E+00
 0.9625000000000E+00 -0.4731587125634E+01  0.0000000000000E+00
 0.9900000000000E+00 -0.4731587125634E+01  0.0000000000000E+00
 0.1017500000000E+01 -0.4731587125634E+01  0.0000000000000E+00
 0.1045000000000E+01 -0.4731587125634E+01  0.0000000000000E+00
 0.1072500000000E+01 -0.4731587125634E+01  0.0000000000000E+00
-0.1161675590434E+01 -0.1821293974842E+01  0.0000000000000E+00
-0.1132018469080E+01 -0.1816772081031E+01  0.0000000000000E+00
-0.1102344135527E+01 -0.1812364599475E+01  0.0000000000000E+00
-0.1072653001422E+01 -0.1808071792594E+01  0.0000000000000E+00
-0.1042945459471E+01 -0.1803893913795E+01  0.0000000000000E+00
-0.1013221952450E+01 -0.1799831217138E+01  0.0000000000000E+00
-0.9834829017084E+00 -0.1795883946982E+01  0.0000000000000E+00
-0.9537287316532E+00 -0.1792052341512E+01  0.0000000000000E+00
-0.9239598612408E+00 -0.1788336631619E+01  0.0000000000000E+00
-0.8941767210493E+00 -0.1784737043031E+01  0.0000000000000E+00
-0.8643797539566E+00 -0.1781253796152E+01  0.0000000000000E+00
-0.8345693957871E+00 -0.1777887103664E+01  0.0000000000000E+00
-0.8047460850418E+00 -0.1774637171701E+01  0.0000000000000E+00
-0.7749102599775E+00 -0.1771504199483E+01  0.0000000000000E+00
-0.7450623578572E+00 -0.1768488379244E+01  0.0000000000000E+00
-0.7152028352234E+00 -0.1765589898169E+01  0.0000000000000E+00
-0.6853321404180E+00 -0.1762808935500E+01  0.0000000000000E+00
-0.6554507240472E+00 -0.1760145663610E+01  0.0000000000000E+00
-0.6255590388957E+00 -0.1757600247935E+01  0.0000000000000E+00
-0.5659320403842E+00 -0.1752877555980E+01  0.0000000000000E+00
-0.5361977827764E+00 -0.1750699115345E+01  0.0000000000000E+00
-0.5064551822954E+00 -0.1748637656849E+01  0.0000000000000E+00
-0.4767046834532E+00 -0.1746693307634E+01  0.0000000000000E+00
-0.4469467825907E+00 -0.1744866190914E+01  0.0000000000000E+00
-0.4171818756954E+00 -0.1743156416506E+01  0.0000000000000E+00
-0.3874104734057E+00 -0.1741564093885E+01  0.0000000000000E+00
-0.3576330176963E+00 -0.1740089321191E+01  0.0000000000000E+00
-0.3278499563594E+00 -0.1738732189839E+01  0.0000000000000E+00
-0.2980617833702E+00 -0.1737492785992E+01  0.0000000000000E+00
-0.2682689204519E+00 -0.1736371185422E+01  0.0000000000000E+00
-0.2384718656336E+00 -0.1735367459648E+01  0.0000000000000E+00
-0.2086710716336E+00 -0.1734481671049E+01  0.0000000000000E+00
-0.1788669979735E+00 -0.1733713874997E+01  0.0000000000000E+00
-0.1490601279746E+00 -0.1733064120054E+01  0.0000000000000E+00
-0.1192509059245E+00 -0.1732532446511E+01  0.0000000000000E+00
-0.8943981808141E-01 -0.1732118888112E+01  0.0000000000000E+00
-0.5962732433722E-01 -0.1731823470688E+01  0.0000000000000E+00
-0.2981389296327E-01 -0.1731646212812E+01  0.0000000000000E+00
 0.5727055635285E-08 -0.1731587125634E+01  0.0000000000000E+00
 0.2981390441730E-01 -0.1731646212857E+01  0.0000000000000E+00
 0.5962733579097E-01 -0.1731823470779E+01  0.0000000000000E+00
 0.8943982953471E-01 -0.1732118888248E+01  0.0000000000000E+00
 0.1192509173772E+00 -0.1732532446692E+01  0.0000000000000E+00
 0.1490601394265E+00 -0.1733064120281E+01  0.0000000000000E+00
 0.1788670094244E+00 -0.1733713875269E+01  0.0000000000000E+00
 0.2086710830833E+00 -0.1734481671367E+01  0.0000000000000E+00
 0.2384718770819E+00 -0.1735367460011E+01  0.0000000000000E+00
 0.2682689318987E+00 -0.1736371185830E+01  0.0000000000000E+00
 0.2980617948153E+00 -0.1737492786445E+01  0.0000000000000E+00
 0.3278499678026E+00 -0.1738732190338E+01  0.0000000000000E+00
 0.3576330291375E+00 -0.1740089321735E+01  0.0000000000000E+00
 0.3874104848446E+00 -0.1741564094474E+01  0.0000000000000E+00
 0.4171818871319E+00 -0.1743156417141E+01  0.0000000000000E+00
 0.4469467940246E+00 -0.1744866191594E+01  0.0000000000000E+00
 0.4767046948843E+00 -0.1746693308359E+01  0.0000000000000E+00
 0.5064551937236E+00 -0.1748637657619E+01  0.0000000000000E+00
 0.5361977942015E+00 -0.1750699116160E+01  0.0000000000000E+00
 0.5659320518060E+00 -0.1752877556840E+01  0.0000000000000E+00
 0.6255590497397E+00 -0.1757600248837E+01  0.0000000000000E+00
 0.6554507343169E+00 -0.1760145664505E+01  0.0000000000000E+00
 0.6853321501138E+00 -0.1762808936384E+01  0.0000000000000E+00
 0.7152028443456E+00 -0.1765589899036E+01  0.0000000000000E+00
 0.7450623664059E+00 -0.1768488380091E+01  0.0000000000000E+00
 0.7749102679531E+00 -0.1771504200305E+01  0.0000000000000E+00
 0.8047460924447E+00 -0.1774637172493E+01  0.0000000000000E+00
 0.8345694026177E+00 -0.1777887104422E+01  0.0000000000000E+00
 0.8643797602152E+00 -0.1781253796871E+01  0.0000000000000E+00
 0.8941767267363E+00 -0.1784737043707E+01  0.0000000000000E+00
 0.9239598663567E+00 -0.1788336632248E+01  0.0000000000000E+00
 0.9537287361985E+00 -0.1792052342089E+01  0.0000000000000E+00
 0.9834829056835E+00 -0.1795883947502E+01  0.0000000000000E+00
 0.1013221955855E+01 -0.1799831217596E+01  0.0000000000000E+00
 0.1042945462307E+01 -0.1803893914188E+01  0.0000000000000E+00
 0.1072653003690E+01 -0.1808071792917E+01  0.0000000000000E+00
 0.1102344137227E+01 -0.1812364599724E+01  0.0000000000000E+00
 0.1132018470213E+01 -0.1816772081202E+01  0.0000000000000E+00
 0.1161675591000E+01 -0.1821293974929E+01  0.0000000000000E+00
-0.1213355268613E+01 -0.1711966308233E+01  0.0000000000000E+00
-0.1238854526170E+01 -0.1598727811073E+01  0.0000000000000E+00
-0.1268466688037E+01 -0.1486497481512E+01  0.0000000000000E+00
-0.1303342965295E+01 -0.1375796643044E+01  0.0000000000000E+00
-0.1345040310075E+01 -0.1267489592785E+01  0.0000000000000E+00
-0.1392581470401E+01 -0.1161597043208E+01  0.0000000000000E+00
-0.1439083524730E+01 -0.1055246799568E+01  0.0000000000000E+00
-0.1480944100518E+01 -0.9469891138312E+00  0.0000000000000E+00
-0.1518131836329E+01 -0.8370360644333E+00  0.0000000000000E+00
-0.1551041415331E+01 -0.7257267337723E+00  0.0000000000000E+00
-0.1579720048034E+01 -0.6132533876738E+00  0.0000000000000E+00
-0.1603836412081E+01 -0.4997150980206E+00  0.0000000000000E+00
-0.1623384157755E+01 -0.3853015140723E+00  0.0000000000000E+00
-0.1638101487121E+01 -0.2701686503839E+00  0.0000000000000E+00
-0.1647164985397E+01 -0.1544579176162E+00  0.0000000000000E+00
-0.1649971232607E+01 -0.3842453929912E-01  0.0000000000000E+00
-0.1647980696334E+01  0.7761284988695E-01  0.0000000000000E+00
-0.1626874369891E+01  0.1914362508587E+00  0.0000000000000E+00
-0.1572796829836E+01  0.2935193328390E+00  0.0000000000000E+00
-0.1418305908641E+01  0.4022416062919E+00  0.0000000000000E+00
-0.1345676864211E+01  0.4236315892164E+00  0.0000000000000E+00
-0.1271121572232E+01  0.4368480112286E+00  0.0000000000000E+00
-0.1195563418735E+01  0.4416990799735E+00  0.0000000000000E+00
-0.1119906317278E+01  0.4384406277265E+00  0.0000000000000E+00
-0.1044756289719E+01  0.4290110284082E+00  0.0000000000000E+00
-0.9703274447726E+00  0.4149459401020E+00  0.0000000000000E+00
-0.8965853652262E+00  0.3976148229097E+00  0.0000000000000E+00
-0.8232882160705E+00  0.3784769972153E+00  0.0000000000000E+00
-0.7500778072402E+00  0.3590082550316E+00  0.0000000000000E+00
-0.6765282087393E+00  0.3408715871599E+00  0.0000000000000E+00
-0.6024721689929E+00  0.3249314759684E+00  0.0000000000000E+00
-0.5279626734789E+00  0.3112660660816E+00  0.0000000000000E+00
-0.4530942500529E+00  0.2997252351383E+00  0.0000000000000E+00
-0.3779502175627E+00  0.2901382908398E+00  0.0000000000000E+00
-0.3025960047097E+00  0.2823699994777E+00  0.0000000000000E+00
-0.2270833670538E+00  0.2763314545000E+00  0.0000000000000E+00
-0.1514548639988E+00  0.2719804032214E+00  0.0000000000000E+00
-0.7574795049362E-01  0.2693218404769E+00  0.0000000000000E+00
-0.1822076423075E-08  0.2684128743665E+00  0.0000000000000E+00
 0.7574794685078E-01  0.2693218403904E+00  0.0000000000000E+00
 0.1514548603582E+00  0.2719804030525E+00  0.0000000000000E+00
 0.2270833634172E+00  0.2763314542500E+00  0.0000000000000E+00
 0.3025960010827E+00  0.2823699991460E+00  0.0000000000000E+00
 0.3779502139414E+00  0.2901382904224E+00  0.0000000000000E+00
 0.4530942464462E+00  0.2997252346305E+00  0.0000000000000E+00
 0.5279626698826E+00  0.3112660654745E+00  0.0000000000000E+00
 0.6024721654224E+00  0.3249314752557E+00  0.0000000000000E+00
 0.6765282051910E+00  0.3408715863362E+00  0.0000000000000E+00
 0.7500778037128E+00  0.3590082541141E+00  0.0000000000000E+00
 0.8232882125500E+00  0.3784769962749E+00  0.0000000000000E+00
 0.8965853616918E+00  0.3976148220208E+00  0.0000000000000E+00
 0.9703274412081E+00  0.4149459393403E+00  0.0000000000000E+00
 0.1044756286115E+01  0.4290110278460E+00  0.0000000000000E+00
 0.1119906313643E+01  0.4384406274322E+00  0.0000000000000E+00
 0.1195563415086E+01  0.4416990800252E+00  0.0000000000000E+00
 0.1271121568610E+01  0.4368480116963E+00  0.0000000000000E+00
 0.1345676860666E+01  0.4236315901228E+00  0.0000000000000E+00
 0.1418305905243E+01  0.4022416076848E+00  0.0000000000000E+00
 0.1572796827692E+01  0.2935193356292E+00  0.0000000000000E+00
 0.1626874368892E+01  0.1914362540528E+00  0.0000000000000E+00
 0.1647980696148E+01  0.7761285305478E-01  0.0000000000000E+00
 0.1649971232614E+01 -0.3842453631130E-01  0.0000000000000E+00
 0.1647164985510E+01 -0.1544579148168E+00  0.0000000000000E+00
 0.1638101487343E+01 -0.2701686477783E+00  0.0000000000000E+00
 0.1623384158054E+01 -0.3853015116666E+00  0.0000000000000E+00
 0.1603836412438E+01 -0.4997150958130E+00  0.0000000000000E+00
 0.1579720048441E+01 -0.6132533856674E+00  0.0000000000000E+00
 0.1551041415774E+01 -0.7257267319674E+00  0.0000000000000E+00
 0.1518131836796E+01 -0.8370360628288E+00  0.0000000000000E+00
 0.1480944100999E+01 -0.9469891124298E+00  0.0000000000000E+00
 0.1439083525216E+01 -0.1055246798366E+01  0.0000000000000E+00
 0.1392581470861E+01 -0.1161597042198E+01  0.0000000000000E+00
 0.1345040310428E+01 -0.1267489591933E+01  0.0000000000000E+00
 0.1303342965506E+01 -0.1375796642335E+01  0.0000000000000E+00
 0.1268466688140E+01 -0.1486497480965E+01  0.0000000000000E+00
 0.1238854526204E+01 -0.1598727810699E+01  0.0000000000000E+00
 0.1213355268613E+01 -0.1711966308043E+01  0.0000000000000E+00
-0.1100000000000E+01 -0.4660595750534E+01  0.0000000000000E+00
-0.1100000000000E+01 -0.4589604523337E+01  0.0000000000000E+00
-0.1100000000000E+01 -0.4518612860194E+01  0.0000000000000E+00
-0.1100000000000E+01 -0.4447621396074E+01  0.0000000000000E+00
-0.1100000000000E+01 -0.4376629946073E+01  0.0000000000000E+00
-0.1100000000000E+01 -0.4305638469395E+01  0.0000000000000E+00
-0.1100000000000E+01 -0.4234647034675E+01  0.0000000000000E+00
-0.1100000000000E+01 -0.4163655573930E+01  0.0000000000000E+00
-0.1100000000000E+01 -0.4092664118400E+01  0.0000000000000E+00
-0.1100000000000E+01 -0.4021672670707E+01  0.0000000000000E+00
-0.1100000000000E+01 -0.3950681208157E+01  0.0000000000000E+00
-0.1100000000000E+01 -0.3879689768887E+01  0.0000000000000E+00
-0.1100000000000E+01 -0.3808698298634E+01  0.0000000000000E+00
-0.1100000000000E+01 -0.3737706770464E+01  0.0000000000000E+00
-0.1100000000000E+01 -0.3666715262498E+01  0.0000000000000E+00
-0.1100000000000E+01 -0.3595723839456E+01  0.0000000000000E+00
-0.1100000000000E+01 -0.3524731789668E+01  0.0000000000000E+00
-0.1100000000000E+01 -0.3453740926047E+01  0.0000000000000E+00
-0.1100000000000E+01 -0.3382749460249E+01  0.0000000000000E+00
-0.1100000000000E+01 -0.3311758072240E+01  0.0000000000000E+00
-0.1100000000000E+01 -0.3240766774652E+01  0.0000000000000E+00
-0.1100000000000E+01 -0.3169775441240E+01  0.0000000000000E+00
-0.1100000000000E+01 -0.3098784076079E+01  0.0000000000000E+00
-0.1100019380481E+01 -0.3027792649889E+01  0.0000000000000E+00
-0.1100182969515E+01 -0.2956801452749E+01  0.0000000000000E+00
-0.1100664097718E+01 -0.2885811820573E+01  0.0000000000000E+00
-0.1101620767933E+01 -0.2814827030427E+01  0.0000000000000E+00
-0.1103169283693E+01 -0.2743852764288E+01  0.0000000000000E+00
-0.1105384238767E+01 -0.2672896168192E+01  0.0000000000000E+00
-0.1108313328915E+01 -0.2601965572023E+01  0.0000000000000E+00
-0.1111994457710E+01 -0.2531069964563E+01  0.0000000000000E+00
-0.1116470504631E+01 -0.2460220060781E+01  0.0000000000000E+00
-0.1121800458045E+01 -0.2389429442476E+01  0.0000000000000E+00
-0.1127980999498E+01 -0.2318707927775E+01  0.0000000000000E+00
-0.1134925652832E+01 -0.2248057274554E+01  0.0000000000000E+00
-0.1142572685777E+01 -0.2177479159635E+01  0.0000000000000E+00
-0.1150886195216E+01 -0.2106976362838E+01  0.0000000000000E+00
-0.1159854464778E+01 -0.2036553785977E+01  0.0000000000000E+00
-0.1169495475345E+01 -0.1966220321347E+01  0.0000000000000E+00
-0.1179881536539E+01 -0.1895993177716E+01  0.0000000000000E+00
 0.1179881536541E+01 -0.1895993177715E+01  0.0000000000000E+00
 0.1169495475345E+01 -0.1966220321347E+01  0.0000000000000E+00
 0.1159854464777E+01 -0.2036553785977E+01  0.0000000000000E+00
 0.1150886195214E+01 -0.2106976362838E+01  0.0000000000000E+00
 0.1142572685775E+01 -0.2177479159635E+01  0.0000000000000E+00
 0.1134925652830E+01 -0.2248057274554E+01  0.0000000000000E+00
 0.1127980999496E+01 -0.2318707927775E+01  0.0000000000000E+00
 0.1121800458043E+01 -0.2389429442476E+01  0.0000000000000E+00
 0.1116470504629E+01 -0.2460220060781E+01  0.0000000000000E+00
 0.1111994457707E+01 -0.2531069964563E+01  0.0000000000000E+00
 0.1108313328912E+01 -0.2601965572023E+01  0.0000000000000E+00
 0.1105384238765E+01 -0.2672896168191E+01  0.0000000000000E+00
 0.1103169283691E+01 -0.2743852764287E+01  0.0000000000000E+00
 0.1101620767933E+01 -0.2814827030427E+01  0.0000000000000E+00
 0.1100664097717E+01 -0.2885811820573E+01  0.0000000000000E+00
 0.1100182969515E+01 -0.2956801452748E+01  0.0000000000000E+00
 0.1100019380481E+01 -0.3027792649889E+01  0.0000000000000E+00
 0.1100000000000E+01 -0.3098784076079E+01  0.0000000000000E+00
 0.1100000000000E+01 -0.3169775441240E+01  0.0000000000000E+00
 0.1100000000000E+01 -0.3240766774652E+01  0.0000000000000E+00
 0.1100000000000E+01 -0.3311758072240E+01  0.0000000000000E+00
 0.1100000000000E+01 -0.3382749460249E+01  0.0000000000000E+00
 0.1100000000000E+01 -0.3453740926047E+01  0.0000000000000E+00
 0.1100000000000E+01 -0.3524731789668E+01  0.0000000000000E+00
 0.1100000000000E+01 -0.3595723839456E+01  0.0000000000000E+00
 0.1100000000000E+01 -0.3666715262498E+01  0.0000000000000E+00
 0.1100000000000E+01 -0.3737706770464E+01  0.0000000000000E+00
 0.1100000000000E+01 -0.3808698298633E+01  0.0000000000000E+00
 0.1100000000000E+01 -0.3879689768887E+01  0.0000000000000E+00
 0.1100000000000E+01 -0.3950681208157E+01  0.0000000000000E+00
 0.1100000000000E+01 -0.4021672670707E+01  0.0000000000000E+00
 0.1100000000000E+01 -0.4092664118399E+01  0.0000000000000E+00
 0.1100000000000E+01 -0.4163655573930E+01  0.0000000000000E+00
 0.1100000000000E+01 -0.4234647034675E+01  0.0000000000000E+00
 0.1100000000000E+01 -0.4305638469395E+01  0.0000000000000E+00
 0.1100000000000E+01 -0.4376629946073E+01  0.0000000000000E+00
 0.1100000000000E+01 -0.4447621396074E+01  0.0000000000000E+00
 0.1100000000000E+01 -0.4518612860194E+01  0.0000000000000E+00
 0.1100000000000E+01 -0.4589604523337E+01  0.0000000000000E+00
 0.1100000000000E+01 -0.4660595750534E+01  0.0000000000000E+00
-0.5884638695905E+00 -0.4894641513885E+00  0.0000000000000E+00
-0.5580825246164E+00 -0.4819218154218E+00  0.0000000000000E+00
-0.5276095633171E+00 -0.4747582607812E+00  0.0000000000000E+00
-0.4970490688930E+00 -0.4679779933456E+00  0.0000000000000E+00
-0.4664052113280E+00 -0.4615853306416E+00  0.0000000000000E+00
-0.4356821841498E+00 -0.4555843826271E+00  0.0000000000000E+00
-0.4048845338533E+00 -0.4499791064130E+00  0.0000000000000E+00
-0.3740168397343E+00 -0.4447732294152E+00  0.0000000000000E+00
-0.3430839130773E+00 -0.4399702753278E+00  0.0000000000000E+00
-0.3120906320172E+00 -0.4355735248917E+00  0.0000000000000E+00
-0.2810420500145E+00 -0.4315860232937E+00  0.0000000000000E+00
-0.2499433335888E+00 -0.4280105603977E+00  0.0000000000000E+00
-0.2187997508610E+00 -0.4248496608797E+00  0.0000000000000E+00
-0.1876166729319E+00 -0.4221055764161E+00  0.0000000000000E+00
-0.1563995773423E+00 -0.4197802779940E+00  0.0000000000000E+00
-0.1251540094126E+00 -0.4178754457584E+00  0.0000000000000E+00
-0.9388558172344E-01 -0.4163924636598E+00  0.0000000000000E+00
-0.6259996113275E-01 -0.4153324139295E+00  0.0000000000000E+00
-0.3130285547239E-01 -0.4146960727333E+00  0.0000000000000E+00
-0.2220446049250E-15 -0.4144839070419E+00  0.0000000000000E+00
 0.3130285547239E-01 -0.4146960727333E+00  0.0000000000000E+00
 0.6259996113275E-01 -0.4153324139295E+00  0.0000000000000E+00
 0.9388558172344E-01 -0.4163924636598E+00  0.0000000000000E+00
 0.1251540094126E+00 -0.4178754457584E+00  0.0000000000000E+00
 0.1563995773423E+00 -0.4197802779940E+00  0.0000000000000E+00
 0.1876166729319E+00 -0.4221055764161E+00  0.0000000000000E+00
 0.2187997508610E+00 -0.4248496608797E+00  0.0000000000000E+00
 0.2499433335888E+00 -0.4280105603977E+00  0.0000000000000E+00
 0.2810420500145E+00 -0.4315860232937E+00  0.0000000000000E+00
 0.3120906320172E+00 -0.4355735248917E+00  0.0000000000000E+00
 0.3430839130773E+00 -0.4399702753278E+00  0.0000000000000E+00
 0.3740168397343E+00 -0.4447732294152E+00  0.0000000000000E+00
 0.4048845338533E+00 -0.4499791064130E+00  0.0000000000000E+00
 0.4356821841498E+00 -0.4555843826271E+00  0.0000000000000E+00
 0.4664052113280E+00 -0.4615853306416E+00  0.0000000000000E+00
 0.4970490688930E+00 -0.4679779933456E+00  0.0000000000000E+00
 0.5276095633171E+00 -0.4747582607812E+00  0.0000000000000E+00
 0.5580825246164E+00 -0.4819218154218E+00  0.0000000000000E+00
 0.5884638695905E+00 -0.4894641513885E+00  0.0000000000000E+00
-0.6186694182519E+00 -0.5602854202626E+00  0.0000000000000E+00
-0.6184121778050E+00 -0.6231895804302E+00  0.0000000000000E+00
-0.6179522181120E+00 -0.6860925653381E+00  0.0000000000000E+00
-0.6172599449830E+00 -0.7489933811583E+00  0.0000000000000E+00
-0.6163035973388E+00 -0.8118907743073E+00  0.0000000000000E+00
-0.6150531470475E+00 -0.8747829429232E+00  0.0000000000000E+00
-0.6134887983150E+00 -0.9376681601377E+00  0.0000000000000E+00
-0.6116160329111E+00 -0.1000544889820E+01  0.0000000000000E+00
-0.6094851916442E+00 -0.1063413466424E+01  0.0000000000000E+00
-0.6072037720657E+00 -0.1126276767718E+01  0.0000000000000E+00
-0.6049223524117E+00 -0.1189140069010E+01  0.0000000000000E+00
-0.6027915109277E+00 -0.1252008645607E+01  0.0000000000000E+00
-0.6009187451903E+00 -0.1314885375279E+01  0.0000000000000E+00
-0.5993543960372E+00 -0.1377770592483E+01  0.0000000000000E+00
-0.5981039452651E+00 -0.1440662761090E+01  0.0000000000000E+00
-0.5971475971003E+00 -0.1503560154231E+01  0.0000000000000E+00
-0.5964553234260E+00 -0.1566460970045E+01  0.0000000000000E+00
-0.5959953631729E+00 -0.1629363954949E+01  0.0000000000000E+00
-0.5957381221583E+00 -0.1692268115114E+01  0.0000000000000E+00
 0.6186694182523E+00 -0.5602854202973E+00  0.0000000000000E+00
 0.6184121778088E+00 -0.6231895804997E+00  0.0000000000000E+00
 0.6179522181269E+00 -0.6860925654424E+00  0.0000000000000E+00
 0.6172599450237E+00 -0.7489933812976E+00  0.0000000000000E+00
 0.6163035974300E+00 -0.8118907744820E+00  0.0000000000000E+00
 0.6150531472289E+00 -0.8747829431345E+00  0.0000000000000E+00
 0.6134887986468E+00 -0.9376681603875E+00  0.0000000000000E+00
 0.6116160334801E+00 -0.1000544890112E+01  0.0000000000000E+00
 0.6094851925666E+00 -0.1063413466762E+01  0.0000000000000E+00
 0.6072037734828E+00 -0.1126276768110E+01  0.0000000000000E+00
 0.6049223544747E+00 -0.1189140069460E+01  0.0000000000000E+00
 0.6027915137782E+00 -0.1252008646118E+01  0.0000000000000E+00
 0.6009187489451E+00 -0.1314885375852E+01  0.0000000000000E+00
 0.5993544007835E+00 -0.1377770593115E+01  0.0000000000000E+00
 0.5981039510633E+00 -0.1440662761777E+01  0.0000000000000E+00
 0.5971476039902E+00 -0.1503560154969E+01  0.0000000000000E+00
 0.5964553314325E+00 -0.1566460970831E+01  0.0000000000000E+00
 0.5959953723106E+00 -0.1629363955777E+01  0.0000000000000E+00
 0.5957381324349E+00 -0.1692268115982E+01  0.0000000000000E+00
-0.6621752666167E+00 -0.4539554224406E+00  0.0000000000000E+00
-0.7056005332335E+00 -0.4105301564309E+00  0.0000000000000E+00
-0.7490257998502E+00 -0.3671048904212E+00  0.0000000000000E+00
-0.7924510664670E+00 -0.3236796244115E+00  0.0000000000000E+00
-0.8358763330837E+00 -0.2802543584018E+00  0.0000000000000E+00
-0.8793015997004E+00 -0.2368290923921E+00  0.0000000000000E+00
-0.9227268663172E+00 -0.1934038263824E+00  0.0000000000000E+00
-0.9661521329339E+00 -0.1499785603727E+00  0.0000000000000E+00
-0.1009577399551E+01 -0.1065532943630E+00  0.0000000000000E+00
-0.1053002666167E+01 -0.6312802835334E-01  0.0000000000000E+00
-0.1096427932784E+01 -0.1970276234365E-01  0.0000000000000E+00
-0.1139853199401E+01  0.2372250366604E-01  0.0000000000000E+00
-0.1183278466018E+01  0.6714776967573E-01  0.0000000000000E+00
-0.1226703732634E+01  0.1105730356854E+00  0.0000000000000E+00
-0.1270128999251E+01  0.1539983016951E+00  0.0000000000000E+00
-0.1313554265868E+01  0.1974235677048E+00  0.0000000000000E+00
-0.1356979532485E+01  0.2408488337145E+00  0.0000000000000E+00
-0.1400404799101E+01  0.2842740997242E+00  0.0000000000000E+00
-0.1443830065718E+01  0.3276993657339E+00  0.0000000000000E+00
 0.6621752664603E+00 -0.4539554223414E+00  0.0000000000000E+00
 0.7056005329206E+00 -0.4105301562325E+00  0.0000000000000E+00
 0.7490257993809E+00 -0.3671048901237E+00  0.0000000000000E+00
 0.7924510658412E+00 -0.3236796240148E+00  0.0000000000000E+00
 0.8358763323015E+00 -0.2802543579059E+00  0.0000000000000E+00
 0.8793015987618E+00 -0.2368290917971E+00  0.0000000000000E+00
 0.9227268652221E+00 -0.1934038256882E+00  0.0000000000000E+00
 0.9661521316824E+00 -0.1499785595793E+00  0.0000000000000E+00
 0.1009577398143E+01 -0.1065532934705E+00  0.0000000000000E+00
 0.1053002664603E+01 -0.6312802736160E-01  0.0000000000000E+00
 0.1096427931063E+01 -0.1970276125273E-01  0.0000000000000E+00
 0.1139853197524E+01  0.2372250485614E-01  0.0000000000000E+00
 0.1183278463984E+01  0.6714777096501E-01  0.0000000000000E+00
 0.1226703730444E+01  0.1105730370739E+00  0.0000000000000E+00
 0.1270128996905E+01  0.1539983031827E+00  0.0000000000000E+00
 0.1313554263365E+01  0.1974235692916E+00  0.0000000000000E+00
 0.1356979529825E+01  0.2408488354005E+00  0.0000000000000E+00
 0.1400404796285E+01  0.2842741015093E+00  0.0000000000000E+00
 0.1443830062746E+01  0.3276993676182E+00  0.0000000000000E+00
-0.1072503587165E+01 -0.4660482676314E+01  0.0000000000000E+00
-0.1072507174322E+01 -0.4589378375132E+01  0.0000000000000E+00
-0.1072510761501E+01 -0.4518273637310E+01  0.0000000000000E+00
-0.1072514348670E+01 -0.4447169098828E+01  0.0000000000000E+00
-0.1072517935839E+01 -0.4376064574487E+01  0.0000000000000E+00
-0.1072521523008E+01 -0.4304960023427E+01  0.0000000000000E+00
-0.1072525110176E+01 -0.4233855514392E+01  0.0000000000000E+00
-0.1072528697345E+01 -0.4162750979291E+01  0.0000000000000E+00
-0.1072532284514E+01 -0.4091646449412E+01  0.0000000000000E+00
-0.1072535871682E+01 -0.4020541927384E+01  0.0000000000000E+00
-0.1072539458851E+01 -0.3949437390474E+01  0.0000000000000E+00
-0.1072543046019E+01 -0.3878332876881E+01  0.0000000000000E+00
-0.1072546633189E+01 -0.3807228332256E+01  0.0000000000000E+00
-0.1072550220361E+01 -0.3736123729622E+01  0.0000000000000E+00
-0.1072553807532E+01 -0.3665019147225E+01  0.0000000000000E+00
-0.1072557394699E+01 -0.3593914649887E+01  0.0000000000000E+00
-0.1072560981898E+01 -0.3522809524803E+01  0.0000000000000E+00
-0.1072564569037E+01 -0.3451705587777E+01  0.0000000000000E+00
-0.1072568156206E+01 -0.3380601047615E+01  0.0000000000000E+00
-0.1072571743371E+01 -0.3309496585365E+01  0.0000000000000E+00
-0.1072575330532E+01 -0.3238392213680E+01  0.0000000000000E+00
-0.1072578917695E+01 -0.3167287806114E+01  0.0000000000000E+00
-0.1072582504859E+01 -0.3096183366749E+01  0.0000000000000E+00
-0.1072604987210E+01 -0.3025078866253E+01  0.0000000000000E+00
-0.1072768067061E+01 -0.2953974594875E+01  0.0000000000000E+00
-0.1073240734738E+01 -0.2882871888659E+01  0.0000000000000E+00
-0.1074177036625E+01 -0.2811774024513E+01  0.0000000000000E+00
-0.1075690363951E+01 -0.2740686684501E+01  0.0000000000000E+00
-0.1077853442627E+01 -0.2669617014531E+01  0.0000000000000E+00
-0.1080712774083E+01 -0.2598573344661E+01  0.0000000000000E+00
-0.1084305312776E+01 -0.2527564663401E+01  0.0000000000000E+00
-0.1088672864462E+01 -0.2456601685752E+01  0.0000000000000E+00
-0.1093872940397E+01 -0.2385697993847E+01  0.0000000000000E+00
-0.1099902305238E+01 -0.2314863405415E+01  0.0000000000000E+00
-0.1106676648231E+01 -0.2244099678337E+01  0.0000000000000E+00
-0.1114135782912E+01 -0.2173408489510E+01  0.0000000000000E+00
-0.1122244705194E+01 -0.2102792618679E+01  0.0000000000000E+00
-0.1130991992091E+01 -0.2032256967667E+01  0.0000000000000E+00
-0.1140395174223E+01 -0.1961810429153E+01  0.0000000000000E+00
-0.1150524750544E+01 -0.1891470211900E+01  0.0000000000000E+00
-0.1045006744548E+01 -0.4660372386096E+01  0.0000000000000E+00
-0.1045013489082E+01 -0.4589157794926E+01  0.0000000000000E+00
-0.1045020233658E+01 -0.4517942766438E+01  0.0000000000000E+00
-0.1045026978215E+01 -0.4446727937600E+01  0.0000000000000E+00
-0.1045033722770E+01 -0.4375513122924E+01  0.0000000000000E+00
-0.1045040467328E+01 -0.4304298281489E+01  0.0000000000000E+00
-0.1045047211882E+01 -0.4233083482143E+01  0.0000000000000E+00
-0.1045053956438E+01 -0.4161868656690E+01  0.0000000000000E+00
-0.1045060700994E+01 -0.4090653836468E+01  0.0000000000000E+00
-0.1045067445549E+01 -0.4019439024110E+01  0.0000000000000E+00
-0.1045074190105E+01 -0.3948224196846E+01  0.0000000000000E+00
-0.1045080934660E+01 -0.3877009392935E+01  0.0000000000000E+00
-0.1045087679217E+01 -0.3805794557944E+01  0.0000000000000E+00
-0.1045094423780E+01 -0.3734579664855E+01  0.0000000000000E+00
-0.1045101168341E+01 -0.3663364792032E+01  0.0000000000000E+00
-0.1045107912893E+01 -0.3592150004402E+01  0.0000000000000E+00
-0.1045114657506E+01 -0.3520934588052E+01  0.0000000000000E+00
-0.1045121402005E+01 -0.3449720361602E+01  0.0000000000000E+00
-0.1045128146562E+01 -0.3378505531081E+01  0.0000000000000E+00
-0.1045134891112E+01 -0.3307290778593E+01  0.0000000000000E+00
-0.1045141635652E+01 -0.3236076116811E+01  0.0000000000000E+00
-0.1045148380197E+01 -0.3164861419091E+01  0.0000000000000E+00
-0.1045155124744E+01 -0.3093646689524E+01  0.0000000000000E+00
-0.1045180279185E+01 -0.3022431898726E+01  0.0000000000000E+00
-0.1045342420071E+01 -0.2951217337114E+01  0.0000000000000E+00
-0.1045806197445E+01 -0.2880004340854E+01  0.0000000000000E+00
-0.1046721701225E+01 -0.2808796186706E+01  0.0000000000000E+00
-0.1048199410343E+01 -0.2737598556815E+01  0.0000000000000E+00
-0.1050310182850E+01 -0.2666418596963E+01  0.0000000000000E+00
-0.1053099325844E+01 -0.2595264637382E+01  0.0000000000000E+00
-0.1056602844668E+01 -0.2524145666314E+01  0.0000000000000E+00
-0.1060861471353E+01 -0.2453072398792E+01  0.0000000000000E+00
-0.1065931240050E+01 -0.2382058417274E+01  0.0000000000000E+00
-0.1071808998522E+01 -0.2311113539101E+01  0.0000000000000E+00
-0.1078412601419E+01 -0.2240239522158E+01  0.0000000000000E+00
-0.1085683408080E+01 -0.2169438043419E+01  0.0000000000000E+00
-0.1093587313453E+01 -0.2098711882551E+01  0.0000000000000E+00
-0.1102113187936E+01 -0.2028065941388E+01  0.0000000000000E+00
-0.1111278111887E+01 -0.1957509112984E+01  0.0000000000000E+00
-0.1121150773592E+01 -0.1887058606097E+01  0.0000000000000E+00
-0.1017509482115E+01 -0.4660264886424E+01  0.0000000000000E+00
-0.1017518964210E+01 -0.4588942795806E+01  0.0000000000000E+00
-0.1017528446364E+01 -0.4517620267209E+01  0.0000000000000E+00
-0.1017537928491E+01 -0.4446297938565E+01  0.0000000000000E+00
-0.1017547410616E+01 -0.4374975624103E+01  0.0000000000000E+00
-0.1017556892744E+01 -0.4303653282842E+01  0.0000000000000E+00
-0.1017566374867E+01 -0.4232330983734E+01  0.0000000000000E+00
-0.1017575856993E+01 -0.4161008658479E+01  0.0000000000000E+00
-0.1017585339119E+01 -0.4089686338463E+01  0.0000000000000E+00
-0.1017594821244E+01 -0.4018364026323E+01  0.0000000000000E+00
-0.1017604303371E+01 -0.3947041699254E+01  0.0000000000000E+00
-0.1017613785494E+01 -0.3875719395574E+01  0.0000000000000E+00
-0.1017623267622E+01 -0.3804397060767E+01  0.0000000000000E+00
-0.1017632749757E+01 -0.3733074667774E+01  0.0000000000000E+00
-0.1017642231890E+01 -0.3661752295078E+01  0.0000000000000E+00
-0.1017651714011E+01 -0.3590430007703E+01  0.0000000000000E+00
-0.1017661196216E+01 -0.3519107090659E+01  0.0000000000000E+00
-0.1017670678263E+01 -0.3447785365312E+01  0.0000000000000E+00
-0.1017680160390E+01 -0.3376463034981E+01  0.0000000000000E+00
-0.1017689642507E+01 -0.3305140782802E+01  0.0000000000000E+00
-0.1017699124612E+01 -0.3233818621464E+01  0.0000000000000E+00
-0.1017708606721E+01 -0.3162496424136E+01  0.0000000000000E+00
-0.1017718088835E+01 -0.3091174194911E+01  0.0000000000000E+00
-0.1017745495548E+01 -0.3019851904360E+01  0.0000000000000E+00
-0.1017906277653E+01 -0.2948529843060E+01  0.0000000000000E+00
-0.1018360744909E+01 -0.2877209347299E+01  0.0000000000000E+00
-0.1019255030769E+01 -0.2805893693688E+01  0.0000000000000E+00
-0.1020696701869E+01 -0.2734588564456E+01  0.0000000000000E+00
-0.1022754748397E+01 -0.2663301105260E+01  0.0000000000000E+00
-0.1025473283124E+01 -0.2592039646501E+01  0.0000000000000E+00
-0.1028887362274E+01 -0.2520813176160E+01  0.0000000000000E+00
-0.1033036644157E+01 -0.2449632409301E+01  0.0000000000000E+00
-0.1037975685816E+01 -0.2378510928701E+01  0.0000000000000E+00
-0.1043701418122E+01 -0.2307458551321E+01  0.0000000000000E+00
-0.1050133861127E+01 -0.2236477035050E+01  0.0000000000000E+00
-0.1057215919976E+01 -0.2165568056937E+01  0.0000000000000E+00
-0.1064914388649E+01 -0.2094734396573E+01  0.0000000000000E+00
-0.1073218430927E+01 -0.2023980955804E+01  0.0000000000000E+00
-0.1082144676909E+01 -0.1953316628048E+01  0.0000000000000E+00
-0.1091760004215E+01 -0.1882758622058E+01  0.0000000000000E+00
-0.9900118099064E+00 -0.4660160183698E+01  0.0000000000000E+00
-0.9900236197882E+00 -0.4588733390572E+01  0.0000000000000E+00
-0.9900354297426E+00 -0.4517306158826E+01  0.0000000000000E+00
-0.9900472396638E+00 -0.4445879127324E+01  0.0000000000000E+00
-0.9900590495827E+00 -0.4374452110027E+01  0.0000000000000E+00
-0.9900708595060E+00 -0.4303025065890E+01  0.0000000000000E+00
-0.9900826694223E+00 -0.4231598063968E+01  0.0000000000000E+00
-0.9900944793430E+00 -0.4160171035861E+01  0.0000000000000E+00
-0.9901062892628E+00 -0.4088744013001E+01  0.0000000000000E+00
-0.9901180991813E+00 -0.4017316998028E+01  0.0000000000000E+00
-0.9901299091023E+00 -0.3945889968104E+01  0.0000000000000E+00
-0.9901417190194E+00 -0.3874462961605E+01  0.0000000000000E+00
-0.9901535289416E+00 -0.3803035923932E+01  0.0000000000000E+00
-0.9901653388735E+00 -0.3731608827986E+01  0.0000000000000E+00
-0.9901771488020E+00 -0.3660181752369E+01  0.0000000000000E+00
-0.9901889587164E+00 -0.3588754762198E+01  0.0000000000000E+00
-0.9902007687351E+00 -0.3517327141434E+01  0.0000000000000E+00
-0.9902125785564E+00 -0.3445900714115E+01  0.0000000000000E+00
-0.9902243884779E+00 -0.3374473680925E+01  0.0000000000000E+00
-0.9902361983865E+00 -0.3303046726000E+01  0.0000000000000E+00
-0.9902480082800E+00 -0.3231619862052E+01  0.0000000000000E+00
-0.9902598181795E+00 -0.3160192962059E+01  0.0000000000000E+00
-0.9902716280843E+00 -0.3088766030123E+01  0.0000000000000E+00
-0.9903008772941E+00 -0.3017339036768E+01  0.0000000000000E+00
-0.9904598908441E+00 -0.2945912272726E+01  0.0000000000000E+00
-0.9909046382074E+00 -0.2874487074405E+01  0.0000000000000E+00
-0.9917772963762E+00 -0.2803066718274E+01  0.0000000000000E+00
-0.9931825196868E+00 -0.2731656886637E+01  0.0000000000000E+00
-0.9951874304676E+00 -0.2660264725035E+01  0.0000000000000E+00
-0.9978349471605E+00 -0.2588898564031E+01  0.0000000000000E+00
-0.1001159176873E+01 -0.2517567391354E+01  0.0000000000000E+00
-0.1005198704189E+01 -0.2446281922097E+01  0.0000000000000E+00
-0.1010006609051E+01 -0.2375055739345E+01  0.0000000000000E+00
-0.1015579905431E+01 -0.2303898659692E+01  0.0000000000000E+00
-0.1021840778788E+01 -0.2232812441032E+01  0.0000000000000E+00
-0.1028733680069E+01 -0.2161798760483E+01  0.0000000000000E+00
-0.1036226302287E+01 -0.2090860397566E+01  0.0000000000000E+00
-0.1044308102607E+01 -0.2020002254134E+01  0.0000000000000E+00
-0.1052995260869E+01 -0.1949233223964E+01  0.0000000000000E+00
-0.1062352844026E+01 -0.1878570515803E+01  0.0000000000000E+00
-0.9625137375235E+00 -0.4660058284100E+01  0.0000000000000E+00
-0.9625274750185E+00 -0.4588529591588E+01  0.0000000000000E+00
-0.9625412125977E+00 -0.4517000459829E+01  0.0000000000000E+00
-0.9625549501385E+00 -0.4445471528601E+01  0.0000000000000E+00
-0.9625686876766E+00 -0.4373942611598E+01  0.0000000000000E+00
-0.9625824252198E+00 -0.4302413667716E+01  0.0000000000000E+00
-0.9625961627548E+00 -0.4230884766111E+01  0.0000000000000E+00
-0.9626099002950E+00 -0.4159355838283E+01  0.0000000000000E+00
-0.9626236378341E+00 -0.4087826915708E+01  0.0000000000000E+00
-0.9626373753717E+00 -0.4016298001032E+01  0.0000000000000E+00
-0.9626511129121E+00 -0.3944769071385E+01  0.0000000000000E+00
-0.9626648504481E+00 -0.3873240165195E+01  0.0000000000000E+00
-0.9626785879900E+00 -0.3801711227786E+01  0.0000000000000E+00
-0.9626923255432E+00 -0.3730182232023E+01  0.0000000000000E+00
-0.9627060630925E+00 -0.3658653256616E+01  0.0000000000000E+00
-0.9627198006253E+00 -0.3587124366778E+01  0.0000000000000E+00
-0.9627335382794E+00 -0.3515594845447E+01  0.0000000000000E+00
-0.9627472757039E+00 -0.3444066519263E+01  0.0000000000000E+00
-0.9627610132450E+00 -0.3372537586345E+01  0.0000000000000E+00
-0.9627747507711E+00 -0.3301008731803E+01  0.0000000000000E+00
-0.9627884882796E+00 -0.3229479968367E+01  0.0000000000000E+00
-0.9628022257951E+00 -0.3157951168836E+01  0.0000000000000E+00
-0.9628159633167E+00 -0.3086422337316E+01  0.0000000000000E+00
-0.9628466548485E+00 -0.3014893444285E+01  0.0000000000000E+00
-0.9630034996671E+00 -0.2943364780630E+01  0.0000000000000E+00
-0.9634381269610E+00 -0.2871837682872E+01  0.0000000000000E+00
-0.9642887572571E+00 -0.2800315427341E+01  0.0000000000000E+00
-0.9656571325932E+00 -0.2728803696419E+01  0.0000000000000E+00
-0.9676085074361E+00 -0.2657309635530E+01  0.0000000000000E+00
-0.9701846058996E+00 -0.2585841575395E+01  0.0000000000000E+00
-0.9734185859714E+00 -0.2514408503499E+01  0.0000000000000E+00
-0.9773479585130E+00 -0.2443021134961E+01  0.0000000000000E+00
-0.9820243263633E+00 -0.2371693053170E+01  0.0000000000000E+00
-0.9874447865971E+00 -0.2300434074359E+01  0.0000000000000E+00
-0.9935336900779E+00 -0.2229245956427E+01  0.0000000000000E+00
-0.1000237033557E+01 -0.2158130376562E+01  0.0000000000000E+00
-0.1007523409081E+01 -0.2087090114213E+01  0.0000000000000E+00
-0.1015382567198E+01 -0.2016130071245E+01  0.0000000000000E+00
-0.1023830237492E+01 -0.1945259141781E+01  0.0000000000000E+00
-0.1032929676247E+01 -0.1874494534560E+01  0.0000000000000E+00
-0.9350152757427E+00 -0.4659959193825E+01  0.0000000000000E+00
-0.9350305514535E+00 -0.4588331411245E+01  0.0000000000000E+00
-0.9350458272582E+00 -0.4516703188809E+01  0.0000000000000E+00
-0.9350611030201E+00 -0.4445075167182E+01  0.0000000000000E+00
-0.9350763787789E+00 -0.4373447159799E+01  0.0000000000000E+00
-0.9350916545434E+00 -0.4301819125501E+01  0.0000000000000E+00
-0.9351069302989E+00 -0.4230191133537E+01  0.0000000000000E+00
-0.9351222060600E+00 -0.4158563115315E+01  0.0000000000000E+00
-0.9351374818200E+00 -0.4086935102354E+01  0.0000000000000E+00
-0.9351527575783E+00 -0.4015307097302E+01  0.0000000000000E+00
-0.9351680333398E+00 -0.3943679077257E+01  0.0000000000000E+00
-0.9351833090963E+00 -0.3872051080703E+01  0.0000000000000E+00
-0.9351985848595E+00 -0.3800423052887E+01  0.0000000000000E+00
-0.9352138606351E+00 -0.3728794966635E+01  0.0000000000000E+00
-0.9352291364064E+00 -0.3657166900768E+01  0.0000000000000E+00
-0.9352444121594E+00 -0.3585538920588E+01  0.0000000000000E+00
-0.9352596880473E+00 -0.3513910308040E+01  0.0000000000000E+00
-0.9352749636799E+00 -0.3442282892296E+01  0.0000000000000E+00
-0.9352902394421E+00 -0.3370654868976E+01  0.0000000000000E+00
-0.9353055151876E+00 -0.3299026924142E+01  0.0000000000000E+00
-0.9353207909136E+00 -0.3227399070539E+01  0.0000000000000E+00
-0.9353360666473E+00 -0.3155771180791E+01  0.0000000000000E+00
-0.9353513423878E+00 -0.3084143259010E+01  0.0000000000000E+00
-0.9353830868434E+00 -0.3012515275629E+01  0.0000000000000E+00
-0.9355373735330E+00 -0.2940887521685E+01  0.0000000000000E+00
-0.9359614913613E+00 -0.2869261333809E+01  0.0000000000000E+00
-0.9367897043898E+00 -0.2797639988196E+01  0.0000000000000E+00
-0.9381208423587E+00 -0.2726029167304E+01  0.0000000000000E+00
-0.9400182918724E+00 -0.2654436016443E+01  0.0000000000000E+00
-0.9425225827175E+00 -0.2582868866489E+01  0.0000000000000E+00
-0.9456659237619E+00 -0.2511336704686E+01  0.0000000000000E+00
-0.9494847521435E+00 -0.2439850246183E+01  0.0000000000000E+00
-0.9540291935997E+00 -0.2368423074660E+01  0.0000000000000E+00
-0.9592964283062E+00 -0.2297065006004E+01  0.0000000000000E+00
-0.9652129725315E+00 -0.2225777798115E+01  0.0000000000000E+00
-0.9717263688312E+00 -0.2154563128249E+01  0.0000000000000E+00
-0.9788061082853E+00 -0.2083423775788E+01  0.0000000000000E+00
-0.9864422348236E+00 -0.2012364642606E+01  0.0000000000000E+00
-0.9946500277763E+00 -0.1941394623162E+01  0.0000000000000E+00
-0.1003490932759E+01 -0.1870530926191E+01  0.0000000000000E+00
-0.9075164348415E+00 -0.4659862918834E+01  0.0000000000000E+00
-0.9075328696488E+00 -0.4588138861463E+01  0.0000000000000E+00
-0.9075493045571E+00 -0.4516414363646E+01  0.0000000000000E+00
-0.9075657394192E+00 -0.4444690066907E+01  0.0000000000000E+00
-0.9075821742781E+00 -0.4372965784431E+01  0.0000000000000E+00
-0.9075986091431E+00 -0.4301241475005E+01  0.0000000000000E+00
-0.9076150439985E+00 -0.4229517207969E+01  0.0000000000000E+00
-0.9076314788598E+00 -0.4157792914640E+01  0.0000000000000E+00
-0.9076479137200E+00 -0.4086068626578E+01  0.0000000000000E+00
-0.9076643485783E+00 -0.4014344346436E+01  0.0000000000000E+00
-0.9076807834401E+00 -0.3942620051282E+01  0.0000000000000E+00
-0.9076972182965E+00 -0.3870895779649E+01  0.0000000000000E+00
-0.9077136531601E+00 -0.3799171476713E+01  0.0000000000000E+00
-0.9077300880371E+00 -0.3727447115263E+01  0.0000000000000E+00
-0.9077465229094E+00 -0.3655722774225E+01  0.0000000000000E+00
-0.9077629577620E+00 -0.3583998518988E+01  0.0000000000000E+00
-0.9077793927597E+00 -0.3512273630535E+01  0.0000000000000E+00
-0.9077958274829E+00 -0.3440549940493E+01  0.0000000000000E+00
-0.9078122623454E+00 -0.3368825642059E+01  0.0000000000000E+00
-0.9078286971899E+00 -0.3297101422216E+01  0.0000000000000E+00
-0.9078451320135E+00 -0.3225377293728E+01  0.0000000000000E+00
-0.9078615668454E+00 -0.3153653129045E+01  0.0000000000000E+00
-0.9078780016846E+00 -0.3081928932287E+01  0.0000000000000E+00
-0.9079104199434E+00 -0.3010204673842E+01  0.0000000000000E+00
-0.9080617693840E+00 -0.2938480644892E+01  0.0000000000000E+00
-0.9084749986280E+00 -0.2866758182177E+01  0.0000000000000E+00
-0.9092804152714E+00 -0.2795040561762E+01  0.0000000000000E+00
-0.9105739367573E+00 -0.2723333466175E+01  0.0000000000000E+00
-0.9124170818274E+00 -0.2651644040617E+01  0.0000000000000E+00
-0.9148491859419E+00 -0.2579980616114E+01  0.0000000000000E+00
-0.9179015088477E+00 -0.2508352179677E+01  0.0000000000000E+00
-0.9216094139598E+00 -0.2436769446484E+01  0.0000000000000E+00
-0.9260215499149E+00 -0.2365246000499E+01  0.0000000000000E+00
-0.9311351799888E+00 -0.2293791657267E+01  0.0000000000000E+00
-0.9368789858541E+00 -0.2222408174696E+01  0.0000000000000E+00
-0.9432020558717E+00 -0.2151097230106E+01  0.0000000000000E+00
-0.9500747801533E+00 -0.2079861602812E+01  0.0000000000000E+00
-0.9574874960124E+00 -0.2008706194698E+01  0.0000000000000E+00
-0.9654550325253E+00 -0.1937639900549E+01  0.0000000000000E+00
-0.9740370246404E+00 -0.1866679929097E+01  0.0000000000000E+00
-0.8800172251723E+00 -0.4659769464936E+01  0.0000000000000E+00
-0.8800344503086E+00 -0.4587951953862E+01  0.0000000000000E+00
-0.8800516755508E+00 -0.4516134001767E+01  0.0000000000000E+00
-0.8800689007447E+00 -0.4444316251013E+01  0.0000000000000E+00
-0.8800861259351E+00 -0.4372498514541E+01  0.0000000000000E+00
-0.8801033511320E+00 -0.4300680751083E+01  0.0000000000000E+00
-0.8801205763187E+00 -0.4228863030071E+01  0.0000000000000E+00
-0.8801378015118E+00 -0.4157045282730E+01  0.0000000000000E+00
-0.8801550267036E+00 -0.4085227540665E+01  0.0000000000000E+00
-0.8801722518934E+00 -0.4013409806530E+01  0.0000000000000E+00
-0.8801894770869E+00 -0.3941592057363E+01  0.0000000000000E+00
-0.8802067022748E+00 -0.3869774331747E+01  0.0000000000000E+00
-0.8802239274701E+00 -0.3797956574788E+01  0.0000000000000E+00
-0.8802411526795E+00 -0.3726138759238E+01  0.0000000000000E+00
-0.8802583778840E+00 -0.3654320964127E+01  0.0000000000000E+00
-0.8802756030679E+00 -0.3582503254930E+01  0.0000000000000E+00
-0.8802928284039E+00 -0.3510684911690E+01  0.0000000000000E+00
-0.8803100534520E+00 -0.3438867768424E+01  0.0000000000000E+00
-0.8803272786463E+00 -0.3367050015972E+01  0.0000000000000E+00
-0.8803445038217E+00 -0.3295232342214E+01  0.0000000000000E+00
-0.8803617289752E+00 -0.3223414759930E+01  0.0000000000000E+00
-0.8803789541373E+00 -0.3151597141404E+01  0.0000000000000E+00
-0.8803961793072E+00 -0.3079779490761E+01  0.0000000000000E+00
-0.8804289026007E+00 -0.3007961778347E+01  0.0000000000000E+00
-0.8805769460245E+00 -0.2936144295485E+01  0.0000000000000E+00
-0.8809789179176E+00 -0.2864328379021E+01  0.0000000000000E+00
-0.8817611694101E+00 -0.2792517304890E+01  0.0000000000000E+00
-0.8830167056487E+00 -0.2720716755693E+01  0.0000000000000E+00
-0.8848051775121E+00 -0.2648933876522E+01  0.0000000000000E+00
-0.8871647261348E+00 -0.2577176998550E+01  0.0000000000000E+00
-0.8901256621418E+00 -0.2505455108563E+01  0.0000000000000E+00
-0.8937222752253E+00 -0.2433778921763E+01  0.0000000000000E+00
-0.8980017369228E+00 -0.2362162022393E+01  0.0000000000000E+00
-0.9029613936084E+00 -0.2290614225668E+01  0.0000000000000E+00
-0.9085320923593E+00 -0.2219137289498E+01  0.0000000000000E+00
-0.9146644673410E+00 -0.2147732891269E+01  0.0000000000000E+00
-0.9213298076975E+00 -0.2076403810231E+01  0.0000000000000E+00
-0.9285187441254E+00 -0.2005154948275E+01  0.0000000000000E+00
-0.9362456554485E+00 -0.1933995200506E+01  0.0000000000000E+00
-0.9445683659478E+00 -0.1862941775651E+01  0.0000000000000E+00
-0.8525176569623E+00 -0.4659678837762E+01  0.0000000000000E+00
-0.8525353138878E+00 -0.4587770699704E+01  0.0000000000000E+00
-0.8525529709217E+00 -0.4515862120068E+01  0.0000000000000E+00
-0.8525706279061E+00 -0.4443953742027E+01  0.0000000000000E+00
-0.8525882848871E+00 -0.4372045378286E+01  0.0000000000000E+00
-0.8526059418746E+00 -0.4300136987525E+01  0.0000000000000E+00
-0.8526235988517E+00 -0.4228228639263E+01  0.0000000000000E+00
-0.8526412558353E+00 -0.4156320264640E+01  0.0000000000000E+00
-0.8526589128176E+00 -0.4084411895299E+01  0.0000000000000E+00
-0.8526765697980E+00 -0.4012503533897E+01  0.0000000000000E+00
-0.8526942267820E+00 -0.3940595157445E+01  0.0000000000000E+00
-0.8527118837602E+00 -0.3868686804574E+01  0.0000000000000E+00
-0.8527295407462E+00 -0.3796778420320E+01  0.0000000000000E+00
-0.8527471977466E+00 -0.3724869977402E+01  0.0000000000000E+00
-0.8527648547419E+00 -0.3652961554948E+01  0.0000000000000E+00
-0.8527825117161E+00 -0.3581053218515E+01  0.0000000000000E+00
-0.8528001688462E+00 -0.3509144247241E+01  0.0000000000000E+00
-0.8528178256813E+00 -0.3437236477454E+01  0.0000000000000E+00
-0.8528354826661E+00 -0.3365328097713E+01  0.0000000000000E+00
-0.8528531396316E+00 -0.3293419796766E+01  0.0000000000000E+00
-0.8528707965746E+00 -0.3221511587407E+01  0.0000000000000E+00
-0.8528884535265E+00 -0.3149603341761E+01  0.0000000000000E+00
-0.8529061104864E+00 -0.3077695063957E+01  0.0000000000000E+00
-0.8529387802737E+00 -0.3005786724301E+01  0.0000000000000E+00
-0.8530831591395E+00 -0.2933878614253E+01  0.0000000000000E+00
-0.8534735151404E+00 -0.2861972070759E+01  0.0000000000000E+00
-0.8542322429400E+00 -0.2790070369632E+01  0.0000000000000E+00
-0.8554494353881E+00 -0.2718179193539E+01  0.0000000000000E+00
-0.8571828755004E+00 -0.2646305687471E+01  0.0000000000000E+00
-0.8594695100855E+00 -0.2574458182743E+01  0.0000000000000E+00
-0.8623387006461E+00 -0.2502645665919E+01  0.0000000000000E+00
-0.8658236631514E+00 -0.2430878852229E+01  0.0000000000000E+00
-0.8699700920406E+00 -0.2359171326182E+01  0.0000000000000E+00
-0.8747754167849E+00 -0.2287532902676E+01  0.0000000000000E+00
-0.8801726498660E+00 -0.2215965339624E+01  0.0000000000000E+00
-0.8861139712552E+00 -0.2144470314473E+01  0.0000000000000E+00
-0.8925715691276E+00 -0.2073050606409E+01  0.0000000000000E+00
-0.8995363675637E+00 -0.2001711117336E+01  0.0000000000000E+00
-0.9070222951358E+00 -0.1930460742663E+01  0.0000000000000E+00
-0.9150853654571E+00 -0.1859316691115E+01  0.0000000000000E+00
-0.8250177407139E+00 -0.4659591042819E+01  0.0000000000000E+00
-0.8250354813908E+00 -0.4587595110000E+01  0.0000000000000E+00
-0.8250532221767E+00 -0.4515598735065E+01  0.0000000000000E+00
-0.8250709629128E+00 -0.4443602561971E+01  0.0000000000000E+00
-0.8250887036454E+00 -0.4371606403194E+01  0.0000000000000E+00
-0.8251064443847E+00 -0.4299610217364E+01  0.0000000000000E+00
-0.8251241851135E+00 -0.4227614074085E+01  0.0000000000000E+00
-0.8251419258488E+00 -0.4155617904413E+01  0.0000000000000E+00
-0.8251596665828E+00 -0.4083621740029E+01  0.0000000000000E+00
-0.8251774073148E+00 -0.4011625583594E+01  0.0000000000000E+00
-0.8251951480505E+00 -0.3939629412091E+01  0.0000000000000E+00
-0.8252128887805E+00 -0.3867633264198E+01  0.0000000000000E+00
-0.8252306295181E+00 -0.3795637084882E+01  0.0000000000000E+00
-0.8252483702703E+00 -0.3723640846831E+01  0.0000000000000E+00
-0.8252661110174E+00 -0.3651644629270E+01  0.0000000000000E+00
-0.8252838517432E+00 -0.3579648497835E+01  0.0000000000000E+00
-0.8253015926257E+00 -0.3507651730783E+01  0.0000000000000E+00
-0.8253193332118E+00 -0.3435656166686E+01  0.0000000000000E+00
-0.8253370739484E+00 -0.3363659991889E+01  0.0000000000000E+00
-0.8253548146655E+00 -0.3291663895982E+01  0.0000000000000E+00
-0.8253725553600E+00 -0.3219667891776E+01  0.0000000000000E+00
-0.8253902960635E+00 -0.3147671851239E+01  0.0000000000000E+00
-0.8254080367749E+00 -0.3075675778504E+01  0.0000000000000E+00
-0.8254403050173E+00 -0.3003679643838E+01  0.0000000000000E+00
-0.8255806712862E+00 -0.2931683738833E+01  0.0000000000000E+00
-0.8259590633559E+00 -0.2859689400535E+01  0.0000000000000E+00
-0.8266939194225E+00 -0.2787699904637E+01  0.0000000000000E+00
-0.8278724200392E+00 -0.2715720933871E+01  0.0000000000000E+00
-0.8295504803575E+00 -0.2643759633128E+01  0.0000000000000E+00
-0.8317638528612E+00 -0.2571824333859E+01  0.0000000000000E+00
-0.8345409499295E+00 -0.2499924022419E+01  0.0000000000000E+00
-0.8379139138084E+00 -0.2428069414060E+01  0.0000000000000E+00
-0.8419269618398E+00 -0.2356274093551E+01  0.0000000000000E+00
-0.8465776065910E+00 -0.2284547875482E+01  0.0000000000000E+00
-0.8518010259485E+00 -0.2212892517768E+01  0.0000000000000E+00
-0.8575509456891E+00 -0.2141309697916E+01  0.0000000000000E+00
-0.8638004530197E+00 -0.2069802195054E+01  0.0000000000000E+00
-0.8705407654042E+00 -0.1998374911091E+01  0.0000000000000E+00
-0.8777853611645E+00 -0.1927036741736E+01  0.0000000000000E+00
-0.8855884432463E+00 -0.1855804895709E+01  0.0000000000000E+00
-0.7975174872200E+00 -0.4659506085482E+01  0.0000000000000E+00
-0.7975349744037E+00 -0.4587425195502E+01  0.0000000000000E+00
-0.7975524616947E+00 -0.4515343862885E+01  0.0000000000000E+00
-0.7975699489366E+00 -0.4443262732347E+01  0.0000000000000E+00
-0.7975874361751E+00 -0.4371181616143E+01  0.0000000000000E+00
-0.7976049234202E+00 -0.4299100472854E+01  0.0000000000000E+00
-0.7976224106549E+00 -0.4227019372167E+01  0.0000000000000E+00
-0.7976398978961E+00 -0.4154938245055E+01  0.0000000000000E+00
-0.7976573851359E+00 -0.4082857123237E+01  0.0000000000000E+00
-0.7976748723739E+00 -0.4010776009378E+01  0.0000000000000E+00
-0.7976923596155E+00 -0.3938694880433E+01  0.0000000000000E+00
-0.7977098468513E+00 -0.3866613775126E+01  0.0000000000000E+00
-0.7977273340948E+00 -0.3794532638359E+01  0.0000000000000E+00
-0.7977448213526E+00 -0.3722451442787E+01  0.0000000000000E+00
-0.7977623086053E+00 -0.3650370267730E+01  0.0000000000000E+00
-0.7977797958372E+00 -0.3578289178900E+01  0.0000000000000E+00
-0.7977972832234E+00 -0.3506207453703E+01  0.0000000000000E+00
-0.7978147703175E+00 -0.3434126932881E+01  0.0000000000000E+00
-0.7978322575599E+00 -0.3362045800638E+01  0.0000000000000E+00
-0.7978497447831E+00 -0.3289964747379E+01  0.0000000000000E+00
-0.7978672319841E+00 -0.3217883785928E+01  0.0000000000000E+00
-0.7978847191938E+00 -0.3145802788103E+01  0.0000000000000E+00
-0.7979022064114E+00 -0.3073721758043E+01  0.0000000000000E+00
-0.7979337358632E+00 -0.3001640665976E+01  0.0000000000000E+00
-0.7980697522901E+00 -0.2929559803621E+01  0.0000000000000E+00
-0.7984358431845E+00 -0.2857480508120E+01  0.0000000000000E+00
-0.7991464902748E+00 -0.2785406055050E+01  0.0000000000000E+00
-0.8002859618180E+00 -0.2713342127208E+01  0.0000000000000E+00
-0.8019083051015E+00 -0.2641295869387E+01  0.0000000000000E+00
-0.8040480782847E+00 -0.2569275613171E+01  0.0000000000000E+00
-0.8067327446223E+00 -0.2497290344709E+01  0.0000000000000E+00
-0.8099933726376E+00 -0.2425350779278E+01  0.0000000000000E+00
-0.8138727025763E+00 -0.2353470501899E+01  0.0000000000000E+00
-0.8183683301003E+00 -0.2281659326859E+01  0.0000000000000E+00
-0.8234175985009E+00 -0.2209919012080E+01  0.0000000000000E+00
-0.8289757793607E+00 -0.2138251235127E+01  0.0000000000000E+00
-0.8350168589179E+00 -0.2066658775066E+01  0.0000000000000E+00
-0.8415323480198E+00 -0.1995146533818E+01  0.0000000000000E+00
-0.8485352747396E+00 -0.1923723407379E+01  0.0000000000000E+00
-0.8560780313548E+00 -0.1852406604464E+01  0.0000000000000E+00
-0.7700169071112E+00 -0.4659423970938E+01  0.0000000000000E+00
-0.7700338141872E+00 -0.4587260966585E+01  0.0000000000000E+00
-0.7700507213671E+00 -0.4515097519091E+01  0.0000000000000E+00
-0.7700676284995E+00 -0.4442934273906E+01  0.0000000000000E+00
-0.7700845356285E+00 -0.4370771043071E+01  0.0000000000000E+00
-0.7701014427640E+00 -0.4298607785120E+01  0.0000000000000E+00
-0.7701183498894E+00 -0.4226444569820E+01  0.0000000000000E+00
-0.7701352570210E+00 -0.4154281328065E+01  0.0000000000000E+00
-0.7701521641514E+00 -0.4082118091610E+01  0.0000000000000E+00
-0.7701690712799E+00 -0.4009954863123E+01  0.0000000000000E+00
-0.7701859784119E+00 -0.3937791619533E+01  0.0000000000000E+00
-0.7702028855385E+00 -0.3865628399607E+01  0.0000000000000E+00
-0.7702197926723E+00 -0.3793465148187E+01  0.0000000000000E+00
-0.7702366998200E+00 -0.3721301837894E+01  0.0000000000000E+00
-0.7702536069629E+00 -0.3649138548138E+01  0.0000000000000E+00
-0.7702705140855E+00 -0.3576975344709E+01  0.0000000000000E+00
-0.7702874213574E+00 -0.3504811504187E+01  0.0000000000000E+00
-0.7703043283468E+00 -0.3432648869413E+01  0.0000000000000E+00
-0.7703212354797E+00 -0.3360485622521E+01  0.0000000000000E+00
-0.7703381425940E+00 -0.3288322454703E+01  0.0000000000000E+00
-0.7703550496867E+00 -0.3216159378797E+01  0.0000000000000E+00
-0.7703719567880E+00 -0.3143996266477E+01  0.0000000000000E+00
-0.7703888638969E+00 -0.3071833121884E+01  0.0000000000000E+00
-0.7704193279429E+00 -0.2999669915210E+01  0.0000000000000E+00
-0.7705506679129E+00 -0.2927506938299E+01  0.0000000000000E+00
-0.7709041310181E+00 -0.2855345528385E+01  0.0000000000000E+00
-0.7715902425191E+00 -0.2783188960931E+01  0.0000000000000E+00
-0.7726903583770E+00 -0.2711042918797E+01  0.0000000000000E+00
-0.7742566580147E+00 -0.2638914546683E+01  0.0000000000000E+00
-0.7763225052677E+00 -0.2566812176300E+01  0.0000000000000E+00
-0.7789144142657E+00 -0.2494744793600E+01  0.0000000000000E+00
-0.7820623798096E+00 -0.2422723113881E+01  0.0000000000000E+00
-0.7858076650495E+00 -0.2350760722408E+01  0.0000000000000E+00
-0.7901479487410E+00 -0.2278867433179E+01  0.0000000000000E+00
-0.7950227395800E+00 -0.2207045004120E+01  0.0000000000000E+00
-0.8003888549551E+00 -0.2135295112850E+01  0.0000000000000E+00
-0.8062211801355E+00 -0.2063620538380E+01  0.0000000000000E+00
-0.8125115193522E+00 -0.1992026182637E+01  0.0000000000000E+00
-0.8192724504302E+00 -0.1920520941899E+01  0.0000000000000E+00
-0.8265545549795E+00 -0.1849122024875E+01  0.0000000000000E+00
-0.7425160110831E+00 -0.4659344704214E+01  0.0000000000000E+00
-0.7425320221329E+00 -0.4587102433304E+01  0.0000000000000E+00
-0.7425480332810E+00 -0.4514859718765E+01  0.0000000000000E+00
-0.7425640443842E+00 -0.4442617206757E+01  0.0000000000000E+00
-0.7425800554842E+00 -0.4370374709116E+01  0.0000000000000E+00
-0.7425960665902E+00 -0.4298132184328E+01  0.0000000000000E+00
-0.7426120776868E+00 -0.4225889702238E+01  0.0000000000000E+00
-0.7426280887892E+00 -0.4153647193664E+01  0.0000000000000E+00
-0.7426440998905E+00 -0.4081404690396E+01  0.0000000000000E+00
-0.7426601109900E+00 -0.4009162195105E+01  0.0000000000000E+00
-0.7426761220928E+00 -0.3936919684694E+01  0.0000000000000E+00
-0.7426921331904E+00 -0.3864677197973E+01  0.0000000000000E+00
-0.7427081442950E+00 -0.3792434679724E+01  0.0000000000000E+00
-0.7427241554126E+00 -0.3720192102536E+01  0.0000000000000E+00
-0.7427401665257E+00 -0.3647949545909E+01  0.0000000000000E+00
-0.7427561776197E+00 -0.3575707075704E+01  0.0000000000000E+00
-0.7427721888549E+00 -0.3503463967706E+01  0.0000000000000E+00
-0.7427881998227E+00 -0.3431222066779E+01  0.0000000000000E+00
-0.7428042109263E+00 -0.3358979553063E+01  0.0000000000000E+00
-0.7428202220123E+00 -0.3286737118507E+01  0.0000000000000E+00
-0.7428362330780E+00 -0.3214494775965E+01  0.0000000000000E+00
-0.7428522441517E+00 -0.3142252396968E+01  0.0000000000000E+00
-0.7428682552326E+00 -0.3070009985662E+01  0.0000000000000E+00
-0.7428973379532E+00 -0.2997767512206E+01  0.0000000000000E+00
-0.7430236855472E+00 -0.2925525268560E+01  0.0000000000000E+00
-0.7433642049450E+00 -0.2853284592048E+01  0.0000000000000E+00
-0.7440254649391E+00 -0.2781048758026E+01  0.0000000000000E+00
-0.7450859091951E+00 -0.2708823449412E+01  0.0000000000000E+00
-0.7465958492710E+00 -0.2636615810817E+01  0.0000000000000E+00
-0.7485874546793E+00 -0.2564434174075E+01  0.0000000000000E+00
-0.7510862904237E+00 -0.2492287524946E+01  0.0000000000000E+00
-0.7541212775826E+00 -0.2420186578752E+01  0.0000000000000E+00
-0.7577322022120E+00 -0.2348144920990E+01  0.0000000000000E+00
-0.7619168261599E+00 -0.2276172365381E+01  0.0000000000000E+00
-0.7666168235266E+00 -0.2204270669853E+01  0.0000000000000E+00
-0.7717905575071E+00 -0.2132441512079E+01  0.0000000000000E+00
-0.7774138124011E+00 -0.2060687671016E+01  0.0000000000000E+00
-0.7834786858233E+00 -0.1989014048599E+01  0.0000000000000E+00
-0.7899973053517E+00 -0.1917429541373E+01  0.0000000000000E+00
-0.7970184419288E+00 -0.1845951358046E+01  0.0000000000000E+00
-0.7150148098282E+00 -0.4659268290171E+01  0.0000000000000E+00
-0.7150296196255E+00 -0.4586949605377E+01  0.0000000000000E+00
-0.7150444295138E+00 -0.4514630476484E+01  0.0000000000000E+00
-0.7150592393606E+00 -0.4442311550338E+01  0.0000000000000E+00
-0.7150740492044E+00 -0.4369992638572E+01  0.0000000000000E+00
-0.7150888590538E+00 -0.4297673699632E+01  0.0000000000000E+00
-0.7151036688944E+00 -0.4225354803435E+01  0.0000000000000E+00
-0.7151184787405E+00 -0.4153035880725E+01  0.0000000000000E+00
-0.7151332885855E+00 -0.4080716963328E+01  0.0000000000000E+00
-0.7151480984288E+00 -0.4008398053915E+01  0.0000000000000E+00
-0.7151629082753E+00 -0.3936079129367E+01  0.0000000000000E+00
-0.7151777181168E+00 -0.3863760228534E+01  0.0000000000000E+00
-0.7151925279649E+00 -0.3791441296138E+01  0.0000000000000E+00
-0.7152073378250E+00 -0.3719122304743E+01  0.0000000000000E+00
-0.7152221476809E+00 -0.3646803333930E+01  0.0000000000000E+00
-0.7152369575191E+00 -0.3574484449629E+01  0.0000000000000E+00
-0.7152517674881E+00 -0.3502164926862E+01  0.0000000000000E+00
-0.7152665772096E+00 -0.3429846612442E+01  0.0000000000000E+00
-0.7152813870567E+00 -0.3357527684586E+01  0.0000000000000E+00
-0.7152961968876E+00 -0.3285208835972E+01  0.0000000000000E+00
-0.7153110066996E+00 -0.3212890079470E+01  0.0000000000000E+00
-0.7153258165191E+00 -0.3140571286475E+01  0.0000000000000E+00
-0.7153406263452E+00 -0.3068252461137E+01  0.0000000000000E+00
-0.7153680225135E+00 -0.2995933573580E+01  0.0000000000000E+00
-0.7154890725045E+00 -0.2923614915879E+01  0.0000000000000E+00
-0.7158163429684E+00 -0.2851297825445E+01  0.0000000000000E+00
-0.7164524462290E+00 -0.2778985577529E+01  0.0000000000000E+00
-0.7174729136566E+00 -0.2706683855107E+01  0.0000000000000E+00
-0.7189261889441E+00 -0.2634399802702E+01  0.0000000000000E+00
-0.7208432472812E+00 -0.2562141752268E+01  0.0000000000000E+00
-0.7232487045449E+00 -0.2489918689380E+01  0.0000000000000E+00
-0.7261704080913E+00 -0.2417741329381E+01  0.0000000000000E+00
-0.7296466668831E+00 -0.2345623257995E+01  0.0000000000000E+00
-0.7336753258596E+00 -0.2273574288674E+01  0.0000000000000E+00
-0.7382002245257E+00 -0.2201596179347E+01  0.0000000000000E+00
-0.7431812718828E+00 -0.2129690607742E+01  0.0000000000000E+00
-0.7485951512610E+00 -0.2057860352761E+01  0.0000000000000E+00
-0.7544342536587E+00 -0.1986110316347E+01  0.0000000000000E+00
-0.7607102564081E+00 -0.1914449395305E+01  0.0000000000000E+00
-0.7674701197840E+00 -0.1842894798340E+01  0.0000000000000E+00
-0.6875133140180E+00 -0.4659194733497E+01  0.0000000000000E+00
-0.6875266280083E+00 -0.4586802492181E+01  0.0000000000000E+00
-0.6875399420804E+00 -0.4514409806315E+01  0.0000000000000E+00
-0.6875532561151E+00 -0.4442017323401E+01  0.0000000000000E+00
-0.6875665701472E+00 -0.4369624854884E+01  0.0000000000000E+00
-0.6875798841843E+00 -0.4297232359164E+01  0.0000000000000E+00
-0.6875931982135E+00 -0.4224839906230E+01  0.0000000000000E+00
-0.6876065122476E+00 -0.4152447426757E+01  0.0000000000000E+00
-0.6876198262808E+00 -0.4080054952602E+01  0.0000000000000E+00
-0.6876331403124E+00 -0.4007662486439E+01  0.0000000000000E+00
-0.6876464543469E+00 -0.3935270005125E+01  0.0000000000000E+00
-0.6876597683769E+00 -0.3862877547551E+01  0.0000000000000E+00
-0.6876730824128E+00 -0.3790485058383E+01  0.0000000000000E+00
-0.6876863964596E+00 -0.3718092510154E+01  0.0000000000000E+00
-0.6876997105025E+00 -0.3645699982529E+01  0.0000000000000E+00
-0.6877130245296E+00 -0.3573307541504E+01  0.0000000000000E+00
-0.6877263386741E+00 -0.3500914461363E+01  0.0000000000000E+00
-0.6877396525963E+00 -0.3428522590798E+01  0.0000000000000E+00
-0.6877529666313E+00 -0.3356130106173E+01  0.0000000000000E+00
-0.6877662806518E+00 -0.3283737700872E+01  0.0000000000000E+00
-0.6877795946553E+00 -0.3211345387775E+01  0.0000000000000E+00
-0.6877929086655E+00 -0.3138953038149E+01  0.0000000000000E+00
-0.6878062226817E+00 -0.3066560656146E+01  0.0000000000000E+00
-0.6878316377421E+00 -0.2994168211858E+01  0.0000000000000E+00
-0.6879470955743E+00 -0.2921775997472E+01  0.0000000000000E+00
-0.6882608225479E+00 -0.2849385350480E+01  0.0000000000000E+00
-0.6888714745171E+00 -0.2776999546033E+01  0.0000000000000E+00
-0.6898516705568E+00 -0.2704624267162E+01  0.0000000000000E+00
-0.6912479864942E+00 -0.2632266658308E+01  0.0000000000000E+00
-0.6930902031963E+00 -0.2559935051537E+01  0.0000000000000E+00
-0.6954019874130E+00 -0.2487638432247E+01  0.0000000000000E+00
-0.6982101127777E+00 -0.2415387515803E+01  0.0000000000000E+00
-0.7015514111604E+00 -0.2343195888146E+01  0.0000000000000E+00
-0.7054238105909E+00 -0.2271073362469E+01  0.0000000000000E+00
-0.7097733159789E+00 -0.2199021696703E+01  0.0000000000000E+00
-0.7145613821325E+00 -0.2127042568627E+01  0.0000000000000E+00
-0.7197655914124E+00 -0.2055138757093E+01  0.0000000000000E+00
-0.7253786282006E+00 -0.1983315164049E+01  0.0000000000000E+00
-0.7314117195845E+00 -0.1911580686551E+01  0.0000000000000E+00
-0.7379100151708E+00 -0.1839952533300E+01  0.0000000000000E+00
-0.6600115347780E+00 -0.4659124038756E+01  0.0000000000000E+00
-0.6600230695320E+00 -0.4586661102847E+01  0.0000000000000E+00
-0.6600346043568E+00 -0.4514197721954E+01  0.0000000000000E+00
-0.6600461391493E+00 -0.4441734544211E+01  0.0000000000000E+00
-0.6600576739395E+00 -0.4369271380878E+01  0.0000000000000E+00
-0.6600692087340E+00 -0.4296808190316E+01  0.0000000000000E+00
-0.6600807435217E+00 -0.4224345042582E+01  0.0000000000000E+00
-0.6600922783136E+00 -0.4151881868284E+01  0.0000000000000E+00
-0.6601038131047E+00 -0.4079418699308E+01  0.0000000000000E+00
-0.6601153478945E+00 -0.4006955538333E+01  0.0000000000000E+00
-0.6601268826867E+00 -0.3934492362191E+01  0.0000000000000E+00
-0.6601384174751E+00 -0.3862029209812E+01  0.0000000000000E+00
-0.6601499522686E+00 -0.3789566025808E+01  0.0000000000000E+00
-0.6601614870715E+00 -0.3717102782687E+01  0.0000000000000E+00
-0.6601730218711E+00 -0.3644639560188E+01  0.0000000000000E+00
-0.6601845566569E+00 -0.3572176424375E+01  0.0000000000000E+00
-0.6601960915445E+00 -0.3499712648821E+01  0.0000000000000E+00
-0.6602076262394E+00 -0.3427250084026E+01  0.0000000000000E+00
-0.6602191610322E+00 -0.3354786904570E+01  0.0000000000000E+00
-0.6602306958123E+00 -0.3282323804515E+01  0.0000000000000E+00
-0.6602422305777E+00 -0.3209860796755E+01  0.0000000000000E+00
-0.6602537653490E+00 -0.3137397752429E+01  0.0000000000000E+00
-0.6602653001253E+00 -0.3064934675696E+01  0.0000000000000E+00
-0.6602884506478E+00 -0.2992471536614E+01  0.0000000000000E+00
-0.6603980328915E+00 -0.2920008627477E+01  0.0000000000000E+00
-0.6606979329459E+00 -0.2847547285856E+01  0.0000000000000E+00
-0.6612828501955E+00 -0.2775090786807E+01  0.0000000000000E+00
-0.6622224914199E+00 -0.2702644813413E+01  0.0000000000000E+00
-0.6635615645806E+00 -0.2630216510033E+01  0.0000000000000E+00
-0.6653286562223E+00 -0.2557814208847E+01  0.0000000000000E+00
-0.6675464839670E+00 -0.2485446895079E+01  0.0000000000000E+00
-0.6702407477259E+00 -0.2413125284116E+01  0.0000000000000E+00
-0.6734468022770E+00 -0.2340862962106E+01  0.0000000000000E+00
-0.6771626587394E+00 -0.2268669741993E+01  0.0000000000000E+00
-0.6813364874278E+00 -0.2196547381714E+01  0.0000000000000E+00
-0.6859312889571E+00 -0.2124497559093E+01  0.0000000000000E+00
-0.6909255447183E+00 -0.2052523052934E+01  0.0000000000000E+00
-0.6963122324769E+00 -0.1980628765193E+01  0.0000000000000E+00
-0.7021021290765E+00 -0.1908823593166E+01  0.0000000000000E+00
-0.7083385734561E+00 -0.1837124745548E+01  0.0000000000000E+00
-0.6325094830437E+00 -0.4659056210321E+01  0.0000000000000E+00
-0.6325189660676E+00 -0.4586525446119E+01  0.0000000000000E+00
-0.6325284491498E+00 -0.4513994236516E+01  0.0000000000000E+00
-0.6325379322054E+00 -0.4441463230253E+01  0.0000000000000E+00
-0.6325474152591E+00 -0.4368932238414E+01  0.0000000000000E+00
-0.6325568983163E+00 -0.4296401219321E+01  0.0000000000000E+00
-0.6325663813680E+00 -0.4223870243095E+01  0.0000000000000E+00
-0.6325758644231E+00 -0.4151339240280E+01  0.0000000000000E+00
-0.6325853474776E+00 -0.4078808242792E+01  0.0000000000000E+00
-0.6325948305309E+00 -0.4006277253313E+01  0.0000000000000E+00
-0.6326043135863E+00 -0.3933746248653E+01  0.0000000000000E+00
-0.6326137966386E+00 -0.3861215267778E+01  0.0000000000000E+00
-0.6326232796950E+00 -0.3788684255248E+01  0.0000000000000E+00
-0.6326327627591E+00 -0.3716153183546E+01  0.0000000000000E+00
-0.6326422458206E+00 -0.3643622132486E+01  0.0000000000000E+00
-0.6326517288707E+00 -0.3571091168192E+01  0.0000000000000E+00
-0.6326612120045E+00 -0.3498559563559E+01  0.0000000000000E+00
-0.6326706949798E+00 -0.3426029170817E+01  0.0000000000000E+00
-0.6326801780356E+00 -0.3353498162840E+01  0.0000000000000E+00
-0.6326896610811E+00 -0.3280967234338E+01  0.0000000000000E+00
-0.6326991441144E+00 -0.3208436398218E+01  0.0000000000000E+00
-0.6327086271525E+00 -0.3135905525497E+01  0.0000000000000E+00
-0.6327181101949E+00 -0.3063374620339E+01  0.0000000000000E+00
-0.6327387236849E+00 -0.2990843652771E+01  0.0000000000000E+00
-0.6328421578459E+00 -0.2918312915189E+01  0.0000000000000E+00
-0.6331279584877E+00 -0.2845783745241E+01  0.0000000000000E+00
-0.6336868685247E+00 -0.2773259417889E+01  0.0000000000000E+00
-0.6345856824418E+00 -0.2700745616269E+01  0.0000000000000E+00
-0.6358672403342E+00 -0.2628249484662E+01  0.0000000000000E+00
-0.6375589344252E+00 -0.2555779355352E+01  0.0000000000000E+00
-0.6396825332080E+00 -0.2483344213402E+01  0.0000000000000E+00
-0.6422626628715E+00 -0.2410954774215E+01  0.0000000000000E+00
-0.6453332011029E+00 -0.2338624624143E+01  0.0000000000000E+00
-0.6488922421098E+00 -0.2266363575889E+01  0.0000000000000E+00
-0.6528901216113E+00 -0.2194173387393E+01  0.0000000000000E+00
-0.6572913860296E+00 -0.2122055736525E+01  0.0000000000000E+00
-0.6620754157856E+00 -0.2050013402043E+01  0.0000000000000E+00
-0.6672354820285E+00 -0.1978051285908E+01  0.0000000000000E+00
-0.6727819113590E+00 -0.1906178285648E+01  0.0000000000000E+00
-0.6787562320482E+00 -0.1834411609955E+01  0.0000000000000E+00
-0.6050071698059E+00 -0.4658991252397E+01  0.0000000000000E+00
-0.6050143395968E+00 -0.4586395530405E+01  0.0000000000000E+00
-0.6050215094317E+00 -0.4513799362613E+01  0.0000000000000E+00
-0.6050286792466E+00 -0.4441203398345E+01  0.0000000000000E+00
-0.6050358490600E+00 -0.4368607448512E+01  0.0000000000000E+00
-0.6050430188761E+00 -0.4296011471401E+01  0.0000000000000E+00
-0.6050501886880E+00 -0.4223415537196E+01  0.0000000000000E+00
-0.6050573585025E+00 -0.4150819576378E+01  0.0000000000000E+00
-0.6050645283165E+00 -0.4078223620892E+01  0.0000000000000E+00
-0.6050716981297E+00 -0.4005627673422E+01  0.0000000000000E+00
-0.6050788679444E+00 -0.3933031710757E+01  0.0000000000000E+00
-0.6050860377568E+00 -0.3860435771899E+01  0.0000000000000E+00
-0.6050932075722E+00 -0.3787839801358E+01  0.0000000000000E+00
-0.6051003773936E+00 -0.3715243771590E+01  0.0000000000000E+00
-0.6051075472128E+00 -0.3642647762484E+01  0.0000000000000E+00
-0.6051147170236E+00 -0.3570051840222E+01  0.0000000000000E+00
-0.6051218868976E+00 -0.3497455277047E+01  0.0000000000000E+00
-0.6051290566518E+00 -0.3424859926848E+01  0.0000000000000E+00
-0.6051362264668E+00 -0.3352263960863E+01  0.0000000000000E+00
-0.6051433962740E+00 -0.3279668074425E+01  0.0000000000000E+00
-0.6051505660720E+00 -0.3207072280451E+01  0.0000000000000E+00
-0.6051577358736E+00 -0.3134476449843E+01  0.0000000000000E+00
-0.6051649056785E+00 -0.3061880586770E+01  0.0000000000000E+00
-0.6051827206324E+00 -0.2989284661228E+01  0.0000000000000E+00
-0.6052797452072E+00 -0.2916688965711E+01  0.0000000000000E+00
-0.6055511849337E+00 -0.2844094837942E+01  0.0000000000000E+00
-0.6060838262558E+00 -0.2771505552792E+01  0.0000000000000E+00
-0.6069415513641E+00 -0.2698926793447E+01  0.0000000000000E+00
-0.6081653324871E+00 -0.2626365704114E+01  0.0000000000000E+00
-0.6097813675272E+00 -0.2553830617177E+01  0.0000000000000E+00
-0.6118104758481E+00 -0.2481330517544E+01  0.0000000000000E+00
-0.6142762099169E+00 -0.2408876120636E+01  0.0000000000000E+00
-0.6172109703304E+00 -0.2336481012995E+01  0.0000000000000E+00
-0.6206129343837E+00 -0.2264155007098E+01  0.0000000000000E+00
-0.6244346032008E+00 -0.2191899860885E+01  0.0000000000000E+00
-0.6286420690109E+00 -0.2119717252272E+01  0.0000000000000E+00
-0.6332156112646E+00 -0.2047609959972E+01  0.0000000000000E+00
-0.6381487944950E+00 -0.1975582885952E+01  0.0000000000000E+00
-0.6434514950607E+00 -0.1903644927961E+01  0.0000000000000E+00
-0.6491634305650E+00 -0.1831813294687E+01  0.0000000000000E+00
-0.5775046061084E+00 -0.4658929169017E+01  0.0000000000000E+00
-0.5775092122072E+00 -0.4586271363775E+01  0.0000000000000E+00
-0.5775138183343E+00 -0.4513613112352E+01  0.0000000000000E+00
-0.5775184244485E+00 -0.4440955064626E+01  0.0000000000000E+00
-0.5775230305618E+00 -0.4368297031349E+01  0.0000000000000E+00
-0.5775276366768E+00 -0.4295638970769E+01  0.0000000000000E+00
-0.5775322427890E+00 -0.4222980953132E+01  0.0000000000000E+00
-0.5775368489030E+00 -0.4150322908860E+01  0.0000000000000E+00
-0.5775414550166E+00 -0.4077664869924E+01  0.0000000000000E+00
-0.5775460611297E+00 -0.4005006839010E+01  0.0000000000000E+00
-0.5775506672438E+00 -0.3932348792890E+01  0.0000000000000E+00
-0.5775552733564E+00 -0.3859690770596E+01  0.0000000000000E+00
-0.5775598794710E+00 -0.3787032716592E+01  0.0000000000000E+00
-0.5775644855893E+00 -0.3714374603311E+01  0.0000000000000E+00
-0.5775690917063E+00 -0.3641716510709E+01  0.0000000000000E+00
-0.5775736978178E+00 -0.3569058505025E+01  0.0000000000000E+00
-0.5775783039700E+00 -0.3496399857880E+01  0.0000000000000E+00
-0.5775829100452E+00 -0.3423742424750E+01  0.0000000000000E+00
-0.5775875161595E+00 -0.3351084375306E+01  0.0000000000000E+00
-0.5775921222688E+00 -0.3278426405476E+01  0.0000000000000E+00
-0.5775967283721E+00 -0.3205768528191E+01  0.0000000000000E+00
-0.5776013344778E+00 -0.3133110614240E+01  0.0000000000000E+00
-0.5776059405856E+00 -0.3060452667796E+01  0.0000000000000E+00
-0.5776207065436E+00 -0.2987794658827E+01  0.0000000000000E+00
-0.5777110710727E+00 -0.2915136879922E+01  0.0000000000000E+00
-0.5779678994248E+00 -0.2842480668871E+01  0.0000000000000E+00
-0.5784740215735E+00 -0.2769829300463E+01  0.0000000000000E+00
-0.5792904074149E+00 -0.2697188457929E+01  0.0000000000000E+00
-0.5804561613110E+00 -0.2624565285406E+01  0.0000000000000E+00
-0.5819962868433E+00 -0.2551968115375E+01  0.0000000000000E+00
-0.5839306542459E+00 -0.2479405932593E+01  0.0000000000000E+00
-0.5862817422636E+00 -0.2406889452499E+01  0.0000000000000E+00
-0.5890804744040E+00 -0.2334432261820E+01  0.0000000000000E+00
-0.5923251110489E+00 -0.2262044172811E+01  0.0000000000000E+00
-0.5959703187267E+00 -0.2189726943418E+01  0.0000000000000E+00
-0.5999837354740E+00 -0.2117482251598E+01  0.0000000000000E+00
-0.6043465397710E+00 -0.2045312876019E+01  0.0000000000000E+00
-0.6090525895346E+00 -0.1973223718658E+01  0.0000000000000E+00
-0.6141113108821E+00 -0.1901223677472E+01  0.0000000000000E+00
-0.6195606107491E+00 -0.1829329961147E+01  0.0000000000000E+00
-0.5500018030462E+00 -0.4658869964047E+01  0.0000000000000E+00
-0.5500036060886E+00 -0.4586152953959E+01  0.0000000000000E+00
-0.5500054091420E+00 -0.4513435497326E+01  0.0000000000000E+00
-0.5500072121905E+00 -0.4440718244555E+01  0.0000000000000E+00
-0.5500090152385E+00 -0.4368001006246E+01  0.0000000000000E+00
-0.5500108182873E+00 -0.4295283740612E+01  0.0000000000000E+00
-0.5500126213350E+00 -0.4222566517955E+01  0.0000000000000E+00
-0.5500144243833E+00 -0.4149849268642E+01  0.0000000000000E+00
-0.5500162274315E+00 -0.4077132024669E+01  0.0000000000000E+00
-0.5500180304795E+00 -0.4004414788725E+01  0.0000000000000E+00
-0.5500198335279E+00 -0.3931697537561E+01  0.0000000000000E+00
-0.5500216365757E+00 -0.3858980310244E+01  0.0000000000000E+00
-0.5500234396243E+00 -0.3786263051191E+01  0.0000000000000E+00
-0.5500252426743E+00 -0.3713545732813E+01  0.0000000000000E+00
-0.5500270457239E+00 -0.3640828435130E+01  0.0000000000000E+00
-0.5500288487712E+00 -0.3568111224436E+01  0.0000000000000E+00
-0.5500306518345E+00 -0.3495393371759E+01  0.0000000000000E+00
-0.5500324548677E+00 -0.3422676734085E+01  0.0000000000000E+00
-0.5500342579162E+00 -0.3349959479596E+01  0.0000000000000E+00
-0.5500360609627E+00 -0.3277242304786E+01  0.0000000000000E+00
-0.5500378640069E+00 -0.3204525222595E+01  0.0000000000000E+00
-0.5500396670520E+00 -0.3131808103709E+01  0.0000000000000E+00
-0.5500414700979E+00 -0.3059090952303E+01  0.0000000000000E+00
-0.5500529476950E+00 -0.2986373738320E+01  0.0000000000000E+00
-0.5501364128136E+00 -0.2913656754436E+01  0.0000000000000E+00
-0.5503783904272E+00 -0.2840941338509E+01  0.0000000000000E+00
-0.5508577540385E+00 -0.2768230765247E+01  0.0000000000000E+00
-0.5516325612498E+00 -0.2695530717925E+01  0.0000000000000E+00
-0.5527400485558E+00 -0.2622848340613E+01  0.0000000000000E+00
-0.5542040252180E+00 -0.2550191965884E+01  0.0000000000000E+00
-0.5560434123399E+00 -0.2477570578353E+01  0.0000000000000E+00
-0.5582796149445E+00 -0.2404994893474E+01  0.0000000000000E+00
-0.5609420794508E+00 -0.2332478498149E+01  0.0000000000000E+00
-0.5640291493261E+00 -0.2260031204427E+01  0.0000000000000E+00
-0.5674976565036E+00 -0.2187654770253E+01  0.0000000000000E+00
-0.5713167848275E+00 -0.2115350873628E+01  0.0000000000000E+00
-0.5754686118071E+00 -0.2043122293177E+01  0.0000000000000E+00
-0.5799472887431E+00 -0.1970973930881E+01  0.0000000000000E+00
-0.5847617915126E+00 -0.1898914684902E+01  0.0000000000000E+00
-0.5899482163835E+00 -0.1826961763921E+01  0.0000000000000E+00
-0.5225031123729E+00 -0.4658813981278E+01  0.0000000000000E+00
-0.5225062247393E+00 -0.4586040988536E+01  0.0000000000000E+00
-0.5225093371249E+00 -0.4513267548907E+01  0.0000000000000E+00
-0.5225124495017E+00 -0.4440494313297E+01  0.0000000000000E+00
-0.5225155618779E+00 -0.4367721092158E+01  0.0000000000000E+00
-0.5225186742552E+00 -0.4294947843675E+01  0.0000000000000E+00
-0.5225217866308E+00 -0.4222174638202E+01  0.0000000000000E+00
-0.5225248990074E+00 -0.4149401406051E+01  0.0000000000000E+00
-0.5225280113839E+00 -0.4076628179245E+01  0.0000000000000E+00
-0.5225311237600E+00 -0.4003854960475E+01  0.0000000000000E+00
-0.5225342361367E+00 -0.3931081726473E+01  0.0000000000000E+00
-0.5225373485124E+00 -0.3858308516336E+01  0.0000000000000E+00
-0.5225404608895E+00 -0.3785535274437E+01  0.0000000000000E+00
-0.5225435732691E+00 -0.3712761973169E+01  0.0000000000000E+00
-0.5225466856479E+00 -0.3639988692612E+01  0.0000000000000E+00
-0.5225497980229E+00 -0.3567215499111E+01  0.0000000000000E+00
-0.5225529104254E+00 -0.3494441663132E+01  0.0000000000000E+00
-0.5225560227759E+00 -0.3421669043092E+01  0.0000000000000E+00
-0.5225591351527E+00 -0.3348895805762E+01  0.0000000000000E+00
-0.5225622475262E+00 -0.3276122648172E+01  0.0000000000000E+00
-0.5225653598957E+00 -0.3203349583273E+01  0.0000000000000E+00
-0.5225684722668E+00 -0.3130576481651E+01  0.0000000000000E+00
-0.5225715846393E+00 -0.3057803347483E+01  0.0000000000000E+00
-0.5225838878364E+00 -0.2985030150688E+01  0.0000000000000E+00
-0.5226645791765E+00 -0.2912257184026E+01  0.0000000000000E+00
-0.5228958573808E+00 -0.2839485785418E+01  0.0000000000000E+00
-0.5233526522770E+00 -0.2766719229496E+01  0.0000000000000E+00
-0.5240901185848E+00 -0.2693963199577E+01  0.0000000000000E+00
-0.5251436309752E+00 -0.2621224839666E+01  0.0000000000000E+00
-0.5265358082435E+00 -0.2548512482425E+01  0.0000000000000E+00
-0.5282846254413E+00 -0.2475835112332E+01  0.0000000000000E+00
-0.5304104173394E+00 -0.2403203444858E+01  0.0000000000000E+00
-0.5329411580310E+00 -0.2330631067071E+01  0.0000000000000E+00
-0.5358752738152E+00 -0.2258127790822E+01  0.0000000000000E+00
-0.5391717550294E+00 -0.2185695374059E+01  0.0000000000000E+00
-0.5428013263252E+00 -0.2113335494818E+01  0.0000000000000E+00
-0.5467469613379E+00 -0.2041050931690E+01  0.0000000000000E+00
-0.5510031038032E+00 -0.1968846586659E+01  0.0000000000000E+00
-0.5555782807994E+00 -0.1896731358076E+01  0.0000000000000E+00
-0.5605067837800E+00 -0.1824722454622E+01  0.0000000000000E+00
-0.4950042080534E+00 -0.4658760848519E+01  0.0000000000000E+00
-0.4950084160981E+00 -0.4585934723130E+01  0.0000000000000E+00
-0.4950126241686E+00 -0.4513108150526E+01  0.0000000000000E+00
-0.4950168322273E+00 -0.4440281782090E+01  0.0000000000000E+00
-0.4950210402851E+00 -0.4367455428137E+01  0.0000000000000E+00
-0.4950252483446E+00 -0.4294629046819E+01  0.0000000000000E+00
-0.4950294564015E+00 -0.4221802708543E+01  0.0000000000000E+00
-0.4950336644600E+00 -0.4148976343569E+01  0.0000000000000E+00
-0.4950378725182E+00 -0.4076149983944E+01  0.0000000000000E+00
-0.4950420805759E+00 -0.4003323632361E+01  0.0000000000000E+00
-0.4950462886345E+00 -0.3930497265535E+01  0.0000000000000E+00
-0.4950504966917E+00 -0.3857670922591E+01  0.0000000000000E+00
-0.4950547047508E+00 -0.3784844547863E+01  0.0000000000000E+00
-0.4950589128133E+00 -0.3712018113721E+01  0.0000000000000E+00
-0.4950631208746E+00 -0.3639191700306E+01  0.0000000000000E+00
-0.4950673289308E+00 -0.3566365374010E+01  0.0000000000000E+00
-0.4950715370242E+00 -0.3493538404768E+01  0.0000000000000E+00
-0.4950757450473E+00 -0.3420712652352E+01  0.0000000000000E+00
-0.4950799531061E+00 -0.3347886282195E+01  0.0000000000000E+00
-0.4950841611603E+00 -0.3275059991837E+01  0.0000000000000E+00
-0.4950883692091E+00 -0.3202233794237E+01  0.0000000000000E+00
-0.4950925772601E+00 -0.3129407559887E+01  0.0000000000000E+00
-0.4950967853129E+00 -0.3056581292968E+01  0.0000000000000E+00
-0.4951097004640E+00 -0.2983754963374E+01  0.0000000000000E+00
-0.4951874043817E+00 -0.2910928863946E+01  0.0000000000000E+00
-0.4954077695377E+00 -0.2838104332664E+01  0.0000000000000E+00
-0.4958417820870E+00 -0.2765284644087E+01  0.0000000000000E+00
-0.4965416938684E+00 -0.2692475481572E+01  0.0000000000000E+00
-0.4975410177298E+00 -0.2619683989065E+01  0.0000000000000E+00
-0.4988611820019E+00 -0.2546918499309E+01  0.0000000000000E+00
-0.5005192156838E+00 -0.2474187996655E+01  0.0000000000000E+00
-0.5025343832951E+00 -0.2401503196589E+01  0.0000000000000E+00
-0.5049331866049E+00 -0.2328877686334E+01  0.0000000000000E+00
-0.5077141347430E+00 -0.2256321277556E+01  0.0000000000000E+00
-0.5108383764496E+00 -0.2183835728204E+01  0.0000000000000E+00
-0.5142781771833E+00 -0.2111422716353E+01  0.0000000000000E+00
-0.5180174067047E+00 -0.2039085020552E+01  0.0000000000000E+00
-0.5220508011842E+00 -0.1966827542795E+01  0.0000000000000E+00
-0.5263864389021E+00 -0.1894659181612E+01  0.0000000000000E+00
-0.5310568064991E+00 -0.1822597145681E+01  0.0000000000000E+00
-0.4675051002525E+00 -0.4658710568986E+01  0.0000000000000E+00
-0.4675102004944E+00 -0.4585834164169E+01  0.0000000000000E+00
-0.4675153007675E+00 -0.4512957311829E+01  0.0000000000000E+00
-0.4675204010264E+00 -0.4440080663798E+01  0.0000000000000E+00
-0.4675255012843E+00 -0.4367204030259E+01  0.0000000000000E+00
-0.4675306015441E+00 -0.4294327369336E+01  0.0000000000000E+00
-0.4675357018008E+00 -0.4221450751485E+01  0.0000000000000E+00
-0.4675408020595E+00 -0.4148574106919E+01  0.0000000000000E+00
-0.4675459023178E+00 -0.4075697467704E+01  0.0000000000000E+00
-0.4675510025755E+00 -0.4002820836537E+01  0.0000000000000E+00
-0.4675561028342E+00 -0.3929944190116E+01  0.0000000000000E+00
-0.4675612030913E+00 -0.3857067567594E+01  0.0000000000000E+00
-0.4675663033506E+00 -0.3784190913266E+01  0.0000000000000E+00
-0.4675714036141E+00 -0.3711314199484E+01  0.0000000000000E+00
-0.4675765038762E+00 -0.3638437506442E+01  0.0000000000000E+00
-0.4675816041321E+00 -0.3565560900580E+01  0.0000000000000E+00
-0.4675867044331E+00 -0.3492683651327E+01  0.0000000000000E+00
-0.4675918046488E+00 -0.3419807619741E+01  0.0000000000000E+00
-0.4675969049078E+00 -0.3346930969987E+01  0.0000000000000E+00
-0.4676020051612E+00 -0.3274054400087E+01  0.0000000000000E+00
-0.4676071054081E+00 -0.3201177923009E+01  0.0000000000000E+00
-0.4676122056576E+00 -0.3128301409157E+01  0.0000000000000E+00
-0.4676173059094E+00 -0.3055424862712E+01  0.0000000000000E+00
-0.4676306295327E+00 -0.2982548253547E+01  0.0000000000000E+00
-0.4677051425463E+00 -0.2909671874579E+01  0.0000000000000E+00
-0.4679143911723E+00 -0.2836797063844E+01  0.0000000000000E+00
-0.4683254178920E+00 -0.2763927095833E+01  0.0000000000000E+00
-0.4689875716638E+00 -0.2691067653940E+01  0.0000000000000E+00
-0.4699325035119E+00 -0.2618225882054E+01  0.0000000000000E+00
-0.4711804513026E+00 -0.2545410112997E+01  0.0000000000000E+00
-0.4727474979822E+00 -0.2472629330997E+01  0.0000000000000E+00
-0.4746518378190E+00 -0.2399894251555E+01  0.0000000000000E+00
-0.4769185002582E+00 -0.2327218462044E+01  0.0000000000000E+00
-0.4795460772598E+00 -0.2254611773950E+01  0.0000000000000E+00
-0.4824978759672E+00 -0.2182075945228E+01  0.0000000000000E+00
-0.4857477026460E+00 -0.2109612653982E+01  0.0000000000000E+00
-0.4892803231818E+00 -0.2037224678732E+01  0.0000000000000E+00
-0.4930907661800E+00 -0.1964916921473E+01  0.0000000000000E+00
-0.4971866611237E+00 -0.1892698280907E+01  0.0000000000000E+00
-0.5015986898404E+00 -0.1820585965710E+01  0.0000000000000E+00
-0.4400057998211E+00 -0.4658663145781E+01  0.0000000000000E+00
-0.4400115996301E+00 -0.4585739317857E+01  0.0000000000000E+00
-0.4400173994747E+00 -0.4512815042119E+01  0.0000000000000E+00
-0.4400231993031E+00 -0.4439890970823E+01  0.0000000000000E+00
-0.4400289991303E+00 -0.4366966914029E+01  0.0000000000000E+00
-0.4400347989596E+00 -0.4294042829833E+01  0.0000000000000E+00
-0.4400405987856E+00 -0.4221118788737E+01  0.0000000000000E+00
-0.4400463986137E+00 -0.4148194720907E+01  0.0000000000000E+00
-0.4400521984413E+00 -0.4075270658434E+01  0.0000000000000E+00
-0.4400579982683E+00 -0.4002346604013E+01  0.0000000000000E+00
-0.4400637980966E+00 -0.3929422534328E+01  0.0000000000000E+00
-0.4400695979229E+00 -0.3856498488558E+01  0.0000000000000E+00
-0.4400753977517E+00 -0.3783574410961E+01  0.0000000000000E+00
-0.4400811975853E+00 -0.3710650273871E+01  0.0000000000000E+00
-0.4400869974173E+00 -0.3637726157535E+01  0.0000000000000E+00
-0.4400927972423E+00 -0.3564802128435E+01  0.0000000000000E+00
-0.4400985971185E+00 -0.3491877455526E+01  0.0000000000000E+00
-0.4401043968978E+00 -0.3418954001076E+01  0.0000000000000E+00
-0.4401101967263E+00 -0.3346029928056E+01  0.0000000000000E+00
-0.4401159965484E+00 -0.3273105934943E+01  0.0000000000000E+00
-0.4401217963631E+00 -0.3200182034711E+01  0.0000000000000E+00
-0.4401275961808E+00 -0.3127258097681E+01  0.0000000000000E+00
-0.4401333960011E+00 -0.3054334128038E+01  0.0000000000000E+00
-0.4401469354660E+00 -0.2981410095632E+01  0.0000000000000E+00
-0.4402180649440E+00 -0.2908486293451E+01  0.0000000000000E+00
-0.4404160044070E+00 -0.2835564059586E+01  0.0000000000000E+00
-0.4408038526617E+00 -0.2762646668462E+01  0.0000000000000E+00
-0.4414280557851E+00 -0.2689739803510E+01  0.0000000000000E+00
-0.4423184029774E+00 -0.2616850608563E+01  0.0000000000000E+00
-0.4434939416404E+00 -0.2543987416518E+01  0.0000000000000E+00
-0.4449698086669E+00 -0.2471159211489E+01  0.0000000000000E+00
-0.4467631280738E+00 -0.2398376708990E+01  0.0000000000000E+00
-0.4488974569826E+00 -0.2325653496533E+01  0.0000000000000E+00
-0.4513714701828E+00 -0.2252999385440E+01  0.0000000000000E+00
-0.4541506332215E+00 -0.2180416133664E+01  0.0000000000000E+00
-0.4572102931718E+00 -0.2107905419345E+01  0.0000000000000E+00
-0.4605361120445E+00 -0.2035470020967E+01  0.0000000000000E+00
-0.4641234108799E+00 -0.1963114840532E+01  0.0000000000000E+00
-0.4679793703646E+00 -0.1890848776901E+01  0.0000000000000E+00
-0.4721328675123E+00 -0.1818689038749E+01  0.0000000000000E+00
-0.4125063188255E+00 -0.4658618581908E+01  0.0000000000000E+00
-0.4125126376377E+00 -0.4585650190204E+01  0.0000000000000E+00
-0.4125189564888E+00 -0.4512681350412E+01  0.0000000000000E+00
-0.4125252753222E+00 -0.4439712715187E+01  0.0000000000000E+00
-0.4125315941543E+00 -0.4366744094473E+01  0.0000000000000E+00
-0.4125379129888E+00 -0.4293775446340E+01  0.0000000000000E+00
-0.4125442318196E+00 -0.4220806841334E+01  0.0000000000000E+00
-0.4125505506527E+00 -0.4147838209578E+01  0.0000000000000E+00
-0.4125568694853E+00 -0.4074869583181E+01  0.0000000000000E+00
-0.4125631883172E+00 -0.4001900964841E+01  0.0000000000000E+00
-0.4125695071504E+00 -0.3928932331228E+01  0.0000000000000E+00
-0.4125758259816E+00 -0.3855963721545E+01  0.0000000000000E+00
-0.4125821448155E+00 -0.3782995080015E+01  0.0000000000000E+00
-0.4125884636546E+00 -0.3710026378956E+01  0.0000000000000E+00
-0.4125947824919E+00 -0.3637057698663E+01  0.0000000000000E+00
-0.4126011013216E+00 -0.3564089105661E+01  0.0000000000000E+00
-0.4126074202071E+00 -0.3491119868455E+01  0.0000000000000E+00
-0.4126137389871E+00 -0.3418151850454E+01  0.0000000000000E+00
-0.4126200578206E+00 -0.3345183213504E+01  0.0000000000000E+00
-0.4126263766472E+00 -0.3272214656509E+01  0.0000000000000E+00
-0.4126326954657E+00 -0.3199246192453E+01  0.0000000000000E+00
-0.4126390142875E+00 -0.3126277691576E+01  0.0000000000000E+00
-0.4126453331121E+00 -0.3053309158066E+01  0.0000000000000E+00
-0.4126589078544E+00 -0.2980340561753E+01  0.0000000000000E+00
-0.4127264732346E+00 -0.2907372195693E+01  0.0000000000000E+00
-0.4129129229765E+00 -0.2834405398026E+01  0.0000000000000E+00
-0.4132774122137E+00 -0.2761443443115E+01  0.0000000000000E+00
-0.4138634841439E+00 -0.2688492014427E+01  0.0000000000000E+00
-0.4146990661436E+00 -0.2615558255743E+01  0.0000000000000E+00
-0.4158020151508E+00 -0.2542650500030E+01  0.0000000000000E+00
-0.4171865220053E+00 -0.2469777731294E+01  0.0000000000000E+00
-0.4188686404727E+00 -0.2396950665061E+01  0.0000000000000E+00
-0.4208704553524E+00 -0.2324182888976E+01  0.0000000000000E+00
-0.4231907242625E+00 -0.2251484214202E+01  0.0000000000000E+00
-0.4257970711529E+00 -0.2178856398696E+01  0.0000000000000E+00
-0.4286663839034E+00 -0.2106301120627E+01  0.0000000000000E+00
-0.4317852206497E+00 -0.2033821158450E+01  0.0000000000000E+00
-0.4351491948666E+00 -0.1961421414169E+01  0.0000000000000E+00
-0.4387650384451E+00 -0.1889110786798E+01  0.0000000000000E+00
-0.4426598235861E+00 -0.1816906485009E+01  0.0000000000000E+00
-0.3850066669832E+00 -0.4658576880046E+01  0.0000000000000E+00
-0.3850133339525E+00 -0.4585566786567E+01  0.0000000000000E+00
-0.3850200009627E+00 -0.4512556244743E+01  0.0000000000000E+00
-0.3850266679543E+00 -0.4439545907604E+01  0.0000000000000E+00
-0.3850333349445E+00 -0.4366535584984E+01  0.0000000000000E+00
-0.3850400019372E+00 -0.4293525234929E+01  0.0000000000000E+00
-0.3850466689260E+00 -0.4220514928026E+01  0.0000000000000E+00
-0.3850533359172E+00 -0.4147504594357E+01  0.0000000000000E+00
-0.3850600029079E+00 -0.4074494266050E+01  0.0000000000000E+00
-0.3850666698979E+00 -0.4001483945806E+01  0.0000000000000E+00
-0.3850733368893E+00 -0.3928473610280E+01  0.0000000000000E+00
-0.3850800038785E+00 -0.3855463298697E+01  0.0000000000000E+00
-0.3850866708707E+00 -0.3782452955249E+01  0.0000000000000E+00
-0.3850933378682E+00 -0.3709442552238E+01  0.0000000000000E+00
-0.3851000048639E+00 -0.3636432170005E+01  0.0000000000000E+00
-0.3851066718516E+00 -0.3563421875112E+01  0.0000000000000E+00
-0.3851133388981E+00 -0.3490410935648E+01  0.0000000000000E+00
-0.3851200058333E+00 -0.3417401216084E+01  0.0000000000000E+00
-0.3851266728250E+00 -0.3344390877219E+01  0.0000000000000E+00
-0.3851333398094E+00 -0.3271380618355E+01  0.0000000000000E+00
-0.3851400067853E+00 -0.3198370452482E+01  0.0000000000000E+00
-0.3851466737645E+00 -0.3125360249768E+01  0.0000000000000E+00
-0.3851533407468E+00 -0.3052350014401E+01  0.0000000000000E+00
-0.3851667799195E+00 -0.2979339716195E+01  0.0000000000000E+00
-0.3852306103528E+00 -0.2906329648266E+01  0.0000000000000E+00
-0.3854053995203E+00 -0.2833321148803E+01  0.0000000000000E+00
-0.3857463588799E+00 -0.2760317492112E+01  0.0000000000000E+00
-0.3862941287481E+00 -0.2687324361690E+01  0.0000000000000E+00
-0.3870747746768E+00 -0.2614348901271E+01  0.0000000000000E+00
-0.3881049631399E+00 -0.2541399443887E+01  0.0000000000000E+00
-0.3893979389227E+00 -0.2468484973444E+01  0.0000000000000E+00
-0.3909686855394E+00 -0.2395616205479E+01  0.0000000000000E+00
-0.3928378154667E+00 -0.2322806727761E+01  0.0000000000000E+00
-0.3950041691510E+00 -0.2250066351305E+01  0.0000000000000E+00
-0.3974375289459E+00 -0.2177396834071E+01  0.0000000000000E+00
-0.4001163235393E+00 -0.2104799854255E+01  0.0000000000000E+00
-0.4030280071917E+00 -0.2032278190284E+01  0.0000000000000E+00
-0.4061684858133E+00 -0.1959836744166E+01  0.0000000000000E+00
-0.4095440424992E+00 -0.1887484415058E+01  0.0000000000000E+00
-0.4131799446368E+00 -0.1815238411627E+01  0.0000000000000E+00
-0.3575068566982E+00 -0.4658538042865E+01  0.0000000000000E+00
-0.3575137133821E+00 -0.4585489112285E+01  0.0000000000000E+00
-0.3575205701081E+00 -0.4512439733123E+01  0.0000000000000E+00
-0.3575274268148E+00 -0.4439390558754E+01  0.0000000000000E+00
-0.3575342835202E+00 -0.4366341398912E+01  0.0000000000000E+00
-0.3575411402282E+00 -0.4293292211620E+01  0.0000000000000E+00
-0.3575479969321E+00 -0.4220243067503E+01  0.0000000000000E+00
-0.3575548536386E+00 -0.4147193896606E+01  0.0000000000000E+00
-0.3575617103445E+00 -0.4074144731074E+01  0.0000000000000E+00
-0.3575685670497E+00 -0.4001095573609E+01  0.0000000000000E+00
-0.3575754237563E+00 -0.3928046400854E+01  0.0000000000000E+00
-0.3575822804607E+00 -0.3854997252054E+01  0.0000000000000E+00
-0.3575891371681E+00 -0.3781948071373E+01  0.0000000000000E+00
-0.3575959938810E+00 -0.3708898831097E+01  0.0000000000000E+00
-0.3576028505920E+00 -0.3635849611611E+01  0.0000000000000E+00
-0.3576097072948E+00 -0.3562800479510E+01  0.0000000000000E+00
-0.3576165640582E+00 -0.3489750702496E+01  0.0000000000000E+00
-0.3576234207069E+00 -0.3416702146031E+01  0.0000000000000E+00
-0.3576302774139E+00 -0.3343652969935E+01  0.0000000000000E+00
-0.3576371341133E+00 -0.3270603873882E+01  0.0000000000000E+00
-0.3576439908040E+00 -0.3197554870871E+01  0.0000000000000E+00
-0.3576508474981E+00 -0.3124505830998E+01  0.0000000000000E+00
-0.3576577041953E+00 -0.3051456758456E+01  0.0000000000000E+00
-0.3576708493558E+00 -0.2978407623039E+01  0.0000000000000E+00
-0.3577307864007E+00 -0.2905358717923E+01  0.0000000000000E+00
-0.3578937565552E+00 -0.2832311381340E+01  0.0000000000000E+00
-0.3582110276026E+00 -0.2759268887544E+01  0.0000000000000E+00
-0.3587203369794E+00 -0.2686236920060E+01  0.0000000000000E+00
-0.3594458884130E+00 -0.2613222622579E+01  0.0000000000000E+00
-0.3604031579141E+00 -0.2540234328192E+01  0.0000000000000E+00
-0.3616044442134E+00 -0.2467281020712E+01  0.0000000000000E+00
-0.3630636605739E+00 -0.2394373415687E+01  0.0000000000000E+00
-0.3647999471507E+00 -0.2321525101001E+01  0.0000000000000E+00
-0.3668122272178E+00 -0.2248745887532E+01  0.0000000000000E+00
-0.3690724415322E+00 -0.2176037533241E+01  0.0000000000000E+00
-0.3715605595890E+00 -0.2103401716352E+01  0.0000000000000E+00
-0.3742649317735E+00 -0.2030841215263E+01  0.0000000000000E+00
-0.3771817564307E+00 -0.1958360931988E+01  0.0000000000000E+00
-0.3803168678611E+00 -0.1885969765814E+01  0.0000000000000E+00
-0.3836937286386E+00 -0.1813684925408E+01  0.0000000000000E+00
-0.3300068987676E+00 -0.4658502072758E+01  0.0000000000000E+00
-0.3300137975208E+00 -0.4585417172147E+01  0.0000000000000E+00
-0.3300206963164E+00 -0.4512331822732E+01  0.0000000000000E+00
-0.3300275950926E+00 -0.4439246678212E+01  0.0000000000000E+00
-0.3300344938675E+00 -0.4366161548225E+01  0.0000000000000E+00
-0.3300413926450E+00 -0.4293076390776E+01  0.0000000000000E+00
-0.3300482914184E+00 -0.4219991276521E+01  0.0000000000000E+00
-0.3300551901943E+00 -0.4146906135475E+01  0.0000000000000E+00
-0.3300620889697E+00 -0.4073820999796E+01  0.0000000000000E+00
-0.3300689877443E+00 -0.4000735872187E+01  0.0000000000000E+00
-0.3300758865204E+00 -0.3927650729281E+01  0.0000000000000E+00
-0.3300827852943E+00 -0.3854565610343E+01  0.0000000000000E+00
-0.3300896840711E+00 -0.3781480459507E+01  0.0000000000000E+00
-0.3300965828536E+00 -0.3708395249047E+01  0.0000000000000E+00
-0.3301034816341E+00 -0.3635310059386E+01  0.0000000000000E+00
-0.3301103804063E+00 -0.3562224957155E+01  0.0000000000000E+00
-0.3301172792395E+00 -0.3489139209693E+01  0.0000000000000E+00
-0.3301241779574E+00 -0.3416054683381E+01  0.0000000000000E+00
-0.3301310767338E+00 -0.3342969537132E+01  0.0000000000000E+00
-0.3301379755026E+00 -0.3269884470966E+01  0.0000000000000E+00
-0.3301448742627E+00 -0.3196799497888E+01  0.0000000000000E+00
-0.3301517730262E+00 -0.3123714487929E+01  0.0000000000000E+00
-0.3301586717929E+00 -0.3050629445286E+01  0.0000000000000E+00
-0.3301713752953E+00 -0.2977544339735E+01  0.0000000000000E+00
-0.3302272713064E+00 -0.2904459464508E+01  0.0000000000000E+00
-0.3303782748028E+00 -0.2831376157875E+01  0.0000000000000E+00
-0.3306717098932E+00 -0.2758297694042E+01  0.0000000000000E+00
-0.3311424111341E+00 -0.2685229756563E+01  0.0000000000000E+00
-0.3318127204285E+00 -0.2612179489085E+01  0.0000000000000E+00
-0.3326969233240E+00 -0.2539155224757E+01  0.0000000000000E+00
-0.3338063724964E+00 -0.2466165947304E+01  0.0000000000000E+00
-0.3351539109577E+00 -0.2393222372285E+01  0.0000000000000E+00
-0.3367572065418E+00 -0.2320338087689E+01  0.0000000000000E+00
-0.3386152653497E+00 -0.2247522904270E+01  0.0000000000000E+00
-0.3407021865415E+00 -0.2174778579988E+01  0.0000000000000E+00
-0.3429994804201E+00 -0.2102106793092E+01  0.0000000000000E+00
-0.3454963934951E+00 -0.2029510321956E+01  0.0000000000000E+00
-0.3481894165466E+00 -0.1956994068596E+01  0.0000000000000E+00
-0.3510839350807E+00 -0.1884566932422E+01  0.0000000000000E+00
-0.3542016068581E+00 -0.1812246122100E+01  0.0000000000000E+00
-0.3025068041260E+00 -0.4658468971956E+01  0.0000000000000E+00
-0.3025136082379E+00 -0.4585350970612E+01  0.0000000000000E+00
-0.3025204123915E+00 -0.4512232520260E+01  0.0000000000000E+00
-0.3025272165261E+00 -0.4439114274896E+01  0.0000000000000E+00
-0.3025340206593E+00 -0.4365996044072E+01  0.0000000000000E+00
-0.3025408247951E+00 -0.4292877785773E+01  0.0000000000000E+00
-0.3025476289268E+00 -0.4219759570689E+01  0.0000000000000E+00
-0.3025544330610E+00 -0.4146641328800E+01  0.0000000000000E+00
-0.3025612371948E+00 -0.4073523092281E+01  0.0000000000000E+00
-0.3025680413278E+00 -0.4000404863836E+01  0.0000000000000E+00
-0.3025748454622E+00 -0.3927286620088E+01  0.0000000000000E+00
-0.3025816495944E+00 -0.3854168400317E+01  0.0000000000000E+00
-0.3025884537295E+00 -0.3781050148635E+01  0.0000000000000E+00
-0.3025952578702E+00 -0.3707931837301E+01  0.0000000000000E+00
-0.3026020620090E+00 -0.3634813546776E+01  0.0000000000000E+00
-0.3026088661396E+00 -0.3561695343720E+01  0.0000000000000E+00
-0.3026156703303E+00 -0.3488576495141E+01  0.0000000000000E+00
-0.3026224744073E+00 -0.3415458868265E+01  0.0000000000000E+00
-0.3026292785420E+00 -0.3342340621172E+01  0.0000000000000E+00
-0.3026360826693E+00 -0.3269222454198E+01  0.0000000000000E+00
-0.3026428867879E+00 -0.3196104380354E+01  0.0000000000000E+00
-0.3026496909099E+00 -0.3122986269612E+01  0.0000000000000E+00
-0.3026564950350E+00 -0.3049868126171E+01  0.0000000000000E+00
-0.3026686201683E+00 -0.2976749919793E+01  0.0000000000000E+00
-0.3027203384337E+00 -0.2903631943759E+01  0.0000000000000E+00
-0.3028592385586E+00 -0.2830515536376E+01  0.0000000000000E+00
-0.3031287009763E+00 -0.2757403971806E+01  0.0000000000000E+00
-0.3035606573625E+00 -0.2684302933626E+01  0.0000000000000E+00
-0.3041755877955E+00 -0.2611219565447E+01  0.0000000000000E+00
-0.3049865873595E+00 -0.2538162200469E+01  0.0000000000000E+00
-0.3060040626750E+00 -0.2465139822337E+01  0.0000000000000E+00
-0.3072397865029E+00 -0.2392163146619E+01  0.0000000000000E+00
-0.3087099543557E+00 -0.2319245761402E+01  0.0000000000000E+00
-0.3104136551612E+00 -0.2246397477324E+01  0.0000000000000E+00
-0.3123271464832E+00 -0.2173620052345E+01  0.0000000000000E+00
-0.3144334794324E+00 -0.2100915164739E+01  0.0000000000000E+00
-0.3167227966432E+00 -0.2028285592855E+01  0.0000000000000E+00
-0.3191918813306E+00 -0.1955736238713E+01  0.0000000000000E+00
-0.3218456702067E+00 -0.1883276001836E+01  0.0000000000000E+00
-0.3247040162189E+00 -0.1810922090887E+01  0.0000000000000E+00
-0.2750065847907E+00 -0.4658438742560E+01  0.0000000000000E+00
-0.2750131695678E+00 -0.4585290511882E+01  0.0000000000000E+00
-0.2750197543852E+00 -0.4512141832011E+01  0.0000000000000E+00
-0.2750263391843E+00 -0.4438993357213E+01  0.0000000000000E+00
-0.2750329239819E+00 -0.4365844896960E+01  0.0000000000000E+00
-0.2750395087821E+00 -0.4292696409222E+01  0.0000000000000E+00
-0.2750460935784E+00 -0.4219547964716E+01  0.0000000000000E+00
-0.2750526783771E+00 -0.4146399493394E+01  0.0000000000000E+00
-0.2750592631753E+00 -0.4073251027445E+01  0.0000000000000E+00
-0.2750658479728E+00 -0.4000102569572E+01  0.0000000000000E+00
-0.2750724327716E+00 -0.3926954096390E+01  0.0000000000000E+00
-0.2750790175683E+00 -0.3853805647195E+01  0.0000000000000E+00
-0.2750856023679E+00 -0.3780657166076E+01  0.0000000000000E+00
-0.2750921871729E+00 -0.3707508625281E+01  0.0000000000000E+00
-0.2750987719759E+00 -0.3634360105303E+01  0.0000000000000E+00
-0.2751053567711E+00 -0.3561211672831E+01  0.0000000000000E+00
-0.2751119416245E+00 -0.3488062594568E+01  0.0000000000000E+00
-0.2751185263678E+00 -0.3414914738513E+01  0.0000000000000E+00
-0.2751251111669E+00 -0.3341766261985E+01  0.0000000000000E+00
-0.2751316959589E+00 -0.3268617865609E+01  0.0000000000000E+00
-0.2751382807424E+00 -0.3195469562401E+01  0.0000000000000E+00
-0.2751448655293E+00 -0.3122321222281E+01  0.0000000000000E+00
-0.2751514503191E+00 -0.3049172849447E+01  0.0000000000000E+00
-0.2751628723896E+00 -0.2976024413650E+01  0.0000000000000E+00
-0.2752102882170E+00 -0.2902876208215E+01  0.0000000000000E+00
-0.2753369602811E+00 -0.2829729571484E+01  0.0000000000000E+00
-0.2755823253407E+00 -0.2756587777576E+01  0.0000000000000E+00
-0.2759754121923E+00 -0.2683456510093E+01  0.0000000000000E+00
-0.2765348390895E+00 -0.2610342912610E+01  0.0000000000000E+00
-0.2772725106540E+00 -0.2537255318374E+01  0.0000000000000E+00
-0.2781978874511E+00 -0.2464202710958E+01  0.0000000000000E+00
-0.2793216719906E+00 -0.2391195805938E+01  0.0000000000000E+00
-0.2806585874648E+00 -0.2318248191491E+01  0.0000000000000E+00
-0.2822078056280E+00 -0.2245369678147E+01  0.0000000000000E+00
-0.2839477424465E+00 -0.2172562023869E+01  0.0000000000000E+00
-0.2858629898386E+00 -0.2099826906950E+01  0.0000000000000E+00
-0.2879445865631E+00 -0.2027167105719E+01  0.0000000000000E+00
-0.2901896082697E+00 -0.1954587522199E+01  0.0000000000000E+00
-0.2926025428774E+00 -0.1882097056015E+01  0.0000000000000E+00
-0.2952014385204E+00 -0.1809712915830E+01  0.0000000000000E+00
-0.2475062510879E+00 -0.4658411386417E+01  0.0000000000000E+00
-0.2475125021628E+00 -0.4585235799654E+01  0.0000000000000E+00
-0.2475187532761E+00 -0.4512059763530E+01  0.0000000000000E+00
-0.2475250043718E+00 -0.4438883932554E+01  0.0000000000000E+00
-0.2475312554664E+00 -0.4365708116131E+01  0.0000000000000E+00
-0.2475375065632E+00 -0.4292532272210E+01  0.0000000000000E+00
-0.2475437576564E+00 -0.4219356471539E+01  0.0000000000000E+00
-0.2475500087518E+00 -0.4146180644042E+01  0.0000000000000E+00
-0.2475562598468E+00 -0.4073004821919E+01  0.0000000000000E+00
-0.2475625109411E+00 -0.3999829007876E+01  0.0000000000000E+00
-0.2475687620368E+00 -0.3926653178517E+01  0.0000000000000E+00
-0.2475750131303E+00 -0.3853477373156E+01  0.0000000000000E+00
-0.2475812642266E+00 -0.3780301535857E+01  0.0000000000000E+00
-0.2475875153280E+00 -0.3707125638860E+01  0.0000000000000E+00
-0.2475937664276E+00 -0.3633949762689E+01  0.0000000000000E+00
-0.2476000175198E+00 -0.3560773974055E+01  0.0000000000000E+00
-0.2476062686671E+00 -0.3487597539390E+01  0.0000000000000E+00
-0.2476125197100E+00 -0.3414422327390E+01  0.0000000000000E+00
-0.2476187708059E+00 -0.3341246494684E+01  0.0000000000000E+00
-0.2476250218949E+00 -0.3268070742161E+01  0.0000000000000E+00
-0.2476312729760E+00 -0.3194895082840E+01  0.0000000000000E+00
-0.2476375240603E+00 -0.3121719386594E+01  0.0000000000000E+00
-0.2476437751473E+00 -0.3048543657622E+01  0.0000000000000E+00
-0.2476543797871E+00 -0.2975367865661E+01  0.0000000000000E+00
-0.2476973788073E+00 -0.2902192304079E+01  0.0000000000000E+00
-0.2478117084387E+00 -0.2829018311249E+01  0.0000000000000E+00
-0.2480328617639E+00 -0.2755849161253E+01  0.0000000000000E+00
-0.2483869646989E+00 -0.2682690537711E+01  0.0000000000000E+00
-0.2488907736722E+00 -0.2609549584168E+01  0.0000000000000E+00
-0.2495550028424E+00 -0.2536434633916E+01  0.0000000000000E+00
-0.2503881667191E+00 -0.2463354670459E+01  0.0000000000000E+00
-0.2513998975606E+00 -0.2390320409382E+01  0.0000000000000E+00
-0.2526034462390E+00 -0.2317345438943E+01  0.0000000000000E+00
-0.2539980673341E+00 -0.2244439569574E+01  0.0000000000000E+00
-0.2555643352162E+00 -0.2171604559242E+01  0.0000000000000E+00
-0.2572883826116E+00 -0.2098842086256E+01  0.0000000000000E+00
-0.2591621444036E+00 -0.2026154928927E+01  0.0000000000000E+00
-0.2611829886770E+00 -0.1953547989281E+01  0.0000000000000E+00
-0.2633549545578E+00 -0.1881030167037E+01  0.0000000000000E+00
-0.2656942853663E+00 -0.1808618670854E+01  0.0000000000000E+00
-0.2200058151317E+00 -0.4658386905273E+01  0.0000000000000E+00
-0.2200116302512E+00 -0.4585186837416E+01  0.0000000000000E+00
-0.2200174454065E+00 -0.4511986320049E+01  0.0000000000000E+00
-0.2200232605455E+00 -0.4438786007899E+01  0.0000000000000E+00
-0.2200290756833E+00 -0.4365585710305E+01  0.0000000000000E+00
-0.2200348908233E+00 -0.4292385385205E+01  0.0000000000000E+00
-0.2200407059598E+00 -0.4219185103369E+01  0.0000000000000E+00
-0.2200465210985E+00 -0.4145984794698E+01  0.0000000000000E+00
-0.2200523362367E+00 -0.4072784491403E+01  0.0000000000000E+00
-0.2200581513744E+00 -0.3999584196191E+01  0.0000000000000E+00
-0.2200639665132E+00 -0.3926383885658E+01  0.0000000000000E+00
-0.2200697816501E+00 -0.3853183599130E+01  0.0000000000000E+00
-0.2200755967896E+00 -0.3779983280655E+01  0.0000000000000E+00
-0.2200814119338E+00 -0.3706782902461E+01  0.0000000000000E+00
-0.2200872270764E+00 -0.3633582545100E+01  0.0000000000000E+00
-0.2200930422120E+00 -0.3560382275305E+01  0.0000000000000E+00
-0.2200988573989E+00 -0.3487181359263E+01  0.0000000000000E+00
-0.2201046724887E+00 -0.3413981666295E+01  0.0000000000000E+00
-0.2201104876278E+00 -0.3340781352414E+01  0.0000000000000E+00
-0.2201163027605E+00 -0.3267581118742E+01  0.0000000000000E+00
-0.2201221178858E+00 -0.3194380978304E+01  0.0000000000000E+00
-0.2201279330141E+00 -0.3121180800927E+01  0.0000000000000E+00
-0.2201337481449E+00 -0.3047980590815E+01  0.0000000000000E+00
-0.2201434331007E+00 -0.2974780317691E+01  0.0000000000000E+00
-0.2201819130612E+00 -0.2901580274962E+01  0.0000000000000E+00
-0.2202837980092E+00 -0.2828381801026E+01  0.0000000000000E+00
-0.2204806373518E+00 -0.2755188169933E+01  0.0000000000000E+00
-0.2207956541254E+00 -0.2682005065322E+01  0.0000000000000E+00
-0.2212437429334E+00 -0.2608839630710E+01  0.0000000000000E+00
-0.2218344274720E+00 -0.2535700199426E+01  0.0000000000000E+00
-0.2225752761947E+00 -0.2462595754916E+01  0.0000000000000E+00
-0.2234748511090E+00 -0.2389537012771E+01  0.0000000000000E+00
-0.2245449307669E+00 -0.2316537561322E+01  0.0000000000000E+00
-0.2257848525739E+00 -0.2243607210915E+01  0.0000000000000E+00
-0.2271773493033E+00 -0.2170747719517E+01  0.0000000000000E+00
-0.2287100944895E+00 -0.2097960765455E+01  0.0000000000000E+00
-0.2303759191400E+00 -0.2025249127022E+01  0.0000000000000E+00
-0.2321724837746E+00 -0.1952617706247E+01  0.0000000000000E+00
-0.2341033787265E+00 -0.1880075402931E+01  0.0000000000000E+00
-0.2361830425028E+00 -0.1807639425734E+01  0.0000000000000E+00
-0.1925052879758E+00 -0.4658365300648E+01  0.0000000000000E+00
-0.1925105759406E+00 -0.4585143628212E+01  0.0000000000000E+00
-0.1925158639379E+00 -0.4511921506133E+01  0.0000000000000E+00
-0.1925211519204E+00 -0.4438699589331E+01  0.0000000000000E+00
-0.1925264399018E+00 -0.4365477687090E+01  0.0000000000000E+00
-0.1925317278851E+00 -0.4292255757335E+01  0.0000000000000E+00
-0.1925370158654E+00 -0.4219033870856E+01  0.0000000000000E+00
-0.1925423038476E+00 -0.4145811957534E+01  0.0000000000000E+00
-0.1925475918294E+00 -0.4072590049591E+01  0.0000000000000E+00
-0.1925528798106E+00 -0.3999368149732E+01  0.0000000000000E+00
-0.1925581677930E+00 -0.3926146234548E+01  0.0000000000000E+00
-0.1925634557736E+00 -0.3852924343376E+01  0.0000000000000E+00
-0.1925687437565E+00 -0.3779702420247E+01  0.0000000000000E+00
-0.1925740317437E+00 -0.3706480437382E+01  0.0000000000000E+00
-0.1925793197294E+00 -0.3633258475356E+01  0.0000000000000E+00
-0.1925846077088E+00 -0.3560036600922E+01  0.0000000000000E+00
-0.1925898957349E+00 -0.3486814080050E+01  0.0000000000000E+00
-0.1925951836726E+00 -0.3413592782614E+01  0.0000000000000E+00
-0.1926004716552E+00 -0.3340370864080E+01  0.0000000000000E+00
-0.1926057596320E+00 -0.3267149025780E+01  0.0000000000000E+00
-0.1926110476020E+00 -0.3193927280741E+01  0.0000000000000E+00
-0.1926163355748E+00 -0.3120705498753E+01  0.0000000000000E+00
-0.1926216235498E+00 -0.3047483684019E+01  0.0000000000000E+00
-0.1926302976219E+00 -0.2974261806254E+01  0.0000000000000E+00
-0.1926641673231E+00 -0.2901040158897E+01  0.0000000000000E+00
-0.1927535163882E+00 -0.2827820080371E+01  0.0000000000000E+00
-0.1929259505487E+00 -0.2754604844696E+01  0.0000000000000E+00
-0.1932017899616E+00 -0.2681400135527E+01  0.0000000000000E+00
-0.1935940674049E+00 -0.2608213096357E+01  0.0000000000000E+00
-0.1941111161126E+00 -0.2535052060547E+01  0.0000000000000E+00
-0.1947595584820E+00 -0.2461926011493E+01  0.0000000000000E+00
-0.1955468862697E+00 -0.2388845664791E+01  0.0000000000000E+00
-0.1964834057080E+00 -0.2315824608836E+01  0.0000000000000E+00
-0.1975685370274E+00 -0.2242872653898E+01  0.0000000000000E+00
-0.1987871714047E+00 -0.2169991557945E+01  0.0000000000000E+00
-0.2001285231822E+00 -0.2097182999318E+01  0.0000000000000E+00
-0.2015863194915E+00 -0.2024449756296E+01  0.0000000000000E+00
-0.2031585132875E+00 -0.1951796730910E+01  0.0000000000000E+00
-0.2048482461110E+00 -0.1879232823034E+01  0.0000000000000E+00
-0.2066681516558E+00 -0.1806775241326E+01  0.0000000000000E+00
-0.1650046808342E+00 -0.4658346573894E+01  0.0000000000000E+00
-0.1650093616587E+00 -0.4585106174743E+01  0.0000000000000E+00
-0.1650140425120E+00 -0.4511865325833E+01  0.0000000000000E+00
-0.1650187233521E+00 -0.4438624682253E+01  0.0000000000000E+00
-0.1650234041912E+00 -0.4365384053239E+01  0.0000000000000E+00
-0.1650280850322E+00 -0.4292143396702E+01  0.0000000000000E+00
-0.1650327658704E+00 -0.4218902783454E+01  0.0000000000000E+00
-0.1650374467102E+00 -0.4145662143355E+01  0.0000000000000E+00
-0.1650421275498E+00 -0.4072421508636E+01  0.0000000000000E+00
-0.1650468083888E+00 -0.3999180882004E+01  0.0000000000000E+00
-0.1650514892288E+00 -0.3925940240043E+01  0.0000000000000E+00
-0.1650561700673E+00 -0.3852699622099E+01  0.0000000000000E+00
-0.1650608509078E+00 -0.3779458972191E+01  0.0000000000000E+00
-0.1650655317521E+00 -0.3706218262532E+01  0.0000000000000E+00
-0.1650702125951E+00 -0.3632977573716E+01  0.0000000000000E+00
-0.1650748934325E+00 -0.3559736972516E+01  0.0000000000000E+00
-0.1650795743113E+00 -0.3486495724711E+01  0.0000000000000E+00
-0.1650842551118E+00 -0.3413255700655E+01  0.0000000000000E+00
-0.1650889359520E+00 -0.3340015055344E+01  0.0000000000000E+00
-0.1650936167871E+00 -0.3266774490286E+01  0.0000000000000E+00
-0.1650982976162E+00 -0.3193534018513E+01  0.0000000000000E+00
-0.1651029784477E+00 -0.3120293509782E+01  0.0000000000000E+00
-0.1651076592813E+00 -0.3047052968296E+01  0.0000000000000E+00
-0.1651152424838E+00 -0.2973812363763E+01  0.0000000000000E+00
-0.1651444219395E+00 -0.2900571989649E+01  0.0000000000000E+00
-0.1652211551347E+00 -0.2827333184399E+01  0.0000000000000E+00
-0.1653691041251E+00 -0.2754099222006E+01  0.0000000000000E+00
-0.1656056861875E+00 -0.2680875786140E+01  0.0000000000000E+00
-0.1659420722746E+00 -0.2607670020273E+01  0.0000000000000E+00
-0.1663854051581E+00 -0.2534490257795E+01  0.0000000000000E+00
-0.1669413611788E+00 -0.2461345482056E+01  0.0000000000000E+00
-0.1676163618420E+00 -0.2388246408658E+01  0.0000000000000E+00
-0.1684192410609E+00 -0.2315206626052E+01  0.0000000000000E+00
-0.1693495018906E+00 -0.2242235944441E+01  0.0000000000000E+00
-0.1703941939114E+00 -0.2169336121793E+01  0.0000000000000E+00
-0.1715440722738E+00 -0.2096508836464E+01  0.0000000000000E+00
-0.1727937602337E+00 -0.2023756866719E+01  0.0000000000000E+00
-0.1741415031809E+00 -0.1951085114590E+01  0.0000000000000E+00
-0.1755899938642E+00 -0.1878502480015E+01  0.0000000000000E+00
-0.1771500611639E+00 -0.1806026171652E+01  0.0000000000000E+00
-0.1375040054788E+00 -0.4658330726195E+01  0.0000000000000E+00
-0.1375080109493E+00 -0.4585074479377E+01  0.0000000000000E+00
-0.1375120164444E+00 -0.4511817782703E+01  0.0000000000000E+00
-0.1375160219283E+00 -0.4438561291404E+01  0.0000000000000E+00
-0.1375200274113E+00 -0.4365304814673E+01  0.0000000000000E+00
-0.1375240328959E+00 -0.4292048310415E+01  0.0000000000000E+00
-0.1375280383781E+00 -0.4218791849453E+01  0.0000000000000E+00
-0.1375320438618E+00 -0.4145535361636E+01  0.0000000000000E+00
-0.1375360493451E+00 -0.4072278879200E+01  0.0000000000000E+00
-0.1375400548281E+00 -0.3999022404852E+01  0.0000000000000E+00
-0.1375440603118E+00 -0.3925765915171E+01  0.0000000000000E+00
-0.1375480657943E+00 -0.3852509449514E+01  0.0000000000000E+00
-0.1375520712785E+00 -0.3779252951886E+01  0.0000000000000E+00
-0.1375560767660E+00 -0.3705996394492E+01  0.0000000000000E+00
-0.1375600822523E+00 -0.3632739857948E+01  0.0000000000000E+00
-0.1375640877338E+00 -0.3559483409037E+01  0.0000000000000E+00
-0.1375680932507E+00 -0.3486226313383E+01  0.0000000000000E+00
-0.1375720987007E+00 -0.3412970441741E+01  0.0000000000000E+00
-0.1375761041846E+00 -0.3339713948710E+01  0.0000000000000E+00
-0.1375801096642E+00 -0.3266457535950E+01  0.0000000000000E+00
-0.1375841151387E+00 -0.3193201216495E+01  0.0000000000000E+00
-0.1375881206152E+00 -0.3119944860073E+01  0.0000000000000E+00
-0.1375921260934E+00 -0.3046688470890E+01  0.0000000000000E+00
-0.1375985502126E+00 -0.2973432018646E+01  0.0000000000000E+00
-0.1376229712097E+00 -0.2900175796830E+01  0.0000000000000E+00
-0.1376870203236E+00 -0.2826921143905E+01  0.0000000000000E+00
-0.1378104159346E+00 -0.2753671333843E+01  0.0000000000000E+00
-0.1380076724401E+00 -0.2680432050327E+01  0.0000000000000E+00
-0.1382880989677E+00 -0.2607210436809E+01  0.0000000000000E+00
-0.1386576478271E+00 -0.2534014826704E+01  0.0000000000000E+00
-0.1391210493026E+00 -0.2460854203325E+01  0.0000000000000E+00
-0.1396836546487E+00 -0.2387739282277E+01  0.0000000000000E+00
-0.1403528254594E+00 -0.2314683652058E+01  0.0000000000000E+00
-0.1411281476146E+00 -0.2241697122816E+01  0.0000000000000E+00
-0.1419988290975E+00 -0.2168781452520E+01  0.0000000000000E+00
-0.1429571658668E+00 -0.2095938319535E+01  0.0000000000000E+00
-0.1439986773022E+00 -0.2023170502116E+01  0.0000000000000E+00
-0.1451219012286E+00 -0.1950482902297E+01  0.0000000000000E+00
-0.1463290816030E+00 -0.1877884420070E+01  0.0000000000000E+00
-0.1476292424924E+00 -0.1805392264092E+01  0.0000000000000E+00
-0.1100032727679E+00 -0.4658317758532E+01  0.0000000000000E+00
-0.1100065455290E+00 -0.4585048544080E+01  0.0000000000000E+00
-0.1100098183102E+00 -0.4511778879691E+01  0.0000000000000E+00
-0.1100130910822E+00 -0.4438509420714E+01  0.0000000000000E+00
-0.1100163638535E+00 -0.4365239976307E+01  0.0000000000000E+00
-0.1100196366261E+00 -0.4291970504368E+01  0.0000000000000E+00
-0.1100229093967E+00 -0.4218701075733E+01  0.0000000000000E+00
-0.1100261821686E+00 -0.4145431620239E+01  0.0000000000000E+00
-0.1100294549402E+00 -0.4072162170125E+01  0.0000000000000E+00
-0.1100327277114E+00 -0.3998892728102E+01  0.0000000000000E+00
-0.1100360004834E+00 -0.3925623270744E+01  0.0000000000000E+00
-0.1100392732542E+00 -0.3852353837413E+01  0.0000000000000E+00
-0.1100425460265E+00 -0.3779084372104E+01  0.0000000000000E+00
-0.1100458188015E+00 -0.3705814847021E+01  0.0000000000000E+00
-0.1100490915755E+00 -0.3632545342790E+01  0.0000000000000E+00
-0.1100523643456E+00 -0.3559275926208E+01  0.0000000000000E+00
-0.1100556371446E+00 -0.3486005862769E+01  0.0000000000000E+00
-0.1100589098889E+00 -0.3412737023558E+01  0.0000000000000E+00
-0.1100621826610E+00 -0.3339467562849E+01  0.0000000000000E+00
-0.1100654554295E+00 -0.3266198182424E+01  0.0000000000000E+00
-0.1100687281938E+00 -0.3192928895321E+01  0.0000000000000E+00
-0.1100720009598E+00 -0.3119659571245E+01  0.0000000000000E+00
-0.1100752737272E+00 -0.3046390214401E+01  0.0000000000000E+00
-0.1100804814074E+00 -0.2973120794485E+01  0.0000000000000E+00
-0.1101000865895E+00 -0.2899851605005E+01  0.0000000000000E+00
-0.1101513942642E+00 -0.2826583984439E+01  0.0000000000000E+00
-0.1102501791352E+00 -0.2753321206740E+01  0.0000000000000E+00
-0.1104080527204E+00 -0.2680068955602E+01  0.0000000000000E+00
-0.1106324623216E+00 -0.2606834374461E+01  0.0000000000000E+00
-0.1109281697863E+00 -0.2533625796754E+01  0.0000000000000E+00
-0.1112989593421E+00 -0.2460452205761E+01  0.0000000000000E+00
-0.1117491119923E+00 -0.2387324317091E+01  0.0000000000000E+00
-0.1122845170118E+00 -0.2314255719281E+01  0.0000000000000E+00
-0.1129048431049E+00 -0.2241256222433E+01  0.0000000000000E+00
-0.1136014566584E+00 -0.2168327584516E+01  0.0000000000000E+00
-0.1143681944392E+00 -0.2095471483905E+01  0.0000000000000E+00
-0.1152014719513E+00 -0.2022690698846E+01  0.0000000000000E+00
-0.1161001194546E+00 -0.1949990131373E+01  0.0000000000000E+00
-0.1170659321143E+00 -0.1877378681522E+01  0.0000000000000E+00
-0.1181061291839E+00 -0.1804873557950E+01  0.0000000000000E+00
-0.8250249454314E-01 -0.4658307671731E+01  0.0000000000000E+00
-0.8250498908109E-01 -0.4585028370497E+01  0.0000000000000E+00
-0.8250748363435E-01 -0.4511748619267E+01  0.0000000000000E+00
-0.8250997818062E-01 -0.4438469073475E+01  0.0000000000000E+00
-0.8251247272640E-01 -0.4365189542255E+01  0.0000000000000E+00
-0.8251496727311E-01 -0.4291909983500E+01  0.0000000000000E+00
-0.8251746181835E-01 -0.4218630468056E+01  0.0000000000000E+00
-0.8251995636450E-01 -0.4145350925747E+01  0.0000000000000E+00
-0.8252245091047E-01 -0.4072071388821E+01  0.0000000000000E+00
-0.8252494545616E-01 -0.3998791859985E+01  0.0000000000000E+00
-0.8252744000238E-01 -0.3925512315813E+01  0.0000000000000E+00
-0.8252993454778E-01 -0.3852232795671E+01  0.0000000000000E+00
-0.8253242909426E-01 -0.3778953243548E+01  0.0000000000000E+00
-0.8253492364278E-01 -0.3705673631641E+01  0.0000000000000E+00
-0.8253741819059E-01 -0.3632394040589E+01  0.0000000000000E+00
-0.8253991273542E-01 -0.3559114537199E+01  0.0000000000000E+00
-0.8254240730227E-01 -0.3485834386862E+01  0.0000000000000E+00
-0.8254490182744E-01 -0.3412555460923E+01  0.0000000000000E+00
-0.8254739637377E-01 -0.3339275913399E+01  0.0000000000000E+00
-0.8254989091737E-01 -0.3265996446170E+01  0.0000000000000E+00
-0.8255238545779E-01 -0.3192717072277E+01  0.0000000000000E+00
-0.8255487999946E-01 -0.3119437661405E+01  0.0000000000000E+00
-0.8255737454226E-01 -0.3046158217761E+01  0.0000000000000E+00
-0.8256132026964E-01 -0.2972878711036E+01  0.0000000000000E+00
-0.8257606412342E-01 -0.2899599434752E+01  0.0000000000000E+00
-0.8261458484651E-01 -0.2826321727400E+01  0.0000000000000E+00
-0.8268871346684E-01 -0.2753048862920E+01  0.0000000000000E+00
-0.8280715862262E-01 -0.2679786525011E+01  0.0000000000000E+00
-0.8297550579031E-01 -0.2606541857099E+01  0.0000000000000E+00
-0.8319732635544E-01 -0.2533323192637E+01  0.0000000000000E+00
-0.8347545848869E-01 -0.2460139514879E+01  0.0000000000000E+00
-0.8381311294265E-01 -0.2387001539440E+01  0.0000000000000E+00
-0.8421470667327E-01 -0.2313922854883E+01  0.0000000000000E+00
-0.8467999120903E-01 -0.2240913271277E+01  0.0000000000000E+00
-0.8520249134003E-01 -0.2167974546591E+01  0.0000000000000E+00
-0.8577758464144E-01 -0.2095108359206E+01  0.0000000000000E+00
-0.8640258274117E-01 -0.2022317487362E+01  0.0000000000000E+00
-0.8707660833415E-01 -0.1949606833093E+01  0.0000000000000E+00
-0.8780100779414E-01 -0.1876985296471E+01  0.0000000000000E+00
-0.8858119556126E-01 -0.1804470086151E+01  0.0000000000000E+00
-0.5500168202915E-01 -0.4658300466420E+01  0.0000000000000E+00
-0.5500336405479E-01 -0.4585013959890E+01  0.0000000000000E+00
-0.5500504609076E-01 -0.4511727003319E+01  0.0000000000000E+00
-0.5500672812202E-01 -0.4438440252207E+01  0.0000000000000E+00
-0.5500841015294E-01 -0.4365153515669E+01  0.0000000000000E+00
-0.5501009218450E-01 -0.4291866751592E+01  0.0000000000000E+00
-0.5501177421506E-01 -0.4218580030830E+01  0.0000000000000E+00
-0.5501345624623E-01 -0.4145293283201E+01  0.0000000000000E+00
-0.5501513827729E-01 -0.4072006540956E+01  0.0000000000000E+00
-0.5501682030815E-01 -0.3998719806802E+01  0.0000000000000E+00
-0.5501850233937E-01 -0.3925433057309E+01  0.0000000000000E+00
-0.5502018437004E-01 -0.3852146331850E+01  0.0000000000000E+00
-0.5502186640144E-01 -0.3778859574406E+01  0.0000000000000E+00
-0.5502354843422E-01 -0.3705572757172E+01  0.0000000000000E+00
-0.5502523046651E-01 -0.3632285960796E+01  0.0000000000000E+00
-0.5502691249680E-01 -0.3558999252090E+01  0.0000000000000E+00
-0.5502859454193E-01 -0.3485711896373E+01  0.0000000000000E+00
-0.5503027655896E-01 -0.3412425765174E+01  0.0000000000000E+00
-0.5503195859026E-01 -0.3339139012330E+01  0.0000000000000E+00
-0.5503364061971E-01 -0.3265852339789E+01  0.0000000000000E+00
-0.5503532264702E-01 -0.3192565760592E+01  0.0000000000000E+00
-0.5503700467518E-01 -0.3119279144413E+01  0.0000000000000E+00
-0.5503868670409E-01 -0.3045992495459E+01  0.0000000000000E+00
-0.5504133618940E-01 -0.2972705783417E+01  0.0000000000000E+00
-0.5505118442552E-01 -0.2899419301821E+01  0.0000000000000E+00
-0.5507688390763E-01 -0.2826134389170E+01  0.0000000000000E+00
-0.5512632198758E-01 -0.2752854319392E+01  0.0000000000000E+00
-0.5520530442408E-01 -0.2679584776194E+01  0.0000000000000E+00
-0.5531755486806E-01 -0.2606332902993E+01  0.0000000000000E+00
-0.5546545424311E-01 -0.2533107033253E+01  0.0000000000000E+00
-0.5565089466302E-01 -0.2459916150211E+01  0.0000000000000E+00
-0.5587601662944E-01 -0.2386770969482E+01  0.0000000000000E+00
-0.5614376477954E-01 -0.2313685079654E+01  0.0000000000000E+00
-0.5645397346590E-01 -0.2240668290768E+01  0.0000000000000E+00
-0.5680232588196E-01 -0.2167722360794E+01  0.0000000000000E+00
-0.5718574041112E-01 -0.2094848968118E+01  0.0000000000000E+00
-0.5760242480531E-01 -0.2022050890974E+01  0.0000000000000E+00
-0.5805179419448E-01 -0.1949333031399E+01  0.0000000000000E+00
-0.5853474616100E-01 -0.1876704289487E+01  0.0000000000000E+00
-0.5905489033159E-01 -0.1804181873893E+01  0.0000000000000E+00
-0.2750084664702E-01 -0.4658296143052E+01  0.0000000000000E+00
-0.2750169329227E-01 -0.4585005313163E+01  0.0000000000000E+00
-0.2750253994273E-01 -0.4511714033207E+01  0.0000000000000E+00
-0.2750338659081E-01 -0.4438422958722E+01  0.0000000000000E+00
-0.2750423323872E-01 -0.4365131898811E+01  0.0000000000000E+00
-0.2750507988695E-01 -0.4291840811361E+01  0.0000000000000E+00
-0.2750592653468E-01 -0.4218549767228E+01  0.0000000000000E+00
-0.2750677318272E-01 -0.4145258696226E+01  0.0000000000000E+00
-0.2750761983069E-01 -0.4071967630608E+01  0.0000000000000E+00
-0.2750846647858E-01 -0.3998676573082E+01  0.0000000000000E+00
-0.2750931312664E-01 -0.3925385500216E+01  0.0000000000000E+00
-0.2751015977442E-01 -0.3852094451385E+01  0.0000000000000E+00
-0.2751100642257E-01 -0.3778803370567E+01  0.0000000000000E+00
-0.2751185307142E-01 -0.3705512229957E+01  0.0000000000000E+00
-0.2751269972002E-01 -0.3632221110204E+01  0.0000000000000E+00
-0.2751354636761E-01 -0.3558930078128E+01  0.0000000000000E+00
-0.2751439302267E-01 -0.3485638399002E+01  0.0000000000000E+00
-0.2751523966359E-01 -0.3412347944467E+01  0.0000000000000E+00
-0.2751608631169E-01 -0.3339056868249E+01  0.0000000000000E+00
-0.2751693295887E-01 -0.3265765872339E+01  0.0000000000000E+00
-0.2751777960496E-01 -0.3192474969780E+01  0.0000000000000E+00
-0.2751862625148E-01 -0.3119184030236E+01  0.0000000000000E+00
-0.2751947289838E-01 -0.3045893057915E+01  0.0000000000000E+00
-0.2752080327345E-01 -0.2972602022502E+01  0.0000000000000E+00
-0.2752573302372E-01 -0.2899311217538E+01  0.0000000000000E+00
-0.2753858839655E-01 -0.2826021981525E+01  0.0000000000000E+00
-0.2756331306764E-01 -0.2752737588388E+01  0.0000000000000E+00
-0.2760280991616E-01 -0.2679463721835E+01  0.0000000000000E+00
-0.2765894076745E-01 -0.2606207525280E+01  0.0000000000000E+00
-0.2773289608320E-01 -0.2532977332192E+01  0.0000000000000E+00
-0.2782562192022E-01 -0.2459782125798E+01  0.0000000000000E+00
-0.2793818852921E-01 -0.2386632621716E+01  0.0000000000000E+00
-0.2807206822860E-01 -0.2313542408544E+01  0.0000000000000E+00
-0.2822717819500E-01 -0.2240521296308E+01  0.0000000000000E+00
-0.2840136002522E-01 -0.2167571042980E+01  0.0000000000000E+00
-0.2859307291094E-01 -0.2094693326949E+01  0.0000000000000E+00
-0.2880142072809E-01 -0.2021890926444E+01  0.0000000000000E+00
-0.2902611104167E-01 -0.1949168743503E+01  0.0000000000000E+00
-0.2926759264271E-01 -0.1876535678237E+01  0.0000000000000E+00
-0.2952767034453E-01 -0.1804008939299E+01  0.0000000000000E+00
 0.1341298275034E-09 -0.4658294701900E+01  0.0000000000000E+00
 0.2682591870488E-09 -0.4585002430862E+01  0.0000000000000E+00
 0.4023893957001E-09 -0.4511709709747E+01  0.0000000000000E+00
 0.5365190323347E-09 -0.4438417194108E+01  0.0000000000000E+00
 0.6706488701749E-09 -0.4365124693044E+01  0.0000000000000E+00
 0.8047787882590E-09 -0.4291832164439E+01  0.0000000000000E+00
 0.9389088597081E-09 -0.4218539679152E+01  0.0000000000000E+00
 0.1073038524398E-08 -0.4145247166996E+01  0.0000000000000E+00
 0.1207168262094E-08 -0.4071954660224E+01  0.0000000000000E+00
 0.1341298234168E-08 -0.3998662161544E+01  0.0000000000000E+00
 0.1475428013433E-08 -0.3925369647524E+01  0.0000000000000E+00
 0.1609557830157E-08 -0.3852077157540E+01  0.0000000000000E+00
 0.1743687652334E-08 -0.3778784635568E+01  0.0000000000000E+00
 0.1877817310913E-08 -0.3705492053802E+01  0.0000000000000E+00
 0.2011947706894E-08 -0.3632199492894E+01  0.0000000000000E+00
 0.2146077408419E-08 -0.3558907019664E+01  0.0000000000000E+00
 0.2280208426415E-08 -0.3485613899373E+01  0.0000000000000E+00
 0.2414336888433E-08 -0.3412322003696E+01  0.0000000000000E+00
 0.2548466840620E-08 -0.3339029486324E+01  0.0000000000000E+00
 0.2682596584237E-08 -0.3265737049261E+01  0.0000000000000E+00
 0.2816726205452E-08 -0.3192444705551E+01  0.0000000000000E+00
 0.2950855619598E-08 -0.3119152324855E+01  0.0000000000000E+00
 0.3084985484792E-08 -0.3045859911382E+01  0.0000000000000E+00
 0.3219175371806E-08 -0.2972567434816E+01  0.0000000000000E+00
 0.3353698962349E-08 -0.2899275188699E+01  0.0000000000000E+00
 0.3488929411804E-08 -0.2825984511537E+01  0.0000000000000E+00
 0.3625244941819E-08 -0.2752698677250E+01  0.0000000000000E+00
 0.3762956809338E-08 -0.2679423369550E+01  0.0000000000000E+00
 0.3902297487834E-08 -0.2606165731846E+01  0.0000000000000E+00
 0.4043435735482E-08 -0.2532934097612E+01  0.0000000000000E+00
 0.4186557962945E-08 -0.2459737450072E+01  0.0000000000000E+00
 0.4331879569796E-08 -0.2386586504841E+01  0.0000000000000E+00
 0.4479654772516E-08 -0.2313494850525E+01  0.0000000000000E+00
 0.4629287928948E-08 -0.2240472297144E+01  0.0000000000000E+00
 0.4780639145247E-08 -0.2167520602668E+01  0.0000000000000E+00
 0.4933757342576E-08 -0.2094641445488E+01  0.0000000000000E+00
 0.5088733100688E-08 -0.2021837603833E+01  0.0000000000000E+00
 0.5245556969086E-08 -0.1949113979741E+01  0.0000000000000E+00
 0.5404454514473E-08 -0.1876479473326E+01  0.0000000000000E+00
 0.5565503903438E-08 -0.1803951293244E+01  0.0000000000000E+00
 0.2750084691528E-01 -0.4658296143053E+01  0.0000000000000E+00
 0.2750169382879E-01 -0.4585005313166E+01  0.0000000000000E+00
 0.2750254074750E-01 -0.4511714033210E+01  0.0000000000000E+00
 0.2750338766384E-01 -0.4438422958726E+01  0.0000000000000E+00
 0.2750423458000E-01 -0.4365131898817E+01  0.0000000000000E+00
 0.2750508149649E-01 -0.4291840811368E+01  0.0000000000000E+00
 0.2750592841248E-01 -0.4218549767235E+01  0.0000000000000E+00
 0.2750677532877E-01 -0.4145258696235E+01  0.0000000000000E+00
 0.2750762224501E-01 -0.4071967630618E+01  0.0000000000000E+00
 0.2750846916115E-01 -0.3998676573093E+01  0.0000000000000E+00
 0.2750931607747E-01 -0.3925385500228E+01  0.0000000000000E+00
 0.2751016299351E-01 -0.3852094451398E+01  0.0000000000000E+00
 0.2751100990992E-01 -0.3778803370582E+01  0.0000000000000E+00
 0.2751185682702E-01 -0.3705512229972E+01  0.0000000000000E+00
 0.2751270374388E-01 -0.3632221110221E+01  0.0000000000000E+00
 0.2751355065973E-01 -0.3558930078145E+01  0.0000000000000E+00
 0.2751439758305E-01 -0.3485638399021E+01  0.0000000000000E+00
 0.2751524449223E-01 -0.3412347944487E+01  0.0000000000000E+00
 0.2751609140858E-01 -0.3339056868270E+01  0.0000000000000E+00
 0.2751693832401E-01 -0.3265765872362E+01  0.0000000000000E+00
 0.2751778523836E-01 -0.3192474969803E+01  0.0000000000000E+00
 0.2751863215314E-01 -0.3119184030260E+01  0.0000000000000E+00
 0.2751947906830E-01 -0.3045893057940E+01  0.0000000000000E+00
 0.2752080971174E-01 -0.2972602022528E+01  0.0000000000000E+00
 0.2752573973106E-01 -0.2899311217565E+01  0.0000000000000E+00
 0.2753859537435E-01 -0.2826021981554E+01  0.0000000000000E+00
 0.2756332031807E-01 -0.2752737588418E+01  0.0000000000000E+00
 0.2760281744201E-01 -0.2679463721866E+01  0.0000000000000E+00
 0.2765894857198E-01 -0.2606207525312E+01  0.0000000000000E+00
 0.2773290417001E-01 -0.2532977332225E+01  0.0000000000000E+00
 0.2782563029327E-01 -0.2459782125833E+01  0.0000000000000E+00
 0.2793819719290E-01 -0.2386632621751E+01  0.0000000000000E+00
 0.2807207718784E-01 -0.2313542408580E+01  0.0000000000000E+00
 0.2822718745350E-01 -0.2240521296346E+01  0.0000000000000E+00
 0.2840136958642E-01 -0.2167571043019E+01  0.0000000000000E+00
 0.2859308277837E-01 -0.2094693326988E+01  0.0000000000000E+00
 0.2880143090548E-01 -0.2021890926485E+01  0.0000000000000E+00
 0.2902612153270E-01 -0.1949168743545E+01  0.0000000000000E+00
 0.2926760345153E-01 -0.1876535678280E+01  0.0000000000000E+00
 0.2952768147545E-01 -0.1804008939343E+01  0.0000000000000E+00
 0.5500168229740E-01 -0.4658300466422E+01  0.0000000000000E+00
 0.5500336459129E-01 -0.4585013959894E+01  0.0000000000000E+00
 0.5500504689552E-01 -0.4511727003325E+01  0.0000000000000E+00
 0.5500672919502E-01 -0.4438440252216E+01  0.0000000000000E+00
 0.5500841149420E-01 -0.4365153515680E+01  0.0000000000000E+00
 0.5501009379400E-01 -0.4291866751605E+01  0.0000000000000E+00
 0.5501177609281E-01 -0.4218580030846E+01  0.0000000000000E+00
 0.5501345839224E-01 -0.4145293283219E+01  0.0000000000000E+00
 0.5501514069154E-01 -0.4072006540976E+01  0.0000000000000E+00
 0.5501682299066E-01 -0.3998719806824E+01  0.0000000000000E+00
 0.5501850529013E-01 -0.3925433057334E+01  0.0000000000000E+00
 0.5502018758905E-01 -0.3852146331877E+01  0.0000000000000E+00
 0.5502186988871E-01 -0.3778859574434E+01  0.0000000000000E+00
 0.5502355218973E-01 -0.3705572757203E+01  0.0000000000000E+00
 0.5502523449028E-01 -0.3632285960829E+01  0.0000000000000E+00
 0.5502691678881E-01 -0.3558999252125E+01  0.0000000000000E+00
 0.5502859910220E-01 -0.3485711896410E+01  0.0000000000000E+00
 0.5503028138748E-01 -0.3412425765214E+01  0.0000000000000E+00
 0.5503196368702E-01 -0.3339139012372E+01  0.0000000000000E+00
 0.5503364598473E-01 -0.3265852339833E+01  0.0000000000000E+00
 0.5503532828029E-01 -0.3192565760638E+01  0.0000000000000E+00
 0.5503701057670E-01 -0.3119279144462E+01  0.0000000000000E+00
 0.5503869287386E-01 -0.3045992495510E+01  0.0000000000000E+00
 0.5504134262754E-01 -0.2972705783470E+01  0.0000000000000E+00
 0.5505119113270E-01 -0.2899419301877E+01  0.0000000000000E+00
 0.5507689088526E-01 -0.2826134389227E+01  0.0000000000000E+00
 0.5512632923783E-01 -0.2752854319452E+01  0.0000000000000E+00
 0.5520531194975E-01 -0.2679584776256E+01  0.0000000000000E+00
 0.5531756267240E-01 -0.2606332903057E+01  0.0000000000000E+00
 0.5546546232972E-01 -0.2533107033319E+01  0.0000000000000E+00
 0.5565090303586E-01 -0.2459916150279E+01  0.0000000000000E+00
 0.5587602529292E-01 -0.2386770969553E+01  0.0000000000000E+00
 0.5614377373856E-01 -0.2313685079727E+01  0.0000000000000E+00
 0.5645398272418E-01 -0.2240668290843E+01  0.0000000000000E+00
 0.5680233544293E-01 -0.2167722360871E+01  0.0000000000000E+00
 0.5718575027832E-01 -0.2094848968198E+01  0.0000000000000E+00
 0.5760243498245E-01 -0.2022050891056E+01  0.0000000000000E+00
 0.5805180468526E-01 -0.1949333031483E+01  0.0000000000000E+00
 0.5853475696956E-01 -0.1876704289573E+01  0.0000000000000E+00
 0.5905490146225E-01 -0.1804181873982E+01  0.0000000000000E+00
 0.8250249481138E-01 -0.4658307671734E+01  0.0000000000000E+00
 0.8250498961757E-01 -0.4585028370504E+01  0.0000000000000E+00
 0.8250748443907E-01 -0.4511748619277E+01  0.0000000000000E+00
 0.8250997925358E-01 -0.4438469073488E+01  0.0000000000000E+00
 0.8251247406760E-01 -0.4365189542272E+01  0.0000000000000E+00
 0.8251496888255E-01 -0.4291909983520E+01  0.0000000000000E+00
 0.8251746369603E-01 -0.4218630468079E+01  0.0000000000000E+00
 0.8251995851042E-01 -0.4145350925774E+01  0.0000000000000E+00
 0.8252245332463E-01 -0.4072071388851E+01  0.0000000000000E+00
 0.8252494813856E-01 -0.3998791860019E+01  0.0000000000000E+00
 0.8252744295302E-01 -0.3925512315849E+01  0.0000000000000E+00
 0.8252993776665E-01 -0.3852232795711E+01  0.0000000000000E+00
 0.8253243258138E-01 -0.3778953243591E+01  0.0000000000000E+00
 0.8253492739814E-01 -0.3705673631687E+01  0.0000000000000E+00
 0.8253742221419E-01 -0.3632394040639E+01  0.0000000000000E+00
 0.8253991702726E-01 -0.3559114537252E+01  0.0000000000000E+00
 0.8254241186235E-01 -0.3485834386918E+01  0.0000000000000E+00
 0.8254490665576E-01 -0.3412555460983E+01  0.0000000000000E+00
 0.8254740147033E-01 -0.3339275913462E+01  0.0000000000000E+00
 0.8254989628217E-01 -0.3265996446236E+01  0.0000000000000E+00
 0.8255239109082E-01 -0.3192717072346E+01  0.0000000000000E+00
 0.8255488590074E-01 -0.3119437661478E+01  0.0000000000000E+00
 0.8255738071177E-01 -0.3046158217837E+01  0.0000000000000E+00
 0.8256132670752E-01 -0.2972878711115E+01  0.0000000000000E+00
 0.8257607083032E-01 -0.2899599434835E+01  0.0000000000000E+00
 0.8261459182386E-01 -0.2826321727487E+01  0.0000000000000E+00
 0.8268872071680E-01 -0.2753048863010E+01  0.0000000000000E+00
 0.8280716614798E-01 -0.2679786525104E+01  0.0000000000000E+00
 0.8297551359434E-01 -0.2606541857195E+01  0.0000000000000E+00
 0.8319733444172E-01 -0.2533323192736E+01  0.0000000000000E+00
 0.8347546686119E-01 -0.2460139514982E+01  0.0000000000000E+00
 0.8381312160577E-01 -0.2387001539546E+01  0.0000000000000E+00
 0.8421471563193E-01 -0.2313922854993E+01  0.0000000000000E+00
 0.8468000046694E-01 -0.2240913271390E+01  0.0000000000000E+00
 0.8520250090062E-01 -0.2167974546707E+01  0.0000000000000E+00
 0.8577759450824E-01 -0.2095108359326E+01  0.0000000000000E+00
 0.8640259291791E-01 -0.2022317487484E+01  0.0000000000000E+00
 0.8707661882451E-01 -0.1949606833219E+01  0.0000000000000E+00
 0.8780101860228E-01 -0.1876985296600E+01  0.0000000000000E+00
 0.8858120669148E-01 -0.1804470086283E+01  0.0000000000000E+00
 0.1100032730361E+00 -0.4658317758537E+01  0.0000000000000E+00
 0.1100065460654E+00 -0.4585048544088E+01  0.0000000000000E+00
 0.1100098191148E+00 -0.4511778879705E+01  0.0000000000000E+00
 0.1100130921551E+00 -0.4438509420732E+01  0.0000000000000E+00
 0.1100163651946E+00 -0.4365239976329E+01  0.0000000000000E+00
 0.1100196382354E+00 -0.4291970504395E+01  0.0000000000000E+00
 0.1100229112743E+00 -0.4218701075764E+01  0.0000000000000E+00
 0.1100261843144E+00 -0.4145431620274E+01  0.0000000000000E+00
 0.1100294573542E+00 -0.4072162170165E+01  0.0000000000000E+00
 0.1100327303937E+00 -0.3998892728146E+01  0.0000000000000E+00
 0.1100360034338E+00 -0.3925623270792E+01  0.0000000000000E+00
 0.1100392764729E+00 -0.3852353837466E+01  0.0000000000000E+00
 0.1100425495134E+00 -0.3779084372162E+01  0.0000000000000E+00
 0.1100458225566E+00 -0.3705814847083E+01  0.0000000000000E+00
 0.1100490955988E+00 -0.3632545342856E+01  0.0000000000000E+00
 0.1100523686372E+00 -0.3559275926279E+01  0.0000000000000E+00
 0.1100556417044E+00 -0.3486005862844E+01  0.0000000000000E+00
 0.1100589147169E+00 -0.3412737023638E+01  0.0000000000000E+00
 0.1100621877572E+00 -0.3339467562933E+01  0.0000000000000E+00
 0.1100654607940E+00 -0.3266198182512E+01  0.0000000000000E+00
 0.1100687338265E+00 -0.3192928895414E+01  0.0000000000000E+00
 0.1100720068607E+00 -0.3119659571342E+01  0.0000000000000E+00
 0.1100752798964E+00 -0.3046390214503E+01  0.0000000000000E+00
 0.1100804878449E+00 -0.2973120794592E+01  0.0000000000000E+00
 0.1101000932960E+00 -0.2899851605116E+01  0.0000000000000E+00
 0.1101514012411E+00 -0.2826583984554E+01  0.0000000000000E+00
 0.1102501863848E+00 -0.2753321206860E+01  0.0000000000000E+00
 0.1104080602454E+00 -0.2680068955726E+01  0.0000000000000E+00
 0.1106324701252E+00 -0.2606834374589E+01  0.0000000000000E+00
 0.1109281778722E+00 -0.2533625796887E+01  0.0000000000000E+00
 0.1112989677141E+00 -0.2460452205898E+01  0.0000000000000E+00
 0.1117491206549E+00 -0.2387324317233E+01  0.0000000000000E+00
 0.1122845259700E+00 -0.2314255719427E+01  0.0000000000000E+00
 0.1129048523623E+00 -0.2241256222584E+01  0.0000000000000E+00
 0.1136014662184E+00 -0.2168327584671E+01  0.0000000000000E+00
 0.1143682043055E+00 -0.2095471484065E+01  0.0000000000000E+00
 0.1152014821275E+00 -0.2022690699010E+01  0.0000000000000E+00
 0.1161001299444E+00 -0.1949990131541E+01  0.0000000000000E+00
 0.1170659429218E+00 -0.1877378681695E+01  0.0000000000000E+00
 0.1181061403135E+00 -0.1804873558127E+01  0.0000000000000E+00
 0.1375040057470E+00 -0.4658330726200E+01  0.0000000000000E+00
 0.1375080114857E+00 -0.4585074479388E+01  0.0000000000000E+00
 0.1375120172490E+00 -0.4511817782720E+01  0.0000000000000E+00
 0.1375160230011E+00 -0.4438561291426E+01  0.0000000000000E+00
 0.1375200287523E+00 -0.4365304814701E+01  0.0000000000000E+00
 0.1375240345051E+00 -0.4292048310448E+01  0.0000000000000E+00
 0.1375280402555E+00 -0.4218791849492E+01  0.0000000000000E+00
 0.1375320460074E+00 -0.4145535361680E+01  0.0000000000000E+00
 0.1375360517590E+00 -0.4072278879250E+01  0.0000000000000E+00
 0.1375400575101E+00 -0.3999022404907E+01  0.0000000000000E+00
 0.1375440632621E+00 -0.3925765915232E+01  0.0000000000000E+00
 0.1375480690127E+00 -0.3852509449581E+01  0.0000000000000E+00
 0.1375520747651E+00 -0.3779252951958E+01  0.0000000000000E+00
 0.1375560805208E+00 -0.3705996394570E+01  0.0000000000000E+00
 0.1375600862754E+00 -0.3632739858031E+01  0.0000000000000E+00
 0.1375640920251E+00 -0.3559483409126E+01  0.0000000000000E+00
 0.1375680978102E+00 -0.3486226313477E+01  0.0000000000000E+00
 0.1375721035284E+00 -0.3412970441841E+01  0.0000000000000E+00
 0.1375761092805E+00 -0.3339713948815E+01  0.0000000000000E+00
 0.1375801150283E+00 -0.3266457536060E+01  0.0000000000000E+00
 0.1375841207710E+00 -0.3193201216611E+01  0.0000000000000E+00
 0.1375881265157E+00 -0.3119944860195E+01  0.0000000000000E+00
 0.1375921322621E+00 -0.3046688471017E+01  0.0000000000000E+00
 0.1375985566497E+00 -0.2973432018779E+01  0.0000000000000E+00
 0.1376229779157E+00 -0.2900175796968E+01  0.0000000000000E+00
 0.1376870273001E+00 -0.2826921144049E+01  0.0000000000000E+00
 0.1378104231836E+00 -0.2753671333993E+01  0.0000000000000E+00
 0.1380076799644E+00 -0.2680432050482E+01  0.0000000000000E+00
 0.1382881067707E+00 -0.2607210436969E+01  0.0000000000000E+00
 0.1386576559123E+00 -0.2534014826870E+01  0.0000000000000E+00
 0.1391210576740E+00 -0.2460854203496E+01  0.0000000000000E+00
 0.1396836633107E+00 -0.2387739282454E+01  0.0000000000000E+00
 0.1403528344169E+00 -0.2314683652241E+01  0.0000000000000E+00
 0.1411281568713E+00 -0.2241697123004E+01  0.0000000000000E+00
 0.1419988386569E+00 -0.2168781452713E+01  0.0000000000000E+00
 0.1429571757323E+00 -0.2095938319734E+01  0.0000000000000E+00
 0.1439986874777E+00 -0.2023170502321E+01  0.0000000000000E+00
 0.1451219117177E+00 -0.1950482902508E+01  0.0000000000000E+00
 0.1463290924098E+00 -0.1877884420286E+01  0.0000000000000E+00
 0.1476292536212E+00 -0.1805392264313E+01  0.0000000000000E+00
 0.1650046811024E+00 -0.4658346573901E+01  0.0000000000000E+00
 0.1650093621951E+00 -0.4585106174756E+01  0.0000000000000E+00
 0.1650140433165E+00 -0.4511865325853E+01  0.0000000000000E+00
 0.1650187244248E+00 -0.4438624682280E+01  0.0000000000000E+00
 0.1650234055322E+00 -0.4365384053272E+01  0.0000000000000E+00
 0.1650280866413E+00 -0.4292143396742E+01  0.0000000000000E+00
 0.1650327677476E+00 -0.4218902783500E+01  0.0000000000000E+00
 0.1650374488557E+00 -0.4145662143408E+01  0.0000000000000E+00
 0.1650421299634E+00 -0.4072421508696E+01  0.0000000000000E+00
 0.1650468110706E+00 -0.3999180882070E+01  0.0000000000000E+00
 0.1650514921788E+00 -0.3925940240116E+01  0.0000000000000E+00
 0.1650561732855E+00 -0.3852699622179E+01  0.0000000000000E+00
 0.1650608543942E+00 -0.3779458972278E+01  0.0000000000000E+00
 0.1650655355067E+00 -0.3706218262625E+01  0.0000000000000E+00
 0.1650702166179E+00 -0.3632977573816E+01  0.0000000000000E+00
 0.1650748977234E+00 -0.3559736972622E+01  0.0000000000000E+00
 0.1650795788703E+00 -0.3486495724824E+01  0.0000000000000E+00
 0.1650842599390E+00 -0.3413255700775E+01  0.0000000000000E+00
 0.1650889410474E+00 -0.3340015055470E+01  0.0000000000000E+00
 0.1650936221507E+00 -0.3266774490419E+01  0.0000000000000E+00
 0.1650983032480E+00 -0.3193534018653E+01  0.0000000000000E+00
 0.1651029843477E+00 -0.3120293509928E+01  0.0000000000000E+00
 0.1651076654495E+00 -0.3047052968449E+01  0.0000000000000E+00
 0.1651152489203E+00 -0.2973812363923E+01  0.0000000000000E+00
 0.1651444286449E+00 -0.2900571989815E+01  0.0000000000000E+00
 0.1652211621105E+00 -0.2827333184571E+01  0.0000000000000E+00
 0.1653691113735E+00 -0.2754099222185E+01  0.0000000000000E+00
 0.1656056937112E+00 -0.2680875786326E+01  0.0000000000000E+00
 0.1659420800769E+00 -0.2607670020465E+01  0.0000000000000E+00
 0.1663854132426E+00 -0.2534490257994E+01  0.0000000000000E+00
 0.1669413695495E+00 -0.2461345482262E+01  0.0000000000000E+00
 0.1676163705033E+00 -0.2388246408871E+01  0.0000000000000E+00
 0.1684192500176E+00 -0.2315206626271E+01  0.0000000000000E+00
 0.1693495111465E+00 -0.2242235944667E+01  0.0000000000000E+00
 0.1703942034699E+00 -0.2169336122026E+01  0.0000000000000E+00
 0.1715440821385E+00 -0.2096508836703E+01  0.0000000000000E+00
 0.1727937704082E+00 -0.2023756866964E+01  0.0000000000000E+00
 0.1741415136690E+00 -0.1951085114842E+01  0.0000000000000E+00
 0.1755900046701E+00 -0.1878502480274E+01  0.0000000000000E+00
 0.1771500722917E+00 -0.1806026171918E+01  0.0000000000000E+00
 0.1925052882440E+00 -0.4658365300656E+01  0.0000000000000E+00
 0.1925105764769E+00 -0.4585143628228E+01  0.0000000000000E+00
 0.1925158647424E+00 -0.4511921506156E+01  0.0000000000000E+00
 0.1925211529930E+00 -0.4438699589362E+01  0.0000000000000E+00
 0.1925264412425E+00 -0.4365477687129E+01  0.0000000000000E+00
 0.1925317294941E+00 -0.4292255757381E+01  0.0000000000000E+00
 0.1925370177425E+00 -0.4219033870910E+01  0.0000000000000E+00
 0.1925423059928E+00 -0.4145811957596E+01  0.0000000000000E+00
 0.1925475942428E+00 -0.4072590049661E+01  0.0000000000000E+00
 0.1925528824922E+00 -0.3999368149810E+01  0.0000000000000E+00
 0.1925581707427E+00 -0.3926146234633E+01  0.0000000000000E+00
 0.1925634589914E+00 -0.3852924343469E+01  0.0000000000000E+00
 0.1925687472425E+00 -0.3779702420348E+01  0.0000000000000E+00
 0.1925740354978E+00 -0.3706480437491E+01  0.0000000000000E+00
 0.1925793237517E+00 -0.3633258475472E+01  0.0000000000000E+00
 0.1925846119993E+00 -0.3560036601046E+01  0.0000000000000E+00
 0.1925899002935E+00 -0.3486814080182E+01  0.0000000000000E+00
 0.1925951884994E+00 -0.3413592782753E+01  0.0000000000000E+00
 0.1926004767501E+00 -0.3340370864228E+01  0.0000000000000E+00
 0.1926057649950E+00 -0.3267149025935E+01  0.0000000000000E+00
 0.1926110532332E+00 -0.3193927280904E+01  0.0000000000000E+00
 0.1926163414741E+00 -0.3120705498923E+01  0.0000000000000E+00
 0.1926216297173E+00 -0.3047483684197E+01  0.0000000000000E+00
 0.1926303040577E+00 -0.2974261806440E+01  0.0000000000000E+00
 0.1926641740278E+00 -0.2901040159091E+01  0.0000000000000E+00
 0.1927535233632E+00 -0.2827820080573E+01  0.0000000000000E+00
 0.1929259577963E+00 -0.2754604844905E+01  0.0000000000000E+00
 0.1932017974845E+00 -0.2681400135744E+01  0.0000000000000E+00
 0.1935940752064E+00 -0.2608213096582E+01  0.0000000000000E+00
 0.1941111241963E+00 -0.2535052060780E+01  0.0000000000000E+00
 0.1947595668518E+00 -0.2461926011733E+01  0.0000000000000E+00
 0.1955468949300E+00 -0.2388845665039E+01  0.0000000000000E+00
 0.1964834146637E+00 -0.2315824609092E+01  0.0000000000000E+00
 0.1975685462823E+00 -0.2242872654162E+01  0.0000000000000E+00
 0.1987871809622E+00 -0.2169991558216E+01  0.0000000000000E+00
 0.2001285330459E+00 -0.2097182999597E+01  0.0000000000000E+00
 0.2015863296650E+00 -0.2024449756583E+01  0.0000000000000E+00
 0.2031585237745E+00 -0.1951796731204E+01  0.0000000000000E+00
 0.2048482569157E+00 -0.1879232823336E+01  0.0000000000000E+00
 0.2066681627825E+00 -0.1806775241636E+01  0.0000000000000E+00
 0.2200058153998E+00 -0.4658386905282E+01  0.0000000000000E+00
 0.2200116307875E+00 -0.4585186837434E+01  0.0000000000000E+00
 0.2200174462108E+00 -0.4511986320076E+01  0.0000000000000E+00
 0.2200232616179E+00 -0.4438786007934E+01  0.0000000000000E+00
 0.2200290770239E+00 -0.4365585710349E+01  0.0000000000000E+00
 0.2200348924320E+00 -0.4292385385258E+01  0.0000000000000E+00
 0.2200407078366E+00 -0.4219185103431E+01  0.0000000000000E+00
 0.2200465232434E+00 -0.4145984794769E+01  0.0000000000000E+00
 0.2200523386498E+00 -0.4072784491483E+01  0.0000000000000E+00
 0.2200581540556E+00 -0.3999584196280E+01  0.0000000000000E+00
 0.2200639694625E+00 -0.3926383885756E+01  0.0000000000000E+00
 0.2200697848676E+00 -0.3853183599236E+01  0.0000000000000E+00
 0.2200756002751E+00 -0.3779983280770E+01  0.0000000000000E+00
 0.2200814156875E+00 -0.3706782902585E+01  0.0000000000000E+00
 0.2200872310981E+00 -0.3633582545232E+01  0.0000000000000E+00
 0.2200930465019E+00 -0.3560382275447E+01  0.0000000000000E+00
 0.2200988619569E+00 -0.3487181359413E+01  0.0000000000000E+00
 0.2201046773148E+00 -0.3413981666454E+01  0.0000000000000E+00
 0.2201104927220E+00 -0.3340781352582E+01  0.0000000000000E+00
 0.2201163081229E+00 -0.3267581118919E+01  0.0000000000000E+00
 0.2201221235163E+00 -0.3194380978490E+01  0.0000000000000E+00
 0.2201279389127E+00 -0.3121180801122E+01  0.0000000000000E+00
 0.2201337543117E+00 -0.3047980591018E+01  0.0000000000000E+00
 0.2201434395357E+00 -0.2974780317904E+01  0.0000000000000E+00
 0.2201819197651E+00 -0.2901580275183E+01  0.0000000000000E+00
 0.2202838049834E+00 -0.2828381801256E+01  0.0000000000000E+00
 0.2204806445985E+00 -0.2755188170172E+01  0.0000000000000E+00
 0.2207956616474E+00 -0.2682005065570E+01  0.0000000000000E+00
 0.2212437507339E+00 -0.2608839630967E+01  0.0000000000000E+00
 0.2218344355546E+00 -0.2535700199692E+01  0.0000000000000E+00
 0.2225752845634E+00 -0.2462595755191E+01  0.0000000000000E+00
 0.2234748597682E+00 -0.2389537013054E+01  0.0000000000000E+00
 0.2245449397216E+00 -0.2316537561614E+01  0.0000000000000E+00
 0.2257848618277E+00 -0.2243607211216E+01  0.0000000000000E+00
 0.2271773588597E+00 -0.2170747719827E+01  0.0000000000000E+00
 0.2287101043520E+00 -0.2097960765773E+01  0.0000000000000E+00
 0.2303759293123E+00 -0.2025249127350E+01  0.0000000000000E+00
 0.2321724942604E+00 -0.1952617706584E+01  0.0000000000000E+00
 0.2341033895299E+00 -0.1880075403276E+01  0.0000000000000E+00
 0.2361830536282E+00 -0.1807639426087E+01  0.0000000000000E+00
 0.2475062513560E+00 -0.4658411386427E+01  0.0000000000000E+00
 0.2475125026990E+00 -0.4585235799674E+01  0.0000000000000E+00
 0.2475187540803E+00 -0.4512059763560E+01  0.0000000000000E+00
 0.2475250054442E+00 -0.4438883932594E+01  0.0000000000000E+00
 0.2475312568068E+00 -0.4365708116181E+01  0.0000000000000E+00
 0.2475375081717E+00 -0.4292532272270E+01  0.0000000000000E+00
 0.2475437595330E+00 -0.4219356471609E+01  0.0000000000000E+00
 0.2475500108965E+00 -0.4146180644121E+01  0.0000000000000E+00
 0.2475562622596E+00 -0.4073004822009E+01  0.0000000000000E+00
 0.2475625136220E+00 -0.3999829007976E+01  0.0000000000000E+00
 0.2475687649857E+00 -0.3926653178627E+01  0.0000000000000E+00
 0.2475750163473E+00 -0.3853477373275E+01  0.0000000000000E+00
 0.2475812677117E+00 -0.3780301535987E+01  0.0000000000000E+00
 0.2475875190812E+00 -0.3707125639000E+01  0.0000000000000E+00
 0.2475937704489E+00 -0.3633949762838E+01  0.0000000000000E+00
 0.2476000218091E+00 -0.3560773974215E+01  0.0000000000000E+00
 0.2476062732245E+00 -0.3487597539559E+01  0.0000000000000E+00
 0.2476125245354E+00 -0.3414422327569E+01  0.0000000000000E+00
 0.2476187758994E+00 -0.3341246494873E+01  0.0000000000000E+00
 0.2476250272566E+00 -0.3268070742360E+01  0.0000000000000E+00
 0.2476312786057E+00 -0.3194895083049E+01  0.0000000000000E+00
 0.2476375299581E+00 -0.3121719386813E+01  0.0000000000000E+00
 0.2476437813132E+00 -0.3048543657851E+01  0.0000000000000E+00
 0.2476543862212E+00 -0.2975367865900E+01  0.0000000000000E+00
 0.2476973855103E+00 -0.2902192304328E+01  0.0000000000000E+00
 0.2478117154120E+00 -0.2829018311508E+01  0.0000000000000E+00
 0.2480328690096E+00 -0.2755849161521E+01  0.0000000000000E+00
 0.2483869722199E+00 -0.2682690537989E+01  0.0000000000000E+00
 0.2488907814716E+00 -0.2609549584457E+01  0.0000000000000E+00
 0.2495550109240E+00 -0.2536434634215E+01  0.0000000000000E+00
 0.2503881750867E+00 -0.2463354670768E+01  0.0000000000000E+00
 0.2513999062187E+00 -0.2390320409700E+01  0.0000000000000E+00
 0.2526034551925E+00 -0.2317345439271E+01  0.0000000000000E+00
 0.2539980765867E+00 -0.2244439569913E+01  0.0000000000000E+00
 0.2555643447712E+00 -0.2171604559590E+01  0.0000000000000E+00
 0.2572883924727E+00 -0.2098842086614E+01  0.0000000000000E+00
 0.2591621545745E+00 -0.2026154929295E+01  0.0000000000000E+00
 0.2611829991614E+00 -0.1953547989660E+01  0.0000000000000E+00
 0.2633549653598E+00 -0.1881030167425E+01  0.0000000000000E+00
 0.2656942964902E+00 -0.1808618671252E+01  0.0000000000000E+00
 0.2750065850588E+00 -0.4658438742571E+01  0.0000000000000E+00
 0.2750131701039E+00 -0.4585290511904E+01  0.0000000000000E+00
 0.2750197551894E+00 -0.4512141832045E+01  0.0000000000000E+00
 0.2750263402564E+00 -0.4438993357257E+01  0.0000000000000E+00
 0.2750329253222E+00 -0.4365844897016E+01  0.0000000000000E+00
 0.2750395103904E+00 -0.4292696409288E+01  0.0000000000000E+00
 0.2750460954547E+00 -0.4219547964793E+01  0.0000000000000E+00
 0.2750526805214E+00 -0.4146399493482E+01  0.0000000000000E+00
 0.2750592655877E+00 -0.4073251027544E+01  0.0000000000000E+00
 0.2750658506532E+00 -0.4000102569683E+01  0.0000000000000E+00
 0.2750724357201E+00 -0.3926954096512E+01  0.0000000000000E+00
 0.2750790207848E+00 -0.3853805647328E+01  0.0000000000000E+00
 0.2750856058524E+00 -0.3780657166220E+01  0.0000000000000E+00
 0.2750921909254E+00 -0.3707508625436E+01  0.0000000000000E+00
 0.2750987759965E+00 -0.3634360105469E+01  0.0000000000000E+00
 0.2751053610598E+00 -0.3561211673007E+01  0.0000000000000E+00
 0.2751119461812E+00 -0.3488062594756E+01  0.0000000000000E+00
 0.2751185311925E+00 -0.3414914738712E+01  0.0000000000000E+00
 0.2751251162597E+00 -0.3341766262195E+01  0.0000000000000E+00
 0.2751317013197E+00 -0.3268617865830E+01  0.0000000000000E+00
 0.2751382863713E+00 -0.3195469562633E+01  0.0000000000000E+00
 0.2751448714262E+00 -0.3122321222524E+01  0.0000000000000E+00
 0.2751514564841E+00 -0.3049172849702E+01  0.0000000000000E+00
 0.2751628788227E+00 -0.2976024413916E+01  0.0000000000000E+00
 0.2752102949189E+00 -0.2902876208491E+01  0.0000000000000E+00
 0.2753369672533E+00 -0.2829729571771E+01  0.0000000000000E+00
 0.2755823325853E+00 -0.2756587777875E+01  0.0000000000000E+00
 0.2759754197121E+00 -0.2683456510402E+01  0.0000000000000E+00
 0.2765348468877E+00 -0.2610342912930E+01  0.0000000000000E+00
 0.2772725187343E+00 -0.2537255318706E+01  0.0000000000000E+00
 0.2781978958174E+00 -0.2464202711301E+01  0.0000000000000E+00
 0.2793216806473E+00 -0.2391195806292E+01  0.0000000000000E+00
 0.2806585964169E+00 -0.2318248191856E+01  0.0000000000000E+00
 0.2822078148791E+00 -0.2245369678523E+01  0.0000000000000E+00
 0.2839477520001E+00 -0.2172562024256E+01  0.0000000000000E+00
 0.2858629996983E+00 -0.2099826907348E+01  0.0000000000000E+00
 0.2879445967325E+00 -0.2027167106128E+01  0.0000000000000E+00
 0.2901896187525E+00 -0.1954587522619E+01  0.0000000000000E+00
 0.2926025536778E+00 -0.1882097056446E+01  0.0000000000000E+00
 0.2952014496426E+00 -0.1809712916272E+01  0.0000000000000E+00
 0.3025068043940E+00 -0.4658468971968E+01  0.0000000000000E+00
 0.3025136087739E+00 -0.4585350970636E+01  0.0000000000000E+00
 0.3025204131955E+00 -0.4512232520297E+01  0.0000000000000E+00
 0.3025272175981E+00 -0.4439114274945E+01  0.0000000000000E+00
 0.3025340219993E+00 -0.4365996044133E+01  0.0000000000000E+00
 0.3025408264030E+00 -0.4292877785846E+01  0.0000000000000E+00
 0.3025476308028E+00 -0.4219759570774E+01  0.0000000000000E+00
 0.3025544352050E+00 -0.4146641328897E+01  0.0000000000000E+00
 0.3025612396067E+00 -0.4073523092391E+01  0.0000000000000E+00
 0.3025680440077E+00 -0.4000404863958E+01  0.0000000000000E+00
 0.3025748484101E+00 -0.3927286620221E+01  0.0000000000000E+00
 0.3025816528103E+00 -0.3854168400463E+01  0.0000000000000E+00
 0.3025884572134E+00 -0.3781050148793E+01  0.0000000000000E+00
 0.3025952616221E+00 -0.3707931837471E+01  0.0000000000000E+00
 0.3026020660289E+00 -0.3634813546959E+01  0.0000000000000E+00
 0.3026088704275E+00 -0.3561695343915E+01  0.0000000000000E+00
 0.3026156748862E+00 -0.3488576495348E+01  0.0000000000000E+00
 0.3026224792312E+00 -0.3415458868484E+01  0.0000000000000E+00
 0.3026292836339E+00 -0.3342340621403E+01  0.0000000000000E+00
 0.3026360880292E+00 -0.3269222454441E+01  0.0000000000000E+00
 0.3026428924158E+00 -0.3196104380609E+01  0.0000000000000E+00
 0.3026496968058E+00 -0.3122986269880E+01  0.0000000000000E+00
 0.3026565011989E+00 -0.3049868126451E+01  0.0000000000000E+00
 0.3026686266003E+00 -0.2976749920085E+01  0.0000000000000E+00
 0.3027203451345E+00 -0.2903631944063E+01  0.0000000000000E+00
 0.3028592455296E+00 -0.2830515536692E+01  0.0000000000000E+00
 0.3031287082196E+00 -0.2757403972134E+01  0.0000000000000E+00
 0.3035606648810E+00 -0.2684302933966E+01  0.0000000000000E+00
 0.3041755955924E+00 -0.2611219565799E+01  0.0000000000000E+00
 0.3049865954384E+00 -0.2538162200834E+01  0.0000000000000E+00
 0.3060040710399E+00 -0.2465139822714E+01  0.0000000000000E+00
 0.3072397951582E+00 -0.2392163147008E+01  0.0000000000000E+00
 0.3087099633062E+00 -0.2319245761804E+01  0.0000000000000E+00
 0.3104136644108E+00 -0.2246397477737E+01  0.0000000000000E+00
 0.3123271560352E+00 -0.2173620052771E+01  0.0000000000000E+00
 0.3144334892904E+00 -0.2100915165177E+01  0.0000000000000E+00
 0.3167228068109E+00 -0.2028285593305E+01  0.0000000000000E+00
 0.3191918918116E+00 -0.1955736239175E+01  0.0000000000000E+00
 0.3218456810053E+00 -0.1883276002310E+01  0.0000000000000E+00
 0.3247040273393E+00 -0.1810922091373E+01  0.0000000000000E+00
 0.3300068990355E+00 -0.4658502072771E+01  0.0000000000000E+00
 0.3300137980567E+00 -0.4585417172174E+01  0.0000000000000E+00
 0.3300206971202E+00 -0.4512331822772E+01  0.0000000000000E+00
 0.3300275961644E+00 -0.4439246678265E+01  0.0000000000000E+00
 0.3300344952072E+00 -0.4366161548291E+01  0.0000000000000E+00
 0.3300413942526E+00 -0.4293076390855E+01  0.0000000000000E+00
 0.3300482932940E+00 -0.4219991276614E+01  0.0000000000000E+00
 0.3300551923378E+00 -0.4146906135581E+01  0.0000000000000E+00
 0.3300620913812E+00 -0.4073820999915E+01  0.0000000000000E+00
 0.3300689904238E+00 -0.4000735872320E+01  0.0000000000000E+00
 0.3300758894678E+00 -0.3927650729427E+01  0.0000000000000E+00
 0.3300827885096E+00 -0.3854565610502E+01  0.0000000000000E+00
 0.3300896875544E+00 -0.3781480459680E+01  0.0000000000000E+00
 0.3300965866048E+00 -0.3708395249233E+01  0.0000000000000E+00
 0.3301034856532E+00 -0.3635310059585E+01  0.0000000000000E+00
 0.3301103846934E+00 -0.3562224957367E+01  0.0000000000000E+00
 0.3301172837945E+00 -0.3489139209918E+01  0.0000000000000E+00
 0.3301241827804E+00 -0.3416054683619E+01  0.0000000000000E+00
 0.3301310818247E+00 -0.3342969537384E+01  0.0000000000000E+00
 0.3301379808615E+00 -0.3269884471232E+01  0.0000000000000E+00
 0.3301448798895E+00 -0.3196799498167E+01  0.0000000000000E+00
 0.3301517789210E+00 -0.3123714488221E+01  0.0000000000000E+00
 0.3301586779556E+00 -0.3050629445591E+01  0.0000000000000E+00
 0.3301713817261E+00 -0.2977544340053E+01  0.0000000000000E+00
 0.3302272780059E+00 -0.2904459464839E+01  0.0000000000000E+00
 0.3303782817725E+00 -0.2831376158220E+01  0.0000000000000E+00
 0.3306717171352E+00 -0.2758297694401E+01  0.0000000000000E+00
 0.3311424186512E+00 -0.2685229756934E+01  0.0000000000000E+00
 0.3318127282240E+00 -0.2612179489470E+01  0.0000000000000E+00
 0.3326969314014E+00 -0.2539155225155E+01  0.0000000000000E+00
 0.3338063808598E+00 -0.2466165947716E+01  0.0000000000000E+00
 0.3351539196114E+00 -0.2393222372710E+01  0.0000000000000E+00
 0.3367572154907E+00 -0.2320338088127E+01  0.0000000000000E+00
 0.3386152745975E+00 -0.2247522904721E+01  0.0000000000000E+00
 0.3407021960918E+00 -0.2174778580452E+01  0.0000000000000E+00
 0.3429994902762E+00 -0.2102106793569E+01  0.0000000000000E+00
 0.3454964036609E+00 -0.2029510322446E+01  0.0000000000000E+00
 0.3481894270257E+00 -0.1956994069100E+01  0.0000000000000E+00
 0.3510839458773E+00 -0.1884566932939E+01  0.0000000000000E+00
 0.3542016179765E+00 -0.1812246122631E+01  0.0000000000000E+00
 0.3575068569661E+00 -0.4658538042879E+01  0.0000000000000E+00
 0.3575137139178E+00 -0.4585489112314E+01  0.0000000000000E+00
 0.3575205709117E+00 -0.4512439733166E+01  0.0000000000000E+00
 0.3575274278864E+00 -0.4439390558811E+01  0.0000000000000E+00
 0.3575342848597E+00 -0.4366341398983E+01  0.0000000000000E+00
 0.3575411418356E+00 -0.4293292211706E+01  0.0000000000000E+00
 0.3575479988074E+00 -0.4220243067603E+01  0.0000000000000E+00
 0.3575548557817E+00 -0.4147193896721E+01  0.0000000000000E+00
 0.3575617127555E+00 -0.4074144731204E+01  0.0000000000000E+00
 0.3575685697286E+00 -0.4001095573752E+01  0.0000000000000E+00
 0.3575754267031E+00 -0.3928046401012E+01  0.0000000000000E+00
 0.3575822836754E+00 -0.3854997252227E+01  0.0000000000000E+00
 0.3575891406506E+00 -0.3781948071560E+01  0.0000000000000E+00
 0.3575959976315E+00 -0.3708898831298E+01  0.0000000000000E+00
 0.3576028546104E+00 -0.3635849611826E+01  0.0000000000000E+00
 0.3576097115811E+00 -0.3562800479740E+01  0.0000000000000E+00
 0.3576165686123E+00 -0.3489750702740E+01  0.0000000000000E+00
 0.3576234255290E+00 -0.3416702146290E+01  0.0000000000000E+00
 0.3576302825038E+00 -0.3343652970208E+01  0.0000000000000E+00
 0.3576371394711E+00 -0.3270603874170E+01  0.0000000000000E+00
 0.3576439964297E+00 -0.3197554871173E+01  0.0000000000000E+00
 0.3576508533917E+00 -0.3124505831314E+01  0.0000000000000E+00
 0.3576577103568E+00 -0.3051456758786E+01  0.0000000000000E+00
 0.3576708557852E+00 -0.2978407623384E+01  0.0000000000000E+00
 0.3577307930988E+00 -0.2905358718283E+01  0.0000000000000E+00
 0.3578937635234E+00 -0.2832311381714E+01  0.0000000000000E+00
 0.3582110348432E+00 -0.2759268887932E+01  0.0000000000000E+00
 0.3587203444949E+00 -0.2686236920463E+01  0.0000000000000E+00
 0.3594458962068E+00 -0.2613222622996E+01  0.0000000000000E+00
 0.3604031659898E+00 -0.2540234328623E+01  0.0000000000000E+00
 0.3616044525750E+00 -0.2467281021158E+01  0.0000000000000E+00
 0.3630636692258E+00 -0.2394373416147E+01  0.0000000000000E+00
 0.3647999560978E+00 -0.2321525101475E+01  0.0000000000000E+00
 0.3668122364638E+00 -0.2248745888021E+01  0.0000000000000E+00
 0.3690724510805E+00 -0.2176037533744E+01  0.0000000000000E+00
 0.3715605694432E+00 -0.2103401716869E+01  0.0000000000000E+00
 0.3742649419373E+00 -0.2030841215795E+01  0.0000000000000E+00
 0.3771817669077E+00 -0.1958360932534E+01  0.0000000000000E+00
 0.3803168786556E+00 -0.1885969766374E+01  0.0000000000000E+00
 0.3836937397548E+00 -0.1813684925983E+01  0.0000000000000E+00
 0.3850066672510E+00 -0.4658576880061E+01  0.0000000000000E+00
 0.3850133344881E+00 -0.4585566786598E+01  0.0000000000000E+00
 0.3850200017662E+00 -0.4512556244790E+01  0.0000000000000E+00
 0.3850266690256E+00 -0.4439545907666E+01  0.0000000000000E+00
 0.3850333362836E+00 -0.4366535585061E+01  0.0000000000000E+00
 0.3850400035442E+00 -0.4293525235022E+01  0.0000000000000E+00
 0.3850466708008E+00 -0.4220514928134E+01  0.0000000000000E+00
 0.3850533380599E+00 -0.4147504594480E+01  0.0000000000000E+00
 0.3850600053184E+00 -0.4074494266190E+01  0.0000000000000E+00
 0.3850666725763E+00 -0.4001483945960E+01  0.0000000000000E+00
 0.3850733398355E+00 -0.3928473610450E+01  0.0000000000000E+00
 0.3850800070925E+00 -0.3855463298882E+01  0.0000000000000E+00
 0.3850866743525E+00 -0.3782452955450E+01  0.0000000000000E+00
 0.3850933416179E+00 -0.3709442552454E+01  0.0000000000000E+00
 0.3851000088814E+00 -0.3636432170237E+01  0.0000000000000E+00
 0.3851066761369E+00 -0.3563421875359E+01  0.0000000000000E+00
 0.3851133434512E+00 -0.3490410935911E+01  0.0000000000000E+00
 0.3851200106542E+00 -0.3417401216363E+01  0.0000000000000E+00
 0.3851266779138E+00 -0.3344390877513E+01  0.0000000000000E+00
 0.3851333451660E+00 -0.3271380618664E+01  0.0000000000000E+00
 0.3851400124097E+00 -0.3198370452807E+01  0.0000000000000E+00
 0.3851466796568E+00 -0.3125360250108E+01  0.0000000000000E+00
 0.3851533469069E+00 -0.3052350014757E+01  0.0000000000000E+00
 0.3851667863476E+00 -0.2979339716566E+01  0.0000000000000E+00
 0.3852306170495E+00 -0.2906329648653E+01  0.0000000000000E+00
 0.3854054064870E+00 -0.2833321149205E+01  0.0000000000000E+00
 0.3857463661188E+00 -0.2760317492529E+01  0.0000000000000E+00
 0.3862941362620E+00 -0.2687324362123E+01  0.0000000000000E+00
 0.3870747824689E+00 -0.2614348901720E+01  0.0000000000000E+00
 0.3881049712139E+00 -0.2541399444351E+01  0.0000000000000E+00
 0.3893979472826E+00 -0.2468484973924E+01  0.0000000000000E+00
 0.3909686941895E+00 -0.2395616205974E+01  0.0000000000000E+00
 0.3928378244118E+00 -0.2322806728271E+01  0.0000000000000E+00
 0.3950041783950E+00 -0.2250066351831E+01  0.0000000000000E+00
 0.3974375384922E+00 -0.2177396834612E+01  0.0000000000000E+00
 0.4001163333914E+00 -0.2104799854812E+01  0.0000000000000E+00
 0.4030280173533E+00 -0.2032278190856E+01  0.0000000000000E+00
 0.4061684962881E+00 -0.1959836744754E+01  0.0000000000000E+00
 0.4095440532914E+00 -0.1887484415661E+01  0.0000000000000E+00
 0.4131799557506E+00 -0.1815238412246E+01  0.0000000000000E+00
 0.4125063190932E+00 -0.4658618581925E+01  0.0000000000000E+00
 0.4125126381733E+00 -0.4585650190237E+01  0.0000000000000E+00
 0.4125189572921E+00 -0.4512681350462E+01  0.0000000000000E+00
 0.4125252763933E+00 -0.4439712715254E+01  0.0000000000000E+00
 0.4125315954932E+00 -0.4366744094556E+01  0.0000000000000E+00
 0.4125379145954E+00 -0.4293775446440E+01  0.0000000000000E+00
 0.4125442336940E+00 -0.4220806841450E+01  0.0000000000000E+00
 0.4125505527948E+00 -0.4147838209710E+01  0.0000000000000E+00
 0.4125568718952E+00 -0.4074869583330E+01  0.0000000000000E+00
 0.4125631909949E+00 -0.4001900965006E+01  0.0000000000000E+00
 0.4125695100959E+00 -0.3928932331410E+01  0.0000000000000E+00
 0.4125758291948E+00 -0.3855963721744E+01  0.0000000000000E+00
 0.4125821482965E+00 -0.3782995080231E+01  0.0000000000000E+00
 0.4125884674034E+00 -0.3710026379188E+01  0.0000000000000E+00
 0.4125947865084E+00 -0.3637057698912E+01  0.0000000000000E+00
 0.4126011056059E+00 -0.3564089105926E+01  0.0000000000000E+00
 0.4126074247592E+00 -0.3491119868737E+01  0.0000000000000E+00
 0.4126137438069E+00 -0.3418151850752E+01  0.0000000000000E+00
 0.4126200629082E+00 -0.3345183213819E+01  0.0000000000000E+00
 0.4126263820025E+00 -0.3272214656840E+01  0.0000000000000E+00
 0.4126327010889E+00 -0.3199246192801E+01  0.0000000000000E+00
 0.4126390201784E+00 -0.3126277691941E+01  0.0000000000000E+00
 0.4126453392707E+00 -0.3053309158447E+01  0.0000000000000E+00
 0.4126589142810E+00 -0.2980340562151E+01  0.0000000000000E+00
 0.4127264799297E+00 -0.2907372196107E+01  0.0000000000000E+00
 0.4129129299416E+00 -0.2834405398456E+01  0.0000000000000E+00
 0.4132774194510E+00 -0.2761443443563E+01  0.0000000000000E+00
 0.4138634916560E+00 -0.2688492014891E+01  0.0000000000000E+00
 0.4146990739339E+00 -0.2615558256224E+01  0.0000000000000E+00
 0.4158020232230E+00 -0.2542650500527E+01  0.0000000000000E+00
 0.4171865303632E+00 -0.2469777731808E+01  0.0000000000000E+00
 0.4188686491207E+00 -0.2396950665591E+01  0.0000000000000E+00
 0.4208704642954E+00 -0.2324182889523E+01  0.0000000000000E+00
 0.4231907335043E+00 -0.2251484214766E+01  0.0000000000000E+00
 0.4257970806970E+00 -0.2178856399276E+01  0.0000000000000E+00
 0.4286663937532E+00 -0.2106301121224E+01  0.0000000000000E+00
 0.4317852308089E+00 -0.2033821159063E+01  0.0000000000000E+00
 0.4351492053391E+00 -0.1961421414798E+01  0.0000000000000E+00
 0.4387650492349E+00 -0.1889110787444E+01  0.0000000000000E+00
 0.4426598346975E+00 -0.1816906485672E+01  0.0000000000000E+00
 0.4400058000888E+00 -0.4658663145799E+01  0.0000000000000E+00
 0.4400116001655E+00 -0.4585739317892E+01  0.0000000000000E+00
 0.4400174002778E+00 -0.4512815042172E+01  0.0000000000000E+00
 0.4400232003739E+00 -0.4439890970894E+01  0.0000000000000E+00
 0.4400290004688E+00 -0.4366966914117E+01  0.0000000000000E+00
 0.4400348005658E+00 -0.4294042829939E+01  0.0000000000000E+00
 0.4400406006595E+00 -0.4221118788861E+01  0.0000000000000E+00
 0.4400464007553E+00 -0.4148194721049E+01  0.0000000000000E+00
 0.4400522008506E+00 -0.4075270658593E+01  0.0000000000000E+00
 0.4400580009453E+00 -0.4002346604189E+01  0.0000000000000E+00
 0.4400638010413E+00 -0.3929422534522E+01  0.0000000000000E+00
 0.4400696011353E+00 -0.3856498488770E+01  0.0000000000000E+00
 0.4400754012318E+00 -0.3783574411191E+01  0.0000000000000E+00
 0.4400812013331E+00 -0.3710650274118E+01  0.0000000000000E+00
 0.4400870014328E+00 -0.3637726157800E+01  0.0000000000000E+00
 0.4400928015255E+00 -0.3564802128718E+01  0.0000000000000E+00
 0.4400986016694E+00 -0.3491877455827E+01  0.0000000000000E+00
 0.4401044017164E+00 -0.3418954001394E+01  0.0000000000000E+00
 0.4401102018126E+00 -0.3346029928392E+01  0.0000000000000E+00
 0.4401160019024E+00 -0.3273105935296E+01  0.0000000000000E+00
 0.4401218019848E+00 -0.3200182035083E+01  0.0000000000000E+00
 0.4401276020702E+00 -0.3127258098070E+01  0.0000000000000E+00
 0.4401334021582E+00 -0.3054334128444E+01  0.0000000000000E+00
 0.4401469418909E+00 -0.2981410096056E+01  0.0000000000000E+00
 0.4402180716374E+00 -0.2908486293893E+01  0.0000000000000E+00
 0.4404160113703E+00 -0.2835564060045E+01  0.0000000000000E+00
 0.4408038598970E+00 -0.2762646668939E+01  0.0000000000000E+00
 0.4414280632953E+00 -0.2689739804005E+01  0.0000000000000E+00
 0.4423184107658E+00 -0.2616850609075E+01  0.0000000000000E+00
 0.4434939497105E+00 -0.2543987417048E+01  0.0000000000000E+00
 0.4449698170227E+00 -0.2471159212037E+01  0.0000000000000E+00
 0.4467631367197E+00 -0.2398376709555E+01  0.0000000000000E+00
 0.4488974659235E+00 -0.2325653497116E+01  0.0000000000000E+00
 0.4513714794224E+00 -0.2252999386040E+01  0.0000000000000E+00
 0.4541506427632E+00 -0.2180416134282E+01  0.0000000000000E+00
 0.4572103030192E+00 -0.2107905419981E+01  0.0000000000000E+00
 0.4605361222013E+00 -0.2035470021620E+01  0.0000000000000E+00
 0.4641234213498E+00 -0.1963114841203E+01  0.0000000000000E+00
 0.4679793811517E+00 -0.1890848777590E+01  0.0000000000000E+00
 0.4721328786209E+00 -0.1818689039456E+01  0.0000000000000E+00
 0.4675051005201E+00 -0.4658710569005E+01  0.0000000000000E+00
 0.4675102010296E+00 -0.4585834164207E+01  0.0000000000000E+00
 0.4675153015704E+00 -0.4512957311885E+01  0.0000000000000E+00
 0.4675204020969E+00 -0.4440080663873E+01  0.0000000000000E+00
 0.4675255026224E+00 -0.4367204030353E+01  0.0000000000000E+00
 0.4675306031498E+00 -0.4294327369449E+01  0.0000000000000E+00
 0.4675357036742E+00 -0.4221450751617E+01  0.0000000000000E+00
 0.4675408042005E+00 -0.4148574107069E+01  0.0000000000000E+00
 0.4675459047264E+00 -0.4075697467873E+01  0.0000000000000E+00
 0.4675510052517E+00 -0.4002820836724E+01  0.0000000000000E+00
 0.4675561057781E+00 -0.3929944190322E+01  0.0000000000000E+00
 0.4675612063029E+00 -0.3857067567819E+01  0.0000000000000E+00
 0.4675663068298E+00 -0.3784190913510E+01  0.0000000000000E+00
 0.4675714073609E+00 -0.3711314199746E+01  0.0000000000000E+00
 0.4675765078906E+00 -0.3638437506723E+01  0.0000000000000E+00
 0.4675816084142E+00 -0.3565560900880E+01  0.0000000000000E+00
 0.4675867089827E+00 -0.3492683651646E+01  0.0000000000000E+00
 0.4675918094661E+00 -0.3419807620078E+01  0.0000000000000E+00
 0.4675969099927E+00 -0.3346930970343E+01  0.0000000000000E+00
 0.4676020105138E+00 -0.3274054400462E+01  0.0000000000000E+00
 0.4676071110283E+00 -0.3201177923403E+01  0.0000000000000E+00
 0.4676122115455E+00 -0.3128301409569E+01  0.0000000000000E+00
 0.4676173120649E+00 -0.3055424863144E+01  0.0000000000000E+00
 0.4676306359560E+00 -0.2982548253998E+01  0.0000000000000E+00
 0.4677051492379E+00 -0.2909671875048E+01  0.0000000000000E+00
 0.4679143981338E+00 -0.2836797064332E+01  0.0000000000000E+00
 0.4683254251255E+00 -0.2763927096339E+01  0.0000000000000E+00
 0.4689875791721E+00 -0.2691067654466E+01  0.0000000000000E+00
 0.4699325112982E+00 -0.2618225882598E+01  0.0000000000000E+00
 0.4711804593705E+00 -0.2545410113560E+01  0.0000000000000E+00
 0.4727475063358E+00 -0.2472629331579E+01  0.0000000000000E+00
 0.4746518464626E+00 -0.2399894252155E+01  0.0000000000000E+00
 0.4769185091967E+00 -0.2327218462663E+01  0.0000000000000E+00
 0.4795460864969E+00 -0.2254611774588E+01  0.0000000000000E+00
 0.4824978855064E+00 -0.2182075945884E+01  0.0000000000000E+00
 0.4857477124908E+00 -0.2109612654658E+01  0.0000000000000E+00
 0.4892803333359E+00 -0.2037224679426E+01  0.0000000000000E+00
 0.4930907766471E+00 -0.1964916922187E+01  0.0000000000000E+00
 0.4971866719080E+00 -0.1892698281639E+01  0.0000000000000E+00
 0.5015987009462E+00 -0.1820585966460E+01  0.0000000000000E+00
 0.4950042083210E+00 -0.4658760848539E+01  0.0000000000000E+00
 0.4950084166332E+00 -0.4585934723169E+01  0.0000000000000E+00
 0.4950126249712E+00 -0.4513108150585E+01  0.0000000000000E+00
 0.4950168332975E+00 -0.4440281782170E+01  0.0000000000000E+00
 0.4950210416229E+00 -0.4367455428237E+01  0.0000000000000E+00
 0.4950252499499E+00 -0.4294629046938E+01  0.0000000000000E+00
 0.4950294582744E+00 -0.4221802708682E+01  0.0000000000000E+00
 0.4950336666004E+00 -0.4148976343728E+01  0.0000000000000E+00
 0.4950378749262E+00 -0.4076149984123E+01  0.0000000000000E+00
 0.4950420832514E+00 -0.4003323632559E+01  0.0000000000000E+00
 0.4950462915776E+00 -0.3930497265753E+01  0.0000000000000E+00
 0.4950504999024E+00 -0.3857670922829E+01  0.0000000000000E+00
 0.4950547082290E+00 -0.3784844548121E+01  0.0000000000000E+00
 0.4950589165590E+00 -0.3712018113999E+01  0.0000000000000E+00
 0.4950631248879E+00 -0.3639191700604E+01  0.0000000000000E+00
 0.4950673332117E+00 -0.3566365374328E+01  0.0000000000000E+00
 0.4950715415726E+00 -0.3493538405106E+01  0.0000000000000E+00
 0.4950757498633E+00 -0.3420712652710E+01  0.0000000000000E+00
 0.4950799581896E+00 -0.3347886282572E+01  0.0000000000000E+00
 0.4950841665114E+00 -0.3275059992234E+01  0.0000000000000E+00
 0.4950883748277E+00 -0.3202233794654E+01  0.0000000000000E+00
 0.4950925831462E+00 -0.3129407560324E+01  0.0000000000000E+00
 0.4950967914666E+00 -0.3056581293425E+01  0.0000000000000E+00
 0.4951097068853E+00 -0.2983754963851E+01  0.0000000000000E+00
 0.4951874110714E+00 -0.2910928864443E+01  0.0000000000000E+00
 0.4954077764972E+00 -0.2838104333180E+01  0.0000000000000E+00
 0.4958417893184E+00 -0.2765284644623E+01  0.0000000000000E+00
 0.4965417013745E+00 -0.2692475482128E+01  0.0000000000000E+00
 0.4975410255139E+00 -0.2619683989641E+01  0.0000000000000E+00
 0.4988611900675E+00 -0.2546918499905E+01  0.0000000000000E+00
 0.5005192240350E+00 -0.2474187997271E+01  0.0000000000000E+00
 0.5025343919363E+00 -0.2401503197224E+01  0.0000000000000E+00
 0.5049331955409E+00 -0.2328877686990E+01  0.0000000000000E+00
 0.5077141439775E+00 -0.2256321278231E+01  0.0000000000000E+00
 0.5108383859861E+00 -0.2183835728900E+01  0.0000000000000E+00
 0.5142781870254E+00 -0.2111422717068E+01  0.0000000000000E+00
 0.5180174168560E+00 -0.2039085021287E+01  0.0000000000000E+00
 0.5220508116484E+00 -0.1966827543550E+01  0.0000000000000E+00
 0.5263864496834E+00 -0.1894659182387E+01  0.0000000000000E+00
 0.5310568176018E+00 -0.1822597146475E+01  0.0000000000000E+00
 0.5225031126404E+00 -0.4658813981299E+01  0.0000000000000E+00
 0.5225062252743E+00 -0.4586040988578E+01  0.0000000000000E+00
 0.5225093379273E+00 -0.4513267548970E+01  0.0000000000000E+00
 0.5225124505716E+00 -0.4440494313380E+01  0.0000000000000E+00
 0.5225155632152E+00 -0.4367721092263E+01  0.0000000000000E+00
 0.5225186758601E+00 -0.4294947843801E+01  0.0000000000000E+00
 0.5225217885031E+00 -0.4222174638349E+01  0.0000000000000E+00
 0.5225249011472E+00 -0.4149401406219E+01  0.0000000000000E+00
 0.5225280137911E+00 -0.4076628179434E+01  0.0000000000000E+00
 0.5225311264347E+00 -0.4003854960684E+01  0.0000000000000E+00
 0.5225342390789E+00 -0.3931081726703E+01  0.0000000000000E+00
 0.5225373517221E+00 -0.3858308516587E+01  0.0000000000000E+00
 0.5225404643666E+00 -0.3785535274710E+01  0.0000000000000E+00
 0.5225435770137E+00 -0.3712761973463E+01  0.0000000000000E+00
 0.5225466896599E+00 -0.3639988692926E+01  0.0000000000000E+00
 0.5225498023024E+00 -0.3567215499446E+01  0.0000000000000E+00
 0.5225529149724E+00 -0.3494441663489E+01  0.0000000000000E+00
 0.5225560275903E+00 -0.3421669043470E+01  0.0000000000000E+00
 0.5225591402347E+00 -0.3348895806160E+01  0.0000000000000E+00
 0.5225622528757E+00 -0.3276122648591E+01  0.0000000000000E+00
 0.5225653655126E+00 -0.3203349583713E+01  0.0000000000000E+00
 0.5225684781512E+00 -0.3130576482112E+01  0.0000000000000E+00
 0.5225715907911E+00 -0.3057803347965E+01  0.0000000000000E+00
 0.5225838942559E+00 -0.2985030151191E+01  0.0000000000000E+00
 0.5226645858642E+00 -0.2912257184550E+01  0.0000000000000E+00
 0.5228958643382E+00 -0.2839485785963E+01  0.0000000000000E+00
 0.5233526595062E+00 -0.2766719230062E+01  0.0000000000000E+00
 0.5240901260887E+00 -0.2693963200164E+01  0.0000000000000E+00
 0.5251436387569E+00 -0.2621224840274E+01  0.0000000000000E+00
 0.5265358163068E+00 -0.2548512483054E+01  0.0000000000000E+00
 0.5282846337900E+00 -0.2475835112982E+01  0.0000000000000E+00
 0.5304104259779E+00 -0.2403203445529E+01  0.0000000000000E+00
 0.5329411669643E+00 -0.2330631067763E+01  0.0000000000000E+00
 0.5358752830470E+00 -0.2258127791534E+01  0.0000000000000E+00
 0.5391717645631E+00 -0.2185695374792E+01  0.0000000000000E+00
 0.5428013361643E+00 -0.2113335495573E+01  0.0000000000000E+00
 0.5467469714862E+00 -0.2041050932465E+01  0.0000000000000E+00
 0.5510031142644E+00 -0.1968846587455E+01  0.0000000000000E+00
 0.5555782915776E+00 -0.1896731358894E+01  0.0000000000000E+00
 0.5605067948795E+00 -0.1824722455461E+01  0.0000000000000E+00
 0.5500018033136E+00 -0.4658869964069E+01  0.0000000000000E+00
 0.5500036066233E+00 -0.4586152954003E+01  0.0000000000000E+00
 0.5500054099442E+00 -0.4513435497392E+01  0.0000000000000E+00
 0.5500072132600E+00 -0.4440718244644E+01  0.0000000000000E+00
 0.5500090165755E+00 -0.4368001006356E+01  0.0000000000000E+00
 0.5500108198916E+00 -0.4295283740744E+01  0.0000000000000E+00
 0.5500126232067E+00 -0.4222566518110E+01  0.0000000000000E+00
 0.5500144265224E+00 -0.4149849268818E+01  0.0000000000000E+00
 0.5500162298380E+00 -0.4077132024867E+01  0.0000000000000E+00
 0.5500180331534E+00 -0.4004414788945E+01  0.0000000000000E+00
 0.5500198364692E+00 -0.3931697537804E+01  0.0000000000000E+00
 0.5500216397843E+00 -0.3858980310509E+01  0.0000000000000E+00
 0.5500234431003E+00 -0.3786263051477E+01  0.0000000000000E+00
 0.5500252464177E+00 -0.3713545733121E+01  0.0000000000000E+00
 0.5500270497347E+00 -0.3640828435461E+01  0.0000000000000E+00
 0.5500288530494E+00 -0.3568111224789E+01  0.0000000000000E+00
 0.5500306563801E+00 -0.3495393372134E+01  0.0000000000000E+00
 0.5500324596807E+00 -0.3422676734482E+01  0.0000000000000E+00
 0.5500342629965E+00 -0.3349959480015E+01  0.0000000000000E+00
 0.5500360663104E+00 -0.3277242305227E+01  0.0000000000000E+00
 0.5500378696220E+00 -0.3204525223058E+01  0.0000000000000E+00
 0.5500396729345E+00 -0.3131808104194E+01  0.0000000000000E+00
 0.5500414762478E+00 -0.3059090952810E+01  0.0000000000000E+00
 0.5500529541124E+00 -0.2986373738849E+01  0.0000000000000E+00
 0.5501364194992E+00 -0.2913656754987E+01  0.0000000000000E+00
 0.5503783973824E+00 -0.2840941339082E+01  0.0000000000000E+00
 0.5508577612655E+00 -0.2768230765842E+01  0.0000000000000E+00
 0.5516325687513E+00 -0.2695530718543E+01  0.0000000000000E+00
 0.5527400563351E+00 -0.2622848341252E+01  0.0000000000000E+00
 0.5542040332787E+00 -0.2550191966546E+01  0.0000000000000E+00
 0.5560434206860E+00 -0.2477570579036E+01  0.0000000000000E+00
 0.5582796235804E+00 -0.2404994894179E+01  0.0000000000000E+00
 0.5609420883813E+00 -0.2332478498877E+01  0.0000000000000E+00
 0.5640291585551E+00 -0.2260031205176E+01  0.0000000000000E+00
 0.5674976660344E+00 -0.2187654771025E+01  0.0000000000000E+00
 0.5713167946636E+00 -0.2115350874421E+01  0.0000000000000E+00
 0.5754686219523E+00 -0.2043122293992E+01  0.0000000000000E+00
 0.5799472992011E+00 -0.1970973931719E+01  0.0000000000000E+00
 0.5847618022875E+00 -0.1898914685761E+01  0.0000000000000E+00
 0.5899482274796E+00 -0.1826961764802E+01  0.0000000000000E+00
 0.5775046063623E+00 -0.4658929169039E+01  0.0000000000000E+00
 0.5775092127151E+00 -0.4586271363819E+01  0.0000000000000E+00
 0.5775138190961E+00 -0.4513613112418E+01  0.0000000000000E+00
 0.5775184254642E+00 -0.4440955064714E+01  0.0000000000000E+00
 0.5775230318314E+00 -0.4368297031459E+01  0.0000000000000E+00
 0.5775276382004E+00 -0.4295638970901E+01  0.0000000000000E+00
 0.5775322445666E+00 -0.4222980953286E+01  0.0000000000000E+00
 0.5775368509345E+00 -0.4150322909036E+01  0.0000000000000E+00
 0.5775414573020E+00 -0.4077664870122E+01  0.0000000000000E+00
 0.5775460636691E+00 -0.4005006839230E+01  0.0000000000000E+00
 0.5775506700371E+00 -0.3932348793131E+01  0.0000000000000E+00
 0.5775552764036E+00 -0.3859690770860E+01  0.0000000000000E+00
 0.5775598827721E+00 -0.3787032716878E+01  0.0000000000000E+00
 0.5775644891444E+00 -0.3714374603619E+01  0.0000000000000E+00
 0.5775690955153E+00 -0.3641716511039E+01  0.0000000000000E+00
 0.5775737018808E+00 -0.3569058505377E+01  0.0000000000000E+00
 0.5775783082869E+00 -0.3496399858254E+01  0.0000000000000E+00
 0.5775829146160E+00 -0.3423742425146E+01  0.0000000000000E+00
 0.5775875209843E+00 -0.3351084375724E+01  0.0000000000000E+00
 0.5775921273474E+00 -0.3278426405916E+01  0.0000000000000E+00
 0.5775967337047E+00 -0.3205768528653E+01  0.0000000000000E+00
 0.5776013400644E+00 -0.3133110614724E+01  0.0000000000000E+00
 0.5776059464261E+00 -0.3060452668301E+01  0.0000000000000E+00
 0.5776207126381E+00 -0.2987794659355E+01  0.0000000000000E+00
 0.5777110774219E+00 -0.2915136880472E+01  0.0000000000000E+00
 0.5779679060300E+00 -0.2842480669443E+01  0.0000000000000E+00
 0.5784740284367E+00 -0.2769829301057E+01  0.0000000000000E+00
 0.5792904145389E+00 -0.2697188458545E+01  0.0000000000000E+00
 0.5804561686988E+00 -0.2624565286044E+01  0.0000000000000E+00
 0.5819962944983E+00 -0.2551968116035E+01  0.0000000000000E+00
 0.5839306621719E+00 -0.2479405933275E+01  0.0000000000000E+00
 0.5862817504648E+00 -0.2406889453203E+01  0.0000000000000E+00
 0.5890804828851E+00 -0.2334432262545E+01  0.0000000000000E+00
 0.5923251198134E+00 -0.2262044173559E+01  0.0000000000000E+00
 0.5959703277778E+00 -0.2189726944188E+01  0.0000000000000E+00
 0.5999837448152E+00 -0.2117482252390E+01  0.0000000000000E+00
 0.6043465494057E+00 -0.2045312876833E+01  0.0000000000000E+00
 0.6090525994664E+00 -0.1973223719494E+01  0.0000000000000E+00
 0.6141113211150E+00 -0.1901223678329E+01  0.0000000000000E+00
 0.6195606212872E+00 -0.1829329962027E+01  0.0000000000000E+00
 0.6050071700463E+00 -0.4658991252418E+01  0.0000000000000E+00
 0.6050143400778E+00 -0.4586395530448E+01  0.0000000000000E+00
 0.6050215101532E+00 -0.4513799362679E+01  0.0000000000000E+00
 0.6050286802085E+00 -0.4441203398432E+01  0.0000000000000E+00
 0.6050358502624E+00 -0.4368607448621E+01  0.0000000000000E+00
 0.6050430203191E+00 -0.4296011471532E+01  0.0000000000000E+00
 0.6050501903714E+00 -0.4223415537349E+01  0.0000000000000E+00
 0.6050573604264E+00 -0.4150819576553E+01  0.0000000000000E+00
 0.6050645304809E+00 -0.4078223621089E+01  0.0000000000000E+00
 0.6050717005346E+00 -0.4005627673640E+01  0.0000000000000E+00
 0.6050788705898E+00 -0.3933031710997E+01  0.0000000000000E+00
 0.6050860406426E+00 -0.3860435772161E+01  0.0000000000000E+00
 0.6050932106985E+00 -0.3787839801641E+01  0.0000000000000E+00
 0.6051003807603E+00 -0.3715243771896E+01  0.0000000000000E+00
 0.6051075508201E+00 -0.3642647762811E+01  0.0000000000000E+00
 0.6051147208713E+00 -0.3570051840571E+01  0.0000000000000E+00
 0.6051218909858E+00 -0.3497455277418E+01  0.0000000000000E+00
 0.6051290609805E+00 -0.3424859927241E+01  0.0000000000000E+00
 0.6051362310360E+00 -0.3352263961278E+01  0.0000000000000E+00
 0.6051434010836E+00 -0.3279668074861E+01  0.0000000000000E+00
 0.6051505711222E+00 -0.3207072280909E+01  0.0000000000000E+00
 0.6051577411643E+00 -0.3134476450324E+01  0.0000000000000E+00
 0.6051649112096E+00 -0.3061880587272E+01  0.0000000000000E+00
 0.6051827264041E+00 -0.2989284661751E+01  0.0000000000000E+00
 0.6052797512201E+00 -0.2916688966257E+01  0.0000000000000E+00
 0.6055511911890E+00 -0.2844094838509E+01  0.0000000000000E+00
 0.6060838327555E+00 -0.2771505553381E+01  0.0000000000000E+00
 0.6069415581107E+00 -0.2698926794058E+01  0.0000000000000E+00
 0.6081653394835E+00 -0.2626365704746E+01  0.0000000000000E+00
 0.6097813747766E+00 -0.2553830617832E+01  0.0000000000000E+00
 0.6118104833542E+00 -0.2481330518221E+01  0.0000000000000E+00
 0.6142762176836E+00 -0.2408876121334E+01  0.0000000000000E+00
 0.6172109783622E+00 -0.2336481013715E+01  0.0000000000000E+00
 0.6206129426840E+00 -0.2264155007840E+01  0.0000000000000E+00
 0.6244346117725E+00 -0.2191899861649E+01  0.0000000000000E+00
 0.6286420778573E+00 -0.2119717253058E+01  0.0000000000000E+00
 0.6332156203890E+00 -0.2047609960779E+01  0.0000000000000E+00
 0.6381488039008E+00 -0.1975582886781E+01  0.0000000000000E+00
 0.6434515047517E+00 -0.1903644928812E+01  0.0000000000000E+00
 0.6491634405451E+00 -0.1831813295560E+01  0.0000000000000E+00
 0.6325094832707E+00 -0.4659056210343E+01  0.0000000000000E+00
 0.6325189665217E+00 -0.4586525446162E+01  0.0000000000000E+00
 0.6325284498309E+00 -0.4513994236580E+01  0.0000000000000E+00
 0.6325379331135E+00 -0.4441463230339E+01  0.0000000000000E+00
 0.6325474163943E+00 -0.4368932238522E+01  0.0000000000000E+00
 0.6325568996786E+00 -0.4296401219450E+01  0.0000000000000E+00
 0.6325663829573E+00 -0.4223870243246E+01  0.0000000000000E+00
 0.6325758662394E+00 -0.4151339240452E+01  0.0000000000000E+00
 0.6325853495209E+00 -0.4078808242986E+01  0.0000000000000E+00
 0.6325948328014E+00 -0.4006277253528E+01  0.0000000000000E+00
 0.6326043160838E+00 -0.3933746248890E+01  0.0000000000000E+00
 0.6326137993631E+00 -0.3861215268037E+01  0.0000000000000E+00
 0.6326232826465E+00 -0.3788684255529E+01  0.0000000000000E+00
 0.6326327659377E+00 -0.3716153183848E+01  0.0000000000000E+00
 0.6326422492262E+00 -0.3643622132809E+01  0.0000000000000E+00
 0.6326517325033E+00 -0.3571091168537E+01  0.0000000000000E+00
 0.6326612158642E+00 -0.3498559563925E+01  0.0000000000000E+00
 0.6326706990666E+00 -0.3426029171205E+01  0.0000000000000E+00
 0.6326801823494E+00 -0.3353498163249E+01  0.0000000000000E+00
 0.6326896656219E+00 -0.3280967234769E+01  0.0000000000000E+00
 0.6326991488823E+00 -0.3208436398670E+01  0.0000000000000E+00
 0.6327086321474E+00 -0.3135905525971E+01  0.0000000000000E+00
 0.6327181154168E+00 -0.3063374620834E+01  0.0000000000000E+00
 0.6327387291340E+00 -0.2990843653288E+01  0.0000000000000E+00
 0.6328421635227E+00 -0.2918312915727E+01  0.0000000000000E+00
 0.6331279643934E+00 -0.2845783745801E+01  0.0000000000000E+00
 0.6336868746610E+00 -0.2773259418471E+01  0.0000000000000E+00
 0.6345856888113E+00 -0.2700745616872E+01  0.0000000000000E+00
 0.6358672469395E+00 -0.2628249485287E+01  0.0000000000000E+00
 0.6375589412693E+00 -0.2555779355998E+01  0.0000000000000E+00
 0.6396825402943E+00 -0.2483344214070E+01  0.0000000000000E+00
 0.6422626702039E+00 -0.2410954774905E+01  0.0000000000000E+00
 0.6453332086857E+00 -0.2338624624854E+01  0.0000000000000E+00
 0.6488922499460E+00 -0.2266363576622E+01  0.0000000000000E+00
 0.6528901297038E+00 -0.2194173388147E+01  0.0000000000000E+00
 0.6572913943814E+00 -0.2122055737301E+01  0.0000000000000E+00
 0.6620754243999E+00 -0.2050013402840E+01  0.0000000000000E+00
 0.6672354909085E+00 -0.1978051286727E+01  0.0000000000000E+00
 0.6727819205084E+00 -0.1906178286488E+01  0.0000000000000E+00
 0.6787562414707E+00 -0.1834411610816E+01  0.0000000000000E+00
 0.6600115349916E+00 -0.4659124038777E+01  0.0000000000000E+00
 0.6600230699592E+00 -0.4586661102889E+01  0.0000000000000E+00
 0.6600346049976E+00 -0.4514197722017E+01  0.0000000000000E+00
 0.6600461400037E+00 -0.4441734544296E+01  0.0000000000000E+00
 0.6600576750075E+00 -0.4369271380984E+01  0.0000000000000E+00
 0.6600692100156E+00 -0.4296808190443E+01  0.0000000000000E+00
 0.6600807450169E+00 -0.4224345042731E+01  0.0000000000000E+00
 0.6600922800224E+00 -0.4151881868453E+01  0.0000000000000E+00
 0.6601038150271E+00 -0.4079418699498E+01  0.0000000000000E+00
 0.6601153500305E+00 -0.4006955538544E+01  0.0000000000000E+00
 0.6601268850364E+00 -0.3934492362423E+01  0.0000000000000E+00
 0.6601384200384E+00 -0.3862029210066E+01  0.0000000000000E+00
 0.6601499550455E+00 -0.3789566026083E+01  0.0000000000000E+00
 0.6601614900620E+00 -0.3717102782983E+01  0.0000000000000E+00
 0.6601730250752E+00 -0.3644639560506E+01  0.0000000000000E+00
 0.6601845600746E+00 -0.3572176424713E+01  0.0000000000000E+00
 0.6601960951758E+00 -0.3499712649181E+01  0.0000000000000E+00
 0.6602076300843E+00 -0.3427250084407E+01  0.0000000000000E+00
 0.6602191650907E+00 -0.3354786904972E+01  0.0000000000000E+00
 0.6602307000844E+00 -0.3282323804938E+01  0.0000000000000E+00
 0.6602422350634E+00 -0.3209860797199E+01  0.0000000000000E+00
 0.6602537700482E+00 -0.3137397752895E+01  0.0000000000000E+00
 0.6602653050382E+00 -0.3064934676183E+01  0.0000000000000E+00
 0.6602884557744E+00 -0.2992471537122E+01  0.0000000000000E+00
 0.6603980382323E+00 -0.2920008628006E+01  0.0000000000000E+00
 0.6606979385021E+00 -0.2847547286406E+01  0.0000000000000E+00
 0.6612828559686E+00 -0.2775090787378E+01  0.0000000000000E+00
 0.6622224974123E+00 -0.2702644814005E+01  0.0000000000000E+00
 0.6635615707948E+00 -0.2630216510647E+01  0.0000000000000E+00
 0.6653286626613E+00 -0.2557814209481E+01  0.0000000000000E+00
 0.6675464906339E+00 -0.2485446895735E+01  0.0000000000000E+00
 0.6702407546242E+00 -0.2413125284793E+01  0.0000000000000E+00
 0.6734468094109E+00 -0.2340862962804E+01  0.0000000000000E+00
 0.6771626661118E+00 -0.2268669742713E+01  0.0000000000000E+00
 0.6813364950413E+00 -0.2196547382455E+01  0.0000000000000E+00
 0.6859312968146E+00 -0.2124497559855E+01  0.0000000000000E+00
 0.6909255528227E+00 -0.2052523053717E+01  0.0000000000000E+00
 0.6963122408314E+00 -0.1980628765997E+01  0.0000000000000E+00
 0.7021021376845E+00 -0.1908823593990E+01  0.0000000000000E+00
 0.7083385823212E+00 -0.1837124746394E+01  0.0000000000000E+00
 0.6875133142182E+00 -0.4659194733517E+01  0.0000000000000E+00
 0.6875266284087E+00 -0.4586802492222E+01  0.0000000000000E+00
 0.6875399426809E+00 -0.4514409806377E+01  0.0000000000000E+00
 0.6875532569158E+00 -0.4442017323484E+01  0.0000000000000E+00
 0.6875665711481E+00 -0.4369624854987E+01  0.0000000000000E+00
 0.6875798853854E+00 -0.4297232359288E+01  0.0000000000000E+00
 0.6875931996148E+00 -0.4224839906374E+01  0.0000000000000E+00
 0.6876065138490E+00 -0.4152447426922E+01  0.0000000000000E+00
 0.6876198280823E+00 -0.4080054952788E+01  0.0000000000000E+00
 0.6876331423142E+00 -0.4007662486646E+01  0.0000000000000E+00
 0.6876464565488E+00 -0.3935270005352E+01  0.0000000000000E+00
 0.6876597707790E+00 -0.3862877547799E+01  0.0000000000000E+00
 0.6876730850151E+00 -0.3790485058651E+01  0.0000000000000E+00
 0.6876863992620E+00 -0.3718092510443E+01  0.0000000000000E+00
 0.6876997135052E+00 -0.3645699982838E+01  0.0000000000000E+00
 0.6877130277324E+00 -0.3573307541834E+01  0.0000000000000E+00
 0.6877263420771E+00 -0.3500914461714E+01  0.0000000000000E+00
 0.6877396561994E+00 -0.3428522591170E+01  0.0000000000000E+00
 0.6877529704346E+00 -0.3356130106565E+01  0.0000000000000E+00
 0.6877662846553E+00 -0.3283737701285E+01  0.0000000000000E+00
 0.6877795988589E+00 -0.3211345388209E+01  0.0000000000000E+00
 0.6877929130693E+00 -0.3138953038603E+01  0.0000000000000E+00
 0.6878062272857E+00 -0.3066560656621E+01  0.0000000000000E+00
 0.6878316425464E+00 -0.2994168212354E+01  0.0000000000000E+00
 0.6879471005793E+00 -0.2921775997988E+01  0.0000000000000E+00
 0.6882608277547E+00 -0.2849385351017E+01  0.0000000000000E+00
 0.6888714799273E+00 -0.2776999546590E+01  0.0000000000000E+00
 0.6898516761724E+00 -0.2704624267741E+01  0.0000000000000E+00
 0.6912479923176E+00 -0.2632266658906E+01  0.0000000000000E+00
 0.6930902092303E+00 -0.2559935052156E+01  0.0000000000000E+00
 0.6954019936605E+00 -0.2487638432887E+01  0.0000000000000E+00
 0.6982101192422E+00 -0.2415387516464E+01  0.0000000000000E+00
 0.7015514178457E+00 -0.2343195888828E+01  0.0000000000000E+00
 0.7054238174997E+00 -0.2271073363171E+01  0.0000000000000E+00
 0.7097733231136E+00 -0.2199021697426E+01  0.0000000000000E+00
 0.7145613894959E+00 -0.2127042569371E+01  0.0000000000000E+00
 0.7197655990073E+00 -0.2055138757856E+01  0.0000000000000E+00
 0.7253786360298E+00 -0.1983315164833E+01  0.0000000000000E+00
 0.7314117276514E+00 -0.1911580687357E+01  0.0000000000000E+00
 0.7379100234788E+00 -0.1839952534126E+01  0.0000000000000E+00
 0.7150148100149E+00 -0.4659268290191E+01  0.0000000000000E+00
 0.7150296199990E+00 -0.4586949605417E+01  0.0000000000000E+00
 0.7150444300741E+00 -0.4514630476544E+01  0.0000000000000E+00
 0.7150592401076E+00 -0.4442311550418E+01  0.0000000000000E+00
 0.7150740501382E+00 -0.4369992638672E+01  0.0000000000000E+00
 0.7150888601743E+00 -0.4297673699752E+01  0.0000000000000E+00
 0.7151036702017E+00 -0.4225354803575E+01  0.0000000000000E+00
 0.7151184802345E+00 -0.4153035880886E+01  0.0000000000000E+00
 0.7151332902662E+00 -0.4080716963508E+01  0.0000000000000E+00
 0.7151481002963E+00 -0.4008398054116E+01  0.0000000000000E+00
 0.7151629103295E+00 -0.3936079129587E+01  0.0000000000000E+00
 0.7151777203579E+00 -0.3863760228774E+01  0.0000000000000E+00
 0.7151925303927E+00 -0.3791441296399E+01  0.0000000000000E+00
 0.7152073404395E+00 -0.3719122305024E+01  0.0000000000000E+00
 0.7152221504822E+00 -0.3646803334230E+01  0.0000000000000E+00
 0.7152369605072E+00 -0.3574484449950E+01  0.0000000000000E+00
 0.7152517706629E+00 -0.3502164927202E+01  0.0000000000000E+00
 0.7152665805711E+00 -0.3429846612803E+01  0.0000000000000E+00
 0.7152813906050E+00 -0.3357527684966E+01  0.0000000000000E+00
 0.7152962006226E+00 -0.3285208836373E+01  0.0000000000000E+00
 0.7153110106214E+00 -0.3212890079891E+01  0.0000000000000E+00
 0.7153258206276E+00 -0.3140571286916E+01  0.0000000000000E+00
 0.7153406306405E+00 -0.3068252461598E+01  0.0000000000000E+00
 0.7153680269957E+00 -0.2995933574060E+01  0.0000000000000E+00
 0.7154890771739E+00 -0.2923614916380E+01  0.0000000000000E+00
 0.7158163478261E+00 -0.2851297825966E+01  0.0000000000000E+00
 0.7164524512764E+00 -0.2778985578070E+01  0.0000000000000E+00
 0.7174729188955E+00 -0.2706683855668E+01  0.0000000000000E+00
 0.7189261943769E+00 -0.2634399803283E+01  0.0000000000000E+00
 0.7208432529104E+00 -0.2562141752869E+01  0.0000000000000E+00
 0.7232487103733E+00 -0.2489918690001E+01  0.0000000000000E+00
 0.7261704141222E+00 -0.2417741330022E+01  0.0000000000000E+00
 0.7296466731201E+00 -0.2345623258656E+01  0.0000000000000E+00
 0.7336753323051E+00 -0.2273574289355E+01  0.0000000000000E+00
 0.7382002311820E+00 -0.2201596180048E+01  0.0000000000000E+00
 0.7431812787523E+00 -0.2129690608463E+01  0.0000000000000E+00
 0.7485951583465E+00 -0.2057860353502E+01  0.0000000000000E+00
 0.7544342609629E+00 -0.1986110317108E+01  0.0000000000000E+00
 0.7607102639342E+00 -0.1914449396087E+01  0.0000000000000E+00
 0.7674701275352E+00 -0.1842894799141E+01  0.0000000000000E+00
 0.7425160112565E+00 -0.4659344704234E+01  0.0000000000000E+00
 0.7425320224796E+00 -0.4587102433343E+01  0.0000000000000E+00
 0.7425480338010E+00 -0.4514859718823E+01  0.0000000000000E+00
 0.7425640450775E+00 -0.4442617206834E+01  0.0000000000000E+00
 0.7425800563509E+00 -0.4370374709212E+01  0.0000000000000E+00
 0.7425960676302E+00 -0.4298132184444E+01  0.0000000000000E+00
 0.7426120789002E+00 -0.4225889702373E+01  0.0000000000000E+00
 0.7426280901759E+00 -0.4153647193819E+01  0.0000000000000E+00
 0.7426441014505E+00 -0.4081404690570E+01  0.0000000000000E+00
 0.7426601127234E+00 -0.4009162195299E+01  0.0000000000000E+00
 0.7426761239995E+00 -0.3936919684906E+01  0.0000000000000E+00
 0.7426921352705E+00 -0.3864677198205E+01  0.0000000000000E+00
 0.7427081465484E+00 -0.3792434679975E+01  0.0000000000000E+00
 0.7427241578394E+00 -0.3720192102807E+01  0.0000000000000E+00
 0.7427401691258E+00 -0.3647949546199E+01  0.0000000000000E+00
 0.7427561803931E+00 -0.3575707076013E+01  0.0000000000000E+00
 0.7427721918017E+00 -0.3503463968034E+01  0.0000000000000E+00
 0.7427882029428E+00 -0.3431222067126E+01  0.0000000000000E+00
 0.7428042142197E+00 -0.3358979553430E+01  0.0000000000000E+00
 0.7428202254791E+00 -0.3286737118893E+01  0.0000000000000E+00
 0.7428362367181E+00 -0.3214494776370E+01  0.0000000000000E+00
 0.7428522479651E+00 -0.3142252397393E+01  0.0000000000000E+00
 0.7428682592193E+00 -0.3070009986107E+01  0.0000000000000E+00
 0.7428973421134E+00 -0.2997767512669E+01  0.0000000000000E+00
 0.7430236898812E+00 -0.2925525269043E+01  0.0000000000000E+00
 0.7433642094537E+00 -0.2853284592550E+01  0.0000000000000E+00
 0.7440254696239E+00 -0.2781048758547E+01  0.0000000000000E+00
 0.7450859140576E+00 -0.2708823449953E+01  0.0000000000000E+00
 0.7465958543135E+00 -0.2636615811377E+01  0.0000000000000E+00
 0.7485874599040E+00 -0.2564434174655E+01  0.0000000000000E+00
 0.7510862958333E+00 -0.2492287525545E+01  0.0000000000000E+00
 0.7541212831801E+00 -0.2420186579370E+01  0.0000000000000E+00
 0.7577322080008E+00 -0.2348144921627E+01  0.0000000000000E+00
 0.7619168321423E+00 -0.2276172366038E+01  0.0000000000000E+00
 0.7666168297047E+00 -0.2204270670529E+01  0.0000000000000E+00
 0.7717905638831E+00 -0.2132441512775E+01  0.0000000000000E+00
 0.7774138189777E+00 -0.2060687671731E+01  0.0000000000000E+00
 0.7834786926029E+00 -0.1989014049333E+01  0.0000000000000E+00
 0.7899973123374E+00 -0.1917429542126E+01  0.0000000000000E+00
 0.7970184491235E+00 -0.1845951358818E+01  0.0000000000000E+00
 0.7700169072712E+00 -0.4659423970956E+01  0.0000000000000E+00
 0.7700338145071E+00 -0.4587260966622E+01  0.0000000000000E+00
 0.7700507218469E+00 -0.4515097519146E+01  0.0000000000000E+00
 0.7700676291392E+00 -0.4442934273980E+01  0.0000000000000E+00
 0.7700845364282E+00 -0.4370771043164E+01  0.0000000000000E+00
 0.7701014437236E+00 -0.4298607785231E+01  0.0000000000000E+00
 0.7701183510089E+00 -0.4226444569949E+01  0.0000000000000E+00
 0.7701352583005E+00 -0.4154281328213E+01  0.0000000000000E+00
 0.7701521655908E+00 -0.4082118091776E+01  0.0000000000000E+00
 0.7701690728792E+00 -0.4009954863308E+01  0.0000000000000E+00
 0.7701859801712E+00 -0.3937791619736E+01  0.0000000000000E+00
 0.7702028874577E+00 -0.3865628399829E+01  0.0000000000000E+00
 0.7702197947515E+00 -0.3793465148427E+01  0.0000000000000E+00
 0.7702367020591E+00 -0.3721301838152E+01  0.0000000000000E+00
 0.7702536093619E+00 -0.3649138548415E+01  0.0000000000000E+00
 0.7702705166445E+00 -0.3576975345005E+01  0.0000000000000E+00
 0.7702874240763E+00 -0.3504811504502E+01  0.0000000000000E+00
 0.7703043312257E+00 -0.3432648869745E+01  0.0000000000000E+00
 0.7703212385184E+00 -0.3360485622873E+01  0.0000000000000E+00
 0.7703381457926E+00 -0.3288322455072E+01  0.0000000000000E+00
 0.7703550530453E+00 -0.3216159379186E+01  0.0000000000000E+00
 0.7703719603066E+00 -0.3143996266884E+01  0.0000000000000E+00
 0.7703888675754E+00 -0.3071833122309E+01  0.0000000000000E+00
 0.7704193317813E+00 -0.2999669915654E+01  0.0000000000000E+00
 0.7705506719117E+00 -0.2927506938761E+01  0.0000000000000E+00
 0.7709041351781E+00 -0.2855345528865E+01  0.0000000000000E+00
 0.7715902468416E+00 -0.2783188961430E+01  0.0000000000000E+00
 0.7726903628635E+00 -0.2711042919314E+01  0.0000000000000E+00
 0.7742566626671E+00 -0.2638914547219E+01  0.0000000000000E+00
 0.7763225100882E+00 -0.2566812176855E+01  0.0000000000000E+00
 0.7789144192568E+00 -0.2494744794173E+01  0.0000000000000E+00
 0.7820623849740E+00 -0.2422723114472E+01  0.0000000000000E+00
 0.7858076703905E+00 -0.2350760723017E+01  0.0000000000000E+00
 0.7901479542606E+00 -0.2278867433808E+01  0.0000000000000E+00
 0.7950227452801E+00 -0.2207045004767E+01  0.0000000000000E+00
 0.8003888608380E+00 -0.2135295113515E+01  0.0000000000000E+00
 0.8062211862034E+00 -0.2063620539063E+01  0.0000000000000E+00
 0.8125115256075E+00 -0.1992026183340E+01  0.0000000000000E+00
 0.8192724568757E+00 -0.1920520942619E+01  0.0000000000000E+00
 0.8265545616180E+00 -0.1849122025614E+01  0.0000000000000E+00
 0.7975174873666E+00 -0.4659506085499E+01  0.0000000000000E+00
 0.7975349746967E+00 -0.4587425195538E+01  0.0000000000000E+00
 0.7975524621343E+00 -0.4515343862938E+01  0.0000000000000E+00
 0.7975699495228E+00 -0.4443262732417E+01  0.0000000000000E+00
 0.7975874369078E+00 -0.4371181616231E+01  0.0000000000000E+00
 0.7976049242994E+00 -0.4299100472959E+01  0.0000000000000E+00
 0.7976224116807E+00 -0.4227019372289E+01  0.0000000000000E+00
 0.7976398990684E+00 -0.4154938245195E+01  0.0000000000000E+00
 0.7976573864548E+00 -0.4082857123395E+01  0.0000000000000E+00
 0.7976748738393E+00 -0.4010776009554E+01  0.0000000000000E+00
 0.7976923612274E+00 -0.3938694880626E+01  0.0000000000000E+00
 0.7977098486098E+00 -0.3866613775336E+01  0.0000000000000E+00
 0.7977273359998E+00 -0.3794532638587E+01  0.0000000000000E+00
 0.7977448234041E+00 -0.3722451443033E+01  0.0000000000000E+00
 0.7977623108034E+00 -0.3650370267993E+01  0.0000000000000E+00
 0.7977797981818E+00 -0.3578289179181E+01  0.0000000000000E+00
 0.7977972857146E+00 -0.3506207454001E+01  0.0000000000000E+00
 0.7978147729552E+00 -0.3434126933196E+01  0.0000000000000E+00
 0.7978322603441E+00 -0.3362045800972E+01  0.0000000000000E+00
 0.7978497477139E+00 -0.3289964747730E+01  0.0000000000000E+00
 0.7978672350614E+00 -0.3217883786296E+01  0.0000000000000E+00
 0.7978847224177E+00 -0.3145802788489E+01  0.0000000000000E+00
 0.7979022097818E+00 -0.3073721758446E+01  0.0000000000000E+00
 0.7979337393802E+00 -0.3001640666396E+01  0.0000000000000E+00
 0.7980697559540E+00 -0.2929559804059E+01  0.0000000000000E+00
 0.7984358469961E+00 -0.2857480508576E+01  0.0000000000000E+00
 0.7991464942352E+00 -0.2785406055523E+01  0.0000000000000E+00
 0.8002859659286E+00 -0.2713342127699E+01  0.0000000000000E+00
 0.8019083093641E+00 -0.2641295869896E+01  0.0000000000000E+00
 0.8040480827013E+00 -0.2569275613697E+01  0.0000000000000E+00
 0.8067327491951E+00 -0.2497290345253E+01  0.0000000000000E+00
 0.8099933773693E+00 -0.2425350779840E+01  0.0000000000000E+00
 0.8138727074699E+00 -0.2353470502477E+01  0.0000000000000E+00
 0.8183683351576E+00 -0.2281659327455E+01  0.0000000000000E+00
 0.8234176037235E+00 -0.2209919012694E+01  0.0000000000000E+00
 0.8289757847507E+00 -0.2138251235758E+01  0.0000000000000E+00
 0.8350168644774E+00 -0.2066658775715E+01  0.0000000000000E+00
 0.8415323537512E+00 -0.1995146534484E+01  0.0000000000000E+00
 0.8485352806454E+00 -0.1923723408063E+01  0.0000000000000E+00
 0.8560780374376E+00 -0.1852406605166E+01  0.0000000000000E+00
 0.8250177408470E+00 -0.4659591042836E+01  0.0000000000000E+00
 0.8250354816571E+00 -0.4587595110033E+01  0.0000000000000E+00
 0.8250532225761E+00 -0.4515598735114E+01  0.0000000000000E+00
 0.8250709634454E+00 -0.4443602562037E+01  0.0000000000000E+00
 0.8250887043112E+00 -0.4371606403276E+01  0.0000000000000E+00
 0.8251064451836E+00 -0.4299610217462E+01  0.0000000000000E+00
 0.8251241860456E+00 -0.4227614074200E+01  0.0000000000000E+00
 0.8251419269140E+00 -0.4155617904545E+01  0.0000000000000E+00
 0.8251596677812E+00 -0.4083621740177E+01  0.0000000000000E+00
 0.8251774086463E+00 -0.4011625583759E+01  0.0000000000000E+00
 0.8251951495152E+00 -0.3939629412272E+01  0.0000000000000E+00
 0.8252128903783E+00 -0.3867633264395E+01  0.0000000000000E+00
 0.8252306312491E+00 -0.3795637085097E+01  0.0000000000000E+00
 0.8252483721344E+00 -0.3723640847062E+01  0.0000000000000E+00
 0.8252661130147E+00 -0.3651644629517E+01  0.0000000000000E+00
 0.8252838538737E+00 -0.3579648498099E+01  0.0000000000000E+00
 0.8253015948893E+00 -0.3507651731063E+01  0.0000000000000E+00
 0.8253193356086E+00 -0.3435656166982E+01  0.0000000000000E+00
 0.8253370764783E+00 -0.3363659992202E+01  0.0000000000000E+00
 0.8253548173285E+00 -0.3291663896312E+01  0.0000000000000E+00
 0.8253725581562E+00 -0.3219667892122E+01  0.0000000000000E+00
 0.8253902989928E+00 -0.3147671851602E+01  0.0000000000000E+00
 0.8254080398374E+00 -0.3075675778883E+01  0.0000000000000E+00
 0.8254403082130E+00 -0.3003679644234E+01  0.0000000000000E+00
 0.8255806746155E+00 -0.2931683739246E+01  0.0000000000000E+00
 0.8259590668194E+00 -0.2859689400964E+01  0.0000000000000E+00
 0.8266939230211E+00 -0.2787699905082E+01  0.0000000000000E+00
 0.8278724237742E+00 -0.2715720934332E+01  0.0000000000000E+00
 0.8295504842306E+00 -0.2643759633606E+01  0.0000000000000E+00
 0.8317638568742E+00 -0.2571824334354E+01  0.0000000000000E+00
 0.8345409540844E+00 -0.2499924022930E+01  0.0000000000000E+00
 0.8379139181077E+00 -0.2428069414587E+01  0.0000000000000E+00
 0.8419269662863E+00 -0.2356274094095E+01  0.0000000000000E+00
 0.8465776111862E+00 -0.2284547876042E+01  0.0000000000000E+00
 0.8518010306940E+00 -0.2212892518345E+01  0.0000000000000E+00
 0.8575509505866E+00 -0.2141309698510E+01  0.0000000000000E+00
 0.8638004580713E+00 -0.2069802195663E+01  0.0000000000000E+00
 0.8705407706120E+00 -0.1998374911717E+01  0.0000000000000E+00
 0.8777853665310E+00 -0.1927036742379E+01  0.0000000000000E+00
 0.8855884487738E+00 -0.1855804896368E+01  0.0000000000000E+00
 0.8525176570821E+00 -0.4659678837778E+01  0.0000000000000E+00
 0.8525353141273E+00 -0.4587770699734E+01  0.0000000000000E+00
 0.8525529712811E+00 -0.4515862120114E+01  0.0000000000000E+00
 0.8525706283853E+00 -0.4443953742088E+01  0.0000000000000E+00
 0.8525882854860E+00 -0.4372045378363E+01  0.0000000000000E+00
 0.8526059425933E+00 -0.4300136987617E+01  0.0000000000000E+00
 0.8526235996902E+00 -0.4228228639370E+01  0.0000000000000E+00
 0.8526412567936E+00 -0.4156320264763E+01  0.0000000000000E+00
 0.8526589138956E+00 -0.4084411895437E+01  0.0000000000000E+00
 0.8526765709957E+00 -0.4012503534050E+01  0.0000000000000E+00
 0.8526942280996E+00 -0.3940595157614E+01  0.0000000000000E+00
 0.8527118851976E+00 -0.3868686804758E+01  0.0000000000000E+00
 0.8527295423033E+00 -0.3796778420520E+01  0.0000000000000E+00
 0.8527471994235E+00 -0.3724869977616E+01  0.0000000000000E+00
 0.8527648565386E+00 -0.3652961555178E+01  0.0000000000000E+00
 0.8527825136326E+00 -0.3581053218760E+01  0.0000000000000E+00
 0.8528001708824E+00 -0.3509144247501E+01  0.0000000000000E+00
 0.8528178278373E+00 -0.3437236477730E+01  0.0000000000000E+00
 0.8528354849419E+00 -0.3365328098005E+01  0.0000000000000E+00
 0.8528531420272E+00 -0.3293419797072E+01  0.0000000000000E+00
 0.8528707990900E+00 -0.3221511587729E+01  0.0000000000000E+00
 0.8528884561617E+00 -0.3149603342098E+01  0.0000000000000E+00
 0.8529061132413E+00 -0.3077695064310E+01  0.0000000000000E+00
 0.8529387831484E+00 -0.3005786724669E+01  0.0000000000000E+00
 0.8530831621344E+00 -0.2933878614636E+01  0.0000000000000E+00
 0.8534735182559E+00 -0.2861972071157E+01  0.0000000000000E+00
 0.8542322461771E+00 -0.2790070370046E+01  0.0000000000000E+00
 0.8554494387479E+00 -0.2718179193968E+01  0.0000000000000E+00
 0.8571828789842E+00 -0.2646305687916E+01  0.0000000000000E+00
 0.8594695136951E+00 -0.2574458183202E+01  0.0000000000000E+00
 0.8623387043834E+00 -0.2502645666394E+01  0.0000000000000E+00
 0.8658236670186E+00 -0.2430878852720E+01  0.0000000000000E+00
 0.8699700960402E+00 -0.2359171326688E+01  0.0000000000000E+00
 0.8747754209183E+00 -0.2287532903197E+01  0.0000000000000E+00
 0.8801726541347E+00 -0.2215965340160E+01  0.0000000000000E+00
 0.8861139756606E+00 -0.2144470315024E+01  0.0000000000000E+00
 0.8925715736717E+00 -0.2073050606976E+01  0.0000000000000E+00
 0.8995363722484E+00 -0.2001711117918E+01  0.0000000000000E+00
 0.9070222999633E+00 -0.1930460743261E+01  0.0000000000000E+00
 0.9150853704297E+00 -0.1859316691727E+01  0.0000000000000E+00
 0.8800172252787E+00 -0.4659769464950E+01  0.0000000000000E+00
 0.8800344505215E+00 -0.4587951953890E+01  0.0000000000000E+00
 0.8800516758700E+00 -0.4516134001809E+01  0.0000000000000E+00
 0.8800689011703E+00 -0.4444316251069E+01  0.0000000000000E+00
 0.8800861264672E+00 -0.4372498514612E+01  0.0000000000000E+00
 0.8801033517705E+00 -0.4300680751167E+01  0.0000000000000E+00
 0.8801205770637E+00 -0.4228863030169E+01  0.0000000000000E+00
 0.8801378023631E+00 -0.4157045282843E+01  0.0000000000000E+00
 0.8801550276613E+00 -0.4085227540792E+01  0.0000000000000E+00
 0.8801722529576E+00 -0.4013409806670E+01  0.0000000000000E+00
 0.8801894782575E+00 -0.3941592057517E+01  0.0000000000000E+00
 0.8802067035518E+00 -0.3869774331916E+01  0.0000000000000E+00
 0.8802239288535E+00 -0.3797956574971E+01  0.0000000000000E+00
 0.8802411541693E+00 -0.3726138759435E+01  0.0000000000000E+00
 0.8802583794803E+00 -0.3654320964338E+01  0.0000000000000E+00
 0.8802756047706E+00 -0.3582503255154E+01  0.0000000000000E+00
 0.8802928302130E+00 -0.3510684911929E+01  0.0000000000000E+00
 0.8803100553675E+00 -0.3438867768677E+01  0.0000000000000E+00
 0.8803272806682E+00 -0.3367050016239E+01  0.0000000000000E+00
 0.8803445059500E+00 -0.3295232342495E+01  0.0000000000000E+00
 0.8803617312099E+00 -0.3223414760225E+01  0.0000000000000E+00
 0.8803789564785E+00 -0.3151597141714E+01  0.0000000000000E+00
 0.8803961817547E+00 -0.3079779491084E+01  0.0000000000000E+00
 0.8804289051548E+00 -0.3007961778684E+01  0.0000000000000E+00
 0.8805769486853E+00 -0.2936144295837E+01  0.0000000000000E+00
 0.8809789206855E+00 -0.2864328379386E+01  0.0000000000000E+00
 0.8817611722860E+00 -0.2792517305270E+01  0.0000000000000E+00
 0.8830167086335E+00 -0.2720716756086E+01  0.0000000000000E+00
 0.8848051806072E+00 -0.2648933876929E+01  0.0000000000000E+00
 0.8871647293415E+00 -0.2577176998972E+01  0.0000000000000E+00
 0.8901256654619E+00 -0.2505455108999E+01  0.0000000000000E+00
 0.8937222786608E+00 -0.2433778922213E+01  0.0000000000000E+00
 0.8980017404761E+00 -0.2362162022856E+01  0.0000000000000E+00
 0.9029613972806E+00 -0.2290614226146E+01  0.0000000000000E+00
 0.9085320961515E+00 -0.2219137289990E+01  0.0000000000000E+00
 0.9146644712548E+00 -0.2147732891775E+01  0.0000000000000E+00
 0.9213298117345E+00 -0.2076403810750E+01  0.0000000000000E+00
 0.9285187482873E+00 -0.2005154948809E+01  0.0000000000000E+00
 0.9362456597375E+00 -0.1933995201054E+01  0.0000000000000E+00
 0.9445683703660E+00 -0.1862941776213E+01  0.0000000000000E+00
 0.9075164349346E+00 -0.4659862918846E+01  0.0000000000000E+00
 0.9075328698350E+00 -0.4588138861488E+01  0.0000000000000E+00
 0.9075493048363E+00 -0.4516414363684E+01  0.0000000000000E+00
 0.9075657397915E+00 -0.4444690066958E+01  0.0000000000000E+00
 0.9075821747434E+00 -0.4372965784495E+01  0.0000000000000E+00
 0.9075986097015E+00 -0.4301241475081E+01  0.0000000000000E+00
 0.9076150446499E+00 -0.4229517208058E+01  0.0000000000000E+00
 0.9076314796044E+00 -0.4157792914741E+01  0.0000000000000E+00
 0.9076479145576E+00 -0.4086068626692E+01  0.0000000000000E+00
 0.9076643495090E+00 -0.4014344346563E+01  0.0000000000000E+00
 0.9076807844639E+00 -0.3942620051422E+01  0.0000000000000E+00
 0.9076972194133E+00 -0.3870895779802E+01  0.0000000000000E+00
 0.9077136543699E+00 -0.3799171476878E+01  0.0000000000000E+00
 0.9077300893400E+00 -0.3727447115440E+01  0.0000000000000E+00
 0.9077465243053E+00 -0.3655722774415E+01  0.0000000000000E+00
 0.9077629592511E+00 -0.3583998519191E+01  0.0000000000000E+00
 0.9077793943419E+00 -0.3512273630750E+01  0.0000000000000E+00
 0.9077958291580E+00 -0.3440549940721E+01  0.0000000000000E+00
 0.9078122641136E+00 -0.3368825642300E+01  0.0000000000000E+00
 0.9078286990512E+00 -0.3297101422470E+01  0.0000000000000E+00
 0.9078451339679E+00 -0.3225377293994E+01  0.0000000000000E+00
 0.9078615688929E+00 -0.3153653129324E+01  0.0000000000000E+00
 0.9078780038252E+00 -0.3081928932578E+01  0.0000000000000E+00
 0.9079104221770E+00 -0.3010204674146E+01  0.0000000000000E+00
 0.9080617717110E+00 -0.2938480645209E+01  0.0000000000000E+00
 0.9084750010487E+00 -0.2866758182507E+01  0.0000000000000E+00
 0.9092804177864E+00 -0.2795040562104E+01  0.0000000000000E+00
 0.9105739393675E+00 -0.2723333466530E+01  0.0000000000000E+00
 0.9124170845339E+00 -0.2651644040984E+01  0.0000000000000E+00
 0.9148491887460E+00 -0.2579980616494E+01  0.0000000000000E+00
 0.9179015117509E+00 -0.2508352180070E+01  0.0000000000000E+00
 0.9216094169639E+00 -0.2436769446890E+01  0.0000000000000E+00
 0.9260215530222E+00 -0.2365246000917E+01  0.0000000000000E+00
 0.9311351832001E+00 -0.2293791657698E+01  0.0000000000000E+00
 0.9368789891704E+00 -0.2222408175140E+01  0.0000000000000E+00
 0.9432020592942E+00 -0.2151097230562E+01  0.0000000000000E+00
 0.9500747836836E+00 -0.2079861603281E+01  0.0000000000000E+00
 0.9574874996521E+00 -0.2008706195179E+01  0.0000000000000E+00
 0.9654550362763E+00 -0.1937639901043E+01  0.0000000000000E+00
 0.9740370285046E+00 -0.1866679929603E+01  0.0000000000000E+00
 0.9350152758224E+00 -0.4659959193836E+01  0.0000000000000E+00
 0.9350305516130E+00 -0.4588331411267E+01  0.0000000000000E+00
 0.9350458274974E+00 -0.4516703188842E+01  0.0000000000000E+00
 0.9350611033390E+00 -0.4445075167227E+01  0.0000000000000E+00
 0.9350763791775E+00 -0.4373447159855E+01  0.0000000000000E+00
 0.9350916550218E+00 -0.4301819125568E+01  0.0000000000000E+00
 0.9351069308570E+00 -0.4230191133616E+01  0.0000000000000E+00
 0.9351222066979E+00 -0.4158563115405E+01  0.0000000000000E+00
 0.9351374825376E+00 -0.4086935102455E+01  0.0000000000000E+00
 0.9351527583756E+00 -0.4015307097413E+01  0.0000000000000E+00
 0.9351680342168E+00 -0.3943679077380E+01  0.0000000000000E+00
 0.9351833100531E+00 -0.3872051080837E+01  0.0000000000000E+00
 0.9351985858960E+00 -0.3800423053032E+01  0.0000000000000E+00
 0.9352138617513E+00 -0.3728794966791E+01  0.0000000000000E+00
 0.9352291376023E+00 -0.3657166900936E+01  0.0000000000000E+00
 0.9352444134350E+00 -0.3585538920767E+01  0.0000000000000E+00
 0.9352596894026E+00 -0.3513910308230E+01  0.0000000000000E+00
 0.9352749651150E+00 -0.3442282892497E+01  0.0000000000000E+00
 0.9352902409569E+00 -0.3370654869188E+01  0.0000000000000E+00
 0.9353055167821E+00 -0.3299026924365E+01  0.0000000000000E+00
 0.9353207925879E+00 -0.3227399070774E+01  0.0000000000000E+00
 0.9353360684013E+00 -0.3155771181037E+01  0.0000000000000E+00
 0.9353513442216E+00 -0.3084143259268E+01  0.0000000000000E+00
 0.9353830887569E+00 -0.3012515275898E+01  0.0000000000000E+00
 0.9355373755264E+00 -0.2940887521964E+01  0.0000000000000E+00
 0.9359614934350E+00 -0.2869261334099E+01  0.0000000000000E+00
 0.9367897065442E+00 -0.2797639988499E+01  0.0000000000000E+00
 0.9381208445946E+00 -0.2726029167618E+01  0.0000000000000E+00
 0.9400182941908E+00 -0.2654436016767E+01  0.0000000000000E+00
 0.9425225851194E+00 -0.2582868866825E+01  0.0000000000000E+00
 0.9456659262486E+00 -0.2511336705033E+01  0.0000000000000E+00
 0.9494847547168E+00 -0.2439850246541E+01  0.0000000000000E+00
 0.9540291962613E+00 -0.2368423075029E+01  0.0000000000000E+00
 0.9592964310570E+00 -0.2297065006384E+01  0.0000000000000E+00
 0.9652129753722E+00 -0.2225777798506E+01  0.0000000000000E+00
 0.9717263717630E+00 -0.2154563128652E+01  0.0000000000000E+00
 0.9788061113094E+00 -0.2083423776202E+01  0.0000000000000E+00
 0.9864422379415E+00 -0.2012364643031E+01  0.0000000000000E+00
 0.9946500309898E+00 -0.1941394623598E+01  0.0000000000000E+00
 0.1003490936070E+01 -0.1870530926638E+01  0.0000000000000E+00
 0.9625137375899E+00 -0.4660058284109E+01  0.0000000000000E+00
 0.9625274751513E+00 -0.4588529591607E+01  0.0000000000000E+00
 0.9625412127970E+00 -0.4517000459858E+01  0.0000000000000E+00
 0.9625549504041E+00 -0.4445471528639E+01  0.0000000000000E+00
 0.9625686880086E+00 -0.4373942611646E+01  0.0000000000000E+00
 0.9625824256182E+00 -0.4302413667774E+01  0.0000000000000E+00
 0.9625961632197E+00 -0.4230884766178E+01  0.0000000000000E+00
 0.9626099008262E+00 -0.4159355838359E+01  0.0000000000000E+00
 0.9626236384317E+00 -0.4087826915795E+01  0.0000000000000E+00
 0.9626373760357E+00 -0.4016298001128E+01  0.0000000000000E+00
 0.9626511136426E+00 -0.3944769071490E+01  0.0000000000000E+00
 0.9626648512449E+00 -0.3873240165310E+01  0.0000000000000E+00
 0.9626785888533E+00 -0.3801711227911E+01  0.0000000000000E+00
 0.9626923264728E+00 -0.3730182232157E+01  0.0000000000000E+00
 0.9627060640885E+00 -0.3658653256760E+01  0.0000000000000E+00
 0.9627198016877E+00 -0.3587124366931E+01  0.0000000000000E+00
 0.9627335394082E+00 -0.3515594845610E+01  0.0000000000000E+00
 0.9627472768992E+00 -0.3444066519436E+01  0.0000000000000E+00
 0.9627610145067E+00 -0.3372537586527E+01  0.0000000000000E+00
 0.9627747520991E+00 -0.3301008731995E+01  0.0000000000000E+00
 0.9627884896741E+00 -0.3229479968569E+01  0.0000000000000E+00
 0.9628022272560E+00 -0.3157951169047E+01  0.0000000000000E+00
 0.9628159648440E+00 -0.3086422337537E+01  0.0000000000000E+00
 0.9628466564423E+00 -0.3014893444515E+01  0.0000000000000E+00
 0.9630035013274E+00 -0.2943364780869E+01  0.0000000000000E+00
 0.9634381286881E+00 -0.2871837683121E+01  0.0000000000000E+00
 0.9642887590514E+00 -0.2800315427600E+01  0.0000000000000E+00
 0.9656571344553E+00 -0.2728803696687E+01  0.0000000000000E+00
 0.9676085093668E+00 -0.2657309635808E+01  0.0000000000000E+00
 0.9701846078996E+00 -0.2585841575683E+01  0.0000000000000E+00
 0.9734185880421E+00 -0.2514408503796E+01  0.0000000000000E+00
 0.9773479606558E+00 -0.2443021135268E+01  0.0000000000000E+00
 0.9820243285798E+00 -0.2371693053486E+01  0.0000000000000E+00
 0.9874447888878E+00 -0.2300434074685E+01  0.0000000000000E+00
 0.9935336924435E+00 -0.2229245956763E+01  0.0000000000000E+00
 0.1000237035998E+01 -0.2158130376907E+01  0.0000000000000E+00
 0.1007523411600E+01 -0.2087090114568E+01  0.0000000000000E+00
 0.1015382569795E+01 -0.2016130071610E+01  0.0000000000000E+00
 0.1023830240168E+01 -0.1945259142154E+01  0.0000000000000E+00
 0.1032929679005E+01 -0.1874494534943E+01  0.0000000000000E+00
 0.9900118099595E+00 -0.4660160183706E+01  0.0000000000000E+00
 0.9900236198944E+00 -0.4588733390588E+01  0.0000000000000E+00
 0.9900354299019E+00 -0.4517306158849E+01  0.0000000000000E+00
 0.9900472398762E+00 -0.4445879127356E+01  0.0000000000000E+00
 0.9900590498481E+00 -0.4374452110066E+01  0.0000000000000E+00
 0.9900708598246E+00 -0.4303025065937E+01  0.0000000000000E+00
 0.9900826697940E+00 -0.4231598064023E+01  0.0000000000000E+00
 0.9900944797677E+00 -0.4160171035925E+01  0.0000000000000E+00
 0.9901062897406E+00 -0.4088744013072E+01  0.0000000000000E+00
 0.9901180997122E+00 -0.4017316998107E+01  0.0000000000000E+00
 0.9901299096863E+00 -0.3945889968191E+01  0.0000000000000E+00
 0.9901417196565E+00 -0.3874462961699E+01  0.0000000000000E+00
 0.9901535296318E+00 -0.3803035924034E+01  0.0000000000000E+00
 0.9901653396168E+00 -0.3731608828097E+01  0.0000000000000E+00
 0.9901771495984E+00 -0.3660181752487E+01  0.0000000000000E+00
 0.9901889595659E+00 -0.3588754762324E+01  0.0000000000000E+00
 0.9902007696377E+00 -0.3517327141568E+01  0.0000000000000E+00
 0.9902125795121E+00 -0.3445900714257E+01  0.0000000000000E+00
 0.9902243894867E+00 -0.3374473681074E+01  0.0000000000000E+00
 0.9902361994483E+00 -0.3303046726158E+01  0.0000000000000E+00
 0.9902480093950E+00 -0.3231619862217E+01  0.0000000000000E+00
 0.9902598193475E+00 -0.3160192962233E+01  0.0000000000000E+00
 0.9902716293054E+00 -0.3088766030305E+01  0.0000000000000E+00
 0.9903008785684E+00 -0.3017339036957E+01  0.0000000000000E+00
 0.9904598921716E+00 -0.2945912272923E+01  0.0000000000000E+00
 0.9909046395882E+00 -0.2874487074610E+01  0.0000000000000E+00
 0.9917772978107E+00 -0.2803066718486E+01  0.0000000000000E+00
 0.9931825211753E+00 -0.2731656886858E+01  0.0000000000000E+00
 0.9951874320109E+00 -0.2660264725264E+01  0.0000000000000E+00
 0.9978349487592E+00 -0.2588898564268E+01  0.0000000000000E+00
 0.1001159178528E+01 -0.2517567391599E+01  0.0000000000000E+00
 0.1005198705901E+01 -0.2446281922349E+01  0.0000000000000E+00
 0.1010006610822E+01 -0.2375055739605E+01  0.0000000000000E+00
 0.1015579907262E+01 -0.2303898659960E+01  0.0000000000000E+00
 0.1021840780679E+01 -0.2232812441308E+01  0.0000000000000E+00
 0.1028733682020E+01 -0.2161798760767E+01  0.0000000000000E+00
 0.1036226304300E+01 -0.2090860397857E+01  0.0000000000000E+00
 0.1044308104682E+01 -0.2020002254434E+01  0.0000000000000E+00
 0.1052995263009E+01 -0.1949233224272E+01  0.0000000000000E+00
 0.1062352846232E+01 -0.1878570516118E+01  0.0000000000000E+00
 0.1017509482155E+01 -0.4660264886430E+01  0.0000000000000E+00
 0.1017518964290E+01 -0.4588942795818E+01  0.0000000000000E+00
 0.1017528446483E+01 -0.4517620267227E+01  0.0000000000000E+00
 0.1017537928650E+01 -0.4446297938589E+01  0.0000000000000E+00
 0.1017547410815E+01 -0.4374975624134E+01  0.0000000000000E+00
 0.1017556892983E+01 -0.4303653282878E+01  0.0000000000000E+00
 0.1017566375146E+01 -0.4232330983776E+01  0.0000000000000E+00
 0.1017575857312E+01 -0.4161008658528E+01  0.0000000000000E+00
 0.1017585339477E+01 -0.4089686338518E+01  0.0000000000000E+00
 0.1017594821642E+01 -0.4018364026383E+01  0.0000000000000E+00
 0.1017604303808E+01 -0.3947041699321E+01  0.0000000000000E+00
 0.1017613785972E+01 -0.3875719395647E+01  0.0000000000000E+00
 0.1017623268139E+01 -0.3804397060846E+01  0.0000000000000E+00
 0.1017632750314E+01 -0.3733074667859E+01  0.0000000000000E+00
 0.1017642232487E+01 -0.3661752295169E+01  0.0000000000000E+00
 0.1017651714648E+01 -0.3590430007800E+01  0.0000000000000E+00
 0.1017661196893E+01 -0.3519107090763E+01  0.0000000000000E+00
 0.1017670678979E+01 -0.3447785365421E+01  0.0000000000000E+00
 0.1017680161146E+01 -0.3376463035097E+01  0.0000000000000E+00
 0.1017689643303E+01 -0.3305140782923E+01  0.0000000000000E+00
 0.1017699125447E+01 -0.3233818621592E+01  0.0000000000000E+00
 0.1017708607596E+01 -0.3162496424270E+01  0.0000000000000E+00
 0.1017718089750E+01 -0.3091174195051E+01  0.0000000000000E+00
 0.1017745496503E+01 -0.3019851904506E+01  0.0000000000000E+00
 0.1017906278648E+01 -0.2948529843212E+01  0.0000000000000E+00
 0.1018360745944E+01 -0.2877209347457E+01  0.0000000000000E+00
 0.1019255031844E+01 -0.2805893693852E+01  0.0000000000000E+00
 0.1020696702984E+01 -0.2734588564626E+01  0.0000000000000E+00
 0.1022754749553E+01 -0.2663301105436E+01  0.0000000000000E+00
 0.1025473284322E+01 -0.2592039646683E+01  0.0000000000000E+00
 0.1028887363514E+01 -0.2520813176348E+01  0.0000000000000E+00
 0.1033036645440E+01 -0.2449632409496E+01  0.0000000000000E+00
 0.1037975687144E+01 -0.2378510928901E+01  0.0000000000000E+00
 0.1043701419494E+01 -0.2307458551527E+01  0.0000000000000E+00
 0.1050133862544E+01 -0.2236477035263E+01  0.0000000000000E+00
 0.1057215921438E+01 -0.2165568057156E+01  0.0000000000000E+00
 0.1064914390158E+01 -0.2094734396797E+01  0.0000000000000E+00
 0.1073218432483E+01 -0.2023980956034E+01  0.0000000000000E+00
 0.1082144678514E+01 -0.1953316628284E+01  0.0000000000000E+00
 0.1091760005868E+01 -0.1882758622300E+01  0.0000000000000E+00
 0.1045006744575E+01 -0.4660372386100E+01  0.0000000000000E+00
 0.1045013489135E+01 -0.4589157794934E+01  0.0000000000000E+00
 0.1045020233737E+01 -0.4517942766450E+01  0.0000000000000E+00
 0.1045026978321E+01 -0.4446727937617E+01  0.0000000000000E+00
 0.1045033722903E+01 -0.4375513122945E+01  0.0000000000000E+00
 0.1045040467487E+01 -0.4304298281514E+01  0.0000000000000E+00
 0.1045047212067E+01 -0.4233083482172E+01  0.0000000000000E+00
 0.1045053956650E+01 -0.4161868656724E+01  0.0000000000000E+00
 0.1045060701232E+01 -0.4090653836506E+01  0.0000000000000E+00
 0.1045067445814E+01 -0.4019439024151E+01  0.0000000000000E+00
 0.1045074190397E+01 -0.3948224196891E+01  0.0000000000000E+00
 0.1045080934978E+01 -0.3877009392985E+01  0.0000000000000E+00
 0.1045087679562E+01 -0.3805794557998E+01  0.0000000000000E+00
 0.1045094424151E+01 -0.3734579664913E+01  0.0000000000000E+00
 0.1045101168738E+01 -0.3663364792095E+01  0.0000000000000E+00
 0.1045107913318E+01 -0.3592150004468E+01  0.0000000000000E+00
 0.1045114657956E+01 -0.3520934588123E+01  0.0000000000000E+00
 0.1045121402483E+01 -0.3449720361677E+01  0.0000000000000E+00
 0.1045128147066E+01 -0.3378505531160E+01  0.0000000000000E+00
 0.1045134891642E+01 -0.3307290778676E+01  0.0000000000000E+00
 0.1045141636209E+01 -0.3236076116898E+01  0.0000000000000E+00
 0.1045148380780E+01 -0.3164861419183E+01  0.0000000000000E+00
 0.1045155125354E+01 -0.3093646689619E+01  0.0000000000000E+00
 0.1045180279821E+01 -0.3022431898826E+01  0.0000000000000E+00
 0.1045342420734E+01 -0.2951217337218E+01  0.0000000000000E+00
 0.1045806198134E+01 -0.2880004340962E+01  0.0000000000000E+00
 0.1046721701941E+01 -0.2808796186818E+01  0.0000000000000E+00
 0.1048199411086E+01 -0.2737598556931E+01  0.0000000000000E+00
 0.1050310183620E+01 -0.2666418597083E+01  0.0000000000000E+00
 0.1053099326642E+01 -0.2595264637507E+01  0.0000000000000E+00
 0.1056602845493E+01 -0.2524145666443E+01  0.0000000000000E+00
 0.1060861472207E+01 -0.2453072398925E+01  0.0000000000000E+00
 0.1065931240934E+01 -0.2382058417411E+01  0.0000000000000E+00
 0.1071808999436E+01 -0.2311113539242E+01  0.0000000000000E+00
 0.1078412602362E+01 -0.2240239522303E+01  0.0000000000000E+00
 0.1085683409054E+01 -0.2169438043568E+01  0.0000000000000E+00
 0.1093587314458E+01 -0.2098711882704E+01  0.0000000000000E+00
 0.1102113188972E+01 -0.2028065941545E+01  0.0000000000000E+00
 0.1111278112956E+01 -0.1957509113146E+01  0.0000000000000E+00
 0.1121150774694E+01 -0.1887058606262E+01  0.0000000000000E+00
 0.1072503587178E+01 -0.4660482676316E+01  0.0000000000000E+00
 0.1072507174348E+01 -0.4589378375137E+01  0.0000000000000E+00
 0.1072510761541E+01 -0.4518273637316E+01  0.0000000000000E+00
 0.1072514348723E+01 -0.4447169098837E+01  0.0000000000000E+00
 0.1072517935905E+01 -0.4376064574498E+01  0.0000000000000E+00
 0.1072521523088E+01 -0.4304960023440E+01  0.0000000000000E+00
 0.1072525110269E+01 -0.4233855514407E+01  0.0000000000000E+00
 0.1072528697451E+01 -0.4162750979308E+01  0.0000000000000E+00
 0.1072532284633E+01 -0.4091646449431E+01  0.0000000000000E+00
 0.1072535871815E+01 -0.4020541927405E+01  0.0000000000000E+00
 0.1072539458997E+01 -0.3949437390497E+01  0.0000000000000E+00
 0.1072543046178E+01 -0.3878332876907E+01  0.0000000000000E+00
 0.1072546633361E+01 -0.3807228332284E+01  0.0000000000000E+00
 0.1072550220546E+01 -0.3736123729652E+01  0.0000000000000E+00
 0.1072553807731E+01 -0.3665019147257E+01  0.0000000000000E+00
 0.1072557394911E+01 -0.3593914649921E+01  0.0000000000000E+00
 0.1072560982123E+01 -0.3522809524840E+01  0.0000000000000E+00
 0.1072564569275E+01 -0.3451705587815E+01  0.0000000000000E+00
 0.1072568156458E+01 -0.3380601047655E+01  0.0000000000000E+00
 0.1072571743636E+01 -0.3309496585407E+01  0.0000000000000E+00
 0.1072575330810E+01 -0.3238392213725E+01  0.0000000000000E+00
 0.1072578917986E+01 -0.3167287806161E+01  0.0000000000000E+00
 0.1072582505164E+01 -0.3096183366798E+01  0.0000000000000E+00
 0.1072604987528E+01 -0.3025078866304E+01  0.0000000000000E+00
 0.1072768067392E+01 -0.2953974594929E+01  0.0000000000000E+00
 0.1073240735083E+01 -0.2882871888714E+01  0.0000000000000E+00
 0.1074177036982E+01 -0.2811774024571E+01  0.0000000000000E+00
 0.1075690364322E+01 -0.2740686684561E+01  0.0000000000000E+00
 0.1077853443011E+01 -0.2669617014592E+01  0.0000000000000E+00
 0.1080712774480E+01 -0.2598573344725E+01  0.0000000000000E+00
 0.1084305313187E+01 -0.2527564663467E+01  0.0000000000000E+00
 0.1088672864887E+01 -0.2456601685821E+01  0.0000000000000E+00
 0.1093872940837E+01 -0.2385697993918E+01  0.0000000000000E+00
 0.1099902305694E+01 -0.2314863405488E+01  0.0000000000000E+00
 0.1106676648702E+01 -0.2244099678411E+01  0.0000000000000E+00
 0.1114135783397E+01 -0.2173408489587E+01  0.0000000000000E+00
 0.1122244705695E+01 -0.2102792618758E+01  0.0000000000000E+00
 0.1130991992608E+01 -0.2032256967748E+01  0.0000000000000E+00
 0.1140395174757E+01 -0.1961810429236E+01  0.0000000000000E+00
 0.1150524751096E+01 -0.1891470211985E+01  0.0000000000000E+00
-0.5660382933727E+00 -0.1689691761343E+01  0.0000000000000E+00
-0.5663123720575E+00 -0.1626506538788E+01  0.0000000000000E+00
-0.5667790339879E+00 -0.1563322491581E+01  0.0000000000000E+00
-0.5674663936241E+00 -0.1500140613648E+01  0.0000000000000E+00
-0.5684046240156E+00 -0.1436962158218E+01  0.0000000000000E+00
-0.5696222518212E+00 -0.1373788927613E+01  0.0000000000000E+00
-0.5711380830886E+00 -0.1310622648082E+01  0.0000000000000E+00
-0.5729469100487E+00 -0.1247464856343E+01  0.0000000000000E+00
-0.5750009089678E+00 -0.1184315217396E+01  0.0000000000000E+00
-0.5771979571333E+00 -0.1121170853713E+01  0.0000000000000E+00
-0.5793950052231E+00 -0.1058026490028E+01  0.0000000000000E+00
-0.5814490039253E+00 -0.9948768510738E+00  0.0000000000000E+00
-0.5832578305519E+00 -0.9317190593259E+00  0.0000000000000E+00
-0.5847736613987E+00 -0.8685527797851E+00  0.0000000000000E+00
-0.5859912887235E+00 -0.8053795491707E+00  0.0000000000000E+00
-0.5869295185944E+00 -0.7422010937332E+00  0.0000000000000E+00
-0.5876168776851E+00 -0.6790192157949E+00  0.0000000000000E+00
-0.5880835390555E+00 -0.6158351685841E+00  0.0000000000000E+00
-0.5883576171726E+00 -0.5526499460259E+00  0.0000000000000E+00
-0.5363253834601E+00 -0.1687245125446E+01  0.0000000000000E+00
-0.5366119768712E+00 -0.1623791708043E+01  0.0000000000000E+00
-0.5370810175640E+00 -0.1560339466072E+01  0.0000000000000E+00
-0.5377591402814E+00 -0.1496889393551E+01  0.0000000000000E+00
-0.5386749300523E+00 -0.1433442743371E+01  0.0000000000000E+00
-0.5398554120886E+00 -0.1370001318292E+01  0.0000000000000E+00
-0.5413184027050E+00 -0.1306566843974E+01  0.0000000000000E+00
-0.5430589681685E+00 -0.1243140857698E+01  0.0000000000000E+00
-0.5450318018343E+00 -0.1179723023941E+01  0.0000000000000E+00
-0.5471401558424E+00 -0.1116310465411E+01  0.0000000000000E+00
-0.5492485097748E+00 -0.1052897906879E+01  0.0000000000000E+00
-0.5512213432236E+00 -0.9894800731148E+00  0.0000000000000E+00
-0.5529619083535E+00 -0.9260540868295E+00  0.0000000000000E+00
-0.5544248985495E+00 -0.8626196125025E+00  0.0000000000000E+00
-0.5556053801049E+00 -0.7991781874149E+00  0.0000000000000E+00
-0.5565211693552E+00 -0.7357315372274E+00  0.0000000000000E+00
-0.5571992915272E+00 -0.6722814647015E+00  0.0000000000000E+00
-0.5576683316600E+00 -0.6088292227269E+00  0.0000000000000E+00
-0.5579549245034E+00 -0.5453758053214E+00  0.0000000000000E+00
-0.5065999670663E+00 -0.1684928561672E+01  0.0000000000000E+00
-0.5068949115904E+00 -0.1621220039384E+01  0.0000000000000E+00
-0.5073621674199E+00 -0.1557512692609E+01  0.0000000000000E+00
-0.5080268895799E+00 -0.1493807515451E+01  0.0000000000000E+00
-0.5089160750712E+00 -0.1430105760479E+01  0.0000000000000E+00
-0.5100552476636E+00 -0.1366409230871E+01  0.0000000000000E+00
-0.5114612339286E+00 -0.1302719651727E+01  0.0000000000000E+00
-0.5131293741780E+00 -0.1239038560861E+01  0.0000000000000E+00
-0.5150168788513E+00 -0.1175365622255E+01  0.0000000000000E+00
-0.5170323749522E+00 -0.1111697958841E+01  0.0000000000000E+00
-0.5190478709775E+00 -0.1048030295425E+01  0.0000000000000E+00
-0.5209353754338E+00 -0.9843573568131E+00  0.0000000000000E+00
-0.5226035153497E+00 -0.9206762659386E+00  0.0000000000000E+00
-0.5240095011942E+00 -0.8569866867857E+00  0.0000000000000E+00
-0.5251486733057E+00 -0.7932901571698E+00  0.0000000000000E+00
-0.5260378582764E+00 -0.7295884021909E+00  0.0000000000000E+00
-0.5267025798910E+00 -0.6658832250280E+00  0.0000000000000E+00
-0.5271698351604E+00 -0.6021758782489E+00  0.0000000000000E+00
-0.5274647791169E+00 -0.5384673559593E+00  0.0000000000000E+00
-0.4768626705487E+00 -0.1682742416099E+01  0.0000000000000E+00
-0.4771619844321E+00 -0.1618792097827E+01  0.0000000000000E+00
-0.4776234736490E+00 -0.1554842955143E+01  0.0000000000000E+00
-0.4782708135087E+00 -0.1490895982235E+01  0.0000000000000E+00
-0.4791294129793E+00 -0.1426952431367E+01  0.0000000000000E+00
-0.4802232943955E+00 -0.1363014106112E+01  0.0000000000000E+00
-0.4815682945772E+00 -0.1299082731039E+01  0.0000000000000E+00
-0.4831600278892E+00 -0.1235159844468E+01  0.0000000000000E+00
-0.4849582218467E+00 -0.1171245109912E+01  0.0000000000000E+00
-0.4868768783191E+00 -0.1107335650514E+01  0.0000000000000E+00
-0.4887955347158E+00 -0.1043426191114E+01  0.0000000000000E+00
-0.4905937284563E+00 -0.9795114565527E+00  0.0000000000000E+00
-0.4921854614348E+00 -0.9155885699739E+00  0.0000000000000E+00
-0.4935304611959E+00 -0.8516571948924E+00  0.0000000000000E+00
-0.4946243421312E+00 -0.7877188696299E+00  0.0000000000000E+00
-0.4954829410813E+00 -0.7237753187550E+00  0.0000000000000E+00
-0.4961302803955E+00 -0.6598283458425E+00  0.0000000000000E+00
-0.4965917690524E+00 -0.5958792031548E+00  0.0000000000000E+00
-0.4968910823681E+00 -0.5319288848814E+00  0.0000000000000E+00
-0.4471141738714E+00 -0.1680687021658E+01  0.0000000000000E+00
-0.4474140589931E+00 -0.1616508426019E+01  0.0000000000000E+00
-0.4478659834921E+00 -0.1552331006037E+01  0.0000000000000E+00
-0.4484921429651E+00 -0.1488155755982E+01  0.0000000000000E+00
-0.4493163583450E+00 -0.1423983927828E+01  0.0000000000000E+00
-0.4503611505400E+00 -0.1359817325524E+01  0.0000000000000E+00
-0.4516413666112E+00 -0.1295657673134E+01  0.0000000000000E+00
-0.4531528949840E+00 -0.1231506509458E+01  0.0000000000000E+00
-0.4548579802386E+00 -0.1167363497567E+01  0.0000000000000E+00
-0.4566759991053E+00 -0.1103225760801E+01  0.0000000000000E+00
-0.4584940178964E+00 -0.1039088024033E+01  0.0000000000000E+00
-0.4601991029340E+00 -0.9749450121357E+00  0.0000000000000E+00
-0.4617106309733E+00 -0.9107938484529E+00  0.0000000000000E+00
-0.4629908466239E+00 -0.8466341960555E+00  0.0000000000000E+00
-0.4640356383381E+00 -0.7824675937435E+00  0.0000000000000E+00
-0.4648598531975E+00 -0.7182957655835E+00  0.0000000000000E+00
-0.4654860121251E+00 -0.6541205155242E+00  0.0000000000000E+00
-0.4659379360640E+00 -0.5899430955397E+00  0.0000000000000E+00
-0.4662378206180E+00 -0.5257644998984E+00  0.0000000000000E+00
-0.4173550630559E+00 -0.1678762688173E+01  0.0000000000000E+00
-0.4176519113029E+00 -0.1614369533789E+01  0.0000000000000E+00
-0.4180906629569E+00 -0.1549977555129E+01  0.0000000000000E+00
-0.4186920339012E+00 -0.1485587746537E+01  0.0000000000000E+00
-0.4194782570266E+00 -0.1421201359716E+01  0.0000000000000E+00
-0.4204703518181E+00 -0.1356820198965E+01  0.0000000000000E+00
-0.4216821755688E+00 -0.1292445987879E+01  0.0000000000000E+00
-0.4231098907729E+00 -0.1228080265706E+01  0.0000000000000E+00
-0.4247182590719E+00 -0.1163722695099E+01  0.0000000000000E+00
-0.4264320320686E+00 -0.1099370399588E+01  0.0000000000000E+00
-0.4281458049896E+00 -0.1035018104075E+01  0.0000000000000E+00
-0.4297541730716E+00 -0.9706605334635E+00  0.0000000000000E+00
-0.4311818879422E+00 -0.9062948112837E+00  0.0000000000000E+00
-0.4323937112723E+00 -0.8419206001903E+00  0.0000000000000E+00
-0.4333858055829E+00 -0.7775394394327E+00  0.0000000000000E+00
-0.4341720281878E+00 -0.7131530526057E+00  0.0000000000000E+00
-0.4347733985867E+00 -0.6487632440093E+00  0.0000000000000E+00
-0.4352121496806E+00 -0.5843712653468E+00  0.0000000000000E+00
-0.4355089973599E+00 -0.5199781109607E+00  0.0000000000000E+00
-0.3875860504174E+00 -0.1676969717501E+01  0.0000000000000E+00
-0.3878764553724E+00 -0.1612375915377E+01  0.0000000000000E+00
-0.3882986277719E+00 -0.1547783289039E+01  0.0000000000000E+00
-0.3888718037880E+00 -0.1483192832901E+01  0.0000000000000E+00
-0.3896166282662E+00 -0.1418605798412E+01  0.0000000000000E+00
-0.3905526192750E+00 -0.1354023990201E+01  0.0000000000000E+00
-0.3916926443324E+00 -0.1289449131420E+01  0.0000000000000E+00
-0.3930331400086E+00 -0.1224882761738E+01  0.0000000000000E+00
-0.3945413849981E+00 -0.1160324543420E+01  0.0000000000000E+00
-0.3961475057755E+00 -0.1095771600169E+01  0.0000000000000E+00
-0.3977536264772E+00 -0.1031218656915E+01  0.0000000000000E+00
-0.3992618712497E+00 -0.9666604385923E+00  0.0000000000000E+00
-0.4006023665923E+00 -0.9020940689044E+00  0.0000000000000E+00
-0.4017423912293E+00 -0.8375192101168E+00  0.0000000000000E+00
-0.4026783817572E+00 -0.7729374018990E+00  0.0000000000000E+00
-0.4034232057148E+00 -0.7083503674049E+00  0.0000000000000E+00
-0.4039963811855E+00 -0.6437599112629E+00  0.0000000000000E+00
-0.4044185530250E+00 -0.5791672849229E+00  0.0000000000000E+00
-0.4047089574122E+00 -0.5145734827968E+00  0.0000000000000E+00
-0.3578077848507E+00 -0.1675308389248E+01  0.0000000000000E+00
-0.3580885470070E+00 -0.1610528031852E+01  0.0000000000000E+00
-0.3584909406433E+00 -0.1545748850301E+01  0.0000000000000E+00
-0.3590327222207E+00 -0.1480971839072E+01  0.0000000000000E+00
-0.3597329485350E+00 -0.1416198249379E+01  0.0000000000000E+00
-0.3606096362428E+00 -0.1351429886156E+01  0.0000000000000E+00
-0.3616746630801E+00 -0.1286668472146E+01  0.0000000000000E+00
-0.3629247396993E+00 -0.1221915547408E+01  0.0000000000000E+00
-0.3643296618428E+00 -0.1157170773845E+01  0.0000000000000E+00
-0.3658249308613E+00 -0.1092431275322E+01  0.0000000000000E+00
-0.3673201998042E+00 -0.1027691776797E+01  0.0000000000000E+00
-0.3687251217307E+00 -0.9629470032288E+00  0.0000000000000E+00
-0.3699751980164E+00 -0.8981940784852E+00  0.0000000000000E+00
-0.3710402244331E+00 -0.8334326644688E+00  0.0000000000000E+00
-0.3719169116601E+00 -0.7686643012399E+00  0.0000000000000E+00
-0.3726171374538E+00 -0.7038907115421E+00  0.0000000000000E+00
-0.3731589184858E+00 -0.6391137003095E+00  0.0000000000000E+00
-0.3735613115620E+00 -0.5743345187563E+00  0.0000000000000E+00
-0.3738420731506E+00 -0.5095541613588E+00  0.0000000000000E+00
-0.3280209322967E+00 -0.1673778966441E+01  0.0000000000000E+00
-0.3282890703009E+00 -0.1608826317856E+01  0.0000000000000E+00
-0.3286687038227E+00 -0.1543874845170E+01  0.0000000000000E+00
-0.3291761096142E+00 -0.1478925542919E+01  0.0000000000000E+00
-0.3298287564176E+00 -0.1413979662100E+01  0.0000000000000E+00
-0.3306431594830E+00 -0.1349039007928E+01  0.0000000000000E+00
-0.3316302067577E+00 -0.1284105302768E+01  0.0000000000000E+00
-0.3327868829826E+00 -0.1219180087040E+01  0.0000000000000E+00
-0.3340855009420E+00 -0.1154263022312E+01  0.0000000000000E+00
-0.3354669368643E+00 -0.1089351232600E+01  0.0000000000000E+00
-0.3368483727111E+00 -0.1024439442887E+01  0.0000000000000E+00
-0.3381469904534E+00 -0.9595223781546E+00  0.0000000000000E+00
-0.3393036663448E+00 -0.8945971624215E+00  0.0000000000000E+00
-0.3402907131989E+00 -0.8296634572558E+00  0.0000000000000E+00
-0.3411051157835E+00 -0.7647228030786E+00  0.0000000000000E+00
-0.3417577620663E+00 -0.6997769222548E+00  0.0000000000000E+00
-0.3422651673124E+00 -0.6348276200005E+00  0.0000000000000E+00
-0.3426448002742E+00 -0.5698761473125E+00  0.0000000000000E+00
-0.3429129377106E+00 -0.5049234987264E+00  0.0000000000000E+00
-0.2982262059385E+00 -0.1672381694973E+01  0.0000000000000E+00
-0.2984789576442E+00 -0.1607271179011E+01  0.0000000000000E+00
-0.2988330689080E+00 -0.1542161838997E+01  0.0000000000000E+00
-0.2993033367739E+00 -0.1477054669522E+01  0.0000000000000E+00
-0.2999056419273E+00 -0.1411950921383E+01  0.0000000000000E+00
-0.3006549982166E+00 -0.1346852400053E+01  0.0000000000000E+00
-0.3015613037944E+00 -0.1281760827552E+01  0.0000000000000E+00
-0.3026218174963E+00 -0.1216677744629E+01  0.0000000000000E+00
-0.3038113691420E+00 -0.1151602812546E+01  0.0000000000000E+00
-0.3050762098397E+00 -0.1086533155457E+01  0.0000000000000E+00
-0.3063410504618E+00 -0.1021463498367E+01  0.0000000000000E+00
-0.3075306018905E+00 -0.9563885662797E+00  0.0000000000000E+00
-0.3085911152588E+00 -0.8913054833521E+00  0.0000000000000E+00
-0.3094974204161E+00 -0.8262139108455E+00  0.0000000000000E+00
-0.3102467762245E+00 -0.7611153895116E+00  0.0000000000000E+00
-0.3108490808573E+00 -0.6960116413682E+00  0.0000000000000E+00
-0.3113193481778E+00 -0.6309044718900E+00  0.0000000000000E+00
-0.3116734588816E+00 -0.5657951318742E+00  0.0000000000000E+00
-0.3119262100196E+00 -0.5006846159113E+00  0.0000000000000E+00
-0.2684242591111E+00 -0.1671116799086E+01  0.0000000000000E+00
-0.2686590939796E+00 -0.1605862988030E+01  0.0000000000000E+00
-0.2689851524448E+00 -0.1540610352966E+01  0.0000000000000E+00
-0.2694157518426E+00 -0.1475359888535E+01  0.0000000000000E+00
-0.2699651847983E+00 -0.1410112845353E+01  0.0000000000000E+00
-0.2706469637623E+00 -0.1344871029129E+01  0.0000000000000E+00
-0.2714699970866E+00 -0.1279636161565E+01  0.0000000000000E+00
-0.2724318177065E+00 -0.1214409783713E+01  0.0000000000000E+00
-0.2735097724737E+00 -0.1149191556555E+01  0.0000000000000E+00
-0.2746554873792E+00 -0.1083978604371E+01  0.0000000000000E+00
-0.2758012022091E+00 -0.1018765652186E+01  0.0000000000000E+00
-0.2768791567593E+00 -0.9535474250252E+00  0.0000000000000E+00
-0.2778409770457E+00 -0.8883210471688E+00  0.0000000000000E+00
-0.2786640099495E+00 -0.8230861796004E+00  0.0000000000000E+00
-0.2793457884325E+00 -0.7578443633719E+00  0.0000000000000E+00
-0.2798952208677E+00 -0.6925973201861E+00  0.0000000000000E+00
-0.2803258197201E+00 -0.6273468557523E+00  0.0000000000000E+00
-0.2806518776252E+00 -0.5620942206867E+00  0.0000000000000E+00
-0.2808867119260E+00 -0.4968404096294E+00  0.0000000000000E+00
-0.2386158232353E+00 -0.1669984486219E+01  0.0000000000000E+00
-0.2388304441249E+00 -0.1604602088268E+01  0.0000000000000E+00
-0.2391261526536E+00 -0.1539220866350E+01  0.0000000000000E+00
-0.2395147864510E+00 -0.1473841815148E+01  0.0000000000000E+00
-0.2400090500797E+00 -0.1408466185117E+01  0.0000000000000E+00
-0.2406209545962E+00 -0.1343095782177E+01  0.0000000000000E+00
-0.2413584185475E+00 -0.1277732327748E+01  0.0000000000000E+00
-0.2422192489735E+00 -0.1212377363149E+01  0.0000000000000E+00
-0.2431833097518E+00 -0.1147030549114E+01  0.0000000000000E+00
-0.2442076017572E+00 -0.1081689010035E+01  0.0000000000000E+00
-0.2452318936869E+00 -0.1016347470955E+01  0.0000000000000E+00
-0.2461959542483E+00 -0.9510006569173E+00  0.0000000000000E+00
-0.2470567843406E+00 -0.8856456923147E+00  0.0000000000000E+00
-0.2477942478714E+00 -0.8202822378808E+00  0.0000000000000E+00
-0.2484061519071E+00 -0.7549118349370E+00  0.0000000000000E+00
-0.2489004150152E+00 -0.6895362049032E+00  0.0000000000000E+00
-0.2492890482672E+00 -0.6241571536992E+00  0.0000000000000E+00
-0.2495847562358E+00 -0.5587759317790E+00  0.0000000000000E+00
-0.2497993765577E+00 -0.4933935338269E+00  0.0000000000000E+00
-0.2088015918171E+00 -0.1668984941864E+01  0.0000000000000E+00
-0.2089939423704E+00 -0.1603488788333E+01  0.0000000000000E+00
-0.2092572446060E+00 -0.1537993810870E+01  0.0000000000000E+00
-0.2096018564480E+00 -0.1472501004198E+01  0.0000000000000E+00
-0.2100388943936E+00 -0.1407011618628E+01  0.0000000000000E+00
-0.2105788681090E+00 -0.1341527460266E+01  0.0000000000000E+00
-0.2112287063315E+00 -0.1276050250282E+01  0.0000000000000E+00
-0.2119864902098E+00 -0.1210581530234E+01  0.0000000000000E+00
-0.2128346006438E+00 -0.1145120960635E+01  0.0000000000000E+00
-0.2137354133933E+00 -0.1079665665975E+01  0.0000000000000E+00
-0.2146362260672E+00 -0.1014210371315E+01  0.0000000000000E+00
-0.2154843362842E+00 -0.9487498017129E+00  0.0000000000000E+00
-0.2162421198289E+00 -0.8832810816616E+00  0.0000000000000E+00
-0.2168919576308E+00 -0.8178038716736E+00  0.0000000000000E+00
-0.2174319308654E+00 -0.7523197133084E+00  0.0000000000000E+00
-0.2178689682905E+00 -0.6868303277357E+00  0.0000000000000E+00
-0.2182135795869E+00 -0.6213375210618E+00  0.0000000000000E+00
-0.2184768812625E+00 -0.5558425435970E+00  0.0000000000000E+00
-0.2186692312481E+00 -0.4903463900649E+00  0.0000000000000E+00
-0.1789822699684E+00 -0.1668118331209E+01  0.0000000000000E+00
-0.1791505394161E+00 -0.1602523363227E+01  0.0000000000000E+00
-0.1793796245881E+00 -0.1536929571344E+01  0.0000000000000E+00
-0.1796784037030E+00 -0.1471337950318E+01  0.0000000000000E+00
-0.1800564051905E+00 -0.1405749750333E+01  0.0000000000000E+00
-0.1805226373288E+00 -0.1340166777658E+01  0.0000000000000E+00
-0.1810830390415E+00 -0.1274590753246E+01  0.0000000000000E+00
-0.1817359655899E+00 -0.1209023218861E+01  0.0000000000000E+00
-0.1824663148931E+00 -0.1143463834825E+01  0.0000000000000E+00
-0.1832418375987E+00 -0.1077909725716E+01  0.0000000000000E+00
-0.1840173602287E+00 -0.1012355616605E+01  0.0000000000000E+00
-0.1847477093150E+00 -0.9467962325665E+00  0.0000000000000E+00
-0.1854006355298E+00 -0.8812286981792E+00  0.0000000000000E+00
-0.1859610368220E+00 -0.8156526737635E+00  0.0000000000000E+00
-0.1864272684794E+00 -0.7500697010859E+00  0.0000000000000E+00
-0.1868052694463E+00 -0.6844815010990E+00  0.0000000000000E+00
-0.1871040480158E+00 -0.6188898800707E+00  0.0000000000000E+00
-0.1873331326277E+00 -0.5532960881865E+00  0.0000000000000E+00
-0.1875014015077E+00 -0.4877011202043E+00  0.0000000000000E+00
-0.1491585906986E+00 -0.1667384798938E+01  0.0000000000000E+00
-0.1493012179629E+00 -0.1601706053757E+01  0.0000000000000E+00
-0.1494945249966E+00 -0.1536028484701E+01  0.0000000000000E+00
-0.1497459103137E+00 -0.1470353086556E+01  0.0000000000000E+00
-0.1500633142746E+00 -0.1404681109403E+01  0.0000000000000E+00
-0.1504542437727E+00 -0.1339014359645E+01  0.0000000000000E+00
-0.1509236479144E+00 -0.1273354558052E+01  0.0000000000000E+00
-0.1514701560771E+00 -0.1207703246565E+01  0.0000000000000E+00
-0.1520811831954E+00 -0.1142060085341E+01  0.0000000000000E+00
-0.1527298548045E+00 -0.1076422199032E+01  0.0000000000000E+00
-0.1533785263379E+00 -0.1010784312722E+01  0.0000000000000E+00
-0.1539895532392E+00 -0.9451411514961E+00  0.0000000000000E+00
-0.1545360610683E+00 -0.8794898400065E+00  0.0000000000000E+00
-0.1550054647896E+00 -0.8138300384108E+00  0.0000000000000E+00
-0.1553963938067E+00 -0.7481632886510E+00  0.0000000000000E+00
-0.1557137972470E+00 -0.6824913114955E+00  0.0000000000000E+00
-0.1559651820187E+00 -0.6168159133492E+00  0.0000000000000E+00
-0.1561584884923E+00 -0.5511383442921E+00  0.0000000000000E+00
-0.1563011151890E+00 -0.4854595991108E+00  0.0000000000000E+00
-0.1193312533689E+00 -0.1666784467333E+01  0.0000000000000E+00
-0.1194469324420E+00 -0.1601037064197E+01  0.0000000000000E+00
-0.1196031553282E+00 -0.1535290837207E+01  0.0000000000000E+00
-0.1198058408375E+00 -0.1469546781173E+01  0.0000000000000E+00
-0.1200613412589E+00 -0.1403806146089E+01  0.0000000000000E+00
-0.1203756621029E+00 -0.1338070738472E+01  0.0000000000000E+00
-0.1207527626561E+00 -0.1272342278939E+01  0.0000000000000E+00
-0.1211915464142E+00 -0.1206622309575E+01  0.0000000000000E+00
-0.1216819453254E+00 -0.1140910490406E+01  0.0000000000000E+00
-0.1222024598146E+00 -0.1075203946141E+01  0.0000000000000E+00
-0.1227229742282E+00 -0.1009497401875E+01  0.0000000000000E+00
-0.1232133729224E+00 -0.9437855827039E+00  0.0000000000000E+00
-0.1236521563469E+00 -0.8780656133384E+00  0.0000000000000E+00
-0.1240292564796E+00 -0.8123371538032E+00  0.0000000000000E+00
-0.1243435768427E+00 -0.7466017461841E+00  0.0000000000000E+00
-0.1245990767436E+00 -0.6808611110984E+00  0.0000000000000E+00
-0.1248017617074E+00 -0.6151170550636E+00  0.0000000000000E+00
-0.1249579840336E+00 -0.5493708280728E+00  0.0000000000000E+00
-0.1250736625389E+00 -0.4836234249364E+00  0.0000000000000E+00
-0.8950100053862E-01 -0.1666317437650E+01  0.0000000000000E+00
-0.8958868171560E-01 -0.1600516563313E+01  0.0000000000000E+00
-0.8970677075129E-01 -0.1534716865139E+01  0.0000000000000E+00
-0.8985970675196E-01 -0.1468919337956E+01  0.0000000000000E+00
-0.9005225393426E-01 -0.1403125231690E+01  0.0000000000000E+00
-0.9028891642774E-01 -0.1337336352946E+01  0.0000000000000E+00
-0.9057266369673E-01 -0.1271554422224E+01  0.0000000000000E+00
-0.9090267335780E-01 -0.1205780981720E+01  0.0000000000000E+00
-0.9127139437015E-01 -0.1140015691357E+01  0.0000000000000E+00
-0.9166270204846E-01 -0.1074255675890E+01  0.0000000000000E+00
-0.9205400965113E-01 -0.1008495660424E+01  0.0000000000000E+00
-0.9242273044648E-01 -0.9427303700588E+00  0.0000000000000E+00
-0.9275273977399E-01 -0.8769569295541E+00  0.0000000000000E+00
-0.9303648662245E-01 -0.8111749988302E+00  0.0000000000000E+00
-0.9327314863504E-01 -0.7453861200848E+00  0.0000000000000E+00
-0.9346569529677E-01 -0.6795920138176E+00  0.0000000000000E+00
-0.9361863075200E-01 -0.6137944866337E+00  0.0000000000000E+00
-0.9373671922766E-01 -0.5479947884587E+00  0.0000000000000E+00
-0.9382439983693E-01 -0.4821939141214E+00  0.0000000000000E+00
-0.5966855245610E-01 -0.1665983788540E+01  0.0000000000000E+00
-0.5972744638703E-01 -0.1600144682577E+01  0.0000000000000E+00
-0.5980661222241E-01 -0.1534306752788E+01  0.0000000000000E+00
-0.5990900936510E-01 -0.1468470994015E+01  0.0000000000000E+00
-0.6003781395841E-01 -0.1402638656136E+01  0.0000000000000E+00
-0.6019602875215E-01 -0.1336811545818E+01  0.0000000000000E+00
-0.6038563338675E-01 -0.1270991383477E+01  0.0000000000000E+00
-0.6060607960119E-01 -0.1205179711391E+01  0.0000000000000E+00
-0.6085233336420E-01 -0.1139376189405E+01  0.0000000000000E+00
-0.6111364488103E-01 -0.1073577942312E+01  0.0000000000000E+00
-0.6137495632221E-01 -0.1007779695218E+01  0.0000000000000E+00
-0.6162120986821E-01 -0.9419761732318E+00  0.0000000000000E+00
-0.6184165574910E-01 -0.8761645011445E+00  0.0000000000000E+00
-0.6203125996316E-01 -0.8103443388026E+00  0.0000000000000E+00
-0.6218947427602E-01 -0.7445172284838E+00  0.0000000000000E+00
-0.6231827834875E-01 -0.6786848906039E+00  0.0000000000000E+00
-0.6242067494601E-01 -0.6128491318304E+00  0.0000000000000E+00
-0.6249984022135E-01 -0.5470112020407E+00  0.0000000000000E+00
-0.6255873358457E-01 -0.4811720960768E+00  0.0000000000000E+00
-0.2983463937156E-01 -0.1665783576456E+01  0.0000000000000E+00
-0.2986421868488E-01 -0.1599921516320E+01  0.0000000000000E+00
-0.2990393394841E-01 -0.1534060632365E+01  0.0000000000000E+00
-0.2995526486180E-01 -0.1468201919441E+01  0.0000000000000E+00
-0.3001979949427E-01 -0.1402346627397E+01  0.0000000000000E+00
-0.3009903921680E-01 -0.1336496562938E+01  0.0000000000000E+00
-0.3019397384468E-01 -0.1270653446429E+01  0.0000000000000E+00
-0.3030432924049E-01 -0.1204818820196E+01  0.0000000000000E+00
-0.3042758838143E-01 -0.1138992344041E+01  0.0000000000000E+00
-0.3055837636388E-01 -0.1073171142774E+01  0.0000000000000E+00
-0.3068916427068E-01 -0.1007349941507E+01  0.0000000000000E+00
-0.3081242319462E-01 -0.9415234653514E+00  0.0000000000000E+00
-0.3092277825687E-01 -0.8756888391178E+00  0.0000000000000E+00
-0.3101771246422E-01 -0.8098457226084E+00  0.0000000000000E+00
-0.3109695170586E-01 -0.7439956581489E+00  0.0000000000000E+00
-0.3116148581776E-01 -0.6781403661046E+00  0.0000000000000E+00
-0.3121281618571E-01 -0.6122816531806E+00  0.0000000000000E+00
-0.3125253088920E-01 -0.5464207692254E+00  0.0000000000000E+00
-0.3128210963481E-01 -0.4805587090888E+00  0.0000000000000E+00
 0.5155270087001E-08 -0.1665716835338E+01  0.0000000000000E+00
 0.4584959248036E-08 -0.1599847121274E+01  0.0000000000000E+00
 0.4018463788390E-08 -0.1533978583394E+01  0.0000000000000E+00
 0.3459266960008E-08 -0.1468112216549E+01  0.0000000000000E+00
 0.2912509139835E-08 -0.1402249270580E+01  0.0000000000000E+00
 0.2385637097306E-08 -0.1336391552204E+01  0.0000000000000E+00
 0.1889015036877E-08 -0.1270540781768E+01  0.0000000000000E+00
 0.1435985996629E-08 -0.1204698501615E+01  0.0000000000000E+00
 0.1041351357948E-08 -0.1138864371533E+01  0.0000000000000E+00
 0.7174784364422E-09 -0.1073035516338E+01  0.0000000000000E+00
 0.4692480349616E-09 -0.1007206661143E+01  0.0000000000000E+00
 0.2916179217409E-09 -0.9413725310599E+00  0.0000000000000E+00
 0.1721480478919E-09 -0.8755302509073E+00  0.0000000000000E+00
 0.9605795782101E-10 -0.8096794804718E+00  0.0000000000000E+00
 0.5007320361460E-10 -0.7438217620953E+00  0.0000000000000E+00
 0.2389664209818E-10 -0.6779588161260E+00  0.0000000000000E+00
 0.1013582257418E-10 -0.6120924492818E+00  0.0000000000000E+00
 0.3684745325373E-11 -0.5462239114012E+00  0.0000000000000E+00
 0.1082611060245E-11 -0.4803541973369E+00  0.0000000000000E+00
 0.2983464968201E-01 -0.1665783576500E+01  0.0000000000000E+00
 0.2986422785471E-01 -0.1599921516362E+01  0.0000000000000E+00
 0.2990394198526E-01 -0.1534060632404E+01  0.0000000000000E+00
 0.2995527178026E-01 -0.1468201919478E+01  0.0000000000000E+00
 0.3001980531922E-01 -0.1402346627432E+01  0.0000000000000E+00
 0.3009904398801E-01 -0.1336496562970E+01  0.0000000000000E+00
 0.3019397762265E-01 -0.1270653446458E+01  0.0000000000000E+00
 0.3030433211240E-01 -0.1204818820222E+01  0.0000000000000E+00
 0.3042759046408E-01 -0.1138992344063E+01  0.0000000000000E+00
 0.3055837779879E-01 -0.1073171142794E+01  0.0000000000000E+00
 0.3068916520914E-01 -0.1007349941524E+01  0.0000000000000E+00
 0.3081242377782E-01 -0.9415234653661E+00  0.0000000000000E+00
 0.3092277860113E-01 -0.8756888391304E+00  0.0000000000000E+00
 0.3101771265631E-01 -0.8098457226190E+00  0.0000000000000E+00
 0.3109695180599E-01 -0.7439956581577E+00  0.0000000000000E+00
 0.3116148586553E-01 -0.6781403661116E+00  0.0000000000000E+00
 0.3121281620596E-01 -0.6122816531859E+00  0.0000000000000E+00
 0.3125253089656E-01 -0.5464207692289E+00  0.0000000000000E+00
 0.3128210963697E-01 -0.4805587090906E+00  0.0000000000000E+00
 0.5966856276630E-01 -0.1665983788628E+01  0.0000000000000E+00
 0.5972745555662E-01 -0.1600144682660E+01  0.0000000000000E+00
 0.5980662025903E-01 -0.1534306752866E+01  0.0000000000000E+00
 0.5990901628335E-01 -0.1468470994089E+01  0.0000000000000E+00
 0.6003781978316E-01 -0.1402638656205E+01  0.0000000000000E+00
 0.6019603352318E-01 -0.1336811545881E+01  0.0000000000000E+00
 0.6038563716454E-01 -0.1270991383534E+01  0.0000000000000E+00
 0.6060608247295E-01 -0.1205179711442E+01  0.0000000000000E+00
 0.6085233544670E-01 -0.1139376189450E+01  0.0000000000000E+00
 0.6111364631580E-01 -0.1073577942351E+01  0.0000000000000E+00
 0.6137495726055E-01 -0.1007779695252E+01  0.0000000000000E+00
 0.6162121045131E-01 -0.9419761732611E+00  0.0000000000000E+00
 0.6184165609327E-01 -0.8761645011696E+00  0.0000000000000E+00
 0.6203126015517E-01 -0.8103443388238E+00  0.0000000000000E+00
 0.6218947437608E-01 -0.7445172285014E+00  0.0000000000000E+00
 0.6231827839647E-01 -0.6786848906179E+00  0.0000000000000E+00
 0.6242067496623E-01 -0.6128491318409E+00  0.0000000000000E+00
 0.6249984022868E-01 -0.5470112020477E+00  0.0000000000000E+00
 0.6255873358672E-01 -0.4811720960803E+00  0.0000000000000E+00
 0.8950101084839E-01 -0.1666317437781E+01  0.0000000000000E+00
 0.8958869088479E-01 -0.1600516563438E+01  0.0000000000000E+00
 0.8970677878753E-01 -0.1534716865257E+01  0.0000000000000E+00
 0.8985971366985E-01 -0.1468919338067E+01  0.0000000000000E+00
 0.9005225975868E-01 -0.1403125231793E+01  0.0000000000000E+00
 0.9028892119845E-01 -0.1337336353041E+01  0.0000000000000E+00
 0.9057266747424E-01 -0.1271554422310E+01  0.0000000000000E+00
 0.9090267622929E-01 -0.1205780981797E+01  0.0000000000000E+00
 0.9127139645241E-01 -0.1140015691424E+01  0.0000000000000E+00
 0.9166270348301E-01 -0.1074255675949E+01  0.0000000000000E+00
 0.9205401058927E-01 -0.1008495660475E+01  0.0000000000000E+00
 0.9242273102939E-01 -0.9427303701028E+00  0.0000000000000E+00
 0.9275274011800E-01 -0.8769569295918E+00  0.0000000000000E+00
 0.9303648681432E-01 -0.8111749988621E+00  0.0000000000000E+00
 0.9327314873499E-01 -0.7453861201111E+00  0.0000000000000E+00
 0.9346569534440E-01 -0.6795920138386E+00  0.0000000000000E+00
 0.9361863077215E-01 -0.6137944866494E+00  0.0000000000000E+00
 0.9373671923494E-01 -0.5479947884691E+00  0.0000000000000E+00
 0.9382439983905E-01 -0.4821939141266E+00  0.0000000000000E+00
 0.1193312636781E+00 -0.1666784467507E+01  0.0000000000000E+00
 0.1194469416106E+00 -0.1601037064363E+01  0.0000000000000E+00
 0.1196031633639E+00 -0.1535290837365E+01  0.0000000000000E+00
 0.1198058477548E+00 -0.1469546781322E+01  0.0000000000000E+00
 0.1200613470828E+00 -0.1403806146227E+01  0.0000000000000E+00
 0.1203756668731E+00 -0.1338070738599E+01  0.0000000000000E+00
 0.1207527664332E+00 -0.1272342279054E+01  0.0000000000000E+00
 0.1211915492853E+00 -0.1206622309678E+01  0.0000000000000E+00
 0.1216819474073E+00 -0.1140910490496E+01  0.0000000000000E+00
 0.1222024612488E+00 -0.1075203946219E+01  0.0000000000000E+00
 0.1227229751660E+00 -0.1009497401943E+01  0.0000000000000E+00
 0.1232133735050E+00 -0.9437855827625E+00  0.0000000000000E+00
 0.1236521566907E+00 -0.8780656133886E+00  0.0000000000000E+00
 0.1240292566713E+00 -0.8123371538457E+00  0.0000000000000E+00
 0.1243435769425E+00 -0.7466017462192E+00  0.0000000000000E+00
 0.1245990767911E+00 -0.6808611111264E+00  0.0000000000000E+00
 0.1248017617275E+00 -0.6151170550845E+00  0.0000000000000E+00
 0.1249579840408E+00 -0.5493708280868E+00  0.0000000000000E+00
 0.1250736625410E+00 -0.4836234249434E+00  0.0000000000000E+00
 0.1491586010070E+00 -0.1667384799156E+01  0.0000000000000E+00
 0.1493012271308E+00 -0.1601706053965E+01  0.0000000000000E+00
 0.1494945330316E+00 -0.1536028484898E+01  0.0000000000000E+00
 0.1497459172305E+00 -0.1470353086742E+01  0.0000000000000E+00
 0.1500633200979E+00 -0.1404681109575E+01  0.0000000000000E+00
 0.1504542485424E+00 -0.1339014359804E+01  0.0000000000000E+00
 0.1509236516910E+00 -0.1273354558196E+01  0.0000000000000E+00
 0.1514701589477E+00 -0.1207703246693E+01  0.0000000000000E+00
 0.1520811852768E+00 -0.1142060085454E+01  0.0000000000000E+00
 0.1527298562383E+00 -0.1076422199130E+01  0.0000000000000E+00
 0.1533785272754E+00 -0.1010784312807E+01  0.0000000000000E+00
 0.1539895538216E+00 -0.9451411515694E+00  0.0000000000000E+00
 0.1545360614118E+00 -0.8794898400693E+00  0.0000000000000E+00
 0.1550054649810E+00 -0.8138300384639E+00  0.0000000000000E+00
 0.1553963939063E+00 -0.7481632886949E+00  0.0000000000000E+00
 0.1557137972944E+00 -0.6824913115305E+00  0.0000000000000E+00
 0.1559651820386E+00 -0.6168159133754E+00  0.0000000000000E+00
 0.1561584884995E+00 -0.5511383443096E+00  0.0000000000000E+00
 0.1563011151911E+00 -0.4854595991195E+00  0.0000000000000E+00
 0.1789822802759E+00 -0.1668118331470E+01  0.0000000000000E+00
 0.1791505485831E+00 -0.1602523363477E+01  0.0000000000000E+00
 0.1793796326223E+00 -0.1536929571581E+01  0.0000000000000E+00
 0.1796784106189E+00 -0.1471337950540E+01  0.0000000000000E+00
 0.1800564110131E+00 -0.1405749750540E+01  0.0000000000000E+00
 0.1805226420978E+00 -0.1340166777849E+01  0.0000000000000E+00
 0.1810830428174E+00 -0.1274590753418E+01  0.0000000000000E+00
 0.1817359684599E+00 -0.1209023219015E+01  0.0000000000000E+00
 0.1824663169740E+00 -0.1143463834961E+01  0.0000000000000E+00
 0.1832418390321E+00 -0.1077909725833E+01  0.0000000000000E+00
 0.1840173611658E+00 -0.1012355616707E+01  0.0000000000000E+00
 0.1847477098969E+00 -0.9467962326544E+00  0.0000000000000E+00
 0.1854006358730E+00 -0.8812286982545E+00  0.0000000000000E+00
 0.1859610370131E+00 -0.8156526738272E+00  0.0000000000000E+00
 0.1864272685787E+00 -0.7500697011386E+00  0.0000000000000E+00
 0.1868052694934E+00 -0.6844815011410E+00  0.0000000000000E+00
 0.1871040480356E+00 -0.6188898801021E+00  0.0000000000000E+00
 0.1873331326348E+00 -0.5532960882075E+00  0.0000000000000E+00
 0.1875014015097E+00 -0.4877011202147E+00  0.0000000000000E+00
 0.2088016021235E+00 -0.1668984942169E+01  0.0000000000000E+00
 0.2089939515364E+00 -0.1603488788624E+01  0.0000000000000E+00
 0.2092572526392E+00 -0.1537993811146E+01  0.0000000000000E+00
 0.2096018633630E+00 -0.1472501004457E+01  0.0000000000000E+00
 0.2100389002153E+00 -0.1407011618869E+01  0.0000000000000E+00
 0.2105788728772E+00 -0.1341527460488E+01  0.0000000000000E+00
 0.2112287101067E+00 -0.1276050250483E+01  0.0000000000000E+00
 0.2119864930791E+00 -0.1210581530413E+01  0.0000000000000E+00
 0.2128346027241E+00 -0.1145120960792E+01  0.0000000000000E+00
 0.2137354148261E+00 -0.1079665666113E+01  0.0000000000000E+00
 0.2146362270037E+00 -0.1014210371434E+01  0.0000000000000E+00
 0.2154843368657E+00 -0.9487498018155E+00  0.0000000000000E+00
 0.2162421201716E+00 -0.8832810817495E+00  0.0000000000000E+00
 0.2168919578216E+00 -0.8178038717479E+00  0.0000000000000E+00
 0.2174319309644E+00 -0.7523197133698E+00  0.0000000000000E+00
 0.2178689683374E+00 -0.6868303277847E+00  0.0000000000000E+00
 0.2182135796066E+00 -0.6213375210985E+00  0.0000000000000E+00
 0.2184768812695E+00 -0.5558425436214E+00  0.0000000000000E+00
 0.2186692312501E+00 -0.4903463900771E+00  0.0000000000000E+00
 0.2386158335404E+00 -0.1669984486568E+01  0.0000000000000E+00
 0.2388304532896E+00 -0.1604602088601E+01  0.0000000000000E+00
 0.2391261606856E+00 -0.1539220866665E+01  0.0000000000000E+00
 0.2395147933649E+00 -0.1473841815444E+01  0.0000000000000E+00
 0.2400090559004E+00 -0.1408466185393E+01  0.0000000000000E+00
 0.2406209593635E+00 -0.1343095782431E+01  0.0000000000000E+00
 0.2413584223218E+00 -0.1277732327977E+01  0.0000000000000E+00
 0.2422192518420E+00 -0.1212377363354E+01  0.0000000000000E+00
 0.2431833118313E+00 -0.1147030549294E+01  0.0000000000000E+00
 0.2442076031893E+00 -0.1081689010192E+01  0.0000000000000E+00
 0.2452318946228E+00 -0.1016347471091E+01  0.0000000000000E+00
 0.2461959548292E+00 -0.9510006570345E+00  0.0000000000000E+00
 0.2470567846829E+00 -0.8856456924151E+00  0.0000000000000E+00
 0.2477942480618E+00 -0.8202822379657E+00  0.0000000000000E+00
 0.2484061520058E+00 -0.7549118350073E+00  0.0000000000000E+00
 0.2489004150619E+00 -0.6895362049592E+00  0.0000000000000E+00
 0.2492890482866E+00 -0.6241571537411E+00  0.0000000000000E+00
 0.2495847562426E+00 -0.5587759318069E+00  0.0000000000000E+00
 0.2497993765596E+00 -0.4933935338409E+00  0.0000000000000E+00
 0.2684242694147E+00 -0.1671116799478E+01  0.0000000000000E+00
 0.2686591031430E+00 -0.1605862988404E+01  0.0000000000000E+00
 0.2689851604755E+00 -0.1540610353321E+01  0.0000000000000E+00
 0.2694157587553E+00 -0.1475359888869E+01  0.0000000000000E+00
 0.2699651906179E+00 -0.1410112845663E+01  0.0000000000000E+00
 0.2706469685284E+00 -0.1344871029414E+01  0.0000000000000E+00
 0.2714700008599E+00 -0.1279636161824E+01  0.0000000000000E+00
 0.2724318205741E+00 -0.1214409783944E+01  0.0000000000000E+00
 0.2735097745524E+00 -0.1149191556758E+01  0.0000000000000E+00
 0.2746554888105E+00 -0.1083978604548E+01  0.0000000000000E+00
 0.2758012031444E+00 -0.1018765652339E+01  0.0000000000000E+00
 0.2768791573396E+00 -0.9535474251570E+00  0.0000000000000E+00
 0.2778409773874E+00 -0.8883210472817E+00  0.0000000000000E+00
 0.2786640101394E+00 -0.8230861796958E+00  0.0000000000000E+00
 0.2793457885309E+00 -0.7578443634509E+00  0.0000000000000E+00
 0.2798952209140E+00 -0.6925973202491E+00  0.0000000000000E+00
 0.2803258197392E+00 -0.6273468557994E+00  0.0000000000000E+00
 0.2806518776318E+00 -0.5620942207181E+00  0.0000000000000E+00
 0.2808867119278E+00 -0.4968404096451E+00  0.0000000000000E+00
 0.2982262162405E+00 -0.1672381695408E+01  0.0000000000000E+00
 0.2984789668060E+00 -0.1607271179427E+01  0.0000000000000E+00
 0.2988330769373E+00 -0.1542161839391E+01  0.0000000000000E+00
 0.2993033436852E+00 -0.1477054669892E+01  0.0000000000000E+00
 0.2999056477456E+00 -0.1411950921727E+01  0.0000000000000E+00
 0.3006550029816E+00 -0.1346852400370E+01  0.0000000000000E+00
 0.3015613075666E+00 -0.1281760827839E+01  0.0000000000000E+00
 0.3026218203629E+00 -0.1216677744886E+01  0.0000000000000E+00
 0.3038113712198E+00 -0.1151602812772E+01  0.0000000000000E+00
 0.3050762112702E+00 -0.1086533155653E+01  0.0000000000000E+00
 0.3063410513962E+00 -0.1021463498536E+01  0.0000000000000E+00
 0.3075306024701E+00 -0.9563885664261E+00  0.0000000000000E+00
 0.3085911155999E+00 -0.8913054834775E+00  0.0000000000000E+00
 0.3094974206055E+00 -0.8262139109515E+00  0.0000000000000E+00
 0.3102467763224E+00 -0.7611153895993E+00  0.0000000000000E+00
 0.3108490809033E+00 -0.6960116414382E+00  0.0000000000000E+00
 0.3113193481967E+00 -0.6309044719423E+00  0.0000000000000E+00
 0.3116734588881E+00 -0.5657951319091E+00  0.0000000000000E+00
 0.3119262100213E+00 -0.5006846159287E+00  0.0000000000000E+00
 0.3280209425970E+00 -0.1673778966920E+01  0.0000000000000E+00
 0.3282890794610E+00 -0.1608826318313E+01  0.0000000000000E+00
 0.3286687118504E+00 -0.1543874845604E+01  0.0000000000000E+00
 0.3291761165241E+00 -0.1478925543327E+01  0.0000000000000E+00
 0.3298287622345E+00 -0.1413979662479E+01  0.0000000000000E+00
 0.3306431642467E+00 -0.1349039008277E+01  0.0000000000000E+00
 0.3316302105286E+00 -0.1284105303084E+01  0.0000000000000E+00
 0.3327868858481E+00 -0.1219180087322E+01  0.0000000000000E+00
 0.3340855030187E+00 -0.1154263022560E+01  0.0000000000000E+00
 0.3354669382939E+00 -0.1089351232816E+01  0.0000000000000E+00
 0.3368483736447E+00 -0.1024439443074E+01  0.0000000000000E+00
 0.3381469910323E+00 -0.9595223783156E+00  0.0000000000000E+00
 0.3393036666853E+00 -0.8945971625594E+00  0.0000000000000E+00
 0.3402907133878E+00 -0.8296634573724E+00  0.0000000000000E+00
 0.3411051158809E+00 -0.7647228031751E+00  0.0000000000000E+00
 0.3417577621119E+00 -0.6997769223317E+00  0.0000000000000E+00
 0.3422651673310E+00 -0.6348276200581E+00  0.0000000000000E+00
 0.3426448002805E+00 -0.5698761473508E+00  0.0000000000000E+00
 0.3429129377122E+00 -0.5049234987456E+00  0.0000000000000E+00
 0.3578077951490E+00 -0.1675308389770E+01  0.0000000000000E+00
 0.3580885561653E+00 -0.1610528032351E+01  0.0000000000000E+00
 0.3584909486692E+00 -0.1545748850774E+01  0.0000000000000E+00
 0.3590327291289E+00 -0.1480971839517E+01  0.0000000000000E+00
 0.3597329543503E+00 -0.1416198249793E+01  0.0000000000000E+00
 0.3606096410050E+00 -0.1351429886536E+01  0.0000000000000E+00
 0.3616746668497E+00 -0.1286668472490E+01  0.0000000000000E+00
 0.3629247425635E+00 -0.1221915547716E+01  0.0000000000000E+00
 0.3643296639184E+00 -0.1157170774115E+01  0.0000000000000E+00
 0.3658249322898E+00 -0.1092431275557E+01  0.0000000000000E+00
 0.3673202007369E+00 -0.1027691777001E+01  0.0000000000000E+00
 0.3687251223088E+00 -0.9629470034044E+00  0.0000000000000E+00
 0.3699751983561E+00 -0.8981940786356E+00  0.0000000000000E+00
 0.3710402246213E+00 -0.8334326645960E+00  0.0000000000000E+00
 0.3719169117570E+00 -0.7686643013451E+00  0.0000000000000E+00
 0.3726171374990E+00 -0.7038907116260E+00  0.0000000000000E+00
 0.3731589185041E+00 -0.6391137003723E+00  0.0000000000000E+00
 0.3735613115680E+00 -0.5743345187982E+00  0.0000000000000E+00
 0.3738420731521E+00 -0.5095541613797E+00  0.0000000000000E+00
 0.3875860607136E+00 -0.1676969718067E+01  0.0000000000000E+00
 0.3878764645286E+00 -0.1612375915917E+01  0.0000000000000E+00
 0.3882986357959E+00 -0.1547783289551E+01  0.0000000000000E+00
 0.3888718106944E+00 -0.1483192833383E+01  0.0000000000000E+00
 0.3896166340798E+00 -0.1418605798860E+01  0.0000000000000E+00
 0.3905526240356E+00 -0.1354023990612E+01  0.0000000000000E+00
 0.3916926481006E+00 -0.1289449131793E+01  0.0000000000000E+00
 0.3930331428715E+00 -0.1224882762071E+01  0.0000000000000E+00
 0.3945413870725E+00 -0.1160324543713E+01  0.0000000000000E+00
 0.3961475072028E+00 -0.1095771600424E+01  0.0000000000000E+00
 0.3977536274088E+00 -0.1031218657136E+01  0.0000000000000E+00
 0.3992618718269E+00 -0.9666604387825E+00  0.0000000000000E+00
 0.4006023669313E+00 -0.9020940690673E+00  0.0000000000000E+00
 0.4017423914168E+00 -0.8375192102545E+00  0.0000000000000E+00
 0.4026783818535E+00 -0.7729374020130E+00  0.0000000000000E+00
 0.4034232057596E+00 -0.7083503674957E+00  0.0000000000000E+00
 0.4039963812035E+00 -0.6437599113309E+00  0.0000000000000E+00
 0.4044185530308E+00 -0.5791672849682E+00  0.0000000000000E+00
 0.4047089574136E+00 -0.5145734828194E+00  0.0000000000000E+00
 0.4173550733497E+00 -0.1678762688782E+01  0.0000000000000E+00
 0.4176519204570E+00 -0.1614369534370E+01  0.0000000000000E+00
 0.4180906709789E+00 -0.1549977555680E+01  0.0000000000000E+00
 0.4186920408057E+00 -0.1485587747055E+01  0.0000000000000E+00
 0.4194782628384E+00 -0.1421201360198E+01  0.0000000000000E+00
 0.4204703565771E+00 -0.1356820199408E+01  0.0000000000000E+00
 0.4216821793354E+00 -0.1292445988280E+01  0.0000000000000E+00
 0.4231098936343E+00 -0.1228080266064E+01  0.0000000000000E+00
 0.4247182611449E+00 -0.1163722695415E+01  0.0000000000000E+00
 0.4264320334947E+00 -0.1099370399863E+01  0.0000000000000E+00
 0.4281458059202E+00 -0.1035018104312E+01  0.0000000000000E+00
 0.4297541736479E+00 -0.9706605336683E+00  0.0000000000000E+00
 0.4311818882803E+00 -0.9062948114591E+00  0.0000000000000E+00
 0.4323937114591E+00 -0.8419206003386E+00  0.0000000000000E+00
 0.4333858056787E+00 -0.7775394395554E+00  0.0000000000000E+00
 0.4341720282321E+00 -0.7131530527035E+00  0.0000000000000E+00
 0.4347733986043E+00 -0.6487632440825E+00  0.0000000000000E+00
 0.4352121496862E+00 -0.5843712653956E+00  0.0000000000000E+00
 0.4355089973612E+00 -0.5199781109850E+00  0.0000000000000E+00
 0.4471141841628E+00 -0.1680687022310E+01  0.0000000000000E+00
 0.4474140681448E+00 -0.1616508426641E+01  0.0000000000000E+00
 0.4478659915118E+00 -0.1552331006628E+01  0.0000000000000E+00
 0.4484921498675E+00 -0.1488155756537E+01  0.0000000000000E+00
 0.4493163641549E+00 -0.1423983928345E+01  0.0000000000000E+00
 0.4503611552972E+00 -0.1359817325998E+01  0.0000000000000E+00
 0.4516413703761E+00 -0.1295657673564E+01  0.0000000000000E+00
 0.4531528978439E+00 -0.1231506509842E+01  0.0000000000000E+00
 0.4548579823102E+00 -0.1167363497905E+01  0.0000000000000E+00
 0.4566760005302E+00 -0.1103225761095E+01  0.0000000000000E+00
 0.4584940188258E+00 -0.1039088024287E+01  0.0000000000000E+00
 0.4601991035092E+00 -0.9749450123550E+00  0.0000000000000E+00
 0.4617106313106E+00 -0.9107938486407E+00  0.0000000000000E+00
 0.4629908468100E+00 -0.8466341962143E+00  0.0000000000000E+00
 0.4640356384332E+00 -0.7824675938748E+00  0.0000000000000E+00
 0.4648598532412E+00 -0.7182957656882E+00  0.0000000000000E+00
 0.4654860121423E+00 -0.6541205156026E+00  0.0000000000000E+00
 0.4659379360693E+00 -0.5899430955919E+00  0.0000000000000E+00
 0.4662378206191E+00 -0.5257644999245E+00  0.0000000000000E+00
 0.4768626808375E+00 -0.1682742416794E+01  0.0000000000000E+00
 0.4771619935814E+00 -0.1618792098491E+01  0.0000000000000E+00
 0.4776234816665E+00 -0.1554842955773E+01  0.0000000000000E+00
 0.4782708204089E+00 -0.1490895982827E+01  0.0000000000000E+00
 0.4791294187871E+00 -0.1426952431917E+01  0.0000000000000E+00
 0.4802232991507E+00 -0.1363014106618E+01  0.0000000000000E+00
 0.4815682983403E+00 -0.1299082731497E+01  0.0000000000000E+00
 0.4831600307474E+00 -0.1235159844877E+01  0.0000000000000E+00
 0.4849582239168E+00 -0.1171245110272E+01  0.0000000000000E+00
 0.4868768797426E+00 -0.1107335650828E+01  0.0000000000000E+00
 0.4887955356439E+00 -0.1043426191385E+01  0.0000000000000E+00
 0.4905937290304E+00 -0.9795114567866E+00  0.0000000000000E+00
 0.4921854617710E+00 -0.9155885701742E+00  0.0000000000000E+00
 0.4935304613811E+00 -0.8516571950617E+00  0.0000000000000E+00
 0.4946243422257E+00 -0.7877188697700E+00  0.0000000000000E+00
 0.4954829411245E+00 -0.7237753188667E+00  0.0000000000000E+00
 0.4961302804124E+00 -0.6598283459261E+00  0.0000000000000E+00
 0.4965917690575E+00 -0.5958792032105E+00  0.0000000000000E+00
 0.4968910823691E+00 -0.5319288849093E+00  0.0000000000000E+00
 0.5065999773523E+00 -0.1684928562411E+01  0.0000000000000E+00
 0.5068949207371E+00 -0.1621220040089E+01  0.0000000000000E+00
 0.5073621754349E+00 -0.1557512693277E+01  0.0000000000000E+00
 0.5080268964777E+00 -0.1493807516079E+01  0.0000000000000E+00
 0.5089160808768E+00 -0.1430105761064E+01  0.0000000000000E+00
 0.5100552524167E+00 -0.1366409231408E+01  0.0000000000000E+00
 0.5114612376898E+00 -0.1302719652214E+01  0.0000000000000E+00
 0.5131293770345E+00 -0.1239038561295E+01  0.0000000000000E+00
 0.5150168809198E+00 -0.1175365622638E+01  0.0000000000000E+00
 0.5170323763743E+00 -0.1111697959174E+01  0.0000000000000E+00
 0.5190478719044E+00 -0.1048030295713E+01  0.0000000000000E+00
 0.5209353760067E+00 -0.9843573570614E+00  0.0000000000000E+00
 0.5226035156849E+00 -0.9206762661513E+00  0.0000000000000E+00
 0.5240095013785E+00 -0.8569866869656E+00  0.0000000000000E+00
 0.5251486733994E+00 -0.7932901573186E+00  0.0000000000000E+00
 0.5260378583190E+00 -0.7295884023095E+00  0.0000000000000E+00
 0.5267025799074E+00 -0.6658832251168E+00  0.0000000000000E+00
 0.5271698351652E+00 -0.6021758783080E+00  0.0000000000000E+00
 0.5274647791177E+00 -0.5384673559889E+00  0.0000000000000E+00
 0.5363253937430E+00 -0.1687245126228E+01  0.0000000000000E+00
 0.5366119860150E+00 -0.1623791708789E+01  0.0000000000000E+00
 0.5370810255763E+00 -0.1560339466780E+01  0.0000000000000E+00
 0.5377591471768E+00 -0.1496889394217E+01  0.0000000000000E+00
 0.5386749358556E+00 -0.1433442743990E+01  0.0000000000000E+00
 0.5398554168395E+00 -0.1370001318861E+01  0.0000000000000E+00
 0.5413184064642E+00 -0.1306566844490E+01  0.0000000000000E+00
 0.5430589710231E+00 -0.1243140858158E+01  0.0000000000000E+00
 0.5450318039010E+00 -0.1179723024346E+01  0.0000000000000E+00
 0.5471401572628E+00 -0.1116310465763E+01  0.0000000000000E+00
 0.5492485107003E+00 -0.1052897907183E+01  0.0000000000000E+00
 0.5512213437952E+00 -0.9894800733776E+00  0.0000000000000E+00
 0.5529619086877E+00 -0.9260540870546E+00  0.0000000000000E+00
 0.5544248987329E+00 -0.8626196126929E+00  0.0000000000000E+00
 0.5556053801978E+00 -0.7991781875723E+00  0.0000000000000E+00
 0.5565211693972E+00 -0.7357315373529E+00  0.0000000000000E+00
 0.5571992915431E+00 -0.6722814647954E+00  0.0000000000000E+00
 0.5576683316644E+00 -0.6088292227895E+00  0.0000000000000E+00
 0.5579549245041E+00 -0.5453758053527E+00  0.0000000000000E+00
 0.5660383036526E+00 -0.1689691762168E+01  0.0000000000000E+00
 0.5663123811983E+00 -0.1626506539575E+01  0.0000000000000E+00
 0.5667790419974E+00 -0.1563322492327E+01  0.0000000000000E+00
 0.5674664005168E+00 -0.1500140614350E+01  0.0000000000000E+00
 0.5684046298164E+00 -0.1436962158871E+01  0.0000000000000E+00
 0.5696222565698E+00 -0.1373788928213E+01  0.0000000000000E+00
 0.5711380868456E+00 -0.1310622648626E+01  0.0000000000000E+00
 0.5729469129013E+00 -0.1247464856829E+01  0.0000000000000E+00
 0.5750009110328E+00 -0.1184315217823E+01  0.0000000000000E+00
 0.5771979585521E+00 -0.1121170854085E+01  0.0000000000000E+00
 0.5793950061471E+00 -0.1058026490350E+01  0.0000000000000E+00
 0.5814490044956E+00 -0.9948768513511E+00  0.0000000000000E+00
 0.5832578308849E+00 -0.9317190595634E+00  0.0000000000000E+00
 0.5847736615812E+00 -0.8685527799859E+00  0.0000000000000E+00
 0.5859912888156E+00 -0.8053795493368E+00  0.0000000000000E+00
 0.5869295186357E+00 -0.7422010938657E+00  0.0000000000000E+00
 0.5876168777006E+00 -0.6790192158940E+00  0.0000000000000E+00
 0.5880835390597E+00 -0.6158351686501E+00  0.0000000000000E+00
 0.5883576171732E+00 -0.5526499460589E+00  0.0000000000000E+00
-0.1182610616184E+01 -0.1709938151910E+01  0.0000000000000E+00
-0.1206840600949E+01 -0.1599271303952E+01  0.0000000000000E+00
-0.1234987980858E+01 -0.1489562273115E+01  0.0000000000000E+00
-0.1268147886288E+01 -0.1381306365269E+01  0.0000000000000E+00
-0.1307801009883E+01 -0.1275324724782E+01  0.0000000000000E+00
-0.1353020462603E+01 -0.1171637126831E+01  0.0000000000000E+00
-0.1397268459649E+01 -0.1067515066351E+01  0.0000000000000E+00
-0.1437122473078E+01 -0.9615813592161E+00  0.0000000000000E+00
-0.1472550192246E+01 -0.8540374650362E+00  0.0000000000000E+00
-0.1503921191345E+01 -0.7452053677059E+00  0.0000000000000E+00
-0.1531272791497E+01 -0.6352674555980E+00  0.0000000000000E+00
-0.1554282707568E+01 -0.5243175831196E+00  0.0000000000000E+00
-0.1572939532414E+01 -0.4125357734460E+00  0.0000000000000E+00
-0.1586992041029E+01 -0.3000702231276E+00  0.0000000000000E+00
-0.1595657715404E+01 -0.1870553481994E+00  0.0000000000000E+00
-0.1598364296081E+01 -0.7373369945448E-01  0.0000000000000E+00
-0.1596500729268E+01  0.3959193470411E-01  0.0000000000000E+00
-0.1576465557885E+01  0.1508144777421E+00  0.0000000000000E+00
-0.1525097607493E+01  0.2508838507572E+00  0.0000000000000E+00
-0.1151849224518E+01 -0.1708018429854E+01  0.0000000000000E+00
-0.1174810817950E+01 -0.1599917521458E+01  0.0000000000000E+00
-0.1201494297363E+01 -0.1492724079797E+01  0.0000000000000E+00
-0.1232938712419E+01 -0.1386907393241E+01  0.0000000000000E+00
-0.1270548496269E+01 -0.1283245453469E+01  0.0000000000000E+00
-0.1313447122937E+01 -0.1181757097507E+01  0.0000000000000E+00
-0.1355441944237E+01 -0.1079857510625E+01  0.0000000000000E+00
-0.1393290276807E+01 -0.9762420726324E+00  0.0000000000000E+00
-0.1426958860821E+01 -0.8711016241228E+00  0.0000000000000E+00
-0.1456792161492E+01 -0.7647410505408E+00  0.0000000000000E+00
-0.1482817610549E+01 -0.6573328628486E+00  0.0000000000000E+00
-0.1504721960076E+01 -0.5489656979899E+00  0.0000000000000E+00
-0.1522488745507E+01 -0.4398099530286E+00  0.0000000000000E+00
-0.1535877314757E+01 -0.3300060065687E+00  0.0000000000000E+00
-0.1544146046571E+01 -0.2196812801132E+00  0.0000000000000E+00
-0.1546753842042E+01 -0.1090656515018E+00  0.0000000000000E+00
-0.1545018125930E+01  0.1553936656996E-02  0.0000000000000E+00
-0.1526054989336E+01  0.1101813215066E+00  0.0000000000000E+00
-0.1477397507004E+01  0.2082426775406E+00  0.0000000000000E+00
-0.1121071481666E+01 -0.1706207396943E+01  0.0000000000000E+00
-0.1142765544784E+01 -0.1600666705050E+01  0.0000000000000E+00
-0.1167985984722E+01 -0.1495983129601E+01  0.0000000000000E+00
-0.1197715770410E+01 -0.1392599941581E+01  0.0000000000000E+00
-0.1233283075506E+01 -0.1291251980047E+01  0.0000000000000E+00
-0.1273861737223E+01 -0.1191957143015E+01  0.0000000000000E+00
-0.1313604243862E+01 -0.1092274306747E+01  0.0000000000000E+00
-0.1349447756621E+01 -0.9909714150146E+00  0.0000000000000E+00
-0.1381358066526E+01 -0.8882286892072E+00  0.0000000000000E+00
-0.1409654529800E+01 -0.7843339163719E+00  0.0000000000000E+00
-0.1434354688775E+01 -0.6794497301018E+00  0.0000000000000E+00
-0.1455154332752E+01 -0.5736595498896E+00  0.0000000000000E+00
-0.1472031939748E+01 -0.4671241466607E+00  0.0000000000000E+00
-0.1484757430585E+01 -0.3599760811308E+00  0.0000000000000E+00
-0.1492630080751E+01 -0.2523357803654E+00  0.0000000000000E+00
-0.1495139951914E+01 -0.1444204490327E+00  0.0000000000000E+00
-0.1493532947327E+01 -0.3650118443096E-01  0.0000000000000E+00
-0.1475642704875E+01  0.6953675537040E-01  0.0000000000000E+00
-0.1429696548673E+01  0.1655957997913E+00  0.0000000000000E+00
-0.1090277778680E+01 -0.1704505302474E+01  0.0000000000000E+00
-0.1110705151904E+01 -0.1601519090901E+01  0.0000000000000E+00
-0.1134463392784E+01 -0.1499339645572E+01  0.0000000000000E+00
-0.1162479389508E+01 -0.1398384220211E+01  0.0000000000000E+00
-0.1196005056235E+01 -0.1299344501311E+01  0.0000000000000E+00
-0.1234264593488E+01 -0.1202237447020E+01  0.0000000000000E+00
-0.1271755625938E+01 -0.1104765625254E+01  0.0000000000000E+00
-0.1305595159327E+01 -0.1005769543773E+01  0.0000000000000E+00
-0.1335748035559E+01 -0.9054188045732E+00  0.0000000000000E+00
-0.1362508501866E+01 -0.8039840963573E+00  0.0000000000000E+00
-0.1385884211173E+01 -0.7016181753908E+00  0.0000000000000E+00
-0.1405579989997E+01 -0.5983992437282E+00  0.0000000000000E+00
-0.1421569258942E+01 -0.4944784461285E+00  0.0000000000000E+00
-0.1433632511731E+01 -0.3899805254777E+00  0.0000000000000E+00
-0.1441109920573E+01 -0.2850189144976E+00  0.0000000000000E+00
-0.1443522707747E+01 -0.1797981444669E+00  0.0000000000000E+00
-0.1442045254927E+01 -0.7457346785855E-01  0.0000000000000E+00
-0.1425228745440E+01  0.2888075313570E-01  0.0000000000000E+00
-0.1381994752957E+01  0.1229432044031E+00  0.0000000000000E+00
-0.1059468488513E+01 -0.1702912387231E+01  0.0000000000000E+00
-0.1078629992469E+01 -0.1602474907163E+01  0.0000000000000E+00
-0.1100926854868E+01 -0.1502793843219E+01  0.0000000000000E+00
-0.1127229883123E+01 -0.1404260431974E+01  0.0000000000000E+00
-0.1158714731872E+01 -0.1307523207410E+01  0.0000000000000E+00
-0.1194655965084E+01 -0.1212598186943E+01  0.0000000000000E+00
-0.1229896343770E+01 -0.1117331630845E+01  0.0000000000000E+00
-0.1261732718247E+01 -0.1020636610909E+01  0.0000000000000E+00
-0.1290128981326E+01 -0.9226721095494E+00  0.0000000000000E+00
-0.1315354271230E+01 -0.8236917171689E+00  0.0000000000000E+00
-0.1337406351476E+01 -0.7238383127460E+00  0.0000000000000E+00
-0.1355999085795E+01 -0.6231848809079E+00  0.0000000000000E+00
-0.1371100837377E+01 -0.5218729402175E+00  0.0000000000000E+00
-0.1382502672845E+01 -0.4200194157871E+00  0.0000000000000E+00
-0.1389585661121E+01 -0.3177307460877E+00  0.0000000000000E+00
-0.1391902185134E+01 -0.2151987887865E+00  0.0000000000000E+00
-0.1390555104895E+01 -0.1126629520127E+00  0.0000000000000E+00
-0.1374813148038E+01 -0.1178671098245E-01  0.0000000000000E+00
-0.1334292138156E+01  0.8028487832643E-01  0.0000000000000E+00
-0.1028644031902E+01 -0.1701428892511E+01  0.0000000000000E+00
-0.1046540465220E+01 -0.1603534382381E+01  0.0000000000000E+00
-0.1067376747767E+01 -0.1506345938346E+01  0.0000000000000E+00
-0.1091967606169E+01 -0.1410228779957E+01  0.0000000000000E+00
-0.1121412435542E+01 -0.1315788288743E+01  0.0000000000000E+00
-0.1155036163413E+01 -0.1223039540529E+01  0.0000000000000E+00
-0.1188026687019E+01 -0.1129972488601E+01  0.0000000000000E+00
-0.1217860701239E+01 -0.1035572768820E+01  0.0000000000000E+00
-0.1244501149814E+01 -0.9399887438216E+00  0.0000000000000E+00
-0.1268192061956E+01 -0.8434569057652E+00  0.0000000000000E+00
-0.1288921311765E+01 -0.7461102563833E+00  0.0000000000000E+00
-0.1306411800184E+01 -0.6480165628883E+00  0.0000000000000E+00
-0.1320626833000E+01 -0.5493077176197E+00  0.0000000000000E+00
-0.1331368049718E+01 -0.4500928279743E+00  0.0000000000000E+00
-0.1338057415963E+01 -0.3504713382674E+00  0.0000000000000E+00
-0.1340278475341E+01 -0.2506224323349E+00  0.0000000000000E+00
-0.1339062566136E+01 -0.1507696744498E+00  0.0000000000000E+00
-0.1324395959008E+01 -0.5246566180157E-01  0.0000000000000E+00
-0.1286588727643E+01  0.3762080931293E-01  0.0000000000000E+00
-0.9978048091164E+00 -0.1700055050454E+01  0.0000000000000E+00
-0.1014436949344E+01 -0.1604697736472E+01  0.0000000000000E+00
-0.1033813429585E+01 -0.1509996138651E+01  0.0000000000000E+00
-0.1056692895666E+01 -0.1416289459633E+01  0.0000000000000E+00
-0.1084098483174E+01 -0.1324139928563E+01  0.0000000000000E+00
-0.1115405483312E+01 -0.1233561678802E+01  0.0000000000000E+00
-0.1146146929431E+01 -0.1142688357325E+01  0.0000000000000E+00
-0.1173979360959E+01 -0.1050578164083E+01  0.0000000000000E+00
-0.1198864772593E+01 -0.9573688417442E+00  0.0000000000000E+00
-0.1221022084529E+01 -0.8632797842780E+00  0.0000000000000E+00
-0.1240429281443E+01 -0.7684341162128E+00  0.0000000000000E+00
-0.1256818301491E+01 -0.6728943873585E+00  0.0000000000000E+00
-0.1270147393055E+01 -0.5767828638030E+00  0.0000000000000E+00
-0.1280228768520E+01 -0.4802008352871E+00  0.0000000000000E+00
-0.1286525290197E+01 -0.3832407520642E+00  0.0000000000000E+00
-0.1288651662395E+01 -0.2860691239199E+00  0.0000000000000E+00
-0.1287567701612E+01 -0.1888936717586E+00  0.0000000000000E+00
-0.1273977220288E+01 -0.9315612371048E-01  0.0000000000000E+00
-0.1238884542376E+01 -0.5049014836916E-02  0.0000000000000E+00
-0.9669512233292E+00 -0.1698791087330E+01  0.0000000000000E+00
-0.9823198267800E+00 -0.1605965183794E+01  0.0000000000000E+00
-0.1000237261024E+01 -0.1513744646577E+01  0.0000000000000E+00
-0.1021406091078E+01 -0.1422442661535E+01  0.0000000000000E+00
-0.1046773192995E+01 -0.1332578305487E+01  0.0000000000000E+00
-0.1075764221763E+01 -0.1244164768467E+01  0.0000000000000E+00
-0.1104257346747E+01 -0.1155479391803E+01  0.0000000000000E+00
-0.1130088951907E+01 -0.1065652939568E+01  0.0000000000000E+00
-0.1153220082925E+01 -0.9748125342746E+00  0.0000000000000E+00
-0.1173844550973E+01 -0.8831604717515E+00  0.0000000000000E+00
-0.1191930451300E+01 -0.7908099993657E+00  0.0000000000000E+00
-0.1207218759270E+01 -0.6978184495369E+00  0.0000000000000E+00
-0.1219662665868E+01 -0.6042984620743E+00  0.0000000000000E+00
-0.1229084956349E+01 -0.5103435091204E+00  0.0000000000000E+00
-0.1234989389694E+01 -0.4160390469624E+00  0.0000000000000E+00
-0.1237021830944E+01 -0.3215389111147E+00  0.0000000000000E+00
-0.1236070574753E+01 -0.2270349796020E+00  0.0000000000000E+00
-0.1223556974129E+01 -0.1338581204802E+00  0.0000000000000E+00
-0.1191179603475E+01 -0.4772460601326E-01  0.0000000000000E+00
-0.9360836724979E+00 -0.1697637222502E+01  0.0000000000000E+00
-0.9501894744693E+00 -0.1607336932178E+01  0.0000000000000E+00
-0.9666485979921E+00 -0.1517591658418E+01  0.0000000000000E+00
-0.9861075272542E+00 -0.1428688570411E+01  0.0000000000000E+00
-0.1009436878761E+01 -0.1341103592706E+01  0.0000000000000E+00
-0.1036112671401E+01 -0.1254848971143E+01  0.0000000000000E+00
-0.1062358210486E+01 -0.1168345742088E+01  0.0000000000000E+00
-0.1086189724515E+01 -0.1080797233774E+01  0.0000000000000E+00
-0.1107567310176E+01 -0.9923199483614E+00  0.0000000000000E+00
-0.1126659669612E+01 -0.9030990835921E+00  0.0000000000000E+00
-0.1143425008638E+01 -0.8132380097123E+00  0.0000000000000E+00
-0.1157613339827E+01 -0.7227888417635E+00  0.0000000000000E+00
-0.1169172796767E+01 -0.6318545932468E+00  0.0000000000000E+00
-0.1177936737578E+01 -0.5405209187650E+00  0.0000000000000E+00
-0.1183449817901E+01 -0.4488662807332E+00  0.0000000000000E+00
-0.1185389063541E+01 -0.3570318401726E+00  0.0000000000000E+00
-0.1184571247236E+01 -0.2651936327164E+00  0.0000000000000E+00
-0.1173135261469E+01 -0.1745716753379E+00  0.0000000000000E+00
-0.1143473931327E+01 -0.9040597589074E-01  0.0000000000000E+00
-0.9052025656608E+00 -0.1696593670407E+01  0.0000000000000E+00
-0.9180462799102E+00 -0.1608813184770E+01  0.0000000000000E+00
-0.9330478064465E+00 -0.1521537366029E+01  0.0000000000000E+00
-0.9507975486092E+00 -0.1435027366826E+01  0.0000000000000E+00
-0.9720898633460E+00 -0.1349715959497E+01  0.0000000000000E+00
-0.9964511335561E+00 -0.1265614444814E+01  0.0000000000000E+00
-0.1020449800433E+01 -0.1181287554874E+01  0.0000000000000E+00
-0.1042281937024E+01 -0.1096011182100E+01  0.0000000000000E+00
-0.1061906691047E+01 -0.1009891208114E+01  0.0000000000000E+00
-0.1079467655605E+01 -0.9230957326186E+00  0.0000000000000E+00
-0.1094913147077E+01 -0.8357182487808E+00  0.0000000000000E+00
-0.1108002215241E+01 -0.7478056542760E+00  0.0000000000000E+00
-0.1118677936293E+01 -0.6594513362685E+00  0.0000000000000E+00
-0.1126784241210E+01 -0.5707331318790E+00  0.0000000000000E+00
-0.1131906682287E+01 -0.4817225097452E+00  0.0000000000000E+00
-0.1133753446117E+01 -0.3925479561725E+00  0.0000000000000E+00
-0.1133069783463E+01 -0.3033696648919E+00  0.0000000000000E+00
-0.1122712125213E+01 -0.2152968108032E+00  0.0000000000000E+00
-0.1095767547380E+01 -0.1330931357309E+00  0.0000000000000E+00
-0.8743083235843E+00 -0.1695660640404E+01  0.0000000000000E+00
-0.8858906417741E+00 -0.1610394139888E+01  0.0000000000000E+00
-0.8994352629835E+00 -0.1525581956693E+01  0.0000000000000E+00
-0.9154765096915E+00 -0.1441459227032E+01  0.0000000000000E+00
-0.9347324792844E+00 -0.1358415571095E+01  0.0000000000000E+00
-0.9567799187723E+00 -0.1276461343713E+01  0.0000000000000E+00
-0.9785324051374E+00 -0.1194304973383E+01  0.0000000000000E+00
-0.9983658559628E+00 -0.1111294916756E+01  0.0000000000000E+00
-0.1016238470020E+01 -0.1027526434715E+01  0.0000000000000E+00
-0.1032268731369E+01 -0.9431505289813E+00  0.0000000000000E+00
-0.1046395066944E+01 -0.8582508156835E+00  0.0000000000000E+00
-0.1058385563728E+01 -0.7728689751435E+00  0.0000000000000E+00
-0.1068178240529E+01 -0.6870887681605E+00  0.0000000000000E+00
-0.1075627601174E+01 -0.6009802144323E+00  0.0000000000000E+00
-0.1080360094597E+01 -0.5146077889146E+00  0.0000000000000E+00
-0.1082115068208E+01 -0.4280873029753E+00  0.0000000000000E+00
-0.1081566250735E+01 -0.3415631089346E+00  0.0000000000000E+00
-0.1072287610372E+01 -0.2560335486556E+00  0.0000000000000E+00
-0.1048060474216E+01 -0.1757860963612E+00  0.0000000000000E+00
-0.8434013602891E+00 -0.1694838334539E+01  0.0000000000000E+00
-0.8537229522776E+00 -0.1612079988939E+01  0.0000000000000E+00
-0.8658113380143E+00 -0.1529725611177E+01  0.0000000000000E+00
-0.8801447591061E+00 -0.1447984321162E+01  0.0000000000000E+00
-0.8973650533733E+00 -0.1367202586994E+01  0.0000000000000E+00
-0.9170993320358E+00 -0.1287389816692E+01  0.0000000000000E+00
-0.9366063077746E+00 -0.1207398135830E+01  0.0000000000000E+00
-0.9544417426990E+00 -0.1126648565315E+01  0.0000000000000E+00
-0.9705628866563E+00 -0.1045225745102E+01  0.0000000000000E+00
-0.9850631146560E+00 -0.9632635789787E+00  0.0000000000000E+00
-0.9978709641868E+00 -0.8808358060813E+00  0.0000000000000E+00
-0.1008763559434E+01 -0.7979788893896E+00  0.0000000000000E+00
-0.1017673861820E+01 -0.7147669633096E+00  0.0000000000000E+00
-0.1024466948015E+01 -0.6312622301750E+00  0.0000000000000E+00
-0.1028810163580E+01 -0.5475221713554E+00  0.0000000000000E+00
-0.1030474016764E+01 -0.4636499230587E+00  0.0000000000000E+00
-0.1030060714210E+01 -0.3797739966868E+00  0.0000000000000E+00
-0.1021861760353E+01 -0.2967819101190E+00  0.0000000000000E+00
-0.1000352733534E+01 -0.2184848683968E+00  0.0000000000000E+00
-0.8124820923393E+00 -0.1694126948634E+01  0.0000000000000E+00
-0.8215436060466E+00 -0.1613870917436E+01  0.0000000000000E+00
-0.8321764042262E+00 -0.1533968504685E+01  0.0000000000000E+00
-0.8448026476007E+00 -0.1454602814107E+01  0.0000000000000E+00
-0.8599879144201E+00 -0.1376077161776E+01  0.0000000000000E+00
-0.8774096802096E+00 -0.1298400008021E+01  0.0000000000000E+00
-0.8946717932639E+00 -0.1220567176174E+01  0.0000000000000E+00
-0.9105098602098E+00 -0.1142072251424E+01  0.0000000000000E+00
-0.9248801819917E+00 -0.1062989252608E+01  0.0000000000000E+00
-0.9378510245649E+00 -0.9834349856361E+00  0.0000000000000E+00
-0.9493410359662E+00 -0.9034733126893E+00  0.0000000000000E+00
-0.9591363775820E+00 -0.8231354794195E+00  0.0000000000000E+00
-0.9671649534541E+00 -0.7424859938115E+00  0.0000000000000E+00
-0.9733024130866E+00 -0.6615792408938E+00  0.0000000000000E+00
-0.9772569986568E+00 -0.5804657085455E+00  0.0000000000000E+00
-0.9788303792791E+00 -0.4992358575917E+00  0.0000000000000E+00
-0.9785532394554E+00 -0.4180023590096E+00  0.0000000000000E+00
-0.9714346188367E+00 -0.3375419157624E+00  0.0000000000000E+00
-0.9526443471667E+00 -0.2611894621254E+00  0.0000000000000E+00
-0.7815509360540E+00 -0.1693526671952E+01  0.0000000000000E+00
-0.7893529974569E+00 -0.1615767104683E+01  0.0000000000000E+00
-0.7985308340446E+00 -0.1538310806561E+01  0.0000000000000E+00
-0.8094505256421E+00 -0.1461314865248E+01  0.0000000000000E+00
-0.8226013909215E+00 -0.1385039444855E+01  0.0000000000000E+00
-0.8377112698082E+00 -0.1309492057141E+01  0.0000000000000E+00
-0.8527291461403E+00 -0.1233812223881E+01  0.0000000000000E+00
-0.8665704710604E+00 -0.1157566094584E+01  0.0000000000000E+00
-0.8791905966306E+00 -0.1080817066771E+01  0.0000000000000E+00
-0.8906326797461E+00 -0.1003664848526E+01  0.0000000000000E+00
-0.9008054789872E+00 -0.9261634251201E+00  0.0000000000000E+00
-0.9095041929406E+00 -0.8483388248877E+00  0.0000000000000E+00
-0.9166516682694E+00 -0.7702459293638E+00  0.0000000000000E+00
-0.9221341273071E+00 -0.6919313063309E+00  0.0000000000000E+00
-0.9257007088365E+00 -0.6134384502728E+00  0.0000000000000E+00
-0.9271842428608E+00 -0.5348451464090E+00  0.0000000000000E+00
-0.9270438916883E+00 -0.4562482257846E+00  0.0000000000000E+00
-0.9210062292211E+00 -0.3783135855268E+00  0.0000000000000E+00
-0.9049353367833E+00 -0.3038998875393E+00  0.0000000000000E+00
-0.7506083067926E+00 -0.1693037687126E+01  0.0000000000000E+00
-0.7571515199521E+00 -0.1617768723708E+01  0.0000000000000E+00
-0.7648749989831E+00 -0.1542752680226E+01  0.0000000000000E+00
-0.7740887427956E+00 -0.1468120628396E+01  0.0000000000000E+00
-0.7852058104717E+00 -0.1394089580419E+01  0.0000000000000E+00
-0.7980044064311E+00 -0.1320666098610E+01  0.0000000000000E+00
-0.8107786500141E+00 -0.1247133403882E+01  0.0000000000000E+00
-0.8226238368907E+00 -0.1173130210103E+01  0.0000000000000E+00
-0.8334943702607E+00 -0.1098709293284E+01  0.0000000000000E+00
-0.8434082979516E+00 -0.1023953263733E+01  0.0000000000000E+00
-0.8522644890822E+00 -0.9489062298512E+00  0.0000000000000E+00
-0.8598671794387E+00 -0.8735890026696E+00  0.0000000000000E+00
-0.8661341583082E+00 -0.7980468372435E+00  0.0000000000000E+00
-0.8709622208482E+00 -0.7223184841673E+00  0.0000000000000E+00
-0.8741414024410E+00 -0.6464404446253E+00  0.0000000000000E+00
-0.8755356940038E+00 -0.5704778280057E+00  0.0000000000000E+00
-0.8755327355947E+00 -0.4945116259155E+00  0.0000000000000E+00
-0.8705766344891E+00 -0.4190969387318E+00  0.0000000000000E+00
-0.8572257238154E+00 -0.3466161543434E+00  0.0000000000000E+00
-0.7196546383067E+00 -0.1692660171955E+01  0.0000000000000E+00
-0.7249395845113E+00 -0.1619875942931E+01  0.0000000000000E+00
-0.7312092872703E+00 -0.1547294284722E+01  0.0000000000000E+00
-0.7387176645684E+00 -0.1475020253223E+01  0.0000000000000E+00
-0.7478015158933E+00 -0.1403227708788E+01  0.0000000000000E+00
-0.7582894102453E+00 -0.1331922263408E+01  0.0000000000000E+00
-0.7688206023893E+00 -0.1260530837814E+01  0.0000000000000E+00
-0.7786702325147E+00 -0.1188764710264E+01  0.0000000000000E+00
-0.7877917549782E+00 -0.1116666035064E+01  0.0000000000000E+00
-0.7961781085352E+00 -0.1044300324802E+01  0.0000000000000E+00
-0.8037182728390E+00 -0.9717018110512E+00  0.0000000000000E+00
-0.8102255208740E+00 -0.8988860875506E+00  0.0000000000000E+00
-0.8156125845540E+00 -0.8258887828474E+00  0.0000000000000E+00
-0.8197868318547E+00 -0.7527408304077E+00  0.0000000000000E+00
-0.8225791947468E+00 -0.6794717382122E+00  0.0000000000000E+00
-0.8238848250832E+00 -0.6061339395944E+00  0.0000000000000E+00
-0.8240198406246E+00 -0.5327925872182E+00  0.0000000000000E+00
-0.8201458810983E+00 -0.4598919938240E+00  0.0000000000000E+00
-0.8095155315770E+00 -0.3893382716925E+00  0.0000000000000E+00
-0.6886903565093E+00 -0.1692394296717E+01  0.0000000000000E+00
-0.6927175946182E+00 -0.1622088923663E+01  0.0000000000000E+00
-0.6975340799601E+00 -0.1551935772397E+01  0.0000000000000E+00
-0.7033376495840E+00 -0.1482013883113E+01  0.0000000000000E+00
-0.7103888433793E+00 -0.1412453964381E+01  0.0000000000000E+00
-0.7185665950094E+00 -0.1343260676984E+01  0.0000000000000E+00
-0.7268552945909E+00 -0.1274004642159E+01  0.0000000000000E+00
-0.7347099268254E+00 -0.1204469702582E+01  0.0000000000000E+00
-0.7420829972449E+00 -0.1134687390663E+01  0.0000000000000E+00
-0.7489423355285E+00 -0.1064706121319E+01  0.0000000000000E+00
-0.7551670318599E+00 -0.9945502493410E+00  0.0000000000000E+00
-0.7605793964204E+00 -0.9242301511863E+00  0.0000000000000E+00
-0.7650871037535E+00 -0.8537718288664E+00  0.0000000000000E+00
-0.7686080946470E+00 -0.7831983987784E+00  0.0000000000000E+00
-0.7710141976503E+00 -0.7125323757957E+00  0.0000000000000E+00
-0.7722317255725E+00 -0.6418135169728E+00  0.0000000000000E+00
-0.7725052738312E+00 -0.5710911365270E+00  0.0000000000000E+00
-0.7697140137222E+00 -0.5006987686882E+00  0.0000000000000E+00
-0.7618047823999E+00 -0.4320662485312E+00  0.0000000000000E+00
-0.6577158894649E+00 -0.1692240225162E+01  0.0000000000000E+00
-0.6604859557950E+00 -0.1624407821033E+01  0.0000000000000E+00
-0.6638497600319E+00 -0.1556677289756E+01  0.0000000000000E+00
-0.6679490582789E+00 -0.1489101655950E+01  0.0000000000000E+00
-0.6729681308228E+00 -0.1421768476460E+01  0.0000000000000E+00
-0.6788362760697E+00 -0.1354681459979E+01  0.0000000000000E+00
-0.6848830194189E+00 -0.1287554928934E+01  0.0000000000000E+00
-0.6907431900779E+00 -0.1220245290453E+01  0.0000000000000E+00
-0.6963683447720E+00 -0.1152773454854E+01  0.0000000000000E+00
-0.7017012040992E+00 -0.1085170739436E+01  0.0000000000000E+00
-0.7066109687703E+00 -0.1017451622250E+01  0.0000000000000E+00
-0.7109289861621E+00 -0.9496212624844E+00  0.0000000000000E+00
-0.7145578734505E+00 -0.8816960355872E+00  0.0000000000000E+00
-0.7174261442299E+00 -0.8136912409452E+00  0.0000000000000E+00
-0.7194465236187E+00 -0.7456224004210E+00  0.0000000000000E+00
-0.7205764854021E+00 -0.6775165945656E+00  0.0000000000000E+00
-0.7209891026108E+00 -0.6094072996466E+00  0.0000000000000E+00
-0.7192810772636E+00 -0.5415172805228E+00  0.0000000000000E+00
-0.7140934987308E+00 -0.4748000934607E+00  0.0000000000000E+00
-0.6267316673077E+00 -0.1692198114453E+01  0.0000000000000E+00
-0.6282450755248E+00 -0.1626832783928E+01  0.0000000000000E+00
-0.6301567123173E+00 -0.1561518977415E+01  0.0000000000000E+00
-0.6325522528331E+00 -0.1496283704073E+01  0.0000000000000E+00
-0.6355397177521E+00 -0.1431171369089E+01  0.0000000000000E+00
-0.6390987702994E+00 -0.1366184728180E+01  0.0000000000000E+00
-0.6429040710920E+00 -0.1301181805651E+01  0.0000000000000E+00
-0.6467702938377E+00 -0.1236091573113E+01  0.0000000000000E+00
-0.6506480464722E+00 -0.1170924318597E+01  0.0000000000000E+00
-0.6544549405083E+00 -0.1105694261838E+01  0.0000000000000E+00
-0.6580502871802E+00 -0.1040406004188E+01  0.0000000000000E+00
-0.6612744710591E+00 -0.9750594875815E+00  0.0000000000000E+00
-0.6640250519556E+00 -0.9096614608717E+00  0.0000000000000E+00
-0.6662411162656E+00 -0.8442194064959E+00  0.0000000000000E+00
-0.6678762856675E+00 -0.7787418534021E+00  0.0000000000000E+00
-0.6689191949418E+00 -0.7132432054128E+00  0.0000000000000E+00
-0.6694713946900E+00 -0.6477411013437E+00  0.0000000000000E+00
-0.6688471168461E+00 -0.5823475458340E+00  0.0000000000000E+00
-0.6663817031269E+00 -0.5175398147359E+00  0.0000000000000E+00
 0.6267316770671E+00 -0.1692198115309E+01  0.0000000000000E+00
 0.6282450842043E+00 -0.1626832784735E+01  0.0000000000000E+00
 0.6301567199257E+00 -0.1561518978170E+01  0.0000000000000E+00
 0.6325522593862E+00 -0.1496283704774E+01  0.0000000000000E+00
 0.6355397232755E+00 -0.1431171369731E+01  0.0000000000000E+00
 0.6390987748289E+00 -0.1366184728759E+01  0.0000000000000E+00
 0.6429040746811E+00 -0.1301181806162E+01  0.0000000000000E+00
 0.6467702965677E+00 -0.1236091573554E+01  0.0000000000000E+00
 0.6506480484535E+00 -0.1170924318967E+01  0.0000000000000E+00
 0.6544549418750E+00 -0.1105694262141E+01  0.0000000000000E+00
 0.6580502880753E+00 -0.1040406004428E+01  0.0000000000000E+00
 0.6612744716160E+00 -0.9750594877654E+00  0.0000000000000E+00
 0.6640250522846E+00 -0.9096614610038E+00  0.0000000000000E+00
 0.6662411164480E+00 -0.8442194065791E+00  0.0000000000000E+00
 0.6678762857589E+00 -0.7787418534389E+00  0.0000000000000E+00
 0.6689191949800E+00 -0.7132432054044E+00  0.0000000000000E+00
 0.6694713946944E+00 -0.6477411012908E+00  0.0000000000000E+00
 0.6688471167994E+00 -0.5823475457445E+00  0.0000000000000E+00
 0.6663817030200E+00 -0.5175398146315E+00  0.0000000000000E+00
 0.6577158987074E+00 -0.1692240226002E+01  0.0000000000000E+00
 0.6604859640163E+00 -0.1624407821814E+01  0.0000000000000E+00
 0.6638497672423E+00 -0.1556677290478E+01  0.0000000000000E+00
 0.6679490644955E+00 -0.1489101656609E+01  0.0000000000000E+00
 0.6729681360715E+00 -0.1421768477054E+01  0.0000000000000E+00
 0.6788362803826E+00 -0.1354681460503E+01  0.0000000000000E+00
 0.6848830228425E+00 -0.1287554929381E+01  0.0000000000000E+00
 0.6907431926874E+00 -0.1220245290822E+01  0.0000000000000E+00
 0.6963683466717E+00 -0.1152773455142E+01  0.0000000000000E+00
 0.7017012054155E+00 -0.1085170739648E+01  0.0000000000000E+00
 0.7066109696382E+00 -0.1017451622390E+01  0.0000000000000E+00
 0.7109289867072E+00 -0.9496212625587E+00  0.0000000000000E+00
 0.7145578737767E+00 -0.8816960355999E+00  0.0000000000000E+00
 0.7174261444133E+00 -0.8136912408991E+00  0.0000000000000E+00
 0.7194465237104E+00 -0.7456224003186E+00  0.0000000000000E+00
 0.7205764854380E+00 -0.6775165944084E+00  0.0000000000000E+00
 0.7209891026047E+00 -0.6094072994359E+00  0.0000000000000E+00
 0.7192810771664E+00 -0.5415172802740E+00  0.0000000000000E+00
 0.7140934985165E+00 -0.4748000932170E+00  0.0000000000000E+00
 0.6886903652351E+00 -0.1692394297536E+01  0.0000000000000E+00
 0.6927176023816E+00 -0.1622088924415E+01  0.0000000000000E+00
 0.6975340867727E+00 -0.1551935773080E+01  0.0000000000000E+00
 0.7033376554643E+00 -0.1482013883727E+01  0.0000000000000E+00
 0.7103888483534E+00 -0.1412453964924E+01  0.0000000000000E+00
 0.7185665991058E+00 -0.1343260677450E+01  0.0000000000000E+00
 0.7268552978490E+00 -0.1274004642540E+01  0.0000000000000E+00
 0.7347099293146E+00 -0.1204469702875E+01  0.0000000000000E+00
 0.7420829990631E+00 -0.1134687390868E+01  0.0000000000000E+00
 0.7489423367946E+00 -0.1064706121439E+01  0.0000000000000E+00
 0.7551670327006E+00 -0.9945502493794E+00  0.0000000000000E+00
 0.7605793969537E+00 -0.9242301511490E+00  0.0000000000000E+00
 0.7650871040769E+00 -0.8537718287581E+00  0.0000000000000E+00
 0.7686080948315E+00 -0.7831983986016E+00  0.0000000000000E+00
 0.7710141977424E+00 -0.7125323755530E+00  0.0000000000000E+00
 0.7722317256061E+00 -0.6418135166660E+00  0.0000000000000E+00
 0.7725052738146E+00 -0.5710911361576E+00  0.0000000000000E+00
 0.7697140135745E+00 -0.5006987682796E+00  0.0000000000000E+00
 0.7618047820783E+00 -0.4320662481480E+00  0.0000000000000E+00
 0.7196546465161E+00 -0.1692660172748E+01  0.0000000000000E+00
 0.7249395918170E+00 -0.1619875943648E+01  0.0000000000000E+00
 0.7312092936854E+00 -0.1547294285363E+01  0.0000000000000E+00
 0.7387176701125E+00 -0.1475020253788E+01  0.0000000000000E+00
 0.7478015205931E+00 -0.1403227709276E+01  0.0000000000000E+00
 0.7582894141255E+00 -0.1331922263812E+01  0.0000000000000E+00
 0.7688206054822E+00 -0.1260530838125E+01  0.0000000000000E+00
 0.7786702348837E+00 -0.1188764710478E+01  0.0000000000000E+00
 0.7877917567151E+00 -0.1116666035182E+01  0.0000000000000E+00
 0.7961781097513E+00 -0.1044300324826E+01  0.0000000000000E+00
 0.8037182736528E+00 -0.9717018109855E+00  0.0000000000000E+00
 0.8102255213957E+00 -0.8988860874001E+00  0.0000000000000E+00
 0.8156125848748E+00 -0.8258887826165E+00  0.0000000000000E+00
 0.8197868320404E+00 -0.7527408300988E+00  0.0000000000000E+00
 0.8225791948393E+00 -0.6794717378281E+00  0.0000000000000E+00
 0.8238848251146E+00 -0.6061339391370E+00  0.0000000000000E+00
 0.8240198405976E+00 -0.5327925866896E+00  0.0000000000000E+00
 0.8201458809002E+00 -0.4598919932551E+00  0.0000000000000E+00
 0.8095155311481E+00 -0.3893382711694E+00  0.0000000000000E+00
 0.7506083144858E+00 -0.1693037687890E+01  0.0000000000000E+00
 0.7571515268004E+00 -0.1617768724388E+01  0.0000000000000E+00
 0.7648750050008E+00 -0.1542752680822E+01  0.0000000000000E+00
 0.7740887480037E+00 -0.1468120628908E+01  0.0000000000000E+00
 0.7852058148974E+00 -0.1394089580847E+01  0.0000000000000E+00
 0.7980044100952E+00 -0.1320666098949E+01  0.0000000000000E+00
 0.8107786529419E+00 -0.1247133404121E+01  0.0000000000000E+00
 0.8226238391398E+00 -0.1173130210237E+01  0.0000000000000E+00
 0.8334943719163E+00 -0.1098709293313E+01  0.0000000000000E+00
 0.8434082991177E+00 -0.1023953263659E+01  0.0000000000000E+00
 0.8522644898690E+00 -0.9489062296793E+00  0.0000000000000E+00
 0.8598671799488E+00 -0.8735890024040E+00  0.0000000000000E+00
 0.8661341586265E+00 -0.7980468368884E+00  0.0000000000000E+00
 0.8709622210352E+00 -0.7223184837249E+00  0.0000000000000E+00
 0.8741414025340E+00 -0.6464404440986E+00  0.0000000000000E+00
 0.8755356940330E+00 -0.5704778273969E+00  0.0000000000000E+00
 0.8755327355573E+00 -0.4945116252270E+00  0.0000000000000E+00
 0.8705766342406E+00 -0.4190969380022E+00  0.0000000000000E+00
 0.8572257232791E+00 -0.3466161536803E+00  0.0000000000000E+00
 0.7815509432313E+00 -0.1693526672682E+01  0.0000000000000E+00
 0.7893530038481E+00 -0.1615767105320E+01  0.0000000000000E+00
 0.7985308396653E+00 -0.1538310807107E+01  0.0000000000000E+00
 0.8094505305145E+00 -0.1461314865704E+01  0.0000000000000E+00
 0.8226013950733E+00 -0.1385039445222E+01  0.0000000000000E+00
 0.8377112732565E+00 -0.1309492057412E+01  0.0000000000000E+00
 0.8527291489033E+00 -0.1233812224044E+01  0.0000000000000E+00
 0.8665704731897E+00 -0.1157566094634E+01  0.0000000000000E+00
 0.8791905982052E+00 -0.1080817066708E+01  0.0000000000000E+00
 0.8906326808624E+00 -0.1003664848353E+01  0.0000000000000E+00
 0.9008054797473E+00 -0.9261634248400E+00  0.0000000000000E+00
 0.9095041934393E+00 -0.8483388245051E+00  0.0000000000000E+00
 0.9166516685853E+00 -0.7702459288830E+00  0.0000000000000E+00
 0.9221341274954E+00 -0.6919313057536E+00  0.0000000000000E+00
 0.9257007089301E+00 -0.6134384496025E+00  0.0000000000000E+00
 0.9271842428878E+00 -0.5348451456479E+00  0.0000000000000E+00
 0.9270438916406E+00 -0.4562482249355E+00  0.0000000000000E+00
 0.9210062289222E+00 -0.3783135846360E+00  0.0000000000000E+00
 0.9049353361397E+00 -0.3038998867360E+00  0.0000000000000E+00
 0.8124820990011E+00 -0.1694126949326E+01  0.0000000000000E+00
 0.8215436119809E+00 -0.1613870918028E+01  0.0000000000000E+00
 0.8321764094502E+00 -0.1533968505178E+01  0.0000000000000E+00
 0.8448026521377E+00 -0.1454602814503E+01  0.0000000000000E+00
 0.8599879182983E+00 -0.1376077162078E+01  0.0000000000000E+00
 0.8774096834423E+00 -0.1298400008221E+01  0.0000000000000E+00
 0.8946717958622E+00 -0.1220567176258E+01  0.0000000000000E+00
 0.9105098622195E+00 -0.1142072251388E+01  0.0000000000000E+00
 0.9248801834856E+00 -0.1062989252451E+01  0.0000000000000E+00
 0.9378510256317E+00 -0.9834349853607E+00  0.0000000000000E+00
 0.9493410366997E+00 -0.9034733122990E+00  0.0000000000000E+00
 0.9591363780693E+00 -0.8231354789182E+00  0.0000000000000E+00
 0.9671649537677E+00 -0.7424859932034E+00  0.0000000000000E+00
 0.9733024132764E+00 -0.6615792401804E+00  0.0000000000000E+00
 0.9772569987510E+00 -0.5804657077303E+00  0.0000000000000E+00
 0.9788303793041E+00 -0.4992358566774E+00  0.0000000000000E+00
 0.9785532393974E+00 -0.4180023579992E+00  0.0000000000000E+00
 0.9714346184875E+00 -0.3375419147100E+00  0.0000000000000E+00
 0.9526443464158E+00 -0.2611894611816E+00  0.0000000000000E+00
 0.8434013664357E+00 -0.1694838335189E+01  0.0000000000000E+00
 0.8537229577554E+00 -0.1612079989481E+01  0.0000000000000E+00
 0.8658113428418E+00 -0.1529725611613E+01  0.0000000000000E+00
 0.8801447633080E+00 -0.1447984321494E+01  0.0000000000000E+00
 0.8973650569782E+00 -0.1367202587227E+01  0.0000000000000E+00
 0.9170993350532E+00 -0.1287389816818E+01  0.0000000000000E+00
 0.9366063102086E+00 -0.1207398135833E+01  0.0000000000000E+00
 0.9544417445893E+00 -0.1126648565190E+01  0.0000000000000E+00
 0.9705628880695E+00 -0.1045225744848E+01  0.0000000000000E+00
 0.9850631156734E+00 -0.9632635785991E+00  0.0000000000000E+00
 0.9978709648940E+00 -0.8808358055787E+00  0.0000000000000E+00
 0.1008763559910E+01 -0.7979788887677E+00  0.0000000000000E+00
 0.1017673862132E+01 -0.7147669625726E+00  0.0000000000000E+00
 0.1024466948207E+01 -0.6312622293241E+00  0.0000000000000E+00
 0.1028810163675E+01 -0.5475221703943E+00  0.0000000000000E+00
 0.1030474016787E+01 -0.4636499219902E+00  0.0000000000000E+00
 0.1030060714142E+01 -0.3797739955145E+00  0.0000000000000E+00
 0.1021861759954E+01 -0.2967819089046E+00  0.0000000000000E+00
 0.1000352732676E+01 -0.2184848673123E+00  0.0000000000000E+00
 0.8743083292160E+00 -0.1695660641007E+01  0.0000000000000E+00
 0.8858906467958E+00 -0.1610394140375E+01  0.0000000000000E+00
 0.8994352674149E+00 -0.1525581957067E+01  0.0000000000000E+00
 0.9154765135586E+00 -0.1441459227297E+01  0.0000000000000E+00
 0.9347324826162E+00 -0.1358415571256E+01  0.0000000000000E+00
 0.9567799215746E+00 -0.1276461343761E+01  0.0000000000000E+00
 0.9785324074072E+00 -0.1194304973301E+01  0.0000000000000E+00
 0.9983658577340E+00 -0.1111294916539E+01  0.0000000000000E+00
 0.1016238471353E+01 -0.1027526434362E+01  0.0000000000000E+00
 0.1032268732337E+01 -0.9431505284951E+00  0.0000000000000E+00
 0.1046395067625E+01 -0.8582508150666E+00  0.0000000000000E+00
 0.1058385564193E+01 -0.7728689743992E+00  0.0000000000000E+00
 0.1068178240839E+01 -0.6870887672930E+00  0.0000000000000E+00
 0.1075627601367E+01 -0.6009802134425E+00  0.0000000000000E+00
 0.1080360094693E+01 -0.5146077878065E+00  0.0000000000000E+00
 0.1082115068229E+01 -0.4280873017517E+00  0.0000000000000E+00
 0.1081566250656E+01 -0.3415631075997E+00  0.0000000000000E+00
 0.1072287609923E+01 -0.2560335472787E+00  0.0000000000000E+00
 0.1048060473251E+01 -0.1757860951357E+00  0.0000000000000E+00
 0.9052025707781E+00 -0.1696593670959E+01  0.0000000000000E+00
 0.9180462844761E+00 -0.1608813185199E+01  0.0000000000000E+00
 0.9330478104822E+00 -0.1521537366339E+01  0.0000000000000E+00
 0.9507975521418E+00 -0.1435027367020E+01  0.0000000000000E+00
 0.9720898664051E+00 -0.1349715959582E+01  0.0000000000000E+00
 0.9964511361435E+00 -0.1265614444782E+01  0.0000000000000E+00
 0.1020449802539E+01 -0.1181287554705E+01  0.0000000000000E+00
 0.1042281938676E+01 -0.1096011181789E+01  0.0000000000000E+00
 0.1061906692299E+01 -0.1009891207660E+01  0.0000000000000E+00
 0.1079467656524E+01 -0.9230957320237E+00  0.0000000000000E+00
 0.1094913147732E+01 -0.8357182480476E+00  0.0000000000000E+00
 0.1108002215695E+01 -0.7478056534076E+00  0.0000000000000E+00
 0.1118677936601E+01 -0.6594513352690E+00  0.0000000000000E+00
 0.1126784241405E+01 -0.5707331307489E+00  0.0000000000000E+00
 0.1131906682383E+01 -0.4817225084889E+00  0.0000000000000E+00
 0.1133753446136E+01 -0.3925479547930E+00  0.0000000000000E+00
 0.1133069783374E+01 -0.3033696633937E+00  0.0000000000000E+00
 0.1122712124713E+01 -0.2152968092632E+00  0.0000000000000E+00
 0.1095767546307E+01 -0.1330931343643E+00  0.0000000000000E+00
 0.9360836771012E+00 -0.1697637222998E+01  0.0000000000000E+00
 0.9501894785799E+00 -0.1607336932545E+01  0.0000000000000E+00
 0.9666486016325E+00 -0.1517591658659E+01  0.0000000000000E+00
 0.9861075304526E+00 -0.1428688570531E+01  0.0000000000000E+00
 0.1009436881547E+01 -0.1341103592713E+01  0.0000000000000E+00
 0.1036112673774E+01 -0.1254848971027E+01  0.0000000000000E+00
 0.1062358212428E+01 -0.1168345741829E+01  0.0000000000000E+00
 0.1086189726049E+01 -0.1080797233366E+01  0.0000000000000E+00
 0.1107567311349E+01 -0.9923199478029E+00  0.0000000000000E+00
 0.1126659670482E+01 -0.9030990828862E+00  0.0000000000000E+00
 0.1143425009267E+01 -0.8132380088607E+00  0.0000000000000E+00
 0.1157613340271E+01 -0.7227888407692E+00  0.0000000000000E+00
 0.1169172797073E+01 -0.6318545921137E+00  0.0000000000000E+00
 0.1177936737775E+01 -0.5405209174934E+00  0.0000000000000E+00
 0.1183449817999E+01 -0.4488662793275E+00  0.0000000000000E+00
 0.1185389063559E+01 -0.3570318386362E+00  0.0000000000000E+00
 0.1184571247138E+01 -0.2651936310542E+00  0.0000000000000E+00
 0.1173135260919E+01 -0.1745716736346E+00  0.0000000000000E+00
 0.1143473930147E+01 -0.9040597438278E-01  0.0000000000000E+00
 0.9669512274189E+00 -0.1698791087767E+01  0.0000000000000E+00
 0.9823198304356E+00 -0.1605965184095E+01  0.0000000000000E+00
 0.1000237264269E+01 -0.1513744646745E+01  0.0000000000000E+00
 0.1021406093943E+01 -0.1422442661578E+01  0.0000000000000E+00
 0.1046773195509E+01 -0.1332578305411E+01  0.0000000000000E+00
 0.1075764223922E+01 -0.1244164768264E+01  0.0000000000000E+00
 0.1104257348526E+01 -0.1155479391450E+01  0.0000000000000E+00
 0.1130088953323E+01 -0.1065652939060E+01  0.0000000000000E+00
 0.1153220084018E+01 -0.9748125336096E+00  0.0000000000000E+00
 0.1173844551794E+01 -0.8831604709323E+00  0.0000000000000E+00
 0.1191930451903E+01 -0.7908099983938E+00  0.0000000000000E+00
 0.1207218759703E+01 -0.6978184484149E+00  0.0000000000000E+00
 0.1219662666172E+01 -0.6042984608059E+00  0.0000000000000E+00
 0.1229084956548E+01 -0.5103435077058E+00  0.0000000000000E+00
 0.1234989389793E+01 -0.4160390454063E+00  0.0000000000000E+00
 0.1237021830960E+01 -0.3215389094206E+00  0.0000000000000E+00
 0.1236070574644E+01 -0.2270349777752E+00  0.0000000000000E+00
 0.1223556973529E+01 -0.1338581186130E+00  0.0000000000000E+00
 0.1191179602188E+01 -0.4772460436371E-01  0.0000000000000E+00
 0.9978048126931E+00 -0.1700055050828E+01  0.0000000000000E+00
 0.1014436952546E+01 -0.1604697736702E+01  0.0000000000000E+00
 0.1033813432435E+01 -0.1509996138743E+01  0.0000000000000E+00
 0.1056692898198E+01 -0.1416289459594E+01  0.0000000000000E+00
 0.1084098485417E+01 -0.1324139928402E+01  0.0000000000000E+00
 0.1115405485257E+01 -0.1233561678510E+01  0.0000000000000E+00
 0.1146146931048E+01 -0.1142688356877E+01  0.0000000000000E+00
 0.1173979362256E+01 -0.1050578163472E+01  0.0000000000000E+00
 0.1198864773607E+01 -0.9573688409702E+00  0.0000000000000E+00
 0.1221022085302E+01 -0.8632797833433E+00  0.0000000000000E+00
 0.1240429282021E+01 -0.7684341151186E+00  0.0000000000000E+00
 0.1256818301914E+01 -0.6728943861069E+00  0.0000000000000E+00
 0.1270147393358E+01 -0.5767828623979E+00  0.0000000000000E+00
 0.1280228768722E+01 -0.4802008337283E+00  0.0000000000000E+00
 0.1286525290297E+01 -0.3832407503566E+00  0.0000000000000E+00
 0.1288651662409E+01 -0.2860691220672E+00  0.0000000000000E+00
 0.1287567701494E+01 -0.1888936697665E+00  0.0000000000000E+00
 0.1273977219637E+01 -0.9315612167893E-01  0.0000000000000E+00
 0.1238884540982E+01 -0.5049013045557E-02  0.0000000000000E+00
 0.1028644034966E+01 -0.1701428892817E+01  0.0000000000000E+00
 0.1046540467967E+01 -0.1603534382536E+01  0.0000000000000E+00
 0.1067376750223E+01 -0.1506345938358E+01  0.0000000000000E+00
 0.1091967608368E+01 -0.1410228779832E+01  0.0000000000000E+00
 0.1121412437513E+01 -0.1315788288493E+01  0.0000000000000E+00
 0.1155036165145E+01 -0.1223039540143E+01  0.0000000000000E+00
 0.1188026688472E+01 -0.1129972488054E+01  0.0000000000000E+00
 0.1217860702418E+01 -0.1035572768105E+01  0.0000000000000E+00
 0.1244501150748E+01 -0.9399887429363E+00  0.0000000000000E+00
 0.1268192062681E+01 -0.8434569047128E+00  0.0000000000000E+00
 0.1288921312318E+01 -0.7461102551647E+00  0.0000000000000E+00
 0.1306411800597E+01 -0.6480165615055E+00  0.0000000000000E+00
 0.1320626833301E+01 -0.5493077160762E+00  0.0000000000000E+00
 0.1331368049922E+01 -0.4500928262700E+00  0.0000000000000E+00
 0.1338057416065E+01 -0.3504713364071E+00  0.0000000000000E+00
 0.1340278475353E+01 -0.2506224303227E+00  0.0000000000000E+00
 0.1339062566007E+01 -0.1507696722917E+00  0.0000000000000E+00
 0.1324395958307E+01 -0.5246565960526E-01  0.0000000000000E+00
 0.1286588726141E+01  0.3762081124632E-01  0.0000000000000E+00
 0.1059468491065E+01 -0.1702912387465E+01  0.0000000000000E+00
 0.1078629994763E+01 -0.1602474907241E+01  0.0000000000000E+00
 0.1100926856931E+01 -0.1502793843147E+01  0.0000000000000E+00
 0.1127229884989E+01 -0.1404260431761E+01  0.0000000000000E+00
 0.1158714733573E+01 -0.1307523207068E+01  0.0000000000000E+00
 0.1194655966603E+01 -0.1212598186461E+01  0.0000000000000E+00
 0.1229896345061E+01 -0.1117331630195E+01  0.0000000000000E+00
 0.1261732719309E+01 -0.1020636610086E+01  0.0000000000000E+00
 0.1290128982182E+01 -0.9226721085503E+00  0.0000000000000E+00
 0.1315354271908E+01 -0.8236917159966E+00  0.0000000000000E+00
 0.1337406352004E+01 -0.7238383114011E+00  0.0000000000000E+00
 0.1355999086198E+01 -0.6231848793920E+00  0.0000000000000E+00
 0.1371100837678E+01 -0.5218729385342E+00  0.0000000000000E+00
 0.1382502673051E+01 -0.4200194139358E+00  0.0000000000000E+00
 0.1389585661224E+01 -0.3177307440737E+00  0.0000000000000E+00
 0.1391902185146E+01 -0.2151987866139E+00  0.0000000000000E+00
 0.1390555104757E+01 -0.1126629496880E+00  0.0000000000000E+00
 0.1374813147288E+01 -0.1178670862095E-01  0.0000000000000E+00
 0.1334292136548E+01  0.8028488040207E-01  0.0000000000000E+00
 0.1090277780720E+01 -0.1704505302632E+01  0.0000000000000E+00
 0.1110705153744E+01 -0.1601519090897E+01  0.0000000000000E+00
 0.1134463394454E+01 -0.1499339645413E+01  0.0000000000000E+00
 0.1162479391042E+01 -0.1398384219907E+01  0.0000000000000E+00
 0.1196005057665E+01 -0.1299344500874E+01  0.0000000000000E+00
 0.1234264594794E+01 -0.1202237446439E+01  0.0000000000000E+00
 0.1271755627067E+01 -0.1104765624500E+01  0.0000000000000E+00
 0.1305595160272E+01 -0.1005769542839E+01  0.0000000000000E+00
 0.1335748036337E+01 -0.9054188034578E+00  0.0000000000000E+00
 0.1362508502496E+01 -0.8039840950629E+00  0.0000000000000E+00
 0.1385884211676E+01 -0.7016181739175E+00  0.0000000000000E+00
 0.1405579990391E+01 -0.5983992420775E+00  0.0000000000000E+00
 0.1421569259242E+01 -0.4944784443039E+00  0.0000000000000E+00
 0.1433632511940E+01 -0.3899805234782E+00  0.0000000000000E+00
 0.1441109920678E+01 -0.2850189123287E+00  0.0000000000000E+00
 0.1443522707758E+01 -0.1797981421330E+00  0.0000000000000E+00
 0.1442045254780E+01 -0.7457346536650E-01  0.0000000000000E+00
 0.1425228744639E+01  0.2888075566284E-01  0.0000000000000E+00
 0.1381994751242E+01  0.1229432066213E+00  0.0000000000000E+00
 0.1121071483195E+01 -0.1706207397020E+01  0.0000000000000E+00
 0.1142765546172E+01 -0.1600666704959E+01  0.0000000000000E+00
 0.1167985985999E+01 -0.1495983129350E+01  0.0000000000000E+00
 0.1197715771612E+01 -0.1392599941181E+01  0.0000000000000E+00
 0.1233283076667E+01 -0.1291251979511E+01  0.0000000000000E+00
 0.1273861738317E+01 -0.1191957142331E+01  0.0000000000000E+00
 0.1313604244830E+01 -0.1092274305885E+01  0.0000000000000E+00
 0.1349447757450E+01 -0.9909714139681E+00  0.0000000000000E+00
 0.1381358067225E+01 -0.8882286879731E+00  0.0000000000000E+00
 0.1409654530383E+01 -0.7843339149532E+00  0.0000000000000E+00
 0.1434354689253E+01 -0.6794497284982E+00  0.0000000000000E+00
 0.1455154333136E+01 -0.5736595481023E+00  0.0000000000000E+00
 0.1472031940047E+01 -0.4671241446931E+00  0.0000000000000E+00
 0.1484757430797E+01 -0.3599760789818E+00  0.0000000000000E+00
 0.1492630080857E+01 -0.2523357780405E+00  0.0000000000000E+00
 0.1495139951924E+01 -0.1444204465366E+00  0.0000000000000E+00
 0.1493532947170E+01 -0.3650118177095E-01  0.0000000000000E+00
 0.1475642704025E+01  0.6953675806361E-01  0.0000000000000E+00
 0.1429696546851E+01  0.1655958021522E+00  0.0000000000000E+00
 0.1151849225537E+01 -0.1708018429846E+01  0.0000000000000E+00
 0.1174810818886E+01 -0.1599917521276E+01  0.0000000000000E+00
 0.1201494298248E+01 -0.1492724079452E+01  0.0000000000000E+00
 0.1232938713290E+01 -0.1386907392741E+01  0.0000000000000E+00
 0.1270548497160E+01 -0.1283245452831E+01  0.0000000000000E+00
 0.1313447123819E+01 -0.1181757096718E+01  0.0000000000000E+00
 0.1355441945044E+01 -0.1079857509653E+01  0.0000000000000E+00
 0.1393290277519E+01 -0.9762420714703E+00  0.0000000000000E+00
 0.1426958861442E+01 -0.8711016227676E+00  0.0000000000000E+00
 0.1456792162028E+01 -0.7647410489956E+00  0.0000000000000E+00
 0.1482817611003E+01 -0.6573328611127E+00  0.0000000000000E+00
 0.1504721960451E+01 -0.5489656960643E+00  0.0000000000000E+00
 0.1522488745806E+01 -0.4398099509165E+00  0.0000000000000E+00
 0.1535877314972E+01 -0.3300060042687E+00  0.0000000000000E+00
 0.1544146046680E+01 -0.2196812776313E+00  0.0000000000000E+00
 0.1546753842050E+01 -0.1090656488427E+00  0.0000000000000E+00
 0.1545018125764E+01  0.1553939485620E-02  0.0000000000000E+00
 0.1526054988436E+01  0.1101813243664E+00  0.0000000000000E+00
 0.1477397505075E+01  0.2082426800443E+00  0.0000000000000E+00
 0.1182610616693E+01 -0.1709938151813E+01  0.0000000000000E+00
 0.1206840601434E+01 -0.1599271303676E+01  0.0000000000000E+00
 0.1234987981351E+01 -0.1489562272670E+01  0.0000000000000E+00
 0.1268147886829E+01 -0.1381306364667E+01  0.0000000000000E+00
 0.1307801010505E+01 -0.1275324724039E+01  0.0000000000000E+00
 0.1353020463274E+01 -0.1171637125933E+01  0.0000000000000E+00
 0.1397268460295E+01 -0.1067515065265E+01  0.0000000000000E+00
 0.1437122473674E+01 -0.9615813579356E+00  0.0000000000000E+00
 0.1472550192790E+01 -0.8540374635575E+00  0.0000000000000E+00
 0.1503921191834E+01 -0.7452053660319E+00  0.0000000000000E+00
 0.1531272791928E+01 -0.6352674537278E+00  0.0000000000000E+00
 0.1554282707934E+01 -0.5243175810539E+00  0.0000000000000E+00
 0.1572939532713E+01 -0.4125357711880E+00  0.0000000000000E+00
 0.1586992041247E+01 -0.3000702206755E+00  0.0000000000000E+00
 0.1595657715515E+01 -0.1870553455593E+00  0.0000000000000E+00
 0.1598364296089E+01 -0.7373369663145E-01  0.0000000000000E+00
 0.1596500729092E+01  0.3959193770200E-01  0.0000000000000E+00
 0.1576465556935E+01  0.1508144807688E+00  0.0000000000000E+00
 0.1525097605457E+01  0.2508838534040E+00  0.0000000000000E+00
-0.6299559715430E+00 -0.4448788635045E+00  0.0000000000000E+00
-0.6714480734955E+00 -0.4002935756204E+00  0.0000000000000E+00
-0.7129401754481E+00 -0.3557082877364E+00  0.0000000000000E+00
-0.7544322774006E+00 -0.3111229998524E+00  0.0000000000000E+00
-0.7959243793531E+00 -0.2665377119684E+00  0.0000000000000E+00
-0.8374164813057E+00 -0.2219524240844E+00  0.0000000000000E+00
-0.8789085832582E+00 -0.1773671362004E+00  0.0000000000000E+00
-0.9204006852108E+00 -0.1327818483163E+00  0.0000000000000E+00
-0.9618927871633E+00 -0.8819656043232E-01  0.0000000000000E+00
-0.1003384889116E+01 -0.4361127254831E-01  0.0000000000000E+00
-0.1044876991068E+01  0.9740153357094E-03  0.0000000000000E+00
-0.1086369093021E+01  0.4555930321973E-01  0.0000000000000E+00
-0.1127861194973E+01  0.9014459110374E-01  0.0000000000000E+00
-0.1169353296926E+01  0.1347298789878E+00  0.0000000000000E+00
-0.1210845398879E+01  0.1793151668718E+00  0.0000000000000E+00
-0.1252337500831E+01  0.2239004547558E+00  0.0000000000000E+00
-0.1293829602784E+01  0.2684857426398E+00  0.0000000000000E+00
-0.1335321704736E+01  0.3130710305238E+00  0.0000000000000E+00
-0.1376813806689E+01  0.3576563184078E+00  0.0000000000000E+00
-0.5974622415961E+00 -0.4366441451899E+00  0.0000000000000E+00
-0.6368419585758E+00 -0.3913664749580E+00  0.0000000000000E+00
-0.6762216755556E+00 -0.3460888047261E+00  0.0000000000000E+00
-0.7156013925353E+00 -0.3008111344942E+00  0.0000000000000E+00
-0.7549811095150E+00 -0.2555334642623E+00  0.0000000000000E+00
-0.7943608264947E+00 -0.2102557940303E+00  0.0000000000000E+00
-0.8337405434744E+00 -0.1649781237984E+00  0.0000000000000E+00
-0.8731202604541E+00 -0.1197004535665E+00  0.0000000000000E+00
-0.9124999774338E+00 -0.7442278333461E-01  0.0000000000000E+00
-0.9518796944135E+00 -0.2914511310269E-01  0.0000000000000E+00
-0.9912594113932E+00  0.1613255712922E-01  0.0000000000000E+00
-0.1030639128373E+01  0.6141022736114E-01  0.0000000000000E+00
-0.1070018845353E+01  0.1066878975930E+00  0.0000000000000E+00
-0.1109398562332E+01  0.1519655678250E+00  0.0000000000000E+00
-0.1148778279312E+01  0.1972432380569E+00  0.0000000000000E+00
-0.1188157996292E+01  0.2425209082888E+00  0.0000000000000E+00
-0.1227537713272E+01  0.2877985785207E+00  0.0000000000000E+00
-0.1266917430251E+01  0.3330762487526E+00  0.0000000000000E+00
-0.1306297147231E+01  0.3783539189845E+00  0.0000000000000E+00
-0.5647851637629E+00 -0.4291779471807E+00  0.0000000000000E+00
-0.6019607642087E+00 -0.3835976335802E+00  0.0000000000000E+00
-0.6391363646544E+00 -0.3380173199797E+00  0.0000000000000E+00
-0.6763119651002E+00 -0.2924370063792E+00  0.0000000000000E+00
-0.7134875655459E+00 -0.2468566927788E+00  0.0000000000000E+00
-0.7506631659917E+00 -0.2012763791783E+00  0.0000000000000E+00
-0.7878387664375E+00 -0.1556960655778E+00  0.0000000000000E+00
-0.8250143668832E+00 -0.1101157519773E+00  0.0000000000000E+00
-0.8621899673290E+00 -0.6453543837680E-01  0.0000000000000E+00
-0.8993655677748E+00 -0.1895512477632E-01  0.0000000000000E+00
-0.9365411682205E+00  0.2662518882417E-01  0.0000000000000E+00
-0.9737167686663E+00  0.7220550242466E-01  0.0000000000000E+00
-0.1010892369112E+01  0.1177858160251E+00  0.0000000000000E+00
-0.1048067969558E+01  0.1633661296256E+00  0.0000000000000E+00
-0.1085243570004E+01  0.2089464432261E+00  0.0000000000000E+00
-0.1122419170449E+01  0.2545267568266E+00  0.0000000000000E+00
-0.1159594770895E+01  0.3001070704271E+00  0.0000000000000E+00
-0.1196770371341E+01  0.3456873840276E+00  0.0000000000000E+00
-0.1233945971787E+01  0.3912676976281E+00  0.0000000000000E+00
-0.5319747863850E+00 -0.4224941396796E+00  0.0000000000000E+00
-0.5669005038771E+00 -0.3770102860137E+00  0.0000000000000E+00
-0.6018262213692E+00 -0.3315264323477E+00  0.0000000000000E+00
-0.6367519388613E+00 -0.2860425786818E+00  0.0000000000000E+00
-0.6716776563534E+00 -0.2405587250158E+00  0.0000000000000E+00
-0.7066033738455E+00 -0.1950748713499E+00  0.0000000000000E+00
-0.7415290913375E+00 -0.1495910176839E+00  0.0000000000000E+00
-0.7764548088296E+00 -0.1041071640180E+00  0.0000000000000E+00
-0.8113805263217E+00 -0.5862331035200E-01  0.0000000000000E+00
-0.8463062438138E+00 -0.1313945668605E-01  0.0000000000000E+00
-0.8812319613059E+00  0.3234439697990E-01  0.0000000000000E+00
-0.9161576787979E+00  0.7782825064585E-01  0.0000000000000E+00
-0.9510833962900E+00  0.1233121043118E+00  0.0000000000000E+00
-0.9860091137821E+00  0.1687959579778E+00  0.0000000000000E+00
-0.1020934831274E+01  0.2142798116437E+00  0.0000000000000E+00
-0.1055860548766E+01  0.2597636653097E+00  0.0000000000000E+00
-0.1090786266258E+01  0.3052475189756E+00  0.0000000000000E+00
-0.1125711983750E+01  0.3507313726416E+00  0.0000000000000E+00
-0.1160637701243E+01  0.3962152263075E+00  0.0000000000000E+00
-0.4990802666255E+00 -0.4165840327232E+00  0.0000000000000E+00
-0.5317553219230E+00 -0.3715827348048E+00  0.0000000000000E+00
-0.5644303772205E+00 -0.3265814368864E+00  0.0000000000000E+00
-0.5971054325179E+00 -0.2815801389680E+00  0.0000000000000E+00
-0.6297804878154E+00 -0.2365788410496E+00  0.0000000000000E+00
-0.6624555431129E+00 -0.1915775431312E+00  0.0000000000000E+00
-0.6951305984104E+00 -0.1465762452128E+00  0.0000000000000E+00
-0.7278056537078E+00 -0.1015749472944E+00  0.0000000000000E+00
-0.7604807090053E+00 -0.5657364937598E-01  0.0000000000000E+00
-0.7931557643028E+00 -0.1157235145757E-01  0.0000000000000E+00
-0.8258308196003E+00  0.3342894646083E-01  0.0000000000000E+00
-0.8585058748978E+00  0.7843024437923E-01  0.0000000000000E+00
-0.8911809301952E+00  0.1234315422976E+00  0.0000000000000E+00
-0.9238559854927E+00  0.1684328402160E+00  0.0000000000000E+00
-0.9565310407902E+00  0.2134341381344E+00  0.0000000000000E+00
-0.9892060960877E+00  0.2584354360528E+00  0.0000000000000E+00
-0.1021881151385E+01  0.3034367339713E+00  0.0000000000000E+00
-0.1054556206683E+01  0.3484380318897E+00  0.0000000000000E+00
-0.1087231261980E+01  0.3934393298081E+00  0.0000000000000E+00
-0.4661358894282E+00 -0.4113546120754E+00  0.0000000000000E+00
-0.4965895947067E+00 -0.3671248415236E+00  0.0000000000000E+00
-0.5270432999851E+00 -0.3228950709718E+00  0.0000000000000E+00
-0.5574970052636E+00 -0.2786653004201E+00  0.0000000000000E+00
-0.5879507105420E+00 -0.2344355298683E+00  0.0000000000000E+00
-0.6184044158205E+00 -0.1902057593165E+00  0.0000000000000E+00
-0.6488581210989E+00 -0.1459759887648E+00  0.0000000000000E+00
-0.6793118263774E+00 -0.1017462182130E+00  0.0000000000000E+00
-0.7097655316558E+00 -0.5751644766124E-01  0.0000000000000E+00
-0.7402192369343E+00 -0.1328667710947E-01  0.0000000000000E+00
-0.7706729422127E+00  0.3094309344230E-01  0.0000000000000E+00
-0.8011266474912E+00  0.7517286399407E-01  0.0000000000000E+00
-0.8315803527696E+00  0.1194026345458E+00  0.0000000000000E+00
-0.8620340580481E+00  0.1636324050976E+00  0.0000000000000E+00
-0.8924877633265E+00  0.2078621756494E+00  0.0000000000000E+00
-0.9229414686050E+00  0.2520919462011E+00  0.0000000000000E+00
-0.9533951738834E+00  0.2963217167529E+00  0.0000000000000E+00
-0.9838488791619E+00  0.3405514873047E+00  0.0000000000000E+00
-0.1014302584440E+01  0.3847812578564E+00  0.0000000000000E+00
-0.4331566793992E+00 -0.4067328540872E+00  0.0000000000000E+00
-0.4614288249452E+00 -0.3634866017615E+00  0.0000000000000E+00
-0.4897009704912E+00 -0.3202403494357E+00  0.0000000000000E+00
-0.5179731160371E+00 -0.2769940971100E+00  0.0000000000000E+00
-0.5462452615831E+00 -0.2337478447842E+00  0.0000000000000E+00
-0.5745174071291E+00 -0.1905015924585E+00  0.0000000000000E+00
-0.6027895526750E+00 -0.1472553401327E+00  0.0000000000000E+00
-0.6310616982210E+00 -0.1040090878070E+00  0.0000000000000E+00
-0.6593338437670E+00 -0.6076283548125E-01  0.0000000000000E+00
-0.6876059893129E+00 -0.1751658315551E-01  0.0000000000000E+00
-0.7158781348589E+00  0.2572966917024E-01  0.0000000000000E+00
-0.7441502804048E+00  0.6897592149599E-01  0.0000000000000E+00
-0.7724224259508E+00  0.1122221738217E+00  0.0000000000000E+00
-0.8006945714968E+00  0.1554684261475E+00  0.0000000000000E+00
-0.8289667170427E+00  0.1987146784732E+00  0.0000000000000E+00
-0.8572388625887E+00  0.2419609307990E+00  0.0000000000000E+00
-0.8855110081347E+00  0.2852071831247E+00  0.0000000000000E+00
-0.9137831536806E+00  0.3284534354505E+00  0.0000000000000E+00
-0.9420552992266E+00  0.3716996877762E+00  0.0000000000000E+00
-0.4001452660089E+00 -0.4026538267990E+00  0.0000000000000E+00
-0.4262736922835E+00 -0.3605344241827E+00  0.0000000000000E+00
-0.4524021185581E+00 -0.3184150215665E+00  0.0000000000000E+00
-0.4785305448327E+00 -0.2762956189502E+00  0.0000000000000E+00
-0.5046589711073E+00 -0.2341762163340E+00  0.0000000000000E+00
-0.5307873973819E+00 -0.1920568137177E+00  0.0000000000000E+00
-0.5569158236565E+00 -0.1499374111015E+00  0.0000000000000E+00
-0.5830442499311E+00 -0.1078180084852E+00  0.0000000000000E+00
-0.6091726762057E+00 -0.6569860586900E-01  0.0000000000000E+00
-0.6353011024803E+00 -0.2357920325275E-01  0.0000000000000E+00
-0.6614295287548E+00  0.1854019936350E-01  0.0000000000000E+00
-0.6875579550294E+00  0.6065960197974E-01  0.0000000000000E+00
-0.7136863813040E+00  0.1027790045960E+00  0.0000000000000E+00
-0.7398148075786E+00  0.1448984072122E+00  0.0000000000000E+00
-0.7659432338532E+00  0.1870178098285E+00  0.0000000000000E+00
-0.7920716601278E+00  0.2291372124447E+00  0.0000000000000E+00
-0.8182000864024E+00  0.2712566150610E+00  0.0000000000000E+00
-0.8443285126770E+00  0.3133760176772E+00  0.0000000000000E+00
-0.8704569389516E+00  0.3554954202935E+00  0.0000000000000E+00
-0.3670941282270E+00 -0.3990479117006E+00  0.0000000000000E+00
-0.3911043433766E+00 -0.3581255480735E+00  0.0000000000000E+00
-0.4151145585263E+00 -0.3172031844463E+00  0.0000000000000E+00
-0.4391247736759E+00 -0.2762808208192E+00  0.0000000000000E+00
-0.4631349888256E+00 -0.2353584571920E+00  0.0000000000000E+00
-0.4871452039753E+00 -0.1944360935648E+00  0.0000000000000E+00
-0.5111554191249E+00 -0.1535137299377E+00  0.0000000000000E+00
-0.5351656342746E+00 -0.1125913663105E+00  0.0000000000000E+00
-0.5591758494243E+00 -0.7166900268338E-01  0.0000000000000E+00
-0.5831860645739E+00 -0.3074663905622E-01  0.0000000000000E+00
-0.6071962797236E+00  0.1017572457094E-01  0.0000000000000E+00
-0.6312064948732E+00  0.5109808819809E-01  0.0000000000000E+00
-0.6552167100229E+00  0.9202045182525E-01  0.0000000000000E+00
-0.6792269251726E+00  0.1329428154524E+00  0.0000000000000E+00
-0.7032371403222E+00  0.1738651790796E+00  0.0000000000000E+00
-0.7272473554719E+00  0.2147875427067E+00  0.0000000000000E+00
-0.7512575706216E+00  0.2557099063339E+00  0.0000000000000E+00
-0.7752677857712E+00  0.2966322699610E+00  0.0000000000000E+00
-0.7992780009209E+00  0.3375546335882E+00  0.0000000000000E+00
-0.3339899907783E+00 -0.3958444358955E+00  0.0000000000000E+00
-0.3558893495395E+00 -0.3561153468993E+00  0.0000000000000E+00
-0.3777887083006E+00 -0.3163862579032E+00  0.0000000000000E+00
-0.3996880670618E+00 -0.2766571689070E+00  0.0000000000000E+00
-0.4215874258230E+00 -0.2369280799109E+00  0.0000000000000E+00
-0.4434867845841E+00 -0.1971989909147E+00  0.0000000000000E+00
-0.4653861433453E+00 -0.1574699019185E+00  0.0000000000000E+00
-0.4872855021064E+00 -0.1177408129224E+00  0.0000000000000E+00
-0.5091848608676E+00 -0.7801172392620E-01  0.0000000000000E+00
-0.5310842196287E+00 -0.3828263493003E-01  0.0000000000000E+00
-0.5529835783899E+00  0.1446454066132E-02  0.0000000000000E+00
-0.5748829371510E+00  0.4117554306230E-01  0.0000000000000E+00
-0.5967822959122E+00  0.8090463205846E-01  0.0000000000000E+00
-0.6186816546733E+00  0.1206337210546E+00  0.0000000000000E+00
-0.6405810134345E+00  0.1603628100508E+00  0.0000000000000E+00
-0.6624803721956E+00  0.2000918990470E+00  0.0000000000000E+00
-0.6843797309568E+00  0.2398209880431E+00  0.0000000000000E+00
-0.7062790897179E+00  0.2795500770393E+00  0.0000000000000E+00
-0.7281784484791E+00  0.3192791660354E+00  0.0000000000000E+00
-0.3008163579508E+00 -0.3929631427710E+00  0.0000000000000E+00
-0.3205906658870E+00 -0.3543402622484E+00  0.0000000000000E+00
-0.3403649738232E+00 -0.3157173817257E+00  0.0000000000000E+00
-0.3601392817595E+00 -0.2770945012030E+00  0.0000000000000E+00
-0.3799135896957E+00 -0.2384716206803E+00  0.0000000000000E+00
-0.3996878976320E+00 -0.1998487401576E+00  0.0000000000000E+00
-0.4194622055682E+00 -0.1612258596350E+00  0.0000000000000E+00
-0.4392365135044E+00 -0.1226029791123E+00  0.0000000000000E+00
-0.4590108214407E+00 -0.8398009858960E-01  0.0000000000000E+00
-0.4787851293769E+00 -0.4535721806692E-01  0.0000000000000E+00
-0.4985594373131E+00 -0.6734337544235E-02  0.0000000000000E+00
-0.5183337452494E+00  0.3188854297845E-01  0.0000000000000E+00
-0.5381080531856E+00  0.7051142350113E-01  0.0000000000000E+00
-0.5578823611218E+00  0.1091343040238E+00  0.0000000000000E+00
-0.5776566690581E+00  0.1477571845465E+00  0.0000000000000E+00
-0.5974309769943E+00  0.1863800650692E+00  0.0000000000000E+00
-0.6172052849306E+00  0.2250029455919E+00  0.0000000000000E+00
-0.6369795928668E+00  0.2636258261145E+00  0.0000000000000E+00
-0.6567539008030E+00  0.3022487066372E+00  0.0000000000000E+00
-0.2675697753590E+00 -0.3903634585794E+00  0.0000000000000E+00
-0.2851962171292E+00 -0.3527163567611E+00  0.0000000000000E+00
-0.3028226588994E+00 -0.3150692549428E+00  0.0000000000000E+00
-0.3204491006696E+00 -0.2774221531245E+00  0.0000000000000E+00
-0.3380755424398E+00 -0.2397750513062E+00  0.0000000000000E+00
-0.3557019842100E+00 -0.2021279494878E+00  0.0000000000000E+00
-0.3733284259802E+00 -0.1644808476695E+00  0.0000000000000E+00
-0.3909548677504E+00 -0.1268337458512E+00  0.0000000000000E+00
-0.4085813095206E+00 -0.8918664403293E-01  0.0000000000000E+00
-0.4262077512908E+00 -0.5153954221463E-01  0.0000000000000E+00
-0.4438341930610E+00 -0.1389244039632E-01  0.0000000000000E+00
-0.4614606348312E+00  0.2375466142199E-01  0.0000000000000E+00
-0.4790870766014E+00  0.6140176324029E-01  0.0000000000000E+00
-0.4967135183717E+00  0.9904886505860E-01  0.0000000000000E+00
-0.5143399601419E+00  0.1366959668769E+00  0.0000000000000E+00
-0.5319664019121E+00  0.1743430686952E+00  0.0000000000000E+00
-0.5495928436823E+00  0.2119901705135E+00  0.0000000000000E+00
-0.5672192854525E+00  0.2496372723318E+00  0.0000000000000E+00
-0.5848457272227E+00  0.2872843741501E+00  0.0000000000000E+00
-0.2342578969919E+00 -0.3880438745316E+00  0.0000000000000E+00
-0.2497160431228E+00 -0.3512380881835E+00  0.0000000000000E+00
-0.2651741892537E+00 -0.3144323018355E+00  0.0000000000000E+00
-0.2806323353846E+00 -0.2776265154874E+00  0.0000000000000E+00
-0.2960904815155E+00 -0.2408207291393E+00  0.0000000000000E+00
-0.3115486276463E+00 -0.2040149427913E+00  0.0000000000000E+00
-0.3270067737772E+00 -0.1672091564432E+00  0.0000000000000E+00
-0.3424649199081E+00 -0.1304033700952E+00  0.0000000000000E+00
-0.3579230660390E+00 -0.9359758374711E-01  0.0000000000000E+00
-0.3733812121699E+00 -0.5679179739905E-01  0.0000000000000E+00
-0.3888393583008E+00 -0.1998601105098E-01  0.0000000000000E+00
-0.4042975044317E+00  0.1681977529708E-01  0.0000000000000E+00
-0.4197556505626E+00  0.5362556164514E-01  0.0000000000000E+00
-0.4352137966935E+00  0.9043134799320E-01  0.0000000000000E+00
-0.4506719428244E+00  0.1272371343413E+00  0.0000000000000E+00
-0.4661300889553E+00  0.1640429206893E+00  0.0000000000000E+00
-0.4815882350862E+00  0.2008487070374E+00  0.0000000000000E+00
-0.4970463812171E+00  0.2376544933854E+00  0.0000000000000E+00
-0.5125045273480E+00  0.2744602797335E+00  0.0000000000000E+00
-0.2008905517879E+00 -0.3860140358384E+00  0.0000000000000E+00
-0.2141644306440E+00 -0.3499224952607E+00  0.0000000000000E+00
-0.2274383095000E+00 -0.3138309546829E+00  0.0000000000000E+00
-0.2407121883561E+00 -0.2777394141052E+00  0.0000000000000E+00
-0.2539860672121E+00 -0.2416478735275E+00  0.0000000000000E+00
-0.2672599460682E+00 -0.2055563329498E+00  0.0000000000000E+00
-0.2805338249242E+00 -0.1694647923721E+00  0.0000000000000E+00
-0.2938077037803E+00 -0.1333732517943E+00  0.0000000000000E+00
-0.3070815826363E+00 -0.9728171121661E-01  0.0000000000000E+00
-0.3203554614924E+00 -0.6119017063889E-01  0.0000000000000E+00
-0.3336293403484E+00 -0.2509863006116E-01  0.0000000000000E+00
-0.3469032192045E+00  0.1099291051656E-01  0.0000000000000E+00
-0.3601770980605E+00  0.4708445109428E-01  0.0000000000000E+00
-0.3734509769166E+00  0.8317599167200E-01  0.0000000000000E+00
-0.3867248557726E+00  0.1192675322497E+00  0.0000000000000E+00
-0.3999987346287E+00  0.1553590728274E+00  0.0000000000000E+00
-0.4132726134847E+00  0.1914506134052E+00  0.0000000000000E+00
-0.4265464923408E+00  0.2275421539829E+00  0.0000000000000E+00
-0.4398203711968E+00  0.2636336945606E+00  0.0000000000000E+00
-0.1674771093533E+00 -0.3842843495524E+00  0.0000000000000E+00
-0.1785546413643E+00 -0.3487884211107E+00  0.0000000000000E+00
-0.1896321733754E+00 -0.3132924926690E+00  0.0000000000000E+00
-0.2007097053864E+00 -0.2777965642273E+00  0.0000000000000E+00
-0.2117872373974E+00 -0.2423006357856E+00  0.0000000000000E+00
-0.2228647694084E+00 -0.2068047073439E+00  0.0000000000000E+00
-0.2339423014194E+00 -0.1713087789022E+00  0.0000000000000E+00
-0.2450198334305E+00 -0.1358128504605E+00  0.0000000000000E+00
-0.2560973654415E+00 -0.1003169220188E+00  0.0000000000000E+00
-0.2671748974525E+00 -0.6482099357711E-01  0.0000000000000E+00
-0.2782524294635E+00 -0.2932506513542E-01  0.0000000000000E+00
-0.2893299614745E+00  0.6170863306275E-02  0.0000000000000E+00
-0.3004074934856E+00  0.4166679174797E-01  0.0000000000000E+00
-0.3114850254966E+00  0.7716272018966E-01  0.0000000000000E+00
-0.3225625575076E+00  0.1126586486314E+00  0.0000000000000E+00
-0.3336400895186E+00  0.1481545770730E+00  0.0000000000000E+00
-0.3447176215296E+00  0.1836505055147E+00  0.0000000000000E+00
-0.3557951535407E+00  0.2191464339564E+00  0.0000000000000E+00
-0.3668726855517E+00  0.2546423623981E+00  0.0000000000000E+00
-0.1340261091775E+00 -0.3828631734966E+00  0.0000000000000E+00
-0.1428982089424E+00 -0.3478509012348E+00  0.0000000000000E+00
-0.1517703087072E+00 -0.3128386289729E+00  0.0000000000000E+00
-0.1606424084721E+00 -0.2778263567111E+00  0.0000000000000E+00
-0.1695145082369E+00 -0.2428140844493E+00  0.0000000000000E+00
-0.1783866080018E+00 -0.2078018121875E+00  0.0000000000000E+00
-0.1872587077666E+00 -0.1727895399257E+00  0.0000000000000E+00
-0.1961308075315E+00 -0.1377772676639E+00  0.0000000000000E+00
-0.2050029072963E+00 -0.1027649954021E+00  0.0000000000000E+00
-0.2138750070612E+00 -0.6775272314032E-01  0.0000000000000E+00
-0.2227471068260E+00 -0.3274045087851E-01  0.0000000000000E+00
-0.2316192065909E+00  0.2271821383293E-02  0.0000000000000E+00
-0.2404913063557E+00  0.3728409364510E-01  0.0000000000000E+00
-0.2493634061206E+00  0.7229636590690E-01  0.0000000000000E+00
-0.2582355058855E+00  0.1073086381687E+00  0.0000000000000E+00
-0.2671076056503E+00  0.1423209104305E+00  0.0000000000000E+00
-0.2759797054152E+00  0.1773331826923E+00  0.0000000000000E+00
-0.2848518051800E+00  0.2123454549541E+00  0.0000000000000E+00
-0.2937239049449E+00  0.2473577272159E+00  0.0000000000000E+00
-0.1005454709900E+00 -0.3817562677518E+00  0.0000000000000E+00
-0.1072053602565E+00 -0.3471200718438E+00  0.0000000000000E+00
-0.1138652495230E+00 -0.3124838759358E+00  0.0000000000000E+00
-0.1205251387895E+00 -0.2778476800278E+00  0.0000000000000E+00
-0.1271850280560E+00 -0.2432114841198E+00  0.0000000000000E+00
-0.1338449173226E+00 -0.2085752882118E+00  0.0000000000000E+00
-0.1405048065891E+00 -0.1739390923039E+00  0.0000000000000E+00
-0.1471646958556E+00 -0.1393028963959E+00  0.0000000000000E+00
-0.1538245851221E+00 -0.1046667004879E+00  0.0000000000000E+00
-0.1604844743886E+00 -0.7003050457989E-01  0.0000000000000E+00
-0.1671443636552E+00 -0.3539430867190E-01  0.0000000000000E+00
-0.1738042529217E+00 -0.7581127639063E-03  0.0000000000000E+00
-0.1804641421882E+00  0.3387808314408E-01  0.0000000000000E+00
-0.1871240314547E+00  0.6851427905207E-01  0.0000000000000E+00
-0.1937839207212E+00  0.1031504749601E+00  0.0000000000000E+00
-0.2004438099878E+00  0.1377866708681E+00  0.0000000000000E+00
-0.2071036992543E+00  0.1724228667760E+00  0.0000000000000E+00
-0.2137635885208E+00  0.2070590626840E+00  0.0000000000000E+00
-0.2204234777873E+00  0.2416952585920E+00  0.0000000000000E+00
-0.6704270627605E-01 -0.3809667730720E+00  0.0000000000000E+00
-0.7148545141935E-01 -0.3466011322144E+00  0.0000000000000E+00
-0.7592819656265E-01 -0.3122354913569E+00  0.0000000000000E+00
-0.8037094170595E-01 -0.2778698504993E+00  0.0000000000000E+00
-0.8481368684925E-01 -0.2435042096418E+00  0.0000000000000E+00
-0.8925643199255E-01 -0.2091385687842E+00  0.0000000000000E+00
-0.9369917713585E-01 -0.1747729279267E+00  0.0000000000000E+00
-0.9814192227916E-01 -0.1404072870692E+00  0.0000000000000E+00
-0.1025846674225E+00 -0.1060416462116E+00  0.0000000000000E+00
-0.1070274125658E+00 -0.7167600535406E-01  0.0000000000000E+00
-0.1114701577091E+00 -0.3731036449652E-01  0.0000000000000E+00
-0.1159129028524E+00 -0.2944723638973E-02  0.0000000000000E+00
-0.1203556479957E+00  0.3142091721857E-01  0.0000000000000E+00
-0.1247983931390E+00  0.6578655807612E-01  0.0000000000000E+00
-0.1292411382823E+00  0.1001521989337E+00  0.0000000000000E+00
-0.1336838834256E+00  0.1345178397912E+00  0.0000000000000E+00
-0.1381266285689E+00  0.1688834806488E+00  0.0000000000000E+00
-0.1425693737122E+00  0.2032491215063E+00  0.0000000000000E+00
-0.1470121188555E+00  0.2376147623638E+00  0.0000000000000E+00
-0.3352511022345E-01 -0.3804951770728E+00  0.0000000000000E+00
-0.3574736497451E-01 -0.3462942814123E+00  0.0000000000000E+00
-0.3796961972557E-01 -0.3120933857518E+00  0.0000000000000E+00
-0.4019187447663E-01 -0.2778924900913E+00  0.0000000000000E+00
-0.4241412922770E-01 -0.2436915944307E+00  0.0000000000000E+00
-0.4463638397876E-01 -0.2094906987702E+00  0.0000000000000E+00
-0.4685863872982E-01 -0.1752898031097E+00  0.0000000000000E+00
-0.4908089348088E-01 -0.1410889074492E+00  0.0000000000000E+00
-0.5130314823194E-01 -0.1068880117887E+00  0.0000000000000E+00
-0.5352540298300E-01 -0.7268711612818E-01  0.0000000000000E+00
-0.5574765773406E-01 -0.3848622046767E-01  0.0000000000000E+00
-0.5796991248513E-01 -0.4285324807156E-02  0.0000000000000E+00
-0.6019216723619E-01  0.2991557085336E-01  0.0000000000000E+00
-0.6241442198725E-01  0.6411646651387E-01  0.0000000000000E+00
-0.6463667673831E-01  0.9831736217438E-01  0.0000000000000E+00
-0.6685893148937E-01  0.1325182578349E+00  0.0000000000000E+00
-0.6908118624043E-01  0.1667191534954E+00  0.0000000000000E+00
-0.7130344099149E-01  0.2009200491559E+00  0.0000000000000E+00
-0.7352569574256E-01  0.2351209448164E+00  0.0000000000000E+00
-0.9110412026432E-10 -0.3803390679715E+00  0.0000000000000E+00
-0.1822078997847E-09 -0.3461942289011E+00  0.0000000000000E+00
-0.2733118597163E-09 -0.3120493898306E+00  0.0000000000000E+00
-0.3644157225034E-09 -0.2779045507602E+00  0.0000000000000E+00
-0.4555196408017E-09 -0.2437597116898E+00  0.0000000000000E+00
-0.5466234480776E-09 -0.2096148726194E+00  0.0000000000000E+00
-0.6377270888201E-09 -0.1754700335490E+00  0.0000000000000E+00
-0.7288309516072E-09 -0.1413251944785E+00  0.0000000000000E+00
-0.8199347588832E-09 -0.1071803554081E+00  0.0000000000000E+00
-0.9110384551368E-09 -0.7303551633770E-01  0.0000000000000E+00
-0.1002142373435E-08 -0.3889067726728E-01  0.0000000000000E+00
-0.1093246125200E-08 -0.4745838196866E-02  0.0000000000000E+00
-0.1184349710431E-08  0.2939900087355E-01  0.0000000000000E+00
-0.1275453573218E-08  0.6354383994397E-01  0.0000000000000E+00
-0.1366557602539E-08  0.9768867901439E-01  0.0000000000000E+00
-0.1457661298793E-08  0.1318335180848E+00  0.0000000000000E+00
-0.1548765106068E-08  0.1659783571552E+00  0.0000000000000E+00
-0.1639868913344E-08  0.2001231962256E+00  0.0000000000000E+00
-0.1730972498576E-08  0.2342680352961E+00  0.0000000000000E+00
 0.3352511004131E-01 -0.3804951770771E+00  0.0000000000000E+00
 0.3574736461023E-01 -0.3462942814209E+00  0.0000000000000E+00
 0.3796961917915E-01 -0.3120933857647E+00  0.0000000000000E+00
 0.4019187374807E-01 -0.2778924901086E+00  0.0000000000000E+00
 0.4241412831699E-01 -0.2436915944524E+00  0.0000000000000E+00
 0.4463638288591E-01 -0.2094906987962E+00  0.0000000000000E+00
 0.4685863745483E-01 -0.1752898031400E+00  0.0000000000000E+00
 0.4908089202375E-01 -0.1410889074838E+00  0.0000000000000E+00
 0.5130314659267E-01 -0.1068880118276E+00  0.0000000000000E+00
 0.5352540116158E-01 -0.7268711617143E-01  0.0000000000000E+00
 0.5574765573050E-01 -0.3848622051524E-01  0.0000000000000E+00
 0.5796991029942E-01 -0.4285324859053E-02  0.0000000000000E+00
 0.6019216486834E-01  0.2991557079713E-01  0.0000000000000E+00
 0.6241441943726E-01  0.6411646645332E-01  0.0000000000000E+00
 0.6463667400618E-01  0.9831736210951E-01  0.0000000000000E+00
 0.6685892857510E-01  0.1325182577657E+00  0.0000000000000E+00
 0.6908118314402E-01  0.1667191534219E+00  0.0000000000000E+00
 0.7130343771294E-01  0.2009200490781E+00  0.0000000000000E+00
 0.7352569228186E-01  0.2351209447343E+00  0.0000000000000E+00
 0.6704270609402E-01 -0.3809667730804E+00  0.0000000000000E+00
 0.7148545105530E-01 -0.3466011322313E+00  0.0000000000000E+00
 0.7592819601657E-01 -0.3122354913822E+00  0.0000000000000E+00
 0.8037094097785E-01 -0.2778698505331E+00  0.0000000000000E+00
 0.8481368593912E-01 -0.2435042096840E+00  0.0000000000000E+00
 0.8925643090040E-01 -0.2091385688349E+00  0.0000000000000E+00
 0.9369917586167E-01 -0.1747729279858E+00  0.0000000000000E+00
 0.9814192082294E-01 -0.1404072871367E+00  0.0000000000000E+00
 0.1025846657842E+00 -0.1060416462876E+00  0.0000000000000E+00
 0.1070274107455E+00 -0.7167600543851E-01  0.0000000000000E+00
 0.1114701557068E+00 -0.3731036458941E-01  0.0000000000000E+00
 0.1159129006680E+00 -0.2944723740310E-02  0.0000000000000E+00
 0.1203556456293E+00  0.3142091710879E-01  0.0000000000000E+00
 0.1247983905906E+00  0.6578655795789E-01  0.0000000000000E+00
 0.1292411355519E+00  0.1001521988070E+00  0.0000000000000E+00
 0.1336838805131E+00  0.1345178396561E+00  0.0000000000000E+00
 0.1381266254744E+00  0.1688834805052E+00  0.0000000000000E+00
 0.1425693704357E+00  0.2032491213543E+00  0.0000000000000E+00
 0.1470121153970E+00  0.2376147622034E+00  0.0000000000000E+00
 0.1005454708081E+00 -0.3817562677643E+00  0.0000000000000E+00
 0.1072053598928E+00 -0.3471200718688E+00  0.0000000000000E+00
 0.1138652489775E+00 -0.3124838759733E+00  0.0000000000000E+00
 0.1205251380622E+00 -0.2778476800778E+00  0.0000000000000E+00
 0.1271850271469E+00 -0.2432114841823E+00  0.0000000000000E+00
 0.1338449162316E+00 -0.2085752882868E+00  0.0000000000000E+00
 0.1405048053162E+00 -0.1739390923913E+00  0.0000000000000E+00
 0.1471646944009E+00 -0.1393028964959E+00  0.0000000000000E+00
 0.1538245834856E+00 -0.1046667006004E+00  0.0000000000000E+00
 0.1604844725703E+00 -0.7003050470487E-01  0.0000000000000E+00
 0.1671443616550E+00 -0.3539430880938E-01  0.0000000000000E+00
 0.1738042507397E+00 -0.7581129138917E-03  0.0000000000000E+00
 0.1804641398244E+00  0.3387808298160E-01  0.0000000000000E+00
 0.1871240289091E+00  0.6851427887709E-01  0.0000000000000E+00
 0.1937839179937E+00  0.1031504747726E+00  0.0000000000000E+00
 0.2004438070784E+00  0.1377866706681E+00  0.0000000000000E+00
 0.2071036961631E+00  0.1724228665636E+00  0.0000000000000E+00
 0.2137635852478E+00  0.2070590624591E+00  0.0000000000000E+00
 0.2204234743325E+00  0.2416952583545E+00  0.0000000000000E+00
 0.1340261089962E+00 -0.3828631735131E+00  0.0000000000000E+00
 0.1428982085797E+00 -0.3478509012679E+00  0.0000000000000E+00
 0.1517703081632E+00 -0.3128386290227E+00  0.0000000000000E+00
 0.1606424077467E+00 -0.2778263567775E+00  0.0000000000000E+00
 0.1695145073302E+00 -0.2428140845323E+00  0.0000000000000E+00
 0.1783866069137E+00 -0.2078018122871E+00  0.0000000000000E+00
 0.1872587064972E+00 -0.1727895400418E+00  0.0000000000000E+00
 0.1961308060807E+00 -0.1377772677966E+00  0.0000000000000E+00
 0.2050029056642E+00 -0.1027649955514E+00  0.0000000000000E+00
 0.2138750052477E+00 -0.6775272330619E-01  0.0000000000000E+00
 0.2227471048312E+00 -0.3274045106098E-01  0.0000000000000E+00
 0.2316192044147E+00  0.2271821184241E-02  0.0000000000000E+00
 0.2404913039982E+00  0.3728409342946E-01  0.0000000000000E+00
 0.2493634035817E+00  0.7229636567468E-01  0.0000000000000E+00
 0.2582355031652E+00  0.1073086379199E+00  0.0000000000000E+00
 0.2671076027487E+00  0.1423209101651E+00  0.0000000000000E+00
 0.2759797023322E+00  0.1773331824103E+00  0.0000000000000E+00
 0.2848518019157E+00  0.2123454546555E+00  0.0000000000000E+00
 0.2937239014992E+00  0.2473577269008E+00  0.0000000000000E+00
 0.1674771091722E+00 -0.3842843495732E+00  0.0000000000000E+00
 0.1785546410022E+00 -0.3487884211524E+00  0.0000000000000E+00
 0.1896321728322E+00 -0.3132924927316E+00  0.0000000000000E+00
 0.2007097046621E+00 -0.2777965643107E+00  0.0000000000000E+00
 0.2117872364921E+00 -0.2423006358899E+00  0.0000000000000E+00
 0.2228647683220E+00 -0.2068047074691E+00  0.0000000000000E+00
 0.2339423001520E+00 -0.1713087790483E+00  0.0000000000000E+00
 0.2450198319819E+00 -0.1358128506275E+00  0.0000000000000E+00
 0.2560973638119E+00 -0.1003169222066E+00  0.0000000000000E+00
 0.2671748956418E+00 -0.6482099378580E-01  0.0000000000000E+00
 0.2782524274718E+00 -0.2932506536498E-01  0.0000000000000E+00
 0.2893299593017E+00  0.6170863055847E-02  0.0000000000000E+00
 0.3004074911317E+00  0.4166679147667E-01  0.0000000000000E+00
 0.3114850229616E+00  0.7716271989750E-01  0.0000000000000E+00
 0.3225625547916E+00  0.1126586483183E+00  0.0000000000000E+00
 0.3336400866215E+00  0.1481545767391E+00  0.0000000000000E+00
 0.3447176184515E+00  0.1836505051600E+00  0.0000000000000E+00
 0.3557951502814E+00  0.2191464335808E+00  0.0000000000000E+00
 0.3668726821114E+00  0.2546423620016E+00  0.0000000000000E+00
 0.2008905516076E+00 -0.3860140358638E+00  0.0000000000000E+00
 0.2141644302833E+00 -0.3499224953114E+00  0.0000000000000E+00
 0.2274383089590E+00 -0.3138309547591E+00  0.0000000000000E+00
 0.2407121876348E+00 -0.2777394142068E+00  0.0000000000000E+00
 0.2539860663105E+00 -0.2416478736544E+00  0.0000000000000E+00
 0.2672599449862E+00 -0.2055563331021E+00  0.0000000000000E+00
 0.2805338236619E+00 -0.1694647925498E+00  0.0000000000000E+00
 0.2938077023376E+00 -0.1333732519975E+00  0.0000000000000E+00
 0.3070815810133E+00 -0.9728171144512E-01  0.0000000000000E+00
 0.3203554596891E+00 -0.6119017089279E-01  0.0000000000000E+00
 0.3336293383648E+00 -0.2509863034046E-01  0.0000000000000E+00
 0.3469032170405E+00  0.1099291021187E-01  0.0000000000000E+00
 0.3601770957162E+00  0.4708445076420E-01  0.0000000000000E+00
 0.3734509743919E+00  0.8317599131653E-01  0.0000000000000E+00
 0.3867248530677E+00  0.1192675318689E+00  0.0000000000000E+00
 0.3999987317434E+00  0.1553590724212E+00  0.0000000000000E+00
 0.4132726104191E+00  0.1914506129735E+00  0.0000000000000E+00
 0.4265464890948E+00  0.2275421535259E+00  0.0000000000000E+00
 0.4398203677705E+00  0.2636336940782E+00  0.0000000000000E+00
 0.2342578968120E+00 -0.3880438745619E+00  0.0000000000000E+00
 0.2497160427631E+00 -0.3512380882442E+00  0.0000000000000E+00
 0.2651741887142E+00 -0.3144323019265E+00  0.0000000000000E+00
 0.2806323346653E+00 -0.2776265156088E+00  0.0000000000000E+00
 0.2960904806164E+00 -0.2408207292911E+00  0.0000000000000E+00
 0.3115486265674E+00 -0.2040149429734E+00  0.0000000000000E+00
 0.3270067725185E+00 -0.1672091566557E+00  0.0000000000000E+00
 0.3424649184696E+00 -0.1304033703380E+00  0.0000000000000E+00
 0.3579230644207E+00 -0.9359758402027E-01  0.0000000000000E+00
 0.3733812103718E+00 -0.5679179770256E-01  0.0000000000000E+00
 0.3888393563228E+00 -0.1998601138485E-01  0.0000000000000E+00
 0.4042975022739E+00  0.1681977493286E-01  0.0000000000000E+00
 0.4197556482250E+00  0.5362556125056E-01  0.0000000000000E+00
 0.4352137941761E+00  0.9043134756827E-01  0.0000000000000E+00
 0.4506719401272E+00  0.1272371338860E+00  0.0000000000000E+00
 0.4661300860782E+00  0.1640429202037E+00  0.0000000000000E+00
 0.4815882320293E+00  0.2008487065214E+00  0.0000000000000E+00
 0.4970463779804E+00  0.2376544928391E+00  0.0000000000000E+00
 0.5125045239315E+00  0.2744602791568E+00  0.0000000000000E+00
 0.2675697751805E+00 -0.3903634586150E+00  0.0000000000000E+00
 0.2851962167721E+00 -0.3527163568323E+00  0.0000000000000E+00
 0.3028226583638E+00 -0.3150692550497E+00  0.0000000000000E+00
 0.3204490999555E+00 -0.2774221532670E+00  0.0000000000000E+00
 0.3380755415472E+00 -0.2397750514843E+00  0.0000000000000E+00
 0.3557019831389E+00 -0.2021279497017E+00  0.0000000000000E+00
 0.3733284247305E+00 -0.1644808479190E+00  0.0000000000000E+00
 0.3909548663222E+00 -0.1268337461363E+00  0.0000000000000E+00
 0.4085813079139E+00 -0.8918664435365E-01  0.0000000000000E+00
 0.4262077495056E+00 -0.5153954257098E-01  0.0000000000000E+00
 0.4438341910973E+00 -0.1389244078831E-01  0.0000000000000E+00
 0.4614606326889E+00  0.2375466099436E-01  0.0000000000000E+00
 0.4790870742806E+00  0.6140176277703E-01  0.0000000000000E+00
 0.4967135158723E+00  0.9904886455970E-01  0.0000000000000E+00
 0.5143399574640E+00  0.1366959663424E+00  0.0000000000000E+00
 0.5319663990557E+00  0.1743430681250E+00  0.0000000000000E+00
 0.5495928406473E+00  0.2119901699077E+00  0.0000000000000E+00
 0.5672192822390E+00  0.2496372716904E+00  0.0000000000000E+00
 0.5848457238307E+00  0.2872843734730E+00  0.0000000000000E+00
 0.3008163577734E+00 -0.3929631428122E+00  0.0000000000000E+00
 0.3205906655322E+00 -0.3543402623307E+00  0.0000000000000E+00
 0.3403649732910E+00 -0.3157173818492E+00  0.0000000000000E+00
 0.3601392810498E+00 -0.2770945013677E+00  0.0000000000000E+00
 0.3799135888087E+00 -0.2384716208863E+00  0.0000000000000E+00
 0.3996878965675E+00 -0.1998487404048E+00  0.0000000000000E+00
 0.4194622043263E+00 -0.1612258599233E+00  0.0000000000000E+00
 0.4392365120851E+00 -0.1226029794418E+00  0.0000000000000E+00
 0.4590108198439E+00 -0.8398009896027E-01  0.0000000000000E+00
 0.4787851276028E+00 -0.4535721847878E-01  0.0000000000000E+00
 0.4985594353616E+00 -0.6734337997284E-02  0.0000000000000E+00
 0.5183337431204E+00  0.3188854248421E-01  0.0000000000000E+00
 0.5381080508792E+00  0.7051142296571E-01  0.0000000000000E+00
 0.5578823586381E+00  0.1091343034472E+00  0.0000000000000E+00
 0.5776566663969E+00  0.1477571839287E+00  0.0000000000000E+00
 0.5974309741557E+00  0.1863800644102E+00  0.0000000000000E+00
 0.6172052819145E+00  0.2250029448917E+00  0.0000000000000E+00
 0.6369795896734E+00  0.2636258253732E+00  0.0000000000000E+00
 0.6567538974322E+00  0.3022487058547E+00  0.0000000000000E+00
 0.3339899906020E+00 -0.3958444359414E+00  0.0000000000000E+00
 0.3558893491867E+00 -0.3561153469911E+00  0.0000000000000E+00
 0.3777887077715E+00 -0.3163862580408E+00  0.0000000000000E+00
 0.3996880663563E+00 -0.2766571690905E+00  0.0000000000000E+00
 0.4215874249411E+00 -0.2369280801402E+00  0.0000000000000E+00
 0.4434867835259E+00 -0.1971989911899E+00  0.0000000000000E+00
 0.4653861421107E+00 -0.1574699022396E+00  0.0000000000000E+00
 0.4872855006954E+00 -0.1177408132894E+00  0.0000000000000E+00
 0.5091848592802E+00 -0.7801172433906E-01  0.0000000000000E+00
 0.5310842178650E+00 -0.3828263538877E-01  0.0000000000000E+00
 0.5529835764498E+00  0.1446453561517E-02  0.0000000000000E+00
 0.5748829350346E+00  0.4117554251181E-01  0.0000000000000E+00
 0.5967822936193E+00  0.8090463146210E-01  0.0000000000000E+00
 0.6186816522041E+00  0.1206337204124E+00  0.0000000000000E+00
 0.6405810107889E+00  0.1603628093627E+00  0.0000000000000E+00
 0.6624803693737E+00  0.2000918983130E+00  0.0000000000000E+00
 0.6843797279585E+00  0.2398209872633E+00  0.0000000000000E+00
 0.7062790865433E+00  0.2795500762135E+00  0.0000000000000E+00
 0.7281784451280E+00  0.3192791651638E+00  0.0000000000000E+00
 0.3670941280509E+00 -0.3990479117477E+00  0.0000000000000E+00
 0.3911043430246E+00 -0.3581255481675E+00  0.0000000000000E+00
 0.4151145579982E+00 -0.3172031845874E+00  0.0000000000000E+00
 0.4391247729718E+00 -0.2762808210073E+00  0.0000000000000E+00
 0.4631349879455E+00 -0.2353584574271E+00  0.0000000000000E+00
 0.4871452029191E+00 -0.1944360938470E+00  0.0000000000000E+00
 0.5111554178927E+00 -0.1535137302669E+00  0.0000000000000E+00
 0.5351656328664E+00 -0.1125913666867E+00  0.0000000000000E+00
 0.5591758478400E+00 -0.7166900310660E-01  0.0000000000000E+00
 0.5831860628136E+00 -0.3074663952647E-01  0.0000000000000E+00
 0.6071962777873E+00  0.1017572405366E-01  0.0000000000000E+00
 0.6312064927609E+00  0.5109808763380E-01  0.0000000000000E+00
 0.6552167077345E+00  0.9202045121393E-01  0.0000000000000E+00
 0.6792269227082E+00  0.1329428147941E+00  0.0000000000000E+00
 0.7032371376818E+00  0.1738651783742E+00  0.0000000000000E+00
 0.7272473526555E+00  0.2147875419543E+00  0.0000000000000E+00
 0.7512575676291E+00  0.2557099055345E+00  0.0000000000000E+00
 0.7752677826027E+00  0.2966322691146E+00  0.0000000000000E+00
 0.7992779975764E+00  0.3375546326947E+00  0.0000000000000E+00
 0.4001452658322E+00 -0.4026538268434E+00  0.0000000000000E+00
 0.4262736919301E+00 -0.3605344242716E+00  0.0000000000000E+00
 0.4524021180279E+00 -0.3184150216998E+00  0.0000000000000E+00
 0.4785305441258E+00 -0.2762956191280E+00  0.0000000000000E+00
 0.5046589702237E+00 -0.2341762165562E+00  0.0000000000000E+00
 0.5307873963216E+00 -0.1920568139844E+00  0.0000000000000E+00
 0.5569158224194E+00 -0.1499374114126E+00  0.0000000000000E+00
 0.5830442485173E+00 -0.1078180088408E+00  0.0000000000000E+00
 0.6091726746152E+00 -0.6569860626900E-01  0.0000000000000E+00
 0.6353011007131E+00 -0.2357920369720E-01  0.0000000000000E+00
 0.6614295268109E+00  0.1854019887460E-01  0.0000000000000E+00
 0.6875579529088E+00  0.6065960144641E-01  0.0000000000000E+00
 0.7136863790067E+00  0.1027790040182E+00  0.0000000000000E+00
 0.7398148051046E+00  0.1448984065900E+00  0.0000000000000E+00
 0.7659432312024E+00  0.1870178091618E+00  0.0000000000000E+00
 0.7920716573003E+00  0.2291372117336E+00  0.0000000000000E+00
 0.8182000833982E+00  0.2712566143054E+00  0.0000000000000E+00
 0.8443285094961E+00  0.3133760168772E+00  0.0000000000000E+00
 0.8704569355939E+00  0.3554954194490E+00  0.0000000000000E+00
 0.4331566792210E+00 -0.4067328541253E+00  0.0000000000000E+00
 0.4614288245888E+00 -0.3634866018376E+00  0.0000000000000E+00
 0.4897009699565E+00 -0.3202403495500E+00  0.0000000000000E+00
 0.5179731153242E+00 -0.2769940972623E+00  0.0000000000000E+00
 0.5462452606920E+00 -0.2337478449747E+00  0.0000000000000E+00
 0.5745174060597E+00 -0.1905015926870E+00  0.0000000000000E+00
 0.6027895514275E+00 -0.1472553403993E+00  0.0000000000000E+00
 0.6310616967952E+00 -0.1040090881117E+00  0.0000000000000E+00
 0.6593338421629E+00 -0.6076283582400E-01  0.0000000000000E+00
 0.6876059875307E+00 -0.1751658353633E-01  0.0000000000000E+00
 0.7158781328984E+00  0.2572966875133E-01  0.0000000000000E+00
 0.7441502782662E+00  0.6897592103899E-01  0.0000000000000E+00
 0.7724224236339E+00  0.1122221733267E+00  0.0000000000000E+00
 0.8006945690017E+00  0.1554684256143E+00  0.0000000000000E+00
 0.8289667143694E+00  0.1987146779020E+00  0.0000000000000E+00
 0.8572388597371E+00  0.2419609301896E+00  0.0000000000000E+00
 0.8855110051049E+00  0.2852071824773E+00  0.0000000000000E+00
 0.9137831504726E+00  0.3284534347650E+00  0.0000000000000E+00
 0.9420552958404E+00  0.3716996870526E+00  0.0000000000000E+00
 0.4661358892480E+00 -0.4113546121035E+00  0.0000000000000E+00
 0.4965895943463E+00 -0.3671248415798E+00  0.0000000000000E+00
 0.5270432994446E+00 -0.3228950710562E+00  0.0000000000000E+00
 0.5574970045428E+00 -0.2786653005325E+00  0.0000000000000E+00
 0.5879507096411E+00 -0.2344355300089E+00  0.0000000000000E+00
 0.6184044147394E+00 -0.1902057594852E+00  0.0000000000000E+00
 0.6488581198376E+00 -0.1459759889615E+00  0.0000000000000E+00
 0.6793118249359E+00 -0.1017462184379E+00  0.0000000000000E+00
 0.7097655300342E+00 -0.5751644791423E-01  0.0000000000000E+00
 0.7402192351324E+00 -0.1328667739058E-01  0.0000000000000E+00
 0.7706729402307E+00  0.3094309313308E-01  0.0000000000000E+00
 0.8011266453290E+00  0.7517286365674E-01  0.0000000000000E+00
 0.8315803504272E+00  0.1194026341804E+00  0.0000000000000E+00
 0.8620340555255E+00  0.1636324047041E+00  0.0000000000000E+00
 0.8924877606238E+00  0.2078621752277E+00  0.0000000000000E+00
 0.9229414657220E+00  0.2520919457514E+00  0.0000000000000E+00
 0.9533951708203E+00  0.2963217162750E+00  0.0000000000000E+00
 0.9838488759186E+00  0.3405514867987E+00  0.0000000000000E+00
 0.1014302581017E+01  0.3847812573223E+00  0.0000000000000E+00
 0.4990802664438E+00 -0.4165840327379E+00  0.0000000000000E+00
 0.5317553215595E+00 -0.3715827348342E+00  0.0000000000000E+00
 0.5644303766752E+00 -0.3265814369305E+00  0.0000000000000E+00
 0.5971054317909E+00 -0.2815801390268E+00  0.0000000000000E+00
 0.6297804869067E+00 -0.2365788411232E+00  0.0000000000000E+00
 0.6624555420224E+00 -0.1915775432195E+00  0.0000000000000E+00
 0.6951305971381E+00 -0.1465762453158E+00  0.0000000000000E+00
 0.7278056522539E+00 -0.1015749474121E+00  0.0000000000000E+00
 0.7604807073696E+00 -0.5657364950839E-01  0.0000000000000E+00
 0.7931557624853E+00 -0.1157235160470E-01  0.0000000000000E+00
 0.8258308176011E+00  0.3342894629900E-01  0.0000000000000E+00
 0.8585058727168E+00  0.7843024420269E-01  0.0000000000000E+00
 0.8911809278325E+00  0.1234315421064E+00  0.0000000000000E+00
 0.9238559829483E+00  0.1684328400101E+00  0.0000000000000E+00
 0.9565310380640E+00  0.2134341379138E+00  0.0000000000000E+00
 0.9892060931797E+00  0.2584354358175E+00  0.0000000000000E+00
 0.1021881148295E+01  0.3034367337211E+00  0.0000000000000E+00
 0.1054556203411E+01  0.3484380316248E+00  0.0000000000000E+00
 0.1087231258527E+01  0.3934393295285E+00  0.0000000000000E+00
 0.5319747862026E+00 -0.4224941396770E+00  0.0000000000000E+00
 0.5669005035122E+00 -0.3770102860085E+00  0.0000000000000E+00
 0.6018262208219E+00 -0.3315264323400E+00  0.0000000000000E+00
 0.6367519381315E+00 -0.2860425786714E+00  0.0000000000000E+00
 0.6716776554412E+00 -0.2405587250029E+00  0.0000000000000E+00
 0.7066033727508E+00 -0.1950748713344E+00  0.0000000000000E+00
 0.7415290900604E+00 -0.1495910176658E+00  0.0000000000000E+00
 0.7764548073701E+00 -0.1041071639973E+00  0.0000000000000E+00
 0.8113805246797E+00 -0.5862331032874E-01  0.0000000000000E+00
 0.8463062419894E+00 -0.1313945666021E-01  0.0000000000000E+00
 0.8812319592990E+00  0.3234439700833E-01  0.0000000000000E+00
 0.9161576766086E+00  0.7782825067687E-01  0.0000000000000E+00
 0.9510833939183E+00  0.1233121043454E+00  0.0000000000000E+00
 0.9860091112279E+00  0.1687959580139E+00  0.0000000000000E+00
 0.1020934828538E+01  0.2142798116825E+00  0.0000000000000E+00
 0.1055860545847E+01  0.2597636653510E+00  0.0000000000000E+00
 0.1090786263157E+01  0.3052475190195E+00  0.0000000000000E+00
 0.1125711980466E+01  0.3507313726881E+00  0.0000000000000E+00
 0.1160637697776E+01  0.3962152263566E+00  0.0000000000000E+00
 0.5647851635818E+00 -0.4291779471573E+00  0.0000000000000E+00
 0.6019607638464E+00 -0.3835976335334E+00  0.0000000000000E+00
 0.6391363641111E+00 -0.3380173199096E+00  0.0000000000000E+00
 0.6763119643757E+00 -0.2924370062857E+00  0.0000000000000E+00
 0.7134875646404E+00 -0.2468566926618E+00  0.0000000000000E+00
 0.7506631649050E+00 -0.2012763790380E+00  0.0000000000000E+00
 0.7878387651697E+00 -0.1556960654141E+00  0.0000000000000E+00
 0.8250143654344E+00 -0.1101157517902E+00  0.0000000000000E+00
 0.8621899656990E+00 -0.6453543816633E-01  0.0000000000000E+00
 0.8993655659637E+00 -0.1895512454246E-01  0.0000000000000E+00
 0.9365411662283E+00  0.2662518908141E-01  0.0000000000000E+00
 0.9737167664930E+00  0.7220550270529E-01  0.0000000000000E+00
 0.1010892366758E+01  0.1177858163292E+00  0.0000000000000E+00
 0.1048067967022E+01  0.1633661299530E+00  0.0000000000000E+00
 0.1085243567287E+01  0.2089464435769E+00  0.0000000000000E+00
 0.1122419167552E+01  0.2545267572008E+00  0.0000000000000E+00
 0.1159594767816E+01  0.3001070708247E+00  0.0000000000000E+00
 0.1196770368081E+01  0.3456873844485E+00  0.0000000000000E+00
 0.1233945968346E+01  0.3912676980724E+00  0.0000000000000E+00
 0.5974622414189E+00 -0.4366441451446E+00  0.0000000000000E+00
 0.6368419582214E+00 -0.3913664748674E+00  0.0000000000000E+00
 0.6762216750239E+00 -0.3460888045901E+00  0.0000000000000E+00
 0.7156013918264E+00 -0.3008111343129E+00  0.0000000000000E+00
 0.7549811086289E+00 -0.2555334640357E+00  0.0000000000000E+00
 0.7943608254314E+00 -0.2102557937584E+00  0.0000000000000E+00
 0.8337405422339E+00 -0.1649781234812E+00  0.0000000000000E+00
 0.8731202590364E+00 -0.1197004532040E+00  0.0000000000000E+00
 0.9124999758389E+00 -0.7442278292673E-01  0.0000000000000E+00
 0.9518796926414E+00 -0.2914511264950E-01  0.0000000000000E+00
 0.9912594094439E+00  0.1613255762773E-01  0.0000000000000E+00
 0.1030639126246E+01  0.6141022790496E-01  0.0000000000000E+00
 0.1070018843049E+01  0.1066878981822E+00  0.0000000000000E+00
 0.1109398559851E+01  0.1519655684594E+00  0.0000000000000E+00
 0.1148778276654E+01  0.1972432387367E+00  0.0000000000000E+00
 0.1188157993456E+01  0.2425209090139E+00  0.0000000000000E+00
 0.1227537710259E+01  0.2877985792911E+00  0.0000000000000E+00
 0.1266917427061E+01  0.3330762495684E+00  0.0000000000000E+00
 0.1306297143864E+01  0.3783539198456E+00  0.0000000000000E+00
 0.6299559713731E+00 -0.4448788634348E+00  0.0000000000000E+00
 0.6714480731557E+00 -0.4002935754811E+00  0.0000000000000E+00
 0.7129401749383E+00 -0.3557082875275E+00  0.0000000000000E+00
 0.7544322767209E+00 -0.3111229995738E+00  0.0000000000000E+00
 0.7959243785035E+00 -0.2665377116201E+00  0.0000000000000E+00
 0.8374164802861E+00 -0.2219524236665E+00  0.0000000000000E+00
 0.8789085820687E+00 -0.1773671357128E+00  0.0000000000000E+00
 0.9204006838513E+00 -0.1327818477591E+00  0.0000000000000E+00
 0.9618927856339E+00 -0.8819655980548E-01  0.0000000000000E+00
 0.1003384887417E+01 -0.4361127185182E-01  0.0000000000000E+00
 0.1044876989199E+01  0.9740161018480E-03  0.0000000000000E+00
 0.1086369090982E+01  0.4555930405551E-01  0.0000000000000E+00
 0.1127861192764E+01  0.9014459200918E-01  0.0000000000000E+00
 0.1169353294547E+01  0.1347298799628E+00  0.0000000000000E+00
 0.1210845396330E+01  0.1793151679165E+00  0.0000000000000E+00
 0.1252337498112E+01  0.2239004558702E+00  0.0000000000000E+00
 0.1293829599895E+01  0.2684857438238E+00  0.0000000000000E+00
 0.1335321701677E+01  0.3130710317775E+00  0.0000000000000E+00
 0.1376813803460E+01  0.3576563197312E+00  0.0000000000000E+00
</DataArray>
</Points>
<Cells>
<DataArray type="Int64" Name="connectivity" format="ascii">
0 11 438 243
243 438 439 244
244 439 440 245
245 440 441 246
246 441 442 247
247 442 443 248
248 443 444 249
249 444 445 250
250 445 446 251
251 446 447 252
252 447 448 253
253 448 449 254
254 449 450 255
255 450 451 256
256 451 452 257
257 452 453 258
258 453 454 259
259 454 455 260
260 455 456 261
261 456 457 262
262 457 458 263
263 458 459 264
264 459 460 265
265 460 461 266
266 461 462 267
267 462 463 268
268 463 464 269
269 464 465 270
270 465 466 271
271 466 467 272
272 467 468 273
273 468 469 274
274 469 470 275
275 470 471 276
276 471 472 277
277 472 473 278
278 473 474 279
279 474 475 280
280 475 476 281
281 476 477 282
282 477 89 3
11 12 478 438
438 478 479 439
439 479 480 440
440 480 481 441
441 481 482 442
442 482 483 443
443 483 484 444
444 484 485 445
445 485 486 446
446 486 487 447
447 487 488 448
448 488 489 449
449 489 490 450
450 490 491 451
451 491 492 452
452 492 493 453
453 493 494 454
454 494 495 455
455 495 496 456
456 496 497 457
457 497 498 458
458 498 499 459
459 499 500 460
460 500 501 461
461 501 502 462
462 502 503 463
463 503 504 464
464 504 505 465
465 505 506 466
466 506 507 467
467 507 508 468
468 508 509 469
469 509 510 470
470 510 511 471
471 511 512 472
472 512 513 473
473 513 514 474
474 514 515 475
475 515 516 476
476 516 517 477
477 517 90 89
12 13 518 478
478 518 519 479
479 519 520 480
480 520 521 481
481 521 522 482
482 522 523 483
483 523 524 484
484 524 525 485
485 525 526 486
486 526 527 487
487 527 528 488
488 528 529 489
489 529 530 490
490 530 531 491
491 531 532 492
492 532 533 493
493 533 534 494
494 534 535 495
495 535 536 496
496 536 537 497
497 537 538 498
498 538 539 499
499 539 540 500
500 540 541 501
501 541 542 502
502 542 543 503
503 543 544 504
504 544 545 505
505 545 546 506
506 546 547 507
507 547 548 508
508 548 549 509
509 549 550 510
510 550 551 511
511 551 552 512
512 552 553 513
513 553 554 514
514 554 555 515
515 555 556 516
516 556 557 517
517 557 91 90
13 14 558 518
518 558 559 519
519 559 560 520
520 560 561 521
521 561 562 522
522 562 563 523
523 563 564 524
524 564 565 525
525 565 566 526
526 566 567 527
527 567 568 528
528 568 569 529
529 569 570 530
530 570 571 531
531 571 572 532
532 572 573 533
533 573 574 534
534 574 575 535
535 575 576 536
536 576 577 537
537 577 578 538
538 578 579 539
539 579 580 540
540 580 581 541
541 581 582 542
542 582 583 543
543 583 584 544
544 584 585 545
545 585 586 546
546 586 587 547
547 587 588 548
548 588 589 549
549 589 590 550
550 590 591 551
551 591 592 552
552 592 593 553
553 593 594 554
554 594 595 555
555 595 596 556
556 596 597 557
557 597 92 91
14 15 598 558
558 598 599 559
559 599 600 560
560 600 601 561
561 601 602 562
562 602 603 563
563 603 604 564
564 604 605 565
565 605 606 566
566 606 607 567
567 607 608 568
568 608 609 569
569 609 610 570
570 610 611 571
571 611 612 572
572 612 613 573
573 613 614 574
574 614 615 575
575 615 616 576
576 616 617 577
577 617 618 578
578 618 619 579
579 619 620 580
580 620 621 581
581 621 622 582
582 622 623 583
583 623 624 584
584 624 625 585
585 625 626 586
586 626 627 587
587 627 628 588
588 628 629 589
589 629 630 590
590 630 631 591
591 631 632 592
592 632 633 593
593 633 634 594
594 634 635 595
595 635 636 596
596 636 637 597
597 637 93 92
15 16 638 598
598 638 639 599
599 639 640 600
600 640 641 601
601 641 642 602
602 642 643 603
603 643 644 604
604 644 645 605
605 645 646 606
606 646 647 607
607 647 648 608
608 648 649 609
609 649 650 610
610 650 651 611
611 651 652 612
612 652 653 613
613 653 654 614
614 654 655 615
615 655 656 616
616 656 657 617
617 657 658 618
618 658 659 619
619 659 660 620
620 660 661 621
621 661 662 622
622 662 663 623
623 663 664 624
624 664 665 625
625 665 666 626
626 666 667 627
627 667 668 628
628 668 669 629
629 669 670 630
630 670 671 631
631 671 672 632
632 672 673 633
633 673 674 634
634 674 675 635
635 675 676 636
636 676 677 637
637 677 94 93
16 17 678 638
638 678 679 639
639 679 680 640
640 680 681 641
641 681 682 642
642 682 683 643
643 683 684 644
644 684 685 645
645 685 686 646
646 686 687 647
647 687 688 648
648 688 689 649
649 689 690 650
650 690 691 651
651 691 692 652
652 692 693 653
653 693 694 654
654 694 695 655
655 695 696 656
656 696 697 657
657 697 698 658
658 698 699 659
659 699 700 660
660 700 701 661
661 701 702 662
662 702 703 663
663 703 704 664
664 704 705 665
665 705 706 666
666 706 707 667
667 707 708 668
668 708 709 669
669 709 710 670
670 710 711 671
671 711 712 672
672 712 713 673
673 713 714 674
674 714 715 675
675 715 716 676
676 716 717 677
677 717 95 94
17 18 718 678
678 718 719 679
679 719 720 680
680 720 721 681
681 721 722 682
682 722 723 683
683 723 724 684
684 724 725 685
685 725 726 686
686 726 727 687
687 727 728 688
688 728 729 689
689 729 730 690
690 730 731 691
691 731 732 692
692 732 733 693
693 733 734 694
694 734 735 695
695 735 736 696
696 736 737 697
697 737 738 698
698 738 739 699
699 739 740 700
700 740 741 701
701 741 742 702
702 742 743 703
703 743 744 704
704 744 745 705
705 745 746 706
706 746 747 707
707 747 748 708
708 748 749 709
709 749 750 710
710 750 751 711
711 751 752 712
712 752 753 713
713 753 754 714
714 754 755 715
715 755 756 716
716 756 757 717
717 757 96 95
18 19 758 718
718 758 759 719
719 759 760 720
720 760 761 721
721 761 762 722
722 762 763 723
723 763 764 724
724 764 765 725
725 765 766 726
726 766 767 727
727 767 768 728
728 768 769 729
729 769 770 730
730 770 771 731
731 771 772 732
732 772 773 733
733 773 774 734
734 774 775 735
735 775 776 736
736 776 777 737
737 777 778 738
738 778 779 739
739 779 780 740
740 780 781 741
741 781 782 742
742 782 783 743
743 783 784 744
744 784 785 745
745 785 786 746
746 786 787 747
747 787 788 748
748 788 789 749
749 789 790 750
750 790 791 751
751 791 792 752
752 792 793 753
753 793 794 754
754 794 795 755
755 795 796 756
756 796 797 757
757 797 97 96
19 20 798 758
758 798 799 759
759 799 800 760
760 800 801 761
761 801 802 762
762 802 803 763
763 803 804 764
764 804 805 765
765 805 806 766
766 806 807 767
767 807 808 768
768 808 809 769
769 809 810 770
770 810 811 771
771 811 812 772
772 812 813 773
773 813 814 774
774 814 815 775
775 815 816 776
776 816 817 777
777 817 818 778
778 818 819 779
779 819 820 780
780 820 821 781
781 821 822 782
782 822 823 783
783 823 824 784
784 824 825 785
785 825 826 786
786 826 827 787
787 827 828 788
788 828 829 789
789 829 830 790
790 830 831 791
791 831 832 792
792 832 833 793
793 833 834 794
794 834 835 795
795 835 836 796
796 836 837 797
797 837 98 97
20 21 838 798
798 838 839 799
799 839 840 800
800 840 841 801
801 841 842 802
802 842 843 803
803 843 844 804
804 844 845 805
805 845 846 806
806 846 847 807
807 847 848 808
808 848 849 809
809 849 850 810
810 850 851 811
811 851 852 812
812 852 853 813
813 853 854 814
814 854 855 815
815 855 856 816
816 856 857 817
817 857 858 818
818 858 859 819
819 859 860 820
820 860 861 821
821 861 862 822
822 862 863 823
823 863 864 824
824 864 865 825
825 865 866 826
826 866 867 827
827 867 868 828
828 868 869 829
829 869 870 830
830 870 871 831
831 871 872 832
832 872 873 833
833 873 874 834
834 874 875 835
835 875 876 836
836 876 877 837
837 877 99 98
21 22 878 838
838 878 879 839
839 879 880 840
840 880 881 841
841 881 882 842
842 882 883 843
843 883 884 844
844 884 885 845
845 885 886 846
846 886 887 847
847 887 888 848
848 888 889 849
849 889 890 850
850 890 891 851
851 891 892 852
852 892 893 853
853 893 894 854
854 894 895 855
855 895 896 856
856 896 897 857
857 897 898 858
858 898 899 859
859 899 900 860
860 900 901 861
861 901 902 862
862 902 903 863
863 903 904 864
864 904 905 865
865 905 906 866
866 906 907 867
867 907 908 868
868 908 909 869
869 909 910 870
870 910 911 871
871 911 912 872
872 912 913 873
873 913 914 874
874 914 915 875
875 915 916 876
876 916 917 877
877 917 100 99
22 23 918 878
878 918 919 879
879 919 920 880
880 920 921 881
881 921 922 882
882 922 923 883
883 923 924 884
884 924 925 885
885 925 926 886
886 926 927 887
887 927 928 888
888 928 929 889
889 929 930 890
890 930 931 891
891 931 932 892
892 932 933 893
893 933 934 894
894 934 935 895
895 935 936 896
896 936 937 897
897 937 938 898
898 938 939 899
899 939 940 900
900 940 941 901
901 941 942 902
902 942 943 903
903 943 944 904
904 944 945 905
905 945 946 906
906 946 947 907
907 947 948 908
908 948 949 909
909 949 950 910
910 950 951 911
911 951 952 912
912 952 953 913
913 953 954 914
914 954 955 915
915 955 956 916
916 956 957 917
917 957 101 100
23 24 958 918
918 958 959 919
919 959 960 920
920 960 961 921
921 961 962 922
922 962 963 923
923 963 964 924
924 964 965 925
925 965 966 926
926 966 967 927
927 967 968 928
928 968 969 929
929 969 970 930
930 970 971 931
931 971 972 932
932 972 973 933
933 973 974 934
934 974 975 935
935 975 976 936
936 976 977 937
937 977 978 938
938 978 979 939
939 979 980 940
940 980 981 941
941 981 982 942
942 982 983 943
943 983 984 944
944 984 985 945
945 985 986 946
946 986 987 947
947 987 988 948
948 988 989 949
949 989 990 950
950 990 991 951
951 991 992 952
952 992 993 953
953 993 994 954
954 994 995 955
955 995 996 956
956 996 997 957
957 997 102 101
24 25 998 958
958 998 999 959
959 999 1000 960
960 1000 1001 961
961 1001 1002 962
962 1002 1003 963
963 1003 1004 964
964 1004 1005 965
965 1005 1006 966
966 1006 1007 967
967 1007 1008 968
968 1008 1009 969
969 1009 1010 970
970 1010 1011 971
971 1011 1012 972
972 1012 1013 973
973 1013 1014 974
974 1014 1015 975
975 1015 1016 976
976 1016 1017 977
977 1017 1018 978
978 1018 1019 979
979 1019 1020 980
980 1020 1021 981
981 1021 1022 982
982 1022 1023 983
983 1023 1024 984
984 1024 1025 985
985 1025 1026 986
986 1026 1027 987
987 1027 1028 988
988 1028 1029 989
989 1029 1030 990
990 1030 1031 991
991 1031 1032 992
992 1032 1033 993
993 1033 1034 994
994 1034 1035 995
995 1035 1036 996
996 1036 1037 997
997 1037 103 102
25 26 1038 998
998 1038 1039 999
999 1039 1040 1000
1000 1040 1041 1001
1001 1041 1042 1002
1002 1042 1043 1003
1003 1043 1044 1004
1004 1044 1045 1005
1005 1045 1046 1006
1006 1046 1047 1007
1007 1047 1048 1008
1008 1048 1049 1009
1009 1049 1050 1010
1010 1050 1051 1011
1011 1051 1052 1012
1012 1052 1053 1013
1013 1053 1054 1014
1014 1054 1055 1015
1015 1055 1056 1016
1016 1056 1057 1017
1017 1057 1058 1018
1018 1058 1059 1019
1019 1059 1060 1020
1020 1060 1061 1021
1021 1061 1062 1022
1022 1062 1063 1023
1023 1063 1064 1024
1024 1064 1065 1025
1025 1065 1066 1026
1026 1066 1067 1027
1027 1067 1068 1028
1028 1068 1069 1029
1029 1069 1070 1030
1030 1070 1071 1031
1031 1071 1072 1032
1032 1072 1073 1033
1033 1073 1074 1034
1034 1074 1075 1035
1035 1075 1076 1036
1036 1076 1077 1037
1037 1077 104 103
26 27 1078 1038
1038 1078 1079 1039
1039 1079 1080 1040
1040 1080 1081 1041
1041 1081 1082 1042
1042 1082 1083 1043
1043 1083 1084 1044
1044 1084 1085 1045
1045 1085 1086 1046
1046 1086 1087 1047
1047 1087 1088 1048
1048 1088 1089 1049
1049 1089 1090 1050
1050 1090 1091 1051
1051 1091 1092 1052
1052 1092 1093 1053
1053 1093 1094 1054
1054 1094 1095 1055
1055 1095 1096 1056
1056 1096 1097 1057
1057 1097 1098 1058
1058 1098 1099 1059
1059 1099 1100 1060
1060 1100 1101 1061
1061 1101 1102 1062
1062 1102 1103 1063
1063 1103 1104 1064
1064 1104 1105 1065
1065 1105 1106 1066
1066 1106 1107 1067
1067 1107 1108 1068
1068 1108 1109 1069
1069 1109 1110 1070
1070 1110 1111 1071
1071 1111 1112 1072
1072 1112 1113 1073
1073 1113 1114 1074
1074 1114 1115 1075
1075 1115 1116 1076
1076 1116 1117 1077
1077 1117 105 104
27 28 1118 1078
1078 1118 1119 1079
1079 1119 1120 1080
1080 1120 1121 1081
1081 1121 1122 1082
1082 1122 1123 1083
1083 1123 1124 1084
1084 1124 1125 1085
1085 1125 1126 1086
1086 1126 1127 1087
1087 1127 1128 1088
1088 1128 1129 1089
1089 1129 1130 1090
1090 1130 1131 1091
1091 1131 1132 1092
1092 1132 1133 1093
1093 1133 1134 1094
1094 1134 1135 1095
1095 1135 1136 1096
1096 1136 1137 1097
1097 1137 1138 1098
1098 1138 1139 1099
1099 1139 1140 1100
1100 1140 1141 1101
1101 1141 1142 1102
1102 1142 1143 1103
1103 1143 1144 1104
1104 1144 1145 1105
1105 1145 1146 1106
1106 1146 1147 1107
1107 1147 1148 1108
1108 1148 1149 1109
1109 1149 1150 1110
1110 1150 1151 1111
1111 1151 1152 1112
1112 1152 1153 1113
1113 1153 1154 1114
1114 1154 1155 1115
1115 1155 1156 1116
1116 1156 1157 1117
1117 1157 106 105
28 29 1158 1118
1118 1158 1159 1119
1119 1159 1160 1120
1120 1160 1161 1121
1121 1161 1162 1122
1122 1162 1163 1123
1123 1163 1164 1124
1124 1164 1165 1125
1125 1165 1166 1126
1126 1166 1167 1127
1127 1167 1168 1128
1128 1168 1169 1129
1129 1169 1170 1130
1130 1170 1171 1131
1131 1171 1172 1132
1132 1172 1173 1133
1133 1173 1174 1134
1134 1174 1175 1135
1135 1175 1176 1136
1136 1176 1177 1137
1137 1177 1178 1138
1138 1178 1179 1139
1139 1179 1180 1140
1140 1180 1181 1141
1141 1181 1182 1142
1142 1182 1183 1143
1143 1183 1184 1144
1144 1184 1185 1145
1145 1185 1186 1146
1146 1186 1187 1147
1147 1187 1188 1148
1148 1188 1189 1149
1149 1189 1190 1150
1150 1190 1191 1151
1151 1191 1192 1152
1152 1192 1193 1153
1153 1193 1194 1154
1154 1194 1195 1155
1155 1195 1196 1156
1156 1196 1197 1157
1157 1197 107 106
29 30 1198 1158
1158 1198 1199 1159
1159 1199 1200 1160
1160 1200 1201 1161
1161 1201 1202 1162
1162 1202 1203 1163
1163 1203 1204 1164
1164 1204 1205 1165
1165 1205 1206 1166
1166 1206 1207 1167
1167 1207 1208 1168
1168 1208 1209 1169
1169 1209 1210 1170
1170 1210 1211 1171
1171 1211 1212 1172
1172 1212 1213 1173
1173 1213 1214 1174
1174 1214 1215 1175
1175 1215 1216 1176
1176 1216 1217 1177
1177 1217 1218 1178
1178 1218 1219 1179
1179 1219 1220 1180
1180 1220 1221 1181
1181 1221 1222 1182
1182 1222 1223 1183
1183 1223 1224 1184
1184 1224 1225 1185
1185 1225 1226 1186
1186 1226 1227 1187
1187 1227 1228 1188
1188 1228 1229 1189
1189 1229 1230 1190
1190 1230 1231 1191
1191 1231 1232 1192
1192 1232 1233 1193
1193 1233 1234 1194
1194 1234 1235 1195
1195 1235 1236 1196
1196 1236 1237 1197
1197 1237 4 107
30 31 1238 1198
1198 1238 1239 1199
1199 1239 1240 1200
1200 1240 1241 1201
1201 1241 1242 1202
1202 1242 1243 1203
1203 1243 1244 1204
1204 1244 1245 1205
1205 1245 1246 1206
1206 1246 1247 1207
1207 1247 1248 1208
1208 1248 1249 1209
1209 1249 1250 1210
1210 1250 1251 1211
1211 1251 1252 1212
1212 1252 1253 1213
1213 1253 1254 1214
1214 1254 1255 1215
1215 1255 1256 1216
1216 1256 1257 1217
1217 1257 1258 1218
1218 1258 1259 1219
1219 1259 1260 1220
1220 1260 1261 1221
1221 1261 1262 1222
1222 1262 1263 1223
1223 1263 1264 1224
1224 1264 1265 1225
1225 1265 1266 1226
1226 1266 1267 1227
1227 1267 1268 1228
1228 1268 1269 1229
1229 1269 1270 1230
1230 1270 1271 1231
1231 1271 1272 1232
1232 1272 1273 1233
1233 1273 1274 1234
1234 1274 1275 1235
1235 1275 1276 1236
1236 1276 1277 1237
1237 1277 108 4
31 32 1278 1238
1238 1278 1279 1239
1239 1279 1280 1240
1240 1280 1281 1241
1241 1281 1282 1242
1242 1282 1283 1243
1243 1283 1284 1244
1244 1284 1285 1245
1245 1285 1286 1246
1246 1286 1287 1247
1247 1287 1288 1248
1248 1288 1289 1249
1249 1289 1290 1250
1250 1290 1291 1251
1251 1291 1292 1252
1252 1292 1293 1253
1253 1293 1294 1254
1254 1294 1295 1255
1255 1295 1296 1256
1256 1296 1297 1257
1257 1297 1298 1258
1258 1298 1299 1259
1259 1299 1300 1260
1260 1300 1301 1261
1261 1301 1302 1262
1262 1302 1303 1263
1263 1303 1304 1264
1264 1304 1305 1265
1265 1305 1306 1266
1266 1306 1307 1267
1267 1307 1308 1268
1268 1308 1309 1269
1269 1309 1310 1270
1270 1310 1311 1271
1271 1311 1312 1272
1272 1312 1313 1273
1273 1313 1314 1274
1274 1314 1315 1275
1275 1315 1316 1276
1276 1316 1317 1277
1277 1317 109 108
32 33 1318 1278
1278 1318 1319 1279
1279 1319 1320 1280
1280 1320 1321 1281
1281 1321 1322 1282
1282 1322 1323 1283
1283 1323 1324 1284
1284 1324 1325 1285
1285 1325 1326 1286
1286 1326 1327 1287
1287 1327 1328 1288
1288 1328 1329 1289
1289 1329 1330 1290
1290 1330 1331 1291
1291 1331 1332 1292
1292 1332 1333 1293
1293 1333 1334 1294
1294 1334 1335 1295
1295 1335 1336 1296
1296 1336 1337 1297
1297 1337 1338 1298
1298 1338 1339 1299
1299 1339 1340 1300
1300 1340 1341 1301
1301 1341 1342 1302
1302 1342 1343 1303
1303 1343 1344 1304
1304 1344 1345 1305
1305 1345 1346 1306
1306 1346 1347 1307
1307 1347 1348 1308
1308 1348 1349 1309
1309 1349 1350 1310
1310 1350 1351 1311
1311 1351 1352 1312
1312 1352 1353 1313
1313 1353 1354 1314
1314 1354 1355 1315
1315 1355 1356 1316
1316 1356 1357 1317
1317 1357 110 109
33 34 1358 1318
1318 1358 1359 1319
1319 1359 1360 1320
1320 1360 1361 1321
1321 1361 1362 1322
1322 1362 1363 1323
1323 1363 1364 1324
1324 1364 1365 1325
1325 1365 1366 1326
1326 1366 1367 1327
1327 1367 1368 1328
1328 1368 1369 1329
1329 1369 1370 1330
1330 1370 1371 1331
1331 1371 1372 1332
1332 1372 1373 1333
1333 1373 1374 1334
1334 1374 1375 1335
1335 1375 1376 1336
1336 1376 1377 1337
1337 1377 1378 1338
1338 1378 1379 1339
1339 1379 1380 1340
1340 1380 1381 1341
1341 1381 1382 1342
1342 1382 1383 1343
1343 1383 1384 1344
1344 1384 1385 1345
1345 1385 1386 1346
1346 1386 1387 1347
1347 1387 1388 1348
1348 1388 1389 1349
1349 1389 1390 1350
1350 1390 1391 1351
1351 1391 1392 1352
1352 1392 1393 1353
1353 1393 1394 1354
1354 1394 1395 1355
1355 1395 1396 1356
1356 1396 1397 1357
1357 1397 111 110
34 35 1398 1358
1358 1398 1399 1359
1359 1399 1400 1360
1360 1400 1401 1361
1361 1401 1402 1362
1362 1402 1403 1363
1363 1403 1404 1364
1364 1404 1405 1365
1365 1405 1406 1366
1366 1406 1407 1367
1367 1407 1408 1368
1368 1408 1409 1369
1369 1409 1410 1370
1370 1410 1411 1371
1371 1411 1412 1372
1372 1412 1413 1373
1373 1413 1414 1374
1374 1414 1415 1375
1375 1415 1416 1376
1376 1416 1417 1377
1377 1417 1418 1378
1378 1418 1419 1379
1379 1419 1420 1380
1380 1420 1421 1381
1381 1421 1422 1382
1382 1422 1423 1383
1383 1423 1424 1384
1384 1424 1425 1385
1385 1425 1426 1386
1386 1426 1427 1387
1387 1427 1428 1388
1388 1428 1429 1389
1389 1429 1430 1390
1390 1430 1431 1391
1391 1431 1432 1392
1392 1432 1433 1393
1393 1433 1434 1394
1394 1434 1435 1395
1395 1435 1436 1396
1396 1436 1437 1397
1397 1437 112 111
35 36 1438 1398
1398 1438 1439 1399
1399 1439 1440 1400
1400 1440 1441 1401
1401 1441 1442 1402
1402 1442 1443 1403
1403 1443 1444 1404
1404 1444 1445 1405
1405 1445 1446 1406
1406 1446 1447 1407
1407 1447 1448 1408
1408 1448 1449 1409
1409 1449 1450 1410
1410 1450 1451 1411
1411 1451 1452 1412
1412 1452 1453 1413
1413 1453 1454 1414
1414 1454 1455 1415
1415 1455 1456 1416
1416 1456 1457 1417
1417 1457 1458 1418
1418 1458 1459 1419
1419 1459 1460 1420
1420 1460 1461 1421
1421 1461 1462 1422
1422 1462 1463 1423
1423 1463 1464 1424
1424 1464 1465 1425
1425 1465 1466 1426
1426 1466 1467 1427
1427 1467 1468 1428
1428 1468 1469 1429
1429 1469 1470 1430
1430 1470 1471 1431
1431 1471 1472 1432
1432 1472 1473 1433
1433 1473 1474 1434
1434 1474 1475 1435
1435 1475 1476 1436
1436 1476 1477 1437
1437 1477 113 112
36 37 1478 1438
1438 1478 1479 1439
1439 1479 1480 1440
1440 1480 1481 1441
1441 1481 1482 1442
1442 1482 1483 1443
1443 1483 1484 1444
1444 1484 1485 1445
1445 1485 1486 1446
1446 1486 1487 1447
1447 1487 1488 1448
1448 1488 1489 1449
1449 1489 1490 1450
1450 1490 1491 1451
1451 1491 1492 1452
1452 1492 1493 1453
1453 1493 1494 1454
1454 1494 1495 1455
1455 1495 1496 1456
1456 1496 1497 1457
1457 1497 1498 1458
1458 1498 1499 1459
1459 1499 1500 1460
1460 1500 1501 1461
1461 1501 1502 1462
1462 1502 1503 1463
1463 1503 1504 1464
1464 1504 1505 1465
1465 1505 1506 1466
1466 1506 1507 1467
1467 1507 1508 1468
1468 1508 1509 1469
1469 1509 1510 1470
1470 1510 1511 1471
1471 1511 1512 1472
1472 1512 1513 1473
1473 1513 1514 1474
1474 1514 1515 1475
1475 1515 1516 1476
1476 1516 1517 1477
1477 1517 114 113
37 38 1518 1478
1478 1518 1519 1479
1479 1519 1520 1480
1480 1520 1521 1481
1481 1521 1522 1482
1482 1522 1523 1483
1483 1523 1524 1484
1484 1524 1525 1485
1485 1525 1526 1486
1486 1526 1527 1487
1487 1527 1528 1488
1488 1528 1529 1489
1489 1529 1530 1490
1490 1530 1531 1491
1491 1531 1532 1492
1492 1532 1533 1493
1493 1533 1534 1494
1494 1534 1535 1495
1495 1535 1536 1496
1496 1536 1537 1497
1497 1537 1538 1498
1498 1538 1539 1499
1499 1539 1540 1500
1500 1540 1541 1501
1501 1541 1542 1502
1502 1542 1543 1503
1503 1543 1544 1504
1504 1544 1545 1505
1505 1545 1546 1506
1506 1546 1547 1507
1507 1547 1548 1508
1508 1548 1549 1509
1509 1549 1550 1510
1510 1550 1551 1511
1511 1551 1552 1512
1512 1552 1553 1513
1513 1553 1554 1514
1514 1554 1555 1515
1515 1555 1556 1516
1516 1556 1557 1517
1517 1557 115 114
38 39 1558 1518
1518 1558 1559 1519
1519 1559 1560 1520
1520 1560 1561 1521
1521 1561 1562 1522
1522 1562 1563 1523
1523 1563 1564 1524
1524 1564 1565 1525
1525 1565 1566 1526
1526 1566 1567 1527
1527 1567 1568 1528
1528 1568 1569 1529
1529 1569 1570 1530
1530 1570 1571 1531
1531 1571 1572 1532
1532 1572 1573 1533
1533 1573 1574 1534
1534 1574 1575 1535
1535 1575 1576 1536
1536 1576 1577 1537
1537 1577 1578 1538
1538 1578 1579 1539
1539 1579 1580 1540
1540 1580 1581 1541
1541 1581 1582 1542
1542 1582 1583 1543
1543 1583 1584 1544
1544 1584 1585 1545
1545 1585 1586 1546
1546 1586 1587 1547
1547 1587 1588 1548
1548 1588 1589 1549
1549 1589 1590 1550
1550 1590 1591 1551
1551 1591 1592 1552
1552 1592 1593 1553
1553 1593 1594 1554
1554 1594 1595 1555
1555 1595 1596 1556
1556 1596 1597 1557
1557 1597 116 115
39 40 1598 1558
1558 1598 1599 1559
1559 1599 1600 1560
1560 1600 1601 1561
1561 1601 1602 1562
1562 1602 1603 1563
1563 1603 1604 1564
1564 1604 1605 1565
1565 1605 1606 1566
1566 1606 1607 1567
1567 1607 1608 1568
1568 1608 1609 1569
1569 1609 1610 1570
1570 1610 1611 1571
1571 1611 1612 1572
1572 1612 1613 1573
1573 1613 1614 1574
1574 1614 1615 1575
1575 1615 1616 1576
1576 1616 1617 1577
1577 1617 1618 1578
1578 1618 1619 1579
1579 1619 1620 1580
1580 1620 1621 1581
1581 1621 1622 1582
1582 1622 1623 1583
1583 1623 1624 1584
1584 1624 1625 1585
1585 1625 1626 1586
1586 1626 1627 1587
1587 1627 1628 1588
1588 1628 1629 1589
1589 1629 1630 1590
1590 1630 1631 1591
1591 1631 1632 1592
1592 1632 1633 1593
1593 1633 1634 1594
1594 1634 1635 1595
1595 1635 1636 1596
1596 1636 1637 1597
1597 1637 117 116
40 41 1638 1598
1598 1638 1639 1599
1599 1639 1640 1600
1600 1640 1641 1601
1601 1641 1642 1602
1602 1642 1643 1603
1603 1643 1644 1604
1604 1644 1645 1605
1605 1645 1646 1606
1606 1646 1647 1607
1607 1647 1648 1608
1608 1648 1649 1609
1609 1649 1650 1610
1610 1650 1651 1611
1611 1651 1652 1612
1612 1652 1653 1613
1613 1653 1654 1614
1614 1654 1655 1615
1615 1655 1656 1616
1616 1656 1657 1617
1617 1657 1658 1618
1618 1658 1659 1619
1619 1659 1660 1620
1620 1660 1661 1621
1621 1661 1662 1622
1622 1662 1663 1623
1623 1663 1664 1624
1624 1664 1665 1625
1625 1665 1666 1626
1626 1666 1667 1627
1627 1667 1668 1628
1628 1668 1669 1629
1629 1669 1670 1630
1630 1670 1671 1631
1631 1671 1672 1632
1632 1672 1673 1633
1633 1673 1674 1634
1634 1674 1675 1635
1635 1675 1676 1636
1636 1676 1677 1637
1637 1677 118 117
41 42 1678 1638
1638 1678 1679 1639
1639 1679 1680 1640
1640 1680 1681 1641
1641 1681 1682 1642
1642 1682 1683 1643
1643 1683 1684 1644
1644 1684 1685 1645
1645 1685 1686 1646
1646 1686 1687 1647
1647 1687 1688 1648
1648 1688 1689 1649
1649 1689 1690 1650
1650 1690 1691 1651
1651 1691 1692 1652
1652 1692 1693 1653
1653 1693 1694 1654
1654 1694 1695 1655
1655 1695 1696 1656
1656 1696 1697 1657
1657 1697 1698 1658
1658 1698 1699 1659
1659 1699 1700 1660
1660 1700 1701 1661
1661 1701 1702 1662
1662 1702 1703 1663
1663 1703 1704 1664
1664 1704 1705 1665
1665 1705 1706 1666
1666 1706 1707 1667
1667 1707 1708 1668
1668 1708 1709 1669
1669 1709 1710 1670
1670 1710 1711 1671
1671 1711 1712 1672
1672 1712 1713 1673
1673 1713 1714 1674
1674 1714 1715 1675
1675 1715 1716 1676
1676 1716 1717 1677
1677 1717 119 118
42 43 1718 1678
1678 1718 1719 1679
1679 1719 1720 1680
1680 1720 1721 1681
1681 1721 1722 1682
1682 1722 1723 1683
1683 1723 1724 1684
1684 1724 1725 1685
1685 1725 1726 1686
1686 1726 1727 1687
1687 1727 1728 1688
1688 1728 1729 1689
1689 1729 1730 1690
1690 1730 1731 1691
1691 1731 1732 1692
1692 1732 1733 1693
1693 1733 1734 1694
1694 1734 1735 1695
1695 1735 1736 1696
1696 1736 1737 1697
1697 1737 1738 1698
1698 1738 1739 1699
1699 1739 1740 1700
1700 1740 1741 1701
1701 1741 1742 1702
1702 1742 1743 1703
1703 1743 1744 1704
1704 1744 1745 1705
1705 1745 1746 1706
1706 1746 1747 1707
1707 1747 1748 1708
1708 1748 1749 1709
1709 1749 1750 1710
1710 1750 1751 1711
1711 1751 1752 1712
1712 1752 1753 1713
1713 1753 1754 1714
1714 1754 1755 1715
1715 1755 1756 1716
1716 1756 1757 1717
1717 1757 120 119
43 44 1758 1718
1718 1758 1759 1719
1719 1759 1760 1720
1720 1760 1761 1721
1721 1761 1762 1722
1722 1762 1763 1723
1723 1763 1764 1724
1724 1764 1765 1725
1725 1765 1766 1726
1726 1766 1767 1727
1727 1767 1768 1728
1728 1768 1769 1729
1729 1769 1770 1730
1730 1770 1771 1731
1731 1771 1772 1732
1732 1772 1773 1733
1733 1773 1774 1734
1734 1774 1775 1735
1735 1775 1776 1736
1736 1776 1777 1737
1737 1777 1778 1738
1738 1778 1779 1739
1739 1779 1780 1740
1740 1780 1781 1741
1741 1781 1782 1742
1742 1782 1783 1743
1743 1783 1784 1744
1744 1784 1785 1745
1745 1785 1786 1746
1746 1786 1787 1747
1747 1787 1788 1748
1748 1788 1789 1749
1749 1789 1790 1750
1750 1790 1791 1751
1751 1791 1792 1752
1752 1792 1793 1753
1753 1793 1794 1754
1754 1794 1795 1755
1755 1795 1796 1756
1756 1796 1797 1757
1757 1797 121 120
44 45 1798 1758
1758 1798 1799 1759
1759 1799 1800 1760
1760 1800 1801 1761
1761 1801 1802 1762
1762 1802 1803 1763
1763 1803 1804 1764
1764 1804 1805 1765
1765 1805 1806 1766
1766 1806 1807 1767
1767 1807 1808 1768
1768 1808 1809 1769
1769 1809 1810 1770
1770 1810 1811 1771
1771 1811 1812 1772
1772 1812 1813 1773
1773 1813 1814 1774
1774 1814 1815 1775
1775 1815 1816 1776
1776 1816 1817 1777
1777 1817 1818 1778
1778 1818 1819 1779
1779 1819 1820 1780
1780 1820 1821 1781
1781 1821 1822 1782
1782 1822 1823 1783
1783 1823 1824 1784
1784 1824 1825 1785
1785 1825 1826 1786
1786 1826 1827 1787
1787 1827 1828 1788
1788 1828 1829 1789
1789 1829 1830 1790
1790 1830 1831 1791
1791 1831 1832 1792
1792 1832 1833 1793
1793 1833 1834 1794
1794 1834 1835 1795
1795 1835 1836 1796
1796 1836 1837 1797
1797 1837 122 121
45 46 1838 1798
1798 1838 1839 1799
1799 1839 1840 1800
1800 1840 1841 1801
1801 1841 1842 1802
1802 1842 1843 1803
1803 1843 1844 1804
1804 1844 1845 1805
1805 1845 1846 1806
1806 1846 1847 1807
1807 1847 1848 1808
1808 1848 1849 1809
1809 1849 1850 1810
1810 1850 1851 1811
1811 1851 1852 1812
1812 1852 1853 1813
1813 1853 1854 1814
1814 1854 1855 1815
1815 1855 1856 1816
1816 1856 1857 1817
1817 1857 1858 1818
1818 1858 1859 1819
1819 1859 1860 1820
1820 1860 1861 1821
1821 1861 1862 1822
1822 1862 1863 1823
1823 1863 1864 1824
1824 1864 1865 1825
1825 1865 1866 1826
1826 1866 1867 1827
1827 1867 1868 1828
1828 1868 1869 1829
1829 1869 1870 1830
1830 1870 1871 1831
1831 1871 1872 1832
1832 1872 1873 1833
1833 1873 1874 1834
1834 1874 1875 1835
1835 1875 1876 1836
1836 1876 1877 1837
1837 1877 123 122
46 47 1878 1838
1838 1878 1879 1839
1839 1879 1880 1840
1840 1880 1881 1841
1841 1881 1882 1842
1842 1882 1883 1843
1843 1883 1884 1844
1844 1884 1885 1845
1845 1885 1886 1846
1846 1886 1887 1847
1847 1887 1888 1848
1848 1888 1889 1849
1849 1889 1890 1850
1850 1890 1891 1851
1851 1891 1892 1852
1852 1892 1893 1853
1853 1893 1894 1854
1854 1894 1895 1855
1855 1895 1896 1856
1856 1896 1897 1857
1857 1897 1898 1858
1858 1898 1899 1859
1859 1899 1900 1860
1860 1900 1901 1861
1861 1901 1902 1862
1862 1902 1903 1863
1863 1903 1904 1864
1864 1904 1905 1865
1865 1905 1906 1866
1866 1906 1907 1867
1867 1907 1908 1868
1868 1908 1909 1869
1869 1909 1910 1870
1870 1910 1911 1871
1871 1911 1912 1872
1872 1912 1913 1873
1873 1913 1914 1874
1874 1914 1915 1875
1875 1915 1916 1876
1876 1916 1917 1877
1877 1917 124 123
47 48 1918 1878
1878 1918 1919 1879
1879 1919 1920 1880
1880 1920 1921 1881
1881 1921 1922 1882
1882 1922 1923 1883
1883 1923 1924 1884
1884 1924 1925 1885
1885 1925 1926 1886
1886 1926 1927 1887
1887 1927 1928 1888
1888 1928 1929 1889
1889 1929 1930 1890
1890 1930 1931 1891
1891 1931 1932 1892
1892 1932 1933 1893
1893 1933 1934 1894
1894 1934 1935 1895
1895 1935 1936 1896
1896 1936 1937 1897
1897 1937 1938 1898
1898 1938 1939 1899
1899 1939 1940 1900
1900 1940 1941 1901
1901 1941 1942 1902
1902 1942 1943 1903
1903 1943 1944 1904
1904 1944 1945 1905
1905 1945 1946 1906
1906 1946 1947 1907
1907 1947 1948 1908
1908 1948 1949 1909
1909 1949 1950 1910
1910 1950 1951 1911
1911 1951 1952 1912
1912 1952 1953 1913
1913 1953 1954 1914
1914 1954 1955 1915
1915 1955 1956 1916
1916 1956 1957 1917
1917 1957 125 124
48 49 1958 1918
1918 1958 1959 1919
1919 1959 1960 1920
1920 1960 1961 1921
1921 1961 1962 1922
1922 1962 1963 1923
1923 1963 1964 1924
1924 1964 1965 1925
1925 1965 1966 1926
1926 1966 1967 1927
1927 1967 1968 1928
1928 1968 1969 1929
1929 1969 1970 1930
1930 1970 1971 1931
1931 1971 1972 1932
1932 1972 1973 1933
1933 1973 1974 1934
1934 1974 1975 1935
1935 1975 1976 1936
1936 1976 1977 1937
1937 1977 1978 1938
1938 1978 1979 1939
1939 1979 1980 1940
1940 1980 1981 1941
1941 1981 1982 1942
1942 1982 1983 1943
1943 1983 1984 1944
1944 1984 1985 1945
1945 1985 1986 1946
1946 1986 1987 1947
1947 1987 1988 1948
1948 1988 1989 1949
1949 1989 1990 1950
1950 1990 1991 1951
1951 1991 1992 1952
1952 1992 1993 1953
1953 1993 1994 1954
1954 1994 1995 1955
1955 1995 1996 1956
1956 1996 1997 1957
1957 1997 126 125
49 1 1998 1958
1958 1998 1999 1959
1959 1999 2000 1960
1960 2000 2001 1961
1961 2001 2002 1962
1962 2002 2003 1963
1963 2003 2004 1964
1964 2004 2005 1965
1965 2005 2006 1966
1966 2006 2007 1967
1967 2007 2008 1968
1968 2008 2009 1969
1969 2009 2010 1970
1970 2010 2011 1971
1971 2011 2012 1972
1972 2012 2013 1973
1973 2013 2014 1974
1974 2014 2015 1975
1975 2015 2016 1976
1976 2016 2017 1977
1977 2017 2018 1978
1978 2018 2019 1979
1979 2019 2020 1980
1980 2020 2021 1981
1981 2021 2022 1982
1982 2022 2023 1983
1983 2023 2024 1984
1984 2024 2025 1985
1985 2025 2026 1986
1986 2026 2027 1987
1987 2027 2028 1988
1988 2028 2029 1989
1989 2029 2030 1990
1990 2030 2031 1991
1991 2031 2032 1992
1992 2032 2033 1993
1993 2033 2034 1994
1994 2034 2035 1995
1995 2035 2036 1996
1996 2036 2037 1997
1997 2037 127 126
1 50 2038 1998
1998 2038 2039 1999
1999 2039 2040 2000
2000 2040 2041 2001
2001 2041 2042 2002
2002 2042 2043 2003
2003 2043 2044 2004
2004 2044 2045 2005
2005 2045 2046 2006
2006 2046 2047 2007
2007 2047 2048 2008
2008 2048 2049 2009
2009 2049 2050 2010
2010 2050 2051 2011
2011 2051 2052 2012
2012 2052 2053 2013
2013 2053 2054 2014
2014 2054 2055 2015
2015 2055 2056 2016
2016 2056 2057 2017
2017 2057 2058 2018
2018 2058 2059 2019
2019 2059 2060 2020
2020 2060 2061 2021
2021 2061 2062 2022
2022 2062 2063 2023
2023 2063 2064 2024
2024 2064 2065 2025
2025 2065 2066 2026
2026 2066 2067 2027
2027 2067 2068 2028
2028 2068 2069 2029
2029 2069 2070 2030
2030 2070 2071 2031
2031 2071 2072 2032
2032 2072 2073 2033
2033 2073 2074 2034
2034 2074 2075 2035
2035 2075 2076 2036
2036 2076 2077 2037
2037 2077 128 127
50 51 2078 2038
2038 2078 2079 2039
2039 2079 2080 2040
2040 2080 2081 2041
2041 2081 2082 2042
2042 2082 2083 2043
2043 2083 2084 2044
2044 2084 2085 2045
2045 2085 2086 2046
2046 2086 2087 2047
2047 2087 2088 2048
2048 2088 2089 2049
2049 2089 2090 2050
2050 2090 2091 2051
2051 2091 2092 2052
2052 2092 2093 2053
2053 2093 2094 2054
2054 2094 2095 2055
2055 2095 2096 2056
2056 2096 2097 2057
2057 2097 2098 2058
2058 2098 2099 2059
2059 2099 2100 2060
2060 2100 2101 2061
2061 2101 2102 2062
2062 2102 2103 2063
2063 2103 2104 2064
2064 2104 2105 2065
2065 2105 2106 2066
2066 2106 2107 2067
2067 2107 2108 2068
2068 2108 2109 2069
2069 2109 2110 2070
2070 2110 2111 2071
2071 2111 2112 2072
2072 2112 2113 2073
2073 2113 2114 2074
2074 2114 2115 2075
2075 2115 2116 2076
2076 2116 2117 2077
2077 2117 129 128
51 52 2118 2078
2078 2118 2119 2079
2079 2119 2120 2080
2080 2120 2121 2081
2081 2121 2122 2082
2082 2122 2123 2083
2083 2123 2124 2084
2084 2124 2125 2085
2085 2125 2126 2086
2086 2126 2127 2087
2087 2127 2128 2088
2088 2128 2129 2089
2089 2129 2130 2090
2090 2130 2131 2091
2091 2131 2132 2092
2092 2132 2133 2093
2093 2133 2134 2094
2094 2134 2135 2095
2095 2135 2136 2096
2096 2136 2137 2097
2097 2137 2138 2098
2098 2138 2139 2099
2099 2139 2140 2100
2100 2140 2141 2101
2101 2141 2142 2102
2102 2142 2143 2103
2103 2143 2144 2104
2104 2144 2145 2105
2105 2145 2146 2106
2106 2146 2147 2107
2107 2147 2148 2108
2108 2148 2149 2109
2109 2149 2150 2110
2110 2150 2151 2111
2111 2151 2152 2112
2112 2152 2153 2113
2113 2153 2154 2114
2114 2154 2155 2115
2115 2155 2156 2116
2116 2156 2157 2117
2117 2157 130 129
52 53 2158 2118
2118 2158 2159 2119
2119 2159 2160 2120
2120 2160 2161 2121
2121 2161 2162 2122
2122 2162 2163 2123
2123 2163 2164 2124
2124 2164 2165 2125
2125 2165 2166 2126
2126 2166 2167 2127
2127 2167 2168 2128
2128 2168 2169 2129
2129 2169 2170 2130
2130 2170 2171 2131
2131 2171 2172 2132
2132 2172 2173 2133
2133 2173 2174 2134
2134 2174 2175 2135
2135 2175 2176 2136
2136 2176 2177 2137
2137 2177 2178 2138
2138 2178 2179 2139
2139 2179 2180 2140
2140 2180 2181 2141
2141 2181 2182 2142
2142 2182 2183 2143
2143 2183 2184 2144
2144 2184 2185 2145
2145 2185 2186 2146
2146 2186 2187 2147
2147 2187 2188 2148
2148 2188 2189 2149
2149 2189 2190 2150
2150 2190 2191 2151
2151 2191 2192 2152
2152 2192 2193 2153
2153 2193 2194 2154
2154 2194 2195 2155
2155 2195 2196 2156
2156 2196 2197 2157
2157 2197 131 130
53 54 2198 2158
2158 2198 2199 2159
2159 2199 2200 2160
2160 2200 2201 2161
2161 2201 2202 2162
2162 2202 2203 2163
2163 2203 2204 2164
2164 2204 2205 2165
2165 2205 2206 2166
2166 2206 2207 2167
2167 2207 2208 2168
2168 2208 2209 2169
2169 2209 2210 2170
2170 2210 2211 2171
2171 2211 2212 2172
2172 2212 2213 2173
2173 2213 2214 2174
2174 2214 2215 2175
2175 2215 2216 2176
2176 2216 2217 2177
2177 2217 2218 2178
2178 2218 2219 2179
2179 2219 2220 2180
2180 2220 2221 2181
2181 2221 2222 2182
2182 2222 2223 2183
2183 2223 2224 2184
2184 2224 2225 2185
2185 2225 2226 2186
2186 2226 2227 2187
2187 2227 2228 2188
2188 2228 2229 2189
2189 2229 2230 2190
2190 2230 2231 2191
2191 2231 2232 2192
2192 2232 2233 2193
2193 2233 2234 2194
2194 2234 2235 2195
2195 2235 2236 2196
2196 2236 2237 2197
2197 2237 132 131
54 55 2238 2198
2198 2238 2239 2199
2199 2239 2240 2200
2200 2240 2241 2201
2201 2241 2242 2202
2202 2242 2243 2203
2203 2243 2244 2204
2204 2244 2245 2205
2205 2245 2246 2206
2206 2246 2247 2207
2207 2247 2248 2208
2208 2248 2249 2209
2209 2249 2250 2210
2210 2250 2251 2211
2211 2251 2252 2212
2212 2252 2253 2213
2213 2253 2254 2214
2214 2254 2255 2215
2215 2255 2256 2216
2216 2256 2257 2217
2217 2257 2258 2218
2218 2258 2259 2219
2219 2259 2260 2220
2220 2260 2261 2221
2221 2261 2262 2222
2222 2262 2263 2223
2223 2263 2264 2224
2224 2264 2265 2225
2225 2265 2266 2226
2226 2266 2267 2227
2227 2267 2268 2228
2228 2268 2269 2229
2229 2269 2270 2230
2230 2270 2271 2231
2231 2271 2272 2232
2232 2272 2273 2233
2233 2273 2274 2234
2234 2274 2275 2235
2235 2275 2276 2236
2236 2276 2277 2237
2237 2277 133 132
55 56 2278 2238
2238 2278 2279 2239
2239 2279 2280 2240
2240 2280 2281 2241
2241 2281 2282 2242
2242 2282 2283 2243
2243 2283 2284 2244
2244 2284 2285 2245
2245 2285 2286 2246
2246 2286 2287 2247
2247 2287 2288 2248
2248 2288 2289 2249
2249 2289 2290 2250
2250 2290 2291 2251
2251 2291 2292 2252
2252 2292 2293 2253
2253 2293 2294 2254
2254 2294 2295 2255
2255 2295 2296 2256
2256 2296 2297 2257
2257 2297 2298 2258
2258 2298 2299 2259
2259 2299 2300 2260
2260 2300 2301 2261
2261 2301 2302 2262
2262 2302 2303 2263
2263 2303 2304 2264
2264 2304 2305 2265
2265 2305 2306 2266
2266 2306 2307 2267
2267 2307 2308 2268
2268 2308 2309 2269
2269 2309 2310 2270
2270 2310 2311 2271
2271 2311 2312 2272
2272 2312 2313 2273
2273 2313 2314 2274
2274 2314 2315 2275
2275 2315 2316 2276
2276 2316 2317 2277
2277 2317 134 133
56 57 2318 2278
2278 2318 2319 2279
2279 2319 2320 2280
2280 2320 2321 2281
2281 2321 2322 2282
2282 2322 2323 2283
2283 2323 2324 2284
2284 2324 2325 2285
2285 2325 2326 2286
2286 2326 2327 2287
2287 2327 2328 2288
2288 2328 2329 2289
2289 2329 2330 2290
2290 2330 2331 2291
2291 2331 2332 2292
2292 2332 2333 2293
2293 2333 2334 2294
2294 2334 2335 2295
2295 2335 2336 2296
2296 2336 2337 2297
2297 2337 2338 2298
2298 2338 2339 2299
2299 2339 2340 2300
2300 2340 2341 2301
2301 2341 2342 2302
2302 2342 2343 2303
2303 2343 2344 2304
2304 2344 2345 2305
2305 2345 2346 2306
2306 2346 2347 2307
2307 2347 2348 2308
2308 2348 2349 2309
2309 2349 2350 2310
2310 2350 2351 2311
2311 2351 2352 2312
2312 2352 2353 2313
2313 2353 2354 2314
2314 2354 2355 2315
2315 2355 2356 2316
2316 2356 2357 2317
2317 2357 135 134
57 58 2358 2318
2318 2358 2359 2319
2319 2359 2360 2320
2320 2360 2361 2321
2321 2361 2362 2322
2322 2362 2363 2323
2323 2363 2364 2324
2324 2364 2365 2325
2325 2365 2366 2326
2326 2366 2367 2327
2327 2367 2368 2328
2328 2368 2369 2329
2329 2369 2370 2330
2330 2370 2371 2331
2331 2371 2372 2332
2332 2372 2373 2333
2333 2373 2374 2334
2334 2374 2375 2335
2335 2375 2376 2336
2336 2376 2377 2337
2337 2377 2378 2338
2338 2378 2379 2339
2339 2379 2380 2340
2340 2380 2381 2341
2341 2381 2382 2342
2342 2382 2383 2343
2343 2383 2384 2344
2344 2384 2385 2345
2345 2385 2386 2346
2346 2386 2387 2347
2347 2387 2388 2348
2348 2388 2389 2349
2349 2389 2390 2350
2350 2390 2391 2351
2351 2391 2392 2352
2352 2392 2393 2353
2353 2393 2394 2354
2354 2394 2395 2355
2355 2395 2396 2356
2356 2396 2397 2357
2357 2397 136 135
58 59 2398 2358
2358 2398 2399 2359
2359 2399 2400 2360
2360 2400 2401 2361
2361 2401 2402 2362
2362 2402 2403 2363
2363 2403 2404 2364
2364 2404 2405 2365
2365 2405 2406 2366
2366 2406 2407 2367
2367 2407 2408 2368
2368 2408 2409 2369
2369 2409 2410 2370
2370 2410 2411 2371
2371 2411 2412 2372
2372 2412 2413 2373
2373 2413 2414 2374
2374 2414 2415 2375
2375 2415 2416 2376
2376 2416 2417 2377
2377 2417 2418 2378
2378 2418 2419 2379
2379 2419 2420 2380
2380 2420 2421 2381
2381 2421 2422 2382
2382 2422 2423 2383
2383 2423 2424 2384
2384 2424 2425 2385
2385 2425 2426 2386
2386 2426 2427 2387
2387 2427 2428 2388
2388 2428 2429 2389
2389 2429 2430 2390
2390 2430 2431 2391
2391 2431 2432 2392
2392 2432 2433 2393
2393 2433 2434 2394
2394 2434 2435 2395
2395 2435 2436 2396
2396 2436 2437 2397
2397 2437 137 136
59 60 2438 2398
2398 2438 2439 2399
2399 2439 2440 2400
2400 2440 2441 2401
2401 2441 2442 2402
2402 2442 2443 2403
2403 2443 2444 2404
2404 2444 2445 2405
2405 2445 2446 2406
2406 2446 2447 2407
2407 2447 2448 2408
2408 2448 2449 2409
2409 2449 2450 2410
2410 2450 2451 2411
2411 2451 2452 2412
2412 2452 2453 2413
2413 2453 2454 2414
2414 2454 2455 2415
2415 2455 2456 2416
2416 2456 2457 2417
2417 2457 2458 2418
2418 2458 2459 2419
2419 2459 2460 2420
2420 2460 2461 2421
2421 2461 2462 2422
2422 2462 2463 2423
2423 2463 2464 2424
2424 2464 2465 2425
2425 2465 2466 2426
2426 2466 2467 2427
2427 2467 2468 2428
2428 2468 2469 2429
2429 2469 2470 2430
2430 2470 2471 2431
2431 2471 2472 2432
2432 2472 2473 2433
2433 2473 2474 2434
2434 2474 2475 2435
2435 2475 2476 2436
2436 2476 2477 2437
2437 2477 138 137
60 61 2478 2438
2438 2478 2479 2439
2439 2479 2480 2440
2440 2480 2481 2441
2441 2481 2482 2442
2442 2482 2483 2443
2443 2483 2484 2444
2444 2484 2485 2445
2445 2485 2486 2446
2446 2486 2487 2447
2447 2487 2488 2448
2448 2488 2489 2449
2449 2489 2490 2450
2450 2490 2491 2451
2451 2491 2492 2452
2452 2492 2493 2453
2453 2493 2494 2454
2454 2494 2495 2455
2455 2495 2496 2456
2456 2496 2497 2457
2457 2497 2498 2458
2458 2498 2499 2459
2459 2499 2500 2460
2460 2500 2501 2461
2461 2501 2502 2462
2462 2502 2503 2463
2463 2503 2504 2464
2464 2504 2505 2465
2465 2505 2506 2466
2466 2506 2507 2467
2467 2507 2508 2468
2468 2508 2509 2469
2469 2509 2510 2470
2470 2510 2511 2471
2471 2511 2512 2472
2472 2512 2513 2473
2473 2513 2514 2474
2474 2514 2515 2475
2475 2515 2516 2476
2476 2516 2517 2477
2477 2517 139 138
61 62 2518 2478
2478 2518 2519 2479
2479 2519 2520 2480
2480 2520 2521 2481
2481 2521 2522 2482
2482 2522 2523 2483
2483 2523 2524 2484
2484 2524 2525 2485
2485 2525 2526 2486
2486 2526 2527 2487
2487 2527 2528 2488
2488 2528 2529 2489
2489 2529 2530 2490
2490 2530 2531 2491
2491 2531 2532 2492
2492 2532 2533 2493
2493 2533 2534 2494
2494 2534 2535 2495
2495 2535 2536 2496
2496 2536 2537 2497
2497 2537 2538 2498
2498 2538 2539 2499
2499 2539 2540 2500
2500 2540 2541 2501
2501 2541 2542 2502
2502 2542 2543 2503
2503 2543 2544 2504
2504 2544 2545 2505
2505 2545 2546 2506
2506 2546 2547 2507
2507 2547 2548 2508
2508 2548 2549 2509
2509 2549 2550 2510
2510 2550 2551 2511
2511 2551 2552 2512
2512 2552 2553 2513
2513 2553 2554 2514
2514 2554 2555 2515
2515 2555 2556 2516
2516 2556 2557 2517
2517 2557 140 139
62 63 2558 2518
2518 2558 2559 2519
2519 2559 2560 2520
2520 2560 2561 2521
2521 2561 2562 2522
2522 2562 2563 2523
2523 2563 2564 2524
2524 2564 2565 2525
2525 2565 2566 2526
2526 2566 2567 2527
2527 2567 2568 2528
2528 2568 2569 2529
2529 2569 2570 2530
2530 2570 2571 2531
2531 2571 2572 2532
2532 2572 2573 2533
2533 2573 2574 2534
2534 2574 2575 2535
2535 2575 2576 2536
2536 2576 2577 2537
2537 2577 2578 2538
2538 2578 2579 2539
2539 2579 2580 2540
2540 2580 2581 2541
2541 2581 2582 2542
2542 2582 2583 2543
2543 2583 2584 2544
2544 2584 2585 2545
2545 2585 2586 2546
2546 2586 2587 2547
2547 2587 2588 2548
2548 2588 2589 2549
2549 2589 2590 2550
2550 2590 2591 2551
2551 2591 2592 2552
2552 2592 2593 2553
2553 2593 2594 2554
2554 2594 2595 2555
2555 2595 2596 2556
2556 2596 2597 2557
2557 2597 141 140
63 64 2598 2558
2558 2598 2599 2559
2559 2599 2600 2560
2560 2600 2601 2561
2561 2601 2602 2562
2562 2602 2603 2563
2563 2603 2604 2564
2564 2604 2605 2565
2565 2605 2606 2566
2566 2606 2607 2567
2567 2607 2608 2568
2568 2608 2609 2569
2569 2609 2610 2570
2570 2610 2611 2571
2571 2611 2612 2572
2572 2612 2613 2573
2573 2613 2614 2574
2574 2614 2615 2575
2575 2615 2616 2576
2576 2616 2617 2577
2577 2617 2618 2578
2578 2618 2619 2579
2579 2619 2620 2580
2580 2620 2621 2581
2581 2621 2622 2582
2582 2622 2623 2583
2583 2623 2624 2584
2584 2624 2625 2585
2585 2625 2626 2586
2586 2626 2627 2587
2587 2627 2628 2588
2588 2628 2629 2589
2589 2629 2630 2590
2590 2630 2631 2591
2591 2631 2632 2592
2592 2632 2633 2593
2593 2633 2634 2594
2594 2634 2635 2595
2595 2635 2636 2596
2596 2636 2637 2597
2597 2637 142 141
64 65 2638 2598
2598 2638 2639 2599
2599 2639 2640 2600
2600 2640 2641 2601
2601 2641 2642 2602
2602 2642 2643 2603
2603 2643 2644 2604
2604 2644 2645 2605
2605 2645 2646 2606
2606 2646 2647 2607
2607 2647 2648 2608
2608 2648 2649 2609
2609 2649 2650 2610
2610 2650 2651 2611
2611 2651 2652 2612
2612 2652 2653 2613
2613 2653 2654 2614
2614 2654 2655 2615
2615 2655 2656 2616
2616 2656 2657 2617
2617 2657 2658 2618
2618 2658 2659 2619
2619 2659 2660 2620
2620 2660 2661 2621
2621 2661 2662 2622
2622 2662 2663 2623
2623 2663 2664 2624
2624 2664 2665 2625
2625 2665 2666 2626
2626 2666 2667 2627
2627 2667 2668 2628
2628 2668 2669 2629
2629 2669 2670 2630
2630 2670 2671 2631
2631 2671 2672 2632
2632 2672 2673 2633
2633 2673 2674 2634
2634 2674 2675 2635
2635 2675 2676 2636
2636 2676 2677 2637
2637 2677 143 142
65 66 2678 2638
2638 2678 2679 2639
2639 2679 2680 2640
2640 2680 2681 2641
2641 2681 2682 2642
2642 2682 2683 2643
2643 2683 2684 2644
2644 2684 2685 2645
2645 2685 2686 2646
2646 2686 2687 2647
2647 2687 2688 2648
2648 2688 2689 2649
2649 2689 2690 2650
2650 2690 2691 2651
2651 2691 2692 2652
2652 2692 2693 2653
2653 2693 2694 2654
2654 2694 2695 2655
2655 2695 2696 2656
2656 2696 2697 2657
2657 2697 2698 2658
2658 2698 2699 2659
2659 2699 2700 2660
2660 2700 2701 2661
2661 2701 2702 2662
2662 2702 2703 2663
2663 2703 2704 2664
2664 2704 2705 2665
2665 2705 2706 2666
2666 2706 2707 2667
2667 2707 2708 2668
2668 2708 2709 2669
2669 2709 2710 2670
2670 2710 2711 2671
2671 2711 2712 2672
2672 2712 2713 2673
2673 2713 2714 2674
2674 2714 2715 2675
2675 2715 2716 2676
2676 2716 2717 2677
2677 2717 144 143
66 67 2718 2678
2678 2718 2719 2679
2679 2719 2720 2680
2680 2720 2721 2681
2681 2721 2722 2682
2682 2722 2723 2683
2683 2723 2724 2684
2684 2724 2725 2685
2685 2725 2726 2686
2686 2726 2727 2687
2687 2727 2728 2688
2688 2728 2729 2689
2689 2729 2730 2690
2690 2730 2731 2691
2691 2731 2732 2692
2692 2732 2733 2693
2693 2733 2734 2694
2694 2734 2735 2695
2695 2735 2736 2696
2696 2736 2737 2697
2697 2737 2738 2698
2698 2738 2739 2699
2699 2739 2740 2700
2700 2740 2741 2701
2701 2741 2742 2702
2702 2742 2743 2703
2703 2743 2744 2704
2704 2744 2745 2705
2705 2745 2746 2706
2706 2746 2747 2707
2707 2747 2748 2708
2708 2748 2749 2709
2709 2749 2750 2710
2710 2750 2751 2711
2711 2751 2752 2712
2712 2752 2753 2713
2713 2753 2754 2714
2714 2754 2755 2715
2715 2755 2756 2716
2716 2756 2757 2717
2717 2757 145 144
67 68 2758 2718
2718 2758 2759 2719
2719 2759 2760 2720
2720 2760 2761 2721
2721 2761 2762 2722
2722 2762 2763 2723
2723 2763 2764 2724
2724 2764 2765 2725
2725 2765 2766 2726
2726 2766 2767 2727
2727 2767 2768 2728
2728 2768 2769 2729
2729 2769 2770 2730
2730 2770 2771 2731
2731 2771 2772 2732
2732 2772 2773 2733
2733 2773 2774 2734
2734 2774 2775 2735
2735 2775 2776 2736
2736 2776 2777 2737
2737 2777 2778 2738
2738 2778 2779 2739
2739 2779 2780 2740
2740 2780 2781 2741
2741 2781 2782 2742
2742 2782 2783 2743
2743 2783 2784 2744
2744 2784 2785 2745
2745 2785 2786 2746
2746 2786 2787 2747
2747 2787 2788 2748
2748 2788 2789 2749
2749 2789 2790 2750
2750 2790 2791 2751
2751 2791 2792 2752
2752 2792 2793 2753
2753 2793 2794 2754
2754 2794 2795 2755
2755 2795 2796 2756
2756 2796 2797 2757
2757 2797 146 145
68 69 2798 2758
2758 2798 2799 2759
2759 2799 2800 2760
2760 2800 2801 2761
2761 2801 2802 2762
2762 2802 2803 2763
2763 2803 2804 2764
2764 2804 2805 2765
2765 2805 2806 2766
2766 2806 2807 2767
2767 2807 2808 2768
2768 2808 2809 2769
2769 2809 2810 2770
2770 2810 2811 2771
2771 2811 2812 2772
2772 2812 2813 2773
2773 2813 2814 2774
2774 2814 2815 2775
2775 2815 2816 2776
2776 2816 2817 2777
2777 2817 2818 2778
2778 2818 2819 2779
2779 2819 2820 2780
2780 2820 2821 2781
2781 2821 2822 2782
2782 2822 2823 2783
2783 2823 2824 2784
2784 2824 2825 2785
2785 2825 2826 2786
2786 2826 2827 2787
2787 2827 2828 2788
2788 2828 2829 2789
2789 2829 2830 2790
2790 2830 2831 2791
2791 2831 2832 2792
2792 2832 2833 2793
2793 2833 2834 2794
2794 2834 2835 2795
2795 2835 2836 2796
2796 2836 2837 2797
2797 2837 5 146
69 70 2838 2798
2798 2838 2839 2799
2799 2839 2840 2800
2800 2840 2841 2801
2801 2841 2842 2802
2802 2842 2843 2803
2803 2843 2844 2804
2804 2844 2845 2805
2805 2845 2846 2806
2806 2846 2847 2807
2807 2847 2848 2808
2808 2848 2849 2809
2809 2849 2850 2810
2810 2850 2851 2811
2811 2851 2852 2812
2812 2852 2853 2813
2813 2853 2854 2814
2814 2854 2855 2815
2815 2855 2856 2816
2816 2856 2857 2817
2817 2857 2858 2818
2818 2858 2859 2819
2819 2859 2860 2820
2820 2860 2861 2821
2821 2861 2862 2822
2822 2862 2863 2823
2823 2863 2864 2824
2824 2864 2865 2825
2825 2865 2866 2826
2826 2866 2867 2827
2827 2867 2868 2828
2828 2868 2869 2829
2829 2869 2870 2830
2830 2870 2871 2831
2831 2871 2872 2832
2832 2872 2873 2833
2833 2873 2874 2834
2834 2874 2875 2835
2835 2875 2876 2836
2836 2876 2877 2837
2837 2877 147 5
70 71 2878 2838
2838 2878 2879 2839
2839 2879 2880 2840
2840 2880 2881 2841
2841 2881 2882 2842
2842 2882 2883 2843
2843 2883 2884 2844
2844 2884 2885 2845
2845 2885 2886 2846
2846 2886 2887 2847
2847 2887 2888 2848
2848 2888 2889 2849
2849 2889 2890 2850
2850 2890 2891 2851
2851 2891 2892 2852
2852 2892 2893 2853
2853 2893 2894 2854
2854 2894 2895 2855
2855 2895 2896 2856
2856 2896 2897 2857
2857 2897 2898 2858
2858 2898 2899 2859
2859 2899 2900 2860
2860 2900 2901 2861
2861 2901 2902 2862
2862 2902 2903 2863
2863 2903 2904 2864
2864 2904 2905 2865
2865 2905 2906 2866
2866 2906 2907 2867
2867 2907 2908 2868
2868 2908 2909 2869
2869 2909 2910 2870
2870 2910 2911 2871
2871 2911 2912 2872
2872 2912 2913 2873
2873 2913 2914 2874
2874 2914 2915 2875
2875 2915 2916 2876
2876 2916 2917 2877
2877 2917 148 147
71 72 2918 2878
2878 2918 2919 2879
2879 2919 2920 2880
2880 2920 2921 2881
2881 2921 2922 2882
2882 2922 2923 2883
2883 2923 2924 2884
2884 2924 2925 2885
2885 2925 2926 2886
2886 2926 2927 2887
2887 2927 2928 2888
2888 2928 2929 2889
2889 2929 2930 2890
2890 2930 2931 2891
2891 2931 2932 2892
2892 2932 2933 2893
2893 2933 2934 2894
2894 2934 2935 2895
2895 2935 2936 2896
2896 2936 2937 2897
2897 2937 2938 2898
2898 2938 2939 2899
2899 2939 2940 2900
2900 2940 2941 2901
2901 2941 2942 2902
2902 2942 2943 2903
2903 2943 2944 2904
2904 2944 2945 2905
2905 2945 2946 2906
2906 2946 2947 2907
2907 2947 2948 2908
2908 2948 2949 2909
2909 2949 2950 2910
2910 2950 2951 2911
2911 2951 2952 2912
2912 2952 2953 2913
2913 2953 2954 2914
2914 2954 2955 2915
2915 2955 2956 2916
2916 2956 2957 2917
2917 2957 149 148
72 73 2958 2918
2918 2958 2959 2919
2919 2959 2960 2920
2920 2960 2961 2921
2921 2961 2962 2922
2922 2962 2963 2923
2923 2963 2964 2924
2924 2964 2965 2925
2925 2965 2966 2926
2926 2966 2967 2927
2927 2967 2968 2928
2928 2968 2969 2929
2929 2969 2970 2930
2930 2970 2971 2931
2931 2971 2972 2932
2932 2972 2973 2933
2933 2973 2974 2934
2934 2974 2975 2935
2935 2975 2976 2936
2936 2976 2977 2937
2937 2977 2978 2938
2938 2978 2979 2939
2939 2979 2980 2940
2940 2980 2981 2941
2941 2981 2982 2942
2942 2982 2983 2943
2943 2983 2984 2944
2944 2984 2985 2945
2945 2985 2986 2946
2946 2986 2987 2947
2947 2987 2988 2948
2948 2988 2989 2949
2949 2989 2990 2950
2950 2990 2991 2951
2951 2991 2992 2952
2952 2992 2993 2953
2953 2993 2994 2954
2954 2994 2995 2955
2955 2995 2996 2956
2956 2996 2997 2957
2957 2997 150 149
73 74 2998 2958
2958 2998 2999 2959
2959 2999 3000 2960
2960 3000 3001 2961
2961 3001 3002 2962
2962 3002 3003 2963
2963 3003 3004 2964
2964 3004 3005 2965
2965 3005 3006 2966
2966 3006 3007 2967
2967 3007 3008 2968
2968 3008 3009 2969
2969 3009 3010 2970
2970 3010 3011 2971
2971 3011 3012 2972
2972 3012 3013 2973
2973 3013 3014 2974
2974 3014 3015 2975
2975 3015 3016 2976
2976 3016 3017 2977
2977 3017 3018 2978
2978 3018 3019 2979
2979 3019 3020 2980
2980 3020 3021 2981
2981 3021 3022 2982
2982 3022 3023 2983
2983 3023 3024 2984
2984 3024 3025 2985
2985 3025 3026 2986
2986 3026 3027 2987
2987 3027 3028 2988
2988 3028 3029 2989
2989 3029 3030 2990
2990 3030 3031 2991
2991 3031 3032 2992
2992 3032 3033 2993
2993 3033 3034 2994
2994 3034 3035 2995
2995 3035 3036 2996
2996 3036 3037 2997
2997 3037 151 150
74 75 3038 2998
2998 3038 3039 2999
2999 3039 3040 3000
3000 3040 3041 3001
3001 3041 3042 3002
3002 3042 3043 3003
3003 3043 3044 3004
3004 3044 3045 3005
3005 3045 3046 3006
3006 3046 3047 3007
3007 3047 3048 3008
3008 3048 3049 3009
3009 3049 3050 3010
3010 3050 3051 3011
3011 3051 3052 3012
3012 3052 3053 3013
3013 3053 3054 3014
3014 3054 3055 3015
3015 3055 3056 3016
3016 3056 3057 3017
3017 3057 3058 3018
3018 3058 3059 3019
3019 3059 3060 3020
3020 3060 3061 3021
3021 3061 3062 3022
3022 3062 3063 3023
3023 3063 3064 3024
3024 3064 3065 3025
3025 3065 3066 3026
3026 3066 3067 3027
3027 3067 3068 3028
3028 3068 3069 3029
3029 3069 3070 3030
3030 3070 3071 3031
3031 3071 3072 3032
3032 3072 3073 3033
3033 3073 3074 3034
3034 3074 3075 3035
3035 3075 3076 3036
3036 3076 3077 3037
3037 3077 152 151
75 76 3078 3038
3038 3078 3079 3039
3039 3079 3080 3040
3040 3080 3081 3041
3041 3081 3082 3042
3042 3082 3083 3043
3043 3083 3084 3044
3044 3084 3085 3045
3045 3085 3086 3046
3046 3086 3087 3047
3047 3087 3088 3048
3048 3088 3089 3049
3049 3089 3090 3050
3050 3090 3091 3051
3051 3091 3092 3052
3052 3092 3093 3053
3053 3093 3094 3054
3054 3094 3095 3055
3055 3095 3096 3056
3056 3096 3097 3057
3057 3097 3098 3058
3058 3098 3099 3059
3059 3099 3100 3060
3060 3100 3101 3061
3061 3101 3102 3062
3062 3102 3103 3063
3063 3103 3104 3064
3064 3104 3105 3065
3065 3105 3106 3066
3066 3106 3107 3067
3067 3107 3108 3068
3068 3108 3109 3069
3069 3109 3110 3070
3070 3110 3111 3071
3071 3111 3112 3072
3072 3112 3113 3073
3073 3113 3114 3074
3074 3114 3115 3075
3075 3115 3116 3076
3076 3116 3117 3077
3077 3117 153 152
76 77 3118 3078
3078 3118 3119 3079
3079 3119 3120 3080
3080 3120 3121 3081
3081 3121 3122 3082
3082 3122 3123 3083
3083 3123 3124 3084
3084 3124 3125 3085
3085 3125 3126 3086
3086 3126 3127 3087
3087 3127 3128 3088
3088 3128 3129 3089
3089 3129 3130 3090
3090 3130 3131 3091
3091 3131 3132 3092
3092 3132 3133 3093
3093 3133 3134 3094
3094 3134 3135 3095
3095 3135 3136 3096
3096 3136 3137 3097
3097 3137 3138 3098
3098 3138 3139 3099
3099 3139 3140 3100
3100 3140 3141 3101
3101 3141 3142 3102
3102 3142 3143 3103
3103 3143 3144 3104
3104 3144 3145 3105
3105 3145 3146 3106
3106 3146 3147 3107
3107 3147 3148 3108
3108 3148 3149 3109
3109 3149 3150 3110
3110 3150 3151 3111
3111 3151 3152 3112
3112 3152 3153 3113
3113 3153 3154 3114
3114 3154 3155 3115
3115 3155 3156 3116
3116 3156 3157 3117
3117 3157 154 153
77 78 3158 3118
3118 3158 3159 3119
3119 3159 3160 3120
3120 3160 3161 3121
3121 3161 3162 3122
3122 3162 3163 3123
3123 3163 3164 3124
3124 3164 3165 3125
3125 3165 3166 3126
3126 3166 3167 3127
3127 3167 3168 3128
3128 3168 3169 3129
3129 3169 3170 3130
3130 3170 3171 3131
3131 3171 3172 3132
3132 3172 3173 3133
3133 3173 3174 3134
3134 3174 3175 3135
3135 3175 3176 3136
3136 3176 3177 3137
3137 3177 3178 3138
3138 3178 3179 3139
3139 3179 3180 3140
3140 3180 3181 3141
3141 3181 3182 3142
3142 3182 3183 3143
3143 3183 3184 3144
3144 3184 3185 3145
3145 3185 3186 3146
3146 3186 3187 3147
3147 3187 3188 3148
3148 3188 3189 3149
3149 3189 3190 3150
3150 3190 3191 3151
3151 3191 3192 3152
3152 3192 3193 3153
3153 3193 3194 3154
3154 3194 3195 3155
3155 3195 3196 3156
3156 3196 3197 3157
3157 3197 155 154
78 79 3198 3158
3158 3198 3199 3159
3159 3199 3200 3160
3160 3200 3201 3161
3161 3201 3202 3162
3162 3202 3203 3163
3163 3203 3204 3164
3164 3204 3205 3165
3165 3205 3206 3166
3166 3206 3207 3167
3167 3207 3208 3168
3168 3208 3209 3169
3169 3209 3210 3170
3170 3210 3211 3171
3171 3211 3212 3172
3172 3212 3213 3173
3173 3213 3214 3174
3174 3214 3215 3175
3175 3215 3216 3176
3176 3216 3217 3177
3177 3217 3218 3178
3178 3218 3219 3179
3179 3219 3220 3180
3180 3220 3221 3181
3181 3221 3222 3182
3182 3222 3223 3183
3183 3223 3224 3184
3184 3224 3225 3185
3185 3225 3226 3186
3186 3226 3227 3187
3187 3227 3228 3188
3188 3228 3229 3189
3189 3229 3230 3190
3190 3230 3231 3191
3191 3231 3232 3192
3192 3232 3233 3193
3193 3233 3234 3194
3194 3234 3235 3195
3195 3235 3236 3196
3196 3236 3237 3197
3197 3237 156 155
79 80 3238 3198
3198 3238 3239 3199
3199 3239 3240 3200
3200 3240 3241 3201
3201 3241 3242 3202
3202 3242 3243 3203
3203 3243 3244 3204
3204 3244 3245 3205
3205 3245 3246 3206
3206 3246 3247 3207
3207 3247 3248 3208
3208 3248 3249 3209
3209 3249 3250 3210
3210 3250 3251 3211
3211 3251 3252 3212
3212 3252 3253 3213
3213 3253 3254 3214
3214 3254 3255 3215
3215 3255 3256 3216
3216 3256 3257 3217
3217 3257 3258 3218
3218 3258 3259 3219
3219 3259 3260 3220
3220 3260 3261 3221
3221 3261 3262 3222
3222 3262 3263 3223
3223 3263 3264 3224
3224 3264 3265 3225
3225 3265 3266 3226
3226 3266 3267 3227
3227 3267 3268 3228
3228 3268 3269 3229
3229 3269 3270 3230
3230 3270 3271 3231
3231 3271 3272 3232
3232 3272 3273 3233
3233 3273 3274 3234
3234 3274 3275 3235
3235 3275 3276 3236
3236 3276 3277 3237
3237 3277 157 156
80 81 3278 3238
3238 3278 3279 3239
3239 3279 3280 3240
3240 3280 3281 3241
3241 3281 3282 3242
3242 3282 3283 3243
3243 3283 3284 3244
3244 3284 3285 3245
3245 3285 3286 3246
3246 3286 3287 3247
3247 3287 3288 3248
3248 3288 3289 3249
3249 3289 3290 3250
3250 3290 3291 3251
3251 3291 3292 3252
3252 3292 3293 3253
3253 3293 3294 3254
3254 3294 3295 3255
3255 3295 3296 3256
3256 3296 3297 3257
3257 3297 3298 3258
3258 3298 3299 3259
3259 3299 3300 3260
3260 3300 3301 3261
3261 3301 3302 3262
3262 3302 3303 3263
3263 3303 3304 3264
3264 3304 3305 3265
3265 3305 3306 3266
3266 3306 3307 3267
3267 3307 3308 3268
3268 3308 3309 3269
3269 3309 3310 3270
3270 3310 3311 3271
3271 3311 3312 3272
3272 3312 3313 3273
3273 3313 3314 3274
3274 3314 3315 3275
3275 3315 3316 3276
3276 3316 3317 3277
3277 3317 158 157
81 82 3318 3278
3278 3318 3319 3279
3279 3319 3320 3280
3280 3320 3321 3281
3281 3321 3322 3282
3282 3322 3323 3283
3283 3323 3324 3284
3284 3324 3325 3285
3285 3325 3326 3286
3286 3326 3327 3287
3287 3327 3328 3288
3288 3328 3329 3289
3289 3329 3330 3290
3290 3330 3331 3291
3291 3331 3332 3292
3292 3332 3333 3293
3293 3333 3334 3294
3294 3334 3335 3295
3295 3335 3336 3296
3296 3336 3337 3297
3297 3337 3338 3298
3298 3338 3339 3299
3299 3339 3340 3300
3300 3340 3341 3301
3301 3341 3342 3302
3302 3342 3343 3303
3303 3343 3344 3304
3304 3344 3345 3305
3305 3345 3346 3306
3306 3346 3347 3307
3307 3347 3348 3308
3308 3348 3349 3309
3309 3349 3350 3310
3310 3350 3351 3311
3311 3351 3352 3312
3312 3352 3353 3313
3313 3353 3354 3314
3314 3354 3355 3315
3315 3355 3356 3316
3316 3356 3357 3317
3317 3357 159 158
82 83 3358 3318
3318 3358 3359 3319
3319 3359 3360 3320
3320 3360 3361 3321
3321 3361 3362 3322
3322 3362 3363 3323
3323 3363 3364 3324
3324 3364 3365 3325
3325 3365 3366 3326
3326 3366 3367 3327
3327 3367 3368 3328
3328 3368 3369 3329
3329 3369 3370 3330
3330 3370 3371 3331
3331 3371 3372 3332
3332 3372 3373 3333
3333 3373 3374 3334
3334 3374 3375 3335
3335 3375 3376 3336
3336 3376 3377 3337
3337 3377 3378 3338
3338 3378 3379 3339
3339 3379 3380 3340
3340 3380 3381 3341
3341 3381 3382 3342
3342 3382 3383 3343
3343 3383 3384 3344
3344 3384 3385 3345
3345 3385 3386 3346
3346 3386 3387 3347
3347 3387 3388 3348
3348 3388 3389 3349
3349 3389 3390 3350
3350 3390 3391 3351
3351 3391 3392 3352
3352 3392 3393 3353
3353 3393 3394 3354
3354 3394 3395 3355
3355 3395 3396 3356
3356 3396 3397 3357
3357 3397 160 159
83 84 3398 3358
3358 3398 3399 3359
3359 3399 3400 3360
3360 3400 3401 3361
3361 3401 3402 3362
3362 3402 3403 3363
3363 3403 3404 3364
3364 3404 3405 3365
3365 3405 3406 3366
3366 3406 3407 3367
3367 3407 3408 3368
3368 3408 3409 3369
3369 3409 3410 3370
3370 3410 3411 3371
3371 3411 3412 3372
3372 3412 3413 3373
3373 3413 3414 3374
3374 3414 3415 3375
3375 3415 3416 3376
3376 3416 3417 3377
3377 3417 3418 3378
3378 3418 3419 3379
3379 3419 3420 3380
3380 3420 3421 3381
3381 3421 3422 3382
3382 3422 3423 3383
3383 3423 3424 3384
3384 3424 3425 3385
3385 3425 3426 3386
3386 3426 3427 3387
3387 3427 3428 3388
3388 3428 3429 3389
3389 3429 3430 3390
3390 3430 3431 3391
3391 3431 3432 3392
3392 3432 3433 3393
3393 3433 3434 3394
3394 3434 3435 3395
3395 3435 3436 3396
3396 3436 3437 3397
3397 3437 161 160
84 85 3438 3398
3398 3438 3439 3399
3399 3439 3440 3400
3400 3440 3441 3401
3401 3441 3442 3402
3402 3442 3443 3403
3403 3443 3444 3404
3404 3444 3445 3405
3405 3445 3446 3406
3406 3446 3447 3407
3407 3447 3448 3408
3408 3448 3449 3409
3409 3449 3450 3410
3410 3450 3451 3411
3411 3451 3452 3412
3412 3452 3453 3413
3413 3453 3454 3414
3414 3454 3455 3415
3415 3455 3456 3416
3416 3456 3457 3417
3417 3457 3458 3418
3418 3458 3459 3419
3419 3459 3460 3420
3420 3460 3461 3421
3421 3461 3462 3422
3422 3462 3463 3423
3423 3463 3464 3424
3424 3464 3465 3425
3425 3465 3466 3426
3426 3466 3467 3427
3427 3467 3468 3428
3428 3468 3469 3429
3429 3469 3470 3430
3430 3470 3471 3431
3431 3471 3472 3432
3432 3472 3473 3433
3433 3473 3474 3434
3434 3474 3475 3435
3435 3475 3476 3436
3436 3476 3477 3437
3437 3477 162 161
85 86 3478 3438
3438 3478 3479 3439
3439 3479 3480 3440
3440 3480 3481 3441
3441 3481 3482 3442
3442 3482 3483 3443
3443 3483 3484 3444
3444 3484 3485 3445
3445 3485 3486 3446
3446 3486 3487 3447
3447 3487 3488 3448
3448 3488 3489 3449
3449 3489 3490 3450
3450 3490 3491 3451
3451 3491 3492 3452
3452 3492 3493 3453
3453 3493 3494 3454
3454 3494 3495 3455
3455 3495 3496 3456
3456 3496 3497 3457
3457 3497 3498 3458
3458 3498 3499 3459
3459 3499 3500 3460
3460 3500 3501 3461
3461 3501 3502 3462
3462 3502 3503 3463
3463 3503 3504 3464
3464 3504 3505 3465
3465 3505 3506 3466
3466 3506 3507 3467
3467 3507 3508 3468
3468 3508 3509 3469
3469 3509 3510 3470
3470 3510 3511 3471
3471 3511 3512 3472
3472 3512 3513 3473
3473 3513 3514 3474
3474 3514 3515 3475
3475 3515 3516 3476
3476 3516 3517 3477
3477 3517 163 162
86 87 3518 3478
3478 3518 3519 3479
3479 3519 3520 3480
3480 3520 3521 3481
3481 3521 3522 3482
3482 3522 3523 3483
3483 3523 3524 3484
3484 3524 3525 3485
3485 3525 3526 3486
3486 3526 3527 3487
3487 3527 3528 3488
3488 3528 3529 3489
3489 3529 3530 3490
3490 3530 3531 3491
3491 3531 3532 3492
3492 3532 3533 3493
3493 3533 3534 3494
3494 3534 3535 3495
3495 3535 3536 3496
3496 3536 3537 3497
3497 3537 3538 3498
3498 3538 3539 3499
3499 3539 3540 3500
3500 3540 3541 3501
3501 3541 3542 3502
3502 3542 3543 3503
3503 3543 3544 3504
3504 3544 3545 3505
3505 3545 3546 3506
3506 3546 3547 3507
3507 3547 3548 3508
3508 3548 3549 3509
3509 3549 3550 3510
3510 3550 3551 3511
3511 3551 3552 3512
3512 3552 3553 3513
3513 3553 3554 3514
3514 3554 3555 3515
3515 3555 3556 3516
3516 3556 3557 3517
3517 3557 164 163
87 88 3558 3518
3518 3558 3559 3519
3519 3559 3560 3520
3520 3560 3561 3521
3521 3561 3562 3522
3522 3562 3563 3523
3523 3563 3564 3524
3524 3564 3565 3525
3525 3565 3566 3526
3526 3566 3567 3527
3527 3567 3568 3528
3528 3568 3569 3529
3529 3569 3570 3530
3530 3570 3571 3531
3531 3571 3572 3532
3532 3572 3573 3533
3533 3573 3574 3534
3534 3574 3575 3535
3535 3575 3576 3536
3536 3576 3577 3537
3537 3577 3578 3538
3538 3578 3579 3539
3539 3579 3580 3540
3540 3580 3581 3541
3541 3581 3582 3542
3542 3582 3583 3543
3543 3583 3584 3544
3544 3584 3585 3545
3545 3585 3586 3546
3546 3586 3587 3547
3547 3587 3588 3548
3548 3588 3589 3549
3549 3589 3590 3550
3550 3590 3591 3551
3551 3591 3592 3552
3552 3592 3593 3553
3553 3593 3594 3554
3554 3594 3595 3555
3555 3595 3596 3556
3556 3596 3597 3557
3557 3597 165 164
88 2 322 3558
3558 322 321 3559
3559 321 320 3560
3560 320 319 3561
3561 319 318 3562
3562 318 317 3563
3563 317 316 3564
3564 316 315 3565
3565 315 314 3566
3566 314 313 3567
3567 313 312 3568
3568 312 311 3569
3569 311 310 3570
3570 310 309 3571
3571 309 308 3572
3572 308 307 3573
3573 307 306 3574
3574 306 305 3575
3575 305 304 3576
3576 304 303 3577
3577 303 302 3578
3578 302 301 3579
3579 301 300 3580
3580 300 299 3581
3581 299 298 3582
3582 298 297 3583
3583 297 296 3584
3584 296 295 3585
3585 295 294 3586
3586 294 293 3587
3587 293 292 3588
3588 292 291 3589
3589 291 290 3590
3590 290 289 3591
3591 289 288 3592
3592 288 287 3593
3593 287 286 3594
3594 286 285 3595
3595 285 284 3596
3596 284 283 3597
3597 283 6 165
4 108 3598 380
380 3598 3599 379
379 3599 3600 378
378 3600 3601 377
377 3601 3602 376
376 3602 3603 375
375 3603 3604 374
374 3604 3605 373
373 3605 3606 372
372 3606 3607 371
371 3607 3608 370
370 3608 3609 369
369 3609 3610 368
368 3610 3611 367
367 3611 3612 366
366 3612 3613 365
365 3613 3614 364
364 3614 3615 363
363 3615 3616 362
362 3616 323 9
108 109 3617 3598
3598 3617 3618 3599
3599 3618 3619 3600
3600 3619 3620 3601
3601 3620 3621 3602
3602 3621 3622 3603
3603 3622 3623 3604
3604 3623 3624 3605
3605 3624 3625 3606
3606 3625 3626 3607
3607 3626 3627 3608
3608 3627 3628 3609
3609 3628 3629 3610
3610 3629 3630 3611
3611 3630 3631 3612
3612 3631 3632 3613
3613 3632 3633 3614
3614 3633 3634 3615
3615 3634 3635 3616
3616 3635 324 323
109 110 3636 3617
3617 3636 3637 3618
3618 3637 3638 3619
3619 3638 3639 3620
3620 3639 3640 3621
3621 3640 3641 3622
3622 3641 3642 3623
3623 3642 3643 3624
3624 3643 3644 3625
3625 3644 3645 3626
3626 3645 3646 3627
3627 3646 3647 3628
3628 3647 3648 3629
3629 3648 3649 3630
3630 3649 3650 3631
3631 3650 3651 3632
3632 3651 3652 3633
3633 3652 3653 3634
3634 3653 3654 3635
3635 3654 325 324
110 111 3655 3636
3636 3655 3656 3637
3637 3656 3657 3638
3638 3657 3658 3639
3639 3658 3659 3640
3640 3659 3660 3641
3641 3660 3661 3642
3642 3661 3662 3643
3643 3662 3663 3644
3644 3663 3664 3645
3645 3664 3665 3646
3646 3665 3666 3647
3647 3666 3667 3648
3648 3667 3668 3649
3649 3668 3669 3650
3650 3669 3670 3651
3651 3670 3671 3652
3652 3671 3672 3653
3653 3672 3673 3654
3654 3673 326 325
111 112 3674 3655
3655 3674 3675 3656
3656 3675 3676 3657
3657 3676 3677 3658
3658 3677 3678 3659
3659 3678 3679 3660
3660 3679 3680 3661
3661 3680 3681 3662
3662 3681 3682 3663
3663 3682 3683 3664
3664 3683 3684 3665
3665 3684 3685 3666
3666 3685 3686 3667
3667 3686 3687 3668
3668 3687 3688 3669
3669 3688 3689 3670
3670 3689 3690 3671
3671 3690 3691 3672
3672 3691 3692 3673
3673 3692 327 326
112 113 3693 3674
3674 3693 3694 3675
3675 3694 3695 3676
3676 3695 3696 3677
3677 3696 3697 3678
3678 3697 3698 3679
3679 3698 3699 3680
3680 3699 3700 3681
3681 3700 3701 3682
3682 3701 3702 3683
3683 3702 3703 3684
3684 3703 3704 3685
3685 3704 3705 3686
3686 3705 3706 3687
3687 3706 3707 3688
3688 3707 3708 3689
3689 3708 3709 3690
3690 3709 3710 3691
3691 3710 3711 3692
3692 3711 328 327
113 114 3712 3693
3693 3712 3713 3694
3694 3713 3714 3695
3695 3714 3715 3696
3696 3715 3716 3697
3697 3716 3717 3698
3698 3717 3718 3699
3699 3718 3719 3700
3700 3719 3720 3701
3701 3720 3721 3702
3702 3721 3722 3703
3703 3722 3723 3704
3704 3723 3724 3705
3705 3724 3725 3706
3706 3725 3726 3707
3707 3726 3727 3708
3708 3727 3728 3709
3709 3728 3729 3710
3710 3729 3730 3711
3711 3730 329 328
114 115 3731 3712
3712 3731 3732 3713
3713 3732 3733 3714
3714 3733 3734 3715
3715 3734 3735 3716
3716 3735 3736 3717
3717 3736 3737 3718
3718 3737 3738 3719
3719 3738 3739 3720
3720 3739 3740 3721
3721 3740 3741 3722
3722 3741 3742 3723
3723 3742 3743 3724
3724 3743 3744 3725
3725 3744 3745 3726
3726 3745 3746 3727
3727 3746 3747 3728
3728 3747 3748 3729
3729 3748 3749 3730
3730 3749 330 329
115 116 3750 3731
3731 3750 3751 3732
3732 3751 3752 3733
3733 3752 3753 3734
3734 3753 3754 3735
3735 3754 3755 3736
3736 3755 3756 3737
3737 3756 3757 3738
3738 3757 3758 3739
3739 3758 3759 3740
3740 3759 3760 3741
3741 3760 3761 3742
3742 3761 3762 3743
3743 3762 3763 3744
3744 3763 3764 3745
3745 3764 3765 3746
3746 3765 3766 3747
3747 3766 3767 3748
3748 3767 3768 3749
3749 3768 331 330
116 117 3769 3750
3750 3769 3770 3751
3751 3770 3771 3752
3752 3771 3772 3753
3753 3772 3773 3754
3754 3773 3774 3755
3755 3774 3775 3756
3756 3775 3776 3757
3757 3776 3777 3758
3758 3777 3778 3759
3759 3778 3779 3760
3760 3779 3780 3761
3761 3780 3781 3762
3762 3781 3782 3763
3763 3782 3783 3764
3764 3783 3784 3765
3765 3784 3785 3766
3766 3785 3786 3767
3767 3786 3787 3768
3768 3787 332 331
117 118 3788 3769
3769 3788 3789 3770
3770 3789 3790 3771
3771 3790 3791 3772
3772 3791 3792 3773
3773 3792 3793 3774
3774 3793 3794 3775
3775 3794 3795 3776
3776 3795 3796 3777
3777 3796 3797 3778
3778 3797 3798 3779
3779 3798 3799 3780
3780 3799 3800 3781
3781 3800 3801 3782
3782 3801 3802 3783
3783 3802 3803 3784
3784 3803 3804 3785
3785 3804 3805 3786
3786 3805 3806 3787
3787 3806 333 332
118 119 3807 3788
3788 3807 3808 3789
3789 3808 3809 3790
3790 3809 3810 3791
3791 3810 3811 3792
3792 3811 3812 3793
3793 3812 3813 3794
3794 3813 3814 3795
3795 3814 3815 3796
3796 3815 3816 3797
3797 3816 3817 3798
3798 3817 3818 3799
3799 3818 3819 3800
3800 3819 3820 3801
3801 3820 3821 3802
3802 3821 3822 3803
3803 3822 3823 3804
3804 3823 3824 3805
3805 3824 3825 3806
3806 3825 334 333
119 120 3826 3807
3807 3826 3827 3808
3808 3827 3828 3809
3809 3828 3829 3810
3810 3829 3830 3811
3811 3830 3831 3812
3812 3831 3832 3813
3813 3832 3833 3814
3814 3833 3834 3815
3815 3834 3835 3816
3816 3835 3836 3817
3817 3836 3837 3818
3818 3837 3838 3819
3819 3838 3839 3820
3820 3839 3840 3821
3821 3840 3841 3822
3822 3841 3842 3823
3823 3842 3843 3824
3824 3843 3844 3825
3825 3844 335 334
120 121 3845 3826
3826 3845 3846 3827
3827 3846 3847 3828
3828 3847 3848 3829
3829 3848 3849 3830
3830 3849 3850 3831
3831 3850 3851 3832
3832 3851 3852 3833
3833 3852 3853 3834
3834 3853 3854 3835
3835 3854 3855 3836
3836 3855 3856 3837
3837 3856 3857 3838
3838 3857 3858 3839
3839 3858 3859 3840
3840 3859 3860 3841
3841 3860 3861 3842
3842 3861 3862 3843
3843 3862 3863 3844
3844 3863 336 335
121 122 3864 3845
3845 3864 3865 3846
3846 3865 3866 3847
3847 3866 3867 3848
3848 3867 3868 3849
3849 3868 3869 3850
3850 3869 3870 3851
3851 3870 3871 3852
3852 3871 3872 3853
3853 3872 3873 3854
3854 3873 3874 3855
3855 3874 3875 3856
3856 3875 3876 3857
3857 3876 3877 3858
3858 3877 3878 3859
3859 3878 3879 3860
3860 3879 3880 3861
3861 3880 3881 3862
3862 3881 3882 3863
3863 3882 337 336
122 123 3883 3864
3864 3883 3884 3865
3865 3884 3885 3866
3866 3885 3886 3867
3867 3886 3887 3868
3868 3887 3888 3869
3869 3888 3889 3870
3870 3889 3890 3871
3871 3890 3891 3872
3872 3891 3892 3873
3873 3892 3893 3874
3874 3893 3894 3875
3875 3894 3895 3876
3876 3895 3896 3877
3877 3896 3897 3878
3878 3897 3898 3879
3879 3898 3899 3880
3880 3899 3900 3881
3881 3900 3901 3882
3882 3901 338 337
123 124 3902 3883
3883 3902 3903 3884
3884 3903 3904 3885
3885 3904 3905 3886
3886 3905 3906 3887
3887 3906 3907 3888
3888 3907 3908 3889
3889 3908 3909 3890
3890 3909 3910 3891
3891 3910 3911 3892
3892 3911 3912 3893
3893 3912 3913 3894
3894 3913 3914 3895
3895 3914 3915 3896
3896 3915 3916 3897
3897 3916 3917 3898
3898 3917 3918 3899
3899 3918 3919 3900
3900 3919 3920 3901
3901 3920 339 338
124 125 3921 3902
3902 3921 3922 3903
3903 3922 3923 3904
3904 3923 3924 3905
3905 3924 3925 3906
3906 3925 3926 3907
3907 3926 3927 3908
3908 3927 3928 3909
3909 3928 3929 3910
3910 3929 3930 3911
3911 3930 3931 3912
3912 3931 3932 3913
3913 3932 3933 3914
3914 3933 3934 3915
3915 3934 3935 3916
3916 3935 3936 3917
3917 3936 3937 3918
3918 3937 3938 3919
3919 3938 3939 3920
3920 3939 340 339
125 126 3940 3921
3921 3940 3941 3922
3922 3941 3942 3923
3923 3942 3943 3924
3924 3943 3944 3925
3925 3944 3945 3926
3926 3945 3946 3927
3927 3946 3947 3928
3928 3947 3948 3929
3929 3948 3949 3930
3930 3949 3950 3931
3931 3950 3951 3932
3932 3951 3952 3933
3933 3952 3953 3934
3934 3953 3954 3935
3935 3954 3955 3936
3936 3955 3956 3937
3937 3956 3957 3938
3938 3957 3958 3939
3939 3958 341 340
126 127 3959 3940
3940 3959 3960 3941
3941 3960 3961 3942
3942 3961 3962 3943
3943 3962 3963 3944
3944 3963 3964 3945
3945 3964 3965 3946
3946 3965 3966 3947
3947 3966 3967 3948
3948 3967 3968 3949
3949 3968 3969 3950
3950 3969 3970 3951
3951 3970 3971 3952
3952 3971 3972 3953
3953 3972 3973 3954
3954 3973 3974 3955
3955 3974 3975 3956
3956 3975 3976 3957
3957 3976 3977 3958
3958 3977 342 341
127 128 3978 3959
3959 3978 3979 3960
3960 3979 3980 3961
3961 3980 3981 3962
3962 3981 3982 3963
3963 3982 3983 3964
3964 3983 3984 3965
3965 3984 3985 3966
3966 3985 3986 3967
3967 3986 3987 3968
3968 3987 3988 3969
3969 3988 3989 3970
3970 3989 3990 3971
3971 3990 3991 3972
3972 3991 3992 3973
3973 3992 3993 3974
3974 3993 3994 3975
3975 3994 3995 3976
3976 3995 3996 3977
3977 3996 343 342
128 129 3997 3978
3978 3997 3998 3979
3979 3998 3999 3980
3980 3999 4000 3981
3981 4000 4001 3982
3982 4001 4002 3983
3983 4002 4003 3984
3984 4003 4004 3985
3985 4004 4005 3986
3986 4005 4006 3987
3987 4006 4007 3988
3988 4007 4008 3989
3989 4008 4009 3990
3990 4009 4010 3991
3991 4010 4011 3992
3992 4011 4012 3993
3993 4012 4013 3994
3994 4013 4014 3995
3995 4014 4015 3996
3996 4015 344 343
129 130 4016 3997
3997 4016 4017 3998
3998 4017 4018 3999
3999 4018 4019 4000
4000 4019 4020 4001
4001 4020 4021 4002
4002 4021 4022 4003
4003 4022 4023 4004
4004 4023 4024 4005
4005 4024 4025 4006
4006 4025 4026 4007
4007 4026 4027 4008
4008 4027 4028 4009
4009 4028 4029 4010
4010 4029 4030 4011
4011 4030 4031 4012
4012 4031 4032 4013
4013 4032 4033 4014
4014 4033 4034 4015
4015 4034 345 344
130 131 4035 4016
4016 4035 4036 4017
4017 4036 4037 4018
4018 4037 4038 4019
4019 4038 4039 4020
4020 4039 4040 4021
4021 4040 4041 4022
4022 4041 4042 4023
4023 4042 4043 4024
4024 4043 4044 4025
4025 4044 4045 4026
4026 4045 4046 4027
4027 4046 4047 4028
4028 4047 4048 4029
4029 4048 4049 4030
4030 4049 4050 4031
4031 4050 4051 4032
4032 4051 4052 4033
4033 4052 4053 4034
4034 4053 346 345
131 132 4054 4035
4035 4054 4055 4036
4036 4055 4056 4037
4037 4056 4057 4038
4038 4057 4058 4039
4039 4058 4059 4040
4040 4059 4060 4041
4041 4060 4061 4042
4042 4061 4062 4043
4043 4062 4063 4044
4044 4063 4064 4045
4045 4064 4065 4046
4046 4065 4066 4047
4047 4066 4067 4048
4048 4067 4068 4049
4049 4068 4069 4050
4050 4069 4070 4051
4051 4070 4071 4052
4052 4071 4072 4053
4053 4072 347 346
132 133 4073 4054
4054 4073 4074 4055
4055 4074 4075 4056
4056 4075 4076 4057
4057 4076 4077 4058
4058 4077 4078 4059
4059 4078 4079 4060
4060 4079 4080 4061
4061 4080 4081 4062
4062 4081 4082 4063
4063 4082 4083 4064
4064 4083 4084 4065
4065 4084 4085 4066
4066 4085 4086 4067
4067 4086 4087 4068
4068 4087 4088 4069
4069 4088 4089 4070
4070 4089 4090 4071
4071 4090 4091 4072
4072 4091 348 347
133 134 4092 4073
4073 4092 4093 4074
4074 4093 4094 4075
4075 4094 4095 4076
4076 4095 4096 4077
4077 4096 4097 4078
4078 4097 4098 4079
4079 4098 4099 4080
4080 4099 4100 4081
4081 4100 4101 4082
4082 4101 4102 4083
4083 4102 4103 4084
4084 4103 4104 4085
4085 4104 4105 4086
4086 4105 4106 4087
4087 4106 4107 4088
4088 4107 4108 4089
4089 4108 4109 4090
4090 4109 4110 4091
4091 4110 349 348
134 135 4111 4092
4092 4111 4112 4093
4093 4112 4113 4094
4094 4113 4114 4095
4095 4114 4115 4096
4096 4115 4116 4097
4097 4116 4117 4098
4098 4117 4118 4099
4099 4118 4119 4100
4100 4119 4120 4101
4101 4120 4121 4102
4102 4121 4122 4103
4103 4122 4123 4104
4104 4123 4124 4105
4105 4124 4125 4106
4106 4125 4126 4107
4107 4126 4127 4108
4108 4127 4128 4109
4109 4128 4129 4110
4110 4129 350 349
135 136 4130 4111
4111 4130 4131 4112
4112 4131 4132 4113
4113 4132 4133 4114
4114 4133 4134 4115
4115 4134 4135 4116
4116 4135 4136 4117
4117 4136 4137 4118
4118 4137 4138 4119
4119 4138 4139 4120
4120 4139 4140 4121
4121 4140 4141 4122
4122 4141 4142 4123
4123 4142 4143 4124
4124 4143 4144 4125
4125 4144 4145 4126
4126 4145 4146 4127
4127 4146 4147 4128
4128 4147 4148 4129
4129 4148 351 350
136 137 4149 4130
4130 4149 4150 4131
4131 4150 4151 4132
4132 4151 4152 4133
4133 4152 4153 4134
4134 4153 4154 4135
4135 4154 4155 4136
4136 4155 4156 4137
4137 4156 4157 4138
4138 4157 4158 4139
4139 4158 4159 4140
4140 4159 4160 4141
4141 4160 4161 4142
4142 4161 4162 4143
4143 4162 4163 4144
4144 4163 4164 4145
4145 4164 4165 4146
4146 4165 4166 4147
4147 4166 4167 4148
4148 4167 352 351
137 138 4168 4149
4149 4168 4169 4150
4150 4169 4170 4151
4151 4170 4171 4152
4152 4171 4172 4153
4153 4172 4173 4154
4154 4173 4174 4155
4155 4174 4175 4156
4156 4175 4176 4157
4157 4176 4177 4158
4158 4177 4178 4159
4159 4178 4179 4160
4160 4179 4180 4161
4161 4180 4181 4162
4162 4181 4182 4163
4163 4182 4183 4164
4164 4183 4184 4165
4165 4184 4185 4166
4166 4185 4186 4167
4167 4186 353 352
138 139 4187 4168
4168 4187 4188 4169
4169 4188 4189 4170
4170 4189 4190 4171
4171 4190 4191 4172
4172 4191 4192 4173
4173 4192 4193 4174
4174 4193 4194 4175
4175 4194 4195 4176
4176 4195 4196 4177
4177 4196 4197 4178
4178 4197 4198 4179
4179 4198 4199 4180
4180 4199 4200 4181
4181 4200 4201 4182
4182 4201 4202 4183
4183 4202 4203 4184
4184 4203 4204 4185
4185 4204 4205 4186
4186 4205 354 353
139 140 4206 4187
4187 4206 4207 4188
4188 4207 4208 4189
4189 4208 4209 4190
4190 4209 4210 4191
4191 4210 4211 4192
4192 4211 4212 4193
4193 4212 4213 4194
4194 4213 4214 4195
4195 4214 4215 4196
4196 4215 4216 4197
4197 4216 4217 4198
4198 4217 4218 4199
4199 4218 4219 4200
4200 4219 4220 4201
4201 4220 4221 4202
4202 4221 4222 4203
4203 4222 4223 4204
4204 4223 4224 4205
4205 4224 355 354
140 141 4225 4206
4206 4225 4226 4207
4207 4226 4227 4208
4208 4227 4228 4209
4209 4228 4229 4210
4210 4229 4230 4211
4211 4230 4231 4212
4212 4231 4232 4213
4213 4232 4233 4214
4214 4233 4234 4215
4215 4234 4235 4216
4216 4235 4236 4217
4217 4236 4237 4218
4218 4237 4238 4219
4219 4238 4239 4220
4220 4239 4240 4221
4221 4240 4241 4222
4222 4241 4242 4223
4223 4242 4243 4224
4224 4243 356 355
141 142 4244 4225
4225 4244 4245 4226
4226 4245 4246 4227
4227 4246 4247 4228
4228 4247 4248 4229
4229 4248 4249 4230
4230 4249 4250 4231
4231 4250 4251 4232
4232 4251 4252 4233
4233 4252 4253 4234
4234 4253 4254 4235
4235 4254 4255 4236
4236 4255 4256 4237
4237 4256 4257 4238
4238 4257 4258 4239
4239 4258 4259 4240
4240 4259 4260 4241
4241 4260 4261 4242
4242 4261 4262 4243
4243 4262 357 356
142 143 4263 4244
4244 4263 4264 4245
4245 4264 4265 4246
4246 4265 4266 4247
4247 4266 4267 4248
4248 4267 4268 4249
4249 4268 4269 4250
4250 4269 4270 4251
4251 4270 4271 4252
4252 4271 4272 4253
4253 4272 4273 4254
4254 4273 4274 4255
4255 4274 4275 4256
4256 4275 4276 4257
4257 4276 4277 4258
4258 4277 4278 4259
4259 4278 4279 4260
4260 4279 4280 4261
4261 4280 4281 4262
4262 4281 358 357
143 144 4282 4263
4263 4282 4283 4264
4264 4283 4284 4265
4265 4284 4285 4266
4266 4285 4286 4267
4267 4286 4287 4268
4268 4287 4288 4269
4269 4288 4289 4270
4270 4289 4290 4271
4271 4290 4291 4272
4272 4291 4292 4273
4273 4292 4293 4274
4274 4293 4294 4275
4275 4294 4295 4276
4276 4295 4296 4277
4277 4296 4297 4278
4278 4297 4298 4279
4279 4298 4299 4280
4280 4299 4300 4281
4281 4300 359 358
144 145 4301 4282
4282 4301 4302 4283
4283 4302 4303 4284
4284 4303 4304 4285
4285 4304 4305 4286
4286 4305 4306 4287
4287 4306 4307 4288
4288 4307 4308 4289
4289 4308 4309 4290
4290 4309 4310 4291
4291 4310 4311 4292
4292 4311 4312 4293
4293 4312 4313 4294
4294 4313 4314 4295
4295 4314 4315 4296
4296 4315 4316 4297
4297 4316 4317 4298
4298 4317 4318 4299
4299 4318 4319 4300
4300 4319 360 359
145 146 4320 4301
4301 4320 4321 4302
4302 4321 4322 4303
4303 4322 4323 4304
4304 4323 4324 4305
4305 4324 4325 4306
4306 4325 4326 4307
4307 4326 4327 4308
4308 4327 4328 4309
4309 4328 4329 4310
4310 4329 4330 4311
4311 4330 4331 4312
4312 4331 4332 4313
4313 4332 4333 4314
4314 4333 4334 4315
4315 4334 4335 4316
4316 4335 4336 4317
4317 4336 4337 4318
4318 4337 4338 4319
4319 4338 361 360
146 5 399 4320
4320 399 398 4321
4321 398 397 4322
4322 397 396 4323
4323 396 395 4324
4324 395 394 4325
4325 394 393 4326
4326 393 392 4327
4327 392 391 4328
4328 391 390 4329
4329 390 389 4330
4330 389 388 4331
4331 388 387 4332
4332 387 386 4333
4333 386 385 4334
4334 385 384 4335
4335 384 383 4336
4336 383 382 4337
4337 382 381 4338
4338 381 10 361
3 89 4339 166
166 4339 4340 167
167 4340 4341 168
168 4341 4342 169
169 4342 4343 170
170 4343 4344 171
171 4344 4345 172
172 4345 4346 173
173 4346 4347 174
174 4347 4348 175
175 4348 4349 176
176 4349 4350 177
177 4350 4351 178
178 4351 4352 179
179 4352 4353 180
180 4353 4354 181
181 4354 4355 182
182 4355 4356 183
183 4356 4357 184
184 4357 418 7
89 90 4358 4339
4339 4358 4359 4340
4340 4359 4360 4341
4341 4360 4361 4342
4342 4361 4362 4343
4343 4362 4363 4344
4344 4363 4364 4345
4345 4364 4365 4346
4346 4365 4366 4347
4347 4366 4367 4348
4348 4367 4368 4349
4349 4368 4369 4350
4350 4369 4370 4351
4351 4370 4371 4352
4352 4371 4372 4353
4353 4372 4373 4354
4354 4373 4374 4355
4355 4374 4375 4356
4356 4375 4376 4357
4357 4376 417 418
90 91 4377 4358
4358 4377 4378 4359
4359 4378 4379 4360
4360 4379 4380 4361
4361 4380 4381 4362
4362 4381 4382 4363
4363 4382 4383 4364
4364 4383 4384 4365
4365 4384 4385 4366
4366 4385 4386 4367
4367 4386 4387 4368
4368 4387 4388 4369
4369 4388 4389 4370
4370 4389 4390 4371
4371 4390 4391 4372
4372 4391 4392 4373
4373 4392 4393 4374
4374 4393 4394 4375
4375 4394 4395 4376
4376 4395 416 417
91 92 4396 4377
4377 4396 4397 4378
4378 4397 4398 4379
4379 4398 4399 4380
4380 4399 4400 4381
4381 4400 4401 4382
4382 4401 4402 4383
4383 4402 4403 4384
4384 4403 4404 4385
4385 4404 4405 4386
4386 4405 4406 4387
4387 4406 4407 4388
4388 4407 4408 4389
4389 4408 4409 4390
4390 4409 4410 4391
4391 4410 4411 4392
4392 4411 4412 4393
4393 4412 4413 4394
4394 4413 4414 4395
4395 4414 415 416
92 93 4415 4396
4396 4415 4416 4397
4397 4416 4417 4398
4398 4417 4418 4399
4399 4418 4419 4400
4400 4419 4420 4401
4401 4420 4421 4402
4402 4421 4422 4403
4403 4422 4423 4404
4404 4423 4424 4405
4405 4424 4425 4406
4406 4425 4426 4407
4407 4426 4427 4408
4408 4427 4428 4409
4409 4428 4429 4410
4410 4429 4430 4411
4411 4430 4431 4412
4412 4431 4432 4413
4413 4432 4433 4414
4414 4433 414 415
93 94 4434 4415
4415 4434 4435 4416
4416 4435 4436 4417
4417 4436 4437 4418
4418 4437 4438 4419
4419 4438 4439 4420
4420 4439 4440 4421
4421 4440 4441 4422
4422 4441 4442 4423
4423 4442 4443 4424
4424 4443 4444 4425
4425 4444 4445 4426
4426 4445 4446 4427
4427 4446 4447 4428
4428 4447 4448 4429
4429 4448 4449 4430
4430 4449 4450 4431
4431 4450 4451 4432
4432 4451 4452 4433
4433 4452 413 414
94 95 4453 4434
4434 4453 4454 4435
4435 4454 4455 4436
4436 4455 4456 4437
4437 4456 4457 4438
4438 4457 4458 4439
4439 4458 4459 4440
4440 4459 4460 4441
4441 4460 4461 4442
4442 4461 4462 4443
4443 4462 4463 4444
4444 4463 4464 4445
4445 4464 4465 4446
4446 4465 4466 4447
4447 4466 4467 4448
4448 4467 4468 4449
4449 4468 4469 4450
4450 4469 4470 4451
4451 4470 4471 4452
4452 4471 412 413
95 96 4472 4453
4453 4472 4473 4454
4454 4473 4474 4455
4455 4474 4475 4456
4456 4475 4476 4457
4457 4476 4477 4458
4458 4477 4478 4459
4459 4478 4479 4460
4460 4479 4480 4461
4461 4480 4481 4462
4462 4481 4482 4463
4463 4482 4483 4464
4464 4483 4484 4465
4465 4484 4485 4466
4466 4485 4486 4467
4467 4486 4487 4468
4468 4487 4488 4469
4469 4488 4489 4470
4470 4489 4490 4471
4471 4490 411 412
96 97 4491 4472
4472 4491 4492 4473
4473 4492 4493 4474
4474 4493 4494 4475
4475 4494 4495 4476
4476 4495 4496 4477
4477 4496 4497 4478
4478 4497 4498 4479
4479 4498 4499 4480
4480 4499 4500 4481
4481 4500 4501 4482
4482 4501 4502 4483
4483 4502 4503 4484
4484 4503 4504 4485
4485 4504 4505 4486
4486 4505 4506 4487
4487 4506 4507 4488
4488 4507 4508 4489
4489 4508 4509 4490
4490 4509 410 411
97 98 4510 4491
4491 4510 4511 4492
4492 4511 4512 4493
4493 4512 4513 4494
4494 4513 4514 4495
4495 4514 4515 4496
4496 4515 4516 4497
4497 4516 4517 4498
4498 4517 4518 4499
4499 4518 4519 4500
4500 4519 4520 4501
4501 4520 4521 4502
4502 4521 4522 4503
4503 4522 4523 4504
4504 4523 4524 4505
4505 4524 4525 4506
4506 4525 4526 4507
4507 4526 4527 4508
4508 4527 4528 4509
4509 4528 409 410
98 99 4529 4510
4510 4529 4530 4511
4511 4530 4531 4512
4512 4531 4532 4513
4513 4532 4533 4514
4514 4533 4534 4515
4515 4534 4535 4516
4516 4535 4536 4517
4517 4536 4537 4518
4518 4537 4538 4519
4519 4538 4539 4520
4520 4539 4540 4521
4521 4540 4541 4522
4522 4541 4542 4523
4523 4542 4543 4524
4524 4543 4544 4525
4525 4544 4545 4526
4526 4545 4546 4527
4527 4546 4547 4528
4528 4547 408 409
99 100 4548 4529
4529 4548 4549 4530
4530 4549 4550 4531
4531 4550 4551 4532
4532 4551 4552 4533
4533 4552 4553 4534
4534 4553 4554 4535
4535 4554 4555 4536
4536 4555 4556 4537
4537 4556 4557 4538
4538 4557 4558 4539
4539 4558 4559 4540
4540 4559 4560 4541
4541 4560 4561 4542
4542 4561 4562 4543
4543 4562 4563 4544
4544 4563 4564 4545
4545 4564 4565 4546
4546 4565 4566 4547
4547 4566 407 408
100 101 4567 4548
4548 4567 4568 4549
4549 4568 4569 4550
4550 4569 4570 4551
4551 4570 4571 4552
4552 4571 4572 4553
4553 4572 4573 4554
4554 4573 4574 4555
4555 4574 4575 4556
4556 4575 4576 4557
4557 4576 4577 4558
4558 4577 4578 4559
4559 4578 4579 4560
4560 4579 4580 4561
4561 4580 4581 4562
4562 4581 4582 4563
4563 4582 4583 4564
4564 4583 4584 4565
4565 4584 4585 4566
4566 4585 406 407
101 102 4586 4567
4567 4586 4587 4568
4568 4587 4588 4569
4569 4588 4589 4570
4570 4589 4590 4571
4571 4590 4591 4572
4572 4591 4592 4573
4573 4592 4593 4574
4574 4593 4594 4575
4575 4594 4595 4576
4576 4595 4596 4577
4577 4596 4597 4578
4578 4597 4598 4579
4579 4598 4599 4580
4580 4599 4600 4581
4581 4600 4601 4582
4582 4601 4602 4583
4583 4602 4603 4584
4584 4603 4604 4585
4585 4604 405 406
102 103 4605 4586
4586 4605 4606 4587
4587 4606 4607 4588
4588 4607 4608 4589
4589 4608 4609 4590
4590 4609 4610 4591
4591 4610 4611 4592
4592 4611 4612 4593
4593 4612 4613 4594
4594 4613 4614 4595
4595 4614 4615 4596
4596 4615 4616 4597
4597 4616 4617 4598
4598 4617 4618 4599
4599 4618 4619 4600
4600 4619 4620 4601
4601 4620 4621 4602
4602 4621 4622 4603
4603 4622 4623 4604
4604 4623 404 405
103 104 4624 4605
4605 4624 4625 4606
4606 4625 4626 4607
4607 4626 4627 4608
4608 4627 4628 4609
4609 4628 4629 4610
4610 4629 4630 4611
4611 4630 4631 4612
4612 4631 4632 4613
4613 4632 4633 4614
4614 4633 4634 4615
4615 4634 4635 4616
4616 4635 4636 4617
4617 4636 4637 4618
4618 4637 4638 4619
4619 4638 4639 4620
4620 4639 4640 4621
4621 4640 4641 4622
4622 4641 4642 4623
4623 4642 403 404
104 105 4643 4624
4624 4643 4644 4625
4625 4644 4645 4626
4626 4645 4646 4627
4627 4646 4647 4628
4628 4647 4648 4629
4629 4648 4649 4630
4630 4649 4650 4631
4631 4650 4651 4632
4632 4651 4652 4633
4633 4652 4653 4634
4634 4653 4654 4635
4635 4654 4655 4636
4636 4655 4656 4637
4637 4656 4657 4638
4638 4657 4658 4639
4639 4658 4659 4640
4640 4659 4660 4641
4641 4660 4661 4642
4642 4661 402 403
105 106 4662 4643
4643 4662 4663 4644
4644 4663 4664 4645
4645 4664 4665 4646
4646 4665 4666 4647
4647 4666 4667 4648
4648 4667 4668 4649
4649 4668 4669 4650
4650 4669 4670 4651
4651 4670 4671 4652
4652 4671 4672 4653
4653 4672 4673 4654
4654 4673 4674 4655
4655 4674 4675 4656
4656 4675 4676 4657
4657 4676 4677 4658
4658 4677 4678 4659
4659 4678 4679 4660
4660 4679 4680 4661
4661 4680 401 402
106 107 4681 4662
4662 4681 4682 4663
4663 4682 4683 4664
4664 4683 4684 4665
4665 4684 4685 4666
4666 4685 4686 4667
4667 4686 4687 4668
4668 4687 4688 4669
4669 4688 4689 4670
4670 4689 4690 4671
4671 4690 4691 4672
4672 4691 4692 4673
4673 4692 4693 4674
4674 4693 4694 4675
4675 4694 4695 4676
4676 4695 4696 4677
4677 4696 4697 4678
4678 4697 4698 4679
4679 4698 4699 4680
4680 4699 400 401
107 4 380 4681
4681 380 379 4682
4682 379 378 4683
4683 378 377 4684
4684 377 376 4685
4685 376 375 4686
4686 375 374 4687
4687 374 373 4688
4688 373 372 4689
4689 372 371 4690
4690 371 370 4691
4691 370 369 4692
4692 369 368 4693
4693 368 367 4694
4694 367 366 4695
4695 366 365 4696
4696 365 364 4697
4697 364 363 4698
4698 363 362 4699
4699 362 9 400
5 147 4700 399
399 4700 4701 398
398 4701 4702 397
397 4702 4703 396
396 4703 4704 395
395 4704 4705 394
394 4705 4706 393
393 4706 4707 392
392 4707 4708 391
391 4708 4709 390
390 4709 4710 389
389 4710 4711 388
388 4711 4712 387
387 4712 4713 386
386 4713 4714 385
385 4714 4715 384
384 4715 4716 383
383 4716 4717 382
382 4717 4718 381
381 4718 419 10
147 148 4719 4700
4700 4719 4720 4701
4701 4720 4721 4702
4702 4721 4722 4703
4703 4722 4723 4704
4704 4723 4724 4705
4705 4724 4725 4706
4706 4725 4726 4707
4707 4726 4727 4708
4708 4727 4728 4709
4709 4728 4729 4710
4710 4729 4730 4711
4711 4730 4731 4712
4712 4731 4732 4713
4713 4732 4733 4714
4714 4733 4734 4715
4715 4734 4735 4716
4716 4735 4736 4717
4717 4736 4737 4718
4718 4737 420 419
148 149 4738 4719
4719 4738 4739 4720
4720 4739 4740 4721
4721 4740 4741 4722
4722 4741 4742 4723
4723 4742 4743 4724
4724 4743 4744 4725
4725 4744 4745 4726
4726 4745 4746 4727
4727 4746 4747 4728
4728 4747 4748 4729
4729 4748 4749 4730
4730 4749 4750 4731
4731 4750 4751 4732
4732 4751 4752 4733
4733 4752 4753 4734
4734 4753 4754 4735
4735 4754 4755 4736
4736 4755 4756 4737
4737 4756 421 420
149 150 4757 4738
4738 4757 4758 4739
4739 4758 4759 4740
4740 4759 4760 4741
4741 4760 4761 4742
4742 4761 4762 4743
4743 4762 4763 4744
4744 4763 4764 4745
4745 4764 4765 4746
4746 4765 4766 4747
4747 4766 4767 4748
4748 4767 4768 4749
4749 4768 4769 4750
4750 4769 4770 4751
4751 4770 4771 4752
4752 4771 4772 4753
4753 4772 4773 4754
4754 4773 4774 4755
4755 4774 4775 4756
4756 4775 422 421
150 151 4776 4757
4757 4776 4777 4758
4758 4777 4778 4759
4759 4778 4779 4760
4760 4779 4780 4761
4761 4780 4781 4762
4762 4781 4782 4763
4763 4782 4783 4764
4764 4783 4784 4765
4765 4784 4785 4766
4766 4785 4786 4767
4767 4786 4787 4768
4768 4787 4788 4769
4769 4788 4789 4770
4770 4789 4790 4771
4771 4790 4791 4772
4772 4791 4792 4773
4773 4792 4793 4774
4774 4793 4794 4775
4775 4794 423 422
151 152 4795 4776
4776 4795 4796 4777
4777 4796 4797 4778
4778 4797 4798 4779
4779 4798 4799 4780
4780 4799 4800 4781
4781 4800 4801 4782
4782 4801 4802 4783
4783 4802 4803 4784
4784 4803 4804 4785
4785 4804 4805 4786
4786 4805 4806 4787
4787 4806 4807 4788
4788 4807 4808 4789
4789 4808 4809 4790
4790 4809 4810 4791
4791 4810 4811 4792
4792 4811 4812 4793
4793 4812 4813 4794
4794 4813 424 423
152 153 4814 4795
4795 4814 4815 4796
4796 4815 4816 4797
4797 4816 4817 4798
4798 4817 4818 4799
4799 4818 4819 4800
4800 4819 4820 4801
4801 4820 4821 4802
4802 4821 4822 4803
4803 4822 4823 4804
4804 4823 4824 4805
4805 4824 4825 4806
4806 4825 4826 4807
4807 4826 4827 4808
4808 4827 4828 4809
4809 4828 4829 4810
4810 4829 4830 4811
4811 4830 4831 4812
4812 4831 4832 4813
4813 4832 425 424
153 154 4833 4814
4814 4833 4834 4815
4815 4834 4835 4816
4816 4835 4836 4817
4817 4836 4837 4818
4818 4837 4838 4819
4819 4838 4839 4820
4820 4839 4840 4821
4821 4840 4841 4822
4822 4841 4842 4823
4823 4842 4843 4824
4824 4843 4844 4825
4825 4844 4845 4826
4826 4845 4846 4827
4827 4846 4847 4828
4828 4847 4848 4829
4829 4848 4849 4830
4830 4849 4850 4831
4831 4850 4851 4832
4832 4851 426 425
154 155 4852 4833
4833 4852 4853 4834
4834 4853 4854 4835
4835 4854 4855 4836
4836 4855 4856 4837
4837 4856 4857 4838
4838 4857 4858 4839
4839 4858 4859 4840
4840 4859 4860 4841
4841 4860 4861 4842
4842 4861 4862 4843
4843 4862 4863 4844
4844 4863 4864 4845
4845 4864 4865 4846
4846 4865 4866 4847
4847 4866 4867 4848
4848 4867 4868 4849
4849 4868 4869 4850
4850 4869 4870 4851
4851 4870 427 426
155 156 4871 4852
4852 4871 4872 4853
4853 4872 4873 4854
4854 4873 4874 4855
4855 4874 4875 4856
4856 4875 4876 4857
4857 4876 4877 4858
4858 4877 4878 4859
4859 4878 4879 4860
4860 4879 4880 4861
4861 4880 4881 4862
4862 4881 4882 4863
4863 4882 4883 4864
4864 4883 4884 4865
4865 4884 4885 4866
4866 4885 4886 4867
4867 4886 4887 4868
4868 4887 4888 4869
4869 4888 4889 4870
4870 4889 428 427
156 157 4890 4871
4871 4890 4891 4872
4872 4891 4892 4873
4873 4892 4893 4874
4874 4893 4894 4875
4875 4894 4895 4876
4876 4895 4896 4877
4877 4896 4897 4878
4878 4897 4898 4879
4879 4898 4899 4880
4880 4899 4900 4881
4881 4900 4901 4882
4882 4901 4902 4883
4883 4902 4903 4884
4884 4903 4904 4885
4885 4904 4905 4886
4886 4905 4906 4887
4887 4906 4907 4888
4888 4907 4908 4889
4889 4908 429 428
157 158 4909 4890
4890 4909 4910 4891
4891 4910 4911 4892
4892 4911 4912 4893
4893 4912 4913 4894
4894 4913 4914 4895
4895 4914 4915 4896
4896 4915 4916 4897
4897 4916 4917 4898
4898 4917 4918 4899
4899 4918 4919 4900
4900 4919 4920 4901
4901 4920 4921 4902
4902 4921 4922 4903
4903 4922 4923 4904
4904 4923 4924 4905
4905 4924 4925 4906
4906 4925 4926 4907
4907 4926 4927 4908
4908 4927 430 429
158 159 4928 4909
4909 4928 4929 4910
4910 4929 4930 4911
4911 4930 4931 4912
4912 4931 4932 4913
4913 4932 4933 4914
4914 4933 4934 4915
4915 4934 4935 4916
4916 4935 4936 4917
4917 4936 4937 4918
4918 4937 4938 4919
4919 4938 4939 4920
4920 4939 4940 4921
4921 4940 4941 4922
4922 4941 4942 4923
4923 4942 4943 4924
4924 4943 4944 4925
4925 4944 4945 4926
4926 4945 4946 4927
4927 4946 431 430
159 160 4947 4928
4928 4947 4948 4929
4929 4948 4949 4930
4930 4949 4950 4931
4931 4950 4951 4932
4932 4951 4952 4933
4933 4952 4953 4934
4934 4953 4954 4935
4935 4954 4955 4936
4936 4955 4956 4937
4937 4956 4957 4938
4938 4957 4958 4939
4939 4958 4959 4940
4940 4959 4960 4941
4941 4960 4961 4942
4942 4961 4962 4943
4943 4962 4963 4944
4944 4963 4964 4945
4945 4964 4965 4946
4946 4965 432 431
160 161 4966 4947
4947 4966 4967 4948
4948 4967 4968 4949
4949 4968 4969 4950
4950 4969 4970 4951
4951 4970 4971 4952
4952 4971 4972 4953
4953 4972 4973 4954
4954 4973 4974 4955
4955 4974 4975 4956
4956 4975 4976 4957
4957 4976 4977 4958
4958 4977 4978 4959
4959 4978 4979 4960
4960 4979 4980 4961
4961 4980 4981 4962
4962 4981 4982 4963
4963 4982 4983 4964
4964 4983 4984 4965
4965 4984 433 432
161 162 4985 4966
4966 4985 4986 4967
4967 4986 4987 4968
4968 4987 4988 4969
4969 4988 4989 4970
4970 4989 4990 4971
4971 4990 4991 4972
4972 4991 4992 4973
4973 4992 4993 4974
4974 4993 4994 4975
4975 4994 4995 4976
4976 4995 4996 4977
4977 4996 4997 4978
4978 4997 4998 4979
4979 4998 4999 4980
4980 4999 5000 4981
4981 5000 5001 4982
4982 5001 5002 4983
4983 5002 5003 4984
4984 5003 434 433
162 163 5004 4985
4985 5004 5005 4986
4986 5005 5006 4987
4987 5006 5007 4988
4988 5007 5008 4989
4989 5008 5009 4990
4990 5009 5010 4991
4991 5010 5011 4992
4992 5011 5012 4993
4993 5012 5013 4994
4994 5013 5014 4995
4995 5014 5015 4996
4996 5015 5016 4997
4997 5016 5017 4998
4998 5017 5018 4999
4999 5018 5019 5000
5000 5019 5020 5001
5001 5020 5021 5002
5002 5021 5022 5003
5003 5022 435 434
163 164 5023 5004
5004 5023 5024 5005
5005 5024 5025 5006
5006 5025 5026 5007
5007 5026 5027 5008
5008 5027 5028 5009
5009 5028 5029 5010
5010 5029 5030 5011
5011 5030 5031 5012
5012 5031 5032 5013
5013 5032 5033 5014
5014 5033 5034 5015
5015 5034 5035 5016
5016 5035 5036 5017
5017 5036 5037 5018
5018 5037 5038 5019
5019 5038 5039 5020
5020 5039 5040 5021
5021 5040 5041 5022
5022 5041 436 435
164 165 5042 5023
5023 5042 5043 5024
5024 5043 5044 5025
5025 5044 5045 5026
5026 5045 5046 5027
5027 5046 5047 5028
5028 5047 5048 5029
5029 5048 5049 5030
5030 5049 5050 5031
5031 5050 5051 5032
5032 5051 5052 5033
5033 5052 5053 5034
5034 5053 5054 5035
5035 5054 5055 5036
5036 5055 5056 5037
5037 5056 5057 5038
5038 5057 5058 5039
5039 5058 5059 5040
5040 5059 5060 5041
5041 5060 437 436
165 6 242 5042
5042 242 241 5043
5043 241 240 5044
5044 240 239 5045
5045 239 238 5046
5046 238 237 5047
5047 237 236 5048
5048 236 235 5049
5049 235 234 5050
5050 234 233 5051
5051 233 232 5052
5052 232 231 5053
5053 231 230 5054
5054 230 229 5055
5055 229 228 5056
5056 228 227 5057
5057 227 226 5058
5058 226 225 5059
5059 225 224 5060
5060 224 8 437
9 323 5061 400
400 5061 5062 401
401 5062 5063 402
402 5063 5064 403
403 5064 5065 404
404 5065 5066 405
405 5066 5067 406
406 5067 5068 407
407 5068 5069 408
408 5069 5070 409
409 5070 5071 410
410 5071 5072 411
411 5072 5073 412
412 5073 5074 413
413 5074 5075 414
414 5075 5076 415
415 5076 5077 416
416 5077 5078 417
417 5078 5079 418
418 5079 185 7
323 324 5080 5061
5061 5080 5081 5062
5062 5081 5082 5063
5063 5082 5083 5064
5064 5083 5084 5065
5065 5084 5085 5066
5066 5085 5086 5067
5067 5086 5087 5068
5068 5087 5088 5069
5069 5088 5089 5070
5070 5089 5090 5071
5071 5090 5091 5072
5072 5091 5092 5073
5073 5092 5093 5074
5074 5093 5094 5075
5075 5094 5095 5076
5076 5095 5096 5077
5077 5096 5097 5078
5078 5097 5098 5079
5079 5098 186 185
324 325 5099 5080
5080 5099 5100 5081
5081 5100 5101 5082
5082 5101 5102 5083
5083 5102 5103 5084
5084 5103 5104 5085
5085 5104 5105 5086
5086 5105 5106 5087
5087 5106 5107 5088
5088 5107 5108 5089
5089 5108 5109 5090
5090 5109 5110 5091
5091 5110 5111 5092
5092 5111 5112 5093
5093 5112 5113 5094
5094 5113 5114 5095
5095 5114 5115 5096
5096 5115 5116 5097
5097 5116 5117 5098
5098 5117 187 186
325 326 5118 5099
5099 5118 5119 5100
5100 5119 5120 5101
5101 5120 5121 5102
5102 5121 5122 5103
5103 5122 5123 5104
5104 5123 5124 5105
5105 5124 5125 5106
5106 5125 5126 5107
5107 5126 5127 5108
5108 5127 5128 5109
5109 5128 5129 5110
5110 5129 5130 5111
5111 5130 5131 5112
5112 5131 5132 5113
5113 5132 5133 5114
5114 5133 5134 5115
5115 5134 5135 5116
5116 5135 5136 5117
5117 5136 188 187
326 327 5137 5118
5118 5137 5138 5119
5119 5138 5139 5120
5120 5139 5140 5121
5121 5140 5141 5122
5122 5141 5142 5123
5123 5142 5143 5124
5124 5143 5144 5125
5125 5144 5145 5126
5126 5145 5146 5127
5127 5146 5147 5128
5128 5147 5148 5129
5129 5148 5149 5130
5130 5149 5150 5131
5131 5150 5151 5132
5132 5151 5152 5133
5133 5152 5153 5134
5134 5153 5154 5135
5135 5154 5155 5136
5136 5155 189 188
327 328 5156 5137
5137 5156 5157 5138
5138 5157 5158 5139
5139 5158 5159 5140
5140 5159 5160 5141
5141 5160 5161 5142
5142 5161 5162 5143
5143 5162 5163 5144
5144 5163 5164 5145
5145 5164 5165 5146
5146 5165 5166 5147
5147 5166 5167 5148
5148 5167 5168 5149
5149 5168 5169 5150
5150 5169 5170 5151
5151 5170 5171 5152
5152 5171 5172 5153
5153 5172 5173 5154
5154 5173 5174 5155
5155 5174 190 189
328 329 5175 5156
5156 5175 5176 5157
5157 5176 5177 5158
5158 5177 5178 5159
5159 5178 5179 5160
5160 5179 5180 5161
5161 5180 5181 5162
5162 5181 5182 5163
5163 5182 5183 5164
5164 5183 5184 5165
5165 5184 5185 5166
5166 5185 5186 5167
5167 5186 5187 5168
5168 5187 5188 5169
5169 5188 5189 5170
5170 5189 5190 5171
5171 5190 5191 5172
5172 5191 5192 5173
5173 5192 5193 5174
5174 5193 191 190
329 330 5194 5175
5175 5194 5195 5176
5176 5195 5196 5177
5177 5196 5197 5178
5178 5197 5198 5179
5179 5198 5199 5180
5180 5199 5200 5181
5181 5200 5201 5182
5182 5201 5202 5183
5183 5202 5203 5184
5184 5203 5204 5185
5185 5204 5205 5186
5186 5205 5206 5187
5187 5206 5207 5188
5188 5207 5208 5189
5189 5208 5209 5190
5190 5209 5210 5191
5191 5210 5211 5192
5192 5211 5212 5193
5193 5212 192 191
330 331 5213 5194
5194 5213 5214 5195
5195 5214 5215 5196
5196 5215 5216 5197
5197 5216 5217 5198
5198 5217 5218 5199
5199 5218 5219 5200
5200 5219 5220 5201
5201 5220 5221 5202
5202 5221 5222 5203
5203 5222 5223 5204
5204 5223 5224 5205
5205 5224 5225 5206
5206 5225 5226 5207
5207 5226 5227 5208
5208 5227 5228 5209
5209 5228 5229 5210
5210 5229 5230 5211
5211 5230 5231 5212
5212 5231 193 192
331 332 5232 5213
5213 5232 5233 5214
5214 5233 5234 5215
5215 5234 5235 5216
5216 5235 5236 5217
5217 5236 5237 5218
5218 5237 5238 5219
5219 5238 5239 5220
5220 5239 5240 5221
5221 5240 5241 5222
5222 5241 5242 5223
5223 5242 5243 5224
5224 5243 5244 5225
5225 5244 5245 5226
5226 5245 5246 5227
5227 5246 5247 5228
5228 5247 5248 5229
5229 5248 5249 5230
5230 5249 5250 5231
5231 5250 194 193
332 333 5251 5232
5232 5251 5252 5233
5233 5252 5253 5234
5234 5253 5254 5235
5235 5254 5255 5236
5236 5255 5256 5237
5237 5256 5257 5238
5238 5257 5258 5239
5239 5258 5259 5240
5240 5259 5260 5241
5241 5260 5261 5242
5242 5261 5262 5243
5243 5262 5263 5244
5244 5263 5264 5245
5245 5264 5265 5246
5246 5265 5266 5247
5247 5266 5267 5248
5248 5267 5268 5249
5249 5268 5269 5250
5250 5269 195 194
333 334 5270 5251
5251 5270 5271 5252
5252 5271 5272 5253
5253 5272 5273 5254
5254 5273 5274 5255
5255 5274 5275 5256
5256 5275 5276 5257
5257 5276 5277 5258
5258 5277 5278 5259
5259 5278 5279 5260
5260 5279 5280 5261
5261 5280 5281 5262
5262 5281 5282 5263
5263 5282 5283 5264
5264 5283 5284 5265
5265 5284 5285 5266
5266 5285 5286 5267
5267 5286 5287 5268
5268 5287 5288 5269
5269 5288 196 195
334 335 5289 5270
5270 5289 5290 5271
5271 5290 5291 5272
5272 5291 5292 5273
5273 5292 5293 5274
5274 5293 5294 5275
5275 5294 5295 5276
5276 5295 5296 5277
5277 5296 5297 5278
5278 5297 5298 5279
5279 5298 5299 5280
5280 5299 5300 5281
5281 5300 5301 5282
5282 5301 5302 5283
5283 5302 5303 5284
5284 5303 5304 5285
5285 5304 5305 5286
5286 5305 5306 5287
5287 5306 5307 5288
5288 5307 197 196
335 336 5308 5289
5289 5308 5309 5290
5290 5309 5310 5291
5291 5310 5311 5292
5292 5311 5312 5293
5293 5312 5313 5294
5294 5313 5314 5295
5295 5314 5315 5296
5296 5315 5316 5297
5297 5316 5317 5298
5298 5317 5318 5299
5299 5318 5319 5300
5300 5319 5320 5301
5301 5320 5321 5302
5302 5321 5322 5303
5303 5322 5323 5304
5304 5323 5324 5305
5305 5324 5325 5306
5306 5325 5326 5307
5307 5326 198 197
336 337 5327 5308
5308 5327 5328 5309
5309 5328 5329 5310
5310 5329 5330 5311
5311 5330 5331 5312
5312 5331 5332 5313
5313 5332 5333 5314
5314 5333 5334 5315
5315 5334 5335 5316
5316 5335 5336 5317
5317 5336 5337 5318
5318 5337 5338 5319
5319 5338 5339 5320
5320 5339 5340 5321
5321 5340 5341 5322
5322 5341 5342 5323
5323 5342 5343 5324
5324 5343 5344 5325
5325 5344 5345 5326
5326 5345 199 198
337 338 5346 5327
5327 5346 5347 5328
5328 5347 5348 5329
5329 5348 5349 5330
5330 5349 5350 5331
5331 5350 5351 5332
5332 5351 5352 5333
5333 5352 5353 5334
5334 5353 5354 5335
5335 5354 5355 5336
5336 5355 5356 5337
5337 5356 5357 5338
5338 5357 5358 5339
5339 5358 5359 5340
5340 5359 5360 5341
5341 5360 5361 5342
5342 5361 5362 5343
5343 5362 5363 5344
5344 5363 5364 5345
5345 5364 200 199
338 339 5365 5346
5346 5365 5366 5347
5347 5366 5367 5348
5348 5367 5368 5349
5349 5368 5369 5350
5350 5369 5370 5351
5351 5370 5371 5352
5352 5371 5372 5353
5353 5372 5373 5354
5354 5373 5374 5355
5355 5374 5375 5356
5356 5375 5376 5357
5357 5376 5377 5358
5358 5377 5378 5359
5359 5378 5379 5360
5360 5379 5380 5361
5361 5380 5381 5362
5362 5381 5382 5363
5363 5382 5383 5364
5364 5383 201 200
339 340 5384 5365
5365 5384 5385 5366
5366 5385 5386 5367
5367 5386 5387 5368
5368 5387 5388 5369
5369 5388 5389 5370
5370 5389 5390 5371
5371 5390 5391 5372
5372 5391 5392 5373
5373 5392 5393 5374
5374 5393 5394 5375
5375 5394 5395 5376
5376 5395 5396 5377
5377 5396 5397 5378
5378 5397 5398 5379
5379 5398 5399 5380
5380 5399 5400 5381
5381 5400 5401 5382
5382 5401 5402 5383
5383 5402 202 201
340 341 5403 5384
5384 5403 5404 5385
5385 5404 5405 5386
5386 5405 5406 5387
5387 5406 5407 5388
5388 5407 5408 5389
5389 5408 5409 5390
5390 5409 5410 5391
5391 5410 5411 5392
5392 5411 5412 5393
5393 5412 5413 5394
5394 5413 5414 5395
5395 5414 5415 5396
5396 5415 5416 5397
5397 5416 5417 5398
5398 5417 5418 5399
5399 5418 5419 5400
5400 5419 5420 5401
5401 5420 5421 5402
5402 5421 203 202
341 342 5422 5403
5403 5422 5423 5404
5404 5423 5424 5405
5405 5424 5425 5406
5406 5425 5426 5407
5407 5426 5427 5408
5408 5427 5428 5409
5409 5428 5429 5410
5410 5429 5430 5411
5411 5430 5431 5412
5412 5431 5432 5413
5413 5432 5433 5414
5414 5433 5434 5415
5415 5434 5435 5416
5416 5435 5436 5417
5417 5436 5437 5418
5418 5437 5438 5419
5419 5438 5439 5420
5420 5439 5440 5421
5421 5440 204 203
342 343 5441 5422
5422 5441 5442 5423
5423 5442 5443 5424
5424 5443 5444 5425
5425 5444 5445 5426
5426 5445 5446 5427
5427 5446 5447 5428
5428 5447 5448 5429
5429 5448 5449 5430
5430 5449 5450 5431
5431 5450 5451 5432
5432 5451 5452 5433
5433 5452 5453 5434
5434 5453 5454 5435
5435 5454 5455 5436
5436 5455 5456 5437
5437 5456 5457 5438
5438 5457 5458 5439
5439 5458 5459 5440
5440 5459 205 204
343 344 5460 5441
5441 5460 5461 5442
5442 5461 5462 5443
5443 5462 5463 5444
5444 5463 5464 5445
5445 5464 5465 5446
5446 5465 5466 5447
5447 5466 5467 5448
5448 5467 5468 5449
5449 5468 5469 5450
5450 5469 5470 5451
5451 5470 5471 5452
5452 5471 5472 5453
5453 5472 5473 5454
5454 5473 5474 5455
5455 5474 5475 5456
5456 5475 5476 5457
5457 5476 5477 5458
5458 5477 5478 5459
5459 5478 206 205
344 345 5479 5460
5460 5479 5480 5461
5461 5480 5481 5462
5462 5481 5482 5463
5463 5482 5483 5464
5464 5483 5484 5465
5465 5484 5485 5466
5466 5485 5486 5467
5467 5486 5487 5468
5468 5487 5488 5469
5469 5488 5489 5470
5470 5489 5490 5471
5471 5490 5491 5472
5472 5491 5492 5473
5473 5492 5493 5474
5474 5493 5494 5475
5475 5494 5495 5476
5476 5495 5496 5477
5477 5496 5497 5478
5478 5497 207 206
345 346 5498 5479
5479 5498 5499 5480
5480 5499 5500 5481
5481 5500 5501 5482
5482 5501 5502 5483
5483 5502 5503 5484
5484 5503 5504 5485
5485 5504 5505 5486
5486 5505 5506 5487
5487 5506 5507 5488
5488 5507 5508 5489
5489 5508 5509 5490
5490 5509 5510 5491
5491 5510 5511 5492
5492 5511 5512 5493
5493 5512 5513 5494
5494 5513 5514 5495
5495 5514 5515 5496
5496 5515 5516 5497
5497 5516 208 207
346 347 5517 5498
5498 5517 5518 5499
5499 5518 5519 5500
5500 5519 5520 5501
5501 5520 5521 5502
5502 5521 5522 5503
5503 5522 5523 5504
5504 5523 5524 5505
5505 5524 5525 5506
5506 5525 5526 5507
5507 5526 5527 5508
5508 5527 5528 5509
5509 5528 5529 5510
5510 5529 5530 5511
5511 5530 5531 5512
5512 5531 5532 5513
5513 5532 5533 5514
5514 5533 5534 5515
5515 5534 5535 5516
5516 5535 209 208
347 348 5536 5517
5517 5536 5537 5518
5518 5537 5538 5519
5519 5538 5539 5520
5520 5539 5540 5521
5521 5540 5541 5522
5522 5541 5542 5523
5523 5542 5543 5524
5524 5543 5544 5525
5525 5544 5545 5526
5526 5545 5546 5527
5527 5546 5547 5528
5528 5547 5548 5529
5529 5548 5549 5530
5530 5549 5550 5531
5531 5550 5551 5532
5532 5551 5552 5533
5533 5552 5553 5534
5534 5553 5554 5535
5535 5554 210 209
348 349 5555 5536
5536 5555 5556 5537
5537 5556 5557 5538
5538 5557 5558 5539
5539 5558 5559 5540
5540 5559 5560 5541
5541 5560 5561 5542
5542 5561 5562 5543
5543 5562 5563 5544
5544 5563 5564 5545
5545 5564 5565 5546
5546 5565 5566 5547
5547 5566 5567 5548
5548 5567 5568 5549
5549 5568 5569 5550
5550 5569 5570 5551
5551 5570 5571 5552
5552 5571 5572 5553
5553 5572 5573 5554
5554 5573 211 210
349 350 5574 5555
5555 5574 5575 5556
5556 5575 5576 5557
5557 5576 5577 5558
5558 5577 5578 5559
5559 5578 5579 5560
5560 5579 5580 5561
5561 5580 5581 5562
5562 5581 5582 5563
5563 5582 5583 5564
5564 5583 5584 5565
5565 5584 5585 5566
5566 5585 5586 5567
5567 5586 5587 5568
5568 5587 5588 5569
5569 5588 5589 5570
5570 5589 5590 5571
5571 5590 5591 5572
5572 5591 5592 5573
5573 5592 212 211
350 351 5593 5574
5574 5593 5594 5575
5575 5594 5595 5576
5576 5595 5596 5577
5577 5596 5597 5578
5578 5597 5598 5579
5579 5598 5599 5580
5580 5599 5600 5581
5581 5600 5601 5582
5582 5601 5602 5583
5583 5602 5603 5584
5584 5603 5604 5585
5585 5604 5605 5586
5586 5605 5606 5587
5587 5606 5607 5588
5588 5607 5608 5589
5589 5608 5609 5590
5590 5609 5610 5591
5591 5610 5611 5592
5592 5611 213 212
351 352 5612 5593
5593 5612 5613 5594
5594 5613 5614 5595
5595 5614 5615 5596
5596 5615 5616 5597
5597 5616 5617 5598
5598 5617 5618 5599
5599 5618 5619 5600
5600 5619 5620 5601
5601 5620 5621 5602
5602 5621 5622 5603
5603 5622 5623 5604
5604 5623 5624 5605
5605 5624 5625 5606
5606 5625 5626 5607
5607 5626 5627 5608
5608 5627 5628 5609
5609 5628 5629 5610
5610 5629 5630 5611
5611 5630 214 213
352 353 5631 5612
5612 5631 5632 5613
5613 5632 5633 5614
5614 5633 5634 5615
5615 5634 5635 5616
5616 5635 5636 5617
5617 5636 5637 5618
5618 5637 5638 5619
5619 5638 5639 5620
5620 5639 5640 5621
5621 5640 5641 5622
5622 5641 5642 5623
5623 5642 5643 5624
5624 5643 5644 5625
5625 5644 5645 5626
5626 5645 5646 5627
5627 5646 5647 5628
5628 5647 5648 5629
5629 5648 5649 5630
5630 5649 215 214
353 354 5650 5631
5631 5650 5651 5632
5632 5651 5652 5633
5633 5652 5653 5634
5634 5653 5654 5635
5635 5654 5655 5636
5636 5655 5656 5637
5637 5656 5657 5638
5638 5657 5658 5639
5639 5658 5659 5640
5640 5659 5660 5641
5641 5660 5661 5642
5642 5661 5662 5643
5643 5662 5663 5644
5644 5663 5664 5645
5645 5664 5665 5646
5646 5665 5666 5647
5647 5666 5667 5648
5648 5667 5668 5649
5649 5668 216 215
354 355 5669 5650
5650 5669 5670 5651
5651 5670 5671 5652
5652 5671 5672 5653
5653 5672 5673 5654
5654 5673 5674 5655
5655 5674 5675 5656
5656 5675 5676 5657
5657 5676 5677 5658
5658 5677 5678 5659
5659 5678 5679 5660
5660 5679 5680 5661
5661 5680 5681 5662
5662 5681 5682 5663
5663 5682 5683 5664
5664 5683 5684 5665
5665 5684 5685 5666
5666 5685 5686 5667
5667 5686 5687 5668
5668 5687 217 216
355 356 5688 5669
5669 5688 5689 5670
5670 5689 5690 5671
5671 5690 5691 5672
5672 5691 5692 5673
5673 5692 5693 5674
5674 5693 5694 5675
5675 5694 5695 5676
5676 5695 5696 5677
5677 5696 5697 5678
5678 5697 5698 5679
5679 5698 5699 5680
5680 5699 5700 5681
5681 5700 5701 5682
5682 5701 5702 5683
5683 5702 5703 5684
5684 5703 5704 5685
5685 5704 5705 5686
5686 5705 5706 5687
5687 5706 218 217
356 357 5707 5688
5688 5707 5708 5689
5689 5708 5709 5690
5690 5709 5710 5691
5691 5710 5711 5692
5692 5711 5712 5693
5693 5712 5713 5694
5694 5713 5714 5695
5695 5714 5715 5696
5696 5715 5716 5697
5697 5716 5717 5698
5698 5717 5718 5699
5699 5718 5719 5700
5700 5719 5720 5701
5701 5720 5721 5702
5702 5721 5722 5703
5703 5722 5723 5704
5704 5723 5724 5705
5705 5724 5725 5706
5706 5725 219 218
357 358 5726 5707
5707 5726 5727 5708
5708 5727 5728 5709
5709 5728 5729 5710
5710 5729 5730 5711
5711 5730 5731 5712
5712 5731 5732 5713
5713 5732 5733 5714
5714 5733 5734 5715
5715 5734 5735 5716
5716 5735 5736 5717
5717 5736 5737 5718
5718 5737 5738 5719
5719 5738 5739 5720
5720 5739 5740 5721
5721 5740 5741 5722
5722 5741 5742 5723
5723 5742 5743 5724
5724 5743 5744 5725
5725 5744 220 219
358 359 5745 5726
5726 5745 5746 5727
5727 5746 5747 5728
5728 5747 5748 5729
5729 5748 5749 5730
5730 5749 5750 5731
5731 5750 5751 5732
5732 5751 5752 5733
5733 5752 5753 5734
5734 5753 5754 5735
5735 5754 5755 5736
5736 5755 5756 5737
5737 5756 5757 5738
5738 5757 5758 5739
5739 5758 5759 5740
5740 5759 5760 5741
5741 5760 5761 5742
5742 5761 5762 5743
5743 5762 5763 5744
5744 5763 221 220
359 360 5764 5745
5745 5764 5765 5746
5746 5765 5766 5747
5747 5766 5767 5748
5748 5767 5768 5749
5749 5768 5769 5750
5750 5769 5770 5751
5751 5770 5771 5752
5752 5771 5772 5753
5753 5772 5773 5754
5754 5773 5774 5755
5755 5774 5775 5756
5756 5775 5776 5757
5757 5776 5777 5758
5758 5777 5778 5759
5759 5778 5779 5760
5760 5779 5780 5761
5761 5780 5781 5762
5762 5781 5782 5763
5763 5782 222 221
360 361 5783 5764
5764 5783 5784 5765
5765 5784 5785 5766
5766 5785 5786 5767
5767 5786 5787 5768
5768 5787 5788 5769
5769 5788 5789 5770
5770 5789 5790 5771
5771 5790 5791 5772
5772 5791 5792 5773
5773 5792 5793 5774
5774 5793 5794 5775
5775 5794 5795 5776
5776 5795 5796 5777
5777 5796 5797 5778
5778 5797 5798 5779
5779 5798 5799 5780
5780 5799 5800 5781
5781 5800 5801 5782
5782 5801 223 222
361 10 419 5783
5783 419 420 5784
5784 420 421 5785
5785 421 422 5786
5786 422 423 5787
5787 423 424 5788
5788 424 425 5789
5789 425 426 5790
5790 426 427 5791
5791 427 428 5792
5792 428 429 5793
5793 429 430 5794
5794 430 431 5795
5795 431 432 5796
5796 432 433 5797
5797 433 434 5798
5798 434 435 5799
5799 435 436 5800
5800 436 437 5801
5801 437 8 223
</DataArray>
<DataArray type="Int64" Name="offsets" format="ascii">
4
8
12
16
20
24
28
32
36
40
44
48
52
56
60
64
68
72
76
80
84
88
92
96
100
104
108
112
116
120
124
128
132
136
140
144
148
152
156
160
164
168
172
176
180
184
188
192
196
200
204
208
212
216
220
224
228
232
236
240
244
248
252
256
260
264
268
272
276
280
284
288
292
296
300
304
308
312
316
320
324
328
332
336
340
344
348
352
356
360
364
368
372
376
380
384
388
392
396
400
404
408
412
416
420
424
428
432
436
440
444
448
452
456
460
464
468
472
476
480
484
488
492
496
500
504
508
512
516
520
524
528
532
536
540
544
548
552
556
560
564
568
572
576
580
584
588
592
596
600
604
608
612
616
620
624
628
632
636
640
644
648
652
656
660
664
668
672
676
680
684
688
692
696
700
704
708
712
716
720
724
728
732
736
740
744
748
752
756
760
764
768
772
776
780
784
788
792
796
800
804
808
812
816
820
824
828
832
836
840
844
848
852
856
860
864
868
872
876
880
884
888
892
896
900
904
908
912
916
920
924
928
932
936
940
944
948
952
956
960
964
968
972
976
980
984
988
992
996
1000
1004
1008
1012
1016
1020
1024
1028
1032
1036
1040
1044
1048
1052
1056
1060
1064
1068
1072
1076
1080
1084
1088
1092
1096
1100
1104
1108
1112
1116
1120
1124
1128
1132
1136
1140
1144
1148
1152
1156
1160
1164
1168
1172
1176
1180
1184
1188
1192
1196
1200
1204
1208
1212
1216
1220
1224
1228
1232
1236
1240
1244
1248
1252
1256
1260
1264
1268
1272
1276
1280
1284
1288
1292
1296
1300
1304
1308
1312
1316
1320
1324
1328
1332
1336
1340
1344
1348
1352
1356
1360
1364
1368
1372
1376
1380
1384
1388
1392
1396
1400
1404
1408
1412
1416
1420
1424
1428
1432
1436
1440
1444
1448
1452
1456
1460
1464
1468
1472
1476
1480
1484
1488
1492
1496
1500
1504
1508
1512
1516
1520
1524
1528
1532
1536
1540
1544
1548
1552
1556
1560
1564
1568
1572
1576
1580
1584
1588
1592
1596
1600
1604
1608
1612
1616
1620
1624
1628
1632
1636
1640
1644
1648
1652
1656
1660
1664
1668
1672
1676
1680
1684
1688
1692
1696
1700
1704
1708
1712
1716
1720
1724
1728
1732
1736
1740
1744
1748
1752
1756
1760
1764
1768
1772
1776
1780
1784
1788
1792
1796
1800
1804
1808
1812
1816
1820
1824
1828
1832
1836
1840
1844
1848
1852
1856
1860
1864
1868
1872
1876
1880
1884
1888
1892
1896
1900
1904
1908
1912
1916
1920
1924
1928
1932
1936
1940
1944
1948
1952
1956
1960
1964
1968
1972
1976
1980
1984
1988
1992
1996
2000
2004
2008
2012
2016
2020
2024
2028
2032
2036
2040
2044
2048
2052
2056
2060
2064
2068
2072
2076
2080
2084
2088
2092
2096
2100
2104
2108
2112
2116
2120
2124
2128
2132
2136
2140
2144
2148
2152
2156
2160
2164
2168
2172
2176
2180
2184
2188
2192
2196
2200
2204
2208
2212
2216
2220
2224
2228
2232
2236
2240
2244
2248
2252
2256
2260
2264
2268
2272
2276
2280
2284
2288
2292
2296
2300
2304
2308
2312
2316
2320
2324
2328
2332
2336
2340
2344
2348
2352
2356
2360
2364
2368
2372
2376
2380
2384
2388
2392
2396
2400
2404
2408
2412
2416
2420
2424
2428
2432
2436
2440
2444
2448
2452
2456
2460
2464
2468
2472
2476
2480
2484
2488
2492
2496
2500
2504
2508
2512
2516
2520
2524
2528
2532
2536
2540
2544
2548
2552
2556
2560
2564
2568
2572
2576
2580
2584
2588
2592
2596
2600
2604
2608
2612
2616
2620
2624
2628
2632
2636
2640
2644
2648
2652
2656
2660
2664
2668
2672
2676
2680
2684
2688
2692
2696
2700
2704
2708
2712
2716
2720
2724
2728
2732
2736
2740
2744
2748
2752
2756
2760
2764
2768
2772
2776
2780
2784
2788
2792
2796
2800
2804
2808
2812
2816
2820
2824
2828
2832
2836
2840
2844
2848
2852
2856
2860
2864
2868
2872
2876
2880
2884
2888
2892
2896
2900
2904
2908
2912
2916
2920
2924
2928
2932
2936
2940
2944
2948
2952
2956
2960
2964
2968
2972
2976
2980
2984
2988
2992
2996
3000
3004
3008
3012
3016
3020
3024
3028
3032
3036
3040
3044
3048
3052
3056
3060
3064
3068
3072
3076
3080
3084
3088
3092
3096
3100
3104
3108
3112
3116
3120
3124
3128
3132
3136
3140
3144
3148
3152
3156
3160
3164
3168
3172
3176
3180
3184
3188
3192
3196
3200
3204
3208
3212
3216
3220
3224
3228
3232
3236
3240
3244
3248
3252
3256
3260
3264
3268
3272
3276
3280
3284
3288
3292
3296
3300
3304
3308
3312
3316
3320
3324
3328
3332
3336
3340
3344
3348
3352
3356
3360
3364
3368
3372
3376
3380
3384
3388
3392
3396
3400
3404
3408
3412
3416
3420
3424
3428
3432
3436
3440
3444
3448
3452
3456
3460
3464
3468
3472
3476
3480
3484
3488
3492
3496
3500
3504
3508
3512
3516
3520
3524
3528
3532
3536
3540
3544
3548
3552
3556
3560
3564
3568
3572
3576
3580
3584
3588
3592
3596
3600
3604
3608
3612
3616
3620
3624
3628
3632
3636
3640
3644
3648
3652
3656
3660
3664
3668
3672
3676
3680
3684
3688
3692
3696
3700
3704
3708
3712
3716
3720
3724
3728
3732
3736
3740
3744
3748
3752
3756
3760
3764
3768
3772
3776
3780
3784
3788
3792
3796
3800
3804
3808
3812
3816
3820
3824
3828
3832
3836
3840
3844
3848
3852
3856
3860
3864
3868
3872
3876
3880
3884
3888
3892
3896
3900
3904
3908
3912
3916
3920
3924
3928
3932
3936
3940
3944
3948
3952
3956
3960
3964
3968
3972
3976
3980
3984
3988
3992
3996
4000
4004
4008
4012
4016
4020
4024
4028
4032
4036
4040
4044
4048
4052
4056
4060
4064
4068
4072
4076
4080
4084
4088
4092
4096
4100
4104
4108
4112
4116
4120
4124
4128
4132
4136
4140
4144
4148
4152
4156
4160
4164
4168
4172
4176
4180
4184
4188
4192
4196
4200
4204
4208
4212
4216
4220
4224
4228
4232
4236
4240
4244
4248
4252
4256
4260
4264
4268
4272
4276
4280
4284
4288
4292
4296
4300
4304
4308
4312
4316
4320
4324
4328
4332
4336
4340
4344
4348
4352
4356
4360
4364
4368
4372
4376
4380
4384
4388
4392
4396
4400
4404
4408
4412
4416
4420
4424
4428
4432
4436
4440
4444
4448
4452
4456
4460
4464
4468
4472
4476
4480
4484
4488
4492
4496
4500
4504
4508
4512
4516
4520
4524
4528
4532
4536
4540
4544
4548
4552
4556
4560
4564
4568
4572
4576
4580
4584
4588
4592
4596
4600
4604
4608
4612
4616
4620
4624
4628
4632
4636
4640
4644
4648
4652
4656
4660
4664
4668
4672
4676
4680
4684
4688
4692
4696
4700
4704
4708
4712
4716
4720
4724
4728
4732
4736
4740
4744
4748
4752
4756
4760
4764
4768
4772
4776
4780
4784
4788
4792
4796
4800
4804
4808
4812
4816
4820
4824
4828
4832
4836
4840
4844
4848
4852
4856
4860
4864
4868
4872
4876
4880
4884
4888
4892
4896
4900
4904
4908
4912
4916
4920
4924
4928
4932
4936
4940
4944
4948
4952
4956
4960
4964
4968
4972
4976
4980
4984
4988
4992
4996
5000
5004
5008
5012
5016
5020
5024
5028
5032
5036
5040
5044
5048
5052
5056
5060
5064
5068
5072
5076
5080
5084
5088
5092
5096
5100
5104
5108
5112
5116
5120
5124
5128
5132
5136
5140
5144
5148
5152
5156
5160
5164
5168
5172
5176
5180
5184
5188
5192
5196
5200
5204
5208
5212
5216
5220
5224
5228
5232
5236
5240
5244
5248
5252
5256
5260
5264
5268
5272
5276
5280
5284
5288
5292
5296
5300
5304
5308
5312
5316
5320
5324
5328
5332
5336
5340
5344
5348
5352
5356
5360
5364
5368
5372
5376
5380
5384
5388
5392
5396
5400
5404
5408
5412
5416
5420
5424
5428
5432
5436
5440
5444
5448
5452
5456
5460
5464
5468
5472
5476
5480
5484
5488
5492
5496
5500
5504
5508
5512
5516
5520
5524
5528
5532
5536
5540
5544
5548
5552
5556
5560
5564
5568
5572
5576
5580
5584
5588
5592
5596
5600
5604
5608
5612
5616
5620
5624
5628
5632
5636
5640
5644
5648
5652
5656
5660
5664
5668
5672
5676
5680
5684
5688
5692
5696
5700
5704
5708
5712
5716
5720
5724
5728
5732
5736
5740
5744
5748
5752
5756
5760
5764
5768
5772
5776
5780
5784
5788
5792
5796
5800
5804
5808
5812
5816
5820
5824
5828
5832
5836
5840
5844
5848
5852
5856
5860
5864
5868
5872
5876
5880
5884
5888
5892
5896
5900
5904
5908
5912
5916
5920
5924
5928
5932
5936
5940
5944
5948
5952
5956
5960
5964
5968
5972
5976
5980
5984
5988
5992
5996
6000
6004
6008
6012
6016
6020
6024
6028
6032
6036
6040
6044
6048
6052
6056
6060
6064
6068
6072
6076
6080
6084
6088
6092
6096
6100
6104
6108
6112
6116
6120
6124
6128
6132
6136
6140
6144
6148
6152
6156
6160
6164
6168
6172
6176
6180
6184
6188
6192
6196
6200
6204
6208
6212
6216
6220
6224
6228
6232
6236
6240
6244
6248
6252
6256
6260
6264
6268
6272
6276
6280
6284
6288
6292
6296
6300
6304
6308
6312
6316
6320
6324
6328
6332
6336
6340
6344
6348
6352
6356
6360
6364
6368
6372
6376
6380
6384
6388
6392
6396
6400
6404
6408
6412
6416
6420
6424
6428
6432
6436
6440
6444
6448
6452
6456
6460
6464
6468
6472
6476
6480
6484
6488
6492
6496
6500
6504
6508
6512
6516
6520
6524
6528
6532
6536
6540
6544
6548
6552
6556
6560
6564
6568
6572
6576
6580
6584
6588
6592
6596
6600
6604
6608
6612
6616
6620
6624
6628
6632
6636
6640
6644
6648
6652
6656
6660
6664
6668
6672
6676
6680
6684
6688
6692
6696
6700
6704
6708
6712
6716
6720
6724
6728
6732
6736
6740
6744
6748
6752
6756
6760
6764
6768
6772
6776
6780
6784
6788
6792
6796
6800
6804
6808
6812
6816
6820
6824
6828
6832
6836
6840
6844
6848
6852
6856
6860
6864
6868
6872
6876
6880
6884
6888
6892
6896
6900
6904
6908
6912
6916
6920
6924
6928
6932
6936
6940
6944
6948
6952
6956
6960
6964
6968
6972
6976
6980
6984
6988
6992
6996
7000
7004
7008
7012
7016
7020
7024
7028
7032
7036
7040
7044
7048
7052
7056
7060
7064
7068
7072
7076
7080
7084
7088
7092
7096
7100
7104
7108
7112
7116
7120
7124
7128
7132
7136
7140
7144
7148
7152
7156
7160
7164
7168
7172
7176
7180
7184
7188
7192
7196
7200
7204
7208
7212
7216
7220
7224
7228
7232
7236
7240
7244
7248
7252
7256
7260
7264
7268
7272
7276
7280
7284
7288
7292
7296
7300
7304
7308
7312
7316
7320
7324
7328
7332
7336
7340
7344
7348
7352
7356
7360
7364
7368
7372
7376
7380
7384
7388
7392
7396
7400
7404
7408
7412
7416
7420
7424
7428
7432
7436
7440
7444
7448
7452
7456
7460
7464
7468
7472
7476
7480
7484
7488
7492
7496
7500
7504
7508
7512
7516
7520
7524
7528
7532
7536
7540
7544
7548
7552
7556
7560
7564
7568
7572
7576
7580
7584
7588
7592
7596
7600
7604
7608
7612
7616
7620
7624
7628
7632
7636
7640
7644
7648
7652
7656
7660
7664
7668
7672
7676
7680
7684
7688
7692
7696
7700
7704
7708
7712
7716
7720
7724
7728
7732
7736
7740
7744
7748
7752
7756
7760
7764
7768
7772
7776
7780
7784
7788
7792
7796
7800
7804
7808
7812
7816
7820
7824
7828
7832
7836
7840
7844
7848
7852
7856
7860
7864
7868
7872
7876
7880
7884
7888
7892
7896
7900
7904
7908
7912
7916
7920
7924
7928
7932
7936
7940
7944
7948
7952
7956
7960
7964
7968
7972
7976
7980
7984
7988
7992
7996
8000
8004
8008
8012
8016
8020
8024
8028
8032
8036
8040
8044
8048
8052
8056
8060
8064
8068
8072
8076
8080
8084
8088
8092
8096
8100
8104
8108
8112
8116
8120
8124
8128
8132
8136
8140
8144
8148
8152
8156
8160
8164
8168
8172
8176
8180
8184
8188
8192
8196
8200
8204
8208
8212
8216
8220
8224
8228
8232
8236
8240
8244
8248
8252
8256
8260
8264
8268
8272
8276
8280
8284
8288
8292
8296
8300
8304
8308
8312
8316
8320
8324
8328
8332
8336
8340
8344
8348
8352
8356
8360
8364
8368
8372
8376
8380
8384
8388
8392
8396
8400
8404
8408
8412
8416
8420
8424
8428
8432
8436
8440
8444
8448
8452
8456
8460
8464
8468
8472
8476
8480
8484
8488
8492
8496
8500
8504
8508
8512
8516
8520
8524
8528
8532
8536
8540
8544
8548
8552
8556
8560
8564
8568
8572
8576
8580
8584
8588
8592
8596
8600
8604
8608
8612
8616
8620
8624
8628
8632
8636
8640
8644
8648
8652
8656
8660
8664
8668
8672
8676
8680
8684
8688
8692
8696
8700
8704
8708
8712
8716
8720
8724
8728
8732
8736
8740
8744
8748
8752
8756
8760
8764
8768
8772
8776
8780
8784
8788
8792
8796
8800
8804
8808
8812
8816
8820
8824
8828
8832
8836
8840
8844
8848
8852
8856
8860
8864
8868
8872
8876
8880
8884
8888
8892
8896
8900
8904
8908
8912
8916
8920
8924
8928
8932
8936
8940
8944
8948
8952
8956
8960
8964
8968
8972
8976
8980
8984
8988
8992
8996
9000
9004
9008
9012
9016
9020
9024
9028
9032
9036
9040
9044
9048
9052
9056
9060
9064
9068
9072
9076
9080
9084
9088
9092
9096
9100
9104
9108
9112
9116
9120
9124
9128
9132
9136
9140
9144
9148
9152
9156
9160
9164
9168
9172
9176
9180
9184
9188
9192
9196
9200
9204
9208
9212
9216
9220
9224
9228
9232
9236
9240
9244
9248
9252
9256
9260
9264
9268
9272
9276
9280
9284
9288
9292
9296
9300
9304
9308
9312
9316
9320
9324
9328
9332
9336
9340
9344
9348
9352
9356
9360
9364
9368
9372
9376
9380
9384
9388
9392
9396
9400
9404
9408
9412
9416
9420
9424
9428
9432
9436
9440
9444
9448
9452
9456
9460
9464
9468
9472
9476
9480
9484
9488
9492
9496
9500
9504
9508
9512
9516
9520
9524
9528
9532
9536
9540
9544
9548
9552
9556
9560
9564
9568
9572
9576
9580
9584
9588
9592
9596
9600
9604
9608
9612
9616
9620
9624
9628
9632
9636
9640
9644
9648
9652
9656
9660
9664
9668
9672
9676
9680
9684
9688
9692
9696
9700
9704
9708
9712
9716
9720
9724
9728
9732
9736
9740
9744
9748
9752
9756
9760
9764
9768
9772
9776
9780
9784
9788
9792
9796
9800
9804
9808
9812
9816
9820
9824
9828
9832
9836
9840
9844
9848
9852
9856
9860
9864
9868
9872
9876
9880
9884
9888
9892
9896
9900
9904
9908
9912
9916
9920
9924
9928
9932
9936
9940
9944
9948
9952
9956
9960
9964
9968
9972
9976
9980
9984
9988
9992
9996
10000
10004
10008
10012
10016
10020
10024
10028
10032
10036
10040
10044
10048
10052
10056
10060
10064
10068
10072
10076
10080
10084
10088
10092
10096
10100
10104
10108
10112
10116
10120
10124
10128
10132
10136
10140
10144
10148
10152
10156
10160
10164
10168
10172
10176
10180
10184
10188
10192
10196
10200
10204
10208
10212
10216
10220
10224
10228
10232
10236
10240
10244
10248
10252
10256
10260
10264
10268
10272
10276
10280
10284
10288
10292
10296
10300
10304
10308
10312
10316
10320
10324
10328
10332
10336
10340
10344
10348
10352
10356
10360
10364
10368
10372
10376
10380
10384
10388
10392
10396
10400
10404
10408
10412
10416
10420
10424
10428
10432
10436
10440
10444
10448
10452
10456
10460
10464
10468
10472
10476
10480
10484
10488
10492
10496
10500
10504
10508
10512
10516
10520
10524
10528
10532
10536
10540
10544
10548
10552
10556
10560
10564
10568
10572
10576
10580
10584
10588
10592
10596
10600
10604
10608
10612
10616
10620
10624
10628
10632
10636
10640
10644
10648
10652
10656
10660
10664
10668
10672
10676
10680
10684
10688
10692
10696
10700
10704
10708
10712
10716
10720
10724
10728
10732
10736
10740
10744
10748
10752
10756
10760
10764
10768
10772
10776
10780
10784
10788
10792
10796
10800
10804
10808
10812
10816
10820
10824
10828
10832
10836
10840
10844
10848
10852
10856
10860
10864
10868
10872
10876
10880
10884
10888
10892
10896
10900
10904
10908
10912
10916
10920
10924
10928
10932
10936
10940
10944
10948
10952
10956
10960
10964
10968
10972
10976
10980
10984
10988
10992
10996
11000
11004
11008
11012
11016
11020
11024
11028
11032
11036
11040
11044
11048
11052
11056
11060
11064
11068
11072
11076
11080
11084
11088
11092
11096
11100
11104
11108
11112
11116
11120
11124
11128
11132
11136
11140
11144
11148
11152
11156
11160
11164
11168
11172
11176
11180
11184
11188
11192
11196
11200
11204
11208
11212
11216
11220
11224
11228
11232
11236
11240
11244
11248
11252
11256
11260
11264
11268
11272
11276
11280
11284
11288
11292
11296
11300
11304
11308
11312
11316
11320
11324
11328
11332
11336
11340
11344
11348
11352
11356
11360
11364
11368
11372
11376
11380
11384
11388
11392
11396
11400
11404
11408
11412
11416
11420
11424
11428
11432
11436
11440
11444
11448
11452
11456
11460
11464
11468
11472
11476
11480
11484
11488
11492
11496
11500
11504
11508
11512
11516
11520
11524
11528
11532
11536
11540
11544
11548
11552
11556
11560
11564
11568
11572
11576
11580
11584
11588
11592
11596
11600
11604
11608
11612
11616
11620
11624
11628
11632
11636
11640
11644
11648
11652
11656
11660
11664
11668
11672
11676
11680
11684
11688
11692
11696
11700
11704
11708
11712
11716
11720
11724
11728
11732
11736
11740
11744
11748
11752
11756
11760
11764
11768
11772
11776
11780
11784
11788
11792
11796
11800
11804
11808
11812
11816
11820
11824
11828
11832
11836
11840
11844
11848
11852
11856
11860
11864
11868
11872
11876
11880
11884
11888
11892
11896
11900
11904
11908
11912
11916
11920
11924
11928
11932
11936
11940
11944
11948
11952
11956
11960
11964
11968
11972
11976
11980
11984
11988
11992
11996
12000
12004
12008
12012
12016
12020
12024
12028
12032
12036
12040
12044
12048
12052
12056
12060
12064
12068
12072
12076
12080
12084
12088
12092
12096
12100
12104
12108
12112
12116
12120
12124
12128
12132
12136
12140
12144
12148
12152
12156
12160
12164
12168
12172
12176
12180
12184
12188
12192
12196
12200
12204
12208
12212
12216
12220
12224
12228
12232
12236
12240
12244
12248
12252
12256
12260
12264
12268
12272
12276
12280
12284
12288
12292
12296
12300
12304
12308
12312
12316
12320
12324
12328
12332
12336
12340
12344
12348
12352
12356
12360
12364
12368
12372
12376
12380
12384
12388
12392
12396
12400
12404
12408
12412
12416
12420
12424
12428
12432
12436
12440
12444
12448
12452
12456
12460
12464
12468
12472
12476
12480
12484
12488
12492
12496
12500
12504
12508
12512
12516
12520
12524
12528
12532
12536
12540
12544
12548
12552
12556
12560
12564
12568
12572
12576
12580
12584
12588
12592
12596
12600
12604
12608
12612
12616
12620
12624
12628
12632
12636
12640
12644
12648
12652
12656
12660
12664
12668
12672
12676
12680
12684
12688
12692
12696
12700
12704
12708
12712
12716
12720
12724
12728
12732
12736
12740
12744
12748
12752
12756
12760
12764
12768
12772
12776
12780
12784
12788
12792
12796
12800
12804
12808
12812
12816
12820
12824
12828
12832
12836
12840
12844
12848
12852
12856
12860
12864
12868
12872
12876
12880
12884
12888
12892
12896
12900
12904
12908
12912
12916
12920
12924
12928
12932
12936
12940
12944
12948
12952
12956
12960
12964
12968
12972
12976
12980
12984
12988
12992
12996
13000
13004
13008
13012
13016
13020
13024
13028
13032
13036
13040
13044
13048
13052
13056
13060
13064
13068
13072
13076
13080
13084
13088
13092
13096
13100
13104
13108
13112
13116
13120
13124
13128
13132
13136
13140
13144
13148
13152
13156
13160
13164
13168
13172
13176
13180
13184
13188
13192
13196
13200
13204
13208
13212
13216
13220
13224
13228
13232
13236
13240
13244
13248
13252
13256
13260
13264
13268
13272
13276
13280
13284
13288
13292
13296
13300
13304
13308
13312
13316
13320
13324
13328
13332
13336
13340
13344
13348
13352
13356
13360
13364
13368
13372
13376
13380
13384
13388
13392
13396
13400
13404
13408
13412
13416
13420
13424
13428
13432
13436
13440
13444
13448
13452
13456
13460
13464
13468
13472
13476
13480
13484
13488
13492
13496
13500
13504
13508
13512
13516
13520
13524
13528
13532
13536
13540
13544
13548
13552
13556
13560
13564
13568
13572
13576
13580
13584
13588
13592
13596
13600
13604
13608
13612
13616
13620
13624
13628
13632
13636
13640
13644
13648
13652
13656
13660
13664
13668
13672
13676
13680
13684
13688
13692
13696
13700
13704
13708
13712
13716
13720
13724
13728
13732
13736
13740
13744
13748
13752
13756
13760
13764
13768
13772
13776
13780
13784
13788
13792
13796
13800
13804
13808
13812
13816
13820
13824
13828
13832
13836
13840
13844
13848
13852
13856
13860
13864
13868
13872
13876
13880
13884
13888
13892
13896
13900
13904
13908
13912
13916
13920
13924
13928
13932
13936
13940
13944
13948
13952
13956
13960
13964
13968
13972
13976
13980
13984
13988
13992
13996
14000
14004
14008
14012
14016
14020
14024
14028
14032
14036
14040
14044
14048
14052
14056
14060
14064
14068
14072
14076
14080
14084
14088
14092
14096
14100
14104
14108
14112
14116
14120
14124
14128
14132
14136
14140
14144
14148
14152
14156
14160
14164
14168
14172
14176
14180
14184
14188
14192
14196
14200
14204
14208
14212
14216
14220
14224
14228
14232
14236
14240
14244
14248
14252
14256
14260
14264
14268
14272
14276
14280
14284
14288
14292
14296
14300
14304
14308
14312
14316
14320
14324
14328
14332
14336
14340
14344
14348
14352
14356
14360
14364
14368
14372
14376
14380
14384
14388
14392
14396
14400
14404
14408
14412
14416
14420
14424
14428
14432
14436
14440
14444
14448
14452
14456
14460
14464
14468
14472
14476
14480
14484
14488
14492
14496
14500
14504
14508
14512
14516
14520
14524
14528
14532
14536
14540
14544
14548
14552
14556
14560
14564
14568
14572
14576
14580
14584
14588
14592
14596
14600
14604
14608
14612
14616
14620
14624
14628
14632
14636
14640
14644
14648
14652
14656
14660
14664
14668
14672
14676
14680
14684
14688
14692
14696
14700
14704
14708
14712
14716
14720
14724
14728
14732
14736
14740
14744
14748
14752
14756
14760
14764
14768
14772
14776
14780
14784
14788
14792
14796
14800
14804
14808
14812
14816
14820
14824
14828
14832
14836
14840
14844
14848
14852
14856
14860
14864
14868
14872
14876
14880
14884
14888
14892
14896
14900
14904
14908
14912
14916
14920
14924
14928
14932
14936
14940
14944
14948
14952
14956
14960
14964
14968
14972
14976
14980
14984
14988
14992
14996
15000
15004
15008
15012
15016
15020
15024
15028
15032
15036
15040
15044
15048
15052
15056
15060
15064
15068
15072
15076
15080
15084
15088
15092
15096
15100
15104
15108
15112
15116
15120
15124
15128
15132
15136
15140
15144
15148
15152
15156
15160
15164
15168
15172
15176
15180
15184
15188
15192
15196
15200
15204
15208
15212
15216
15220
15224
15228
15232
15236
15240
15244
15248
15252
15256
15260
15264
15268
15272
15276
15280
15284
15288
15292
15296
15300
15304
15308
15312
15316
15320
15324
15328
15332
15336
15340
15344
15348
15352
15356
15360
15364
15368
15372
15376
15380
15384
15388
15392
15396
15400
15404
15408
15412
15416
15420
15424
15428
15432
15436
15440
15444
15448
15452
15456
15460
15464
15468
15472
15476
15480
15484
15488
15492
15496
15500
15504
15508
15512
15516
15520
15524
15528
15532
15536
15540
15544
15548
15552
15556
15560
15564
15568
15572
15576
15580
15584
15588
15592
15596
15600
15604
15608
15612
15616
15620
15624
15628
15632
15636
15640
15644
15648
15652
15656
15660
15664
15668
15672
15676
15680
15684
15688
15692
15696
15700
15704
15708
15712
15716
15720
15724
15728
15732
15736
15740
15744
15748
15752
15756
15760
15764
15768
15772
15776
15780
15784
15788
15792
15796
15800
15804
15808
15812
15816
15820
15824
15828
15832
15836
15840
15844
15848
15852
15856
15860
15864
15868
15872
15876
15880
15884
15888
15892
15896
15900
15904
15908
15912
15916
15920
15924
15928
15932
15936
15940
15944
15948
15952
15956
15960
15964
15968
15972
15976
15980
15984
15988
15992
15996
16000
16004
16008
16012
16016
16020
16024
16028
16032
16036
16040
16044
16048
16052
16056
16060
16064
16068
16072
16076
16080
16084
16088
16092
16096
16100
16104
16108
16112
16116
16120
16124
16128
16132
16136
16140
16144
16148
16152
16156
16160
16164
16168
16172
16176
16180
16184
16188
16192
16196
16200
16204
16208
16212
16216
16220
16224
16228
16232
16236
16240
16244
16248
16252
16256
16260
16264
16268
16272
16276
16280
16284
16288
16292
16296
16300
16304
16308
16312
16316
16320
16324
16328
16332
16336
16340
16344
16348
16352
16356
16360
16364
16368
16372
16376
16380
16384
16388
16392
16396
16400
16404
16408
16412
16416
16420
16424
16428
16432
16436
16440
16444
16448
16452
16456
16460
16464
16468
16472
16476
16480
16484
16488
16492
16496
16500
16504
16508
16512
16516
16520
16524
16528
16532
16536
16540
16544
16548
16552
16556
16560
16564
16568
16572
16576
16580
16584
16588
16592
16596
16600
16604
16608
16612
16616
16620
16624
16628
16632
16636
16640
16644
16648
16652
16656
16660
16664
16668
16672
16676
16680
16684
16688
16692
16696
16700
16704
16708
16712
16716
16720
16724
16728
16732
16736
16740
16744
16748
16752
16756
16760
16764
16768
16772
16776
16780
16784
16788
16792
16796
16800
16804
16808
16812
16816
16820
16824
16828
16832
16836
16840
16844
16848
16852
16856
16860
16864
16868
16872
16876
16880
16884
16888
16892
16896
16900
16904
16908
16912
16916
16920
16924
16928
16932
16936
16940
16944
16948
16952
16956
16960
16964
16968
16972
16976
16980
16984
16988
16992
16996
17000
17004
17008
17012
17016
17020
17024
17028
17032
17036
17040
17044
17048
17052
17056
17060
17064
17068
17072
17076
17080
17084
17088
17092
17096
17100
17104
17108
17112
17116
17120
17124
17128
17132
17136
17140
17144
17148
17152
17156
17160
17164
17168
17172
17176
17180
17184
17188
17192
17196
17200
17204
17208
17212
17216
17220
17224
17228
17232
17236
17240
17244
17248
17252
17256
17260
17264
17268
17272
17276
17280
17284
17288
17292
17296
17300
17304
17308
17312
17316
17320
17324
17328
17332
17336
17340
17344
17348
17352
17356
17360
17364
17368
17372
17376
17380
17384
17388
17392
17396
17400
17404
17408
17412
17416
17420
17424
17428
17432
17436
17440
17444
17448
17452
17456
17460
17464
17468
17472
17476
17480
17484
17488
17492
17496
17500
17504
17508
17512
17516
17520
17524
17528
17532
17536
17540
17544
17548
17552
17556
17560
17564
17568
17572
17576
17580
17584
17588
17592
17596
17600
17604
17608
17612
17616
17620
17624
17628
17632
17636
17640
17644
17648
17652
17656
17660
17664
17668
17672
17676
17680
17684
17688
17692
17696
17700
17704
17708
17712
17716
17720
17724
17728
17732
17736
17740
17744
17748
17752
17756
17760
17764
17768
17772
17776
17780
17784
17788
17792
17796
17800
17804
17808
17812
17816
17820
17824
17828
17832
17836
17840
17844
17848
17852
17856
17860
17864
17868
17872
17876
17880
17884
17888
17892
17896
17900
17904
17908
17912
17916
17920
17924
17928
17932
17936
17940
17944
17948
17952
17956
17960
17964
17968
17972
17976
17980
17984
17988
17992
17996
18000
18004
18008
18012
18016
18020
18024
18028
18032
18036
18040
18044
18048
18052
18056
18060
18064
18068
18072
18076
18080
18084
18088
18092
18096
18100
18104
18108
18112
18116
18120
18124
18128
18132
18136
18140
18144
18148
18152
18156
18160
18164
18168
18172
18176
18180
18184
18188
18192
18196
18200
18204
18208
18212
18216
18220
18224
18228
18232
18236
18240
18244
18248
18252
18256
18260
18264
18268
18272
18276
18280
18284
18288
18292
18296
18300
18304
18308
18312
18316
18320
18324
18328
18332
18336
18340
18344
18348
18352
18356
18360
18364
18368
18372
18376
18380
18384
18388
18392
18396
18400
18404
18408
18412
18416
18420
18424
18428
18432
18436
18440
18444
18448
18452
18456
18460
18464
18468
18472
18476
18480
18484
18488
18492
18496
18500
18504
18508
18512
18516
18520
18524
18528
18532
18536
18540
18544
18548
18552
18556
18560
18564
18568
18572
18576
18580
18584
18588
18592
18596
18600
18604
18608
18612
18616
18620
18624
18628
18632
18636
18640
18644
18648
18652
18656
18660
18664
18668
18672
18676
18680
18684
18688
18692
18696
18700
18704
18708
18712
18716
18720
18724
18728
18732
18736
18740
18744
18748
18752
18756
18760
18764
18768
18772
18776
18780
18784
18788
18792
18796
18800
18804
18808
18812
18816
18820
18824
18828
18832
18836
18840
18844
18848
18852
18856
18860
18864
18868
18872
18876
18880
18884
18888
18892
18896
18900
18904
18908
18912
18916
18920
18924
18928
18932
18936
18940
18944
18948
18952
18956
18960
18964
18968
18972
18976
18980
18984
18988
18992
18996
19000
19004
19008
19012
19016
19020
19024
19028
19032
19036
19040
19044
19048
19052
19056
19060
19064
19068
19072
19076
19080
19084
19088
19092
19096
19100
19104
19108
19112
19116
19120
19124
19128
19132
19136
19140
19144
19148
19152
19156
19160
19164
19168
19172
19176
19180
19184
19188
19192
19196
19200
19204
19208
19212
19216
19220
19224
19228
19232
19236
19240
19244
19248
19252
19256
19260
19264
19268
19272
19276
19280
19284
19288
19292
19296
19300
19304
19308
19312
19316
19320
19324
19328
19332
19336
19340
19344
19348
19352
19356
19360
19364
19368
19372
19376
19380
19384
19388
19392
19396
19400
19404
19408
19412
19416
19420
19424
19428
19432
19436
19440
19444
19448
19452
19456
19460
19464
19468
19472
19476
19480
19484
19488
19492
19496
19500
19504
19508
19512
19516
19520
19524
19528
19532
19536
19540
19544
19548
19552
19556
19560
19564
19568
19572
19576
19580
19584
19588
19592
19596
19600
19604
19608
19612
19616
19620
19624
19628
19632
19636
19640
19644
19648
19652
19656
19660
19664
19668
19672
19676
19680
19684
19688
19692
19696
19700
19704
19708
19712
19716
19720
19724
19728
19732
19736
19740
19744
19748
19752
19756
19760
19764
19768
19772
19776
19780
19784
19788
19792
19796
19800
19804
19808
19812
19816
19820
19824
19828
19832
19836
19840
19844
19848
19852
19856
19860
19864
19868
19872
19876
19880
19884
19888
19892
19896
19900
19904
19908
19912
19916
19920
19924
19928
19932
19936
19940
19944
19948
19952
19956
19960
19964
19968
19972
19976
19980
19984
19988
19992
19996
20000
20004
20008
20012
20016
20020
20024
20028
20032
20036
20040
20044
20048
20052
20056
20060
20064
20068
20072
20076
20080
20084
20088
20092
20096
20100
20104
20108
20112
20116
20120
20124
20128
20132
20136
20140
20144
20148
20152
20156
20160
20164
20168
20172
20176
20180
20184
20188
20192
20196
20200
20204
20208
20212
20216
20220
20224
20228
20232
20236
20240
20244
20248
20252
20256
20260
20264
20268
20272
20276
20280
20284
20288
20292
20296
20300
20304
20308
20312
20316
20320
20324
20328
20332
20336
20340
20344
20348
20352
20356
20360
20364
20368
20372
20376
20380
20384
20388
20392
20396
20400
20404
20408
20412
20416
20420
20424
20428
20432
20436
20440
20444
20448
20452
20456
20460
20464
20468
20472
20476
20480
20484
20488
20492
20496
20500
20504
20508
20512
20516
20520
20524
20528
20532
20536
20540
20544
20548
20552
20556
20560
20564
20568
20572
20576
20580
20584
20588
20592
20596
20600
20604
20608
20612
20616
20620
20624
20628
20632
20636
20640
20644
20648
20652
20656
20660
20664
20668
20672
20676
20680
20684
20688
20692
20696
20700
20704
20708
20712
20716
20720
20724
20728
20732
20736
20740
20744
20748
20752
20756
20760
20764
20768
20772
20776
20780
20784
20788
20792
20796
20800
20804
20808
20812
20816
20820
20824
20828
20832
20836
20840
20844
20848
20852
20856
20860
20864
20868
20872
20876
20880
20884
20888
20892
20896
20900
20904
20908
20912
20916
20920
20924
20928
20932
20936
20940
20944
20948
20952
20956
20960
20964
20968
20972
20976
20980
20984
20988
20992
20996
21000
21004
21008
21012
21016
21020
21024
21028
21032
21036
21040
21044
21048
21052
21056
21060
21064
21068
21072
21076
21080
21084
21088
21092
21096
21100
21104
21108
21112
21116
21120
21124
21128
21132
21136
21140
21144
21148
21152
21156
21160
21164
21168
21172
21176
21180
21184
21188
21192
21196
21200
21204
21208
21212
21216
21220
21224
21228
21232
21236
21240
21244
21248
21252
21256
21260
21264
21268
21272
21276
21280
21284
21288
21292
21296
21300
21304
21308
21312
21316
21320
21324
21328
21332
21336
21340
21344
21348
21352
21356
21360
21364
21368
21372
21376
21380
21384
21388
21392
21396
21400
21404
21408
21412
21416
21420
21424
21428
21432
21436
21440
21444
21448
21452
21456
21460
21464
21468
21472
21476
21480
21484
21488
21492
21496
21500
21504
21508
21512
21516
21520
21524
21528
21532
21536
21540
21544
21548
21552
21556
21560
21564
21568
21572
21576
21580
21584
21588
21592
21596
21600
21604
21608
21612
21616
21620
21624
21628
21632
21636
21640
21644
21648
21652
21656
21660
21664
21668
21672
21676
21680
21684
21688
21692
21696
21700
21704
21708
21712
21716
21720
21724
21728
21732
21736
21740
21744
21748
21752
21756
21760
21764
21768
21772
21776
21780
21784
21788
21792
21796
21800
21804
21808
21812
21816
21820
21824
21828
21832
21836
21840
21844
21848
21852
21856
21860
21864
21868
21872
21876
21880
21884
21888
21892
21896
21900
21904
21908
21912
21916
21920
21924
21928
21932
21936
21940
21944
21948
21952
21956
21960
21964
21968
21972
21976
21980
21984
21988
21992
21996
22000
22004
22008
22012
22016
22020
22024
22028
22032
22036
22040
22044
22048
22052
22056
22060
22064
22068
22072
22076
22080
22084
22088
22092
22096
22100
22104
22108
22112
22116
22120
22124
22128
22132
22136
22140
22144
22148
22152
22156
22160
22164
22168
22172
22176
22180
22184
22188
22192
22196
22200
22204
22208
22212
22216
22220
22224
22228
22232
22236
22240
22244
22248
22252
22256
22260
22264
22268
22272
22276
22280
22284
22288
22292
22296
22300
22304
22308
22312
22316
22320
22324
22328
22332
22336
22340
22344
22348
22352
22356
22360
22364
22368
22372
22376
22380
22384
22388
22392
22396
22400
22404
22408
22412
22416
22420
22424
22428
22432
22436
22440
22444
22448
22452
22456
22460
22464
22468
22472
22476
22480
22484
22488
22492
22496
22500
22504
22508
22512
22516
22520
22524
22528
22532
22536
22540
22544
22548
22552
22556
22560
22564
22568
22572
22576
22580
22584
22588
22592
22596
22600
22604
22608
22612
22616
22620
22624
22628
22632
22636
22640
22644
22648
22652
22656
22660
22664
22668
22672
22676
22680
22684
22688
22692
22696
22700
22704
22708
22712
22716
22720
</DataArray>
<DataArray type="Int64" Name="types" format="ascii">
9
9
9
9
9
9
9
9
9
9
9
9
9
9
9
9
9
9
9
9
9
9
9
9
9
9
9
9
9
9
9
9
9
9
9
9
9
9
9
9
9
9
9
9
9
9
9
9
9
9
9
9
9
9
9
9
9
9
9
9
9
9
9
9
9
9
9
9
9
9
9
9
9
9
9
9
9
9
9
9
9
9
9
9
9
9
9
9
9
9
9
9
9
9
9
9
9
9
9
9
9
9
9
9
9
9
9
9
9
9
9
9
9
9
9
9
9
9
9
9
9
9
9
9
9
9
9
9
9
9
9
9
9
9
9
9
9
9
9
9
9
9
9
9
9
9
9
9
9
9
9
9
9
9
9
9
9
9
9
9
9
9
9
9
9
9
9
9
9
9
9
9
9
9
9
9
9
9
9
9
9
9
9
9
9
9
9
9
9
9
9
9
9
9
9
9
9
9
9
9
9
9
9
9
9
9
9
9
9
9
9
9
9
9
9
9
9
9
9
9
9
9
9
9
9
9
9
9
9
9
9
9
9
9
9
9
9
9
9
9
9
9
9
9
9
9
9
9
9
9
9
9
9
9
9
9
9
9
9
9
9
9
9
9
9
9
9
9
9
9
9
9
9
9
9
9
9
9
9
9
9
9
9
9
9
9
9
9
9
9
9
9
9
9
9
9
9
9
9
9
9
9
9
9
9
9
9
9
9
9
9
9
9
9
9
9
9
9
9
9
9
9
9
9
9
9
9
9
9
9
9
9
9
9
9
9
9
9
9
9
9
9
9
9
9
9
9
9
9
9
9
9
9
9
9
9
9
9
9
9
9
9
9
9
9
9
9
9
9
9
9
9
9
9
9
9
9
9
9
9
9
9
9
9
9
9
9
9
9
9
9
9
9
9
9
9
9
9
9
9
9
9
9
9
9
9
9
9
9
9
9
9
9
9
9
9
9
9
9
9
9
9
9
9
9
9
9
9
9
9
9
9
9
9
9
9
9
9
9
9
9
9
9
9
9
9
9
9
9
9
9
9
9
9
9
9
9
9
9
9
9
9
9
9
9
9
9
9
9
9
9
9
9
9
9
9
9
9
9
9
9
9
9
9
9
9
9
9
9
9
9
9
9
9
9
9
9
9
9
9
9
9
9
9
9
9
9
9
9
9
9
9
9
9
9
9
9
9
9
9
9
9
9
9
9
9
9
9
9
9
9
9
9
9
9
9
9
9
9
9
9
9
9
9
9
9
9
9
9
9
9
9
9
9
9
9
9
9
9
9
9
9
9
9
9
9
9
9
9
9
9
9
9
9
9
9
9
9
9
9
9
9
9
9
9
9
9
9
9
9
9
9
9
9
9
9
9
9
9
9
9
9
9
9
9
9
9
9
9
9
9
9
9
9
9
9
9
9
9
9
9
9
9
9
9
9
9
9
9
9
9
9
9
9
9
9
9
9
9
9
9
9
9
9
9
9
9
9
9
9
9
9
9
9
9
9
9
9
9
9
9
9
9
9
9
9
9
9
9
9
9
9
9
9
9
9
9
9
9
9
9
9
9
9
9
9
9
9
9
9
9
9
9
9
9
9
9
9
9
9
9
9
9
9
9
9
9
9
9
9
9
9
9
9
9
9
9
9
9
9
9
9
9
9
9
9
9
9
9
9
9
9
9
9
9
9
9
9
9
9
9
9
9
9
9
9
9
9
9
9
9
9
9
9
9
9
9
9
9
9
9
9
9
9
9
9
9
9
9
9
9
9
9
9
9
9
9
9
9
9
9
9
9
9
9
9
9
9
9
9
9
9
9
9
9
9
9
9
9
9
9
9
9
9
9
9
9
9
9
9
9
9
9
9
9
9
9
9
9
9
9
9
9
9
9
9
9
9
9
9
9
9
9
9
9
9
9
9
9
9
9
9
9
9
9
9
9
9
9
9
9
9
9
9
9
9
9
9
9
9
9
9
9
9
9
9
9
9
9
9
9
9
9
9
9
9
9
9
9
9
9
9
9
9
9
9
9
9
9
9
9
9
9
9
9
9
9
9
9
9
9
9
9
9
9
9
9
9
9
9
9
9
9
9
9
9
9
9
9
9
9
9
9
9
9
9
9
9
9
9
9
9
9
9
9
9
9
9
9
9
9
9
9
9
9
9
9
9
9
9
9
9
9
9
9
9
9
9
9
9
9
9
9
9
9
9
9
9
9
9
9
9
9
9
9
9
9
9
9
9
9
9
9
9
9
9
9
9
9
9
9
9
9
9
9
9
9
9
9
9
9
9
9
9
9
9
9
9
9
9
9
9
9
9
9
9
9
9
9
9
9
9
9
9
9
9
9
9
9
9
9
9
9
9
9
9
9
9
9
9
9
9
9
9
9
9
9
9
9
9
9
9
9
9
9
9
9
9
9
9
9
9
9
9
9
9
9
9
9
9
9
9
9
9
9
9
9
9
9
9
9
9
9
9
9
9
9
9
9
9
9
9
9
9
9
9
9
9
9
9
9
9
9
9
9
9
9
9
9
9
9
9
9
9
9
9
9
9
9
9
9
9
9
9
9
9
9
9
9
9
9
9
9
9
9
9
9
9
9
9
9
9
9
9
9
9
9
9
9
9
9
9
9
9
9
9
9
9
9
9
9
9
9
9
9
9
9
9
9
9
9
9
9
9
9
9
9
9
9
9
9
9
9
9
9
9
9
9
9
9
9
9
9
9
9
9
9
9
9
9
9
9
9
9
9
9
9
9
9
9
9
9
9
9
9
9
9
9
9
9
9
9
9
9
9
9
9
9
9
9
9
9
9
9
9
9
9
9
9
9
9
9
9
9
9
9
9
9
9
9
9
9
9
9
9
9
9
9
9
9
9
9
9
9
9
9
9
9
9
9
9
9
9
9
9
9
9
9
9
9
9
9
9
9
9
9
9
9
9
9
9
9
9
9
9
9
9
9
9
9
9
9
9
9
9
9
9
9
9
9
9
9
9
9
9
9
9
9
9
9
9
9
9
9
9
9
9
9
9
9
9
9
9
9
9
9
9
9
9
9
9
9
9
9
9
9
9
9
9
9
9
9
9
9
9
9
9
9
9
9
9
9
9
9
9
9
9
9
9
9
9
9
9
9
9
9
9
9
9
9
9
9
9
9
9
9
9
9
9
9
9
9
9
9
9
9
9
9
9
9
9
9
9
9
9
9
9
9
9
9
9
9
9
9
9
9
9
9
9
9
9
9
9
9
9
9
9
9
9
9
9
9
9
9
9
9
9
9
9
9
9
9
9
9
9
9
9
9
9
9
9
9
9
9
9
9
9
9
9
9
9
9
9
9
9
9
9
9
9
9
9
9
9
9
9
9
9
9
9
9
9
9
9
9
9
9
9
9
9
9
9
9
9
9
9
9
9
9
9
9
9
9
9
9
9
9
9
9
9
9
9
9
9
9
9
9
9
9
9
9
9
9
9
9
9
9
9
9
9
9
9
9
9
9
9
9
9
9
9
9
9
9
9
9
9
9
9
9
9
9
9
9
9
9
9
9
9
9
9
9
9
9
9
9
9
9
9
9
9
9
9
9
9
9
9
9
9
9
9
9
9
9
9
9
9
9
9
9
9
9
9
9
9
9
9
9
9
9
9
9
9
9
9
9
9
9
9
9
9
9
9
9
9
9
9
9
9
9
9
9
9
9
9
9
9
9
9
9
9
9
9
9
9
9
9
9
9
9
9
9
9
9
9
9
9
9
9
9
9
9
9
9
9
9
9
9
9
9
9
9
9
9
9
9
9
9
9
9
9
9
9
9
9
9
9
9
9
9
9
9
9
9
9
9
9
9
9
9
9
9
9
9
9
9
9
9
9
9
9
9
9
9
9
9
9
9
9
9
9
9
9
9
9
9
9
9
9
9
9
9
9
9
9
9
9
9
9
9
9
9
9
9
9
9
9
9
9
9
9
9
9
9
9
9
9
9
9
9
9
9
9
9
9
9
9
9
9
9
9
9
9
9
9
9
9
9
9
9
9
9
9
9
9
9
9
9
9
9
9
9
9
9
9
9
9
9
9
9
9
9
9
9
9
9
9
9
9
9
9
9
9
9
9
9
9
9
9
9
9
9
9
9
9
9
9
9
9
9
9
9
9
9
9
9
9
9
9
9
9
9
9
9
9
9
9
9
9
9
9
9
9
9
9
9
9
9
9
9
9
9
9
9
9
9
9
9
9
9
9
9
9
9
9
9
9
9
9
9
9
9
9
9
9
9
9
9
9
9
9
9
9
9
9
9
9
9
9
9
9
9
9
9
9
9
9
9
9
9
9
9
9
9
9
9
9
9
9
9
9
9
9
9
9
9
9
9
9
9
9
9
9
9
9
9
9
9
9
9
9
9
9
9
9
9
9
9
9
9
9
9
9
9
9
9
9
9
9
9
9
9
9
9
9
9
9
9
9
9
9
9
9
9
9
9
9
9
9
9
9
9
9
9
9
9
9
9
9
9
9
9
9
9
9
9
9
9
9
9
9
9
9
9
9
9
9
9
9
9
9
9
9
9
9
9
9
9
9
9
9
9
9
9
9
9
9
9
9
9
9
9
9
9
9
9
9
9
9
9
9
9
9
9
9
9
9
9
9
9
9
9
9
9
9
9
9
9
9
9
9
9
9
9
9
9
9
9
9
9
9
9
9
9
9
9
9
9
9
9
9
9
9
9
9
9
9
9
9
9
9
9
9
9
9
9
9
9
9
9
9
9
9
9
9
9
9
9
9
9
9
9
9
9
9
9
9
9
9
9
9
9
9
9
9
9
9
9
9
9
9
9
9
9
9
9
9
9
9
9
9
9
9
9
9
9
9
9
9
9
9
9
9
9
9
9
9
9
9
9
9
9
9
9
9
9
9
9
9
9
9
9
9
9
9
9
9
9
9
9
9
9
9
9
9
9
9
9
9
9
9
9
9
9
9
9
9
9
9
9
9
9
9
9
9
9
9
9
9
9
9
9
9
9
9
9
9
9
9
9
9
9
9
9
9
9
9
9
9
9
9
9
9
9
9
9
9
9
9
9
9
9
9
9
9
9
9
9
9
9
9
9
9
9
9
9
9
9
9
9
9
9
9
9
9
9
9
9
9
9
9
9
9
9
9
9
9
9
9
9
9
9
9
9
9
9
9
9
9
9
9
9
9
9
9
9
9
9
9
9
9
9
9
9
9
9
9
9
9
9
9
9
9
9
9
9
9
9
9
9
9
9
9
9
9
9
9
9
9
9
9
9
9
9
9
9
9
9
9
9
9
9
9
9
9
9
9
9
9
9
9
9
9
9
9
9
9
9
9
9
9
9
9
9
9
9
9
9
9
9
9
9
9
9
9
9
9
9
9
9
9
9
9
9
9
9
9
9
9
9
9
9
9
9
9
9
9
9
9
9
9
9
9
9
9
9
9
9
9
9
9
9
9
9
9
9
9
9
9
9
9
9
9
9
9
9
9
9
9
9
9
9
9
9
9
9
9
9
9
9
9
9
9
9
9
9
9
9
9
9
9
9
9
9
9
9
9
9
9
9
9
9
9
9
9
9
9
9
9
9
9
9
9
9
9
9
9
9
9
9
9
9
9
9
9
9
9
9
9
9
9
9
9
9
9
9
9
9
9
9
9
9
9
9
9
9
9
9
9
9
9
9
9
9
9
9
9
9
9
9
9
9
9
9
9
9
9
9
9
9
9
9
9
9
9
9
9
9
9
9
9
9
9
9
9
9
9
9
9
9
9
9
9
9
9
9
9
9
9
9
9
9
9
9
9
9
9
9
9
9
9
9
9
9
9
9
9
9
9
9
9
9
9
9
9
9
9
9
9
9
9
9
9
9
9
9
9
9
9
9
9
9
9
9
9
9
9
9
9
9
9
9
9
9
9
9
9
9
9
9
9
9
9
9
9
9
9
9
9
9
9
9
9
9
9
9
9
9
9
9
9
9
9
9
9
9
9
9
9
9
9
9
9
9
9
9
9
9
9
9
9
9
9
9
9
9
9
9
9
9
9
9
9
9
9
9
9
9
9
9
9
9
9
9
9
9
9
9
9
9
9
9
9
9
9
9
9
9
9
9
9
9
9
9
9
9
9
9
9
9
9
9
9
9
9
9
9
9
9
9
9
9
9
9
9
9
9
9
9
9
9
9
9
9
9
9
9
9
9
9
9
9
9
9
9
9
9
9
9
9
9
9
9
9
9
9
9
9
9
9
9
9
9
9
9
9
9
9
9
9
9
9
9
9
9
9
9
9
9
9
9
9
9
9
9
9
9
9
9
9
9
9
9
9
9
9
9
9
9
9
9
9
9
9
9
9
9
9
9
9
9
9
9
9
9
9
9
9
9
9
9
9
9
9
9
9
9
9
9
9
9
9
9
9
9
9
9
9
9
9
9
9
9
9
9
9
9
9
9
9
9
9
9
9
9
9
9
9
9
9
9
9
9
9
9
9
9
9
9
9
9
9
9
9
9
9
9
9
9
9
9
9
9
9
9
9
9
9
9
9
9
9
9
9
9
9
9
9
9
9
9
9
9
9
9
9
9
9
9
9
9
9
9
9
9
9
9
9
9
9
9
9
9
9
9
9
9
9
9
9
9
9
9
9
9
9
9
9
9
9
9
9
9
9
9
9
9
9
9
9
9
9
9
9
9
9
9
9
9
9
9
9
9
9
9
9
9
9
9
9
9
9
9
9
9
9
9
9
9
9
9
9
9
9
9
9
9
9
9
9
9
9
9
9
9
9
9
9
9
9
9
9
9
9
9
9
9
9
9
9
9
9
9
9
9
9
9
9
9
9
9
9
9
9
9
9
9
9
9
9
9
9
9
9
9
9
9
9
9
9
9
9
9
9
9
9
9
9
9
9
9
9
9
9
9
9
9
9
9
9
9
9
9
9
9
9
9
9
9
9
9
9
9
9
9
9
9
9
9
9
9
9
9
9
9
9
9
9
9
9
9
9
9
9
9
9
9
9
9
9
9
9
9
9
9
9
9
9
9
9
9
9
9
9
9
9
9
9
9
9
9
9
9
9
9
9
9
9
9
9
9
9
9
9
9
9
9
9
9
9
9
9
9
9
9
9
9
9
9
9
9
9
9
9
9
9
9
9
9
9
9
9
9
9
9
9
9
9
9
9
9
9
9
9
9
9
9
9
9
9
9
9
9
9
9
9
9
9
9
9
9
9
9
9
9
9
9
9
9
9
9
9
9
9
9
9
9
9
9
9
9
9
9
9
9
9
9
9
9
9
9
9
9
9
9
9
9
9
9
9
9
9
9
9
9
9
9
9
9
9
9
9
9
9
9
9
9
9
9
9
9
9
9
9
9
9
9
9
9
9
9
9
9
9
9
9
9
9
9
9
9
9
9
9
9
9
9
9
9
9
9
9
9
9
9
9
9
9
9
9
9
9
9
9
9
9
9
9
9
9
9
9
9
9
9
9
9
9
9
9
9
9
9
9
9
9
9
9
9
9
9
9
9
9
9
9
9
9
9
9
9
9
9
9
9
9
9
9
9
9
9
9
9
9
9
9
9
9
9
9
9
9
9
9
9
9
9
9
9
9
9
9
9
9
9
9
9
9
9
9
9
9
9
9
9
9
9
9
9
9
9
9
9
9
9
9
9
9
9
9
9
9
9
9
9
9
9
9
9
9
9
9
9
9
9
9
9
9
9
9
9
9
9
9
9
9
9
9
9
9
9
9
9
9
9
9
9
9
9
9
9
9
9
9
9
9
9
9
9
9
9
9
9
9
9
9
9
9
9
9
9
9
9
9
9
9
9
9
9
9
9
9
9
9
9
9
9
9
9
9
9
9
9
9
9
9
9
9
9
9
9
9
9
9
9
9
9
9
9
9
9
9
9
9
9
9
9
9
9
9
9
9
9
9
9
9
9
9
9
9
9
9
9
9
9
9
9
9
9
9
9
9
9
9
9
9
9
9
9
9
9
9
9
9
9
9
9
9
9
9
9
9
9
9
9
9
9
9
9
9
9
9
9
9
9
9
9
9
9
9
9
9
9
9
9
9
9
9
9
9
9
9
9
9
9
9
9
9
9
9
9
9
9
9
9
9
9
9
9
9
9
9
9
9
9
9
9
9
9
9
9
9
9
9
9
9
9
9
9
9
9
9
9
9
9
9
9
9
9
9
9
9
9
9
9
9
9
9
9
9
9
9
9
9
9
9
9
9
9
9
9
9
9
9
9
9
9
9
9
9
9
9
9
9
9
9
9
9
9
9
9
9
9
9
9
9
9
9
9
9
9
9
9
9
9
9
9
9
9
9
9
9
9
9
9
9
9
9
9
9
9
9
9
9
9
9
9
9
9
9
9
9
9
9
9
9
9
9
9
9
9
9
9
9
9
9
9
9
9
9
9
9
9
9
9
9
9
9
9
9
9
9
9
9
9
9
9
9
9
9
9
9
9
9
9
9
9
9
9
9
9
9
9
9
9
9
9
9
9
9
9
9
9
9
9
9
9
9
9
9
9
9
9
9
9
9
9
9
9
9
9
9
9
9
9
9
9
9
9
9
9
9
9
9
9
9
9
9
9
9
9
9
9
9
9
9
9
9
9
9
9
9
9
9
9
9
9
9
9
9
9
9
9
9
9
9
9
9
9
9
9
9
9
9
9
9
9
9
9
9
9
9
9
9
9
9
9
9
9
9
9
9
9
9
9
9
9
9
9
9
9
9
9
9
9
9
9
9
9
9
9
9
9
9
9
9
9
9
9
9
9
9
9
9
9
9
9
9
9
9
9
9
9
9
9
9
9
9
9
9
9
9
9
9
9
9
9
9
9
9
9
9
9
9
9
9
9
9
9
9
9
9
9
9
9
9
9
9
9
9
9
9
9
9
9
9
9
9
9
9
9
9
9
9
9
9
9
9
9
9
9
9
9
9
9
9
9
9
9
9
9
9
9
9
9
9
9
9
9
9
9
9
9
9
9
9
9
9
9
9
9
9
9
9
9
9
9
9
9
9
9
9
9
9
9
9
9
9
9
9
9
9
9
9
9
9
9
9
9
9
9
9
9
9
9
9
9
9
9
9
9
9
9
9
9
9
9
9
9
9
9
9
9
9
9
9
9
9
9
9
9
9
9
9
9
9
9
9
9
9
9
9
9
9
9
9
9
9
9
9
9
9
9
9
9
9
9
9
9
9
9
9
9
9
9
9
9
9
9
9
9
9
9
9
9
9
9
9
9
9
9
9
9
9
9
9
9
9
9
9
9
9
9
9
9
9
9
9
9
9
9
9
9
9
9
9
9
9
9
9
9
9
9
9
9
9
9
9
9
9
9
9
9
9
9
9
9
9
9
9
9
9
9
9
9
9
9
9
9
9
9
9
9
9
9
9
9
9
9
9
9
9
9
9
9
9
9
9
9
9
9
9
9
9
9
9
9
9
9
9
9
9
9
9
9
9
9
9
9
9
9
9
9
9
9
9
9
9
9
9
9
9
9
9
9
9
9
9
9
9
9
9
9
9
9
9
9
9
9
9
9
9
9
9
9
9
9
9
9
9
9
9
9
9
9
9
9
9
9
9
9
9
9
9
9
9
9
9
9
9
9
9
9
9
9
9
9
9
9
9
9
9
9
9
9
9
9
9
9
9
9
9
9
9
9
9
9
9
9
9
9
9
9
9
9
9
9
9
9
9
9
9
9
9
9
9
9
9
9
9
9
9
9
9
9
9
9
9
9
9
9
9
9
9
9
9
9
9
9
9
9
9
9
9
9
9
9
9
9
9
9
9
9
9
9
9
9
9
9
9
9
9
9
9
9
9
9
9
9
9
9
9
9
9
9
9
9
9
9
9
9
9
9
9
9
9
9
9
9
9
9
9
9
9
9
9
9
9
9
9
9
9
9
9
9
9
9
9
9
9
9
9
9
9
9
9
9
9
9
9
9
9
9
9
9
9
9
9
9
9
9
9
9
9
9
9
9
9
9
9
9
9
9
9
9
9
9
9
9
9
9
9
9
9
9
9
9
9
9
9
9
9
9
9
9
9
9
9
9
9
9
9
9
9
9
9
9
9
9
9
9
9
9
9
9
9
9
9
9
9
9
9
9
9
9
9
9
9
9
9
9
9
9
9
9
9
9
9
9
9
9
9
9
9
9
9
9
9
9
9
9
9
9
9
9
9
9
9
9
9
9
9
9
9
9
9
9
9
9
9
9
9
9
9
9
9
9
9
9
9
9
9
9
9
9
9
9
9
9
9
9
9
9
9
9
9
9
9
9
9
9
9
9
9
9
9
9
9
9
9
9
9
9
9
9
9
9
9
9
9
9
9
9
9
9
9
9
9
9
9
9
9
9
9
9
9
9
9
9
9
9
9
9
9
9
9
9
9
9
9
9
9
9
9
9
9
9
9
9
9
9
9
9
9
9
9
9
9
9
9
9
9
9
9
9
9
9
9
9
9
9
9
9
9
9
9
9
9
9
9
9
9
9
9
9
9
9
9
9
9
9
9
9
9
9
9
9
9
9
9
9
9
9
9
9
9
9
9
9
9
9
9
9
9
9
9
9
9
9
9
9
9
9
9
9
9
9
9
9
9
9
9
9
9
9
9
9
9
9
9
9
9
9
9
9
9
9
9
9
9
9
9
9
9
9
9
9
9
9
9
9
9
9
9
9
9
9
9
9
9
9
9
9
9
9
9
9
9
9
9
9
9
9
9
9
9
9
9
9
9
9
9
9
9
9
9
9
9
9
9
9
9
9
9
9
9
9
9
9
9
9
9
9
9
9
9
9
9
9
9
9
9
9
9
9
9
9
9
9
9
9
9
9
9
9
9
9
9
9
9
9
9
9
9
9
9
9
9
9
9
9
9
9
9
9
9
9
9
9
9
9
9
9
9
9
9
9
9
9
9
9
9
9
9
9
9
9
9
9
9
9
9
9
9
9
9
9
9
9
9
9
9
9
9
9
9
9
9
9
9
9
9
9
9
9
9
9
9
9
9
9
9
9
9
9
9
9
9
9
9
9
9
9
9
9
9
9
9
9
9
9
9
9
9
9
9
9
9
9
9
9
9
9
9
9
9
9
9
9
9
9
9
9
9
9
9
9
9
9
9
9
9
9
9
9
9
9
9
9
9
9
9
9
9
9
9
9
9
9
9
9
9
9
9
9
9
9
9
9
9
9
9
9
9
9
9
9
9
9
9
9
9
9
9
9
9
9
9
9
9
9
9
9
9
9
9
9
9
9
9
9
9
9
9
9
9
9
9
9
9
9
9
9
9
9
9
9
9
9
9
9
9
9
9
9
9
9
9
9
9
9
9
9
9
9
9
9
9
9
9
9
9
9
9
9
9
9
9
9
9
9
9
9
9
9
9
9
9
9
9
9
9
9
9
9
9
9
9
9
9
9
9
9
9
9
9
9
9
9
9
9
9
9
9
9
9
9
9
9
9
9
9
9
9
9
9
9
9
9
9
9
9
9
9
9
9
9
9
9
9
9
9
9
9
9
9
9
9
9
9
9
9
9
9
9
9
9
9
9
9
9
9
9
9
9
9
9
9
9
9
9
9
9
9
9
9
9
9
9
9
9
9
9
9
9
9
9
9
9
9
9
9
9
9
9
9
9
9
9
9
9
9
9
9
9
9
9
9
9
9
9
9
9
9
9
9
9
9
9
9
9
9
9
9
9
9
9
9
9
9
9
9
9
9
9
9
9
9
9
9
9
9
9
9
9
9
9
9
9
9
9
9
9
9
9
9
9
9
9
9
9
9
9
9
9
9
9
9
9
9
9
9
9
9
9
9
9
9
9
9
9
9
9
9
9
9
9
9
9
9
9
9
9
9
9
9
9
9
9
9
9
9
9
9
9
9
9
9
9
9
9
9
9
9
9
9
9
9
9
9
9
9
9
9
9
9
9
9
9
9
9
9
9
9
9
9
9
9
9
9
9
9
9
9
9
9
9
9
9
9
9
9
9
9
9
9
9
9
9
9
9
9
9
9
9
9
9
9
9
9
9
9
9
9
9
9
9
9
9
9
9
9
9
9
9
9
9
9
9
9
9
9
9
9
9
9
9
9
9
9
9
9
9
9
9
9
9
9
9
9
9
9
9
9
9
9
9
9
9
9
9
9
9
9
9
9
9
9
9
9
9
9
9
9
9
9
9
9
9
9
9
9
9
9
9
9
9
9
9
9
9
9
9
9
9
9
9
9
9
9
9
9
9
9
9
9
9
9
9
9
9
9
9
9
9
9
9
9
9
9
9
9
9
9
9
9
9
9
9
9
9
9
9
9
9
9
9
9
9
9
9
9
9
9
9
9
9
9
9
9
9
9
9
9
9
9
9
9
9
9
9
9
9
9
9
9
9
9
9
9
9
9
9
9
9
9
9
9
9
9
9
9
9
9
9
9
9
9
9
9
9
9
9
9
9
9
9
9
9
9
9
9
9
9
9
9
9
9
9
9
9
9
9
9
9
9
9
9
9
9
9
9
9
9
9
9
9
9
9
9
9
9
9
9
9
9
9
9
9
9
9
9
9
9
9
9
9
9
9
9
9
9
9
9
9
9
9
9
9
9
9
9
9
9
9
9
9
9
9
9
9
9
9
9
9
9
9
9
9
9
9
9
9
9
9
9
9
9
9
9
9
9
9
9
9
9
9
9
9
9
9
9
9
9
9
9
9
9
9
9
9
9
9
9
9
9
9
9
9
9
9
9
9
9
9
9
9
9
9
9
9
9
9
9
9
9
9
9
9
9
9
9
9
9
9
9
9
9
9
9
9
9
9
9
9
9
9
9
9
9
9
9
9
9
9
9
9
9
9
9
9
9
9
9
9
9
9
9
9
9
9
9
</DataArray>
</Cells>
<PointData Vectors="'U'">
<DataArray type="Float64" Name="U" NumberOfComponents="2" ComponentName0="U1" ComponentName1="U2" format="ascii">
 0.2878071603157E-37  0.7276675674795E-37
-0.2166146530229E-37 -0.5527829263721E-37
 0.4816650842373E-37 -0.1214256741819E-36
-0.1287421367435E-01 -0.3133933176630E-01
-0.5481703814877E-02 -0.1832959579684E-01
 0.5481703932037E-02 -0.1832959585438E-01
 0.1287421368752E-01 -0.3133933177747E-01
-0.2720680809649E+00 -0.3140004243908E+00
 0.2720680805702E+00 -0.3140004255013E+00
-0.3159100202260E+00 -0.4640541523366E+00
 0.3159100204040E+00 -0.4640541524432E+00
-0.5557525606597E-37 -0.5526240736054E-37
-0.5398500753993E-37 -0.5337788556341E-37
-0.5351940795610E-37 -0.5034139356917E-37
-0.5303758667622E-37 -0.4770149124325E-37
-0.5244070010330E-37 -0.4559881583196E-37
-0.5175567936827E-37 -0.4396091686196E-37
-0.5101301402877E-37 -0.4269749620865E-37
-0.5023335310798E-37 -0.4173320804165E-37
-0.4942941417315E-37 -0.4100982132885E-37
-0.4860888990936E-37 -0.4048296685191E-37
-0.4777646931904E-37 -0.4011868223052E-37
-0.4693506493979E-37 -0.3989068828048E-37
-0.4608653105263E-37 -0.3977839563813E-37
-0.4523208139435E-37 -0.3976547038390E-37
-0.4437253367526E-37 -0.3983880120641E-37
-0.4350845440712E-37 -0.3998775007108E-37
-0.4264024569351E-37 -0.4020359875470E-37
-0.4176819810152E-37 -0.4047913822242E-37
-0.4089252297885E-37 -0.4080835782705E-37
-0.4001343341668E-37 -0.4118624604734E-37
-0.3913135075485E-37 -0.4161756527784E-37
-0.3824597686909E-37 -0.4208916769801E-37
-0.3735728315991E-37 -0.4259797830069E-37
-0.3646528242456E-37 -0.4314132541759E-37
-0.3556996190444E-37 -0.4371689686196E-37
-0.3467128356051E-37 -0.4432267656797E-37
-0.3376918521584E-37 -0.4495690719897E-37
-0.3286358119115E-37 -0.4561804326017E-37
-0.3195436293157E-37 -0.4630472271864E-37
-0.3104139948020E-37 -0.4701574234557E-37
-0.3012453778139E-37 -0.4775003140690E-37
-0.2920360299711E-37 -0.4850663979874E-37
-0.2827839872413E-37 -0.4928471866918E-37
-0.2734870717344E-37 -0.5008351061471E-37
-0.2641428933268E-37 -0.5090234059528E-37
-0.2547488508596E-37 -0.5174060612466E-37
-0.2453021326625E-37 -0.5259777414963E-37
-0.2357997170623E-37 -0.5347337434586E-37
-0.2262383717839E-37 -0.5436699731503E-37
-0.2069249035185E-37 -0.5620696820620E-37
-0.1971652496070E-37 -0.5715279096096E-37
-0.1873315970561E-37 -0.5811558873000E-37
-0.1774196254522E-37 -0.5909525300786E-37
-0.1674247809223E-37 -0.6009174293170E-37
-0.1573422663539E-37 -0.6110509146944E-37
-0.1471670301792E-37 -0.6213541058271E-37
-0.1368937506814E-37 -0.6318290139154E-37
-0.1265168185165E-37 -0.6424786278171E-37
-0.1160303140965E-37 -0.6533070392280E-37
-0.1054279797342E-37 -0.6643195960758E-37
-0.9470318817277E-38 -0.6755230532636E-37
-0.8384890042480E-38 -0.6869258059896E-37
-0.7285761925471E-38 -0.6985381175517E-37
-0.6172132989948E-38 -0.7103724276800E-37
-0.5043142816957E-38 -0.7224437260695E-37
-0.3897863766391E-38 -0.7347699756320E-37
-0.2735290223828E-38 -0.7473726917215E-37
-0.1554326611499E-38 -0.7602776148652E-37
-0.3537115603738E-39 -0.7735152158792E-37
 0.8675731102370E-39 -0.7871107460169E-37
 0.2111370546986E-38 -0.8011255848312E-37
 0.3379213482800E-38 -0.8156130016678E-37
 0.4672973232516E-38 -0.8306387716495E-37
 0.5994786198408E-38 -0.8462837500681E-37
 0.7347113787479E-38 -0.8626482811527E-37
 0.8732821094354E-38 -0.8798583541179E-37
 0.1015527962696E-37 -0.8980743696355E-37
 0.1161850197012E-37 -0.9175039371031E-37
 0.1312731681713E-37 -0.9384210982909E-37
 0.1468758913223E-37 -0.9611961945226E-37
 0.1630646784727E-37 -0.9863441634974E-37
 0.1799255569198E-37 -0.1014606540219E-36
 0.1975557453403E-37 -0.1047099458367E-36
 0.2160389617433E-37 -0.1085602904788E-36
 0.2353345949982E-37 -0.1133190525821E-36
 0.2547946709401E-37 -0.1195827220568E-36
 0.2708114741668E-37 -0.1287428614011E-36
 0.2626736462654E-37 -0.1451823546702E-36
-0.1198686684855E-01 -0.2834777120211E-01
-0.1136746951526E-01 -0.2653375205585E-01
-0.1085022485612E-01 -0.2524463941796E-01
-0.1040275508490E-01 -0.2424235741706E-01
-0.1000246313985E-01 -0.2342272051920E-01
-0.9634552787625E-02 -0.2273082927000E-01
-0.9289260102780E-02 -0.2213445538195E-01
-0.8960159596382E-02 -0.2161302399032E-01
-0.8642968025947E-02 -0.2115249798198E-01
-0.8334768526607E-02 -0.2074277477283E-01
-0.8033521226115E-02 -0.2037626581726E-01
-0.7737758868444E-02 -0.2004707308492E-01
-0.7446398047032E-02 -0.1975048591320E-01
-0.7158621386159E-02 -0.1948265828956E-01
-0.6873803975931E-02 -0.1924039292077E-01
-0.6591468577954E-02 -0.1902099078579E-01
-0.6311260513383E-02 -0.1882214030977E-01
-0.6032940149597E-02 -0.1864182807368E-01
-0.5756393506022E-02 -0.1847824340866E-01
-0.5209656783314E-02 -0.1819625887504E-01
-0.4936961142538E-02 -0.1807531262484E-01
-0.4664050758637E-02 -0.1796571412683E-01
-0.4391008187141E-02 -0.1786660355273E-01
-0.4117854257461E-02 -0.1777715491615E-01
-0.3844576331730E-02 -0.1769661309739E-01
-0.3571152260717E-02 -0.1762429461964E-01
-0.3297558046351E-02 -0.1755958387356E-01
-0.3023773363141E-02 -0.1750192844990E-01
-0.2749784165731E-02 -0.1745083448503E-01
-0.2475582476796E-02 -0.1740586225758E-01
-0.2201167895903E-02 -0.1736662286656E-01
-0.1926546206805E-02 -0.1733277503326E-01
-0.1651729354389E-02 -0.1730402269479E-01
-0.1376734967644E-02 -0.1728011295972E-01
-0.1101585068872E-02 -0.1726083438217E-01
-0.8263060678067E-03 -0.1724601568848E-01
-0.5509273492581E-03 -0.1723552468168E-01
-0.2754807991339E-03 -0.1722926748080E-01
 0.5827753557508E-10 -0.1722718797109E-01
 0.2754809156850E-03 -0.1722926748257E-01
 0.5509274657976E-03 -0.1723552468522E-01
 0.8263061843272E-03 -0.1724601569383E-01
 0.1101585185367E-02 -0.1726083438937E-01
 0.1376735084108E-02 -0.1728011296883E-01
 0.1651729470819E-02 -0.1730402270589E-01
 0.1926546323199E-02 -0.1733277504643E-01
 0.2201168012261E-02 -0.1736662288192E-01
 0.2475582593121E-02 -0.1740586227524E-01
 0.2749784282028E-02 -0.1745083450514E-01
 0.3023773479420E-02 -0.1750192847261E-01
 0.3297558162624E-02 -0.1755958389905E-01
 0.3571152377002E-02 -0.1762429464813E-01
 0.3844576448046E-02 -0.1769661312909E-01
 0.4117854373835E-02 -0.1777715495132E-01
 0.4391008303602E-02 -0.1786660359165E-01
 0.4664050875219E-02 -0.1796571416982E-01
 0.4936961259278E-02 -0.1807531267225E-01
 0.5209656900249E-02 -0.1819625892727E-01
 0.5756393618244E-02 -0.1847824346900E-01
 0.6032940256894E-02 -0.1864182813675E-01
 0.6311260615786E-02 -0.1882214037549E-01
 0.6591468675501E-02 -0.1902099085405E-01
 0.6873804068662E-02 -0.1924039299143E-01
 0.7158621474112E-02 -0.1948265836248E-01
 0.7446398130248E-02 -0.1975048598820E-01
 0.7737758946959E-02 -0.2004707316177E-01
 0.8033521299968E-02 -0.2037626589569E-01
 0.8334768595836E-02 -0.2074277485252E-01
 0.8642968090593E-02 -0.2115249806256E-01
 0.8960159656492E-02 -0.2161302407133E-01
 0.9289260158405E-02 -0.2213445546285E-01
 0.9634552838813E-02 -0.2273082935016E-01
 0.1000246318662E-01 -0.2342272059784E-01
 0.1040275512715E-01 -0.2424235749319E-01
 0.1085022489351E-01 -0.2524463949014E-01
 0.1136746954691E-01 -0.2653375212155E-01
 0.1198686687328E-01 -0.2834777125484E-01
-0.1516926636528E+00 -0.1161646847419E+00
-0.2292742191181E+00 -0.1801908390679E+00
-0.2896994138014E+00 -0.2246657021088E+00
-0.3377616328765E+00 -0.2594382337384E+00
-0.3767324555984E+00 -0.2873075762266E+00
-0.4085214582559E+00 -0.3086938884516E+00
-0.4340270117485E+00 -0.3222984920502E+00
-0.4534034173295E+00 -0.3290503994375E+00
-0.4667395763155E+00 -0.3306396672484E+00
-0.4741384022064E+00 -0.3283046660934E+00
-0.4756455689300E+00 -0.3229573442257E+00
-0.4712758157759E+00 -0.3154082718073E+00
-0.4610732267680E+00 -0.3064641002727E+00
-0.4451235113757E+00 -0.2969923356576E+00
-0.4236337281548E+00 -0.2879983050718E+00
-0.3970502961079E+00 -0.2805419514534E+00
-0.3658842049646E+00 -0.2754022974892E+00
-0.3317416305275E+00 -0.2772213303201E+00
-0.2988953782590E+00 -0.2902217576779E+00
-0.2598349674767E+00 -0.3341639348774E+00
-0.2496398190499E+00 -0.3565410133966E+00
-0.2411313672232E+00 -0.3811512709175E+00
-0.2347122339292E+00 -0.4084119129711E+00
-0.2307604217632E+00 -0.4389429465620E+00
-0.2290917038811E+00 -0.4737624599802E+00
-0.2292821448981E+00 -0.5147051898174E+00
-0.2296467481404E+00 -0.5639347011811E+00
-0.2285687643293E+00 -0.6199975824536E+00
-0.2250367346599E+00 -0.6789706736404E+00
-0.2176515908552E+00 -0.7385695018023E+00
-0.2058655581823E+00 -0.7968534371229E+00
-0.1898978928823E+00 -0.8519387785711E+00
-0.1701844762441E+00 -0.9022455971662E+00
-0.1471926723828E+00 -0.9465307010426E+00
-0.1213894365165E+00 -0.9838466699171E+00
-0.9324910790543E-01 -0.1013492211606E+01
-0.6326786384413E-01 -0.1034971221975E+01
-0.3198232921677E-01 -0.1047962575902E+01
-0.6137370611725E-09 -0.1052302401967E+01
 0.3198232800689E-01 -0.1047962576342E+01
 0.6326786268333E-01 -0.1034971222852E+01
 0.9324910682102E-01 -0.1013492212907E+01
 0.1213894355345E+00 -0.9838466716207E+00
 0.1471926715240E+00 -0.9465307031210E+00
 0.1701844755323E+00 -0.9022455995753E+00
 0.1898978923376E+00 -0.8519387812593E+00
 0.2058655578288E+00 -0.7968534400116E+00
 0.2176515907096E+00 -0.7385695048070E+00
 0.2250367347205E+00 -0.6789706766614E+00
 0.2285687645435E+00 -0.6199975853919E+00
 0.2296467484484E+00 -0.5639347038874E+00
 0.2292821452482E+00 -0.5147051921312E+00
 0.2290917041834E+00 -0.4737624619342E+00
 0.2307604219575E+00 -0.4389429482875E+00
 0.2347122340134E+00 -0.4084119145311E+00
 0.2411313671947E+00 -0.3811512723485E+00
 0.2496398189168E+00 -0.3565410147196E+00
 0.2598349672305E+00 -0.3341639361007E+00
 0.2988953776625E+00 -0.2902217584632E+00
 0.3317416298488E+00 -0.2772213307373E+00
 0.3658842043593E+00 -0.2754022976330E+00
 0.3970502956433E+00 -0.2805419515125E+00
 0.4236337278328E+00 -0.2879983050962E+00
 0.4451235111925E+00 -0.2969923356701E+00
 0.4610732267144E+00 -0.3064641002958E+00
 0.4712758158372E+00 -0.3154082718557E+00
 0.4756455690907E+00 -0.3229573443092E+00
 0.4741384024504E+00 -0.3283046662190E+00
 0.4667395766270E+00 -0.3306396674207E+00
 0.4534034176922E+00 -0.3290503996612E+00
 0.4340270121457E+00 -0.3222984923307E+00
 0.4085214586657E+00 -0.3086938887881E+00
 0.3767324560016E+00 -0.2873075765864E+00
 0.3377616332622E+00 -0.2594382340809E+00
 0.2896994141597E+00 -0.2246657024147E+00
 0.2292742194294E+00 -0.1801908393305E+00
 0.1516926638759E+00 -0.1161646849527E+00
-0.3989407998698E-03 -0.7008750014543E-03
-0.6480601602526E-03 -0.1203752790894E-02
-0.8408336030997E-03 -0.1673168153721E-02
-0.9932856213085E-03 -0.2123193597534E-02
-0.1116302698917E-02 -0.2563128781433E-02
-0.1215543983083E-02 -0.2997809228154E-02
-0.1295184574987E-02 -0.3430172190376E-02
-0.1358207466517E-02 -0.3862199764560E-02
-0.1406934361919E-02 -0.4295312648338E-02
-0.1443213862632E-02 -0.4730603853430E-02
-0.1468566277712E-02 -0.5168970294473E-02
-0.1484271964802E-02 -0.5611198778443E-02
-0.1491436491156E-02 -0.6058026854389E-02
-0.1491040012808E-02 -0.6510187187416E-02
-0.1483978102477E-02 -0.6968443446787E-02
-0.1471097580754E-02 -0.7433622592901E-02
-0.1453229607201E-02 -0.7906649411336E-02
-0.1431223155887E-02 -0.8388553814998E-02
-0.1405975971449E-02 -0.8880544432545E-02
-0.1378470320957E-02 -0.9384006912800E-02
-0.1349807623541E-02 -0.9900579309514E-02
-0.1321244193296E-02 -0.1043223663828E-01
-0.1294240763533E-02 -0.1098151226630E-01
-0.1270763565925E-02 -0.1155194292679E-01
-0.1253808503776E-02 -0.1214748273724E-01
-0.1247298062449E-02 -0.1277142817950E-01
-0.1255759887699E-02 -0.1342635662879E-01
-0.1284204955692E-02 -0.1411455665426E-01
-0.1338216559829E-02 -0.1483852368009E-01
-0.1424199073886E-02 -0.1560135426480E-01
-0.1549740858866E-02 -0.1640702088517E-01
-0.1724127883294E-02 -0.1726053942620E-01
-0.1958864972911E-02 -0.1816762484677E-01
-0.2267803963117E-02 -0.1913478718194E-01
-0.2668285436675E-02 -0.2017190727254E-01
-0.3183651603413E-02 -0.2129534120581E-01
-0.3850689433405E-02 -0.2253219801683E-01
-0.4720119526711E-02 -0.2392904269691E-01
-0.5938254208456E-02 -0.2557498936877E-01
-0.7535926327512E-02 -0.2778775398299E-01
 0.7535926335496E-02 -0.2778775398922E-01
 0.5938254218559E-02 -0.2557498937496E-01
 0.4720119536237E-02 -0.2392904270361E-01
 0.3850689442553E-02 -0.2253219802340E-01
 0.3183651612137E-02 -0.2129534121228E-01
 0.2668285444977E-02 -0.2017190727886E-01
 0.2267803970999E-02 -0.1913478718810E-01
 0.1958864980377E-02 -0.1816762485277E-01
 0.1724127890353E-02 -0.1726053943200E-01
 0.1549740865536E-02 -0.1640702089078E-01
 0.1424199080183E-02 -0.1560135427022E-01
 0.1338216565767E-02 -0.1483852368533E-01
 0.1284204961282E-02 -0.1411455665932E-01
 0.1255759892952E-02 -0.1342635663368E-01
 0.1247298067375E-02 -0.1277142818422E-01
 0.1253808508383E-02 -0.1214748274180E-01
 0.1270763570224E-02 -0.1155194293119E-01
 0.1294240767534E-02 -0.1098151227054E-01
 0.1321244197009E-02 -0.1043223664235E-01
 0.1349807626977E-02 -0.9900579313421E-02
 0.1378470324126E-02 -0.9384006916538E-02
 0.1405975974363E-02 -0.8880544436113E-02
 0.1431223158556E-02 -0.8388553818394E-02
 0.1453229609638E-02 -0.7906649414560E-02
 0.1471097582968E-02 -0.7433622595950E-02
 0.1483978104480E-02 -0.6968443449660E-02
 0.1491040014613E-02 -0.6510187190113E-02
 0.1491436492772E-02 -0.6058026856907E-02
 0.1484271966241E-02 -0.5611198780781E-02
 0.1468566278986E-02 -0.5168970296630E-02
 0.1443213863752E-02 -0.4730603855405E-02
 0.1406934362895E-02 -0.4295312650129E-02
 0.1358207467361E-02 -0.3862199766166E-02
 0.1295184575709E-02 -0.3430172191796E-02
 0.1215543983693E-02 -0.2997809229388E-02
 0.1116302699424E-02 -0.2563128782479E-02
 0.9932856217199E-03 -0.2123193598390E-02
 0.8408336034209E-03 -0.1673168154385E-02
 0.6480601604868E-03 -0.1203752791362E-02
 0.3989408000047E-03 -0.7008750017197E-03
-0.3042936767202E+00 -0.4747145877655E+00
-0.2922519618517E+00 -0.4854258441877E+00
-0.2797052855954E+00 -0.4960965664097E+00
-0.2666345852349E+00 -0.5066532125413E+00
-0.2530356512053E+00 -0.5170220540901E+00
-0.2389132729574E+00 -0.5271304594672E+00
-0.2242787710039E+00 -0.5369076457193E+00
-0.2091487451899E+00 -0.5462847088153E+00
-0.1935444449012E+00 -0.5551948910732E+00
-0.1774911413982E+00 -0.5635741031996E+00
-0.1610177016170E+00 -0.5713613260027E+00
-0.1441562342226E+00 -0.5784989620950E+00
-0.1269417974230E+00 -0.5849332966198E+00
-0.1094121435601E+00 -0.5906151587798E+00
-0.9160748166441E-01 -0.5955005855788E+00
-0.7357018778257E-01 -0.5995514193445E+00
-0.5534449975060E-01 -0.6027358007286E+00
-0.3697617337911E-01 -0.6050285652681E+00
-0.1851211514369E-01 -0.6064115416619E+00
 0.8086514791117E-10 -0.6068737558628E+00
 0.1851211530548E-01 -0.6064115416672E+00
 0.3697617354110E-01 -0.6050285652785E+00
 0.5534449991292E-01 -0.6027358007443E+00
 0.7357018794533E-01 -0.5995514193656E+00
 0.9160748182775E-01 -0.5955005856052E+00
 0.1094121437241E+00 -0.5906151588116E+00
 0.1269417975878E+00 -0.5849332966571E+00
 0.1441562343884E+00 -0.5784989621379E+00
 0.1610177017838E+00 -0.5713613260513E+00
 0.1774911415661E+00 -0.5635741032540E+00
 0.1935444450704E+00 -0.5551948911334E+00
 0.2091487453604E+00 -0.5462847088814E+00
 0.2242787711758E+00 -0.5369076457915E+00
 0.2389132731306E+00 -0.5271304595453E+00
 0.2530356513799E+00 -0.5170220541741E+00
 0.2666345854108E+00 -0.5066532126310E+00
 0.2797052857723E+00 -0.4960965665046E+00
 0.2922519620293E+00 -0.4854258442873E+00
 0.3042936768982E+00 -0.4747145878692E+00
-0.3127357966324E+00 -0.4368342990195E+00
-0.3086192905168E+00 -0.4096470715490E+00
-0.3034842241651E+00 -0.3823685881522E+00
-0.2972673734631E+00 -0.3550676940920E+00
-0.2899265763377E+00 -0.3278426455765E+00
-0.2814289257734E+00 -0.3007911573841E+00
-0.2717174844510E+00 -0.2740116606935E+00
-0.2607298048612E+00 -0.2476072695736E+00
-0.2484091225758E+00 -0.2216905887431E+00
-0.2347086047453E+00 -0.1963902534975E+00
-0.2195850778932E+00 -0.1718567278369E+00
-0.2029838515236E+00 -0.1482643286479E+00
-0.1848260689229E+00 -0.1258089986144E+00
-0.1650113511308E+00 -0.1047037265335E+00
-0.1434318366618E+00 -0.8517352644492E-01
-0.1199825169616E+00 -0.6744609550178E-01
-0.9456230375933E-01 -0.5173554336835E-01
-0.6707310131237E-01 -0.3823051022806E-01
-0.3741694033501E-01 -0.2707587126824E-01
 0.3127357967949E+00 -0.4368342991065E+00
 0.3086192906679E+00 -0.4096470716158E+00
 0.3034842243094E+00 -0.3823685881981E+00
 0.2972673736056E+00 -0.3550676941157E+00
 0.2899265764854E+00 -0.3278426455767E+00
 0.2814289259381E+00 -0.3007911573600E+00
 0.2717174846507E+00 -0.2740116606451E+00
 0.2607298051212E+00 -0.2476072695030E+00
 0.2484091229280E+00 -0.2216905886549E+00
 0.2347086052235E+00 -0.1963902534001E+00
 0.2195850785256E+00 -0.1718567277419E+00
 0.2029838523231E+00 -0.1482643285689E+00
 0.1848260698806E+00 -0.1258089985641E+00
 0.1650113522138E+00 -0.1047037265208E+00
 0.1434318378140E+00 -0.8517352647303E-01
 0.1199825181069E+00 -0.6744609556753E-01
 0.9456230480541E-01 -0.5173554346254E-01
 0.6707310215520E-01 -0.3823051033541E-01
 0.3741694086603E-01 -0.2707587136673E-01
-0.3345017053193E+00 -0.4720368802188E+00
-0.3513471681705E+00 -0.4776245586684E+00
-0.3661307278968E+00 -0.4807936178480E+00
-0.3786441451321E+00 -0.4815574371781E+00
-0.3887091028211E+00 -0.4799572196106E+00
-0.3961772207393E+00 -0.4760809128926E+00
-0.4009373972231E+00 -0.4700669250634E+00
-0.4029251095790E+00 -0.4621047984640E+00
-0.4021313628167E+00 -0.4524322725936E+00
-0.3986107086885E+00 -0.4413290810682E+00
-0.3924877079364E+00 -0.4291072955883E+00
-0.3839609949186E+00 -0.4160980490755E+00
-0.3733037919192E+00 -0.4026345457414E+00
-0.3608593815960E+00 -0.3890314765069E+00
-0.3470297458567E+00 -0.3755613986570E+00
-0.3322554724835E+00 -0.3624295233446E+00
-0.3169860906355E+00 -0.3497503767227E+00
-0.3016424713734E+00 -0.3375323424097E+00
-0.2865829393681E+00 -0.3256808787615E+00
 0.3345017054557E+00 -0.4720368804117E+00
 0.3513471682709E+00 -0.4776245589478E+00
 0.3661307279667E+00 -0.4807936182128E+00
 0.3786441451769E+00 -0.4815574376259E+00
 0.3887091028456E+00 -0.4799572201374E+00
 0.3961772207474E+00 -0.4760809134928E+00
 0.4009373972174E+00 -0.4700669257302E+00
 0.4029251095605E+00 -0.4621047991896E+00
 0.4021313627846E+00 -0.4524322733695E+00
 0.3986107086400E+00 -0.4413290818856E+00
 0.3924877078671E+00 -0.4291072964388E+00
 0.3839609948226E+00 -0.4160980499516E+00
 0.3733037917897E+00 -0.4026345466374E+00
 0.3608593814265E+00 -0.3890314774195E+00
 0.3470297456424E+00 -0.3755613995858E+00
 0.3322554722220E+00 -0.3624295242928E+00
 0.3169860903284E+00 -0.3497503776966E+00
 0.3016424710269E+00 -0.3375323434184E+00
 0.2865829389918E+00 -0.3256808798158E+00
-0.3354036170584E-03 -0.5877131777505E-03
-0.6035081788212E-03 -0.1129259489047E-02
-0.7964610549033E-03 -0.1612435662150E-02
-0.9508644768892E-03 -0.2074951117963E-02
-0.1074538421901E-02 -0.2524893313137E-02
-0.1174175532800E-02 -0.2968043110618E-02
-0.1253911875766E-02 -0.3407706947857E-02
-0.1316848039509E-02 -0.3846132600714E-02
-0.1365342863923E-02 -0.4284921478036E-02
-0.1401276485990E-02 -0.4725296653076E-02
-0.1426186911294E-02 -0.5168250906249E-02
-0.1441365538578E-02 -0.5614642490997E-02
-0.1447923591704E-02 -0.6065261860889E-02
-0.1446843034955E-02 -0.6520879562004E-02
-0.1439018212822E-02 -0.6982284187024E-02
-0.1425292256070E-02 -0.7450315779784E-02
-0.1406490542979E-02 -0.7925900783909E-02
-0.1383454315775E-02 -0.8410059233403E-02
-0.1357071534484E-02 -0.8903977878955E-02
-0.1328312075453E-02 -0.9409007250987E-02
-0.1298260909584E-02 -0.9926734556729E-02
-0.1268149076301E-02 -0.1045906549712E-01
-0.1239406510119E-02 -0.1100836275295E-01
-0.1213994459188E-02 -0.1157748317796E-01
-0.1194961546317E-02 -0.1216944119460E-01
-0.1186326618169E-02 -0.1278697356183E-01
-0.1192715049705E-02 -0.1343243693592E-01
-0.1219218511774E-02 -0.1410801276937E-01
-0.1271486487690E-02 -0.1481600152619E-01
-0.1355991530501E-02 -0.1555907609542E-01
-0.1480417219302E-02 -0.1634047128950E-01
-0.1654203255722E-02 -0.1716406898045E-01
-0.1889005167770E-02 -0.1803454176447E-01
-0.2198781375784E-02 -0.1895758379858E-01
-0.2600801827977E-02 -0.1994082513599E-01
-0.3119387735635E-02 -0.2099577955389E-01
-0.3788725706435E-02 -0.2214115437452E-01
-0.4676878664473E-02 -0.2340029005505E-01
-0.5854075016025E-02 -0.2485162783062E-01
-0.7808800285067E-02 -0.2639615975058E-01
-0.2919852891317E-03 -0.5334112387144E-03
-0.5551225050888E-03 -0.1063905335322E-02
-0.7525025081995E-03 -0.1559439494654E-02
-0.9076728357678E-03 -0.2030563248557E-02
-0.1032237917242E-02 -0.2488899408815E-02
-0.1132255403423E-02 -0.2939405825287E-02
-0.1212145719078E-02 -0.3385630307481E-02
-0.1275039136137E-02 -0.3829910850073E-02
-0.1323347231781E-02 -0.4273954464061E-02
-0.1358976740201E-02 -0.4719065404251E-02
-0.1383484588114E-02 -0.5166301513684E-02
-0.1398173486892E-02 -0.5616570863871E-02
-0.1404161035889E-02 -0.6070700648192E-02
-0.1402431728549E-02 -0.6529486266161E-02
-0.1393879484572E-02 -0.6993729957908E-02
-0.1379344636063E-02 -0.7464274332903E-02
-0.1359647783552E-02 -0.7942036948130E-02
-0.1335623673474E-02 -0.8428016401402E-02
-0.1308152069328E-02 -0.8923363752253E-02
-0.1278192865017E-02 -0.9429375816993E-02
-0.1246818544878E-02 -0.9947561090328E-02
-0.1215247039276E-02 -0.1047969662266E-01
-0.1184930952879E-02 -0.1102786171268E-01
-0.1157892574488E-02 -0.1159436391588E-01
-0.1137222527994E-02 -0.1218156791124E-01
-0.1126973368939E-02 -0.1279172504969E-01
-0.1131825208734E-02 -0.1342690771604E-01
-0.1156941129430E-02 -0.1408908283356E-01
-0.1208057817562E-02 -0.1478026116133E-01
-0.1291755856217E-02 -0.1550264015846E-01
-0.1415866033938E-02 -0.1625871695023E-01
-0.1589982693455E-02 -0.1705139253763E-01
-0.1825881257895E-02 -0.1788423723302E-01
-0.2137685655505E-02 -0.1876147506502E-01
-0.2543257299243E-02 -0.1968791128623E-01
-0.3067088181792E-02 -0.2067022763779E-01
-0.3747868439119E-02 -0.2171533165891E-01
-0.4645838225076E-02 -0.2283737612218E-01
-0.5886011091492E-02 -0.2401384172309E-01
-0.7969854152197E-02 -0.2515411067645E-01
-0.2607927509620E-03 -0.5021087325372E-03
-0.5105391800431E-03 -0.1015663028776E-02
-0.7085992318392E-03 -0.1513219949356E-02
-0.8646158735096E-03 -0.1990763373855E-02
-0.9896705336346E-03 -0.2455464019947E-02
-0.1090031708651E-02 -0.2912203997997E-02
-0.1170044494213E-02 -0.3364182315348E-02
-0.1232903969952E-02 -0.3813735258751E-02
-0.1281044572581E-02 -0.4262580092547E-02
-0.1316396992335E-02 -0.4712054255982E-02
-0.1340533183695E-02 -0.5163247495945E-02
-0.1354766068850E-02 -0.5617095127425E-02
-0.1360219144408E-02 -0.6074444200298E-02
-0.1357879542787E-02 -0.6536101549041E-02
-0.1348641211953E-02 -0.7002871594195E-02
-0.1333342447402E-02 -0.7475588984468E-02
-0.1312800167407E-02 -0.7955151947372E-02
-0.1287844195648E-02 -0.8442526400842E-02
-0.1259348460823E-02 -0.8938814377399E-02
-0.1228266771222E-02 -0.9445241579161E-02
-0.1195666649660E-02 -0.9963211405070E-02
-0.1162774920367E-02 -0.1049432672438E-01
-0.1131098461702E-02 -0.1104036256424E-01
-0.1102739267855E-02 -0.1160317385644E-01
-0.1080825881366E-02 -0.1218463092349E-01
-0.1069420537280E-02 -0.1278656948177E-01
-0.1073233915403E-02 -0.1341075038470E-01
-0.1097494685628E-02 -0.1405886144399E-01
-0.1148039690470E-02 -0.1473256655507E-01
-0.1231585157893E-02 -0.1543356323853E-01
-0.1356130699471E-02 -0.1616364517623E-01
-0.1531435636184E-02 -0.1692479982201E-01
-0.1769426377423E-02 -0.1771942886447E-01
-0.2084586566126E-02 -0.1855000635898E-01
-0.2495375672961E-02 -0.1941853158327E-01
-0.3027881583609E-02 -0.2032622388977E-01
-0.3722168964931E-02 -0.2127278720491E-01
-0.4644676321993E-02 -0.2224972419260E-01
-0.5953940860712E-02 -0.2320612108590E-01
-0.8019747664337E-02 -0.2412748292536E-01
-0.2370482240298E-03 -0.4821288363759E-03
-0.4712580358602E-03 -0.9804901658423E-03
-0.6661559856941E-03 -0.1474722349138E-02
-0.8220649123207E-03 -0.1955468243174E-02
-0.9472345263010E-03 -0.2424875356962E-02
-0.1047726330436E-02 -0.2886641025179E-02
-0.1127780166863E-02 -0.3343559781393E-02
-0.1190569306651E-02 -0.3797775726631E-02
-0.1238536936756E-02 -0.4250948417865E-02
-0.1273623100344E-02 -0.4704396063098E-02
-0.1297409350985E-02 -0.5159208242616E-02
-0.1311215494418E-02 -0.5616324505027E-02
-0.1316169433751E-02 -0.6076594766699E-02
-0.1313260361465E-02 -0.6540823801249E-02
-0.1303382336926E-02 -0.7009806797313E-02
-0.1287372221209E-02 -0.7484360095963E-02
-0.1266044390804E-02 -0.7965352493889E-02
-0.1240225594673E-02 -0.8453706565322E-02
-0.1210786915779E-02 -0.8950463020998E-02
-0.1178681119213E-02 -0.9456761004456E-02
-0.1144981219718E-02 -0.9973877100682E-02
-0.1110942175596E-02 -0.1050321791068E-01
-0.1078140479620E-02 -0.1104626459147E-01
-0.1048760062591E-02 -0.1160449074220E-01
-0.1025965019942E-02 -0.1217936727415E-01
-0.1013820001655E-02 -0.1277236748205E-01
-0.1017055724396E-02 -0.1338493599321E-01
-0.1040963121898E-02 -0.1401844867883E-01
-0.1091486746456E-02 -0.1467419488185E-01
-0.1175492483664E-02 -0.1535337382970E-01
-0.1301159023077E-02 -0.1605711683536E-01
-0.1478425548718E-02 -0.1678654867239E-01
-0.1719441091669E-02 -0.1754289434788E-01
-0.2039116165209E-02 -0.1832691049321E-01
-0.2456779465386E-02 -0.1913783425875E-01
-0.2999921488034E-02 -0.1997274231114E-01
-0.3710661237473E-02 -0.2082431188292E-01
-0.4663215011545E-02 -0.2167130800971E-01
-0.6012378849401E-02 -0.2247527608291E-01
-0.7984395071191E-02 -0.2327493616744E-01
-0.2180558095366E-03 -0.4685257098937E-03
-0.4369373290192E-03 -0.9545028414456E-03
-0.6260681644709E-03 -0.1443350688533E-02
-0.7804966327802E-03 -0.1924695846453E-02
-0.9052410662746E-03 -0.2397193014415E-02
-0.1005573139304E-02 -0.2862864556088E-02
-0.1085518817068E-02 -0.3323906060899E-02
-0.1148164548645E-02 -0.3782172976379E-02
-0.1195927903377E-02 -0.4239189948136E-02
-0.1230742784280E-02 -0.4696211875277E-02
-0.1254191126820E-02 -0.5154296534017E-02
-0.1267594869821E-02 -0.5614365633585E-02
-0.1272083707685E-02 -0.6077255265803E-02
-0.1268647677577E-02 -0.6543754927945E-02
-0.1258180642028E-02 -0.7014639448183E-02
-0.1241518443934E-02 -0.7490696892168E-02
-0.1219474046675E-02 -0.7972757073289E-02
-0.1192873148897E-02 -0.8461689413435E-02
-0.1162587359460E-02 -0.8958462473084E-02
-0.1129574244309E-02 -0.9464116056081E-02
-0.1094922819128E-02 -0.9979785746267E-02
-0.1059929706404E-02 -0.1050667588042E-01
-0.1026246600351E-02 -0.1104599451057E-01
-0.9961356849289E-03 -0.1159888800095E-01
-0.9727949603410E-03 -0.1216649153332E-01
-0.9602913423260E-03 -0.1274995719553E-01
-0.9633726399478E-03 -0.1335042152172E-01
-0.9873903328911E-03 -0.1396893872780E-01
-0.1038399174422E-02 -0.1460641958999E-01
-0.1123419007273E-02 -0.1526358534169E-01
-0.1250810447776E-02 -0.1594095434914E-01
-0.1430711158351E-02 -0.1663885089663E-01
-0.1675534498403E-02 -0.1735740758773E-01
-0.2000678323853E-02 -0.1809581192066E-01
-0.2426335288869E-02 -0.1885105647482E-01
-0.2981199132601E-02 -0.1961711774985E-01
-0.3709439590266E-02 -0.2038214496850E-01
-0.4686956568151E-02 -0.2112409108775E-01
-0.6042682033459E-02 -0.2182711473715E-01
-0.7891438184284E-02 -0.2255288733332E-01
-0.2022501973412E-03 -0.4588398818848E-03
-0.4068082043959E-03 -0.9349614079430E-03
-0.5886714943605E-03 -0.1417971722182E-02
-0.7403119804480E-03 -0.1898220880379E-02
-0.8639653130568E-03 -0.2372390293620E-02
-0.9637836254820E-03 -0.2840937848382E-02
-0.1043421691610E-02 -0.3305321887442E-02
-0.1105815950969E-02 -0.3767037070386E-02
-0.1153320618044E-02 -0.4227416171087E-02
-0.1187843757010E-02 -0.4687610575104E-02
-0.1210956691879E-02 -0.5148618186457E-02
-0.1223977189739E-02 -0.5611322087881E-02
-0.1228033224572E-02 -0.6076528742169E-02
-0.1224113845316E-02 -0.6544999723040E-02
-0.1213112031845E-02 -0.7017478883115E-02
-0.1195862811862E-02 -0.7494716607994E-02
-0.1173178790589E-02 -0.7977494910671E-02
-0.1145886681598E-02 -0.8466621339746E-02
-0.1114862137873E-02 -0.8962983228199E-02
-0.1081073404810E-02 -0.9467511637262E-02
-0.1045634317869E-02 -0.9981194052320E-02
-0.1009891331805E-02 -0.1050503603765E-01
-0.9755714057438E-03 -0.1103999593392E-01
-0.9450092890626E-03 -0.1158693546733E-01
-0.9214354888563E-03 -0.1214670045802E-01
-0.9089215812067E-03 -0.1272015574113E-01
-0.9122328859291E-03 -0.1330814576910E-01
-0.9367798885957E-03 -0.1391140999794E-01
-0.9887256000886E-03 -0.1453049457618E-01
-0.1075240601662E-02 -0.1516567757108E-01
-0.1204864724974E-02 -0.1581692469279E-01
-0.1387941000636E-02 -0.1648384969583E-01
-0.1637162527119E-02 -0.1716563520154E-01
-0.1968398272573E-02 -0.1786019039889E-01
-0.2402551537048E-02 -0.1856289790125E-01
-0.2969170028837E-02 -0.1926585902676E-01
-0.3713002982394E-02 -0.1995615882292E-01
-0.4704836975839E-02 -0.2061772209878E-01
-0.6040730770960E-02 -0.2125390385433E-01
-0.7760307088596E-02 -0.2193049151094E-01
-0.1886820453099E-03 -0.4517128872522E-03
-0.3801070101399E-03 -0.9200138192596E-03
-0.5539641703075E-03 -0.1397441249693E-02
-0.7017638295276E-03 -0.1875628574664E-02
-0.8236366675117E-03 -0.2350352484367E-02
-0.9225427452991E-03 -0.2820861690227E-02
-0.1001637941400E-02 -0.3287864992836E-02
-0.1063644036522E-02 -0.3752450370580E-02
-0.1110815217622E-02 -0.4215719838194E-02
-0.1145012133117E-02 -0.4678689092475E-02
-0.1167783087106E-02 -0.5142271879830E-02
-0.1180434330513E-02 -0.5607294066979E-02
-0.1184087833400E-02 -0.6074517918812E-02
-0.1179729298980E-02 -0.6544665305334E-02
-0.1168249778877E-02 -0.7018439199747E-02
-0.1150483456593E-02 -0.7496543631717E-02
-0.1127243491675E-02 -0.7979704889042E-02
-0.1099359581618E-02 -0.8468661175818E-02
-0.1067714796887E-02 -0.8964211486866E-02
-0.1033293285017E-02 -0.9467172216637E-02
-0.9972401754354E-03 -0.9978381202003E-02
-0.9609556985084E-03 -0.1049865396935E-01
-0.9262390742817E-03 -0.1102872232556E-01
-0.8954913568254E-03 -0.1156919826374E-01
-0.8719740188263E-03 -0.1212067466874E-01
-0.8597659416170E-03 -0.1268375901979E-01
-0.8636510596390E-03 -0.1325902500286E-01
-0.8890962927622E-03 -0.1384691598374E-01
-0.9423668857927E-03 -0.1444764075459E-01
-0.1030774842484E-02 -0.1506108062694E-01
-0.1163028634809E-02 -0.1568672206028E-01
-0.1349667564898E-02 -0.1632358214190E-01
-0.1603643295302E-02 -0.1697008498390E-01
-0.1941204422633E-02 -0.1762322327034E-01
-0.2383708550801E-02 -0.1827744364146E-01
-0.2960914669037E-02 -0.1892431839827E-01
-0.3716061995235E-02 -0.1955262688518E-01
-0.4710295029694E-02 -0.2015432283726E-01
-0.6008422715057E-02 -0.2074535933138E-01
-0.7603562265212E-02 -0.2138652493247E-01
-0.1767498537422E-03 -0.4463360647833E-03
-0.3561880208478E-03 -0.9084022672097E-03
-0.5217781411209E-03 -0.1380773946840E-02
-0.6649685557080E-03 -0.1856427679314E-02
-0.7844253972257E-03 -0.2330891078315E-02
-0.8820060382086E-03 -0.2802586982445E-02
-0.9603005353775E-03 -0.3271556076927E-02
-0.1021760752809E-02 -0.3738469674992E-02
-0.1068506898834E-02 -0.4204176245325E-02
-0.1102330934003E-02 -0.4669532787260E-02
-0.1124745096172E-02 -0.5135349201700E-02
-0.1137036144666E-02 -0.5602378171673E-02
-0.1140315213255E-02 -0.6071324796472E-02
-0.1135561874243E-02 -0.6542860556603E-02
-0.1123663882759E-02 -0.7017638529079E-02
-0.1105454302510E-02 -0.7496308577587E-02
-0.1081747552132E-02 -0.7979534350524E-02
-0.1053378048466E-02 -0.8467978589764E-02
-0.1021239226548E-02 -0.8962346869675E-02
-0.9863352682068E-03 -0.9463338130538E-02
-0.9498466903786E-03 -0.9971642993945E-02
-0.9132283244738E-03 -0.1048789842648E-01
-0.8783469354141E-03 -0.1101263173325E-01
-0.8476634856393E-03 -0.1154623491332E-01
-0.8244683842543E-03 -0.1208907850756E-01
-0.8128495145191E-03 -0.1264154041303E-01
-0.8176096228854E-03 -0.1320394860996E-01
-0.8442675928640E-03 -0.1377647728948E-01
-0.8991810363959E-03 -0.1435903479285E-01
-0.9897882405345E-03 -0.1495116144506E-01
-0.1124946520671E-02 -0.1555194912432E-01
-0.1315363708136E-02 -0.1615995041839E-01
-0.1574191216422E-02 -0.1677305050948E-01
-0.1917906643608E-02 -0.1738770655888E-01
-0.2367973245338E-02 -0.1799809231216E-01
-0.2953532734744E-02 -0.1859642497997E-01
-0.3714434329549E-02 -0.1917470385395E-01
-0.4700201586167E-02 -0.1973231533643E-01
-0.5949601797732E-02 -0.2029197673961E-01
-0.7429148421348E-02 -0.2090610701184E-01
-0.1660567578028E-03 -0.4421998234024E-03
-0.3345345848171E-03 -0.8992582057735E-03
-0.4918796653692E-03 -0.1367171030491E-02
-0.6299424257673E-03 -0.1840127539164E-02
-0.7464415442062E-03 -0.2313772358062E-02
-0.8422970782767E-03 -0.2786025648983E-02
-0.9195240559591E-03 -0.3256385507917E-02
-0.9802672863351E-03 -0.3725129274029E-02
-0.1026484284950E-02 -0.4192844763473E-02
-0.1059878805799E-02 -0.4660216152095E-02
-0.1081914226274E-02 -0.5127934845876E-02
-0.1093849627505E-02 -0.5596667297851E-02
-0.1096780161245E-02 -0.6067050319601E-02
-0.1091676172816E-02 -0.6539695596496E-02
-0.1079420475567E-02 -0.7015198317367E-02
-0.1060844484456E-02 -0.7494147342194E-02
-0.1036764316203E-02 -0.7977137854626E-02
-0.1008020483766E-02 -0.8464752409529E-02
-0.9755190919760E-03 -0.8957600018330E-02
-0.9402872027212E-03 -0.9456261991061E-02
-0.9035426711913E-03 -0.9961286890605E-02
-0.8667935055900E-03 -0.1047314592545E-01
-0.8319683035070E-03 -0.1099218260182E-01
-0.8015814453025E-03 -0.1151859515670E-01
-0.7789494818826E-03 -0.1205255888192E-01
-0.7681694245934E-03 -0.1259424880712E-01
-0.7740612335571E-03 -0.1314377490103E-01
-0.8021888686142E-03 -0.1370107469977E-01
-0.8589886867680E-03 -0.1426579971223E-01
-0.9520043730417E-03 -0.1483721185490E-01
-0.1090212536262E-02 -0.1541410092221E-01
-0.1284443152542E-02 -0.1599469712427E-01
-0.1547956806069E-02 -0.1657657295297E-01
-0.1897266120345E-02 -0.1715601555919E-01
-0.2353533756833E-02 -0.1772750764481E-01
-0.2944459294712E-02 -0.1828472711576E-01
-0.3705217417403E-02 -0.1882336646764E-01
-0.4673613102705E-02 -0.1934860240973E-01
-0.5868327755183E-02 -0.1988578065478E-01
-0.7242125314289E-02 -0.2047846228244E-01
-0.1563311635747E-03 -0.4389681788814E-03
-0.3147413765705E-03 -0.8919701091805E-03
-0.4640221387681E-03 -0.1356000928408E-02
-0.5966370529621E-03 -0.1826277473986E-02
-0.7097426400844E-03 -0.2298744730269E-02
-0.8035073243064E-03 -0.2771062571600E-02
-0.8794036122771E-03 -0.3242319801824E-02
-0.9392526774165E-03 -0.3712444486824E-02
-0.9848281591174E-03 -0.4181770642121E-02
-0.1017728970705E-02 -0.4650803707855E-02
-0.1039357838104E-02 -0.5120106950578E-02
-0.1050938189479E-02 -0.5590250615613E-02
-0.1053543967622E-02 -0.6061794095116E-02
-0.1048133008301E-02 -0.6535281282187E-02
-0.1035581313646E-02 -0.7011242610508E-02
-0.1016717868419E-02 -0.7490200143484E-02
-0.9923606138000E-03 -0.7972675902460E-02
-0.9633570781226E-03 -0.8459168899955E-02
-0.9306275669513E-03 -0.8950190193942E-02
-0.8952235523556E-03 -0.9446205354743E-02
-0.8584003575880E-03 -0.9947627839457E-02
-0.8217161178004E-03 -0.1045477643180E-01
-0.7871549126551E-03 -0.1096783029348E-01
-0.7572778567472E-03 -0.1148681769543E-01
-0.7354238827862E-03 -0.1201174360294E-01
-0.7256973912050E-03 -0.1254260633643E-01
-0.7329317278072E-03 -0.1307932727402E-01
-0.7627263768093E-03 -0.1362164338551E-01
-0.8215791632976E-03 -0.1416899720616E-01
-0.9171127616347E-03 -0.1472043887215E-01
-0.1058384193942E-02 -0.1527455210910E-01
-0.1256283120010E-02 -0.1582938767017E-01
-0.1524065563709E-02 -0.1638242095982E-01
-0.1878060317331E-02 -0.1693009143823E-01
-0.2338718748877E-02 -0.1746763646602E-01
-0.2931620535561E-02 -0.1799062631337E-01
-0.3686626096460E-02 -0.1849824512951E-01
-0.4630832405624E-02 -0.1899966449969E-01
-0.5768242884798E-02 -0.1952026929539E-01
-0.7045782406617E-02 -0.2009552242837E-01
-0.1473810496280E-03 -0.4364112917783E-03
-0.2964917658788E-03 -0.8860990214055E-03
-0.4379713523419E-03 -0.1346768952584E-02
-0.5649666341265E-03 -0.1814482060473E-02
-0.6743447880281E-03 -0.2285558704540E-02
-0.7656984538683E-03 -0.2757567122998E-02
-0.8400147907614E-03 -0.3229307909914E-02
-0.8987931030073E-03 -0.3700415277748E-02
-0.9436105836904E-03 -0.4170986995564E-02
-0.9759484003721E-03 -0.4641351034304E-02
-0.9971384182630E-03 -0.5111937544202E-02
-0.1008361024328E-02 -0.5583213624924E-02
-0.1010663863777E-02 -0.6055654162861E-02
-0.1004988916173E-02 -0.6529728740385E-02
-0.9922033358555E-03 -0.7005897355253E-02
-0.9731326519492E-03 -0.7484610565220E-02
-0.9485964115207E-03 -0.7966313661021E-02
-0.9194495549959E-03 -0.8451420052853E-02
-0.8866272883802E-03 -0.8940342972055E-02
-0.8512057773801E-03 -0.9433435718648E-02
-0.8144764388574E-03 -0.9930984738496E-02
-0.7780432893032E-03 -0.1043316981625E-01
-0.7439390667288E-03 -0.1094002411978E-01
-0.7147646151432E-03 -0.1145142798516E-01
-0.6938764013354E-03 -0.1196723952043E-01
-0.6853825171669E-03 -0.1248730608829E-01
-0.6941234959416E-03 -0.1301139082960E-01
-0.7257220969656E-03 -0.1353906816550E-01
-0.7867168999117E-03 -0.1406962158777E-01
-0.8847781546299E-03 -0.1460195733505E-01
-0.1028996452473E-02 -0.1513454806798E-01
-0.1230246753095E-02 -0.1566540062293E-01
-0.1501653424606E-02 -0.1619208521076E-01
-0.1859138652222E-02 -0.1671145291610E-01
-0.2322076585323E-02 -0.1721978553599E-01
-0.2913462289674E-02 -0.1771466233848E-01
-0.3657732625136E-02 -0.1819821759932E-01
-0.4572799616081E-02 -0.1868206139410E-01
-0.5652410126289E-02 -0.1919016176382E-01
-0.6842318020038E-02 -0.1975105779211E-01
-0.1390666671026E-03 -0.4343670631019E-03
-0.2795376037902E-03 -0.8813241023230E-03
-0.4135158912507E-03 -0.1339088331077E-02
-0.5348267238093E-03 -0.1804403420717E-02
-0.6402336938204E-03 -0.2273979292797E-02
-0.7289062723555E-03 -0.2745402844801E-02
-0.8014145470952E-03 -0.3217287079816E-02
-0.8589517256070E-03 -0.3689029760216E-02
-0.9028943817649E-03 -0.4160516841772E-02
-0.9345972108922E-03 -0.4631905880999E-02
-0.9553129948909E-03 -0.5103493063439E-02
-0.9661725762865E-03 -0.5575638269589E-02
-0.9681925456466E-03 -0.6048726808787E-02
-0.9622957296503E-03 -0.6523148929005E-02
-0.9493382889033E-03 -0.6999289720272E-02
-0.9301410431780E-03 -0.7477524616403E-02
-0.9055245658781E-03 -0.7958219707142E-02
-0.8763510529249E-03 -0.8441701927431E-02
-0.8435704803162E-03 -0.8928288082073E-02
-0.8082828622544E-03 -0.9418223842104E-02
-0.7718131075787E-03 -0.9911677422810E-02
-0.7358059635240E-03 -0.1040870288102E-01
-0.7023355980653E-03 -0.1090920476808E-01
-0.6740351496373E-03 -0.1141293615047E-01
-0.6542726326062E-03 -0.1191963064678E-01
-0.6471542109332E-03 -0.1242900994374E-01
-0.6575190894421E-03 -0.1294070951188E-01
-0.6909984991684E-03 -0.1345417980146E-01
-0.7541480054172E-03 -0.1396859534865E-01
-0.8546498664679E-03 -0.1448278498016E-01
-0.1001575501924E-02 -0.1499520014923E-01
-0.1205703766634E-02 -0.1550392549527E-01
-0.1479896971358E-02 -0.1600678535659E-01
-0.1839463687793E-02 -0.1650122960457E-01
-0.2302411954060E-02 -0.1698472918176E-01
-0.2888905175916E-02 -0.1745677275219E-01
-0.3618217269612E-02 -0.1792179163701E-01
-0.4500728077102E-02 -0.1839263334241E-01
-0.5523334592680E-02 -0.1889113944934E-01
-0.6633246279627E-02 -0.1944012849105E-01
-0.1312836588765E-03 -0.4327182188370E-03
-0.2636830135295E-03 -0.8774069400567E-03
-0.3904699336412E-03 -0.1332656044014E-02
-0.5061063103569E-03 -0.1795757339477E-02
-0.6073741131576E-03 -0.2263792549658E-02
-0.6931452376032E-03 -0.2734434711294E-02
-0.7636428071078E-03 -0.3206187972199E-02
-0.8197790266868E-03 -0.3678267450656E-02
-0.8627329520347E-03 -0.4150375087983E-02
-0.8937282849243E-03 -0.4622509299240E-02
-0.9139327129501E-03 -0.5094834909191E-02
-0.9244221282015E-03 -0.5567603088184E-02
-0.9261777974901E-03 -0.6041106408531E-02
-0.9201002482016E-03 -0.6515652222408E-02
-0.9070324475237E-03 -0.6991547436778E-02
-0.8877890458980E-03 -0.7469089812165E-02
-0.8631907026116E-03 -0.7948564807283E-02
-0.8341061584234E-03 -0.8430213068703E-02
-0.8014992395014E-03 -0.8914257416397E-02
-0.7664919712014E-03 -0.9400841378041E-02
-0.7304391554759E-03 -0.9890024087520E-02
-0.6950204121049E-03 -0.1038174684530E-01
-0.6623437319434E-03 -0.1087580208080E-01
-0.6350666104698E-03 -0.1137183510570E-01
-0.6165614950428E-03 -0.1186947644377E-01
-0.6109252057052E-03 -0.1236834673392E-01
-0.6229849675152E-03 -0.1286798390322E-01
-0.6583634107643E-03 -0.1336775241013E-01
-0.7236068071109E-03 -0.1386676641937E-01
-0.8263708343895E-03 -0.1436384010317E-01
-0.9756515578400E-03 -0.1485748506284E-01
-0.1182048335166E-02 -0.1534596719016E-01
-0.1458036968969E-02 -0.1582748720393E-01
-0.1818136148800E-02 -0.1630020989010E-01
-0.2278789274120E-02 -0.1676282307103E-01
-0.2857268218956E-02 -0.1721650020239E-01
-0.3568166360489E-02 -0.1766733648292E-01
-0.4415899911633E-02 -0.1812855932615E-01
-0.5383043742035E-02 -0.1861963185783E-01
-0.6419642000722E-02 -0.1915872842052E-01
-0.1239522832201E-03 -0.4313780815380E-03
-0.2487719424691E-03 -0.8741677311560E-03
-0.3686724036945E-03 -0.1327233742375E-02
-0.4786951242196E-03 -0.1788306960754E-02
-0.5757172845643E-03 -0.2254808151844E-02
-0.6584129048147E-03 -0.2724534080437E-02
-0.7267244708461E-03 -0.3195938837879E-02
-0.7813135037341E-03 -0.3668102162712E-02
-0.8231703526285E-03 -0.4140570388897E-02
-0.8533870851235E-03 -0.4613196748075E-02
-0.8730425449357E-03 -0.5086020015268E-02
-0.8831534896027E-03 -0.5559183390169E-02
-0.8846621951916E-03 -0.6032885298850E-02
-0.8784439761496E-03 -0.6507348024623E-02
-0.8653264040055E-03 -0.6982798169064E-02
-0.8461163205751E-03 -0.7459454292486E-02
-0.8216331840294E-03 -0.7937520755996E-02
-0.7927510381344E-03 -0.8417153029919E-02
-0.7604459153058E-03 -0.8898483223563E-02
-0.7258591599850E-03 -0.9381558791496E-02
-0.6903710580748E-03 -0.9866339078680E-02
-0.6556896739771E-03 -0.1035266520683E-01
-0.6239488491107E-03 -0.1084023314347E-01
-0.5978219648158E-03 -0.1132859890377E-01
-0.5806777206103E-03 -0.1181731033358E-01
-0.5765945653988E-03 -0.1230591075541E-01
-0.5903752287489E-03 -0.1279386965313E-01
-0.6276147922882E-03 -0.1328050189858E-01
-0.6948221231335E-03 -0.1376490697653E-01
-0.7995860127436E-03 -0.1424594155173E-01
-0.9507701026385E-03 -0.1472224782657E-01
-0.1158713539100E-02 -0.1519235568859E-01
-0.1435394587316E-02 -0.1565492699481E-01
-0.1794405321454E-02 -0.1610889502606E-01
-0.2250514781844E-02 -0.1655410852927E-01
-0.2818186354554E-02 -0.1699314568341E-01
-0.3507922298642E-02 -0.1743321525085E-01
-0.4319558700006E-02 -0.1788735142897E-01
-0.5233175559306E-02 -0.1837265049760E-01
-0.6202289933209E-02 -0.1890354676631E-01
-0.1170103303652E-03 -0.4302814268754E-03
-0.2346787697051E-03 -0.8714690837882E-03
-0.3479845681151E-03 -0.1322633041395E-02
-0.4524877523958E-03 -0.1781855973245E-02
-0.5452064602136E-03 -0.2246859530865E-02
-0.6246939096191E-03 -0.2715581732101E-02
-0.6906715603497E-03 -0.3186468716081E-02
-0.7435826166174E-03 -0.3658504467547E-02
-0.7842416029772E-03 -0.4131106821727E-02
-0.8136116375900E-03 -0.4603999133983E-02
-0.8326811309785E-03 -0.5077101403814E-02
-0.8424047857433E-03 -0.5550451441416E-02
-0.8436828933333E-03 -0.6024153668268E-02
-0.8373629367982E-03 -0.6498344407364E-02
-0.8242549321138E-03 -0.6973168916511E-02
-0.8051561241338E-03 -0.7448765984967E-02
-0.7808831621871E-03 -0.7925259283314E-02
-0.7523136599499E-03 -0.8402721009074E-02
-0.7204335665319E-03 -0.8881196483884E-02
-0.6864001287198E-03 -0.9360643538709E-02
-0.6516140488632E-03 -0.9840931001055E-02
-0.6178049402931E-03 -0.1032181192812E-01
-0.5871241740575E-03 -0.1080290066322E-01
-0.5622520192356E-03 -0.1128368134315E-01
-0.5465442827860E-03 -0.1176363849666E-01
-0.5440506305474E-03 -0.1224226070307E-01
-0.5595352453105E-03 -0.1271897656471E-01
-0.5985453054152E-03 -0.1319308539948E-01
-0.6675230932888E-03 -0.1366371371490E-01
-0.7739498497242E-03 -0.1412981083783E-01
-0.9265012503623E-03 -0.1459020771040E-01
-0.1135182103214E-02 -0.1504375967095E-01
-0.1411380651237E-02 -0.1548963976057E-01
-0.1767668117613E-02 -0.1592755312471E-01
-0.2217107445563E-02 -0.1635840070970E-01
-0.2771534710948E-02 -0.1678587646348E-01
-0.3437978013056E-02 -0.1721785615956E-01
-0.4212858749038E-02 -0.1766682411128E-01
-0.5075056884883E-02 -0.1814766278533E-01
-0.5981777251903E-02 -0.1867180298510E-01
-0.1104083408298E-03 -0.4293784283740E-03
-0.2213012574569E-03 -0.8692048025529E-03
-0.3282871413577E-03 -0.1318704297408E-02
-0.4273857016046E-03 -0.1776242175568E-02
-0.5157808486246E-03 -0.2239802620433E-02
-0.5919633315822E-03 -0.2707469459866E-02
-0.6554853223618E-03 -0.3177709728851E-02
-0.7066038768886E-03 -0.3649443691862E-02
-0.7459731525410E-03 -0.4121985341937E-02
-0.7744326623660E-03 -0.4594943754621E-02
-0.7928807404951E-03 -0.5068128706739E-02
-0.8022083475911E-03 -0.5541476646401E-02
-0.8032714997995E-03 -0.6014999460402E-02
-0.7968875672968E-03 -0.6488747771381E-02
-0.7838469303504E-03 -0.6962785450016E-02
-0.7649353313534E-03 -0.7437171818595E-02
-0.7409647164659E-03 -0.7911951040664E-02
-0.7128140959127E-03 -0.8387114607279E-02
-0.6814764842442E-03 -0.8862625465392E-02
-0.6481210084707E-03 -0.9338358487751E-02
-0.6141631868779E-03 -0.9814101110627E-02
-0.5813468999445E-03 -0.1028952991937E-01
-0.5518324057698E-03 -0.1076419163427E-01
-0.5282973757781E-03 -0.1123751486171E-01
-0.5140747485897E-03 -0.1170893900481E-01
-0.5131738627234E-03 -0.1217791906293E-01
-0.5303051300253E-03 -0.1264386835117E-01
-0.5709465741646E-03 -0.1310610167029E-01
-0.6414444328182E-03 -0.1356380947077E-01
-0.7491326760270E-03 -0.1401607609148E-01
-0.9024470881164E-03 -0.1446196654817E-01
-0.1110993512454E-02 -0.1490070274004E-01
-0.1385498934863E-02 -0.1533198908896E-01
-0.1737460426520E-02 -0.1575626903415E-01
-0.2178265915141E-02 -0.1617535930072E-01
-0.2717364795475E-02 -0.1659379944478E-01
-0.3358905648695E-02 -0.1701978756440E-01
-0.4096846311819E-02 -0.1746505671214E-01
-0.4909767731665E-02 -0.1794249639680E-01
-0.5758551417871E-02 -0.1846112852951E-01
-0.1041062986231E-03 -0.4286305401918E-03
-0.2085552548722E-03 -0.8672919882659E-03
-0.3094774120765E-03 -0.1315328065634E-02
-0.4032981863440E-03 -0.1771331779199E-02
-0.4873783096044E-03 -0.2233513912817E-02
-0.5601894056002E-03 -0.2700100641361E-02
-0.6211581520615E-03 -0.3169598609156E-02
-0.6703859713855E-03 -0.3640889468805E-02
-0.7083834433020E-03 -0.4113205005668E-02
-0.7358737987458E-03 -0.4586055130312E-02
-0.7536673135612E-03 -0.5059148640858E-02
-0.7625906652089E-03 -0.5532325719929E-02
-0.7634540009443E-03 -0.6005508287325E-02
-0.7570426556542E-03 -0.6478662531924E-02
-0.7441254027324E-03 -0.6951771786028E-02
-0.7254744913395E-03 -0.7424816992628E-02
-0.7018950229472E-03 -0.7897764667692E-02
-0.6742648480260E-03 -0.8370528704662E-02
-0.6435807180937E-03 -0.8842994442096E-02
-0.6110191209055E-03 -0.9314960544274E-02
-0.5780043631350E-03 -0.9786141939518E-02
-0.5462869958970E-03 -0.1025614975965E-01
-0.5180272398395E-03 -0.1072447623515E-01
-0.4958902620711E-03 -0.1119050966595E-01
-0.4831754800046E-03 -0.1165366122861E-01
-0.4838394939178E-03 -0.1211337187298E-01
-0.5025229235349E-03 -0.1256906291386E-01
-0.5446130083284E-03 -0.1302009222562E-01
-0.6163309634502E-03 -0.1346574584129E-01
-0.7248258694544E-03 -0.1390527729068E-01
-0.8782469558944E-03 -0.1433801848487E-01
-0.1085747814849E-02 -0.1476358069360E-01
-0.1357344775630E-02 -0.1518219591806E-01
-0.1703443872206E-02 -0.1559498767408E-01
-0.2133835900863E-02 -0.1600454278757E-01
-0.2655853351951E-02 -0.1641600910181E-01
-0.3271309853613E-02 -0.1683765188264E-01
-0.3972457993940E-02 -0.1728035714242E-01
-0.4738192467609E-02 -0.1775526576816E-01
-0.5532954907058E-02 -0.1826947777440E-01
-0.9807129403969E-04 -0.4280076298346E-03
-0.1963707011601E-03 -0.8656653792024E-03
-0.2914666209659E-03 -0.1312408584510E-02
-0.3801421642432E-03 -0.1767014533140E-02
-0.4599371253630E-03 -0.2227888247224E-02
-0.5293356469922E-03 -0.2693390123639E-02
-0.5876752939400E-03 -0.3162077612074E-02
-0.6349298731802E-03 -0.3632812879015E-02
-0.6714835443874E-03 -0.4104763955302E-02
-0.6979519258306E-03 -0.4577355709464E-02
-0.7150605975542E-03 -0.5050205422468E-02
-0.7235724301345E-03 -0.5523062836678E-02
-0.7242507696370E-03 -0.5995763344522E-02
-0.7178473566369E-03 -0.6468190823191E-02
-0.7051075165212E-03 -0.6940249696240E-02
-0.6867879597054E-03 -0.7411844301528E-02
-0.6636845963156E-03 -0.7882865942686E-02
-0.6366712378067E-03 -0.8353154455876E-02
-0.6067446490330E-03 -0.8822522573570E-02
-0.5750837591895E-03 -0.9290699478470E-02
-0.5431153009626E-03 -0.9757336152166E-02
-0.5125886517484E-03 -0.1022198866787E-01
-0.4856548402944E-03 -0.1068410699158E-01
-0.4649562871143E-03 -0.1114305315438E-01
-0.4537477250411E-03 -0.1159822559814E-01
-0.4559200065316E-03 -0.1204906893851E-01
-0.4760275122391E-03 -0.1249503322184E-01
-0.5193451880335E-03 -0.1293554325710E-01
-0.5919414207576E-03 -0.1337000679417E-01
-0.7007458335180E-03 -0.1379787263573E-01
-0.8535808462523E-03 -0.1421876079338E-01
-0.1059106681160E-02 -0.1463267912412E-01
-0.1326600402305E-02 -0.1504036537991E-01
-0.1665390474480E-02 -0.1544355063073E-01
-0.2083780470524E-02 -0.1584544928873E-01
-0.2587262880631E-02 -0.1625161809149E-01
-0.3175798209807E-02 -0.1667020822486E-01
-0.3840528007248E-02 -0.1711123107894E-01
-0.4561061915775E-02 -0.1758431693351E-01
-0.5305243297873E-02 -0.1809505728380E-01
-0.9227583901774E-04 -0.4274859386052E-03
-0.1846885888647E-03 -0.8642732356794E-03
-0.2741776670143E-03 -0.1309868785103E-02
-0.3578419463982E-03 -0.1763199633902E-02
-0.4333970986984E-03 -0.2222836580522E-02
-0.4993624661856E-03 -0.2687263679836E-02
-0.5550162899260E-03 -0.3155094955849E-02
-0.6002298822170E-03 -0.3625187239143E-02
-0.6352778066192E-03 -0.4096660182855E-02
-0.6606775364593E-03 -0.4568866447835E-02
-0.6770743444583E-03 -0.5041341117936E-02
-0.6851686359231E-03 -0.5513749755885E-02
-0.6856766264710E-03 -0.5985845326692E-02
-0.6793152560729E-03 -0.6457432222871E-02
-0.6668047042576E-03 -0.6928338255216E-02
-0.6488840706051E-03 -0.7398393518031E-02
-0.6263375646966E-03 -0.7867417016145E-02
-0.6000318167881E-03 -0.8335178399036E-02
-0.5709595643138E-03 -0.8801422930644E-02
-0.5402969471079E-03 -0.9265816927771E-02
-0.5094665092339E-03 -0.9727955598887E-02
-0.4802084277492E-03 -0.1018734968506E-01
-0.4546552174222E-03 -0.1064341816333E-01
-0.4354160732483E-03 -0.1109550958792E-01
-0.4256895412097E-03 -0.1154302365439E-01
-0.4292873785615E-03 -0.1198542440932E-01
-0.4506612056513E-03 -0.1242220865078E-01
-0.4949527394217E-03 -0.1285288812325E-01
-0.5680514883829E-03 -0.1327701293703E-01
-0.6766368080884E-03 -0.1369424556758E-01
-0.8281711148604E-03 -0.1410450502176E-01
-0.1030792280493E-02 -0.1450819034779E-01
-0.1293028148540E-02 -0.1490651071603E-01
-0.1623166886722E-02 -0.1530172596053E-01
-0.2028154288605E-02 -0.1569754642212E-01
-0.2511911918971E-02 -0.1609977575395E-01
-0.3072963150731E-02 -0.1651632874550E-01
-0.3701798407452E-02 -0.1695635674200E-01
-0.4378990497880E-02 -0.1742818997168E-01
-0.5075589583984E-02 -0.1793626958689E-01
-0.8669663115142E-04 -0.4270466002575E-03
-0.1734586388758E-03 -0.8630743059527E-03
-0.2575431500008E-03 -0.1307646444316E-02
-0.3363285912963E-03 -0.1759812332572E-02
-0.4077001784203E-03 -0.2218283874894E-02
-0.4702283657609E-03 -0.2681657218688E-02
-0.5231561834604E-03 -0.3148604918026E-02
-0.5662745718738E-03 -0.3617988597919E-02
-0.5997645113236E-03 -0.4088892091984E-02
-0.6240551461072E-03 -0.4560607265132E-02
-0.6397165576947E-03 -0.5032595927780E-02
-0.6473887309093E-03 -0.5504445917483E-02
-0.6477409513596E-03 -0.5975832341318E-02
-0.6414544823230E-03 -0.6446483494821E-02
-0.6292228091517E-03 -0.6916153424884E-02
-0.6117653470711E-03 -0.7384600833314E-02
-0.5898519749426E-03 -0.7851575725100E-02
-0.5643387950286E-03 -0.8316781672415E-02
-0.5362102326973E-03 -0.8779901656925E-02
-0.5066341765813E-03 -0.9240545560641E-02
-0.4770221909495E-03 -0.9698260550305E-02
-0.4490971092571E-03 -0.1015252105282E-01
-0.4249635125950E-03 -0.1060272534372E-01
-0.4071867614305E-03 -0.1104821999736E-01
-0.3988975436930E-03 -0.1148841837683E-01
-0.4038150818955E-03 -0.1192281768945E-01
-0.4262719601145E-03 -0.1235097672260E-01
-0.4712566969384E-03 -0.1277251030270E-01
-0.5444560854399E-03 -0.1318712626400E-01
-0.6522726178828E-03 -0.1359471213715E-01
-0.8017827776459E-03 -0.1399548804334E-01
-0.1000584559336E-02 -0.1439022917129E-01
-0.1256462516633E-02 -0.1478057400711E-01
-0.1576719340113E-02 -0.1516923200630E-01
-0.1967081947331E-02 -0.1556029254131E-01
-0.2430153314670E-02 -0.1595967908961E-01
-0.2963371376346E-02 -0.1637499060471E-01
-0.3556928681144E-02 -0.1681456646100E-01
-0.4192511220185E-02 -0.1728559073728E-01
-0.4844071210275E-02 -0.1779170715348E-01
-0.8131391586127E-04 -0.4266726572798E-03
-0.1626400207155E-03 -0.8620319436772E-03
-0.2415100542603E-03 -0.1305686275666E-02
-0.3155508086568E-03 -0.1756785304113E-02
-0.3828087211120E-03 -0.2214160870480E-02
-0.4419158801200E-03 -0.2676509492046E-02
-0.4920991194813E-03 -0.3142561539017E-02
-0.5330879621506E-03 -0.3611190327248E-02
-0.5649845079874E-03 -0.4081453917795E-02
-0.5881392326198E-03 -0.4552593375893E-02
-0.6030524893078E-03 -0.5024005678006E-02
-0.6103063388309E-03 -0.5495207524014E-02
-0.6105237098366E-03 -0.5965801213521E-02
-0.6043495458088E-03 -0.6435442981269E-02
-0.5924491786893E-03 -0.6903816665490E-02
-0.5755202285516E-03 -0.7370613121997E-02
-0.5543154765440E-03 -0.7835517287858E-02
-0.5296769488785E-03 -0.8298171287551E-02
-0.5025762532072E-03 -0.8758201366988E-02
-0.4741673757825E-03 -0.9215167555626E-02
-0.4458439966489E-03 -0.9668576615631E-02
-0.4193034456281E-03 -0.1011787530565E-01
-0.3966130253010E-03 -0.1056245079030E-01
-0.3802838234540E-03 -0.1100165808122E-01
-0.3733673232398E-03 -0.1143493517518E-01
-0.3794774021032E-03 -0.1186182415187E-01
-0.4028125557903E-03 -0.1228195812921E-01
-0.4481903830645E-03 -0.1269506706021E-01
-0.5210749840479E-03 -0.1310102625679E-01
-0.6275716503832E-03 -0.1349995240465E-01
-0.7743546171717E-03 -0.1389236015862E-01
-0.9684782274291E-03 -0.1427937690336E-01
-0.1217007168959E-02 -0.1466302215084E-01
-0.1526331247880E-02 -0.1504637713075E-01
-0.1901106541474E-02 -0.1543380798293E-01
-0.2342854638721E-02 -0.1583126006362E-01
-0.2848229269656E-02 -0.1624597429655E-01
-0.3407388551739E-02 -0.1668553208031E-01
-0.4003223214386E-02 -0.1715617476094E-01
-0.4612258715048E-02 -0.1766067195344E-01
-0.7610996694423E-04 -0.4263541811706E-03
-0.1521923833128E-03 -0.8611235476931E-03
-0.2260191204932E-03 -0.1303952840756E-02
-0.2954389322681E-03 -0.1754074326809E-02
-0.3586508749153E-03 -0.2210421739596E-02
-0.4143558719057E-03 -0.2671780758432E-02
-0.4617799581848E-03 -0.3136937265372E-02
-0.5006077471330E-03 -0.3604780795928E-02
-0.5308760759453E-03 -0.4074351586042E-02
-0.5528662744219E-03 -0.4544848487163E-02
-0.5670147593508E-03 -0.5015611333830E-02
-0.5738486257322E-03 -0.5486091989241E-02
-0.5739454404872E-03 -0.5955824961868E-02
-0.5679135001936E-03 -0.6424398523607E-02
-0.5563887226249E-03 -0.6891429912703E-02
-0.5400449163449E-03 -0.7356545661235E-02
-0.5196150129347E-03 -0.7819369417476E-02
-0.4959233825878E-03 -0.8279486163809E-02
-0.4699242661541E-03 -0.8736470427995E-02
-0.4427520760374E-03 -0.9189838211153E-02
-0.4157757242322E-03 -0.9639062513355E-02
-0.3906589278181E-03 -0.1008356984174E-01
-0.3694224113858E-03 -0.1052274437366E-01
-0.3545125553887E-03 -0.1095595826069E-01
-0.3488902349856E-03 -0.1138268317036E-01
-0.3560511584918E-03 -0.1180251551059E-01
-0.3800449216004E-03 -0.1221517234136E-01
-0.4255012579444E-03 -0.1262050748239E-01
-0.4976432395023E-03 -0.1301856959312E-01
-0.6022614776370E-03 -0.1340970435336E-01
-0.7456159596682E-03 -0.1379471036042E-01
-0.9342191203645E-03 -0.1417504089121E-01
-0.1174444301132E-02 -0.1455304993821E-01
-0.1471841557263E-02 -0.1493212183649E-01
-0.1830132176726E-02 -0.1531681635102E-01
-0.2249959971905E-02 -0.1571302978501E-01
-0.2727433846842E-02 -0.1612762470589E-01
-0.3252877883082E-02 -0.1656749069698E-01
-0.3810389728770E-02 -0.1703805149623E-01
-0.4379022067080E-02 -0.1754140112213E-01
-0.7106932384538E-04 -0.4260814735138E-03
-0.1420823938767E-03 -0.8603277443616E-03
-0.2110232387066E-03 -0.1302413050460E-02
-0.2759401501416E-03 -0.1751637977524E-02
-0.3351761290531E-03 -0.2207022790486E-02
-0.3875054350049E-03 -0.2667431842213E-02
-0.4321654712169E-03 -0.3131703167527E-02
-0.4688100091416E-03 -0.3598745189255E-02
-0.4974229157892E-03 -0.4067586477121E-02
-0.5182254499209E-03 -0.4537390979922E-02
-0.5315959377287E-03 -0.5007448385436E-02
-0.5380097238917E-03 -0.5477151779415E-02
-0.5380002911699E-03 -0.5945972944503E-02
-0.5321391860659E-03 -0.6413436487298E-02
-0.5210317899292E-03 -0.6879096902624E-02
-0.5053261390117E-03 -0.7342520144610E-02
-0.4857325539454E-03 -0.7803272496361E-02
-0.4630541218196E-03 -0.8260886123345E-02
-0.4382231152602E-03 -0.8714888711268E-02
-0.4123486765532E-03 -0.9164757723391E-02
-0.3867680907330E-03 -0.9609938494180E-02
-0.3631034330726E-03 -0.1004984391927E-01
-0.3433196806747E-03 -0.1048386227579E-01
-0.3297882586533E-03 -0.1091139023018E-01
-0.3253683077476E-03 -0.1133194056499E-01
-0.3334250329005E-03 -0.1174517149126E-01
-0.3578452422008E-03 -0.1215089109089E-01
-0.4030555171099E-03 -0.1254908259511E-01
-0.4740223153665E-03 -0.1293997002323E-01
-0.5762082939757E-03 -0.1332412359846E-01
-0.7154530792548E-03 -0.1370261120162E-01
-0.8977361999157E-03 -0.1407718318828E-01
-0.1128775253514E-02 -0.1445048266201E-01
-0.1413356899768E-02 -0.1482613578139E-01
-0.1754396868174E-02 -0.1520882798152E-01
-0.2151840170440E-02 -0.1560435611639E-01
-0.2601448561345E-02 -0.1601920168730E-01
-0.3093850927940E-02 -0.1645963169225E-01
-0.3614370913359E-02 -0.1693035893662E-01
-0.4144258235147E-02 -0.1743305800781E-01
-0.6617814676015E-04 -0.4258467357017E-03
-0.1322803051440E-03 -0.8596272924502E-03
-0.1964798774440E-03 -0.1301040054686E-02
-0.2570056829616E-03 -0.1749442314937E-02
-0.3123363071412E-03 -0.2203927823400E-02
-0.3613219099212E-03 -0.2663429980251E-02
-0.4032208168183E-03 -0.3126835023276E-02
-0.4376678626358E-03 -0.3593071545886E-02
-0.4646049184559E-03 -0.4061161136355E-02
-0.4842016757668E-03 -0.4530239005818E-02
-0.4967841240120E-03 -0.4999550991560E-02
-0.5027792120555E-03 -0.5468437151201E-02
-0.5026778213895E-03 -0.5936311565847E-02
-0.4970148295210E-03 -0.6402639584230E-02
-0.4863640873514E-03 -0.6866916980590E-02
-0.4713459659232E-03 -0.7328653028087E-02
-0.4526454340372E-03 -0.7787360649384E-02
-0.4310406650835E-03 -0.8242523483741E-02
-0.4074373624768E-03 -0.8693627066085E-02
-0.3829137344727E-03 -0.9140115447619E-02
-0.3587686635758E-03 -0.9581411828972E-02
-0.3365746956477E-03 -0.1001692134952E-01
-0.3182320928655E-03 -0.1044604243960E-01
-0.3060273557362E-03 -0.1086820234569E-01
-0.3027071564729E-03 -0.1128296085540E-01
-0.3114944855289E-03 -0.1169004355878E-01
-0.3361005295792E-03 -0.1208935427427E-01
-0.3807351725828E-03 -0.1248100830655E-01
-0.4500953820206E-03 -0.1286540373155E-01
-0.5493064964140E-03 -0.1324332744224E-01
-0.6837867884380E-03 -0.1361609912667E-01
-0.8589976497516E-03 -0.1398573643997E-01
-0.1080041241887E-02 -0.1435512884112E-01
-0.1351017516052E-02 -0.1472809092648E-01
-0.1674156670525E-02 -0.1510937958107E-01
-0.2048860964863E-02 -0.1550465819535E-01
-0.2470703901236E-02 -0.1592003793595E-01
-0.2930724344135E-02 -0.1636122667442E-01
-0.3415439666140E-02 -0.1683235324850E-01
-0.3908021295991E-02 -0.1733478407772E-01
-0.6142389245368E-04 -0.4256436917666E-03
-0.1227592730556E-03 -0.8590082850869E-03
-0.1823502987415E-03 -0.1299812081288E-02
-0.2385902207796E-03 -0.1747459596026E-02
-0.2900853833436E-03 -0.2201106989078E-02
-0.3357630469202E-03 -0.2659747992846E-02
-0.3749099165218E-03 -0.3122312830307E-02
-0.4071519087822E-03 -0.3587750541490E-02
-0.4323986074964E-03 -0.4055079222007E-02
-0.4507759965307E-03 -0.4523410501821E-02
-0.4625632791172E-03 -0.4991951990281E-02
-0.4681424021636E-03 -0.5459996115887E-02
-0.4679632643123E-03 -0.5926904173062E-02
-0.4625243009607E-03 -0.6392086695427E-02
-0.4523669551508E-03 -0.6854984854894E-02
-0.4380821176414E-03 -0.7315055228166E-02
-0.4203267119304E-03 -0.7771761407963E-02
-0.3998504033865E-03 -0.8224542717730E-02
-0.3775277740659E-03 -0.8672847013075E-02
-0.3544005195341E-03 -0.9116089671324E-02
-0.3317224825691E-03 -0.9553676715477E-02
-0.3110089921469E-03 -0.9985010600027E-02
-0.2940868979930E-03 -0.1040950494266E-01
-0.2831481680689E-03 -0.1082662235933E-01
-0.2808167614720E-03 -0.1123597403803E-01
-0.2901624690118E-03 -0.1163735673250E-01
-0.3147091594944E-03 -0.1203077254191E-01
-0.3584382340906E-03 -0.1241646895782E-01
-0.4257668800704E-03 -0.1279501403151E-01
-0.5214772746066E-03 -0.1316740082736E-01
-0.6505696438272E-03 -0.1353518160814E-01
-0.8180063586603E-03 -0.1390061176390E-01
-0.1028317150510E-02 -0.1426678786430E-01
-0.1284990055895E-02 -0.1463766743410E-01
-0.1589679510130E-02 -0.1501803653747E-01
-0.1941379177559E-02 -0.1541340444905E-01
-0.2335602713006E-02 -0.1582953000192E-01
-0.2763870714410E-02 -0.1627162780394E-01
-0.3213842970115E-02 -0.1674334673615E-01
-0.3670393607722E-02 -0.1724581195087E-01
-0.5679505813589E-04 -0.4254672956772E-03
-0.1134948082233E-03 -0.8584595176028E-03
-0.1685989027203E-03 -0.1298711507717E-02
-0.2206514121250E-03 -0.1745667217896E-02
-0.2683792610341E-03 -0.2198535808942E-02
-0.3107870718907E-03 -0.2656363529455E-02
-0.3471957159899E-03 -0.3118120321590E-02
-0.3772305830978E-03 -0.3582775233979E-02
-0.4007774933641E-03 -0.4049345401767E-02
-0.4179259037444E-03 -0.4516923157982E-02
-0.4289134975572E-03 -0.4984682875547E-02
-0.4340805714517E-03 -0.5451874383800E-02
-0.4338377338786E-03 -0.5917810946201E-02
-0.4286473150305E-03 -0.6381852698980E-02
-0.4190175772836E-03 -0.6843390365231E-02
-0.4055082018542E-03 -0.7301831842248E-02
-0.3887454448962E-03 -0.7756595401642E-02
-0.3694469418353E-03 -0.8207080142966E-02
-0.3484516943331E-03 -0.8652700466707E-02
-0.3267594406576E-03 -0.9092847411286E-02
-0.3055725364145E-03 -0.9526914199330E-02
-0.2863416613254E-03 -0.9954304897333E-02
-0.2708118871179E-03 -0.1037445235042E-01
-0.2610714741262E-03 -0.1078685810563E-01
-0.2596119912218E-03 -0.1119118772871E-01
-0.2693398431818E-03 -0.1158731125782E-01
-0.2935810624357E-03 -0.1197532965879E-01
-0.3360785034249E-03 -0.1235562051465E-01
-0.4009616778416E-03 -0.1272891550489E-01
-0.4926668309808E-03 -0.1309640145215E-01
-0.6157829184480E-03 -0.1345984307475E-01
-0.7747954607250E-03 -0.1382170500495E-01
-0.9737057931767E-03 -0.1418525568085E-01
-0.1215461392934E-02 -0.1455455750596E-01
-0.1501239886651E-02 -0.1493439377143E-01
-0.1829740900310E-02 -0.1533010901214E-01
-0.2196520600983E-02 -0.1574713339263E-01
-0.2593628055715E-02 -0.1619025052151E-01
-0.3009808400577E-02 -0.1666271210849E-01
-0.3431467925013E-02 -0.1716544659588E-01
-0.5228097863812E-04 -0.4253134962988E-03
-0.1044643389341E-03 -0.8579719769355E-03
-0.1551926949873E-03 -0.1297724102049E-02
-0.2031494352385E-03 -0.1744046830798E-02
-0.2471755787710E-03 -0.2196194321952E-02
-0.2863527455606E-03 -0.2653258375885E-02
-0.3200404372198E-03 -0.3114244483884E-02
-0.3478705167923E-03 -0.3578140775621E-02
-0.3697124746009E-03 -0.4043965202944E-02
-0.3856257355218E-03 -0.4510794342428E-02
-0.3958113891745E-03 -0.4977773743925E-02
-0.4005713266389E-03 -0.5444115296286E-02
-0.4002785805562E-03 -0.5909088795050E-02
-0.3953597904039E-03 -0.6372008324837E-02
-0.3862893578597E-03 -0.6832218299359E-02
-0.3735941175281E-03 -0.7289081940235E-02
-0.3578671288944E-03 -0.7741976145998E-02
-0.3397905805446E-03 -0.8190263735554E-02
-0.3201635681754E-03 -0.8633329611448E-02
-0.2999386071024E-03 -0.9070544396914E-02
-0.2802603557839E-03 -0.9501292316804E-02
-0.2625077183769E-03 -0.9924982589952E-02
-0.2483360109525E-03 -0.1034107037037E-01
-0.2397211046650E-03 -0.1074909852997E-01
-0.2390131288017E-03 -0.1114878866165E-01
-0.2489457609336E-03 -0.1154008468467E-01
-0.2726378612723E-03 -0.1192318527796E-01
-0.3135853121037E-03 -0.1229859414260E-01
-0.3756242119754E-03 -0.1266719844282E-01
-0.4628447002907E-03 -0.1303036504040E-01
-0.5794339098172E-03 -0.1339005078750E-01
-0.7294245943596E-03 -0.1374890272320E-01
-0.9163334329901E-03 -0.1411033008586E-01
-0.1142634196206E-02 -0.1447846897381E-01
-0.1409115923051E-02 -0.1485807657505E-01
-0.1714281267117E-02 -0.1525432978128E-01
-0.2053809718292E-02 -0.1567235689022E-01
-0.2420307726165E-02 -0.1611656685115E-01
-0.2803549912681E-02 -0.1658987996955E-01
-0.3191339169343E-02 -0.1709306176179E-01
-0.4787166355341E-04 -0.4251790519346E-03
-0.9564685311926E-04 -0.8575384362059E-03
-0.1421008328435E-03 -0.1296838412640E-02
-0.1860466029320E-03 -0.1742583609514E-02
-0.2264334857164E-03 -0.2194066362315E-02
-0.2624193373109E-03 -0.2650417843972E-02
-0.2934057123438E-03 -0.3110675110620E-02
-0.3190367660955E-03 -0.3573844125108E-02
-0.3391721041298E-03 -0.4038944844891E-02
-0.3538469412944E-03 -0.4505041003978E-02
-0.3632303244119E-03 -0.4971253221891E-02
-0.3675888269639E-03 -0.5436759744064E-02
-0.3672595982501E-03 -0.5900791248075E-02
-0.3626340507013E-03 -0.6362620005624E-02
-0.3541521270657E-03 -0.6821548206920E-02
-0.3423062757210E-03 -0.7276898350865E-02
-0.3276539417859E-03 -0.7728009818521E-02
-0.3108385845294E-03 -0.8174212919502E-02
-0.2926152382127E-03 -0.8614866735528E-02
-0.2738841495129E-03 -0.9049324985590E-02
-0.2557263509383E-03 -0.9476966135771E-02
-0.2394421969655E-03 -0.9897207366488E-02
-0.2265897069322E-03 -0.1030952830761E-01
-0.2190242237726E-03 -0.1071351445126E-01
-0.2189460580519E-03 -0.1110894383871E-01
-0.2289076855661E-03 -0.1149583348968E-01
-0.2518126136743E-03 -0.1187447712128E-01
-0.2909028463611E-03 -0.1224549901359E-01
-0.3497172205685E-03 -0.1260993229488E-01
-0.4320017090591E-03 -0.1296930934877E-01
-0.5415529953879E-03 -0.1332575915591E-01
-0.6819760819886E-03 -0.1368208634738E-01
-0.8563454046036E-03 -0.1404181402504E-01
-0.1066722722248E-02 -0.1440912694354E-01
-0.1313586375420E-02 -0.1478873998311E-01
-0.1595323723889E-02 -0.1518566523833E-01
-0.1907800947667E-02 -0.1560475711975E-01
-0.2244198520212E-02 -0.1605009982696E-01
-0.2595268622795E-02 -0.1652433538205E-01
-0.2950099781497E-02 -0.1702809414230E-01
-0.4355766673317E-04 -0.4250613785578E-03
-0.8702261050895E-04 -0.8571531225621E-03
-0.1292942552033E-03 -0.1296045263422E-02
-0.1693070336921E-03 -0.1741265639451E-02
-0.2061134515140E-03 -0.2192138933282E-02
-0.2389466082398E-03 -0.2647830221401E-02
-0.2672527187477E-03 -0.3107404377245E-02
-0.2906930515117E-03 -0.3569883754052E-02
-0.3091228840933E-03 -0.4034291051437E-02
-0.3225583968817E-03 -0.4499679552310E-02
-0.3311407502738E-03 -0.4965148376529E-02
-0.3351040946142E-03 -0.5429846079692E-02
-0.3347513309861E-03 -0.5892968348762E-02
-0.3304391332988E-03 -0.6353749749540E-02
-0.3225724590776E-03 -0.6811454251011E-02
-0.3116079327105E-03 -0.7265367502409E-02
-0.2980650956024E-03 -0.7714795106413E-02
-0.2825455560039E-03 -0.8159038446654E-02
-0.2657563344754E-03 -0.8597434174721E-02
-0.2485406206058E-03 -0.9029322208542E-02
-0.2319102130360E-03 -0.9454077948539E-02
-0.2170805359243E-03 -0.9871128647432E-02
-0.2055052490777E-03 -0.1027997971505E-01
-0.1989116089762E-03 -0.1068025953768E-01
-0.1993424256143E-03 -0.1107180190344E-01
-0.2091613658849E-03 -0.1145469492334E-01
-0.2310495068457E-03 -0.1182932336636E-01
-0.2679894436260E-03 -0.1219642527302E-01
-0.3232205088911E-03 -0.1255716920039E-01
-0.4001480917666E-03 -0.1291323814690E-01
-0.5021910513923E-03 -0.1326691390526E-01
-0.6325517624863E-03 -0.1362113609181E-01
-0.7939027297626E-03 -0.1397951867125E-01
-0.9879498930978E-03 -0.1434627540870E-01
-0.1214929062299E-02 -0.1472606847644E-01
-0.1473180632187E-02 -0.1512375215228E-01
-0.1758806932954E-02 -0.1554393483677E-01
-0.2065570789753E-02 -0.1599041989393E-01
-0.2385154716613E-02 -0.1646561486125E-01
-0.2707839533545E-02 -0.1697003866648E-01
-0.3932998087616E-04 -0.4249584266463E-03
-0.7857290764617E-04 -0.8568114469132E-03
-0.1167453736509E-03 -0.1295337339584E-02
-0.1528963663537E-03 -0.1740083404304E-02
-0.1861770877465E-03 -0.2190401671838E-02
-0.2158947756490E-03 -0.2645486286233E-02
-0.2415422772069E-03 -0.3104426451114E-02
-0.2628019546621E-03 -0.3566259363346E-02
-0.2795295218226E-03 -0.4030010858167E-02
-0.2917266881162E-03 -0.4494725727360E-02
-0.2995104823048E-03 -0.4959484616675E-02
-0.3030853065836E-03 -0.5423410025710E-02
-0.3027213636208E-03 -0.5885666554636E-02
-0.2987410818838E-03 -0.6345455023291E-02
-0.2915139707814E-03 -0.6802005076621E-02
-0.2814594985898E-03 -0.7254569285938E-02
-0.2690571568025E-03 -0.7702423081081E-02
-0.2548637652695E-03 -0.8144842305331E-02
-0.2395346115598E-03 -0.8581144284259E-02
-0.2238513305924E-03 -0.9010657841175E-02
-0.2087512358120E-03 -0.9432757481760E-02
-0.1953588702652E-03 -0.9846881981980E-02
-0.1850169845652E-03 -0.1025256303075E-01
-0.1793177997329E-03 -0.1064947124309E-01
-0.1801396542401E-03 -0.1103749443834E-01
-0.1896506503329E-03 -0.1141678872698E-01
-0.2103033899698E-03 -0.1178782482953E-01
-0.2448167454444E-03 -0.1215144670442E-01
-0.2961296224426E-03 -0.1250894709264E-01
-0.3673116103317E-03 -0.1286214462768E-01
-0.4614170226987E-03 -0.1321345553513E-01
-0.5812701631011E-03 -0.1356593407108E-01
-0.7291792574490E-03 -0.1392326570696E-01
-0.9065449971029E-03 -0.1428967822765E-01
-0.1113419838001E-02 -0.1466977535768E-01
-0.1348154081574E-02 -0.1506826341479E-01
-0.1607124672704E-02 -0.1548953183415E-01
-0.1884679553691E-02 -0.1593714182239E-01
-0.2173389014659E-02 -0.1641330324054E-01
-0.2464646151480E-02 -0.1691844405599E-01
-0.3517995174154E-04 -0.4248685812999E-03
-0.7027988366488E-04 -0.8565097841597E-03
-0.1044278102413E-03 -0.1294708847890E-02
-0.1367815065582E-03 -0.1739029359853E-02
-0.1665869729433E-03 -0.2188846393949E-02
-0.1932244520228E-03 -0.2643378883124E-02
-0.2162349032936E-03 -0.3101737139232E-02
-0.2353250572415E-03 -0.3562971616276E-02
-0.2503551245572E-03 -0.4026111422159E-02
-0.2613163339249E-03 -0.4490194464191E-02
-0.2683049376595E-03 -0.4954285588283E-02
-0.2714980282970E-03 -0.5417484579257E-02
-0.2711345532175E-03 -0.5878928636621E-02
-0.2675031766546E-03 -0.6337788639381E-02
-0.2609375533329E-03 -0.6793263686608E-02
-0.2518187723547E-03 -0.7244576927749E-02
-0.2405842853453E-03 -0.7690977081216E-02
-0.2277433916141E-03 -0.8131717634236E-02
-0.2138961859702E-03 -0.8566099409339E-02
-0.1997585719332E-03 -0.8993442461339E-02
-0.1861885145697E-03 -0.9413122078983E-02
-0.1742141861241E-03 -0.9824589396688E-02
-0.1650614195045E-03 -0.1022740213925E-01
-0.1601810796164E-03 -0.1062127163114E-01
-0.1612807750182E-03 -0.1100613710180E-01
-0.1703271088949E-03 -0.1138221862746E-01
-0.1895391116556E-03 -0.1175006684710E-01
-0.2213686678068E-03 -0.1211062299343E-01
-0.2684543732136E-03 -0.1246529228651E-01
-0.3335355928756E-03 -0.1281601417782E-01
-0.4193155077242E-03 -0.1316532203053E-01
-0.5282637944646E-03 -0.1351636660977E-01
-0.6623590035696E-03 -0.1387288883713E-01
-0.8227415659015E-03 -0.1423911948745E-01
-0.1009331546053E-02 -0.1461960179165E-01
-0.1220536258562E-02 -0.1501890590177E-01
-0.1453037068691E-02 -0.1544122814188E-01
-0.1701766148595E-02 -0.1588992179746E-01
-0.1960143427056E-02 -0.1636703045939E-01
-0.2220604999802E-02 -0.1687290870016E-01
-0.3109920896262E-04 -0.4247905788074E-03
-0.6212636395615E-04 -0.8562452898092E-03
-0.9231618588532E-04 -0.1294155231879E-02
-0.1209304226293E-03 -0.1738097572347E-02
-0.1473065165814E-03 -0.2187466701446E-02
-0.1708966122230E-03 -0.2641502547652E-02
-0.1912908826078E-03 -0.3099333566077E-02
-0.2082231078050E-03 -0.3560021885265E-02
-0.2215614326974E-03 -0.4022599834317E-02
-0.2312900621453E-03 -0.4486099755839E-02
-0.2374874355975E-03 -0.4949573068776E-02
-0.2403055277367E-03 -0.5412099920874E-02
-0.2399533512246E-03 -0.5872793590513E-02
-0.2366862623265E-03 -0.6330798665171E-02
-0.2308017050954E-03 -0.6785287350154E-02
-0.2226412785447E-03 -0.7235456905627E-02
-0.2125985722422E-03 -0.7680532651428E-02
-0.2011328565565E-03 -0.8119748703791E-02
-0.1887858568596E-03 -0.8552391934902E-02
-0.1762039160362E-03 -0.8977775598445E-02
-0.1641612035469E-03 -0.9395276984921E-02
-0.1535845190525E-03 -0.9804359855293E-02
-0.1455773327695E-03 -0.1020460705105E-01
-0.1414434731304E-03 -0.1059576832000E-01
-0.1427142661279E-03 -0.1097783088187E-01
-0.1511496639364E-03 -0.1135107393537E-01
-0.1687308864739E-03 -0.1171612123487E-01
-0.1976404477271E-03 -0.1207400203213E-01
-0.2402175266710E-03 -0.1242622205818E-01
-0.2988772635085E-03 -0.1277482709089E-01
-0.3759848118717E-03 -0.1312245148311E-01
-0.4736771257610E-03 -0.1347232647448E-01
-0.5936343836436E-03 -0.1382823530929E-01
-0.7367763092248E-03 -0.1419440404884E-01
-0.9029340968124E-03 -0.1457531628068E-01
-0.1090610887858E-02 -0.1497541904611E-01
-0.1296815464239E-02 -0.1539874009557E-01
-0.1517061031174E-02 -0.1584845530522E-01
-0.1745583185195E-02 -0.1632646910281E-01
-0.1975800922922E-02 -0.1683307757714E-01
-0.2707960909597E-04 -0.4247234393916E-03
-0.5409572825643E-04 -0.8560157516002E-03
-0.8038593580717E-04 -0.1293672939759E-02
-0.1053119572960E-03 -0.1737283420338E-02
-0.1282998172605E-03 -0.2186257652631E-02
-0.1488725299941E-03 -0.2639853185122E-02
-0.1666702934793E-03 -0.3097213891388E-02
-0.1814561200064E-03 -0.3557412023726E-02
-0.1931089740366E-03 -0.4019482944869E-02
-0.2016089995752E-03 -0.4482454521562E-02
-0.2070194072099E-03 -0.4945366862819E-02
-0.2094689940991E-03 -0.5407283323296E-02
-0.2091380249947E-03 -0.5867296548212E-02
-0.2062489695305E-03 -0.6324528331358E-02
-0.2010627512811E-03 -0.6778127509132E-02
-0.1938804833074E-03 -0.7227268859464E-02
-0.1850502488315E-03 -0.7671157468859E-02
-0.1749790208315E-03 -0.8109010875471E-02
-0.1641472823094E-03 -0.8540104299107E-02
-0.1531283570167E-03 -0.8963745826923E-02
-0.1426086114519E-03 -0.9379315548880E-02
-0.1334089810234E-03 -0.9786289605762E-02
-0.1265057085668E-03 -0.1018427442953E-01
-0.1230505512465E-03 -0.1057305522565E-01
-0.1243936913950E-03 -0.1095266308909E-01
-0.1320840149970E-03 -0.1132343081111E-01
-0.1478614555638E-03 -0.1168604783246E-01
-0.1736374933955E-03 -0.1204162171451E-01
-0.2114533138940E-03 -0.1239174661753E-01
-0.2634059300935E-03 -0.1273856058188E-01
-0.3315348942503E-03 -0.1308478394807E-01
-0.4176644692094E-03 -0.1343371432482E-01
-0.5232043147031E-03 -0.1378916670636E-01
-0.6488877759899E-03 -0.1415535749652E-01
-0.7944939852561E-03 -0.1453671373859E-01
-0.9586536844795E-03 -0.1493757320244E-01
-0.1138720714261E-02 -0.1536181829312E-01
-0.1330784777086E-02 -0.1581247487851E-01
-0.1529867148713E-02 -0.1629133183151E-01
-0.1730317825981E-02 -0.1679863926204E-01
-0.2311318942930E-04 -0.4246664110628E-03
-0.4617180349720E-04 -0.8558194658248E-03
-0.6861315917589E-04 -0.1293259230333E-02
-0.8989567459351E-04 -0.1736583343240E-02
-0.1095315504253E-03 -0.2185215480648E-02
-0.1271137367300E-03 -0.2638427790841E-02
-0.1423330475298E-03 -0.3095377058836E-02
-0.1549834892685E-03 -0.3555144157677E-02
-0.1649572416254E-03 -0.4016767199956E-02
-0.1722328937819E-03 -0.4479270481289E-02
-0.1768606459797E-03 -0.4941684703232E-02
-0.1789478056923E-03 -0.5403059067490E-02
-0.1786469352386E-03 -0.5862468700500E-02
-0.1761479965637E-03 -0.6319015957697E-02
-0.1716751258556E-03 -0.6771829708118E-02
-0.1654880721099E-03 -0.7220065532068E-02
-0.1578879546428E-03 -0.7662911306256E-02
-0.1492274346227E-03 -0.8099570603283E-02
-0.1399232014359E-03 -0.8529309053689E-02
-0.1304724920657E-03 -0.8951430909967E-02
-0.1214703229981E-03 -0.9365319480089E-02
-0.1136278021235E-03 -0.9770462578429E-02
-0.1077896728731E-03 -0.1016648816474E-01
-0.1049512324660E-03 -0.1055321334358E-01
-0.1062773315004E-03 -0.1093070837354E-01
-0.1131020630352E-03 -0.1129935353444E-01
-0.1269212685469E-03 -0.1165989602334E-01
-0.1493742986845E-03 -0.1201351167501E-01
-0.1822060778814E-03 -0.1236187099056E-01
-0.2272014053347E-03 -0.1270719068745E-01
-0.2860856721227E-03 -0.1305226318552E-01
-0.3603883576780E-03 -0.1340044008674E-01
-0.4512729316299E-03 -0.1375555975178E-01
-0.5593157064524E-03 -0.1412182624382E-01
-0.6842745105987E-03 -0.1450361489166E-01
-0.8249334683860E-03 -0.1490516849099E-01
-0.9790049094115E-03 -0.1533024610398E-01
-0.1143149875888E-02 -0.1578174840173E-01
-0.1313149197833E-02 -0.1626136943029E-01
-0.1484239513851E-02 -0.1676932369194E-01
-0.1919213006059E-04 -0.4246189238500E-03
-0.3833877442550E-04 -0.8556551363772E-03
-0.5697449145816E-04 -0.1292912013927E-02
-0.7465172677802E-04 -0.1735994633533E-02
-0.9096686696619E-04 -0.2184337357932E-02
-0.1055819794645E-03 -0.2637224212530E-02
-0.1182389191708E-03 -0.3093822578608E-02
-0.1287640916274E-03 -0.3553220501754E-02
-0.1370648507930E-03 -0.4014458494246E-02
-0.1431203137798E-03 -0.4476558040230E-02
-0.1469695382539E-03 -0.4938542158970E-02
-0.1486997789028E-03 -0.5399448364905E-02
-0.1484367949907E-03 -0.5858337226661E-02
-0.1463383719389E-03 -0.6314294886748E-02
-0.1425916322172E-03 -0.6766433533379E-02
-0.1374142028835E-03 -0.7213892718989E-02
-0.1310589761277E-03 -0.7655846002562E-02
-0.1238225529928E-03 -0.8091485439099E-02
-0.1160556150560E-03 -0.8520068921827E-02
-0.1081766529158E-03 -0.8940897931234E-02
-0.1006862634640E-03 -0.9353359077597E-02
-0.9418230697236E-04 -0.9756950740806E-02
-0.8937435680386E-04 -0.1015131988084E-01
-0.8709750480104E-04 -0.1053631143485E-01
-0.8832773382779E-04 -0.1091202961072E-01
-0.9418125745534E-04 -0.1127889560063E-01
-0.1059076020839E-03 -0.1163770603389E-01
-0.1248733211875E-03 -0.1198969475544E-01
-0.1525289253593E-03 -0.1233659658284E-01
-0.1903524889996E-03 -0.1268069381234E-01
-0.2397654481445E-03 -0.1302483803825E-01
-0.3020180967006E-03 -0.1337242399059E-01
-0.3780484956364E-03 -0.1372730685317E-01
-0.4683005348089E-03 -0.1409367749184E-01
-0.5725360318161E-03 -0.1447586566892E-01
-0.6897131473609E-03 -0.1487803374419E-01
-0.8179128129972E-03 -0.1530383833916E-01
-0.9543621719818E-03 -0.1575607759849E-01
-0.1095579276910E-02 -0.1623636909776E-01
-0.1237650120683E-02 -0.1674490025957E-01
-0.1530872247702E-04 -0.4245805528272E-03
-0.3058110788710E-04 -0.8555217931182E-03
-0.4544699388581E-04 -0.1292629723259E-02
-0.5955073556505E-04 -0.1735515266895E-02
-0.7257129786393E-04 -0.2183621201665E-02
-0.8423917408505E-04 -0.2636240951500E-02
-0.9434756011921E-04 -0.3092550342624E-02
-0.1027563599395E-03 -0.3551643200102E-02
-0.1093896688669E-03 -0.4012562041162E-02
-0.1142288211175E-03 -0.4474326185612E-02
-0.1173032631768E-03 -0.4935952551870E-02
-0.1186813860472E-03 -0.5396469287053E-02
-0.1184628965732E-03 -0.5854925231235E-02
-0.1167736833491E-03 -0.6310393425092E-02
-0.1137636678487E-03 -0.6761972559438E-02
-0.1096077198409E-03 -0.7208789225107E-02
-0.1045094419624E-03 -0.7650005437896E-02
-0.9870790306645E-04 -0.8084804037920E-02
-0.9248591264955E-04 -0.8512436848832E-02
-0.8618097759036E-04 -0.8932203409047E-02
-0.8019669708544E-04 -0.9343493428614E-02
-0.7501481834660E-04 -0.9745814402482E-02
-0.7120668092403E-04 -0.1013882937037E-01
-0.6944406376032E-04 -0.1052240661076E-01
-0.7051117617225E-04 -0.1089667865206E-01
-0.7530385961984E-04 -0.1126210064264E-01
-0.8482360458072E-04 -0.1161951001626E-01
-0.1001638050965E-03 -0.1197018821397E-01
-0.1224823516460E-03 -0.1231592244907E-01
-0.1529554581730E-03 -0.1265904796042E-01
-0.1927093792456E-03 -0.1300246349684E-01
-0.2427283757337E-03 -0.1334959733268E-01
-0.3037423438274E-03 -0.1370431644316E-01
-0.3760828600748E-03 -0.1407079908912E-01
-0.4595360576863E-03 -0.1445333660553E-01
-0.5532503603561E-03 -0.1485602555748E-01
-0.6556827943973E-03 -0.1528244007624E-01
-0.7646216967328E-03 -0.1573529670396E-01
-0.8773037657712E-03 -0.1621615297055E-01
-0.9906337767248E-03 -0.1672517620220E-01
-0.1145534382352E-04 -0.4245509880919E-03
-0.2288349060134E-04 -0.8554187256931E-03
-0.3400806271325E-04 -0.1292411208634E-02
-0.4456369584516E-04 -0.1735143763683E-02
-0.5431068061401E-04 -0.2183065513858E-02
-0.6304737820293E-04 -0.2635476997460E-02
-0.7061853223207E-04 -0.3091560469016E-02
-0.7691837924250E-04 -0.3550414190604E-02
-0.8188896727761E-04 -0.4011082260730E-02
-0.8551516834178E-04 -0.4472582396714E-02
-0.8781802575101E-04 -0.4933926884349E-02
-0.8884801187583E-04 -0.5394136705523E-02
-0.8867938174397E-04 -0.5852251692142E-02
-0.8740635287241E-04 -0.6307334797708E-02
-0.8514149654574E-04 -0.6758474310861E-02
-0.8201641439464E-04 -0.7204786838192E-02
-0.7818456320415E-04 -0.7645425526440E-02
-0.7382629217202E-04 -0.8079566180669E-02
-0.6915503493850E-04 -0.8506456068224E-02
-0.6442551128674E-04 -0.8925393421668E-02
-0.5994224743969E-04 -0.9335770610989E-02
-0.5606857574553E-04 -0.9737102514138E-02
-0.5323514872002E-04 -0.1012906500917E-01
-0.5194795673683E-04 -0.1051154488082E-01
-0.5279713951119E-04 -0.1088469701820E-01
-0.5645622653855E-04 -0.1124900327230E-01
-0.6367738411440E-04 -0.1160533302588E-01
-0.7528068559895E-04 -0.1195500480634E-01
-0.9213300275306E-04 -0.1229984642002E-01
-0.1151127673383E-03 -0.1264223382260E-01
-0.1450582400073E-03 -0.1298510164327E-01
-0.1826982608874E-03 -0.1333190316437E-01
-0.2285682963754E-03 -0.1368651332428E-01
-0.2829034284643E-03 -0.1405309949159E-01
-0.3455298792053E-03 -0.1443592244322E-01
-0.4157986898504E-03 -0.1483902761264E-01
-0.4925483899159E-03 -0.1526592580153E-01
-0.5741242459303E-03 -0.1571927148427E-01
-0.6584667575727E-03 -0.1620057703465E-01
-0.7432753459904E-03 -0.1670999541777E-01
-0.7624434971732E-05 -0.4245300116651E-03
-0.1523077422247E-04 -0.8553454324801E-03
-0.2263534654961E-04 -0.1292255656794E-02
-0.2966188398707E-04 -0.1734879081084E-02
-0.3615108278162E-04 -0.2182669255919E-02
-0.4196875141807E-04 -0.2634931697740E-02
-0.4701131774885E-04 -0.3090853177715E-02
-0.5120795074733E-04 -0.3549535094967E-02
-0.5451953532223E-04 -0.4010022687581E-02
-0.5693545383415E-04 -0.4471332570060E-02
-0.5846924218334E-04 -0.4932473778418E-02
-0.5915415893479E-04 -0.5392462240686E-02
-0.5903945752483E-04 -0.5850331415665E-02
-0.5818785467507E-04 -0.6305137107622E-02
-0.5667445985045E-04 -0.6755960227257E-02
-0.5458722187373E-04 -0.7201910302502E-02
-0.5202880575572E-04 -0.7642134204425E-02
-0.4911994474805E-04 -0.8075802784754E-02
-0.4600356164726E-04 -0.8502160145314E-02
-0.4285022880863E-04 -0.8920503696306E-02
-0.3986383568549E-04 -0.9330227841657E-02
-0.3728756811615E-04 -0.9730852890415E-02
-0.3540955072719E-04 -0.1012206406845E-01
-0.3456813514793E-04 -0.1050376156672E-01
-0.3515768684241E-04 -0.1087611642303E-01
-0.3762800091825E-04 -0.1123962971484E-01
-0.4248100564416E-04 -0.1159519375438E-01
-0.5026340815717E-04 -0.1194415358881E-01
-0.6155235916657E-04 -0.1228836592671E-01
-0.7693167404554E-04 -0.1263023555342E-01
-0.9695710490439E-04 -0.1297272229667E-01
-0.1221100777303E-03 -0.1331929672326E-01
-0.1527418896970E-03 -0.1367383882081E-01
-0.1890028321611E-03 -0.1404050760962E-01
-0.2307707630783E-03 -0.1442354169775E-01
-0.2776082499059E-03 -0.1482695003119E-01
-0.3287390516319E-03 -0.1525419862249E-01
-0.3830619766286E-03 -0.1570789835473E-01
-0.4392102013404E-03 -0.1618953016650E-01
-0.4956598771664E-03 -0.1669923743938E-01
-0.3808482020014E-05 -0.4245174799202E-03
-0.7607928660007E-05 -0.8553015818371E-03
-0.1130667613236E-04 -0.1292162529312E-02
-0.1481678084829E-04 -0.1734720531025E-02
-0.1805874057469E-04 -0.2182431752701E-02
-0.2096552994078E-04 -0.2634604656603E-02
-0.2348534350681E-04 -0.3090428693880E-02
-0.2558267056992E-04 -0.3549007132678E-02
-0.2723781082468E-04 -0.4009385898419E-02
-0.2844529679281E-04 -0.4470580960214E-02
-0.2921174914089E-04 -0.4931599427610E-02
-0.2955368050071E-04 -0.5391454221886E-02
-0.2949564265242E-04 -0.5849175002556E-02
-0.2906896543115E-04 -0.6303813306873E-02
-0.2831122214643E-04 -0.6754445639900E-02
-0.2726645162171E-04 -0.7200177303825E-02
-0.2598609471946E-04 -0.7640151428345E-02
-0.2453066852287E-04 -0.8073535922138E-02
-0.2297182494317E-04 -0.8499573023559E-02
-0.2139507834285E-04 -0.8917559693766E-02
-0.1990263544208E-04 -0.9326891610807E-02
-0.1861637871749E-04 -0.9727092405472E-02
-0.1768067738008E-04 -0.1011785298328E-01
-0.1726501422503E-04 -0.1049908165362E-01
-0.1756685261199E-04 -0.1087095921362E-01
-0.1881132078518E-04 -0.1123399833695E-01
-0.2124952502034E-04 -0.1158910513557E-01
-0.2515481198034E-04 -0.1193764057844E-01
-0.3081552235012E-04 -0.1228147867626E-01
-0.3852301604491E-04 -0.1262304140874E-01
-0.4855423742333E-04 -0.1296530354945E-01
-0.6114855686304E-04 -0.1331174580493E-01
-0.7647992148514E-04 -0.1366625093931E-01
-0.9462155731300E-04 -0.1403297274089E-01
-0.1155105223022E-03 -0.1441613638458E-01
-0.1389266820069E-03 -0.1481972894143E-01
-0.1644813558215E-03 -0.1524718972950E-01
-0.1916245475397E-03 -0.1570110377216E-01
-0.2196746979806E-03 -0.1618293347206E-01
-0.2478728334936E-03 -0.1669281672869E-01
 0.2209413614519E-13 -0.4245133114526E-03
 0.9035141883794E-13 -0.8552869853125E-03
 0.2029752234345E-12 -0.1292131519919E-02
 0.3564458840935E-12 -0.1734667723136E-02
 0.5457419455582E-12 -0.2182352625569E-02
 0.7646778175940E-12 -0.2634495664612E-02
 0.1006302896914E-11 -0.3090287179740E-02
 0.1263316057667E-11 -0.3548831059880E-02
 0.1528449459012E-11 -0.4009173460118E-02
 0.1794773964864E-11 -0.4470330137106E-02
 0.2055927910555E-11 -0.4931307562111E-02
 0.2306268023777E-11 -0.5391117658409E-02
 0.2541012972951E-11 -0.5848788823185E-02
 0.2756354172684E-11 -0.6303371175128E-02
 0.2949549458842E-11 -0.6753939754301E-02
 0.3119077045255E-11 -0.7199598457914E-02
 0.3264960350691E-11 -0.7639489172573E-02
 0.3389021702160E-11 -0.8072778830793E-02
 0.3495264841447E-11 -0.8498709055771E-02
 0.3590475139426E-11 -0.8916576666401E-02
 0.3684864913200E-11 -0.9325777774415E-02
 0.3792688385573E-11 -0.9725837128373E-02
 0.3933192313510E-11 -0.1011644753883E-01
 0.4131306408084E-11 -0.1049752003373E-01
 0.4418666821326E-11 -0.1086923867495E-01
 0.4834089725736E-11 -0.1123212001149E-01
 0.5424174998048E-11 -0.1158707476211E-01
 0.6243035602371E-11 -0.1193546920450E-01
 0.7351803194000E-11 -0.1227918311000E-01
 0.8816947172363E-11 -0.1262064417231E-01
 0.1070734126363E-10 -0.1296283211798E-01
 0.1309007763295E-10 -0.1330923099503E-01
 0.1602449423155E-10 -0.1366372445113E-01
 0.1955250544805E-10 -0.1403046449386E-01
 0.2369348814368E-10 -0.1441367179892E-01
 0.2843679458575E-10 -0.1481732614895E-01
 0.3373588214339E-10 -0.1524485799376E-01
 0.3950507976302E-10 -0.1569884378578E-01
 0.4562423355781E-10 -0.1618073980298E-01
 0.5194339403047E-10 -0.1669068216196E-01
 0.3808482064207E-05 -0.4245174799183E-03
 0.7607928840797E-05 -0.8553015818341E-03
 0.1130667653856E-04 -0.1292162529308E-02
 0.1481678156165E-04 -0.1734720531022E-02
 0.1805874166690E-04 -0.2182431752701E-02
 0.2096553147116E-04 -0.2634604656608E-02
 0.2348534552074E-04 -0.3090428693891E-02
 0.2558267309818E-04 -0.3549007132698E-02
 0.2723781388350E-04 -0.4009385898450E-02
 0.2844530038459E-04 -0.4470580960257E-02
 0.2921175325528E-04 -0.4931599427668E-02
 0.2955368511612E-04 -0.5391454221963E-02
 0.2949564773768E-04 -0.5849175002654E-02
 0.2906897094749E-04 -0.6303813306997E-02
 0.2831122804959E-04 -0.6754445640054E-02
 0.2726645786439E-04 -0.7200177304016E-02
 0.2598610125440E-04 -0.7640151428579E-02
 0.2453067530638E-04 -0.8073535922423E-02
 0.2297183193958E-04 -0.8499573023904E-02
 0.2139508552997E-04 -0.8917559694179E-02
 0.1990264281807E-04 -0.9326891611298E-02
 0.1861638630896E-04 -0.9727092406052E-02
 0.1768068525199E-04 -0.1011785298396E-01
 0.1726502249211E-04 -0.1049908165441E-01
 0.1756686145210E-04 -0.1087095921452E-01
 0.1881133045374E-04 -0.1123399833797E-01
 0.2124953586579E-04 -0.1158910513671E-01
 0.2515482445937E-04 -0.1193764057970E-01
 0.3081553704165E-04 -0.1228147867765E-01
 0.3852303366092E-04 -0.1262304141023E-01
 0.4855425881379E-04 -0.1296530355104E-01
 0.6114858301254E-04 -0.1331174580660E-01
 0.7647995349758E-04 -0.1366625094103E-01
 0.9462159637680E-04 -0.1403297274265E-01
 0.1155105696454E-03 -0.1441613638636E-01
 0.1389267388369E-03 -0.1481972894321E-01
 0.1644814232530E-03 -0.1524718973127E-01
 0.1916246265160E-03 -0.1570110377392E-01
 0.2196747892042E-03 -0.1618293347382E-01
 0.2478729373661E-03 -0.1669281673045E-01
 0.7624435015941E-05 -0.4245300116614E-03
 0.1523077440353E-04 -0.8553454324739E-03
 0.2263534695653E-04 -0.1292255656787E-02
 0.2966188470182E-04 -0.1734879081079E-02
 0.3615108387602E-04 -0.2182669255920E-02
 0.4196875295151E-04 -0.2634931697750E-02
 0.4701131976675E-04 -0.3090853177738E-02
 0.5120795328047E-04 -0.3549535095007E-02
 0.5451953838684E-04 -0.4010022687641E-02
 0.5693545743261E-04 -0.4471332570146E-02
 0.5846924630534E-04 -0.4932473778534E-02
 0.5915416355879E-04 -0.5392462240838E-02
 0.5903946261978E-04 -0.5850331415861E-02
 0.5818786020228E-04 -0.6305137107869E-02
 0.5667446576577E-04 -0.6755960227565E-02
 0.5458722812998E-04 -0.7201910302882E-02
 0.5202881230567E-04 -0.7642134204891E-02
 0.4911995154796E-04 -0.8075802785322E-02
 0.4600356866129E-04 -0.8502160146001E-02
 0.4285023601425E-04 -0.8920503697130E-02
 0.3986384308030E-04 -0.9330227842639E-02
 0.3728757572592E-04 -0.9730852891573E-02
 0.3540955861572E-04 -0.1012206406981E-01
 0.3456814342847E-04 -0.1050376156829E-01
 0.3515769569095E-04 -0.1087611642482E-01
 0.3762801058803E-04 -0.1123962971688E-01
 0.4248101648109E-04 -0.1159519375667E-01
 0.5026342061524E-04 -0.1194415359134E-01
 0.6155237382205E-04 -0.1228836592947E-01
 0.7693169160803E-04 -0.1263023555641E-01
 0.9695712622234E-04 -0.1297272229984E-01
 0.1221101037880E-03 -0.1331929672659E-01
 0.1527419215998E-03 -0.1367383882426E-01
 0.1890028711013E-03 -0.1404050761314E-01
 0.2307708102900E-03 -0.1442354170130E-01
 0.2776083066048E-03 -0.1482695003476E-01
 0.3287391189422E-03 -0.1525419862604E-01
 0.3830620555032E-03 -0.1570789835827E-01
 0.4392102924894E-03 -0.1618953017003E-01
 0.4956599809958E-03 -0.1669923744292E-01
 0.1145534386775E-04 -0.4245509880863E-03
 0.2288349078283E-04 -0.8554187256839E-03
 0.3400806312140E-04 -0.1292411208624E-02
 0.4456369656222E-04 -0.1735143763676E-02
 0.5431068171205E-04 -0.2183065513860E-02
 0.6304737974148E-04 -0.2635476997475E-02
 0.7061853425659E-04 -0.3091560469050E-02
 0.7691838178376E-04 -0.3550414190664E-02
 0.8188897035183E-04 -0.4011082260820E-02
 0.8551517195134E-04 -0.4472582396842E-02
 0.8781802988566E-04 -0.4933926884523E-02
 0.8884801651412E-04 -0.5394136705750E-02
 0.8867938685500E-04 -0.5852251692433E-02
 0.8740635841768E-04 -0.6307334798076E-02
 0.8514150248130E-04 -0.6758474311321E-02
 0.8201642067346E-04 -0.7204786838759E-02
 0.7818456977907E-04 -0.7645425527137E-02
 0.7382629899922E-04 -0.8079566181517E-02
 0.6915504198187E-04 -0.8506456069250E-02
 0.6442551852320E-04 -0.8925393422899E-02
 0.5994225486589E-04 -0.9335770612455E-02
 0.5606858338585E-04 -0.9737102515869E-02
 0.5323515663639E-04 -0.1012906501120E-01
 0.5194796504002E-04 -0.1051154488316E-01
 0.5279714837408E-04 -0.1088469702089E-01
 0.5645623621074E-04 -0.1124900327535E-01
 0.6367739493759E-04 -0.1160533302930E-01
 0.7528069802264E-04 -0.1195500481013E-01
 0.9213301734903E-04 -0.1229984642417E-01
 0.1151127848122E-03 -0.1264223382708E-01
 0.1450582612050E-03 -0.1298510164803E-01
 0.1826982867925E-03 -0.1333190316937E-01
 0.2285683280959E-03 -0.1368651332946E-01
 0.2829034671985E-03 -0.1405309949689E-01
 0.3455299261976E-03 -0.1443592244857E-01
 0.4157987463304E-03 -0.1483902761801E-01
 0.4925484570238E-03 -0.1526592580689E-01
 0.5741243246347E-03 -0.1571927148961E-01
 0.6584668485971E-03 -0.1620057703998E-01
 0.7432754497481E-03 -0.1670999542311E-01
 0.1530872252129E-04 -0.4245805528197E-03
 0.3058110806920E-04 -0.8555217931059E-03
 0.4544699429567E-04 -0.1292629723246E-02
 0.5955073628536E-04 -0.1735515266887E-02
 0.7257129896709E-04 -0.2183621201668E-02
 0.8423917563075E-04 -0.2636240951520E-02
 0.9434756215298E-04 -0.3092550342669E-02
 0.1027563624921E-03 -0.3551643200180E-02
 0.1093896719545E-03 -0.4012562041282E-02
 0.1142288247425E-03 -0.4474326185782E-02
 0.1173032673291E-03 -0.4935952552100E-02
 0.1186813907054E-03 -0.5396469287354E-02
 0.1184629017066E-03 -0.5854925231621E-02
 0.1167736889195E-03 -0.6310393425579E-02
 0.1137636738124E-03 -0.6761972560046E-02
 0.1096077261512E-03 -0.7208789225859E-02
 0.1045094485721E-03 -0.7650005438819E-02
 0.9870790993177E-04 -0.8084804039044E-02
 0.9248591973395E-04 -0.8512436850191E-02
 0.8618098486998E-04 -0.8932203410679E-02
 0.8019670455564E-04 -0.9343493430558E-02
 0.7501482602987E-04 -0.9745814404779E-02
 0.7120668887966E-04 -0.1013882937306E-01
 0.6944407209564E-04 -0.1052240661388E-01
 0.7051118505585E-04 -0.1089667865564E-01
 0.7530386929620E-04 -0.1126210064670E-01
 0.8482361538567E-04 -0.1161951002082E-01
 0.1001638174732E-03 -0.1197018821902E-01
 0.1224823661599E-03 -0.1231592245460E-01
 0.1529554755241E-03 -0.1265904796639E-01
 0.1927094002760E-03 -0.1300246350321E-01
 0.2427284014260E-03 -0.1334959733937E-01
 0.3037423752929E-03 -0.1370431645009E-01
 0.3760828985204E-03 -0.1407079909621E-01
 0.4595361043707E-03 -0.1445333661271E-01
 0.5532504165284E-03 -0.1485602556468E-01
 0.6556828612203E-03 -0.1528244008343E-01
 0.7646217751978E-03 -0.1573529671112E-01
 0.8773038566204E-03 -0.1621615297772E-01
 0.9906338803823E-03 -0.1672517620938E-01
 0.1919213010490E-04 -0.4246189238407E-03
 0.3833877460839E-04 -0.8556551363617E-03
 0.5697449187023E-04 -0.1292912013910E-02
 0.7465172750254E-04 -0.1735994633523E-02
 0.9096686807594E-04 -0.2184337357935E-02
 0.1055819810194E-03 -0.2637224212555E-02
 0.1182389212164E-03 -0.3093822578665E-02
 0.1287640941946E-03 -0.3553220501852E-02
 0.1370648538979E-03 -0.4014458494395E-02
 0.1431203174247E-03 -0.4476558040441E-02
 0.1469695424288E-03 -0.4938542159255E-02
 0.1486997835864E-03 -0.5399448365278E-02
 0.1484368001527E-03 -0.5858337227139E-02
 0.1463383775415E-03 -0.6314294887352E-02
 0.1425916382170E-03 -0.6766433534131E-02
 0.1374142092340E-03 -0.7213892719919E-02
 0.1310589827820E-03 -0.7655846003704E-02
 0.1238225599070E-03 -0.8091485440491E-02
 0.1160556221930E-03 -0.8520068923512E-02
 0.1081766602509E-03 -0.8940897933258E-02
 0.1006862709909E-03 -0.9353359080010E-02
 0.9418231471112E-04 -0.9756950743659E-02
 0.8937436481044E-04 -0.1015131988418E-01
 0.8709751317839E-04 -0.1053631143873E-01
 0.8832774273906E-04 -0.1091202961517E-01
 0.9418126713838E-04 -0.1127889560569E-01
 0.1059076128670E-03 -0.1163770603957E-01
 0.1248733335058E-03 -0.1198969476175E-01
 0.1525289397699E-03 -0.1233659658976E-01
 0.1903525061952E-03 -0.1268069381982E-01
 0.2397654689619E-03 -0.1302483804622E-01
 0.3020181221210E-03 -0.1337242399898E-01
 0.3780485267750E-03 -0.1372730686188E-01
 0.4683005728835E-03 -0.1409367750075E-01
 0.5725360781037E-03 -0.1447586567795E-01
 0.6897132031358E-03 -0.1487803375326E-01
 0.8179128794517E-03 -0.1530383834822E-01
 0.9543622501371E-03 -0.1575607760753E-01
 0.1095579367533E-02 -0.1623636910680E-01
 0.1237650224212E-02 -0.1674490026864E-01
 0.2311318947367E-04 -0.4246664110516E-03
 0.4617180368106E-04 -0.8558194658062E-03
 0.6861315959067E-04 -0.1293259230313E-02
 0.8989567532317E-04 -0.1736583343227E-02
 0.1095315515431E-03 -0.2185215480651E-02
 0.1271137382962E-03 -0.2638427790871E-02
 0.1423330495900E-03 -0.3095377058904E-02
 0.1549834918535E-03 -0.3555144157794E-02
 0.1649572447512E-03 -0.4016767200134E-02
 0.1722328974508E-03 -0.4479270481540E-02
 0.1768606501818E-03 -0.4941684703571E-02
 0.1789478104068E-03 -0.5403059067933E-02
 0.1786469404354E-03 -0.5862468701067E-02
 0.1761480022053E-03 -0.6319015958413E-02
 0.1716751318992E-03 -0.6771829709011E-02
 0.1654880785093E-03 -0.7220065533172E-02
 0.1578879613514E-03 -0.7662911307612E-02
 0.1492274415964E-03 -0.8099570604936E-02
 0.1399232086371E-03 -0.8529309055690E-02
 0.1304724994685E-03 -0.8951430912373E-02
 0.1214703305944E-03 -0.9365319482960E-02
 0.1136278099305E-03 -0.9770462581826E-02
 0.1077896809427E-03 -0.1016648816872E-01
 0.1049512408958E-03 -0.1055321334820E-01
 0.1062773404470E-03 -0.1093070837886E-01
 0.1131020727284E-03 -0.1129935354049E-01
 0.1269212793060E-03 -0.1165989603014E-01
 0.1493743109343E-03 -0.1201351168257E-01
 0.1822060921691E-03 -0.1236187099886E-01
 0.2272014223436E-03 -0.1270719069644E-01
 0.2860856926829E-03 -0.1305226319513E-01
 0.3603883827686E-03 -0.1340044009686E-01
 0.4512729623703E-03 -0.1375555976228E-01
 0.5593157440735E-03 -0.1412182625459E-01
 0.6842745563998E-03 -0.1450361490259E-01
 0.8249335236722E-03 -0.1490516850197E-01
 0.9790049754121E-03 -0.1533024611496E-01
 0.1143149953662E-02 -0.1578174841270E-01
 0.1313149288177E-02 -0.1626136944127E-01
 0.1484239617223E-02 -0.1676932370297E-01
 0.2707960914040E-04 -0.4247234393786E-03
 0.5409572844143E-04 -0.8560157515786E-03
 0.8038593622516E-04 -0.1293672939736E-02
 0.1053119580317E-03 -0.1737283420323E-02
 0.1282998183879E-03 -0.2186257652635E-02
 0.1488725315735E-03 -0.2639853185157E-02
 0.1666702955566E-03 -0.3097213891467E-02
 0.1814561226122E-03 -0.3557412023862E-02
 0.1931089771869E-03 -0.4019482945075E-02
 0.2016090032724E-03 -0.4482454521853E-02
 0.2070194114441E-03 -0.4945366863210E-02
 0.2094689988497E-03 -0.5407283323807E-02
 0.2091380302321E-03 -0.5867296548865E-02
 0.2062489752178E-03 -0.6324528332181E-02
 0.2010627573759E-03 -0.6778127510159E-02
 0.1938804897641E-03 -0.7227268860735E-02
 0.1850502556037E-03 -0.7671157470419E-02
 0.1749790278751E-03 -0.8109010877374E-02
 0.1641472895863E-03 -0.8540104301413E-02
 0.1531283644996E-03 -0.8963745829698E-02
 0.1426086191305E-03 -0.9379315552194E-02
 0.1334089889116E-03 -0.9786289609687E-02
 0.1265057167119E-03 -0.1018427443414E-01
 0.1230505597399E-03 -0.1057305523101E-01
 0.1243937003856E-03 -0.1095266309526E-01
 0.1320840247053E-03 -0.1132343081814E-01
 0.1478614662981E-03 -0.1168604784037E-01
 0.1736375055687E-03 -0.1204162172332E-01
 0.2114533280411E-03 -0.1239174662721E-01
 0.2634059468867E-03 -0.1273856059239E-01
 0.3315349145111E-03 -0.1308478395931E-01
 0.4176644939138E-03 -0.1343371433668E-01
 0.5232043449751E-03 -0.1378916671870E-01
 0.6488878130749E-03 -0.1415535750919E-01
 0.7944940304798E-03 -0.1453671375146E-01
 0.9586537391840E-03 -0.1493757321539E-01
 0.1138720779720E-02 -0.1536181830609E-01
 0.1330784854403E-02 -0.1581247489148E-01
 0.1529867238725E-02 -0.1629133184450E-01
 0.1730317929169E-02 -0.1679863927511E-01
 0.3109920900711E-04 -0.4247905787925E-03
 0.6212636414248E-04 -0.8562452897846E-03
 0.9231618630704E-04 -0.1294155231853E-02
 0.1209304233721E-03 -0.1738097572330E-02
 0.1473065177199E-03 -0.2187466701451E-02
 0.1708966138179E-03 -0.2641502547693E-02
 0.1912908847048E-03 -0.3099333566167E-02
 0.2082231104348E-03 -0.3560021885419E-02
 0.2215614358759E-03 -0.4022599834550E-02
 0.2312900658749E-03 -0.4486099756167E-02
 0.2374874398683E-03 -0.4949573069218E-02
 0.2403055325285E-03 -0.5412099921449E-02
 0.2399533565083E-03 -0.5872793591249E-02
 0.2366862680658E-03 -0.6330798666097E-02
 0.2308017112487E-03 -0.6785287351309E-02
 0.2226412850670E-03 -0.7235456907056E-02
 0.2125985790873E-03 -0.7680532653183E-02
 0.2011328636803E-03 -0.8119748705933E-02
 0.1887858642234E-03 -0.8552391937499E-02
 0.1762039236114E-03 -0.8977775601574E-02
 0.1641612113206E-03 -0.9395276988661E-02
 0.1535845270350E-03 -0.9804359859728E-02
 0.1455773410028E-03 -0.1020460705627E-01
 0.1414434816992E-03 -0.1059576832607E-01
 0.1427142751720E-03 -0.1097783088887E-01
 0.1511496736657E-03 -0.1135107394335E-01
 0.1687308971843E-03 -0.1171612124388E-01
 0.1976404598177E-03 -0.1207400204218E-01
 0.2402175406624E-03 -0.1242622206925E-01
 0.2988772800594E-03 -0.1277482710291E-01
 0.3759848317934E-03 -0.1312245149600E-01
 0.4736771500249E-03 -0.1347232648811E-01
 0.5936344133781E-03 -0.1382823532350E-01
 0.7367763456915E-03 -0.1419440406346E-01
 0.9029341413671E-03 -0.1457531629555E-01
 0.1090610941886E-02 -0.1497541906109E-01
 0.1296815529066E-02 -0.1539874011059E-01
 0.1517061107958E-02 -0.1584845532026E-01
 0.1745583274820E-02 -0.1632646911791E-01
 0.1975801025897E-02 -0.1683307759235E-01
 0.3517995178610E-04 -0.4248685812832E-03
 0.7027988385272E-04 -0.8565097841321E-03
 0.1044278106673E-03 -0.1294708847861E-02
 0.1367815073092E-03 -0.1739029359835E-02
 0.1665869740944E-03 -0.2188846393955E-02
 0.1932244536351E-03 -0.2643378883170E-02
 0.2162349054130E-03 -0.3101737139334E-02
 0.2353250598985E-03 -0.3562971616449E-02
 0.2503551277674E-03 -0.4026111422419E-02
 0.2613163376907E-03 -0.4490194464556E-02
 0.2683049419713E-03 -0.4954285588773E-02
 0.2714980331349E-03 -0.5417484579894E-02
 0.2711345585531E-03 -0.5878928637434E-02
 0.2675031824523E-03 -0.6337788640404E-02
 0.2609375595517E-03 -0.6793263687883E-02
 0.2518187789503E-03 -0.7244576929326E-02
 0.2405842922722E-03 -0.7690977083154E-02
 0.2277433988281E-03 -0.8131717636604E-02
 0.2138961934320E-03 -0.8566099412213E-02
 0.1997585796128E-03 -0.8993442464804E-02
 0.1861885224516E-03 -0.9413122083131E-02
 0.1742141942144E-03 -0.9824589401614E-02
 0.1650614278395E-03 -0.1022740214505E-01
 0.1601810882730E-03 -0.1062127163790E-01
 0.1612807841267E-03 -0.1100613710961E-01
 0.1703271186530E-03 -0.1138221863638E-01
 0.1895391223451E-03 -0.1175006685719E-01
 0.2213686798112E-03 -0.1211062300471E-01
 0.2684543870368E-03 -0.1246529229896E-01
 0.3335356091607E-03 -0.1281601419137E-01
 0.4193155272700E-03 -0.1316532204510E-01
 0.5282638182363E-03 -0.1351636662521E-01
 0.6623590326991E-03 -0.1387288885326E-01
 0.8227416016680E-03 -0.1423911950408E-01
 0.1009331589846E-02 -0.1461960180859E-01
 0.1220536311816E-02 -0.1501890591887E-01
 0.1453037132792E-02 -0.1544122815905E-01
 0.1701766224767E-02 -0.1588992181467E-01
 0.1960143516238E-02 -0.1636703047668E-01
 0.2220605102537E-02 -0.1687290871761E-01
 0.3932998092080E-04 -0.4249584266277E-03
 0.7857290783572E-04 -0.8568114468827E-03
 0.1167453740817E-03 -0.1295337339552E-02
 0.1528963671137E-03 -0.1740083404283E-02
 0.1861770889118E-03 -0.2190401671845E-02
 0.2158947772809E-03 -0.2645486286285E-02
 0.2415422793512E-03 -0.3104426451227E-02
 0.2628019573491E-03 -0.3566259363537E-02
 0.2795295250679E-03 -0.4030010858453E-02
 0.2917266919221E-03 -0.4494725727760E-02
 0.2995104866618E-03 -0.4959484617210E-02
 0.3030853114723E-03 -0.5423410026405E-02
 0.3027213690134E-03 -0.5885666555522E-02
 0.2987410877456E-03 -0.6345455024405E-02
 0.2915139770724E-03 -0.6802005078008E-02
 0.2814595052665E-03 -0.7254569287654E-02
 0.2690571638198E-03 -0.7702423083191E-02
 0.2548637725835E-03 -0.8144842307910E-02
 0.2395346191307E-03 -0.8581144287393E-02
 0.2238513383884E-03 -0.9010657844958E-02
 0.2087512438151E-03 -0.9432757486295E-02
 0.1953588784770E-03 -0.9846881987373E-02
 0.1850169930159E-03 -0.1025256303711E-01
 0.1793178084909E-03 -0.1064947125052E-01
 0.1801396634250E-03 -0.1103749444694E-01
 0.1896506601292E-03 -0.1141678873682E-01
 0.2103034006438E-03 -0.1178782484069E-01
 0.2448167573618E-03 -0.1215144671692E-01
 0.2961296360886E-03 -0.1250894710646E-01
 0.3673116263312E-03 -0.1286214464278E-01
 0.4614170418354E-03 -0.1321345555139E-01
 0.5812701863316E-03 -0.1356593408835E-01
 0.7291792859082E-03 -0.1392326572505E-01
 0.9065450320879E-03 -0.1428967824634E-01
 0.1113419880938E-02 -0.1466977537677E-01
 0.1348154133953E-02 -0.1506826343409E-01
 0.1607124735982E-02 -0.1548953185355E-01
 0.1884679629167E-02 -0.1593714184187E-01
 0.2173389103337E-02 -0.1641330326014E-01
 0.2464646253947E-02 -0.1691844407581E-01
 0.4355766677790E-04 -0.4250613785374E-03
 0.8702261070039E-04 -0.8571531225286E-03
 0.1292942556395E-03 -0.1296045263387E-02
 0.1693070344623E-03 -0.1741265639430E-02
 0.2061134526950E-03 -0.2192138933291E-02
 0.2389466098933E-03 -0.2647830221458E-02
 0.2672527209195E-03 -0.3107404377369E-02
 0.2906930542318E-03 -0.3569883754261E-02
 0.3091228873770E-03 -0.4034291051748E-02
 0.3225584007312E-03 -0.4499679552744E-02
 0.3311407546800E-03 -0.4965148377107E-02
 0.3351040995581E-03 -0.5429846080441E-02
 0.3347513364407E-03 -0.5892968349715E-02
 0.3304391392303E-03 -0.6353749750737E-02
 0.3225724654471E-03 -0.6811454252501E-02
 0.3116079394754E-03 -0.7265367504252E-02
 0.2980651027185E-03 -0.7714795108680E-02
 0.2825455634274E-03 -0.8159038449428E-02
 0.2657563421660E-03 -0.8597434178095E-02
 0.2485406285302E-03 -0.9029322212621E-02
 0.2319102211732E-03 -0.9454077953436E-02
 0.2170805442716E-03 -0.9871128653266E-02
 0.2055052576585E-03 -0.1027997972194E-01
 0.1989116178500E-03 -0.1068025954575E-01
 0.1993424348890E-03 -0.1107180191280E-01
 0.2091613757308E-03 -0.1145469493408E-01
 0.2310495175119E-03 -0.1182932337855E-01
 0.2679894554586E-03 -0.1219642528671E-01
 0.3232205223543E-03 -0.1255716921559E-01
 0.4001481074643E-03 -0.1291323816354E-01
 0.5021910700904E-03 -0.1326691392324E-01
 0.6325517851304E-03 -0.1362113611096E-01
 0.7939027574885E-03 -0.1397951869136E-01
 0.9879499272209E-03 -0.1434627542953E-01
 0.1214929104285E-02 -0.1472606849775E-01
 0.1473180683588E-02 -0.1512375217388E-01
 0.1758806995308E-02 -0.1554393485852E-01
 0.2065570864444E-02 -0.1599041991580E-01
 0.2385154804726E-02 -0.1646561488330E-01
 0.2707839635716E-02 -0.1697003868882E-01
 0.4787166359822E-04 -0.4251790519124E-03
 0.9564685331281E-04 -0.8575384361696E-03
 0.1421008332856E-03 -0.1296838412602E-02
 0.1860466037135E-03 -0.1742583609492E-02
 0.2264334869148E-03 -0.2194066362326E-02
 0.2624193389883E-03 -0.2650417844036E-02
 0.2934057145456E-03 -0.3110675110756E-02
 0.3190367688515E-03 -0.3573844125335E-02
 0.3391721074550E-03 -0.4038944845227E-02
 0.3538469451911E-03 -0.4505041004443E-02
 0.3632303288709E-03 -0.4971253222510E-02
 0.3675888319671E-03 -0.5436759744863E-02
 0.3672596037711E-03 -0.5900791249089E-02
 0.3626340567077E-03 -0.6362620006896E-02
 0.3541521335196E-03 -0.6821548208503E-02
 0.3423062825811E-03 -0.7276898352823E-02
 0.3276539490087E-03 -0.7728009820930E-02
 0.3108385920715E-03 -0.8174212922453E-02
 0.2926152460334E-03 -0.8614866739122E-02
 0.2738841575774E-03 -0.9049324989941E-02
 0.2557263592227E-03 -0.9476966141003E-02
 0.2394422054624E-03 -0.9897207372734E-02
 0.2265897156581E-03 -0.1030952831500E-01
 0.2190242327774E-03 -0.1071351445994E-01
 0.2189460674312E-03 -0.1110894384879E-01
 0.2289076954749E-03 -0.1149583350128E-01
 0.2518126243431E-03 -0.1187447713449E-01
 0.2909028581146E-03 -0.1224549902847E-01
 0.3497172338474E-03 -0.1260993231143E-01
 0.4320017244437E-03 -0.1296930936695E-01
 0.5415530136228E-03 -0.1332575917562E-01
 0.6819761040053E-03 -0.1368208636844E-01
 0.8563454315365E-03 -0.1404181404722E-01
 0.1066722755430E-02 -0.1440912696658E-01
 0.1313586416359E-02 -0.1478874000675E-01
 0.1595323774206E-02 -0.1518566526233E-01
 0.1907801008990E-02 -0.1560475714397E-01
 0.2244198594027E-02 -0.1605009985135E-01
 0.2595268710277E-02 -0.1652433540669E-01
 0.2950099883343E-02 -0.1702809416731E-01
 0.5228097868302E-04 -0.4253134962748E-03
 0.1044643391299E-03 -0.8579719768965E-03
 0.1551926954360E-03 -0.1297724102009E-02
 0.2031494360323E-03 -0.1744046830775E-02
 0.2471755799885E-03 -0.2196194321965E-02
 0.2863527472639E-03 -0.2653258375955E-02
 0.3200404394543E-03 -0.3114244484031E-02
 0.3478705195872E-03 -0.3578140775866E-02
 0.3697124779708E-03 -0.4043965203304E-02
 0.3856257394688E-03 -0.4510794342924E-02
 0.3958113936899E-03 -0.4977773744581E-02
 0.4005713317051E-03 -0.5444115297131E-02
 0.4002785861481E-03 -0.5909088796119E-02
 0.3953597964900E-03 -0.6372008326176E-02
 0.3862893644036E-03 -0.6832218301024E-02
 0.3735941244897E-03 -0.7289081942293E-02
 0.3578671362314E-03 -0.7741976148533E-02
 0.3397905882140E-03 -0.8190263738662E-02
 0.3201635761362E-03 -0.8633329615238E-02
 0.2999386153186E-03 -0.9070544401510E-02
 0.2802603642286E-03 -0.9501292322343E-02
 0.2625077270377E-03 -0.9924982596577E-02
 0.2483360198388E-03 -0.1034107037823E-01
 0.2397211138170E-03 -0.1074909853922E-01
 0.2390131383020E-03 -0.1114878867243E-01
 0.2489457709208E-03 -0.1154008469710E-01
 0.2726378719570E-03 -0.1192318529215E-01
 0.3135853237875E-03 -0.1229859415864E-01
 0.3756242250731E-03 -0.1266719846071E-01
 0.4628447153557E-03 -0.1303036506012E-01
 0.5794339275695E-03 -0.1339005080894E-01
 0.7294246157130E-03 -0.1374890274620E-01
 0.9163334590743E-03 -0.1411033011017E-01
 0.1142634228369E-02 -0.1447846899915E-01
 0.1409115962846E-02 -0.1485807660111E-01
 0.1714281316239E-02 -0.1525432980781E-01
 0.2053809778472E-02 -0.1567235691704E-01
 0.2420307799003E-02 -0.1611656687822E-01
 0.2803549999462E-02 -0.1658987999694E-01
 0.3191339270837E-02 -0.1709306178966E-01
 0.5679505818089E-04 -0.4254672956515E-03
 0.1134948084217E-03 -0.8584595175611E-03
 0.1685989031762E-03 -0.1298711507675E-02
 0.2206514129324E-03 -0.1745667217873E-02
 0.2683792622723E-03 -0.2198535808959E-02
 0.3107870736222E-03 -0.2656363529533E-02
 0.3471957182595E-03 -0.3118120321750E-02
 0.3772305859342E-03 -0.3582775234241E-02
 0.4007774967815E-03 -0.4049345402150E-02
 0.4179259077448E-03 -0.4516923158507E-02
 0.4289135021322E-03 -0.4984682876237E-02
 0.4340805765845E-03 -0.5451874384685E-02
 0.4338377395450E-03 -0.5917810947318E-02
 0.4286473212005E-03 -0.6381852700376E-02
 0.4190175839224E-03 -0.6843390366966E-02
 0.4055082089233E-03 -0.7301831844393E-02
 0.3887454523543E-03 -0.7756595404285E-02
 0.3694469496402E-03 -0.8207080146210E-02
 0.3484517024437E-03 -0.8652700470669E-02
 0.3267594490366E-03 -0.9092847416101E-02
 0.3055725450321E-03 -0.9526914205143E-02
 0.2863416701645E-03 -0.9954304904303E-02
 0.2708118961806E-03 -0.1037445235871E-01
 0.2610714834425E-03 -0.1078685811541E-01
 0.2596120008609E-03 -0.1119118774013E-01
 0.2693398532650E-03 -0.1158731127104E-01
 0.2935810731526E-03 -0.1197532967393E-01
 0.3360785150522E-03 -0.1235562053181E-01
 0.4009616907658E-03 -0.1272891552411E-01
 0.4926668457254E-03 -0.1309640147341E-01
 0.6157829357046E-03 -0.1345984309796E-01
 0.7747954813850E-03 -0.1382170502993E-01
 0.9737058183611E-03 -0.1418525570736E-01
 0.1215461424005E-02 -0.1455455753368E-01
 0.1501239925205E-02 -0.1493439380004E-01
 0.1829740948123E-02 -0.1533010904134E-01
 0.2196520659901E-02 -0.1574713342222E-01
 0.2593628127471E-02 -0.1619025055142E-01
 0.3009808486581E-02 -0.1666271213882E-01
 0.3431468026122E-02 -0.1716544662681E-01
 0.6142389249878E-04 -0.4256436917391E-03
 0.1227592732568E-03 -0.8590082850427E-03
 0.1823502992053E-03 -0.1299812081244E-02
 0.2385902216019E-03 -0.1747459596003E-02
 0.2900853846045E-03 -0.2201106989098E-02
 0.3357630486820E-03 -0.2659747992932E-02
 0.3749099188290E-03 -0.3122312830481E-02
 0.4071519116627E-03 -0.3587750541771E-02
 0.4323986109639E-03 -0.4055079222413E-02
 0.4507760005871E-03 -0.4523410502373E-02
 0.4625632837546E-03 -0.4991951991002E-02
 0.4681424073658E-03 -0.5459996116807E-02
 0.4679632700566E-03 -0.5926904174220E-02
 0.4625243072186E-03 -0.6392086696871E-02
 0.4523669618891E-03 -0.6854984856687E-02
 0.4380821248232E-03 -0.7315055230382E-02
 0.4203267195160E-03 -0.7771761410695E-02
 0.3998504113346E-03 -0.8224542721087E-02
 0.3775277823355E-03 -0.8672847017183E-02
 0.3544005280868E-03 -0.9116089676326E-02
 0.3317224913723E-03 -0.9553676721530E-02
 0.3110090011789E-03 -0.9985010607303E-02
 0.2940869072485E-03 -0.1040950495134E-01
 0.2831481775676E-03 -0.1082662236959E-01
 0.2808167712690E-03 -0.1123597405006E-01
 0.2901624792109E-03 -0.1163735674646E-01
 0.3147091702631E-03 -0.1203077255796E-01
 0.3584382456789E-03 -0.1241646897607E-01
 0.4257668928343E-03 -0.1279501405203E-01
 0.5214772890363E-03 -0.1316740085015E-01
 0.6505696605815E-03 -0.1353518163312E-01
 0.8180063786036E-03 -0.1390061179090E-01
 0.1028317174750E-02 -0.1426678789307E-01
 0.1284990085803E-02 -0.1463766746430E-01
 0.1589679547347E-02 -0.1501803656874E-01
 0.1941379223947E-02 -0.1541340448107E-01
 0.2335602770537E-02 -0.1582953003444E-01
 0.2763870784969E-02 -0.1627162783689E-01
 0.3213843055259E-02 -0.1674334676962E-01
 0.3670393708414E-02 -0.1724581198508E-01
 0.6617814680534E-04 -0.4258467356725E-03
 0.1322803053483E-03 -0.8596272924037E-03
 0.1964798779165E-03 -0.1301040054641E-02
 0.2570056838001E-03 -0.1749442314915E-02
 0.3123363084265E-03 -0.2203927823425E-02
 0.3613219117156E-03 -0.2663429980347E-02
 0.4032208191655E-03 -0.3126835023464E-02
 0.4376678655629E-03 -0.3593071546185E-02
 0.4646049219761E-03 -0.4061161136783E-02
 0.4842016798818E-03 -0.4530239006394E-02
 0.4967841287143E-03 -0.4999550992309E-02
 0.5027792173299E-03 -0.5468437152152E-02
 0.5026778272147E-03 -0.5936311567038E-02
 0.4970148358701E-03 -0.6402639585712E-02
 0.4863640941932E-03 -0.6866916982427E-02
 0.4713459732226E-03 -0.7328653030357E-02
 0.4526454417561E-03 -0.7787360652185E-02
 0.4310406731819E-03 -0.8242523487188E-02
 0.4074373709140E-03 -0.8693627070310E-02
 0.3829137432093E-03 -0.9140115452775E-02
 0.3587686725770E-03 -0.9581411835227E-02
 0.3365747048869E-03 -0.1001692135706E-01
 0.3182321023303E-03 -0.1044604244862E-01
 0.3060273654358E-03 -0.1086820235639E-01
 0.3027071664485E-03 -0.1128296086798E-01
 0.3114944958659E-03 -0.1169004357345E-01
 0.3361005404221E-03 -0.1208935429118E-01
 0.3807351841537E-03 -0.1248100832585E-01
 0.4500953946427E-03 -0.1286540375334E-01
 0.5493065105411E-03 -0.1324332746654E-01
 0.6837868046916E-03 -0.1361609915343E-01
 0.8589976689632E-03 -0.1398573646902E-01
 0.1080041265144E-02 -0.1435512887220E-01
 0.1351017544731E-02 -0.1472809095926E-01
 0.1674156706308E-02 -0.1510937961515E-01
 0.2048861009703E-02 -0.1550465823034E-01
 0.2470703957246E-02 -0.1592003797159E-01
 0.2930724413374E-02 -0.1636122671061E-01
 0.3415439750335E-02 -0.1683235328535E-01
 0.3908021396231E-02 -0.1733478411548E-01
 0.7106932389067E-04 -0.4260814734830E-03
 0.1420823940843E-03 -0.8603277443129E-03
 0.2110232391887E-03 -0.1302413050413E-02
 0.2759401509977E-03 -0.1751637977503E-02
 0.3351761303650E-03 -0.2207022790517E-02
 0.3875054368342E-03 -0.2667431842319E-02
 0.4321654736065E-03 -0.3131703167730E-02
 0.4688100121177E-03 -0.3598745189572E-02
 0.4974229193644E-03 -0.4067586477571E-02
 0.5182254540966E-03 -0.4537390980522E-02
 0.5315959424980E-03 -0.5007448386209E-02
 0.5380097292405E-03 -0.5477151780390E-02
 0.5380002970782E-03 -0.5945972945719E-02
 0.5321391925089E-03 -0.6413436488807E-02
 0.5210317968777E-03 -0.6879096904491E-02
 0.5053261464327E-03 -0.7342520146918E-02
 0.4857325618029E-03 -0.7803272499210E-02
 0.4630541300747E-03 -0.8260886126855E-02
 0.4382231238729E-03 -0.8714888715580E-02
 0.4123486854837E-03 -0.9164757728666E-02
 0.3867680999441E-03 -0.9609938500598E-02
 0.3631034425334E-03 -0.1004984392703E-01
 0.3433196903657E-03 -0.1048386228510E-01
 0.3297882685734E-03 -0.1091139024126E-01
 0.3253683179238E-03 -0.1133194057807E-01
 0.3334250433997E-03 -0.1174517150656E-01
 0.3578452531438E-03 -0.1215089110861E-01
 0.4030555286896E-03 -0.1254908261542E-01
 0.4740223278714E-03 -0.1293997004625E-01
 0.5762083078197E-03 -0.1332412362426E-01
 0.7154530950175E-03 -0.1370261123015E-01
 0.8977362183895E-03 -0.1407718321941E-01
 0.1128775275759E-02 -0.1445048269549E-01
 0.1413356927157E-02 -0.1482613581685E-01
 0.1754396902430E-02 -0.1520882801853E-01
 0.2151840213609E-02 -0.1560435615453E-01
 0.2601448615692E-02 -0.1601920172627E-01
 0.3093850995722E-02 -0.1645963173191E-01
 0.3614370996506E-02 -0.1693035897709E-01
 0.4144258334897E-02 -0.1743305804938E-01
 0.7610996698960E-04 -0.4263541811382E-03
 0.1521923835241E-03 -0.8611235476425E-03
 0.2260191209858E-03 -0.1303952840709E-02
 0.2954389331434E-03 -0.1754074326791E-02
 0.3586508762556E-03 -0.2210421739634E-02
 0.4143558737722E-03 -0.2671780758551E-02
 0.4617799606192E-03 -0.3136937265592E-02
 0.5006077501604E-03 -0.3604780796266E-02
 0.5308760795774E-03 -0.4074351586513E-02
 0.5528662786602E-03 -0.4544848487784E-02
 0.5670147641888E-03 -0.5015611334623E-02
 0.5738486311570E-03 -0.5486091990235E-02
 0.5739454464805E-03 -0.5955824963102E-02
 0.5679135067327E-03 -0.6424398525131E-02
 0.5563887296829E-03 -0.6891429914586E-02
 0.5400449238910E-03 -0.7356545663562E-02
 0.5196150209350E-03 -0.7819369420350E-02
 0.4959233910053E-03 -0.8279486167355E-02
 0.4699242749497E-03 -0.8736470432361E-02
 0.4427520851709E-03 -0.9189838216509E-02
 0.4157757336646E-03 -0.9639062519892E-02
 0.3906589375145E-03 -0.1008356984967E-01
 0.3694224213198E-03 -0.1052274438321E-01
 0.3545125655490E-03 -0.1095595827210E-01
 0.3488902453855E-03 -0.1138268318388E-01
 0.3560511691793E-03 -0.1180251552646E-01
 0.3800449326723E-03 -0.1221517235982E-01
 0.4255012695637E-03 -0.1262050750365E-01
 0.4976432519204E-03 -0.1301856961733E-01
 0.6022614912253E-03 -0.1340970438061E-01
 0.7456159749594E-03 -0.1379471039072E-01
 0.9342191381049E-03 -0.1417504092444E-01
 0.1174444322346E-02 -0.1455304997413E-01
 0.1471841583312E-02 -0.1493212187473E-01
 0.1830132209364E-02 -0.1531681639113E-01
 0.2249960013273E-02 -0.1571302982651E-01
 0.2727433899375E-02 -0.1612762474842E-01
 0.3252877949261E-02 -0.1656749074038E-01
 0.3810389810762E-02 -0.1703805154062E-01
 0.4379022166297E-02 -0.1754140116785E-01
 0.8131391590670E-04 -0.4266726572458E-03
 0.1626400209309E-03 -0.8620319436250E-03
 0.2415100547644E-03 -0.1305686275619E-02
 0.3155508095530E-03 -0.1756785304100E-02
 0.3828087224830E-03 -0.2214160870528E-02
 0.4419158820262E-03 -0.2676509492180E-02
 0.4920991219628E-03 -0.3142561539255E-02
 0.5330879652311E-03 -0.3611190327607E-02
 0.5649845116781E-03 -0.4081453918288E-02
 0.5881392369220E-03 -0.4552593376534E-02
 0.6030524942158E-03 -0.5024005678817E-02
 0.6103063443329E-03 -0.5495207525021E-02
 0.6105237159163E-03 -0.5965801214763E-02
 0.6043495524455E-03 -0.6435442982798E-02
 0.5924491858587E-03 -0.6903816667375E-02
 0.5755202362256E-03 -0.7370613124323E-02
 0.5543154846909E-03 -0.7835517290733E-02
 0.5296769574633E-03 -0.8298171291106E-02
 0.5025762621920E-03 -0.8758201371376E-02
 0.4741673851275E-03 -0.9215167561024E-02
 0.4458440063134E-03 -0.9668576622242E-02
 0.4193034555736E-03 -0.1011787531370E-01
 0.3966130354947E-03 -0.1056245080003E-01
 0.3802838338750E-03 -0.1100165809289E-01
 0.3733673338874E-03 -0.1143493518907E-01
 0.3794774130070E-03 -0.1186182416825E-01
 0.4028125670232E-03 -0.1228195814834E-01
 0.4481903947584E-03 -0.1269506708234E-01
 0.5210749964163E-03 -0.1310102628213E-01
 0.6275716637515E-03 -0.1349995243333E-01
 0.7743546320210E-03 -0.1389236019068E-01
 0.9684782444523E-03 -0.1427937693871E-01
 0.1217007189134E-02 -0.1466302218927E-01
 0.1526331272547E-02 -0.1504637717190E-01
 0.1901106572408E-02 -0.1543380802630E-01
 0.2342854678159E-02 -0.1583126010868E-01
 0.2848229320213E-02 -0.1624597434289E-01
 0.3407388616152E-02 -0.1668553212771E-01
 0.4003223295101E-02 -0.1715617480955E-01
 0.4612258813686E-02 -0.1766067200365E-01
 0.8669663119690E-04 -0.4270466002220E-03
 0.1734586390958E-03 -0.8630743058994E-03
 0.2575431505175E-03 -0.1307646444270E-02
 0.3363285922153E-03 -0.1759812332565E-02
 0.4077001798244E-03 -0.2218283874953E-02
 0.4702283677091E-03 -0.2681657218838E-02
 0.5231561859912E-03 -0.3148604918285E-02
 0.5662745750095E-03 -0.3617988598300E-02
 0.5997645150744E-03 -0.4088892092498E-02
 0.6240551504744E-03 -0.4560607265792E-02
 0.6397165626733E-03 -0.5032595928604E-02
 0.6473887364891E-03 -0.5504445918496E-02
 0.6477409575262E-03 -0.5975832342559E-02
 0.6414544890583E-03 -0.6446483496342E-02
 0.6292228164338E-03 -0.6916153426754E-02
 0.6117653548747E-03 -0.7384600835620E-02
 0.5898519832388E-03 -0.7851575727953E-02
 0.5643388037847E-03 -0.8316781675948E-02
 0.5362102418771E-03 -0.8779901661298E-02
 0.5066341861453E-03 -0.9240545566039E-02
 0.4770222008562E-03 -0.9698260556942E-02
 0.4490971194647E-03 -0.1015252106094E-01
 0.4249635230649E-03 -0.1060272535357E-01
 0.4071867721325E-03 -0.1104822000923E-01
 0.3988975546131E-03 -0.1148841839102E-01
 0.4038150930454E-03 -0.1192281770625E-01
 0.4262719715431E-03 -0.1235097674233E-01
 0.4712567087465E-03 -0.1277251032563E-01
 0.5444560978016E-03 -0.1318712629039E-01
 0.6522726310755E-03 -0.1359471216718E-01
 0.8017827920942E-03 -0.1399548807711E-01
 0.1000584575672E-02 -0.1439022920876E-01
 0.1256462535778E-02 -0.1478057404810E-01
 0.1576719363369E-02 -0.1516923205045E-01
 0.1967081976485E-02 -0.1556029258810E-01
 0.2430153352048E-02 -0.1595967913847E-01
 0.2963371424754E-02 -0.1637499065514E-01
 0.3556928743609E-02 -0.1681456651273E-01
 0.4192511299485E-02 -0.1728559079046E-01
 0.4844071308295E-02 -0.1779170720856E-01
 0.9227583906248E-04 -0.4274859385748E-03
 0.1846885890817E-03 -0.8642732356375E-03
 0.2741776675245E-03 -0.1309868785077E-02
 0.3578419473045E-03 -0.1763199633922E-02
 0.4333971000798E-03 -0.2222836580616E-02
 0.4993624680973E-03 -0.2687263680027E-02
 0.5550162924033E-03 -0.3155094956152E-02
 0.6002298852802E-03 -0.3625187239567E-02
 0.6352778102778E-03 -0.4096660183408E-02
 0.6606775407153E-03 -0.4568866448527E-02
 0.6770743493084E-03 -0.5041341118781E-02
 0.6851686413596E-03 -0.5513749756908E-02
 0.6856766324829E-03 -0.5985845327925E-02
 0.6793152626461E-03 -0.6457432224365E-02
 0.6668047113747E-03 -0.6928338257036E-02
 0.6488840782454E-03 -0.7398393520262E-02
 0.6263375728361E-03 -0.7867417018893E-02
 0.6000318253988E-03 -0.8335178402431E-02
 0.5709595733638E-03 -0.8801422934842E-02
 0.5402969565613E-03 -0.9265816932955E-02
 0.5094665190513E-03 -0.9727955605269E-02
 0.4802084378889E-03 -0.1018734969288E-01
 0.4546552278432E-03 -0.1064341817285E-01
 0.4354160839142E-03 -0.1109550959943E-01
 0.4256895520959E-03 -0.1154302366819E-01
 0.4292873896629E-03 -0.1198542442573E-01
 0.4506612169923E-03 -0.1242220867012E-01
 0.4949527510694E-03 -0.1285288814585E-01
 0.5680515004651E-03 -0.1327701296316E-01
 0.6766368208210E-03 -0.1369424559748E-01
 0.8281711285892E-03 -0.1410450505558E-01
 0.1030792295753E-02 -0.1450819038555E-01
 0.1293028166141E-02 -0.1490651075760E-01
 0.1623166907853E-02 -0.1530172600559E-01
 0.2028154314956E-02 -0.1569754647018E-01
 0.2511911952827E-02 -0.1609977580440E-01
 0.3072963194953E-02 -0.1651632879778E-01
 0.3701798465230E-02 -0.1695635679579E-01
 0.4378990572231E-02 -0.1742819002711E-01
 0.5075589677015E-02 -0.1793626964447E-01
 0.9807129408384E-04 -0.4280076298100E-03
 0.1963707013747E-03 -0.8656653791735E-03
 0.2914666214701E-03 -0.1312408584505E-02
 0.3801421651369E-03 -0.1767014533190E-02
 0.4599371267212E-03 -0.2227888247357E-02
 0.5293356488660E-03 -0.2693390123874E-02
 0.5876752963613E-03 -0.3162077612424E-02
 0.6349298761673E-03 -0.3632812879485E-02
 0.6714835479491E-03 -0.4104763955897E-02
 0.6979519299697E-03 -0.4577355710190E-02
 0.7150606022690E-03 -0.5050205423337E-02
 0.7235724354201E-03 -0.5523062837709E-02
 0.7242507754857E-03 -0.5995763345747E-02
 0.7178473630383E-03 -0.6468190824656E-02
 0.7051075234622E-03 -0.6940249698006E-02
 0.6867879671700E-03 -0.7411844303675E-02
 0.6636846042845E-03 -0.7882865945318E-02
 0.6366712462568E-03 -0.8353154459118E-02
 0.6067446579368E-03 -0.8822522577573E-02
 0.5750837685150E-03 -0.9290699483413E-02
 0.5431153106731E-03 -0.9757336158258E-02
 0.5125886618033E-03 -0.1022198867535E-01
 0.4856548506513E-03 -0.1068410700071E-01
 0.4649562977323E-03 -0.1114305316545E-01
 0.4537477358867E-03 -0.1159822561146E-01
 0.4559200175857E-03 -0.1204906895442E-01
 0.4760275235051E-03 -0.1249503324068E-01
 0.5193451995480E-03 -0.1293554327921E-01
 0.5919414326061E-03 -0.1337000681988E-01
 0.7007458458589E-03 -0.1379787266531E-01
 0.8535808593556E-03 -0.1421876082704E-01
 0.1059106695464E-02 -0.1463267916195E-01
 0.1326600418504E-02 -0.1504036542184E-01
 0.1665390493635E-02 -0.1544355067650E-01
 0.2083780494211E-02 -0.1584544933787E-01
 0.2587262911071E-02 -0.1625161814337E-01
 0.3175798249898E-02 -0.1667020827887E-01
 0.3840528060347E-02 -0.1711123113470E-01
 0.4561061985168E-02 -0.1758431699111E-01
 0.5305243385923E-02 -0.1809505734380E-01
 0.1041062986669E-03 -0.4286305401738E-03
 0.2085552550848E-03 -0.8672919882516E-03
 0.3094774125751E-03 -0.1315328065654E-02
 0.4032981872253E-03 -0.1771331779283E-02
 0.4873783109387E-03 -0.2233513912993E-02
 0.5601894074342E-03 -0.2700100641645E-02
 0.6211581544237E-03 -0.3169598609556E-02
 0.6703859742922E-03 -0.3640889469325E-02
 0.7083834467616E-03 -0.4113205006307E-02
 0.7358738027619E-03 -0.4586055131074E-02
 0.7536673181338E-03 -0.5059148641751E-02
 0.7625906703357E-03 -0.5532325720970E-02
 0.7634540066208E-03 -0.6005508288541E-02
 0.7570426618736E-03 -0.6478662533358E-02
 0.7441254094858E-03 -0.6951771787737E-02
 0.7254744986154E-03 -0.7424816994688E-02
 0.7018950307310E-03 -0.7897764670200E-02
 0.6742648562991E-03 -0.8370528707739E-02
 0.6435807268335E-03 -0.8842994445887E-02
 0.6110191300840E-03 -0.9314960548953E-02
 0.5780043727188E-03 -0.9786141945289E-02
 0.5462870058474E-03 -0.1025614976675E-01
 0.5180272501137E-03 -0.1072447624384E-01
 0.4958902726254E-03 -0.1119050967652E-01
 0.4831754907989E-03 -0.1165366124137E-01
 0.4838395049216E-03 -0.1211337188829E-01
 0.5025229347338E-03 -0.1256906293207E-01
 0.5446130197326E-03 -0.1302009224710E-01
 0.6163309751075E-03 -0.1346574586640E-01
 0.7248258814704E-03 -0.1390527731974E-01
 0.8782469684671E-03 -0.1433801851814E-01
 0.1085747828321E-02 -0.1476358073125E-01
 0.1357344790578E-02 -0.1518219596011E-01
 0.1703443889553E-02 -0.1559498772032E-01
 0.2133835922051E-02 -0.1600454283757E-01
 0.2655853379109E-02 -0.1641600915496E-01
 0.3271309889650E-02 -0.1683765193825E-01
 0.3972458042378E-02 -0.1728035720004E-01
 0.4738192532031E-02 -0.1775526582784E-01
 0.5532954990125E-02 -0.1826947783672E-01
 0.1104083408735E-03 -0.4293784283633E-03
 0.2213012576679E-03 -0.8692048025551E-03
 0.3282871418513E-03 -0.1318704297454E-02
 0.4273857024734E-03 -0.1776242175690E-02
 0.5157808499340E-03 -0.2239802620656E-02
 0.5919633333742E-03 -0.2707469460203E-02
 0.6554853246615E-03 -0.3177709729307E-02
 0.7066038797104E-03 -0.3649443692435E-02
 0.7459731558930E-03 -0.4121985342624E-02
 0.7744326662526E-03 -0.4594943755422E-02
 0.7928807449182E-03 -0.5068128707658E-02
 0.8022083525509E-03 -0.5541476647453E-02
 0.8032715052944E-03 -0.6014999461611E-02
 0.7968875733236E-03 -0.6488747772785E-02
 0.7838469369043E-03 -0.6962785451668E-02
 0.7649353384269E-03 -0.7437171820567E-02
 0.7409647240489E-03 -0.7911951043045E-02
 0.7128141039915E-03 -0.8387114610185E-02
 0.6814764928006E-03 -0.8862625468961E-02
 0.6481210174813E-03 -0.9338358492151E-02
 0.6141631963130E-03 -0.9814101116055E-02
 0.5813469097680E-03 -0.1028952992606E-01
 0.5518324159399E-03 -0.1076419164247E-01
 0.5282973862494E-03 -0.1123751487172E-01
 0.5140747593178E-03 -0.1170893901695E-01
 0.5131738736690E-03 -0.1217791907755E-01
 0.5303051411596E-03 -0.1264386836864E-01
 0.5709465854758E-03 -0.1310610169099E-01
 0.6414444443215E-03 -0.1356380949510E-01
 0.7491326877808E-03 -0.1401607611982E-01
 0.9024471002521E-03 -0.1446196658084E-01
 0.1110993525224E-02 -0.1490070277727E-01
 0.1385498948722E-02 -0.1533198913086E-01
 0.1737460442247E-02 -0.1575626908060E-01
 0.2178265934019E-02 -0.1617535935136E-01
 0.2717364819512E-02 -0.1659379949898E-01
 0.3358905680781E-02 -0.1701978762144E-01
 0.4096846355628E-02 -0.1746505677149E-01
 0.4909767791105E-02 -0.1794249645842E-01
 0.5758551495951E-02 -0.1846112859402E-01
 0.1170103304090E-03 -0.4302814268729E-03
 0.2346787699152E-03 -0.8714690838087E-03
 0.3479845686042E-03 -0.1322633041471E-02
 0.4524877532521E-03 -0.1781855973409E-02
 0.5452064614970E-03 -0.2246859531139E-02
 0.6246939113666E-03 -0.2715581732494E-02
 0.6906715625830E-03 -0.3186468716595E-02
 0.7435826193494E-03 -0.3658504468176E-02
 0.7842416062158E-03 -0.4131106822465E-02
 0.8136116413406E-03 -0.4603999134825E-02
 0.8326811352447E-03 -0.5077101404763E-02
 0.8424047905276E-03 -0.5550451442482E-02
 0.8436828986371E-03 -0.6024153669473E-02
 0.8373629426217E-03 -0.6498344408741E-02
 0.8242549384557E-03 -0.6973168918108E-02
 0.8051561309906E-03 -0.7448765986851E-02
 0.7808831695531E-03 -0.7925259285569E-02
 0.7523136678159E-03 -0.8402721011806E-02
 0.7204335748845E-03 -0.8881196487226E-02
 0.6864001375400E-03 -0.9360643542819E-02
 0.6516140581255E-03 -0.9840931006123E-02
 0.6178049499647E-03 -0.1032181193437E-01
 0.5871241840986E-03 -0.1080290067090E-01
 0.5622520296009E-03 -0.1128368135255E-01
 0.5465442934284E-03 -0.1176363850811E-01
 0.5440506414215E-03 -0.1224226071690E-01
 0.5595352563769E-03 -0.1271897658132E-01
 0.5985453166444E-03 -0.1319308541927E-01
 0.6675231046686E-03 -0.1366371373831E-01
 0.7739498612722E-03 -0.1412981086525E-01
 0.9265012621505E-03 -0.1459020774223E-01
 0.1135182115409E-02 -0.1504375970750E-01
 0.1411380664177E-02 -0.1548963980202E-01
 0.1767668131924E-02 -0.1592755317106E-01
 0.2217107462351E-02 -0.1635840076067E-01
 0.2771534732062E-02 -0.1678587651850E-01
 0.3437978041323E-02 -0.1721785621784E-01
 0.4212858788265E-02 -0.1766682417219E-01
 0.5075056939327E-02 -0.1814766284876E-01
 0.5981777324987E-02 -0.1867180305167E-01
 0.1239522832645E-03 -0.4313780815444E-03
 0.2487719426789E-03 -0.8741677311966E-03
 0.3686724041797E-03 -0.1327233742484E-02
 0.4786951250632E-03 -0.1788306960963E-02
 0.5757172858201E-03 -0.2254808152173E-02
 0.6584129065147E-03 -0.2724534080892E-02
 0.7267244730088E-03 -0.3195938838455E-02
 0.7813135063710E-03 -0.3668102163400E-02
 0.8231703557476E-03 -0.4140570389688E-02
 0.8533870887311E-03 -0.4613196748961E-02
 0.8730425490373E-03 -0.5086020016249E-02
 0.8831534942030E-03 -0.5559183391253E-02
 0.8846622002948E-03 -0.6032885300054E-02
 0.8784439817589E-03 -0.6507348025977E-02
 0.8653264101228E-03 -0.6982798170612E-02
 0.8461163272009E-03 -0.7459454294287E-02
 0.8216331911618E-03 -0.7937520758129E-02
 0.7927510457687E-03 -0.8417153032482E-02
 0.7604459234332E-03 -0.8898483226678E-02
 0.7258591685911E-03 -0.9381558795314E-02
 0.6903710671386E-03 -0.9866339083381E-02
 0.6556896834696E-03 -0.1035266521263E-01
 0.6239488589951E-03 -0.1084023315060E-01
 0.5978219750481E-03 -0.1132859891253E-01
 0.5806777311428E-03 -0.1181731034427E-01
 0.5765945761827E-03 -0.1230591076840E-01
 0.5903752397372E-03 -0.1279386966880E-01
 0.6276148034384E-03 -0.1328050191735E-01
 0.6948221344120E-03 -0.1376490699884E-01
 0.7995860241340E-03 -0.1424594157804E-01
 0.9507701141611E-03 -0.1472224785731E-01
 0.1158713550845E-02 -0.1519235572417E-01
 0.1435394599508E-02 -0.1565492703551E-01
 0.1794405334566E-02 -0.1610889507200E-01
 0.2250514796788E-02 -0.1655410858026E-01
 0.2818186372979E-02 -0.1699314573895E-01
 0.3507922323261E-02 -0.1743321531014E-01
 0.4319558734719E-02 -0.1788735149125E-01
 0.5233175608744E-02 -0.1837265056266E-01
 0.6202290001283E-02 -0.1890354683476E-01
 0.1312836589218E-03 -0.4327182188533E-03
 0.2636830137398E-03 -0.8774069401194E-03
 0.3904699341231E-03 -0.1332656044159E-02
 0.5061063111874E-03 -0.1795757339735E-02
 0.6073741143839E-03 -0.2263792550046E-02
 0.6931452392523E-03 -0.2734434711813E-02
 0.7636428091953E-03 -0.3206187972841E-02
 0.8197790292231E-03 -0.3678267451406E-02
 0.8627329550280E-03 -0.4150375088830E-02
 0.8937282883822E-03 -0.4622509300173E-02
 0.9139327168797E-03 -0.5094834910208E-02
 0.9244221326096E-03 -0.5567603089290E-02
 0.9261778023833E-03 -0.6041106409740E-02
 0.9201002535858E-03 -0.6515652223746E-02
 0.9070324534040E-03 -0.6991547438284E-02
 0.8877890522782E-03 -0.7469089813892E-02
 0.8631907094936E-03 -0.7948564809302E-02
 0.8341061658066E-03 -0.8430213071104E-02
 0.8014992473813E-03 -0.8914257419293E-02
 0.7664919795684E-03 -0.9400841381571E-02
 0.7304391643136E-03 -0.9890024091854E-02
 0.6950204213889E-03 -0.1038174685064E-01
 0.6623437416404E-03 -0.1087580208738E-01
 0.6350666205384E-03 -0.1137183511379E-01
 0.6165615054365E-03 -0.1186947645368E-01
 0.6109252163742E-03 -0.1236834674600E-01
 0.6229849784084E-03 -0.1286798391787E-01
 0.6583634218304E-03 -0.1336775242777E-01
 0.7236068183005E-03 -0.1386676644046E-01
 0.8263708456595E-03 -0.1436384012818E-01
 0.9756515691683E-03 -0.1485748509228E-01
 0.1182048346576E-02 -0.1534596722449E-01
 0.1458036980583E-02 -0.1582748724355E-01
 0.1818136160939E-02 -0.1630020993525E-01
 0.2278789287490E-02 -0.1676282312167E-01
 0.2857268234966E-02 -0.1721650025810E-01
 0.3568166381673E-02 -0.1766733654292E-01
 0.4415899941930E-02 -0.1812855938957E-01
 0.5383043786459E-02 -0.1861963192430E-01
 0.6419642063769E-02 -0.1915872849067E-01
 0.1390666671493E-03 -0.4343670631288E-03
 0.2795376040018E-03 -0.8813241024098E-03
 0.4135158917298E-03 -0.1339088331261E-02
 0.5348267246260E-03 -0.1804403421028E-02
 0.6402336950149E-03 -0.2273979293248E-02
 0.7289062739499E-03 -0.2745402845387E-02
 0.8014145491026E-03 -0.3217287080524E-02
 0.8589517280370E-03 -0.3689029761031E-02
 0.9028943846263E-03 -0.4160516842677E-02
 0.9345972141936E-03 -0.4631905881983E-02
 0.9553129986410E-03 -0.5103493064497E-02
 0.9661725804943E-03 -0.5575638270723E-02
 0.9681925503206E-03 -0.6048726810009E-02
 0.9622957347989E-03 -0.6523148930336E-02
 0.9493382945344E-03 -0.6999289721746E-02
 0.9301410492983E-03 -0.7477524618068E-02
 0.9055245724930E-03 -0.7958219709059E-02
 0.8763510600373E-03 -0.8441701929683E-02
 0.8435704879260E-03 -0.8928288084763E-02
 0.8082828703566E-03 -0.9418223845358E-02
 0.7718131161617E-03 -0.9911677426786E-02
 0.7358059725681E-03 -0.1040870288590E-01
 0.7023356075416E-03 -0.1090920477410E-01
 0.6740351595082E-03 -0.1141293615788E-01
 0.6542726428276E-03 -0.1191963065588E-01
 0.6471542214567E-03 -0.1242900995488E-01
 0.6575191002156E-03 -0.1294070952544E-01
 0.6909985101360E-03 -0.1345417981787E-01
 0.7541480165190E-03 -0.1396859536838E-01
 0.8546498776421E-03 -0.1448278500371E-01
 0.1001575513115E-02 -0.1499520017715E-01
 0.1205703777811E-02 -0.1550392552808E-01
 0.1479896982555E-02 -0.1600678539479E-01
 0.1839463699186E-02 -0.1650122964853E-01
 0.2302411966144E-02 -0.1698472923161E-01
 0.2888905189828E-02 -0.1745677280766E-01
 0.3618217287629E-02 -0.1792179169738E-01
 0.4500728103120E-02 -0.1839263340670E-01
 0.5523334632089E-02 -0.1889113951700E-01
 0.6633246337620E-02 -0.1944012856264E-01
 0.1473810496767E-03 -0.4364112918168E-03
 0.2964917660926E-03 -0.8860990215188E-03
 0.4379713528187E-03 -0.1346768952812E-02
 0.5649666349283E-03 -0.1814482060842E-02
 0.6743447891880E-03 -0.2285558705057E-02
 0.7656984554037E-03 -0.2757567123654E-02
 0.8400147926834E-03 -0.3229307910692E-02
 0.8987931053252E-03 -0.3700415278629E-02
 0.9436105864137E-03 -0.4170986996529E-02
 0.9759484035105E-03 -0.4641351035342E-02
 0.9971384218268E-03 -0.5111937545306E-02
 0.1008361028328E-02 -0.5583213626093E-02
 0.1010663868224E-02 -0.6055654164105E-02
 0.1004988921076E-02 -0.6529728741720E-02
 0.9922033412255E-03 -0.7005897356709E-02
 0.9731326577955E-03 -0.7484610566836E-02
 0.9485964178518E-03 -0.7966313662854E-02
 0.9194495618181E-03 -0.8451420054975E-02
 0.8866272956971E-03 -0.8940342974557E-02
 0.8512057851912E-03 -0.9433435721646E-02
 0.8144764471559E-03 -0.9930984742132E-02
 0.7780432980745E-03 -0.1043316982070E-01
 0.7439390759488E-03 -0.1094002412525E-01
 0.7147646247789E-03 -0.1145142799190E-01
 0.6938764113467E-03 -0.1196723952871E-01
 0.6853825275085E-03 -0.1248730609846E-01
 0.6941235065631E-03 -0.1301139084203E-01
 0.7257221078103E-03 -0.1353906818061E-01
 0.7867169109150E-03 -0.1406962160604E-01
 0.8847781657181E-03 -0.1460195735699E-01
 0.1028996463568E-02 -0.1513454809416E-01
 0.1230246764124E-02 -0.1566540065394E-01
 0.1501653435529E-02 -0.1619208524719E-01
 0.1859138663090E-02 -0.1671145295845E-01
 0.2322076596425E-02 -0.1721978558458E-01
 0.2913462301844E-02 -0.1771466239324E-01
 0.3657732640317E-02 -0.1819821765963E-01
 0.4572799638009E-02 -0.1868206145891E-01
 0.5652410160695E-02 -0.1919016183237E-01
 0.6842318072937E-02 -0.1975105786486E-01
 0.1563311636259E-03 -0.4389681789326E-03
 0.3147413767877E-03 -0.8919701093226E-03
 0.4640221392428E-03 -0.1356000928681E-02
 0.5966370537475E-03 -0.1826277474414E-02
 0.7097426412062E-03 -0.2298744730853E-02
 0.8035073257781E-03 -0.2771062572327E-02
 0.8794036141082E-03 -0.3242319802672E-02
 0.9392526796166E-03 -0.3712444487772E-02
 0.9848281616967E-03 -0.4181770643149E-02
 0.1017728973675E-02 -0.4650803708951E-02
 0.1039357841475E-02 -0.5120106951733E-02
 0.1050938193263E-02 -0.5590250616825E-02
 0.1053543971832E-02 -0.6061794096391E-02
 0.1048133012949E-02 -0.6535281283539E-02
 0.1035581318744E-02 -0.7011242611961E-02
 0.1016717873978E-02 -0.7490200145072E-02
 0.9923606198312E-03 -0.7972675904230E-02
 0.9633570846353E-03 -0.8459168901971E-02
 0.9306275739527E-03 -0.8950190196284E-02
 0.8952235598492E-03 -0.9446205357513E-02
 0.8584003655718E-03 -0.9947627842781E-02
 0.8217161262648E-03 -0.1045477643583E-01
 0.7871549215813E-03 -0.1096783029842E-01
 0.7572778661074E-03 -0.1148681770151E-01
 0.7354238925456E-03 -0.1201174361042E-01
 0.7256974013228E-03 -0.1254260634563E-01
 0.7329317382371E-03 -0.1307932728529E-01
 0.7627263874972E-03 -0.1362164339927E-01
 0.8215791741786E-03 -0.1416899722288E-01
 0.9171127726305E-03 -0.1472043889235E-01
 0.1058384204961E-02 -0.1527455213336E-01
 0.1256283130952E-02 -0.1582938769912E-01
 0.1524065574480E-02 -0.1638242099412E-01
 0.1878060327879E-02 -0.1693009147853E-01
 0.2338718759300E-02 -0.1746763651281E-01
 0.2931620546381E-02 -0.1799062636684E-01
 0.3686626109205E-02 -0.1849824518923E-01
 0.4630832423728E-02 -0.1899966456460E-01
 0.5768242914239E-02 -0.1952026936447E-01
 0.7045782454368E-02 -0.2009552250195E-01
 0.1660567578574E-03 -0.4421998234672E-03
 0.3345345850388E-03 -0.8992582059470E-03
 0.4918796658418E-03 -0.1367171030814E-02
 0.6299424265341E-03 -0.1840127539655E-02
 0.7464415452859E-03 -0.2313772358717E-02
 0.8422970796795E-03 -0.2786025649782E-02
 0.9195240576940E-03 -0.3256385508835E-02
 0.9802672884119E-03 -0.3725129275045E-02
 0.1026484287379E-02 -0.4192844764566E-02
 0.1059878808593E-02 -0.4660216153252E-02
 0.1081914229445E-02 -0.5127934847088E-02
 0.1093849631067E-02 -0.5596667299114E-02
 0.1096780165212E-02 -0.6067050320919E-02
 0.1091676177200E-02 -0.6539695597880E-02
 0.1079420480381E-02 -0.7015198318836E-02
 0.1060844489715E-02 -0.7494147343776E-02
 0.1036764321919E-02 -0.7977137856360E-02
 0.1008020489951E-02 -0.8464752411468E-02
 0.9755190986399E-03 -0.8957600020544E-02
 0.9402872098712E-03 -0.9456261993637E-02
 0.9035426788300E-03 -0.9961286893656E-02
 0.8667935137127E-03 -0.1047314592912E-01
 0.8319683121005E-03 -0.1099218260628E-01
 0.8015814543448E-03 -0.1151859516215E-01
 0.7789494913445E-03 -0.1205255888862E-01
 0.7681694344402E-03 -0.1259424881537E-01
 0.7740612437485E-03 -0.1314377491115E-01
 0.8021888791015E-03 -0.1370107471217E-01
 0.8589886974902E-03 -0.1426579972736E-01
 0.9520043839213E-03 -0.1483721187327E-01
 0.1090212547204E-02 -0.1541410094440E-01
 0.1284443163432E-02 -0.1599469715094E-01
 0.1547956816778E-02 -0.1657657298483E-01
 0.1897266130744E-02 -0.1715601559698E-01
 0.2353533766865E-02 -0.1772750768924E-01
 0.2944459304596E-02 -0.1828472716728E-01
 0.3705217428189E-02 -0.1882336652612E-01
 0.4673613117344E-02 -0.1934860247420E-01
 0.5868327779734E-02 -0.1988578072398E-01
 0.7242125356817E-02 -0.2047846235643E-01
 0.1767498538011E-03 -0.4463360648631E-03
 0.3561880210751E-03 -0.9084022674172E-03
 0.5217781415909E-03 -0.1380773947215E-02
 0.6649685564533E-03 -0.1856427679870E-02
 0.7844253982586E-03 -0.2330891079039E-02
 0.8820060395373E-03 -0.2802586983313E-02
 0.9603005370108E-03 -0.3271556077915E-02
 0.1021760754757E-02 -0.3738469676075E-02
 0.1068506901109E-02 -0.4204176246486E-02
 0.1102330936618E-02 -0.4669532788483E-02
 0.1124745099140E-02 -0.5135349202976E-02
 0.1137036148000E-02 -0.5602378172998E-02
 0.1140315216971E-02 -0.6071324797848E-02
 0.1135561878355E-02 -0.6542860558036E-02
 0.1123663887281E-02 -0.7017638530585E-02
 0.1105454307457E-02 -0.7496308579187E-02
 0.1081747557518E-02 -0.7979534352251E-02
 0.1053378054305E-02 -0.8467978591661E-02
 0.1021239232853E-02 -0.8962346871800E-02
 0.9863352749878E-03 -0.9463338132965E-02
 0.9498466976420E-03 -0.9971642996771E-02
 0.9132283322201E-03 -0.1048789842983E-01
 0.8783469436354E-03 -0.1101263173727E-01
 0.8476634943194E-03 -0.1154623491820E-01
 0.8244683933704E-03 -0.1208907851353E-01
 0.8128495240436E-03 -0.1264154042035E-01
 0.8176096327851E-03 -0.1320394861896E-01
 0.8442676030976E-03 -0.1377647730052E-01
 0.8991810469095E-03 -0.1435903480636E-01
 0.9897882512569E-03 -0.1495116146153E-01
 0.1124946531511E-02 -0.1555194914433E-01
 0.1315363718977E-02 -0.1615995044258E-01
 0.1574191227121E-02 -0.1677305053859E-01
 0.1917906653991E-02 -0.1738770659374E-01
 0.2367973255231E-02 -0.1799809235363E-01
 0.2953532744107E-02 -0.1859642502879E-01
 0.3714434338923E-02 -0.1917470391039E-01
 0.4700201597826E-02 -0.1973231539977E-01
 0.5949601817543E-02 -0.2029197680837E-01
 0.7429148458551E-02 -0.2090610708576E-01
 0.1886820453741E-03 -0.4517128873482E-03
 0.3801070103739E-03 -0.9200138195040E-03
 0.5539641707738E-03 -0.1397441250123E-02
 0.7017638302474E-03 -0.1875628575284E-02
 0.8236366684926E-03 -0.2350352485159E-02
 0.9225427465483E-03 -0.2820861691163E-02
 0.1001637942926E-02 -0.3287864993890E-02
 0.1063644038337E-02 -0.3752450371730E-02
 0.1110815219739E-02 -0.4215719839423E-02
 0.1145012135548E-02 -0.4678689093768E-02
 0.1167783089865E-02 -0.5142271881178E-02
 0.1180434333615E-02 -0.5607294068377E-02
 0.1184087836860E-02 -0.6074517920260E-02
 0.1179729302814E-02 -0.6544665306836E-02
 0.1168249783098E-02 -0.7018439201314E-02
 0.1150483461219E-02 -0.7496543633365E-02
 0.1127243496719E-02 -0.7979704890797E-02
 0.1099359587096E-02 -0.8468661177714E-02
 0.1067714802813E-02 -0.8964211488949E-02
 0.1033293291405E-02 -0.9467172218968E-02
 0.9972401822946E-03 -0.9978381204661E-02
 0.9609557058438E-03 -0.1049865397244E-01
 0.9262390820909E-03 -0.1102872232921E-01
 0.8954913650981E-03 -0.1156919826812E-01
 0.8719740275464E-03 -0.1212067467405E-01
 0.8597659507640E-03 -0.1268375902627E-01
 0.8636510691879E-03 -0.1325902501080E-01
 0.8890963026804E-03 -0.1384691599347E-01
 0.9423668960359E-03 -0.1444764076651E-01
 0.1030774852991E-02 -0.1506108064150E-01
 0.1163028645499E-02 -0.1568672207802E-01
 0.1349667575662E-02 -0.1632358216346E-01
 0.1603643306001E-02 -0.1697008501001E-01
 0.1941204433076E-02 -0.1762322330186E-01
 0.2383708560751E-02 -0.1827744367936E-01
 0.2960914678261E-02 -0.1892431844356E-01
 0.3716062003796E-02 -0.1955262693861E-01
 0.4710295039011E-02 -0.2015432289857E-01
 0.6008422730398E-02 -0.2074535939904E-01
 0.7603562296961E-02 -0.2138652500572E-01
 0.2022501974120E-03 -0.4588398819987E-03
 0.4068082046375E-03 -0.9349614082271E-03
 0.5886714948207E-03 -0.1417971722668E-02
 0.7403119811376E-03 -0.1898220881063E-02
 0.8639653139803E-03 -0.2372390294475E-02
 0.9637836266465E-03 -0.2840937849381E-02
 0.1043421693026E-02 -0.3305321888560E-02
 0.1105815952647E-02 -0.3767037071604E-02
 0.1153320619999E-02 -0.4227416172386E-02
 0.1187843759254E-02 -0.4687610576473E-02
 0.1210956694427E-02 -0.5148618187886E-02
 0.1223977192605E-02 -0.5611322089365E-02
 0.1228033227772E-02 -0.6076528743706E-02
 0.1224113848865E-02 -0.6544999724632E-02
 0.1213112035758E-02 -0.7017478884769E-02
 0.1195862816156E-02 -0.7494716609723E-02
 0.1173178795279E-02 -0.7977494912493E-02
 0.1145886686700E-02 -0.8466621341687E-02
 0.1114862143403E-02 -0.8962983230293E-02
 0.1081073410782E-02 -0.9467511639558E-02
 0.1045634324297E-02 -0.9981194054880E-02
 0.1009891338696E-02 -0.1050503604056E-01
 0.9755714131019E-03 -0.1103999593729E-01
 0.9450092968827E-03 -0.1158693547129E-01
 0.9214354971288E-03 -0.1214670046275E-01
 0.9089215899186E-03 -0.1272015574685E-01
 0.9122328950636E-03 -0.1330814577606E-01
 0.9367798981295E-03 -0.1391141000643E-01
 0.9887256099882E-03 -0.1453049458656E-01
 0.1075240611878E-02 -0.1516567758376E-01
 0.1204864735441E-02 -0.1581692470828E-01
 0.1387941011262E-02 -0.1648384971469E-01
 0.1637162537781E-02 -0.1716563522447E-01
 0.1968398283091E-02 -0.1786019042675E-01
 0.2402551547168E-02 -0.1856289793504E-01
 0.2969170038226E-02 -0.1926585906768E-01
 0.3713002990745E-02 -0.1995615887220E-01
 0.4704836983620E-02 -0.2061772215688E-01
 0.6040730782300E-02 -0.2125390391994E-01
 0.7760307114739E-02 -0.2193049158276E-01
 0.2180558096156E-03 -0.4685257100273E-03
 0.4369373292687E-03 -0.9545028417721E-03
 0.6260681649214E-03 -0.1443350689076E-02
 0.7804966334339E-03 -0.1924695847195E-02
 0.9052410671351E-03 -0.2397193015328E-02
 0.1005573140379E-02 -0.2862864557145E-02
 0.1085518818369E-02 -0.3323906062078E-02
 0.1148164550184E-02 -0.3782172977662E-02
 0.1195927905166E-02 -0.4239189949508E-02
 0.1230742786335E-02 -0.4696211876727E-02
 0.1254191129154E-02 -0.5154296535536E-02
 0.1267594872448E-02 -0.5614365635169E-02
 0.1272083710621E-02 -0.6077255267447E-02
 0.1268647680837E-02 -0.6543754929651E-02
 0.1258180645628E-02 -0.7014639449954E-02
 0.1241518447889E-02 -0.7490696894012E-02
 0.1219474051001E-02 -0.7972757075220E-02
 0.1192873153610E-02 -0.8461689415469E-02
 0.1162587364577E-02 -0.8958462475248E-02
 0.1129574249846E-02 -0.9464116058409E-02
 0.1094922825098E-02 -0.9979785748806E-02
 0.1059929712820E-02 -0.1050667588324E-01
 0.1026246607221E-02 -0.1104599451375E-01
 0.9961356922521E-03 -0.1159888800460E-01
 0.9727949681146E-03 -0.1216649153760E-01
 0.9602913505439E-03 -0.1274995720061E-01
 0.9633726486012E-03 -0.1335042152782E-01
 0.9873903419658E-03 -0.1396893873518E-01
 0.1038399183895E-02 -0.1460641959895E-01
 0.1123419017110E-02 -0.1526358535259E-01
 0.1250810457927E-02 -0.1594095436241E-01
 0.1430711168746E-02 -0.1663885091277E-01
 0.1675534508944E-02 -0.1735740760739E-01
 0.2000678334391E-02 -0.1809581194461E-01
 0.2426335299175E-02 -0.1885105650404E-01
 0.2981199142333E-02 -0.1961711778560E-01
 0.3709439598931E-02 -0.2038214501236E-01
 0.4686956575351E-02 -0.2112409114111E-01
 0.6042682041576E-02 -0.2182711479944E-01
 0.7891438204688E-02 -0.2255288740272E-01
 0.2370482241187E-03 -0.4821288365315E-03
 0.4712580361166E-03 -0.9804901662133E-03
 0.6661559861296E-03 -0.1474722349733E-02
 0.8220649129324E-03 -0.1955468243966E-02
 0.9472345270938E-03 -0.2424875357923E-02
 0.1047726331419E-02 -0.2886641026286E-02
 0.1127780168047E-02 -0.3343559782627E-02
 0.1190569308048E-02 -0.3797775727978E-02
 0.1238536938380E-02 -0.4250948419312E-02
 0.1273623102208E-02 -0.4704396064635E-02
 0.1297409353104E-02 -0.5159208244237E-02
 0.1311215496806E-02 -0.5616324506725E-02
 0.1316169436421E-02 -0.6076594768471E-02
 0.1313260364434E-02 -0.6540823803094E-02
 0.1303382340208E-02 -0.7009806799233E-02
 0.1287372224820E-02 -0.7484360097961E-02
 0.1266044394759E-02 -0.7965352495974E-02
 0.1240225598988E-02 -0.8453706567505E-02
 0.1210786920469E-02 -0.8950463023295E-02
 0.1178681124296E-02 -0.9456761006891E-02
 0.1144981225209E-02 -0.9973877103288E-02
 0.1110942181509E-02 -0.1050321791351E-01
 0.1078140485966E-02 -0.1104626459458E-01
 0.1048760069375E-02 -0.1160449074567E-01
 0.1025965027166E-02 -0.1217936727811E-01
 0.1013820009321E-02 -0.1277236748664E-01
 0.1017055732500E-02 -0.1338493599861E-01
 0.1040963130435E-02 -0.1401844868525E-01
 0.1091486755414E-02 -0.1467419488955E-01
 0.1175492493021E-02 -0.1535337383896E-01
 0.1301159032799E-02 -0.1605711684654E-01
 0.1478425558760E-02 -0.1678654868591E-01
 0.1719441101964E-02 -0.1754289436428E-01
 0.2039116175648E-02 -0.1832691051315E-01
 0.2456779475790E-02 -0.1913783428310E-01
 0.2999921498118E-02 -0.1997274234107E-01
 0.3710661246772E-02 -0.2082431192011E-01
 0.4663215019148E-02 -0.2167130805638E-01
 0.6012378855517E-02 -0.2247527613997E-01
 0.7984395085860E-02 -0.2327493623301E-01
 0.2607927510627E-03 -0.5021087327177E-03
 0.5105391803037E-03 -0.1015663029191E-02
 0.7085992322528E-03 -0.1513219949996E-02
 0.8646158740739E-03 -0.1990763374686E-02
 0.9896705343562E-03 -0.2455464020947E-02
 0.1090031709539E-02 -0.2912203999146E-02
 0.1170044495278E-02 -0.3364182316634E-02
 0.1232903971207E-02 -0.3813735260161E-02
 0.1281044574040E-02 -0.4262580094072E-02
 0.1316396994010E-02 -0.4712054257614E-02
 0.1340533185598E-02 -0.5163247497679E-02
 0.1354766070997E-02 -0.5617095129254E-02
 0.1360219146813E-02 -0.6074444202220E-02
 0.1357879545463E-02 -0.6536101551053E-02
 0.1348641214914E-02 -0.7002871596298E-02
 0.1333342450664E-02 -0.7475588986662E-02
 0.1312800170985E-02 -0.7955151949661E-02
 0.1287844199556E-02 -0.8442526403233E-02
 0.1259348465077E-02 -0.8938814379900E-02
 0.1228266775838E-02 -0.9445241581786E-02
 0.1195666654653E-02 -0.9963211407839E-02
 0.1162774925753E-02 -0.1049432672732E-01
 0.1131098467494E-02 -0.1104036256740E-01
 0.1102739274062E-02 -0.1160317385988E-01
 0.1080825887994E-02 -0.1218463092729E-01
 0.1069420544335E-02 -0.1278656948605E-01
 0.1073233922889E-02 -0.1341075038959E-01
 0.1097494693546E-02 -0.1405886144966E-01
 0.1148039698817E-02 -0.1473256656170E-01
 0.1231585166659E-02 -0.1543356324635E-01
 0.1356130708639E-02 -0.1616364518551E-01
 0.1531435645729E-02 -0.1692479983308E-01
 0.1769426387310E-02 -0.1771942887774E-01
 0.2084586576286E-02 -0.1855000637497E-01
 0.2495375683280E-02 -0.1941853160264E-01
 0.3027881593887E-02 -0.2032622391349E-01
 0.3722168974858E-02 -0.2127278723442E-01
 0.4644676330746E-02 -0.2224972423041E-01
 0.5953940866549E-02 -0.2320612113494E-01
 0.8019747673710E-02 -0.2412748298486E-01
 0.2919852892459E-03 -0.5334112389232E-03
 0.5551225053474E-03 -0.1063905335777E-02
 0.7525025085844E-03 -0.1559439495322E-02
 0.9076728362811E-03 -0.2030563249412E-02
 0.1032237917890E-02 -0.2488899409841E-02
 0.1132255404217E-02 -0.2939405826472E-02
 0.1212145720027E-02 -0.3385630308814E-02
 0.1275039137253E-02 -0.3829910851547E-02
 0.1323347233076E-02 -0.4273954465668E-02
 0.1358976741688E-02 -0.4719065405987E-02
 0.1383484589805E-02 -0.5166301515543E-02
 0.1398173488801E-02 -0.5616570865849E-02
 0.1404161038027E-02 -0.6070700650286E-02
 0.1402431730932E-02 -0.6529486268370E-02
 0.1393879487212E-02 -0.6993729960229E-02
 0.1379344638975E-02 -0.7464274335336E-02
 0.1359647786750E-02 -0.7942036950675E-02
 0.1335623676971E-02 -0.8428016404061E-02
 0.1308152073139E-02 -0.8923363755031E-02
 0.1278192869155E-02 -0.9429375819896E-02
 0.1246818549359E-02 -0.9947561093365E-02
 0.1215247044115E-02 -0.1047969662584E-01
 0.1184930958090E-02 -0.1102786171604E-01
 0.1157892580082E-02 -0.1159436391944E-01
 0.1137222533983E-02 -0.1218156791507E-01
 0.1126973375331E-02 -0.1279172505387E-01
 0.1131825215536E-02 -0.1342690772065E-01
 0.1156941136648E-02 -0.1408908283872E-01
 0.1208057825201E-02 -0.1478026116717E-01
 0.1291755864276E-02 -0.1550264016512E-01
 0.1415866042414E-02 -0.1625871695790E-01
 0.1589982702343E-02 -0.1705139254653E-01
 0.1825881267183E-02 -0.1788423724343E-01
 0.2137685665161E-02 -0.1876147507726E-01
 0.2543257309211E-02 -0.1968791130076E-01
 0.3067088191971E-02 -0.2067022765526E-01
 0.3747868449319E-02 -0.2171533168033E-01
 0.4645838235036E-02 -0.2283737614932E-01
 0.5886011098963E-02 -0.2401384176021E-01
 0.7969854157782E-02 -0.2515411072586E-01
 0.3354036171857E-03 -0.5877131779916E-03
 0.6035081790692E-03 -0.1129259489523E-02
 0.7964610552561E-03 -0.1612435662826E-02
 0.9508644773505E-03 -0.2074951118826E-02
 0.1074538422477E-02 -0.2524893314178E-02
 0.1174175533500E-02 -0.2968043111830E-02
 0.1253911876600E-02 -0.3407706949234E-02
 0.1316848040487E-02 -0.3846132602252E-02
 0.1365342865056E-02 -0.4284921479731E-02
 0.1401276487291E-02 -0.4725296654925E-02
 0.1426186912775E-02 -0.5168250908249E-02
 0.1441365540250E-02 -0.5614642493145E-02
 0.1447923593580E-02 -0.6065261863182E-02
 0.1446843037047E-02 -0.6520879564440E-02
 0.1439018215143E-02 -0.6982284189601E-02
 0.1425292258632E-02 -0.7450315782501E-02
 0.1406490545795E-02 -0.7925900786765E-02
 0.1383454318857E-02 -0.8410059236397E-02
 0.1357071537846E-02 -0.8903977882088E-02
 0.1328312079107E-02 -0.9409007254259E-02
 0.1298260913544E-02 -0.9926734560143E-02
 0.1268149080580E-02 -0.1045906550068E-01
 0.1239406514731E-02 -0.1100836275666E-01
 0.1213994464144E-02 -0.1157748318184E-01
 0.1194961551630E-02 -0.1216944119867E-01
 0.1186326623848E-02 -0.1278697356614E-01
 0.1192715055761E-02 -0.1343243694052E-01
 0.1219218518215E-02 -0.1410801277431E-01
 0.1271486494525E-02 -0.1481600153154E-01
 0.1355991537737E-02 -0.1555907610126E-01
 0.1480417226946E-02 -0.1634047129592E-01
 0.1654203263782E-02 -0.1716406898755E-01
 0.1889005176253E-02 -0.1803454177240E-01
 0.2198781384683E-02 -0.1895758380749E-01
 0.2600801837275E-02 -0.1994082514608E-01
 0.3119387745310E-02 -0.2099577956545E-01
 0.3788725716407E-02 -0.2214115438808E-01
 0.4676878674711E-02 -0.2340029007125E-01
 0.5854075025986E-02 -0.2485162785192E-01
 0.7808800290039E-02 -0.2639615978249E-01
-0.3597860974062E-01 -0.2686784238514E-01
-0.6444945519670E-01 -0.3800869074936E-01
-0.9079457888277E-01 -0.5155636210449E-01
-0.1151379005981E+00 -0.6736523857501E-01
-0.1375920166357E+00 -0.8524745881808E-01
-0.1582656078866E+00 -0.1049924814111E+00
-0.1772658368867E+00 -0.1263797836070E+00
-0.1946977705396E+00 -0.1491888528912E+00
-0.2106568205782E+00 -0.1732087144192E+00
-0.2252168593253E+00 -0.1982443034132E+00
-0.2384283541544E+00 -0.2241211763351E+00
-0.2503306199841E+00 -0.2506878672806E+00
-0.2609668180555E+00 -0.2778140667506E+00
-0.2703902039236E+00 -0.3053859085882E+00
-0.2786597046326E+00 -0.3333009911938E+00
-0.2858282145888E+00 -0.3614649003268E+00
-0.2919302241160E+00 -0.3897813359189E+00
-0.2970083249076E+00 -0.4181574322749E+00
-0.3010996252287E+00 -0.4465131808278E+00
-0.3448240293591E-01 -0.2666306306586E-01
-0.6173856593286E-01 -0.3780747388576E-01
-0.8691300119286E-01 -0.5141644959085E-01
-0.1101550244174E+00 -0.6734144015996E-01
-0.1315898353203E+00 -0.8539510898209E-01
-0.1513321647460E+00 -0.1053699224228E+00
-0.1694907778557E+00 -0.1270495260196E+00
-0.1861687705149E+00 -0.1502175483062E+00
-0.2014573095688E+00 -0.1746658154433E+00
-0.2154258138023E+00 -0.2002008980761E+00
-0.2281208787432E+00 -0.2266491577993E+00
-0.2395781592806E+00 -0.2538590691869E+00
-0.2498370650864E+00 -0.2816996827966E+00
-0.2589468794495E+00 -0.3100566352279E+00
-0.2669621921197E+00 -0.3388277375736E+00
-0.2739326681959E+00 -0.3679180681665E+00
-0.2798950954097E+00 -0.3972315656199E+00
-0.2848902353215E+00 -0.4266703113687E+00
-0.2889717219885E+00 -0.4561146282994E+00
-0.3293075509463E-01 -0.2647294744569E-01
-0.5893674381981E-01 -0.3762667622061E-01
-0.8291396295928E-01 -0.5131042386645E-01
-0.1050304549729E+00 -0.6736555386222E-01
-0.1254223904364E+00 -0.8560356375390E-01
-0.1442093483210E+00 -0.1058185440206E+00
-0.1615011458542E+00 -0.1277972669513E+00
-0.1773989690077E+00 -0.1513268403995E+00
-0.1919902308014E+00 -0.1762021120512E+00
-0.2053403279799E+00 -0.2022318902737E+00
-0.2174922768296E+00 -0.2292440041280E+00
-0.2284782553918E+00 -0.2570875690634E+00
-0.2383339223730E+00 -0.2856315702847E+00
-0.2471044315427E+00 -0.3147612224761E+00
-0.2548403097617E+00 -0.3443733716145E+00
-0.2615890096965E+00 -0.3743712288452E+00
-0.2673895577330E+00 -0.4046559025273E+00
-0.2722890798331E+00 -0.4351197685014E+00
-0.2763553186468E+00 -0.4656411952751E+00
-0.3132500601020E-01 -0.2629749829041E-01
-0.5604364852308E-01 -0.3746662222116E-01
-0.7879567037614E-01 -0.5123387575866E-01
-0.9976260817683E-01 -0.6742930978432E-01
-0.1190888078632E+00 -0.8586069000607E-01
-0.1368974817945E+00 -0.1063224895612E+00
-0.1532988010195E+00 -0.1286037241053E+00
-0.1683918713096E+00 -0.1524945404488E+00
-0.1822605603852E+00 -0.1777928058834E+00
-0.1949665509980E+00 -0.2043099072287E+00
-0.2065495346919E+00 -0.2318755940888E+00
-0.2170384204655E+00 -0.2603400501511E+00
-0.2264652576157E+00 -0.2895724482411E+00
-0.2348712874351E+00 -0.3194573855211E+00
-0.2423035586312E+00 -0.3498901929650E+00
-0.2488081271682E+00 -0.3807715140247E+00
-0.2544275637779E+00 -0.4119990559797E+00
-0.2592151435649E+00 -0.4434638067758E+00
-0.2632459004927E+00 -0.4750507961961E+00
-0.2966623989988E-01 -0.2613640751449E-01
-0.5305992019708E-01 -0.3732594881109E-01
-0.7455823003117E-01 -0.5118293989470E-01
-0.9435167347882E-01 -0.6752518689982E-01
-0.1125900313777E+00 -0.8615538073822E-01
-0.1293986320071E+00 -0.1068671490762E+00
-0.1448871902142E+00 -0.1294510173813E+00
-0.1591523962413E+00 -0.1536997633251E+00
-0.1722746075977E+00 -0.1794141966021E+00
-0.1843119819912E+00 -0.2064084393963E+00
-0.1953011120646E+00 -0.2345144136697E+00
-0.2052678871843E+00 -0.2635835987159E+00
-0.2142410249911E+00 -0.2934854459597E+00
-0.2222582452448E+00 -0.3241038512289E+00
-0.2293637016651E+00 -0.3553325174782E+00
-0.2356027788142E+00 -0.3870698062858E+00
-0.2410211252360E+00 -0.4192123468454E+00
-0.2456759300027E+00 -0.4516535570289E+00
-0.2496445612726E+00 -0.4842874846486E+00
-0.2795569853903E-01 -0.2598901891525E-01
-0.4998701887931E-01 -0.3720303782905E-01
-0.7020313066313E-01 -0.5115375432984E-01
-0.8879947778832E-01 -0.6764631970600E-01
-0.1059286387510E+00 -0.8647744004885E-01
-0.1217164573497E+00 -0.1074390341208E+00
-0.1362712550646E+00 -0.1303224883960E+00
-0.1496868599445E+00 -0.1549228356816E+00
-0.1620400294230E+00 -0.1810436885007E+00
-0.1733854993672E+00 -0.2085019365750E+00
-0.1837569651635E+00 -0.2371317777407E+00
-0.1931775780826E+00 -0.2667860890045E+00
-0.2016730701277E+00 -0.2973346686483E+00
-0.2092780563627E+00 -0.3286607904602E+00
-0.2160342659765E+00 -0.3606568292981E+00
-0.2219865210621E+00 -0.3932199213284E+00
-0.2271823837448E+00 -0.4262473629879E+00
-0.2316806360245E+00 -0.4596367855662E+00
-0.2355575307998E+00 -0.4932911099837E+00
-0.2619490908916E-01 -0.2585464488333E-01
-0.4682719187587E-01 -0.3709619001094E-01
-0.6573308759544E-01 -0.5114263535444E-01
-0.8310932272508E-01 -0.6778634169747E-01
-0.9910876857722E-01 -0.8681748637084E-01
-0.1138561673399E+00 -0.1080256592931E+00
-0.1274574470338E+00 -0.1312025941089E+00
-0.1400030437134E+00 -0.1561452273872E+00
-0.1515659378738E+00 -0.1826597944607E+00
-0.1621974833305E+00 -0.2105658963683E+00
-0.1719286573121E+00 -0.2397000137770E+00
-0.1807801601646E+00 -0.2699164636253E+00
-0.1887750878684E+00 -0.3010854864242E+00
-0.1959453118096E+00 -0.3330899644650E+00
-0.2023303680392E+00 -0.3658215096589E+00
-0.2079742423169E+00 -0.3991770482920E+00
-0.2129251045142E+00 -0.4330556926557E+00
-0.2172413663348E+00 -0.4673598845087E+00
-0.2209958284288E+00 -0.5020005560017E+00
-0.2438572582593E-01 -0.2573262189430E-01
-0.4358341555610E-01 -0.3700376115522E-01
-0.6115188840612E-01 -0.5114611869620E-01
-0.7728579906383E-01 -0.6793936697908E-01
-0.9213594363743E-01 -0.8716686915352E-01
-0.1058243732104E+00 -0.1086154710947E+00
-0.1184535997865E+00 -0.1320768531938E+00
-0.1301100889015E+00 -0.1573495416753E+00
-0.1408628064550E+00 -0.1842421896546E+00
-0.1507597163045E+00 -0.2125769955008E+00
-0.1598292299942E+00 -0.2421926719178E+00
-0.1680898641420E+00 -0.2729449938100E+00
-0.1755623893831E+00 -0.3047047732835E+00
-0.1822761890915E+00 -0.3373548213831E+00
-0.1882686441876E+00 -0.3707865785624E+00
-0.1935824468289E+00 -0.4048975739341E+00
-0.1982651648994E+00 -0.4395893904548E+00
-0.2023733001987E+00 -0.4747693168144E+00
-0.2059746360166E+00 -0.5103552428447E+00
-0.2253034782585E-01 -0.2562234172844E-01
-0.4025936309776E-01 -0.3692421149432E-01
-0.5646430953627E-01 -0.5116099166873E-01
-0.7133468317823E-01 -0.6809997090479E-01
-0.8501697856875E-01 -0.8751762106584E-01
-0.9762902096289E-01 -0.1091977910099E+00
-0.1092688919083E+00 -0.1329318070483E+00
-0.1200184857033E+00 -0.1585195089326E+00
-0.1299424768213E+00 -0.1857717526097E+00
-0.1390853936453E+00 -0.2145131842213E+00
-0.1474732030681E+00 -0.2445846643490E+00
-0.1551224676247E+00 -0.2758434330144E+00
-0.1620518811928E+00 -0.3081610196564E+00
-0.1682884919898E+00 -0.3414204934513E+00
-0.1738674363495E+00 -0.3755136408125E+00
-0.1788295995623E+00 -0.4103391749423E+00
-0.1832209140847E+00 -0.4458014756816E+00
-0.1870948126203E+00 -0.4818124412394E+00
-0.1905130902522E+00 -0.5182958513703E+00
-0.2063131707392E-01 -0.2552326064714E-01
-0.3685936347078E-01 -0.3685612912779E-01
-0.5167603565518E-01 -0.5118430601109E-01
-0.6526283417852E-01 -0.6826318132298E-01
-0.7775987372033E-01 -0.8786243081334E-01
-0.8927929374757E-01 -0.1097627875156E+00
-0.9991376136462E-01 -0.1337550076225E+00
-0.1097399975935E+00 -0.1596400057550E+00
-0.1188180861855E+00 -0.1872306251461E+00
-0.1271890447754E+00 -0.2163537895838E+00
-0.1348764826497E+00 -0.2468524025263E+00
-0.1418951917257E+00 -0.2785851652631E+00
-0.1482619722829E+00 -0.3114244605045E+00
-0.1540016073973E+00 -0.3452539055433E+00
-0.1591468278462E+00 -0.3799660367553E+00
-0.1637362116543E+00 -0.4154611318661E+00
-0.1678132113295E+00 -0.4516464762217E+00
-0.1714273569665E+00 -0.4884382112104E+00
-0.1746339442502E+00 -0.5257650172232E+00
-0.1869149647984E-01 -0.2543490022831E-01
-0.3338834280012E-01 -0.3679823727531E-01
-0.4679356797336E-01 -0.5121338094237E-01
-0.5907808304312E-01 -0.6842446996873E-01
-0.7037370004788E-01 -0.8819462594490E-01
-0.8078550308269E-01 -0.1103014600424E+00
-0.9039980824459E-01 -0.1345350151679E+00
-0.9928757592245E-01 -0.1606970771819E+00
-0.1075039904836E+00 -0.1886022657775E+00
-0.1150864606175E+00 -0.2180795999999E+00
-0.1220562915965E+00 -0.2489739050871E+00
-0.1284266414185E+00 -0.2811453226108E+00
-0.1342125412107E+00 -0.3144671948936E+00
-0.1394365191466E+00 -0.3488239127894E+00
-0.1441287071892E+00 -0.3841090475076E+00
-0.1483249220302E+00 -0.4202246575385E+00
-0.1520654681964E+00 -0.4570808961951E+00
-0.1553954044108E+00 -0.4945977300540E+00
-0.1583633666154E+00 -0.5327078822826E+00
-0.1671405838239E-01 -0.2535684530376E-01
-0.2985179025187E-01 -0.3674939578301E-01
-0.4182416937277E-01 -0.5124580285853E-01
-0.5278916498122E-01 -0.6857974699755E-01
-0.6286852740730E-01 -0.8850816430760E-01
-0.7215901920270E-01 -0.1108056343030E+00
-0.8073972985943E-01 -0.1352614062577E+00
-0.8867529924528E-01 -0.1616779654934E+00
-0.9601570512803E-01 -0.1898715041938E+00
-0.1027946329524E+00 -0.2196729458300E+00
-0.1090311076816E+00 -0.2509289007649E+00
-0.1147367479004E+00 -0.2835009065338E+00
-0.1199248921585E+00 -0.3172633298706E+00
-0.1246157845423E+00 -0.3521014870265E+00
-0.1288367582527E+00 -0.3879101573535E+00
-0.1326204750679E+00 -0.4245932644428E+00
-0.1360035773911E+00 -0.4620636907514E+00
-0.1390262916434E+00 -0.5002447939896E+00
-0.1417306764177E+00 -0.5390726178748E+00
-0.1470245235025E-01 -0.2528873950605E-01
-0.2625569402272E-01 -0.3670859837637E-01
-0.3677577380513E-01 -0.5127942239107E-01
-0.4640561083553E-01 -0.6872535680222E-01
-0.5525530648023E-01 -0.8879763076635E-01
-0.6341214997334E-01 -0.1112679649196E+00
-0.7094720057030E-01 -0.1359247886849E+00
-0.7791825557960E-01 -0.1625711432232E+00
-0.8436978956217E-01 -0.1910245961882E+00
-0.9033164118164E-01 -0.2211177773380E+00
-0.9582055436924E-01 -0.2526989290059E+00
-0.1008466676744E+00 -0.2856309127498E+00
-0.1054216672087E+00 -0.3197891377122E+00
-0.1095634605120E+00 -0.3550599237447E+00
-0.1132963913095E+00 -0.3913393325219E+00
-0.1166496368029E+00 -0.4285331313071E+00
-0.1196557926608E+00 -0.4665567194457E+00
-0.1223500489333E+00 -0.5053364081768E+00
-0.1247681285003E+00 -0.5448109411148E+00
-0.1266038142315E-01 -0.2523028088073E-01
-0.2260649445082E-01 -0.3667496905785E-01
-0.3165692060652E-01 -0.5131235119952E-01
-0.3993766883095E-01 -0.6885807519865E-01
-0.4754578387310E-01 -0.8905823670285E-01
-0.5455805371902E-01 -0.1116819409695E+00
-0.6103678494067E-01 -0.1365168176873E+00
-0.6703245683889E-01 -0.1633663444847E+00
-0.7258376283275E-01 -0.1920492733893E+00
-0.7771656889686E-01 -0.2223997349471E+00
-0.8244531920678E-01 -0.2542674328987E+00
-0.8677870440593E-01 -0.2875164513978E+00
-0.9072677239477E-01 -0.3220232126970E+00
-0.9430503066290E-01 -0.3576750497656E+00
-0.9753466139011E-01 -0.3943692954073E+00
-0.1004410893613E+00 -0.4320134544711E+00
-0.1030525851373E+00 -0.4705251766681E+00
-0.1053992134922E+00 -0.5098332905877E+00
-0.1075106937397E+00 -0.5498787045556E+00
-0.1059177454293E-01 -0.2518121743002E-01
-0.1891103244854E-01 -0.3664775802545E-01
-0.2647668394131E-01 -0.5134295878010E-01
-0.3339622087816E-01 -0.6897510779943E-01
-0.3975241053825E-01 -0.8928582176661E-01
-0.4561064368412E-01 -0.1120418940446E+00
-0.5102384074148E-01 -0.1370302138618E+00
-0.5603474160282E-01 -0.1640545962729E+00
-0.6067600642505E-01 -0.1929347910475E+00
-0.6496940680907E-01 -0.2235062163474E+00
-0.6892705703373E-01 -0.2556198491645E+00
-0.7255621237300E-01 -0.2891408656436E+00
-0.7586527983332E-01 -0.3239466272538E+00
-0.7886730125242E-01 -0.3599254284726E+00
-0.8158014893045E-01 -0.3969757903592E+00
-0.8402528418154E-01 -0.4350067823232E+00
-0.8622645902707E-01 -0.4739379986886E+00
-0.8820860343067E-01 -0.5137003576990E+00
-0.8999579598485E-01 -0.5542364739558E+00
-0.8500752235662E-02 -0.2514134299264E-01
-0.1517648742503E-01 -0.3662633773613E-01
-0.2124458880239E-01 -0.5136986974431E-01
-0.2679268259274E-01 -0.6907408951362E-01
-0.3188823092337E-01 -0.8947685727617E-01
-0.3658447016275E-01 -0.1123430079357E+00
-0.4092439665793E-01 -0.1374587819540E+00
-0.4494264986715E-01 -0.1646282493276E+00
-0.4866563661208E-01 -0.1936719739362E+00
-0.5211092269789E-01 -0.2244264406527E+00
-0.5528825712664E-01 -0.2567436947312E+00
-0.5820345960345E-01 -0.2904898465885E+00
-0.6086328398230E-01 -0.3255430831892E+00
-0.6327824507851E-01 -0.3617925566578E+00
-0.6546278291402E-01 -0.3991378349293E+00
-0.6743423452597E-01 -0.4374893273089E+00
-0.6921170541801E-01 -0.4767682406002E+00
-0.7081502901614E-01 -0.5169071695701E+00
-0.7226299259912E-01 -0.5578500405301E+00
-0.6391601009675E-02 -0.2511049381561E-01
-0.1141033082165E-01 -0.3661019956119E-01
-0.1597054852801E-01 -0.5139196158028E-01
-0.2013892939731E-01 -0.6915308437829E-01
-0.2396680144121E-01 -0.8962844951541E-01
-0.2749463402235E-01 -0.1125813272629E+00
-0.3075506249260E-01 -0.1377974270526E+00
-0.3377433057242E-01 -0.1650810043603E+00
-0.3657240908312E-01 -0.1942532553292E+00
-0.3916256220480E-01 -0.2251515033277E+00
-0.4155213851870E-01 -0.2576286417502E+00
-0.4374551505822E-01 -0.2915515338552E+00
-0.4574777646664E-01 -0.3267990446508E+00
-0.4756685773231E-01 -0.3632610372815E+00
-0.4921367050201E-01 -0.4008379391178E+00
-0.5070130990959E-01 -0.4394412363297E+00
-0.5204415497298E-01 -0.4789933999216E+00
-0.5325700277189E-01 -0.5194283050447E+00
-0.5435365532013E-01 -0.5606908458665E+00
-0.4268736976940E-02 -0.2508854554508E-01
-0.7620261932217E-02 -0.3659895084567E-01
-0.1066477918711E-01 -0.5140836287405E-01
-0.1344719512009E-01 -0.6921058592277E-01
-0.1600207786069E-01 -0.8973834345698E-01
-0.1835666627214E-01 -0.1127537660791E+00
-0.2053290316420E-01 -0.1380421698722E+00
-0.2254841122042E-01 -0.1654079360867E+00
-0.2441658435281E-01 -0.1946727121833E+00
-0.2614630926826E-01 -0.2256744254543E+00
-0.2774250372161E-01 -0.2582665846815E+00
-0.2920809271342E-01 -0.2923166052062E+00
-0.3054647613441E-01 -0.3277038558080E+00
-0.3176296770002E-01 -0.3643187309279E+00
-0.3286488015696E-01 -0.4020622954469E+00
-0.3386098546867E-01 -0.4408468222314E+00
-0.3476088953574E-01 -0.4805956892647E+00
-0.3557441514973E-01 -0.5212436723431E+00
-0.3631062246827E-01 -0.5627363283878E+00
-0.2136675827565E-02 -0.2507541100021E-01
-0.3814154705559E-02 -0.3659231272036E-01
-0.5337728690420E-02 -0.5141845204867E-01
-0.6729988059586E-02 -0.6924551761403E-01
-0.8008321943145E-02 -0.8980492585106E-01
-0.9186427785243E-02 -0.1128581147584E+00
-0.1027533297967E-01 -0.1381901588278E+00
-0.1128388714391E-01 -0.1656055121358E+00
-0.1221881146382E-01 -0.1949260928743E+00
-0.1308456269432E-01 -0.2259901927672E+00
-0.1388360555250E-01 -0.2586516937503E+00
-0.1461740485767E-01 -0.2927783482351E+00
-0.1528766378126E-01 -0.3282498350891E+00
-0.1589704637980E-01 -0.3649568768544E+00
-0.1644922039861E-01 -0.4028009301901E+00
-0.1694858394917E-01 -0.4416947466599E+00
-0.1739994516917E-01 -0.4815622496208E+00
-0.1780820191871E-01 -0.5223387492844E+00
-0.1817784111367E-01 -0.5639701882648E+00
 0.3711512763793E-09 -0.2507103852380E-01
 0.5860307517036E-09 -0.3659011849872E-01
 0.7177201194475E-09 -0.5142185649050E-01
 0.7788257816443E-09 -0.6925723331580E-01
 0.7808791113728E-09 -0.8982722770509E-01
 0.7352959491280E-09 -0.1128930453249E+00
 0.6542118097252E-09 -0.1382396792097E+00
 0.5510067541126E-09 -0.1656716072765E+00
 0.4400256270465E-09 -0.1950108379572E+00
 0.3349392985186E-09 -0.2260957848073E+00
 0.2459944747901E-09 -0.2587804548095E+00
 0.1779692782033E-09 -0.2929327137106E+00
 0.1304975016936E-09 -0.3284323450488E+00
 0.1002121718940E-09 -0.3651701822816E+00
 0.8289124941996E-10 -0.4030478141871E+00
 0.7467382268089E-10 -0.4419781529756E+00
 0.7245620770036E-10 -0.4818853039509E+00
 0.7387529477043E-10 -0.5227047544182E+00
 0.7714162642003E-10 -0.5643825733970E+00
 0.2136676569163E-02 -0.2507541100396E-01
 0.3814155876522E-02 -0.3659231272311E-01
 0.5337730124572E-02 -0.5141845204881E-01
 0.6729989615893E-02 -0.6924551761092E-01
 0.8008323503592E-02 -0.8980492584472E-01
 0.9186429254616E-02 -0.1128581147494E+00
 0.1027533428700E-01 -0.1381901588167E+00
 0.1128388824499E-01 -0.1656055121238E+00
 0.1221881234312E-01 -0.1949260928623E+00
 0.1308456336361E-01 -0.2259901927562E+00
 0.1388360604406E-01 -0.2586516937407E+00
 0.1461740521330E-01 -0.2927783482272E+00
 0.1528766404205E-01 -0.3282498350832E+00
 0.1589704658009E-01 -0.3649568768503E+00
 0.1644922056431E-01 -0.4028009301877E+00
 0.1694858409847E-01 -0.4416947466592E+00
 0.1739994531407E-01 -0.4815622496216E+00
 0.1780820206647E-01 -0.5223387492867E+00
 0.1817784126798E-01 -0.5639701882685E+00
 0.4268737716430E-02 -0.2508854555259E-01
 0.7620263099893E-02 -0.3659895085119E-01
 0.1066478061740E-01 -0.5140836287440E-01
 0.1344719667237E-01 -0.6921058591665E-01
 0.1600207941721E-01 -0.8973834344442E-01
 0.1835666773786E-01 -0.1127537660611E+00
 0.2053290446828E-01 -0.1380421698502E+00
 0.2254841231873E-01 -0.1654079360628E+00
 0.2441658522984E-01 -0.1946727121595E+00
 0.2614630993579E-01 -0.2256744254323E+00
 0.2774250421185E-01 -0.2582665846624E+00
 0.2920809306812E-01 -0.2923166051906E+00
 0.3054647639457E-01 -0.3277038557962E+00
 0.3176296789991E-01 -0.3643187309197E+00
 0.3286488032241E-01 -0.4020622954422E+00
 0.3386098561784E-01 -0.4408468222300E+00
 0.3476088968059E-01 -0.4805956892664E+00
 0.3557441529751E-01 -0.5212436723477E+00
 0.3631062262269E-01 -0.5627363283952E+00
 0.6391601745670E-02 -0.2511049382690E-01
 0.1141033198388E-01 -0.3661019956955E-01
 0.1597054995191E-01 -0.5139196158096E-01
 0.2013893094292E-01 -0.6915308436934E-01
 0.2396680299122E-01 -0.8962844949687E-01
 0.2749463548201E-01 -0.1125813272362E+00
 0.3075506379129E-01 -0.1377974270201E+00
 0.3377433166612E-01 -0.1650810043249E+00
 0.3657240995639E-01 -0.1942532552937E+00
 0.3916256286941E-01 -0.2251515032949E+00
 0.4155213900678E-01 -0.2576286417218E+00
 0.4374551541139E-01 -0.2915515338321E+00
 0.4574777672577E-01 -0.3267990446332E+00
 0.4756685793153E-01 -0.3632610372694E+00
 0.4921367066706E-01 -0.4008379391109E+00
 0.5070131005854E-01 -0.4394412363277E+00
 0.5204415511774E-01 -0.4789933999241E+00
 0.5325700291971E-01 -0.5194283050516E+00
 0.5435365547472E-01 -0.5606908458777E+00
 0.8500752966802E-02 -0.2514134300775E-01
 0.1517648857968E-01 -0.3662633774744E-01
 0.2124459021741E-01 -0.5136986974551E-01
 0.2679268412907E-01 -0.6907408950212E-01
 0.3188823246432E-01 -0.8947685725199E-01
 0.3658447161399E-01 -0.1123430079007E+00
 0.4092439794910E-01 -0.1374587819112E+00
 0.4494265095444E-01 -0.1646282492809E+00
 0.4866563748012E-01 -0.1936719738895E+00
 0.5211092335843E-01 -0.2244264406094E+00
 0.5528825761171E-01 -0.2567436946937E+00
 0.5820345995449E-01 -0.2904898465579E+00
 0.6086328423999E-01 -0.3255430831661E+00
 0.6327824527681E-01 -0.3617925566420E+00
 0.6546278307852E-01 -0.3991378349203E+00
 0.6743423467462E-01 -0.4374893273064E+00
 0.6921170556266E-01 -0.4767682406038E+00
 0.7081502916401E-01 -0.5169071695794E+00
 0.7226299275394E-01 -0.5578500405452E+00
 0.1059177526790E-01 -0.2518121744900E-01
 0.1891103359356E-01 -0.3664775803982E-01
 0.2647668534502E-01 -0.5134295878207E-01
 0.3339622240269E-01 -0.6897510778576E-01
 0.3975241206766E-01 -0.8928582173728E-01
 0.4561064512462E-01 -0.1120418940018E+00
 0.5102384202307E-01 -0.1370302138093E+00
 0.5603474268192E-01 -0.1640545962155E+00
 0.6067600728642E-01 -0.1929347909900E+00
 0.6496940746443E-01 -0.2235062162941E+00
 0.6892705751496E-01 -0.2556198491182E+00
 0.7255621272134E-01 -0.2891408656059E+00
 0.7586528008920E-01 -0.3239466272253E+00
 0.7886730144957E-01 -0.3599254284531E+00
 0.8158014909425E-01 -0.3969757903484E+00
 0.8402528432981E-01 -0.4350067823204E+00
 0.8622645917158E-01 -0.4739379986933E+00
 0.8820860357861E-01 -0.5137003577109E+00
 0.8999579613996E-01 -0.5542364739748E+00
 0.1266038214066E-01 -0.2523028090364E-01
 0.2260649558421E-01 -0.3667496907547E-01
 0.3165692199658E-01 -0.5131235120259E-01
 0.3993767034121E-01 -0.6885807518329E-01
 0.4754578538857E-01 -0.8905823666895E-01
 0.5455805514653E-01 -0.1116819409196E+00
 0.6103678621067E-01 -0.1365168176259E+00
 0.6703245790808E-01 -0.1633663444172E+00
 0.7258376368603E-01 -0.1920492733216E+00
 0.7771656954594E-01 -0.2223997348841E+00
 0.8244531968337E-01 -0.2542674328441E+00
 0.8677870475101E-01 -0.2875164513534E+00
 0.9072677264847E-01 -0.3220232126634E+00
 0.9430503085866E-01 -0.3576750497428E+00
 0.9753466155309E-01 -0.3943692953948E+00
 0.1004410895091E+00 -0.4320134544682E+00
 0.1030525852816E+00 -0.4705251766742E+00
 0.1053992136402E+00 -0.5098332906023E+00
 0.1075106938951E+00 -0.5498787045787E+00
 0.1470245305910E-01 -0.2528873953298E-01
 0.2625569514260E-01 -0.3670859839743E-01
 0.3677577517932E-01 -0.5127942239561E-01
 0.4640561232920E-01 -0.6872535678572E-01
 0.5525530797946E-01 -0.8879763072858E-01
 0.6341215138571E-01 -0.1112679648634E+00
 0.7094720182677E-01 -0.1359247886152E+00
 0.7791825663722E-01 -0.1625711431464E+00
 0.8436979040601E-01 -0.1910245961110E+00
 0.9033164182339E-01 -0.2211177772661E+00
 0.9582055484043E-01 -0.2526989289433E+00
 0.1008466680157E+00 -0.2856309126990E+00
 0.1054216674598E+00 -0.3197891376739E+00
 0.1095634607062E+00 -0.3550599237189E+00
 0.1132963914716E+00 -0.3913393325080E+00
 0.1166496369503E+00 -0.4285331313043E+00
 0.1196557928050E+00 -0.4665567194533E+00
 0.1223500490814E+00 -0.5053364081943E+00
 0.1247681286562E+00 -0.5448109411420E+00
 0.1671405908143E-01 -0.2535684533480E-01
 0.2985179135645E-01 -0.3674939580776E-01
 0.4182417072899E-01 -0.5124580286501E-01
 0.5278916645607E-01 -0.6857974698057E-01
 0.6286852888809E-01 -0.8850816426678E-01
 0.7215902059786E-01 -0.1108056342413E+00
 0.8073973110051E-01 -0.1352614061808E+00
 0.8867530028973E-01 -0.1616779654082E+00
 0.9601570596112E-01 -0.1898715041078E+00
 0.1027946335858E+00 -0.2196729457498E+00
 0.1090311081466E+00 -0.2509289006951E+00
 0.1147367482374E+00 -0.2835009064770E+00
 0.1199248924068E+00 -0.3172633298280E+00
 0.1246157847347E+00 -0.3521014869980E+00
 0.1288367584138E+00 -0.3879101573384E+00
 0.1326204752147E+00 -0.4245932644404E+00
 0.1360035775351E+00 -0.4620636907608E+00
 0.1390262917916E+00 -0.5002447940101E+00
 0.1417306765741E+00 -0.5390726179063E+00
 0.1869149716801E-01 -0.2543490026357E-01
 0.3338834388774E-01 -0.3679823730403E-01
 0.4679356930964E-01 -0.5121338095130E-01
 0.5907808449708E-01 -0.6842446995204E-01
 0.7037370150819E-01 -0.8819462590197E-01
 0.8078550445869E-01 -0.1103014599764E+00
 0.9039980946851E-01 -0.1345350150848E+00
 0.9928757695221E-01 -0.1606970770893E+00
 0.1075039913047E+00 -0.1886022656837E+00
 0.1150864612416E+00 -0.2180795999121E+00
 0.1220562920547E+00 -0.2489739050106E+00
 0.1284266417508E+00 -0.2811453225487E+00
 0.1342125414559E+00 -0.3144671948471E+00
 0.1394365193371E+00 -0.3488239127585E+00
 0.1441287073492E+00 -0.3841090474917E+00
 0.1483249221765E+00 -0.4202246575367E+00
 0.1520654683402E+00 -0.4570808962065E+00
 0.1553954045592E+00 -0.4945977300777E+00
 0.1583633667723E+00 -0.5327078823185E+00
 0.2063131775024E-01 -0.2552326068677E-01
 0.3685936453992E-01 -0.3685612916081E-01
 0.5167603696972E-01 -0.5118430602308E-01
 0.6526283560968E-01 -0.6826318130743E-01
 0.7775987515823E-01 -0.8786243076936E-01
 0.8927929510259E-01 -0.1097627874464E+00
 0.9991376256973E-01 -0.1337550075343E+00
 0.1097399986071E+00 -0.1596400056561E+00
 0.1188180869934E+00 -0.1872306250453E+00
 0.1271890453893E+00 -0.2163537894892E+00
 0.1348764831005E+00 -0.2468524024439E+00
 0.1418951920527E+00 -0.2785851651962E+00
 0.1482619725247E+00 -0.3114244604546E+00
 0.1540016075858E+00 -0.3452539055105E+00
 0.1591468280050E+00 -0.3799660367390E+00
 0.1637362118000E+00 -0.4154611318653E+00
 0.1678132114732E+00 -0.4516464762353E+00
 0.1714273571150E+00 -0.4884382112375E+00
 0.1746339444076E+00 -0.5257650172637E+00
 0.2253034848944E-01 -0.2562234177259E-01
 0.4025936414705E-01 -0.3692421153201E-01
 0.5646431082744E-01 -0.5116099168444E-01
 0.7133468458484E-01 -0.6809997089133E-01
 0.8501697998250E-01 -0.8751762102197E-01
 0.9762902229525E-01 -0.1091977909388E+00
 0.1092688930930E+00 -0.1329318069563E+00
 0.1200184866995E+00 -0.1585195088286E+00
 0.1299424776149E+00 -0.1857717525032E+00
 0.1390853942481E+00 -0.2145131841210E+00
 0.1474732035107E+00 -0.2445846642613E+00
 0.1551224679462E+00 -0.2758434329433E+00
 0.1620518814310E+00 -0.3081610196036E+00
 0.1682884921761E+00 -0.3414204934171E+00
 0.1738674365071E+00 -0.3755136407961E+00
 0.1788295997074E+00 -0.4103391749428E+00
 0.1832209142282E+00 -0.4458014756977E+00
 0.1870948127690E+00 -0.4818124412702E+00
 0.1905130904102E+00 -0.5182958514156E+00
 0.2438572647604E-01 -0.2573262194317E-01
 0.4358341658436E-01 -0.3700376119801E-01
 0.6115188967251E-01 -0.5114611871637E-01
 0.7728580044436E-01 -0.6793936696877E-01
 0.9213594502547E-01 -0.8716686911105E-01
 0.1058243745185E+00 -0.1086154710230E+00
 0.1184536009495E+00 -0.1320768530995E+00
 0.1301100898789E+00 -0.1573495415675E+00
 0.1408628072333E+00 -0.1842421895435E+00
 0.1507597168955E+00 -0.2125769953957E+00
 0.1598292304282E+00 -0.2421926718257E+00
 0.1680898644575E+00 -0.2729449937354E+00
 0.1755623896176E+00 -0.3047047732284E+00
 0.1822761892755E+00 -0.3373548213478E+00
 0.1882686443440E+00 -0.3707865785464E+00
 0.1935824469735E+00 -0.4048975739361E+00
 0.1982651650427E+00 -0.4395893904737E+00
 0.2023733003476E+00 -0.4747693168491E+00
 0.2059746361752E+00 -0.5103552428948E+00
 0.2619490972514E-01 -0.2585464493714E-01
 0.4682719288209E-01 -0.3709619005931E-01
 0.6573308883584E-01 -0.5114263537991E-01
 0.8310932407821E-01 -0.6778634169147E-01
 0.9910876993817E-01 -0.8681748633118E-01
 0.1138561686225E+00 -0.1080256592224E+00
 0.1274574481737E+00 -0.1312025940138E+00
 0.1400030446710E+00 -0.1561452272771E+00
 0.1515659386360E+00 -0.1826597943463E+00
 0.1621974839089E+00 -0.2105658962595E+00
 0.1719286577369E+00 -0.2397000136815E+00
 0.1807801604739E+00 -0.2699164635479E+00
 0.1887750880988E+00 -0.3010854863673E+00
 0.1959453119914E+00 -0.3330899644292E+00
 0.2023303681945E+00 -0.3658215096435E+00
 0.2079742424611E+00 -0.3991770482960E+00
 0.2129251046575E+00 -0.4330556926776E+00
 0.2172413664839E+00 -0.4673598845475E+00
 0.2209958285881E+00 -0.5020005560568E+00
 0.2795569916037E-01 -0.2598901897424E-01
 0.4998701986270E-01 -0.3720303788353E-01
 0.7020313187658E-01 -0.5115375436152E-01
 0.8879947911297E-01 -0.6764631970558E-01
 0.1059286400837E+00 -0.8647744001350E-01
 0.1217164586056E+00 -0.1074390340528E+00
 0.1362712561803E+00 -0.1303224883018E+00
 0.1496868608813E+00 -0.1549228355707E+00
 0.1620400301681E+00 -0.1810436883842E+00
 0.1733854999324E+00 -0.2085019364636E+00
 0.1837569655788E+00 -0.2371317776427E+00
 0.1931775783854E+00 -0.2667860889250E+00
 0.2016730703541E+00 -0.2973346685903E+00
 0.2092780565421E+00 -0.3286607904243E+00
 0.2160342661307E+00 -0.3606568292839E+00
 0.2219865212059E+00 -0.3932199213346E+00
 0.2271823838881E+00 -0.4262473630132E+00
 0.2316806361738E+00 -0.4596367856092E+00
 0.2355575309596E+00 -0.4932911100439E+00
 0.2966624050621E-01 -0.2613640757897E-01
 0.5305992115706E-01 -0.3732594887229E-01
 0.7455823121693E-01 -0.5118293993361E-01
 0.9435167477413E-01 -0.6752518690634E-01
 0.1125900326812E+00 -0.8615538070881E-01
 0.1293986332354E+00 -0.1068671490125E+00
 0.1448871913049E+00 -0.1294510172896E+00
 0.1591523971563E+00 -0.1536997632151E+00
 0.1722746083250E+00 -0.1794141964851E+00
 0.1843119825427E+00 -0.2064084392836E+00
 0.1953011124698E+00 -0.2345144135701E+00
 0.2052678874803E+00 -0.2635835986353E+00
 0.2142410252132E+00 -0.2934854459012E+00
 0.2222582454219E+00 -0.3241038511935E+00
 0.2293637018182E+00 -0.3553325174654E+00
 0.2356027789577E+00 -0.3870698062945E+00
 0.2410211253794E+00 -0.4192123468741E+00
 0.2456759301523E+00 -0.4516535570763E+00
 0.2496445614331E+00 -0.4842874847140E+00
 0.3132500660129E-01 -0.2629749836071E-01
 0.5604364945932E-01 -0.3746662228977E-01
 0.7879567153377E-01 -0.5123387580590E-01
 0.9976260944223E-01 -0.6742930979928E-01
 0.1190888091368E+00 -0.8586068998435E-01
 0.1368974829943E+00 -0.1063224895038E+00
 0.1532988020842E+00 -0.1286037240180E+00
 0.1683918722022E+00 -0.1524945403412E+00
 0.1822605610941E+00 -0.1777928057675E+00
 0.1949665515353E+00 -0.2043099071160E+00
 0.2065495350869E+00 -0.2318755939888E+00
 0.2170384207545E+00 -0.2603400500703E+00
 0.2264652578335E+00 -0.2895724481828E+00
 0.2348712876098E+00 -0.3194573854866E+00
 0.2423035587833E+00 -0.3498901929540E+00
 0.2488081273114E+00 -0.3807715140361E+00
 0.2544275639214E+00 -0.4119990560120E+00
 0.2592151437148E+00 -0.4434638068275E+00
 0.2632459006538E+00 -0.4750507962665E+00
 0.3293075567041E-01 -0.2647294752222E-01
 0.5893674473221E-01 -0.3762667629739E-01
 0.8291396408859E-01 -0.5131042392326E-01
 0.1050304562081E+00 -0.6736555388722E-01
 0.1254223916797E+00 -0.8560356374170E-01
 0.1442093494918E+00 -0.1058185439714E+00
 0.1615011468925E+00 -0.1277972668704E+00
 0.1773989698774E+00 -0.1513268402963E+00
 0.1919902314915E+00 -0.1762021119379E+00
 0.2053403285026E+00 -0.2022318901624E+00
 0.2174922772140E+00 -0.2292440040288E+00
 0.2284782556737E+00 -0.2570875689832E+00
 0.2383339225864E+00 -0.2856315702275E+00
 0.2471044317150E+00 -0.3147612224432E+00
 0.2548403099127E+00 -0.3443733716058E+00
 0.2615890098395E+00 -0.3743712288596E+00
 0.2673895578766E+00 -0.4046559025633E+00
 0.2722890799833E+00 -0.4351197685574E+00
 0.2763553188083E+00 -0.4656411953503E+00
 0.3448240349648E-01 -0.2666306314908E-01
 0.6173856682159E-01 -0.3780747397160E-01
 0.8691300229396E-01 -0.5141644965858E-01
 0.1101550256223E+00 -0.6734144019671E-01
 0.1315898365331E+00 -0.8539510898133E-01
 0.1513321658875E+00 -0.1053699223837E+00
 0.1694907788672E+00 -0.1270495259469E+00
 0.1861687713612E+00 -0.1502175482091E+00
 0.2014573102396E+00 -0.1746658153343E+00
 0.2154258143103E+00 -0.2002008979677E+00
 0.2281208791169E+00 -0.2266491577022E+00
 0.2395781595553E+00 -0.2538590691086E+00
 0.2498370652953E+00 -0.2816996827412E+00
 0.2589468796194E+00 -0.3100566351971E+00
 0.2669621922698E+00 -0.3388277375675E+00
 0.2739326683388E+00 -0.3679180681839E+00
 0.2798950955536E+00 -0.3972315656594E+00
 0.2848902354720E+00 -0.4266703114288E+00
 0.2889717221505E+00 -0.4561146283791E+00
 0.3597861028625E-01 -0.2686784247562E-01
 0.6444945606216E-01 -0.3800869084532E-01
 0.9079457995604E-01 -0.5155636218464E-01
 0.1151379017729E+00 -0.6736523862532E-01
 0.1375920178181E+00 -0.8524745883074E-01
 0.1582656089987E+00 -0.1049924813843E+00
 0.1772658378713E+00 -0.1263797835445E+00
 0.1946977713625E+00 -0.1491888528022E+00
 0.2106568212298E+00 -0.1732087143162E+00
 0.2252168598183E+00 -0.1982443033094E+00
 0.2384283545173E+00 -0.2241211762416E+00
 0.2503306202515E+00 -0.2506878672055E+00
 0.2609668182598E+00 -0.2778140666981E+00
 0.2703902040909E+00 -0.3053859085603E+00
 0.2786597047816E+00 -0.3333009911906E+00
 0.2858282147316E+00 -0.3614649003473E+00
 0.2919302242602E+00 -0.3897813359619E+00
 0.2970083250584E+00 -0.4181574323386E+00
 0.3010996253910E+00 -0.4465131809115E+00
-0.1387415429084E+00 -0.8828799743829E-01
-0.2207428551981E+00 -0.1547642256981E+00
-0.2826595133431E+00 -0.2033369071267E+00
-0.3318791511997E+00 -0.2410044547414E+00
-0.3718033842394E+00 -0.2715908167644E+00
-0.4044708897602E+00 -0.2957819615361E+00
-0.4308157642668E+00 -0.3125670148155E+00
-0.4511124734963E+00 -0.3225834683766E+00
-0.4655206641609E+00 -0.3273182293141E+00
-0.4741805569854E+00 -0.3280036661402E+00
-0.4771563994606E+00 -0.3255641938321E+00
-0.4744543136739E+00 -0.3208022209365E+00
-0.4660857336534E+00 -0.3144717545413E+00
-0.4520948630699E+00 -0.3073534404005E+00
-0.4326159758163E+00 -0.3003644370931E+00
-0.4079431314352E+00 -0.2944821231194E+00
-0.3785045568904E+00 -0.2901817471261E+00
-0.3457648934649E+00 -0.2917517209010E+00
-0.3135825931939E+00 -0.3035387039814E+00
-0.1266169055845E+00 -0.7446221826083E-01
-0.2100685078607E+00 -0.1326947227866E+00
-0.2741324643936E+00 -0.1827329979949E+00
-0.3246197756182E+00 -0.2227764584805E+00
-0.3655837902743E+00 -0.2556956689810E+00
-0.3991618153374E+00 -0.2823823835493E+00
-0.4264057483233E+00 -0.3019912032248E+00
-0.4476719232415E+00 -0.3150626753766E+00
-0.4631702391254E+00 -0.3228856472587E+00
-0.4730855033918E+00 -0.3265876746412E+00
-0.4775127250675E+00 -0.3270619207917E+00
-0.4764665753775E+00 -0.3250832612240E+00
-0.4699440774825E+00 -0.3213633428265E+00
-0.4579567191142E+00 -0.3166108355551E+00
-0.4405744141629E+00 -0.3116490609289E+00
-0.4179994350283E+00 -0.3073241130634E+00
-0.3905690306937E+00 -0.3040350247371E+00
-0.3595301922342E+00 -0.3056903183249E+00
-0.3283744091351E+00 -0.3166340746847E+00
-0.1163247177836E+00 -0.6519462632487E-01
-0.1987556129825E+00 -0.1159152725166E+00
-0.2641622654398E+00 -0.1638488386781E+00
-0.3160242999049E+00 -0.2050517971933E+00
-0.3580636564498E+00 -0.2397964522985E+00
-0.3925900505981E+00 -0.2686101901543E+00
-0.4207528948844E+00 -0.2907377272056E+00
-0.4430036300773E+00 -0.3066276011494E+00
-0.4596019297566E+00 -0.3174061353234E+00
-0.4707694899597E+00 -0.3240730578132E+00
-0.4766347191795E+00 -0.3274474673452E+00
-0.4772312714843E+00 -0.3282555425229E+00
-0.4725573505844E+00 -0.3271618300868E+00
-0.4626046639480E+00 -0.3248099441207E+00
-0.4473978695243E+00 -0.3219297119417E+00
-0.4270666916477E+00 -0.3192666711692E+00
-0.4018685092645E+00 -0.3171524019403E+00
-0.3728159860211E+00 -0.3191977126218E+00
-0.3430498761981E+00 -0.3296959187948E+00
-0.1075004449429E+00 -0.5842946933619E-01
-0.1876346069400E+00 -0.1027701821775E+00
-0.2532586040588E+00 -0.1474795302931E+00
-0.3061725851226E+00 -0.1883174078242E+00
-0.3492683896474E+00 -0.2241365518672E+00
-0.3847472223210E+00 -0.2546318943256E+00
-0.4138285056160E+00 -0.2789527892971E+00
-0.4370546262811E+00 -0.2974127498946E+00
-0.4547442362083E+00 -0.3109733025275E+00
-0.4671528224157E+00 -0.3205055012766E+00
-0.4744390643916E+00 -0.3267361529871E+00
-0.4766599821851E+00 -0.3303235763983E+00
-0.4738263111056E+00 -0.3318762915848E+00
-0.4659236925255E+00 -0.3319737407939E+00
-0.4529464489298E+00 -0.3312626998665E+00
-0.4349698535284E+00 -0.3304002816901E+00
-0.4121868986948E+00 -0.3296624352357E+00
-0.3853707255586E+00 -0.3324043469552E+00
-0.3573170588972E+00 -0.3428491227980E+00
-0.9983917831896E-01 -0.5322097201898E-01
-0.1769830114738E+00 -0.9225392274603E-01
-0.2418996811105E+00 -0.1334636516064E+00
-0.2953043794604E+00 -0.1729868229998E+00
-0.3392653927373E+00 -0.2090299452509E+00
-0.3756464161419E+00 -0.2406613216423E+00
-0.4056169160643E+00 -0.2668015072536E+00
-0.4297893279254E+00 -0.2875551461298E+00
-0.4485427168005E+00 -0.3036934883728E+00
-0.4621663329393E+00 -0.3159530745830E+00
-0.4708461535242E+00 -0.3249615240191E+00
-0.4746632166737E+00 -0.3312987985216E+00
-0.4736479249290E+00 -0.3355089242391E+00
-0.4677906351432E+00 -0.3381071206178E+00
-0.4570687705758E+00 -0.3396639883173E+00
-0.4415194844917E+00 -0.3407587964878E+00
-0.4212889920919E+00 -0.3416184769316E+00
-0.3969126926485E+00 -0.3453696213010E+00
-0.3708343166779E+00 -0.3561326115769E+00
-0.9309803774351E-01 -0.4907352947354E-01
-0.1668874144222E+00 -0.8368956617382E-01
-0.2304012478130E+00 -0.1214919158048E+00
-0.2837048183202E+00 -0.1591774277042E+00
-0.3281972258307E+00 -0.1947593747084E+00
-0.3653367200612E+00 -0.2269447857763E+00
-0.3961251539221E+00 -0.2544760125297E+00
-0.4211900344772E+00 -0.2772067945803E+00
-0.4409598815357E+00 -0.2956851097576E+00
-0.4557549604671E+00 -0.3104996528755E+00
-0.4657857904812E+00 -0.3221731696386E+00
-0.4711565255906E+00 -0.3312020178585E+00
-0.4719208244096E+00 -0.3380606121589E+00
-0.4680814935420E+00 -0.3431995933783E+00
-0.4596101853932E+00 -0.3471185728868E+00
-0.4465204885784E+00 -0.3503264990540E+00
-0.4289290797889E+00 -0.3530078939945E+00
-0.4071397153009E+00 -0.3580720883010E+00
-0.3832310457105E+00 -0.3694913099877E+00
-0.8708967541135E-01 -0.4568916115150E-01
-0.1573524764350E+00 -0.7661339616037E-01
-0.2189620621335E+00 -0.1112478325612E+00
-0.2716264728296E+00 -0.1468554585610E+00
-0.3162512155863E+00 -0.1814913120384E+00
-0.3539151338252E+00 -0.2137121492999E+00
-0.3853923651206E+00 -0.2421838379660E+00
-0.4112625123045E+00 -0.2665369782405E+00
-0.4319776215014E+00 -0.2870811592908E+00
-0.4478804397802E+00 -0.3042433352320E+00
-0.4592015230437E+00 -0.3184346025622E+00
-0.4660659072707E+00 -0.3300642185585E+00
-0.4685514442496E+00 -0.3395342570493E+00
-0.4666782451790E+00 -0.3472311500913E+00
-0.4604208373054E+00 -0.3535875310087E+00
-0.4497814284082E+00 -0.3590476819670E+00
-0.4348624883370E+00 -0.3637596018033E+00
-0.4157458833830E+00 -0.3704149901337E+00
-0.3941321723883E+00 -0.3827818231399E+00
-0.8166854647458E-01 -0.4287419886586E-01
-0.1483482697020E+00 -0.7069449261263E-01
-0.2077026342625E+00 -0.1024508064136E+00
-0.2592725936832E+00 -0.1359143748651E+00
-0.3036218930447E+00 -0.1692936557566E+00
-0.3415162958327E+00 -0.2011345922687E+00
-0.3734943981643E+00 -0.2301210141564E+00
-0.4000415235779E+00 -0.2557228279003E+00
-0.4216013801910E+00 -0.2780273695694E+00
-0.4385246521301E+00 -0.2972957256616E+00
-0.4510544510693E+00 -0.3138223874393E+00
-0.4593325911277E+00 -0.3279268920297E+00
-0.4634596868925E+00 -0.3399375381057E+00
-0.4634754215682E+00 -0.3501774835299E+00
-0.4593633501729E+00 -0.3590157949721E+00
-0.4511238832177E+00 -0.3668362956359E+00
-0.4388577947734E+00 -0.3737553589821E+00
-0.4224387890207E+00 -0.3822384944469E+00
-0.4031823341092E+00 -0.3957890043981E+00
-0.7672067088664E-01 -0.4049541205303E-01
-0.1398311391881E+00 -0.6568908433965E-01
-0.1966927898392E+00 -0.9486215292216E-01
-0.2467991408852E+00 -0.1262186663019E+00
-0.2904902542467E+00 -0.1581646783813E+00
-0.3282937393243E+00 -0.1893182951291E+00
-0.3605384697319E+00 -0.2184483618400E+00
-0.3875925790526E+00 -0.2449327441836E+00
-0.4098635628275E+00 -0.2686742589460E+00
-0.4276931503492E+00 -0.2897786705378E+00
-0.4413269311185E+00 -0.3084248744557E+00
-0.4509173379700E+00 -0.3248422815779E+00
-0.4565840276366E+00 -0.3392851815796E+00
-0.4583861090072E+00 -0.3520148059097E+00
-0.4563199392429E+00 -0.3633396596264E+00
-0.4503911360353E+00 -0.3735862621473E+00
-0.4407081087011E+00 -0.3828430225336E+00
-0.4269549093026E+00 -0.3933364035958E+00
-0.4100654900806E+00 -0.4082471111039E+00
-0.7215618154459E-01 -0.3845733950267E-01
-0.1317536270909E+00 -0.6141287266037E-01
-0.1859697038742E+00 -0.8828168109326E-01
-0.2343224882296E+00 -0.1176260720444E+00
-0.2770147668193E+00 -0.1480583235297E+00
-0.3144043832824E+00 -0.1783127626281E+00
-0.3466526414655E+00 -0.2072821600012E+00
-0.3740084170558E+00 -0.2343115416304E+00
-0.3968241787370E+00 -0.2591658559866E+00
-0.4154175323390E+00 -0.2818177247518E+00
-0.4300257297634E+00 -0.3023391119472E+00
-0.4408042134596E+00 -0.3208727582150E+00
-0.4478859847757E+00 -0.3376006434686E+00
-0.4513472286504E+00 -0.3527240831343E+00
-0.4511986638986E+00 -0.3664938830713E+00
-0.4474557153281E+00 -0.3791817546532E+00
-0.4402405846558E+00 -0.3908506316554E+00
-0.4290718321290E+00 -0.4034744018800E+00
-0.4145189196701E+00 -0.4198618315604E+00
-0.6790393218233E-01 -0.3668947786717E-01
-0.1240693187821E+00 -0.5772366202463E-01
-0.1755496835116E+00 -0.8254210329328E-01
-0.2219276845525E+00 -0.1099986203007E+00
-0.2633291634524E+00 -0.1389025363476E+00
-0.2999982705583E+00 -0.1681235098007E+00
-0.3319751838460E+00 -0.1966946432350E+00
-0.3594022709487E+00 -0.2239722718806E+00
-0.3825682477928E+00 -0.2496294797759E+00
-0.4017556540687E+00 -0.2735340244258E+00
-0.4171838502818E+00 -0.2956658396139E+00
-0.4290034238262E+00 -0.3160887624008E+00
-0.4373537470849E+00 -0.3349167755048E+00
-0.4423239271173E+00 -0.3522944515795E+00
-0.4439386334571E+00 -0.3684180595728E+00
-0.4422255319820E+00 -0.3835068870361E+00
-0.4373238170432E+00 -0.3976000884323E+00
-0.4286170196172E+00 -0.4124078748044E+00
-0.4163418262141E+00 -0.4303309237684E+00
-0.6390753047029E-01 -0.3513856025112E-01
-0.1167352113255E+00 -0.5451000674595E-01
-0.1654359438766E+00 -0.7750362615494E-01
-0.2096757390201E+00 -0.1032078208038E+00
-0.2495436308223E+00 -0.1306117462162E+00
-0.2852128385447E+00 -0.1587243235057E+00
-0.3166459891551E+00 -0.1867195730423E+00
-0.3439003663620E+00 -0.2139941088456E+00
-0.3672010167801E+00 -0.2401691300615E+00
-0.3867895616775E+00 -0.2650368842270E+00
-0.4028605213798E+00 -0.2885036388407E+00
-0.4155527247840E+00 -0.3105654678193E+00
-0.4250046059483E+00 -0.3312752774903E+00
-0.4313128383582E+00 -0.3507255541414E+00
-0.4345140034163E+00 -0.3690619603313E+00
-0.4346485199258E+00 -0.3864542947197E+00
-0.4318731079452E+00 -0.4029195237794E+00
-0.4254732961745E+00 -0.4198979837021E+00
-0.4153993097670E+00 -0.4393622788089E+00
-0.6012236778991E-01 -0.3376364943551E-01
-0.1097128184838E+00 -0.5168352525149E-01
-0.1556238248650E+00 -0.7304931773388E-01
-0.1976096208026E+00 -0.9713683209296E-01
-0.2357475068115E+00 -0.1230951103579E+00
-0.2701704138963E+00 -0.1500675480126E+00
-0.3008005295030E+00 -0.1773596204267E+00
-0.3276351496869E+00 -0.2044243067002E+00
-0.3508423322898E+00 -0.2308627043611E+00
-0.3706217652699E+00 -0.2564185625256E+00
-0.3871393583522E+00 -0.2809435602602E+00
-0.4005171295539E+00 -0.3043788877078E+00
-0.4108858568242E+00 -0.3267251600830E+00
-0.4183439332493E+00 -0.3480287651866E+00
-0.4229365919093E+00 -0.3683896696543E+00
-0.4247157800137E+00 -0.3879322693511E+00
-0.4238538084263E+00 -0.4066537275359E+00
-0.4195815177048E+00 -0.4257251893238E+00
-0.4116226020981E+00 -0.4466887931401E+00
-0.5651335063727E-01 -0.3253287783978E-01
-0.1029686027043E+00 -0.4917352377427E-01
-0.1461043372189E+00 -0.6908129757979E-01
-0.1857590562919E+00 -0.9168106180233E-01
-0.2220124806315E+00 -0.1162618560776E+00
-0.2549777867944E+00 -0.1420921638917E+00
-0.2845660925392E+00 -0.1685938061731E+00
-0.3107398896630E+00 -0.1952823488382E+00
-0.3336211745153E+00 -0.2217622101783E+00
-0.3533706806550E+00 -0.2477514971377E+00
-0.3701251046175E+00 -0.2730650649598E+00
-0.3839869445594E+00 -0.2976021951263E+00
-0.3950739711666E+00 -0.3213207135447E+00
-0.4034806794411E+00 -0.3442275577974E+00
-0.4092569137675E+00 -0.3663826423640E+00
-0.4124632467795E+00 -0.3878704111594E+00
-0.4132830768099E+00 -0.4086723837276E+00
-0.4109410659692E+00 -0.4296997542592E+00
-0.4050064683275E+00 -0.4520797497095E+00
-0.5305313866407E-01 -0.3142119866817E-01
-0.9647404294847E-01 -0.4692312497621E-01
-0.1368666002608E+00 -0.6551764390700E-01
-0.1741443214183E+00 -0.8674797187590E-01
-0.2083958028346E+00 -0.1100246865886E+00
-0.2397270429680E+00 -0.1347299253847E+00
-0.2680598178947E+00 -0.1603842154980E+00
-0.2933447841328E+00 -0.1865649825093E+00
-0.3156709463322E+00 -0.2128959291753E+00
-0.3351659745508E+00 -0.2390876381313E+00
-0.3519395409646E+00 -0.2649334676637E+00
-0.3660744261703E+00 -0.2903026728041E+00
-0.3776720132680E+00 -0.3151193817922E+00
-0.3868182740558E+00 -0.3393574027282E+00
-0.3935633401912E+00 -0.3630420609526E+00
-0.3979718344928E+00 -0.3862242699120E+00
-0.4002304991827E+00 -0.4088762732431E+00
-0.3996090862098E+00 -0.4316691050569E+00
-0.3956047458082E+00 -0.4553484755223E+00
-0.4972075640311E-01 -0.3040878172218E-01
-0.9020550290699E-01 -0.4488640544201E-01
-0.1278995273061E+00 -0.6228988429134E-01
-0.1627792272403E+00 -0.8225649736026E-01
-0.1949432790659E+00 -0.1043019035615E+00
-0.2244971038709E+00 -0.1279099347484E+00
-0.2513880617153E+00 -0.1526817338444E+00
-0.2755744531563E+00 -0.1782513737490E+00
-0.2971257951286E+00 -0.2042716796201E+00
-0.3161443673964E+00 -0.2304592876022E+00
-0.3327171917636E+00 -0.2565986260503E+00
-0.3469095423426E+00 -0.2825392151770E+00
-0.3588054790073E+00 -0.3081795062290E+00
-0.3684796666700E+00 -0.3334652623906E+00
-0.3759788956043E+00 -0.3583911088458E+00
-0.3813656377274E+00 -0.3829797982136E+00
-0.3848180044716E+00 -0.4072027232147E+00
-0.3856998359338E+00 -0.4315221836608E+00
-0.3835254168194E+00 -0.4563562908167E+00
-0.4650048308648E-01 -0.2947982883424E-01
-0.8414397930822E-01 -0.4302621928927E-01
-0.1191929727951E+00 -0.5934095134758E-01
-0.1516734529356E+00 -0.7813629903598E-01
-0.1816919443347E+00 -0.9901867474175E-01
-0.2093556048023E+00 -0.1215619988361E+00
-0.2346466719569E+00 -0.1454307956820E+00
-0.2575465755470E+00 -0.1703080045944E+00
-0.2781180154973E+00 -0.1958806370372E+00
-0.2964462575544E+00 -0.2218809773321E+00
-0.3126014445216E+00 -0.2480945305740E+00
-0.3266355499158E+00 -0.2743599706819E+00
-0.3386170224869E+00 -0.3005572352165E+00
-0.3486093112718E+00 -0.3266078111511E+00
-0.3566543993674E+00 -0.3524767953987E+00
-0.3628069836428E+00 -0.3781599113831E+00
-0.3672185576878E+00 -0.4036321137994E+00
-0.3693863356051E+00 -0.4291935843979E+00
-0.3689279236247E+00 -0.4550114141245E+00
-0.4338096732645E-01 -0.2862163559750E-01
-0.7827477628164E-01 -0.4131249471656E-01
-0.1107384891184E+00 -0.5662351715799E-01
-0.1408343697790E+00 -0.7432699931234E-01
-0.1686724237699E+00 -0.9410774345428E-01
-0.1943609106753E+00 -0.1156190270094E+00
-0.2179218649837E+00 -0.1385732230855E+00
-0.2393714100321E+00 -0.1626931547354E+00
-0.2587764463368E+00 -0.1877014616739E+00
-0.2762133682121E+00 -0.2133522296639E+00
-0.2917416815395E+00 -0.2394397821218E+00
-0.3054054233640E+00 -0.2657999366752E+00
-0.3172613744163E+00 -0.2923014797991E+00
-0.3273652683090E+00 -0.3188458329823E+00
-0.3357574288180E+00 -0.3453680020338E+00
-0.3424827597939E+00 -0.3718318439656E+00
-0.3476511368353E+00 -0.3982064658837E+00
-0.3509057708929E+00 -0.4246688686647E+00
-0.3520290949320E+00 -0.4512692642030E+00
-0.4035455585966E-01 -0.2782380097893E-01
-0.7258709743101E-01 -0.3972067846916E-01
-0.1025296953358E+00 -0.5409873277126E-01
-0.1302684759632E+00 -0.7077758580187E-01
-0.1559110352737E+00 -0.8950973332353E-01
-0.1795641463415E+00 -0.1100186480145E+00
-0.2012914463499E+00 -0.1320511541003E+00
-0.2211518749196E+00 -0.1553608707726E+00
-0.2392255922221E+00 -0.1797046262918E+00
-0.2555873145003E+00 -0.2048613367381E+00
-0.2702917190929E+00 -0.2306396203155E+00
-0.2833802525831E+00 -0.2568795481591E+00
-0.2949028132482E+00 -0.2834471596357E+00
-0.3049131887427E+00 -0.3102313920091E+00
-0.3134584087003E+00 -0.3371410500112E+00
-0.3205815101000E+00 -0.3641020792885E+00
-0.3263447120522E+00 -0.3910565823147E+00
-0.3305679650992E+00 -0.4180487942125E+00
-0.3331373998805E+00 -0.4451092369923E+00
 0.4035455637793E-01 -0.2782380108552E-01
 0.7258709825618E-01 -0.3972067859195E-01
 0.1025296963604E+00 -0.5409873288852E-01
 0.1302684770844E+00 -0.7077758589759E-01
 0.1559110364009E+00 -0.8950973338712E-01
 0.1795641474010E+00 -0.1100186480417E+00
 0.2012914472882E+00 -0.1320511540931E+00
 0.2211518757065E+00 -0.1553608707391E+00
 0.2392255928508E+00 -0.1797046262446E+00
 0.2555873149842E+00 -0.2048613366911E+00
 0.2702917194589E+00 -0.2306396202809E+00
 0.2833802528629E+00 -0.2568795481457E+00
 0.2949028134712E+00 -0.2834471596486E+00
 0.3049131889319E+00 -0.3102313920503E+00
 0.3134584088714E+00 -0.3371410500809E+00
 0.3205815102634E+00 -0.3641020793860E+00
 0.3263447122128E+00 -0.3910565824398E+00
 0.3305679652511E+00 -0.4180487943662E+00
 0.3331374000221E+00 -0.4451092371697E+00
 0.4338096783254E-01 -0.2862163571325E-01
 0.7827477708996E-01 -0.4131249485731E-01
 0.1107384901223E+00 -0.5662351730235E-01
 0.1408343708765E+00 -0.7432699944320E-01
 0.1686724248723E+00 -0.9410774355925E-01
 0.1943609117112E+00 -0.1156190270824E+00
 0.2179218659025E+00 -0.1385732231271E+00
 0.2393714108063E+00 -0.1626931547523E+00
 0.2587764469615E+00 -0.1877014616781E+00
 0.2762133687010E+00 -0.2133522296693E+00
 0.2917416819181E+00 -0.2394397821412E+00
 0.3054054236619E+00 -0.2657999367181E+00
 0.3172613746605E+00 -0.2923014798706E+00
 0.3273652685200E+00 -0.3188458330850E+00
 0.3357574290096E+00 -0.3453680021680E+00
 0.3424827599754E+00 -0.3718318441308E+00
 0.3476511370100E+00 -0.3982064660803E+00
 0.3509057710452E+00 -0.4246688688972E+00
 0.3520290950551E+00 -0.4512692644652E+00
 0.4650048358159E-01 -0.2947982896003E-01
 0.8414398010106E-01 -0.4302621945070E-01
 0.1191929737793E+00 -0.5934095152334E-01
 0.1516734540099E+00 -0.7813629920741E-01
 0.1816919454123E+00 -0.9901867489407E-01
 0.2093556058144E+00 -0.1215619989609E+00
 0.2346466728556E+00 -0.1454307957776E+00
 0.2575465763078E+00 -0.1703080046656E+00
 0.2781180161170E+00 -0.1958806370953E+00
 0.2964462580468E+00 -0.2218809773910E+00
 0.3126014449110E+00 -0.2480945306471E+00
 0.3266355502293E+00 -0.2743599707790E+00
 0.3386170227492E+00 -0.3005572353432E+00
 0.3486093115013E+00 -0.3266078113103E+00
 0.3566543995758E+00 -0.3524767955909E+00
 0.3628069838388E+00 -0.3781599116076E+00
 0.3672185578729E+00 -0.4036321140574E+00
 0.3693863357559E+00 -0.4291935846992E+00
 0.3689279237307E+00 -0.4550114144649E+00
 0.4972075688899E-01 -0.3040878185905E-01
 0.9020550368620E-01 -0.4488640562709E-01
 0.1278995282719E+00 -0.6228988450311E-01
 0.1627792282921E+00 -0.8225649757784E-01
 0.1949432801186E+00 -0.1043019037671E+00
 0.2244971048584E+00 -0.1279099349306E+00
 0.2513880625929E+00 -0.1526817339987E+00
 0.2755744539023E+00 -0.1782513738778E+00
 0.2971257957416E+00 -0.2042716797339E+00
 0.3161443678902E+00 -0.2304592877148E+00
 0.3327171921610E+00 -0.2565986261755E+00
 0.3469095426686E+00 -0.2825392153251E+00
 0.3588054792841E+00 -0.3081795064061E+00
 0.3684796669139E+00 -0.3334652625998E+00
 0.3759788958254E+00 -0.3583911090878E+00
 0.3813656379333E+00 -0.3829797984878E+00
 0.3848180046621E+00 -0.4072027235226E+00
 0.3856998360797E+00 -0.4315221840194E+00
 0.3835254169088E+00 -0.4563562912272E+00
 0.5305313914296E-01 -0.3142119881730E-01
 0.9647404371628E-01 -0.4692312518816E-01
 0.1368666012096E+00 -0.6551764415958E-01
 0.1741443224477E+00 -0.8674797214524E-01
 0.2083958038619E+00 -0.1100246868531E+00
 0.2397270439298E+00 -0.1347299256292E+00
 0.2680598187495E+00 -0.1603842157145E+00
 0.2933447848618E+00 -0.1865649826977E+00
 0.3156709469361E+00 -0.2128959293451E+00
 0.3351659750432E+00 -0.2390876382962E+00
 0.3519395413667E+00 -0.2649334678380E+00
 0.3660744265050E+00 -0.2903026729988E+00
 0.3776720135552E+00 -0.3151193820136E+00
 0.3868182743096E+00 -0.3393574029798E+00
 0.3935633404198E+00 -0.3630420612353E+00
 0.3979718347027E+00 -0.3862242702250E+00
 0.4002304993722E+00 -0.4088762735886E+00
 0.3996090863462E+00 -0.4316691054608E+00
 0.3956047458807E+00 -0.4553484759940E+00
 0.5651335111182E-01 -0.3253287800251E-01
 0.1029686034632E+00 -0.4917352401660E-01
 0.1461043381520E+00 -0.6908129787815E-01
 0.1857590572991E+00 -0.9168106212889E-01
 0.2220124816322E+00 -0.1162618564061E+00
 0.2549777877285E+00 -0.1420921642026E+00
 0.2845660933688E+00 -0.1685938064543E+00
 0.3107398903726E+00 -0.1952823490868E+00
 0.3336211751072E+00 -0.2217622104029E+00
 0.3533706811426E+00 -0.2477514973522E+00
 0.3701251050206E+00 -0.2730650651789E+00
 0.3839869448986E+00 -0.2976021953616E+00
 0.3950739714594E+00 -0.3213207138032E+00
 0.4034806796994E+00 -0.3442275580826E+00
 0.4092569139978E+00 -0.3663826426771E+00
 0.4124632469870E+00 -0.3878704114997E+00
 0.4132830769913E+00 -0.4086723840981E+00
 0.4109410660904E+00 -0.4296997546960E+00
 0.4050064683814E+00 -0.4520797502325E+00
 0.6012236826311E-01 -0.3376364961335E-01
 0.1097128192362E+00 -0.5168352552796E-01
 0.1556238257834E+00 -0.7304931808303E-01
 0.1976096217869E+00 -0.9713683248181E-01
 0.2357475077836E+00 -0.1230951107547E+00
 0.2701704148000E+00 -0.1500675483927E+00
 0.3008005303043E+00 -0.1773596207732E+00
 0.3276351503738E+00 -0.2044243070077E+00
 0.3508423328661E+00 -0.2308627046374E+00
 0.3706217657490E+00 -0.2564185627851E+00
 0.3871393587523E+00 -0.2809435605184E+00
 0.4005171298931E+00 -0.3043788879769E+00
 0.4108858571176E+00 -0.3267251603703E+00
 0.4183439335066E+00 -0.3480287654961E+00
 0.4229365921351E+00 -0.3683896699875E+00
 0.4247157802116E+00 -0.3879322697073E+00
 0.4238538085916E+00 -0.4066537279191E+00
 0.4195815178041E+00 -0.4257251897814E+00
 0.4116226021307E+00 -0.4466887937043E+00
 0.6390753094539E-01 -0.3513856044574E-01
 0.1167352120738E+00 -0.5451000706050E-01
 0.1654359447807E+00 -0.7750362655975E-01
 0.2096757399800E+00 -0.1032078212593E+00
 0.2495436317630E+00 -0.1306117466841E+00
 0.2852128394143E+00 -0.1587243239558E+00
 0.3166459899244E+00 -0.1867195734527E+00
 0.3439003670225E+00 -0.2139941092084E+00
 0.3672010173374E+00 -0.2401691303845E+00
 0.3867895621444E+00 -0.2650368845253E+00
 0.4028605217728E+00 -0.2885036391307E+00
 0.4155527251187E+00 -0.3105654681141E+00
 0.4250046062373E+00 -0.3312752777975E+00
 0.4313128386088E+00 -0.3507255544656E+00
 0.4345140036310E+00 -0.3690619606742E+00
 0.4346485201064E+00 -0.3864542950808E+00
 0.4318731080857E+00 -0.4029195241640E+00
 0.4254732962445E+00 -0.4198979841692E+00
 0.4153993097743E+00 -0.4393622794040E+00
 0.6790393266268E-01 -0.3668947808039E-01
 0.1240693195280E+00 -0.5772366238129E-01
 0.1755496844008E+00 -0.8254210375822E-01
 0.2219276854854E+00 -0.1099986208262E+00
 0.2633291643576E+00 -0.1389025368878E+00
 0.2999982713894E+00 -0.1681235103192E+00
 0.3319751845792E+00 -0.1966946437052E+00
 0.3594022715792E+00 -0.2239722722929E+00
 0.3825682483275E+00 -0.2496294801387E+00
 0.4017556545199E+00 -0.2735340247552E+00
 0.4171838506638E+00 -0.2956658399275E+00
 0.4290034241520E+00 -0.3160887627125E+00
 0.4373537473644E+00 -0.3349167758229E+00
 0.4423239273553E+00 -0.3522944519088E+00
 0.4439386336540E+00 -0.3684180599157E+00
 0.4422255321376E+00 -0.3835068873920E+00
 0.4373238171502E+00 -0.3976000888079E+00
 0.4286170196498E+00 -0.4124078752708E+00
 0.4163418261908E+00 -0.4303309243849E+00
 0.7215618203341E-01 -0.3845733973645E-01
 0.1317536278355E+00 -0.6141287306312E-01
 0.1859697047468E+00 -0.8828168162206E-01
 0.2343224891314E+00 -0.1176260726415E+00
 0.2770147676841E+00 -0.1480583241409E+00
 0.3144043840700E+00 -0.1783127632107E+00
 0.3466526421584E+00 -0.2072821605241E+00
 0.3740084176528E+00 -0.2343115420836E+00
 0.3968241792461E+00 -0.2591658563799E+00
 0.4154175327712E+00 -0.2818177251032E+00
 0.4300257301310E+00 -0.3023391122755E+00
 0.4408042137726E+00 -0.3208727585348E+00
 0.4478859850411E+00 -0.3376006437886E+00
 0.4513472288703E+00 -0.3527240834598E+00
 0.4511986640711E+00 -0.3664938834052E+00
 0.4474557154510E+00 -0.3791817549953E+00
 0.4402405847207E+00 -0.3908506320137E+00
 0.4290718321159E+00 -0.4034744023373E+00
 0.4145189196099E+00 -0.4198618321897E+00
 0.7672067138679E-01 -0.4049541230937E-01
 0.1398311399313E+00 -0.6568908479221E-01
 0.1966927906917E+00 -0.9486215351729E-01
 0.2467991417505E+00 -0.1262186669696E+00
 0.2904902550651E+00 -0.1581646790587E+00
 0.3282937400636E+00 -0.1893182957675E+00
 0.3605384703810E+00 -0.2184483624053E+00
 0.3875925796136E+00 -0.2449327446667E+00
 0.4098635633087E+00 -0.2686742593593E+00
 0.4276931507603E+00 -0.2897786709013E+00
 0.4413269314689E+00 -0.3084248747893E+00
 0.4509173382668E+00 -0.3248422818969E+00
 0.4565840278835E+00 -0.3392851818931E+00
 0.4583861092036E+00 -0.3520148062233E+00
 0.4563199393846E+00 -0.3633396599436E+00
 0.4503911361180E+00 -0.3735862624684E+00
 0.4407081087154E+00 -0.3828430228682E+00
 0.4269549092358E+00 -0.3933364040378E+00
 0.4100654899767E+00 -0.4082471117390E+00
 0.8166854698814E-01 -0.4287419914679E-01
 0.1483482704420E+00 -0.7069449311809E-01
 0.2077026350897E+00 -0.1024508070755E+00
 0.2592725945052E+00 -0.1359143755993E+00
 0.3036218938103E+00 -0.1692936564912E+00
 0.3415162965189E+00 -0.2011345929507E+00
 0.3734943987670E+00 -0.2301210147503E+00
 0.4000415241015E+00 -0.2557228284003E+00
 0.4216013806435E+00 -0.2780273699911E+00
 0.4385246525187E+00 -0.2972957260270E+00
 0.4510544514005E+00 -0.3138223877692E+00
 0.4593325914052E+00 -0.3279268923396E+00
 0.4634596871169E+00 -0.3399375384051E+00
 0.4634754217361E+00 -0.3501774838245E+00
 0.4593633502778E+00 -0.3590157952664E+00
 0.4511238832533E+00 -0.3668362959308E+00
 0.4388577947297E+00 -0.3737553592886E+00
 0.4224387888926E+00 -0.3822384948700E+00
 0.4031823339547E+00 -0.3957890050341E+00
 0.8708967593911E-01 -0.4568916145893E-01
 0.1573524771678E+00 -0.7661339672070E-01
 0.2189620629278E+00 -0.1112478332874E+00
 0.2716264736000E+00 -0.1468554593527E+00
 0.3162512162928E+00 -0.1814913128162E+00
 0.3539151344553E+00 -0.2137121500086E+00
 0.3853923656763E+00 -0.2421838385722E+00
 0.4112625127912E+00 -0.2665369787430E+00
 0.4319776219253E+00 -0.2870811597091E+00
 0.4478804401459E+00 -0.3042433355894E+00
 0.4592015233543E+00 -0.3184346028800E+00
 0.4660659075265E+00 -0.3300642188519E+00
 0.4685514444480E+00 -0.3395342573278E+00
 0.4666782453138E+00 -0.3472311503612E+00
 0.4604208373680E+00 -0.3535875312752E+00
 0.4497814283904E+00 -0.3590476822321E+00
 0.4348624882286E+00 -0.3637596020799E+00
 0.4157458831873E+00 -0.3704149905368E+00
 0.3941321721767E+00 -0.3827818237744E+00
 0.9309803828418E-01 -0.4907352980905E-01
 0.1668874151406E+00 -0.8368956678900E-01
 0.2304012485645E+00 -0.1214919165880E+00
 0.2837048190304E+00 -0.1591774285380E+00
 0.3281972264734E+00 -0.1947593755091E+00
 0.3653367206346E+00 -0.2269447864908E+00
 0.3961251544326E+00 -0.2544760131298E+00
 0.4211900349291E+00 -0.2772067950710E+00
 0.4409598819327E+00 -0.2956851101613E+00
 0.4557549608104E+00 -0.3104996532163E+00
 0.4657857907705E+00 -0.3221731699368E+00
 0.4711565258227E+00 -0.3312020181290E+00
 0.4719208245788E+00 -0.3380606124111E+00
 0.4680814936394E+00 -0.3431995936187E+00
 0.4596101854086E+00 -0.3471185731222E+00
 0.4465204885021E+00 -0.3503264992875E+00
 0.4289290796108E+00 -0.3530078942415E+00
 0.4071397150328E+00 -0.3580720886857E+00
 0.3832310454369E+00 -0.3694913106213E+00
 0.9983917886809E-01 -0.5322097238351E-01
 0.1769830121669E+00 -0.9225392341264E-01
 0.2418996818068E+00 -0.1334636524324E+00
 0.2953043801021E+00 -0.1729868238519E+00
 0.3392653933142E+00 -0.2090299460479E+00
 0.3756464166616E+00 -0.2406613223389E+00
 0.4056169165341E+00 -0.2668015078295E+00
 0.4297893283468E+00 -0.2875551465957E+00
 0.4485427171733E+00 -0.3036934887523E+00
 0.4621663332614E+00 -0.3159530748993E+00
 0.4708461537918E+00 -0.3249615242913E+00
 0.4746632168804E+00 -0.3312987987637E+00
 0.4736479250662E+00 -0.3355089244603E+00
 0.4677906351998E+00 -0.3381071208254E+00
 0.4570687705399E+00 -0.3396639885195E+00
 0.4415194843526E+00 -0.3407587966894E+00
 0.4212889918404E+00 -0.3416184771510E+00
 0.3969126923053E+00 -0.3453696216715E+00
 0.3708343163397E+00 -0.3561326122132E+00
 0.1075004454911E+00 -0.5842946972945E-01
 0.1876346075919E+00 -0.1027701828862E+00
 0.2532586046863E+00 -0.1474795311365E+00
 0.3061725856907E+00 -0.1883174086603E+00
 0.3492683901619E+00 -0.2241365526285E+00
 0.3847472227941E+00 -0.2546318949805E+00
 0.4138285060521E+00 -0.2789527898328E+00
 0.4370546266773E+00 -0.2974127503247E+00
 0.4547442365606E+00 -0.3109733028749E+00
 0.4671528227184E+00 -0.3205055015622E+00
 0.4744390646376E+00 -0.3267361532281E+00
 0.4766599823651E+00 -0.3303235766076E+00
 0.4738263112084E+00 -0.3318762917714E+00
 0.4659236925381E+00 -0.3319737409660E+00
 0.4529464488393E+00 -0.3312627000345E+00
 0.4349698533239E+00 -0.3304002818607E+00
 0.4121868983685E+00 -0.3296624354308E+00
 0.3853707251400E+00 -0.3324043473175E+00
 0.3573170584947E+00 -0.3428491234434E+00
 0.1163247183140E+00 -0.6519462674422E-01
 0.1987556135715E+00 -0.1159152732465E+00
 0.2641622659859E+00 -0.1638488394965E+00
 0.3160243004012E+00 -0.2050517979675E+00
 0.3580636569115E+00 -0.2397964529911E+00
 0.3925900510351E+00 -0.2686101907472E+00
 0.4207528952957E+00 -0.2907377276888E+00
 0.4430036304547E+00 -0.3066276015354E+00
 0.4596019300923E+00 -0.3174061356324E+00
 0.4707694902448E+00 -0.3240730580631E+00
 0.4766347194039E+00 -0.3274474675508E+00
 0.4772312716362E+00 -0.3282555426958E+00
 0.4725573506506E+00 -0.3271618302359E+00
 0.4626046639140E+00 -0.3248099442554E+00
 0.4473978693770E+00 -0.3219297120748E+00
 0.4270666913763E+00 -0.3192666713102E+00
 0.4018685088636E+00 -0.3171524021153E+00
 0.3728159855293E+00 -0.3191977129837E+00
 0.3430498757349E+00 -0.3296959194583E+00
 0.1266169060680E+00 -0.7446221869692E-01
 0.2100685083595E+00 -0.1326947234948E+00
 0.2741324648545E+00 -0.1827329987184E+00
 0.3246197760552E+00 -0.2227764591428E+00
 0.3655837906983E+00 -0.2556956695783E+00
 0.3991618157512E+00 -0.2823823840659E+00
 0.4264057487195E+00 -0.3019912036465E+00
 0.4476719236069E+00 -0.3150626757122E+00
 0.4631702394489E+00 -0.3228856475245E+00
 0.4730855036613E+00 -0.3265876748517E+00
 0.4775127252706E+00 -0.3270619209588E+00
 0.4764665755003E+00 -0.3250832613577E+00
 0.4699440775102E+00 -0.3213633429359E+00
 0.4579567190318E+00 -0.3166108356509E+00
 0.4405744139575E+00 -0.3116490610270E+00
 0.4179994346902E+00 -0.3073241131766E+00
 0.3905690302202E+00 -0.3040350248965E+00
 0.3595301916735E+00 -0.3056903186950E+00
 0.3283744086179E+00 -0.3166340753770E+00
 0.1387415432904E+00 -0.8828799787512E-01
 0.2207428555868E+00 -0.1547642262709E+00
 0.2826595137361E+00 -0.2033369076688E+00
 0.3318791515988E+00 -0.2410044552542E+00
 0.3718033846435E+00 -0.2715908172488E+00
 0.4044708901647E+00 -0.2957819619662E+00
 0.4308157646580E+00 -0.3125670151690E+00
 0.4511124738568E+00 -0.3225834686574E+00
 0.4655206644763E+00 -0.3273182295337E+00
 0.4741805572414E+00 -0.3280036663089E+00
 0.4771563996425E+00 -0.3255641939583E+00
 0.4744543137664E+00 -0.3208022210287E+00
 0.4660857336411E+00 -0.3144717546087E+00
 0.4520948629376E+00 -0.3073534404557E+00
 0.4326159755523E+00 -0.3003644371554E+00
 0.4079431310320E+00 -0.2944821232060E+00
 0.3785045563481E+00 -0.2901817472743E+00
 0.3457648928415E+00 -0.2917517212892E+00
 0.3135825926319E+00 -0.3035387047142E+00
-0.3229362503518E+00 -0.4838733440520E+00
-0.3399230432752E+00 -0.4909707612386E+00
-0.3549449906719E+00 -0.4956338581525E+00
-0.3678175127030E+00 -0.4977982823530E+00
-0.3783355961365E+00 -0.4974717092449E+00
-0.3863188715529E+00 -0.4947132329434E+00
-0.3916171067675E+00 -0.4896344283774E+00
-0.3941217451573E+00 -0.4824021641969E+00
-0.3937764524701E+00 -0.4732387573765E+00
-0.3905880152226E+00 -0.4624187816821E+00
-0.3846367781918E+00 -0.4502621339637E+00
-0.3760858316021E+00 -0.4371229743230E+00
-0.3651876408006E+00 -0.4233741430572E+00
-0.3522862714833E+00 -0.4093867386276E+00
-0.3378126134662E+00 -0.3955047798546E+00
-0.3222690765488E+00 -0.3820155029164E+00
-0.3061991768843E+00 -0.3691174225139E+00
-0.2901394172774E+00 -0.3568923665058E+00
-0.2745570985104E+00 -0.3452927331248E+00
-0.3106133062229E+00 -0.4959655017008E+00
-0.3275975011794E+00 -0.5044692072329E+00
-0.3427938811365E+00 -0.5106621697915E+00
-0.3559834610730E+00 -0.5143686171632E+00
-0.3669584070668E+00 -0.5155345951278E+00
-0.3755180866420E+00 -0.5141727232794E+00
-0.3814825400280E+00 -0.5103535137939E+00
-0.3847037774380E+00 -0.5042056229299E+00
-0.3850779803351E+00 -0.4959176968014E+00
-0.3825582448023E+00 -0.4857383084573E+00
-0.3771680421150E+00 -0.4739727551744E+00
-0.3690148497595E+00 -0.4609758436418E+00
-0.3583029390018E+00 -0.4471398584231E+00
-0.3453436116264E+00 -0.4328768867584E+00
-0.3305601990858E+00 -0.4185946881340E+00
-0.3144835018340E+00 -0.4046654512577E+00
-0.2977307805437E+00 -0.3913874989541E+00
-0.2809568118874E+00 -0.3789428820774E+00
-0.2647723662371E+00 -0.3673637860414E+00
-0.2976625980745E+00 -0.5080485725613E+00
-0.3144649210386E+00 -0.5180102006906E+00
-0.3297151819080E+00 -0.5257547060089E+00
-0.3431510844493E+00 -0.5310967800196E+00
-0.3545494015640E+00 -0.5339248754191E+00
-0.3636977825003E+00 -0.5341986280279E+00
-0.3703958626410E+00 -0.5319375908955E+00
-0.3744650479032E+00 -0.5272202573839E+00
-0.3757599442523E+00 -0.5201863108313E+00
-0.3741814627995E+00 -0.5110390947515E+00
-0.3696915041512E+00 -0.5000462962462E+00
-0.3623291944956E+00 -0.4875375420895E+00
-0.3522282033202E+00 -0.4738976950430E+00
-0.3396341107952E+00 -0.4595545379140E+00
-0.3249198850177E+00 -0.4449593320191E+00
-0.3085959741464E+00 -0.4305584510781E+00
-0.2913082135262E+00 -0.4167539705049E+00
-0.2738096094360E+00 -0.4038512711970E+00
-0.2568742739617E+00 -0.3919989255102E+00
-0.2840854653201E+00 -0.5199607609607E+00
-0.3005732222564E+00 -0.5313628866672E+00
-0.3157409467928E+00 -0.5406679943845E+00
-0.3293186415413E+00 -0.5476918231037E+00
-0.3410719839975E+00 -0.5522952983680E+00
-0.3507807143125E+00 -0.5543926230683E+00
-0.3582332147220E+00 -0.5539523281056E+00
-0.3632310319788E+00 -0.5509976193518E+00
-0.3655978469413E+00 -0.5456094864443E+00
-0.3651909283505E+00 -0.5379308951943E+00
-0.3619149142643E+00 -0.5281706806394E+00
-0.3557380208408E+00 -0.5166058514339E+00
-0.3467107809703E+00 -0.5035810297070E+00
-0.3349871671973E+00 -0.4895035224018E+00
-0.3208475150304E+00 -0.4748321042056E+00
-0.3047218227212E+00 -0.4600569296506E+00
-0.2872102183958E+00 -0.4456668136915E+00
-0.2690918683572E+00 -0.4320979318541E+00
-0.2512917454047E+00 -0.4196545932937E+00
-0.2698949289424E+00 -0.5315631827525E+00
-0.2859565938685E+00 -0.5443263374413E+00
-0.3009159881308E+00 -0.5551442107547E+00
-0.3145158651377E+00 -0.5638414631039E+00
-0.3265247751630E+00 -0.5702661313328E+00
-0.3367225575979E+00 -0.5743027850259E+00
-0.3448949030284E+00 -0.5758779572228E+00
-0.3508345769624E+00 -0.5749638293090E+00
-0.3543471228069E+00 -0.5715822596042E+00
-0.3552596207730E+00 -0.5658098667836E+00
-0.3534320126058E+00 -0.5577836443405E+00
-0.3487711032695E+00 -0.5477064030014E+00
-0.3412475616156E+00 -0.5358511812238E+00
-0.3309163434854E+00 -0.5225635157797E+00
-0.3179410095637E+00 -0.5082600106459E+00
-0.3026225113589E+00 -0.4934208632131E+00
-0.2854332556932E+00 -0.4785725694330E+00
-0.2670576893852E+00 -0.4642537480987E+00
-0.2484385101835E+00 -0.4509473119099E+00
-0.2551097748011E+00 -0.5427724123009E+00
-0.2706511868476E+00 -0.5567957258729E+00
-0.2852859125139E+00 -0.5690516830431E+00
-0.2987817830059E+00 -0.5793771508963E+00
-0.3109208038632E+00 -0.5876184429803E+00
-0.3214914575722E+00 -0.5936441639101E+00
-0.3302845877251E+00 -0.5973524429057E+00
-0.3370933514067E+00 -0.5986759017244E+00
-0.3417165199171E+00 -0.5975863157879E+00
-0.3439645368041E+00 -0.5940997292754E+00
-0.3436680382326E+00 -0.5882822305521E+00
-0.3406888751461E+00 -0.5802562166985E+00
-0.3349339417194E+00 -0.5702068318715E+00
-0.3263723076847E+00 -0.5583881246754E+00
-0.3150563784609E+00 -0.5451282539851E+00
-0.3011482167766E+00 -0.5308326936163E+00
-0.2849532188887E+00 -0.5159836576742E+00
-0.2669664832255E+00 -0.5011322629094E+00
-0.2479492043277E+00 -0.4868741683648E+00
-0.2397468844131E+00 -0.5535134592599E+00
-0.2546826558238E+00 -0.5686810080315E+00
-0.2688832189713E+00 -0.5822770212505E+00
-0.2821469571262E+00 -0.5941526187034E+00
-0.2942763632109E+00 -0.6041599714673E+00
-0.3050751019586E+00 -0.6121631466382E+00
-0.3143455663448E+00 -0.6180451601814E+00
-0.3218884441604E+00 -0.6217131880407E+00
-0.3275044935044E+00 -0.6231031781828E+00
-0.3309984409311E+00 -0.6221845781572E+00
-0.3321849612249E+00 -0.6189654814018E+00
-0.3308968385603E+00 -0.6134982697991E+00
-0.3269955744932E+00 -0.6058856912957E+00
-0.3203848755086E+00 -0.5962872428604E+00
-0.3110276343806E+00 -0.5849256826349E+00
-0.2989672877224E+00 -0.5720934674746E+00
-0.2843549903026E+00 -0.5581589648429E+00
-0.2674857424178E+00 -0.5435725990725E+00
-0.2488524760793E+00 -0.5288746046874E+00
-0.2238236790669E+00 -0.5637219051577E+00
-0.2380720386179E+00 -0.5799121246304E+00
-0.2517330398131E+00 -0.5947360569383E+00
-0.2646366574881E+00 -0.6080600970859E+00
-0.2766094770740E+00 -0.6197472446259E+00
-0.2874746064246E+00 -0.6296653983106E+00
-0.2970505442697E+00 -0.6376934267912E+00
-0.3051507215484E+00 -0.6437259490697E+00
-0.3115842805322E+00 -0.6476775969904E+00
-0.3161582946076E+00 -0.6494872621584E+00
-0.3186815519210E+00 -0.6491226170235E+00
-0.3189700675846E+00 -0.6465850362548E+00
-0.3168545834344E+00 -0.6419149386652E+00
-0.3121904324726E+00 -0.6351974986354E+00
-0.3048702720430E+00 -0.6265686350391E+00
-0.2948403057779E+00 -0.6162211904433E+00
-0.2821206363282E+00 -0.6044113610236E+00
-0.2668300149013E+00 -0.5914661599411E+00
-0.2492130611000E+00 -0.5777955235042E+00
-0.2073584131551E+00 -0.5733490349621E+00
-0.2208367288092E+00 -0.5904498957281E+00
-0.2338534683189E+00 -0.6063913978668E+00
-0.2462684200030E+00 -0.6210554870122E+00
-0.2579331613578E+00 -0.6343187938570E+00
-0.2686923078071E+00 -0.6460585250789E+00
-0.2783831954062E+00 -0.6561572508586E+00
-0.2868354583924E+00 -0.6645069396965E+00
-0.2938711366826E+00 -0.6710126646231E+00
-0.2993056140137E+00 -0.6755963254360E+00
-0.3029495726748E+00 -0.6782006287644E+00
-0.3046121384878E+00 -0.6787934827681E+00
-0.3041054316659E+00 -0.6773728977833E+00
-0.3012508109799E+00 -0.6739724383213E+00
-0.2958871816915E+00 -0.6686672398354E+00
-0.2878817936065E+00 -0.6615805880116E+00
-0.2771438884987E+00 -0.6528910784417E+00
-0.2636408611292E+00 -0.6428405060120E+00
-0.2474138559466E+00 -0.6317432023453E+00
-0.1903709551107E+00 -0.5823581974682E+00
-0.2029927554238E+00 -0.6002786164483E+00
-0.2152586618884E+00 -0.6172420494386E+00
-0.2270549389995E+00 -0.6331457148607E+00
-0.2382571061474E+00 -0.6478810888487E+00
-0.2487315193169E+00 -0.6613377997645E+00
-0.2583354146035E+00 -0.6734071455625E+00
-0.2669164800951E+00 -0.6839852643183E+00
-0.2743125027915E+00 -0.6929761591391E+00
-0.2803513825904E+00 -0.7002947942394E+00
-0.2848516933759E+00 -0.7058704514571E+00
-0.2876239353801E+00 -0.7096505030750E+00
-0.2884726308503E+00 -0.7116047307016E+00
-0.2871994513114E+00 -0.7117303020556E+00
-0.2836076196334E+00 -0.7100575042589E+00
-0.2775078977162E+00 -0.7066563110959E+00
-0.2687265201145E+00 -0.7016438002174E+00
-0.2571155717039E+00 -0.6951921795370E+00
-0.2425661444441E+00 -0.6875361769089E+00
-0.1728833096471E+00 -0.5907283571615E+00
-0.1845564140690E+00 -0.6094125134411E+00
-0.1959610841481E+00 -0.6273327767124E+00
-0.2070060318382E+00 -0.6444009395328E+00
-0.2175883813212E+00 -0.6605233843034E+00
-0.2275950221638E+00 -0.6756034685926E+00
-0.2369026831620E+00 -0.6895439465305E+00
-0.2453774248071E+00 -0.7022493117130E+00
-0.2528739546192E+00 -0.7136281268975E+00
-0.2592349982334E+00 -0.7235954639343E+00
-0.2642908679617E+00 -0.7320755884762E+00
-0.2678593277946E+00 -0.7390050221144E+00
-0.2697458413304E+00 -0.7443361130086E+00
-0.2697442984753E+00 -0.7480412495755E+00
-0.2676383475502E+00 -0.7501178589707E+00
-0.2632035175510E+00 -0.7505943357363E+00
-0.2562104540746E+00 -0.7495370197657E+00
-0.2464298775516E+00 -0.7470582479571E+00
-0.2336416259791E+00 -0.7433250125213E+00
-0.1549266465749E+00 -0.5984205579096E+00
-0.1655587760407E+00 -0.6178279407520E+00
-0.1759936230591E+00 -0.6366519120620E+00
-0.1861584207205E+00 -0.6548179350340E+00
-0.1959690840820E+00 -0.6722467046227E+00
-0.2053311062086E+00 -0.6888554560484E+00
-0.2141394800079E+00 -0.7045595118503E+00
-0.2222780615998E+00 -0.7192739034840E+00
-0.2296186414980E+00 -0.7329150591380E+00
-0.2360198854410E+00 -0.7454026163087E+00
-0.2413262399807E+00 -0.7566614447559E+00
-0.2453668573139E+00 -0.7666239777028E+00
-0.2479545703557E+00 -0.7752329590993E+00
-0.2488849382492E+00 -0.7824447285262E+00
-0.2479353843872E+00 -0.7882331860840E+00
-0.2448644733707E+00 -0.7925946083329E+00
-0.2394114262351E+00 -0.7955535316921E+00
-0.2312961496808E+00 -0.7971699977700E+00
-0.2202199155434E+00 -0.7975489445396E+00
-0.1365411609471E+00 -0.6053761580641E+00
-0.1460458694208E+00 -0.6254587779341E+00
-0.1554100367554E+00 -0.6451232303215E+00
-0.1645760316312E+00 -0.6643076362084E+00
-0.1734758440803E+00 -0.6829460453236E+00
-0.1820315022832E+00 -0.7009690072256E+00
-0.1901547866434E+00 -0.7183044478629E+00
-0.1977464622988E+00 -0.7348786894405E+00
-0.2046951877209E+00 -0.7506175705356E+00
-0.2108761988878E+00 -0.7654476829897E+00
-0.2161498235759E+00 -0.7792977711452E+00
-0.2203598463420E+00 -0.7921003544096E+00
-0.2233317177501E+00 -0.8037936456031E+00
-0.2248705778618E+00 -0.8143238512205E+00
-0.2247590423553E+00 -0.8236479604319E+00
-0.2227546777718E+00 -0.8317371637576E+00
-0.2185870723497E+00 -0.8385810970681E+00
-0.2119543028977E+00 -0.8441932213273E+00
-0.2025182754208E+00 -0.8486177778871E+00
-0.1177721270200E+00 -0.6115344276446E+00
-0.1260712450561E+00 -0.6322306511420E+00
-0.1342739377074E+00 -0.6526564348122E+00
-0.1423349700774E+00 -0.6727614116854E+00
-0.1502000293236E+00 -0.6924917628509E+00
-0.1578057522468E+00 -0.7117903001774E+00
-0.1650792592826E+00 -0.7305968408869E+00
-0.1719372968473E+00 -0.7488487371398E+00
-0.1782850707713E+00 -0.7664815060424E+00
-0.1840148247266E+00 -0.7834295515569E+00
-0.1890041898338E+00 -0.7996269941219E+00
-0.1931143066099E+00 -0.8150086364542E+00
-0.1961876963192E+00 -0.8295111014692E+00
-0.1980458325950E+00 -0.8430741849513E+00
-0.1984863317785E+00 -0.8556424755349E+00
-0.1972796372300E+00 -0.8671673118698E+00
-0.1941650090894E+00 -0.8776091777445E+00
-0.1888455522639E+00 -0.8869406597608E+00
-0.1809819461470E+00 -0.8951500584901E+00
-0.9866827463696E-01 -0.6168397817055E+00
-0.1056930746424E+00 -0.6380746390115E+00
-0.1126546496305E+00 -0.6591672851538E+00
-0.1195180344732E+00 -0.6800775457171E+00
-0.1262406530215E+00 -0.7007622853283E+00
-0.1327720908408E+00 -0.7211751719436E+00
-0.1390535224640E+00 -0.7412666812807E+00
-0.1450168312261E+00 -0.7609842341933E+00
-0.1505834591729E+00 -0.7802724129464E+00
-0.1556630124208E+00 -0.7990732348086E+00
-0.1601516323723E+00 -0.8173264791571E+00
-0.1639301277977E+00 -0.8349700725518E+00
-0.1668618464913E+00 -0.8519405384788E+00
-0.1687902457574E+00 -0.8681735169076E+00
-0.1695360944894E+00 -0.8836043549178E+00
-0.1688942002594E+00 -0.8981687651098E+00
-0.1666294974290E+00 -0.9118035439019E+00
-0.1624722833872E+00 -0.9244473440171E+00
-0.1561124383563E+00 -0.9360414851127E+00
-0.7928108058257E-01 -0.6212442898467E+00
-0.8497305952573E-01 -0.6429316568662E+00
-0.9062579565130E-01 -0.6645838754797E+00
-0.9621299459361E-01 -0.6861694494463E+00
-0.1017022758258E+00 -0.7076542813428E+00
-0.1070548256562E+00 -0.7290012280241E+00
-0.1122248070172E+00 -0.7501698348624E+00
-0.1171585352158E+00 -0.7711161659682E+00
-0.1217934335553E+00 -0.7917926814232E+00
-0.1260567791394E+00 -0.8121481346059E+00
-0.1298642429220E+00 -0.8321274750463E+00
-0.1331182213979E+00 -0.8516717472371E+00
-0.1357059507285E+00 -0.8707179749669E+00
-0.1374973868810E+00 -0.8891990144934E+00
-0.1383428256842E+00 -0.9070433476853E+00
-0.1380702204132E+00 -0.9241747665967E+00
-0.1364821267191E+00 -0.9405118736881E+00
-0.1333521316889E+00 -0.9559672958984E+00
-0.1284205569693E+00 -0.9704465580231E+00
-0.5966432775908E-01 -0.6247086552668E+00
-0.6397584536199E-01 -0.6467538946679E+00
-0.6826461536682E-01 -0.6688485479416E+00
-0.7251184884607E-01 -0.6909680928404E+00
-0.7669420388626E-01 -0.7130856533832E+00
-0.8078343170093E-01 -0.7351714162474E+00
-0.8474585368483E-01 -0.7571921711284E+00
-0.8854166853819E-01 -0.7791109086221E+00
-0.9212409315439E-01 -0.8008864320587E+00
-0.9543834106161E-01 -0.8224729553436E+00
-0.9842044117170E-01 -0.8438196680777E+00
-0.1009958992280E+00 -0.8648702531996E+00
-0.1030782058517E+00 -0.8855623418372E+00
-0.1045671994733E+00 -0.9058268848461E+00
-0.1053473006107E+00 -0.9255874094208E+00
-0.1052856469087E+00 -0.9447591093519E+00
-0.1042301693527E+00 -0.9632476839366E+00
-0.1020076527694E+00 -0.9809477834488E+00
-0.9842157701780E-01 -0.9977408306472E+00
-0.3987366861738E-01 -0.6272027402598E+00
-0.4276846048196E-01 -0.6495054487345E+00
-0.4565130152816E-01 -0.6719186325993E+00
-0.4851009571754E-01 -0.6944228767742E+00
-0.5132971933798E-01 -0.7169965710475E+00
-0.5409174257700E-01 -0.7396152350581E+00
-0.5677404212340E-01 -0.7622509264650E+00
-0.5935030237157E-01 -0.7848716749172E+00
-0.6178940553179E-01 -0.8074409022217E+00
-0.6405471212825E-01 -0.8299168015520E+00
-0.6610323457186E-01 -0.8522516566268E+00
-0.6788470907561E-01 -0.8743910865826E+00
-0.6934057653582E-01 -0.8962732045588E+00
-0.7040289300227E-01 -0.9178276781815E+00
-0.7099320800051E-01 -0.9389746779145E+00
-0.7102147867820E-01 -0.9596236933110E+00
-0.7038514061701E-01 -0.9796721823055E+00
-0.6896853180370E-01 -0.9990039806337E+00
-0.6664309901456E-01 -0.1017487255446E+01
-0.1996618802325E-01 -0.6287059600052E+00
-0.2141976798287E-01 -0.6511627897517E+00
-0.2286834510966E-01 -0.6737669778354E+00
-0.2430599859057E-01 -0.6965022270754E+00
-0.2572529645640E-01 -0.7193501336725E+00
-0.2711714415916E-01 -0.7422894590363E+00
-0.2847057926632E-01 -0.7652954602850E+00
-0.2977251080926E-01 -0.7883392260310E+00
-0.3100740302769E-01 -0.8113869800440E+00
-0.3215690411877E-01 -0.8343993266059E+00
-0.3319942181523E-01 -0.8573304193896E+00
-0.3410964989671E-01 -0.8801270418399E+00
-0.3485805402481E-01 -0.9027275925108E+00
-0.3541033303374E-01 -0.9250609748658E+00
-0.3572688546471E-01 -0.9470453991175E+00
-0.3576233592125E-01 -0.9685871156156E+00
-0.3546522224009E-01 -0.9895791185937E+00
-0.3477805801124E-01 -0.1009899886334E+01
-0.3363823801480E-01 -0.1029412289093E+01
 0.2945471644367E-10 -0.6292076765943E+00
-0.2250966080197E-10 -0.6517153270978E+00
-0.7490513764807E-10 -0.6743826658246E+00
-0.1275757832708E-09 -0.6971944453990E+00
-0.1803262539291E-09 -0.7201333406255E+00
-0.2329144099811E-09 -0.7431792027518E+00
-0.2850423785894E-09 -0.7663083642492E+00
-0.3363499478937E-09 -0.7894929417950E+00
-0.3864042419366E-09 -0.8127001006922E+00
-0.4346884519002E-09 -0.8358912549097E+00
-0.4805849052048E-09 -0.8590211850320E+00
-0.5233605770982E-09 -0.8820370631626E+00
-0.5621512699783E-09 -0.9048773806480E+00
-0.5959409632439E-09 -0.9274707830372E+00
-0.6235416627476E-09 -0.9497348291935E+00
-0.6435793564741E-09 -0.9715747118209E+00
-0.6544760289273E-09 -0.9928820119289E+00
-0.6544501607308E-09 -0.1013533634747E+01
-0.6415363795753E-09 -0.1033391231195E+01
 0.1996618808243E-01 -0.6287059600125E+00
 0.2141976793836E-01 -0.6511627897625E+00
 0.2286834496066E-01 -0.6737669778511E+00
 0.2430599833659E-01 -0.6965022270975E+00
 0.2572529609736E-01 -0.7193501337026E+00
 0.2711714369545E-01 -0.7422894590764E+00
 0.2847057869895E-01 -0.7652954603372E+00
 0.2977251013997E-01 -0.7883392260974E+00
 0.3100740225908E-01 -0.8113869801270E+00
 0.3215690325447E-01 -0.8343993267079E+00
 0.3319942086012E-01 -0.8573304195134E+00
 0.3410964885713E-01 -0.8801270419882E+00
 0.3485805290879E-01 -0.9027275926863E+00
 0.3541033185136E-01 -0.9250609750714E+00
 0.3572688422837E-01 -0.9470453993559E+00
 0.3576233464607E-01 -0.9685871158896E+00
 0.3546522094435E-01 -0.9895791189058E+00
 0.3477805671679E-01 -0.1009899886687E+01
 0.3363823674749E-01 -0.1029412289488E+01
 0.3987366867732E-01 -0.6272027402747E+00
 0.4276846043891E-01 -0.6495054487564E+00
 0.4565130138146E-01 -0.6719186326310E+00
 0.4851009546690E-01 -0.6944228768187E+00
 0.5132971898350E-01 -0.7169965711083E+00
 0.5409174211932E-01 -0.7396152351389E+00
 0.5677404156379E-01 -0.7622509265699E+00
 0.5935030171204E-01 -0.7848716750506E+00
 0.6178940477524E-01 -0.8074409023882E+00
 0.6405471127861E-01 -0.8299168017566E+00
 0.6610323363429E-01 -0.8522516568748E+00
 0.6788470805671E-01 -0.8743910868794E+00
 0.6934057544386E-01 -0.8962732049099E+00
 0.7040289184747E-01 -0.9178276785925E+00
 0.7099320679537E-01 -0.9389746783910E+00
 0.7102147743785E-01 -0.9596236938582E+00
 0.7038513935963E-01 -0.9796721829286E+00
 0.6896853055101E-01 -0.9990039813374E+00
 0.6664309779242E-01 -0.1017487256234E+01
 0.5966432782026E-01 -0.6247086552893E+00
 0.6397584532134E-01 -0.6467538947009E+00
 0.6826461522393E-01 -0.6688485479893E+00
 0.7251184860093E-01 -0.6909680929074E+00
 0.7669420353933E-01 -0.7130856534746E+00
 0.8078343125324E-01 -0.7351714163688E+00
 0.8474585313805E-01 -0.7571921712857E+00
 0.8854166789482E-01 -0.7791109088220E+00
 0.9212409241780E-01 -0.8008864323080E+00
 0.9543834023622E-01 -0.8224729556497E+00
 0.9842044026316E-01 -0.8438196684483E+00
 0.1009958982433E+00 -0.8648702536428E+00
 0.1030782047996E+00 -0.8855623423611E+00
 0.1045671983641E+00 -0.9058268854591E+00
 0.1053472994571E+00 -0.9255874101310E+00
 0.1052856457258E+00 -0.9447591101673E+00
 0.1042301681583E+00 -0.9632476848644E+00
 0.1020076515849E+00 -0.9809477844959E+00
 0.9842157586834E-01 -0.9977408318191E+00
 0.7928108064562E-01 -0.6212442898768E+00
 0.8497305948865E-01 -0.6429316569102E+00
 0.9062579551405E-01 -0.6645838755431E+00
 0.9621299435658E-01 -0.6861694495353E+00
 0.1017022754899E+00 -0.7076542814640E+00
 0.1070548252231E+00 -0.7290012281849E+00
 0.1122248064891E+00 -0.7501698350707E+00
 0.1171585345958E+00 -0.7711161662324E+00
 0.1217934328475E+00 -0.7917926817525E+00
 0.1260567783489E+00 -0.8121481350100E+00
 0.1298642420551E+00 -0.8321274755351E+00
 0.1331182204622E+00 -0.8516717478213E+00
 0.1357059497331E+00 -0.8707179756571E+00
 0.1374973858368E+00 -0.8891990153004E+00
 0.1383428246039E+00 -0.9070433486197E+00
 0.1380702193116E+00 -0.9241747676687E+00
 0.1364821256136E+00 -0.9405118749073E+00
 0.1333521305997E+00 -0.9559672972731E+00
 0.1284205559199E+00 -0.9704465595600E+00
 0.9866827470217E-01 -0.6168397817430E+00
 0.1056930746095E+00 -0.6380746390662E+00
 0.1126546494998E+00 -0.6591672852326E+00
 0.1195180342457E+00 -0.6800775458274E+00
 0.1262406526986E+00 -0.7007622854784E+00
 0.1327720904249E+00 -0.7211751721424E+00
 0.1390535219581E+00 -0.7412666815379E+00
 0.1450168306341E+00 -0.7609842345194E+00
 0.1505834584998E+00 -0.7802724133525E+00
 0.1556630116727E+00 -0.7990732353065E+00
 0.1601516315562E+00 -0.8173264797590E+00
 0.1639301269222E+00 -0.8349700732705E+00
 0.1668618455660E+00 -0.8519405393273E+00
 0.1687902447937E+00 -0.8681735178989E+00
 0.1695360935001E+00 -0.8836043560646E+00
 0.1688941992590E+00 -0.8981687664243E+00
 0.1666294964340E+00 -0.9118035453955E+00
 0.1624722824159E+00 -0.9244473456992E+00
 0.1561124374295E+00 -0.9360414869909E+00
 0.1177721270880E+00 -0.6115344276894E+00
 0.1260712450285E+00 -0.6322306512068E+00
 0.1342739375852E+00 -0.6526564349053E+00
 0.1423349698620E+00 -0.6727614118155E+00
 0.1502000290174E+00 -0.6924917630277E+00
 0.1578057518529E+00 -0.7117903004115E+00
 0.1650792588049E+00 -0.7305968411895E+00
 0.1719372962909E+00 -0.7488487375231E+00
 0.1782850701422E+00 -0.7664815065193E+00
 0.1840148240318E+00 -0.7834295521411E+00
 0.1890041890815E+00 -0.7996269948276E+00
 0.1931143058097E+00 -0.8150086372960E+00
 0.1961876954815E+00 -0.8295111024619E+00
 0.1980458317315E+00 -0.8430741861097E+00
 0.1984863309022E+00 -0.8556424768737E+00
 0.1972796363549E+00 -0.8671673134025E+00
 0.1941650082306E+00 -0.8776091794836E+00
 0.1888455514373E+00 -0.8869406617168E+00
 0.1809819453692E+00 -0.8951500606708E+00
 0.1365411610182E+00 -0.6053761581158E+00
 0.1460458693990E+00 -0.6254587780087E+00
 0.1554100366423E+00 -0.6451232304280E+00
 0.1645760314291E+00 -0.6643076363570E+00
 0.1734758437923E+00 -0.6829460455253E+00
 0.1820315019135E+00 -0.7009690074923E+00
 0.1901547861971E+00 -0.7183044482075E+00
 0.1977464617821E+00 -0.7348786898766E+00
 0.2046951871410E+00 -0.7506175710779E+00
 0.2108761982531E+00 -0.7654476836532E+00
 0.2161498228960E+00 -0.7792977719458E+00
 0.2203598456273E+00 -0.7921003553633E+00
 0.2233317170122E+00 -0.8037936467262E+00
 0.2248705771131E+00 -0.8143238525290E+00
 0.2247590416087E+00 -0.8236479619414E+00
 0.2227546770409E+00 -0.8317371654824E+00
 0.2185870716478E+00 -0.8385810990213E+00
 0.2119543022375E+00 -0.8441932235194E+00
 0.2025182748139E+00 -0.8486177803257E+00
 0.1549266466498E+00 -0.5984205579681E+00
 0.1655587760262E+00 -0.6178279408354E+00
 0.1759936229574E+00 -0.6366519121805E+00
 0.1861584205347E+00 -0.6548179351989E+00
 0.1959690838164E+00 -0.6722467048461E+00
 0.2053311058684E+00 -0.6888554563435E+00
 0.2141394795995E+00 -0.7045595122312E+00
 0.2222780611307E+00 -0.7192739039657E+00
 0.2296186409770E+00 -0.7329150597362E+00
 0.2360198848779E+00 -0.7454026170398E+00
 0.2413262393864E+00 -0.7566614456366E+00
 0.2453668567001E+00 -0.7666239787501E+00
 0.2479545697350E+00 -0.7752329603300E+00
 0.2488849376345E+00 -0.7824447299568E+00
 0.2479353837917E+00 -0.7882331877301E+00
 0.2448644728069E+00 -0.7925946102086E+00
 0.2394114257144E+00 -0.7955535338098E+00
 0.2312961492124E+00 -0.7971700001394E+00
 0.2202199151326E+00 -0.7975489471675E+00
 0.1728833097260E+00 -0.5907283572265E+00
 0.1845564140620E+00 -0.6094125135328E+00
 0.1959610840582E+00 -0.6273327768422E+00
 0.2070060316695E+00 -0.6444009397127E+00
 0.2175883810791E+00 -0.6605233845468E+00
 0.2275950218548E+00 -0.6756034689136E+00
 0.2369026827940E+00 -0.6895439469444E+00
 0.2453774243891E+00 -0.7022493122357E+00
 0.2528739541616E+00 -0.7136281275455E+00
 0.2592349977475E+00 -0.7235954647247E+00
 0.2642908674599E+00 -0.7320755894263E+00
 0.2678593272900E+00 -0.7390050232411E+00
 0.2697458408368E+00 -0.7443361143286E+00
 0.2697442980061E+00 -0.7480412511045E+00
 0.2676383471184E+00 -0.7501178607231E+00
 0.2632035171683E+00 -0.7505943377248E+00
 0.2562104537500E+00 -0.7495370220005E+00
 0.2464298772903E+00 -0.7470582504456E+00
 0.2336416257804E+00 -0.7433250152675E+00
 0.1903709551938E+00 -0.5823581975403E+00
 0.2029927554248E+00 -0.6002786165494E+00
 0.2152586618110E+00 -0.6172420495806E+00
 0.2270549388489E+00 -0.6331457150569E+00
 0.2382571059302E+00 -0.6478810891131E+00
 0.2487315190411E+00 -0.6613378001122E+00
 0.2583354142785E+00 -0.6734071460094E+00
 0.2669164797314E+00 -0.6839852648809E+00
 0.2743125024011E+00 -0.6929761598343E+00
 0.2803513821863E+00 -0.7002947950843E+00
 0.2848516929720E+00 -0.7058704524687E+00
 0.2876239349908E+00 -0.7096505042694E+00
 0.2884726304900E+00 -0.7116047320940E+00
 0.2871994509939E+00 -0.7117303036598E+00
 0.2836076193713E+00 -0.7100575060867E+00
 0.2775078975196E+00 -0.7066563131566E+00
 0.2687265199895E+00 -0.7016438025174E+00
 0.2571155716510E+00 -0.6951921820792E+00
 0.2425661444561E+00 -0.6875361796927E+00
 0.2073584132424E+00 -0.5733490350434E+00
 0.2208367288178E+00 -0.5904498958424E+00
 0.2338534682537E+00 -0.6063913980268E+00
 0.2462684198703E+00 -0.6210554872317E+00
 0.2579331611653E+00 -0.6343187941506E+00
 0.2686923075643E+00 -0.6460585254621E+00
 0.2783831951238E+00 -0.6561572513477E+00
 0.2868354580827E+00 -0.6645069403079E+00
 0.2938711363588E+00 -0.6710126653735E+00
 0.2993056136902E+00 -0.6755963263416E+00
 0.3029495723664E+00 -0.6782006298406E+00
 0.3046121382096E+00 -0.6787934840290E+00
 0.3041054314326E+00 -0.6773728992415E+00
 0.3012508108049E+00 -0.6739724399869E+00
 0.2958871815859E+00 -0.6686672417160E+00
 0.2878817935777E+00 -0.6615805901113E+00
 0.2771438885487E+00 -0.6528910807610E+00
 0.2636408612527E+00 -0.6428405085476E+00
 0.2474138561282E+00 -0.6317432050892E+00
 0.2238236791581E+00 -0.5637219052504E+00
 0.2380720386338E+00 -0.5799121247618E+00
 0.2517330397594E+00 -0.5947360571215E+00
 0.2646366573723E+00 -0.6080600973351E+00
 0.2766094769051E+00 -0.6197472449559E+00
 0.2874746062134E+00 -0.6296653987370E+00
 0.2970505440283E+00 -0.6376934273299E+00
 0.3051507212901E+00 -0.6437259497365E+00
 0.3115842802715E+00 -0.6476775978004E+00
 0.3161582943596E+00 -0.6494872631260E+00
 0.3186815517014E+00 -0.6491226181614E+00
 0.3189700674084E+00 -0.6465850375737E+00
 0.3168545833156E+00 -0.6419149401731E+00
 0.3121904324235E+00 -0.6351975003370E+00
 0.3048702720723E+00 -0.6265686369352E+00
 0.2948403058897E+00 -0.6162211925302E+00
 0.2821206365200E+00 -0.6044113632925E+00
 0.2668300151617E+00 -0.5914661623778E+00
 0.2492130614055E+00 -0.5777955260888E+00
 0.2397468845082E+00 -0.5535134593655E+00
 0.2546826558467E+00 -0.5686810081831E+00
 0.2688832189288E+00 -0.5822770214612E+00
 0.2821469570268E+00 -0.5941526189871E+00
 0.2942763630649E+00 -0.6041599718387E+00
 0.3050751017779E+00 -0.6121631471121E+00
 0.3143455661425E+00 -0.6180451607726E+00
 0.3218884439508E+00 -0.6217131887633E+00
 0.3275044933025E+00 -0.6231031790496E+00
 0.3309984407525E+00 -0.6221845791794E+00
 0.3321849610849E+00 -0.6189654825880E+00
 0.3308968384733E+00 -0.6134982711548E+00
 0.3269955744720E+00 -0.6058856928226E+00
 0.3203848755630E+00 -0.5962872445556E+00
 0.3110276345163E+00 -0.5849256844902E+00
 0.2989672879397E+00 -0.5720934694757E+00
 0.2843549905940E+00 -0.5581589669689E+00
 0.2674857427663E+00 -0.5435726012959E+00
 0.2488524764546E+00 -0.5288746069742E+00
 0.2551097748999E+00 -0.5427724124208E+00
 0.2706511868774E+00 -0.5567957260467E+00
 0.2852859124826E+00 -0.5690516832834E+00
 0.2987817829229E+00 -0.5793771512166E+00
 0.3109208037399E+00 -0.5876184433943E+00
 0.3214914574211E+00 -0.5936441644313E+00
 0.3302845875600E+00 -0.5973524435466E+00
 0.3370933512423E+00 -0.5986759024966E+00
 0.3417165197685E+00 -0.5975863167008E+00
 0.3439645366863E+00 -0.5940997303357E+00
 0.3436680381600E+00 -0.5882822317632E+00
 0.3406888751313E+00 -0.5802562180599E+00
 0.3349339417724E+00 -0.5702068333779E+00
 0.3263723078118E+00 -0.5583881263162E+00
 0.3150563786632E+00 -0.5451282557441E+00
 0.3011482170485E+00 -0.5308326954713E+00
 0.2849532192162E+00 -0.5159836595981E+00
 0.2669664835842E+00 -0.5011322648714E+00
 0.2479492046814E+00 -0.4868741703341E+00
 0.2698949290452E+00 -0.5315631828870E+00
 0.2859565939060E+00 -0.5443263376377E+00
 0.3009159881116E+00 -0.5551442110247E+00
 0.3145158650722E+00 -0.5638414634597E+00
 0.3265247750630E+00 -0.5702661317865E+00
 0.3367225574763E+00 -0.5743027855886E+00
 0.3448949028991E+00 -0.5758779579043E+00
 0.3508345768396E+00 -0.5749638301172E+00
 0.3543471227050E+00 -0.5715822605444E+00
 0.3552596207055E+00 -0.5658098678576E+00
 0.3534320125847E+00 -0.5577836455466E+00
 0.3487711033044E+00 -0.5477064043334E+00
 0.3412475617125E+00 -0.5358511826709E+00
 0.3309163436455E+00 -0.5225635173264E+00
 0.3179410097823E+00 -0.5082600122728E+00
 0.3026225116240E+00 -0.4934208648974E+00
 0.2854332559846E+00 -0.4785725711511E+00
 0.2670576896747E+00 -0.4642537498292E+00
 0.2484385104380E+00 -0.4509473136386E+00
 0.2840854654275E+00 -0.5199607611100E+00
 0.3005732223026E+00 -0.5313628868861E+00
 0.3157409467871E+00 -0.5406679946833E+00
 0.3293186414944E+00 -0.5476918234926E+00
 0.3410719839212E+00 -0.5522952988566E+00
 0.3507807142195E+00 -0.5543926236648E+00
 0.3582332146253E+00 -0.5539523288163E+00
 0.3632310318914E+00 -0.5509976201805E+00
 0.3655978468757E+00 -0.5456094873920E+00
 0.3651909283176E+00 -0.5379308962584E+00
 0.3619149142727E+00 -0.5281706818138E+00
 0.3557380208960E+00 -0.5166058527086E+00
 0.3467107810735E+00 -0.5035810310685E+00
 0.3349871673448E+00 -0.4895035238339E+00
 0.3208475152124E+00 -0.4748321056900E+00
 0.3047218229221E+00 -0.4600569311692E+00
 0.2872102185951E+00 -0.4456668152285E+00
 0.2690918685319E+00 -0.4320979333988E+00
 0.2512917455361E+00 -0.4196545948435E+00
 0.2976625981873E+00 -0.5080485727245E+00
 0.3144649210952E+00 -0.5180102009301E+00
 0.3297151819178E+00 -0.5257547063330E+00
 0.3431510844228E+00 -0.5310967804358E+00
 0.3545494015123E+00 -0.5339248759340E+00
 0.3636977824349E+00 -0.5341986286460E+00
 0.3703958625732E+00 -0.5319375916195E+00
 0.3744650478440E+00 -0.5272202582137E+00
 0.3757599442112E+00 -0.5201863117640E+00
 0.3741814627838E+00 -0.5110390957811E+00
 0.3696915041656E+00 -0.5000462973639E+00
 0.3623291945414E+00 -0.4875375432837E+00
 0.3522282033944E+00 -0.4738976963004E+00
 0.3396341108906E+00 -0.4595545392201E+00
 0.3249198851227E+00 -0.4449593333598E+00
 0.3085959742463E+00 -0.4305584524416E+00
 0.2913082136053E+00 -0.4167539718830E+00
 0.2738096094809E+00 -0.4038512725875E+00
 0.2568742739671E+00 -0.3919989269168E+00
 0.3106133063419E+00 -0.4959655018756E+00
 0.3275975012480E+00 -0.5044692074887E+00
 0.3427938811638E+00 -0.5106621701341E+00
 0.3559834610684E+00 -0.5143686175971E+00
 0.3669584070400E+00 -0.5155345956562E+00
 0.3755180866027E+00 -0.5141727239035E+00
 0.3814825399854E+00 -0.5103535145126E+00
 0.3847037774000E+00 -0.5042056237400E+00
 0.3850779803080E+00 -0.4959176976971E+00
 0.3825582447899E+00 -0.4857383094306E+00
 0.3771680421184E+00 -0.4739727562156E+00
 0.3690148497764E+00 -0.4609758447396E+00
 0.3583029390267E+00 -0.4471398595660E+00
 0.3453436116510E+00 -0.4328768879353E+00
 0.3305601990993E+00 -0.4185946893356E+00
 0.3144835018255E+00 -0.4046654524781E+00
 0.2977307805038E+00 -0.3913875001915E+00
 0.2809568118116E+00 -0.3789428833352E+00
 0.2647723661280E+00 -0.3673637873270E+00
 0.3229362504781E+00 -0.4838733442365E+00
 0.3399230433579E+00 -0.4909707615073E+00
 0.3549449907186E+00 -0.4956338585082E+00
 0.3678175127215E+00 -0.4977982827971E+00
 0.3783355961346E+00 -0.4974717097769E+00
 0.3863188715377E+00 -0.4947132335610E+00
 0.3916171067452E+00 -0.4896344290767E+00
 0.3941217451328E+00 -0.4824021649719E+00
 0.3937764524462E+00 -0.4732387582198E+00
 0.3905880151996E+00 -0.4624187825849E+00
 0.3846367781678E+00 -0.4502621349164E+00
 0.3760858315724E+00 -0.4371229753159E+00
 0.3651876407587E+00 -0.4233741440816E+00
 0.3522862714213E+00 -0.4093867396761E+00
 0.3378126133760E+00 -0.3955047809229E+00
 0.3222690764237E+00 -0.3820155040034E+00
 0.3061991767213E+00 -0.3691174236227E+00
 0.2901394170782E+00 -0.3568923676431E+00
 0.2745570982823E+00 -0.3452927343001E+00
</DataArray>
</PointData>
   <DataArray type="Float64" Name="Load" NumberOfComponents="1"    ComponentName0="Load" format="ascii">
 0.4043345023123E+01
 0.3549957421576E+01
 0.3191700598017E+01
 0.3066726724046E+01
 0.2988871656678E+01
 0.2948887193272E+01
 0.2929338313308E+01
 0.2924097459635E+01
 0.2928973108582E+01
 0.2941630414965E+01
 0.2960629458323E+01
 0.2985153944231E+01
 0.3014806781815E+01
 0.3049506145789E+01
 0.3089421362209E+01
 0.3134937383361E+01
 0.3186638105049E+01
 0.3245304472339E+01
 0.3311933165799E+01
 0.3387780494893E+01
 0.3474456979750E+01
 0.3574155298763E+01
 0.3690214867898E+01
 0.3827387156379E+01
 0.3987445967900E+01
 0.4166740177644E+01
 0.4360236251641E+01
 0.4564481819779E+01
 0.4778409605094E+01
 0.5002895939898E+01
 0.5239747822070E+01
 0.5490481741236E+01
 0.5754808216971E+01
 0.6035429651422E+01
 0.6348275121365E+01
 0.6715154618834E+01
 0.7187311543600E+01
 0.7745869026600E+01
 0.8921693588767E+01
 0.8874166959274E+01
 0.1702654772460E+02
 0.3460600821272E+01
 0.3544005940520E+01
 0.3279269466171E+01
 0.3124829925442E+01
 0.3044001458638E+01
 0.2995563705185E+01
 0.2970170633528E+01
 0.2959801552248E+01
 0.2960427400493E+01
 0.2969446479612E+01
 0.2985293326234E+01
 0.3007030163628E+01
 0.3034163425104E+01
 0.3066525692447E+01
 0.3104207750094E+01
 0.3147518250299E+01
 0.3196963290167E+01
 0.3253240870848E+01
 0.3317253772438E+01
 0.3390144261991E+01
 0.3473367853648E+01
 0.3568832212837E+01
 0.3678810207098E+01
 0.3805200122037E+01
 0.3948272748321E+01
 0.4106176902418E+01
 0.4275981028929E+01
 0.4455123885834E+01
 0.4642111862693E+01
 0.4836392362329E+01
 0.5037720630098E+01
 0.5245646237791E+01
 0.5460057448893E+01
 0.5682948516134E+01
 0.5918248107746E+01
 0.6174931218885E+01
 0.6442608013602E+01
 0.6761496954514E+01
 0.6885020150456E+01
 0.5928241652378E+01
 0.1111304239555E+02
 0.3153588549586E+01
 0.3381285036026E+01
 0.3297138249887E+01
 0.3162731729004E+01
 0.3082811866270E+01
 0.3033233401490E+01
 0.3004540772007E+01
 0.2990887025064E+01
 0.2988299909018E+01
 0.2994336635648E+01
 0.3007415110586E+01
 0.3026565342283E+01
 0.3051242380039E+01
 0.3081221429732E+01
 0.3116530426604E+01
 0.3157409290867E+01
 0.3204287037795E+01
 0.3257771732732E+01
 0.3318654924196E+01
 0.3387928961402E+01
 0.3466818383650E+01
 0.3556738897960E+01
 0.3658886413274E+01
 0.3773699206628E+01
 0.3900789036330E+01
 0.4039021338072E+01
 0.4186606410110E+01
 0.4341534581734E+01
 0.4501988071615E+01
 0.4666344197522E+01
 0.4832889565258E+01
 0.4999851511151E+01
 0.5165949578300E+01
 0.5329511440884E+01
 0.5486862806647E+01
 0.5626884118510E+01
 0.5726729691967E+01
 0.5732783801565E+01
 0.5235334354730E+01
 0.4731566588109E+01
 0.9265248509330E+01
 0.2968386857123E+01
 0.3223937726381E+01
 0.3255957429312E+01
 0.3176395136567E+01
 0.3107232683811E+01
 0.3061149052832E+01
 0.3032323572400E+01
 0.3017095401110E+01
 0.3012412097866E+01
 0.3016151150036E+01
 0.3026881564140E+01
 0.3043676275387E+01
 0.3065988797805E+01
 0.3093565598357E+01
 0.3126388858772E+01
 0.3164638468363E+01
 0.3208668284695E+01
 0.3258991365930E+01
 0.3316273703898E+01
 0.3381329301840E+01
 0.3455090109789E+01
 0.3538428617239E+01
 0.3631726477729E+01
 0.3734639671091E+01
 0.3846453022017E+01
 0.3966308917635E+01
 0.4092965581301E+01
 0.4224698710857E+01
 0.4359430112152E+01
 0.4494767363226E+01
 0.4627964120176E+01
 0.4756107858428E+01
 0.4876063413529E+01
 0.4982683508175E+01
 0.5065217706275E+01
 0.5102313397683E+01
 0.5057627622524E+01
 0.4819486213521E+01
 0.4235261289612E+01
 0.4434854226896E+01
 0.8387745514119E+01
 0.2846804718675E+01
 0.3095152033896E+01
 0.3191305497148E+01
 0.3166742559770E+01
 0.3118428235251E+01
 0.3079727414094E+01
 0.3053482491465E+01
 0.3038375656430E+01
 0.3032671018642E+01
 0.3034808451797E+01
 0.3043624755069E+01
 0.3058314836755E+01
 0.3078376052266E+01
 0.3103555000017E+01
 0.3133805397293E+01
 0.3169256662549E+01
 0.3210190806923E+01
 0.3257023209824E+01
 0.3310284880577E+01
 0.3370592257895E+01
 0.3438561088976E+01
 0.3514574777142E+01
 0.3598447634786E+01
 0.3689402656920E+01
 0.3786542417691E+01
 0.3889084015413E+01
 0.3996004053357E+01
 0.4105685976802E+01
 0.4215846164927E+01
 0.4323565620619E+01
 0.4425366439594E+01
 0.4517313529886E+01
 0.4594539142324E+01
 0.4649025189907E+01
 0.4665746840100E+01
 0.4619540382725E+01
 0.4466223950518E+01
 0.4128524545691E+01
 0.3725642818286E+01
 0.4477449638306E+01
 0.7847483071546E+01
 0.2762132324917E+01
 0.2993347722142E+01
 0.3122067694697E+01
 0.3141373944108E+01
 0.3117700247920E+01
 0.3089806835916E+01
 0.3068272742931E+01
 0.3054805272843E+01
 0.3049083801157E+01
 0.3050288368837E+01
 0.3057622361263E+01
 0.3070466994463E+01
 0.3088405192030E+01
 0.3111210265609E+01
 0.3138824393950E+01
 0.3171336547967E+01
 0.3208961633073E+01
 0.3252017579690E+01
 0.3300896535681E+01
 0.3356011293417E+01
 0.3417674408290E+01
 0.3485870744125E+01
 0.3560033633770E+01
 0.3639142225909E+01
 0.3722186384654E+01
 0.3808364695271E+01
 0.3896702203893E+01
 0.3985593752481E+01
 0.4072609027349E+01
 0.4154498158205E+01
 0.4227285488294E+01
 0.4286250924551E+01
 0.4325255832569E+01
 0.4334592026390E+01
 0.4298079812473E+01
 0.4191278609112E+01
 0.3980180330871E+01
 0.3661282653448E+01
 0.3523377766621E+01
 0.4609166143946E+01
 0.7463857858626E+01
 0.2700510607197E+01
 0.2913075031594E+01
 0.3056413397325E+01
 0.3107423734639E+01
 0.3107485311991E+01
 0.3092369404462E+01
 0.3077181227233E+01
 0.3066588371527E+01
 0.3061742143160E+01
 0.3062630268964E+01
 0.3068894701690E+01
 0.3080151533919E+01
 0.3096103742715E+01
 0.3116574779984E+01
 0.3141510999784E+01
 0.3170971114090E+01
 0.3205109044997E+01
 0.3244148554261E+01
 0.3288345105784E+01
 0.3337915479196E+01
 0.3392904560744E+01
 0.3452991448748E+01
 0.3517361146668E+01
 0.3584857014359E+01
 0.3654395793640E+01
 0.3725121763846E+01
 0.3796033285151E+01
 0.3865501692012E+01
 0.3931016600535E+01
 0.3989162066511E+01
 0.4035689010090E+01
 0.4065425836846E+01
 0.4071619141010E+01
 0.4044301153597E+01
 0.3968717202846E+01
 0.3826354546847E+01
 0.3606652884049E+01
 0.3376330813435E+01
 0.3494750484754E+01
 0.4741693553985E+01
 0.7170510699653E+01
 0.2654105070053E+01
 0.2849271950967E+01
 0.2997283444361E+01
 0.3069892252133E+01
 0.3090509900313E+01
 0.3088613394231E+01
 0.3080819998629E+01
 0.3074039419575E+01
 0.3070810032617E+01
 0.3071926651448E+01
 0.3077501504017E+01
 0.3087417810128E+01
 0.3101524115156E+01
 0.3119713246731E+01
 0.3141949679523E+01
 0.3168271890541E+01
 0.3198780184644E+01
 0.3233610404868E+01
 0.3272889468566E+01
 0.3316656541427E+01
 0.3364734330256E+01
 0.3416578347492E+01
 0.3471218828750E+01
 0.3527429646302E+01
 0.3584083232106E+01
 0.3640266683024E+01
 0.3694932996145E+01
 0.3746437129320E+01
 0.3792262959899E+01
 0.3828978854306E+01
 0.3852292784796E+01
 0.3856968317831E+01
 0.3836372725071E+01
 0.3781604182650E+01
 0.3681530966494E+01
 0.3527799531698E+01
 0.3337111213957E+01
 0.3225956097579E+01
 0.3554415515663E+01
 0.4850913592011E+01
 0.6936943151082E+01
 0.2618190424960E+01
 0.2797965435578E+01
 0.2945262342486E+01
 0.3031872296074E+01
 0.3069185012726E+01
 0.3079833855264E+01
 0.3079882985866E+01
 0.3077548417634E+01
 0.3076511659602E+01
 0.3078315265151E+01
 0.3083537625883E+01
 0.3092342978570E+01
 0.3104741578439E+01
 0.3120709960393E+01
 0.3140242472045E+01
 0.3163366924679E+01
 0.3190138387352E+01
 0.3220613719853E+01
 0.3254804453233E+01
 0.3292597328625E+01
 0.3333640303029E+01
 0.3377233937595E+01
 0.3422320741395E+01
 0.3467649822413E+01
 0.3512075359111E+01
 0.3554643996501E+01
 0.3594278020217E+01
 0.3629349814645E+01
 0.3657417921942E+01
 0.3675178757000E+01
 0.3678529623984E+01
 0.3662568168413E+01
 0.3621477442279E+01
 0.3548519391494E+01
 0.3437848241010E+01
 0.3293269131720E+01
 0.3155765092323E+01
 0.3168953653167E+01
 0.3652780797080E+01
 0.4934764805824E+01
 0.6746487225754E+01
 0.2589765992171E+01
 0.2756181272957E+01
 0.2899949486809E+01
 0.2995115029670E+01
 0.3045397850635E+01
 0.3067272150232E+01
 0.3075100229741E+01
 0.3077552017972E+01
 0.3079115991009E+01
 0.3081970980687E+01
 0.3087128023510E+01
 0.3095028794753E+01
 0.3105851914930E+01
 0.3119666838076E+01
 0.3136507057028E+01
 0.3156398583620E+01
 0.3179360361764E+01
 0.3205381386156E+01
 0.3234374568936E+01
 0.3266102700711E+01
 0.3300084058111E+01
 0.3335520286446E+01
 0.3371315745843E+01
 0.3406228384050E+01
 0.3439120405379E+01
 0.3469026300343E+01
 0.3494871248087E+01
 0.3515094356478E+01
 0.3527412426308E+01
 0.3528787395824E+01
 0.3515529046618E+01
 0.3483439414866E+01
 0.3428099680973E+01
 0.3345744216957E+01
 0.3236732755996E+01
 0.3116854518564E+01
 0.3045219594956E+01
 0.3173410538443E+01
 0.3763308931137E+01
 0.4997479297937E+01
 0.6588799542537E+01
 0.2566844184793E+01
 0.2721719439766E+01
 0.2860592943637E+01
 0.2960514417101E+01
 0.3020519548427E+01
 0.3052019527902E+01
 0.3067189532023E+01
 0.3074508590609E+01
 0.3078921565669E+01
 0.3083097159362E+01
 0.3088422443929E+01
 0.3095598092450E+01
 0.3104968848599E+01
 0.3116701271113E+01
 0.3130874681417E+01
 0.3147521251460E+01
 0.3166633315659E+01
 0.3188144652917E+01
 0.3211888448065E+01
 0.3237532730418E+01
 0.3264506895240E+01
 0.3291959228678E+01
 0.3318794120219E+01
 0.3343806191658E+01
 0.3365892845222E+01
 0.3384111013248E+01
 0.3397432131248E+01
 0.3404418820640E+01
 0.3403029139157E+01
 0.3390618332235E+01
 0.3364109691191E+01
 0.3320321031319E+01
 0.3256665474138E+01
 0.3172831076420E+01
 0.3075538000256E+01
 0.2990904949960E+01
 0.2989268475731E+01
 0.3216181388589E+01
 0.3872892345961E+01
 0.5044188375007E+01
 0.6456888531882E+01
 0.2548061463342E+01
 0.2692950098981E+01
 0.2826372828696E+01
 0.2928446536078E+01
 0.2995493718528E+01
 0.3034979014264E+01
 0.3056818187899E+01
 0.3068876149737E+01
 0.3076242770302E+01
 0.3081917123857E+01
 0.3087590030136E+01
 0.3094191117628E+01
 0.3102221329042E+01
 0.3111943861628E+01
 0.3123488001701E+01
 0.3136898986941E+01
 0.3152152123988E+01
 0.3169139463047E+01
 0.3187634179696E+01
 0.3207237775195E+01
 0.3227326724817E+01
 0.3247033203000E+01
 0.3265292292391E+01
 0.3280959964563E+01
 0.3292996529537E+01
 0.3300518613306E+01
 0.3302590991801E+01
 0.3297958281211E+01
 0.3284898199175E+01
 0.3261272555779E+01
 0.3224785968106E+01
 0.3173507229496E+01
 0.3106953668799E+01
 0.3028424216968E+01
 0.2950535659563E+01
 0.2907326622029E+01
 0.2974004126719E+01
 0.3281301715861E+01
 0.3975719574657E+01
 0.5079321143211E+01
 0.6345746776560E+01
 0.2532454464360E+01
 0.2668657128653E+01
 0.2796519987360E+01
 0.2898988982162E+01
 0.2970939104351E+01
 0.3016866084779E+01
 0.3044579875338E+01
 0.3061094451084E+01
 0.3071397938255E+01
 0.3078666252057E+01
 0.3084814056723E+01
 0.3090961853781E+01
 0.3097750759661E+01
 0.3105536105225E+01
 0.3114498898169E+01
 0.3124703205049E+01
 0.3136116629651E+01
 0.3148603173334E+01
 0.3161895533366E+01
 0.3175554982938E+01
 0.3188936305465E+01
 0.3201186325716E+01
 0.3211296366771E+01
 0.3218206406196E+01
 0.3220967156025E+01
 0.3218792245316E+01
 0.3210886544056E+01
 0.3196232602055E+01
 0.3173497953847E+01
 0.3141145188540E+01
 0.3097787708574E+01
 0.3042898026332E+01
 0.2978213127093E+01
 0.2910521084403E+01
 0.2857459808986E+01
 0.2858357711612E+01
 0.2988089121079E+01
 0.3358198704668E+01
 0.4069741902773E+01
 0.5106312126572E+01
 0.6251636227539E+01
 0.2519325471364E+01
 0.2647924478487E+01
 0.2770358292329E+01
 0.2872056862612E+01
 0.2947240162057E+01
 0.2998229252985E+01
 0.3030985269640E+01
 0.3051572317861E+01
 0.3064699566693E+01
 0.3073584989616E+01
 0.3080287002992E+01
 0.3086074456991E+01
 0.3091708251676E+01
 0.3097628079364E+01
 0.3104066313363E+01
 0.3111110438419E+01
 0.3118729144071E+01
 0.3126771713321E+01
 0.3134948983558E+01
 0.3142805867795E+01
 0.3149702340498E+01
 0.3154825550941E+01
 0.3157244915060E+01
 0.3156005415388E+01
 0.3150274602113E+01
 0.3139398602791E+01
 0.3122766060863E+01
 0.3099647820108E+01
 0.3069160241017E+01
 0.3030438712777E+01
 0.2983089688043E+01
 0.2928061891937E+01
 0.2869289347613E+01
 0.2816717009630E+01
 0.2791908920746E+01
 0.2836973547960E+01
 0.3022621893420E+01
 0.3440105268549E+01
 0.4154749916188E+01
 0.5127712743172E+01
 0.6171675078322E+01
 0.2508158482498E+01
 0.2630055101876E+01
 0.2747312562697E+01
 0.2847484667665E+01
 0.2924618552825E+01
 0.2979477977561E+01
 0.3016462493558E+01
 0.3040680163936E+01
 0.3056446852543E+01
 0.3066912944926E+01
 0.3074206113328E+01
 0.3079699901710E+01
 0.3084251973999E+01
 0.3088376190537E+01
 0.3092354159821E+01
 0.3096300222385E+01
 0.3100192187094E+01
 0.3103877182218E+01
 0.3107061413452E+01
 0.3109294675143E+01
 0.3109965136416E+01
 0.3108321870264E+01
 0.3103531343530E+01
 0.3094762860215E+01
 0.3081325406271E+01
 0.3062729956266E+01
 0.3038587704298E+01
 0.3008500512192E+01
 0.2972079503878E+01
 0.2929181311783E+01
 0.2880447416429E+01
 0.2828303328502E+01
 0.2778746667422E+01
 0.2744408269147E+01
 0.2749613121605E+01
 0.2837061403424E+01
 0.3070815232001E+01
 0.3522823391303E+01
 0.4231360597616E+01
 0.5145390894996E+01
 0.6103581220747E+01
 0.2498565093376E+01
 0.2614513283043E+01
 0.2726902027518E+01
 0.2825074239424E+01
 0.2903186312009E+01
 0.2960910876178E+01
 0.3001363493458E+01
 0.3028746888586E+01
 0.3046920526995E+01
 0.3058884140499E+01
 0.3066769536932E+01
 0.3072012914991E+01
 0.3075544657641E+01
 0.3077941026951E+01
 0.3079529337401E+01
 0.3080453139913E+01
 0.3080706490178E+01
 0.3080145864271E+01
 0.3078488390388E+01
 0.3075307345799E+01
 0.3070038664340E+01
 0.3062011574004E+01
 0.3050506075315E+01
 0.3034833234725E+01
 0.3014465584086E+01
 0.2989107235149E+01
 0.2958624662231E+01
 0.2922984608280E+01
 0.2882324938879E+01
 0.2837248717531E+01
 0.2789435891281E+01
 0.2742729466730E+01
 0.2704976278231E+01
 0.2690946554566E+01
 0.2726597178776E+01
 0.2853456737314E+01
 0.3127612967432E+01
 0.3603831993587E+01
 0.4300493913776E+01
 0.5160717782407E+01
 0.6045504494274E+01
 0.2490248573398E+01
 0.2600883422006E+01
 0.2708728659119E+01
 0.2804621951071E+01
 0.2882983959718E+01
 0.2942740944192E+01
 0.2985973315086E+01
 0.3016060006917E+01
 0.3036379751698E+01
 0.3049723409174E+01
 0.3058173088424E+01
 0.3063189248915E+01
 0.3065751296957E+01
 0.3066485350383E+01
 0.3065759886496E+01
 0.3063749043619E+01
 0.3060469260180E+01
 0.3055796616364E+01
 0.3049472901936E+01
 0.3041110924363E+01
 0.3030210905839E+01
 0.3016197574024E+01
 0.2998478667304E+01
 0.2976522342565E+01
 0.2949983809753E+01
 0.2918783981059E+01
 0.2883070681183E+01
 0.2843200022835E+01
 0.2799854697967E+01
 0.2754387850648E+01
 0.2709488380342E+01
 0.2670311202835E+01
 0.2646285252305E+01
 0.2653748863283E+01
 0.2719269439160E+01
 0.2881897522394E+01
 0.3189318887262E+01
 0.3681675367497E+01
 0.4363101919812E+01
 0.5174714060553E+01
 0.5995909845815E+01
 0.2482979391737E+01
 0.2588840339883E+01
 0.2692464600602E+01
 0.2785933342668E+01
 0.2864007118454E+01
 0.2925116621597E+01
 0.2970520254375E+01
 0.3002867913532E+01
 0.3025060710188E+01
 0.3039643851244E+01
 0.3048607631704E+01
 0.3053403318817E+01
 0.3055037078871E+01
 0.3054172255228E+01
 0.3051213300019E+01
 0.3046365468883E+01
 0.3039672699157E+01
 0.3031039589425E+01
 0.3020244473695E+01
 0.3006953316956E+01
 0.2990744427849E+01
 0.2971150816029E+01
 0.2947719961165E+01
 0.2920090110962E+01
 0.2888114979778E+01
 0.2851951032240E+01
 0.2812046668921E+01
 0.2769162561530E+01
 0.2724531265278E+01
 0.2680240807764E+01
 0.2639933051022E+01
 0.2609936281396E+01
 0.2600965992822E+01
 0.2630371108160E+01
 0.2724459800782E+01
 0.2918933404947E+01
 0.3253274906967E+01
 0.3755562548532E+01
 0.4420024155924E+01
 0.5188144482838E+01
 0.5953476778438E+01
 0.2476578151448E+01
 0.2578127673802E+01
 0.2677840466481E+01
 0.2768830311545E+01
 0.2846224721039E+01
 0.2908138660470E+01
 0.2955185678393E+01
 0.2989383372243E+01
 0.3013176488431E+01
 0.3028845217723E+01
 0.3038257057621E+01
 0.3042826215377E+01
 0.3043565559514E+01
 0.3041163515173E+01
 0.3036055010947E+01
 0.3028476246265E+01
 0.3018502771604E+01
 0.3006075249429E+01
 0.2991018609934E+01
 0.2973063336843E+01
 0.2951877158973E+01
 0.2927111809092E+01
 0.2898464335760E+01
 0.2865753592639E+01
 0.2829044144710E+01
 0.2788741800703E+01
 0.2745608070419E+01
 0.2700814608914E+01
 0.2656137232875E+01
 0.2614368049246E+01
 0.2580026012720E+01
 0.2560453350685E+01
 0.2567347997706E+01
 0.2618553809770E+01
 0.2739423235213E+01
 0.2961814668152E+01
 0.3317599576558E+01
 0.3825119496780E+01
 0.4471918826478E+01
 0.5201554273898E+01
 0.5916930217693E+01
 0.2470903430256E+01
 0.2568542006503E+01
 0.2664635124736E+01
 0.2753153976852E+01
 0.2829591220760E+01
 0.2891873239438E+01
 0.2940112886450E+01
 0.2975787556893E+01
 0.3000917859224E+01
 0.3017513056171E+01
 0.3027296799583E+01
 0.3031624079167E+01
 0.3031497093032E+01
 0.3027618125602E+01
 0.3020447059852E+01
 0.3010250307950E+01
 0.2997138197260E+01
 0.2981093654280E+01
 0.2961996495064E+01
 0.2939650974718E+01
 0.2913823324979E+01
 0.2884292259627E+01
 0.2850912060595E+01
 0.2813690130781E+01
 0.2772910715017E+01
 0.2729237939152E+01
 0.2683752673828E+01
 0.2638036080474E+01
 0.2594390750444E+01
 0.2556269873481E+01
 0.2528979936448E+01
 0.2520707088245E+01
 0.2543834694866E+01
 0.2616246841207E+01
 0.2761820301507E+01
 0.3008379421336E+01
 0.3380978918950E+01
 0.3890254568990E+01
 0.4519235102287E+01
 0.5215410772549E+01
 0.5884250420642E+01
 0.2465842135672E+01
 0.2559921057593E+01
 0.2652668076807E+01
 0.2738767496214E+01
 0.2814058486071E+01
 0.2876367167472E+01
 0.2925421044244E+01
 0.2962241281037E+01
 0.2988462413346E+01
 0.3005826938335E+01
 0.3015902249550E+01
 0.3019967597052E+01
 0.3019000200213E+01
 0.3013706334652E+01
 0.3004565635452E+01
 0.2991873668818E+01
 0.2975777892975E+01
 0.2956308448034E+01
 0.2933406653913E+01
 0.2906957777507E+01
 0.2876833437355E+01
 0.2842945317039E+01
 0.2805310150416E+01
 0.2764128831156E+01
 0.2719910137018E+01
 0.2673580261158E+01
 0.2626539102408E+01
 0.2580767863003E+01
 0.2539069970297E+01
 0.2505506025599E+01
 0.2486070234445E+01
 0.2489618591526E+01
 0.2528940628747E+01
 0.2621579474084E+01
 0.2789585949342E+01
 0.3056797964563E+01
 0.3442331175258E+01
 0.3950838101912E+01
 0.4562464132272E+01
 0.5228400721213E+01
 0.5863164196108E+01
 0.2461306801380E+01
 0.2552135560752E+01
 0.2641791550610E+01
 0.2725551216960E+01
 0.2799573788865E+01
 0.2861645364891E+01
 0.2911199418427E+01
 0.2948875186286E+01
 0.2975961192877E+01
 0.2993944199980E+01
 0.3004229799553E+01
 0.3008009932615E+01
 0.3006225452635E+01
 0.2999578150046E+01
 0.2988562582611E+01
 0.2973502105202E+01
 0.2954582851461E+01
 0.2931885894706E+01
 0.2905419091425E+01
 0.2875154126256E+01
 0.2841072945100E+01
 0.2803224218012E+01
 0.2761790241840E+01
 0.2717167803179E+01
 0.2670091804057E+01
 0.2621750137626E+01
 0.2573856470790E+01
 0.2528777028375E+01
 0.2489784256730E+01
 0.2461487011597E+01
 0.2450464483028E+01
 0.2466074176393E+01
 0.2521261706091E+01
 0.2632926590306E+01
 0.2821089937567E+01
 0.3105800432229E+01
 0.3501114129004E+01
 0.4007036632740E+01
 0.4602284880155E+01
 0.5240073307979E+01
 0.5856025974230E+01
 0.2457224663921E+01
 0.2545079515495E+01
 0.2631880656701E+01
 0.2713397669345E+01
 0.2786079849895E+01
 0.2847713678105E+01
 0.2897510251414E+01
 0.2935791236581E+01
 0.2963538626523E+01
 0.2981998767338E+01
 0.2992415112103E+01
 0.2995884876164E+01
 0.2993303796094E+01
 0.2985362032791E+01
 0.2972564618056E+01
 0.2955261040104E+01
 0.2933676866842E+01
 0.2907946650579E+01
 0.2878148350738E+01
 0.2844343836203E+01
 0.2806628636384E+01
 0.2765190755627E+01
 0.2720379423726E+01
 0.2672787695143E+01
 0.2623375699771E+01
 0.2573589685823E+01
 0.2525448522169E+01
 0.2481685159692E+01
 0.2446006536404E+01
 0.2423509466142E+01
 0.2421258219873E+01
 0.2448956282673E+01
 0.2519490706338E+01
 0.2648890725884E+01
 0.2855057477050E+01
 0.3154536000204E+01
 0.3557106518736E+01
 0.4059290551485E+01
 0.4638873566869E+01
 0.5253157627852E+01
 0.5849424998854E+01
 0.2453538066543E+01
 0.2538668495543E+01
 0.2622835144305E+01
 0.2702219050670E+01
 0.2773528802167E+01
 0.2834577251593E+01
 0.2884408855209E+01
 0.2923082682322E+01
 0.2951311765602E+01
 0.2970120024805E+01
 0.2980592545496E+01
 0.2983728072297E+01
 0.2980371041389E+01
 0.2971194299946E+01
 0.2956709475842E+01
 0.2937290436299E+01
 0.2913202332562E+01
 0.2884634731188E+01
 0.2851737944967E+01
 0.2814666274158E+01
 0.2773630456687E+01
 0.2728958462413E+01
 0.2681165935245E+01
 0.2631040347628E+01
 0.2579763486303E+01
 0.2529033498043E+01
 0.2481162503983E+01
 0.2439228578142E+01
 0.2407335965752E+01
 0.2391008237010E+01
 0.2397698294347E+01
 0.2437313991945E+01
 0.2522505098085E+01
 0.2668273329852E+01
 0.2890402336575E+01
 0.3202265359712E+01
 0.3610091701061E+01
 0.4107763440895E+01
 0.4672885897892E+01
 0.5266917846985E+01
 0.5844311332154E+01
 0.2450200637858E+01
 0.2532834223146E+01
 0.2614572759314E+01
 0.2691941085975E+01
 0.2761877301818E+01
 0.2822236419088E+01
 0.2871939287276E+01
 0.2910828801411E+01
 0.2939383822163E+01
 0.2958425124162E+01
 0.2968886183909E+01
 0.2971666543808E+01
 0.2967555438634E+01
 0.2957204109665E+01
 0.2941127504441E+01
 0.2919722083426E+01
 0.2893292203128E+01
 0.2862083065904E+01
 0.2826318386169E+01
 0.2786245748389E+01
 0.2742191215012E+01
 0.2694621747396E+01
 0.2644217117428E+01
 0.2591955327486E+01
 0.2539233892561E+01
 0.2487993788549E+01
 0.2440825779721E+01
 0.2401129153849E+01
 0.2373366975873E+01
 0.2363429298871E+01
 0.2379067096539E+01
 0.2430267667705E+01
 0.2529301350794E+01
 0.2690046892691E+01
 0.2926239960323E+01
 0.3248434985208E+01
 0.3659935986300E+01
 0.4152687377937E+01
 0.4704637856197E+01
 0.5280870831456E+01
 0.5840831600547E+01
 0.2447175054541E+01
 0.2527521451792E+01
 0.2607026043613E+01
 0.2682501280009E+01
 0.2751086886118E+01
 0.2810688691323E+01
 0.2860136931083E+01
 0.2899097191766E+01
 0.2927845749765E+01
 0.2947019817349E+01
 0.2957410082043E+01
 0.2959818553160E+01
 0.2954977333967E+01
 0.2943513049151E+01
 0.2925941288506E+01
 0.2902679337062E+01
 0.2874069925838E+01
 0.2840413694342E+01
 0.2802007714600E+01
 0.2759192433423E+01
 0.2712407964166E+01
 0.2662257798300E+01
 0.2609581921293E+01
 0.2555543147100E+01
 0.2501746759479E+01
 0.2450365363970E+01
 0.2404251766465E+01
 0.2367101131820E+01
 0.2343696694959E+01
 0.2340237132174E+01
 0.2364688684565E+01
 0.2427011516566E+01
 0.2538989895975E+01
 0.2713336202747E+01
 0.2961854597114E+01
 0.3292628903071E+01
 0.3706576878281E+01
 0.4194267290512E+01
 0.4734269747350E+01
 0.5294715817877E+01
 0.5838886471617E+01
 0.2444431287680E+01
 0.2522685479823E+01
 0.2600139732845E+01
 0.2673847303393E+01
 0.2741123970878E+01
 0.2799930122607E+01
 0.2849030494554E+01
 0.2887945688512E+01
 0.2916777672295E+01
 0.2935999298133E+01
 0.2946268606235E+01
 0.2948293595952E+01
 0.2942748966323E+01
 0.2930234860058E+01
 0.2911265403099E+01
 0.2886276985198E+01
 0.2855649493879E+01
 0.2819738075114E+01
 0.2778912127192E+01
 0.2733603377313E+01
 0.2684363443926E+01
 0.2631928522895E+01
 0.2577293421188E+01
 0.2521798433106E+01
 0.2467246942086E+01
 0.2416030303344E+01
 0.2371245362967E+01
 0.2336857147166E+01
 0.2317931183568E+01
 0.2320920499068E+01
 0.2353932891812E+01
 0.2426813878725E+01
 0.2550787960253E+01
 0.2737400077592E+01
 0.2996668680195E+01
 0.3334536866720E+01
 0.3749994685660E+01
 0.4232661727432E+01
 0.4761849827549E+01
 0.5308246656183E+01
 0.5838288392994E+01
 0.2441945214813E+01
 0.2518290167542E+01
 0.2593868625936E+01
 0.2665935545129E+01
 0.2731959626917E+01
 0.2789956222514E+01
 0.2838643539348E+01
 0.2877423944789E+01
 0.2906250145953E+01
 0.2925449013040E+01
 0.2935556827731E+01
 0.2937192485649E+01
 0.2930974367712E+01
 0.2917475266412E+01
 0.2897206263808E+01
 0.2870621201157E+01
 0.2838135573499E+01
 0.2800157452410E+01
 0.2757126643174E+01
 0.2709563521151E+01
 0.2658127507612E+01
 0.2603682438936E+01
 0.2547371230269E+01
 0.2490702929769E+01
 0.2435667946361E+01
 0.2384862229399E+01
 0.2341607773722E+01
 0.2310113390177E+01
 0.2295690539526E+01
 0.2304996803564E+01
 0.2346217782626E+01
 0.2429015781279E+01
 0.2564011330777E+01
 0.2761613775882E+01
 0.3030217367700E+01
 0.3373928487867E+01
 0.3790191928267E+01
 0.4267991815808E+01
 0.4787414776831E+01
 0.5321312304087E+01
 0.5838822071123E+01
 0.2439697505752E+01
 0.2514306343746E+01
 0.2588175830647E+01
 0.2658729828870E+01
 0.2723569225651E+01
 0.2780762532548E+01
 0.2828995632458E+01
 0.2867574715624E+01
 0.2896325250676E+01
 0.2915445414696E+01
 0.2925360934435E+01
 0.2926607497320E+01
 0.2919749338307E+01
 0.2905331878759E+01
 0.2883862046787E+01
 0.2855809555305E+01
 0.2821623674616E+01
 0.2781763246036E+01
 0.2736735768307E+01
 0.2687146687687E+01
 0.2633758483122E+01
 0.2577556456591E+01
 0.2519823754007E+01
 0.2462228266020E+01
 0.2406935227540E+01
 0.2356730105000E+01
 0.2315140686509E+01
 0.2286593925420E+01
 0.2276612947972E+01
 0.2292015206730E+01
 0.2341010733551E+01
 0.2433028221478E+01
 0.2578065577332E+01
 0.2785452843812E+01
 0.3062127340795E+01
 0.3410632744450E+01
 0.3827182483573E+01
 0.4300351724662E+01
 0.4810987263928E+01
 0.5333793815772E+01
 0.5840265976773E+01
 0.2437672724643E+01
 0.2510710519764E+01
 0.2583031319311E+01
 0.2652200292622E+01
 0.2715932026566E+01
 0.2772344973616E+01
 0.2820103213783E+01
 0.2858434903739E+01
 0.2887057536656E+01
 0.2906056663201E+01
 0.2915758659931E+01
 0.2916622570784E+01
 0.2909161502151E+01
 0.2893894186997E+01
 0.2871322698021E+01
 0.2841931112021E+01
 0.2806200399190E+01
 0.2764637508333E+01
 0.2717814211627E+01
 0.2666416604334E+01
 0.2611304545563E+01
 0.2553577642186E+01
 0.2494650382342E+01
 0.2436338599726E+01
 0.2380969279428E+01
 0.2331501706209E+01
 0.2291649985698E+01
 0.2266034388191E+01
 0.2260357948586E+01
 0.2281558817980E+01
 0.2337828519638E+01
 0.2438328621148E+01
 0.2592437210766E+01
 0.2808478591670E+01
 0.3092099114086E+01
 0.3444522579087E+01
 0.3860985843955E+01
 0.4329816556308E+01
 0.4832582810149E+01
 0.5345590874752E+01
 0.5842403378073E+01
 0.2435858601353E+01
 0.2507483845315E+01
 0.2578410735329E+01
 0.2646322414988E+01
 0.2709030741008E+01
 0.2764700025087E+01
 0.2811980233286E+01
 0.2850036393966E+01
 0.2878494823643E+01
 0.2897343252289E+01
 0.2906819694950E+01
 0.2907313532998E+01
 0.2899290400397E+01
 0.2883243595606E+01
 0.2859669980783E+01
 0.2829066554117E+01
 0.2791943700972E+01
 0.2748853371397E+01
 0.2700427566602E+01
 0.2647427859858E+01
 0.2590804987234E+01
 0.2531764835357E+01
 0.2471843480313E+01
 0.2412992990774E+01
 0.2357688365813E+01
 0.2309046634608E+01
 0.2270948891927E+01
 0.2248184996091E+01
 0.2246608923979E+01
 0.2273246052680E+01
 0.2336236609591E+01
 0.2444456793654E+01
 0.2606685205579E+01
 0.2830325388886E+01
 0.3119892704345E+01
 0.3475503717704E+01
 0.3891624129838E+01
 0.4356447635104E+01
 0.4852212269514E+01
 0.5356614568760E+01
 0.5845028461968E+01
 0.2434245435391E+01
 0.2504611256630E+01
 0.2574294405321E+01
 0.2641076175544E+01
 0.2702851102092E+01
 0.2757824792090E+01
 0.2804638616501E+01
 0.2842406720002E+01
 0.2870678877415E+01
 0.2889358569842E+01
 0.2898606083371E+01
 0.2898748340277E+01
 0.2890207624891E+01
 0.2873453508069E+01
 0.2848977572771E+01
 0.2817288351413E+01
 0.2778923179020E+01
 0.2734475513403E+01
 0.2684632992586E+01
 0.2630226838185E+01
 0.2572291436194E+01
 0.2512130178907E+01
 0.2451390245277E+01
 0.2392147581676E+01
 0.2337010986324E+01
 0.2289238979205E+01
 0.2252860661154E+01
 0.2232813034577E+01
 0.2235074993910E+01
 0.2266731365697E+01
 0.2335847906406E+01
 0.2451010677106E+01
 0.2620433049990E+01
 0.2850689638070E+01
 0.3145316046120E+01
 0.3503506413803E+01
 0.3919120287125E+01
 0.4380295742221E+01
 0.4869882660153E+01
 0.5366783911694E+01
 0.5847949887619E+01
 0.2432825610123E+01
 0.2502080781153E+01
 0.2570666523281E+01
 0.2636445337117E+01
 0.2697381458731E+01
 0.2751716999713E+01
 0.2798088599738E+01
 0.2835569593379E+01
 0.2863645976732E+01
 0.2882149391674E+01
 0.2891172592152E+01
 0.2890987324835E+01
 0.2881976974392E+01
 0.2864589441772E+01
 0.2839311193397E+01
 0.2806660952759E+01
 0.2767200382780E+01
 0.2721560620032E+01
 0.2670479870624E+01
 0.2614852601415E+01
 0.2555788993834E+01
 0.2494680530969E+01
 0.2433274401510E+01
 0.2373757561277E+01
 0.2318858062609E+01
 0.2271959631355E+01
 0.2237220872270E+01
 0.2219704879107E+01
 0.2225492418262E+01
 0.2261705512578E+01
 0.2336321143643E+01
 0.2457642086394E+01
 0.2633361521375E+01
 0.2869320404701E+01
 0.3168215760910E+01
 0.3528479351162E+01
 0.3943496920004E+01
 0.4401403135513E+01
 0.4885597640047E+01
 0.5376024504665E+01
 0.5850993020595E+01
 0.2431593193230E+01
 0.2499882967903E+01
 0.2567514475115E+01
 0.2632416833605E+01
 0.2692612400264E+01
 0.2746374938040E+01
 0.2792338963413E+01
 0.2829545316169E+01
 0.2857427380266E+01
 0.2875756306546E+01
 0.2884567045012E+01
 0.2884083430723E+01
 0.2874654616250E+01
 0.2856709155065E+01
 0.2830728741939E+01
 0.2797240981054E+01
 0.2756829106712E+01
 0.2710157817070E+01
 0.2658010407492E+01
 0.2601337693594E+01
 0.2541317260773E+01
 0.2479418727311E+01
 0.2417477700243E+01
 0.2357778882880E+01
 0.2303154823831E+01
 0.2257098244789E+01
 0.2223879314007E+01
 0.2208667588308E+01
 0.2217625571723E+01
 0.2257895436075E+01
 0.2337359072895E+01
 0.2464052630443E+01
 0.2645202253824E+01
 0.2886011557917E+01
 0.3188469843689E+01
 0.3550385100901E+01
 0.3964775484584E+01
 0.4419804895929E+01
 0.4899358029814E+01
 0.5384268347706E+01
 0.5854001254673E+01
 0.2430543610699E+01
 0.2498010422943E+01
 0.2564828283522E+01
 0.2628980254970E+01
 0.2688536421820E+01
 0.2741797383612E+01
 0.2787397195254E+01
 0.2824351106222E+01
 0.2852049714415E+01
 0.2870214085085E+01
 0.2878830626594E+01
 0.2878082443050E+01
 0.2868289257048E+01
 0.2849862791347E+01
 0.2823280453929E+01
 0.2789077441847E+01
 0.2747855688870E+01
 0.2700309092957E+01
 0.2647260211662E+01
 0.2589708894412E+01
 0.2528891286385E+01
 0.2466344736145E+01
 0.2403981275932E+01
 0.2344169797904E+01
 0.2289832465134E+01
 0.2244554928962E+01
 0.2212701575090E+01
 0.2199530187507E+01
 0.2211267623957E+01
 0.2255063925209E+01
 0.2338706594621E+01
 0.2469989914058E+01
 0.2655732100678E+01
 0.2900595213377E+01
 0.3205981829757E+01
 0.3569196636862E+01
 0.3982975646288E+01
 0.4435529853836E+01
 0.4911162420435E+01
 0.5391454180192E+01
 0.5856836811990E+01
 0.2429673381826E+01
 0.2496457432103E+01
 0.2562600153959E+01
 0.2626127417079E+01
 0.2685147630393E+01
 0.2737983508080E+01
 0.2783269598278E+01
 0.2820001346781E+01
 0.2847535286497E+01
 0.2865551988813E+01
 0.2873998146234E+01
 0.2873023194382E+01
 0.2862922302469E+01
 0.2844093017641E+01
 0.2817009050578E+01
 0.2782211917456E+01
 0.2740319282088E+01
 0.2692049676259E+01
 0.2638258802193E+01
 0.2579987879806E+01
 0.2518522395353E+01
 0.2455456656381E+01
 0.2392766809331E+01
 0.2332892158447E+01
 0.2278829539394E+01
 0.2234241647744E+01
 0.2203570326239E+01
 0.2192144653143E+01
 0.2206240963877E+01
 0.2253009119605E+01
 0.2340148935840E+01
 0.2475244127072E+01
 0.2664768328004E+01
 0.2912936384034E+01
 0.3220676230304E+01
 0.3584894722046E+01
 0.3998114843078E+01
 0.4448601350634E+01
 0.4921007889212E+01
 0.5397528057219E+01
 0.5859381223531E+01
 0.2428979905078E+01
 0.2495219657423E+01
 0.2560824107320E+01
 0.2623852007994E+01
 0.2682441493751E+01
 0.2734932786142E+01
 0.2779961360956E+01
 0.2816507777747E+01
 0.2843902336677E+01
 0.2861794027549E+01
 0.2870098265359E+01
 0.2868937749760E+01
 0.2858588006860E+01
 0.2839435158425E+01
 0.2811949883210E+01
 0.2776678750305E+01
 0.2734252103611E+01
 0.2685408376368E+01
 0.2631030061652E+01
 0.2572191803784E+01
 0.2510218909275E+01
 0.2446751581860E+01
 0.2383817525548E+01
 0.2323912523934E+01
 0.2270093125736E+01
 0.2226083376068E+01
 0.2196386355979E+01
 0.2186386668935E+01
 0.2202397447414E+01
 0.2251563944544E+01
 0.2341509953025E+01
 0.2479645055926E+01
 0.2672164575681E+01
 0.2922928641207E+01
 0.3232494942042E+01
 0.3597465900572E+01
 0.4010207950659E+01
 0.4459037850756E+01
 0.4928890706255E+01
 0.5402443959431E+01
 0.5861535576283E+01
 0.2428461289810E+01
 0.2494293898024E+01
 0.2559495689412E+01
 0.2622149304393E+01
 0.2680414633093E+01
 0.2732644910842E+01
 0.2777476601494E+01
 0.2813879640056E+01
 0.2841165236551E+01
 0.2858959168373E+01
 0.2867153687275E+01
 0.2865851565750E+01
 0.2855313605746E+01
 0.2835917316710E+01
 0.2808131063908E+01
 0.2772505206215E+01
 0.2729679653546E+01
 0.2680407877519E+01
 0.2625592623030E+01
 0.2566333791594E+01
 0.2503986754272E+01
 0.2440226324337E+01
 0.2377119023122E+01
 0.2317203073062E+01
 0.2263579783302E+01
 0.2220019032345E+01
 0.2191069389271E+01
 0.2182156196203E+01
 0.2199618527010E+01
 0.2250595550746E+01
 0.2342650639249E+01
 0.2483059572084E+01
 0.2677807575366E+01
 0.2930490691353E+01
 0.3241394489927E+01
 0.3606900996170E+01
 0.4019267060438E+01
 0.4466853466280E+01
 0.4934807003497E+01
 0.5406164355858E+01
 0.5863220674513E+01
 0.2428116226461E+01
 0.2493677906640E+01
 0.2558611747185E+01
 0.2621015950757E+01
 0.2679064657478E+01
 0.2731119719837E+01
 0.2775818393148E+01
 0.2812123780291E+01
 0.2839334639179E+01
 0.2857061497503E+01
 0.2865181307322E+01
 0.2863783618877E+01
 0.2853119424873E+01
 0.2833560474829E+01
 0.2805573574184E+01
 0.2769711608930E+01
 0.2726620892950E+01
 0.2677064976532E+01
 0.2621960180694E+01
 0.2562423334142E+01
 0.2499829944707E+01
 0.2435877986292E+01
 0.2372659927252E+01
 0.2312742317506E+01
 0.2259256291414E+01
 0.2216002193683E+01
 0.2187558703011E+01
 0.2179377880852E+01
 0.2197815295287E+01
 0.2250004799853E+01
 0.2343467873861E+01
 0.2485389607522E+01
 0.2681614578387E+01
 0.2935563757619E+01
 0.3247343963550E+01
 0.3613194013386E+01
 0.4025301338898E+01
 0.4472058391356E+01
 0.4938753349614E+01
 0.5408660679072E+01
 0.5864377092879E+01
 0.2427943892806E+01
 0.2493370256901E+01
 0.2558170266552E+01
 0.2620449798102E+01
 0.2678390040988E+01
 0.2730357138075E+01
 0.2774988778972E+01
 0.2811244724522E+01
 0.2838417588243E+01
 0.2856110340460E+01
 0.2864192326517E+01
 0.2862746504895E+01
 0.2852018966325E+01
 0.2832378575295E+01
 0.2804291352349E+01
 0.2768311447328E+01
 0.2725088384088E+01
 0.2675390768093E+01
 0.2620141730770E+01
 0.2560466590955E+01
 0.2497750952746E+01
 0.2433704396308E+01
 0.2370432383703E+01
 0.2310515638496E+01
 0.2257100202440E+01
 0.2214001625675E+01
 0.2185813575809E+01
 0.2178001340280E+01
 0.2196928492010E+01
 0.2249725847405E+01
 0.2343893457857E+01
 0.2486570630761E+01
 0.2683531456847E+01
 0.2938109678939E+01
 0.3250323540021E+01
 0.3616341360152E+01
 0.4028316935177E+01
 0.4474659231096E+01
 0.4940727198184E+01
 0.5409913682430E+01
 0.5864965207777E+01
 0.2427943892818E+01
 0.2493370256915E+01
 0.2558170266570E+01
 0.2620449798124E+01
 0.2678390041015E+01
 0.2730357138108E+01
 0.2774988779012E+01
 0.2811244724567E+01
 0.2838417588295E+01
 0.2856110340518E+01
 0.2864192326583E+01
 0.2862746504968E+01
 0.2852018966408E+01
 0.2832378575389E+01
 0.2804291352457E+01
 0.2768311447452E+01
 0.2725088384229E+01
 0.2675390768255E+01
 0.2620141730952E+01
 0.2560466591160E+01
 0.2497750952972E+01
 0.2433704396554E+01
 0.2370432383965E+01
 0.2310515638767E+01
 0.2257100202713E+01
 0.2214001625937E+01
 0.2185813576046E+01
 0.2178001340474E+01
 0.2196928492139E+01
 0.2249725847447E+01
 0.2343893457793E+01
 0.2486570630576E+01
 0.2683531456538E+01
 0.2938109678517E+01
 0.3250323539515E+01
 0.3616341359608E+01
 0.4028316934649E+01
 0.4474659230640E+01
 0.4940727197844E+01
 0.5409913682230E+01
 0.5864965207711E+01
 0.2428116226499E+01
 0.2493677906684E+01
 0.2558611747238E+01
 0.2621015950824E+01
 0.2679064657560E+01
 0.2731119719937E+01
 0.2775818393266E+01
 0.2812123780427E+01
 0.2839334639334E+01
 0.2857061497678E+01
 0.2865181307519E+01
 0.2863783619098E+01
 0.2853119425122E+01
 0.2833560475112E+01
 0.2805573574507E+01
 0.2769711609300E+01
 0.2726620893374E+01
 0.2677064977015E+01
 0.2621960181241E+01
 0.2562423334756E+01
 0.2499829945386E+01
 0.2435877987030E+01
 0.2372659928039E+01
 0.2312742318322E+01
 0.2259256292235E+01
 0.2216002194472E+01
 0.2187558703725E+01
 0.2179377881436E+01
 0.2197815295678E+01
 0.2250004799985E+01
 0.2343467873673E+01
 0.2485389606971E+01
 0.2681614577462E+01
 0.2935563756356E+01
 0.3247343962035E+01
 0.3613194011754E+01
 0.4025301337314E+01
 0.4472058389985E+01
 0.4938753348595E+01
 0.5408660678476E+01
 0.5864377092687E+01
 0.2428461289874E+01
 0.2494293898097E+01
 0.2559495689500E+01
 0.2622149304504E+01
 0.2680414633229E+01
 0.2732644911009E+01
 0.2777476601691E+01
 0.2813879640283E+01
 0.2841165236810E+01
 0.2858959168664E+01
 0.2867153687602E+01
 0.2865851566117E+01
 0.2855313606160E+01
 0.2835917317180E+01
 0.2808131064445E+01
 0.2772505206830E+01
 0.2729679654250E+01
 0.2680407878323E+01
 0.2625592623941E+01
 0.2566333792617E+01
 0.2503986755403E+01
 0.2440226325568E+01
 0.2377119024434E+01
 0.2317203074425E+01
 0.2263579784673E+01
 0.2220019033667E+01
 0.2191069390470E+01
 0.2182156197188E+01
 0.2199618527676E+01
 0.2250595550983E+01
 0.2342650638954E+01
 0.2483059571182E+01
 0.2677807573839E+01
 0.2930490689259E+01
 0.3241394487409E+01
 0.3606900993451E+01
 0.4019267057795E+01
 0.4466853463994E+01
 0.4934807001799E+01
 0.5406164354871E+01
 0.5863220674206E+01
 0.2428979905167E+01
 0.2495219657524E+01
 0.2560824107444E+01
 0.2623852008149E+01
 0.2682441493943E+01
 0.2734932786375E+01
 0.2779961361231E+01
 0.2816507778065E+01
 0.2843902337039E+01
 0.2861794027955E+01
 0.2870098265814E+01
 0.2868937750271E+01
 0.2858588007437E+01
 0.2839435159080E+01
 0.2811949883958E+01
 0.2776678751162E+01
 0.2734252104594E+01
 0.2685408377490E+01
 0.2631030062924E+01
 0.2572191805213E+01
 0.2510218910858E+01
 0.2446751583584E+01
 0.2383817527388E+01
 0.2323912525849E+01
 0.2270093127666E+01
 0.2226083377933E+01
 0.2196386357676E+01
 0.2186386670337E+01
 0.2202397448377E+01
 0.2251563944909E+01
 0.2341509952648E+01
 0.2479645054700E+01
 0.2672164573575E+01
 0.2922928638297E+01
 0.3232494938527E+01
 0.3597465896767E+01
 0.4010207946952E+01
 0.4459037847549E+01
 0.4928890703878E+01
 0.5402443958062E+01
 0.5861535575881E+01
 0.2429673381940E+01
 0.2496457432234E+01
 0.2562600154118E+01
 0.2626127417278E+01
 0.2685147630640E+01
 0.2737983508379E+01
 0.2783269598631E+01
 0.2820001347189E+01
 0.2847535286960E+01
 0.2865551989333E+01
 0.2873998146816E+01
 0.2873023195034E+01
 0.2862922303205E+01
 0.2844093018478E+01
 0.2817009051534E+01
 0.2782211918551E+01
 0.2740319283344E+01
 0.2692049677695E+01
 0.2638258803823E+01
 0.2579987881639E+01
 0.2518522397386E+01
 0.2455456658599E+01
 0.2392766811702E+01
 0.2332892160919E+01
 0.2278829541891E+01
 0.2234241650166E+01
 0.2203570328453E+01
 0.2192144654989E+01
 0.2206240965166E+01
 0.2253009120135E+01
 0.2340148935420E+01
 0.2475244125559E+01
 0.2664768325351E+01
 0.2912936380333E+01
 0.3220676225806E+01
 0.3584894717156E+01
 0.3998114838303E+01
 0.4448601346499E+01
 0.4921007886156E+01
 0.5397528055479E+01
 0.5859381223062E+01
 0.2430543610839E+01
 0.2498010423103E+01
 0.2564828283718E+01
 0.2628980255214E+01
 0.2688536422121E+01
 0.2741797383977E+01
 0.2787397195686E+01
 0.2824351106719E+01
 0.2852049714978E+01
 0.2870214085717E+01
 0.2878830627300E+01
 0.2878082443841E+01
 0.2868289257940E+01
 0.2849862792361E+01
 0.2823280455087E+01
 0.2789077443176E+01
 0.2747855690396E+01
 0.2700309094703E+01
 0.2647260213647E+01
 0.2589708896646E+01
 0.2528891288866E+01
 0.2466344738857E+01
 0.2403981278836E+01
 0.2344169800940E+01
 0.2289832468211E+01
 0.2244554931958E+01
 0.2212701577846E+01
 0.2199530189827E+01
 0.2211267625611E+01
 0.2255063925948E+01
 0.2338706594205E+01
 0.2469989912305E+01
 0.2655732097520E+01
 0.2900595208915E+01
 0.3205981824294E+01
 0.3569196630890E+01
 0.3982975640436E+01
 0.4435529848765E+01
 0.4911162416698E+01
 0.5391454178098E+01
 0.5856836811489E+01
 0.2431593193395E+01
 0.2499882968093E+01
 0.2567514475346E+01
 0.2632416833894E+01
 0.2692612400621E+01
 0.2746374938472E+01
 0.2792338963922E+01
 0.2829545316755E+01
 0.2857427380928E+01
 0.2875756307286E+01
 0.2884567045839E+01
 0.2884083431649E+01
 0.2874654617293E+01
 0.2856709156250E+01
 0.2830728743295E+01
 0.2797240982611E+01
 0.2756829108501E+01
 0.2710157819120E+01
 0.2658010409826E+01
 0.2601337696225E+01
 0.2541317263700E+01
 0.2479418730517E+01
 0.2417477703685E+01
 0.2357778886489E+01
 0.2303154827502E+01
 0.2257098248380E+01
 0.2223879317333E+01
 0.2208667591140E+01
 0.2217625573789E+01
 0.2257895437077E+01
 0.2337359072544E+01
 0.2464052628511E+01
 0.2645202250215E+01
 0.2886011552735E+01
 0.3188469837281E+01
 0.3550385093851E+01
 0.3964775477648E+01
 0.4419804889910E+01
 0.4899358025395E+01
 0.5384268345276E+01
 0.5854001254184E+01
 0.2432825610314E+01
 0.2502080781372E+01
 0.2570666523548E+01
 0.2636445337451E+01
 0.2697381459144E+01
 0.2751717000212E+01
 0.2798088600324E+01
 0.2835569594051E+01
 0.2863645977490E+01
 0.2882149392521E+01
 0.2891172593095E+01
 0.2890987325889E+01
 0.2881976975580E+01
 0.2864589443122E+01
 0.2839311194943E+01
 0.2806660954536E+01
 0.2767200384825E+01
 0.2721560622379E+01
 0.2670479873300E+01
 0.2614852604438E+01
 0.2555788997205E+01
 0.2494680534669E+01
 0.2433274405494E+01
 0.2373757565467E+01
 0.2318858066889E+01
 0.2271959635565E+01
 0.2237220876200E+01
 0.2219704882495E+01
 0.2225492420795E+01
 0.2261705513909E+01
 0.2336321143429E+01
 0.2457642084356E+01
 0.2633361517381E+01
 0.2869320398850E+01
 0.3168215753587E+01
 0.3528479343040E+01
 0.3943496911973E+01
 0.4401403128531E+01
 0.4885597634942E+01
 0.5376024501919E+01
 0.5850993020171E+01
 0.2434245435607E+01
 0.2504611256879E+01
 0.2574294405624E+01
 0.2641076175923E+01
 0.2702851102561E+01
 0.2757824792655E+01
 0.2804638617163E+01
 0.2842406720760E+01
 0.2870678878268E+01
 0.2889358570791E+01
 0.2898606084426E+01
 0.2898748341456E+01
 0.2890207626218E+01
 0.2873453509577E+01
 0.2848977574499E+01
 0.2817288353401E+01
 0.2778923181313E+01
 0.2734475516038E+01
 0.2684632995597E+01
 0.2630226841594E+01
 0.2572291440005E+01
 0.2512130183101E+01
 0.2451390249807E+01
 0.2392147586458E+01
 0.2337010991232E+01
 0.2289238984061E+01
 0.2252860665727E+01
 0.2232813038571E+01
 0.2235074996974E+01
 0.2266731367434E+01
 0.2335847906415E+01
 0.2451010675051E+01
 0.2620433045692E+01
 0.2850689631614E+01
 0.3145316037920E+01
 0.3503506404620E+01
 0.3919120277988E+01
 0.4380295734259E+01
 0.4869882654356E+01
 0.5366783908656E+01
 0.5847949887319E+01
 0.2435858601596E+01
 0.2507483845593E+01
 0.2578410735669E+01
 0.2646322415412E+01
 0.2709030741533E+01
 0.2764700025719E+01
 0.2811980234025E+01
 0.2850036394808E+01
 0.2878494824587E+01
 0.2897343253336E+01
 0.2906819696113E+01
 0.2907313534294E+01
 0.2899290401855E+01
 0.2883243597264E+01
 0.2859669982684E+01
 0.2829066556308E+01
 0.2791943703502E+01
 0.2748853374311E+01
 0.2700427569939E+01
 0.2647427863645E+01
 0.2590804991479E+01
 0.2531764840044E+01
 0.2471843485392E+01
 0.2412992996158E+01
 0.2357688371367E+01
 0.2309046640140E+01
 0.2270948897183E+01
 0.2248185000748E+01
 0.2246608927646E+01
 0.2273246054908E+01
 0.2336236609920E+01
 0.2444456791684E+01
 0.2606685201075E+01
 0.2830325381901E+01
 0.3119892695315E+01
 0.3475503707474E+01
 0.3891624119583E+01
 0.4356447626141E+01
 0.4852212263017E+01
 0.5356614565454E+01
 0.5845028461862E+01
 0.2437672724912E+01
 0.2510710520072E+01
 0.2583031319689E+01
 0.2652200293094E+01
 0.2715932027148E+01
 0.2772344974315E+01
 0.2820103214597E+01
 0.2858434904664E+01
 0.2887057537688E+01
 0.2906056664343E+01
 0.2915758661194E+01
 0.2916622572190E+01
 0.2909161503732E+01
 0.2893894188795E+01
 0.2871322700084E+01
 0.2841931114403E+01
 0.2806200401946E+01
 0.2764637511515E+01
 0.2717814215280E+01
 0.2666416608490E+01
 0.2611304550236E+01
 0.2553577647362E+01
 0.2494650387973E+01
 0.2436338605723E+01
 0.2380969285647E+01
 0.2331501712447E+01
 0.2291649991684E+01
 0.2266034393573E+01
 0.2260357952934E+01
 0.2281558820797E+01
 0.2337828520400E+01
 0.2438328619381E+01
 0.2592437206168E+01
 0.2808478584249E+01
 0.3092099104286E+01
 0.3444522567831E+01
 0.3860985832571E+01
 0.4329816546318E+01
 0.4832582802939E+01
 0.5345590871203E+01
 0.5842403378237E+01
 0.2439697506047E+01
 0.2514306344085E+01
 0.2588175831062E+01
 0.2658729829389E+01
 0.2723569226291E+01
 0.2780762533314E+01
 0.2828995633347E+01
 0.2867574716630E+01
 0.2896325251793E+01
 0.2915445415926E+01
 0.2925360935793E+01
 0.2926607498828E+01
 0.2919749340001E+01
 0.2905331880687E+01
 0.2883862049001E+01
 0.2855809557866E+01
 0.2821623677585E+01
 0.2781763249473E+01
 0.2736735772264E+01
 0.2687146692203E+01
 0.2633758488215E+01
 0.2577556462253E+01
 0.2519823760192E+01
 0.2462228272637E+01
 0.2406935234444E+01
 0.2356730111977E+01
 0.2315140693272E+01
 0.2286593931593E+01
 0.2276612953090E+01
 0.2292015210245E+01
 0.2341010734872E+01
 0.2433028220052E+01
 0.2578065572774E+01
 0.2785452836069E+01
 0.3062127330301E+01
 0.3410632732198E+01
 0.3827182471050E+01
 0.4300351713616E+01
 0.4810987255989E+01
 0.5333793812006E+01
 0.5840265977292E+01
 0.2441945215134E+01
 0.2518290167911E+01
 0.2593868626390E+01
 0.2665935545696E+01
 0.2731959627615E+01
 0.2789956223348E+01
 0.2838643540311E+01
 0.2877423945872E+01
 0.2906250147151E+01
 0.2925449014354E+01
 0.2935556829175E+01
 0.2937192487250E+01
 0.2930974369509E+01
 0.2917475268457E+01
 0.2897206266161E+01
 0.2870621203883E+01
 0.2838135576668E+01
 0.2800157456087E+01
 0.2757126647421E+01
 0.2709563526013E+01
 0.2658127513115E+01
 0.2603682445078E+01
 0.2547371237008E+01
 0.2490702937016E+01
 0.2435667953969E+01
 0.2384862237149E+01
 0.2341607781313E+01
 0.2310113397212E+01
 0.2295690545506E+01
 0.2304996807894E+01
 0.2346217784646E+01
 0.2429015780348E+01
 0.2564011326415E+01
 0.2761613767953E+01
 0.3030217356606E+01
 0.3373928474658E+01
 0.3790191914596E+01
 0.4267991803673E+01
 0.4787414768141E+01
 0.5321312300129E+01
 0.5838822072092E+01
 0.2444431288027E+01
 0.2522685480223E+01
 0.2600139733337E+01
 0.2673847304009E+01
 0.2741123971636E+01
 0.2799930123508E+01
 0.2849030495591E+01
 0.2887945689671E+01
 0.2916777673569E+01
 0.2935999299523E+01
 0.2946268607757E+01
 0.2948293597635E+01
 0.2942748968211E+01
 0.2930234862208E+01
 0.2911265405576E+01
 0.2886276988075E+01
 0.2855649497231E+01
 0.2819738079016E+01
 0.2778912131714E+01
 0.2733603382508E+01
 0.2684363449828E+01
 0.2631928529509E+01
 0.2577293428479E+01
 0.2521798440991E+01
 0.2467246950416E+01
 0.2416030311899E+01
 0.2371245371437E+01
 0.2336857155137E+01
 0.2317931190511E+01
 0.2320920504341E+01
 0.2353932894686E+01
 0.2426813878465E+01
 0.2550787956267E+01
 0.2737400069638E+01
 0.2996668668619E+01
 0.3334536852612E+01
 0.3749994670837E+01
 0.4232661714171E+01
 0.4761849818080E+01
 0.5308246652055E+01
 0.5838288394514E+01
 0.2447175054914E+01
 0.2527521452224E+01
 0.2607026044146E+01
 0.2682501280676E+01
 0.2751086886937E+01
 0.2810688692293E+01
 0.2860136932191E+01
 0.2899097192997E+01
 0.2927845751109E+01
 0.2947019818808E+01
 0.2957410083634E+01
 0.2959818554915E+01
 0.2954977335935E+01
 0.2943513051392E+01
 0.2925941291092E+01
 0.2902679340073E+01
 0.2874069929357E+01
 0.2840413698452E+01
 0.2802007719378E+01
 0.2759192438934E+01
 0.2712407970452E+01
 0.2662257805376E+01
 0.2609581929132E+01
 0.2555543155626E+01
 0.2501746768548E+01
 0.2450365373362E+01
 0.2404251775866E+01
 0.2367101140803E+01
 0.2343696702971E+01
 0.2340237138527E+01
 0.2364688688463E+01
 0.2427011517174E+01
 0.2538989892573E+01
 0.2713336194962E+01
 0.2961854585203E+01
 0.3292628888136E+01
 0.3706576862307E+01
 0.4194267276083E+01
 0.4734269737068E+01
 0.5294715813602E+01
 0.5838886473797E+01
 0.2450200638259E+01
 0.2532834223609E+01
 0.2614572759889E+01
 0.2691941086695E+01
 0.2761877302700E+01
 0.2822236420127E+01
 0.2871939288455E+01
 0.2910828802711E+01
 0.2939383823573E+01
 0.2958425125682E+01
 0.2968886185559E+01
 0.2971666545624E+01
 0.2967555440667E+01
 0.2957204111982E+01
 0.2941127507120E+01
 0.2919722086554E+01
 0.2893292206795E+01
 0.2862083070202E+01
 0.2826318391185E+01
 0.2786245754197E+01
 0.2742191221666E+01
 0.2694621754921E+01
 0.2644217125809E+01
 0.2591955336655E+01
 0.2539233902383E+01
 0.2487993798809E+01
 0.2440825790105E+01
 0.2401129163923E+01
 0.2373366985062E+01
 0.2363429306450E+01
 0.2379067101645E+01
 0.2430267669400E+01
 0.2529301348214E+01
 0.2690046885303E+01
 0.2926239948257E+01
 0.3248434969548E+01
 0.3659935969187E+01
 0.4152687362295E+01
 0.4704637845060E+01
 0.5280870827054E+01
 0.5840831603504E+01
 0.2453538066970E+01
 0.2538668496040E+01
 0.2622835144922E+01
 0.2702219051445E+01
 0.2773528803113E+01
 0.2834577252701E+01
 0.2884408856457E+01
 0.2923082683687E+01
 0.2951311767069E+01
 0.2970120026377E+01
 0.2980592547194E+01
 0.2983728074159E+01
 0.2980371043473E+01
 0.2971194302323E+01
 0.2956709478597E+01
 0.2937290439524E+01
 0.2913202336357E+01
 0.2884634735653E+01
 0.2851737950198E+01
 0.2814666280242E+01
 0.2773630463689E+01
 0.2728958470372E+01
 0.2681165944157E+01
 0.2631040357438E+01
 0.2579763496888E+01
 0.2529033509198E+01
 0.2481162515399E+01
 0.2439228589383E+01
 0.2407335976231E+01
 0.2391008245969E+01
 0.2397698300859E+01
 0.2437313994966E+01
 0.2522505096598E+01
 0.2668273323133E+01
 0.2890402324578E+01
 0.3202265343460E+01
 0.3610091682833E+01
 0.4107763423990E+01
 0.4672885885853E+01
 0.5266917842479E+01
 0.5844311336009E+01
 0.2457224664375E+01
 0.2545079516026E+01
 0.2631880657363E+01
 0.2713397670178E+01
 0.2786079850908E+01
 0.2847713679283E+01
 0.2897510252729E+01
 0.2935791238006E+01
 0.2963538628041E+01
 0.2981998768952E+01
 0.2992415113837E+01
 0.2995884878060E+01
 0.2993303798214E+01
 0.2985362035211E+01
 0.2972564620867E+01
 0.2955261043407E+01
 0.2933676870742E+01
 0.2907946655188E+01
 0.2878148356162E+01
 0.2844343842539E+01
 0.2806628643712E+01
 0.2765190763998E+01
 0.2720379433154E+01
 0.2672787705588E+01
 0.2623375711125E+01
 0.2573589697895E+01
 0.2525448534663E+01
 0.2481685172176E+01
 0.2446006548287E+01
 0.2423509476639E+01
 0.2421258228002E+01
 0.2448956287285E+01
 0.2519490706249E+01
 0.2648890720149E+01
 0.2855057465397E+01
 0.3154535983535E+01
 0.3557106499439E+01
 0.4059290533261E+01
 0.4638873553870E+01
 0.5253157623276E+01
 0.5849425003737E+01
 0.2461306801862E+01
 0.2552135561317E+01
 0.2641791551319E+01
 0.2725551217852E+01
 0.2799573789946E+01
 0.2861645366139E+01
 0.2911199419807E+01
 0.2948875187765E+01
 0.2975961194437E+01
 0.2993944201626E+01
 0.3004229801310E+01
 0.3008009934530E+01
 0.3006225454774E+01
 0.2999578152492E+01
 0.2988562585459E+01
 0.2973502108560E+01
 0.2954582855445E+01
 0.2931885899433E+01
 0.2905419097014E+01
 0.2875154132817E+01
 0.2841072952727E+01
 0.2803224226773E+01
 0.2761790251766E+01
 0.2717167814247E+01
 0.2670091816181E+01
 0.2621750150634E+01
 0.2573856484402E+01
 0.2528777042175E+01
 0.2489784270129E+01
 0.2461487023795E+01
 0.2450464492994E+01
 0.2466074182880E+01
 0.2521261707742E+01
 0.2632926585925E+01
 0.2821089926597E+01
 0.3105800415373E+01
 0.3501114108714E+01
 0.4007036613138E+01
 0.4602284866118E+01
 0.5240073303391E+01
 0.5856025980281E+01
 0.2465842136181E+01
 0.2559921058195E+01
 0.2652668077567E+01
 0.2738767497170E+01
 0.2814058487224E+01
 0.2876367168791E+01
 0.2925421045685E+01
 0.2962241282564E+01
 0.2988462414940E+01
 0.3005826940000E+01
 0.3015902251316E+01
 0.3019967598969E+01
 0.3019000202354E+01
 0.3013706337104E+01
 0.3004565638317E+01
 0.2991873672209E+01
 0.2975777897016E+01
 0.2956308452853E+01
 0.2933406659639E+01
 0.2906957784263E+01
 0.2876833445252E+01
 0.2842945326162E+01
 0.2805310160815E+01
 0.2764128842832E+01
 0.2719910149906E+01
 0.2673580275112E+01
 0.2626539117173E+01
 0.2580767878186E+01
 0.2539069985321E+01
 0.2505506039662E+01
 0.2486070246479E+01
 0.2489618600193E+01
 0.2528940632518E+01
 0.2621579471484E+01
 0.2789585939466E+01
 0.3056797947823E+01
 0.3442331154090E+01
 0.3950838080876E+01
 0.4562464117074E+01
 0.5228400716686E+01
 0.5863164203616E+01
 0.2470903430790E+01
 0.2568542007139E+01
 0.2664635125541E+01
 0.2753153977862E+01
 0.2829591221969E+01
 0.2891873240806E+01
 0.2940112887926E+01
 0.2975787558436E+01
 0.3000917860814E+01
 0.3017513057816E+01
 0.3027296801314E+01
 0.3031624081039E+01
 0.3031497095120E+01
 0.3027618127995E+01
 0.3020447062656E+01
 0.3010250311281E+01
 0.2997138201245E+01
 0.2981093659054E+01
 0.2961996500763E+01
 0.2939650981477E+01
 0.2913823332920E+01
 0.2884292268853E+01
 0.2850912071176E+01
 0.2813690142742E+01
 0.2772910728322E+01
 0.2729237953686E+01
 0.2683752689375E+01
 0.2638036096679E+01
 0.2594390766769E+01
 0.2556269889153E+01
 0.2528979950408E+01
 0.2520707099113E+01
 0.2543834700985E+01
 0.2616246840853E+01
 0.2761820293392E+01
 0.3008379405472E+01
 0.3380978897592E+01
 0.3890254546996E+01
 0.4519235086175E+01
 0.5215410768102E+01
 0.5884250429856E+01
 0.2476578152010E+01
 0.2578127674474E+01
 0.2677840467329E+01
 0.2768830312603E+01
 0.2846224722291E+01
 0.2908138661867E+01
 0.2955185679877E+01
 0.2989383373770E+01
 0.3013176489984E+01
 0.3028845219310E+01
 0.3038257059277E+01
 0.3042826217159E+01
 0.3043565561496E+01
 0.3041163517446E+01
 0.3036055013615E+01
 0.3028476249444E+01
 0.3018502775422E+01
 0.3006075254021E+01
 0.2991018615440E+01
 0.2973063343405E+01
 0.2951877166722E+01
 0.2927111818146E+01
 0.2898464346208E+01
 0.2865753604529E+01
 0.2829044158040E+01
 0.2788741815397E+01
 0.2745608086309E+01
 0.2700814625701E+01
 0.2656137250085E+01
 0.2614368066169E+01
 0.2580026028350E+01
 0.2560453363661E+01
 0.2567348006312E+01
 0.2618553812085E+01
 0.2739423229569E+01
 0.2961814654057E+01
 0.3317599555890E+01
 0.3825119474499E+01
 0.4471918809816E+01
 0.5201554269624E+01
 0.5916930228235E+01
 0.2482979392328E+01
 0.2588840340591E+01
 0.2692464601495E+01
 0.2785933343775E+01
 0.2864007119747E+01
 0.2925116623017E+01
 0.2970520255859E+01
 0.3002867915035E+01
 0.3025060711693E+01
 0.3039643852764E+01
 0.3048607633276E+01
 0.3053403320499E+01
 0.3055037080738E+01
 0.3054172257368E+01
 0.3051213302536E+01
 0.3046365471892E+01
 0.3039672702783E+01
 0.3031039593805E+01
 0.3020244478971E+01
 0.3006953323274E+01
 0.2990744435352E+01
 0.2971150824846E+01
 0.2947719971404E+01
 0.2920090122696E+01
 0.2888114993035E+01
 0.2851951046988E+01
 0.2812046685040E+01
 0.2769162578784E+01
 0.2724531283264E+01
 0.2680240825851E+01
 0.2639933068276E+01
 0.2609936296505E+01
 0.2600966004047E+01
 0.2630371113417E+01
 0.2724459798025E+01
 0.2918933393101E+01
 0.3253274887378E+01
 0.3755562526122E+01
 0.4420024138660E+01
 0.5188144478609E+01
 0.5953476790365E+01
 0.2490248574018E+01
 0.2600883422753E+01
 0.2708728660060E+01
 0.2804621952228E+01
 0.2882983961051E+01
 0.2942740945631E+01
 0.2985973316562E+01
 0.3016060008386E+01
 0.3036379753147E+01
 0.3049723410618E+01
 0.3058173089904E+01
 0.3063189250490E+01
 0.3065751298700E+01
 0.3066485352382E+01
 0.3065759888850E+01
 0.3063749046441E+01
 0.3060469263595E+01
 0.3055796620506E+01
 0.3049472906949E+01
 0.3041110930397E+01
 0.3030210913043E+01
 0.3016197582540E+01
 0.2998478677258E+01
 0.2976522354054E+01
 0.2949983822837E+01
 0.2918783995744E+01
 0.2883070697405E+01
 0.2843200040422E+01
 0.2799854716595E+01
 0.2754387869776E+01
 0.2709488399131E+01
 0.2670311220049E+01
 0.2646285266230E+01
 0.2653748871717E+01
 0.2719269439703E+01
 0.2881897513329E+01
 0.3189318869220E+01
 0.3681675345172E+01
 0.4363101901881E+01
 0.5174714056238E+01
 0.5995909859199E+01
 0.2498565094027E+01
 0.2614513283830E+01
 0.2726902028510E+01
 0.2825074240631E+01
 0.2903186313378E+01
 0.2960910877628E+01
 0.3001363494917E+01
 0.3028746890011E+01
 0.3046920528378E+01
 0.3058884141860E+01
 0.3066769538314E+01
 0.3072012916453E+01
 0.3075544659255E+01
 0.3077941028802E+01
 0.3079529339585E+01
 0.3080453142539E+01
 0.3080706493366E+01
 0.3080145868153E+01
 0.3078488395108E+01
 0.3075307351509E+01
 0.3070038671197E+01
 0.3062011582159E+01
 0.3050506084910E+01
 0.3034833245880E+01
 0.3014465596890E+01
 0.2989107249651E+01
 0.2958624678418E+01
 0.2922984626049E+01
 0.2882324957990E+01
 0.2837248737542E+01
 0.2789435911466E+01
 0.2742729485965E+01
 0.2704976294869E+01
 0.2690946566357E+01
 0.2726597183012E+01
 0.2853456731604E+01
 0.3127612951504E+01
 0.3603831971641E+01
 0.4300493895126E+01
 0.5160717777872E+01
 0.6045504509181E+01
 0.2508158483181E+01
 0.2630055102705E+01
 0.2747312563741E+01
 0.2847484668922E+01
 0.2924618554227E+01
 0.2979477979015E+01
 0.3016462494991E+01
 0.3040680165309E+01
 0.3056446853855E+01
 0.3066912946200E+01
 0.3074206114609E+01
 0.3079699903056E+01
 0.3084251975481E+01
 0.3088376192236E+01
 0.3092354161830E+01
 0.3096300224805E+01
 0.3100192190043E+01
 0.3103877185822E+01
 0.3107061417855E+01
 0.3109294680497E+01
 0.3109965142881E+01
 0.3108321878002E+01
 0.3103531352695E+01
 0.3094762870948E+01
 0.3081325418691E+01
 0.3062729970459E+01
 0.3038587720305E+01
 0.3008500529975E+01
 0.2972079523285E+01
 0.2929181332480E+01
 0.2880447437820E+01
 0.2828303349603E+01
 0.2778746686709E+01
 0.2744408284394E+01
 0.2749613129880E+01
 0.2837061401673E+01
 0.3070815218865E+01
 0.3522823370143E+01
 0.4231360578228E+01
 0.5145390890088E+01
 0.6103581237229E+01
 0.2519325472079E+01
 0.2647924479361E+01
 0.2770358293428E+01
 0.2872056863920E+01
 0.2947240163487E+01
 0.2998229254435E+01
 0.3030985271037E+01
 0.3051572319175E+01
 0.3064699567927E+01
 0.3073584990800E+01
 0.3080287004170E+01
 0.3086074458222E+01
 0.3091708253027E+01
 0.3097628080912E+01
 0.3104066315195E+01
 0.3111110440631E+01
 0.3118729146773E+01
 0.3126771716636E+01
 0.3134948987624E+01
 0.3142805872763E+01
 0.3149702346531E+01
 0.3154825558209E+01
 0.3157244923727E+01
 0.3156005425614E+01
 0.3150274614042E+01
 0.3139398616546E+01
 0.3122766076534E+01
 0.3099647837724E+01
 0.3069160260512E+01
 0.3030438733929E+01
 0.2983089710397E+01
 0.2928061914680E+01
 0.2869289369393E+01
 0.2816717028331E+01
 0.2791908933325E+01
 0.2836973550768E+01
 0.3022621883869E+01
 0.3440105248736E+01
 0.4154749896104E+01
 0.5127712737706E+01
 0.6171675096420E+01
 0.2532454465109E+01
 0.2668657129575E+01
 0.2796519988517E+01
 0.2898988983519E+01
 0.2970939105801E+01
 0.3016866086214E+01
 0.3044579876691E+01
 0.3061094452331E+01
 0.3071397939409E+01
 0.3078666253149E+01
 0.3084814057802E+01
 0.3090961854901E+01
 0.3097750760886E+01
 0.3105536106626E+01
 0.3114498899826E+01
 0.3124703207053E+01
 0.3136116632104E+01
 0.3148603176351E+01
 0.3161895537081E+01
 0.3175554987499E+01
 0.3188936311035E+01
 0.3201186332468E+01
 0.3211296374880E+01
 0.3218206415835E+01
 0.3220967167362E+01
 0.3218792258507E+01
 0.3210886559235E+01
 0.3196232619314E+01
 0.3173497973202E+01
 0.3141145209883E+01
 0.3097787731599E+01
 0.3042898050414E+01
 0.2978213151105E+01
 0.2910521106430E+01
 0.2857459826014E+01
 0.2858357719536E+01
 0.2988089116018E+01
 0.3358198686972E+01
 0.4069741882133E+01
 0.5106312120325E+01
 0.6251636247283E+01
 0.2548061464126E+01
 0.2692950099956E+01
 0.2826372829914E+01
 0.2928446537480E+01
 0.2995493719990E+01
 0.3034979015673E+01
 0.3056818189197E+01
 0.3068876150912E+01
 0.3076242771373E+01
 0.3081917124861E+01
 0.3087590031119E+01
 0.3094191118643E+01
 0.3102221330148E+01
 0.3111943862890E+01
 0.3123488003191E+01
 0.3136898988743E+01
 0.3152152126194E+01
 0.3169139465766E+01
 0.3187634183053E+01
 0.3207237779333E+01
 0.3227326729897E+01
 0.3247033209196E+01
 0.3265292299886E+01
 0.3280959973543E+01
 0.3292996540186E+01
 0.3300518625808E+01
 0.3302591006330E+01
 0.3297958297915E+01
 0.3284898218147E+01
 0.3261272577020E+01
 0.3224785991457E+01
 0.3173507254539E+01
 0.3106953694668E+01
 0.3028424242041E+01
 0.2950535681018E+01
 0.2907326635517E+01
 0.2974004127129E+01
 0.3281301701308E+01
 0.3975719553758E+01
 0.5079321135915E+01
 0.6345746797971E+01
 0.2566844185615E+01
 0.2721719440796E+01
 0.2860592944918E+01
 0.2960514418545E+01
 0.3020519549888E+01
 0.3052019529273E+01
 0.3067189533259E+01
 0.3074508591710E+01
 0.3078921566661E+01
 0.3083097160284E+01
 0.3088422444825E+01
 0.3095598093371E+01
 0.3104968849597E+01
 0.3116701272246E+01
 0.3130874682751E+01
 0.3147521253068E+01
 0.3166633317626E+01
 0.3188144655342E+01
 0.3211888451064E+01
 0.3237532734125E+01
 0.3264506899812E+01
 0.3291959234289E+01
 0.3318794127055E+01
 0.3343806199912E+01
 0.3365892855094E+01
 0.3384111024943E+01
 0.3397432144974E+01
 0.3404418836591E+01
 0.3403029157496E+01
 0.3390618353058E+01
 0.3364109714485E+01
 0.3320321056870E+01
 0.3256665501372E+01
 0.3172831104085E+01
 0.3075538025898E+01
 0.2990904969270E+01
 0.2989268482601E+01
 0.3216181378510E+01
 0.3872892325363E+01
 0.5044188366366E+01
 0.6456888554978E+01
 0.2589765993034E+01
 0.2756181274047E+01
 0.2899949488153E+01
 0.2995115031145E+01
 0.3045397852082E+01
 0.3067272151553E+01
 0.3075100230907E+01
 0.3077552018999E+01
 0.3079115991927E+01
 0.3081970981536E+01
 0.3087128024331E+01
 0.3095028795592E+01
 0.3105851915834E+01
 0.3119666839095E+01
 0.3136507058220E+01
 0.3156398585050E+01
 0.3179360363506E+01
 0.3205381388297E+01
 0.3234374571583E+01
 0.3266102703988E+01
 0.3300084062168E+01
 0.3335520291453E+01
 0.3371315751985E+01
 0.3406228391526E+01
 0.3439120414398E+01
 0.3469026311126E+01
 0.3494871260866E+01
 0.3515094371484E+01
 0.3527412443760E+01
 0.3528787415902E+01
 0.3515529069437E+01
 0.3483439440410E+01
 0.3428099708965E+01
 0.3345744246573E+01
 0.3236732785314E+01
 0.3116854543662E+01
 0.3045219609154E+01
 0.3173410534478E+01
 0.3763308911803E+01
 0.4997479287652E+01
 0.6588799567339E+01
 0.2618190425865E+01
 0.2797965436733E+01
 0.2945262343891E+01
 0.3031872297569E+01
 0.3069185014142E+01
 0.3079833856523E+01
 0.3079882986962E+01
 0.3077548418591E+01
 0.3076511660456E+01
 0.3078315265940E+01
 0.3083537626645E+01
 0.3092342979344E+01
 0.3104741579266E+01
 0.3120709961316E+01
 0.3140242473113E+01
 0.3163366925948E+01
 0.3190138388885E+01
 0.3220613721728E+01
 0.3254804455543E+01
 0.3292597331483E+01
 0.3333640306573E+01
 0.3377233941989E+01
 0.3422320746821E+01
 0.3467649829071E+01
 0.3512075367213E+01
 0.3554644006279E+01
 0.3594278031918E+01
 0.3629349828525E+01
 0.3657417938260E+01
 0.3675178776002E+01
 0.3678529645891E+01
 0.3662568193385E+01
 0.3621477470321E+01
 0.3548519422230E+01
 0.3437848273179E+01
 0.3293269162157E+01
 0.3155765114419E+01
 0.3168953657195E+01
 0.3652780780585E+01
 0.4934764793676E+01
 0.6746487252302E+01
 0.2654105071005E+01
 0.2849271952193E+01
 0.2997283445823E+01
 0.3069892253629E+01
 0.3090509901680E+01
 0.3088613395421E+01
 0.3080819999656E+01
 0.3074039420473E+01
 0.3070810033420E+01
 0.3071926652194E+01
 0.3077501504737E+01
 0.3087417810857E+01
 0.3101524115927E+01
 0.3119713247580E+01
 0.3141949680491E+01
 0.3168271891673E+01
 0.3198780185994E+01
 0.3233610406501E+01
 0.3272889470561E+01
 0.3316656543885E+01
 0.3364734333302E+01
 0.3416578351278E+01
 0.3471218833453E+01
 0.3527429652117E+01
 0.3584083239247E+01
 0.3640266691724E+01
 0.3694933006657E+01
 0.3746437141912E+01
 0.3792262974853E+01
 0.3828978871913E+01
 0.3852292805354E+01
 0.3856968341639E+01
 0.3836372752381E+01
 0.3781604213508E+01
 0.3681531000356E+01
 0.3527799566486E+01
 0.3337111243958E+01
 0.3225956111494E+01
 0.3554415504442E+01
 0.4850913578036E+01
 0.6936943179463E+01
 0.2700510608200E+01
 0.2913075032894E+01
 0.3056413398833E+01
 0.3107423736113E+01
 0.3107485313293E+01
 0.3092369405580E+01
 0.3077181228199E+01
 0.3066588372380E+01
 0.3061742143932E+01
 0.3062630269686E+01
 0.3068894702391E+01
 0.3080151534625E+01
 0.3096103743454E+01
 0.3116574780783E+01
 0.3141511000676E+01
 0.3170971115112E+01
 0.3205109046192E+01
 0.3244148555682E+01
 0.3288345107496E+01
 0.3337915481285E+01
 0.3392904563319E+01
 0.3452991451947E+01
 0.3517361150656E+01
 0.3584857019327E+01
 0.3654395799795E+01
 0.3725121771416E+01
 0.3796033294385E+01
 0.3865501703177E+01
 0.3931016613919E+01
 0.3989162082424E+01
 0.4035689028878E+01
 0.4065425858901E+01
 0.4071619166767E+01
 0.4044301183458E+01
 0.3968717236938E+01
 0.3826354584357E+01
 0.3606652921075E+01
 0.3376330838698E+01
 0.3494750482278E+01
 0.4741693538841E+01
 0.7170510730067E+01
 0.2762132325978E+01
 0.2993347723519E+01
 0.3122067696231E+01
 0.3141373945532E+01
 0.3117700249144E+01
 0.3089806836969E+01
 0.3068272743854E+01
 0.3054805273671E+01
 0.3049083801920E+01
 0.3050288369560E+01
 0.3057622361968E+01
 0.3070466995172E+01
 0.3088405192761E+01
 0.3111210266386E+01
 0.3138824394797E+01
 0.3171336548910E+01
 0.3208961634147E+01
 0.3252017580936E+01
 0.3300896537151E+01
 0.3356011295179E+01
 0.3417674410434E+01
 0.3485870746772E+01
 0.3560033637072E+01
 0.3639142230043E+01
 0.3722186389820E+01
 0.3808364701687E+01
 0.3896702211792E+01
 0.3985593762114E+01
 0.4072609038990E+01
 0.4154498172162E+01
 0.4227285504925E+01
 0.4286250944292E+01
 0.4325255855963E+01
 0.4334592054084E+01
 0.4298079845121E+01
 0.4191278647079E+01
 0.3980180372771E+01
 0.3661282690362E+01
 0.3523377777206E+01
 0.4609166129618E+01
 0.7463857891554E+01
 0.2846804719803E+01
 0.3095152035348E+01
 0.3191305498677E+01
 0.3166742561116E+01
 0.3118428236399E+01
 0.3079727415099E+01
 0.3053482492366E+01
 0.3038375657260E+01
 0.3032671019423E+01
 0.3034808452547E+01
 0.3043624755806E+01
 0.3058314837492E+01
 0.3078376053018E+01
 0.3103555000801E+01
 0.3133805398125E+01
 0.3169256663449E+01
 0.3210190807915E+01
 0.3257023210938E+01
 0.3310284881852E+01
 0.3370592259382E+01
 0.3438561090744E+01
 0.3514574779292E+01
 0.3598447637450E+01
 0.3689402660262E+01
 0.3786542421895E+01
 0.3889084020679E+01
 0.3996004059895E+01
 0.4105685984833E+01
 0.4215846174695E+01
 0.4323565632406E+01
 0.4425366453741E+01
 0.4517313546820E+01
 0.4594539162608E+01
 0.4649025214296E+01
 0.4665746869573E+01
 0.4619540418455E+01
 0.4466223993614E+01
 0.4128524592309E+01
 0.3725642845988E+01
 0.4477449629284E+01
 0.7847483108167E+01
 0.2968386858329E+01
 0.3223937727895E+01
 0.3255957430790E+01
 0.3176395137818E+01
 0.3107232684902E+01
 0.3061149053818E+01
 0.3032323573312E+01
 0.3017095401972E+01
 0.3012412098694E+01
 0.3016151150843E+01
 0.3026881564936E+01
 0.3043676276182E+01
 0.3065988798608E+01
 0.3093565599178E+01
 0.3126388859622E+01
 0.3164638469255E+01
 0.3208668285646E+01
 0.3258991366960E+01
 0.3316273705033E+01
 0.3381329303115E+01
 0.3455090111254E+01
 0.3538428618966E+01
 0.3631726479828E+01
 0.3734639673705E+01
 0.3846453025314E+01
 0.3966308921791E+01
 0.4092965586491E+01
 0.4224698717260E+01
 0.4359430119966E+01
 0.4494767372690E+01
 0.4627964131584E+01
 0.4756107872153E+01
 0.4876063430075E+01
 0.4982683528252E+01
 0.5065217730951E+01
 0.5102313428488E+01
 0.5057627661909E+01
 0.4819486264214E+01
 0.4235261335693E+01
 0.4434854231399E+01
 0.8387745557410E+01
 0.3153588550884E+01
 0.3381285037569E+01
 0.3297138251264E+01
 0.3162731730178E+01
 0.3082811867343E+01
 0.3033233402496E+01
 0.3004540772967E+01
 0.2990887025993E+01
 0.2988299909924E+01
 0.2994336636540E+01
 0.3007415111471E+01
 0.3026565343164E+01
 0.3051242380922E+01
 0.3081221430622E+01
 0.3116530427508E+01
 0.3157409291793E+01
 0.3204287038751E+01
 0.3257771733731E+01
 0.3318654925253E+01
 0.3387928962539E+01
 0.3466818384895E+01
 0.3556738899361E+01
 0.3658886414910E+01
 0.3773699208615E+01
 0.3900789038811E+01
 0.4039021341192E+01
 0.4186606414002E+01
 0.4341534586526E+01
 0.4501988077450E+01
 0.4666344204577E+01
 0.4832889573760E+01
 0.4999851521386E+01
 0.5165949590645E+01
 0.5329511455880E+01
 0.5486862825183E+01
 0.5626884142127E+01
 0.5726729722919E+01
 0.5732783846363E+01
 0.5235334413253E+01
 0.4731566615913E+01
 0.9265248566737E+01
 0.3460600822677E+01
 0.3544005942019E+01
 0.3279269467441E+01
 0.3124829926604E+01
 0.3044001459748E+01
 0.2995563706258E+01
 0.2970170634577E+01
 0.2959801553279E+01
 0.2960427401511E+01
 0.2969446480621E+01
 0.2985293327235E+01
 0.3007030164624E+01
 0.3034163426097E+01
 0.3066525693439E+01
 0.3104207751088E+01
 0.3147518251298E+01
 0.3196963291176E+01
 0.3253240871872E+01
 0.3317253773484E+01
 0.3390144263070E+01
 0.3473367854773E+01
 0.3568832214031E+01
 0.3678810208404E+01
 0.3805200123536E+01
 0.3948272750119E+01
 0.4106176904617E+01
 0.4275981031613E+01
 0.4455123889078E+01
 0.4642111866581E+01
 0.4836392366968E+01
 0.5037720635631E+01
 0.5245646244392E+01
 0.5460057456767E+01
 0.5682948525584E+01
 0.5918248119308E+01
 0.6174931233665E+01
 0.6442608033244E+01
 0.6761496982933E+01
 0.6885020202436E+01
 0.5928241700075E+01
 0.1111304248288E+02
 0.4043345024631E+01
 0.3549957422998E+01
 0.3191700599277E+01
 0.3066726725281E+01
 0.2988871657885E+01
 0.2948887194463E+01
 0.2929338314488E+01
 0.2924097460805E+01
 0.2928973109743E+01
 0.2941630416119E+01
 0.2960629459470E+01
 0.2985153945372E+01
 0.3014806782949E+01
 0.3049506146916E+01
 0.3089421363330E+01
 0.3134937384477E+01
 0.3186638106160E+01
 0.3245304473447E+01
 0.3311933166906E+01
 0.3387780496001E+01
 0.3474456980864E+01
 0.3574155299887E+01
 0.3690214869044E+01
 0.3827387157577E+01
 0.3987445969195E+01
 0.4166740179076E+01
 0.4360236253244E+01
 0.4564481821582E+01
 0.4778409607126E+01
 0.5002895942198E+01
 0.5239747824683E+01
 0.5490481744207E+01
 0.5754808220303E+01
 0.6035429655176E+01
 0.6348275125776E+01
 0.6715154624168E+01
 0.7187311550851E+01
 0.7745869035220E+01
 0.8921693610125E+01
 0.8874166986481E+01
 0.1702654780098E+02
 0.7472351776049E+00
 0.1024377343327E+01
 0.1296849736696E+01
 0.1553660278189E+01
 0.1789530005735E+01
 0.2001628731744E+01
 0.2188743966631E+01
 0.2351217280204E+01
 0.2490442617496E+01
 0.2608269151424E+01
 0.2706683688025E+01
 0.2787658648581E+01
 0.2852980048167E+01
 0.2904084991357E+01
 0.2942036874342E+01
 0.2967566072224E+01
 0.2980531185836E+01
 0.2980987196261E+01
 0.2971701158196E+01
 0.2957808167287E+01
 0.7316305338761E+00
 0.1016182444898E+01
 0.1293907069469E+01
 0.1555944319691E+01
 0.1797240889939E+01
 0.2015277140902E+01
 0.2209046776798E+01
 0.2378722423164E+01
 0.2525422626291E+01
 0.2650800783641E+01
 0.2756716156155E+01
 0.2845074211405E+01
 0.2917661024400E+01
 0.2976004840898E+01
 0.3021345287501E+01
 0.3054502560616E+01
 0.3075280679000E+01
 0.3083755242806E+01
 0.3078871674270E+01
 0.3057063801176E+01
 0.7163060489568E+00
 0.1009470092006E+01
 0.1293091563040E+01
 0.1560340832367E+01
 0.1806932765696E+01
 0.2030623075724E+01
 0.2230539314806E+01
 0.2406832619762E+01
 0.2560471743704E+01
 0.2692949952773E+01
 0.2806017716755E+01
 0.2901517489899E+01
 0.2981223959229E+01
 0.3046704074801E+01
 0.3099219287018E+01
 0.3139501634334E+01
 0.3167366506129E+01
 0.3182087119288E+01
 0.3181698497226E+01
 0.3165245357276E+01
 0.7017618277007E+00
 0.1003765655882E+01
 0.1293821205148E+01
 0.1566426706287E+01
 0.1818180104180E+01
 0.2047228999572E+01
 0.2252869416226E+01
 0.2435285733446E+01
 0.2595374991740E+01
 0.2734521345103E+01
 0.2854383894671E+01
 0.2956742504780E+01
 0.3043337984832E+01
 0.3115715552306E+01
 0.3175076747225E+01
 0.3222053981141E+01
 0.3256355700584E+01
 0.3277103319183E+01
 0.3283230307195E+01
 0.3275179405378E+01
 0.6880717086852E+00
 0.9990117182115E+00
 0.1295724813993E+01
 0.1573786420893E+01
 0.1830583788599E+01
 0.2064716809140E+01
 0.2275702394238E+01
 0.2463803168351E+01
 0.2629894518082E+01
 0.2775291714246E+01
 0.2901580607224E+01
 0.3010476601963E+01
 0.3103665179171E+01
 0.3182632791845E+01
 0.3248501457363E+01
 0.3301816061319E+01
 0.3342336539050E+01
 0.3369513492393E+01
 0.3383087921530E+01
 0.3384313315970E+01
 0.6752618391866E+00
 0.9951044149051E+00
 0.1298548485150E+01
 0.1582068377380E+01
 0.1843779038728E+01
 0.2082738653743E+01
 0.2298721304968E+01
 0.2492104373592E+01
 0.2663778537480E+01
 0.2815020198558E+01
 0.2947357004738E+01
 0.3062439753468E+01
 0.3161886695253E+01
 0.3247113948751E+01
 0.3319173224272E+01
 0.3378591568458E+01
 0.3425312057120E+01
 0.3459179607953E+01
 0.3480540302756E+01
 0.3491110980270E+01
 0.6633354500189E+00
 0.9919419878022E+00
 0.1302072482639E+01
 0.1590976084468E+01
 0.1857439366839E+01
 0.2100972928372E+01
 0.2321624796678E+01
 0.2519912746258E+01
 0.2696770198752E+01
 0.2853457438143E+01
 0.2991456594259E+01
 0.3112357102422E+01
 0.3217708899783E+01
 0.3308862707218E+01
 0.3386829157480E+01
 0.3452178595295E+01
 0.3505073022284E+01
 0.3545711866688E+01
 0.3574859242150E+01
 0.3594493756185E+01
 0.6522883198462E+00
 0.9894242336216E+00
 0.1306102417602E+01
 0.1600248826077E+01
 0.1871272837048E+01
 0.2119123266339E+01
 0.2344127681917E+01
 0.2546959459531E+01
 0.2728614226959E+01
 0.2890353527211E+01
 0.3033625415087E+01
 0.3159964742675E+01
 0.3270859841627E+01
 0.3367610589382E+01
 0.3451215976360E+01
 0.3522321732217E+01
 0.3581300708751E+01
 0.3628638211872E+01
 0.3665376940470E+01
 0.3693613712543E+01
 0.6421137171220E+00
 0.9874566404801E+00
 0.1310463123595E+01
 0.1609654135777E+01
 0.1885016195374E+01
 0.2136917289083E+01
 0.2365962012102E+01
 0.2572986718794E+01
 0.2759062040766E+01
 0.2925463996675E+01
 0.3073617235630E+01
 0.3205011261291E+01
 0.3321083893885E+01
 0.3423100797124E+01
 0.3512070526823E+01
 0.3588725778630E+01
 0.3653623776486E+01
 0.3707468900332E+01
 0.3751477271924E+01
 0.3787753620370E+01
 0.6328047538695E+00
 0.9859517629649E+00
 0.1314996357051E+01
 0.1618983071531E+01
 0.1898431249695E+01
 0.2154105116271E+01
 0.2386877927377E+01
 0.2597750342150E+01
 0.2787875550871E+01
 0.2958553890830E+01
 0.3111196405336E+01
 0.3247257540688E+01
 0.3368136887324E+01
 0.3475080483159E+01
 0.3569119392037E+01
 0.3651072574667E+01
 0.3721650561762E+01
 0.3781718995305E+01
 0.3832588209698E+01
 0.3876288483730E+01
 0.6243552868631E+00
 0.9848298807212E+00
 0.1319559351367E+01
 0.1628047562695E+01
 0.1911302491447E+01
 0.2170458406862E+01
 0.2406644309096E+01
 0.2621021803495E+01
 0.2814830020887E+01
 0.2989400615177E+01
 0.3146139634202E+01
 0.3286476511887E+01
 0.3411784043553E+01
 0.3523299930880E+01
 0.3622084281770E+01
 0.3709035321253E+01
 0.3784986950410E+01
 0.3850919048141E+01
 0.3908178361767E+01
 0.3958665666703E+01
 0.6167602535254E+00
 0.9840191808276E+00
 0.1324023915164E+01
 0.1636678775886E+01
 0.1923435638082E+01
 0.2185769762612E+01
 0.2425049314460E+01
 0.2642589751530E+01
 0.2839716140233E+01
 0.3017795933650E+01
 0.3178237284442E+01
 0.3322453519504E+01
 0.3451800275272E+01
 0.3567514916134E+01
 0.3670688729365E+01
 0.3762289403898E+01
 0.3843247686443E+01
 0.3914620968029E+01
 0.3977753288720E+01
 0.4034382438902E+01
 0.6100156762674E+00
 0.9834557063748E+00
 0.1328275786049E+01
 0.1644726084524E+01
 0.1934656736523E+01
 0.2199852416972E+01
 0.2441900844229E+01
 0.2662261182006E+01
 0.2862341601412E+01
 0.3043547552174E+01
 0.3207294678006E+01
 0.3354987499598E+01
 0.3487972043327E+01
 0.3607490527106E+01
 0.3714664700688E+01
 0.3810521077458E+01
 0.3896064707093E+01
 0.3972402639246E+01
 0.4040851261299E+01
 0.4102972891403E+01
 0.6041185459241E+00
 0.9830832052436E+00
 0.1332214173091E+01
 0.1652056421182E+01
 0.1944811642723E+01
 0.2212540124308E+01
 0.2457026977555E+01
 0.2679862378916E+01
 0.2882532367817E+01
 0.3066480500991E+01
 0.3233133526268E+01
 0.3383892704813E+01
 0.3520099979265E+01
 0.3643005375541E+01
 0.3753758630733E+01
 0.3853434638849E+01
 0.3943094058012E+01
 0.4023872888226E+01
 0.4097045529934E+01
 0.4164005510014E+01
 0.5990666628712E+00
 0.9828529439551E+00
 0.1335751412241E+01
 0.1658553846636E+01
 0.1953765703640E+01
 0.2223687137239E+01
 0.2470276339092E+01
 0.2695239660971E+01
 0.2900133710784E+01
 0.3086438379574E+01
 0.3255593422511E+01
 0.3409000685563E+01
 0.3548001757096E+01
 0.3673855715105E+01
 0.3787736791966E+01
 0.3890758544364E+01
 0.3984022046478E+01
 0.4068677426897E+01
 0.4145951345484E+01
 0.4217087394077E+01
 0.5948584638465E+00
 0.9827235194578E+00
 0.1338812714474E+01
 0.1664119278764E+01
 0.1961403593066E+01
 0.2233168267985E+01
 0.2481518453940E+01
 0.2708260039650E+01
 0.2915011143029E+01
 0.3103284557777E+01
 0.3274533391668E+01
 0.3430162384395E+01
 0.3571514987554E+01
 0.3699859306646E+01
 0.3816390056300E+01
 0.3922250720805E+01
 0.4018570748550E+01
 0.4106504595442E+01
 0.4187231901730E+01
 0.4261870840526E+01
 0.5914928765191E+00
 0.9826606925462E+00
 0.1341335983163E+01
 0.1668670318942E+01
 0.1967629230231E+01
 0.2240878979330E+01
 0.2490644063480E+01
 0.2718811782568E+01
 0.2927051238063E+01
 0.3116903281500E+01
 0.3289833370286E+01
 0.3447250138347E+01
 0.3590499900181E+01
 0.3720858852783E+01
 0.3839537983414E+01
 0.3947703042344E+01
 0.4046502596755E+01
 0.4137089768734E+01
 0.4220602402989E+01
 0.4298059436632E+01
 0.5889691865315E+00
 0.9826372419777E+00
 0.1343271674773E+01
 0.1672141136036E+01
 0.1972365741792E+01
 0.2246735480355E+01
 0.2497565396698E+01
 0.2726804889114E+01
 0.2936162336273E+01
 0.3127200653482E+01
 0.3301395541423E+01
 0.3460159474803E+01
 0.3604841694122E+01
 0.3736724922641E+01
 0.3857032210253E+01
 0.3966944945870E+01
 0.4067623900566E+01
 0.4160218437469E+01
 0.4245832824495E+01
 0.4325412638106E+01
 0.5872869416782E+00
 0.9826328514346E+00
 0.1344582706608E+01
 0.1674482402150E+01
 0.1975555461868E+01
 0.2250674829613E+01
 0.2502216409764E+01
 0.2732171495427E+01
 0.2942275146645E+01
 0.3134105476439E+01
 0.3309145483899E+01
 0.3468810641194E+01
 0.3614452501834E+01
 0.3747358339462E+01
 0.3868759150608E+01
 0.3979846215450E+01
 0.4081787408974E+01
 0.4175728284438E+01
 0.4262749696665E+01
 0.4343748819385E+01
 0.5864458794235E+00
 0.9826340235445E+00
 0.1345244389920E+01
 0.1675661249665E+01
 0.1977159936915E+01
 0.2252655015053E+01
 0.2504552966506E+01
 0.2734866180720E+01
 0.2945343207724E+01
 0.3137569906457E+01
 0.3313033066478E+01
 0.3473149789413E+01
 0.3619272892164E+01
 0.3752691979642E+01
 0.3874641987587E+01
 0.3986318975726E+01
 0.4088894058440E+01
 0.4183510493205E+01
 0.4271237107731E+01
 0.4352946957352E+01
 0.5864458795887E+00
 0.9826340235642E+00
 0.1345244389847E+01
 0.1675661249539E+01
 0.1977159936761E+01
 0.2252655014891E+01
 0.2504552966348E+01
 0.2734866180577E+01
 0.2945343207602E+01
 0.3137569906360E+01
 0.3313033066405E+01
 0.3473149789364E+01
 0.3619272892134E+01
 0.3752691979626E+01
 0.3874641987582E+01
 0.3986318975728E+01
 0.4088894058446E+01
 0.4183510493215E+01
 0.4271237107745E+01
 0.4352946957370E+01
 0.5872869421737E+00
 0.9826328514947E+00
 0.1344582706390E+01
 0.1674482401772E+01
 0.1975555461409E+01
 0.2250674829128E+01
 0.2502216409293E+01
 0.2732171494999E+01
 0.2942275146280E+01
 0.3134105476147E+01
 0.3309145483683E+01
 0.3468810641046E+01
 0.3614452501743E+01
 0.3747358339415E+01
 0.3868759150592E+01
 0.3979846215455E+01
 0.4081787408993E+01
 0.4175728284468E+01
 0.4262749696706E+01
 0.4343748819439E+01
 0.5889691873574E+00
 0.9826372420815E+00
 0.1343271674417E+01
 0.1672141135413E+01
 0.1972365741034E+01
 0.2246735479553E+01
 0.2497565395918E+01
 0.2726804888404E+01
 0.2936162335668E+01
 0.3127200652998E+01
 0.3301395541064E+01
 0.3460159474559E+01
 0.3604841693973E+01
 0.3736724922564E+01
 0.3857032210228E+01
 0.3966944945880E+01
 0.4067623900598E+01
 0.4160218437520E+01
 0.4245832824563E+01
 0.4325412638196E+01
 0.5914928776755E+00
 0.9826606926989E+00
 0.1341335982676E+01
 0.1668670318083E+01
 0.1967629229184E+01
 0.2240878978220E+01
 0.2490644062398E+01
 0.2718811781583E+01
 0.2927051237222E+01
 0.3116903280829E+01
 0.3289833369789E+01
 0.3447250138009E+01
 0.3590499899976E+01
 0.3720858852679E+01
 0.3839537983381E+01
 0.3947703042359E+01
 0.4046502596801E+01
 0.4137089768806E+01
 0.4220602403084E+01
 0.4298059436758E+01
 0.5948584653336E+00
 0.9827235196670E+00
 0.1338812713869E+01
 0.1664119277683E+01
 0.1961403591742E+01
 0.2233168266578E+01
 0.2481518452567E+01
 0.2708260038397E+01
 0.2915011141959E+01
 0.3103284556923E+01
 0.3274533391037E+01
 0.3430162383967E+01
 0.3571514987295E+01
 0.3699859306517E+01
 0.3816390056262E+01
 0.3922250720827E+01
 0.4018570748612E+01
 0.4106504595535E+01
 0.4187231901854E+01
 0.4261870840688E+01
 0.5990666646891E+00
 0.9828529442306E+00
 0.1335751411533E+01
 0.1658553845351E+01
 0.1953765702058E+01
 0.2223687135552E+01
 0.2470276337441E+01
 0.2695239659462E+01
 0.2900133709494E+01
 0.3086438378545E+01
 0.3255593421751E+01
 0.3409000685051E+01
 0.3548001756789E+01
 0.3673855714954E+01
 0.3787736791926E+01
 0.3890758544396E+01
 0.3984022046557E+01
 0.4068677427011E+01
 0.4145951345635E+01
 0.4217087394276E+01
 0.6041185480734E+00
 0.9830832055974E+00
 0.1332214172299E+01
 0.1652056419716E+01
 0.1944811640904E+01
 0.2212540122359E+01
 0.2457026975642E+01
 0.2679862377164E+01
 0.2882532366317E+01
 0.3066480499795E+01
 0.3233133525387E+01
 0.3383892704221E+01
 0.3520099978915E+01
 0.3643005375374E+01
 0.3753758630694E+01
 0.3853434638894E+01
 0.3943094058109E+01
 0.4023872888363E+01
 0.4097045530113E+01
 0.4164005510249E+01
 0.6100156787488E+00
 0.9834557068215E+00
 0.1328275785195E+01
 0.1644726082901E+01
 0.1934656734491E+01
 0.2199852414784E+01
 0.2441900842072E+01
 0.2662261180026E+01
 0.2862341599715E+01
 0.3043547550821E+01
 0.3207294677012E+01
 0.3354987498934E+01
 0.3487972042939E+01
 0.3607490526927E+01
 0.3714664700655E+01
 0.3810521077517E+01
 0.3896064707210E+01
 0.3972402639406E+01
 0.4040851261506E+01
 0.4102972891675E+01
 0.6167602563399E+00
 0.9840191813840E+00
 0.1324023914276E+01
 0.1636678774136E+01
 0.1923435635867E+01
 0.2185769760211E+01
 0.2425049312082E+01
 0.2642589749340E+01
 0.2839716138353E+01
 0.3017795932151E+01
 0.3178237283343E+01
 0.3322453518776E+01
 0.3451800274852E+01
 0.3567514915949E+01
 0.3670688729341E+01
 0.3762289403977E+01
 0.3843247686582E+01
 0.3914620968213E+01
 0.3977753288954E+01
 0.4034382439211E+01
 0.6243552900121E+00
 0.9848298814069E+00
 0.1319559350475E+01
 0.1628047560852E+01
 0.1911302489081E+01
 0.2170458404276E+01
 0.2406644306521E+01
 0.2621021801114E+01
 0.2814830018839E+01
 0.2989400613544E+01
 0.3146139633009E+01
 0.3286476511103E+01
 0.3411784043110E+01
 0.3523299930694E+01
 0.3622084281761E+01
 0.3709035321354E+01
 0.3784986950574E+01
 0.3850919048350E+01
 0.3908178362030E+01
 0.3958665667050E+01
 0.6328047573552E+00
 0.9859517638022E+00
 0.1314996356187E+01
 0.1618983069633E+01
 0.1898431247215E+01
 0.2154105113534E+01
 0.2386877924633E+01
 0.2597750339602E+01
 0.2787875548673E+01
 0.2958553889078E+01
 0.3111196404060E+01
 0.3247257539856E+01
 0.3368136886864E+01
 0.3475080482979E+01
 0.3569119392049E+01
 0.3651072574795E+01
 0.3721650561954E+01
 0.3781718995540E+01
 0.3832588209988E+01
 0.3876288484116E+01
 0.6421137209473E+00
 0.9874566414941E+00
 0.1310463122799E+01
 0.1609654133866E+01
 0.1885016192820E+01
 0.2136917286229E+01
 0.2365962009218E+01
 0.2572986716101E+01
 0.2759062038437E+01
 0.2925463994820E+01
 0.3073617234283E+01
 0.3205011260422E+01
 0.3321083893415E+01
 0.3423100796956E+01
 0.3512070526860E+01
 0.3588725778788E+01
 0.3653623776708E+01
 0.3707468900593E+01
 0.3751477272242E+01
 0.3787753620795E+01
 0.6522883240149E+00
 0.9894242348408E+00
 0.1306102416915E+01
 0.1600248824198E+01
 0.1871272834464E+01
 0.2119123263408E+01
 0.2344127678926E+01
 0.2546959456721E+01
 0.2728614224521E+01
 0.2890353525268E+01
 0.3033625413683E+01
 0.3159964741778E+01
 0.3270859841155E+01
 0.3367610589231E+01
 0.3451215976426E+01
 0.3522321732410E+01
 0.3581300709005E+01
 0.3628638212162E+01
 0.3665376940815E+01
 0.3693613713006E+01
 0.6633354545362E+00
 0.9919419892580E+00
 0.1302072482107E+01
 0.1590976082672E+01
 0.1857439364274E+01
 0.2100972925406E+01
 0.2321624793616E+01
 0.2519912743359E+01
 0.2696770196229E+01
 0.2853457436132E+01
 0.2991456592812E+01
 0.3112357101508E+01
 0.3217708899317E+01
 0.3308862707090E+01
 0.3386829157580E+01
 0.3452178595525E+01
 0.3505073022573E+01
 0.3545711867007E+01
 0.3574859242522E+01
 0.3594493756684E+01
 0.6752618440589E+00
 0.9951044166326E+00
 0.1298548484823E+01
 0.1582068375721E+01
 0.1843779036232E+01
 0.2082738650788E+01
 0.2298721301873E+01
 0.2492104370638E+01
 0.2663778534898E+01
 0.2815020196500E+01
 0.2947357003263E+01
 0.3062439752548E+01
 0.3161886694800E+01
 0.3247113948650E+01
 0.3319173224407E+01
 0.3378591568726E+01
 0.3425312057445E+01
 0.3459179608301E+01
 0.3480540303153E+01
 0.3491110980799E+01
 0.6880717139209E+00
 0.9990117202495E+00
 0.1295724813926E+01
 0.1573786419429E+01
 0.1830583786227E+01
 0.2064716806244E+01
 0.2275702391153E+01
 0.2463803165377E+01
 0.2629894515470E+01
 0.2775291712165E+01
 0.2901580605740E+01
 0.3010476601050E+01
 0.3103665178737E+01
 0.3182632791772E+01
 0.3248501457533E+01
 0.3301816061625E+01
 0.3342336539409E+01
 0.3369513492769E+01
 0.3383087921949E+01
 0.3384313316519E+01
 0.7017618333102E+00
 0.1003765658273E+01
 0.1293821205398E+01
 0.1566426705079E+01
 0.1818180101989E+01
 0.2047228996787E+01
 0.2252869413195E+01
 0.2435285730490E+01
 0.2595374989131E+01
 0.2734521343023E+01
 0.2854383893197E+01
 0.2956742503884E+01
 0.3043337984421E+01
 0.3115715552261E+01
 0.3175076747427E+01
 0.3222053981482E+01
 0.3256355700973E+01
 0.3277103319583E+01
 0.3283230307633E+01
 0.3275179405937E+01
 0.7163060549528E+00
 0.1009470094797E+01
 0.1293091563669E+01
 0.1560340831477E+01
 0.1806932763748E+01
 0.2030623073106E+01
 0.2230539311881E+01
 0.2406832616870E+01
 0.2560471741136E+01
 0.2692949950727E+01
 0.2806017715312E+01
 0.2901517489033E+01
 0.2981223958846E+01
 0.3046704074780E+01
 0.3099219287243E+01
 0.3139501634700E+01
 0.3167366506542E+01
 0.3182087119706E+01
 0.3181698497676E+01
 0.3165245357829E+01
 0.7316305402751E+00
 0.1016182448137E+01
 0.1293907070537E+01
 0.1555944319183E+01
 0.1797240888294E+01
 0.2015277138510E+01
 0.2209046774034E+01
 0.2378722420389E+01
 0.2525422623811E+01
 0.2650800781666E+01
 0.2756716154769E+01
 0.2845074210583E+01
 0.2917661024047E+01
 0.2976004840893E+01
 0.3021345287735E+01
 0.3054502560991E+01
 0.3075280679421E+01
 0.3083755243230E+01
 0.3078871674725E+01
 0.3057063801713E+01
 0.7472351844068E+00
 0.1024377347048E+01
 0.1296849738263E+01
 0.1553660278128E+01
 0.1789530004457E+01
 0.2001628729640E+01
 0.2188743964090E+01
 0.2351217277605E+01
 0.2490442615159E+01
 0.2608269149565E+01
 0.2706683686726E+01
 0.2787658647815E+01
 0.2852980047842E+01
 0.2904084991357E+01
 0.2942036874564E+01
 0.2967566072579E+01
 0.2980531186241E+01
 0.2980987196680E+01
 0.2971701158651E+01
 0.2957808167784E+01
 0.3152357742301E+01
 0.2650056966659E+01
 0.1581871224308E+01
 0.1043738051696E+01
 0.6665581742307E+00
 0.3858357893934E+00
 0.1849601134278E+00
 0.4930203749720E-01
 0.5342755373057E-01
 0.1396014430046E+00
 0.2142480506594E+00
 0.2773290021223E+00
 0.3265958374256E+00
 0.3580348629803E+00
 0.3678587906069E+00
 0.3507970063523E+00
 0.3005234563397E+00
 0.2159369352714E+00
 0.1107904874053E+00
 0.1880378114396E-01
 0.2679776693086E+01
 0.2907402602005E+01
 0.1971601802658E+01
 0.1334620931188E+01
 0.9244656075264E+00
 0.6233236219739E+00
 0.4037575169570E+00
 0.2441000508934E+00
 0.1218289883910E+00
 0.2208928645521E-01
 0.6316428826853E-01
 0.1359799698723E+00
 0.1964441368947E+00
 0.2419435281152E+00
 0.2684248715570E+00
 0.2719177192524E+00
 0.2514065353538E+00
 0.1967150444760E+00
 0.1093661318903E+00
 0.7962388333294E-02
 0.2305315532900E+01
 0.2751959668834E+01
 0.2213784295345E+01
 0.1614226643491E+01
 0.1176853089609E+01
 0.8588364472815E+00
 0.6225632249949E+00
 0.4464794327741E+00
 0.3087220634595E+00
 0.1954561536196E+00
 0.9891991991147E-01
 0.1537598773120E-01
 0.5672469494008E-01
 0.1161506255169E+00
 0.1599334132189E+00
 0.1850995791901E+00
 0.1906875001437E+00
 0.1645125993006E+00
 0.1003084149558E+00
 0.7869559033393E-02
 0.2023209429976E+01
 0.2540588112690E+01
 0.2286509685925E+01
 0.1834429731761E+01
 0.1416060482997E+01
 0.1089353389169E+01
 0.8412136049033E+00
 0.6528502587505E+00
 0.5034649718796E+00
 0.3788895561076E+00
 0.2715171376749E+00
 0.1772529382966E+00
 0.9381119688074E-01
 0.2090818516260E-01
 0.3963257293200E-01
 0.8534430431168E-01
 0.1156798249522E+00
 0.1171471096512E+00
 0.7840173891880E-01
 0.7803866118521E-02
 0.1803707116101E+01
 0.2332641893420E+01
 0.2272176665049E+01
 0.1974309511845E+01
 0.1622814403577E+01
 0.1308959716205E+01
 0.1056836695088E+01
 0.8607278171328E+00
 0.7030606705378E+00
 0.5698453525839E+00
 0.4534043511123E+00
 0.3495713761730E+00
 0.2556509392144E+00
 0.1703742142006E+00
 0.9464197291347E-01
 0.3032580273114E-01
 0.2338803617916E-01
 0.5091134522555E-01
 0.3811488849587E-01
 0.9867992051127E-02
 0.1629079573302E+01
 0.2144159738671E+01
 0.2213661765528E+01
 0.2049983067193E+01
 0.1784432726679E+01
 0.1507550658029E+01
 0.1264328559072E+01
 0.1066742675705E+01
 0.9046651467309E+00
 0.7657974187953E+00
 0.6427037442756E+00
 0.5312321715560E+00
 0.4285215592210E+00
 0.3326767865739E+00
 0.2437879207496E+00
 0.1629995674893E+00
 0.9006179544816E-01
 0.3883671793975E-01
 0.2716979061467E-01
 0.5234948727223E-01
 0.1487624988942E+01
 0.1978163464070E+01
 0.2134366546849E+01
 0.2079418914955E+01
 0.1901525444360E+01
 0.1676951534171E+01
 0.1456895843495E+01
 0.1266336492962E+01
 0.1104894965053E+01
 0.9639723185310E+00
 0.8371566591028E+00
 0.7205782493083E+00
 0.6114069132059E+00
 0.5073959978971E+00
 0.4080368814691E+00
 0.3139270106332E+00
 0.2243526126306E+00
 0.1522849878962E+00
 0.1182959882777E+00
 0.1250038199046E+00
 0.1371342590165E+01
 0.1833732816911E+01
 0.2047100373746E+01
 0.2077244680876E+01
 0.1980034340392E+01
 0.1814348009288E+01
 0.1628617361863E+01
 0.1454334545849E+01
 0.1299741071968E+01
 0.1161155824526E+01
 0.1034102929425E+01
 0.9154436150440E+00
 0.8026380865080E+00
 0.6933421082842E+00
 0.5866458893519E+00
 0.4827121411501E+00
 0.3804935969539E+00
 0.2918066988367E+00
 0.2390782777293E+00
 0.2301878152271E+00
 0.1274528218429E+01
 0.1708721444933E+01
 0.1958968061960E+01
 0.2054272198038E+01
 0.2027295099695E+01
 0.1920776592382E+01
 0.1776168909617E+01
 0.1626188560925E+01
 0.1485012517986E+01
 0.1353773093074E+01
 0.1230487612386E+01
 0.1113201500533E+01
 0.9999726015600E+00
 0.8886237938755E+00
 0.7780450441280E+00
 0.6680870776237E+00
 0.5574925922450E+00
 0.4566206507614E+00
 0.3891243415435E+00
 0.3679234817389E+00
 0.1192982676252E+01
 0.1600717792336E+01
 0.1873866918642E+01
 0.2018224359237E+01
 0.2050284992607E+01
 0.1999377571623E+01
 0.1898713464516E+01
 0.1778836265146E+01
 0.1657012876736E+01
 0.1538227951522E+01
 0.1423011209230E+01
 0.1310854781279E+01
 0.1200680926282E+01
 0.1090737096857E+01
 0.9799176133273E+00
 0.8678891180283E+00
 0.7532971100882E+00
 0.6448258859584E+00
 0.5666914371677E+00
 0.5362241605565E+00
 0.1123534275244E+01
 0.1507389958785E+01
 0.1793831386895E+01
 0.1974518382470E+01
 0.2055004298200E+01
 0.2054141929982E+01
 0.1997217453932E+01
 0.1910832025196E+01
 0.1813014388343E+01
 0.1711318291283E+01
 0.1608401541910E+01
 0.1505209963020E+01
 0.1401676209238E+01
 0.1296679561921E+01
 0.1189310797761E+01
 0.1079177000124E+01
 0.9649144102928E+00
 0.8533885966408E+00
 0.7686612995177E+00
 0.7315325458517E+00
 0.1063738658699E+01
 0.1426603492577E+01
 0.1719784093453E+01
 0.1926894880166E+01
 0.2046349836839E+01
 0.2089166221706E+01
 0.2073735339437E+01
 0.2022090786323E+01
 0.1951397478702E+01
 0.1870535053631E+01
 0.1783704603161E+01
 0.1693109549475E+01
 0.1599696546903E+01
 0.1503102139251E+01
 0.1402774569429E+01
 0.1298376168577E+01
 0.1188590282557E+01
 0.1078369332181E+01
 0.9908471749664E+00
 0.9491601942224E+00
 0.1011682341506E+01
 0.1356450685397E+01
 0.1651971943234E+01
 0.1877881819224E+01
 0.2028185656132E+01
 0.2108256653163E+01
 0.2130848099350E+01
 0.2113506938123E+01
 0.2071558219637E+01
 0.2014182808015E+01
 0.1946501812038E+01
 0.1871664325011E+01
 0.1791518121551E+01
 0.1706496317736E+01
 0.1616527672194E+01
 0.1521439795807E+01
 0.1419997531684E+01
 0.1315170617219E+01
 0.1228321992053E+01
 0.1183697349137E+01
 0.9658495603178E+00
 0.1295245666001E+01
 0.1590228176901E+01
 0.1829128339789E+01
 0.2003478858179E+01
 0.2114745831501E+01
 0.2171274650954E+01
 0.2186586969867E+01
 0.2173703356419E+01
 0.2141355779726E+01
 0.2095020307808E+01
 0.2038437787920E+01
 0.1974166742136E+01
 0.1903402589393E+01
 0.1826645702462E+01
 0.1744014706642E+01
 0.1654409363542E+01
 0.1558768850012E+01
 0.1475738745530E+01
 0.1429383491834E+01
 0.9250290851185E+00
 0.1241507286902E+01
 0.1534134945920E+01
 0.1781644299242E+01
 0.1974445215458E+01
 0.2111430346039E+01
 0.2197624351038E+01
 0.2243147710861E+01
 0.2258615114138E+01
 0.2251824537668E+01
 0.2228145909254E+01
 0.2191562495510E+01
 0.2145104622501E+01
 0.2090629524321E+01
 0.2029270544852E+01
 0.1961608757764E+01
 0.1886829460599E+01
 0.1803891209273E+01
 0.1727622967179E+01
 0.1680444938694E+01
 0.8882470028230E+00
 0.1193938948231E+01
 0.1483127396662E+01
 0.1735973650047E+01
 0.1942683380884E+01
 0.2100573443798E+01
 0.2212251553553E+01
 0.2285089191465E+01
 0.2327428927719E+01
 0.2345877743441E+01
 0.2345359768009E+01
 0.2329783962553E+01
 0.2302378870319E+01
 0.2265485893524E+01
 0.2220865941820E+01
 0.2169779318333E+01
 0.2112065482110E+01
 0.2045056535714E+01
 0.1978598233845E+01
 0.1931410468915E+01
 0.8547165712924E+00
 0.1151408978700E+01
 0.1436563050340E+01
 0.1692321946810E+01
 0.1909290989172E+01
 0.2083940342314E+01
 0.2217180115768E+01
 0.2314235279126E+01
 0.2381443496178E+01
 0.2424147429347E+01
 0.2446614465800E+01
 0.2452422329711E+01
 0.2444708595445E+01
 0.2426018097302E+01
 0.2398588125363E+01
 0.2364463067328E+01
 0.2324762365677E+01
 0.2276385227056E+01
 0.2223354298518E+01
 0.2177464056328E+01
 0.8237981291651E+00
 0.1112933856299E+01
 0.1393772006626E+01
 0.1650653055235E+01
 0.1874960957082E+01
 0.2062845907821E+01
 0.2214074780484E+01
 0.2332232588306E+01
 0.2421973508596E+01
 0.2487439517302E+01
 0.2532162008794E+01
 0.2559229490398E+01
 0.2571438541771E+01
 0.2571181710417E+01
 0.2560765117788E+01
 0.2542786838398E+01
 0.2519827213047E+01
 0.2490869493871E+01
 0.2456095985361E+01
 0.2414624219787E+01
 0.7949629879059E+00
 0.1077660107057E+01
 0.1354110054838E+01
 0.1610767916562E+01
 0.1840050743652E+01
 0.2038200919598E+01
 0.2204241373930E+01
 0.2340502047784E+01
 0.2450256063105E+01
 0.2536596909837E+01
 0.2602365085279E+01
 0.2650135658703E+01
 0.2682249406801E+01
 0.2700672488287E+01
 0.2707240201030E+01
 0.2704241280580E+01
 0.2694987305092E+01
 0.2680599201324E+01
 0.2666390203479E+01
 0.2640004836243E+01
 0.7677033945423E+00
 0.1044914448827E+01
 0.1317048451285E+01
 0.1572363902851E+01
 0.1804622917001E+01
 0.2010514994066E+01
 0.2188653549596E+01
 0.2340247839367E+01
 0.2467418655575E+01
 0.2572432793526E+01
 0.2657566376384E+01
 0.2724977955814E+01
 0.2776625573075E+01
 0.2814066115808E+01
 0.2838513156959E+01
 0.2851144057378E+01
 0.2853813695377E+01
 0.2847648818166E+01
 0.2838900836298E+01
 0.2839748980796E+01
 0.7677034017817E+00
 0.1044914453333E+01
 0.1317048453713E+01
 0.1572363903593E+01
 0.1804622916381E+01
 0.2010514992438E+01
 0.2188653547355E+01
 0.2340247836924E+01
 0.2467418653296E+01
 0.2572432791664E+01
 0.2657566375049E+01
 0.2724977954997E+01
 0.2776625572693E+01
 0.2814066115752E+01
 0.2838513157127E+01
 0.2851144057701E+01
 0.2853813695819E+01
 0.2847648818670E+01
 0.2838900836888E+01
 0.2839748981434E+01
 0.7949629953079E+00
 0.1077660112061E+01
 0.1354110057916E+01
 0.1610767917957E+01
 0.1840050743599E+01
 0.2038200918414E+01
 0.2204241372015E+01
 0.2340502045574E+01
 0.2450256060988E+01
 0.2536596908083E+01
 0.2602365084010E+01
 0.2650135657918E+01
 0.2682249406425E+01
 0.2700672488219E+01
 0.2707240201181E+01
 0.2704241280905E+01
 0.2694987305564E+01
 0.2680599201855E+01
 0.2666390204132E+01
 0.2640004837111E+01
 0.8237981367961E+00
 0.1112933861916E+01
 0.1393772010439E+01
 0.1650653057327E+01
 0.1874960957597E+01
 0.2062845907049E+01
 0.2214074778837E+01
 0.2332232586249E+01
 0.2421973506554E+01
 0.2487439515569E+01
 0.2532162007510E+01
 0.2559229489571E+01
 0.2571438541332E+01
 0.2571181710273E+01
 0.2560765117860E+01
 0.2542786838640E+01
 0.2519827213415E+01
 0.2490869494269E+01
 0.2456095985975E+01
 0.2414624220908E+01
 0.8547165792099E+00
 0.1151408985041E+01
 0.1436563054968E+01
 0.1692321949624E+01
 0.1909290990228E+01
 0.2083940341885E+01
 0.2217180114294E+01
 0.2314235277120E+01
 0.2381443494111E+01
 0.2424147427545E+01
 0.2446614464418E+01
 0.2452422328767E+01
 0.2444708594874E+01
 0.2426018097014E+01
 0.2398588125277E+01
 0.2364463067392E+01
 0.2324762365826E+01
 0.2276385227221E+01
 0.2223354299053E+01
 0.2177464057683E+01
 0.8882470110903E+00
 0.1193938955402E+01
 0.1483127402165E+01
 0.1735973653577E+01
 0.1942683382414E+01
 0.2100573443605E+01
 0.2212251552128E+01
 0.2285089189387E+01
 0.2327428925519E+01
 0.2345877741476E+01
 0.2345359766450E+01
 0.2329783961422E+01
 0.2302378869552E+01
 0.2265485893027E+01
 0.2220865941508E+01
 0.2169779318141E+01
 0.2112065481961E+01
 0.2045056535597E+01
 0.1978598234270E+01
 0.1931410470454E+01
 0.9250290938047E+00
 0.1241507295001E+01
 0.1534134952333E+01
 0.1781644303444E+01
 0.1974445217354E+01
 0.2111430345936E+01
 0.2197624349507E+01
 0.2243147708575E+01
 0.2258615111691E+01
 0.2251824535451E+01
 0.2228145907448E+01
 0.2191562494135E+01
 0.2145104621489E+01
 0.2090629523570E+01
 0.2029270544267E+01
 0.1961608757269E+01
 0.1886829460110E+01
 0.1803891208853E+01
 0.1727622967469E+01
 0.1680444940351E+01
 0.9658495694977E+00
 0.1295245675116E+01
 0.1590228184227E+01
 0.1829128344576E+01
 0.2003478860287E+01
 0.2114745831306E+01
 0.2171274649143E+01
 0.2186586967227E+01
 0.2173703353619E+01
 0.2141355777183E+01
 0.2095020305704E+01
 0.2038437786266E+01
 0.1974166740853E+01
 0.1903402588366E+01
 0.1826645701585E+01
 0.1744014705827E+01
 0.1654409362704E+01
 0.1558768849291E+01
 0.1475738745666E+01
 0.1429383493534E+01
 0.1011682351258E+01
 0.1356450695599E+01
 0.1651971951435E+01
 0.1877881824456E+01
 0.2028185658249E+01
 0.2108256652656E+01
 0.2130848097068E+01
 0.2113506934992E+01
 0.2071558216397E+01
 0.2014182805096E+01
 0.1946501809612E+01
 0.1871664323071E+01
 0.1791518119997E+01
 0.1706496316437E+01
 0.1616527671032E+01
 0.1521439794683E+01
 0.1419997530515E+01
 0.1315170616222E+01
 0.1228321992032E+01
 0.1183697350808E+01
 0.1063738669104E+01
 0.1426603503915E+01
 0.1719784102442E+01
 0.1926894885642E+01
 0.2046349838709E+01
 0.2089166220643E+01
 0.2073735336497E+01
 0.2022090782589E+01
 0.1951397474971E+01
 0.1870535050326E+01
 0.1783704600426E+01
 0.1693109547272E+01
 0.1599696545107E+01
 0.1503102137711E+01
 0.1402774568014E+01
 0.1298376167180E+01
 0.1188590281098E+01
 0.1078369330956E+01
 0.9908471748029E+00
 0.9491601958017E+00
 0.1123534286377E+01
 0.1507389971274E+01
 0.1793831396523E+01
 0.1974518387922E+01
 0.2055004299523E+01
 0.2054141928109E+01
 0.1997217450174E+01
 0.1910832020792E+01
 0.1813014384119E+01
 0.1711318287626E+01
 0.1608401538914E+01
 0.1505209960608E+01
 0.1401676207252E+01
 0.1296679560189E+01
 0.1189310796145E+01
 0.1079176998510E+01
 0.9649144086090E+00
 0.8533885952570E+00
 0.7686612992518E+00
 0.7315325473031E+00
 0.1192982688182E+01
 0.1600717805948E+01
 0.1873866928682E+01
 0.2018224364326E+01
 0.2050284993045E+01
 0.1999377568699E+01
 0.1898713459834E+01
 0.1778836260076E+01
 0.1657012872083E+01
 0.1538227947597E+01
 0.1423011206059E+01
 0.1310854778733E+01
 0.1200680924174E+01
 0.1090737094999E+01
 0.9799176115768E+00
 0.8678891162709E+00
 0.7532971082640E+00
 0.6448258845073E+00
 0.5666914368657E+00
 0.5362241618764E+00
 0.1274528231207E+01
 0.1708721459576E+01
 0.1958968072092E+01
 0.2054272202347E+01
 0.2027295098897E+01
 0.1920776588223E+01
 0.1776168903998E+01
 0.1626188555284E+01
 0.1485012513034E+01
 0.1353773089007E+01
 0.1230487609146E+01
 0.1113201497943E+01
 0.9999725994061E+00
 0.8886237919637E+00
 0.7780450423190E+00
 0.6680870758090E+00
 0.5574925903823E+00
 0.4566206493539E+00
 0.3891243412984E+00
 0.3679234829650E+00
 0.1371342603812E+01
 0.1833732832403E+01
 0.2047100383531E+01
 0.2077244683918E+01
 0.1980034338032E+01
 0.1814348003814E+01
 0.1628617355426E+01
 0.1454334539833E+01
 0.1299741066906E+01
 0.1161155820471E+01
 0.1034102926235E+01
 0.9154436125005E+00
 0.8026380843853E+00
 0.6933421063925E+00
 0.5866458875656E+00
 0.4827121393737E+00
 0.3804935951682E+00
 0.2918066975985E+00
 0.2390782776578E+00
 0.2301878164420E+00
 0.1487625003433E+01
 0.1978163480103E+01
 0.2134366555705E+01
 0.2079418916198E+01
 0.1901525440212E+01
 0.1676951527486E+01
 0.1456895836515E+01
 0.1266336486857E+01
 0.1104894960105E+01
 0.9639723146457E+00
 0.8371566560714E+00
 0.7205782468939E+00
 0.6114069111857E+00
 0.5073959960977E+00
 0.4080368797883E+00
 0.3139270089957E+00
 0.2243526110463E+00
 0.1522849869616E+00
 0.1182959885115E+00
 0.1250038212323E+00
 0.1629079588534E+01
 0.2144159754753E+01
 0.2213661772703E+01
 0.2049983066122E+01
 0.1784432720728E+01
 0.1507550650482E+01
 0.1264328551979E+01
 0.1066742669839E+01
 0.9046651421106E+00
 0.7657974152156E+00
 0.6427037414944E+00
 0.5312321693398E+00
 0.4285215573657E+00
 0.3326767849344E+00
 0.2437879192556E+00
 0.1629995660925E+00
 0.9006179419301E-01
 0.3883671744658E-01
 0.2716979126705E-01
 0.5234948886343E-01
 0.1803707131838E+01
 0.2332641908780E+01
 0.2272176669608E+01
 0.1974309508113E+01
 0.1622814396188E+01
 0.1308959708427E+01
 0.1056836688380E+01
 0.8607278118053E+00
 0.7030606664162E+00
 0.5698453494132E+00
 0.4534043486508E+00
 0.3495713742088E+00
 0.2556509375757E+00
 0.1703742127811E+00
 0.9464197168291E-01
 0.3032580167991E-01
 0.2338803698095E-01
 0.5091134517433E-01
 0.3811488726690E-01
 0.9867994000033E-02
 0.2023209445751E+01
 0.2540588126107E+01
 0.2286509686830E+01
 0.1834429725500E+01
 0.1416060475094E+01
 0.1089353381947E+01
 0.8412135990045E+00
 0.6528502541752E+00
 0.5034649683749E+00
 0.3788895534186E+00
 0.2715171355818E+00
 0.1772529366227E+00
 0.9381119549763E-01
 0.2090818401422E-01
 0.3963257383283E-01
 0.8534430494861E-01
 0.1156798252144E+00
 0.1171471089558E+00
 0.7840173704939E-01
 0.7803863515275E-02
 0.2305315547813E+01
 0.2751959678391E+01
 0.2213784291776E+01
 0.1614226635991E+01
 0.1176853082539E+01
 0.8588364412413E+00
 0.6225632201704E+00
 0.4464794290870E+00
 0.3087220606521E+00
 0.1954561514617E+00
 0.9891991821527E-01
 0.1537598637191E-01
 0.5672469604286E-01
 0.1161506263586E+00
 0.1599334137321E+00
 0.1850995793265E+00
 0.1906874997639E+00
 0.1645125979057E+00
 0.1003084124404E+00
 0.7869556281981E-02
 0.2679776705083E+01
 0.2907402604352E+01
 0.1971601796139E+01
 0.1334620925032E+01
 0.9244656022896E+00
 0.6233236174321E+00
 0.4037575133642E+00
 0.2441000481931E+00
 0.1218289863412E+00
 0.2208928485776E-01
 0.6316428956510E-01
 0.1359799709242E+00
 0.1964441377085E+00
 0.2419435286276E+00
 0.2684248716429E+00
 0.2719177188215E+00
 0.2514065342498E+00
 0.1967150423521E+00
 0.1093661287976E+00
 0.7962390570518E-02
 0.3152357746860E+01
 0.2650056963725E+01
 0.1581871220605E+01
 0.1043738048622E+01
 0.6665581711606E+00
 0.3858357865184E+00
 0.1849601111937E+00
 0.4930203589280E-01
 0.5342755499915E-01
 0.1396014440746E+00
 0.2142480515851E+00
 0.2773290028833E+00
 0.3265958379501E+00
 0.3580348631548E+00
 0.3678587902697E+00
 0.3507970053008E+00
 0.3005234543366E+00
 0.2159369324080E+00
 0.1107904838868E+00
 0.1880378502674E-01
 0.2879899508543E+01
 0.2674131058630E+01
 0.2460283685246E+01
 0.2232874928831E+01
 0.1992573655726E+01
 0.1744235343705E+01
 0.1493254002232E+01
 0.1245527519665E+01
 0.1007268835376E+01
 0.7848228540558E+00
 0.5843820641257E+00
 0.4116109449727E+00
 0.2711752103114E+00
 0.1661793875030E+00
 0.9753971539847E-01
 0.6343082944112E-01
 0.5896401188669E-01
 0.7570254652963E-01
 0.1027926273257E+00
 0.1292507269450E+00
 0.2990062953264E+01
 0.2819774659945E+01
 0.2611880836076E+01
 0.2388613169995E+01
 0.2152460978937E+01
 0.1906075070267E+01
 0.1653737464772E+01
 0.1400760462233E+01
 0.1153226177495E+01
 0.9177477130278E+00
 0.7012074131915E+00
 0.5104055619764E+00
 0.3515880099303E+00
 0.2298285304102E+00
 0.1482638677360E+00
 0.1072578171005E+00
 0.1034950823706E+00
 0.1288048446054E+00
 0.1704088970791E+00
 0.2156725479071E+00
 0.3099403457088E+01
 0.2950275640112E+01
 0.2764347468176E+01
 0.2553522045348E+01
 0.2326244486273E+01
 0.2086134015709E+01
 0.1836843802957E+01
 0.1582936370096E+01
 0.1329931551802E+01
 0.1084204788289E+01
 0.8528164498626E+00
 0.6432568226720E+00
 0.4630602086683E+00
 0.3192391615587E+00
 0.2174958091486E+00
 0.1612004930226E+00
 0.1500488798930E+00
 0.1779512621376E+00
 0.2315870601281E+00
 0.2928613770672E+00
 0.3212494382387E+01
 0.3079302857435E+01
 0.2914032219719E+01
 0.2721958720152E+01
 0.2509346329395E+01
 0.2280755040378E+01
 0.2039782193716E+01
 0.1790366893280E+01
 0.1537256155577E+01
 0.1286139226665E+01
 0.1043648271693E+01
 0.8172671829548E+00
 0.6151261238689E+00
 0.4456258183115E+00
 0.3168153245559E+00
 0.2354362879873E+00
 0.2054489421592E+00
 0.2253793977541E+00
 0.2841590174341E+00
 0.3589867438711E+00
 0.3327008113624E+01
 0.3208218241389E+01
 0.3062437218279E+01
 0.2890819277098E+01
 0.2697188551322E+01
 0.2485203128651E+01
 0.2258174507322E+01
 0.2019479497346E+01
 0.1773039498591E+01
 0.1523587212998E+01
 0.1276806821555E+01
 0.1039397991867E+01
 0.8190691174153E+00
 0.6244288547378E+00
 0.4647117128487E+00
 0.3492335068104E+00
 0.2863736531190E+00
 0.2814108244660E+00
 0.3313580232818E+00
 0.4155782450150E+00
 0.3441163443431E+01
 0.3336182058835E+01
 0.3208807307634E+01
 0.3057940888374E+01
 0.2885360677393E+01
 0.2693550978993E+01
 0.2485114699251E+01
 0.2262823128043E+01
 0.2029839166900E+01
 0.1789948853883E+01
 0.1547733653372E+01
 0.1308695918257E+01
 0.1079350103930E+01
 0.8672791535411E+00
 0.6811394175261E+00
 0.5305779231997E+00
 0.4259807623861E+00
 0.3777541494633E+00
 0.3937986824245E+00
 0.4689768805041E+00
 0.3553447291833E+01
 0.3462085432806E+01
 0.3352190495762E+01
 0.3221620557535E+01
 0.3070746193933E+01
 0.2900968857262E+01
 0.2714125697837E+01
 0.2512355068469E+01
 0.2298169371967E+01
 0.2074590738866E+01
 0.1845289878575E+01
 0.1614704060648E+01
 0.1388132351364E+01
 0.1171810128994E+01
 0.9729654898503E+00
 0.7998657592733E+00
 0.6618833124815E+00
 0.5696478406987E+00
 0.5354059728545E+00
 0.5717529303920E+00
 0.3662500035867E+01
 0.3584671452281E+01
 0.3491434578645E+01
 0.3380348997466E+01
 0.3250927630957E+01
 0.3103737390822E+01
 0.2939921475739E+01
 0.2761026257228E+01
 0.2568996695432E+01
 0.2366253279174E+01
 0.2155799121599E+01
 0.1941331842310E+01
 0.1727347759855E+01
 0.1519232954185E+01
 0.1323339380529E+01
 0.1147052709092E+01
 0.9988903642196E+00
 0.8887837881798E+00
 0.8291302959249E+00
 0.8404107114728E+00
 0.3767134007358E+01
 0.3702721222635E+01
 0.3625385325208E+01
 0.3532800019568E+01
 0.3424037743800E+01
 0.3299086984903E+01
 0.3158525267113E+01
 0.3003368105991E+01
 0.2835040518933E+01
 0.2655422812078E+01
 0.2466939160671E+01
 0.2272670167980E+01
 0.2076479867977E+01
 0.1883153083931E+01
 0.1698542780713E+01
 0.1529731979526E+01
 0.1385227395258E+01
 0.1275248816499E+01
 0.1212333334987E+01
 0.1213500469028E+01
 0.3866332118084E+01
 0.3815132782320E+01
 0.3752976756144E+01
 0.3677847812925E+01
 0.3588661528387E+01
 0.3485048398149E+01
 0.3367160142626E+01
 0.3235562583257E+01
 0.3091206801585E+01
 0.2935458220642E+01
 0.2770166816635E+01
 0.2597767877198E+01
 0.2421407950150E+01
 0.2245094548826E+01
 0.2073870454034E+01
 0.1914013365023E+01
 0.1773256914586E+01
 0.1660996776272E+01
 0.1588337113967E+01
 0.1566396577651E+01
 0.3959242541170E+01
 0.3920946083474E+01
 0.3873246807862E+01
 0.3814509848838E+01
 0.3743665444905E+01
 0.3660152500883E+01
 0.3563825562981E+01
 0.3454892222310E+01
 0.3333894214025E+01
 0.3201728268533E+01
 0.3059700201957E+01
 0.2909607555867E+01
 0.2753848936765E+01
 0.2595560809763E+01
 0.2438784195920E+01
 0.2288663431833E+01
 0.2151672285748E+01
 0.2035841931203E+01
 0.1950843025130E+01
 0.1907775137615E+01
 0.4045088416541E+01
 0.4019211682826E+01
 0.3985187881991E+01
 0.3941753146413E+01
 0.3887936000974E+01
 0.3823092639672E+01
 0.3746880405404E+01
 0.3659230538087E+01
 0.3560340622918E+01
 0.3450691188168E+01
 0.3331085883417E+01
 0.3202714194275E+01
 0.3067236862168E+01
 0.2926895977134E+01
 0.2784653614192E+01
 0.2644364418650E+01
 0.2510989508680E+01
 0.2390861254051E+01
 0.2292063250116E+01
 0.2225248067346E+01
 0.4123152528541E+01
 0.4108973463316E+01
 0.4087698448109E+01
 0.4058376681326E+01
 0.4020161962380E+01
 0.3972389653161E+01
 0.3914588800803E+01
 0.3846478377201E+01
 0.3767968197119E+01
 0.3679172073402E+01
 0.3580435499233E+01
 0.3472378551982E+01
 0.3355954868741E+01
 0.3232528625046E+01
 0.3103973220227E+01
 0.2972798155759E+01
 0.2842315111137E+01
 0.2716867612598E+01
 0.2602180925676E+01
 0.2505886332116E+01
 0.4192804605360E+01
 0.4189358707825E+01
 0.4179716983128E+01
 0.4163168505032E+01
 0.4138987135599E+01
 0.4106516997672E+01
 0.4065202544884E+01
 0.4014597681666E+01
 0.3954371080259E+01
 0.3884315448661E+01
 0.3804363910919E+01
 0.3714614684780E+01
 0.3615364668899E+01
 0.3507152828724E+01
 0.3390815287447E+01
 0.3267555939894E+01
 0.3139039661987E+01
 0.3007517655829E+01
 0.2875984219748E+01
 0.2748335735533E+01
 0.4253500331986E+01
 0.4259611339890E+01
 0.4260301204853E+01
 0.4255029590974E+01
 0.4243169111180E+01
 0.4224081787288E+01
 0.4197153250652E+01
 0.4161806532160E+01
 0.4117508066697E+01
 0.4063772450162E+01
 0.4000168938161E+01
 0.3926330733397E+01
 0.3841967090800E+01
 0.3746877787949E+01
 0.3640969409650E+01
 0.3524273202426E+01
 0.3396964899357E+01
 0.3259386164231E+01
 0.3112060168816E+01
 0.2955675400333E+01
 0.4304777608718E+01
 0.4319095379818E+01
 0.4328648963406E+01
 0.4333012301834E+01
 0.4331630600308E+01
 0.4323881754796E+01
 0.4309107070415E+01
 0.4286624315712E+01
 0.4255731742221E+01
 0.4215708040734E+01
 0.4165810686530E+01
 0.4105273462348E+01
 0.4033302783650E+01
 0.3949071493128E+01
 0.3851707821716E+01
 0.3740276116903E+01
 0.3613744741761E+01
 0.3470937663262E+01
 0.3310473614110E+01
 0.3130698240715E+01
 0.4346253896428E+01
 0.4367290849240E+01
 0.4384100550671E+01
 0.4396330002015E+01
 0.4403472962055E+01
 0.4404917021341E+01
 0.4399967964673E+01
 0.4387859356451E+01
 0.4367753181168E+01
 0.4338735214688E+01
 0.4299807105449E+01
 0.4249875877712E+01
 0.4187740549146E+01
 0.4112074563366E+01
 0.4021401536836E+01
 0.3914060110229E+01
 0.3788151461334E+01
 0.3641459988983E+01
 0.3471344113654E+01
 0.3274634187276E+01
 0.4377624877681E+01
 0.4403788756401E+01
 0.4426135913927E+01
 0.4444358296526E+01
 0.4457979452783E+01
 0.4466390834444E+01
 0.4468869950430E+01
 0.4464585852159E+01
 0.4452596186688E+01
 0.4431838680133E+01
 0.4401118786731E+01
 0.4359094385383E+01
 0.4304257732374E+01
 0.4234914255065E+01
 0.4149157017340E+01
 0.4044834546121E+01
 0.3919507392331E+01
 0.3770384254953E+01
 0.3594209531863E+01
 0.3387074708094E+01
 0.4398663711227E+01
 0.4428286621772E+01
 0.4454370324195E+01
 0.4476632942260E+01
 0.4494614574329E+01
 0.4507707113111E+01
 0.4515167880505E+01
 0.4516121760249E+01
 0.4509555362812E+01
 0.4494305688675E+01
 0.4469044975180E+01
 0.4432262899225E+01
 0.4382247023192E+01
 0.4317062277256E+01
 0.4234530343715E+01
 0.4132209982871E+01
 0.4007379495676E+01
 0.3857020941057E+01
 0.3677801196394E+01
 0.3465938357091E+01
 0.4409220404317E+01
 0.4440585094965E+01
 0.4468550363724E+01
 0.4492846793934E+01
 0.4513021803216E+01
 0.4528466815247E+01
 0.4538428584295E+01
 0.4542009488450E+01
 0.4538160097982E+01
 0.4525666347675E+01
 0.4503133019289E+01
 0.4468964920327E+01
 0.4421347112253E+01
 0.4358225825236E+01
 0.4277292396790E+01
 0.4175973934519E+01
 0.4051436989595E+01
 0.3900616324096E+01
 0.3720294619261E+01
 0.3507338675434E+01
 0.4409220404358E+01
 0.4440585095041E+01
 0.4468550363842E+01
 0.4492846794098E+01
 0.4513021803432E+01
 0.4528466815523E+01
 0.4538428584635E+01
 0.4542009488860E+01
 0.4538160098467E+01
 0.4525666348239E+01
 0.4503133019935E+01
 0.4468964921053E+01
 0.4421347113057E+01
 0.4358225826112E+01
 0.4277292397727E+01
 0.4175973935504E+01
 0.4051436990608E+01
 0.3900616325119E+01
 0.3720294620274E+01
 0.3507338676440E+01
 0.4398663711348E+01
 0.4428286622001E+01
 0.4454370324546E+01
 0.4476632942751E+01
 0.4494614574977E+01
 0.4507707113934E+01
 0.4515167881521E+01
 0.4516121761475E+01
 0.4509555364262E+01
 0.4494305690362E+01
 0.4469044977110E+01
 0.4432262901397E+01
 0.4382247025599E+01
 0.4317062279878E+01
 0.4234530346522E+01
 0.4132209985820E+01
 0.4007379498709E+01
 0.3857020944107E+01
 0.3677801199392E+01
 0.3465938359991E+01
 0.4377624877883E+01
 0.4403788756780E+01
 0.4426135914509E+01
 0.4444358297338E+01
 0.4457979453855E+01
 0.4466390835806E+01
 0.4468869952111E+01
 0.4464585854188E+01
 0.4452596189090E+01
 0.4431838682927E+01
 0.4401118789929E+01
 0.4359094388984E+01
 0.4304257736366E+01
 0.4234914259418E+01
 0.4149157022002E+01
 0.4044834551017E+01
 0.3919507397359E+01
 0.3770384259987E+01
 0.3594209536751E+01
 0.3387074712660E+01
 0.4346253896708E+01
 0.4367290849765E+01
 0.4384100551477E+01
 0.4396330003139E+01
 0.4403472963538E+01
 0.4404917023225E+01
 0.4399967966999E+01
 0.4387859359260E+01
 0.4367753184496E+01
 0.4338735218562E+01
 0.4299807109886E+01
 0.4249875882715E+01
 0.4187740554697E+01
 0.4112074569424E+01
 0.4021401543329E+01
 0.3914060117049E+01
 0.3788151468331E+01
 0.3641459995955E+01
 0.3471344120342E+01
 0.3274634193348E+01
 0.4304777609075E+01
 0.4319095380485E+01
 0.4328648964427E+01
 0.4333012303256E+01
 0.4331630602184E+01
 0.4323881757180E+01
 0.4309107073362E+01
 0.4286624319273E+01
 0.4255731746442E+01
 0.4215708045653E+01
 0.4165810692169E+01
 0.4105273468712E+01
 0.4033302790718E+01
 0.3949071500850E+01
 0.3851707830002E+01
 0.3740276125612E+01
 0.3613744750693E+01
 0.3470937672136E+01
 0.3310473622554E+01
 0.3130698248237E+01
 0.4253500332420E+01
 0.4259611340693E+01
 0.4260301206078E+01
 0.4255029592680E+01
 0.4243169113430E+01
 0.4224081790149E+01
 0.4197153254190E+01
 0.4161806536439E+01
 0.4117508071773E+01
 0.4063772456080E+01
 0.4000168944952E+01
 0.3926330741066E+01
 0.3841967099326E+01
 0.3746877797272E+01
 0.3640969419662E+01
 0.3524273212957E+01
 0.3396964910159E+01
 0.3259386174955E+01
 0.3112060178981E+01
 0.2955675409291E+01
 0.4192804605866E+01
 0.4189358708754E+01
 0.4179716984541E+01
 0.4163168506997E+01
 0.4138987138192E+01
 0.4106517000972E+01
 0.4065202548968E+01
 0.4014597686611E+01
 0.3954371086129E+01
 0.3884315455510E+01
 0.3804363918781E+01
 0.3714614693664E+01
 0.3615364678781E+01
 0.3507152839539E+01
 0.3390815299073E+01
 0.3267555952141E+01
 0.3139039674573E+01
 0.3007517668355E+01
 0.2875984231664E+01
 0.2748335746080E+01
 0.4123152529117E+01
 0.4108973464364E+01
 0.4087698449696E+01
 0.4058376683532E+01
 0.4020161965291E+01
 0.3972389656869E+01
 0.3914588805397E+01
 0.3846478382766E+01
 0.3767968203727E+01
 0.3679172081112E+01
 0.3580435508081E+01
 0.3472378561977E+01
 0.3355954879857E+01
 0.3232528637208E+01
 0.3103973233304E+01
 0.2972798169542E+01
 0.2842315125327E+01
 0.2716867626777E+01
 0.2602180939275E+01
 0.2505886344360E+01
 0.4045088417180E+01
 0.4019211683975E+01
 0.3985187883726E+01
 0.3941753148825E+01
 0.3887936004161E+01
 0.3823092643735E+01
 0.3746880410442E+01
 0.3659230544191E+01
 0.3560340630165E+01
 0.3450691196618E+01
 0.3331085893107E+01
 0.3202714205210E+01
 0.3067236874316E+01
 0.2926895990413E+01
 0.2784653628464E+01
 0.2644364433704E+01
 0.2510989524217E+01
 0.2390861269672E+01
 0.2292063265317E+01
 0.2225248081510E+01
 0.3959242541867E+01
 0.3920946084712E+01
 0.3873246809727E+01
 0.3814509851433E+01
 0.3743665448339E+01
 0.3660152505268E+01
 0.3563825568421E+01
 0.3454892228898E+01
 0.3333894221839E+01
 0.3201728277629E+01
 0.3059700212365E+01
 0.2909607567585E+01
 0.2753848949749E+01
 0.2595560823923E+01
 0.2438784211107E+01
 0.2288663447834E+01
 0.2151672302278E+01
 0.2035841947899E+01
 0.1950843041564E+01
 0.1907775153401E+01
 0.3866332118832E+01
 0.3815132783635E+01
 0.3752976758124E+01
 0.3677847815684E+01
 0.3588661532048E+01
 0.3485048402828E+01
 0.3367160148429E+01
 0.3235562590275E+01
 0.3091206809888E+01
 0.2935458230277E+01
 0.2770166827618E+01
 0.2597767889510E+01
 0.2421407963732E+01
 0.2245094563570E+01
 0.2073870469783E+01
 0.1914013381569E+01
 0.1773256931669E+01
 0.1660996793582E+01
 0.1588337131145E+01
 0.1566396594267E+01
 0.3767134008151E+01
 0.3702721224016E+01
 0.3625385327291E+01
 0.3532800022483E+01
 0.3424037747672E+01
 0.3299086989851E+01
 0.3158525273237E+01
 0.3003368113372E+01
 0.2835040527630E+01
 0.2655422822118E+01
 0.2466939172050E+01
 0.2272670180659E+01
 0.2076479881875E+01
 0.1883153098929E+01
 0.1698542796656E+01
 0.1529731996231E+01
 0.1385227412527E+01
 0.1275248834135E+01
 0.1212333352790E+01
 0.1213500486520E+01
 0.3662500036696E+01
 0.3584671453719E+01
 0.3491434580825E+01
 0.3380349000526E+01
 0.3250927635025E+01
 0.3103737396009E+01
 0.2939921482132E+01
 0.2761026264889E+01
 0.2568996704396E+01
 0.2366253289443E+01
 0.2155799133137E+01
 0.1941331855045E+01
 0.1727347773675E+01
 0.1519232968938E+01
 0.1323339396036E+01
 0.1147052725154E+01
 0.9988903806419E+00
 0.8887838047983E+00
 0.8291303126347E+00
 0.8404107283368E+00
 0.3553447292683E+01
 0.3462085434289E+01
 0.3352190498027E+01
 0.3221620560725E+01
 0.3070746198167E+01
 0.2900968862631E+01
 0.2714125704405E+01
 0.2512355076268E+01
 0.2298169380996E+01
 0.2074590749081E+01
 0.1845289889888E+01
 0.1614704072922E+01
 0.1388132364405E+01
 0.1171810142550E+01
 0.9729655036101E+00
 0.7998657728661E+00
 0.6618833254839E+00
 0.5696478526563E+00
 0.5354059833836E+00
 0.5717529397073E+00
 0.3441163444287E+01
 0.3336182060350E+01
 0.3208807309970E+01
 0.3057940891665E+01
 0.2885360681736E+01
 0.2693550984449E+01
 0.2485114705846E+01
 0.2262823135765E+01
 0.2029839175694E+01
 0.1789948863642E+01
 0.1547733663932E+01
 0.1308695929387E+01
 0.1079350115329E+01
 0.8672791648351E+00
 0.6811394282744E+00
 0.5305779329128E+00
 0.4259807705687E+00
 0.3777541557143E+00
 0.3937986866784E+00
 0.4689768835402E+00
 0.3327008114467E+01
 0.3208218242918E+01
 0.3062437220660E+01
 0.2890819280441E+01
 0.2697188555684E+01
 0.2485203134050E+01
 0.2258174513736E+01
 0.2019479504711E+01
 0.1773039506792E+01
 0.1523587221861E+01
 0.1276806830843E+01
 0.1039398001282E+01
 0.8190691266033E+00
 0.6244288633071E+00
 0.4647117204061E+00
 0.3492335130208E+00
 0.2863736578010E+00
 0.2814108277435E+00
 0.3313580257971E+00
 0.4155782478821E+00
 0.3212494383200E+01
 0.3079302858965E+01
 0.2914032222113E+01
 0.2721958723473E+01
 0.2509346333648E+01
 0.2280755045531E+01
 0.2039782199702E+01
 0.1790366899986E+01
 0.1537256162837E+01
 0.1286139234262E+01
 0.1043648279364E+01
 0.8172671904003E+00
 0.6151261307785E+00
 0.4456258243996E+00
 0.3168153296107E+00
 0.2354362919353E+00
 0.2054489451371E+00
 0.2253794001784E+00
 0.2841590199728E+00
 0.3589867471191E+00
 0.3099403457855E+01
 0.2950275641622E+01
 0.2764347470530E+01
 0.2553522048538E+01
 0.2326244490253E+01
 0.2086134020412E+01
 0.1836843808281E+01
 0.1582936375898E+01
 0.1329931557895E+01
 0.1084204794456E+01
 0.8528164558625E+00
 0.6432568282683E+00
 0.4630602136544E+00
 0.3192391657952E+00
 0.2174958126036E+00
 0.1612004958089E+00
 0.1500488822912E+00
 0.1779512645792E+00
 0.2315870630711E+00
 0.2928613807557E+00
 0.2990062953988E+01
 0.2819774661439E+01
 0.2611880838333E+01
 0.2388613172936E+01
 0.2152460982499E+01
 0.1906075074364E+01
 0.1653737469282E+01
 0.1400760467004E+01
 0.1153226182350E+01
 0.9177477177798E+00
 0.7012074176595E+00
 0.5104055660094E+00
 0.3515880134329E+00
 0.2298285333681E+00
 0.1482638702390E+00
 0.1072578193527E+00
 0.1034950846747E+00
 0.1288048473033E+00
 0.1704089004307E+00
 0.2156725519400E+00
 0.2879899509300E+01
 0.2674131060087E+01
 0.2460283687266E+01
 0.2232874931367E+01
 0.1992573658705E+01
 0.1744235347024E+01
 0.1493254005766E+01
 0.1245527523276E+01
 0.1007268838921E+01
 0.7848228574034E+00
 0.5843820671737E+00
 0.4116109476629E+00
 0.2711752126474E+00
 0.1661793895621E+00
 0.9753971733624E-01
 0.6343083148245E-01
 0.5896401428539E-01
 0.7570254949880E-01
 0.1027926309592E+00
 0.1292507311102E+00
</DataArray>
<CellData Tensors="'E_Centroid','S_Centroid'">
<DataArray type="Float64" Name="E_Centroid" NumberOfComponents="4" ComponentName0="E11" ComponentName1="E22" ComponentName2="E33" ComponentName3="E12" format="ascii">
 0.1165922254443E-02 -0.9068392660825E-02  0.0000000000000E+00 -0.3091655903204E-02
 0.1988096411693E-02 -0.7350067300132E-02  0.0000000000000E+00 -0.1820022318365E-03
 0.1645249769254E-02 -0.6703776166577E-02  0.0000000000000E+00 -0.1861115408169E-03
 0.1609879411418E-02 -0.6421950234470E-02  0.0000000000000E+00 -0.8472280499314E-04
 0.1563684109354E-02 -0.6262466785341E-02  0.0000000000000E+00 -0.4685514372451E-04
 0.1544263048204E-02 -0.6177690666877E-02  0.0000000000000E+00 -0.2247853099808E-04
 0.1533842848773E-02 -0.6136859209870E-02  0.0000000000000E+00 -0.6952329908577E-05
 0.1531235464753E-02 -0.6125788611766E-02  0.0000000000000E+00  0.3972427241150E-05
 0.1533810785417E-02 -0.6135988014633E-02  0.0000000000000E+00  0.1212814573484E-04
 0.1540465559207E-02 -0.6162486467066E-02  0.0000000000000E+00  0.1863626872614E-04
 0.1550425180849E-02 -0.6202281148533E-02  0.0000000000000E+00  0.2418276720803E-04
 0.1563271406379E-02 -0.6253655831994E-02  0.0000000000000E+00  0.2923588966423E-04
 0.1578796276883E-02 -0.6315778650605E-02  0.0000000000000E+00  0.3413656363989E-04
 0.1596958007823E-02 -0.6388477476425E-02  0.0000000000000E+00  0.3915253638637E-04
 0.1617845327474E-02 -0.6472106996978E-02  0.0000000000000E+00  0.4450903460179E-04
 0.1641659658057E-02 -0.6567473769679E-02  0.0000000000000E+00  0.5040906677659E-04
 0.1668705926517E-02 -0.6675801574760E-02  0.0000000000000E+00  0.5704984758029E-04
 0.1699392234361E-02 -0.6798727005751E-02  0.0000000000000E+00  0.6463657593359E-04
 0.1734238608335E-02 -0.6938339305575E-02  0.0000000000000E+00  0.7340634826022E-04
 0.1773899691446E-02 -0.7097272516395E-02  0.0000000000000E+00  0.8366115005901E-04
 0.1819212590364E-02 -0.7278904742882E-02  0.0000000000000E+00  0.9584698363627E-04
 0.1871318427131E-02 -0.7487834230833E-02  0.0000000000000E+00  0.1107311266424E-03
 0.1931722243612E-02 -0.7731219268312E-02  0.0000000000000E+00  0.1308624139781E-03
 0.2001968830877E-02 -0.8019642586127E-02  0.0000000000000E+00  0.1664595074409E-03
 0.2082577910058E-02 -0.8357092309293E-02  0.0000000000000E+00  0.2362579511744E-03
 0.2172199356178E-02 -0.8735544355500E-02  0.0000000000000E+00  0.3558995302897E-03
 0.2268418557616E-02 -0.9144305743287E-02  0.0000000000000E+00  0.5303570229001E-03
 0.2369135951089E-02 -0.9576337367439E-02  0.0000000000000E+00  0.7570711874850E-03
 0.2473166407590E-02 -0.1002981857818E-01  0.0000000000000E+00  0.1031454763599E-02
 0.2580147949478E-02 -0.1050712834528E-01  0.0000000000000E+00  0.1351196891934E-02
 0.2690017710606E-02 -0.1101271779724E-01  0.0000000000000E+00  0.1718545213767E-02
 0.2802344841610E-02 -0.1155056851889E-01  0.0000000000000E+00  0.2140517359056E-02
 0.2916934681022E-02 -0.1212009110488E-01  0.0000000000000E+00  0.2620983080423E-02
 0.3035589904775E-02 -0.1272667851260E-01  0.0000000000000E+00  0.3152777303704E-02
 0.3166910958413E-02 -0.1340352040669E-01  0.0000000000000E+00  0.3737364010505E-02
 0.3310600645881E-02 -0.1420399855086E-01  0.0000000000000E+00  0.4407789912823E-02
 0.3521699153059E-02 -0.1521693366508E-01  0.0000000000000E+00  0.5239803800892E-02
 0.3601638210806E-02 -0.1652573098877E-01  0.0000000000000E+00  0.6416364547971E-02
 0.4659443513992E-02 -0.1869868053313E-01  0.0000000000000E+00  0.8026409966659E-02
 0.6200565253445E-03 -0.2098120194123E-01  0.0000000000000E+00  0.1420442380437E-01
 0.2043919071107E-01 -0.2661140770614E-01  0.0000000000000E+00  0.1386042367270E-01
 0.7983097631538E-03 -0.7877462351249E-02  0.0000000000000E+00 -0.3405102650810E-02
 0.1691909923254E-02 -0.7532502823738E-02  0.0000000000000E+00 -0.1511371629888E-02
 0.1706973374383E-02 -0.6876679232566E-02  0.0000000000000E+00 -0.5211132094861E-03
 0.1615729735644E-02 -0.6560034481919E-02  0.0000000000000E+00 -0.3116368184846E-03
 0.1586699534324E-02 -0.6381859722172E-02  0.0000000000000E+00 -0.1666459424158E-03
 0.1563213325090E-02 -0.6279134682669E-02  0.0000000000000E+00 -0.8830129193146E-04
 0.1551962925237E-02 -0.6224574290528E-02  0.0000000000000E+00 -0.3634934172551E-04
 0.1547469768284E-02 -0.6202227598202E-02  0.0000000000000E+00 -0.3698176190142E-06
 0.1548413314375E-02 -0.6203128326437E-02  0.0000000000000E+00  0.2642506227478E-04
 0.1553491542242E-02 -0.6221785908468E-02  0.0000000000000E+00  0.4762570861022E-04
 0.1561992809322E-02 -0.6254848766046E-02  0.0000000000000E+00  0.6551173072855E-04
 0.1573467351347E-02 -0.6300324794665E-02  0.0000000000000E+00  0.8159818242390E-04
 0.1587684877864E-02 -0.6357161232275E-02  0.0000000000000E+00  0.9697837952188E-04
 0.1604572941381E-02 -0.6424997203215E-02  0.0000000000000E+00  0.1124964473055E-03
 0.1624187720167E-02 -0.6504017136614E-02  0.0000000000000E+00  0.1288514656466E-03
 0.1646694440345E-02 -0.6594865239153E-02  0.0000000000000E+00  0.1466643034599E-03
 0.1672357415988E-02 -0.6698602220637E-02  0.0000000000000E+00  0.1665283480423E-03
 0.1701536718133E-02 -0.6816693972349E-02  0.0000000000000E+00  0.1890580755483E-03
 0.1734692217182E-02 -0.6951040337556E-02  0.0000000000000E+00  0.2149539399231E-03
 0.1772394787538E-02 -0.7104052465980E-02  0.0000000000000E+00  0.2451083251472E-03
 0.1815351076596E-02 -0.7278816565039E-02  0.0000000000000E+00  0.2808172246428E-03
 0.1864389390018E-02 -0.7479442748990E-02  0.0000000000000E+00  0.3244358632363E-03
 0.1919820658292E-02 -0.7711278137074E-02  0.0000000000000E+00  0.3812339242631E-03
 0.1981029804985E-02 -0.7979370124536E-02  0.0000000000000E+00  0.4600392334131E-03
 0.2047534420081E-02 -0.8284697908814E-02  0.0000000000000E+00  0.5710677715351E-03
 0.2119341467700E-02 -0.8622728840255E-02  0.0000000000000E+00  0.7230653118465E-03
 0.2195992688332E-02 -0.8986602401641E-02  0.0000000000000E+00  0.9207684255148E-03
 0.2276361485555E-02 -0.9370808574268E-02  0.0000000000000E+00  0.1164729722350E-02
 0.2359067679824E-02 -0.9772612390010E-02  0.0000000000000E+00  0.1453804915447E-02
 0.2442678832807E-02 -0.1019160811671E-01  0.0000000000000E+00  0.1787675775345E-02
 0.2525550535534E-02 -0.1062827600963E-01  0.0000000000000E+00  0.2168260459982E-02
 0.2606393605313E-02 -0.1108235238629E-01  0.0000000000000E+00  0.2598381928186E-02
 0.2685561325870E-02 -0.1155331373169E-01  0.0000000000000E+00  0.3080063086939E-02
 0.2764351035667E-02 -0.1204515405804E-01  0.0000000000000E+00  0.3618526566579E-02
 0.2838860505312E-02 -0.1256997501365E-01  0.0000000000000E+00  0.4231082851440E-02
 0.2912039779087E-02 -0.1314766206223E-01  0.0000000000000E+00  0.4950377466244E-02
 0.2931010816214E-02 -0.1378698106005E-01  0.0000000000000E+00  0.5880249327691E-02
 0.3015391125431E-02 -0.1450840034478E-01  0.0000000000000E+00  0.6988101117600E-02
 0.2447763317918E-02 -0.1516362933724E-01  0.0000000000000E+00  0.9550416091777E-02
 0.9532971857943E-03 -0.1372715871764E-01  0.0000000000000E+00  0.9053537177739E-02
 0.1555746077457E-01 -0.1523935817850E-01  0.0000000000000E+00  0.2581737966134E-02
 0.5747455105148E-03 -0.7264855157484E-02  0.0000000000000E+00 -0.3294707375640E-02
 0.1399049735070E-02 -0.7324600314475E-02  0.0000000000000E+00 -0.2108657594482E-02
 0.1636364983854E-02 -0.6967020615289E-02  0.0000000000000E+00 -0.9880811709965E-03
 0.1611524283251E-02 -0.6655389583136E-02  0.0000000000000E+00 -0.5273915443500E-03
 0.1588320829248E-02 -0.6475599350020E-02  0.0000000000000E+00 -0.3049708856775E-03
 0.1572737835519E-02 -0.6364839377205E-02  0.0000000000000E+00 -0.1656026637353E-03
 0.1562691741644E-02 -0.6301417995953E-02  0.0000000000000E+00 -0.7632553699119E-04
 0.1558595013877E-02 -0.6270781951900E-02  0.0000000000000E+00 -0.1350782975319E-04
 0.1559029884135E-02 -0.6264170384171E-02  0.0000000000000E+00  0.3317062932136E-04
 0.1563281752335E-02 -0.6276090469747E-02  0.0000000000000E+00  0.7007884251457E-04
 0.1570754021100E-02 -0.6303073598828E-02  0.0000000000000E+00  0.1010833161359E-03
 0.1581083920180E-02 -0.6342991081234E-02  0.0000000000000E+00  0.1287936989393E-03
 0.1594065962578E-02 -0.6394648094943E-02  0.0000000000000E+00  0.1550784213023E-03
 0.1609630269086E-02 -0.6457541848125E-02  0.0000000000000E+00  0.1813736253997E-03
 0.1627818309077E-02 -0.6531712976096E-02  0.0000000000000E+00  0.2088590973577E-03
 0.1648768234862E-02 -0.6617655745612E-02  0.0000000000000E+00  0.2385733110660E-03
 0.1672704901993E-02 -0.6716268766133E-02  0.0000000000000E+00  0.2714994445484E-03
 0.1699933222436E-02 -0.6828834868154E-02  0.0000000000000E+00  0.3086463099000E-03
 0.1730833692411E-02 -0.6957034909857E-02  0.0000000000000E+00  0.3511516371454E-03
 0.1765854066436E-02 -0.7102995627319E-02  0.0000000000000E+00  0.4004446903192E-03
 0.1805482326903E-02 -0.7269384301892E-02  0.0000000000000E+00  0.4585737517823E-03
 0.1850004792647E-02 -0.7459469418328E-02  0.0000000000000E+00  0.5290110727635E-03
 0.1898791712219E-02 -0.7676591256749E-02  0.0000000000000E+00  0.6174466818102E-03
 0.1950336186117E-02 -0.7922819478431E-02  0.0000000000000E+00  0.7305164776391E-03
 0.2003836329504E-02 -0.8197730405657E-02  0.0000000000000E+00  0.8738785572348E-03
 0.2059776077678E-02 -0.8498221225693E-02  0.0000000000000E+00  0.1052267831427E-02
 0.2118607704878E-02 -0.8819614325641E-02  0.0000000000000E+00  0.1269323232123E-02
 0.2179801982948E-02 -0.9157349457605E-02  0.0000000000000E+00  0.1526840303776E-02
 0.2241903426979E-02 -0.9507946947541E-02  0.0000000000000E+00  0.1825331849098E-02
 0.2302805075016E-02 -0.9868828034970E-02  0.0000000000000E+00  0.2165167172946E-02
 0.2360051666306E-02 -0.1023741301693E-01  0.0000000000000E+00  0.2546991355958E-02
 0.2411804413149E-02 -0.1061056289467E-01  0.0000000000000E+00  0.2971116168772E-02
 0.2457663301957E-02 -0.1098539124475E-01  0.0000000000000E+00  0.3439186870215E-02
 0.2495164061919E-02 -0.1135939560463E-01  0.0000000000000E+00  0.3959584157060E-02
 0.2517478221795E-02 -0.1172799835226E-01  0.0000000000000E+00  0.4547010794367E-02
 0.2503198373855E-02 -0.1207778979602E-01  0.0000000000000E+00  0.5233063270585E-02
 0.2433119953342E-02 -0.1236510561652E-01  0.0000000000000E+00  0.6017850999224E-02
 0.2232520600884E-02 -0.1250589797314E-01  0.0000000000000E+00  0.7037876863692E-02
 0.1398978643293E-02 -0.1180676533322E-01  0.0000000000000E+00  0.7857059125481E-02
 0.2212744285861E-02 -0.1008653201909E-01  0.0000000000000E+00  0.3684521505392E-02
 0.1412154844016E-01 -0.1151077997302E-01  0.0000000000000E+00 -0.1214319715771E-02
 0.4383762480272E-03 -0.6894817514455E-02  0.0000000000000E+00 -0.3111044732970E-02
 0.1165430248991E-02 -0.7088625726923E-02  0.0000000000000E+00 -0.2346695601425E-02
 0.1512418009182E-02 -0.6947536494115E-02  0.0000000000000E+00 -0.1346659510508E-02
 0.1574931288549E-02 -0.6712876587404E-02  0.0000000000000E+00 -0.7533280338084E-03
 0.1575846481603E-02 -0.6543497228370E-02  0.0000000000000E+00 -0.4421604327372E-03
 0.1570942971657E-02 -0.6434220543558E-02  0.0000000000000E+00 -0.2505845384980E-03
 0.1566237164386E-02 -0.6366937145470E-02  0.0000000000000E+00 -0.1232251174304E-03
 0.1564284410269E-02 -0.6331032993848E-02  0.0000000000000E+00 -0.3352062873617E-04
 0.1565494763231E-02 -0.6318785506304E-02  0.0000000000000E+00  0.3362748743835E-04
 0.1569674862385E-02 -0.6325139866724E-02  0.0000000000000E+00  0.8676362687463E-04
 0.1576589518333E-02 -0.6346756993927E-02  0.0000000000000E+00  0.1313476460168E-03
 0.1586032140898E-02 -0.6381509471533E-02  0.0000000000000E+00  0.1710381045612E-03
 0.1597881479019E-02 -0.6428142783517E-02  0.0000000000000E+00  0.2084712434594E-03
 0.1612101636890E-02 -0.6486061333007E-02  0.0000000000000E+00  0.2456677804491E-03
 0.1628739089140E-02 -0.6555190621457E-02  0.0000000000000E+00  0.2842810138419E-03
 0.1647915057197E-02 -0.6635889472504E-02  0.0000000000000E+00  0.3257561016384E-03
 0.1669817654990E-02 -0.6728897257567E-02  0.0000000000000E+00  0.3714491822920E-03
 0.1694691698918E-02 -0.6835304587971E-02  0.0000000000000E+00  0.4227364402566E-03
 0.1722823286095E-02 -0.6956548245972E-02  0.0000000000000E+00  0.4811469641030E-03
 0.1754507284300E-02 -0.7094420740977E-02  0.0000000000000E+00  0.5485623139180E-03
 0.1789944759401E-02 -0.7251064952697E-02  0.0000000000000E+00  0.6275897765239E-03
 0.1828891872490E-02 -0.7428773719500E-02  0.0000000000000E+00  0.7221323806731E-03
 0.1870129496234E-02 -0.7629286975854E-02  0.0000000000000E+00  0.8373038837905E-03
 0.1911840373955E-02 -0.7852964134617E-02  0.0000000000000E+00  0.9777530276888E-03
 0.1953157584850E-02 -0.8098620318847E-02  0.0000000000000E+00  0.1146418846529E-02
 0.1994687653708E-02 -0.8363744216778E-02  0.0000000000000E+00  0.1345557898611E-02
 0.2037229335237E-02 -0.8644765088677E-02  0.0000000000000E+00  0.1577548165485E-02
 0.2080567092127E-02 -0.8937610375988E-02  0.0000000000000E+00  0.1844227680586E-02
 0.2123239326704E-02 -0.9238165072973E-02  0.0000000000000E+00  0.2146475474822E-02
 0.2162820108678E-02 -0.9542174805885E-02  0.0000000000000E+00  0.2484293685485E-02
 0.2196476412684E-02 -0.9844777743091E-02  0.0000000000000E+00  0.2856707002817E-02
 0.2221922047398E-02 -0.1014033820590E-01  0.0000000000000E+00  0.3261897078190E-02
 0.2237249383128E-02 -0.1042242226683E-01  0.0000000000000E+00  0.3699773157541E-02
 0.2237884797826E-02 -0.1068140512579E-01  0.0000000000000E+00  0.4174344023687E-02
 0.2211623298131E-02 -0.1089887833849E-01  0.0000000000000E+00  0.4692120592974E-02
 0.2137094610165E-02 -0.1103633469692E-01  0.0000000000000E+00  0.5246343432919E-02
 0.1986856638607E-02 -0.1102230224290E-01  0.0000000000000E+00  0.5803538233629E-02
 0.1656991070899E-02 -0.1064891196427E-01  0.0000000000000E+00  0.6231147593456E-02
 0.1262387310012E-02 -0.9474469519899E-02  0.0000000000000E+00  0.5226732871670E-02
 0.3576733512395E-02 -0.8394585762511E-02  0.0000000000000E+00  0.1144123554242E-03
 0.1323446395002E-01 -0.9932008124859E-02  0.0000000000000E+00 -0.2481629942912E-02
 0.3512270102395E-03 -0.6649943706892E-02  0.0000000000000E+00 -0.2923808133843E-02
 0.9870486185342E-03 -0.6885493670996E-02  0.0000000000000E+00 -0.2411104327566E-02
 0.1378006664829E-02 -0.6876586187619E-02  0.0000000000000E+00 -0.1579302926689E-02
 0.1513178095317E-02 -0.6729764399741E-02  0.0000000000000E+00 -0.9531203933971E-03
 0.1548938492404E-02 -0.6588563937938E-02  0.0000000000000E+00 -0.5748681599995E-03
 0.1559164166408E-02 -0.6487380710282E-02  0.0000000000000E+00 -0.3362774969783E-03
 0.1562471912043E-02 -0.6421113805392E-02  0.0000000000000E+00 -0.1742183990745E-03
 0.1564583235665E-02 -0.6382818648210E-02  0.0000000000000E+00 -0.5831655878329E-04
 0.1567722133050E-02 -0.6366799347059E-02  0.0000000000000E+00  0.2904970415860E-04
 0.1572601671576E-02 -0.6368777942508E-02  0.0000000000000E+00  0.9848853107099E-04
 0.1579434940680E-02 -0.6385773643044E-02  0.0000000000000E+00  0.1567865452630E-03
 0.1588267139668E-02 -0.6415790439328E-02  0.0000000000000E+00  0.2085807305800E-03
 0.1599108288438E-02 -0.6457593967049E-02  0.0000000000000E+00  0.2572249422243E-03
 0.1611989063116E-02 -0.6510544792228E-02  0.0000000000000E+00  0.3052975793186E-03
 0.1626980179619E-02 -0.6574482758448E-02  0.0000000000000E+00  0.3549038151751E-03
 0.1644197017424E-02 -0.6649647211105E-02  0.0000000000000E+00  0.4078741213761E-03
 0.1663795276771E-02 -0.6736623442359E-02  0.0000000000000E+00  0.4659110861956E-03
 0.1685957716373E-02 -0.6836304528172E-02  0.0000000000000E+00  0.5307201750083E-03
 0.1710867483653E-02 -0.6949865673267E-02  0.0000000000000E+00  0.6041603084925E-03
 0.1738647908403E-02 -0.7078730323817E-02  0.0000000000000E+00  0.6884555237517E-03
 0.1769203761218E-02 -0.7224464926702E-02  0.0000000000000E+00  0.7865122712051E-03
 0.1801871460344E-02 -0.7388444425246E-02  0.0000000000000E+00  0.9021586934363E-03
 0.1835117167897E-02 -0.7571227742496E-02  0.0000000000000E+00  0.1039576430067E-02
 0.1867085213024E-02 -0.7772136040939E-02  0.0000000000000E+00  0.1201780425321E-02
 0.1896939283188E-02 -0.7989513379063E-02  0.0000000000000E+00  0.1389934458893E-02
 0.1925264145663E-02 -0.8221042132436E-02  0.0000000000000E+00  0.1604620413346E-02
 0.1952928065527E-02 -0.8463637300749E-02  0.0000000000000E+00  0.1846953667758E-02
 0.1979859734212E-02 -0.8713392416316E-02  0.0000000000000E+00  0.2118094593080E-02
 0.2004656822110E-02 -0.8965648362741E-02  0.0000000000000E+00  0.2418371134127E-02
 0.2024838772700E-02 -0.9214895355352E-02  0.0000000000000E+00  0.2746689248868E-02
 0.2037486401242E-02 -0.9454535552092E-02  0.0000000000000E+00  0.3100145316841E-02
 0.2039931716149E-02 -0.9676681725450E-02  0.0000000000000E+00  0.3474427457865E-02
 0.2029268381334E-02 -0.9871317443441E-02  0.0000000000000E+00  0.3865462742828E-02
 0.1999426126476E-02 -0.1002276890946E-01  0.0000000000000E+00  0.4269468955068E-02
 0.1937831024763E-02 -0.1010240617067E-01  0.0000000000000E+00  0.4674591719805E-02
 0.1827242219007E-02 -0.1005976365991E-01  0.0000000000000E+00  0.5039821988301E-02
 0.1644470661505E-02 -0.9801672070957E-02  0.0000000000000E+00  0.5258189375993E-02
 0.1393290251122E-02 -0.9138069672497E-02  0.0000000000000E+00  0.4927324652569E-02
 0.1622548758454E-02 -0.8019166665271E-02  0.0000000000000E+00  0.2760336572749E-02
 0.4697156486425E-02 -0.7597599897071E-02  0.0000000000000E+00 -0.1971742741053E-02
 0.1256986616573E-01 -0.9084415498282E-02  0.0000000000000E+00 -0.2950261913710E-02
 0.2926724360196E-03 -0.6477934099465E-02  0.0000000000000E+00 -0.2748142630913E-02
 0.8512346217427E-03 -0.6720493669500E-02  0.0000000000000E+00 -0.2389930322670E-02
 0.1251259295088E-02 -0.6788562786374E-02  0.0000000000000E+00 -0.1713249178968E-02
 0.1437810640025E-02 -0.6716855030053E-02  0.0000000000000E+00 -0.1109994755970E-02
 0.1509608279040E-02 -0.6612578588808E-02  0.0000000000000E+00 -0.6950324138470E-03
 0.1538452709006E-02 -0.6525638477104E-02  0.0000000000000E+00 -0.4185536530409E-03
 0.1551877382402E-02 -0.6464234789588E-02  0.0000000000000E+00 -0.2261470610512E-03
 0.1559627122143E-02 -0.6426228609610E-02  0.0000000000000E+00 -0.8604171156860E-04
 0.1565769409271E-02 -0.6408185323966E-02  0.0000000000000E+00  0.2070024909015E-04
 0.1572064577968E-02 -0.6406949887738E-02  0.0000000000000E+00  0.1060560683383E-03
 0.1579283921309E-02 -0.6420070303575E-02  0.0000000000000E+00  0.1778991759452E-03
 0.1587786068644E-02 -0.6445799154511E-02  0.0000000000000E+00  0.2416929860933E-03
 0.1597757606369E-02 -0.6482994502226E-02  0.0000000000000E+00  0.3014350339223E-03
 0.1609323946245E-02 -0.6531019485946E-02  0.0000000000000E+00  0.3602133129740E-03
 0.1622598732786E-02 -0.6589657280840E-02  0.0000000000000E+00  0.4205505982919E-03
 0.1637702888285E-02 -0.6659044657551E-02  0.0000000000000E+00  0.4846314565686E-03
 0.1654765705705E-02 -0.6739620343342E-02  0.0000000000000E+00  0.5544698856834E-03
 0.1673909576902E-02 -0.6832079178042E-02  0.0000000000000E+00  0.6320534483067E-03
 0.1695212958501E-02 -0.6937326237923E-02  0.0000000000000E+00  0.7194989119536E-03
 0.1718627223044E-02 -0.7056400926679E-02  0.0000000000000E+00  0.8192448772502E-03
 0.1743795474223E-02 -0.7190301336471E-02  0.0000000000000E+00  0.9342553473033E-03
 0.1769764208275E-02 -0.7339618466640E-02  0.0000000000000E+00  0.1067979779579E-02
 0.1794873096215E-02 -0.7504059667256E-02  0.0000000000000E+00  0.1223594369184E-02
 0.1817355666246E-02 -0.7682285182414E-02  0.0000000000000E+00  0.1402790121450E-02
 0.1836443703337E-02 -0.7872313628417E-02  0.0000000000000E+00  0.1605462954374E-02
 0.1852653465896E-02 -0.8071824892971E-02  0.0000000000000E+00  0.1830938230844E-02
 0.1866808216735E-02 -0.8277880818558E-02  0.0000000000000E+00  0.2079090219291E-02
 0.1878908116279E-02 -0.8486554334438E-02  0.0000000000000E+00  0.2349973733348E-02
 0.1887680013077E-02 -0.8692740803535E-02  0.0000000000000E+00  0.2642756350400E-02
 0.1890793159098E-02 -0.8890021098817E-02  0.0000000000000E+00  0.2954743681608E-02
 0.1885461515203E-02 -0.9070492801304E-02  0.0000000000000E+00  0.3280774804889E-02
 0.1868944380291E-02 -0.9224400796326E-02  0.0000000000000E+00  0.3613328215547E-02
 0.1838005055880E-02 -0.9338845714994E-02  0.0000000000000E+00  0.3942863290078E-02
 0.1786823742710E-02 -0.9393875881251E-02  0.0000000000000E+00  0.4254879382153E-02
 0.1706104968141E-02 -0.9355973313491E-02  0.0000000000000E+00  0.4517295242133E-02
 0.1587342773791E-02 -0.9171022288057E-02  0.0000000000000E+00  0.4654414054685E-02
 0.1438252971561E-02 -0.8751752250176E-02  0.0000000000000E+00  0.4479480099107E-02
 0.1395811627346E-02 -0.8005629620819E-02  0.0000000000000E+00  0.3487921588565E-02
 0.2183444060190E-02 -0.7150254000407E-02  0.0000000000000E+00  0.7935801483213E-03
 0.5541173163588E-02 -0.7196327024279E-02  0.0000000000000E+00 -0.3135876107675E-02
 0.1203334608426E-01 -0.8553288561005E-02  0.0000000000000E+00 -0.3147237721599E-02
 0.2514724985281E-03 -0.6351829252026E-02  0.0000000000000E+00 -0.2586317558895E-02
 0.7467221858594E-03 -0.6588046817134E-02  0.0000000000000E+00 -0.2326170230587E-02
 0.1138354455112E-02 -0.6699666570804E-02  0.0000000000000E+00 -0.1777416019007E-02
 0.1357709298947E-02 -0.6685689004178E-02  0.0000000000000E+00 -0.1222440984972E-02
 0.1461378448483E-02 -0.6619107932350E-02  0.0000000000000E+00 -0.7965150337473E-03
 0.1510118491008E-02 -0.6550492645680E-02  0.0000000000000E+00 -0.4938861920559E-03
 0.1535149119586E-02 -0.6497009623388E-02  0.0000000000000E+00 -0.2764634145423E-03
 0.1549733071048E-02 -0.6461540020913E-02  0.0000000000000E+00 -0.1149434190269E-03
 0.1559789360679E-02 -0.6443058957188E-02  0.0000000000000E+00  0.9747528389781E-05
 0.1568142134468E-02 -0.6439694843959E-02  0.0000000000000E+00  0.1102490212766E-03
 0.1576182101241E-02 -0.6449662632120E-02  0.0000000000000E+00  0.1951818296766E-03
 0.1584626870714E-02 -0.6471553257393E-02  0.0000000000000E+00  0.2706588943317E-03
 0.1593873289814E-02 -0.6504379710905E-02  0.0000000000000E+00  0.3412181144752E-03
 0.1604165711981E-02 -0.6547549141833E-02  0.0000000000000E+00  0.4103936014756E-03
 0.1615677398942E-02 -0.6600815458540E-02  0.0000000000000E+00  0.4810797624197E-03
 0.1628546228180E-02 -0.6664230154581E-02  0.0000000000000E+00  0.5557756515819E-03
 0.1642882685898E-02 -0.6738095206235E-02  0.0000000000000E+00  0.6367645784472E-03
 0.1658754202900E-02 -0.6822911462272E-02  0.0000000000000E+00  0.7262627488722E-03
 0.1676140487692E-02 -0.6919314951473E-02  0.0000000000000E+00  0.8265666560666E-03
 0.1694837855460E-02 -0.7027967992286E-02  0.0000000000000E+00  0.9402023967463E-03
 0.1714284636553E-02 -0.7149348629195E-02  0.0000000000000E+00  0.1070003892831E-02
 0.1733354868028E-02 -0.7283411810969E-02  0.0000000000000E+00  0.1218883781830E-02
 0.1750384878090E-02 -0.7429255314402E-02  0.0000000000000E+00  0.1389053254551E-02
 0.1763757631438E-02 -0.7585102969783E-02  0.0000000000000E+00  0.1581114123693E-02
 0.1772792399122E-02 -0.7748732713534E-02  0.0000000000000E+00  0.1793972719100E-02
 0.1777940357829E-02 -0.7917733045082E-02  0.0000000000000E+00  0.2025912672183E-02
 0.1779957102763E-02 -0.8089144939799E-02  0.0000000000000E+00  0.2275584234108E-02
 0.1778909105390E-02 -0.8258940246931E-02  0.0000000000000E+00  0.2541690701030E-02
 0.1773731500142E-02 -0.8421682095055E-02  0.0000000000000E+00  0.2821859189747E-02
 0.1762410213117E-02 -0.8570339620884E-02  0.0000000000000E+00  0.3111456559479E-02
 0.1742525489650E-02 -0.8696108382225E-02  0.0000000000000E+00  0.3402739245350E-02
 0.1711675100315E-02 -0.8787922360225E-02  0.0000000000000E+00  0.3684407243232E-02
 0.1667183532603E-02 -0.8831041158406E-02  0.0000000000000E+00  0.3940489058749E-02
 0.1605301656236E-02 -0.8803594905840E-02  0.0000000000000E+00  0.4144946360922E-02
 0.1522759269568E-02 -0.8671808009176E-02  0.0000000000000E+00  0.4246679865987E-02
 0.1425970182293E-02 -0.8386853067799E-02  0.0000000000000E+00  0.4138626055583E-02
 0.1366666984117E-02 -0.7891334416259E-02  0.0000000000000E+00  0.3587272771293E-02
 0.1579482735624E-02 -0.7197165309351E-02  0.0000000000000E+00  0.2131158799461E-02
 0.2785455745476E-02 -0.6640293093429E-02  0.0000000000000E+00 -0.6664591428266E-03
 0.6156334371325E-02 -0.6975714138066E-02  0.0000000000000E+00 -0.3765202777204E-02
 0.1158902429641E-01 -0.8185056401660E-02  0.0000000000000E+00 -0.3245594034874E-02
 0.2212777908378E-03 -0.6256330081245E-02  0.0000000000000E+00 -0.2437376616995E-02
 0.6650377045251E-03 -0.6481436945820E-02  0.0000000000000E+00 -0.2241574412237E-02
 0.1040254688819E-02 -0.6616717983734E-02  0.0000000000000E+00 -0.1794126440171E-02
 0.1278442477702E-02 -0.6644857447280E-02  0.0000000000000E+00 -0.1295654114338E-02
 0.1407824613688E-02 -0.6612420858282E-02  0.0000000000000E+00 -0.8767423271978E-03
 0.1475774813596E-02 -0.6563775084989E-02  0.0000000000000E+00 -0.5595768221928E-03
 0.1513115153230E-02 -0.6520366561213E-02  0.0000000000000E+00 -0.3231499027097E-03
 0.1535347997007E-02 -0.6489212929119E-02  0.0000000000000E+00 -0.1435123027594E-03
 0.1550024073929E-02 -0.6471652369122E-02  0.0000000000000E+00 -0.2745275943197E-05
 0.1560976953900E-02 -0.6467138554628E-02  0.0000000000000E+00  0.1117985632622E-03
 0.1570223777659E-02 -0.6474629673970E-02  0.0000000000000E+00  0.2091152587034E-03
 0.1578864991074E-02 -0.6493119666119E-02  0.0000000000000E+00  0.2957651124274E-03
 0.1587529827414E-02 -0.6521824921778E-02  0.0000000000000E+00  0.3767062253558E-03
 0.1596599941319E-02 -0.6560231786553E-02  0.0000000000000E+00  0.4558420733717E-03
 0.1606322438579E-02 -0.6608089667880E-02  0.0000000000000E+00  0.5363836616602E-03
 0.1616863128905E-02 -0.6665381981052E-02  0.0000000000000E+00  0.6210980626238E-03
 0.1628322696028E-02 -0.6732285861650E-02  0.0000000000000E+00  0.7124906545422E-03
 0.1640722592184E-02 -0.6809117266267E-02  0.0000000000000E+00  0.8129492733178E-03
 0.1653957063096E-02 -0.6896253910805E-02  0.0000000000000E+00  0.9248717407245E-03
 0.1667696468083E-02 -0.6994006185779E-02  0.0000000000000E+00  0.1050759653671E-02
 0.1681237934800E-02 -0.7102400442806E-02  0.0000000000000E+00  0.1193186601119E-02
 0.1693379297537E-02 -0.7220892024334E-02  0.0000000000000E+00  0.1354461448897E-02
 0.1702533287769E-02 -0.7348144929666E-02  0.0000000000000E+00  0.1535908771186E-02
 0.1707262221488E-02 -0.7482089566896E-02  0.0000000000000E+00  0.1737209923322E-02
 0.1706989875288E-02 -0.7620323481594E-02  0.0000000000000E+00  0.1956436049661E-02
 0.1702133163558E-02 -0.7760317544761E-02  0.0000000000000E+00  0.2190938720215E-02
 0.1693408529237E-02 -0.7899028864651E-02  0.0000000000000E+00  0.2438159578036E-02
 0.1680986755827E-02 -0.8032322981674E-02  0.0000000000000E+00  0.2695323055971E-02
 0.1664098090084E-02 -0.8154559420216E-02  0.0000000000000E+00  0.2958302870457E-02
 0.1641199070623E-02 -0.8258368745926E-02  0.0000000000000E+00  0.3220318093921E-02
 0.1610483621628E-02 -0.8334456060216E-02  0.0000000000000E+00  0.3470821839605E-02
 0.1570355039555E-02 -0.8371100530626E-02  0.0000000000000E+00  0.3694426001634E-02
 0.1519622405677E-02 -0.8352945459043E-02  0.0000000000000E+00  0.3868518319386E-02
 0.1458114850522E-02 -0.8258516226172E-02  0.0000000000000E+00  0.3956339125620E-02
 0.1390834411859E-02 -0.8057772258411E-02  0.0000000000000E+00  0.3890969416039E-02
 0.1343066096811E-02 -0.7714911906238E-02  0.0000000000000E+00  0.3544717251736E-02
 0.1407842986302E-02 -0.7211799367132E-02  0.0000000000000E+00  0.2680140095967E-02
 0.1868404013453E-02 -0.6637120620942E-02  0.0000000000000E+00  0.9538622639355E-03
 0.3354240107436E-02 -0.6343658871530E-02  0.0000000000000E+00 -0.1710331807148E-02
 0.6600054660905E-02 -0.6842462923350E-02  0.0000000000000E+00 -0.4090146183107E-02
 0.1121565495088E-01 -0.7913814910543E-02  0.0000000000000E+00 -0.3302190743124E-02
 0.1983515597086E-03 -0.6182132860387E-02  0.0000000000000E+00 -0.2299700801630E-02
 0.6000983920916E-03 -0.6394927174120E-02  0.0000000000000E+00 -0.2147471085871E-02
 0.9558547059851E-03 -0.6542064193762E-02  0.0000000000000E+00 -0.1779141834144E-02
 0.1203081384372E-02 -0.6599973347195E-02  0.0000000000000E+00 -0.1336724222912E-02
 0.1351891243649E-02 -0.6596460959108E-02  0.0000000000000E+00 -0.9358871748053E-03
 0.1437108815518E-02 -0.6567515042814E-02  0.0000000000000E+00 -0.6140504752003E-03
 0.1486694607082E-02 -0.6535376270035E-02  0.0000000000000E+00 -0.3646967596026E-03
 0.1517002021251E-02 -0.6509837277857E-02  0.0000000000000E+00 -0.1705221671136E-03
 0.1536787259770E-02 -0.6494297066506E-02  0.0000000000000E+00 -0.1585214319251E-04
 0.1550766035421E-02 -0.6489480852964E-02  0.0000000000000E+00  0.1113679485732E-03
 0.1561545865096E-02 -0.6495107623591E-02  0.0000000000000E+00  0.2201512908767E-03
 0.1570609841542E-02 -0.6510610304695E-02  0.0000000000000E+00  0.3172930100922E-03
 0.1578829664024E-02 -0.6535442415304E-02  0.0000000000000E+00  0.4080414948325E-03
 0.1586736164739E-02 -0.6569197103757E-02  0.0000000000000E+00  0.4965842143975E-03
 0.1594661510485E-02 -0.6611640733014E-02  0.0000000000000E+00  0.5863870337820E-03
 0.1602809652493E-02 -0.6662705256582E-02  0.0000000000000E+00  0.6804336744178E-03
 0.1611281562342E-02 -0.6722456638877E-02  0.0000000000000E+00  0.7814011601867E-03
 0.1620064851979E-02 -0.6791039501213E-02  0.0000000000000E+00  0.8917911859306E-03
 0.1628987402871E-02 -0.6868592398556E-02  0.0000000000000E+00  0.1014029585525E-02
 0.1637629347314E-02 -0.6955111206564E-02  0.0000000000000E+00  0.1150502902440E-02
 0.1645208071566E-02 -0.7050245276756E-02  0.0000000000000E+00  0.1303442156273E-02
 0.1650520737198E-02 -0.7153067810740E-02  0.0000000000000E+00  0.1474538260680E-02
 0.1652108925296E-02 -0.7261938547334E-02  0.0000000000000E+00  0.1664313402003E-02
 0.1648731822350E-02 -0.7374593276000E-02  0.0000000000000E+00  0.1871648228134E-02
 0.1639937823359E-02 -0.7488500963949E-02  0.0000000000000E+00  0.2093866622791E-02
 0.1626155356643E-02 -0.7601027118606E-02  0.0000000000000E+00  0.2327446980075E-02
 0.1608117530815E-02 -0.7709046162752E-02  0.0000000000000E+00  0.2568643924181E-02
 0.1586162247106E-02 -0.7808362046934E-02  0.0000000000000E+00  0.2813158146734E-02
 0.1559907464943E-02 -0.7893271886489E-02  0.0000000000000E+00  0.3055019652135E-02
 0.1528428444995E-02 -0.7956330387401E-02  0.0000000000000E+00  0.3285211558185E-02
 0.1490782619278E-02 -0.7988169115192E-02  0.0000000000000E+00  0.3490314863399E-02
 0.1446641224952E-02 -0.7977104575235E-02  0.0000000000000E+00  0.3650871921372E-02
 0.1397094206630E-02 -0.7908372535591E-02  0.0000000000000E+00  0.3738137552923E-02
 0.1346659652609E-02 -0.7762886319392E-02  0.0000000000000E+00  0.3706547655548E-02
 0.1309970748282E-02 -0.7517485112782E-02  0.0000000000000E+00  0.3478453511617E-02
 0.1331302535804E-02 -0.7153652137441E-02  0.0000000000000E+00  0.2920001883857E-02
 0.1533448283353E-02 -0.6689776221623E-02  0.0000000000000E+00  0.1823074195108E-02
 0.2207610709156E-02 -0.6257464977302E-02  0.0000000000000E+00 -0.1897227978698E-04
 0.3861287214362E-02 -0.6173208419147E-02  0.0000000000000E+00 -0.2438940956551E-02
 0.6920065651500E-02 -0.6755224609989E-02  0.0000000000000E+00 -0.4241230862656E-02
 0.1089836099876E-01 -0.7707042921816E-02  0.0000000000000E+00 -0.3335834162580E-02
 0.1804053057818E-03 -0.6123271810463E-02  0.0000000000000E+00 -0.2171716711972E-02
 0.5475854728193E-03 -0.6324021722631E-02  0.0000000000000E+00 -0.2049880817382E-02
 0.8833882880482E-03 -0.6476010067637E-02  0.0000000000000E+00 -0.1743241293075E-02
 0.1133079278076E-02 -0.6554444256797E-02  0.0000000000000E+00 -0.1352517594475E-02
 0.1295740399635E-02 -0.6574429555340E-02  0.0000000000000E+00 -0.9757075809580E-03
 0.1395675559647E-02 -0.6563708901387E-02  0.0000000000000E+00 -0.6567881318844E-03
 0.1456833201697E-02 -0.6543184229338E-02  0.0000000000000E+00 -0.4001129763517E-03
 0.1495273323986E-02 -0.6524086568044E-02  0.0000000000000E+00 -0.1950335357016E-03
 0.1520443148633E-02 -0.6511400816385E-02  0.0000000000000E+00 -0.2880317561806E-04
 0.1537750109846E-02 -0.6506983220642E-02  0.0000000000000E+00  0.1095395766505E-03
 0.1550321288261E-02 -0.6511282146231E-02  0.0000000000000E+00  0.2287032237133E-03
 0.1560000587129E-02 -0.6524177248404E-02  0.0000000000000E+00  0.3355118080419E-03
 0.1567900172743E-02 -0.6545377843179E-02  0.0000000000000E+00  0.4353715573589E-03
 0.1574705338630E-02 -0.6574603429509E-02  0.0000000000000E+00  0.5326643870547E-03
 0.1580841220292E-02 -0.6611654964100E-02  0.0000000000000E+00  0.6310452908363E-03
 0.1586559051462E-02 -0.6656428568873E-02  0.0000000000000E+00  0.7336603753238E-03
 0.1591970889410E-02 -0.6708894028678E-02  0.0000000000000E+00  0.8433066842108E-03
 0.1597045072397E-02 -0.6769041919848E-02  0.0000000000000E+00  0.9625438365456E-03
 0.1601565998900E-02 -0.6836797131144E-02  0.0000000000000E+00  0.1093761015836E-02
 0.1605061496238E-02 -0.6911885118641E-02  0.0000000000000E+00  0.1239161332806E-02
 0.1606724499608E-02 -0.6993651485736E-02  0.0000000000000E+00  0.1400587049527E-02
 0.1605409811791E-02 -0.7080885733446E-02  0.0000000000000E+00  0.1579125637222E-02
 0.1599823753401E-02 -0.7171741507433E-02  0.0000000000000E+00  0.1774575038288E-02
 0.1588935930693E-02 -0.7263834528410E-02  0.0000000000000E+00  0.1985101715988E-02
 0.1572443596818E-02 -0.7354555152634E-02  0.0000000000000E+00  0.2207336450119E-02
 0.1550839901371E-02 -0.7441199697685E-02  0.0000000000000E+00  0.2436922941486E-02
 0.1524943230819E-02 -0.7520599776955E-02  0.0000000000000E+00  0.2668963054284E-02
 0.1495333499605E-02 -0.7588573437266E-02  0.0000000000000E+00  0.2897649689744E-02
 0.1462110681977E-02 -0.7639504493981E-02  0.0000000000000E+00  0.3115173700079E-02
 0.1425108996722E-02 -0.7666125577286E-02  0.0000000000000E+00  0.3310308478983E-02
 0.1384482865869E-02 -0.7659400677468E-02  0.0000000000000E+00  0.3466864145619E-02
 0.1341570967943E-02 -0.7608344769576E-02  0.0000000000000E+00  0.3561658503710E-02
 0.1300332941354E-02 -0.7499840116568E-02  0.0000000000000E+00  0.3560871394482E-02
 0.1270616747684E-02 -0.7318723011233E-02  0.0000000000000E+00  0.3412796275890E-02
 0.1276840205863E-02 -0.7050633666850E-02  0.0000000000000E+00  0.3035217804732E-02
 0.1379243989139E-02 -0.6694848848325E-02  0.0000000000000E+00  0.2301634312787E-02
 0.1716614435377E-02 -0.6297424313257E-02  0.0000000000000E+00  0.1051657220161E-02
 0.2561423211202E-02 -0.6005275770455E-02  0.0000000000000E+00 -0.7976377836426E-03
 0.4300509872301E-02 -0.6078060663914E-02  0.0000000000000E+00 -0.2936847917572E-02
 0.7151905760216E-02 -0.6695002668047E-02  0.0000000000000E+00 -0.4291394695080E-02
 0.1062607309366E-01 -0.7546576923638E-02  0.0000000000000E+00 -0.3352941302549E-02
 0.1659846744893E-03 -0.6075756402706E-02  0.0000000000000E+00 -0.2052069330061E-02
 0.5044238906381E-03 -0.6265291123997E-02  0.0000000000000E+00 -0.1952033021431E-02
 0.8210277225304E-03 -0.6417990308827E-02  0.0000000000000E+00 -0.1693716957535E-02
 0.1068922456689E-02 -0.6510211409387E-02  0.0000000000000E+00 -0.1348924999906E-02
 0.1240835036871E-02 -0.6548740550813E-02  0.0000000000000E+00 -0.9986671649346E-03
 0.1352788689916E-02 -0.6554155700599E-02  0.0000000000000E+00 -0.6880710537758E-03
 0.1424438023730E-02 -0.6544936482446E-02  0.0000000000000E+00 -0.4288929377353E-03
 0.1470756407189E-02 -0.6532678666585E-02  0.0000000000000E+00 -0.2163853443613E-03
 0.1501386856824E-02 -0.6523424011131E-02  0.0000000000000E+00 -0.4098951609961E-04
 0.1522202255990E-02 -0.6519955588763E-02  0.0000000000000E+00  0.1068069572934E-03
 0.1536752079215E-02 -0.6523380226548E-02  0.0000000000000E+00  0.2351391698432E-03
 0.1547201561213E-02 -0.6534007340988E-02  0.0000000000000E+00  0.3506732984625E-03
 0.1554890339752E-02 -0.6551806294754E-02  0.0000000000000E+00  0.4588456921876E-03
 0.1560657104447E-02 -0.6576634460773E-02  0.0000000000000E+00  0.5641431143904E-03
 0.1565024496445E-02 -0.6608340973433E-02  0.0000000000000E+00  0.6703426765021E-03
 0.1568298867869E-02 -0.6646800427473E-02  0.0000000000000E+00  0.7806977066461E-03
 0.1570614439739E-02 -0.6691902243547E-02  0.0000000000000E+00  0.8980742925104E-03
 0.1571936370020E-02 -0.6743503003334E-02  0.0000000000000E+00  0.1025037955850E-02
 0.1572030266280E-02 -0.6801343482794E-02  0.0000000000000E+00  0.1163886924090E-02
 0.1570408770100E-02 -0.6864925237433E-02  0.0000000000000E+00  0.1316592461155E-02
 0.1566288171947E-02 -0.6933358144735E-02  0.0000000000000E+00  0.1484587370117E-02
 0.1558625920988E-02 -0.7005229972996E-02  0.0000000000000E+00  0.1668384797433E-02
 0.1546319158687E-02 -0.7078565385601E-02  0.0000000000000E+00  0.1867127580583E-02
 0.1528561104197E-02 -0.7150920996428E-02  0.0000000000000E+00  0.2078333677330E-02
 0.1505225427913E-02 -0.7219658868890E-02  0.0000000000000E+00  0.2297980185557E-02
 0.1476925688950E-02 -0.7282056624085E-02  0.0000000000000E+00  0.2520911061519E-02
 0.1444637933733E-02 -0.7334965064272E-02  0.0000000000000E+00  0.2741126140327E-02
 0.1409262151955E-02 -0.7374309096368E-02  0.0000000000000E+00  0.2951373967378E-02
 0.1371471036649E-02 -0.7394709946036E-02  0.0000000000000E+00  0.3142087151175E-02
 0.1331983631999E-02 -0.7389317665288E-02  0.0000000000000E+00  0.3299960457067E-02
 0.1292248217748E-02 -0.7349802301138E-02  0.0000000000000E+00  0.3406297523290E-02
 0.1255568116251E-02 -0.7266452113308E-02  0.0000000000000E+00  0.3434805966848E-02
 0.1229117323886E-02 -0.7128616689079E-02  0.0000000000000E+00  0.3348013678801E-02
 0.1228200184496E-02 -0.6926041820582E-02  0.0000000000000E+00  0.3091111566958E-02
 0.1286042575131E-02 -0.6653760943672E-02  0.0000000000000E+00  0.2583379859466E-02
 0.1474162487642E-02 -0.6326649039351E-02  0.0000000000000E+00  0.1715540104871E-02
 0.1935167400594E-02 -0.6008169124999E-02  0.0000000000000E+00  0.3806247310937E-03
 0.2908502548124E-02 -0.5842040858496E-02  0.0000000000000E+00 -0.1406449596515E-02
 0.4675761558079E-02 -0.6028652596793E-02  0.0000000000000E+00 -0.3268110771135E-02
 0.7320947214484E-02 -0.6652590781598E-02  0.0000000000000E+00 -0.4281499495545E-02
 0.1039040147886E-01 -0.7421145317159E-02  0.0000000000000E+00 -0.3356034429281E-02
 0.1541337723305E-03 -0.6036823647995E-02  0.0000000000000E+00 -0.1939635663857E-02
 0.4684046722859E-03 -0.6216135186948E-02  0.0000000000000E+00 -0.1855650150404E-02
 0.7671159193811E-03 -0.6367126323842E-02  0.0000000000000E+00 -0.1635492577638E-02
 0.1010556530270E-02 -0.6468292181212E-02  0.0000000000000E+00 -0.1330719073697E-02
 0.1188091585221E-02 -0.6521128760678E-02  0.0000000000000E+00 -0.1007392333141E-02
 0.1309490270113E-02 -0.6540381615873E-02  0.0000000000000E+00 -0.7086986582527E-03
 0.1390330399217E-02 -0.6541717272989E-02  0.0000000000000E+00 -0.4509376979214E-03
 0.1444033871129E-02 -0.6536340980720E-02  0.0000000000000E+00 -0.2341735471150E-03
 0.1480026941165E-02 -0.6530858090116E-02  0.0000000000000E+00 -0.5195889608367E-04
 0.1504416861050E-02 -0.6528743120942E-02  0.0000000000000E+00  0.1035722044412E-03
 0.1521062386978E-02 -0.6531661852673E-02  0.0000000000000E+00  0.2397781553683E-03
 0.1532397533126E-02 -0.6540316557266E-02  0.0000000000000E+00  0.3630081600800E-03
 0.1539967276904E-02 -0.6554928128199E-02  0.0000000000000E+00  0.4786117529545E-03
 0.1544756908565E-02 -0.6575495777847E-02  0.0000000000000E+00  0.5910946611829E-03
 0.1547387866375E-02 -0.6601926352712E-02  0.0000000000000E+00  0.7042903382684E-03
 0.1548227992840E-02 -0.6634085643694E-02  0.0000000000000E+00  0.8215051465764E-03
 0.1547444591094E-02 -0.6671798818915E-02  0.0000000000000E+00  0.9456255103829E-03
 0.1545016339920E-02 -0.6714810208613E-02  0.0000000000000E+00  0.1079176174182E-02
 0.1540714932048E-02 -0.6762708018655E-02  0.0000000000000E+00  0.1224320758384E-02
 0.1534072358492E-02 -0.6814815961103E-02  0.0000000000000E+00  0.1382766948700E-02
 0.1524368676451E-02 -0.6870069527096E-02  0.0000000000000E+00  0.1555534778477E-02
 0.1510699031319E-02 -0.6926923289207E-02  0.0000000000000E+00  0.1742599037957E-02
 0.1492171687302E-02 -0.6983335769517E-02  0.0000000000000E+00  0.1942508388249E-02
 0.1468217493493E-02 -0.7036857441371E-02  0.0000000000000E+00  0.2152186142974E-02
 0.1438915943972E-02 -0.7084872849852E-02  0.0000000000000E+00  0.2366991452087E-02
 0.1405055747201E-02 -0.7124699044328E-02  0.0000000000000E+00  0.2581008923485E-02
 0.1367840991778E-02 -0.7153279028848E-02  0.0000000000000E+00  0.2787205038192E-02
 0.1328566546076E-02 -0.7166744088708E-02  0.0000000000000E+00  0.2976985792928E-02
 0.1288559413436E-02 -0.7160098223519E-02  0.0000000000000E+00  0.3139168544052E-02
 0.1249527107499E-02 -0.7127125778829E-02  0.0000000000000E+00  0.3258591212717E-02
 0.1214355917218E-02 -0.7060524019701E-02  0.0000000000000E+00  0.3314451456717E-02
 0.1188488512682E-02 -0.6952306932180E-02  0.0000000000000E+00  0.3278148792202E-02
 0.1182405494623E-02 -0.6794841264692E-02  0.0000000000000E+00  0.3110165031949E-02
 0.1216513446728E-02 -0.6583201139146E-02  0.0000000000000E+00  0.2755610948622E-02
 0.1331083815519E-02 -0.6321286246949E-02  0.0000000000000E+00  0.2140296626787E-02
 0.1603879582618E-02 -0.6035995199404E-02  0.0000000000000E+00  0.1177757976325E-02
 0.2172238429385E-02 -0.5799119383276E-02  0.0000000000000E+00 -0.1882899215092E-03
 0.3237165466995E-02 -0.5740639371281E-02  0.0000000000000E+00 -0.1872877411787E-02
 0.4994592991146E-02 -0.6007707022178E-02  0.0000000000000E+00 -0.3479155325174E-02
 0.7445052864945E-02 -0.6623174630566E-02  0.0000000000000E+00 -0.4234712383079E-02
 0.1018490877132E-01 -0.7323152669122E-02  0.0000000000000E+00 -0.3346473396393E-02
 0.1442050252289E-03 -0.6004505044524E-02  0.0000000000000E+00 -0.1833494878145E-02
 0.4379226889899E-03 -0.6174577410028E-02  0.0000000000000E+00 -0.1761624102645E-02
 0.7202353787408E-03 -0.6322483932890E-02  0.0000000000000E+00 -0.1571898994838E-02
 0.9576489801088E-03 -0.6429142748383E-02  0.0000000000000E+00 -0.1301651031104E-02
 0.1138030140491E-02 -0.6492796720916E-02  0.0000000000000E+00 -0.1004379490843E-02
 0.1266567023962E-02 -0.6523628297455E-02  0.0000000000000E+00 -0.7197536900766E-03
 0.1355220898143E-02 -0.6534508533507E-02  0.0000000000000E+00 -0.4664563207044E-03
 0.1415654316984E-02 -0.6535781474138E-02  0.0000000000000E+00 -0.2482172115359E-03
 0.1456770444756E-02 -0.6534206634063E-02  0.0000000000000E+00 -0.6140426822188E-04
 0.1484699557356E-02 -0.6533713815382E-02  0.0000000000000E+00  0.1001482219354E-03
 0.1503491722867E-02 -0.6536411839630E-02  0.0000000000000E+00  0.2428888685888E-03
 0.1515788998083E-02 -0.6543344320770E-02  0.0000000000000E+00  0.3727237634715E-03
 0.1523312683993E-02 -0.6554964694655E-02  0.0000000000000E+00  0.4948138858698E-03
 0.1527183065923E-02 -0.6571411269576E-02  0.0000000000000E+00  0.6136049190983E-03
 0.1528118708693E-02 -0.6592654293336E-02  0.0000000000000E+00  0.7329243333911E-03
 0.1526553771879E-02 -0.6618561730196E-02  0.0000000000000E+00  0.8560799738733E-03
 0.1522698991568E-02 -0.6648910391851E-02  0.0000000000000E+00  0.9859334742333E-03
 0.1516563055943E-02 -0.6683354773881E-02  0.0000000000000E+00  0.1124928283379E-02
 0.1507947602319E-02 -0.6721362377481E-02  0.0000000000000E+00  0.1275059857478E-02
 0.1496435011296E-02 -0.6762122886858E-02  0.0000000000000E+00  0.1437753927247E-02
 0.1481402816148E-02 -0.6804451843026E-02  0.0000000000000E+00  0.1613626085661E-02
 0.1462111524001E-02 -0.6846728447739E-02  0.0000000000000E+00  0.1802151601503E-02
 0.1437897310781E-02 -0.6886897982161E-02  0.0000000000000E+00  0.2001339712883E-02
 0.1408443481178E-02 -0.6922552529071E-02  0.0000000000000E+00  0.2207567376820E-02
 0.1374065015764E-02 -0.6951149524282E-02  0.0000000000000E+00  0.2415614031554E-02
 0.1335777122953E-02 -0.6970106356784E-02  0.0000000000000E+00  0.2618855054987E-02
 0.1295076537896E-02 -0.6976534598149E-02  0.0000000000000E+00  0.2809309874133E-02
 0.1253719886203E-02 -0.6966870399950E-02  0.0000000000000E+00  0.2977174845064E-02
 0.1213755993807E-02 -0.6936633899689E-02  0.0000000000000E+00  0.3109844380146E-02
 0.1177955425737E-02 -0.6880429510836E-02  0.0000000000000E+00  0.3190593245136E-02
 0.1150724406729E-02 -0.6792235649312E-02  0.0000000000000E+00  0.3197010898711E-02
 0.1139692608728E-02 -0.6666104318006E-02  0.0000000000000E+00  0.3099091211479E-02
 0.1158506103092E-02 -0.6497693869240E-02  0.0000000000000E+00  0.2856886505198E-02
 0.1231945099489E-02 -0.6287320843768E-02  0.0000000000000E+00  0.2418095421661E-02
 0.1405188930592E-02 -0.6046473934938E-02  0.0000000000000E+00  0.1718607926653E-02
 0.1757719520306E-02 -0.5810177504737E-02  0.0000000000000E+00  0.6966550928663E-03
 0.2415705454032E-02 -0.5651626321361E-02  0.0000000000000E+00 -0.6605950946209E-03
 0.3541842306227E-02 -0.5682259826953E-02  0.0000000000000E+00 -0.2222637336055E-02
 0.5265315284441E-02 -0.6004996253620E-02  0.0000000000000E+00 -0.3602979748184E-02
 0.7536794954686E-02 -0.6603980343580E-02  0.0000000000000E+00 -0.4164406168296E-02
 0.1000458436896E-01 -0.7247158563417E-02  0.0000000000000E+00 -0.3325293692922E-02
 0.1357477502720E-03 -0.5977364282078E-02  0.0000000000000E+00 -0.1732891235629E-02
 0.4117970093486E-03 -0.6139105901158E-02  0.0000000000000E+00 -0.1670382279099E-02
 0.6792081710725E-03 -0.6283185765109E-02  0.0000000000000E+00 -0.1505196321038E-02
 0.9097442639611E-03 -0.6392890090075E-02  0.0000000000000E+00 -0.1264619930487E-02
 0.1090898043752E-02 -0.6464551682952E-02  0.0000000000000E+00 -0.9918602892154E-03
 0.1224587515952E-02 -0.6504876351198E-02  0.0000000000000E+00 -0.7224323697330E-03
 0.1319702480172E-02 -0.6524170635244E-02  0.0000000000000E+00 -0.4758692756794E-03
 0.1386117684287E-02 -0.6531667297341E-02  0.0000000000000E+00 -0.2585170622074E-03
 0.1432010877598E-02 -0.6533969560048E-02  0.0000000000000E+00 -0.6914723013944E-04
 0.1463358466005E-02 -0.6535247419676E-02  0.0000000000000E+00  0.9676452396540E-04
 0.1484288715199E-02 -0.6537932106883E-02  0.0000000000000E+00  0.2446907379470E-03
 0.1497587644532E-02 -0.6543347954966E-02  0.0000000000000E+00  0.3800033411359E-03
 0.1505119366177E-02 -0.6552154078949E-02  0.0000000000000E+00  0.5075909946614E-03
 0.1508123845538E-02 -0.6564619550041E-02  0.0000000000000E+00  0.6317696027772E-03
 0.1507412548933E-02 -0.6580780228011E-02  0.0000000000000E+00  0.7563036056880E-03
 0.1503489227964E-02 -0.6600515404869E-02  0.0000000000000E+00  0.8844547943843E-03
 0.1496617494960E-02 -0.6623568762646E-02  0.0000000000000E+00  0.1019019444324E-02
 0.1486851663932E-02 -0.6649527173215E-02  0.0000000000000E+00  0.1162325687851E-02
 0.1474045354951E-02 -0.6677768388079E-02  0.0000000000000E+00  0.1316176367438E-02
 0.1457858534785E-02 -0.6707388645018E-02  0.0000000000000E+00  0.1481707323168E-02
 0.1437794086463E-02 -0.6737131420357E-02  0.0000000000000E+00  0.1659145787146E-02
 0.1413300002404E-02 -0.6765349820248E-02  0.0000000000000E+00  0.1847507359765E-02
 0.1383954810650E-02 -0.6790021519421E-02  0.0000000000000E+00  0.2044312597388E-02
 0.1349709351944E-02 -0.6808823967048E-02  0.0000000000000E+00  0.2245438907634E-02
 0.1311142549876E-02 -0.6819336376009E-02  0.0000000000000E+00  0.2445129909970E-02
 0.1269542330779E-02 -0.6819136591422E-02  0.0000000000000E+00  0.2636113008169E-02
 0.1226754419484E-02 -0.6805579078777E-02  0.0000000000000E+00  0.2809562843919E-02
 0.1185052846865E-02 -0.6775496462904E-02  0.0000000000000E+00  0.2954623460285E-02
 0.1147257843730E-02 -0.6725040728101E-02  0.0000000000000E+00  0.3057495393403E-02
 0.1117244108312E-02 -0.6649784365150E-02  0.0000000000000E+00  0.3100234010392E-02
 0.1100954732231E-02 -0.6545165733939E-02  0.0000000000000E+00  0.3059372736645E-02
 0.1108135221013E-02 -0.6407444797442E-02  0.0000000000000E+00  0.2904419979584E-02
 0.1155264855721E-02 -0.6235595412588E-02  0.0000000000000E+00  0.2596480590303E-02
 0.1270535229134E-02 -0.6034705319689E-02  0.0000000000000E+00  0.2087939978887E-02
 0.1501867530063E-02 -0.5822199954424E-02  0.0000000000000E+00  0.1326787617055E-02
 0.1926848863587E-02 -0.5637661331553E-02  0.0000000000000E+00  0.2751433771913E-03
 0.2657259558438E-02 -0.5550976990623E-02  0.0000000000000E+00 -0.1045266821254E-02
 0.3820647660858E-02 -0.5653914178608E-02  0.0000000000000E+00 -0.2477887635073E-02
 0.5495734458637E-02 -0.6014352324682E-02  0.0000000000000E+00 -0.3662871488474E-02
 0.7605087137198E-02 -0.6593233974402E-02  0.0000000000000E+00 -0.4078468012933E-02
 0.9845457442255E-02 -0.7189090669584E-02  0.0000000000000E+00 -0.3293450694546E-02
 0.1284407294888E-03 -0.5954332210468E-02  0.0000000000000E+00 -0.1637200618151E-02
 0.3891478738083E-03 -0.6108555176419E-02  0.0000000000000E+00 -0.1582090245904E-02
 0.6430698868491E-03 -0.6248453613889E-02  0.0000000000000E+00 -0.1436922006967E-02
 0.8663518765473E-03 -0.6359476643978E-02  0.0000000000000E+00 -0.1221844959757E-02
 0.1046763209372E-02 -0.6436917449696E-02  0.0000000000000E+00 -0.9717577738451E-03
 0.1183944836963E-02 -0.6484883590324E-02  0.0000000000000E+00 -0.7179329169896E-03
 0.1284255695721E-02 -0.6511439133554E-02  0.0000000000000E+00 -0.4797258694592E-03
 0.1355867614330E-02 -0.6524611303676E-02  0.0000000000000E+00 -0.2652123460467E-03
 0.1406119385282E-02 -0.6530630754190E-02  0.0000000000000E+00 -0.7511816687306E-04
 0.1440696935123E-02 -0.6533725931882E-02  0.0000000000000E+00  0.9357570040217E-04
 0.1463705555157E-02 -0.6536534649840E-02  0.0000000000000E+00  0.2453568916573E-03
 0.1478012127756E-02 -0.6540597423625E-02  0.0000000000000E+00  0.3850063489883E-03
 0.1485587894475E-02 -0.6546746964598E-02  0.0000000000000E+00  0.5170758871046E-03
 0.1487774644451E-02 -0.6555370447947E-02  0.0000000000000E+00  0.6456927541496E-03
 0.1485470454898E-02 -0.6566568562787E-02  0.0000000000000E+00  0.7745079762137E-03
 0.1479250455834E-02 -0.6580239267256E-02  0.0000000000000E+00  0.9066948318635E-03
 0.1469439419824E-02 -0.6596107304610E-02  0.0000000000000E+00  0.1044948890059E-02
 0.1456151549302E-02 -0.6613713230321E-02  0.0000000000000E+00  0.1191455433008E-02
 0.1439312181113E-02 -0.6632374242724E-02  0.0000000000000E+00  0.1347808223234E-02
 0.1418682205512E-02 -0.6651130004938E-02  0.0000000000000E+00  0.1514853353703E-02
 0.1393912725677E-02 -0.6668693825978E-02  0.0000000000000E+00  0.1692450981350E-02
 0.1364657057199E-02 -0.6683435053323E-02  0.0000000000000E+00  0.1879197198268E-02
 0.1330748673605E-02 -0.6693403715355E-02  0.0000000000000E+00  0.2072172441992E-02
 0.1292420545092E-02 -0.6696402775419E-02  0.0000000000000E+00  0.2266802385854E-02
 0.1250541557824E-02 -0.6690179397565E-02  0.0000000000000E+00  0.2456845605970E-02
 0.1206712228782E-02 -0.6672528548501E-02  0.0000000000000E+00  0.2634453583137E-02
 0.1163173784528E-02 -0.6641116070469E-02  0.0000000000000E+00  0.2790071788157E-02
 0.1122759926625E-02 -0.6593251528304E-02  0.0000000000000E+00  0.2911967073473E-02
 0.1089091547635E-02 -0.6525812621557E-02  0.0000000000000E+00  0.2985399313835E-02
 0.1067153504027E-02 -0.6435446277124E-02  0.0000000000000E+00  0.2991575545857E-02
 0.1064380833488E-02 -0.6319153223356E-02  0.0000000000000E+00  0.2906538288546E-02
 0.1092462934420E-02 -0.6175439467707E-02  0.0000000000000E+00  0.2700177869782E-02
 0.1170244882225E-02 -0.6006413778001E-02  0.0000000000000E+00  0.2335895929521E-02
 0.1328271964636E-02 -0.5821217090073E-02  0.0000000000000E+00  0.1772211278718E-02
 0.1615247746817E-02 -0.5641482716513E-02  0.0000000000000E+00  0.9699091706101E-03
 0.2104258060619E-02 -0.5508422623644E-02  0.0000000000000E+00 -0.8746969162671E-04
 0.2891468514162E-02 -0.5485774762798E-02  0.0000000000000E+00 -0.1352469772696E-02
 0.4073801422675E-02 -0.5646610621009E-02  0.0000000000000E+00 -0.2656912612926E-02
 0.5692694484885E-02 -0.6031959954271E-02  0.0000000000000E+00 -0.3675245202518E-02
 0.7656329566574E-02 -0.6589691873260E-02  0.0000000000000E+00 -0.3981648630107E-02
 0.9704313796181E-02 -0.7145803544915E-02  0.0000000000000E+00 -0.3251900957391E-02
 0.1220501723463E-03 -0.5934599530494E-02  0.0000000000000E+00 -0.1545903007998E-02
 0.3693119324747E-03 -0.6082019534496E-02  0.0000000000000E+00 -0.1496766035571E-02
 0.6110366474733E-03 -0.6217617820801E-02  0.0000000000000E+00 -0.1368122599467E-02
 0.8269938621274E-03 -0.6328748775814E-02  0.0000000000000E+00 -0.1175015619418E-02
 0.1005581113152E-02 -0.6410219786268E-02  0.0000000000000E+00 -0.9456905925884E-03
 0.1144896861629E-02 -0.6464226178758E-02  0.0000000000000E+00 -0.7073887699914E-03
 0.1249260554960E-02 -0.6496931654394E-02  0.0000000000000E+00 -0.4786397160970E-03
 0.1325289450519E-02 -0.6515165428666E-02  0.0000000000000E+00 -0.2685405389661E-03
 0.1379439010190E-02 -0.6524649180932E-02  0.0000000000000E+00 -0.7933512872749E-04
 0.1417007851569E-02 -0.6529525820957E-02  0.0000000000000E+00  0.9067158136308E-04
 0.1441993242884E-02 -0.6532535355903E-02  0.0000000000000E+00  0.2450185185245E-03
 0.1457284248664E-02 -0.6535370480917E-02  0.0000000000000E+00  0.3878698013770E-03
 0.1464923485683E-02 -0.6539002711960E-02  0.0000000000000E+00  0.5233950114696E-03
 0.1466335311182E-02 -0.6543921638768E-02  0.0000000000000E+00  0.6554855318069E-03
 0.1462496584015E-02 -0.6550289560090E-02  0.0000000000000E+00  0.7876361758660E-03
 0.1454054232850E-02 -0.6558028703492E-02  0.0000000000000E+00  0.9228950706640E-03
 0.1441401157253E-02 -0.6566857762568E-02  0.0000000000000E+00  0.1063827325645E-02
 0.1424724042087E-02 -0.6576290868526E-02  0.0000000000000E+00  0.1212454090480E-02
 0.1404037128165E-02 -0.6585611565939E-02  0.0000000000000E+00  0.1370150463801E-02
 0.1379221870046E-02 -0.6593835948641E-02  0.0000000000000E+00  0.1537479181607E-02
 0.1350096172837E-02 -0.6599683657079E-02  0.0000000000000E+00  0.1713958189160E-02
 0.1316533048665E-02 -0.6601576829490E-02  0.0000000000000E+00  0.1897804373556E-02
 0.1278631787563E-02 -0.6597673035849E-02  0.0000000000000E+00  0.2085705798468E-02
 0.1236920850504E-02 -0.6585937251392E-02  0.0000000000000E+00  0.2272686544172E-02
 0.1192581704395E-02 -0.6564326984466E-02  0.0000000000000E+00  0.2452077797463E-02
 0.1147560202703E-02 -0.6530905600751E-02  0.0000000000000E+00  0.2615536547371E-02
 0.1104528887540E-02 -0.6483710341615E-02  0.0000000000000E+00  0.2752904784209E-02
 0.1066908891060E-02 -0.6420594164068E-02  0.0000000000000E+00  0.2851758426560E-02
 0.1039129855875E-02 -0.6339230018815E-02  0.0000000000000E+00  0.2896681708172E-02
 0.1027258970258E-02 -0.6237403097276E-02  0.0000000000000E+00  0.2868410020508E-02
 0.1040124234268E-02 -0.6113707047754E-02  0.0000000000000E+00  0.2743036898017E-02
 0.1091110466269E-02 -0.5968819845214E-02  0.0000000000000E+00  0.2491595929081E-02
 0.1200884785691E-02 -0.5807656529840E-02  0.0000000000000E+00  0.2080736169414E-02
 0.1401305480495E-02 -0.5642574448718E-02  0.0000000000000E+00  0.1475925356020E-02
 0.1740231730642E-02 -0.5497807554854E-02  0.0000000000000E+00  0.6504324710268E-03
 0.2284566308700E-02 -0.5413990806120E-02  0.0000000000000E+00 -0.3940800155431E-03
 0.3114980494831E-02 -0.5447278044397E-02  0.0000000000000E+00 -0.1592285297365E-02
 0.4302637530113E-02 -0.5654069636798E-02  0.0000000000000E+00 -0.2774449196587E-02
 0.5861987071895E-02 -0.6055368304297E-02  0.0000000000000E+00 -0.3651679179436E-02
 0.7695202131649E-02 -0.6592419294671E-02  0.0000000000000E+00 -0.3876834614856E-02
 0.9578489177710E-02 -0.7114813857326E-02  0.0000000000000E+00 -0.3201657868769E-02
 0.1164027734322E-03 -0.5917544977318E-02  0.0000000000000E+00 -0.1458560664545E-02
 0.3517832980821E-03 -0.6058789684288E-02  0.0000000000000E+00 -0.1414345524563E-02
 0.5824731723409E-03 -0.6190111963880E-02  0.0000000000000E+00 -0.1299508598570E-02
 0.7912283984307E-03 -0.6300509839551E-02  0.0000000000000E+00 -0.1125413895675E-02
 0.9672411959084E-03 -0.6384649162223E-02  0.0000000000000E+00 -0.9149998685397E-03
 0.1107600747958E-02 -0.6443336715527E-02  0.0000000000000E+00 -0.6918330880179E-03
 0.1215011168035E-02 -0.6481160171150E-02  0.0000000000000E+00 -0.4732416539747E-03
 0.1294712210181E-02 -0.6503819319981E-02  0.0000000000000E+00 -0.2688024990778E-03
 0.1352281648446E-02 -0.6516453180808E-02  0.0000000000000E+00 -0.8188317933863E-04
 0.1392569482320E-02 -0.6523011975915E-02  0.0000000000000E+00  0.8808821613772E-04
 0.1419397672688E-02 -0.6526248741679E-02  0.0000000000000E+00  0.2437701649957E-03
 0.1435625593903E-02 -0.6527948313667E-02  0.0000000000000E+00  0.3887103497645E-03
 0.1443333151442E-02 -0.6529185717256E-02  0.0000000000000E+00  0.5266686845739E-03
 0.1444007658135E-02 -0.6530535473078E-02  0.0000000000000E+00  0.6612652639737E-03
 0.1438695912658E-02 -0.6532216414782E-02  0.0000000000000E+00  0.7958039565635E-03
 0.1428115863574E-02 -0.6534179048597E-02  0.0000000000000E+00  0.9331773479561E-03
 0.1412734116466E-02 -0.6536147440057E-02  0.0000000000000E+00  0.1075796066217E-02
 0.1392820590971E-02 -0.6537627430511E-02  0.0000000000000E+00  0.1225501723850E-02
 0.1368492998040E-02 -0.6537893207087E-02  0.0000000000000E+00  0.1383447052871E-02
 0.1339769545626E-02 -0.6535966461200E-02  0.0000000000000E+00  0.1549922679554E-02
 0.1306649811988E-02 -0.6530604799634E-02  0.0000000000000E+00  0.1724131742077E-02
 0.1269237931358E-02 -0.6520314711542E-02  0.0000000000000E+00  0.1903952419012E-02
 0.1227908089590E-02 -0.6503392203853E-02  0.0000000000000E+00  0.2085728213644E-02
 0.1183495713541E-02 -0.6477996887479E-02  0.0000000000000E+00  0.2264134564179E-02
 0.1137513370735E-02 -0.6442334352388E-02  0.0000000000000E+00  0.2432139024596E-02
 0.1092277454643E-02 -0.6394780902027E-02  0.0000000000000E+00  0.2580992862362E-02
 0.1050916648005E-02 -0.6333795063251E-02  0.0000000000000E+00  0.2700066723796E-02
 0.1017452564627E-02 -0.6257823978392E-02  0.0000000000000E+00  0.2776436445273E-02
 0.9971111255249E-03 -0.6165380251455E-02  0.0000000000000E+00  0.2794275927005E-02
 0.9969836786721E-03 -0.6055410500687E-02  0.0000000000000E+00  0.2734212126824E-02
 0.1027149057424E-02 -0.5928068815319E-02  0.0000000000000E+00  0.2572879774692E-02
 0.1102389065277E-02 -0.5786043874166E-02  0.0000000000000E+00  0.2283077220377E-02
 0.1244625842223E-02 -0.5636637130744E-02  0.0000000000000E+00  0.1835344636068E-02
 0.1486085165388E-02 -0.5494568307029E-02  0.0000000000000E+00  0.1202369419975E-02
 0.1872530187234E-02 -0.5385294731587E-02  0.0000000000000E+00  0.3689087650197E-03
 0.2463761514892E-02 -0.5347338771824E-02  0.0000000000000E+00 -0.6487936195372E-03
 0.3325901756466E-02 -0.5428811386333E-02  0.0000000000000E+00 -0.1774070995497E-02
 0.4508999916911E-02 -0.5671845682934E-02  0.0000000000000E+00 -0.2842242903048E-02
 0.6008406158500E-02 -0.6082900105456E-02  0.0000000000000E+00 -0.3600347745859E-02
 0.7725216639652E-02 -0.6600666768492E-02  0.0000000000000E+00 -0.3765707023187E-02
 0.9465715861826E-02 -0.7094126188033E-02  0.0000000000000E+00 -0.3143861807692E-02
 0.1113679940478E-03 -0.5902686016176E-02  0.0000000000000E+00 -0.1374801045990E-02
 0.3361720956568E-03 -0.6038306191827E-02  0.0000000000000E+00 -0.1334720169966E-02
 0.5568648064555E-03 -0.6165461792113E-02  0.0000000000000E+00 -0.1231558556987E-02
 0.7586596145081E-03 -0.6274551206953E-02  0.0000000000000E+00 -0.1074010151156E-02
 0.9315980838380E-03 -0.6360305690192E-02  0.0000000000000E+00 -0.8807845271121E-03
 0.1072140866177E-02 -0.6422536861247E-02  0.0000000000000E+00 -0.6721837844022E-03
 0.1181730690906E-02 -0.6464545374938E-02  0.0000000000000E+00 -0.4641474687256E-03
 0.1264413018557E-02 -0.6491002564877E-02  0.0000000000000E+00 -0.2663340628201E-03
 0.1324927156806E-02 -0.6506437448501E-02  0.0000000000000E+00 -0.8289545292103E-04
 0.1367642708043E-02 -0.6514533280751E-02  0.0000000000000E+00  0.8581890038190E-04
 0.1396156548687E-02 -0.6517983625956E-02  0.0000000000000E+00  0.2416755382601E-03
 0.1413254667797E-02 -0.6518611722722E-02  0.0000000000000E+00  0.3876268738693E-03
 0.1421023154694E-02 -0.6517562101669E-02  0.0000000000000E+00  0.5270116999477E-03
 0.1420993198233E-02 -0.6515476044266E-02  0.0000000000000E+00  0.6631547275010E-03
 0.1414272175884E-02 -0.6512622558613E-02  0.0000000000000E+00  0.7991422978319E-03
 0.1401647273842E-02 -0.6508983028901E-02  0.0000000000000E+00  0.9376874633807E-03
 0.1383662998118E-02 -0.6504296770696E-02  0.0000000000000E+00  0.1081028020416E-02
 0.1360681352486E-02 -0.6498077511167E-02  0.0000000000000E+00  0.1230816067154E-02
 0.1332935500522E-02 -0.6489611634182E-02  0.0000000000000E+00  0.1387983269814E-02
 0.1300593411986E-02 -0.6477951884175E-02  0.0000000000000E+00  0.1552563201568E-02
 0.1263847951730E-02 -0.6461921059269E-02  0.0000000000000E+00  0.1723473465859E-02
 0.1223043169096E-02 -0.6440137115065E-02  0.0000000000000E+00  0.1898294308040E-02
 0.1178835284420E-02 -0.6411061332960E-02  0.0000000000000E+00  0.2073073025741E-02
 0.1132375759240E-02 -0.6373076442643E-02  0.0000000000000E+00  0.2242192081030E-02
 0.1085522238939E-02 -0.6324668545695E-02  0.0000000000000E+00  0.2398324016308E-02
 0.1040979220405E-02 -0.6264563827010E-02  0.0000000000000E+00  0.2532408129326E-02
 0.1002345559038E-02 -0.6191680948018E-02  0.0000000000000E+00  0.2633478576324E-02
 0.9742422820657E-03 -0.6105095803533E-02  0.0000000000000E+00  0.2688300401994E-02
 0.9626603841968E-03 -0.6004180635588E-02  0.0000000000000E+00  0.2680892620663E-02
 0.9756320238301E-03 -0.5889030054730E-02  0.0000000000000E+00  0.2592108031477E-02
 0.1024314065794E-02 -0.5761274694657E-02  0.0000000000000E+00  0.2399541180482E-02
 0.1124562450672E-02 -0.5625391992374E-02  0.0000000000000E+00  0.2078221603707E-02
 0.1299006382210E-02 -0.5490608843677E-02  0.0000000000000E+00  0.1602936177048E-02
 0.1579434096419E-02 -0.5373206740798E-02  0.0000000000000E+00  0.9534338453961E-03
 0.2008623590404E-02 -0.5298760266376E-02  0.0000000000000E+00  0.1245632831512E-03
 0.2638936347787E-02 -0.5302706956658E-02  0.0000000000000E+00 -0.8562579479131E-03
 0.3523334866242E-02 -0.5425283113599E-02  0.0000000000000E+00 -0.1906190751309E-02
 0.4694891381528E-02 -0.5696743324448E-02  0.0000000000000E+00 -0.2869639026158E-02
 0.6135836950837E-02 -0.6113286414349E-02  0.0000000000000E+00 -0.3527063012219E-02
 0.7749103582955E-02 -0.6613754206273E-02  0.0000000000000E+00 -0.3649028197568E-02
 0.9363993831532E-02 -0.7082079655917E-02  0.0000000000000E+00 -0.3079871944429E-02
 0.1068461346901E-03 -0.5889644213346E-02  0.0000000000000E+00 -0.1294303479313E-02
 0.3221749727159E-03 -0.6020125041727E-02  0.0000000000000E+00 -0.1257758858489E-02
 0.5337941625019E-03 -0.6143272677610E-02  0.0000000000000E+00 -0.1164589579153E-02
 0.7289397522782E-03 -0.6250669729469E-02  0.0000000000000E+00 -0.1021536921996E-02
 0.8984920085381E-03 -0.6337230729030E-02  0.0000000000000E+00 -0.8439375988376E-03
 0.1038550563267E-02 -0.6402064016963E-02  0.0000000000000E+00 -0.6492412663010E-03
 0.1149585200189E-02 -0.6447431096048E-02  0.0000000000000E+00 -0.4519372374032E-03
 0.1234622820026E-02 -0.6477089106961E-02  0.0000000000000E+00 -0.2614840118980E-03
 0.1297624038868E-02 -0.6494962097976E-02  0.0000000000000E+00 -0.8253664187928E-04
 0.1342469448746E-02 -0.6504419629739E-02  0.0000000000000E+00  0.8382465490021E-04
 0.1372497081704E-02 -0.6508039703732E-02  0.0000000000000E+00  0.2387734424171E-03
 0.1390384521864E-02 -0.6507637860441E-02  0.0000000000000E+00  0.3847033722689E-03
 0.1398196796931E-02 -0.6504396762049E-02  0.0000000000000E+00  0.5245342083387E-03
 0.1397491131523E-02 -0.6499006527598E-02  0.0000000000000E+00  0.6612816153181E-03
 0.1389426038448E-02 -0.6491779219441E-02  0.0000000000000E+00  0.7977957235251E-03
 0.1374855363059E-02 -0.6482728498482E-02  0.0000000000000E+00  0.9365923654042E-03
 0.1354404381290E-02 -0.6471617262734E-02  0.0000000000000E+00  0.1079723611968E-02
 0.1328534148739E-02 -0.6457981252837E-02  0.0000000000000E+00  0.1228647008357E-02
 0.1297602787331E-02 -0.6441137837563E-02  0.0000000000000E+00  0.1384078700394E-02
 0.1261938124039E-02 -0.6420192733411E-02  0.0000000000000E+00  0.1545813275726E-02
 0.1221935016488E-02 -0.6394057118985E-02  0.0000000000000E+00  0.1712513480032E-02
 0.1178183779932E-02 -0.6361483459450E-02  0.0000000000000E+00  0.1881502715275E-02
 0.1131627708008E-02 -0.6321121197300E-02  0.0000000000000E+00  0.2048581109332E-02
 0.1083740587768E-02 -0.6271600292698E-02  0.0000000000000E+00  0.2207896050688E-02
 0.1036734361768E-02 -0.6211714057643E-02  0.0000000000000E+00  0.2351897075200E-02
 0.9937117303946E-03 -0.6140567471961E-02  0.0000000000000E+00  0.2471307795910E-02
 0.9587455615956E-03 -0.6057566885631E-02  0.0000000000000E+00  0.2554959852863E-02
 0.9370423417324E-03 -0.5962435629173E-02  0.0000000000000E+00  0.2589489727707E-02
 0.9353109373675E-03 -0.5855403102049E-02  0.0000000000000E+00  0.2558998781115E-02
 0.9624219343084E-03 -0.5737667478438E-02  0.0000000000000E+00  0.2444859680427E-02
 0.1030419346769E-02 -0.5612213464554E-02  0.0000000000000E+00  0.2225962652288E-02
 0.1155908196076E-02 -0.5485049646707E-02  0.0000000000000E+00  0.1879880087628E-02
 0.1361725752738E-02 -0.5366866093199E-02  0.0000000000000E+00  0.1385751778247E-02
 0.1678576974787E-02 -0.5274801081448E-02  0.0000000000000E+00  0.7299218210996E-03
 0.2145684651124E-02 -0.5233709878227E-02  0.0000000000000E+00 -0.8424922379319E-04
 0.2808049618920E-02 -0.5275410567449E-02  0.0000000000000E+00 -0.1021232878595E-02
 0.3707046137057E-02 -0.5432807053856E-02  0.0000000000000E+00 -0.1995948634375E-02
 0.4862293178009E-02 -0.5726441583690E-02  0.0000000000000E+00 -0.2864104784625E-02
 0.6247339536103E-02 -0.6145465905706E-02  0.0000000000000E+00 -0.3436113457432E-02
 0.7769069491827E-02 -0.6630915379300E-02  0.0000000000000E+00 -0.3526770260930E-02
 0.9271444757758E-02 -0.7077014240611E-02  0.0000000000000E+00 -0.3011316932812E-02
 0.1027601321223E-03 -0.5878120394199E-02  0.0000000000000E+00 -0.1216788697152E-02
 0.3095538713518E-03 -0.6003891978539E-02  0.0000000000000E+00 -0.1183320498472E-02
 0.5129220911641E-03 -0.6123217488936E-02  0.0000000000000E+00 -0.1098805466765E-02
 0.7017672792797E-03 -0.6228676947194E-02  0.0000000000000E+00 -0.9685450823592E-03
 0.8677617317540E-03 -0.6315428766743E-02  0.0000000000000E+00 -0.8051799082854E-03
 0.1006828645394E-02 -0.6382092477557E-02  0.0000000000000E+00 -0.6236935135591E-03
 0.1118695845394E-02 -0.6430097645689E-02  0.0000000000000E+00 -0.4371433076527E-03
 0.1205532515582E-02 -0.6462402777074E-02  0.0000000000000E+00 -0.2545977485841E-03
 0.1270591186280E-02 -0.6482353235865E-02  0.0000000000000E+00 -0.8098920494960E-04
 0.1317272046007E-02 -0.6492980149758E-02  0.0000000000000E+00  0.8204374637742E-04
 0.1348634380783E-02 -0.6496704947348E-02  0.0000000000000E+00  0.2350835467346E-03
 0.1367220858467E-02 -0.6495297513943E-02  0.0000000000000E+00  0.3800119675678E-03
 0.1375052536622E-02 -0.6489950795005E-02  0.0000000000000E+00  0.5193427732792E-03
 0.1373696587833E-02 -0.6481386806096E-02  0.0000000000000E+00  0.6557781586025E-03
 0.1364353498872E-02 -0.6469953244551E-02  0.0000000000000E+00  0.7919207432643E-03
 0.1347940603990E-02 -0.6455696464021E-02  0.0000000000000E+00  0.9300774669889E-03
 0.1325165592326E-02 -0.6438409785363E-02  0.0000000000000E+00  0.1072106905654E-02
 0.1296593735790E-02 -0.6417663036526E-02  0.0000000000000E+00  0.1219271445085E-02
 0.1262715290455E-02 -0.6392820645949E-02  0.0000000000000E+00  0.1372080843040E-02
 0.1224025373749E-02 -0.6363059878681E-02  0.0000000000000E+00  0.1530111155245E-02
 0.1181126908288E-02 -0.6327399754007E-02  0.0000000000000E+00  0.1691802000041E-02
 0.1134860503924E-02 -0.6284746479398E-02  0.0000000000000E+00  0.1854261293521E-02
 0.1086459337229E-02 -0.6233956648648E-02  0.0000000000000E+00  0.2013091599859E-02
 0.1037722808361E-02 -0.6173927039518E-02  0.0000000000000E+00  0.2162264659184E-02
 0.9912216041421E-03 -0.6103778934815E-02  0.0000000000000E+00  0.2294080822807E-02
 0.9504596735390E-03 -0.6023016915704E-02  0.0000000000000E+00  0.2399144465026E-02
 0.9199784696035E-03 -0.5931551548444E-02  0.0000000000000E+00  0.2466214526655E-02
 0.9055448092030E-03 -0.5829757465797E-02  0.0000000000000E+00  0.2481969468048E-02
 0.9145255462406E-03 -0.5718699131688E-02  0.0000000000000E+00  0.2430805693842E-02
 0.9565147380413E-03 -0.5600609309105E-02  0.0000000000000E+00  0.2294862403224E-02
 0.1044246211686E-02 -0.5479678473618E-02  0.0000000000000E+00  0.2054575101634E-02
 0.1194764316286E-02 -0.5363174677224E-02  0.0000000000000E+00  0.1690227553393E-02
 0.1430682772867E-02 -0.5262816124655E-02  0.0000000000000E+00  0.1185217947874E-02
 0.1781135831569E-02 -0.5196008490909E-02  0.0000000000000E+00  0.5318186734821E-03
 0.2281485922842E-02 -0.5186293362352E-02  0.0000000000000E+00 -0.2596998248719E-03
 0.2969722909102E-02 -0.5261660381132E-02  0.0000000000000E+00 -0.1148338026560E-02
 0.3877229994982E-02 -0.5448399438381E-02  0.0000000000000E+00 -0.2049614874240E-02
 0.5013096911172E-02 -0.5759281767379E-02  0.0000000000000E+00 -0.2831651760680E-02
 0.6345233344912E-02 -0.6178468279216E-02  0.0000000000000E+00 -0.3330899135385E-02
 0.7787065096161E-02 -0.6651425893826E-02  0.0000000000000E+00 -0.3398518533371E-02
 0.9185576862941E-02 -0.7075778130697E-02  0.0000000000000E+00 -0.2940278865206E-02
 0.9904532817553E-04 -0.5867876826768E-02  0.0000000000000E+00 -0.1142013261318E-02
 0.2981188611571E-03 -0.5989324067994E-02  0.0000000000000E+00 -0.1111270898296E-02
 0.4939719219262E-03 -0.6105028369836E-02  0.0000000000000E+00 -0.1034343646610E-02
 0.6768856678651E-03 -0.6208407597642E-02  0.0000000000000E+00 -0.9154634308607E-03
 0.8392581949113E-03 -0.6294888266236E-02  0.0000000000000E+00 -0.7651070088651E-03
 0.9769606136964E-03 -0.6362756994482E-02  0.0000000000000E+00 -0.5961406858695E-03
 0.1089160855126E-02 -0.6412781518358E-02  0.0000000000000E+00 -0.4202571060812E-03
 0.1177312963111E-02 -0.6447231644046E-02  0.0000000000000E+00 -0.2460148988775E-03
 0.1244036021431E-02 -0.6468913436663E-02  0.0000000000000E+00 -0.7844781863761E-04
 0.1292270713275E-02 -0.6480511970160E-02  0.0000000000000E+00  0.8039777629541E-04
 0.1324789360967E-02 -0.6484264571514E-02  0.0000000000000E+00  0.2306124462959E-03
 0.1343981312501E-02 -0.6481865830232E-02  0.0000000000000E+00  0.3736191439349E-03
 0.1351805416061E-02 -0.6474495404786E-02  0.0000000000000E+00  0.5115471760036E-03
 0.1349824935789E-02 -0.6462892009805E-02  0.0000000000000E+00  0.6467889190420E-03
 0.1339273845709E-02 -0.6447431846064E-02  0.0000000000000E+00  0.7816951004887E-03
 0.1321129457657E-02 -0.6428193790274E-02  0.0000000000000E+00  0.9183579468331E-03
 0.1296182420062E-02 -0.6405007189773E-02  0.0000000000000E+00  0.1058439801481E-02
 0.1265105638150E-02 -0.6377486165783E-02  0.0000000000000E+00  0.1203011595295E-02
 0.1228526373102E-02 -0.6345055755640E-02  0.0000000000000E+00  0.1352389290425E-02
 0.1187111788910E-02 -0.6306980223751E-02  0.0000000000000E+00  0.1505953252653E-02
 0.1141676162824E-02 -0.6262402343059E-02  0.0000000000000E+00  0.1661953014668E-02
 0.1093311685853E-02 -0.6210397487876E-02  0.0000000000000E+00  0.1817323076774E-02
 0.1043541260096E-02 -0.6150044196862E-02  0.0000000000000E+00  0.1967518900793E-02
 0.9944892729716E-03 -0.6080520541565E-02  0.0000000000000E+00  0.2106397219199E-02
 0.9490839978790E-03 -0.6001289849502E-02  0.0000000000000E+00  0.2226183732916E-02
 0.9112260423539E-03 -0.5912268217300E-02  0.0000000000000E+00  0.2317458307023E-02
 0.8859105091254E-03 -0.5813875271034E-02  0.0000000000000E+00  0.2369030124505E-02
 0.8794286058920E-03 -0.5707125836436E-02  0.0000000000000E+00  0.2367774568082E-02
 0.8997342942955E-03 -0.5593878909993E-02  0.0000000000000E+00  0.2298565950448E-02
 0.9570218516810E-03 -0.5477312293531E-02  0.0000000000000E+00  0.2144503659033E-02
 0.1064519312960E-02 -0.5362656760578E-02  0.0000000000000E+00  0.1887729924529E-02
 0.1239427798215E-02 -0.5258168409956E-02  0.0000000000000E+00  0.1511276583306E-02
 0.1503782832366E-02 -0.5176202082679E-02  0.0000000000000E+00  0.1002543683493E-02
 0.1884812373597E-02 -0.5133961364804E-02  0.0000000000000E+00  0.3589412628307E-03
 0.2413928049683E-02 -0.5153289336382E-02  0.0000000000000E+00 -0.4038925283852E-03
 0.3122651816220E-02 -0.5258373789032E-02  0.0000000000000E+00 -0.1241674177701E-02
 0.4033883050638E-02 -0.5469699241370E-02  0.0000000000000E+00 -0.2072572245343E-02
 0.5148673458671E-02 -0.5793871722530E-02  0.0000000000000E+00 -0.2777080219014E-02
 0.6431369854271E-02 -0.6211866544130E-02  0.0000000000000E+00 -0.3215387374125E-02
 0.7802185364582E-02 -0.6672496644883E-02  0.0000000000000E+00 -0.3262227936512E-02
 0.9120702487911E-02 -0.7085220887469E-02  0.0000000000000E+00 -0.2880166903272E-02
 0.9566365944719E-04 -0.5858723516983E-02  0.0000000000000E+00 -0.1069756949043E-02
 0.2877246649453E-03 -0.5976192534606E-02  0.0000000000000E+00 -0.1041465535864E-02
 0.4767234384741E-03 -0.6088482030222E-02  0.0000000000000E+00 -0.9712676023707E-03
 0.6540778187871E-03 -0.6189712000431E-02  0.0000000000000E+00 -0.8625942405108E-03
 0.8128404180680E-03 -0.6275579584835E-02  0.0000000000000E+00 -0.7241776402931E-03
 0.9489116031043E-03 -0.6344150879519E-02  0.0000000000000E+00 -0.5670731191074E-03
 0.1061041757707E-02 -0.6395669680462E-02  0.0000000000000E+00 -0.4017016071502E-03
 0.1150093409432E-02 -0.6431817481873E-02  0.0000000000000E+00 -0.2360431666297E-03
 0.1218126076347E-02 -0.6454907107847E-02  0.0000000000000E+00 -0.7509905297855E-04
 0.1267649651211E-02 -0.6467282222872E-02  0.0000000000000E+00  0.7880494205591E-04
 0.1301150285467E-02 -0.6470979542523E-02  0.0000000000000E+00  0.2253605906425E-03
 0.1320852547618E-02 -0.6467596207678E-02  0.0000000000000E+00  0.3655877293040E-03
 0.1328639167308E-02 -0.6458279212431E-02  0.0000000000000E+00  0.5012587027423E-03
 0.1326057864825E-02 -0.6443770632258E-02  0.0000000000000E+00  0.6344661435691E-03
 0.1314368365410E-02 -0.6424468410595E-02  0.0000000000000E+00  0.7673103267191E-03
 0.1294604190627E-02 -0.6400483182225E-02  0.0000000000000E+00  0.9016679359338E-03
 0.1267638499004E-02 -0.6371684609983E-02  0.0000000000000E+00  0.1039006527288E-02
 0.1234253669392E-02 -0.6337739366546E-02  0.0000000000000E+00  0.1180212633968E-02
 0.1195216828041E-02 -0.6298144115591E-02  0.0000000000000E+00  0.1325423405410E-02
 0.1151369703231E-02 -0.6252262562489E-02  0.0000000000000E+00  0.1473847642999E-02
 0.1103738981925E-02 -0.6199373830603E-02  0.0000000000000E+00  0.1623578085602E-02
 0.1053667581259E-02 -0.6138734373504E-02  0.0000000000000E+00  0.1771417518812E-02
 0.1002965674807E-02 -0.6069655623134E-02  0.0000000000000E+00  0.1912724270070E-02
 0.9540790026069E-03 -0.5991606815249E-02  0.0000000000000E+00  0.2041300065669E-02
 0.9102880278010E-03 -0.5904401549917E-02  0.0000000000000E+00  0.2149368793618E-02
 0.8758798127076E-03 -0.5808371894108E-02  0.0000000000000E+00  0.2227575947441E-02
 0.8562815830657E-03 -0.5704442062294E-02  0.0000000000000E+00  0.2264893771463E-02
 0.8582663511828E-03 -0.5594244839193E-02  0.0000000000000E+00  0.2248530581152E-02
 0.8902993016958E-03 -0.5480380980071E-02  0.0000000000000E+00  0.2163989211591E-02
 0.9630518116935E-03 -0.5366872852353E-02  0.0000000000000E+00  0.1995471147531E-02
 0.1090062999227E-02 -0.5259822760120E-02  0.0000000000000E+00  0.1726909481313E-02
 0.1288445582720E-02 -0.5168220496765E-02  0.0000000000000E+00  0.1344019244807E-02
 0.1579380931937E-02 -0.5104722828636E-02  0.0000000000000E+00  0.8378441447229E-03
 0.1987982716558E-02 -0.5085976218426E-02  0.0000000000000E+00  0.2101063116499E-03
 0.2541776072733E-02 -0.5131905886228E-02  0.0000000000000E+00 -0.5195797352393E-03
 0.3266429916138E-02 -0.5263071420065E-02  0.0000000000000E+00 -0.1305403882304E-02
 0.4177767639303E-02 -0.5494955732049E-02  0.0000000000000E+00 -0.2069503525095E-02
 0.5270625726923E-02 -0.5829314241903E-02  0.0000000000000E+00 -0.2704544361488E-02
 0.6508022255718E-02 -0.6245301783378E-02  0.0000000000000E+00 -0.3090528557859E-02
 0.7813471495015E-02 -0.6693851473749E-02  0.0000000000000E+00 -0.3126301850439E-02
 0.9084342487631E-02 -0.7104027868824E-02  0.0000000000000E+00 -0.2794361499210E-02
 0.9257298958931E-04 -0.5850507754293E-02  0.0000000000000E+00 -0.9998205642311E-03
 0.2782482756730E-03 -0.5964311690585E-02  0.0000000000000E+00 -0.9737560519559E-03
 0.4609864074824E-03 -0.6073391519514E-02  0.0000000000000E+00 -0.9095894091755E-03
 0.6331473592096E-03 -0.6172455411096E-02  0.0000000000000E+00 -0.8101445141734E-03
 0.7883659546846E-03 -0.6257460978851E-02  0.0000000000000E+00 -0.6827406480047E-03
 0.9226235138419E-03 -0.6326334389529E-02  0.0000000000000E+00 -0.5368862942498E-03
 0.1034363167541E-02 -0.6378906296545E-02  0.0000000000000E+00 -0.3818349488912E-03
 0.1123961375198E-02 -0.6416359059881E-02  0.0000000000000E+00 -0.2249555695757E-03
 0.1192988158922E-02 -0.6440560499716E-02  0.0000000000000E+00 -0.7111739970707E-04
 0.1243555688929E-02 -0.6453525759312E-02  0.0000000000000E+00  0.7718164573571E-04
 0.1277871365489E-02 -0.6457083023985E-02  0.0000000000000E+00  0.2193195186544E-03
 0.1297989244158E-02 -0.6452716232342E-02  0.0000000000000E+00  0.3559686748420E-03
 0.1305705889542E-02 -0.6441524182246E-02  0.0000000000000E+00  0.4885757842858E-03
 0.1302543960297E-02 -0.6424240773534E-02  0.0000000000000E+00  0.6189486835156E-03
 0.1289781985598E-02 -0.6401279302339E-02  0.0000000000000E+00  0.7489433452159E-03
 0.1268505763607E-02 -0.6372780778095E-02  0.0000000000000E+00  0.8802241794839E-03
 0.1239669655184E-02 -0.6338658110525E-02  0.0000000000000E+00  0.1014068747375E-02
 0.1204165987243E-02 -0.6298636815976E-02  0.0000000000000E+00  0.1151188743187E-02
 0.1162902917766E-02 -0.6252293730258E-02  0.0000000000000E+00  0.1291559019692E-02
 0.1116897446902E-02 -0.6199101602407E-02  0.0000000000000E+00  0.1434241432740E-02
 0.1067387998669E-02 -0.6138485461187E-02  0.0000000000000E+00  0.1577204789669E-02
 0.1015965772751E-02 -0.6069891594840E-02  0.0000000000000E+00  0.1717160858560E-02
 0.9647241028340E-03 -0.5992871891060E-02  0.0000000000000E+00  0.1849419535549E-02
 0.9164243080371E-03 -0.5907192693654E-02  0.0000000000000E+00  0.1967785810471E-02
 0.8746907027359E-03 -0.5813021332739E-02  0.0000000000000E+00  0.2064551512713E-02
 0.8441828984039E-03 -0.5711104496783E-02  0.0000000000000E+00  0.2130511877942E-02
 0.8307347928615E-03 -0.5602859728897E-02  0.0000000000000E+00  0.2154903769346E-02
 0.8415556068797E-03 -0.5490508265765E-02  0.0000000000000E+00  0.2125385198464E-02
 0.8855457436831E-03 -0.5377333404300E-02  0.0000000000000E+00  0.2028207580258E-02
 0.9737369158337E-03 -0.5268099024630E-02  0.0000000000000E+00  0.1848770937185E-02
 0.1119815323830E-02 -0.5169617682631E-02  0.0000000000000E+00  0.1572821563409E-02
 0.1340601355449E-02 -0.5091386538074E-02  0.0000000000000E+00  0.1188622157112E-02
 0.1656218229664E-02 -0.5046090963366E-02  0.0000000000000E+00  0.6904503728364E-03
 0.2089558568933E-02 -0.5049566628624E-02  0.0000000000000E+00  0.8354134401711E-04
 0.2664419035803E-02 -0.5119724149663E-02  0.0000000000000E+00 -0.6097212027677E-03
 0.3401252474533E-02 -0.5273750607814E-02  0.0000000000000E+00 -0.1343362388686E-02
 0.4309980691201E-02 -0.5522858915641E-02  0.0000000000000E+00 -0.2044340398964E-02
 0.5380886702330E-02 -0.5865075413626E-02  0.0000000000000E+00 -0.2616879498289E-02
 0.6576102105650E-02 -0.6278372194211E-02  0.0000000000000E+00 -0.2958126128701E-02
 0.7826551895712E-02 -0.6717332953828E-02  0.0000000000000E+00 -0.2988494365935E-02
 0.9047634537483E-02 -0.7124705571654E-02  0.0000000000000E+00 -0.2691885516428E-02
 0.8974328684768E-04 -0.5843106810372E-02  0.0000000000000E+00 -0.9320242636680E-03
 0.2695931559435E-03 -0.5953532844653E-02  0.0000000000000E+00 -0.9080072097859E-03
 0.4466096397608E-03 -0.6059605877214E-02  0.0000000000000E+00 -0.8493038480255E-03
 0.6139351039552E-03 -0.6156527067063E-02  0.0000000000000E+00 -0.7582725021175E-03
 0.7657174891888E-03 -0.6240496823387E-02  0.0000000000000E+00 -0.6410810812089E-03
 0.8980493455746E-03 -0.6309358356028E-02  0.0000000000000E+00 -0.5059172058611E-03
 0.1009151194290E-02 -0.6362617558418E-02  0.0000000000000E+00 -0.3609738844179E-03
 0.1099002262203E-02 -0.6401035610986E-02  0.0000000000000E+00 -0.2130022897121E-03
 0.1168747868387E-02 -0.6426083291831E-02  0.0000000000000E+00 -0.6666828015006E-04
 0.1220137690521E-02 -0.6439465814856E-02  0.0000000000000E+00  0.7544596967723E-04
 0.1255112802554E-02 -0.6442801935898E-02  0.0000000000000E+00  0.2124803813355E-03
 0.1275555929897E-02 -0.6437452444246E-02  0.0000000000000E+00  0.3448139944606E-03
 0.1283171061789E-02 -0.6424456272635E-02  0.0000000000000E+00  0.4736013101330E-03
 0.1279448464477E-02 -0.6404529698766E-02  0.0000000000000E+00  0.6003841068231E-03
 0.1265679483416E-02 -0.6378095713664E-02  0.0000000000000E+00  0.7267842543171E-03
 0.1242998271530E-02 -0.6345324052525E-02  0.0000000000000E+00  0.8542608738340E-03
 0.1212438373698E-02 -0.6306172775321E-02  0.0000000000000E+00  0.9839094553006E-03
 0.1175001284561E-02 -0.6260430885598E-02  0.0000000000000E+00  0.1116278817585E-02
 0.1131735728170E-02 -0.6207761777459E-02  0.0000000000000E+00  0.1251199599609E-02
 0.1083832848207E-02 -0.6147754293312E-02  0.0000000000000E+00  0.1387612017447E-02
 0.1032740235350E-02 -0.6079986086164E-02  0.0000000000000E+00  0.1523393720228E-02
 0.9802929846581E-03 -0.6004098942608E-02  0.0000000000000E+00  0.1655205525807E-02
 0.9288613112996E-03 -0.5919889288753E-02  0.0000000000000E+00  0.1778356557998E-02
 0.8815136519060E-03 -0.5827422393697E-02  0.0000000000000E+00  0.1886711550858E-02
 0.8422064418686E-03 -0.5727217783948E-02  0.0000000000000E+00  0.1972696607213E-02
 0.8159539762735E-03 -0.5620429485848E-02  0.0000000000000E+00  0.2027334277017E-02
 0.8089674472344E-03 -0.5508950387461E-02  0.0000000000000E+00  0.2040215823977E-02
 0.8288440154260E-03 -0.5395553814423E-02  0.0000000000000E+00  0.1999546207854E-02
 0.8848439973030E-03 -0.5284140954349E-02  0.0000000000000E+00  0.1892415492182E-02
 0.9882503365064E-03 -0.5180113332294E-02  0.0000000000000E+00  0.1705475970004E-02
 0.1152752619162E-02 -0.5090842070846E-02  0.0000000000000E+00  0.1426254986830E-02
 0.1394715078546E-02 -0.5026133934496E-02  0.0000000000000E+00  0.1045371070109E-02
 0.1733063777442E-02 -0.4998485740063E-02  0.0000000000000E+00  0.5598950554233E-03
 0.2188446127029E-02 -0.5022753266933E-02  0.0000000000000E+00 -0.2218128816167E-04
 0.2781160776240E-02 -0.5114828948355E-02  0.0000000000000E+00 -0.6767393261912E-03
 0.3527064048767E-02 -0.5288829599231E-02  0.0000000000000E+00 -0.1358677998829E-02
 0.4431242683017E-02 -0.5552375583362E-02  0.0000000000000E+00 -0.2000273204386E-02
 0.5480548784771E-02 -0.5900635238404E-02  0.0000000000000E+00 -0.2516438275628E-02
 0.6637417115550E-02 -0.6311093611073E-02  0.0000000000000E+00 -0.2819717096894E-02
 0.7839633849362E-02 -0.6742731860684E-02  0.0000000000000E+00 -0.2845796610344E-02
 0.9013927924066E-02 -0.7146372221548E-02  0.0000000000000E+00 -0.2579189086773E-02
 0.8715047516922E-04 -0.5836421939503E-02  0.0000000000000E+00 -0.8662024197823E-03
 0.2616812928316E-03 -0.5943735697860E-02  0.0000000000000E+00 -0.8440879747193E-03
 0.4334689145173E-03 -0.6047001267680E-02  0.0000000000000E+00 -0.7903837878990E-03
 0.5963065447126E-03 -0.6141833040792E-02  0.0000000000000E+00 -0.7070864490097E-03
 0.7447912015222E-03 -0.6224653001027E-02  0.0000000000000E+00 -0.5994193560272E-03
 0.8751421494909E-03 -0.6293261036193E-02  0.0000000000000E+00 -0.4744408757503E-03
 0.9854216812323E-03 -0.6346908408482E-02  0.0000000000000E+00 -0.3393874354027E-03
 0.1075285907535E-02 -0.6386002360463E-02  0.0000000000000E+00 -0.2004031474316E-03
 0.1145514140277E-02 -0.6411662536817E-02  0.0000000000000E+00 -0.6190132264204E-04
 0.1197529176728E-02 -0.6425306270728E-02  0.0000000000000E+00  0.7352230365111E-04
 0.1233021618320E-02 -0.6428347323922E-02  0.0000000000000E+00  0.2048359974017E-03
 0.1253705970837E-02 -0.6422018275343E-02  0.0000000000000E+00  0.3321762902872E-03
 0.1261190402203E-02 -0.6407290031670E-02  0.0000000000000E+00  0.4564398371649E-03
 0.1256927491915E-02 -0.6384853843633E-02  0.0000000000000E+00  0.5789237334924E-03
 0.1242216383548E-02 -0.6355137548933E-02  0.0000000000000E+00  0.7010291277638E-03
 0.1218235753596E-02 -0.6318337807391E-02  0.0000000000000E+00  0.8240198925032E-03
 0.1186095714551E-02 -0.6274458826164E-02  0.0000000000000E+00  0.9488199624564E-03
 0.1146905030807E-02 -0.6223356225074E-02  0.0000000000000E+00  0.1075829182133E-02
 0.1101851051632E-02 -0.6164784339474E-02  0.0000000000000E+00  0.1204753224824E-02
 0.1052296260975E-02 -0.6098452777495E-02  0.0000000000000E+00  0.1334436332790E-02
 0.9998930879366E-03 -0.6024095875764E-02  0.0000000000000E+00  0.1462697408874E-02
 0.9467143041016E-03 -0.5941553655592E-02  0.0000000000000E+00  0.1586185457188E-02
 0.8953986905291E-03 -0.5850867862759E-02  0.0000000000000E+00  0.1700254997459E-02
 0.8493109078159E-03 -0.5752400654464E-02  0.0000000000000E+00  0.1798884539702E-02
 0.8127248975571E-03 -0.5647017708559E-02  0.0000000000000E+00  0.1874696554281E-02
 0.7909886766368E-03 -0.5536267985922E-02  0.0000000000000E+00  0.1919011143164E-02
 0.7906587369418E-03 -0.5422496329035E-02  0.0000000000000E+00  0.1921851497409E-02
 0.8196710812111E-03 -0.5308986964376E-02  0.0000000000000E+00  0.1872047599794E-02
 0.8875737341738E-03 -0.5200191838705E-02  0.0000000000000E+00  0.1757590341706E-02
 0.1005802117886E-02 -0.5102049298280E-02  0.0000000000000E+00  0.1566400866406E-02
 0.1187927699792E-02 -0.5022350959303E-02  0.0000000000000E+00  0.1287712300737E-02
 0.1449733551882E-02 -0.4971045972315E-02  0.0000000000000E+00  0.9142698180802E-03
 0.1808865832179E-02 -0.4960277455713E-02  0.0000000000000E+00  0.4454903771509E-03
 0.2283767008786E-02 -0.5003821951866E-02  0.0000000000000E+00 -0.1085714127774E-03
 0.2891508106460E-02 -0.5115615960476E-02  0.0000000000000E+00 -0.7229269029480E-03
 0.3643946080978E-02 -0.5307028500757E-02  0.0000000000000E+00 -0.1354126633078E-02
 0.4542217815100E-02 -0.5582689560360E-02  0.0000000000000E+00 -0.1939955453404E-02
 0.5570724480952E-02 -0.5935612006964E-02  0.0000000000000E+00 -0.2405237426245E-02
 0.6692855133301E-02 -0.6343459132305E-02  0.0000000000000E+00 -0.2675601622170E-02
 0.7852273048261E-02 -0.6769138787587E-02  0.0000000000000E+00 -0.2698087872003E-02
 0.8983564755463E-02 -0.7169087298087E-02  0.0000000000000E+00 -0.2458110648001E-02
 0.8477518560317E-04 -0.5830373661774E-02  0.0000000000000E+00 -0.8022010196840E-03
 0.2544494501381E-03 -0.5934822981850E-02  0.0000000000000E+00 -0.7818714007720E-03
 0.4214620221332E-03 -0.6035476311759E-02  0.0000000000000E+00 -0.7327858243410E-03
 0.5801482763942E-03 -0.6128294404062E-02  0.0000000000000E+00 -0.6566553168615E-03
 0.7254961078331E-03 -0.6209898378176E-02  0.0000000000000E+00 -0.5579227861993E-03
 0.8538569131957E-03 -0.6278071841788E-02  0.0000000000000E+00 -0.4426788911167E-03
 0.9631832819947E-03 -0.6331866828221E-02  0.0000000000000E+00 -0.3173009640723E-03
 0.1052869566229E-02 -0.6371394090894E-02  0.0000000000000E+00 -0.1873479247347E-03
 0.1123381440894E-02 -0.6397464966788E-02  0.0000000000000E+00 -0.5694853505442E-04
 0.1175849585438E-02 -0.6411232741795E-02  0.0000000000000E+00  0.7134385883363E-04
 0.1211732139787E-02 -0.6413914530104E-02  0.0000000000000E+00  0.1963831175935E-03
 0.1232581532145E-02 -0.6406613641874E-02  0.0000000000000E+00  0.3181103200855E-03
 0.1239909538510E-02 -0.6390227890063E-02  0.0000000000000E+00  0.4371983211941E-03
 0.1235127594391E-02 -0.6365418013125E-02  0.0000000000000E+00  0.5547225403416E-03
 0.1219538559775E-02 -0.6332612680351E-02  0.0000000000000E+00  0.6718791548712E-03
 0.1194361946601E-02 -0.6292033607416E-02  0.0000000000000E+00  0.7897492376324E-03
 0.1160781318669E-02 -0.6243731350885E-02  0.0000000000000E+00  0.9090977447020E-03
 0.1120009822612E-02 -0.6187629894283E-02  0.0000000000000E+00  0.1030190933949E-02
 0.1073370164356E-02 -0.6123577048740E-02  0.0000000000000E+00  0.1152629546844E-02
 0.1022391840933E-02 -0.6051405654074E-02  0.0000000000000E+00  0.1275187566454E-02
 0.9689261714123E-03 -0.5971008305238E-02  0.0000000000000E+00  0.1395656928885E-02
 0.9152756806617E-03 -0.5882423243871E-02  0.0000000000000E+00  0.1510712730678E-02
 0.8643375272714E-03 -0.5785935225904E-02  0.0000000000000E+00  0.1615799155260E-02
 0.8197595636853E-03 -0.5682197725371E-02  0.0000000000000E+00  0.1705059527596E-02
 0.7861162618102E-03 -0.5572412541555E-02  0.0000000000000E+00  0.1771369947490E-02
 0.7690661376180E-03 -0.5458506887442E-02  0.0000000000000E+00  0.1806410522194E-02
 0.7754775772646E-03 -0.5343250046332E-02  0.0000000000000E+00  0.1800701656986E-02
 0.8135770958757E-03 -0.5230392994048E-02  0.0000000000000E+00  0.1743758259283E-02
 0.8931332209673E-03 -0.5124871329997E-02  0.0000000000000E+00  0.1624509219075E-02
 0.1025647225782E-02 -0.5033065371875E-02  0.0000000000000E+00  0.1432130076090E-02
 0.1224473695781E-02 -0.4963065217265E-02  0.0000000000000E+00  0.1157452224362E-02
 0.1504725481656E-02 -0.4924825658375E-02  0.0000000000000E+00  0.7950970616660E-03
 0.1882733579206E-02 -0.4930017315688E-02  0.0000000000000E+00  0.3463922819806E-03
 0.2374822690797E-02 -0.4991293761024E-02  0.0000000000000E+00 -0.1771647773803E-03
 0.2995128348298E-02 -0.5120742329294E-02  0.0000000000000E+00 -0.7504268023096E-03
 0.3752057164331E-02 -0.5327307028820E-02  0.0000000000000E+00 -0.1332148972607E-02
 0.4643552790377E-02 -0.5613149282841E-02  0.0000000000000E+00 -0.1865647799839E-02
 0.5652328035610E-02 -0.5969721907855E-02  0.0000000000000E+00 -0.2284771923668E-02
 0.6743041983589E-02 -0.6375232574456E-02  0.0000000000000E+00 -0.2526144063230E-02
 0.7864255865027E-02 -0.6795921302062E-02  0.0000000000000E+00 -0.2545556010638E-02
 0.8956620865414E-02 -0.7192488875656E-02  0.0000000000000E+00 -0.2329929541387E-02
 0.8260178534596E-04 -0.5824898060996E-02  0.0000000000000E+00 -0.7398755137902E-03
 0.2478462429882E-03 -0.5926716138565E-02  0.0000000000000E+00 -0.7212343284560E-03
 0.4105047768358E-03 -0.6024948246810E-02  0.0000000000000E+00 -0.6764543724129E-03
 0.5653648790038E-03 -0.6115845381368E-02  0.0000000000000E+00 -0.6070170054542E-03
 0.7077531118369E-03 -0.6196205547163E-02  0.0000000000000E+00 -0.5167149987406E-03
 0.8341517122448E-03 -0.6263814015589E-02  0.0000000000000E+00 -0.4108069493615E-03
 0.9424397717317E-03 -0.6317567215008E-02  0.0000000000000E+00 -0.2949003900252E-03
 0.1031800362904E-02 -0.6357328155639E-02  0.0000000000000E+00 -0.1739974831774E-03
 0.1102431718030E-02 -0.6383639102253E-02  0.0000000000000E+00 -0.5192342420662E-04
 0.1155205508871E-02 -0.6397413707320E-02  0.0000000000000E+00  0.6885438175071E-04
 0.1191366588240E-02 -0.6399683529725E-02  0.0000000000000E+00  0.1871241346496E-03
 0.1212313698851E-02 -0.6391424747616E-02  0.0000000000000E+00  0.3026742426843E-03
 0.1219463854279E-02 -0.6373459671026E-02  0.0000000000000E+00  0.4159867097048E-03
 0.1214185500388E-02 -0.6346414790165E-02  0.0000000000000E+00  0.5279390655200E-03
 0.1197782004186E-02 -0.6310716405688E-02  0.0000000000000E+00  0.6395398918616E-03
 0.1171510197233E-02 -0.6266609411748E-02  0.0000000000000E+00  0.7517017035215E-03
 0.1136623561815E-02 -0.6214190221749E-02  0.0000000000000E+00  0.8650446020230E-03
 0.1094435867073E-02 -0.6153451676708E-02  0.0000000000000E+00  0.9797177014127E-03
 0.1046400716595E-02 -0.6084335900668E-02  0.0000000000000E+00  0.1095237270962E-02
 0.9942089117950E-03 -0.6006799391673E-02  0.0000000000000E+00  0.1210332500515E-02
 0.9399032295897E-03 -0.5920892268149E-02  0.0000000000000E+00  0.1322799242852E-02
 0.8860064600025E-03 -0.5826848415027E-02  0.0000000000000E+00  0.1429375078003E-02
 0.8356622652948E-03 -0.5725190433834E-02  0.0000000000000E+00  0.1525635863597E-02
 0.7927868312249E-03 -0.5616854361130E-02  0.0000000000000E+00  0.1605937365571E-02
 0.7622363388951E-03 -0.5503364649180E-02  0.0000000000000E+00  0.1663461361774E-02
 0.7499550974431E-03 -0.5387006628497E-02  0.0000000000000E+00  0.1690302494723E-02
 0.7630896366869E-03 -0.5270943584731E-02  0.0000000000000E+00  0.1677531863666E-02
 0.8101107427425E-03 -0.5159347762287E-02  0.0000000000000E+00  0.1615392542635E-02
 0.9009466368666E-03 -0.5057573355222E-02  0.0000000000000E+00  0.1493766947974E-02
 0.1047090920768E-02 -0.4972355840922E-02  0.0000000000000E+00  0.1303045749706E-02
 0.1261604762808E-02 -0.4911979011193E-02  0.0000000000000E+00  0.1035528755481E-02
 0.1558874020768E-02 -0.4886295552699E-02  0.0000000000000E+00  0.6874549394715E-03
 0.1953917937197E-02 -0.4906424785998E-02  0.0000000000000E+00  0.2616516088575E-03
 0.2461063948093E-02 -0.4983896583864E-02  0.0000000000000E+00 -0.2294847169837E-03
 0.3091809009658E-02 -0.5129084001005E-02  0.0000000000000E+00 -0.7612204357044E-03
 0.3851607076386E-02 -0.5348814427057E-02  0.0000000000000E+00 -0.1294896745670E-02
 0.4735843419160E-02 -0.5643233709890E-02  0.0000000000000E+00 -0.1779247405147E-02
 0.5726111401941E-02 -0.6002697870693E-02  0.0000000000000E+00 -0.2156242194370E-02
 0.6788448463224E-02 -0.6406130742515E-02  0.0000000000000E+00 -0.2371742819573E-02
 0.7875511789366E-02 -0.6822566401140E-02  0.0000000000000E+00 -0.2388559001986E-02
 0.8932967384974E-02 -0.7216182641947E-02  0.0000000000000E+00 -0.2195482203953E-02
 0.8061764037014E-04 -0.5819943837921E-02  0.0000000000000E+00 -0.6790890563816E-03
 0.2418298507910E-03 -0.5919351843815E-02  0.0000000000000E+00 -0.6620569830519E-03
 0.4005278073296E-03 -0.6015349736451E-02  0.0000000000000E+00 -0.6213246363055E-03
 0.5518762338128E-03 -0.6104431597739E-02  0.0000000000000E+00 -0.5581846898726E-03
 0.6914939317632E-03 -0.6183551076187E-02  0.0000000000000E+00 -0.4758835955618E-03
 0.8159883450106E-03 -0.6250506518785E-02  0.0000000000000E+00 -0.3789614381746E-03
 0.9231917549496E-03 -0.6304073011459E-02  0.0000000000000E+00 -0.2723363260579E-03
 0.1012117276870E-02 -0.6343906988822E-02  0.0000000000000E+00 -0.1604853875431E-03
 0.1082736096451E-02 -0.6370317132484E-02  0.0000000000000E+00 -0.4692082916334E-04
 0.1135691857019E-02 -0.6384001621169E-02  0.0000000000000E+00  0.6600920846463E-04
 0.1172035710603E-02 -0.6385819367847E-02  0.0000000000000E+00  0.1770683026090E-03
 0.1193022696939E-02 -0.6376624039527E-02  0.0000000000000E+00  0.2859305578228E-03
 0.1199978455988E-02 -0.6357162266056E-02  0.0000000000000E+00  0.3929183883426E-03
 0.1194227976057E-02 -0.6328024105682E-02  0.0000000000000E+00  0.4987352945573E-03
 0.1177072709488E-02 -0.6289631056381E-02  0.0000000000000E+00  0.6042206000838E-03
 0.1149803474357E-02 -0.6242249342076E-02  0.0000000000000E+00  0.7101337212710E-03
 0.1113739791278E-02 -0.6186020133256E-02  0.0000000000000E+00  0.8169650900900E-03
 0.1070291526008E-02 -0.6121004489887E-02  0.0000000000000E+00  0.9247637652914E-03
 0.1021037657631E-02 -0.6047238134841E-02  0.0000000000000E+00  0.1032982089234E-02
 0.9678233366891E-03 -0.5964799774931E-02  0.0000000000000E+00  0.1140329393226E-02
 0.9128740178906E-03 -0.5873894183802E-02  0.0000000000000E+00  0.1244635182464E-02
 0.8589218515537E-03 -0.5774945947754E-02  0.0000000000000E+00  0.1342734135927E-02
 0.8093436448623E-03 -0.5668707747340E-02  0.0000000000000E+00  0.1430373243319E-02
 0.7683075475205E-03 -0.5556386610557E-02  0.0000000000000E+00  0.1502164627174E-02
 0.7409312727360E-03 -0.5439813278911E-02  0.0000000000000E+00  0.1551642393524E-02
 0.7334194323381E-03 -0.5321608396370E-02  0.0000000000000E+00  0.1571362457692E-02
 0.7531635092187E-03 -0.5205296963803E-02  0.0000000000000E+00  0.1552989052653E-02
 0.8088354404869E-03 -0.5095427059210E-02  0.0000000000000E+00  0.1487521869947E-02
 0.9104696601244E-03 -0.4997710007922E-02  0.0000000000000E+00  0.1365794332083E-02
 0.1069491991311E-02 -0.4919158975609E-02  0.0000000000000E+00  0.1179354155125E-02
 0.1298614640117E-02 -0.4868164055388E-02  0.0000000000000E+00  0.9218260041161E-03
 0.1611467880317E-02 -0.4854394713528E-02  0.0000000000000E+00  0.5908097377369E-03
 0.2021793334523E-02 -0.4888373763353E-02  0.0000000000000E+00  0.1902532025858E-03
 0.2542063500258E-02 -0.4980538965797E-02  0.0000000000000E+00 -0.2670158912783E-03
 0.3181427810333E-02 -0.5139699135692E-02  0.0000000000000E+00 -0.7571305067069E-03
 0.3942831754051E-02 -0.5370852496348E-02  0.0000000000000E+00 -0.1244264031050E-02
 0.4819625678040E-02 -0.5672513720056E-02  0.0000000000000E+00 -0.1682360551847E-02
 0.5792695908848E-02 -0.6034287518325E-02  0.0000000000000E+00 -0.2020654068772E-02
 0.6829455215600E-02 -0.6435871691884E-02  0.0000000000000E+00 -0.2212824676540E-02
 0.7886027953851E-02 -0.6848657972139E-02  0.0000000000000E+00 -0.2227482778499E-02
 0.8912393064845E-02 -0.7239783763187E-02  0.0000000000000E+00 -0.2055382302354E-02
 0.7881252663600E-04 -0.5815469942570E-02  0.0000000000000E+00 -0.6197110671201E-03
 0.2363662044918E-03 -0.5912679195259E-02  0.0000000000000E+00 -0.6042225377291E-03
 0.3914739478004E-03 -0.6006626212305E-02  0.0000000000000E+00 -0.5673247730074E-03
 0.5396152127967E-03 -0.6094008462100E-02  0.0000000000000E+00 -0.5101517352535E-03
 0.6766599837253E-03 -0.6171915440151E-02  0.0000000000000E+00 -0.4354863937628E-03
 0.7993325938992E-03 -0.6238165328366E-02  0.0000000000000E+00 -0.3472451315857E-03
 0.9054378891475E-03 -0.6291438728717E-02  0.0000000000000E+00 -0.2497280119994E-03
 0.9938527166173E-03 -0.6331220167412E-02  0.0000000000000E+00 -0.1469198351421E-03
 0.1064356316673E-02 -0.6357616557020E-02  0.0000000000000E+00 -0.4201728983814E-04
 0.1117392913145E-02 -0.6371133958090E-02  0.0000000000000E+00  0.6277577509857E-04
 0.1153839408222E-02 -0.6372472643928E-02  0.0000000000000E+00  0.1662325203912E-03
 0.1174818171064E-02 -0.6362370267624E-02  0.0000000000000E+00  0.2679467520055E-03
 0.1181568222017E-02 -0.6341499434120E-02  0.0000000000000E+00  0.3681104665097E-03
 0.1175371772941E-02 -0.6310412930904E-02  0.0000000000000E+00  0.4672764977350E-03
 0.1157526631484E-02 -0.6269525716359E-02  0.0000000000000E+00  0.5661336297059E-03
 0.1129354447889E-02 -0.6219123543822E-02  0.0000000000000E+00  0.6653043319647E-03
 0.1092236610037E-02 -0.6159390709723E-02  0.0000000000000E+00  0.7651651578762E-03
 0.1047673883356E-02 -0.6090454835775E-02  0.0000000000000E+00  0.8656824603482E-03
 0.9973641548603E-03 -0.6012443119085E-02  0.0000000000000E+00  0.9662649657940E-03
 0.9432988506929E-03 -0.5925553309843E-02  0.0000000000000E+00  0.1065626283907E-02
 0.8878761098553E-03 -0.5830140012306E-02  0.0000000000000E+00  0.1161657925617E-02
 0.8340252741817E-03 -0.5726811411841E-02  0.0000000000000E+00  0.1251324279130E-02
 0.7853416574153E-03 -0.5616540161909E-02  0.0000000000000E+00  0.1330580141096E-02
 0.7462277993333E-03 -0.5500790262204E-02  0.0000000000000E+00  0.1394334014646E-02
 0.7220418602237E-03 -0.5381680006012E-02  0.0000000000000E+00  0.1436513573489E-02
 0.7192230849898E-03 -0.5262140592935E-02  0.0000000000000E+00  0.1450175304806E-02
 0.7453760138621E-03 -0.5146025534845E-02  0.0000000000000E+00  0.1427608992970E-02
 0.8093344909811E-03 -0.5038214460217E-02  0.0000000000000E+00  0.1360586690938E-02
 0.9211935281558E-03 -0.4944719058030E-02  0.0000000000000E+00  0.1240875883249E-02
 0.1092264267994E-02 -0.4872762714988E-02  0.0000000000000E+00  0.1061109968470E-02
 0.1334873675045E-02 -0.4830771269402E-02  0.0000000000000E+00  0.8160885061930E-03
 0.1661891884017E-02 -0.4828173630365E-02  0.0000000000000E+00  0.5045250705264E-03
 0.2085840706275E-02 -0.4874878479055E-02  0.0000000000000E+00  0.1311453717641E-03
 0.2617492918374E-02 -0.4980286391613E-02  0.0000000000000E+00 -0.2911886156449E-03
 0.3263928575725E-02 -0.5151798041469E-02  0.0000000000000E+00 -0.7398282670305E-03
 0.4025975714707E-02 -0.5392844609299E-02  0.0000000000000E+00 -0.1181921605059E-02
 0.4895375465073E-02 -0.5700629339316E-02  0.0000000000000E+00 -0.1576363722821E-02
 0.5852600725531E-02 -0.6064257063508E-02  0.0000000000000E+00 -0.1878876985818E-02
 0.6866380375628E-02 -0.6464196495462E-02  0.0000000000000E+00 -0.2049820003486E-02
 0.7895811273464E-02 -0.6873851028741E-02  0.0000000000000E+00 -0.2062696558961E-02
 0.8894646063865E-02 -0.7262933369975E-02  0.0000000000000E+00 -0.1910121080246E-02
 0.7717817061989E-04 -0.5811443657959E-02  0.0000000000000E+00 -0.5616160550521E-03
 0.2314275478089E-03 -0.5906657426618E-02  0.0000000000000E+00 -0.5476166931601E-03
 0.3832961217072E-03 -0.5998733659306E-02  0.0000000000000E+00 -0.5143774970902E-03
 0.5285257142348E-03 -0.6084539710869E-02  0.0000000000000E+00 -0.4628955568130E-03
 0.6632013034312E-03 -0.6161282763720E-02  0.0000000000000E+00 -0.3955565480079E-03
 0.7841542548880E-03 -0.6226804312651E-02  0.0000000000000E+00 -0.3157321262740E-03
 0.8891757611636E-03 -0.6279711501692E-02  0.0000000000000E+00 -0.2271670046281E-03
 0.9770337790498E-03 -0.6319346104797E-02  0.0000000000000E+00 -0.1333857624865E-03
 0.1047345968263E-02 -0.6345641616505E-02  0.0000000000000E+00 -0.3727181197477E-04
 0.1100383303927E-02 -0.6358934195726E-02  0.0000000000000E+00  0.5913369620843E-04
 0.1136867374049E-02 -0.6359780036314E-02  0.0000000000000E+00  0.1546417591841E-03
 0.1157799529714E-02 -0.6348808645554E-02  0.0000000000000E+00  0.2487957096184E-03
 0.1164337949634E-02 -0.6326621730874E-02  0.0000000000000E+00  0.3416839554875E-03
 0.1157723685317E-02 -0.6293735110344E-02  0.0000000000000E+00  0.4337310774972E-03
 0.1139249761450E-02 -0.6250556082417E-02  0.0000000000000E+00  0.5254939197326E-03
 0.1110265670792E-02 -0.6197388184356E-02  0.0000000000000E+00  0.6174743751031E-03
 0.1072210252010E-02 -0.6134456741342E-02  0.0000000000000E+00  0.7099510961729E-03
 0.1026669386986E-02 -0.6061953366991E-02  0.0000000000000E+00  0.8028249826571E-03
 0.9754525663584E-03 -0.5980093332550E-02  0.0000000000000E+00  0.8954809232578E-03
 0.9206884216342E-03 -0.5889188706762E-02  0.0000000000000E+00  0.9866598968968E-03
 0.8649367007473E-03 -0.5789737320272E-02  0.0000000000000E+00  0.1074342176778E-02
 0.8113106570606E-03 -0.5682521902134E-02  0.0000000000000E+00  0.1155652270291E-02
 0.7636083942217E-03 -0.5568722896914E-02  0.0000000000000E+00  0.1226786506288E-02
 0.7264483493756E-03 -0.5450045165046E-02  0.0000000000000E+00  0.1282985823882E-02
 0.7054075317392E-03 -0.5328873924351E-02  0.0000000000000E+00  0.1318607425956E-02
 0.7071344729338E-03 -0.5208424850033E-02  0.0000000000000E+00  0.1327240758579E-02
 0.7394167323449E-03 -0.5092846617187E-02  0.0000000000000E+00  0.1301824739307E-02
 0.8112151874898E-03 -0.4987308114270E-02  0.0000000000000E+00  0.1234908996002E-02
 0.9326478057413E-03 -0.4898070023758E-02  0.0000000000000E+00  0.1119167201823E-02
 0.1114876748241E-02 -0.4832508639714E-02  0.0000000000000E+00  0.9482387447892E-03
 0.1369824735060E-02 -0.4799030766861E-02  0.0000000000000E+00  0.7179476654414E-03
 0.1709617276008E-02 -0.4806788167139E-02  0.0000000000000E+00  0.4278889824315E-03
 0.2145631852284E-02 -0.4865079908470E-02  0.0000000000000E+00  0.8326165546535E-04
 0.2687102873495E-02 -0.4982340465217E-02  0.0000000000000E+00 -0.3033702336935E-03
 0.3339301926682E-02 -0.5164718091652E-02  0.0000000000000E+00 -0.7108445877139E-03
 0.4101280043510E-02 -0.5414311755620E-02  0.0000000000000E+00 -0.1109350023317E-02
 0.4963512142085E-02 -0.5727275550069E-02  0.0000000000000E+00 -0.1462451763404E-02
 0.5906263554978E-02 -0.6092394872721E-02  0.0000000000000E+00 -0.1731677390408E-02
 0.6899493035270E-02 -0.6490875277502E-02  0.0000000000000E+00 -0.1883146390333E-02
 0.7904869155779E-02 -0.6897853543141E-02  0.0000000000000E+00 -0.1894541636096E-02
 0.8879460926224E-02 -0.7285300968757E-02  0.0000000000000E+00 -0.1760128379557E-02
 0.7570788641151E-04 -0.5807839039772E-02  0.0000000000000E+00 -0.5046826524395E-03
 0.2269912869363E-03 -0.5901254039389E-02  0.0000000000000E+00 -0.4921272774189E-03
 0.3759556163464E-03 -0.5991636765622E-02  0.0000000000000E+00 -0.4624012642713E-03
 0.5185609921886E-03 -0.6075996108760E-02  0.0000000000000E+00 -0.4163806512547E-03
 0.6510755286413E-03 -0.6151640450222E-02  0.0000000000000E+00 -0.3561067465521E-03
 0.7704270031627E-03 -0.6216435790125E-02  0.0000000000000E+00 -0.2844720870136E-03
 0.8744024820555E-03 -0.6268932262365E-02  0.0000000000000E+00 -0.2047205699447E-03
 0.9616832265320E-03 -0.6308353416747E-02  0.0000000000000E+00 -0.1199470096590E-03
 0.1031751511912E-02 -0.6334484509082E-02  0.0000000000000E+00 -0.3272690460747E-04
 0.1084728848764E-02 -0.6347512698033E-02  0.0000000000000E+00  0.5507450121206E-04
 0.1121199685607E-02 -0.6347864816356E-02  0.0000000000000E+00  0.1423291781024E-03
 0.1142056297118E-02 -0.6336071054609E-02  0.0000000000000E+00  0.2285558910136E-03
 0.1148382535409E-02 -0.6312666506460E-02  0.0000000000000E+00  0.3137638054011E-03
 0.1141380649433E-02 -0.6278131268500E-02  0.0000000000000E+00  0.3982703625986E-03
 0.1122338236379E-02 -0.6232864390304E-02  0.0000000000000E+00  0.4825185237816E-03
 0.1092629786147E-02 -0.6177185499677E-02  0.0000000000000E+00  0.5669057737002E-03
 0.1053746962865E-02 -0.6111358443715E-02  0.0000000000000E+00  0.6516286475734E-03
 0.1007354470991E-02 -0.6035635444165E-02  0.0000000000000E+00  0.7365394185724E-03
 0.9553653640472E-03 -0.5950315300171E-02  0.0000000000000E+00  0.8210181073800E-03
 0.9000355271099E-03 -0.5855818267562E-02  0.0000000000000E+00  0.9038548783152E-03
 0.8440742874558E-03 -0.5752777194826E-02  0.0000000000000E+00  0.9831437349219E-03
 0.7907645679293E-03 -0.5642138553077E-02  0.0000000000000E+00  0.1056197353745E-02
 0.7440906584995E-03 -0.5525276579453E-02  0.0000000000000E+00  0.1119484264467E-02
 0.7088677397917E-03 -0.5404119130788E-02  0.0000000000000E+00  0.1168609941865E-02
 0.6908698937724E-03 -0.5281296268475E-02  0.0000000000000E+00  0.1198392050198E-02
 0.6969303127278E-03 -0.5160281279543E-02  0.0000000000000E+00  0.1202979120797E-02
 0.7349917925042E-03 -0.5045485124959E-02  0.0000000000000E+00  0.1175975233156E-02
 0.8141120026469E-03 -0.4942326248381E-02  0.0000000000000E+00  0.1110704445194E-02
 0.9444021362436E-03 -0.4857268712659E-02  0.0000000000000E+00  0.1000711076857E-02
 0.1136852794564E-02 -0.4797794312748E-02  0.0000000000000E+00  0.8405567851625E-03
 0.1402978632376E-02 -0.4772250446615E-02  0.0000000000000E+00  0.6269439512571E-03
 0.1754192477325E-02 -0.4789492882469E-02  0.0000000000000E+00  0.3601352420316E-03
 0.2200815677988E-02 -0.4858233001107E-02  0.0000000000000E+00  0.4553607872770E-04
 0.2750706833453E-02 -0.4986020803885E-02  0.0000000000000E+00 -0.3048618679901E-03
 0.3407570521478E-02 -0.5177903139451E-02  0.0000000000000E+00 -0.6715831737369E-03
 0.4168974921020E-02 -0.5434854446542E-02  0.0000000000000E+00 -0.1027869200576E-02
 0.5024403478756E-02 -0.5752193017324E-02  0.0000000000000E+00 -0.1341674148466E-02
 0.5954055552429E-02 -0.6118512930470E-02  0.0000000000000E+00 -0.1579739297961E-02
 0.6929020691640E-02 -0.6515706935242E-02  0.0000000000000E+00 -0.1713200084615E-02
 0.7913201753422E-02 -0.6920413899618E-02  0.0000000000000E+00 -0.1723334475504E-02
 0.8866574382814E-02 -0.7306584847383E-02  0.0000000000000E+00 -0.1605805524533E-02
 0.7439627779034E-04 -0.5804635640125E-02  0.0000000000000E+00 -0.4487928227744E-03
 0.2230390622750E-03 -0.5896443270994E-02  0.0000000000000E+00 -0.4376438891891E-03
 0.3694206688565E-03 -0.5985307378172E-02  0.0000000000000E+00 -0.4113111678600E-03
 0.5096822395567E-03 -0.6068354306044E-02  0.0000000000000E+00 -0.3705610172521E-03
 0.6402469644805E-03 -0.6142978758839E-02  0.0000000000000E+00 -0.3171326891091E-03
 0.7581281628430E-03 -0.6207070867635E-02  0.0000000000000E+00 -0.2534939236033E-03
 0.8611150799858E-03 -0.6259136622651E-02  0.0000000000000E+00 -0.1824347984121E-03
 0.9478202464739E-03 -0.6298302023251E-02  0.0000000000000E+00 -0.1066484924039E-03
 0.1017613131464E-02 -0.6324226424315E-02  0.0000000000000E+00 -0.2840981197572E-04
 0.1070487310178E-02 -0.6336967509580E-02  0.0000000000000E+00  0.5060110530955E-04
 0.1106907365235E-02 -0.6336837351071E-02  0.0000000000000E+00  0.1293359916678E-03
 0.1127668480779E-02 -0.6324276288950E-02  0.0000000000000E+00  0.2073113296629E-03
 0.1133787200193E-02 -0.6299757973981E-02  0.0000000000000E+00  0.2844788482907E-03
 0.1126429900289E-02 -0.6263728799375E-02  0.0000000000000E+00  0.3610683983094E-03
 0.1106878507994E-02 -0.6216579423903E-02  0.0000000000000E+00  0.4374262182418E-03
 0.1076529785701E-02 -0.6158643916092E-02  0.0000000000000E+00  0.5138609835441E-03
 0.1036923418403E-02 -0.6090221777713E-02  0.0000000000000E+00  0.5905023589430E-03
 0.9897961960962E-03 -0.6011621733011E-02  0.0000000000000E+00  0.6671700923314E-03
 0.9371560505240E-03 -0.5923220540481E-02  0.0000000000000E+00  0.7432572455391E-03
 0.8813753955198E-03 -0.5825539253607E-02  0.0000000000000E+00  0.8176235022961E-03
 0.8253002759544E-03 -0.5719336098198E-02  0.0000000000000E+00  0.8884996081678E-03
 0.7723682220196E-03 -0.5605708942428E-02  0.0000000000000E+00  0.9534119735749E-03
 0.7267323954467E-03 -0.5486210249039E-02  0.0000000000000E+00  0.1009128886599E-02
 0.6933851289080E-03 -0.5362971564326E-02  0.0000000000000E+00  0.1051648587502E-02
 0.6782758940484E-03 -0.5238844639187E-02  0.0000000000000E+00  0.1076275439257E-02
 0.6883989305080E-03 -0.5117533165772E-02  0.0000000000000E+00  0.1077737653969E-02
 0.7318269878067E-03 -0.5003678442505E-02  0.0000000000000E+00  0.1050314263951E-02
 0.8176889787609E-03 -0.4902911717942E-02  0.0000000000000E+00  0.9880943437217E-03
 0.9560671391306E-03 -0.4821860653683E-02  0.0000000000000E+00  0.8854526067656E-03
 0.1157768599176E-02 -0.4768074508489E-02  0.0000000000000E+00  0.7377888775666E-03
 0.1433909230298E-02 -0.4749813766689E-02  0.0000000000000E+00  0.5425456435770E-03
 0.1795234318994E-02 -0.4775634263727E-02  0.0000000000000E+00  0.3004600538944E-03
 0.2251106021397E-02 -0.4853695021033E-02  0.0000000000000E+00  0.1691353142563E-04
 0.2808167458451E-02 -0.4990749483069E-02  0.0000000000000E+00 -0.2968988804172E-03
 0.3468777617937E-02 -0.5190886760546E-02  0.0000000000000E+00 -0.6233345809434E-03
 0.4229274832728E-02 -0.5454138942235E-02  0.0000000000000E+00 -0.9386641078613E-03
 0.5078370348156E-02 -0.5775161368278E-02  0.0000000000000E+00 -0.1214962796876E-02
 0.5996291877775E-02 -0.6142446508150E-02  0.0000000000000E+00 -0.1423678912354E-02
 0.6955154322457E-02 -0.6538516537110E-02  0.0000000000000E+00 -0.1540354065938E-02
 0.7920800108249E-02 -0.6941312824762E-02  0.0000000000000E+00 -0.1549374054857E-02
 0.8855734980286E-02 -0.7326511799428E-02  0.0000000000000E+00 -0.1447543611577E-02
 0.7323900806241E-04 -0.5801817460851E-02  0.0000000000000E+00 -0.3938312095541E-03
 0.2195560039873E-03 -0.5892204835864E-02  0.0000000000000E+00 -0.3840575822772E-03
 0.3636653150721E-03 -0.5979723213898E-02  0.0000000000000E+00 -0.3610196221820E-03
 0.5018573984581E-03 -0.6061595842701E-02  0.0000000000000E+00 -0.3253821005963E-03
 0.6306857478273E-03 -0.6135290367178E-02  0.0000000000000E+00 -0.2786159812380E-03
 0.7472384297817E-03 -0.6198719622641E-02  0.0000000000000E+00 -0.2228089758319E-03
 0.8493107481402E-03 -0.6250355530854E-02  0.0000000000000E+00 -0.1603374454990E-03
 0.9354610373421E-03 -0.6289244029792E-02  0.0000000000000E+00 -0.9351833058678E-04
 0.1004965437779E-02 -0.6314938412255E-02  0.0000000000000E+00 -0.2433386805689E-04
 0.1057709046686E-02 -0.6327385057128E-02  0.0000000000000E+00  0.4572708074221E-04
 0.1094052894727E-02 -0.6326795577727E-02  0.0000000000000E+00  0.1157111357270E-03
 0.1114706933715E-02 -0.6313530319179E-02  0.0000000000000E+00  0.1851514730973E-03
 0.1120627733819E-02 -0.6288007323529E-02  0.0000000000000E+00  0.2539616526402E-03
 0.1112949159180E-02 -0.6250641912749E-02  0.0000000000000E+00  0.3223017222102E-03
 0.1092947542460E-02 -0.6201816580238E-02  0.0000000000000E+00  0.3904371690561E-03
 0.1062039290454E-02 -0.6141878217626E-02  0.0000000000000E+00  0.4586025706145E-03
 0.1021807149544E-02 -0.6071158797437E-02  0.0000000000000E+00  0.5268751279865E-03
 0.9740528756288E-03 -0.5990018805160E-02  0.0000000000000E+00  0.5950571707214E-03
 0.9208700354719E-03 -0.5898906486409E-02  0.0000000000000E+00  0.6625714230462E-03
 0.8647361757310E-03 -0.5798435189212E-02  0.0000000000000E+00  0.7283657543578E-03
 0.8086204803042E-03 -0.5689477612290E-02  0.0000000000000E+00  0.7908285634281E-03
 0.7560993367266E-03 -0.5573269328631E-02  0.0000000000000E+00  0.8477229803832E-03
 0.7114769098690E-03 -0.5451524124592E-02  0.0000000000000E+00  0.8961414877973E-03
 0.6799028418011E-03 -0.5326556765229E-02  0.0000000000000E+00  0.9324995926266E-03
 0.6674806102854E-03 -0.5201416785282E-02  0.0000000000000E+00  0.9526102902433E-03
 0.6813430944271E-03 -0.5080011075992E-02  0.0000000000000E+00  0.9517973049776E-03
 0.7296703205246E-03 -0.4967180566750E-02  0.0000000000000E+00  0.9250194694580E-03
 0.8216414790624E-03 -0.4868735687176E-02  0.0000000000000E+00  0.8671171437745E-03
 0.9672946967833E-03 -0.4791433592261E-02  0.0000000000000E+00  0.7732530874773E-03
 0.1177251235750E-02 -0.4742861595642E-02  0.0000000000000E+00  0.6395838317709E-03
 0.1462248585566E-02 -0.4731177028306E-02  0.0000000000000E+00  0.4641643470329E-03
 0.1832420042627E-02 -0.4764644175219E-02  0.0000000000000E+00  0.2480348121144E-03
 0.2296271162675E-02 -0.4850915124899E-02  0.0000000000000E+00 -0.3643747052556E-05
 0.2859385498150E-02 -0.4996037853270E-02  0.0000000000000E+00 -0.2806539311249E-03
 0.3522978407032E-02 -0.5203278734118E-02  0.0000000000000E+00 -0.5672901362636E-03
 0.4282375660915E-02 -0.5471886686593E-02  0.0000000000000E+00 -0.8428067240596E-03
 0.5125690933149E-02 -0.5795993999934E-02  0.0000000000000E+00 -0.1083153768479E-02
 0.6033239511702E-02 -0.6164052865105E-02  0.0000000000000E+00 -0.1264056091261E-02
 0.6978052686899E-02 -0.6559152425739E-02  0.0000000000000E+00 -0.1364959716148E-02
 0.7927647164659E-02 -0.6960358401964E-02  0.0000000000000E+00 -0.1372949026549E-02
 0.8846709229888E-02 -0.7344836841462E-02  0.0000000000000E+00 -0.1285733295292E-02
 0.7223260720038E-04 -0.5799372094246E-02  0.0000000000000E+00 -0.3396846002177E-03
 0.2165301268071E-03 -0.5888522890280E-02  0.0000000000000E+00 -0.3312605888957E-03
 0.3586684432314E-03 -0.5974866785814E-02  0.0000000000000E+00 -0.3114368889877E-03
 0.4950601567730E-03 -0.6055706287293E-02  0.0000000000000E+00 -0.2807823710235E-03
 0.6223671024277E-03 -0.6128569942438E-02  0.0000000000000E+00 -0.2405265587998E-03
 0.7377415677664E-03 -0.6191391175816E-02  0.0000000000000E+00 -0.1924137813421E-03
 0.8389869792746E-03 -0.6242615750409E-02  0.0000000000000E+00 -0.1384405162646E-03
 0.9246192471837E-03 -0.6281224422834E-02  0.0000000000000E+00 -0.8056990675434E-04
 0.9938380363968E-03 -0.6306682102281E-02  0.0000000000000E+00 -0.2049992646569E-04
 0.1046437565589E-02 -0.6318840755102E-02  0.0000000000000E+00  0.4047577478376E-04
 0.1082690671186E-02 -0.6317825434629E-02  0.0000000000000E+00  0.1015107643620E-03
 0.1103233692164E-02 -0.6303926551715E-02  0.0000000000000E+00  0.1621708816816E-03
 0.1108970737619E-02 -0.6277512855800E-02  0.0000000000000E+00  0.2223482850934E-03
 0.1101006829233E-02 -0.6238971709248E-02  0.0000000000000E+00  0.2821491047771E-03
 0.1080613027638E-02 -0.6188677960437E-02  0.0000000000000E+00  0.3417726213322E-03
 0.1049222829618E-02 -0.6126989726667E-02  0.0000000000000E+00  0.4013928665504E-03
 0.1008456949364E-02 -0.6054267990318E-02  0.0000000000000E+00  0.4610478794347E-03
 0.9601746612141E-03 -0.5970919702504E-02  0.0000000000000E+00  0.5205364454407E-03
 0.9065454441461E-03 -0.5877457333782E-02  0.0000000000000E+00  0.5793260822236E-03
 0.8501400059664E-03 -0.5774577049624E-02  0.0000000000000E+00  0.6364696799747E-03
 0.7940364820816E-03 -0.5663254016230E-02  0.0000000000000E+00  0.6905319803361E-03
 0.7419338002667E-03 -0.5544846659374E-02  0.0000000000000E+00  0.7395331744520E-03
 0.6982688416698E-03 -0.5421212067835E-02  0.0000000000000E+00  0.7809112785531E-03
 0.6683286118564E-03 -0.5294826835456E-02  0.0000000000000E+00  0.8115200184725E-03
 0.6583496542674E-03 -0.5168913885530E-02  0.0000000000000E+00  0.8276990737091E-03
 0.6755823855750E-03 -0.5047556353932E-02  0.0000000000000E+00  0.8253795164961E-03
 0.7282940225177E-03 -0.4935765517727E-02  0.0000000000000E+00  0.8002011163222E-03
 0.8256974027081E-03 -0.4839500494866E-02  0.0000000000000E+00  0.7477392453028E-03
 0.9777777860295E-03 -0.4765619170297E-02  0.0000000000000E+00  0.6639025345405E-03
 0.1194976491359E-02 -0.4721725258601E-02  0.0000000000000E+00  0.5455278551253E-03
 0.1487682310772E-02 -0.4715866381863E-02  0.0000000000000E+00  0.3911675925863E-03
 0.1865480161402E-02 -0.4756033680409E-02  0.0000000000000E+00  0.2020155294608E-03
 0.2336124921373E-02 -0.4849425175739E-02  0.0000000000000E+00 -0.1715269930022E-04
 0.2904290836967E-02 -0.5001475465378E-02  0.0000000000000E+00 -0.2572417265747E-03
 0.3570233506375E-02 -0.5214754167153E-02  0.0000000000000E+00 -0.5045551987890E-03
 0.4328453004545E-02 -0.5487866103146E-02  0.0000000000000E+00 -0.7412746489673E-03
 0.5166604371156E-02 -0.5814533907624E-02  0.0000000000000E+00 -0.9470044989573E-03
 0.6065123298886E-02 -0.6183209610631E-02  0.0000000000000E+00 -0.1101383775505E-02
 0.6997846264339E-02 -0.6577483760818E-02  0.0000000000000E+00 -0.1187349863796E-02
 0.7933719999315E-02 -0.6977383096409E-02  0.0000000000000E+00 -0.1194343138989E-02
 0.8839285313098E-02 -0.7361342960897E-02  0.0000000000000E+00 -0.1120769452834E-02
 0.7137431981263E-04 -0.5797290019158E-02  0.0000000000000E+00 -0.2862414858070E-03
 0.2139518432025E-03 -0.5885385183704E-02  0.0000000000000E+00 -0.2791460874056E-03
 0.3544130249258E-03 -0.5970724513339E-02  0.0000000000000E+00 -0.2624715011342E-03
 0.4892691147459E-03 -0.6050674502590E-02  0.0000000000000E+00 -0.2366946306012E-03
 0.6152706945214E-03 -0.6122813742260E-02  0.0000000000000E+00 -0.2028247538531E-03
 0.7296241120847E-03 -0.6185093696622E-02  0.0000000000000E+00 -0.1622925116495E-03
 0.8301416326576E-03 -0.6235940209784E-02  0.0000000000000E+00 -0.1167426336759E-03
 0.9153063088253E-03 -0.6274281621356E-02  0.0000000000000E+00 -0.6780385137405E-04
 0.9842559936531E-03 -0.6299510300393E-02  0.0000000000000E+00 -0.1689783367965E-04
 0.1036709999211E-02 -0.6311399531090E-02  0.0000000000000E+00  0.3487931996249E-04
 0.1072867419023E-02 -0.6310001255952E-02  0.0000000000000E+00  0.8679762711837E-04
 0.1093302298864E-02 -0.6295546088418E-02  0.0000000000000E+00  0.1384688350437E-03
 0.1098873873329E-02 -0.6268360140319E-02  0.0000000000000E+00  0.1897780305984E-03
 0.1090662208158E-02 -0.6228806292453E-02  0.0000000000000E+00  0.2407913102636E-03
 0.1069933599138E-02 -0.6177252499752E-02  0.0000000000000E+00  0.2916546747621E-03
 0.1038136132023E-02 -0.6114066517006E-02  0.0000000000000E+00  0.3424937755163E-03
 0.9969232795038E-03 -0.6039634635572E-02  0.0000000000000E+00  0.3933194570645E-03
 0.9482041089876E-03 -0.5954404499289E-02  0.0000000000000E+00  0.4439393944206E-03
 0.8942138823420E-03 -0.5858944860764E-02  0.0000000000000E+00  0.4938793624069E-03
 0.8376040099422E-03 -0.5754024386778E-02  0.0000000000000E+00  0.5423121346459E-03
 0.7815468819157E-03 -0.5640707761318E-02  0.0000000000000E+00  0.5879951641770E-03
 0.7298471901056E-03 -0.5520460428324E-02  0.0000000000000E+00  0.6292233574905E-03
 0.6870559403347E-03 -0.5395263834965E-02  0.0000000000000E+00  0.6637985560200E-03
 0.6585775622335E-03 -0.5267734303668E-02  0.0000000000000E+00  0.6890303082072E-03
 0.6507612516998E-03 -0.5141243465200E-02  0.0000000000000E+00  0.7017995743548E-03
 0.6709551842549E-03 -0.5020024161720E-02  0.0000000000000E+00  0.6986533524155E-03
 0.7274961516082E-03 -0.4909230222280E-02  0.0000000000000E+00  0.6759109103835E-03
 0.8296179841176E-03 -0.4814941956341E-02  0.0000000000000E+00  0.6298653897355E-03
 0.9872499901133E-03 -0.4744094086766E-02  0.0000000000000E+00  0.5571312126570E-03
 0.1210666604916E-02 -0.4704291879355E-02  0.0000000000000E+00  0.4551562661618E-03
 0.1509945225365E-02 -0.4703474857483E-02  0.0000000000000E+00  0.3228891790377E-03
 0.1894192122197E-02 -0.4749387445317E-02  0.0000000000000E+00  0.1615497300667E-03
 0.2370519083765E-02 -0.4848831813294E-02  0.0000000000000E+00 -0.2460818879010E-04
 0.2942835196143E-02 -0.5006720863409E-02  0.0000000000000E+00 -0.2277248560609E-03
 0.3610603944460E-02 -0.5225044743218E-02  0.0000000000000E+00 -0.4361617208795E-03
 0.4367661126106E-02 -0.5501886115552E-02  0.0000000000000E+00 -0.6349672734149E-03
 0.5201313733170E-02 -0.5830650222741E-02  0.0000000000000E+00 -0.8072082542809E-03
 0.6092130686790E-02 -0.6199813025888E-02  0.0000000000000E+00 -0.9361364843029E-03
 0.7014640853692E-02 -0.6593398605130E-02  0.0000000000000E+00 -0.1007842632671E-02
 0.7938992365930E-02 -0.6992241968081E-02  0.0000000000000E+00 -0.1013839319680E-02
 0.8833275426927E-02 -0.7375840845898E-02  0.0000000000000E+00 -0.9530535959188E-03
 0.7066198399492E-04 -0.5795564027454E-02  0.0000000000000E+00 -0.2333916967279E-03
 0.2118135723016E-03 -0.5882782366543E-02  0.0000000000000E+00 -0.2276080015217E-03
 0.3508854916734E-03 -0.5967285989776E-02  0.0000000000000E+00 -0.2140306010734E-03
 0.4844670960720E-03 -0.6046492025223E-02  0.0000000000000E+00 -0.1930471016850E-03
 0.6093800800635E-03 -0.6118019252436E-02  0.0000000000000E+00 -0.1654630599746E-03
 0.7228750881339E-03 -0.6179834364138E-02  0.0000000000000E+00 -0.1324191183934E-03
 0.8227729490631E-03 -0.6230348249915E-02  0.0000000000000E+00 -0.9523120314037E-04
 0.9075316851426E-03 -0.6268447904397E-02  0.0000000000000E+00 -0.5520994033824E-04
 0.9762402056468E-03 -0.6293467472725E-02  0.0000000000000E+00 -0.1350791737691E-04
 0.1028557498113E-02 -0.6305116266276E-02  0.0000000000000E+00  0.2897756351739E-04
 0.1064622542037E-02 -0.6303386114998E-02  0.0000000000000E+00  0.7164034080225E-04
 0.1084958088805E-02 -0.6288457963207E-02  0.0000000000000E+00  0.1141488409052E-03
 0.1090386090513E-02 -0.6260622169555E-02  0.0000000000000E+00  0.1563930431262E-03
 0.1081965687087E-02 -0.6220220884792E-02  0.0000000000000E+00  0.1984108261947E-03
 0.1060959051376E-02 -0.6167616098734E-02  0.0000000000000E+00  0.2403060685884E-03
 0.1028826393540E-02 -0.6103183615922E-02  0.0000000000000E+00  0.2821666306782E-03
 0.9872486367458E-03 -0.6027331131114E-02  0.0000000000000E+00  0.3239866028682E-03
 0.9381766842285E-03 -0.5940540804383E-02  0.0000000000000E+00  0.3655933647804E-03
 0.8839011128396E-03 -0.5843429151959E-02  0.0000000000000E+00  0.4065825928688E-03
 0.8271411727701E-03 -0.5736826317065E-02  0.0000000000000E+00  0.4462597144994E-03
 0.7711483943636E-03 -0.5621872757958E-02  0.0000000000000E+00  0.4835888614738E-03
 0.7198160935058E-03 -0.5500124285958E-02  0.0000000000000E+00  0.5171545990399E-03
 0.6777905960002E-03 -0.5373667016486E-02  0.0000000000000E+00  0.5451379027160E-03
 0.6505738962918E-03 -0.5245234364978E-02  0.0000000000000E+00  0.5653186055393E-03
 0.6446079868413E-03 -0.5118321852658E-02  0.0000000000000E+00  0.5751305017852E-03
 0.6673202907958E-03 -0.4997285992981E-02  0.0000000000000E+00  0.5717425181394E-03
 0.7271018234874E-03 -0.4887396823177E-02  0.0000000000000E+00  0.5521504244063E-03
 0.8331982850858E-03 -0.4794831094862E-02  0.0000000000000E+00  0.5133482801565E-03
 0.9954848475468E-03 -0.4726580777978E-02  0.0000000000000E+00  0.4526199061332E-03
 0.1224088101136E-02 -0.4690243655841E-02  0.0000000000000E+00  0.3679634415266E-03
 0.1528817481501E-02 -0.4693659502621E-02  0.0000000000000E+00  0.2586373624405E-03
 0.1918374900556E-02 -0.4744358760225E-02  0.0000000000000E+00  0.1257811332083E-03
 0.2399337185465E-02 -0.4848809711728E-02  0.0000000000000E+00 -0.2698346713811E-04
 0.2974986389670E-02 -0.5011494024935E-02  0.0000000000000E+00 -0.1931202461274E-03
 0.3644147461078E-02 -0.5233931743492E-02  0.0000000000000E+00 -0.3630798831187E-03
 0.4400132459313E-02 -0.5513791060417E-02  0.0000000000000E+00 -0.5247196920088E-03
 0.5229988598707E-02 -0.5844235413771E-02  0.0000000000000E+00 -0.6644061300239E-03
 0.6114415643055E-02 -0.6213776618159E-02  0.0000000000000E+00 -0.7687574965156E-03
 0.7028520874038E-02 -0.6606802591854E-02  0.0000000000000E+00 -0.8267447501983E-03
 0.7943437151432E-02 -0.7004811662906E-02  0.0000000000000E+00 -0.8317219765007E-03
 0.8828517230354E-02 -0.7388168675675E-02  0.0000000000000E+00 -0.7829943454129E-03
 0.7009393126300E-04 -0.5794188761632E-02  0.0000000000000E+00 -0.1810261015778E-03
 0.2101094267066E-03 -0.5880707431868E-02  0.0000000000000E+00 -0.1765408333235E-03
 0.3480752328557E-03 -0.5964543387156E-02  0.0000000000000E+00 -0.1660202263221E-03
 0.4806405850257E-03 -0.6043152551445E-02  0.0000000000000E+00 -0.1497643576240E-03
 0.6046822398577E-03 -0.6114184870330E-02  0.0000000000000E+00 -0.1283876733866E-03
 0.7174857572382E-03 -0.6175619306069E-02  0.0000000000000E+00 -0.1027592562106E-03
 0.8168795359246E-03 -0.6225855798183E-02  0.0000000000000E+00 -0.7388441385918E-04
 0.9013030485347E-03 -0.6263749741350E-02  0.0000000000000E+00 -0.4276891622471E-04
 0.9698076904367E-03 -0.6288590134796E-02  0.0000000000000E+00 -0.1030247808197E-04
 0.1022005555590E-02 -0.6300036162102E-02  0.0000000000000E+00  0.2281694232066E-04
 0.1057988424473E-02 -0.6298032120666E-02  0.0000000000000E+00  0.5611258918685E-04
 0.1078238442845E-02 -0.6282719356840E-02  0.0000000000000E+00  0.8931808273981E-04
 0.1083547836484E-02 -0.6254359509068E-02  0.0000000000000E+00  0.1223379654313E-03
 0.1074958939621E-02 -0.6213277948297E-02  0.0000000000000E+00  0.1551916028067E-03
 0.1053730538918E-02 -0.6159831758886E-02  0.0000000000000E+00  0.1879500220068E-03
 0.1021332527559E-02 -0.6094403201735E-02  0.0000000000000E+00  0.2206721526512E-03
 0.9794678887941E-03 -0.6017417299101E-02  0.0000000000000E+00  0.2533440840853E-03
 0.9301212154674E-03 -0.5929384218163E-02  0.0000000000000E+00  0.2858219482316E-03
 0.8756276563736E-03 -0.5830959246427E-02  0.0000000000000E+00  0.3177810210913E-03
 0.8187611116116E-03 -0.5723022395852E-02  0.0000000000000E+00  0.3486699626295E-03
 0.7628368031592E-03 -0.5606775505651E-02  0.0000000000000E+00  0.3776710868974E-03
 0.7118192497902E-03 -0.5483847443272E-02  0.0000000000000E+00  0.4036708399499E-03
 0.6704311504607E-03 -0.5356408713915E-02  0.0000000000000E+00  0.4252417290618E-03
 0.6442523261320E-03 -0.5227286798011E-02  0.0000000000000E+00  0.4406453908181E-03
 0.6397982495627E-03 -0.5100076255471E-02  0.0000000000000E+00  0.4478773406197E-03
 0.6645582298196E-03 -0.4979231759320E-02  0.0000000000000E+00  0.4447324693753E-03
 0.7269641407189E-03 -0.4870114543256E-02  0.0000000000000E+00  0.4288793726736E-03
 0.8362674511658E-03 -0.4778975460884E-02  0.0000000000000E+00  0.3979977106403E-03
 0.1002295108579E-02 -0.4712847798565E-02  0.0000000000000E+00  0.3500092872911E-03
 0.1235049767136E-02 -0.4679317641054E-02  0.0000000000000E+00  0.2834114440149E-03
 0.1544121152134E-02 -0.4686138778278E-02  0.0000000000000E+00  0.1977014267028E-03
 0.1937884412962E-02 -0.4740665248754E-02  0.0000000000000E+00  0.9385269758594E-04
 0.2422489397529E-02 -0.4849095961289E-02  0.0000000000000E+00 -0.2523187587083E-04
 0.3000723750707E-02 -0.5015570228416E-02  0.0000000000000E+00 -0.1544059886274E-03
 0.3670915687045E-02 -0.5241240501241E-02  0.0000000000000E+00 -0.2862289995645E-03
 0.4425977347838E-02 -0.5523456670997E-02  0.0000000000000E+00 -0.4113150569577E-03
 0.5252767146923E-02 -0.5855203011997E-02  0.0000000000000E+00 -0.5191975126732E-03
 0.6132101819822E-02 -0.6225029915061E-02  0.0000000000000E+00 -0.5996652981278E-03
 0.7039552222373E-02 -0.6617618000669E-02  0.0000000000000E+00 -0.6443545569546E-03
 0.7947028531686E-02 -0.7014989827294E-02  0.0000000000000E+00 -0.6482783222782E-03
 0.8824874674168E-02 -0.7398191911994E-02  0.0000000000000E+00 -0.6110072490792E-03
 0.6966891287637E-04 -0.5793160348864E-02  0.0000000000000E+00 -0.1290363555549E-03
 0.2088349693715E-03 -0.5879155273380E-02  0.0000000000000E+00 -0.1258395224506E-03
 0.3459742029928E-03 -0.5962490982246E-02  0.0000000000000E+00 -0.1183455540674E-03
 0.4777792798485E-03 -0.6040651520847E-02  0.0000000000000E+00 -0.1067681303820E-03
 0.6011672022035E-03 -0.6111309637896E-02  0.0000000000000E+00 -0.9153985518800E-04
 0.7134493996992E-03 -0.6172453530342E-02  0.0000000000000E+00 -0.7327202220266E-04
 0.8124603389802E-03 -0.6222475488083E-02  0.0000000000000E+00 -0.5267309988334E-04
 0.8966264112062E-03 -0.6260208042556E-02  0.0000000000000E+00 -0.3045423655748E-04
 0.9649718156183E-03 -0.6284907158153E-02  0.0000000000000E+00 -0.7247272806626E-05
 0.1017074269113E-02 -0.6296195037570E-02  0.0000000000000E+00  0.1644932082985E-04
 0.1052990680351E-02 -0.6293980665229E-02  0.0000000000000E+00  0.4029226667861E-04
 0.1073173003522E-02 -0.6278375783357E-02  0.0000000000000E+00  0.6408681536905E-04
 0.1078391239688E-02 -0.6249620434366E-02  0.0000000000000E+00  0.8775951701213E-04
 0.1069675089988E-02 -0.6208027299288E-02  0.0000000000000E+00  0.1113187903314E-03
 0.1048280755807E-02 -0.6153949710856E-02  0.0000000000000E+00  0.1348101062049E-03
 0.1015685385475E-02 -0.6087774784096E-02  0.0000000000000E+00  0.1582704742817E-03
 0.9736085657113E-03 -0.6009940656498E-02  0.0000000000000E+00  0.1816849204818E-03
 0.9240602842554E-03 -0.5920978729437E-02  0.0000000000000E+00  0.2049454890672E-03
 0.8694093033168E-03 -0.5821573693976E-02  0.0000000000000E+00  0.2278147038756E-03
 0.8124707278026E-03 -0.5712643362130E-02  0.0000000000000E+00  0.2498927654969E-03
 0.7566077650833E-03 -0.5595436049061E-02  0.0000000000000E+00  0.2705891621927E-03
 0.7058385058732E-03 -0.5471635852276E-02  0.0000000000000E+00  0.2891017199682E-03
 0.6649429857590E-03 -0.5343476940418E-02  0.0000000000000E+00  0.3044040342867E-03
 0.6395592468906E-03 -0.5213857553143E-02  0.0000000000000E+00  0.3152483000767E-03
 0.6362574073747E-03 -0.5086446461671E-02  0.0000000000000E+00  0.3201983034143E-03
 0.6625722806248E-03 -0.4965771473459E-02  0.0000000000000E+00  0.3176774830367E-03
 0.7269648856947E-03 -0.4857261151098E-02  0.0000000000000E+00  0.3060236346776E-03
 0.8386888238530E-03 -0.4767220111634E-02  0.0000000000000E+00  0.2835891603126E-03
 0.1007532008964E-02 -0.4702709997898E-02  0.0000000000000E+00  0.2489084196472E-03
 0.1243400882964E-02 -0.4671304805671E-02  0.0000000000000E+00  0.2009374725815E-03
 0.1555717367275E-02 -0.4680690297833E-02  0.0000000000000E+00  0.1393568838637E-03
 0.1952609775307E-02 -0.4738085293747E-02  0.0000000000000E+00  0.6490834963890E-04
 0.2439908465480E-02 -0.4849485515768E-02  0.0000000000000E+00 -0.2028946405572E-04
 0.3020034607417E-02 -0.5018775192592E-02  0.0000000000000E+00 -0.1125283482546E-03
 0.3690952072972E-02 -0.5246836079842E-02  0.0000000000000E+00 -0.2064877330081E-03
 0.4445283979032E-02 -0.5530786965308E-02  0.0000000000000E+00 -0.2954956353526E-03
 0.5269757883704E-02 -0.5863485825416E-02  0.0000000000000E+00 -0.3721492553819E-03
 0.6145285130740E-02 -0.6233517530459E-02  0.0000000000000E+00 -0.4292592331497E-03
 0.7047784702537E-02 -0.6625783156770E-02  0.0000000000000E+00 -0.4609644440520E-03
 0.7949743760473E-02 -0.7022694785549E-02  0.0000000000000E+00 -0.4637988323847E-03
 0.8822238563930E-02 -0.7405803138439E-02  0.0000000000000E+00 -0.4375140101591E-03
 0.6938604002303E-04 -0.5792476120212E-02  0.0000000000000E+00 -0.7731468733813E-04
 0.2079870268817E-03 -0.5878122346127E-02  0.0000000000000E+00 -0.7539932549253E-04
 0.3445766193400E-03 -0.5961124790869E-02  0.0000000000000E+00 -0.7091111537086E-04
 0.4758757457428E-03 -0.6038985790824E-02  0.0000000000000E+00 -0.6397802455348E-04
 0.5988277438201E-03 -0.6109393025916E-02  0.0000000000000E+00 -0.5485715522866E-04
 0.7107611347493E-03 -0.6170340858883E-02  0.0000000000000E+00 -0.4391155040676E-04
 0.8095146062814E-03 -0.6220216738101E-02  0.0000000000000E+00 -0.3156248662641E-04
 0.8935062139205E-03 -0.6257838342726E-02  0.0000000000000E+00 -0.1823375858916E-04
 0.9617424669961E-03 -0.6282440002434E-02  0.0000000000000E+00 -0.4302986855470E-05
 0.1013778540573E-02 -0.6293619559463E-02  0.0000000000000E+00  0.9930802979952E-05
 0.1049648348936E-02 -0.6291262620299E-02  0.0000000000000E+00  0.2426057737187E-04
 0.1069783847776E-02 -0.6275461241010E-02  0.0000000000000E+00  0.3856771536147E-04
 0.1074940259216E-02 -0.6246441044570E-02  0.0000000000000E+00  0.5280604941474E-04
 0.1066138851868E-02 -0.6204506205308E-02  0.0000000000000E+00  0.6697846392607E-04
 0.1044634083891E-02 -0.6150007522252E-02  0.0000000000000E+00  0.8111012783316E-04
 0.1011907937905E-02 -0.6083335352971E-02  0.0000000000000E+00  0.9522120135264E-04
 0.9696910975364E-03 -0.6004936635476E-02  0.0000000000000E+00  0.1093006712225E-03
 0.9200105408363E-03 -0.5915357035898E-02  0.0000000000000E+00  0.1232816738348E-03
 0.8652575260146E-03 -0.5815301001836E-02  0.0000000000000E+00  0.1370195001255E-03
 0.8082747302212E-03 -0.5705711734167E-02  0.0000000000000E+00  0.1502718680114E-03
 0.7524574525562E-03 -0.5587868740186E-02  0.0000000000000E+00  0.1626818858575E-03
 0.7018595765275E-03 -0.5463493143559E-02  0.0000000000000E+00  0.1737655393039E-03
 0.6612993849764E-03 -0.5334861727911E-02  0.0000000000000E+00  0.1829042891042E-03
 0.6364536571533E-03 -0.5204919999666E-02  0.0000000000000E+00  0.1893470286974E-03
 0.6339287116814E-03 -0.5077386163130E-02  0.0000000000000E+00  0.1922302944576E-03
 0.6612892548980E-03 -0.4956836539665E-02  0.0000000000000E+00  0.1906076171532E-03
 0.7270150124507E-03 -0.4848744056333E-02  0.0000000000000E+00  0.1834829907662E-03
 0.8403599555648E-03 -0.4759448297739E-02  0.0000000000000E+00  0.1698718715909E-03
 0.1011084612734E-02 -0.4696028552852E-02  0.0000000000000E+00  0.1489024920159E-03
 0.1249029747403E-02 -0.4666049186465E-02  0.0000000000000E+00  0.1199603187480E-03
 0.1563504007338E-02 -0.4677148950196E-02  0.0000000000000E+00  0.8286956806536E-04
 0.1962470360633E-02 -0.4736455173862E-02  0.0000000000000E+00  0.3809369903651E-04
 0.2451546585862E-02 -0.4849827629741E-02  0.0000000000000E+00 -0.1307825563887E-04
 0.3032911638904E-02 -0.5020981342140E-02  0.0000000000000E+00 -0.6840881671205E-04
 0.3704290396707E-02 -0.5250619997240E-02  0.0000000000000E+00 -0.1247036887347E-03
 0.4458118415235E-02 -0.5535711900130E-02  0.0000000000000E+00 -0.1779728016771E-03
 0.5281041010572E-02 -0.5869034586030E-02  0.0000000000000E+00 -0.2238037839565E-03
 0.6154035774822E-02 -0.6239198477972E-02  0.0000000000000E+00 -0.2579243784203E-03
 0.7053253968951E-02 -0.6631252056410E-02  0.0000000000000E+00 -0.2768626485398E-03
 0.7951564581465E-02 -0.7027865374162E-02  0.0000000000000E+00 -0.2785769639970E-03
 0.8820526818478E-02 -0.7410921920804E-02  0.0000000000000E+00 -0.2629412451273E-03
 0.6924474272611E-04 -0.5792134406755E-02  0.0000000000000E+00 -0.2575371543311E-04
 0.2075635558042E-03 -0.5877606420205E-02  0.0000000000000E+00 -0.2511571429935E-04
 0.3438787444341E-03 -0.5960442301576E-02  0.0000000000000E+00 -0.2362099311886E-04
 0.4749251632102E-03 -0.6038153397329E-02  0.0000000000000E+00 -0.2131217003780E-04
 0.5976591702054E-03 -0.6108434771986E-02  0.0000000000000E+00 -0.1827454114881E-04
 0.7094177850911E-03 -0.6169283872794E-02  0.0000000000000E+00 -0.1462850439705E-04
 0.8080418569609E-03 -0.6219085802901E-02  0.0000000000000E+00 -0.1051385509172E-04
 0.8919453870515E-03 -0.6256650930596E-02  0.0000000000000E+00 -0.6071376709840E-05
 0.9601261706976E-03 -0.6281202883904E-02  0.0000000000000E+00 -0.1426693946080E-05
 0.1012128224598E-02 -0.6292327412977E-02  0.0000000000000E+00  0.3320530245238E-05
 0.1047974042352E-02 -0.6289898485296E-02  0.0000000000000E+00  0.8101109658543E-05
 0.1068085619976E-02 -0.6273998329810E-02  0.0000000000000E+00  0.1287521074303E-04
 0.1073210802217E-02 -0.6244845354051E-02  0.0000000000000E+00  0.1762709561028E-04
 0.1064366638934E-02 -0.6202739465628E-02  0.0000000000000E+00  0.2235736446915E-04
 0.1042806711172E-02 -0.6148030187315E-02  0.0000000000000E+00  0.2707405386651E-04
 0.1010015418141E-02 -0.6081109500059E-02  0.0000000000000E+00  0.3178354171510E-04
 0.9677290003210E-03 -0.6002428759259E-02  0.0000000000000E+00  0.3648181743326E-04
 0.9179829489534E-03 -0.5912540795941E-02  0.0000000000000E+00  0.4114624349338E-04
 0.8631797962070E-03 -0.5812159982094E-02  0.0000000000000E+00  0.4572821186927E-04
 0.8061760358316E-03 -0.5702242269479E-02  0.0000000000000E+00  0.5014656063576E-04
 0.7503830428845E-03 -0.5584082823609E-02  0.0000000000000E+00  0.5428189472950E-04
 0.6998726201748E-03 -0.5459421342569E-02  0.0000000000000E+00  0.5797242454614E-04
 0.6594821801696E-03 -0.5330555968459E-02  0.0000000000000E+00  0.6101152199728E-04
 0.6349078463084E-03 -0.5200455868006E-02  0.0000000000000E+00  0.6314841671076E-04
 0.6327739668825E-03 -0.5072863947930E-02  0.0000000000000E+00  0.6409500240018E-04
 0.6606600597190E-03 -0.4952380711575E-02  0.0000000000000E+00  0.6353570675988E-04
 0.7270549847328E-03 -0.4844501109280E-02  0.0000000000000E+00  0.6113875556701E-04
 0.8412125813431E-03 -0.4755581944783E-02  0.0000000000000E+00  0.5657664682940E-04
 0.1012879276811E-02 -0.4692710951674E-02  0.0000000000000E+00  0.4956007099727E-04
 0.1251862537421E-02 -0.4663447209239E-02  0.0000000000000E+00  0.3988616290629E-04
 0.1567413959695E-02 -0.4675405470642E-02  0.0000000000000E+00  0.2749897477752E-04
 0.1967413613042E-02 -0.4735666926981E-02  0.0000000000000E+00  0.1255605580608E-04
 0.2457373121542E-02 -0.4850023239206E-02  0.0000000000000E+00 -0.4509968664940E-05
 0.3039350972917E-02 -0.5022105094613E-02  0.0000000000000E+00 -0.2295121550966E-04
 0.3710953714816E-02 -0.5252527865329E-02  0.0000000000000E+00 -0.4170263136100E-04
 0.4464524644333E-02 -0.5538185682176E-02  0.0000000000000E+00 -0.5943640320782E-04
 0.5286669431415E-02 -0.5871816969883E-02  0.0000000000000E+00 -0.7468662102883E-04
 0.6158399725904E-02 -0.6242045683389E-02  0.0000000000000E+00 -0.8603605848101E-04
 0.7055982982529E-02 -0.6633994133262E-02  0.0000000000000E+00 -0.9233481228865E-04
 0.7952478259394E-02 -0.7030460850019E-02  0.0000000000000E+00 -0.9290863078976E-04
 0.8819684650697E-02 -0.7413494693369E-02  0.0000000000000E+00 -0.8771927603185E-04
 0.6924474272674E-04 -0.5792134406785E-02  0.0000000000000E+00  0.2575371570018E-04
 0.2075635558076E-03 -0.5877606420238E-02  0.0000000000000E+00  0.2511571513833E-04
 0.3438787444430E-03 -0.5960442301614E-02  0.0000000000000E+00  0.2362099445132E-04
 0.4749251632270E-03 -0.6038153397372E-02  0.0000000000000E+00  0.2131217173822E-04
 0.5976591702320E-03 -0.6108434772037E-02  0.0000000000000E+00  0.1827454305212E-04
 0.7094177851286E-03 -0.6169283872852E-02  0.0000000000000E+00  0.1462850630954E-04
 0.8080418570097E-03 -0.6219085802968E-02  0.0000000000000E+00  0.1051385680301E-04
 0.8919453871115E-03 -0.6256650930670E-02  0.0000000000000E+00  0.6071378003875E-05
 0.9601261707684E-03 -0.6281202883987E-02  0.0000000000000E+00  0.1426694609716E-05
 0.1012128224680E-02 -0.6292327413068E-02  0.0000000000000E+00 -0.3320530417364E-05
 0.1047974042444E-02 -0.6289898485399E-02  0.0000000000000E+00 -0.8101110862690E-05
 0.1068085620078E-02 -0.6273998329925E-02  0.0000000000000E+00 -0.1287521316778E-04
 0.1073210802330E-02 -0.6244845354183E-02  0.0000000000000E+00 -0.1762709943913E-04
 0.1064366639060E-02 -0.6202739465779E-02  0.0000000000000E+00 -0.2235736988355E-04
 0.1042806711311E-02 -0.6148030187491E-02  0.0000000000000E+00 -0.2707406104875E-04
 0.1010015418295E-02 -0.6081109500263E-02  0.0000000000000E+00 -0.3178355084879E-04
 0.9677290004903E-03 -0.6002428759498E-02  0.0000000000000E+00 -0.3648182869845E-04
 0.9179829491382E-03 -0.5912540796219E-02  0.0000000000000E+00 -0.4114625706153E-04
 0.8631797964062E-03 -0.5812159982415E-02  0.0000000000000E+00 -0.4572822789281E-04
 0.8061760360430E-03 -0.5702242269848E-02  0.0000000000000E+00 -0.5014657923080E-04
 0.7503830431032E-03 -0.5584082824026E-02  0.0000000000000E+00 -0.5428191595316E-04
 0.6998726203934E-03 -0.5459421343034E-02  0.0000000000000E+00 -0.5797244837211E-04
 0.6594821803778E-03 -0.5330555968969E-02  0.0000000000000E+00 -0.6101154827992E-04
 0.6349078464922E-03 -0.5200455868553E-02  0.0000000000000E+00 -0.6314844515237E-04
 0.6327739670244E-03 -0.5072863948505E-02  0.0000000000000E+00 -0.6409503250981E-04
 0.6606600597980E-03 -0.4952380712161E-02  0.0000000000000E+00 -0.6353573781903E-04
 0.7270549847248E-03 -0.4844501109857E-02  0.0000000000000E+00 -0.6113878659234E-04
 0.8412125812215E-03 -0.4755581945327E-02  0.0000000000000E+00 -0.5657667655456E-04
 0.1012879276550E-02 -0.4692710952156E-02  0.0000000000000E+00 -0.4956009786800E-04
 0.1251862536999E-02 -0.4663447209630E-02  0.0000000000000E+00 -0.3988618511055E-04
 0.1567413959095E-02 -0.4675405470912E-02  0.0000000000000E+00 -0.2749899032567E-04
 0.1967413612262E-02 -0.4735666927108E-02  0.0000000000000E+00 -0.1255606265974E-04
 0.2457373120598E-02 -0.4850023239177E-02  0.0000000000000E+00  0.4509972394984E-05
 0.3039350971848E-02 -0.5022105094428E-02  0.0000000000000E+00  0.2295123131713E-04
 0.3710953713684E-02 -0.5252527865007E-02  0.0000000000000E+00  0.4170266006287E-04
 0.4464524643224E-02 -0.5538185681750E-02  0.0000000000000E+00  0.5943644468032E-04
 0.5286669430430E-02 -0.5871816969397E-02  0.0000000000000E+00  0.7468667400712E-04
 0.6158399725140E-02 -0.6242045682887E-02  0.0000000000000E+00  0.8603612049179E-04
 0.7055982982069E-02 -0.6633994132779E-02  0.0000000000000E+00  0.9233487977361E-04
 0.7952478259287E-02 -0.7030460849565E-02  0.0000000000000E+00  0.9290869941081E-04
 0.8819684650944E-02 -0.7413494692922E-02  0.0000000000000E+00  0.8771934114710E-04
 0.6938604002491E-04 -0.5792476120302E-02  0.0000000000000E+00  0.7731468760640E-04
 0.2079870268917E-03 -0.5878122346226E-02  0.0000000000000E+00  0.7539932633376E-04
 0.3445766193666E-03 -0.5961124790982E-02  0.0000000000000E+00  0.7091111670650E-04
 0.4758757457932E-03 -0.6038985790955E-02  0.0000000000000E+00  0.6397802625769E-04
 0.5988277438999E-03 -0.6109393026068E-02  0.0000000000000E+00  0.5485715713603E-04
 0.7107611348618E-03 -0.6170340859058E-02  0.0000000000000E+00  0.4391155232333E-04
 0.8095146064277E-03 -0.6220216738299E-02  0.0000000000000E+00  0.3156248834180E-04
 0.8935062141004E-03 -0.6257838342949E-02  0.0000000000000E+00  0.1823375988762E-04
 0.9617424672083E-03 -0.6282440002682E-02  0.0000000000000E+00  0.4302987524560E-05
 0.1013778540816E-02 -0.6293619559738E-02  0.0000000000000E+00 -0.9930803144584E-05
 0.1049648349210E-02 -0.6291262620607E-02  0.0000000000000E+00 -0.2426057856536E-04
 0.1069783848082E-02 -0.6275461241356E-02  0.0000000000000E+00 -0.3856771777133E-04
 0.1074940259556E-02 -0.6246441044964E-02  0.0000000000000E+00 -0.5280605322318E-04
 0.1066138852244E-02 -0.6204506205761E-02  0.0000000000000E+00 -0.6697846931376E-04
 0.1044634084308E-02 -0.6150007522778E-02  0.0000000000000E+00 -0.8111013498170E-04
 0.1011907938366E-02 -0.6083335353584E-02  0.0000000000000E+00 -0.9522121044497E-04
 0.9696910980434E-03 -0.6004936636191E-02  0.0000000000000E+00 -0.1093006824388E-03
 0.9200105413901E-03 -0.5915357036730E-02  0.0000000000000E+00 -0.1232816873472E-03
 0.8652575266122E-03 -0.5815301002799E-02  0.0000000000000E+00 -0.1370195160873E-03
 0.8082747308550E-03 -0.5705711735270E-02  0.0000000000000E+00 -0.1502718865404E-03
 0.7524574532121E-03 -0.5587868741435E-02  0.0000000000000E+00 -0.1626819070138E-03
 0.7018595771838E-03 -0.5463493144954E-02  0.0000000000000E+00 -0.1737655630646E-03
 0.6612993856018E-03 -0.5334861729440E-02  0.0000000000000E+00 -0.1829043153287E-03
 0.6364536577065E-03 -0.5204920001311E-02  0.0000000000000E+00 -0.1893470570937E-03
 0.6339287121098E-03 -0.5077386164856E-02  0.0000000000000E+00 -0.1922303245423E-03
 0.6612892551386E-03 -0.4956836541428E-02  0.0000000000000E+00 -0.1906076482147E-03
 0.7270150124306E-03 -0.4848744058071E-02  0.0000000000000E+00 -0.1834830218302E-03
 0.8403599552052E-03 -0.4759448299376E-02  0.0000000000000E+00 -0.1698719013977E-03
 0.1011084611957E-02 -0.4696028554305E-02  0.0000000000000E+00 -0.1489025190173E-03
 0.1249029746140E-02 -0.4666049187645E-02  0.0000000000000E+00 -0.1199603411348E-03
 0.1563504005542E-02 -0.4677148951016E-02  0.0000000000000E+00 -0.8286958384540E-04
 0.1962470358297E-02 -0.4736455174251E-02  0.0000000000000E+00 -0.3809370616287E-04
 0.2451546583032E-02 -0.4849827629661E-02  0.0000000000000E+00  0.1307825907168E-04
 0.3032911635696E-02 -0.5020981341594E-02  0.0000000000000E+00  0.6840883221920E-04
 0.3704290393311E-02 -0.5250619996278E-02  0.0000000000000E+00  0.1247037171575E-03
 0.4458118411906E-02 -0.5535711898855E-02  0.0000000000000E+00  0.1779728429147E-03
 0.5281041007609E-02 -0.5869034584573E-02  0.0000000000000E+00  0.2238038367555E-03
 0.6154035772527E-02 -0.6239198476469E-02  0.0000000000000E+00  0.2579244403066E-03
 0.7053253967571E-02 -0.6631252054965E-02  0.0000000000000E+00  0.2768627159323E-03
 0.7951564581147E-02 -0.7027865372806E-02  0.0000000000000E+00  0.2785770325195E-03
 0.8820526819223E-02 -0.7410921919465E-02  0.0000000000000E+00  0.2629413100868E-03
 0.6966891287951E-04 -0.5793160349015E-02  0.0000000000000E+00  0.1290363558256E-03
 0.2088349693883E-03 -0.5879155273545E-02  0.0000000000000E+00  0.1258395232964E-03
 0.3459742030372E-03 -0.5962490982435E-02  0.0000000000000E+00  0.1183455554094E-03
 0.4777792799327E-03 -0.6040651521065E-02  0.0000000000000E+00  0.1067681320938E-03
 0.6011672023366E-03 -0.6111309638150E-02  0.0000000000000E+00  0.9153985710344E-04
 0.7134493998868E-03 -0.6172453530634E-02  0.0000000000000E+00  0.7327202412728E-04
 0.8124603392241E-03 -0.6222475488413E-02  0.0000000000000E+00  0.5267310160675E-04
 0.8966264115057E-03 -0.6260208042926E-02  0.0000000000000E+00  0.3045423786470E-04
 0.9649718159715E-03 -0.6284907158565E-02  0.0000000000000E+00  0.7247273486624E-05
 0.1017074269519E-02 -0.6296195038028E-02  0.0000000000000E+00 -0.1644932097958E-04
 0.1052990680807E-02 -0.6293980665739E-02  0.0000000000000E+00 -0.4029226785097E-04
 0.1073173004030E-02 -0.6278375783931E-02  0.0000000000000E+00 -0.6408681774930E-04
 0.1078391240252E-02 -0.6249620435020E-02  0.0000000000000E+00 -0.8775952077997E-04
 0.1069675090613E-02 -0.6208027300040E-02  0.0000000000000E+00 -0.1113187956659E-03
 0.1048280756499E-02 -0.6153949711728E-02  0.0000000000000E+00 -0.1348101132860E-03
 0.1015685386240E-02 -0.6087774785114E-02  0.0000000000000E+00 -0.1582704832912E-03
 0.9736085665544E-03 -0.6009940657686E-02  0.0000000000000E+00 -0.1816849316004E-03
 0.9240602851768E-03 -0.5920978730821E-02  0.0000000000000E+00 -0.2049455024678E-03
 0.8694093043116E-03 -0.5821573695578E-02  0.0000000000000E+00 -0.2278147197136E-03
 0.8124707288584E-03 -0.5712643363967E-02  0.0000000000000E+00 -0.2498927838937E-03
 0.7566077661770E-03 -0.5595436051142E-02  0.0000000000000E+00 -0.2705891832138E-03
 0.7058385069687E-03 -0.5471635854600E-02  0.0000000000000E+00 -0.2891017435980E-03
 0.6649429868049E-03 -0.5343476942968E-02  0.0000000000000E+00 -0.3044040603943E-03
 0.6395592478184E-03 -0.5213857555887E-02  0.0000000000000E+00 -0.3152483283817E-03
 0.6362574080970E-03 -0.5086446464555E-02  0.0000000000000E+00 -0.3201983334473E-03
 0.6625722810364E-03 -0.4965771476406E-02  0.0000000000000E+00 -0.3176775141012E-03
 0.7269648856748E-03 -0.4857261154007E-02  0.0000000000000E+00 -0.3060236658161E-03
 0.8386888232701E-03 -0.4767220114382E-02  0.0000000000000E+00 -0.2835891902805E-03
 0.1007532007687E-02 -0.4702710000343E-02  0.0000000000000E+00 -0.2489084469081E-03
 0.1243400880877E-02 -0.4671304807663E-02  0.0000000000000E+00 -0.2009374953320E-03
 0.1555717364300E-02 -0.4680690299226E-02  0.0000000000000E+00 -0.1393569001067E-03
 0.1952609771427E-02 -0.4738085294425E-02  0.0000000000000E+00 -0.6490835731057E-04
 0.2439908460772E-02 -0.4849485515662E-02  0.0000000000000E+00  0.2028946689239E-04
 0.3020034602071E-02 -0.5018775191704E-02  0.0000000000000E+00  0.1125283631589E-03
 0.3690952067304E-02 -0.5246836078258E-02  0.0000000000000E+00  0.2064877608701E-03
 0.4445283973470E-02 -0.5530786963195E-02  0.0000000000000E+00  0.2954956761174E-03
 0.5269757878750E-02 -0.5863485822995E-02  0.0000000000000E+00  0.3721493078205E-03
 0.6145285126898E-02 -0.6233517527961E-02  0.0000000000000E+00  0.4292592947853E-03
 0.7047784700230E-02 -0.6625783154370E-02  0.0000000000000E+00  0.4609645112605E-03
 0.7949743759947E-02 -0.7022694783301E-02  0.0000000000000E+00  0.4637989007107E-03
 0.8822238565191E-02 -0.7405803136226E-02  0.0000000000000E+00  0.4375140748079E-03
 0.7009393126739E-04 -0.5794188761843E-02  0.0000000000000E+00  0.1810261018521E-03
 0.2101094267302E-03 -0.5880707432100E-02  0.0000000000000E+00  0.1765408341760E-03
 0.3480752329180E-03 -0.5964543387420E-02  0.0000000000000E+00  0.1660202276736E-03
 0.4806405851438E-03 -0.6043152551751E-02  0.0000000000000E+00  0.1497643593471E-03
 0.6046822400444E-03 -0.6114184870685E-02  0.0000000000000E+00  0.1283876753140E-03
 0.7174857575011E-03 -0.6175619306476E-02  0.0000000000000E+00  0.1027592581471E-03
 0.8168795362662E-03 -0.6225855798645E-02  0.0000000000000E+00  0.7388441559448E-04
 0.9013030489538E-03 -0.6263749741867E-02  0.0000000000000E+00  0.4276891754479E-04
 0.9698076909303E-03 -0.6288590135371E-02  0.0000000000000E+00  0.1030247877790E-04
 0.1022005556155E-02 -0.6300036162739E-02  0.0000000000000E+00 -0.2281694244853E-04
 0.1057988425109E-02 -0.6298032121377E-02  0.0000000000000E+00 -0.5611259032789E-04
 0.1078238443554E-02 -0.6282719357639E-02  0.0000000000000E+00 -0.8931808507572E-04
 0.1083547837271E-02 -0.6254359509977E-02  0.0000000000000E+00 -0.1223379691384E-03
 0.1074958940493E-02 -0.6213277949344E-02  0.0000000000000E+00 -0.1551916080612E-03
 0.1053730539884E-02 -0.6159831760101E-02  0.0000000000000E+00 -0.1879500289867E-03
 0.1021332528627E-02 -0.6094403203153E-02  0.0000000000000E+00 -0.2206721615368E-03
 0.9794678899706E-03 -0.6017417300758E-02  0.0000000000000E+00 -0.2533440950572E-03
 0.9301212167539E-03 -0.5929384220094E-02  0.0000000000000E+00 -0.2858219614643E-03
 0.8756276577639E-03 -0.5830959248663E-02  0.0000000000000E+00 -0.3177810367430E-03
 0.8187611130886E-03 -0.5723022398417E-02  0.0000000000000E+00 -0.3486699808273E-03
 0.7628368046912E-03 -0.5606775508560E-02  0.0000000000000E+00 -0.3776711077145E-03
 0.7118192513276E-03 -0.5483847446523E-02  0.0000000000000E+00 -0.4036708633817E-03
 0.6704311519324E-03 -0.5356408717488E-02  0.0000000000000E+00 -0.4252417549913E-03
 0.6442523274426E-03 -0.5227286801860E-02  0.0000000000000E+00 -0.4406454189828E-03
 0.6397982505911E-03 -0.5100076259522E-02  0.0000000000000E+00 -0.4478773705711E-03
 0.6645582304188E-03 -0.4979231763466E-02  0.0000000000000E+00 -0.4447325004400E-03
 0.7269641407195E-03 -0.4870114547358E-02  0.0000000000000E+00 -0.4288794039186E-03
 0.8362674503835E-03 -0.4778975464769E-02  0.0000000000000E+00 -0.3979977408445E-03
 0.1002295106829E-02 -0.4712847802034E-02  0.0000000000000E+00 -0.3500093149365E-03
 0.1235049764253E-02 -0.4679317643896E-02  0.0000000000000E+00 -0.2834114673071E-03
 0.1544121148004E-02 -0.4686138780288E-02  0.0000000000000E+00 -0.1977014436382E-03
 0.1937884407560E-02 -0.4740665249763E-02  0.0000000000000E+00 -0.9385270607581E-04
 0.2422489390956E-02 -0.4849095961197E-02  0.0000000000000E+00  0.2523187781014E-04
 0.3000723743225E-02 -0.5015570227223E-02  0.0000000000000E+00  0.1544060026208E-03
 0.3670915679095E-02 -0.5241240499062E-02  0.0000000000000E+00  0.2862290265775E-03
 0.4425977340024E-02 -0.5523456668066E-02  0.0000000000000E+00  0.4113150970043E-03
 0.5252767139951E-02 -0.5855203008626E-02  0.0000000000000E+00  0.5191975645653E-03
 0.6132101814411E-02 -0.6225029911579E-02  0.0000000000000E+00  0.5996653593836E-03
 0.7039552219125E-02 -0.6617617997327E-02  0.0000000000000E+00  0.6443546238857E-03
 0.7947028530959E-02 -0.7014989824173E-02  0.0000000000000E+00  0.6482783903110E-03
 0.8824874675972E-02 -0.7398191908932E-02  0.0000000000000E+00  0.6110073132639E-03
 0.7066198400055E-04 -0.5795564027726E-02  0.0000000000000E+00  0.2333916970069E-03
 0.2118135723319E-03 -0.5882782366841E-02  0.0000000000000E+00  0.2276080023833E-03
 0.3508854917537E-03 -0.5967285990115E-02  0.0000000000000E+00  0.2140306024375E-03
 0.4844670962243E-03 -0.6046492025616E-02  0.0000000000000E+00  0.1930471034231E-03
 0.6093800803041E-03 -0.6118019252892E-02  0.0000000000000E+00  0.1654630619179E-03
 0.7228750884723E-03 -0.6179834364661E-02  0.0000000000000E+00  0.1324191203456E-03
 0.8227729495022E-03 -0.6230348250508E-02  0.0000000000000E+00  0.9523120489102E-04
 0.9075316856807E-03 -0.6268447905060E-02  0.0000000000000E+00  0.5520994167492E-04
 0.9762402062798E-03 -0.6293467473460E-02  0.0000000000000E+00  0.1350791809354E-04
 0.1028557498837E-02 -0.6305116267091E-02  0.0000000000000E+00 -0.2897756361644E-04
 0.1064622542851E-02 -0.6303386115905E-02  0.0000000000000E+00 -0.7164034190196E-04
 0.1084958089712E-02 -0.6288457964227E-02  0.0000000000000E+00 -0.1141488431823E-03
 0.1090386091519E-02 -0.6260622170715E-02  0.0000000000000E+00 -0.1563930467528E-03
 0.1081965688201E-02 -0.6220220886127E-02  0.0000000000000E+00 -0.1984108313431E-03
 0.1060959052610E-02 -0.6167616100286E-02  0.0000000000000E+00 -0.2403060754334E-03
 0.1028826394905E-02 -0.6103183617734E-02  0.0000000000000E+00 -0.2821666393985E-03
 0.9872486382516E-03 -0.6027331133233E-02  0.0000000000000E+00 -0.3239866136442E-03
 0.9381766858765E-03 -0.5940540806853E-02  0.0000000000000E+00 -0.3655933777884E-03
 0.8839011146226E-03 -0.5843429154822E-02  0.0000000000000E+00 -0.4065826082713E-03
 0.8271411746672E-03 -0.5736826320354E-02  0.0000000000000E+00 -0.4462597324300E-03
 0.7711483963350E-03 -0.5621872761692E-02  0.0000000000000E+00 -0.4835888820166E-03
 0.7198160954889E-03 -0.5500124290136E-02  0.0000000000000E+00 -0.5171546222044E-03
 0.6777905979048E-03 -0.5373667021083E-02  0.0000000000000E+00 -0.5451379284040E-03
 0.6505738979966E-03 -0.5245234369939E-02  0.0000000000000E+00 -0.5653186335114E-03
 0.6446079881921E-03 -0.5118321857889E-02  0.0000000000000E+00 -0.5751305316205E-03
 0.6673202916045E-03 -0.4997285998347E-02  0.0000000000000E+00 -0.5717425491960E-03
 0.7271018235368E-03 -0.4887396828500E-02  0.0000000000000E+00 -0.5521504557840E-03
 0.8331982841380E-03 -0.4794831099922E-02  0.0000000000000E+00 -0.5133483106661E-03
 0.9954848453608E-03 -0.4726580782518E-02  0.0000000000000E+00 -0.4526199342816E-03
 0.1224088097496E-02 -0.4690243659588E-02  0.0000000000000E+00 -0.3679634655333E-03
 0.1528817476255E-02 -0.4693659505307E-02  0.0000000000000E+00 -0.2586373802954E-03
 0.1918374893662E-02 -0.4744358761627E-02  0.0000000000000E+00 -0.1257811427902E-03
 0.2399337177046E-02 -0.4848809711709E-02  0.0000000000000E+00  0.2698346787461E-04
 0.2974986380056E-02 -0.5011494023485E-02  0.0000000000000E+00  0.1931202588951E-03
 0.3644147450833E-02 -0.5233931740758E-02  0.0000000000000E+00  0.3630799089853E-03
 0.4400132449217E-02 -0.5513791056695E-02  0.0000000000000E+00  0.5247197310822E-03
 0.5229988589680E-02 -0.5844235409469E-02  0.0000000000000E+00  0.6644061811747E-03
 0.6114415636040E-02 -0.6213776613708E-02  0.0000000000000E+00  0.7687575572579E-03
 0.7028520869831E-02 -0.6606802587588E-02  0.0000000000000E+00  0.8267448167590E-03
 0.7943437150511E-02 -0.7004811658939E-02  0.0000000000000E+00  0.8317220441459E-03
 0.8828517232739E-02 -0.7388168671802E-02  0.0000000000000E+00  0.7829944089824E-03
 0.7137431981951E-04 -0.5797290019490E-02  0.0000000000000E+00  0.2862414860921E-03
 0.2139518432396E-03 -0.5885385184068E-02  0.0000000000000E+00  0.2791460882784E-03
 0.3544130250243E-03 -0.5970724513755E-02  0.0000000000000E+00  0.2624715025141E-03
 0.4892691149327E-03 -0.6050674503072E-02  0.0000000000000E+00  0.2366946323578E-03
 0.6152706948163E-03 -0.6122813742817E-02  0.0000000000000E+00  0.2028247558157E-03
 0.7296241124990E-03 -0.6185093697261E-02  0.0000000000000E+00  0.1622925136205E-03
 0.8301416331944E-03 -0.6235940210506E-02  0.0000000000000E+00  0.1167426354450E-03
 0.9153063094820E-03 -0.6274281622162E-02  0.0000000000000E+00  0.6780385273059E-04
 0.9842559944243E-03 -0.6299510301286E-02  0.0000000000000E+00  0.1689783442121E-04
 0.1036710000092E-02 -0.6311399532078E-02  0.0000000000000E+00 -0.3487932002666E-04
 0.1072867420012E-02 -0.6310001257051E-02  0.0000000000000E+00 -0.8679762816728E-04
 0.1093302299965E-02 -0.6295546089653E-02  0.0000000000000E+00 -0.1384688372482E-03
 0.1098873874549E-02 -0.6268360141723E-02  0.0000000000000E+00 -0.1897780341249E-03
 0.1090662209510E-02 -0.6228806294069E-02  0.0000000000000E+00 -0.2407913152795E-03
 0.1069933600636E-02 -0.6177252501630E-02  0.0000000000000E+00 -0.2916546814387E-03
 0.1038136133682E-02 -0.6114066519202E-02  0.0000000000000E+00 -0.3424937840300E-03
 0.9969232813335E-03 -0.6039634638142E-02  0.0000000000000E+00 -0.3933194675955E-03
 0.9482041109928E-03 -0.5954404502290E-02  0.0000000000000E+00 -0.4439394071469E-03
 0.8942138845147E-03 -0.5858944864247E-02  0.0000000000000E+00 -0.4938793774962E-03
 0.8376040122579E-03 -0.5754024390783E-02  0.0000000000000E+00 -0.5423121522402E-03
 0.7815468843274E-03 -0.5640707765871E-02  0.0000000000000E+00 -0.5879951843732E-03
 0.7298471925386E-03 -0.5520460433427E-02  0.0000000000000E+00 -0.6292233803153E-03
 0.6870559426812E-03 -0.5395263840589E-02  0.0000000000000E+00 -0.6637985813988E-03
 0.6585775643473E-03 -0.5267734309749E-02  0.0000000000000E+00 -0.6890303359292E-03
 0.6507612533938E-03 -0.5141243471626E-02  0.0000000000000E+00 -0.7017996040336E-03
 0.6709551853015E-03 -0.5020024168330E-02  0.0000000000000E+00 -0.6986533834484E-03
 0.7274961517423E-03 -0.4909230228860E-02  0.0000000000000E+00 -0.6759109419117E-03
 0.8296179830476E-03 -0.4814941962623E-02  0.0000000000000E+00 -0.6298654206107E-03
 0.9872499875414E-03 -0.4744094092437E-02  0.0000000000000E+00 -0.5571312414196E-03
 0.1210666600572E-02 -0.4704291884077E-02  0.0000000000000E+00 -0.4551562910493E-03
 0.1509945219053E-02 -0.4703474860922E-02  0.0000000000000E+00 -0.3228891980348E-03
 0.1894192113854E-02 -0.4749387447191E-02  0.0000000000000E+00 -0.1615497410141E-03
 0.2370519073526E-02 -0.4848831813424E-02  0.0000000000000E+00  0.2460818801381E-04
 0.2942835184403E-02 -0.5006720861771E-02  0.0000000000000E+00  0.2277248672784E-03
 0.3610603931904E-02 -0.5225044739981E-02  0.0000000000000E+00  0.4361617452897E-03
 0.4367661113690E-02 -0.5501886111077E-02  0.0000000000000E+00  0.6349673112465E-03
 0.5201313722041E-02 -0.5830650217533E-02  0.0000000000000E+00  0.8072083044848E-03
 0.6092130678128E-02 -0.6199813020486E-02  0.0000000000000E+00  0.9361365443914E-03
 0.7014640848502E-02 -0.6593398599962E-02  0.0000000000000E+00  0.1007842698767E-02
 0.7938992364823E-02 -0.6992241963301E-02  0.0000000000000E+00  0.1013839386845E-02
 0.8833275429944E-02 -0.7375840841261E-02  0.0000000000000E+00  0.9530536587249E-03
 0.7223260720853E-04 -0.5799372094639E-02  0.0000000000000E+00  0.3396846005101E-03
 0.2165301268511E-03 -0.5888522890712E-02  0.0000000000000E+00  0.3312605897822E-03
 0.3586684433483E-03 -0.5974866786306E-02  0.0000000000000E+00  0.3114368903866E-03
 0.4950601569947E-03 -0.6055706287863E-02  0.0000000000000E+00  0.2807823728023E-03
 0.6223671027776E-03 -0.6128569943098E-02  0.0000000000000E+00  0.2405265607853E-03
 0.7377415682572E-03 -0.6191391176571E-02  0.0000000000000E+00  0.1924137833350E-03
 0.8389869799093E-03 -0.6242615751261E-02  0.0000000000000E+00  0.1384405180547E-03
 0.9246192479583E-03 -0.6281224423782E-02  0.0000000000000E+00  0.8056990813343E-04
 0.9938380373046E-03 -0.6306682103328E-02  0.0000000000000E+00  0.2049992723574E-04
 0.1046437566624E-02 -0.6318840756258E-02  0.0000000000000E+00 -0.4047577480731E-04
 0.1082690672347E-02 -0.6317825435913E-02  0.0000000000000E+00 -0.1015107653512E-03
 0.1103233693454E-02 -0.6303926553157E-02  0.0000000000000E+00 -0.1621708838000E-03
 0.1108970739048E-02 -0.6277512857440E-02  0.0000000000000E+00 -0.2223482885007E-03
 0.1101006830816E-02 -0.6238971711135E-02  0.0000000000000E+00 -0.2821491096348E-03
 0.1080613029392E-02 -0.6188677962632E-02  0.0000000000000E+00 -0.3417726278071E-03
 0.1049222831562E-02 -0.6126989729236E-02  0.0000000000000E+00 -0.4013928748162E-03
 0.1008456951511E-02 -0.6054267993329E-02  0.0000000000000E+00 -0.4610478896710E-03
 0.9601746635706E-03 -0.5970919706023E-02  0.0000000000000E+00 -0.5205364578281E-03
 0.9065454467041E-03 -0.5877457337873E-02  0.0000000000000E+00 -0.5793260969351E-03
 0.8501400086986E-03 -0.5774577054336E-02  0.0000000000000E+00 -0.6364696971618E-03
 0.7940364849346E-03 -0.5663254021595E-02  0.0000000000000E+00 -0.6905320001112E-03
 0.7419338031548E-03 -0.5544846665398E-02  0.0000000000000E+00 -0.7395331968619E-03
 0.6982688444684E-03 -0.5421212074489E-02  0.0000000000000E+00 -0.7809113035507E-03
 0.6683286143961E-03 -0.5294826842667E-02  0.0000000000000E+00 -0.8115200458809E-03
 0.6583496563299E-03 -0.5168913893171E-02  0.0000000000000E+00 -0.8276991031834E-03
 0.6755823868936E-03 -0.5047556361818E-02  0.0000000000000E+00 -0.8253795474801E-03
 0.7282940227803E-03 -0.4935765525608E-02  0.0000000000000E+00 -0.8002011480087E-03
 0.8256974015683E-03 -0.4839500502429E-02  0.0000000000000E+00 -0.7477392765929E-03
 0.9777777831314E-03 -0.4765619177172E-02  0.0000000000000E+00 -0.6639025640171E-03
 0.1194976486374E-02 -0.4721725264384E-02  0.0000000000000E+00 -0.5455278810510E-03
 0.1487682303455E-02 -0.4715866386151E-02  0.0000000000000E+00 -0.3911676129430E-03
 0.1865480151660E-02 -0.4756033682856E-02  0.0000000000000E+00 -0.2020155420467E-03
 0.2336124909348E-02 -0.4849425176114E-02  0.0000000000000E+00  0.1715269669531E-04
 0.2904290823109E-02 -0.5001475463637E-02  0.0000000000000E+00  0.2572417359063E-03
 0.3570233491486E-02 -0.5214754163481E-02  0.0000000000000E+00  0.5045552214160E-03
 0.4328452989764E-02 -0.5487866097966E-02  0.0000000000000E+00  0.7412746852713E-03
 0.5166604357864E-02 -0.5814533901541E-02  0.0000000000000E+00  0.9470045479938E-03
 0.6065123288519E-02 -0.6183209604303E-02  0.0000000000000E+00  0.1101383834790E-02
 0.6997846258133E-02 -0.6577483754776E-02  0.0000000000000E+00  0.1187349929331E-02
 0.7933719998035E-02 -0.6977383090857E-02  0.0000000000000E+00  0.1194343205586E-02
 0.8839285316809E-02 -0.7361342955554E-02  0.0000000000000E+00  0.1120769514732E-02
 0.7323900807181E-04 -0.5801817461305E-02  0.0000000000000E+00  0.3938312098550E-03
 0.2195560040384E-03 -0.5892204836363E-02  0.0000000000000E+00  0.3840575831797E-03
 0.3636653152077E-03 -0.5979723214466E-02  0.0000000000000E+00  0.3610196236030E-03
 0.5018573987153E-03 -0.6061595843359E-02  0.0000000000000E+00  0.3253821024007E-03
 0.6306857482328E-03 -0.6135290367939E-02  0.0000000000000E+00  0.2786159832494E-03
 0.7472384303495E-03 -0.6198719623511E-02  0.0000000000000E+00  0.2228089778491E-03
 0.8493107488728E-03 -0.6250355531833E-02  0.0000000000000E+00  0.1603374473120E-03
 0.9354610382340E-03 -0.6289244030880E-02  0.0000000000000E+00  0.9351833199020E-04
 0.1004965438821E-02 -0.6314938413453E-02  0.0000000000000E+00  0.2433386885828E-04
 0.1057709047873E-02 -0.6327385058447E-02  0.0000000000000E+00 -0.4572708072026E-04
 0.1094052896055E-02 -0.6326795579190E-02  0.0000000000000E+00 -0.1157111366482E-03
 0.1114706935189E-02 -0.6313530320819E-02  0.0000000000000E+00 -0.1851514751167E-03
 0.1120627735450E-02 -0.6288007325394E-02  0.0000000000000E+00 -0.2539616559096E-03
 0.1112949160986E-02 -0.6250641914897E-02  0.0000000000000E+00 -0.3223017268843E-03
 0.1092947544463E-02 -0.6201816582738E-02  0.0000000000000E+00 -0.3904371752964E-03
 0.1062039292675E-02 -0.6141878220555E-02  0.0000000000000E+00 -0.4586025785911E-03
 0.1021807152001E-02 -0.6071158800874E-02  0.0000000000000E+00 -0.5268751378784E-03
 0.9740528783300E-03 -0.5990018809185E-02  0.0000000000000E+00 -0.5950571827115E-03
 0.9208700384099E-03 -0.5898906491095E-02  0.0000000000000E+00 -0.6625714373139E-03
 0.8647361788766E-03 -0.5798435194620E-02  0.0000000000000E+00 -0.7283657710654E-03
 0.8086204835990E-03 -0.5689477618459E-02  0.0000000000000E+00 -0.7908285827044E-03
 0.7560993400752E-03 -0.5573269335572E-02  0.0000000000000E+00 -0.8477230022987E-03
 0.7114769131314E-03 -0.5451524132277E-02  0.0000000000000E+00 -0.8961415123359E-03
 0.6799028447858E-03 -0.5326556773579E-02  0.0000000000000E+00 -0.9324996196507E-03
 0.6674806127451E-03 -0.5201416794159E-02  0.0000000000000E+00 -0.9526103194560E-03
 0.6813430960570E-03 -0.5080011085187E-02  0.0000000000000E+00 -0.9517973358774E-03
 0.7296703209662E-03 -0.4967180575983E-02  0.0000000000000E+00 -0.9250195012977E-03
 0.8216414779154E-03 -0.4868735696087E-02  0.0000000000000E+00 -0.8671171755152E-03
 0.9672946936309E-03 -0.4791433600426E-02  0.0000000000000E+00 -0.7732531177546E-03
 0.1177251230201E-02 -0.4742861602589E-02  0.0000000000000E+00 -0.6395838588811E-03
 0.1462248577320E-02 -0.4731177033559E-02  0.0000000000000E+00 -0.4641643689594E-03
 0.1832420031552E-02 -0.4764644178359E-02  0.0000000000000E+00 -0.2480348266105E-03
 0.2296271148909E-02 -0.4850915125637E-02  0.0000000000000E+00  0.3643742296999E-05
 0.2859385482188E-02 -0.4996037851529E-02  0.0000000000000E+00  0.2806539382205E-03
 0.3522978389789E-02 -0.5203278730094E-02  0.0000000000000E+00  0.5672901567611E-03
 0.4282375643715E-02 -0.5471886680768E-02  0.0000000000000E+00  0.8428067585297E-03
 0.5125690917621E-02 -0.5795993993015E-02  0.0000000000000E+00  0.1083153816108E-02
 0.6033239499560E-02 -0.6164052857880E-02  0.0000000000000E+00  0.1264056149582E-02
 0.6978052679636E-02 -0.6559152418856E-02  0.0000000000000E+00  0.1364959781022E-02
 0.7927647163214E-02 -0.6960358395690E-02  0.0000000000000E+00  0.1372949092494E-02
 0.8846709234367E-02 -0.7344836835482E-02  0.0000000000000E+00  0.1285733356141E-02
 0.7439627780099E-04 -0.5804635640640E-02  0.0000000000000E+00  0.4487928230851E-03
 0.2230390623331E-03 -0.5896443271560E-02  0.0000000000000E+00  0.4376438901099E-03
 0.3694206690112E-03 -0.5985307378817E-02  0.0000000000000E+00  0.4113111693062E-03
 0.5096822398502E-03 -0.6068354306791E-02  0.0000000000000E+00  0.3705610190853E-03
 0.6402469649426E-03 -0.6142978759702E-02  0.0000000000000E+00  0.3171326911493E-03
 0.7581281634885E-03 -0.6207070868620E-02  0.0000000000000E+00  0.2534939256467E-03
 0.8611150808163E-03 -0.6259136623756E-02  0.0000000000000E+00  0.1824348002491E-03
 0.9478202474821E-03 -0.6298302024475E-02  0.0000000000000E+00  0.1066484938327E-03
 0.1017613132639E-02 -0.6324226425659E-02  0.0000000000000E+00  0.2840981281027E-04
 0.1070487311511E-02 -0.6336967511056E-02  0.0000000000000E+00 -0.5060110523815E-04
 0.1106907366725E-02 -0.6336837352704E-02  0.0000000000000E+00 -0.1293359925135E-03
 0.1127668482430E-02 -0.6324276290779E-02  0.0000000000000E+00 -0.2073113315711E-03
 0.1133787202019E-02 -0.6299757976059E-02  0.0000000000000E+00 -0.2844788514041E-03
 0.1126429902310E-02 -0.6263728801770E-02  0.0000000000000E+00 -0.3610684027749E-03
 0.1106878510237E-02 -0.6216579426693E-02  0.0000000000000E+00 -0.4374262242147E-03
 0.1076529788191E-02 -0.6158643919365E-02  0.0000000000000E+00 -0.5138609911906E-03
 0.1036923421162E-02 -0.6090221781561E-02  0.0000000000000E+00 -0.5905023684408E-03
 0.9897961991336E-03 -0.6011621737525E-02  0.0000000000000E+00 -0.6671701038656E-03
 0.9371560538353E-03 -0.5923220545746E-02  0.0000000000000E+00 -0.7432572592956E-03
 0.8813753990750E-03 -0.5825539259695E-02  0.0000000000000E+00 -0.8176235184493E-03
 0.8253002796911E-03 -0.5719336105160E-02  0.0000000000000E+00 -0.8884996268647E-03
 0.7723682258340E-03 -0.5605708950281E-02  0.0000000000000E+00 -0.9534119949121E-03
 0.7267323991850E-03 -0.5486210257756E-02  0.0000000000000E+00 -0.1009128910595E-02
 0.6933851323592E-03 -0.5362971573826E-02  0.0000000000000E+00 -0.1051648614064E-02
 0.6782758969377E-03 -0.5238844649323E-02  0.0000000000000E+00 -0.1076275468140E-02
 0.6883989324943E-03 -0.5117533176316E-02  0.0000000000000E+00 -0.1077737684737E-02
 0.7318269884860E-03 -0.5003678453146E-02  0.0000000000000E+00 -0.1050314295924E-02
 0.8176889776784E-03 -0.4902911728279E-02  0.0000000000000E+00 -0.9880943759329E-03
 0.9560671358074E-03 -0.4821860663237E-02  0.0000000000000E+00 -0.8854526379141E-03
 0.1157768593154E-02 -0.4768074516718E-02  0.0000000000000E+00 -0.7377889059934E-03
 0.1433909221212E-02 -0.4749813773041E-02  0.0000000000000E+00 -0.5425456672737E-03
 0.1795234306665E-02 -0.4775634267703E-02  0.0000000000000E+00 -0.3004600705701E-03
 0.2251106005945E-02 -0.4853695022275E-02  0.0000000000000E+00 -0.1691353866065E-04
 0.2808167440405E-02 -0.4990749481455E-02  0.0000000000000E+00  0.2968988849109E-03
 0.3468777598319E-02 -0.5190886756272E-02  0.0000000000000E+00  0.6233345989416E-03
 0.4229274813050E-02 -0.5454138935837E-02  0.0000000000000E+00  0.9386641401635E-03
 0.5078370330308E-02 -0.5775161360571E-02  0.0000000000000E+00  0.1214962842837E-02
 0.5996291863773E-02 -0.6142446500062E-02  0.0000000000000E+00  0.1423678969534E-02
 0.6955154314084E-02 -0.6538516529423E-02  0.0000000000000E+00  0.1540354130047E-02
 0.7920800106648E-02 -0.6941312817820E-02  0.0000000000000E+00  0.1549374120068E-02
 0.8855734985617E-02 -0.7326511792891E-02  0.0000000000000E+00  0.1447543671243E-02
 0.7570788642343E-04 -0.5807839040348E-02  0.0000000000000E+00  0.5046826527614E-03
 0.2269912870016E-03 -0.5901254040022E-02  0.0000000000000E+00  0.4921272783604E-03
 0.3759556165207E-03 -0.5991636766344E-02  0.0000000000000E+00  0.4624012657458E-03
 0.5185609925193E-03 -0.6075996109596E-02  0.0000000000000E+00  0.4163806531197E-03
 0.6510755291611E-03 -0.6151640451188E-02  0.0000000000000E+00  0.3561067486233E-03
 0.7704270038869E-03 -0.6216435791224E-02  0.0000000000000E+00  0.2844720890844E-03
 0.8744024829842E-03 -0.6268932263595E-02  0.0000000000000E+00  0.2047205718061E-03
 0.9616832276554E-03 -0.6308353418103E-02  0.0000000000000E+00  0.1199470111131E-03
 0.1031751513217E-02 -0.6334484510567E-02  0.0000000000000E+00  0.3272690547597E-04
 0.1084728850240E-02 -0.6347512699658E-02  0.0000000000000E+00 -0.5507450108809E-04
 0.1121199687253E-02 -0.6347864818149E-02  0.0000000000000E+00 -0.1423291788661E-03
 0.1142056298938E-02 -0.6336071056615E-02  0.0000000000000E+00 -0.2285558927992E-03
 0.1148382537421E-02 -0.6312666508739E-02  0.0000000000000E+00 -0.3137638083410E-03
 0.1141380651660E-02 -0.6278131271128E-02  0.0000000000000E+00 -0.3982703668309E-03
 0.1122338238851E-02 -0.6232864393369E-02  0.0000000000000E+00 -0.4825185294545E-03
 0.1092629788894E-02 -0.6177185503278E-02  0.0000000000000E+00 -0.5669057809754E-03
 0.1053746965913E-02 -0.6111358447956E-02  0.0000000000000E+00 -0.6516286566269E-03
 0.1007354474355E-02 -0.6035635449150E-02  0.0000000000000E+00 -0.7365394295915E-03
 0.9553653677240E-03 -0.5950315305999E-02  0.0000000000000E+00 -0.8210181205571E-03
 0.9000355310697E-03 -0.5855818274316E-02  0.0000000000000E+00 -0.9038548938376E-03
 0.8440742916337E-03 -0.5752777202567E-02  0.0000000000000E+00 -0.9831437529557E-03
 0.7907645722149E-03 -0.5642138561832E-02  0.0000000000000E+00 -0.1056197374415E-02
 0.7440906627271E-03 -0.5525276589201E-02  0.0000000000000E+00 -0.1119484287830E-02
 0.7088677437324E-03 -0.5404119141449E-02  0.0000000000000E+00 -0.1168609967875E-02
 0.6908698971263E-03 -0.5281296279893E-02  0.0000000000000E+00 -0.1198392078673E-02
 0.6969303151198E-03 -0.5160281291477E-02  0.0000000000000E+00 -0.1202979151369E-02
 0.7349917934862E-03 -0.5045485137070E-02  0.0000000000000E+00 -0.1175975265225E-02
 0.8141120017102E-03 -0.4942326260231E-02  0.0000000000000E+00 -0.1110704477876E-02
 0.9444021328445E-03 -0.4857268723713E-02  0.0000000000000E+00 -0.1000711108929E-02
 0.1136852788174E-02 -0.4797794322397E-02  0.0000000000000E+00 -0.8405568150205E-03
 0.1402978622556E-02 -0.4772250454222E-02  0.0000000000000E+00 -0.6269439769117E-03
 0.1754192463837E-02 -0.4789492887449E-02  0.0000000000000E+00 -0.3601352611518E-03
 0.2200815660920E-02 -0.4858233003019E-02  0.0000000000000E+00 -0.4553608877672E-04
 0.2750706813354E-02 -0.4986020802551E-02  0.0000000000000E+00  0.3048618694978E-03
 0.3407570499466E-02 -0.5177903135051E-02  0.0000000000000E+00  0.6715831888380E-03
 0.4168974898795E-02 -0.5434854439661E-02  0.0000000000000E+00  0.1027869230346E-02
 0.5024403458486E-02 -0.5752193008888E-02  0.0000000000000E+00  0.1341674192465E-02
 0.5954055536466E-02 -0.6118512921561E-02  0.0000000000000E+00  0.1579739353807E-02
 0.6929020682091E-02 -0.6515706926795E-02  0.0000000000000E+00  0.1713200147850E-02
 0.7913201751671E-02 -0.6920413892071E-02  0.0000000000000E+00  0.1723334539903E-02
 0.8866574389095E-02 -0.7306584840380E-02  0.0000000000000E+00  0.1605805582884E-02
 0.7717817063307E-04 -0.5811443658597E-02  0.0000000000000E+00  0.5616160553864E-03
 0.2314275478816E-03 -0.5906657427319E-02  0.0000000000000E+00  0.5476166941248E-03
 0.3832961219017E-03 -0.5998733660107E-02  0.0000000000000E+00  0.5143774985961E-03
 0.5285257146036E-03 -0.6084539711797E-02  0.0000000000000E+00  0.4628955587129E-03
 0.6632013040099E-03 -0.6161282764789E-02  0.0000000000000E+00  0.3955565501121E-03
 0.7841542556919E-03 -0.6226804313864E-02  0.0000000000000E+00  0.3157321283727E-03
 0.8891757621908E-03 -0.6279711503044E-02  0.0000000000000E+00  0.2271670065129E-03
 0.9770337802874E-03 -0.6319346106282E-02  0.0000000000000E+00  0.1333857639649E-03
 0.1047345969695E-02 -0.6345641618124E-02  0.0000000000000E+00  0.3727181287705E-04
 0.1100383305542E-02 -0.6358934197492E-02  0.0000000000000E+00 -0.5913369602988E-04
 0.1136867375844E-02 -0.6359780038258E-02  0.0000000000000E+00 -0.1546417598598E-03
 0.1157799531696E-02 -0.6348808647724E-02  0.0000000000000E+00 -0.2487957112706E-03
 0.1164337951822E-02 -0.6326621733338E-02  0.0000000000000E+00 -0.3416839582371E-03
 0.1157723687739E-02 -0.6293735113188E-02  0.0000000000000E+00 -0.4337310814723E-03
 0.1139249764140E-02 -0.6250556085737E-02  0.0000000000000E+00 -0.5254939250736E-03
 0.1110265673784E-02 -0.6197388188265E-02  0.0000000000000E+00 -0.6174743819664E-03
 0.1072210255336E-02 -0.6134456745955E-02  0.0000000000000E+00 -0.7099511047320E-03
 0.1026669390666E-02 -0.6061953372426E-02  0.0000000000000E+00 -0.8028249931014E-03
 0.9754525703914E-03 -0.5980093338919E-02  0.0000000000000E+00 -0.8954809357860E-03
 0.9206884259925E-03 -0.5889188714163E-02  0.0000000000000E+00 -0.9866599117090E-03
 0.8649367053643E-03 -0.5789737328778E-02  0.0000000000000E+00 -0.1074342194061E-02
 0.8113106618214E-03 -0.5682521911782E-02  0.0000000000000E+00 -0.1155652290200E-02
 0.7636083989519E-03 -0.5568722907693E-02  0.0000000000000E+00 -0.1226786528918E-02
 0.7264483538302E-03 -0.5450045176876E-02  0.0000000000000E+00 -0.1282985849243E-02
 0.7054075355948E-03 -0.5328873937075E-02  0.0000000000000E+00 -0.1318607453929E-02
 0.7071344757843E-03 -0.5208424863399E-02  0.0000000000000E+00 -0.1327240788876E-02
 0.7394167337007E-03 -0.5092846630836E-02  0.0000000000000E+00 -0.1301824771417E-02
 0.8112151867883E-03 -0.4987308127726E-02  0.0000000000000E+00 -0.1234909029135E-02
 0.9326478023730E-03 -0.4898070036435E-02  0.0000000000000E+00 -0.1119167234845E-02
 0.1114876741601E-02 -0.4832508650933E-02  0.0000000000000E+00 -0.9482387761715E-03
 0.1369824724631E-02 -0.4799030775902E-02  0.0000000000000E+00 -0.7179476932256E-03
 0.1709617261474E-02 -0.4806788173315E-02  0.0000000000000E+00 -0.4278890042535E-03
 0.2145631833685E-02 -0.4865079911245E-02  0.0000000000000E+00 -0.8326166866804E-04
 0.2687102851384E-02 -0.4982340464341E-02  0.0000000000000E+00  0.3033702318120E-03
 0.3339301902260E-02 -0.5164718087275E-02  0.0000000000000E+00  0.7108445994894E-03
 0.4101280018666E-02 -0.5414311748364E-02  0.0000000000000E+00  0.1109350050150E-02
 0.4963512119281E-02 -0.5727275540974E-02  0.0000000000000E+00  0.1462451805115E-02
 0.5906263536933E-02 -0.6092394863037E-02  0.0000000000000E+00  0.1731677444700E-02
 0.6899493024465E-02 -0.6490875268341E-02  0.0000000000000E+00  0.1883146452573E-02
 0.7904869153879E-02 -0.6897853535059E-02  0.0000000000000E+00  0.1894541699609E-02
 0.8879460933562E-02 -0.7285300961390E-02  0.0000000000000E+00  0.1760128436470E-02
 0.7881252665046E-04 -0.5815469943269E-02  0.0000000000000E+00  0.6197110674682E-03
 0.2363662045721E-03 -0.5912679196029E-02  0.0000000000000E+00  0.6042225387194E-03
 0.3914739480158E-03 -0.6006626213184E-02  0.0000000000000E+00  0.5673247745477E-03
 0.5396152132051E-03 -0.6094008463119E-02  0.0000000000000E+00  0.5101517371907E-03
 0.6766599843646E-03 -0.6171915441324E-02  0.0000000000000E+00  0.4354863959011E-03
 0.7993325947842E-03 -0.6238165329692E-02  0.0000000000000E+00  0.3472451337117E-03
 0.9054378902733E-03 -0.6291438730189E-02  0.0000000000000E+00  0.2497280139056E-03
 0.9938527179676E-03 -0.6331220169021E-02  0.0000000000000E+00  0.1469198366421E-03
 0.1064356318229E-02 -0.6357616558766E-02  0.0000000000000E+00  0.4201729077247E-04
 0.1117392914893E-02 -0.6371133959987E-02  0.0000000000000E+00 -0.6277577486459E-04
 0.1153839410158E-02 -0.6372472646009E-02  0.0000000000000E+00 -0.1662325209744E-03
 0.1174818173197E-02 -0.6362370269945E-02  0.0000000000000E+00 -0.2679467535143E-03
 0.1181568224370E-02 -0.6341499436753E-02  0.0000000000000E+00 -0.3681104690528E-03
 0.1175371775545E-02 -0.6310412933945E-02  0.0000000000000E+00 -0.4672765014295E-03
 0.1157526634378E-02 -0.6269525719916E-02  0.0000000000000E+00 -0.5661336346835E-03
 0.1129354451114E-02 -0.6219123548017E-02  0.0000000000000E+00 -0.6653043383756E-03
 0.1092236613628E-02 -0.6159390714685E-02  0.0000000000000E+00 -0.7651651658910E-03
 0.1047673887339E-02 -0.6090454841636E-02  0.0000000000000E+00 -0.8656824701573E-03
 0.9973641592385E-03 -0.6012443125972E-02  0.0000000000000E+00 -0.9662649776025E-03
 0.9432988554416E-03 -0.5925553317868E-02  0.0000000000000E+00 -0.1065626297928E-02
 0.8878761149086E-03 -0.5830140021558E-02  0.0000000000000E+00 -0.1161657942058E-02
 0.8340252794218E-03 -0.5726811422369E-02  0.0000000000000E+00 -0.1251324298178E-02
 0.7853416626604E-03 -0.5616540173711E-02  0.0000000000000E+00 -0.1330580162888E-02
 0.7462278043255E-03 -0.5500790275210E-02  0.0000000000000E+00 -0.1394334039249E-02
 0.7220418646203E-03 -0.5381680020066E-02  0.0000000000000E+00 -0.1436513600855E-02
 0.7192230883557E-03 -0.5262140607778E-02  0.0000000000000E+00 -0.1450175334731E-02
 0.7453760156684E-03 -0.5146025550101E-02  0.0000000000000E+00 -0.1427609025043E-02
 0.8093344906129E-03 -0.5038214475380E-02  0.0000000000000E+00 -0.1360586724476E-02
 0.9211935249374E-03 -0.4944719072466E-02  0.0000000000000E+00 -0.1240875917225E-02
 0.1092264261240E-02 -0.4872762727948E-02  0.0000000000000E+00 -0.1061110001445E-02
 0.1334873664147E-02 -0.4830771280075E-02  0.0000000000000E+00 -0.8160885362576E-03
 0.1661891868571E-02 -0.4828173637958E-02  0.0000000000000E+00 -0.5045250952967E-03
 0.2085840686251E-02 -0.4874878482922E-02  0.0000000000000E+00 -0.1311453884641E-03
 0.2617492894308E-02 -0.4980286391406E-02  0.0000000000000E+00  0.2911886099509E-03
 0.3263928548883E-02 -0.5151798037291E-02  0.0000000000000E+00  0.7398282750166E-03
 0.4025975687165E-02 -0.5392844601799E-02  0.0000000000000E+00  0.1181921628509E-02
 0.4895375439604E-02 -0.5700629329646E-02  0.0000000000000E+00  0.1576363761875E-02
 0.5852600705264E-02 -0.6064257053106E-02  0.0000000000000E+00  0.1878877038308E-02
 0.6866380363468E-02 -0.6464196485642E-02  0.0000000000000E+00  0.2049820064599E-02
 0.7895811271409E-02 -0.6873851020202E-02  0.0000000000000E+00  0.2062696621515E-02
 0.8894646072380E-02 -0.7262933362358E-02  0.0000000000000E+00  0.1910121135604E-02
 0.8061764038589E-04 -0.5819943838682E-02  0.0000000000000E+00  0.6790890567449E-03
 0.2418298508792E-03 -0.5919351844654E-02  0.0000000000000E+00  0.6620569840704E-03
 0.4005278075668E-03 -0.6015349737411E-02  0.0000000000000E+00  0.6213246378834E-03
 0.5518762342624E-03 -0.6104431598850E-02  0.0000000000000E+00  0.5581846918495E-03
 0.6914939324651E-03 -0.6183551077463E-02  0.0000000000000E+00  0.4758835977347E-03
 0.8159883459781E-03 -0.6250506520225E-02  0.0000000000000E+00  0.3789614403261E-03
 0.9231917561744E-03 -0.6304073013049E-02  0.0000000000000E+00  0.2723363279821E-03
 0.1012117278331E-02 -0.6343906990551E-02  0.0000000000000E+00  0.1604853890607E-03
 0.1082736098127E-02 -0.6370317134349E-02  0.0000000000000E+00  0.4692083012675E-04
 0.1135691858893E-02 -0.6384001623186E-02  0.0000000000000E+00 -0.6600920817564E-04
 0.1172035712672E-02 -0.6385819370053E-02  0.0000000000000E+00 -0.1770683030961E-03
 0.1193022699214E-02 -0.6376624041982E-02  0.0000000000000E+00 -0.2859305591794E-03
 0.1199978458493E-02 -0.6357162268840E-02  0.0000000000000E+00 -0.3929183906637E-03
 0.1194227978829E-02 -0.6328024108899E-02  0.0000000000000E+00 -0.4987352979483E-03
 0.1177072712572E-02 -0.6289631060151E-02  0.0000000000000E+00 -0.6042206046669E-03
 0.1149803477798E-02 -0.6242249346533E-02  0.0000000000000E+00 -0.7101337271895E-03
 0.1113739795118E-02 -0.6186020138542E-02  0.0000000000000E+00 -0.8169650975105E-03
 0.1070291530279E-02 -0.6121004496149E-02  0.0000000000000E+00 -0.9247637744044E-03
 0.1021037662342E-02 -0.6047238142220E-02  0.0000000000000E+00 -0.1032982100251E-02
 0.9678233418186E-03 -0.5964799783556E-02  0.0000000000000E+00 -0.1140329406372E-02
 0.9128740233751E-03 -0.5873894193776E-02  0.0000000000000E+00 -0.1244635197969E-02
 0.8589218572748E-03 -0.5774945959145E-02  0.0000000000000E+00 -0.1342734154007E-02
 0.8093436506336E-03 -0.5668707760159E-02  0.0000000000000E+00 -0.1430373264159E-02
 0.7683075530742E-03 -0.5556386624744E-02  0.0000000000000E+00 -0.1502164650898E-02
 0.7409312777128E-03 -0.5439813294317E-02  0.0000000000000E+00 -0.1551642420159E-02
 0.7334194362780E-03 -0.5321608412734E-02  0.0000000000000E+00 -0.1571362487128E-02
 0.7531635115565E-03 -0.5205296980739E-02  0.0000000000000E+00 -0.1552989084586E-02
 0.8088354405576E-03 -0.5095427076187E-02  0.0000000000000E+00 -0.1487521903815E-02
 0.9104696571858E-03 -0.4997710024262E-02  0.0000000000000E+00 -0.1365794366984E-02
 0.1069491984593E-02 -0.4919158990495E-02  0.0000000000000E+00 -0.1179354189730E-02
 0.1298614628912E-02 -0.4868164067916E-02  0.0000000000000E+00 -0.9218260365862E-03
 0.1611467864115E-02 -0.4854394722788E-02  0.0000000000000E+00 -0.5908097656864E-03
 0.2021793313204E-02 -0.4888373768571E-02  0.0000000000000E+00 -0.1902532231265E-03
 0.2542063474311E-02 -0.4980538966508E-02  0.0000000000000E+00  0.2670158813285E-03
 0.3181427781072E-02 -0.5139699131927E-02  0.0000000000000E+00  0.7571305103998E-03
 0.3942831723728E-02 -0.5370852488762E-02  0.0000000000000E+00  0.1244264050618E-02
 0.4819625649761E-02 -0.5672513709916E-02  0.0000000000000E+00  0.1682360587826E-02
 0.5792695886193E-02 -0.6034287507272E-02  0.0000000000000E+00  0.2020654119173E-02
 0.6829455201964E-02 -0.6435871681466E-02  0.0000000000000E+00  0.2212824736377E-02
 0.7886027951626E-02 -0.6848657963227E-02  0.0000000000000E+00  0.2227482840019E-02
 0.8912393074669E-02 -0.7239783755446E-02  0.0000000000000E+00  0.2055382356044E-02
 0.8260178536303E-04 -0.5824898061820E-02  0.0000000000000E+00  0.7398755141702E-03
 0.2478462430845E-03 -0.5926716139475E-02  0.0000000000000E+00  0.7212343295054E-03
 0.4105047770959E-03 -0.6024948247852E-02  0.0000000000000E+00  0.6764543740312E-03
 0.5653648794965E-03 -0.6115845382574E-02  0.0000000000000E+00  0.6070170074727E-03
 0.7077531126037E-03 -0.6196205548546E-02  0.0000000000000E+00  0.5167150009478E-03
 0.8341517132966E-03 -0.6263814017141E-02  0.0000000000000E+00  0.4108069515355E-03
 0.9424397730558E-03 -0.6317567216713E-02  0.0000000000000E+00  0.2949003919622E-03
 0.1031800364475E-02 -0.6357328157481E-02  0.0000000000000E+00  0.1739974847069E-03
 0.1102431719821E-02 -0.6383639104229E-02  0.0000000000000E+00  0.5192342519443E-04
 0.1155205510865E-02 -0.6397413709446E-02  0.0000000000000E+00 -0.6885438140859E-04
 0.1191366590433E-02 -0.6399683532041E-02  0.0000000000000E+00 -0.1871241350381E-03
 0.1212313701256E-02 -0.6391424750187E-02  0.0000000000000E+00 -0.3026742438806E-03
 0.1219463856924E-02 -0.6373459673942E-02  0.0000000000000E+00 -0.4159867117895E-03
 0.1214185503314E-02 -0.6346414793537E-02  0.0000000000000E+00 -0.5279390685857E-03
 0.1197782007443E-02 -0.6310716409648E-02  0.0000000000000E+00 -0.6395398960199E-03
 0.1171510200873E-02 -0.6266609416441E-02  0.0000000000000E+00 -0.7517017089077E-03
 0.1136623565888E-02 -0.6214190227331E-02  0.0000000000000E+00 -0.8650446087992E-03
 0.1094435871615E-02 -0.6153451683341E-02  0.0000000000000E+00 -0.9797177097691E-03
 0.1046400721624E-02 -0.6084335908510E-02  0.0000000000000E+00 -0.1095237281115E-02
 0.9942089172937E-03 -0.6006799400869E-02  0.0000000000000E+00 -0.1210332512701E-02
 0.9399032354987E-03 -0.5920892278822E-02  0.0000000000000E+00 -0.1322799257322E-02
 0.8860064662050E-03 -0.5826848427260E-02  0.0000000000000E+00 -0.1429375095005E-02
 0.8356622716023E-03 -0.5725190447658E-02  0.0000000000000E+00 -0.1525635883362E-02
 0.7927868373633E-03 -0.5616854376499E-02  0.0000000000000E+00 -0.1605937388283E-02
 0.7622363444923E-03 -0.5503364665956E-02  0.0000000000000E+00 -0.1663461387540E-02
 0.7499551020177E-03 -0.5387006646425E-02  0.0000000000000E+00 -0.1690302523531E-02
 0.7630896396415E-03 -0.5270943603421E-02  0.0000000000000E+00 -0.1677531895330E-02
 0.8101107433651E-03 -0.5159347781190E-02  0.0000000000000E+00 -0.1615392576728E-02
 0.9009466343492E-03 -0.5057573373620E-02  0.0000000000000E+00 -0.1493766983736E-02
 0.1047090914253E-02 -0.4972355857936E-02  0.0000000000000E+00 -0.1303045785941E-02
 0.1261604751478E-02 -0.4911979025821E-02  0.0000000000000E+00 -0.1035528790450E-02
 0.1558874003993E-02 -0.4886295563908E-02  0.0000000000000E+00 -0.6874549708088E-03
 0.1953917914737E-02 -0.4906424792867E-02  0.0000000000000E+00 -0.2616516335786E-03
 0.2461063920365E-02 -0.4983896585783E-02  0.0000000000000E+00  0.2294847023152E-03
 0.3091808977993E-02 -0.5129083997904E-02  0.0000000000000E+00  0.7612204345573E-03
 0.3851607043202E-02 -0.5348814419576E-02  0.0000000000000E+00  0.1294896760797E-02
 0.4735843387908E-02 -0.5643233699404E-02  0.0000000000000E+00  0.1779247437571E-02
 0.5726111376708E-02 -0.6002697859067E-02  0.0000000000000E+00  0.2156242242352E-02
 0.6788448447967E-02 -0.6406130731568E-02  0.0000000000000E+00  0.2371742877962E-02
 0.7875511786946E-02 -0.6822566391950E-02  0.0000000000000E+00  0.2388559062394E-02
 0.8932967396248E-02 -0.7216182634221E-02  0.0000000000000E+00  0.2195482255866E-02
 0.8477518562156E-04 -0.5830373662661E-02  0.0000000000000E+00  0.8022010200820E-03
 0.2544494502431E-03 -0.5934822982830E-02  0.0000000000000E+00  0.7818714018550E-03
 0.4214620224176E-03 -0.6035476312884E-02  0.0000000000000E+00  0.7327858260028E-03
 0.5801482769324E-03 -0.6128294405364E-02  0.0000000000000E+00  0.6566553189231E-03
 0.7254961086675E-03 -0.6209898379665E-02  0.0000000000000E+00  0.5579227884392E-03
 0.8538569143340E-03 -0.6278071843452E-02  0.0000000000000E+00  0.4426788933084E-03
 0.9631832834184E-03 -0.6331866830038E-02  0.0000000000000E+00  0.3173009660151E-03
 0.1052869567907E-02 -0.6371394092844E-02  0.0000000000000E+00  0.1873479262684E-03
 0.1123381442796E-02 -0.6397464968865E-02  0.0000000000000E+00  0.5694853606038E-04
 0.1175849587543E-02 -0.6411232744017E-02  0.0000000000000E+00 -0.7134385844147E-04
 0.1211732142093E-02 -0.6413914532513E-02  0.0000000000000E+00 -0.1963831178818E-03
 0.1232581534667E-02 -0.6406613644542E-02  0.0000000000000E+00 -0.3181103211143E-03
 0.1239909541279E-02 -0.6390227893088E-02  0.0000000000000E+00 -0.4371983230285E-03
 0.1235127597454E-02 -0.6365418016629E-02  0.0000000000000E+00 -0.5547225430606E-03
 0.1219538563188E-02 -0.6332612684474E-02  0.0000000000000E+00 -0.6718791585753E-03
 0.1194361950422E-02 -0.6292033612316E-02  0.0000000000000E+00 -0.7897492424478E-03
 0.1160781322955E-02 -0.6243731356733E-02  0.0000000000000E+00 -0.9090977507849E-03
 0.1120009827408E-02 -0.6187629901254E-02  0.0000000000000E+00 -0.1030190941488E-02
 0.1073370169685E-02 -0.6123577057010E-02  0.0000000000000E+00 -0.1152629556058E-02
 0.1022391846786E-02 -0.6051405663808E-02  0.0000000000000E+00 -0.1275187577592E-02
 0.9689261777366E-03 -0.5971008316578E-02  0.0000000000000E+00 -0.1395656942217E-02
 0.9152756873434E-03 -0.5882423256922E-02  0.0000000000000E+00 -0.1510712746486E-02
 0.8643375341228E-03 -0.5785935240715E-02  0.0000000000000E+00 -0.1615799173818E-02
 0.8197595704297E-03 -0.5682197741918E-02  0.0000000000000E+00 -0.1705059549152E-02
 0.7861162680666E-03 -0.5572412559716E-02  0.0000000000000E+00 -0.1771369972232E-02
 0.7690661428880E-03 -0.5458506906975E-02  0.0000000000000E+00 -0.1806410550214E-02
 0.7754775809236E-03 -0.5343250066848E-02  0.0000000000000E+00 -0.1800701688225E-02
 0.8135770971685E-03 -0.5230393014989E-02  0.0000000000000E+00 -0.1743758293461E-02
 0.8931332190226E-03 -0.5124871350615E-02  0.0000000000000E+00 -0.1624509255594E-02
 0.1025647219652E-02 -0.5033065391232E-02  0.0000000000000E+00 -0.1432130113915E-02
 0.1224473684533E-02 -0.4963065234264E-02  0.0000000000000E+00 -0.1157452261881E-02
 0.1504725464518E-02 -0.4924825671849E-02  0.0000000000000E+00 -0.7950970965707E-03
 0.1882733555795E-02 -0.4930017324550E-02  0.0000000000000E+00 -0.3463923112113E-03
 0.2374822661418E-02 -0.4991293764491E-02  0.0000000000000E+00  0.1771647575132E-03
 0.2995128314265E-02 -0.5120742327156E-02  0.0000000000000E+00  0.7504267957287E-03
 0.3752057128206E-02 -0.5327307021674E-02  0.0000000000000E+00  0.1332148982664E-02
 0.4643552755974E-02 -0.5613149272161E-02  0.0000000000000E+00  0.1865647828155E-02
 0.5652328007578E-02 -0.5969721895751E-02  0.0000000000000E+00  0.2284771968843E-02
 0.6743041966537E-02 -0.6375232563062E-02  0.0000000000000E+00  0.2526144119970E-02
 0.7864255862367E-02 -0.6795921292701E-02  0.0000000000000E+00  0.2545556069849E-02
 0.8956620878286E-02 -0.7192488868095E-02  0.0000000000000E+00  0.2329929591413E-02
 0.8715047518894E-04 -0.5836421940453E-02  0.0000000000000E+00  0.8662024202000E-03
 0.2616812929457E-03 -0.5943735698913E-02  0.0000000000000E+00  0.8440879758388E-03
 0.4334689148276E-03 -0.6047001268890E-02  0.0000000000000E+00  0.7903837896071E-03
 0.5963065452992E-03 -0.6141833042193E-02  0.0000000000000E+00  0.7070864511151E-03
 0.7447912024274E-03 -0.6224653002624E-02  0.0000000000000E+00  0.5994193582970E-03
 0.8751421507179E-03 -0.6293261037969E-02  0.0000000000000E+00  0.4744408779532E-03
 0.9854216827558E-03 -0.6346908410406E-02  0.0000000000000E+00  0.3393874373422E-03
 0.1075285909317E-02 -0.6386002362513E-02  0.0000000000000E+00  0.2004031489599E-03
 0.1145514142283E-02 -0.6411662538984E-02  0.0000000000000E+00  0.6190132365820E-04
 0.1197529178936E-02 -0.6425306273030E-02  0.0000000000000E+00 -0.7352230321341E-04
 0.1233021620727E-02 -0.6428347326407E-02  0.0000000000000E+00 -0.2048359975894E-03
 0.1253705973461E-02 -0.6422018278089E-02  0.0000000000000E+00 -0.3321762911422E-03
 0.1261190405081E-02 -0.6407290034782E-02  0.0000000000000E+00 -0.4564398387359E-03
 0.1256927495098E-02 -0.6384853847242E-02  0.0000000000000E+00 -0.5789237358444E-03
 0.1242216387097E-02 -0.6355137553190E-02  0.0000000000000E+00 -0.7010291309849E-03
 0.1218235757578E-02 -0.6318337812468E-02  0.0000000000000E+00 -0.8240198967096E-03
 0.1186095719030E-02 -0.6274458832244E-02  0.0000000000000E+00 -0.9488199677973E-03
 0.1146905035836E-02 -0.6223356232348E-02  0.0000000000000E+00 -0.1075829188794E-02
 0.1101851057243E-02 -0.6164784348137E-02  0.0000000000000E+00 -0.1204753233026E-02
 0.1052296267167E-02 -0.6098452787732E-02  0.0000000000000E+00 -0.1334436342792E-02
 0.9998930946640E-03 -0.6024095887738E-02  0.0000000000000E+00 -0.1462697420964E-02
 0.9467143112572E-03 -0.5941553669430E-02  0.0000000000000E+00 -0.1586185471677E-02
 0.8953986979294E-03 -0.5850867878536E-02  0.0000000000000E+00 -0.1700255014669E-02
 0.8493109151845E-03 -0.5752400672180E-02  0.0000000000000E+00 -0.1798884559943E-02
 0.8127249045089E-03 -0.5647017728115E-02  0.0000000000000E+00 -0.1874696577825E-02
 0.7909886826628E-03 -0.5536268007093E-02  0.0000000000000E+00 -0.1919011170211E-02
 0.7906587413943E-03 -0.5422496351448E-02  0.0000000000000E+00 -0.1921851528034E-02
 0.8196710832974E-03 -0.5308986987470E-02  0.0000000000000E+00 -0.1872047633879E-02
 0.8875737329624E-03 -0.5200191861711E-02  0.0000000000000E+00 -0.1757590378835E-02
 0.1005802112340E-02 -0.5102049320208E-02  0.0000000000000E+00 -0.1566400905731E-02
 0.1187927688855E-02 -0.5022350978965E-02  0.0000000000000E+00 -0.1287712340814E-02
 0.1449733534623E-02 -0.4971045988404E-02  0.0000000000000E+00 -0.9142698566924E-03
 0.1808865808042E-02 -0.4960277466956E-02  0.0000000000000E+00 -0.4454904112016E-03
 0.2283766977922E-02 -0.5003821957275E-02  0.0000000000000E+00  0.1085713872201E-03
 0.2891508070120E-02 -0.5115615959659E-02  0.0000000000000E+00  0.7229268902905E-03
 0.3643946041842E-02 -0.5307028494226E-02  0.0000000000000E+00  0.1354126637361E-02
 0.4542217777352E-02 -0.5582689549673E-02  0.0000000000000E+00  0.1939955476971E-02
 0.5570724449868E-02 -0.5935611994495E-02  0.0000000000000E+00  0.2405237468160E-02
 0.6692855114248E-02 -0.6343459120557E-02  0.0000000000000E+00  0.2675601677027E-02
 0.7852273045303E-02 -0.6769138778176E-02  0.0000000000000E+00  0.2698087929913E-02
 0.8983564770087E-02 -0.7169087290857E-02  0.0000000000000E+00  0.2458110696025E-02
 0.8974328686872E-04 -0.5843106811387E-02  0.0000000000000E+00  0.9320242641068E-03
 0.2695931560674E-03 -0.5953532845780E-02  0.0000000000000E+00  0.9080072109450E-03
 0.4466096400992E-03 -0.6059605878512E-02  0.0000000000000E+00  0.8493038497827E-03
 0.6139351045935E-03 -0.6156527068565E-02  0.0000000000000E+00  0.7582725042668E-03
 0.7657174901686E-03 -0.6240496825094E-02  0.0000000000000E+00  0.6410810835043E-03
 0.8980493468930E-03 -0.6309358357915E-02  0.0000000000000E+00  0.5059172080666E-03
 0.1009151195913E-02 -0.6362617560447E-02  0.0000000000000E+00  0.3609738863427E-03
 0.1099002264086E-02 -0.6401035613127E-02  0.0000000000000E+00  0.2130022912233E-03
 0.1168747870491E-02 -0.6426083294075E-02  0.0000000000000E+00  0.6666828116653E-04
 0.1220137692822E-02 -0.6439465817223E-02  0.0000000000000E+00 -0.7544596919989E-04
 0.1255112805051E-02 -0.6442801938441E-02  0.0000000000000E+00 -0.2124803814233E-03
 0.1275555932609E-02 -0.6437452447048E-02  0.0000000000000E+00 -0.3448139951365E-03
 0.1283171064759E-02 -0.6424456275809E-02  0.0000000000000E+00 -0.4736013114286E-03
 0.1279448467761E-02 -0.6404529702454E-02  0.0000000000000E+00 -0.6003841087884E-03
 0.1265679487082E-02 -0.6378095718026E-02  0.0000000000000E+00 -0.7267842570274E-03
 0.1242998275652E-02 -0.6345324057745E-02  0.0000000000000E+00 -0.8542608773948E-03
 0.1212438378348E-02 -0.6306172781597E-02  0.0000000000000E+00 -0.9839094598523E-03
 0.1175001289801E-02 -0.6260430893138E-02  0.0000000000000E+00 -0.1116278823309E-02
 0.1131735734041E-02 -0.6207761786475E-02  0.0000000000000E+00 -0.1251199606726E-02
 0.1083832854719E-02 -0.6147754304009E-02  0.0000000000000E+00 -0.1387612026222E-02
 0.1032740242465E-02 -0.6079986098731E-02  0.0000000000000E+00 -0.1523393730968E-02
 0.9802929922790E-03 -0.6004098957198E-02  0.0000000000000E+00 -0.1655205538852E-02
 0.9288613192500E-03 -0.5919889305468E-02  0.0000000000000E+00 -0.1778356573712E-02
 0.8815136599142E-03 -0.5827422412566E-02  0.0000000000000E+00 -0.1886711569614E-02
 0.8422064495497E-03 -0.5727217804900E-02  0.0000000000000E+00 -0.1972696629369E-02
 0.8159539831128E-03 -0.5620429508688E-02  0.0000000000000E+00 -0.2027334302882E-02
 0.8089674525688E-03 -0.5508950411835E-02  0.0000000000000E+00 -0.2040215853769E-02
 0.8288440184315E-03 -0.5395553839782E-02  0.0000000000000E+00 -0.1999546241626E-02
 0.8848439969937E-03 -0.5284140979914E-02  0.0000000000000E+00 -0.1892415529723E-02
 0.9882503317584E-03 -0.5180113357033E-02  0.0000000000000E+00 -0.1705476010683E-02
 0.1152752608787E-02 -0.5090842093485E-02  0.0000000000000E+00 -0.1426255029410E-02
 0.1394715061443E-02 -0.5026133953585E-02  0.0000000000000E+00 -0.1045371112519E-02
 0.1733063752847E-02 -0.4998485754127E-02  0.0000000000000E+00 -0.5598950945746E-03
 0.2188446094892E-02 -0.5022753274741E-02  0.0000000000000E+00  0.2218125641651E-04
 0.2781160737693E-02 -0.5114828949283E-02  0.0000000000000E+00  0.6767393067648E-03
 0.3527064006563E-02 -0.5288829593655E-02  0.0000000000000E+00  0.1358677996542E-02
 0.4431242641713E-02 -0.5552375572893E-02  0.0000000000000E+00  0.2000273222460E-02
 0.5480548750342E-02 -0.5900635225706E-02  0.0000000000000E+00  0.2516438313750E-02
 0.6637417094250E-02 -0.6311093599084E-02  0.0000000000000E+00  0.2819717149595E-02
 0.7839633846028E-02 -0.6742731851370E-02  0.0000000000000E+00  0.2845796666828E-02
 0.9013927940596E-02 -0.7146372214831E-02  0.0000000000000E+00  0.2579189132653E-02
 0.9257298961162E-04 -0.5850507755372E-02  0.0000000000000E+00  0.9998205646925E-03
 0.2782482758073E-03 -0.5964311691787E-02  0.0000000000000E+00  0.9737560531579E-03
 0.4609864078514E-03 -0.6073391520902E-02  0.0000000000000E+00  0.9095894109843E-03
 0.6331473599038E-03 -0.6172455412703E-02  0.0000000000000E+00  0.8101445163656E-03
 0.7883659557433E-03 -0.6257460980670E-02  0.0000000000000E+00  0.6827406503194E-03
 0.9226235152544E-03 -0.6326334391525E-02  0.0000000000000E+00  0.5368862964465E-03
 0.1034363169264E-02 -0.6378906298672E-02  0.0000000000000E+00  0.3818349507870E-03
 0.1123961377179E-02 -0.6416359062104E-02  0.0000000000000E+00  0.2249555710555E-03
 0.1192988161116E-02 -0.6440560502023E-02  0.0000000000000E+00  0.7111740071238E-04
 0.1243555691312E-02 -0.6453525761726E-02  0.0000000000000E+00 -0.7718164522590E-04
 0.1277871368060E-02 -0.6457083026563E-02  0.0000000000000E+00 -0.2193195186439E-03
 0.1297989246942E-02 -0.6452716235176E-02  0.0000000000000E+00 -0.3559686753338E-03
 0.1305705892584E-02 -0.6441524185457E-02  0.0000000000000E+00 -0.4885757852944E-03
 0.1302543963661E-02 -0.6424240777271E-02  0.0000000000000E+00 -0.6189486850756E-03
 0.1289781989358E-02 -0.6401279306775E-02  0.0000000000000E+00 -0.7489433473888E-03
 0.1268505767845E-02 -0.6372780783424E-02  0.0000000000000E+00 -0.8802241823630E-03
 0.1239669659980E-02 -0.6338658116959E-02  0.0000000000000E+00 -0.1014068751091E-02
 0.1204165992668E-02 -0.6298636823740E-02  0.0000000000000E+00 -0.1151188747913E-02
 0.1162902923872E-02 -0.6252293739583E-02  0.0000000000000E+00 -0.1291559025650E-02
 0.1116897453709E-02 -0.6199101613521E-02  0.0000000000000E+00 -0.1434241440199E-02
 0.1067388006153E-02 -0.6138485474301E-02  0.0000000000000E+00 -0.1577204798949E-02
 0.1015965780825E-02 -0.6069891610139E-02  0.0000000000000E+00 -0.1717160870028E-02
 0.9647241113317E-03 -0.5992871908677E-02  0.0000000000000E+00 -0.1849419549611E-02
 0.9164243166952E-03 -0.5907192713651E-02  0.0000000000000E+00 -0.1967785827561E-02
 0.8746907111755E-03 -0.5813021355083E-02  0.0000000000000E+00 -0.2064551533272E-02
 0.8441829061103E-03 -0.5711104521313E-02  0.0000000000000E+00 -0.2130511902392E-02
 0.8307347991638E-03 -0.5602859755291E-02  0.0000000000000E+00 -0.2154903798051E-02
 0.8415556109311E-03 -0.5490508293496E-02  0.0000000000000E+00 -0.2125385231661E-02
 0.8855457444499E-03 -0.5377333432594E-02  0.0000000000000E+00 -0.2028207617957E-02
 0.9737369121093E-03 -0.5268099052428E-02  0.0000000000000E+00 -0.1848770979008E-02
 0.1119815314295E-02 -0.5169617708581E-02  0.0000000000000E+00 -0.1572821608369E-02
 0.1340601338815E-02 -0.5091386560585E-02  0.0000000000000E+00 -0.1188622203344E-02
 0.1656218204927E-02 -0.5046090980746E-02  0.0000000000000E+00 -0.6904504173241E-03
 0.2089558535789E-02 -0.5049566639361E-02  0.0000000000000E+00 -0.8354138244154E-04
 0.2664418995196E-02 -0.5119724152842E-02  0.0000000000000E+00  0.6097211758315E-03
 0.3401252429230E-02 -0.5273750603607E-02  0.0000000000000E+00  0.1343362378932E-02
 0.4309980646117E-02 -0.5522858905671E-02  0.0000000000000E+00  0.2044340410673E-02
 0.5380886664214E-02 -0.5865075400858E-02  0.0000000000000E+00  0.2616879531979E-02
 0.6576102081815E-02 -0.6278372182111E-02  0.0000000000000E+00  0.2958126178940E-02
 0.7826551891912E-02 -0.6717332944799E-02  0.0000000000000E+00  0.2988494420844E-02
 0.9047634556067E-02 -0.7124705565660E-02  0.0000000000000E+00  0.2691885559967E-02
 0.9566365947067E-04 -0.5858723518127E-02  0.0000000000000E+00  0.1069756949529E-02
 0.2877246650910E-03 -0.5976192535886E-02  0.0000000000000E+00  0.1041465537113E-02
 0.4767234388769E-03 -0.6088482031705E-02  0.0000000000000E+00  0.9712676042336E-03
 0.6540778195420E-03 -0.6189712002146E-02  0.0000000000000E+00  0.8625942427436E-03
 0.8128404192107E-03 -0.6275579586769E-02  0.0000000000000E+00  0.7241776426185E-03
 0.9489116046142E-03 -0.6344150881624E-02  0.0000000000000E+00  0.5670731212811E-03
 0.1061041759530E-02 -0.6395669682682E-02  0.0000000000000E+00  0.4017016090000E-03
 0.1150093411506E-02 -0.6431817484166E-02  0.0000000000000E+00  0.2360431680613E-03
 0.1218126078622E-02 -0.6454907110202E-02  0.0000000000000E+00  0.7509905395926E-04
 0.1267649653664E-02 -0.6467282225314E-02  0.0000000000000E+00 -0.7880494152181E-04
 0.1301150288098E-02 -0.6470979545115E-02  0.0000000000000E+00 -0.2253605905358E-03
 0.1320852550456E-02 -0.6467596210519E-02  0.0000000000000E+00 -0.3655877296078E-03
 0.1328639170404E-02 -0.6458279215650E-02  0.0000000000000E+00 -0.5012587034533E-03
 0.1326057868248E-02 -0.6443770636014E-02  0.0000000000000E+00 -0.6344661447060E-03
 0.1314368369242E-02 -0.6424468415070E-02  0.0000000000000E+00 -0.7673103283290E-03
 0.1294604194956E-02 -0.6400483187625E-02  0.0000000000000E+00 -0.9016679380970E-03
 0.1267638503919E-02 -0.6371684616535E-02  0.0000000000000E+00 -0.1039006530124E-02
 0.1234253674975E-02 -0.6337739374490E-02  0.0000000000000E+00 -0.1180212637641E-02
 0.1195216834355E-02 -0.6298144125177E-02  0.0000000000000E+00 -0.1325423410137E-02
 0.1151369710310E-02 -0.6252262573968E-02  0.0000000000000E+00 -0.1473847649050E-02
 0.1103738989755E-02 -0.6199373844215E-02  0.0000000000000E+00 -0.1623578093310E-02
 0.1053667589769E-02 -0.6138734389463E-02  0.0000000000000E+00 -0.1771417528566E-02
 0.1002965683844E-02 -0.6069655641610E-02  0.0000000000000E+00 -0.1912724282316E-02
 0.9540790119200E-03 -0.5991606836342E-02  0.0000000000000E+00 -0.2041300080898E-02
 0.9102880370226E-03 -0.5904401573636E-02  0.0000000000000E+00 -0.2149368812353E-02
 0.8758798213303E-03 -0.5808371920337E-02  0.0000000000000E+00 -0.2227575970216E-02
 0.8562815904188E-03 -0.5704442090755E-02  0.0000000000000E+00 -0.2264893798792E-02
 0.8582663564056E-03 -0.5594244869395E-02  0.0000000000000E+00 -0.2248530613464E-02
 0.8902993037167E-03 -0.5480381011260E-02  0.0000000000000E+00 -0.2163989249137E-02
 0.9630518092311E-03 -0.5366872883460E-02  0.0000000000000E+00 -0.1995471190214E-02
 0.1090062990833E-02 -0.5259822789733E-02  0.0000000000000E+00 -0.1726909528450E-02
 0.1288445566905E-02 -0.5168220523155E-02  0.0000000000000E+00 -0.1344019294805E-02
 0.1579380907428E-02 -0.5104722849884E-02  0.0000000000000E+00 -0.8378441947193E-03
 0.1987982682737E-02 -0.5085976232702E-02  0.0000000000000E+00 -0.2101063572239E-03
 0.2541776030275E-02 -0.5131905892257E-02  0.0000000000000E+00  0.5195797000105E-03
 0.3266429867739E-02 -0.5263071417733E-02  0.0000000000000E+00  0.1305403864076E-02
 0.4177767590208E-02 -0.5494955722925E-02  0.0000000000000E+00  0.2069503529414E-02
 0.5270625684725E-02 -0.5829314229259E-02  0.0000000000000E+00  0.2704544389966E-02
 0.6508022228996E-02 -0.6245301771297E-02  0.0000000000000E+00  0.3090528605305E-02
 0.7813471490665E-02 -0.6693851465265E-02  0.0000000000000E+00  0.3126301903633E-02
 0.9084342508402E-02 -0.7104027863812E-02  0.0000000000000E+00  0.2794361540086E-02
 0.9904532819995E-04 -0.5867876827978E-02  0.0000000000000E+00  0.1142013261830E-02
 0.2981188613154E-03 -0.5989324069355E-02  0.0000000000000E+00  0.1111270899596E-02
 0.4939719223666E-03 -0.6105028371418E-02  0.0000000000000E+00  0.1034343648529E-02
 0.6768856686866E-03 -0.6208407599470E-02  0.0000000000000E+00  0.9154634331303E-03
 0.8392581961436E-03 -0.6294888268286E-02  0.0000000000000E+00  0.7651070111898E-03
 0.9769606153067E-03 -0.6362756996694E-02  0.0000000000000E+00  0.5961406880025E-03
 0.1089160857048E-02 -0.6412781520663E-02  0.0000000000000E+00  0.4202571078646E-03
 0.1177312965272E-02 -0.6447231646397E-02  0.0000000000000E+00  0.2460149002419E-03
 0.1244036023779E-02 -0.6468913439048E-02  0.0000000000000E+00  0.7844781957866E-04
 0.1292270715784E-02 -0.6480511972609E-02  0.0000000000000E+00 -0.8039777574625E-04
 0.1324789363642E-02 -0.6484264574096E-02  0.0000000000000E+00 -0.2306124460959E-03
 0.1343981315374E-02 -0.6481865833053E-02  0.0000000000000E+00 -0.3736191440468E-03
 0.1351805419189E-02 -0.6474495407985E-02  0.0000000000000E+00 -0.5115471764066E-03
 0.1349824939248E-02 -0.6462892013548E-02  0.0000000000000E+00 -0.6467889197390E-03
 0.1339273849587E-02 -0.6447431850543E-02  0.0000000000000E+00 -0.7816951015117E-03
 0.1321129462050E-02 -0.6428193795707E-02  0.0000000000000E+00 -0.9183579482480E-03
 0.1296182425069E-02 -0.6405007196399E-02  0.0000000000000E+00 -0.1058439803394E-02
 0.1265105643862E-02 -0.6377486173858E-02  0.0000000000000E+00 -0.1203011597859E-02
 0.1228526379594E-02 -0.6345055765435E-02  0.0000000000000E+00 -0.1352389293849E-02
 0.1187111796229E-02 -0.6306980235540E-02  0.0000000000000E+00 -0.1505953257208E-02
 0.1141676170974E-02 -0.6262402357111E-02  0.0000000000000E+00 -0.1661953020692E-02
 0.1093311694776E-02 -0.6210397504439E-02  0.0000000000000E+00 -0.1817323084676E-02
 0.1043541269658E-02 -0.6150044216143E-02  0.0000000000000E+00 -0.1967518911053E-02
 0.9944892829383E-03 -0.6080520563711E-02  0.0000000000000E+00 -0.2106397232362E-02
 0.9490840078992E-03 -0.6001289874570E-02  0.0000000000000E+00 -0.2226183749584E-02
 0.9112260519348E-03 -0.5912268245226E-02  0.0000000000000E+00 -0.2317458327840E-02
 0.8859105176053E-03 -0.5813875301597E-02  0.0000000000000E+00 -0.2369030150133E-02
 0.8794286124067E-03 -0.5707125869196E-02  0.0000000000000E+00 -0.2367774599151E-02
 0.8997342977488E-03 -0.5593878944236E-02  0.0000000000000E+00 -0.2298565987464E-02
 0.9570218507270E-03 -0.5477312328198E-02  0.0000000000000E+00 -0.2144503702213E-02
 0.1064519306028E-02 -0.5362656794216E-02  0.0000000000000E+00 -0.1887729973544E-02
 0.1239427783610E-02 -0.5258168440715E-02  0.0000000000000E+00 -0.1511276636916E-02
 0.1503782808516E-02 -0.5176202108408E-02  0.0000000000000E+00 -0.1002543739085E-02
 0.1884812339507E-02 -0.5133961383319E-02  0.0000000000000E+00 -0.3589413159815E-03
 0.2413928005661E-02 -0.5153289345973E-02  0.0000000000000E+00  0.4038924840502E-03
 0.3122651764785E-02 -0.5258373789193E-02  0.0000000000000E+00  0.1241674149869E-02
 0.4033882997302E-02 -0.5469699233528E-02  0.0000000000000E+00  0.2072572241063E-02
 0.5148673411945E-02 -0.5793871710250E-02  0.0000000000000E+00  0.2777080241332E-02
 0.6431369824182E-02 -0.6211866532203E-02  0.0000000000000E+00  0.3215387418312E-02
 0.7802185359662E-02 -0.6672496637172E-02  0.0000000000000E+00  0.3262227988166E-02
 0.9120702511019E-02 -0.7085220884113E-02  0.0000000000000E+00  0.2880166940620E-02
 0.1027601321334E-03 -0.5878120395475E-02  0.0000000000000E+00  0.1216788697686E-02
 0.3095538715148E-03 -0.6003891979980E-02  0.0000000000000E+00  0.1183320499799E-02
 0.5129220916290E-03 -0.6123217490612E-02  0.0000000000000E+00  0.1098805468701E-02
 0.7017672801483E-03 -0.6228676949125E-02  0.0000000000000E+00  0.9685450846131E-03
 0.8677617330472E-03 -0.6315428768891E-02  0.0000000000000E+00  0.8051799105481E-03
 0.1006828647065E-02 -0.6382092479847E-02  0.0000000000000E+00  0.6236935155894E-03
 0.1118695847363E-02 -0.6430097648044E-02  0.0000000000000E+00  0.4371433093149E-03
 0.1205532517771E-02 -0.6462402779442E-02  0.0000000000000E+00  0.2545977498389E-03
 0.1270591188633E-02 -0.6482353238235E-02  0.0000000000000E+00  0.8098920582333E-04
 0.1317272048499E-02 -0.6492980152164E-02  0.0000000000000E+00 -0.8204374582663E-04
 0.1348634383422E-02 -0.6496704949865E-02  0.0000000000000E+00 -0.2350835464417E-03
 0.1367220861291E-02 -0.6495297516682E-02  0.0000000000000E+00 -0.3800119674769E-03
 0.1375052539692E-02 -0.6489950798108E-02  0.0000000000000E+00 -0.5193427733529E-03
 0.1373696591227E-02 -0.6481386809733E-02  0.0000000000000E+00 -0.6557781588282E-03
 0.1364353502683E-02 -0.6469953248921E-02  0.0000000000000E+00 -0.7919207436579E-03
 0.1347940608320E-02 -0.6455696469344E-02  0.0000000000000E+00 -0.9300774675992E-03
 0.1325165597278E-02 -0.6438409791884E-02  0.0000000000000E+00 -0.1072106906569E-02
 0.1296593741463E-02 -0.6417663044510E-02  0.0000000000000E+00 -0.1219271446442E-02
 0.1262715296936E-02 -0.6392820655679E-02  0.0000000000000E+00 -0.1372080845032E-02
 0.1224025381096E-02 -0.6363059890448E-02  0.0000000000000E+00 -0.1530111158130E-02
 0.1181126916522E-02 -0.6327399768103E-02  0.0000000000000E+00 -0.1691802004151E-02
 0.1134860513008E-02 -0.6284746496098E-02  0.0000000000000E+00 -0.1854261299271E-02
 0.1086459347049E-02 -0.6233956668195E-02  0.0000000000000E+00 -0.2013091607744E-02
 0.1037722818711E-02 -0.6173927062102E-02  0.0000000000000E+00 -0.2162264669783E-02
 0.9912216146997E-03 -0.6103778960546E-02  0.0000000000000E+00 -0.2294080836779E-02
 0.9504596838449E-03 -0.6023016944582E-02  0.0000000000000E+00 -0.2399144483102E-02
 0.9199784790297E-03 -0.5931551580316E-02  0.0000000000000E+00 -0.2466214549624E-02
 0.9055448169154E-03 -0.5829757500301E-02  0.0000000000000E+00 -0.2481969496722E-02
 0.9145255511583E-03 -0.5718699168184E-02  0.0000000000000E+00 -0.2430805728976E-02
 0.9565147388045E-03 -0.5600609346595E-02  0.0000000000000E+00 -0.2294862445361E-02
 0.1044246206653E-02 -0.5479678510673E-02  0.0000000000000E+00 -0.2054575150852E-02
 0.1194764303607E-02 -0.5363174711941E-02  0.0000000000000E+00 -0.1690227608907E-02
 0.1430682750693E-02 -0.5262816154720E-02  0.0000000000000E+00 -0.1185218007498E-02
 0.1781135798504E-02 -0.5196008513822E-02  0.0000000000000E+00 -0.5318187330294E-03
 0.2281485878716E-02 -0.5186293375946E-02  0.0000000000000E+00  0.2596997719712E-03
 0.2969722856065E-02 -0.5261660384414E-02  0.0000000000000E+00  0.1148337988855E-02
 0.3877229938578E-02 -0.5448399432480E-02  0.0000000000000E+00  0.2049614860321E-02
 0.5013096860632E-02 -0.5759281756017E-02  0.0000000000000E+00  0.2831651775338E-02
 0.6345233311713E-02 -0.6178468267860E-02  0.0000000000000E+00  0.3330899174812E-02
 0.7787065090422E-02 -0.6651425887203E-02  0.0000000000000E+00  0.3398518582330E-02
 0.9185576888605E-02 -0.7075778129478E-02  0.0000000000000E+00  0.2940278899611E-02
 0.1068461347023E-03 -0.5889644214689E-02  0.0000000000000E+00  0.1294303479863E-02
 0.3221749728901E-03 -0.6020125043246E-02  0.0000000000000E+00  0.1257758859816E-02
 0.5337941629947E-03 -0.6143272679374E-02  0.0000000000000E+00  0.1164589581059E-02
 0.7289397531877E-03 -0.6250669731490E-02  0.0000000000000E+00  0.1021536924171E-02
 0.8984920098727E-03 -0.6337230731254E-02  0.0000000000000E+00  0.8439376009689E-03
 0.1038550564965E-02 -0.6402064019303E-02  0.0000000000000E+00  0.6492412681622E-03
 0.1149585202160E-02 -0.6447431098417E-02  0.0000000000000E+00  0.4519372388881E-03
 0.1234622822185E-02 -0.6477089109306E-02  0.0000000000000E+00  0.2614840130012E-03
 0.1297624041160E-02 -0.6494962100290E-02  0.0000000000000E+00  0.8253664265717E-04
 0.1342469451150E-02 -0.6504419632058E-02  0.0000000000000E+00 -0.8382465436536E-04
 0.1372497084232E-02 -0.6508039706136E-02  0.0000000000000E+00 -0.2387734420416E-03
 0.1390384524557E-02 -0.6507637863042E-02  0.0000000000000E+00 -0.3847033719823E-03
 0.1398196799850E-02 -0.6504396764989E-02  0.0000000000000E+00 -0.5245342080900E-03
 0.1397491134749E-02 -0.6499006531046E-02  0.0000000000000E+00 -0.6612816150803E-03
 0.1389426042076E-02 -0.6491779223592E-02  0.0000000000000E+00 -0.7977957232984E-03
 0.1374855367191E-02 -0.6482728503555E-02  0.0000000000000E+00 -0.9365923652195E-03
 0.1354404386033E-02 -0.6471617268973E-02  0.0000000000000E+00 -0.1079723611894E-02
 0.1328534154197E-02 -0.6457981260507E-02  0.0000000000000E+00 -0.1228647008506E-02
 0.1297602793597E-02 -0.6441137846949E-02  0.0000000000000E+00 -0.1384078700936E-02
 0.1261938131186E-02 -0.6420192744813E-02  0.0000000000000E+00 -0.1545813276898E-02
 0.1221935024551E-02 -0.6394057132709E-02  0.0000000000000E+00 -0.1712513482147E-02
 0.1178183788893E-02 -0.6361483475793E-02  0.0000000000000E+00 -0.1881502718733E-02
 0.1131627717784E-02 -0.6321121216534E-02  0.0000000000000E+00 -0.2048581114626E-02
 0.1083740598185E-02 -0.6271600315054E-02  0.0000000000000E+00 -0.2207896058407E-02
 0.1036734372548E-02 -0.6211714083283E-02  0.0000000000000E+00 -0.2351897086029E-02
 0.9937117411281E-03 -0.6140567500951E-02  0.0000000000000E+00 -0.2471307810634E-02
 0.9587455717141E-03 -0.6057566917901E-02  0.0000000000000E+00 -0.2554959872364E-02
 0.9370423504657E-03 -0.5962435664461E-02  0.0000000000000E+00 -0.2589489752942E-02
 0.9353109436956E-03 -0.5855403139823E-02  0.0000000000000E+00 -0.2558998813056E-02
 0.9624219369135E-03 -0.5737667517813E-02  0.0000000000000E+00 -0.2444859719931E-02
 0.1030419344008E-02 -0.5612213504191E-02  0.0000000000000E+00 -0.2225962699854E-02
 0.1155908186013E-02 -0.5485049684742E-02  0.0000000000000E+00 -0.1879880143000E-02
 0.1361725733305E-02 -0.5366866127243E-02  0.0000000000000E+00 -0.1385751839825E-02
 0.1678576944191E-02 -0.5274801108756E-02  0.0000000000000E+00 -0.7299218851943E-03
 0.2145684608641E-02 -0.5233709896187E-02  0.0000000000000E+00  0.8424916361227E-04
 0.2808049566126E-02 -0.5275410574490E-02  0.0000000000000E+00  0.1021232831437E-02
 0.3707046079224E-02 -0.5432807050637E-02  0.0000000000000E+00  0.1995948610269E-02
 0.4862293124807E-02 -0.5726441573895E-02  0.0000000000000E+00  0.2864104790339E-02
 0.6247339500309E-02 -0.6145465895395E-02  0.0000000000000E+00  0.3436113490610E-02
 0.7769069485221E-02 -0.6630915374086E-02  0.0000000000000E+00  0.3526770306027E-02
 0.9271444785028E-02 -0.7077014241462E-02  0.0000000000000E+00  0.3011316963395E-02
 0.1113679940618E-03 -0.5902686017588E-02  0.0000000000000E+00  0.1374801046557E-02
 0.3361720958441E-03 -0.6038306193427E-02  0.0000000000000E+00  0.1334720171292E-02
 0.5568648069789E-03 -0.6165461793968E-02  0.0000000000000E+00  0.1231558558858E-02
 0.7586596154603E-03 -0.6274551209064E-02  0.0000000000000E+00  0.1074010153241E-02
 0.9315980852123E-03 -0.6360305692490E-02  0.0000000000000E+00  0.8807845290942E-03
 0.1072140867895E-02 -0.6422536863628E-02  0.0000000000000E+00  0.6721837860751E-03
 0.1181730692867E-02 -0.6464545377309E-02  0.0000000000000E+00  0.4641474700169E-03
 0.1264413020672E-02 -0.6491002567186E-02  0.0000000000000E+00  0.2663340637593E-03
 0.1324927159022E-02 -0.6506437450744E-02  0.0000000000000E+00  0.8289545359373E-04
 0.1367642710343E-02 -0.6514533282970E-02  0.0000000000000E+00 -0.8581889987212E-04
 0.1396156551087E-02 -0.6517983628234E-02  0.0000000000000E+00 -0.2416755378144E-03
 0.1413254670341E-02 -0.6518611725171E-02  0.0000000000000E+00 -0.3876268734050E-03
 0.1421023157445E-02 -0.6517562104432E-02  0.0000000000000E+00 -0.5270116994025E-03
 0.1420993201273E-02 -0.6515476047509E-02  0.0000000000000E+00 -0.6631547268361E-03
 0.1414272179307E-02 -0.6512622562526E-02  0.0000000000000E+00 -0.7991422970329E-03
 0.1401647277751E-02 -0.6508983033698E-02  0.0000000000000E+00 -0.9376874624610E-03
 0.1383663002621E-02 -0.6504296776617E-02  0.0000000000000E+00 -0.1081028019423E-02
 0.1360681357691E-02 -0.6498077518475E-02  0.0000000000000E+00 -0.1230816066178E-02
 0.1332935506530E-02 -0.6489611643165E-02  0.0000000000000E+00 -0.1387983268998E-02
 0.1300593418878E-02 -0.6477951895138E-02  0.0000000000000E+00 -0.1552563201124E-02
 0.1263847959559E-02 -0.6461921072529E-02  0.0000000000000E+00 -0.1723473466075E-02
 0.1223043177867E-02 -0.6440137130937E-02  0.0000000000000E+00 -0.1898294309298E-02
 0.1178835294074E-02 -0.6411061351746E-02  0.0000000000000E+00 -0.2073073028521E-02
 0.1132375769640E-02 -0.6373076464612E-02  0.0000000000000E+00 -0.2242192085919E-02
 0.1085522249851E-02 -0.6324668571061E-02  0.0000000000000E+00 -0.2398324024005E-02
 0.1040979231474E-02 -0.6264563855907E-02  0.0000000000000E+00 -0.2532408140651E-02
 0.1002345569762E-02 -0.6191680980462E-02  0.0000000000000E+00 -0.2633478592229E-02
 0.9742422917487E-03 -0.6105095839366E-02  0.0000000000000E+00 -0.2688300423557E-02
 0.9626603918961E-03 -0.6004180674403E-02  0.0000000000000E+00 -0.2680892649047E-02
 0.9756320282936E-03 -0.5889030095775E-02  0.0000000000000E+00 -0.2592108067830E-02
 0.1024314065409E-02 -0.5761274736719E-02  0.0000000000000E+00 -0.2399541225717E-02
 0.1124562443453E-02 -0.5625392033674E-02  0.0000000000000E+00 -0.2078221658125E-02
 0.1299006365904E-02 -0.5490608881807E-02  0.0000000000000E+00 -0.1602936239720E-02
 0.1579434068843E-02 -0.5373206772810E-02  0.0000000000000E+00 -0.9534339132903E-03
 0.2008623550219E-02 -0.5298760289206E-02  0.0000000000000E+00 -0.1245633501930E-03
 0.2638936295849E-02 -0.5302706968074E-02  0.0000000000000E+00  0.8562578912084E-03
 0.3523334807351E-02 -0.5425283113622E-02  0.0000000000000E+00  0.1906190716426E-02
 0.4694891325655E-02 -0.5696743316579E-02  0.0000000000000E+00  0.2869639022168E-02
 0.6135836912142E-02 -0.6113286405218E-02  0.0000000000000E+00  0.3527063038712E-02
 0.7749103575120E-02 -0.6613754202483E-02  0.0000000000000E+00  0.3649028238887E-02
 0.9363993860542E-02 -0.7082079658860E-02  0.0000000000000E+00  0.3079871970949E-02
 0.1164027734487E-03 -0.5917544978800E-02  0.0000000000000E+00  0.1458560665131E-02
 0.3517832982844E-03 -0.6058789685972E-02  0.0000000000000E+00  0.1414345525888E-02
 0.5824731728980E-03 -0.6190111965830E-02  0.0000000000000E+00  0.1299508600400E-02
 0.7912283994274E-03 -0.6300509841754E-02  0.0000000000000E+00  0.1125413897655E-02
 0.9672411973201E-03 -0.6384649164591E-02  0.0000000000000E+00  0.9149998703529E-03
 0.1107600749688E-02 -0.6443336717941E-02  0.0000000000000E+00  0.6918330894832E-03
 0.1215011169973E-02 -0.6481160173512E-02  0.0000000000000E+00  0.4732416550574E-03
 0.1294712212237E-02 -0.6503819322241E-02  0.0000000000000E+00  0.2688024998432E-03
 0.1352281650570E-02 -0.6516453182968E-02  0.0000000000000E+00  0.8188317989939E-04
 0.1392569484500E-02 -0.6523011978024E-02  0.0000000000000E+00 -0.8808821566010E-04
 0.1419397674945E-02 -0.6526248743822E-02  0.0000000000000E+00 -0.2437701644905E-03
 0.1435625596282E-02 -0.6527948315958E-02  0.0000000000000E+00 -0.3887103491404E-03
 0.1443333154009E-02 -0.6529185719833E-02  0.0000000000000E+00 -0.5266686837601E-03
 0.1444007660972E-02 -0.6530535476104E-02  0.0000000000000E+00 -0.6612652629211E-03
 0.1438695915857E-02 -0.6532216418440E-02  0.0000000000000E+00 -0.7958039552447E-03
 0.1428115867238E-02 -0.6534179053096E-02  0.0000000000000E+00 -0.9331773463679E-03
 0.1412734120703E-02 -0.6536147445630E-02  0.0000000000000E+00 -0.1075796064386E-02
 0.1392820595891E-02 -0.6537627437418E-02  0.0000000000000E+00 -0.1225501721843E-02
 0.1368493003748E-02 -0.6537893215613E-02  0.0000000000000E+00 -0.1383447050804E-02
 0.1339769552215E-02 -0.6535966471653E-02  0.0000000000000E+00 -0.1549922677607E-02
 0.1306649819525E-02 -0.6530604812340E-02  0.0000000000000E+00 -0.1724131740513E-02
 0.1269237939867E-02 -0.6520314726834E-02  0.0000000000000E+00 -0.1903952418186E-02
 0.1227908099042E-02 -0.6503392222059E-02  0.0000000000000E+00 -0.2085728214014E-02
 0.1183495723833E-02 -0.6477996908902E-02  0.0000000000000E+00 -0.2264134566320E-02
 0.1137513381678E-02 -0.6442334377293E-02  0.0000000000000E+00 -0.2432139029205E-02
 0.1092277465942E-02 -0.6394780930615E-02  0.0000000000000E+00 -0.2580992870277E-02
 0.1050916659227E-02 -0.6333795095625E-02  0.0000000000000E+00 -0.2700066736016E-02
 0.1017452575160E-02 -0.6257824014504E-02  0.0000000000000E+00 -0.2776436462968E-02
 0.9971111345172E-03 -0.6165380291032E-02  0.0000000000000E+00 -0.2794275951498E-02
 0.9969836849613E-03 -0.6055410543129E-02  0.0000000000000E+00 -0.2734212159519E-02
 0.1027149059461E-02 -0.5928068859577E-02  0.0000000000000E+00 -0.2572879816896E-02
 0.1102389061076E-02 -0.5786043918596E-02  0.0000000000000E+00 -0.2283077272955E-02
 0.1244625829391E-02 -0.5636637172986E-02  0.0000000000000E+00 -0.1835344698832E-02
 0.1486085141377E-02 -0.5494568343995E-02  0.0000000000000E+00 -0.1202369490714E-02
 0.1872530150054E-02 -0.5385294759781E-02  0.0000000000000E+00 -0.3689088382752E-03
 0.2463761464529E-02 -0.5347338788278E-02  0.0000000000000E+00  0.6487935533600E-03
 0.3325901697002E-02 -0.5428811390246E-02  0.0000000000000E+00  0.1774070949271E-02
 0.4508999858412E-02 -0.5671845677413E-02  0.0000000000000E+00  0.2842242888472E-02
 0.6008406116550E-02 -0.6082900097644E-02  0.0000000000000E+00  0.3600347765071E-02
 0.7725216630230E-02 -0.6600666766129E-02  0.0000000000000E+00  0.3765707060610E-02
 0.9465715892636E-02 -0.7094126193217E-02  0.0000000000000E+00  0.3143861830169E-02
 0.1220501723658E-03 -0.5934599532047E-02  0.0000000000000E+00  0.1545903008605E-02
 0.3693119326945E-03 -0.6082019536267E-02  0.0000000000000E+00  0.1496766036896E-02
 0.6110366480677E-03 -0.6217617822850E-02  0.0000000000000E+00  0.1368122601247E-02
 0.8269938631705E-03 -0.6328748778109E-02  0.0000000000000E+00  0.1175015621277E-02
 0.1005581114598E-02 -0.6410219788700E-02  0.0000000000000E+00  0.9456905942115E-03
 0.1144896863362E-02 -0.6464226181194E-02  0.0000000000000E+00  0.7073887712301E-03
 0.1249260556862E-02 -0.6496931656734E-02  0.0000000000000E+00  0.4786397169584E-03
 0.1325289452500E-02 -0.6515165430865E-02  0.0000000000000E+00  0.2685405395513E-03
 0.1379439012207E-02 -0.6524649183000E-02  0.0000000000000E+00  0.7933512917288E-04
 0.1417007853615E-02 -0.6529525822948E-02  0.0000000000000E+00 -0.9067158092213E-04
 0.1441993244985E-02 -0.6532535357905E-02  0.0000000000000E+00 -0.2450185179697E-03
 0.1457284250868E-02 -0.6535370483044E-02  0.0000000000000E+00 -0.3878698006112E-03
 0.1464923488056E-02 -0.6539002714347E-02  0.0000000000000E+00 -0.5233950104162E-03
 0.1466335313803E-02 -0.6543921641570E-02  0.0000000000000E+00 -0.6554855304089E-03
 0.1462496586975E-02 -0.6550289563484E-02  0.0000000000000E+00 -0.7876361740842E-03
 0.1454054236250E-02 -0.6558028707678E-02  0.0000000000000E+00 -0.9228950684798E-03
 0.1441401161200E-02 -0.6566857767770E-02  0.0000000000000E+00 -0.1063827323066E-02
 0.1424724046691E-02 -0.6576290874998E-02  0.0000000000000E+00 -0.1212454087546E-02
 0.1404037133537E-02 -0.6585611573961E-02  0.0000000000000E+00 -0.1370150460599E-02
 0.1379221876286E-02 -0.6593835958522E-02  0.0000000000000E+00 -0.1537479178288E-02
 0.1350096180025E-02 -0.6599683669152E-02  0.0000000000000E+00 -0.1713958185953E-02
 0.1316533056846E-02 -0.6601576844100E-02  0.0000000000000E+00 -0.1897804370784E-02
 0.1278631796733E-02 -0.6597673053345E-02  0.0000000000000E+00 -0.2085705796561E-02
 0.1236920860596E-02 -0.6585937272111E-02  0.0000000000000E+00 -0.2272686543680E-02
 0.1192581715265E-02 -0.6564327008721E-02  0.0000000000000E+00 -0.2452077799069E-02
 0.1147560214114E-02 -0.6530905628807E-02  0.0000000000000E+00 -0.2615536551911E-02
 0.1104528899133E-02 -0.6483710373661E-02  0.0000000000000E+00 -0.2752904792703E-02
 0.1066908902315E-02 -0.6420594200167E-02  0.0000000000000E+00 -0.2851758440240E-02
 0.1039129866044E-02 -0.6339230058832E-02  0.0000000000000E+00 -0.2896681728483E-02
 0.1027258978288E-02 -0.6237403140785E-02  0.0000000000000E+00 -0.2868410049070E-02
 0.1040124238711E-02 -0.6113707093897E-02  0.0000000000000E+00 -0.2743036936491E-02
 0.1091110465187E-02 -0.5968819892536E-02  0.0000000000000E+00 -0.2491595978882E-02
 0.1200884776615E-02 -0.5807656576107E-02  0.0000000000000E+00 -0.2080736231136E-02
 0.1401305460570E-02 -0.5642574490793E-02  0.0000000000000E+00 -0.1475925428430E-02
 0.1740231697213E-02 -0.5497807588868E-02  0.0000000000000E+00 -0.6504325495729E-03
 0.2284566260745E-02 -0.5413990828317E-02  0.0000000000000E+00  0.3940799402026E-03
 0.3114980435426E-02 -0.5447278052951E-02  0.0000000000000E+00  0.1592285239299E-02
 0.4302637469121E-02 -0.5654069634146E-02  0.0000000000000E+00  0.2774449170409E-02
 0.5861987026322E-02 -0.6055368297971E-02  0.0000000000000E+00  0.3651679190541E-02
 0.7695202120242E-02 -0.6592419293767E-02  0.0000000000000E+00  0.3876834648192E-02
 0.9578489210342E-02 -0.7114813864922E-02  0.0000000000000E+00  0.3201657887325E-02
 0.1284407295121E-03 -0.5954332212095E-02  0.0000000000000E+00  0.1637200618780E-02
 0.3891478740484E-03 -0.6108555178281E-02  0.0000000000000E+00  0.1582090247226E-02
 0.6430698874849E-03 -0.6248453616039E-02  0.0000000000000E+00  0.1436922008688E-02
 0.8663518776383E-03 -0.6359476646365E-02  0.0000000000000E+00  0.1221844961475E-02
 0.1046763210847E-02 -0.6436917452185E-02  0.0000000000000E+00  0.9717577752556E-03
 0.1183944838689E-02 -0.6484883592771E-02  0.0000000000000E+00  0.7179329179840E-03
 0.1284255697572E-02 -0.6511439135859E-02  0.0000000000000E+00  0.4797258700901E-03
 0.1355867616222E-02 -0.6524611305803E-02  0.0000000000000E+00  0.2652123464496E-03
 0.1406119387178E-02 -0.6530630756158E-02  0.0000000000000E+00  0.7511816720375E-04
 0.1440696937025E-02 -0.6533725933751E-02  0.0000000000000E+00 -0.9357569999949E-04
 0.1463705557093E-02 -0.6536534651700E-02  0.0000000000000E+00 -0.2453568910608E-03
 0.1478012129776E-02 -0.6540597425588E-02  0.0000000000000E+00 -0.3850063480987E-03
 0.1485587896644E-02 -0.6546746966794E-02  0.0000000000000E+00 -0.5170758858420E-03
 0.1487774646847E-02 -0.6555370450523E-02  0.0000000000000E+00 -0.6456927524508E-03
 0.1485470457609E-02 -0.6566568565912E-02  0.0000000000000E+00 -0.7745079740298E-03
 0.1479250458956E-02 -0.6580239271119E-02  0.0000000000000E+00 -0.9066948291616E-03
 0.1469439423463E-02 -0.6596107309425E-02  0.0000000000000E+00 -0.1044948886827E-02
 0.1456151553567E-02 -0.6613713236332E-02  0.0000000000000E+00 -0.1191455429261E-02
 0.1439312186116E-02 -0.6632374250205E-02  0.0000000000000E+00 -0.1347808219030E-02
 0.1418682211361E-02 -0.6651130014195E-02  0.0000000000000E+00 -0.1514853349158E-02
 0.1393912732463E-02 -0.6668693837344E-02  0.0000000000000E+00 -0.1692450976656E-02
 0.1364657064985E-02 -0.6683435067156E-02  0.0000000000000E+00 -0.1879197193713E-02
 0.1330748682414E-02 -0.6693403732020E-02  0.0000000000000E+00 -0.2072172437970E-02
 0.1292420554888E-02 -0.6696402795284E-02  0.0000000000000E+00 -0.2266802382881E-02
 0.1250541568509E-02 -0.6690179420984E-02  0.0000000000000E+00 -0.2456845604700E-02
 0.1206712240176E-02 -0.6672528575799E-02  0.0000000000000E+00 -0.2634453584386E-02
 0.1163173796350E-02 -0.6641116101916E-02  0.0000000000000E+00 -0.2790071792943E-02
 0.1122759938447E-02 -0.6593251564074E-02  0.0000000000000E+00 -0.2911967083054E-02
 0.1089091558825E-02 -0.6525812661659E-02  0.0000000000000E+00 -0.2985399329739E-02
 0.1067153513660E-02 -0.6435446321309E-02  0.0000000000000E+00 -0.2991575569866E-02
 0.1064380840248E-02 -0.6319153270988E-02  0.0000000000000E+00 -0.2906538322621E-02
 0.1092462936472E-02 -0.6175439517572E-02  0.0000000000000E+00 -0.2700177915846E-02
 0.1170244877103E-02 -0.6006413828076E-02  0.0000000000000E+00 -0.2335895988959E-02
 0.1328271949259E-02 -0.5821217137287E-02  0.0000000000000E+00 -0.1772211351397E-02
 0.1615247717902E-02 -0.5641482756725E-02  0.0000000000000E+00 -0.9699092531975E-03
 0.2104258016023E-02 -0.5508422652307E-02  0.0000000000000E+00  0.8746960775474E-04
 0.2891468455628E-02 -0.5485774776856E-02  0.0000000000000E+00  0.1352469702441E-02
 0.4073801359456E-02 -0.5646610621874E-02  0.0000000000000E+00  0.2656912574003E-02
 0.5692694435321E-02 -0.6031959949664E-02  0.0000000000000E+00  0.3675245204439E-02
 0.7656329552711E-02 -0.6589691873871E-02  0.0000000000000E+00  0.3981648659093E-02
 0.9704313830622E-02 -0.7145803555097E-02  0.0000000000000E+00  0.3251900972198E-02
 0.1357477502999E-03 -0.5977364283780E-02  0.0000000000000E+00  0.1732891236282E-02
 0.4117970096125E-03 -0.6139105903116E-02  0.0000000000000E+00  0.1670382280417E-02
 0.6792081717542E-03 -0.6283185767365E-02  0.0000000000000E+00  0.1505196322689E-02
 0.9097442651007E-03 -0.6392890092551E-02  0.0000000000000E+00  0.1264619932042E-02
 0.1090898045250E-02 -0.6464551685491E-02  0.0000000000000E+00  0.9918602903901E-03
 0.1224587517658E-02 -0.6504876353642E-02  0.0000000000000E+00  0.7224323704683E-03
 0.1319702481957E-02 -0.6524170637501E-02  0.0000000000000E+00  0.4758692760758E-03
 0.1386117686076E-02 -0.6531667299385E-02  0.0000000000000E+00  0.2585170624311E-03
 0.1432010879362E-02 -0.6533969561910E-02  0.0000000000000E+00  0.6914723036031E-04
 0.1463358467752E-02 -0.6535247421422E-02  0.0000000000000E+00 -0.9676452359986E-04
 0.1484288716962E-02 -0.6537932108604E-02  0.0000000000000E+00 -0.2446907373157E-03
 0.1497587646363E-02 -0.6543347956771E-02  0.0000000000000E+00 -0.3800033401406E-03
 0.1505119368139E-02 -0.6552154080959E-02  0.0000000000000E+00 -0.5075909932213E-03
 0.1508123847704E-02 -0.6564619552398E-02  0.0000000000000E+00 -0.6317696008249E-03
 0.1507412551388E-02 -0.6580780230870E-02  0.0000000000000E+00 -0.7563036031667E-03
 0.1503489230800E-02 -0.6600515408407E-02  0.0000000000000E+00 -0.8844547912480E-03
 0.1496617498278E-02 -0.6623568767066E-02  0.0000000000000E+00 -0.1019019440542E-02
 0.1486851667838E-02 -0.6649527178748E-02  0.0000000000000E+00 -0.1162325683416E-02
 0.1474045359559E-02 -0.6677768394990E-02  0.0000000000000E+00 -0.1316176362376E-02
 0.1457858540206E-02 -0.6707388653606E-02  0.0000000000000E+00 -0.1481707317560E-02
 0.1437794092799E-02 -0.6737131430954E-02  0.0000000000000E+00 -0.1659145781145E-02
 0.1413300009734E-02 -0.6765349833217E-02  0.0000000000000E+00 -0.1847507353616E-02
 0.1383954819020E-02 -0.6790021535142E-02  0.0000000000000E+00 -0.2044312591444E-02
 0.1349709361350E-02 -0.6808823985912E-02  0.0000000000000E+00 -0.2245438902369E-02
 0.1311142560261E-02 -0.6819336398408E-02  0.0000000000000E+00 -0.2445129905996E-02
 0.1269542342022E-02 -0.6819136617735E-02  0.0000000000000E+00 -0.2636113006266E-02
 0.1226754431377E-02 -0.6805579109349E-02  0.0000000000000E+00 -0.2809562845077E-02
 0.1185052859077E-02 -0.6775496498013E-02  0.0000000000000E+00 -0.2954623465759E-02
 0.1147257855747E-02 -0.6725040767896E-02  0.0000000000000E+00 -0.3057495404754E-02
 0.1117244119355E-02 -0.6649784409566E-02  0.0000000000000E+00 -0.3100234029510E-02
 0.1100954741144E-02 -0.6545165782579E-02  0.0000000000000E+00 -0.3059372765719E-02
 0.1108135226119E-02 -0.6407444849378E-02  0.0000000000000E+00 -0.2904420020969E-02
 0.1155264854643E-02 -0.6235595466097E-02  0.0000000000000E+00 -0.2596480646141E-02
 0.1270535218676E-02 -0.6034705371901E-02  0.0000000000000E+00 -0.2087940050219E-02
 0.1501867506405E-02 -0.5822200001083E-02  0.0000000000000E+00 -0.1326787702066E-02
 0.1926848823406E-02 -0.5637661367390E-02  0.0000000000000E+00 -0.2751434685394E-03
 0.2657259501808E-02 -0.5550977011173E-02  0.0000000000000E+00  0.1045266738717E-02
 0.3820647595875E-02 -0.5653914183817E-02  0.0000000000000E+00  0.2477887582170E-02
 0.5495734404742E-02 -0.6014352322128E-02  0.0000000000000E+00  0.3662871479840E-02
 0.7605087120305E-02 -0.6593233976588E-02  0.0000000000000E+00  0.4078468037197E-02
 0.9845457478466E-02 -0.7189090682522E-02  0.0000000000000E+00  0.3293450705797E-02
 0.1442050252624E-03 -0.6004505046305E-02  0.0000000000000E+00  0.1833494878823E-02
 0.4379226892815E-03 -0.6174577412085E-02  0.0000000000000E+00  0.1761624103957E-02
 0.7202353794733E-03 -0.6322483935254E-02  0.0000000000000E+00  0.1571898996403E-02
 0.9576489812966E-03 -0.6429142750945E-02  0.0000000000000E+00  0.1301651032471E-02
 0.1138030142003E-02 -0.6492796723491E-02  0.0000000000000E+00  0.1004379491759E-02
 0.1266567025633E-02 -0.6523628299882E-02  0.0000000000000E+00  0.7197536905421E-03
 0.1355220899846E-02 -0.6534508535703E-02  0.0000000000000E+00  0.4664563208686E-03
 0.1415654318654E-02 -0.6535781476093E-02  0.0000000000000E+00  0.2482172115902E-03
 0.1456770446376E-02 -0.6534206635818E-02  0.0000000000000E+00  0.6140426834261E-04
 0.1484699558942E-02 -0.6533713817009E-02  0.0000000000000E+00 -0.1001482216029E-03
 0.1503491724455E-02 -0.6536411841219E-02  0.0000000000000E+00 -0.2428888679282E-03
 0.1515788999723E-02 -0.6543344322425E-02  0.0000000000000E+00 -0.3727237623886E-03
 0.1523312685747E-02 -0.6554964696491E-02  0.0000000000000E+00 -0.4948138842852E-03
 0.1527183067860E-02 -0.6571411271722E-02  0.0000000000000E+00 -0.6136049169422E-03
 0.1528118710891E-02 -0.6592654295936E-02  0.0000000000000E+00 -0.7329243306002E-03
 0.1526553774424E-02 -0.6618561733415E-02  0.0000000000000E+00 -0.8560799703908E-03
 0.1522698994556E-02 -0.6648910395876E-02  0.0000000000000E+00 -0.9859334700119E-03
 0.1516563059478E-02 -0.6683354778928E-02  0.0000000000000E+00 -0.1124928278388E-02
 0.1507947606510E-02 -0.6721362383803E-02  0.0000000000000E+00 -0.1275059851714E-02
 0.1496435016258E-02 -0.6762122894743E-02  0.0000000000000E+00 -0.1437753920755E-02
 0.1481402821992E-02 -0.6804451852803E-02  0.0000000000000E+00 -0.1613626078550E-02
 0.1462111530820E-02 -0.6846728459770E-02  0.0000000000000E+00 -0.1802151593975E-02
 0.1437897318640E-02 -0.6886897996837E-02  0.0000000000000E+00 -0.2001339705242E-02
 0.1408443490102E-02 -0.6922552546801E-02  0.0000000000000E+00 -0.2207567369491E-02
 0.1374065025736E-02 -0.6951149545487E-02  0.0000000000000E+00 -0.2415614025097E-02
 0.1335777133904E-02 -0.6970106381891E-02  0.0000000000000E+00 -0.2618855050129E-02
 0.1295076549692E-02 -0.6976534627569E-02  0.0000000000000E+00 -0.2809309871816E-02
 0.1253719898607E-02 -0.6966870434054E-02  0.0000000000000E+00 -0.2977174846505E-02
 0.1213756006426E-02 -0.6936633938758E-02  0.0000000000000E+00 -0.3109844386898E-02
 0.1177955437943E-02 -0.6880429554988E-02  0.0000000000000E+00 -0.3190593259133E-02
 0.1150724417552E-02 -0.6792235698395E-02  0.0000000000000E+00 -0.3197010922282E-02
 0.1139692616695E-02 -0.6666104371413E-02  0.0000000000000E+00 -0.3099091247314E-02
 0.1158506106009E-02 -0.6497693925628E-02  0.0000000000000E+00 -0.2856886556103E-02
 0.1231945094188E-02 -0.6287320900621E-02  0.0000000000000E+00 -0.2418095489853E-02
 0.1405188912863E-02 -0.6046473988097E-02  0.0000000000000E+00 -0.1718608012076E-02
 0.1757719485679E-02 -0.5810177548377E-02  0.0000000000000E+00 -0.6966551900922E-03
 0.2415705400589E-02 -0.5651626349499E-02  0.0000000000000E+00  0.6605950001279E-03
 0.3541842240217E-02 -0.5682259837558E-02  0.0000000000000E+00  0.2222637267928E-02
 0.5265315225937E-02 -0.6004996253602E-02  0.0000000000000E+00  0.3602979727275E-02
 0.7536794934065E-02 -0.6603980347412E-02  0.0000000000000E+00  0.4164406187281E-02
 0.1000458440687E-01 -0.7247158579278E-02  0.0000000000000E+00  0.3325293700817E-02
 0.1541337723709E-03 -0.6036823649858E-02  0.0000000000000E+00  0.1939635664564E-02
 0.4684046726100E-03 -0.6216135189112E-02  0.0000000000000E+00  0.1855650151706E-02
 0.7671159201692E-03 -0.6367126326317E-02  0.0000000000000E+00  0.1635492579099E-02
 0.1010556531504E-02 -0.6468292183855E-02  0.0000000000000E+00  0.1330719074847E-02
 0.1188091586735E-02 -0.6521128763276E-02  0.0000000000000E+00  0.1007392333777E-02
 0.1309490271730E-02 -0.6540381618267E-02  0.0000000000000E+00  0.7086986584445E-03
 0.1390330400822E-02 -0.6541717275112E-02  0.0000000000000E+00  0.4509376978636E-03
 0.1444033872670E-02 -0.6536340982582E-02  0.0000000000000E+00  0.2341735470159E-03
 0.1480026942636E-02 -0.6530858091768E-02  0.0000000000000E+00  0.5195889611859E-04
 0.1504416862473E-02 -0.6528743122459E-02  0.0000000000000E+00 -0.1035722041349E-03
 0.1521062388391E-02 -0.6531661854144E-02  0.0000000000000E+00 -0.2397781546832E-03
 0.1532397534579E-02 -0.6540316558787E-02  0.0000000000000E+00 -0.3630081589279E-03
 0.1539967278453E-02 -0.6554928129877E-02  0.0000000000000E+00 -0.4786117512593E-03
 0.1544756910276E-02 -0.6575495779800E-02  0.0000000000000E+00 -0.5910946588743E-03
 0.1547387868318E-02 -0.6601926355070E-02  0.0000000000000E+00 -0.7042903352788E-03
 0.1548227995096E-02 -0.6634085646605E-02  0.0000000000000E+00 -0.8215051428395E-03
 0.1547444593750E-02 -0.6671798822552E-02  0.0000000000000E+00 -0.9456255058367E-03
 0.1545016343076E-02 -0.6714810213177E-02  0.0000000000000E+00 -0.1079176168774E-02
 0.1540714935809E-02 -0.6762708024380E-02  0.0000000000000E+00 -0.1224320752084E-02
 0.1534072362973E-02 -0.6814815968265E-02  0.0000000000000E+00 -0.1382766941514E-02
 0.1524368681767E-02 -0.6870069536014E-02  0.0000000000000E+00 -0.1555534770473E-02
 0.1510699037576E-02 -0.6926923300241E-02  0.0000000000000E+00 -0.1742599029287E-02
 0.1492171694583E-02 -0.6983335783060E-02  0.0000000000000E+00 -0.1942508379167E-02
 0.1468217501848E-02 -0.7036857457846E-02  0.0000000000000E+00 -0.2152186133849E-02
 0.1438915953420E-02 -0.7084872869703E-02  0.0000000000000E+00 -0.2366991443418E-02
 0.1405055757722E-02 -0.7124699068016E-02  0.0000000000000E+00 -0.2581008915933E-02
 0.1367841003303E-02 -0.7153279056842E-02  0.0000000000000E+00 -0.2787205032631E-02
 0.1328566558459E-02 -0.7166744121460E-02  0.0000000000000E+00 -0.2976985790510E-02
 0.1288559426402E-02 -0.7160098261427E-02  0.0000000000000E+00 -0.3139168546276E-02
 0.1249527120575E-02 -0.7127125822183E-02  0.0000000000000E+00 -0.3258591221494E-02
 0.1214355929631E-02 -0.7060524068589E-02  0.0000000000000E+00 -0.3314451474428E-02
 0.1188488523206E-02 -0.6952306986334E-02  0.0000000000000E+00 -0.3278148821742E-02
 0.1182405501331E-02 -0.6794841323213E-02  0.0000000000000E+00 -0.3110165076645E-02
 0.1216513446635E-02 -0.6583201200022E-02  0.0000000000000E+00 -0.2755611011769E-02
 0.1331083804251E-02 -0.6321286306382E-02  0.0000000000000E+00 -0.2140296710224E-02
 0.1603879554704E-02 -0.6035995251304E-02  0.0000000000000E+00 -0.1177758077171E-02
 0.2172238380681E-02 -0.5799119420173E-02  0.0000000000000E+00  0.1882898160305E-03
 0.3237165401074E-02 -0.5740639388615E-02  0.0000000000000E+00  0.1872877327333E-02
 0.4994592927892E-02 -0.6007707025395E-02  0.0000000000000E+00  0.3479155289860E-02
 0.7445052839745E-02 -0.6623174636135E-02  0.0000000000000E+00  0.4234712395936E-02
 0.1018490881085E-01 -0.7323152688075E-02  0.0000000000000E+00  0.3346473401129E-02
 0.1659846745381E-03 -0.6075756404654E-02  0.0000000000000E+00  0.2052069330800E-02
 0.5044238910003E-03 -0.6265291126273E-02  0.0000000000000E+00  0.1952033022717E-02
 0.8210277233788E-03 -0.6417990311416E-02  0.0000000000000E+00  0.1693716958868E-02
 0.1068922457963E-02 -0.6510211412100E-02  0.0000000000000E+00  0.1348925000810E-02
 0.1240835038371E-02 -0.6548740553415E-02  0.0000000000000E+00  0.9986671652763E-03
 0.1352788691462E-02 -0.6554155702943E-02  0.0000000000000E+00  0.6880710536994E-03
 0.1424438025221E-02 -0.6544936484488E-02  0.0000000000000E+00  0.4288929374754E-03
 0.1470756408591E-02 -0.6532678668353E-02  0.0000000000000E+00  0.2163853441323E-03
 0.1501386858141E-02 -0.6523424012688E-02  0.0000000000000E+00  0.4098951606731E-04
 0.1522202257251E-02 -0.6519955590184E-02  0.0000000000000E+00 -0.1068069570046E-03
 0.1536752080457E-02 -0.6523380227918E-02  0.0000000000000E+00 -0.2351391691375E-03
 0.1547201562484E-02 -0.6534007342396E-02  0.0000000000000E+00 -0.3506732972603E-03
 0.1554890341105E-02 -0.6551806296297E-02  0.0000000000000E+00 -0.4588456904173E-03
 0.1560657105939E-02 -0.6576634462554E-02  0.0000000000000E+00 -0.5641431119829E-03
 0.1565024498142E-02 -0.6608340975570E-02  0.0000000000000E+00 -0.6703426733870E-03
 0.1568298869843E-02 -0.6646800430097E-02  0.0000000000000E+00 -0.7806977027497E-03
 0.1570614442069E-02 -0.6691902246814E-02  0.0000000000000E+00 -0.8980742877590E-03
 0.1571936372797E-02 -0.6743503007425E-02  0.0000000000000E+00 -0.1025037950172E-02
 0.1572030269604E-02 -0.6801343487926E-02  0.0000000000000E+00 -0.1163886917428E-02
 0.1570408774085E-02 -0.6864925243865E-02  0.0000000000000E+00 -0.1316592453480E-02
 0.1566288176710E-02 -0.6933358152771E-02  0.0000000000000E+00 -0.1484587361454E-02
 0.1558625926643E-02 -0.7005229982987E-02  0.0000000000000E+00 -0.1668384787883E-02
 0.1546319165332E-02 -0.7078565397941E-02  0.0000000000000E+00 -0.1867127570347E-02
 0.1528561111905E-02 -0.7150921011543E-02  0.0000000000000E+00 -0.2078333666716E-02
 0.1505225436731E-02 -0.7219658887241E-02  0.0000000000000E+00 -0.2297980174997E-02
 0.1476925698902E-02 -0.7282056646159E-02  0.0000000000000E+00 -0.2520911051599E-02
 0.1444637944811E-02 -0.7334965090579E-02  0.0000000000000E+00 -0.2741126131836E-02
 0.1409262164096E-02 -0.7374309127426E-02  0.0000000000000E+00 -0.2951373961378E-02
 0.1371471049688E-02 -0.7394709982342E-02  0.0000000000000E+00 -0.3142087149071E-02
 0.1331983645612E-02 -0.7389317707279E-02  0.0000000000000E+00 -0.3299960460686E-02
 0.1292248231364E-02 -0.7349802349129E-02  0.0000000000000E+00 -0.3406297534964E-02
 0.1255568128915E-02 -0.7266452167368E-02  0.0000000000000E+00 -0.3434805989540E-02
 0.1229117334006E-02 -0.7128616748790E-02  0.0000000000000E+00 -0.3348013716164E-02
 0.1228200189432E-02 -0.6926041884565E-02  0.0000000000000E+00 -0.3091111623163E-02
 0.1286042570623E-02 -0.6653761008775E-02  0.0000000000000E+00 -0.2583379938202E-02
 0.1474162467522E-02 -0.6326649099656E-02  0.0000000000000E+00 -0.1715540206328E-02
 0.1935167358436E-02 -0.6008169171804E-02  0.0000000000000E+00 -0.3806248456615E-03
 0.2908502483901E-02 -0.5842040884217E-02  0.0000000000000E+00  0.1406449495035E-02
 0.4675761490191E-02 -0.6028652604272E-02  0.0000000000000E+00  0.3268110718836E-02
 0.7320947183683E-02 -0.6652590789051E-02  0.0000000000000E+00  0.4281499500957E-02
 0.1039040151989E-01 -0.7421145339387E-02  0.0000000000000E+00  0.3356034431038E-02
 0.1804053058411E-03 -0.6123271812502E-02  0.0000000000000E+00  0.2171716712746E-02
 0.5475854732260E-03 -0.6324021725027E-02  0.0000000000000E+00  0.2049880818644E-02
 0.8833882889602E-03 -0.6476010070337E-02  0.0000000000000E+00  0.1743241294250E-02
 0.1133079279381E-02 -0.6554444259564E-02  0.0000000000000E+00  0.1352517595102E-02
 0.1295740401101E-02 -0.6574429557924E-02  0.0000000000000E+00  0.9757075809964E-03
 0.1395675561101E-02 -0.6563708903663E-02  0.0000000000000E+00  0.6567881315571E-03
 0.1456833203061E-02 -0.6543184231293E-02  0.0000000000000E+00  0.4001129759201E-03
 0.1495273325242E-02 -0.6524086569725E-02  0.0000000000000E+00  0.1950335353728E-03
 0.1520443149797E-02 -0.6511400817860E-02  0.0000000000000E+00  0.2880317554040E-04
 0.1537750110949E-02 -0.6506983221987E-02  0.0000000000000E+00 -0.1095395763696E-03
 0.1550321289342E-02 -0.6511282147524E-02  0.0000000000000E+00 -0.2287032229918E-03
 0.1560000588230E-02 -0.6524177249725E-02  0.0000000000000E+00 -0.3355118068097E-03
 0.1567900173911E-02 -0.6545377844613E-02  0.0000000000000E+00 -0.4353715555506E-03
 0.1574705339918E-02 -0.6574603431146E-02  0.0000000000000E+00 -0.5326643846034E-03
 0.1580841221755E-02 -0.6611654966043E-02  0.0000000000000E+00 -0.6310452876705E-03
 0.1586559053165E-02 -0.6656428571238E-02  0.0000000000000E+00 -0.7336603713653E-03
 0.1591970891423E-02 -0.6708894031600E-02  0.0000000000000E+00 -0.8433066793759E-03
 0.1597045074801E-02 -0.6769041923489E-02  0.0000000000000E+00 -0.9625438307479E-03
 0.1601566001790E-02 -0.6836797135700E-02  0.0000000000000E+00 -0.1093761008995E-02
 0.1605061499720E-02 -0.6911885124350E-02  0.0000000000000E+00 -0.1239161324859E-02
 0.1606724503801E-02 -0.6993651492883E-02  0.0000000000000E+00 -0.1400587040454E-02
 0.1605409816813E-02 -0.7080885742369E-02  0.0000000000000E+00 -0.1579125627076E-02
 0.1599823759363E-02 -0.7171741518518E-02  0.0000000000000E+00 -0.1774575027213E-02
 0.1588935937683E-02 -0.7263834542084E-02  0.0000000000000E+00 -0.1985101704230E-02
 0.1572443604911E-02 -0.7354555169361E-02  0.0000000000000E+00 -0.2207336438040E-02
 0.1550839910626E-02 -0.7441199717970E-02  0.0000000000000E+00 -0.2436922929588E-02
 0.1524943241281E-02 -0.7520599801335E-02  0.0000000000000E+00 -0.2668963043262E-02
 0.1495333511282E-02 -0.7588573466303E-02  0.0000000000000E+00 -0.2897649680548E-02
 0.1462110694802E-02 -0.7639504528248E-02  0.0000000000000E+00 -0.3115173693989E-02
 0.1425109010509E-02 -0.7666125617341E-02  0.0000000000000E+00 -0.3310308477682E-02
 0.1384482880242E-02 -0.7659400723821E-02  0.0000000000000E+00 -0.3466864151303E-02
 0.1341570982222E-02 -0.7608344822607E-02  0.0000000000000E+00 -0.3561658519257E-02
 0.1300332954333E-02 -0.7499840176344E-02  0.0000000000000E+00 -0.3560871423648E-02
 0.1270616757201E-02 -0.7318723077090E-02  0.0000000000000E+00 -0.3412796323411E-02
 0.1276840208078E-02 -0.7050633736553E-02  0.0000000000000E+00 -0.3035217875878E-02
 0.1379243977668E-02 -0.6694848916685E-02  0.0000000000000E+00 -0.2301634411072E-02
 0.1716614401747E-02 -0.6297424370926E-02  0.0000000000000E+00 -0.1051657340657E-02
 0.2561423150906E-02 -0.6005275806552E-02  0.0000000000000E+00  0.7976376652778E-03
 0.4300509800344E-02 -0.6078060677164E-02  0.0000000000000E+00  0.2936847845299E-02
 0.7151905722615E-02 -0.6695002677657E-02  0.0000000000000E+00  0.4291394691021E-02
 0.1062607313605E-01 -0.7546576949365E-02  0.0000000000000E+00  0.3352941301472E-02
 0.1983515597808E-03 -0.6182132862522E-02  0.0000000000000E+00  0.2299700802442E-02
 0.6000983925504E-03 -0.6394927176641E-02  0.0000000000000E+00  0.2147471087097E-02
 0.9558547069620E-03 -0.6542064196570E-02  0.0000000000000E+00  0.1779141835126E-02
 0.1203081385692E-02 -0.6599973349994E-02  0.0000000000000E+00  0.1336724223234E-02
 0.1351891245057E-02 -0.6596460961651E-02  0.0000000000000E+00  0.9358871745457E-03
 0.1437108816860E-02 -0.6567515045011E-02  0.0000000000000E+00  0.6140504746550E-03
 0.1486694608306E-02 -0.6535376271906E-02  0.0000000000000E+00  0.3646967590402E-03
 0.1517002022359E-02 -0.6509837279464E-02  0.0000000000000E+00  0.1705221667205E-03
 0.1536787260786E-02 -0.6494297067920E-02  0.0000000000000E+00  0.1585214309328E-04
 0.1550766036377E-02 -0.6489480854258E-02  0.0000000000000E+00 -0.1113679482909E-03
 0.1561545866027E-02 -0.6495107624835E-02  0.0000000000000E+00 -0.2201512901453E-03
 0.1570609842488E-02 -0.6510610305960E-02  0.0000000000000E+00 -0.3172930088519E-03
 0.1578829665024E-02 -0.6535442416662E-02  0.0000000000000E+00 -0.4080414930245E-03
 0.1586736165838E-02 -0.6569197105285E-02  0.0000000000000E+00 -0.4965842119587E-03
 0.1594661511732E-02 -0.6611640734798E-02  0.0000000000000E+00 -0.5863870306413E-03
 0.1602809653942E-02 -0.6662705258722E-02  0.0000000000000E+00 -0.6804336704948E-03
 0.1611281564055E-02 -0.6722456641489E-02  0.0000000000000E+00 -0.7814011553917E-03
 0.1620064854027E-02 -0.6791039504438E-02  0.0000000000000E+00 -0.8917911801653E-03
 0.1628987405338E-02 -0.6868592402566E-02  0.0000000000000E+00 -0.1014029578689E-02
 0.1637629350299E-02 -0.6955111211572E-02  0.0000000000000E+00 -0.1150502894442E-02
 0.1645208075183E-02 -0.7050245283026E-02  0.0000000000000E+00 -0.1303442147054E-02
 0.1650520741569E-02 -0.7153067818589E-02  0.0000000000000E+00 -0.1474538250241E-02
 0.1652108930539E-02 -0.7261938557135E-02  0.0000000000000E+00 -0.1664313390432E-02
 0.1648731828568E-02 -0.7374593288173E-02  0.0000000000000E+00 -0.1871648215614E-02
 0.1639937830644E-02 -0.7488500978957E-02  0.0000000000000E+00 -0.2093866609611E-02
 0.1626155365086E-02 -0.7601027136955E-02  0.0000000000000E+00 -0.2327446966655E-02
 0.1608117540501E-02 -0.7709046184991E-02  0.0000000000000E+00 -0.2568643911113E-02
 0.1586162258103E-02 -0.7808362073650E-02  0.0000000000000E+00 -0.2813158134846E-02
 0.1559907477267E-02 -0.7893271918300E-02  0.0000000000000E+00 -0.3055019642549E-02
 0.1528428458579E-02 -0.7956330424952E-02  0.0000000000000E+00 -0.3285211552399E-02
 0.1490782633920E-02 -0.7988169159145E-02  0.0000000000000E+00 -0.3490314863391E-02
 0.1446641240239E-02 -0.7977104626236E-02  0.0000000000000E+00 -0.3650871929794E-02
 0.1397094221751E-02 -0.7908372594153E-02  0.0000000000000E+00 -0.3738137573397E-02
 0.1346659665972E-02 -0.7762886385578E-02  0.0000000000000E+00 -0.3706547692993E-02
 0.1309970756751E-02 -0.7517485185475E-02  0.0000000000000E+00 -0.3478453572370E-02
 0.1331302533399E-02 -0.7153652212789E-02  0.0000000000000E+00 -0.2920001974540E-02
 0.1533448260222E-02 -0.6689776290620E-02  0.0000000000000E+00 -0.1823074316783E-02
 0.2207610655740E-02 -0.6257465026013E-02  0.0000000000000E+00  0.1897214619329E-04
 0.3861287139654E-02 -0.6173208440373E-02  0.0000000000000E+00  0.2438940861121E-02
 0.6920065605757E-02 -0.6755224622297E-02  0.0000000000000E+00  0.4241230846027E-02
 0.1089836104235E-01 -0.7707042951355E-02  0.0000000000000E+00  0.3335834158708E-02
 0.2212777909263E-03 -0.6256330083484E-02  0.0000000000000E+00  0.2437376617850E-02
 0.6650377050441E-03 -0.6481436948474E-02  0.0000000000000E+00  0.2241574413408E-02
 0.1040254689858E-02 -0.6616717986638E-02  0.0000000000000E+00  0.1794126440918E-02
 0.1278442479015E-02 -0.6644857450082E-02  0.0000000000000E+00  0.1295654114334E-02
 0.1407824615010E-02 -0.6612420860757E-02  0.0000000000000E+00  0.8767423266650E-03
 0.1475774814808E-02 -0.6563775087098E-02  0.0000000000000E+00  0.5595768214796E-03
 0.1513115154311E-02 -0.6520366563008E-02  0.0000000000000E+00  0.3231499020670E-03
 0.1535347997973E-02 -0.6489212930672E-02  0.0000000000000E+00  0.1435123023410E-03
 0.1550024074808E-02 -0.6471652370504E-02  0.0000000000000E+00  0.2745275846247E-05
 0.1560976954722E-02 -0.6467138555904E-02  0.0000000000000E+00 -0.1117985629705E-03
 0.1570223778458E-02 -0.6474629675200E-02  0.0000000000000E+00 -0.2091152579701E-03
 0.1578864991883E-02 -0.6493119667363E-02  0.0000000000000E+00 -0.2957651112031E-03
 0.1587529828266E-02 -0.6521824923096E-02  0.0000000000000E+00 -0.3767062235885E-03
 0.1596599942252E-02 -0.6560231788009E-02  0.0000000000000E+00 -0.4558420710029E-03
 0.1606322439632E-02 -0.6608089669546E-02  0.0000000000000E+00 -0.5363836586214E-03
 0.1616863130124E-02 -0.6665381983009E-02  0.0000000000000E+00 -0.6210980588349E-03
 0.1628322697463E-02 -0.6732285863996E-02  0.0000000000000E+00 -0.7124906499103E-03
 0.1640722593897E-02 -0.6809117269120E-02  0.0000000000000E+00 -0.8129492677377E-03
 0.1653957065159E-02 -0.6896253914313E-02  0.0000000000000E+00 -0.9248717340822E-03
 0.1667696470586E-02 -0.6994006190127E-02  0.0000000000000E+00 -0.1050759645851E-02
 0.1681237937849E-02 -0.7102400448229E-02  0.0000000000000E+00 -0.1193186592026E-02
 0.1693379301252E-02 -0.7220892031126E-02  0.0000000000000E+00 -0.1354461438484E-02
 0.1702533292272E-02 -0.7348144938180E-02  0.0000000000000E+00 -0.1535908759485E-02
 0.1707262226893E-02 -0.7482089577539E-02  0.0000000000000E+00 -0.1737209910455E-02
 0.1706989881701E-02 -0.7620323494816E-02  0.0000000000000E+00 -0.1956436035847E-02
 0.1702133171090E-02 -0.7760317561062E-02  0.0000000000000E+00 -0.2190938705790E-02
 0.1693408538006E-02 -0.7899028884573E-02  0.0000000000000E+00 -0.2438159563492E-02
 0.1680986765943E-02 -0.8032323005802E-02  0.0000000000000E+00 -0.2695323042005E-02
 0.1664098101629E-02 -0.8154559449187E-02  0.0000000000000E+00 -0.2958302858020E-02
 0.1641199083624E-02 -0.8258368780434E-02  0.0000000000000E+00 -0.3220318084289E-02
 0.1610483636032E-02 -0.8334456101022E-02  0.0000000000000E+00 -0.3470821834474E-02
 0.1570355055179E-02 -0.8371100578571E-02  0.0000000000000E+00 -0.3694426003317E-02
 0.1519622422089E-02 -0.8352945515008E-02  0.0000000000000E+00 -0.3868518331144E-02
 0.1458114866724E-02 -0.8258516290887E-02  0.0000000000000E+00 -0.3956339152155E-02
 0.1390834425614E-02 -0.8057772331928E-02  0.0000000000000E+00 -0.3890969464048E-02
 0.1343066103203E-02 -0.7714911986563E-02  0.0000000000000E+00 -0.3544717330104E-02
 0.1407842975280E-02 -0.7211799446965E-02  0.0000000000000E+00 -0.2680140212296E-02
 0.1868403970576E-02 -0.6637120684466E-02  0.0000000000000E+00 -0.9538624086178E-03
 0.3354240032490E-02 -0.6343658903867E-02  0.0000000000000E+00  0.1710331685808E-02
 0.6600054605666E-02 -0.6842462939430E-02  0.0000000000000E+00  0.4090146149276E-02
 0.1121565499544E-01 -0.7913814944402E-02  0.0000000000000E+00  0.3302190736216E-02
 0.2514724986374E-03 -0.6351829254378E-02  0.0000000000000E+00  0.2586317559797E-02
 0.7467221864467E-03 -0.6588046819927E-02  0.0000000000000E+00  0.2326170231677E-02
 0.1138354456204E-02 -0.6699666573782E-02  0.0000000000000E+00  0.1777416019469E-02
 0.1357709300222E-02 -0.6685689006946E-02  0.0000000000000E+00  0.1222440984639E-02
 0.1461378449692E-02 -0.6619107934735E-02  0.0000000000000E+00  0.7965150329925E-03
 0.1510118492078E-02 -0.6550492647704E-02  0.0000000000000E+00  0.4938861912417E-03
 0.1535149120525E-02 -0.6497009625129E-02  0.0000000000000E+00  0.2764634138759E-03
 0.1549733071882E-02 -0.6461540022443E-02  0.0000000000000E+00  0.1149434186224E-03
 0.1559789361436E-02 -0.6443058958572E-02  0.0000000000000E+00 -0.9747528463264E-05
 0.1568142135177E-02 -0.6439694845254E-02  0.0000000000000E+00 -0.1102490209713E-03
 0.1576182101928E-02 -0.6449662633375E-02  0.0000000000000E+00 -0.1951818289531E-03
 0.1584626871407E-02 -0.6471553258658E-02  0.0000000000000E+00 -0.2706588931500E-03
 0.1593873290542E-02 -0.6504379712226E-02  0.0000000000000E+00 -0.3412181127908E-03
 0.1604165712771E-02 -0.6547549143262E-02  0.0000000000000E+00 -0.4103935992354E-03
 0.1615677399826E-02 -0.6600815460134E-02  0.0000000000000E+00 -0.4810797595591E-03
 0.1628546229195E-02 -0.6664230156404E-02  0.0000000000000E+00 -0.5557756480236E-03
 0.1642882687085E-02 -0.6738095208367E-02  0.0000000000000E+00 -0.6367645740994E-03
 0.1658754204309E-02 -0.6822911464808E-02  0.0000000000000E+00 -0.7262627436276E-03
 0.1676140489382E-02 -0.6919314954536E-02  0.0000000000000E+00 -0.8265666498038E-03
 0.1694837857509E-02 -0.7027967996031E-02  0.0000000000000E+00 -0.9402023893336E-03
 0.1714284639056E-02 -0.7149348633825E-02  0.0000000000000E+00 -0.1070003884143E-02
 0.1733354871100E-02 -0.7283411816748E-02  0.0000000000000E+00 -0.1218883771775E-02
 0.1750384881852E-02 -0.7429255321657E-02  0.0000000000000E+00 -0.1389053243107E-02
 0.1763757636009E-02 -0.7585102978898E-02  0.0000000000000E+00 -0.1581114110924E-02
 0.1772792404618E-02 -0.7748732724942E-02  0.0000000000000E+00 -0.1793972705161E-02
 0.1777940364376E-02 -0.7917733059262E-02  0.0000000000000E+00 -0.2025912657332E-02
 0.1779957110496E-02 -0.8089144957270E-02  0.0000000000000E+00 -0.2275584218742E-02
 0.1778909114447E-02 -0.8258940268255E-02  0.0000000000000E+00 -0.2541690685715E-02
 0.1773731510650E-02 -0.8421682120853E-02  0.0000000000000E+00 -0.2821859175255E-02
 0.1762410225172E-02 -0.8570339651856E-02  0.0000000000000E+00 -0.3111456546845E-02
 0.1742525503309E-02 -0.8696108419177E-02  0.0000000000000E+00 -0.3402739235951E-02
 0.1711675115582E-02 -0.8787922404110E-02  0.0000000000000E+00 -0.3684407238959E-02
 0.1667183549367E-02 -0.8831041210358E-02  0.0000000000000E+00 -0.3940489062324E-02
 0.1605301674051E-02 -0.8803594967115E-02  0.0000000000000E+00 -0.4144946376460E-02
 0.1522759287144E-02 -0.8671808080875E-02  0.0000000000000E+00 -0.4246679899789E-02
 0.1425970196292E-02 -0.8386853150003E-02  0.0000000000000E+00 -0.4138626117346E-02
 0.1366666985897E-02 -0.7891334504860E-02  0.0000000000000E+00 -0.3587272874212E-02
 0.1579482707375E-02 -0.7197165389181E-02  0.0000000000000E+00 -0.2131158947405E-02
 0.2785455674572E-02 -0.6640293141116E-02  0.0000000000000E+00  0.6664589946321E-03
 0.6156334305569E-02 -0.6975714160004E-02  0.0000000000000E+00  0.3765202719525E-02
 0.1158902434165E-01 -0.8185056440768E-02  0.0000000000000E+00  0.3245594023981E-02
 0.2926724361553E-03 -0.6477934101943E-02  0.0000000000000E+00  0.2748142631866E-02
 0.8512346224053E-03 -0.6720493672432E-02  0.0000000000000E+00  0.2389930323640E-02
 0.1251259296212E-02 -0.6788562789390E-02  0.0000000000000E+00  0.1713249179100E-02
 0.1437810641223E-02 -0.6716855032745E-02  0.0000000000000E+00  0.1109994755336E-02
 0.1509608280110E-02 -0.6612578591092E-02  0.0000000000000E+00  0.6950324129525E-03
 0.1538452709931E-02 -0.6525638479062E-02  0.0000000000000E+00  0.4185536522054E-03
 0.1551877383210E-02 -0.6464234791306E-02  0.0000000000000E+00  0.2261470604186E-03
 0.1559627122862E-02 -0.6426228611155E-02  0.0000000000000E+00  0.8604171121344E-04
 0.1565769409928E-02 -0.6408185325394E-02  0.0000000000000E+00 -0.2070024912409E-04
 0.1572064578586E-02 -0.6406949889095E-02  0.0000000000000E+00 -0.1060560680203E-03
 0.1579283921909E-02 -0.6420070304899E-02  0.0000000000000E+00 -0.1778991752475E-03
 0.1587786069248E-02 -0.6445799155840E-02  0.0000000000000E+00 -0.2416929849846E-03
 0.1597757606998E-02 -0.6482994503596E-02  0.0000000000000E+00 -0.3014350323649E-03
 0.1609323946921E-02 -0.6531019487395E-02  0.0000000000000E+00 -0.3602133109211E-03
 0.1622598733533E-02 -0.6589657282412E-02  0.0000000000000E+00 -0.4205505956847E-03
 0.1637702889130E-02 -0.6659044659295E-02  0.0000000000000E+00 -0.4846314533352E-03
 0.1654765706679E-02 -0.6739620345319E-02  0.0000000000000E+00 -0.5544698817370E-03
 0.1673909578044E-02 -0.6832079180328E-02  0.0000000000000E+00 -0.6320534435428E-03
 0.1695212959859E-02 -0.6937326240613E-02  0.0000000000000E+00 -0.7194989062512E-03
 0.1718627224678E-02 -0.7056400929897E-02  0.0000000000000E+00 -0.8192448704697E-03
 0.1743795476217E-02 -0.7190301340385E-02  0.0000000000000E+00 -0.9342553392986E-03
 0.1769764210732E-02 -0.7339618471477E-02  0.0000000000000E+00 -0.1067979770221E-02
 0.1794873099253E-02 -0.7504059673309E-02  0.0000000000000E+00 -0.1223594358401E-02
 0.1817355669985E-02 -0.7682285190039E-02  0.0000000000000E+00 -0.1402790109252E-02
 0.1836443707897E-02 -0.7872313638023E-02  0.0000000000000E+00 -0.1605462940855E-02
 0.1852653471408E-02 -0.8071824905005E-02  0.0000000000000E+00 -0.1830938216199E-02
 0.1866808223344E-02 -0.8277880833497E-02  0.0000000000000E+00 -0.2079090203833E-02
 0.1878908124134E-02 -0.8486554352797E-02  0.0000000000000E+00 -0.2349973717519E-02
 0.1887680022325E-02 -0.8692740825889E-02  0.0000000000000E+00 -0.2642756334794E-02
 0.1890793169877E-02 -0.8890021125832E-02  0.0000000000000E+00 -0.2954743667015E-02
 0.1885461527643E-02 -0.9070492833771E-02  0.0000000000000E+00 -0.3280774792357E-02
 0.1868944394524E-02 -0.9224400835223E-02  0.0000000000000E+00 -0.3613328206504E-02
 0.1838005072031E-02 -0.9338845761566E-02  0.0000000000000E+00 -0.3942863286602E-02
 0.1786823760783E-02 -0.9393875937074E-02  0.0000000000000E+00 -0.4254879387488E-02
 0.1706104987683E-02 -0.9355973380441E-02  0.0000000000000E+00 -0.4517295261550E-02
 0.1587342793174E-02 -0.9171022368033E-02  0.0000000000000E+00 -0.4654414097007E-02
 0.1438252985176E-02 -0.8751752343244E-02  0.0000000000000E+00 -0.4479480180105E-02
 0.1395811617410E-02 -0.8005629716426E-02  0.0000000000000E+00 -0.3487921727207E-02
 0.2183443999964E-02 -0.7150254068551E-02  0.0000000000000E+00 -0.7935803198230E-03
 0.5541173087396E-02 -0.7196327055979E-02  0.0000000000000E+00  0.3135876017432E-02
 0.1203334612979E-01 -0.8553288607196E-02  0.0000000000000E+00  0.3147237704095E-02
 0.3512270104087E-03 -0.6649943709511E-02  0.0000000000000E+00  0.2923808134851E-02
 0.9870486192745E-03 -0.6885493674059E-02  0.0000000000000E+00  0.2411104328357E-02
 0.1378006665951E-02 -0.6876586190619E-02  0.0000000000000E+00  0.1579302926459E-02
 0.1513178096395E-02 -0.6729764402317E-02  0.0000000000000E+00  0.9531203925438E-03
 0.1548938493323E-02 -0.6588563940132E-02  0.0000000000000E+00  0.5748681590778E-03
 0.1559164167201E-02 -0.6487380712210E-02  0.0000000000000E+00  0.3362774962036E-03
 0.1562471912741E-02 -0.6421113807131E-02  0.0000000000000E+00  0.1742183985272E-03
 0.1564583236295E-02 -0.6382818649818E-02  0.0000000000000E+00  0.5831655850511E-04
 0.1567722133633E-02 -0.6366799348579E-02  0.0000000000000E+00 -0.2904970414519E-04
 0.1572601672130E-02 -0.6368777943973E-02  0.0000000000000E+00 -0.9848853074836E-04
 0.1579434941221E-02 -0.6385773644484E-02  0.0000000000000E+00 -0.1567865446127E-03
 0.1588267140211E-02 -0.6415790440769E-02  0.0000000000000E+00 -0.2085807295782E-03
 0.1599108288997E-02 -0.6457593968517E-02  0.0000000000000E+00 -0.2572249408400E-03
 0.1611989063708E-02 -0.6510544793749E-02  0.0000000000000E+00 -0.3052975775120E-03
 0.1626980180260E-02 -0.6574482760053E-02  0.0000000000000E+00 -0.3549038128947E-03
 0.1644197018134E-02 -0.6649647212831E-02  0.0000000000000E+00 -0.4078741185581E-03
 0.1663795277572E-02 -0.6736623444249E-02  0.0000000000000E+00 -0.4659110827616E-03
 0.1685957717292E-02 -0.6836304530282E-02  0.0000000000000E+00 -0.5307201708628E-03
 0.1710867484726E-02 -0.6949865675668E-02  0.0000000000000E+00 -0.6041603035217E-03
 0.1738647909677E-02 -0.7078730326602E-02  0.0000000000000E+00 -0.6884555178193E-03
 0.1769203762757E-02 -0.7224464930001E-02  0.0000000000000E+00 -0.7865122641569E-03
 0.1801871462236E-02 -0.7388444429242E-02  0.0000000000000E+00 -0.9021586851162E-03
 0.1835117170252E-02 -0.7571227747442E-02  0.0000000000000E+00 -0.1039576420360E-02
 0.1867085215958E-02 -0.7772136047156E-02  0.0000000000000E+00 -0.1201780414186E-02
 0.1896939286821E-02 -0.7989513386926E-02  0.0000000000000E+00 -0.1389934446377E-02
 0.1925264150126E-02 -0.8221042142349E-02  0.0000000000000E+00 -0.1604620399592E-02
 0.1952928070959E-02 -0.8463637313133E-02  0.0000000000000E+00 -0.1846953653008E-02
 0.1979859740757E-02 -0.8713392431615E-02  0.0000000000000E+00 -0.2118094577668E-02
 0.2004656829916E-02 -0.8965648381456E-02  0.0000000000000E+00 -0.2418371118480E-02
 0.2024838781920E-02 -0.9214895378076E-02  0.0000000000000E+00 -0.2746689233543E-02
 0.2037486412040E-02 -0.9454535579549E-02  0.0000000000000E+00 -0.3100145302568E-02
 0.2039931728724E-02 -0.9676681758556E-02  0.0000000000000E+00 -0.3474427445626E-02
 0.2029268395948E-02 -0.9871317483402E-02  0.0000000000000E+00 -0.3865462734036E-02
 0.1999426143431E-02 -0.1002276895792E-01  0.0000000000000E+00 -0.4269468951944E-02
 0.1937831044236E-02 -0.1010240622992E-01  0.0000000000000E+00 -0.4674591726175E-02
 0.1827242240719E-02 -0.1005976373298E-01  0.0000000000000E+00 -0.5039822010885E-02
 0.1644470683632E-02 -0.9801672161680E-02  0.0000000000000E+00 -0.5258189428546E-02
 0.1393290261046E-02 -0.9138069779202E-02  0.0000000000000E+00 -0.4927324764866E-02
 0.1622548717991E-02 -0.8019166758400E-02  0.0000000000000E+00 -0.2760336755017E-02
 0.4697156402502E-02 -0.7597599945362E-02  0.0000000000000E+00  0.1971742609064E-02
 0.1256986621122E-01 -0.9084415555342E-02  0.0000000000000E+00  0.2950261883291E-02
 0.4383762482369E-03 -0.6894817517239E-02  0.0000000000000E+00  0.3111044734034E-02
 0.1165430249802E-02 -0.7088625730090E-02  0.0000000000000E+00  0.2346695601958E-02
 0.1512418010249E-02 -0.6947536497023E-02  0.0000000000000E+00  0.1346659509932E-02
 0.1574931289471E-02 -0.6712876589849E-02  0.0000000000000E+00  0.7533280328841E-03
 0.1575846482381E-02 -0.6543497230518E-02  0.0000000000000E+00  0.4421604319133E-03
 0.1570942972342E-02 -0.6434220545511E-02  0.0000000000000E+00  0.2505845378553E-03
 0.1566237165004E-02 -0.6366937147288E-02  0.0000000000000E+00  0.1232251170078E-03
 0.1564284410840E-02 -0.6331032995574E-02  0.0000000000000E+00  0.3352062854980E-04
 0.1565494763770E-02 -0.6318785507968E-02  0.0000000000000E+00 -0.3362748738056E-04
 0.1569674862904E-02 -0.6325139868349E-02  0.0000000000000E+00 -0.8676362656405E-04
 0.1576589518844E-02 -0.6346756995532E-02  0.0000000000000E+00 -0.1313476454418E-03
 0.1586032141409E-02 -0.6381509473135E-02  0.0000000000000E+00 -0.1710381037042E-03
 0.1597881479540E-02 -0.6428142785132E-02  0.0000000000000E+00 -0.2084712422960E-03
 0.1612101637431E-02 -0.6486061334653E-02  0.0000000000000E+00 -0.2456677789471E-03
 0.1628739089712E-02 -0.6555190623155E-02  0.0000000000000E+00 -0.2842810119587E-03
 0.1647915057811E-02 -0.6635889474277E-02  0.0000000000000E+00 -0.3257560993211E-03
 0.1669817655663E-02 -0.6728897259444E-02  0.0000000000000E+00 -0.3714491794742E-03
 0.1694691699667E-02 -0.6835304589990E-02  0.0000000000000E+00 -0.4227364368566E-03
 0.1722823286944E-02 -0.6956548248181E-02  0.0000000000000E+00 -0.4811469600219E-03
 0.1754507285279E-02 -0.7094420743441E-02  0.0000000000000E+00 -0.5485623090343E-03
 0.1789944760556E-02 -0.7251064955507E-02  0.0000000000000E+00 -0.6275897706901E-03
 0.1828891873890E-02 -0.7428773722790E-02  0.0000000000000E+00 -0.7221323737230E-03
 0.1870129497973E-02 -0.7629286979828E-02  0.0000000000000E+00 -0.8373038755762E-03
 0.1911840376142E-02 -0.7852964139553E-02  0.0000000000000E+00 -0.9777530181262E-03
 0.1953157587599E-02 -0.8098620325077E-02  0.0000000000000E+00 -0.1146418835626E-02
 0.1994687657142E-02 -0.8363744224654E-02  0.0000000000000E+00 -0.1345557886477E-02
 0.2037229339480E-02 -0.8644765098546E-02  0.0000000000000E+00 -0.1577548152311E-02
 0.2080567097301E-02 -0.8937610388206E-02  0.0000000000000E+00 -0.1844227666610E-02
 0.2123239332939E-02 -0.9238165087941E-02  0.0000000000000E+00 -0.2146475460325E-02
 0.2162820116119E-02 -0.9542174824092E-02  0.0000000000000E+00 -0.2484293670814E-02
 0.2196476421495E-02 -0.9844777765148E-02  0.0000000000000E+00 -0.2856706988426E-02
 0.2221922057790E-02 -0.1014033823259E-01  0.0000000000000E+00 -0.3261897064674E-02
 0.2237249395403E-02 -0.1042242229918E-01  0.0000000000000E+00 -0.3699773145716E-02
 0.2237884812393E-02 -0.1068140516526E-01  0.0000000000000E+00 -0.4174344014790E-02
 0.2211623315553E-02 -0.1089887838734E-01  0.0000000000000E+00 -0.4692120589157E-02
 0.2137094630923E-02 -0.1103633475858E-01  0.0000000000000E+00 -0.5246343438530E-02
 0.1986856663554E-02 -0.1102230232282E-01  0.0000000000000E+00 -0.5803538256830E-02
 0.1656991097282E-02 -0.1064891207084E-01  0.0000000000000E+00 -0.6231147662056E-02
 0.1262387299162E-02 -0.9474469637580E-02  0.0000000000000E+00 -0.5226733037523E-02
 0.3576733428576E-02 -0.8394585837797E-02  0.0000000000000E+00 -0.1144125324228E-03
 0.1323446399597E-01 -0.9932008200702E-02  0.0000000000000E+00  0.2481629886130E-02
 0.5747455107668E-03 -0.7264855160465E-02  0.0000000000000E+00  0.3294707376751E-02
 0.1399049735927E-02 -0.7324600317679E-02  0.0000000000000E+00  0.2108657594664E-02
 0.1636364984803E-02 -0.6967020618025E-02  0.0000000000000E+00  0.9880811702016E-03
 0.1611524284013E-02 -0.6655389585498E-02  0.0000000000000E+00  0.5273915435635E-03
 0.1588320829922E-02 -0.6475599352195E-02  0.0000000000000E+00  0.3049708850510E-03
 0.1572737836136E-02 -0.6364839379252E-02  0.0000000000000E+00  0.1656026632742E-03
 0.1562691742219E-02 -0.6301417997916E-02  0.0000000000000E+00  0.7632553671324E-04
 0.1558595014425E-02 -0.6270781953804E-02  0.0000000000000E+00  0.1350782965655E-04
 0.1559029884665E-02 -0.6264170386035E-02  0.0000000000000E+00 -0.3317062923516E-04
 0.1563281752852E-02 -0.6276090471584E-02  0.0000000000000E+00 -0.7007884224253E-04
 0.1570754021611E-02 -0.6303073600648E-02  0.0000000000000E+00 -0.1010833156709E-03
 0.1581083920691E-02 -0.6342991083048E-02  0.0000000000000E+00 -0.1287936982693E-03
 0.1594065963092E-02 -0.6394648096759E-02  0.0000000000000E+00 -0.1550784204094E-03
 0.1609630269610E-02 -0.6457541849952E-02  0.0000000000000E+00 -0.1813736242600E-03
 0.1627818309616E-02 -0.6531712977947E-02  0.0000000000000E+00 -0.2088590959392E-03
 0.1648768235424E-02 -0.6617655747499E-02  0.0000000000000E+00 -0.2385733093283E-03
 0.1672704902586E-02 -0.6716268768075E-02  0.0000000000000E+00 -0.2714994424407E-03
 0.1699933223069E-02 -0.6828834870173E-02  0.0000000000000E+00 -0.3086463073598E-03
 0.1730833693100E-02 -0.6957034911982E-02  0.0000000000000E+00 -0.3511516340952E-03
 0.1765854067198E-02 -0.7102995629589E-02  0.0000000000000E+00 -0.4004446866628E-03
 0.1805482327764E-02 -0.7269384304362E-02  0.0000000000000E+00 -0.4585737473971E-03
 0.1850004793653E-02 -0.7459469421084E-02  0.0000000000000E+00 -0.5290110674961E-03
 0.1898791713441E-02 -0.7676591259934E-02  0.0000000000000E+00 -0.6174466754986E-03
 0.1950336187649E-02 -0.7922819482268E-02  0.0000000000000E+00 -0.7305164701679E-03
 0.2003836331451E-02 -0.8197730410426E-02  0.0000000000000E+00 -0.8738785485856E-03
 0.2059776080145E-02 -0.8498221231678E-02  0.0000000000000E+00 -0.1052267821688E-02
 0.2118607707963E-02 -0.8819614333102E-02  0.0000000000000E+00 -0.1269323221447E-02
 0.2179801986741E-02 -0.9157349466796E-02  0.0000000000000E+00 -0.1526840292326E-02
 0.2241903431576E-02 -0.9507946958750E-02  0.0000000000000E+00 -0.1825331837036E-02
 0.2302805080531E-02 -0.9868828048554E-02  0.0000000000000E+00 -0.2165167160449E-02
 0.2360051672880E-02 -0.1023741303335E-01  0.0000000000000E+00 -0.2546991343259E-02
 0.2411804420960E-02 -0.1061056291452E-01  0.0000000000000E+00 -0.2971116156175E-02
 0.2457663311264E-02 -0.1098539126876E-01  0.0000000000000E+00 -0.3439186858080E-02
 0.2495164073082E-02 -0.1135939563390E-01  0.0000000000000E+00 -0.3959584145855E-02
 0.2517478235407E-02 -0.1172799838859E-01  0.0000000000000E+00 -0.4547010784745E-02
 0.2503198390880E-02 -0.1207778984253E-01  0.0000000000000E+00 -0.5233063264429E-02
 0.2433119974759E-02 -0.1236510567811E-01  0.0000000000000E+00 -0.6017851000336E-02
 0.2232520632808E-02 -0.1250589806184E-01  0.0000000000000E+00 -0.7037876882211E-02
 0.1398978666349E-02 -0.1180676546087E-01  0.0000000000000E+00 -0.7857059232826E-02
 0.2212744217848E-02 -0.1008653213088E-01  0.0000000000000E+00 -0.3684521706766E-02
 0.1412154849016E-01 -0.1151078008447E-01  0.0000000000000E+00  0.1214319607991E-02
 0.7983097634243E-03 -0.7877462354477E-02  0.0000000000000E+00  0.3405102651933E-02
 0.1691909924118E-02 -0.7532502826828E-02  0.0000000000000E+00  0.1511371629668E-02
 0.1706973375171E-02 -0.6876679235145E-02  0.0000000000000E+00  0.5211132087829E-03
 0.1615729736300E-02 -0.6560034484321E-02  0.0000000000000E+00  0.3116368180117E-03
 0.1586699534952E-02 -0.6381859724467E-02  0.0000000000000E+00  0.1666459420304E-03
 0.1563213325685E-02 -0.6279134684895E-02  0.0000000000000E+00  0.8830129167396E-04
 0.1551962925815E-02 -0.6224574292707E-02  0.0000000000000E+00  0.3634934158352E-04
 0.1547469768847E-02 -0.6202227600347E-02  0.0000000000000E+00  0.3698175907729E-06
 0.1548413314929E-02 -0.6203128328557E-02  0.0000000000000E+00 -0.2642506219112E-04
 0.1553491542789E-02 -0.6221785910569E-02  0.0000000000000E+00 -0.4762570841373E-04
 0.1561992809864E-02 -0.6254848768132E-02  0.0000000000000E+00 -0.6551173041550E-04
 0.1573467351887E-02 -0.6300324796740E-02  0.0000000000000E+00 -0.8159818198700E-04
 0.1587684878404E-02 -0.6357161234343E-02  0.0000000000000E+00 -0.9697837895024E-04
 0.1604572941923E-02 -0.6424997205280E-02  0.0000000000000E+00 -0.1124964465841E-03
 0.1624187720713E-02 -0.6504017138680E-02  0.0000000000000E+00 -0.1288514647555E-03
 0.1646694440898E-02 -0.6594865241227E-02  0.0000000000000E+00 -0.1466643023734E-03
 0.1672357416553E-02 -0.6698602222726E-02  0.0000000000000E+00 -0.1665283467282E-03
 0.1701536718713E-02 -0.6816693974465E-02  0.0000000000000E+00 -0.1890580739666E-03
 0.1734692217784E-02 -0.6951040339712E-02  0.0000000000000E+00 -0.2149539380242E-03
 0.1772394788170E-02 -0.7104052468196E-02  0.0000000000000E+00 -0.2451083228689E-03
 0.1815351077268E-02 -0.7278816567341E-02  0.0000000000000E+00 -0.2808172219040E-03
 0.1864389390754E-02 -0.7479442751417E-02  0.0000000000000E+00 -0.3244358599271E-03
 0.1919820659132E-02 -0.7711278139706E-02  0.0000000000000E+00 -0.3812339202405E-03
 0.1981029805998E-02 -0.7979370127522E-02  0.0000000000000E+00 -0.4600392285536E-03
 0.2047534421351E-02 -0.8284697912362E-02  0.0000000000000E+00 -0.5710677658097E-03
 0.2119341469306E-02 -0.8622728844560E-02  0.0000000000000E+00 -0.7230653053278E-03
 0.2195992690334E-02 -0.8986602406867E-02  0.0000000000000E+00 -0.9207684183157E-03
 0.2276361488007E-02 -0.9370808580565E-02  0.0000000000000E+00 -0.1164729714573E-02
 0.2359067682780E-02 -0.9772612397546E-02  0.0000000000000E+00 -0.1453804907170E-02
 0.2442678836338E-02 -0.1019160812570E-01  0.0000000000000E+00 -0.1787675766633E-02
 0.2525550539734E-02 -0.1062827602036E-01  0.0000000000000E+00 -0.2168260450925E-02
 0.2606393610300E-02 -0.1108235239911E-01  0.0000000000000E+00 -0.2598381918907E-02
 0.2685561331797E-02 -0.1155331374700E-01  0.0000000000000E+00 -0.3080063077542E-02
 0.2764351042762E-02 -0.1204515407643E-01  0.0000000000000E+00 -0.3618526557007E-02
 0.2838860513914E-02 -0.1256997503622E-01  0.0000000000000E+00 -0.4231082841568E-02
 0.2912039790167E-02 -0.1314766209103E-01  0.0000000000000E+00 -0.4950377455719E-02
 0.2931010830430E-02 -0.1378698109869E-01  0.0000000000000E+00 -0.5880249318555E-02
 0.3015391147046E-02 -0.1450840040003E-01  0.0000000000000E+00 -0.6988101105887E-02
 0.2447763361129E-02 -0.1516362943659E-01  0.0000000000000E+00 -0.9550416108689E-02
 0.9532971510289E-03 -0.1372715885143E-01  0.0000000000000E+00 -0.9053537330951E-02
 0.1555746084577E-01 -0.1523935834967E-01  0.0000000000000E+00 -0.2581738143919E-02
 0.1165922254664E-02 -0.9068392664332E-02  0.0000000000000E+00  0.3091655904419E-02
 0.1988096412604E-02 -0.7350067302998E-02  0.0000000000000E+00  0.1820022312988E-03
 0.1645249769899E-02 -0.6703776169224E-02  0.0000000000000E+00  0.1861115406335E-03
 0.1609879412083E-02 -0.6421950237044E-02  0.0000000000000E+00  0.8472280481061E-04
 0.1563684109992E-02 -0.6262466787863E-02  0.0000000000000E+00  0.4685514359809E-04
 0.1544263048835E-02 -0.6177690669369E-02  0.0000000000000E+00  0.2247853091506E-04
 0.1533842849396E-02 -0.6136859212337E-02  0.0000000000000E+00  0.6952329866687E-05
 0.1531235465371E-02 -0.6125788614214E-02  0.0000000000000E+00 -0.3972427244134E-05
 0.1533810786029E-02 -0.6135988017064E-02  0.0000000000000E+00 -0.1212814569987E-04
 0.1540465559815E-02 -0.6162486469481E-02  0.0000000000000E+00 -0.1863626865312E-04
 0.1550425181453E-02 -0.6202281150933E-02  0.0000000000000E+00 -0.2418276709586E-04
 0.1563271406980E-02 -0.6253655834380E-02  0.0000000000000E+00 -0.2923588951047E-04
 0.1578796277480E-02 -0.6315778652976E-02  0.0000000000000E+00 -0.3413656344098E-04
 0.1596958008418E-02 -0.6388477478782E-02  0.0000000000000E+00 -0.3915253613709E-04
 0.1617845328066E-02 -0.6472106999323E-02  0.0000000000000E+00 -0.4450903429519E-04
 0.1641659658648E-02 -0.6567473772011E-02  0.0000000000000E+00 -0.5040906640388E-04
 0.1668705927107E-02 -0.6675801577082E-02  0.0000000000000E+00 -0.5704984713045E-04
 0.1699392234951E-02 -0.6798727008066E-02  0.0000000000000E+00 -0.6463657539227E-04
 0.1734238608927E-02 -0.6938339307887E-02  0.0000000000000E+00 -0.7340634761005E-04
 0.1773899692041E-02 -0.7097272518708E-02  0.0000000000000E+00 -0.8366114927855E-04
 0.1819212590965E-02 -0.7278904745203E-02  0.0000000000000E+00 -0.9584698269668E-04
 0.1871318427743E-02 -0.7487834233171E-02  0.0000000000000E+00 -0.1107311255039E-03
 0.1931722244249E-02 -0.7731219270688E-02  0.0000000000000E+00 -0.1308624125757E-03
 0.2001968831565E-02 -0.8019642588598E-02  0.0000000000000E+00 -0.1664595057065E-03
 0.2082577910833E-02 -0.8357092311941E-02  0.0000000000000E+00 -0.2362579490852E-03
 0.2172199357071E-02 -0.8735544358404E-02  0.0000000000000E+00 -0.3558995278763E-03
 0.2268418558652E-02 -0.9144305746514E-02  0.0000000000000E+00 -0.5303570202109E-03
 0.2369135952286E-02 -0.9576337371047E-02  0.0000000000000E+00 -0.7570711845667E-03
 0.2473166408967E-02 -0.1002981858223E-01  0.0000000000000E+00 -0.1031454760488E-02
 0.2580147951060E-02 -0.1050712834984E-01  0.0000000000000E+00 -0.1351196888663E-02
 0.2690017712424E-02 -0.1101271780242E-01  0.0000000000000E+00 -0.1718545210384E-02
 0.2802344843691E-02 -0.1155056852476E-01  0.0000000000000E+00 -0.2140517355644E-02
 0.2916934683392E-02 -0.1212009111144E-01  0.0000000000000E+00 -0.2620983076958E-02
 0.3035589907485E-02 -0.1272667851997E-01  0.0000000000000E+00 -0.3152777299933E-02
 0.3166910961652E-02 -0.1340352041532E-01  0.0000000000000E+00 -0.3737364006115E-02
 0.3310600649727E-02 -0.1420399856135E-01  0.0000000000000E+00 -0.4407789907599E-02
 0.3521699158993E-02 -0.1521693367887E-01  0.0000000000000E+00 -0.5239803793829E-02
 0.3601638215232E-02 -0.1652573100689E-01  0.0000000000000E+00 -0.6416364541561E-02
 0.4659443542057E-02 -0.1869868056663E-01  0.0000000000000E+00 -0.8026409939536E-02
 0.6200565108819E-03 -0.2098120201409E-01  0.0000000000000E+00 -0.1420442383593E-01
 0.2043919078934E-01 -0.2661140783783E-01  0.0000000000000E+00 -0.1386042379391E-01
 0.6954139523241E-01 -0.1381124402451E+00  0.0000000000000E+00 -0.4801251596753E+00
 0.1105438401373E+00 -0.1767242322023E+00  0.0000000000000E+00 -0.4371230231949E+00
 0.1506882824853E+00 -0.2143470405918E+00  0.0000000000000E+00 -0.3974474932555E+00
 0.1884715525736E+00 -0.2496403893246E+00  0.0000000000000E+00 -0.3606653376672E+00
 0.2231869182346E+00 -0.2819364867084E+00  0.0000000000000E+00 -0.3268171273755E+00
 0.2544467876356E+00 -0.3108791530026E+00  0.0000000000000E+00 -0.2961041989655E+00
 0.2820877875676E+00 -0.3363193156323E+00  0.0000000000000E+00 -0.2688883710755E+00
 0.3061512166048E+00 -0.3583294575521E+00  0.0000000000000E+00 -0.2455917206667E+00
 0.3268294408393E+00 -0.3771222443846E+00  0.0000000000000E+00 -0.2264985975142E+00
 0.3443814885276E+00 -0.3929686994181E+00  0.0000000000000E+00 -0.2117082987440E+00
 0.3590856682494E+00 -0.4061571403215E+00  0.0000000000000E+00 -0.2011927060140E+00
 0.3712193326380E+00 -0.4169713448565E+00  0.0000000000000E+00 -0.1948521724959E+00
 0.3810343769904E+00 -0.4256668737495E+00  0.0000000000000E+00 -0.1925273797810E+00
 0.3887349647699E+00 -0.4324476941347E+00  0.0000000000000E+00 -0.1940335241262E+00
 0.3944732748319E+00 -0.4374635858891E+00  0.0000000000000E+00 -0.1992049510380E+00
 0.3983562704215E+00 -0.4408150485774E+00  0.0000000000000E+00 -0.2078921522802E+00
 0.4003436536510E+00 -0.4425021002240E+00  0.0000000000000E+00 -0.2198265900776E+00
 0.4004216540593E+00 -0.4425536013016E+00  0.0000000000000E+00 -0.2352857913015E+00
 0.3990357073899E+00 -0.4413090487702E+00  0.0000000000000E+00 -0.2542775655733E+00
 0.3965290561981E+00 -0.4398655486394E+00  0.0000000000000E+00 -0.2726735358762E+00
 0.6680057331017E-01 -0.1362571295368E+00  0.0000000000000E+00 -0.4600637486054E+00
 0.1089973945135E+00 -0.1758772937656E+00  0.0000000000000E+00 -0.4174522931464E+00
 0.1499067003853E+00 -0.2142517169736E+00  0.0000000000000E+00 -0.3794278840935E+00
 0.1884423831973E+00 -0.2502862663066E+00  0.0000000000000E+00 -0.3447228242226E+00
 0.2239279908741E+00 -0.2833554092490E+00  0.0000000000000E+00 -0.3131324585044E+00
 0.2560253971208E+00 -0.3131452067909E+00  0.0000000000000E+00 -0.2847218208388E+00
 0.2845965161250E+00 -0.3395407956666E+00  0.0000000000000E+00 -0.2596958527975E+00
 0.3096650351585E+00 -0.3625854507466E+00  0.0000000000000E+00 -0.2383402879374E+00
 0.3313858284679E+00 -0.3824517604334E+00  0.0000000000000E+00 -0.2209011567347E+00
 0.3499899822972E+00 -0.3993834684298E+00  0.0000000000000E+00 -0.2074917108182E+00
 0.3657381249463E+00 -0.4136506289589E+00  0.0000000000000E+00 -0.1981178555225E+00
 0.3788978125948E+00 -0.4255279487191E+00  0.0000000000000E+00 -0.1927201929529E+00
 0.3897206514692E+00 -0.4352713504885E+00  0.0000000000000E+00 -0.1911843180169E+00
 0.3984225818070E+00 -0.4430988271631E+00  0.0000000000000E+00 -0.1933645581274E+00
 0.4051791522131E+00 -0.4491866462522E+00  0.0000000000000E+00 -0.1990993695518E+00
 0.4101014325734E+00 -0.4536563609173E+00  0.0000000000000E+00 -0.2081598678514E+00
 0.4131480839089E+00 -0.4564938306728E+00  0.0000000000000E+00 -0.2202736595904E+00
 0.4143222732100E+00 -0.4577172823768E+00  0.0000000000000E+00 -0.2354827372864E+00
 0.4133888371293E+00 -0.4572606134569E+00  0.0000000000000E+00 -0.2531862678936E+00
 0.4099082049201E+00 -0.4545558919975E+00  0.0000000000000E+00 -0.2737442538683E+00
 0.6414097762307E-01 -0.1344015505748E+00  0.0000000000000E+00 -0.4395580183665E+00
 0.1076421096381E+00 -0.1752578613238E+00  0.0000000000000E+00 -0.3977085258932E+00
 0.1494316731928E+00 -0.2144546679357E+00  0.0000000000000E+00 -0.3611306537695E+00
 0.1887189904503E+00 -0.2512262888031E+00  0.0000000000000E+00 -0.3283782298858E+00
 0.2249590850948E+00 -0.2850466119914E+00  0.0000000000000E+00 -0.2989204450277E+00
 0.2578538880868E+00 -0.3156429820528E+00  0.0000000000000E+00 -0.2726570238801E+00
 0.2872868562846E+00 -0.3429184044183E+00  0.0000000000000E+00 -0.2496730358190E+00
 0.3132799247930E+00 -0.3669125016716E+00  0.0000000000000E+00 -0.2301597652116E+00
 0.3359685987552E+00 -0.3877752333853E+00  0.0000000000000E+00 -0.2143100437021E+00
 0.3555618599829E+00 -0.4057273291297E+00  0.0000000000000E+00 -0.2022347023733E+00
 0.3723050157251E+00 -0.4210234960054E+00  0.0000000000000E+00 -0.1939613797539E+00
 0.3864566279239E+00 -0.4339296804665E+00  0.0000000000000E+00 -0.1894584342740E+00
 0.3982661344401E+00 -0.4447007885732E+00  0.0000000000000E+00 -0.1886405848557E+00
 0.4079539231514E+00 -0.4535613261633E+00  0.0000000000000E+00 -0.1913798831654E+00
 0.4156959599642E+00 -0.4606932611266E+00  0.0000000000000E+00 -0.1975024846414E+00
 0.4215897424032E+00 -0.4662067597771E+00  0.0000000000000E+00 -0.2067677802847E+00
 0.4255986404660E+00 -0.4700863124041E+00  0.0000000000000E+00 -0.2189089804700E+00
 0.4275939706036E+00 -0.4722543205690E+00  0.0000000000000E+00 -0.2338594209247E+00
 0.4272928561840E+00 -0.4724373933709E+00  0.0000000000000E+00 -0.2518093600306E+00
 0.4245844554978E+00 -0.4704765390356E+00  0.0000000000000E+00 -0.2739341611349E+00
 0.6159635121647E-01 -0.1326487839851E+00  0.0000000000000E+00 -0.4184322410777E+00
 0.1064388750658E+00 -0.1747739668914E+00  0.0000000000000E+00 -0.3776481166801E+00
 0.1491784449832E+00 -0.2148750956678E+00  0.0000000000000E+00 -0.3425725706478E+00
 0.1892434957921E+00 -0.2523985312264E+00  0.0000000000000E+00 -0.3116685707763E+00
 0.2262204814239E+00 -0.2869492523172E+00  0.0000000000000E+00 -0.2842238756176E+00
 0.2598728057047E+00 -0.3183081358752E+00  0.0000000000000E+00 -0.2599776611330E+00
 0.2901095414400E+00 -0.3464016992639E+00  0.0000000000000E+00 -0.2389108046391E+00
 0.3169590345068E+00 -0.3712732447805E+00  0.0000000000000E+00 -0.2211358895777E+00
 0.3405476959186E+00 -0.3930618686399E+00  0.0000000000000E+00 -0.2067973531504E+00
 0.3610697508442E+00 -0.4119723691960E+00  0.0000000000000E+00 -0.1959935326772E+00
 0.3787577949113E+00 -0.4282464190407E+00  0.0000000000000E+00 -0.1887622210802E+00
 0.3938614021862E+00 -0.4421413046936E+00  0.0000000000000E+00 -0.1850887360073E+00
 0.4066247207820E+00 -0.4539076670599E+00  0.0000000000000E+00 -0.1849051210459E+00
 0.4172639767253E+00 -0.4637680232438E+00  0.0000000000000E+00 -0.1880927141267E+00
 0.4259454961138E+00 -0.4718970159338E+00  0.0000000000000E+00 -0.1944807649273E+00
 0.4327525809788E+00 -0.4783908316250E+00  0.0000000000000E+00 -0.2038465557817E+00
 0.4376319197622E+00 -0.4832203421049E+00  0.0000000000000E+00 -0.2159788412892E+00
 0.4404493317365E+00 -0.4862710125433E+00  0.0000000000000E+00 -0.2309942044112E+00
 0.4410517994248E+00 -0.4873939733348E+00  0.0000000000000E+00 -0.2493955456900E+00
 0.4395130894206E+00 -0.4866409074191E+00  0.0000000000000E+00 -0.2723206666927E+00
 0.5918057020429E-01 -0.1310074785221E+00  0.0000000000000E+00 -0.3966942259758E+00
 0.1053789859213E+00 -0.1744181187463E+00  0.0000000000000E+00 -0.3572142708700E+00
 0.1491008348449E+00 -0.2154544891026E+00  0.0000000000000E+00 -0.3237174951421E+00
 0.1899579660656E+00 -0.2537431414628E+00  0.0000000000000E+00 -0.2946186536922E+00
 0.2276572815005E+00 -0.2890052178797E+00  0.0000000000000E+00 -0.2690866209869E+00
 0.2620297256722E+00 -0.3210860365629E+00  0.0000000000000E+00 -0.2467440574643E+00
 0.2930181654442E+00 -0.3499423442058E+00  0.0000000000000E+00 -0.2274810101709E+00
 0.3206634202019E+00 -0.3756277556344E+00  0.0000000000000E+00 -0.2113426479382E+00
 0.3450898358122E+00 -0.3982776223328E+00  0.0000000000000E+00 -0.1984294261330E+00
 0.3664824633498E+00 -0.4180865943445E+00  0.0000000000000E+00 -0.1888231170230E+00
 0.3850637874973E+00 -0.4352858260655E+00  0.0000000000000E+00 -0.1825632060628E+00
 0.4010741828658E+00 -0.4501236192980E+00  0.0000000000000E+00 -0.1796438653558E+00
 0.4147495404752E+00 -0.4628432421818E+00  0.0000000000000E+00 -0.1800082054167E+00
 0.4262971112398E+00 -0.4736595666209E+00  0.0000000000000E+00 -0.1835487115356E+00
 0.4358714886319E+00 -0.4827364723255E+00  0.0000000000000E+00 -0.1901120713336E+00
 0.4435433602370E+00 -0.4901580021748E+00  0.0000000000000E+00 -0.1995193354702E+00
 0.4492706681001E+00 -0.4958984901080E+00  0.0000000000000E+00 -0.2116688043820E+00
 0.4529693359533E+00 -0.4998865838385E+00  0.0000000000000E+00 -0.2267910116196E+00
 0.4546013786000E+00 -0.5020869675754E+00  0.0000000000000E+00 -0.2454552542218E+00
 0.4543479256158E+00 -0.5026732180498E+00  0.0000000000000E+00 -0.2686283334209E+00
 0.5689964675765E-01 -0.1294803357303E+00  0.0000000000000E+00 -0.3743511267308E+00
 0.1044505729451E+00 -0.1741732158986E+00  0.0000000000000E+00 -0.3363887135165E+00
 0.1491649259895E+00 -0.2161549000636E+00  0.0000000000000E+00 -0.3045528719344E+00
 0.1908150214134E+00 -0.2552079695700E+00  0.0000000000000E+00 -0.2772410921765E+00
 0.2292190936604E+00 -0.2911615852664E+00  0.0000000000000E+00 -0.2535466883531E+00
 0.2642765385852E+00 -0.3239263050146E+00  0.0000000000000E+00 -0.2330086377244E+00
 0.2959686763371E+00 -0.3534946621114E+00  0.0000000000000E+00 -0.2154453863889E+00
 0.3243539851737E+00 -0.3799357131854E+00  0.0000000000000E+00 -0.2008446463326E+00
 0.3495598542895E+00 -0.4033863890809E+00  0.0000000000000E+00 -0.1892676532951E+00
 0.3717663756713E+00 -0.4240354561112E+00  0.0000000000000E+00 -0.1807779236524E+00
 0.3911880513764E+00 -0.4421056701992E+00  0.0000000000000E+00 -0.1754115489176E+00
 0.4080560964465E+00 -0.4578362609443E+00  0.0000000000000E+00 -0.1731666797223E+00
 0.4225966331679E+00 -0.4714612676454E+00  0.0000000000000E+00 -0.1739955691602E+00
 0.4350066287548E+00 -0.4831859585343E+00  0.0000000000000E+00 -0.1778059780290E+00
 0.4454305386169E+00 -0.4931644703920E+00  0.0000000000000E+00 -0.1844733476775E+00
 0.4539374301389E+00 -0.5014774649876E+00  0.0000000000000E+00 -0.1938783871211E+00
 0.4605129999904E+00 -0.5081234238069E+00  0.0000000000000E+00 -0.2060088017536E+00
 0.4651305910935E+00 -0.5130852328180E+00  0.0000000000000E+00 -0.2211420111747E+00
 0.4678371147173E+00 -0.5164139198519E+00  0.0000000000000E+00 -0.2398171576922E+00
 0.4688761401269E+00 -0.5183516892445E+00  0.0000000000000E+00 -0.2628137641754E+00
 0.5475725001847E-01 -0.1280661180285E+00  0.0000000000000E+00 -0.3514183092279E+00
 0.1036415046998E+00 -0.1740229146733E+00  0.0000000000000E+00 -0.3151694942238E+00
 0.1493417383301E+00 -0.2169431455029E+00  0.0000000000000E+00 -0.2850782250705E+00
 0.1917743837363E+00 -0.2567493253333E+00  0.0000000000000E+00 -0.2595503330680E+00
 0.2308611243463E+00 -0.2933706948301E+00  0.0000000000000E+00 -0.2376360012981E+00
 0.2665687343508E+00 -0.3267823876509E+00  0.0000000000000E+00 -0.2188172453847E+00
 0.2989192270430E+00 -0.3570151850508E+00  0.0000000000000E+00 -0.2028583003482E+00
 0.3279922054361E+00 -0.3841573413038E+00  0.0000000000000E+00 -0.1897001000960E+00
 0.3539219350568E+00 -0.4083512839550E+00  0.0000000000000E+00 -0.1793697182942E+00
 0.3768867301819E+00 -0.4297831388930E+00  0.0000000000000E+00 -0.1719124768709E+00
 0.3970949167555E+00 -0.4486690379184E+00  0.0000000000000E+00 -0.1673584842615E+00
 0.4147690813239E+00 -0.4652395215662E+00  0.0000000000000E+00 -0.1657076347869E+00
 0.4301255820103E+00 -0.4797190897717E+00  0.0000000000000E+00 -0.1669213183104E+00
 0.4433520067908E+00 -0.4923039029839E+00  0.0000000000000E+00 -0.1709260525184E+00
 0.4545871535898E+00 -0.5031421551745E+00  0.0000000000000E+00 -0.1776317260327E+00
 0.4639068306564E+00 -0.5123200558150E+00  0.0000000000000E+00 -0.1869741478764E+00
 0.4713287519550E+00 -0.5198660710623E+00  0.0000000000000E+00 -0.1990014298576E+00
 0.4768769049850E+00 -0.5258127969048E+00  0.0000000000000E+00 -0.2139967411375E+00
 0.4806568334442E+00 -0.5302709354963E+00  0.0000000000000E+00 -0.2324336447111E+00
 0.4829479591031E+00 -0.5335209118963E+00  0.0000000000000E+00 -0.2549195746720E+00
 0.5275599258342E-01 -0.1267626058595E+00  0.0000000000000E+00 -0.3279157372637E+00
 0.1029398598805E+00 -0.1739510799347E+00  0.0000000000000E+00 -0.2935638794514E+00
 0.1496055856934E+00 -0.2177899026961E+00  0.0000000000000E+00 -0.2653006264388E+00
 0.1928007116888E+00 -0.2583287128251E+00  0.0000000000000E+00 -0.2415627912668E+00
 0.2325433033963E+00 -0.2955899416610E+00  0.0000000000000E+00 -0.2213837391368E+00
 0.2688653624287E+00 -0.3296113192740E+00  0.0000000000000E+00 -0.2042105195484E+00
 0.3018302280779E+00 -0.3604627631140E+00  0.0000000000000E+00 -0.1897686967497E+00
 0.3315406718640E+00 -0.3882539513654E+00  0.0000000000000E+00 -0.1779626388323E+00
 0.3581405172939E+00 -0.4131356143763E+00  0.0000000000000E+00 -0.1687907906076E+00
 0.3818087368077E+00 -0.4352937071944E+00  0.0000000000000E+00 -0.1622815888536E+00
 0.4027491129332E+00 -0.4549393354710E+00  0.0000000000000E+00 -0.1584583620147E+00
 0.4211766289012E+00 -0.4722952403409E+00  0.0000000000000E+00 -0.1573220409575E+00
 0.4372989400663E+00 -0.4875772188123E+00  0.0000000000000E+00 -0.1588435501646E+00
 0.4512964672624E+00 -0.5009742321674E+00  0.0000000000000E+00 -0.1629695744788E+00
 0.4633065317644E+00 -0.5126326786851E+00  0.0000000000000E+00 -0.1696432044979E+00
 0.4734160001367E+00 -0.5226490692853E+00  0.0000000000000E+00 -0.1788442579326E+00
 0.4816729032552E+00 -0.5310812501469E+00  0.0000000000000E+00 -0.1906568745989E+00
 0.4881417995051E+00 -0.5380021646994E+00  0.0000000000000E+00 -0.2053481333289E+00
 0.4929672855906E+00 -0.5435623064011E+00  0.0000000000000E+00 -0.2233161811042E+00
 0.4964447299220E+00 -0.5480596053715E+00  0.0000000000000E+00 -0.2450146833833E+00
 0.5089808461521E-01 -0.1255673408776E+00  0.0000000000000E+00 -0.3038677882920E+00
 0.1023343761623E+00 -0.1739424968988E+00  0.0000000000000E+00 -0.2715851605001E+00
 0.1499333644256E+00 -0.2186687009497E+00  0.0000000000000E+00 -0.2452320098002E+00
 0.1938624993834E+00 -0.2599117958027E+00  0.0000000000000E+00 -0.2232965078209E+00
 0.2342295231668E+00 -0.2977808795997E+00  0.0000000000000E+00 -0.2048174305948E+00
 0.2711287996500E+00 -0.3323735987028E+00  0.0000000000000E+00 -0.1892255372384E+00
 0.3046645089522E+00 -0.3637987087130E+00  0.0000000000000E+00 -0.1762214610001E+00
 0.3349635323355E+00 -0.3921884216940E+00  0.0000000000000E+00 -0.1656825463997E+00
 0.3621810014680E+00 -0.4177036226190E+00  0.0000000000000E+00 -0.1575842601425E+00
 0.3864983927087E+00 -0.4405319786048E+00  0.0000000000000E+00 -0.1519403317023E+00
 0.4081164671280E+00 -0.4608810597304E+00  0.0000000000000E+00 -0.1487676183655E+00
 0.4272439583415E+00 -0.4789670638955E+00  0.0000000000000E+00 -0.1480680587267E+00
 0.4440814639213E+00 -0.4949985785003E+00  0.0000000000000E+00 -0.1498220854586E+00
 0.4588046413440E+00 -0.5091596666949E+00  0.0000000000000E+00 -0.1539955564678E+00
 0.4715522976717E+00 -0.5215979666625E+00  0.0000000000000E+00 -0.1605600317700E+00
 0.4824238018199E+00 -0.5324221159186E+00  0.0000000000000E+00 -0.1695274893593E+00
 0.4914934652906E+00 -0.5417158728520E+00  0.0000000000000E+00 -0.1810005422140E+00
 0.4988567863797E+00 -0.5495832466695E+00  0.0000000000000E+00 -0.1952196643400E+00
 0.5046825116154E+00 -0.5561996604920E+00  0.0000000000000E+00 -0.2125082416100E+00
 0.5092664534399E+00 -0.5618648347649E+00  0.0000000000000E+00 -0.2331866955911E+00
 0.4918559830853E-01 -0.1244780064647E+00  0.0000000000000E+00 -0.2793029107591E+00
 0.1018146474561E+00 -0.1739830680931E+00  0.0000000000000E+00 -0.2492511123182E+00
 0.1503042275392E+00 -0.2195555969344E+00  0.0000000000000E+00 -0.2248877258532E+00
 0.1949314508725E+00 -0.2614676885130E+00  0.0000000000000E+00 -0.2047707618457E+00
 0.2358871251859E+00 -0.2999087096244E+00  0.0000000000000E+00 -0.1879636193673E+00
 0.2733245462685E+00 -0.3350329719040E+00  0.0000000000000E+00 -0.1738969268102E+00
 0.3073874248624E+00 -0.3669869303727E+00  0.0000000000000E+00 -0.1622585878619E+00
 0.3382268488502E+00 -0.3959255710966E+00  0.0000000000000E+00 -0.1529076904200E+00
 0.3660102702726E+00 -0.4220210397234E+00  0.0000000000000E+00 -0.1458022640555E+00
 0.3909230382610E+00 -0.4454641210886E+00  0.0000000000000E+00 -0.1409439654275E+00
 0.4131642831038E+00 -0.4664602258846E+00  0.0000000000000E+00 -0.1383440690671E+00
 0.4329379729556E+00 -0.4852204332977E+00  0.0000000000000E+00 -0.1380056405761E+00
 0.4504394196465E+00 -0.5019478224377E+00  0.0000000000000E+00 -0.1399178955928E+00
 0.4658415902030E+00 -0.5168236112980E+00  0.0000000000000E+00 -0.1440633426295E+00
 0.4792865533984E+00 -0.5299985607592E+00  0.0000000000000E+00 -0.1504360500092E+00
 0.4908859531948E+00 -0.5415934580243E+00  0.0000000000000E+00 -0.1590697803710E+00
 0.5007358143936E+00 -0.5517137426954E+00  0.0000000000000E+00 -0.1700736581057E+00
 0.5089542681980E+00 -0.5604864306086E+00  0.0000000000000E+00 -0.1836574111401E+00
 0.5157229455752E+00 -0.5681007191690E+00  0.0000000000000E+00 -0.2000757538524E+00
 0.5213263415703E+00 -0.5748465643957E+00  0.0000000000000E+00 -0.2195382674346E+00
 0.4762055980438E-01 -0.1234925667001E+00  0.0000000000000E+00 -0.2542533033419E+00
 0.1013712039745E+00 -0.1740599208695E+00  0.0000000000000E+00 -0.2265830236713E+00
 0.1506993873115E+00 -0.2204289645625E+00  0.0000000000000E+00 -0.2042856348467E+00
 0.1959821111669E+00 -0.2629685741183E+00  0.0000000000000E+00 -0.1860057493474E+00
 0.2374865716663E+00 -0.3019419356950E+00  0.0000000000000E+00 -0.1708481885424E+00
 0.2754210857640E+00 -0.3375563007716E+00  0.0000000000000E+00 -0.1582575873230E+00
 0.3099669418760E+00 -0.3699940322896E+00  0.0000000000000E+00 -0.1479199782208E+00
 0.3412988735939E+00 -0.3994324608633E+00  0.0000000000000E+00 -0.1396841685369E+00
 0.3695970783324E+00 -0.4260555051727E+00  0.0000000000000E+00 -0.1334960055478E+00
 0.3950517418088E+00 -0.4500580736792E+00  0.0000000000000E+00 -0.1293478489358E+00
 0.4178615770580E+00 -0.4716446346161E+00  0.0000000000000E+00 -0.1272464898150E+00
 0.4382272173314E+00 -0.4910225567482E+00  0.0000000000000E+00 -0.1271961338437E+00
 0.4563403162016E+00 -0.5083910165977E+00  0.0000000000000E+00 -0.1291935055887E+00
 0.4723727367701E+00 -0.5239299925723E+00  0.0000000000000E+00 -0.1332345216976E+00
 0.4864706873589E+00 -0.5377943366122E+00  0.0000000000000E+00 -0.1393298143318E+00
 0.4987570118412E+00 -0.5501160753297E+00  0.0000000000000E+00 -0.1475265069426E+00
 0.5093451025317E+00 -0.5610181986769E+00  0.0000000000000E+00 -0.1579323185323E+00
 0.5183689808249E+00 -0.5706441597939E+00  0.0000000000000E+00 -0.1707257773610E+00
 0.5260148835615E+00 -0.5791888465706E+00  0.0000000000000E+00 -0.1861019220456E+00
 0.5325481590542E+00 -0.5869246954842E+00  0.0000000000000E+00 -0.2041824310496E+00
 0.4620497532439E-01 -0.1226093087182E+00  0.0000000000000E+00 -0.2287546169599E+00
 0.1009955358599E+00 -0.1741614371918E+00  0.0000000000000E+00 -0.2036050797305E+00
 0.1511019910178E+00 -0.2212693655194E+00  0.0000000000000E+00 -0.1834455550080E+00
 0.1969916423119E+00 -0.2643894668419E+00  0.0000000000000E+00 -0.1670223955563E+00
 0.2390012436624E+00 -0.3038521543882E+00  0.0000000000000E+00 -0.1534965916521E+00
 0.2773898011408E+00 -0.3399134782192E+00  0.0000000000000E+00 -0.1423392003310E+00
 0.3123737077938E+00 -0.3727893948091E+00  0.0000000000000E+00 -0.1332440328957E+00
 0.3441502559403E+00 -0.4026786175859E+00  0.0000000000000E+00 -0.1260568008860E+00
 0.3729123348407E+00 -0.4297768706649E+00  0.0000000000000E+00 -0.1207160211816E+00
 0.3988555714256E+00 -0.4542838396291E+00  0.0000000000000E+00 -0.1172074550299E+00
 0.4221792526860E+00 -0.4764040623164E+00  0.0000000000000E+00 -0.1155345024478E+00
 0.4430819327525E+00 -0.4963424575633E+00  0.0000000000000E+00 -0.1157023559625E+00
 0.4617529655306E+00 -0.5142956648008E+00  0.0000000000000E+00 -0.1177136651071E+00
 0.4783642253854E+00 -0.5304435686236E+00  0.0000000000000E+00 -0.1215743545893E+00
 0.4930663267043E+00 -0.5449454469449E+00  0.0000000000000E+00 -0.1273062449755E+00
 0.5059918713970E+00 -0.5579432310964E+00  0.0000000000000E+00 -0.1349632250879E+00
 0.5172677967182E+00 -0.5695737742696E+00  0.0000000000000E+00 -0.1446465092256E+00
 0.5270387524724E+00 -0.5799918325723E+00  0.0000000000000E+00 -0.1565049485618E+00
 0.5354899820151E+00 -0.5893925092901E+00  0.0000000000000E+00 -0.1706837602688E+00
 0.5428627420083E+00 -0.5980261821636E+00  0.0000000000000E+00 -0.1872384516272E+00
 0.4494080791234E-01 -0.1218268354407E+00  0.0000000000000E+00 -0.2028456544079E+00
 0.1006800824577E+00 -0.1742772507709E+00  0.0000000000000E+00 -0.1803439202703E+00
 0.1514970291249E+00 -0.2220594591308E+00  0.0000000000000E+00 -0.1623888939465E+00
 0.1979396785315E+00 -0.2657080654227E+00  0.0000000000000E+00 -0.1478422287788E+00
 0.2404073146024E+00 -0.3056139276544E+00  0.0000000000000E+00 -0.1359340031826E+00
 0.2792049284633E+00 -0.3420773865240E+00  0.0000000000000E+00 -0.1261725760510E+00
 0.3145811128639E+00 -0.3753452459391E+00  0.0000000000000E+00 -0.1182680636853E+00
 0.3467542001738E+00 -0.4056362069659E+00  0.0000000000000E+00 -0.1120694791197E+00
 0.3759293174152E+00 -0.4331574323580E+00  0.0000000000000E+00 -0.1075123846143E+00
 0.4023078103732E+00 -0.4581137188219E+00  0.0000000000000E+00 -0.1045784312913E+00
 0.4260902817616E+00 -0.4807104503851E+00  0.0000000000000E+00 -0.1032686074489E+00
 0.4474742263158E+00 -0.5011511384829E+00  0.0000000000000E+00 -0.1035887998436E+00
 0.4666477542566E+00 -0.5196309629035E+00  0.0000000000000E+00 -0.1055458997662E+00
 0.4837834689155E+00 -0.5363304632616E+00  0.0000000000000E+00 -0.1091526100945E+00
 0.4990362643105E+00 -0.5514132647147E+00  0.0000000000000E+00 -0.1144373286613E+00
 0.5125469609897E+00 -0.5650297295613E+00  0.0000000000000E+00 -0.1214556598396E+00
 0.5244528094435E+00 -0.5773274241890E+00  0.0000000000000E+00 -0.1302991344497E+00
 0.5349051116723E+00 -0.5884684994367E+00  0.0000000000000E+00 -0.1410893758777E+00
 0.5440845447385E+00 -0.5986447847714E+00  0.0000000000000E+00 -0.1539310544725E+00
 0.5522064039515E+00 -0.6080829302703E+00  0.0000000000000E+00 -0.1688334501855E+00
 0.4382994167653E-01 -0.1211440350165E+00  0.0000000000000E+00 -0.1765680186889E+00
 0.1004182098613E+00 -0.1743982277028E+00  0.0000000000000E+00 -0.1568282506930E+00
 0.1518712709843E+00 -0.2227839381193E+00  0.0000000000000E+00 -0.1411383490331E+00
 0.1988082354671E+00 -0.2669046608315E+00  0.0000000000000E+00 -0.1284872673869E+00
 0.2416836768503E+00 -0.3072047089717E+00  0.0000000000000E+00 -0.1181854053420E+00
 0.2808435396452E+00 -0.3440238831132E+00  0.0000000000000E+00 -0.1097878837573E+00
 0.3165653475385E+00 -0.3776367265241E+00  0.0000000000000E+00 -0.1030285792230E+00
 0.3490865931500E+00 -0.4082801723399E+00  0.0000000000000E+00 -0.9776542093159E-01
 0.3786238453117E+00 -0.4361721162486E+00  0.0000000000000E+00 -0.9393487647554E-01
 0.4053841476310E+00 -0.4615225082781E+00  0.0000000000000E+00 -0.9151669513968E-01
 0.4295699043095E+00 -0.4845381095961E+00  0.0000000000000E+00 -0.9051028165852E-01
 0.4513783167019E+00 -0.5054218241960E+00  0.0000000000000E+00 -0.9092183905119E-01
 0.4709970179458E+00 -0.5243681668632E+00  0.0000000000000E+00 -0.9276086769888E-01
 0.4885997437651E+00 -0.5415587627840E+00  0.0000000000000E+00 -0.9604395828040E-01
 0.5043453017504E+00 -0.5571612481705E+00  0.0000000000000E+00 -0.1008022656907E+00
 0.5183812351610E+00 -0.5713329550802E+00  0.0000000000000E+00 -0.1070893158633E+00
 0.5308524431203E+00 -0.5842295357908E+00  0.0000000000000E+00 -0.1149850996384E+00
 0.5419139401075E+00 -0.5960176141316E+00  0.0000000000000E+00 -0.1245868488017E+00
 0.5517398149246E+00 -0.6068837104001E+00  0.0000000000000E+00 -0.1359672481605E+00
 0.5605204292032E+00 -0.6170316116395E+00  0.0000000000000E+00 -0.1491065551115E+00
 0.4287413999719E-01 -0.1205600428952E+00  0.0000000000000E+00 -0.1499658169377E+00
 0.1002041838093E+00 -0.1745164416817E+00  0.0000000000000E+00 -0.1330885620949E+00
 0.1522132159189E+00 -0.2234294807097E+00  0.0000000000000E+00 -0.1197177144095E+00
 0.1995816490415E+00 -0.2679620755488E+00  0.0000000000000E+00 -0.1089799667474E+00
 0.2428118960333E+00 -0.3086047989197E+00  0.0000000000000E+00 -0.1002756770208E+00
 0.2822855374053E+00 -0.3457317990444E+00  0.0000000000000E+00 -0.9321484188266E-01
 0.3183054511766E+00 -0.3796419452631E+00  0.0000000000000E+00 -0.8756151582491E-01
 0.3511261056111E+00 -0.4105883444345E+00  0.0000000000000E+00 -0.8318738294854E-01
 0.3809744216719E+00 -0.4387986292392E+00  0.0000000000000E+00 -0.8003314387898E-01
 0.4080628505027E+00 -0.4644876817333E+00  0.0000000000000E+00 -0.7807854514263E-01
 0.4325958380882E+00 -0.4878639329437E+00  0.0000000000000E+00 -0.7732208179060E-01
 0.4547708143901E+00 -0.5091302418206E+00  0.0000000000000E+00 -0.7776986313490E-01
 0.4747754468543E+00 -0.5284809997140E+00  0.0000000000000E+00 -0.7943251119930E-01
 0.4927847679785E+00 -0.5460991032471E+00  0.0000000000000E+00 -0.8232802720757E-01
 0.5089609967223E+00 -0.5621557122785E+00  0.0000000000000E+00 -0.8648724671994E-01
 0.5234570186977E+00 -0.5768137577982E+00  0.0000000000000E+00 -0.9195883160894E-01
 0.5364232312741E+00 -0.5902348282182E+00  0.0000000000000E+00 -0.9881029926988E-01
 0.5480162806875E+00 -0.6025879063692E+00  0.0000000000000E+00 -0.1071174825040E+00
 0.5584029130214E+00 -0.6140533306215E+00  0.0000000000000E+00 -0.1169287967342E+00
 0.5677513674804E+00 -0.6248145538112E+00  0.0000000000000E+00 -0.1282091179035E+00
 0.4207500149987E-01 -0.1200742017681E+00  0.0000000000000E+00 -0.1230853130781E+00
 0.1000331421913E+00 -0.1746251488344E+00  0.0000000000000E+00 -0.1091568436384E+00
 0.1525130568918E+00 -0.2239847162009E+00  0.0000000000000E+00 -0.9815168692392E-01
 0.2002465362391E+00 -0.2688656260698E+00  0.0000000000000E+00 -0.8934314510821E-01
 0.2437761865334E+00 -0.3097973230724E+00  0.0000000000000E+00 -0.8222963270550E-01
 0.2835136619057E+00 -0.3471829495416E+00  0.0000000000000E+00 -0.7648283675375E-01
 0.3197833593415E+00 -0.3813420316752E+00  0.0000000000000E+00 -0.7190239151017E-01
 0.3528542817649E+00 -0.4125415378424E+00  0.0000000000000E+00 -0.6837780727917E-01
 0.3829623620552E+00 -0.4410175946217E+00  0.0000000000000E+00 -0.6585681146374E-01
 0.4103249316710E+00 -0.4669895624049E+00  0.0000000000000E+00 -0.6432073188055E-01
 0.4351484958905E+00 -0.4906676168592E+00  0.0000000000000E+00 -0.6376768586742E-01
 0.4576310163711E+00 -0.5122549188621E+00  0.0000000000000E+00 -0.6420329000573E-01
 0.4779604925351E+00 -0.5319460639605E+00  0.0000000000000E+00 -0.6563799991046E-01
 0.4963132416509E+00 -0.5499252237241E+00  0.0000000000000E+00 -0.6808918267146E-01
 0.5128543247731E+00 -0.5663665142354E+00  0.0000000000000E+00 -0.7158494720046E-01
 0.5277407393007E+00 -0.5814372233849E+00  0.0000000000000E+00 -0.7616710782864E-01
 0.5411266922366E+00 -0.5953031563389E+00  0.0000000000000E+00 -0.8189041270918E-01
 0.5531691143087E+00 -0.6081342290329E+00  0.0000000000000E+00 -0.8881223468180E-01
 0.5640275962052E+00 -0.6201046165412E+00  0.0000000000000E+00 -0.9696331750986E-01
 0.5738518892102E+00 -0.6313807456816E+00  0.0000000000000E+00 -0.1063034087431E+00
 0.4143392283920E-01 -0.1196860245476E+00  0.0000000000000E+00 -0.9597460347672E-01
 0.9990107143759E-01 -0.1747187648135E+00  0.0000000000000E+00 -0.8506633326650E-01
 0.1527626547014E+00 -0.2244401995725E+00  0.0000000000000E+00 -0.7646570909534E-01
 0.2007917702152E+00 -0.2696030986805E+00  0.0000000000000E+00 -0.6959992837288E-01
 0.2445633992438E+00 -0.3107682210745E+00  0.0000000000000E+00 -0.6407205719959E-01
 0.2845135023295E+00 -0.3483621480030E+00  0.0000000000000E+00 -0.5962101889879E-01
 0.3209839465993E+00 -0.3827211825318E+00  0.0000000000000E+00 -0.5608642901065E-01
 0.3542556167196E+00 -0.4141236328873E+00  0.0000000000000E+00 -0.5337893744871E-01
 0.3845719080861E+00 -0.4428126702175E+00  0.0000000000000E+00 -0.5145556457277E-01
 0.4121543036538E+00 -0.4690114813645E+00  0.0000000000000E+00 -0.5030049441893E-01
 0.4372111932493E+00 -0.4929318722865E+00  0.0000000000000E+00 -0.4991187368627E-01
 0.4599411874444E+00 -0.5147774685312E+00  0.0000000000000E+00 -0.5029446931209E-01
 0.4805327437599E+00 -0.5347432245809E+00  0.0000000000000E+00 -0.5145750905599E-01
 0.4991633262322E+00 -0.5530144587694E+00  0.0000000000000E+00 -0.5341610455430E-01
 0.5160002465754E+00 -0.5697676428026E+00  0.0000000000000E+00 -0.5619381722263E-01
 0.5312035441826E+00 -0.5851733227976E+00  0.0000000000000E+00 -0.5982425701043E-01
 0.5449299542893E+00 -0.5994001830773E+00  0.0000000000000E+00 -0.6434950541549E-01
 0.5573359452444E+00 -0.6126182185115E+00  0.0000000000000E+00 -0.6981114248852E-01
 0.5685747889764E+00 -0.6249960849802E+00  0.0000000000000E+00 -0.7622760068301E-01
 0.5787816201646E+00 -0.6366867263279E+00  0.0000000000000E+00 -0.8356090697774E-01
 0.4095206260803E-01 -0.1193951618378E+00  0.0000000000000E+00 -0.6868329198915E-01
 0.9980478502154E-01 -0.1747928453763E+00  0.0000000000000E+00 -0.6085128572664E-01
 0.1529555173055E+00 -0.2247883929863E+00  0.0000000000000E+00 -0.5468582840868E-01
 0.2012084627116E+00 -0.2701647341155E+00  0.0000000000000E+00 -0.4977369941459E-01
 0.2451630147738E+00 -0.3115062424871E+00  0.0000000000000E+00 -0.4582773023337E-01
 0.2852735086952E+00 -0.3492572210834E+00  0.0000000000000E+00 -0.4265837759656E-01
 0.3218950628660E+00 -0.3837667021238E+00  0.0000000000000E+00 -0.4014865072471E-01
 0.3553176215642E+00 -0.4153216450095E+00  0.0000000000000E+00 -0.3823290421180E-01
 0.3857903251723E+00 -0.4441706503735E+00  0.0000000000000E+00 -0.3687919968828E-01
 0.4135379155388E+00 -0.4705399182858E+00  0.0000000000000E+00 -0.3607555363034E-01
 0.4387703352700E+00 -0.4946426155590E+00  0.0000000000000E+00 -0.3582044065776E-01
 0.4616868117167E+00 -0.5166828463919E+00  0.0000000000000E+00 -0.3611748430348E-01
 0.4824762550593E+00 -0.5368559456292E+00  0.0000000000000E+00 -0.3697386027671E-01
 0.5013170516779E+00 -0.5553481587432E+00  0.0000000000000E+00 -0.3840120400977E-01
 0.5183781770868E+00 -0.5723377080089E+00  0.0000000000000E+00 -0.4041721431770E-01
 0.5338217962578E+00 -0.5879974386927E+00  0.0000000000000E+00 -0.4304641415508E-01
 0.5478062315923E+00 -0.6024978990097E+00  0.0000000000000E+00 -0.4631851350686E-01
 0.5604872088819E+00 -0.6160087579597E+00  0.0000000000000E+00 -0.5026152683455E-01
 0.5720129456226E+00 -0.6286942162656E+00  0.0000000000000E+00 -0.5488569533533E-01
 0.5825077800374E+00 -0.6406972417908E+00  0.0000000000000E+00 -0.6016048766637E-01
 0.4063031477363E-01 -0.1192013752113E+00  0.0000000000000E+00 -0.4126214188911E-01
 0.9974190748207E-01 -0.1748440707923E+00  0.0000000000000E+00 -0.3654672794107E-01
 0.1530867867376E+00 -0.2250236530398E+00  0.0000000000000E+00 -0.3283854667743E-01
 0.2014899546331E+00 -0.2705432187695E+00  0.0000000000000E+00 -0.2988803301021E-01
 0.2455671428795E+00 -0.3120029472485E+00  0.0000000000000E+00 -0.2752142935356E-01
 0.2857850056158E+00 -0.3498590240082E+00  0.0000000000000E+00 -0.2562378727883E-01
 0.3225075662215E+00 -0.3844690371373E+00  0.0000000000000E+00 -0.2412394130337E-01
 0.3560308794312E+00 -0.4161257832225E+00  0.0000000000000E+00 -0.2298177605214E-01
 0.3866079863552E+00 -0.4450815523292E+00  0.0000000000000E+00 -0.2217763483429E-01
 0.4144658709615E+00 -0.4715646220243E+00  0.0000000000000E+00 -0.2170405486963E-01
 0.4398155777023E+00 -0.4957891325159E+00  0.0000000000000E+00 -0.2156004223318E-01
 0.4628568068414E+00 -0.5179595689595E+00  0.0000000000000E+00 -0.2174785978392E-01
 0.4837788210198E+00 -0.5382715715512E+00  0.0000000000000E+00 -0.2227204571396E-01
 0.5027606485246E+00 -0.5569120332281E+00  0.0000000000000E+00 -0.2313991232077E-01
 0.5199723586457E+00 -0.5740603317213E+00  0.0000000000000E+00 -0.2436241443556E-01
 0.5355774550898E+00 -0.5898907720196E+00  0.0000000000000E+00 -0.2595445280568E-01
 0.5497351692842E+00 -0.6045750018590E+00  0.0000000000000E+00 -0.2793369141531E-01
 0.5626005451779E+00 -0.6182822907267E+00  0.0000000000000E+00 -0.3031624875237E-01
 0.5743182857176E+00 -0.6311737231045E+00  0.0000000000000E+00 -0.3310709588872E-01
 0.5850056113183E+00 -0.6433856793686E+00  0.0000000000000E+00 -0.3628656272048E-01
 0.4046928717491E-01 -0.1191045171033E+00  0.0000000000000E+00 -0.1376275532428E-01
 0.9971086194112E-01 -0.1748702342492E+00  0.0000000000000E+00 -0.1218824392872E-01
 0.1531532292070E+00 -0.2251422218814E+00  0.0000000000000E+00 -0.1095069499082E-01
 0.2016318093676E+00 -0.2707336791517E+00  0.0000000000000E+00 -0.9966647824820E-02
 0.2457705224045E+00 -0.3122527069884E+00  0.0000000000000E+00 -0.9177940624196E-02
 0.2860422027153E+00 -0.3501614526539E+00  0.0000000000000E+00 -0.8546053660852E-02
 0.3228153474278E+00 -0.3848218031080E+00  0.0000000000000E+00 -0.8047103398888E-02
 0.3563890877449E+00 -0.4165294944735E+00  0.0000000000000E+00 -0.7667596845457E-02
 0.3870184364065E+00 -0.4455386825123E+00  0.0000000000000E+00 -0.7400899680847E-02
 0.4149315193630E+00 -0.4720787042193E+00  0.0000000000000E+00 -0.7244479065744E-02
 0.4403399520351E+00 -0.4963642064118E+00  0.0000000000000E+00 -0.7197990772569E-02
 0.4634436896008E+00 -0.5185998832410E+00  0.0000000000000E+00 -0.7262204001715E-02
 0.4844321858703E+00 -0.5389815428641E+00  0.0000000000000E+00 -0.7438670160267E-02
 0.5034847976451E+00 -0.5576964102332E+00  0.0000000000000E+00 -0.7729881276255E-02
 0.5207721356885E+00 -0.5749244365420E+00  0.0000000000000E+00 -0.8139543641525E-02
 0.5364583487856E+00 -0.5908406338970E+00  0.0000000000000E+00 -0.8672653386332E-02
 0.5507030777687E+00 -0.6056171564214E+00  0.0000000000000E+00 -0.9335069232995E-02
 0.5636609697123E+00 -0.6194230191702E+00  0.0000000000000E+00 -0.1013204723980E-01
 0.5754749249108E+00 -0.6324177031615E+00  0.0000000000000E+00 -0.1106504639062E-01
 0.5862586198782E+00 -0.6447343036055E+00  0.0000000000000E+00 -0.1212727393002E-01
 0.4046928720573E-01 -0.1191045171229E+00  0.0000000000000E+00  0.1376276525150E-01
 0.9971086194883E-01 -0.1748702342479E+00  0.0000000000000E+00  0.1218825181875E-01
 0.1531532292004E+00 -0.2251422218677E+00  0.0000000000000E+00  0.1095070126892E-01
 0.2016318093527E+00 -0.2707336791310E+00  0.0000000000000E+00  0.9966652807079E-02
 0.2457705223852E+00 -0.3122527069644E+00  0.0000000000000E+00  0.9177944552178E-02
 0.2860422026942E+00 -0.3501614526291E+00  0.0000000000000E+00  0.8546056724981E-02
 0.3228153474070E+00 -0.3848218030843E+00  0.0000000000000E+00  0.8047105754261E-02
 0.3563890877257E+00 -0.4165294944521E+00  0.0000000000000E+00  0.7667598622290E-02
 0.3870184363900E+00 -0.4455386824943E+00  0.0000000000000E+00  0.7400900991233E-02
 0.4149315193497E+00 -0.4720787042050E+00  0.0000000000000E+00  0.7244480008005E-02
 0.4403399520251E+00 -0.4963642064013E+00  0.0000000000000E+00  0.7197991432734E-02
 0.4634436895940E+00 -0.5185998832339E+00  0.0000000000000E+00  0.7262204453165E-02
 0.4844321858661E+00 -0.5389815428598E+00  0.0000000000000E+00  0.7438670462311E-02
 0.5034847976429E+00 -0.5576964102309E+00  0.0000000000000E+00  0.7729881473953E-02
 0.5207721356878E+00 -0.5749244365412E+00  0.0000000000000E+00  0.8139543767387E-02
 0.5364583487859E+00 -0.5908406338972E+00  0.0000000000000E+00  0.8672653463034E-02
 0.5507030777696E+00 -0.6056171564223E+00  0.0000000000000E+00  0.9335069275687E-02
 0.5636609697137E+00 -0.6194230191717E+00  0.0000000000000E+00  0.1013204725757E-01
 0.5754749249127E+00 -0.6324177031634E+00  0.0000000000000E+00  0.1106504638671E-01
 0.5862586198807E+00 -0.6447343036080E+00  0.0000000000000E+00  0.1212727390178E-01
 0.4063031486603E-01 -0.1192013752702E+00  0.0000000000000E+00  0.4126215179773E-01
 0.9974190750534E-01 -0.1748440707887E+00  0.0000000000000E+00  0.3654673581936E-01
 0.1530867867182E+00 -0.2250236529988E+00  0.0000000000000E+00  0.3283855294750E-01
 0.2014899545886E+00 -0.2705432187077E+00  0.0000000000000E+00  0.2988803798620E-01
 0.2455671428217E+00 -0.3120029471768E+00  0.0000000000000E+00  0.2752143327603E-01
 0.2857850055528E+00 -0.3498590239343E+00  0.0000000000000E+00  0.2562379033780E-01
 0.3225075661591E+00 -0.3844690370664E+00  0.0000000000000E+00  0.2412394365392E-01
 0.3560308793738E+00 -0.4161257831587E+00  0.0000000000000E+00  0.2298177782462E-01
 0.3866079863058E+00 -0.4450815522752E+00  0.0000000000000E+00  0.2217763614096E-01
 0.4144658709218E+00 -0.4715646219815E+00  0.0000000000000E+00  0.2170405580886E-01
 0.4398155776726E+00 -0.4957891324843E+00  0.0000000000000E+00  0.2156004289098E-01
 0.4628568068210E+00 -0.5179595689381E+00  0.0000000000000E+00  0.2174786023351E-01
 0.4837788210072E+00 -0.5382715715382E+00  0.0000000000000E+00  0.2227204601448E-01
 0.5027606485181E+00 -0.5569120332215E+00  0.0000000000000E+00  0.2313991251714E-01
 0.5199723586435E+00 -0.5740603317191E+00  0.0000000000000E+00  0.2436241456020E-01
 0.5355774550904E+00 -0.5898907720204E+00  0.0000000000000E+00  0.2595445288124E-01
 0.5497351692869E+00 -0.6045750018617E+00  0.0000000000000E+00  0.2793369145699E-01
 0.5626005451821E+00 -0.6182822907310E+00  0.0000000000000E+00  0.3031624876936E-01
 0.5743182857234E+00 -0.6311737231102E+00  0.0000000000000E+00  0.3310709588433E-01
 0.5850056113260E+00 -0.6433856793762E+00  0.0000000000000E+00  0.3628656269212E-01
 0.4095206276184E-01 -0.1193951619359E+00  0.0000000000000E+00  0.6868330186072E-01
 0.9980478506073E-01 -0.1747928453709E+00  0.0000000000000E+00  0.6085129358155E-01
 0.1529555172738E+00 -0.2247883929188E+00  0.0000000000000E+00  0.5468583466271E-01
 0.2012084626383E+00 -0.2701647340133E+00  0.0000000000000E+00  0.4977370437806E-01
 0.2451630146784E+00 -0.3115062423686E+00  0.0000000000000E+00  0.4582773414481E-01
 0.2852735085910E+00 -0.3492572209609E+00  0.0000000000000E+00  0.4265838064520E-01
 0.3218950627628E+00 -0.3837667020065E+00  0.0000000000000E+00  0.4014865306561E-01
 0.3553176214691E+00 -0.4153216449038E+00  0.0000000000000E+00  0.3823290597558E-01
 0.3857903250904E+00 -0.4441706502840E+00  0.0000000000000E+00  0.3687920098753E-01
 0.4135379154730E+00 -0.4705399182148E+00  0.0000000000000E+00  0.3607555456356E-01
 0.4387703352209E+00 -0.4946426155067E+00  0.0000000000000E+00  0.3582044131085E-01
 0.4616868116830E+00 -0.5166828463565E+00  0.0000000000000E+00  0.3611748474939E-01
 0.4824762550386E+00 -0.5368559456076E+00  0.0000000000000E+00  0.3697386057422E-01
 0.5013170516671E+00 -0.5553481587323E+00  0.0000000000000E+00  0.3840120420349E-01
 0.5183781770832E+00 -0.5723377080054E+00  0.0000000000000E+00  0.4041721443984E-01
 0.5338217962591E+00 -0.5879974386942E+00  0.0000000000000E+00  0.4304641422832E-01
 0.5478062315968E+00 -0.6024978990144E+00  0.0000000000000E+00  0.4631851354653E-01
 0.5604872088890E+00 -0.6160087579669E+00  0.0000000000000E+00  0.5026152684997E-01
 0.5720129456323E+00 -0.6286942162752E+00  0.0000000000000E+00  0.5488569532999E-01
 0.5825077800503E+00 -0.6406972418034E+00  0.0000000000000E+00  0.6016048763773E-01
 0.4143392305414E-01 -0.1196860246850E+00  0.0000000000000E+00  0.9597461329303E-01
 0.9990107149332E-01 -0.1747187648071E+00  0.0000000000000E+00  0.8506634108650E-01
 0.1527626546586E+00 -0.2244401994799E+00  0.0000000000000E+00  0.7646571532541E-01
 0.2007917701144E+00 -0.2696030985395E+00  0.0000000000000E+00  0.6959993331759E-01
 0.2445633991120E+00 -0.3107682209105E+00  0.0000000000000E+00  0.6407206109447E-01
 0.2845135021854E+00 -0.3483621478334E+00  0.0000000000000E+00  0.5962102193194E-01
 0.3209839464563E+00 -0.3827211823690E+00  0.0000000000000E+00  0.5608643133706E-01
 0.3542556165877E+00 -0.4141236327406E+00  0.0000000000000E+00  0.5337893919946E-01
 0.3845719079724E+00 -0.4428126700932E+00  0.0000000000000E+00  0.5145556586092E-01
 0.4121543035624E+00 -0.4690114812660E+00  0.0000000000000E+00  0.5030049534317E-01
 0.4372111931812E+00 -0.4929318722139E+00  0.0000000000000E+00  0.4991187433237E-01
 0.4599411873978E+00 -0.5147774684822E+00  0.0000000000000E+00  0.5029446975254E-01
 0.4805327437314E+00 -0.5347432245513E+00  0.0000000000000E+00  0.5145750934904E-01
 0.4991633262176E+00 -0.5530144587545E+00  0.0000000000000E+00  0.5341610474405E-01
 0.5160002465708E+00 -0.5697676427980E+00  0.0000000000000E+00  0.5619381734107E-01
 0.5312035441846E+00 -0.5851733227998E+00  0.0000000000000E+00  0.5982425708023E-01
 0.5449299542958E+00 -0.5994001830840E+00  0.0000000000000E+00  0.6434950545213E-01
 0.5573359452544E+00 -0.6126182185216E+00  0.0000000000000E+00  0.6981114250163E-01
 0.5685747889900E+00 -0.6249960849937E+00  0.0000000000000E+00  0.7622760067633E-01
 0.5787816201827E+00 -0.6366867263455E+00  0.0000000000000E+00  0.8356090694887E-01
 0.4207500177555E-01 -0.1200742019449E+00  0.0000000000000E+00  0.1230853228213E+00
 0.1000331422644E+00 -0.1746251488283E+00  0.0000000000000E+00  0.1091568514122E+00
 0.1525130568395E+00 -0.2239847160849E+00  0.0000000000000E+00  0.9815169312220E-01
 0.2002465361127E+00 -0.2688656258920E+00  0.0000000000000E+00  0.8934315002795E-01
 0.2437761863671E+00 -0.3097973228649E+00  0.0000000000000E+00  0.8222963657828E-01
 0.2835136617233E+00 -0.3471829493266E+00  0.0000000000000E+00  0.7648283976620E-01
 0.3197833591601E+00 -0.3813420314685E+00  0.0000000000000E+00  0.7190239381726E-01
 0.3528542815973E+00 -0.4125415376558E+00  0.0000000000000E+00  0.6837780901257E-01
 0.3829623619106E+00 -0.4410175944635E+00  0.0000000000000E+00  0.6585681273713E-01
 0.4103249315548E+00 -0.4669895622796E+00  0.0000000000000E+00  0.6432073279289E-01
 0.4351484958040E+00 -0.4906676167671E+00  0.0000000000000E+00  0.6376768650429E-01
 0.4576310163121E+00 -0.5122549188000E+00  0.0000000000000E+00  0.6420329043899E-01
 0.4779604924993E+00 -0.5319460639232E+00  0.0000000000000E+00  0.6563800019764E-01
 0.4963132416329E+00 -0.5499252237057E+00  0.0000000000000E+00  0.6808918285601E-01
 0.5128543247677E+00 -0.5663665142301E+00  0.0000000000000E+00  0.7158494731404E-01
 0.5277407393037E+00 -0.5814372233883E+00  0.0000000000000E+00  0.7616710789389E-01
 0.5411266922452E+00 -0.5953031563479E+00  0.0000000000000E+00  0.8189041274183E-01
 0.5531691143216E+00 -0.6081342290460E+00  0.0000000000000E+00  0.8881223469187E-01
 0.5640275962227E+00 -0.6201046165586E+00  0.0000000000000E+00  0.9696331750142E-01
 0.5738518892334E+00 -0.6313807457043E+00  0.0000000000000E+00  0.1063034087138E+00
 0.4287414033313E-01 -0.1205600431115E+00  0.0000000000000E+00  0.1499658265905E+00
 0.1002041839010E+00 -0.1745164416775E+00  0.0000000000000E+00  0.1330885698116E+00
 0.1522132158591E+00 -0.2234294805727E+00  0.0000000000000E+00  0.1197177205683E+00
 0.1995816488918E+00 -0.2679620753369E+00  0.0000000000000E+00  0.1089799716359E+00
 0.2428118958349E+00 -0.3086047986714E+00  0.0000000000000E+00  0.1002756808659E+00
 0.2822855371867E+00 -0.3457317987862E+00  0.0000000000000E+00  0.9321484486919E-01
 0.3183054509586E+00 -0.3796419450143E+00  0.0000000000000E+00  0.8756151810781E-01
 0.3511261054093E+00 -0.4105883442097E+00  0.0000000000000E+00  0.8318738466028E-01
 0.3809744214976E+00 -0.4387986290485E+00  0.0000000000000E+00  0.8003314513402E-01
 0.4080628503627E+00 -0.4644876815822E+00  0.0000000000000E+00  0.7807854604024E-01
 0.4325958379841E+00 -0.4878639328329E+00  0.0000000000000E+00  0.7732208241606E-01
 0.4547708143195E+00 -0.5091302417462E+00  0.0000000000000E+00  0.7776986355932E-01
 0.4747754468117E+00 -0.5284809996698E+00  0.0000000000000E+00  0.7943251147928E-01
 0.4927847679575E+00 -0.5460991032256E+00  0.0000000000000E+00  0.8232802738574E-01
 0.5089609967165E+00 -0.5621557122729E+00  0.0000000000000E+00  0.8648724682752E-01
 0.5234570187019E+00 -0.5768137578030E+00  0.0000000000000E+00  0.9195883166854E-01
 0.5364232312850E+00 -0.5902348282296E+00  0.0000000000000E+00  0.9881029929757E-01
 0.5480162807035E+00 -0.6025879063856E+00  0.0000000000000E+00  0.1071174825103E+00
 0.5584029130428E+00 -0.6140533306429E+00  0.0000000000000E+00  0.1169287967237E+00
 0.5677513675088E+00 -0.6248145538390E+00  0.0000000000000E+00  0.1282091178740E+00
 0.4382994207217E-01 -0.1211440352726E+00  0.0000000000000E+00  0.1765680282347E+00
 0.1004182099730E+00 -0.1743982277025E+00  0.0000000000000E+00  0.1568282583418E+00
 0.1518712709195E+00 -0.2227839379643E+00  0.0000000000000E+00  0.1411383551449E+00
 0.1988082352971E+00 -0.2669046605886E+00  0.0000000000000E+00  0.1284872722382E+00
 0.2416836766227E+00 -0.3072047086855E+00  0.0000000000000E+00  0.1181854091539E+00
 0.2808435393931E+00 -0.3440238828146E+00  0.0000000000000E+00  0.1097878867126E+00
 0.3165653472861E+00 -0.3776367262356E+00  0.0000000000000E+00  0.1030285814768E+00
 0.3490865929158E+00 -0.4082801720787E+00  0.0000000000000E+00  0.9776542261736E-01
 0.3786238451092E+00 -0.4361721160268E+00  0.0000000000000E+00  0.9393487770865E-01
 0.4053841474683E+00 -0.4615225081024E+00  0.0000000000000E+00  0.9151669601977E-01
 0.4295699041888E+00 -0.4845381094675E+00  0.0000000000000E+00  0.9051028227050E-01
 0.4513783166204E+00 -0.5054218241101E+00  0.0000000000000E+00  0.9092183946521E-01
 0.4709970178972E+00 -0.5243681668127E+00  0.0000000000000E+00  0.9276086797041E-01
 0.4885997437417E+00 -0.5415587627602E+00  0.0000000000000E+00  0.9604395845109E-01
 0.5043453017448E+00 -0.5571612481651E+00  0.0000000000000E+00  0.1008022657912E+00
 0.5183812351669E+00 -0.5713329550868E+00  0.0000000000000E+00  0.1070893159162E+00
 0.5308524431337E+00 -0.5842295358049E+00  0.0000000000000E+00  0.1149850996602E+00
 0.5419139401266E+00 -0.5960176141512E+00  0.0000000000000E+00  0.1245868488035E+00
 0.5517398149500E+00 -0.6068837104255E+00  0.0000000000000E+00  0.1359672481476E+00
 0.5605204292368E+00 -0.6170316116726E+00  0.0000000000000E+00  0.1491065550817E+00
 0.4494080836708E-01 -0.1218268357368E+00  0.0000000000000E+00  0.2028456638308E+00
 0.1006800825911E+00 -0.1742772507768E+00  0.0000000000000E+00  0.1803439278412E+00
 0.1514970290582E+00 -0.2220594589611E+00  0.0000000000000E+00  0.1623889000040E+00
 0.1979396783447E+00 -0.2657080651528E+00  0.0000000000000E+00  0.1478422335867E+00
 0.2404073143491E+00 -0.3056139273341E+00  0.0000000000000E+00  0.1359340069556E+00
 0.2792049281807E+00 -0.3420773861883E+00  0.0000000000000E+00  0.1261725789698E+00
 0.3145811125798E+00 -0.3753452456137E+00  0.0000000000000E+00  0.1182680659052E+00
 0.3467541999093E+00 -0.4056362066705E+00  0.0000000000000E+00  0.1120694807752E+00
 0.3759293171863E+00 -0.4331574321069E+00  0.0000000000000E+00  0.1075123858220E+00
 0.4023078101893E+00 -0.4581137186231E+00  0.0000000000000E+00  0.1045784321511E+00
 0.4260902816255E+00 -0.4807104502398E+00  0.0000000000000E+00  0.1032686080454E+00
 0.4474742262244E+00 -0.5011511383865E+00  0.0000000000000E+00  0.1035888002458E+00
 0.4666477542028E+00 -0.5196309628475E+00  0.0000000000000E+00  0.1055459000281E+00
 0.4837834688905E+00 -0.5363304632360E+00  0.0000000000000E+00  0.1091526102567E+00
 0.4990362643056E+00 -0.5514132647102E+00  0.0000000000000E+00  0.1144373287538E+00
 0.5125469609977E+00 -0.5650297295702E+00  0.0000000000000E+00  0.1214556598848E+00
 0.5244528094596E+00 -0.5773274242060E+00  0.0000000000000E+00  0.1302991344646E+00
 0.5349051116945E+00 -0.5884684994596E+00  0.0000000000000E+00  0.1410893758744E+00
 0.5440845447677E+00 -0.5986447848009E+00  0.0000000000000E+00  0.1539310544570E+00
 0.5522064039903E+00 -0.6080829303087E+00  0.0000000000000E+00  0.1688334501560E+00
 0.4620497583757E-01 -0.1226093090546E+00  0.0000000000000E+00  0.2287546262448E+00
 0.1009955360169E+00 -0.1741614372066E+00  0.0000000000000E+00  0.2036050872138E+00
 0.1511019909525E+00 -0.2212693653392E+00  0.0000000000000E+00  0.1834455610041E+00
 0.1969916421123E+00 -0.2643894665492E+00  0.0000000000000E+00  0.1670224003147E+00
 0.2390012433872E+00 -0.3038521540381E+00  0.0000000000000E+00  0.1534965953807E+00
 0.2773898008313E+00 -0.3399134778501E+00  0.0000000000000E+00  0.1423392032080E+00
 0.3123737074808E+00 -0.3727893944499E+00  0.0000000000000E+00  0.1332440350766E+00
 0.3441502556480E+00 -0.4026786172589E+00  0.0000000000000E+00  0.1260568025070E+00
 0.3729123345871E+00 -0.4297768703865E+00  0.0000000000000E+00  0.1207160223603E+00
 0.3988555712219E+00 -0.4542838394087E+00  0.0000000000000E+00  0.1172074558669E+00
 0.4221792525356E+00 -0.4764040621559E+00  0.0000000000000E+00  0.1155345030268E+00
 0.4430819326522E+00 -0.4963424574575E+00  0.0000000000000E+00  0.1157023563514E+00
 0.4617529654725E+00 -0.5142956647403E+00  0.0000000000000E+00  0.1177136653584E+00
 0.4783642253595E+00 -0.5304435685972E+00  0.0000000000000E+00  0.1215743547421E+00
 0.4930663267007E+00 -0.5449454469419E+00  0.0000000000000E+00  0.1273062450591E+00
 0.5059918714076E+00 -0.5579432311081E+00  0.0000000000000E+00  0.1349632251246E+00
 0.5172677967374E+00 -0.5695737742899E+00  0.0000000000000E+00  0.1446465092328E+00
 0.5270387524979E+00 -0.5799918325988E+00  0.0000000000000E+00  0.1565049485526E+00
 0.5354899820482E+00 -0.5893925093235E+00  0.0000000000000E+00  0.1706837602504E+00
 0.5428627420523E+00 -0.5980261822072E+00  0.0000000000000E+00  0.1872384515980E+00
 0.4762056037534E-01 -0.1234925670773E+00  0.0000000000000E+00  0.2542533124749E+00
 0.1013712041575E+00 -0.1740599208965E+00  0.0000000000000E+00  0.2265830310580E+00
 0.1506993872516E+00 -0.2204289643762E+00  0.0000000000000E+00  0.2042856407746E+00
 0.1959821109590E+00 -0.2629685738080E+00  0.0000000000000E+00  0.1860057540504E+00
 0.2374865713737E+00 -0.3019419353198E+00  0.0000000000000E+00  0.1708481922207E+00
 0.2754210854316E+00 -0.3375563003734E+00  0.0000000000000E+00  0.1582575901526E+00
 0.3099669415376E+00 -0.3699940319001E+00  0.0000000000000E+00  0.1479199803579E+00
 0.3412988732765E+00 -0.3994324605076E+00  0.0000000000000E+00  0.1396841701190E+00
 0.3695970780564E+00 -0.4260555048693E+00  0.0000000000000E+00  0.1334960066941E+00
 0.3950517415871E+00 -0.4500580734392E+00  0.0000000000000E+00  0.1293478497473E+00
 0.4178615768949E+00 -0.4716446344418E+00  0.0000000000000E+00  0.1272464903748E+00
 0.4382272172235E+00 -0.4910225566341E+00  0.0000000000000E+00  0.1271961342181E+00
 0.4563403161402E+00 -0.5083910165336E+00  0.0000000000000E+00  0.1291935058283E+00
 0.4723727367441E+00 -0.5239299925458E+00  0.0000000000000E+00  0.1332345218402E+00
 0.4864706873573E+00 -0.5377943366113E+00  0.0000000000000E+00  0.1393298144057E+00
 0.4987570118549E+00 -0.5501160753446E+00  0.0000000000000E+00  0.1475265069698E+00
 0.5093451025543E+00 -0.5610181987008E+00  0.0000000000000E+00  0.1579323185309E+00
 0.5183689808538E+00 -0.5706441598240E+00  0.0000000000000E+00  0.1707257773454E+00
 0.5260148835983E+00 -0.5791888466081E+00  0.0000000000000E+00  0.1861019220240E+00
 0.5325481591035E+00 -0.5869246955332E+00  0.0000000000000E+00  0.2041824310209E+00
 0.4918559893660E-01 -0.1244780068834E+00  0.0000000000000E+00  0.2793029197275E+00
 0.1018146476677E+00 -0.1739830681358E+00  0.0000000000000E+00  0.2492511195999E+00
 0.1503042274892E+00 -0.2195555967473E+00  0.0000000000000E+00  0.2248877317063E+00
 0.1949314506615E+00 -0.2614676881906E+00  0.0000000000000E+00  0.2047707664873E+00
 0.2358871248810E+00 -0.2999087092295E+00  0.0000000000000E+00  0.1879636229897E+00
 0.2733245459176E+00 -0.3350329714814E+00  0.0000000000000E+00  0.1738969295871E+00
 0.3073874245025E+00 -0.3669869299569E+00  0.0000000000000E+00  0.1622585899500E+00
 0.3382268485108E+00 -0.3959255707153E+00  0.0000000000000E+00  0.1529076919590E+00
 0.3660102699767E+00 -0.4220210393976E+00  0.0000000000000E+00  0.1458022651660E+00
 0.3909230380233E+00 -0.4454641208309E+00  0.0000000000000E+00  0.1409439662110E+00
 0.4131642829295E+00 -0.4664602256980E+00  0.0000000000000E+00  0.1383440696058E+00
 0.4329379728413E+00 -0.4852204331768E+00  0.0000000000000E+00  0.1380056409346E+00
 0.4504394195829E+00 -0.5019478223711E+00  0.0000000000000E+00  0.1399178958198E+00
 0.4658415901778E+00 -0.5168236112723E+00  0.0000000000000E+00  0.1440633427612E+00
 0.4792865533996E+00 -0.5299985607612E+00  0.0000000000000E+00  0.1504360500727E+00
 0.4908859532121E+00 -0.5415934580432E+00  0.0000000000000E+00  0.1590697803881E+00
 0.5007358144199E+00 -0.5517137427233E+00  0.0000000000000E+00  0.1700736580950E+00
 0.5089542682304E+00 -0.5604864306426E+00  0.0000000000000E+00  0.1836574111173E+00
 0.5157229456158E+00 -0.5681007192106E+00  0.0000000000000E+00  0.2000757538276E+00
 0.5213263416249E+00 -0.5748465644504E+00  0.0000000000000E+00  0.2195382674074E+00
 0.5089808529979E-01 -0.1255673413386E+00  0.0000000000000E+00  0.3038677970843E+00
 0.1023343764056E+00 -0.1739424969613E+00  0.0000000000000E+00  0.2715851676693E+00
 0.1499333643904E+00 -0.2186687007675E+00  0.0000000000000E+00  0.2452320155725E+00
 0.1938624991748E+00 -0.2599117954745E+00  0.0000000000000E+00  0.2232965123953E+00
 0.2342295228550E+00 -0.2977808791910E+00  0.0000000000000E+00  0.2048174341555E+00
 0.2711287992856E+00 -0.3323735982610E+00  0.0000000000000E+00  0.1892255399568E+00
 0.3046645085747E+00 -0.3637987082753E+00  0.0000000000000E+00  0.1762214630343E+00
 0.3349635319774E+00 -0.3921884212906E+00  0.0000000000000E+00  0.1656825478912E+00
 0.3621810011548E+00 -0.4177036222735E+00  0.0000000000000E+00  0.1575842612138E+00
 0.3864983924571E+00 -0.4405319783316E+00  0.0000000000000E+00  0.1519403324551E+00
 0.4081164669442E+00 -0.4608810595334E+00  0.0000000000000E+00  0.1487676188812E+00
 0.4272439582222E+00 -0.4789670637689E+00  0.0000000000000E+00  0.1480680590681E+00
 0.4440814638564E+00 -0.4949985784323E+00  0.0000000000000E+00  0.1498220856722E+00
 0.4588046413205E+00 -0.5091596666708E+00  0.0000000000000E+00  0.1539955565880E+00
 0.4715522976764E+00 -0.5215979666682E+00  0.0000000000000E+00  0.1605600318227E+00
 0.4824238018415E+00 -0.5324221159419E+00  0.0000000000000E+00  0.1695274893657E+00
 0.4914934653209E+00 -0.5417158728844E+00  0.0000000000000E+00  0.1810005421933E+00
 0.4988567864157E+00 -0.5495832467076E+00  0.0000000000000E+00  0.1952196643097E+00
 0.5046825116595E+00 -0.5561996605378E+00  0.0000000000000E+00  0.2125082415820E+00
 0.5092664534998E+00 -0.5618648348254E+00  0.0000000000000E+00  0.2331866955665E+00
 0.5275599332396E-01 -0.1267626063638E+00  0.0000000000000E+00  0.3279157458698E+00
 0.1029398601587E+00 -0.1739510800215E+00  0.0000000000000E+00  0.2935638865014E+00
 0.1496055856785E+00 -0.2177899025251E+00  0.0000000000000E+00  0.2653006321243E+00
 0.1928007114889E+00 -0.2583287124977E+00  0.0000000000000E+00  0.2415627957682E+00
 0.2325433030837E+00 -0.2955899412450E+00  0.0000000000000E+00  0.2213837426299E+00
 0.2688653620562E+00 -0.3296113188187E+00  0.0000000000000E+00  0.2042105222028E+00
 0.3018302276874E+00 -0.3604627626591E+00  0.0000000000000E+00  0.1897686987247E+00
 0.3315406714909E+00 -0.3882539509439E+00  0.0000000000000E+00  0.1779626402721E+00
 0.3581405169665E+00 -0.4131356140143E+00  0.0000000000000E+00  0.1687907916362E+00
 0.3818087365446E+00 -0.4352937069082E+00  0.0000000000000E+00  0.1622815895732E+00
 0.4027491127417E+00 -0.4549393352654E+00  0.0000000000000E+00  0.1584583625056E+00
 0.4211766287782E+00 -0.4722952402102E+00  0.0000000000000E+00  0.1573220412803E+00
 0.4372989400013E+00 -0.4875772187439E+00  0.0000000000000E+00  0.1588435503639E+00
 0.4512964672414E+00 -0.5009742321459E+00  0.0000000000000E+00  0.1629695745868E+00
 0.4633065317733E+00 -0.5126326786950E+00  0.0000000000000E+00  0.1696432045395E+00
 0.4734160001630E+00 -0.5226490693136E+00  0.0000000000000E+00  0.1788442579283E+00
 0.4816729032899E+00 -0.5310812501841E+00  0.0000000000000E+00  0.1906568745682E+00
 0.4881417995448E+00 -0.5380021647417E+00  0.0000000000000E+00  0.2053481332910E+00
 0.4929672856383E+00 -0.5435623064510E+00  0.0000000000000E+00  0.2233161810733E+00
 0.4964447299870E+00 -0.5480596054377E+00  0.0000000000000E+00  0.2450146833629E+00
 0.5475725081455E-01 -0.1280661185772E+00  0.0000000000000E+00  0.3514183176393E+00
 0.1036415050168E+00 -0.1740229147894E+00  0.0000000000000E+00  0.3151695011489E+00
 0.1493417383417E+00 -0.2169431453501E+00  0.0000000000000E+00  0.2850782306640E+00
 0.1917743835519E+00 -0.2567493250143E+00  0.0000000000000E+00  0.2595503374906E+00
 0.2308611240394E+00 -0.2933706944137E+00  0.0000000000000E+00  0.2376360047176E+00
 0.2665687339759E+00 -0.3267823871883E+00  0.0000000000000E+00  0.2188172479693E+00
 0.2989192266445E+00 -0.3570151845838E+00  0.0000000000000E+00  0.2028583022590E+00
 0.3279922050521E+00 -0.3841573408684E+00  0.0000000000000E+00  0.1897001014797E+00
 0.3539219347183E+00 -0.4083512835799E+00  0.0000000000000E+00  0.1793697192767E+00
 0.3768867299098E+00 -0.4297831385965E+00  0.0000000000000E+00  0.1719124775545E+00
 0.3970949165583E+00 -0.4486690377063E+00  0.0000000000000E+00  0.1673584847255E+00
 0.4147690811987E+00 -0.4652395214330E+00  0.0000000000000E+00  0.1657076350896E+00
 0.4301255819462E+00 -0.4797190897041E+00  0.0000000000000E+00  0.1669213184941E+00
 0.4433520067730E+00 -0.4923039029655E+00  0.0000000000000E+00  0.1709260526137E+00
 0.4545871536033E+00 -0.5031421551891E+00  0.0000000000000E+00  0.1776317260629E+00
 0.4639068306879E+00 -0.5123200558487E+00  0.0000000000000E+00  0.1869741478612E+00
 0.4713287519944E+00 -0.5198660711046E+00  0.0000000000000E+00  0.1990014298169E+00
 0.4768769050285E+00 -0.5258127969516E+00  0.0000000000000E+00  0.2139967410922E+00
 0.4806568334952E+00 -0.5302709355504E+00  0.0000000000000E+00  0.2324336446782E+00
 0.4829479591726E+00 -0.5335209119679E+00  0.0000000000000E+00  0.2549195746580E+00
 0.5689964760901E-01 -0.1294803363251E+00  0.0000000000000E+00  0.3743511349405E+00
 0.1044505733053E+00 -0.1741732160497E+00  0.0000000000000E+00  0.3363887203118E+00
 0.1491649260341E+00 -0.2161548999365E+00  0.0000000000000E+00  0.3045528774308E+00
 0.1908150212518E+00 -0.2552079692674E+00  0.0000000000000E+00  0.2772410965145E+00
 0.2292190933663E+00 -0.2911615848573E+00  0.0000000000000E+00  0.2535466916931E+00
 0.2642765382142E+00 -0.3239263045513E+00  0.0000000000000E+00  0.2330086402336E+00
 0.2959686759358E+00 -0.3534946616381E+00  0.0000000000000E+00  0.2154453882304E+00
 0.3243539847832E+00 -0.3799357127408E+00  0.0000000000000E+00  0.2008446476560E+00
 0.3495598539436E+00 -0.4033863886965E+00  0.0000000000000E+00  0.1892676542281E+00
 0.3717663753931E+00 -0.4240354558074E+00  0.0000000000000E+00  0.1807779242974E+00
 0.3911880511757E+00 -0.4421056699829E+00  0.0000000000000E+00  0.1754115493522E+00
 0.4080560963207E+00 -0.4578362608100E+00  0.0000000000000E+00  0.1731666800030E+00
 0.4225966331057E+00 -0.4714612675794E+00  0.0000000000000E+00  0.1739955693270E+00
 0.4350066287409E+00 -0.4831859585196E+00  0.0000000000000E+00  0.1778059781108E+00
 0.4454305386355E+00 -0.4931644704117E+00  0.0000000000000E+00  0.1844733476963E+00
 0.4539374301758E+00 -0.5014774650268E+00  0.0000000000000E+00  0.1938783870956E+00
 0.4605130000346E+00 -0.5081234238544E+00  0.0000000000000E+00  0.2060088017034E+00
 0.4651305911408E+00 -0.5130852328692E+00  0.0000000000000E+00  0.2211420111228E+00
 0.4678371147714E+00 -0.5164139199101E+00  0.0000000000000E+00  0.2398171576585E+00
 0.4688761402000E+00 -0.5183516893210E+00  0.0000000000000E+00  0.2628137641704E+00
 0.5918057111085E-01 -0.1310074791648E+00  0.0000000000000E+00  0.3966942339789E+00
 0.1053789863293E+00 -0.1744181189385E+00  0.0000000000000E+00  0.3572142775318E+00
 0.1491008349297E+00 -0.2154544890095E+00  0.0000000000000E+00  0.3237175005366E+00
 0.1899579659347E+00 -0.2537431411851E+00  0.0000000000000E+00  0.2946186579401E+00
 0.2276572812267E+00 -0.2890052174857E+00  0.0000000000000E+00  0.2690866242416E+00
 0.2620297253119E+00 -0.3210860361059E+00  0.0000000000000E+00  0.2467440598926E+00
 0.2930181650461E+00 -0.3499423437322E+00  0.0000000000000E+00  0.2274810119383E+00
 0.3206634198097E+00 -0.3756277551857E+00  0.0000000000000E+00  0.2113426491971E+00
 0.3450898354629E+00 -0.3982776219433E+00  0.0000000000000E+00  0.1984294270128E+00
 0.3664824630688E+00 -0.4180865940368E+00  0.0000000000000E+00  0.1888231176260E+00
 0.3850637872955E+00 -0.4352858258475E+00  0.0000000000000E+00  0.1825632064652E+00
 0.4010741827410E+00 -0.4501236191644E+00  0.0000000000000E+00  0.1796438656119E+00
 0.4147495404158E+00 -0.4628432421184E+00  0.0000000000000E+00  0.1800082055646E+00
 0.4262971112300E+00 -0.4736595666101E+00  0.0000000000000E+00  0.1835487116028E+00
 0.4358714886556E+00 -0.4827364723500E+00  0.0000000000000E+00  0.1901120713409E+00
 0.4435433602793E+00 -0.4901580022194E+00  0.0000000000000E+00  0.1995193354350E+00
 0.4492706681491E+00 -0.4958984901606E+00  0.0000000000000E+00  0.2116688043236E+00
 0.4529693360042E+00 -0.4998865838940E+00  0.0000000000000E+00  0.2267910115629E+00
 0.4546013786567E+00 -0.5020869676373E+00  0.0000000000000E+00  0.2454552541896E+00
 0.4543479256911E+00 -0.5026732181300E+00  0.0000000000000E+00  0.2686283334280E+00
 0.6159635217842E-01 -0.1326487846779E+00  0.0000000000000E+00  0.4184322488710E+00
 0.1064388755269E+00 -0.1747739671313E+00  0.0000000000000E+00  0.3776481232055E+00
 0.1491784451160E+00 -0.2148750956174E+00  0.0000000000000E+00  0.3425725759361E+00
 0.1892434957001E+00 -0.2523985309826E+00  0.0000000000000E+00  0.3116685749285E+00
 0.2262204811782E+00 -0.2869492519467E+00  0.0000000000000E+00  0.2842238787813E+00
 0.2598728053622E+00 -0.3183081354320E+00  0.0000000000000E+00  0.2599776634753E+00
 0.2901095410513E+00 -0.3464016987965E+00  0.0000000000000E+00  0.2389108063279E+00
 0.3169590341186E+00 -0.3712732443334E+00  0.0000000000000E+00  0.2211358907682E+00
 0.3405476955705E+00 -0.3930618682501E+00  0.0000000000000E+00  0.2067973539734E+00
 0.3610697505640E+00 -0.4119723688882E+00  0.0000000000000E+00  0.1959935332347E+00
 0.3787577947112E+00 -0.4282464188238E+00  0.0000000000000E+00  0.1887622214469E+00
 0.3938614020642E+00 -0.4421413045623E+00  0.0000000000000E+00  0.1850887362354E+00
 0.4066247207261E+00 -0.4539076669996E+00  0.0000000000000E+00  0.1849051211721E+00
 0.4172639767196E+00 -0.4637680232368E+00  0.0000000000000E+00  0.1880927141777E+00
 0.4259454961421E+00 -0.4718970159626E+00  0.0000000000000E+00  0.1944807649230E+00
 0.4327525810258E+00 -0.4783908316743E+00  0.0000000000000E+00  0.2038465557378E+00
 0.4376319198155E+00 -0.4832203421619E+00  0.0000000000000E+00  0.2159788412244E+00
 0.4404493317904E+00 -0.4862710126026E+00  0.0000000000000E+00  0.2309942043521E+00
 0.4410517994834E+00 -0.4873939733999E+00  0.0000000000000E+00  0.2493955456622E+00
 0.4395130894961E+00 -0.4866409075015E+00  0.0000000000000E+00  0.2723206667155E+00
 0.6414097864085E-01 -0.1344015513204E+00  0.0000000000000E+00  0.4395580259487E+00
 0.1076421101579E+00 -0.1752578616189E+00  0.0000000000000E+00  0.3977085322804E+00
 0.1494316733815E+00 -0.2144546679371E+00  0.0000000000000E+00  0.3611306589471E+00
 0.1887189904058E+00 -0.2512262886025E+00  0.0000000000000E+00  0.3283782339370E+00
 0.2249590848855E+00 -0.2850466116532E+00  0.0000000000000E+00  0.2989204480954E+00
 0.2578538877696E+00 -0.3156429816315E+00  0.0000000000000E+00  0.2726570261318E+00
 0.2872868559122E+00 -0.3429184039646E+00  0.0000000000000E+00  0.2496730374252E+00
 0.3132799244148E+00 -0.3669125012326E+00  0.0000000000000E+00  0.2301597663299E+00
 0.3359685984136E+00 -0.3877752330009E+00  0.0000000000000E+00  0.2143100444645E+00
 0.3555618597077E+00 -0.4057273288263E+00  0.0000000000000E+00  0.2022347028811E+00
 0.3723050155296E+00 -0.4210234957928E+00  0.0000000000000E+00  0.1939613800802E+00
 0.3864566278063E+00 -0.4339296803394E+00  0.0000000000000E+00  0.1894584344696E+00
 0.3982661343883E+00 -0.4447007885167E+00  0.0000000000000E+00  0.1886405849564E+00
 0.4079539231494E+00 -0.4535613261595E+00  0.0000000000000E+00  0.1913798831977E+00
 0.4156959599960E+00 -0.4606932611586E+00  0.0000000000000E+00  0.1975024846248E+00
 0.4215897424539E+00 -0.4662067598298E+00  0.0000000000000E+00  0.2067677802338E+00
 0.4255986405223E+00 -0.4700863124643E+00  0.0000000000000E+00  0.2189089804014E+00
 0.4275939706596E+00 -0.4722543206310E+00  0.0000000000000E+00  0.2338594208668E+00
 0.4272928562437E+00 -0.4724373934386E+00  0.0000000000000E+00  0.2518093600113E+00
 0.4245844555714E+00 -0.4704765391185E+00  0.0000000000000E+00  0.2739341611761E+00
 0.6680057438468E-01 -0.1362571303386E+00  0.0000000000000E+00  0.4600637559768E+00
 0.1089973950980E+00 -0.1758772941236E+00  0.0000000000000E+00  0.4174522993930E+00
 0.1499067006380E+00 -0.2142517170359E+00  0.0000000000000E+00  0.3794278891561E+00
 0.1884423832089E+00 -0.2502862661585E+00  0.0000000000000E+00  0.3447228281681E+00
 0.2239279907097E+00 -0.2833554089522E+00  0.0000000000000E+00  0.3131324614720E+00
 0.2560253968373E+00 -0.3131452064001E+00  0.0000000000000E+00  0.2847218229967E+00
 0.2845965157767E+00 -0.3395407952344E+00  0.0000000000000E+00  0.2596958543182E+00
 0.3096650347974E+00 -0.3625854503232E+00  0.0000000000000E+00  0.2383402889804E+00
 0.3313858281391E+00 -0.3824517600609E+00  0.0000000000000E+00  0.2209011574323E+00
 0.3499899820321E+00 -0.3993834681362E+00  0.0000000000000E+00  0.2074917112709E+00
 0.3657381247590E+00 -0.4136506287543E+00  0.0000000000000E+00  0.1981178558022E+00
 0.3788978124835E+00 -0.4255279485979E+00  0.0000000000000E+00  0.1927201931098E+00
 0.3897206514217E+00 -0.4352713504359E+00  0.0000000000000E+00  0.1911843180867E+00
 0.3984225818075E+00 -0.4430988271613E+00  0.0000000000000E+00  0.1933645581369E+00
 0.4051791522465E+00 -0.4491866462851E+00  0.0000000000000E+00  0.1990993695217E+00
 0.4101014326258E+00 -0.4536563609709E+00  0.0000000000000E+00  0.2081598677949E+00
 0.4131480839665E+00 -0.4564938307342E+00  0.0000000000000E+00  0.2202736595218E+00
 0.4143222732666E+00 -0.4577172824402E+00  0.0000000000000E+00  0.2354827372343E+00
 0.4133888371889E+00 -0.4572606135258E+00  0.0000000000000E+00  0.2531862678884E+00
 0.4099082049898E+00 -0.4545558920794E+00  0.0000000000000E+00  0.2737442539312E+00
 0.6954139636194E-01 -0.1381124411042E+00  0.0000000000000E+00  0.4801251668361E+00
 0.1105438407901E+00 -0.1767242326287E+00  0.0000000000000E+00  0.4371230292994E+00
 0.1506882828099E+00 -0.2143470407239E+00  0.0000000000000E+00  0.3974474982003E+00
 0.1884715526502E+00 -0.2496403892384E+00  0.0000000000000E+00  0.3606653415039E+00
 0.2231869181238E+00 -0.2819364864620E+00  0.0000000000000E+00  0.3268171302404E+00
 0.2544467873944E+00 -0.3108791526513E+00  0.0000000000000E+00  0.2961042010278E+00
 0.2820877872521E+00 -0.3363193152308E+00  0.0000000000000E+00  0.2688883725093E+00
 0.3061512162694E+00 -0.3583294571531E+00  0.0000000000000E+00  0.2455917216323E+00
 0.3268294405311E+00 -0.3771222440323E+00  0.0000000000000E+00  0.2264985981428E+00
 0.3443814882790E+00 -0.3929686991409E+00  0.0000000000000E+00  0.2117082991346E+00
 0.3590856680744E+00 -0.4061571401291E+00  0.0000000000000E+00  0.2011927062384E+00
 0.3712193325348E+00 -0.4169713447432E+00  0.0000000000000E+00  0.1948521726055E+00
 0.3810343769472E+00 -0.4256668737007E+00  0.0000000000000E+00  0.1925273798126E+00
 0.3887349647715E+00 -0.4324476941333E+00  0.0000000000000E+00  0.1940335241075E+00
 0.3944732748640E+00 -0.4374635859197E+00  0.0000000000000E+00  0.1992049509908E+00
 0.3983562704717E+00 -0.4408150486275E+00  0.0000000000000E+00  0.2078921522198E+00
 0.4003436537068E+00 -0.4425021002830E+00  0.0000000000000E+00  0.2198265900148E+00
 0.4004216541151E+00 -0.4425536013645E+00  0.0000000000000E+00  0.2352857912629E+00
 0.3990357074483E+00 -0.4413090488401E+00  0.0000000000000E+00  0.2542775655857E+00
 0.3965290562618E+00 -0.4398655487161E+00  0.0000000000000E+00  0.2726735359649E+00
 0.3518474104214E+00 -0.5337540688372E+00  0.0000000000000E+00 -0.5414386199223E+00
 0.3572870663979E+00 -0.3921481530540E+00  0.0000000000000E+00  0.2252443893774E+00
 0.2104024874265E+00 -0.2368508675970E+00  0.0000000000000E+00  0.2043712280622E+00
 0.1380522319821E+00 -0.1570198257751E+00  0.0000000000000E+00  0.1580009714082E+00
 0.8755388789384E-01 -0.1008599564823E+00  0.0000000000000E+00  0.1179531302467E+00
 0.5054683679472E-01 -0.5850987389329E-01  0.0000000000000E+00  0.7397122611228E-01
 0.2461202775349E-01 -0.2768343390274E-01  0.0000000000000E+00  0.3492649762609E-01
 0.6990562853768E-02 -0.6957050578896E-02  0.0000000000000E+00  0.4414723721846E-02
-0.6598090609858E-02  0.8477646607302E-02  0.0000000000000E+00 -0.1728347734760E-01
-0.1809098453522E-01  0.2135743842044E-01  0.0000000000000E+00 -0.3074899937849E-01
-0.2807191176816E-01  0.3248561987548E-01  0.0000000000000E+00 -0.3725195487841E-01
-0.3651098296913E-01  0.4188448186061E-01  0.0000000000000E+00 -0.3787923388138E-01
-0.4312752139673E-01  0.4920042336175E-01  0.0000000000000E+00 -0.3369588829822E-01
-0.4736089534635E-01  0.5385826325338E-01  0.0000000000000E+00 -0.2501182139110E-01
-0.4867392116561E-01  0.5532310110091E-01  0.0000000000000E+00 -0.1243799375841E-01
-0.4630687388486E-01  0.5286198191924E-01  0.0000000000000E+00  0.2061524162203E-02
-0.3965867746596E-01  0.4529754277352E-01  0.0000000000000E+00  0.1852256955971E-01
-0.2813814982891E-01  0.3288914809791E-01  0.0000000000000E+00  0.4005813657270E-01
-0.1362352852482E-01  0.1763365230140E-01  0.0000000000000E+00  0.5990778960971E-01
 0.4326125184788E-02 -0.5178423486587E-03  0.0000000000000E+00  0.6908947474071E-01
 0.3217969693787E+00 -0.4335649286016E+00  0.0000000000000E+00 -0.7347896514313E+00
 0.3767825968663E+00 -0.4447886707360E+00  0.0000000000000E+00 -0.9433469501433E-01
 0.2631569389029E+00 -0.2943221283275E+00  0.0000000000000E+00  0.1198707164269E+00
 0.1771922345905E+00 -0.2001416459967E+00  0.0000000000000E+00  0.1273998322502E+00
 0.1224359946699E+00 -0.1389235421068E+00  0.0000000000000E+00  0.1042750745721E+00
 0.8257116233299E-01 -0.9365201884362E-01  0.0000000000000E+00  0.7191196103561E-01
 0.5384034307333E-01 -0.6032200020789E-01  0.0000000000000E+00  0.4031815412150E-01
 0.3297796955929E-01 -0.3605547114720E-01  0.0000000000000E+00  0.1378200225678E-01
 0.1681055040999E-01 -0.1765164800252E-01  0.0000000000000E+00 -0.7743968835341E-02
 0.3477393297412E-02 -0.2757879251272E-02  0.0000000000000E+00 -0.2334077226971E-01
-0.7945101495908E-02  0.9888903115454E-02  0.0000000000000E+00 -0.3256354953226E-01
-0.1775286696405E-01  0.2067897516531E-01  0.0000000000000E+00 -0.3564716094044E-01
-0.2592702494579E-01  0.2960672034336E-01  0.0000000000000E+00 -0.3321750847380E-01
-0.3210140523259E-01  0.3630183787080E-01  0.0000000000000E+00 -0.2563853634378E-01
-0.3570359622718E-01  0.4019004802639E-01  0.0000000000000E+00 -0.1332469394550E-01
-0.3621853775801E-01  0.4066458907299E-01  0.0000000000000E+00  0.2963894530558E-02
-0.3346147939414E-01  0.3762127897454E-01  0.0000000000000E+00  0.2231042152425E-01
-0.2595857033132E-01  0.2965157700728E-01  0.0000000000000E+00  0.4484364967177E-01
-0.1381451815955E-01  0.1706825732548E-01  0.0000000000000E+00  0.6559397944031E-01
 0.2243252671225E-02  0.9443532341051E-03  0.0000000000000E+00  0.7634389835410E-01
 0.2793044289191E+00 -0.3707333465027E+00  0.0000000000000E+00 -0.7641720553790E+00
 0.3557708039256E+00 -0.4218283662235E+00  0.0000000000000E+00 -0.2803488302438E+00
 0.2916728004310E+00 -0.3341304820180E+00  0.0000000000000E+00 -0.1600594936796E-01
 0.2145726657592E+00 -0.2418235791292E+00  0.0000000000000E+00  0.7464532679567E-01
 0.1563524098343E+00 -0.1763803881436E+00  0.0000000000000E+00  0.8145331307767E-01
 0.1142638045194E+00 -0.1285621465211E+00  0.0000000000000E+00  0.6394597216106E-01
 0.8315527520788E-01 -0.9287937369440E-01  0.0000000000000E+00  0.4041294211559E-01
 0.6001646427736E-01 -0.6624214252470E-01  0.0000000000000E+00  0.1802417084838E-01
 0.4179235099082E-01 -0.4551911657298E-01  0.0000000000000E+00 -0.1857004385878E-02
 0.2666691805430E-01 -0.2861648929653E-01  0.0000000000000E+00 -0.1802973644416E-01
 0.1368411306033E-01 -0.1429824735703E-01  0.0000000000000E+00 -0.2918044808358E-01
 0.2385480403523E-02 -0.1957384058938E-02  0.0000000000000E+00 -0.3465267094203E-01
-0.7398835553798E-02  0.8632849948898E-02  0.0000000000000E+00 -0.3447600049672E-01
-0.1550611502065E-01  0.1733609630332E-01  0.0000000000000E+00 -0.2876439769384E-01
-0.2151131651517E-01  0.2371619563941E-01  0.0000000000000E+00 -0.1765871444005E-01
-0.2499411856848E-01  0.2735313925655E-01  0.0000000000000E+00 -0.1695820745038E-02
-0.2579244467112E-01  0.2813638360905E-01  0.0000000000000E+00  0.1818226530587E-01
-0.2213730697910E-01  0.2438547259969E-01  0.0000000000000E+00  0.4127503600046E-01
-0.1313176395368E-01  0.1522002658187E-01  0.0000000000000E+00  0.6235431223751E-01
 0.1057273367190E-03  0.1978730253422E-02  0.0000000000000E+00  0.7333142884258E-01
 0.2448187874983E+00 -0.3256449989644E+00  0.0000000000000E+00 -0.7627694246172E+00
 0.3269728173766E+00 -0.3908178616305E+00  0.0000000000000E+00 -0.3914883289599E+00
 0.2997327749856E+00 -0.3465593299957E+00  0.0000000000000E+00 -0.1346598369103E+00
 0.2428134141971E+00 -0.2758001770864E+00  0.0000000000000E+00  0.6426062254192E-03
 0.1882687558518E+00 -0.2121007027800E+00  0.0000000000000E+00  0.4620230787605E-01
 0.1451697612913E+00 -0.1628411604993E+00  0.0000000000000E+00  0.4845269073623E-01
 0.1124498382477E+00 -0.1254131443220E+00  0.0000000000000E+00  0.3495905488054E-01
 0.8762230948902E-01 -0.9699087320932E-01  0.0000000000000E+00  0.1758904480524E-01
 0.6784235986189E-01 -0.7453625978912E-01  0.0000000000000E+00  0.1599903151011E-03
 0.5121182834921E-01 -0.5594185182734E-01  0.0000000000000E+00 -0.1549392168230E-01
 0.3676432756794E-01 -0.4002523779024E-01  0.0000000000000E+00 -0.2768378638637E-01
 0.2399621062371E-01 -0.2613374642533E-01  0.0000000000000E+00 -0.3517193973574E-01
 0.1262954945113E-01 -0.1389965855286E-01  0.0000000000000E+00 -0.3739276393367E-01
 0.2646000523408E-02 -0.3258382945671E-02  0.0000000000000E+00 -0.3409209584837E-01
-0.5679756130184E-02  0.5532039058652E-02  0.0000000000000E+00 -0.2518111807998E-01
-0.1200118709939E-01  0.1214271757063E-01  0.0000000000000E+00 -0.1097041011255E-01
-0.1619618353298E-01  0.1652926269003E-01  0.0000000000000E+00  0.7804625523785E-02
-0.1633282883470E-01  0.1680714819329E-01  0.0000000000000E+00  0.3000973288988E-01
-0.1083216211235E-01  0.1134583494787E-01  0.0000000000000E+00  0.5017414651197E-01
-0.8469553972166E-03  0.1342178553986E-02  0.0000000000000E+00  0.6003276397420E-01
 0.2169060083999E+00 -0.2915429119637E+00  0.0000000000000E+00 -0.7502672430486E+00
 0.2984590478296E+00 -0.3604770286015E+00  0.0000000000000E+00 -0.4613607325169E+00
 0.2965476007770E+00 -0.3456299527395E+00  0.0000000000000E+00 -0.2283615017833E+00
 0.2604621657295E+00 -0.2976601710223E+00  0.0000000000000E+00 -0.7577583746617E-01
 0.2154231976379E+00 -0.2433896225622E+00  0.0000000000000E+00 -0.7041840203907E-03
 0.1744624748975E+00 -0.1956424095740E+00  0.0000000000000E+00  0.2415914406604E-01
 0.1412874055623E+00 -0.1575460258734E+00  0.0000000000000E+00  0.2323596630247E-01
 0.1154323637197E+00 -0.1279614710847E+00  0.0000000000000E+00  0.1232650930904E-01
 0.9455529127616E-01 -0.1042627396251E+00  0.0000000000000E+00 -0.1754299892673E-02
 0.7678099209207E-01 -0.8436964020854E-01  0.0000000000000E+00 -0.1604876638356E-01
 0.6111627203647E-01 -0.6710593451620E-01  0.0000000000000E+00 -0.2848537213838E-01
 0.4704128801706E-01 -0.5181461818932E-01  0.0000000000000E+00 -0.3746752896712E-01
 0.3422608784289E-01 -0.3806402808501E-01  0.0000000000000E+00 -0.4196879909865E-01
 0.2252311764909E-01 -0.2564236958271E-01  0.0000000000000E+00 -0.4137631147724E-01
 0.1207477195092E-01 -0.1465802464311E-01  0.0000000000000E+00 -0.3535048016022E-01
 0.3146120041519E-02 -0.5339153550795E-02  0.0000000000000E+00 -0.2395852269637E-01
-0.4195420159817E-02  0.2333150603261E-02  0.0000000000000E+00 -0.7659906263553E-02
-0.7972389006291E-02  0.6401946013051E-02  0.0000000000000E+00  0.1220306365113E-01
-0.6092187506073E-02  0.4658770977963E-02  0.0000000000000E+00  0.2999880129448E-01
 0.5596086512869E-03 -0.2088781553635E-02  0.0000000000000E+00  0.3739971085835E-01
 0.1941788500035E+00 -0.2648792107604E+00  0.0000000000000E+00 -0.7338789992604E+00
 0.2724011312416E+00 -0.3331696634597E+00  0.0000000000000E+00 -0.5058194161115E+00
 0.2875726742004E+00 -0.3379987597042E+00  0.0000000000000E+00 -0.3002430832912E+00
 0.2695717741017E+00 -0.3099041048061E+00  0.0000000000000E+00 -0.1459393044098E+00
 0.2364054485653E+00 -0.2680820954720E+00  0.0000000000000E+00 -0.5295101802934E-01
 0.2007436506915E+00 -0.2255052169956E+00  0.0000000000000E+00 -0.8339668062676E-02
 0.1689501600448E+00 -0.1885513800410E+00  0.0000000000000E+00  0.4762714217323E-02
 0.1429633633972E+00 -0.1586833723439E+00  0.0000000000000E+00  0.1884811902124E-02
 0.1215338890150E+00 -0.1342913478675E+00  0.0000000000000E+00 -0.7768361441601E-02
 0.1030287918145E+00 -0.1135316683476E+00  0.0000000000000E+00 -0.1987053431011E-01
 0.8648327759285E-01 -0.9526790910302E-01  0.0000000000000E+00 -0.3182151044434E-01
 0.7137493829089E-01 -0.7884953800409E-01  0.0000000000000E+00 -0.4172279836001E-01
 0.5735215679548E-01 -0.6381976981451E-01  0.0000000000000E+00 -0.4820907350274E-01
 0.4418350377285E-01 -0.4987394126391E-01  0.0000000000000E+00 -0.5036766446512E-01
 0.3190438574324E-01 -0.3700081888349E-01  0.0000000000000E+00 -0.4762078007104E-01
 0.2069916566058E-01 -0.2533590672369E-01  0.0000000000000E+00 -0.3978935891095E-01
 0.1057295697461E-01 -0.1478912444152E-01  0.0000000000000E+00 -0.2703992472681E-01
 0.3455396730915E-02 -0.7304484195449E-02  0.0000000000000E+00 -0.1080042218639E-01
 0.1843020864891E-02 -0.5540901018211E-02  0.0000000000000E+00  0.3313462362925E-02
 0.5355637676529E-02 -0.9279793771361E-02  0.0000000000000E+00  0.7138364725370E-02
 0.1754528869219E+00 -0.2435577627786E+00  0.0000000000000E+00 -0.7162931710896E+00
 0.2492872984564E+00 -0.3092659628369E+00  0.0000000000000E+00 -0.5336456599391E+00
 0.2758418186391E+00 -0.3272442111122E+00  0.0000000000000E+00 -0.3544804305562E+00
 0.2724982490562E+00 -0.3152545950390E+00  0.0000000000000E+00 -0.2067573743023E+00
 0.2513419883731E+00 -0.2862255209926E+00  0.0000000000000E+00 -0.1053249242190E+00
 0.2229788682557E+00 -0.2511544807509E+00  0.0000000000000E+00 -0.4625129330503E-01
 0.1945043729225E+00 -0.2174410451848E+00  0.0000000000000E+00 -0.1996087935269E-01
 0.1695783111871E+00 -0.1885036802663E+00  0.0000000000000E+00 -0.1385206319001E-01
 0.1483039887434E+00 -0.1641388739453E+00  0.0000000000000E+00 -0.1804018291188E-01
 0.1295704314066E+00 -0.1430282013510E+00  0.0000000000000E+00 -0.2709128512554E-01
 0.1125534745451E+00 -0.1241842932915E+00  0.0000000000000E+00 -0.3782336070008E-01
 0.9676793381679E-01 -0.1069992265714E+00  0.0000000000000E+00 -0.4803157226778E-01
 0.8186676803306E-01 -0.9102048843051E-01  0.0000000000000E+00 -0.5607989699243E-01
 0.6757077463761E-01 -0.7589196209519E-01  0.0000000000000E+00 -0.6081812775920E-01
 0.5383428823100E-01 -0.6151480821252E-01  0.0000000000000E+00 -0.6146514993869E-01
 0.4076919945546E-01 -0.4794458954546E-01  0.0000000000000E+00 -0.5761491822605E-01
 0.2832334750883E-01 -0.3502821366708E-01  0.0000000000000E+00 -0.4915158353108E-01
 0.1830241811560E-01 -0.2462435809265E-01  0.0000000000000E+00 -0.3750774941493E-01
 0.1352543270700E-01 -0.1974734400632E-01  0.0000000000000E+00 -0.2808156801019E-01
 0.1427371940311E-01 -0.2088355513475E-01  0.0000000000000E+00 -0.2857564273501E-01
 0.1598388222396E+00 -0.2262186418632E+00  0.0000000000000E+00 -0.6986116077628E+00
 0.2290419827214E+00 -0.2885837770508E+00  0.0000000000000E+00 -0.5500783578769E+00
 0.2630540520211E+00 -0.3152882443065E+00  0.0000000000000E+00 -0.3947160095175E+00
 0.2711754404766E+00 -0.3159125692765E+00  0.0000000000000E+00 -0.2576349370683E+00
 0.2610413463221E+00 -0.2986916682256E+00  0.0000000000000E+00 -0.1545058194380E+00
 0.2408173502809E+00 -0.2721458700226E+00  0.0000000000000E+00 -0.8644015548112E-01
 0.2171614108888E+00 -0.2433293278055E+00  0.0000000000000E+00 -0.4935505443149E-01
 0.1945652175866E+00 -0.2166704089854E+00  0.0000000000000E+00 -0.3441056612721E-01
 0.1743086710669E+00 -0.1932279207698E+00  0.0000000000000E+00 -0.3249574212176E-01
 0.1559588374202E+00 -0.1723969153207E+00  0.0000000000000E+00 -0.3774256983809E-01
 0.1389576693779E+00 -0.1534716997961E+00  0.0000000000000E+00 -0.4654005460014E-01
 0.1229197540497E+00 -0.1359514249097E+00  0.0000000000000E+00 -0.5641287811631E-01
 0.1075382873231E+00 -0.1194255937851E+00  0.0000000000000E+00 -0.6550312019548E-01
 0.9252048961536E-01 -0.1035242137766E+00  0.0000000000000E+00 -0.7247403861286E-01
 0.7776523161079E-01 -0.8809074492622E-01  0.0000000000000E+00 -0.7638246488768E-01
 0.6332486545126E-01 -0.7311808544022E-01  0.0000000000000E+00 -0.7662778888484E-01
 0.4910251178840E-01 -0.5840565769210E-01  0.0000000000000E+00 -0.7283650365648E-01
 0.3672087851362E-01 -0.4566987036682E-01  0.0000000000000E+00 -0.6638775492936E-01
 0.2924690379500E-01 -0.3819130259149E-01  0.0000000000000E+00 -0.6226593437284E-01
 0.2769273631878E-01 -0.3719620954516E-01  0.0000000000000E+00 -0.6741712492058E-01
 0.1466672109862E+00 -0.2119250281832E+00  0.0000000000000E+00 -0.6812530067934E+00
 0.2114037881573E+00 -0.2707792612097E+00  0.0000000000000E+00 -0.5584447223819E+00
 0.2501643221273E+00 -0.3031848695853E+00  0.0000000000000E+00 -0.4238500454142E+00
 0.2670491868218E+00 -0.3134889467946E+00  0.0000000000000E+00 -0.2990408883363E+00
 0.2664932318155E+00 -0.3065650381645E+00  0.0000000000000E+00 -0.1986517659216E+00
 0.2544128001518E+00 -0.2886190351955E+00  0.0000000000000E+00 -0.1262763924202E+00
 0.2364808176239E+00 -0.2657166799286E+00  0.0000000000000E+00 -0.8140871342608E-01
 0.2173066796752E+00 -0.2425144567225E+00  0.0000000000000E+00 -0.5871348610657E-01
 0.1989707633294E+00 -0.2209500073912E+00  0.0000000000000E+00 -0.5067240052048E-01
 0.1816986927371E+00 -0.2011217162495E+00  0.0000000000000E+00 -0.5164699631975E-01
 0.1652716564989E+00 -0.1826900051504E+00  0.0000000000000E+00 -0.5790122839226E-01
 0.1494654061448E+00 -0.1653279235216E+00  0.0000000000000E+00 -0.6680771900269E-01
 0.1340550537158E+00 -0.1487122300135E+00  0.0000000000000E+00 -0.7635609864967E-01
 0.1187703081831E+00 -0.1324978479497E+00  0.0000000000000E+00 -0.8507482998907E-01
 0.1034813479733E+00 -0.1165004838823E+00  0.0000000000000E+00 -0.9190151040466E-01
 0.8819644665244E-01 -0.1006692424968E+00  0.0000000000000E+00 -0.9607934832377E-01
 0.7278924938800E-01 -0.8477444406587E-01  0.0000000000000E+00 -0.9700966292755E-01
 0.5865628282422E-01 -0.7034601785803E-01  0.0000000000000E+00 -0.9597301379737E-01
 0.4903394755310E-01 -0.6083877945958E-01  0.0000000000000E+00 -0.9737363686472E-01
 0.4565411442215E-01 -0.5818048479072E-01  0.0000000000000E+00 -0.1071511070005E+00
 0.1354286501246E+00 -0.2000025973529E+00  0.0000000000000E+00 -0.6643265100345E+00
 0.1960622192289E+00 -0.2554821275808E+00  0.0000000000000E+00 -0.5609528600149E+00
 0.2377017529626E+00 -0.2915072906051E+00  0.0000000000000E+00 -0.4441431100030E+00
 0.2611608592858E+00 -0.3091261297560E+00  0.0000000000000E+00 -0.3318520796479E+00
 0.2686425242629E+00 -0.3108737512923E+00  0.0000000000000E+00 -0.2369045918082E+00
 0.2641976697884E+00 -0.3010296348131E+00  0.0000000000000E+00 -0.1638354864819E+00
 0.2523558576898E+00 -0.2844731243703E+00  0.0000000000000E+00 -0.1141706717251E+00
 0.2373888740591E+00 -0.2655834643648E+00  0.0000000000000E+00 -0.8535575227080E-01
 0.2217847658672E+00 -0.2467649679857E+00  0.0000000000000E+00 -0.7173369917421E-01
 0.2062941454588E+00 -0.2286810626255E+00  0.0000000000000E+00 -0.6835411404070E-01
 0.1910383293505E+00 -0.2113628085006E+00  0.0000000000000E+00 -0.7166362022808E-01
 0.1759885931217E+00 -0.1946970282327E+00  0.0000000000000E+00 -0.7905338206950E-01
 0.1610375193752E+00 -0.1784876300911E+00  0.0000000000000E+00 -0.8846263099890E-01
 0.1459722678101E+00 -0.1624523086014E+00  0.0000000000000E+00 -0.9835060659548E-01
 0.1306619668703E+00 -0.1464092003148E+00  0.0000000000000E+00 -0.1075844624906E+00
 0.1150874738312E+00 -0.1302829837915E+00  0.0000000000000E+00 -0.1152951166458E+00
 0.9910728422136E-01 -0.1138320616179E+00  0.0000000000000E+00 -0.1206977837412E+00
 0.8386279226516E-01 -0.9836719408607E-01  0.0000000000000E+00 -0.1249383978690E+00
 0.7267279597183E-01 -0.8741891741565E-01  0.0000000000000E+00 -0.1317168485948E+00
 0.6791125023681E-01 -0.8351954660350E-01  0.0000000000000E+00 -0.1457900215369E+00
 0.1257298689435E+00 -0.1899498479468E+00  0.0000000000000E+00 -0.6477966135697E+00
 0.1827097317638E+00 -0.2423413134501E+00  0.0000000000000E+00 -0.5591164016636E+00
 0.2259445751428E+00 -0.2805529274557E+00  0.0000000000000E+00 -0.4573533972594E+00
 0.2542455308600E+00 -0.3036210630603E+00  0.0000000000000E+00 -0.3570567520326E+00
 0.2683054391914E+00 -0.3124984631723E+00  0.0000000000000E+00 -0.2690178633259E+00
 0.2707190127640E+00 -0.3099593044408E+00  0.0000000000000E+00 -0.1978406650244E+00
 0.2649230286197E+00 -0.2997354508904E+00  0.0000000000000E+00 -0.1459907412822E+00
 0.2546179184510E+00 -0.2856623594323E+00  0.0000000000000E+00 -0.1128755258827E+00
 0.2423790688331E+00 -0.2702727700182E+00  0.0000000000000E+00 -0.9461118620577E-01
 0.2293054930246E+00 -0.2546087810920E+00  0.0000000000000E+00 -0.8716408422831E-01
 0.2158056879908E+00 -0.2390163592931E+00  0.0000000000000E+00 -0.8738870713697E-01
 0.2020464217339E+00 -0.2235981004638E+00  0.0000000000000E+00 -0.9285797957183E-01
 0.1880566025089E+00 -0.2083074800151E+00  0.0000000000000E+00 -0.1015770142360E+00
 0.1737087896648E+00 -0.1929556295708E+00  0.0000000000000E+00 -0.1120150057514E+00
 0.1588971422785E+00 -0.1773913506382E+00  0.0000000000000E+00 -0.1230268023369E+00
 0.1435916018005E+00 -0.1615335462393E+00  0.0000000000000E+00 -0.1336835127015E+00
 0.1276465936313E+00 -0.1451423125727E+00  0.0000000000000E+00 -0.1430629566218E+00
 0.1119309854141E+00 -0.1292860212471E+00  0.0000000000000E+00 -0.1521498632601E+00
 0.9974912398099E-01 -0.1174657103550E+00  0.0000000000000E+00 -0.1638621216979E+00
 0.9399046929214E-01 -0.1126797920320E+00  0.0000000000000E+00 -0.1816818908736E+00
 0.1172632572954E+00 -0.1813843724756E+00  0.0000000000000E+00 -0.6315622696985E+00
 0.1710609393559E+00 -0.2310391869730E+00  0.0000000000000E+00 -0.5539971088763E+00
 0.2150196829618E+00 -0.2704561395084E+00  0.0000000000000E+00 -0.4648539707941E+00
 0.2468130257531E+00 -0.2975219290552E+00  0.0000000000000E+00 -0.3756223051602E+00
 0.2661507118550E+00 -0.3121553668466E+00  0.0000000000000E+00 -0.2951088370110E+00
 0.2745388597975E+00 -0.3160046107472E+00  0.0000000000000E+00 -0.2275314524998E+00
 0.2744667381251E+00 -0.3118002730699E+00  0.0000000000000E+00 -0.1755941364064E+00
 0.2689852779971E+00 -0.3027355393410E+00  0.0000000000000E+00 -0.1399329893987E+00
 0.2605340270679E+00 -0.2912348739829E+00  0.0000000000000E+00 -0.1181629337123E+00
 0.2503892077043E+00 -0.2785385863921E+00  0.0000000000000E+00 -0.1072137373124E+00
 0.2391667217486E+00 -0.2652219481190E+00  0.0000000000000E+00 -0.1044680960814E+00
 0.2272017560960E+00 -0.2515749474541E+00  0.0000000000000E+00 -0.1077971710702E+00
 0.2146592629426E+00 -0.2377019158284E+00  0.0000000000000E+00 -0.1153739829584E+00
 0.2015139993626E+00 -0.2235260960668E+00  0.0000000000000E+00 -0.1257574690286E+00
 0.1877071194182E+00 -0.2089505217837E+00  0.0000000000000E+00 -0.1378540221949E+00
 0.1732130600360E+00 -0.1939053444816E+00  0.0000000000000E+00 -0.1507373194229E+00
 0.1578889895432E+00 -0.1781613790569E+00  0.0000000000000E+00 -0.1634108156868E+00
 0.1423215018040E+00 -0.1625278014187E+00  0.0000000000000E+00 -0.1766858275809E+00
 0.1296936191838E+00 -0.1503644950905E+00  0.0000000000000E+00 -0.1926668253722E+00
 0.1232529344144E+00 -0.1449730550953E+00  0.0000000000000E+00 -0.2135481048746E+00
 0.1097855934592E+00 -0.1740089281172E+00  0.0000000000000E+00 -0.6154964709278E+00
 0.1608585605349E+00 -0.2212939358167E+00  0.0000000000000E+00 -0.5463514462172E+00
 0.2049612232351E+00 -0.2612529114707E+00  0.0000000000000E+00 -0.4677228613189E+00
 0.2392088509379E+00 -0.2911983404699E+00  0.0000000000000E+00 -0.3884396935363E+00
 0.2627076417020E+00 -0.3104080863048E+00  0.0000000000000E+00 -0.3154999761499E+00
 0.2761803838120E+00 -0.3197189188101E+00  0.0000000000000E+00 -0.2525310842928E+00
 0.2813436168207E+00 -0.3210409342170E+00  0.0000000000000E+00 -0.2020692850074E+00
 0.2806164037655E+00 -0.3169304584005E+00  0.0000000000000E+00 -0.1654005679913E+00
 0.2761691803306E+00 -0.3095608373059E+00  0.0000000000000E+00 -0.1412963077057E+00
 0.2693139233675E+00 -0.3002221870128E+00  0.0000000000000E+00 -0.1275767735237E+00
 0.2607888819723E+00 -0.2896278785393E+00  0.0000000000000E+00 -0.1221819475893E+00
 0.2510552016394E+00 -0.2782095449461E+00  0.0000000000000E+00 -0.1233384513713E+00
 0.2403981280124E+00 -0.2662061946846E+00  0.0000000000000E+00 -0.1294546837904E+00
 0.2288998546062E+00 -0.2536590597187E+00  0.0000000000000E+00 -0.1392428207190E+00
 0.2165655560717E+00 -0.2405431837692E+00  0.0000000000000E+00 -0.1517200063545E+00
 0.2033892054196E+00 -0.2268160298821E+00  0.0000000000000E+00 -0.1660311258555E+00
 0.1892346765102E+00 -0.2122648328340E+00  0.0000000000000E+00 -0.1811861292802E+00
 0.1744002228130E+00 -0.1974261146009E+00  0.0000000000000E+00 -0.1978352042747E+00
 0.1618288661339E+00 -0.1853988744490E+00  0.0000000000000E+00 -0.2172837884497E+00
 0.1549528730535E+00 -0.1796142061649E+00  0.0000000000000E+00 -0.2404850195059E+00
 0.1031029694296E+00 -0.1675890574141E+00  0.0000000000000E+00 -0.5994666003508E+00
 0.1518739448179E+00 -0.2128576780814E+00  0.0000000000000E+00 -0.5367232849783E+00
 0.1957461930212E+00 -0.2529193358623E+00  0.0000000000000E+00 -0.4668103502942E+00
 0.2316586354894E+00 -0.2848912568379E+00  0.0000000000000E+00 -0.3963037744351E+00
 0.2583835175401E+00 -0.3076886233776E+00  0.0000000000000E+00 -0.3306195882735E+00
 0.2761024742722E+00 -0.3215859752386E+00  0.0000000000000E+00 -0.2727354767593E+00
 0.2859295987303E+00 -0.3278505311004E+00  0.0000000000000E+00 -0.2248192589486E+00
 0.2897209146536E+00 -0.3284635616240E+00  0.0000000000000E+00 -0.1883920461820E+00
 0.2893154034864E+00 -0.3252781971606E+00  0.0000000000000E+00 -0.1630440546137E+00
 0.2859570088225E+00 -0.3195259291015E+00  0.0000000000000E+00 -0.1473480832285E+00
 0.2804289900561E+00 -0.3119757513117E+00  0.0000000000000E+00 -0.1397657117304E+00
 0.2732703780534E+00 -0.3031489314039E+00  0.0000000000000E+00 -0.1388830077297E+00
 0.2648607095720E+00 -0.2933913167126E+00  0.0000000000000E+00 -0.1433691926571E+00
 0.2553851003285E+00 -0.2828569549126E+00  0.0000000000000E+00 -0.1521232201810E+00
 0.2449256703959E+00 -0.2716057487612E+00  0.0000000000000E+00 -0.1643138972722E+00
 0.2335136780331E+00 -0.2596402901354E+00  0.0000000000000E+00 -0.1792218159438E+00
 0.2210265252775E+00 -0.2467724820607E+00  0.0000000000000E+00 -0.1959621987815E+00
 0.2074711977692E+00 -0.2332557066560E+00  0.0000000000000E+00 -0.2150765527377E+00
 0.1954151373236E+00 -0.2217958408524E+00  0.0000000000000E+00 -0.2371392711573E+00
 0.1882906066935E+00 -0.2157729016803E+00  0.0000000000000E+00 -0.2619393562564E+00
 0.9705988152734E-01 -0.1619377644413E+00  0.0000000000000E+00 -0.5833449504423E+00
 0.1439054717084E+00 -0.2055132357057E+00  0.0000000000000E+00 -0.5255048826057E+00
 0.1873167220851E+00 -0.2453952854202E+00  0.0000000000000E+00 -0.4627890606184E+00
 0.2243003609264E+00 -0.2787484658745E+00  0.0000000000000E+00 -0.3999104284997E+00
 0.2534828343339E+00 -0.3043192914606E+00  0.0000000000000E+00 -0.3409401997971E+00
 0.2746907337648E+00 -0.3220112374860E+00  0.0000000000000E+00 -0.2882271466226E+00
 0.2885858689359E+00 -0.3326059571577E+00  0.0000000000000E+00 -0.2435032996000E+00
 0.2965513775605E+00 -0.3375961583320E+00  0.0000000000000E+00 -0.2082562373446E+00
 0.3000828729704E+00 -0.3384979878199E+00  0.0000000000000E+00 -0.1826012591668E+00
 0.3002891002320E+00 -0.3364142176274E+00  0.0000000000000E+00 -0.1657013895079E+00
 0.2979349898314E+00 -0.3321023787229E+00  0.0000000000000E+00 -0.1564668396732E+00
 0.2935899047626E+00 -0.3261221326943E+00  0.0000000000000E+00 -0.1538095159233E+00
 0.2876952071881E+00 -0.3188910566748E+00  0.0000000000000E+00 -0.1566467475821E+00
 0.2805255236328E+00 -0.3106610114428E+00  0.0000000000000E+00 -0.1640611771131E+00
 0.2722493087728E+00 -0.3015847470770E+00  0.0000000000000E+00 -0.1753800470313E+00
 0.2629593874449E+00 -0.2917342035877E+00  0.0000000000000E+00 -0.1900628533618E+00
 0.2525682637694E+00 -0.2809669966517E+00  0.0000000000000E+00 -0.2074350525919E+00
 0.2408016482082E+00 -0.2692575963482E+00  0.0000000000000E+00 -0.2280446517800E+00
 0.2296927596626E+00 -0.2587662683216E+00  0.0000000000000E+00 -0.2518848737945E+00
 0.2224611419008E+00 -0.2526204822045E+00  0.0000000000000E+00 -0.2776619982186E+00
 0.9153115324515E-01 -0.1569046598758E+00  0.0000000000000E+00 -0.5670140356427E+00
 0.1367762470701E+00 -0.1990707396959E+00  0.0000000000000E+00 -0.5129783359963E+00
 0.1795944431420E+00 -0.2385994607143E+00  0.0000000000000E+00 -0.4561915595331E+00
 0.2172078899998E+00 -0.2728500627523E+00  0.0000000000000E+00 -0.3998612989827E+00
 0.2482252844748E+00 -0.3005326559973E+00  0.0000000000000E+00 -0.3469407873904E+00
 0.2722574714202E+00 -0.3213226161290E+00  0.0000000000000E+00 -0.2992109409681E+00
 0.2896386323060E+00 -0.3356469824837E+00  0.0000000000000E+00 -0.2579807352176E+00
 0.3013720387539E+00 -0.3446014403643E+00  0.0000000000000E+00 -0.2245532747906E+00
 0.3086306280233E+00 -0.3493823125536E+00  0.0000000000000E+00 -0.1993356154310E+00
 0.3123524842846E+00 -0.3509263760971E+00  0.0000000000000E+00 -0.1819215530140E+00
 0.3132373626990E+00 -0.3499304571516E+00  0.0000000000000E+00 -0.1715830064881E+00
 0.3118416291641E+00 -0.3469463590082E+00  0.0000000000000E+00 -0.1675061119534E+00
 0.3086311608031E+00 -0.3424233207134E+00  0.0000000000000E+00 -0.1688192460879E+00
 0.3039462530232E+00 -0.3366846234922E+00  0.0000000000000E+00 -0.1747521721688E+00
 0.2980418565756E+00 -0.3299741931353E+00  0.0000000000000E+00 -0.1847518214625E+00
 0.2911047633405E+00 -0.3224623062243E+00  0.0000000000000E+00 -0.1984427866182E+00
 0.2831333803252E+00 -0.3141057501202E+00  0.0000000000000E+00 -0.2154460909881E+00
 0.2736285980709E+00 -0.3046440487088E+00  0.0000000000000E+00 -0.2364962945454E+00
 0.2639148087265E+00 -0.2955360569350E+00  0.0000000000000E+00 -0.2613213214378E+00
 0.2567009802021E+00 -0.2893725010490E+00  0.0000000000000E+00 -0.2876383029293E+00
 0.8641577966812E-01 -0.1523679860865E+00  0.0000000000000E+00 -0.5503690148621E+00
 0.1303317050192E+00 -0.1933644873169E+00  0.0000000000000E+00 -0.4993443710327E+00
 0.1724901111825E+00 -0.2324393771135E+00  0.0000000000000E+00 -0.4474389398113E+00
 0.2104083927561E+00 -0.2672270644649E+00  0.0000000000000E+00 -0.3966719322155E+00
 0.2427614984362E+00 -0.2964886089370E+00  0.0000000000000E+00 -0.3490841901659E+00
 0.2690463026172E+00 -0.3197758428201E+00  0.0000000000000E+00 -0.3059669348860E+00
 0.2893684661688E+00 -0.3372655306346E+00  0.0000000000000E+00 -0.2682618725566E+00
 0.3044366912046E+00 -0.3497415263169E+00  0.0000000000000E+00 -0.2370245512524E+00
 0.3151403629674E+00 -0.3581168190573E+00  0.0000000000000E+00 -0.2127826936531E+00
 0.3222370820810E+00 -0.3631512410836E+00  0.0000000000000E+00 -0.1954191422376E+00
 0.3263322177596E+00 -0.3654504353851E+00  0.0000000000000E+00 -0.1844828255594E+00
 0.3279336969703E+00 -0.3655211056612E+00  0.0000000000000E+00 -0.1793833391442E+00
 0.3274921158382E+00 -0.3638021455349E+00  0.0000000000000E+00 -0.1794211596409E+00
 0.3253749681543E+00 -0.3606473175580E+00  0.0000000000000E+00 -0.1839233348064E+00
 0.3219043454987E+00 -0.3563683507509E+00  0.0000000000000E+00 -0.1923761349752E+00
 0.3173764318962E+00 -0.3512481063106E+00  0.0000000000000E+00 -0.2044694033138E+00
 0.3119712215649E+00 -0.3454241852666E+00  0.0000000000000E+00 -0.2200653294011E+00
 0.3051275635799E+00 -0.3385759206506E+00  0.0000000000000E+00 -0.2403274159267E+00
 0.2973487416805E+00 -0.3313356672811E+00  0.0000000000000E+00 -0.2652795253611E+00
 0.2903396200330E+00 -0.3253370390907E+00  0.0000000000000E+00 -0.2919623176658E+00
 0.8163199699893E-01 -0.1482282563043E+00  0.0000000000000E+00 -0.5333179464426E+00
 0.1244374424963E+00 -0.1882503660904E+00  0.0000000000000E+00 -0.4847418834407E+00
 0.1659105819741E+00 -0.2268185754059E+00  0.0000000000000E+00 -0.4368628651800E+00
 0.2038956117918E+00 -0.2618754771233E+00  0.0000000000000E+00 -0.3907817793033E+00
 0.2371862275488E+00 -0.2922884046140E+00  0.0000000000000E+00 -0.3478047947932E+00
 0.2652386127785E+00 -0.3175614750754E+00  0.0000000000000E+00 -0.3088159199216E+00
 0.2880061517360E+00 -0.3377017332603E+00  0.0000000000000E+00 -0.2744661433134E+00
 0.3059744967884E+00 -0.3532530289794E+00  0.0000000000000E+00 -0.2455618151724E+00
 0.3197958974113E+00 -0.3648895577201E+00  0.0000000000000E+00 -0.2226348797874E+00
 0.3300569069650E+00 -0.3732027543077E+00  0.0000000000000E+00 -0.2057373929208E+00
 0.3372575107167E+00 -0.3786956369470E+00  0.0000000000000E+00 -0.1946189210721E+00
 0.3418351463582E+00 -0.3818071551976E+00  0.0000000000000E+00 -0.1888737026542E+00
 0.3441901863352E+00 -0.3829300539474E+00  0.0000000000000E+00 -0.1879566252635E+00
 0.3446675976261E+00 -0.3823976518729E+00  0.0000000000000E+00 -0.1912703863354E+00
 0.3436002485359E+00 -0.3805305452813E+00  0.0000000000000E+00 -0.1982659036118E+00
 0.3413658801576E+00 -0.3776869530801E+00  0.0000000000000E+00 -0.2085284079134E+00
 0.3383475558871E+00 -0.3742148373191E+00  0.0000000000000E+00 -0.2218841524211E+00
 0.3343245574435E+00 -0.3700446441808E+00  0.0000000000000E+00 -0.2397243202290E+00
 0.3291845568647E+00 -0.3653354568295E+00  0.0000000000000E+00 -0.2635517356305E+00
 0.3228481676040E+00 -0.3599176108267E+00  0.0000000000000E+00 -0.2906474123295E+00
 0.7711264634878E-01 -0.1444026833011E+00  0.0000000000000E+00 -0.5157811564671E+00
 0.1189771886816E+00 -0.1836028153804E+00  0.0000000000000E+00 -0.4692577669456E+00
 0.1597657361988E+00 -0.2216446841442E+00  0.0000000000000E+00 -0.4247214834551E+00
 0.1976407286365E+00 -0.2567676947177E+00  0.0000000000000E+00 -0.3825690190778E+00
 0.2315480985465E+00 -0.2879844890096E+00  0.0000000000000E+00 -0.3435039687332E+00
 0.2609598293128E+00 -0.3148116876706E+00  0.0000000000000E+00 -0.3080930997519E+00
 0.2857326828147E+00 -0.3371439648145E+00  0.0000000000000E+00 -0.2767851459733E+00
 0.3061830100472E+00 -0.3553403110759E+00  0.0000000000000E+00 -0.2501762060139E+00
 0.3227699533348E+00 -0.3698777151245E+00  0.0000000000000E+00 -0.2287287203373E+00
 0.3359307699895E+00 -0.3812005086850E+00  0.0000000000000E+00 -0.2125603218681E+00
 0.3460664474192E+00 -0.3897154410105E+00  0.0000000000000E+00 -0.2015496366517E+00
 0.3535405316646E+00 -0.3957902460055E+00  0.0000000000000E+00 -0.1954438158563E+00
 0.3586866291511E+00 -0.3997555545435E+00  0.0000000000000E+00 -0.1938592207986E+00
 0.3617876507831E+00 -0.4018861718906E+00  0.0000000000000E+00 -0.1963147096930E+00
 0.3631097189624E+00 -0.4024363197198E+00  0.0000000000000E+00 -0.2022632300157E+00
 0.3629907374786E+00 -0.4017167452507E+00  0.0000000000000E+00 -0.2110898795461E+00
 0.3619276919047E+00 -0.4001688644142E+00  0.0000000000000E+00 -0.2222317700784E+00
 0.3600137727407E+00 -0.3980146762625E+00  0.0000000000000E+00 -0.2363942318546E+00
 0.3580595765365E+00 -0.3959492965654E+00  0.0000000000000E+00 -0.2558415358582E+00
 0.3538500009770E+00 -0.3926752143020E+00  0.0000000000000E+00 -0.2828349595258E+00
 0.7279831545241E-01 -0.1408073552047E+00  0.0000000000000E+00 -0.4976636459625E+00
 0.1138565870180E+00 -0.1793249108404E+00  0.0000000000000E+00 -0.4529048119115E+00
 0.1539813329385E+00 -0.2168420656394E+00  0.0000000000000E+00 -0.4112228183089E+00
 0.1916008766448E+00 -0.2518607913199E+00  0.0000000000000E+00 -0.3723722189301E+00
 0.2258546053775E+00 -0.2835869108723E+00  0.0000000000000E+00 -0.3365574312824E+00
 0.2562811128852E+00 -0.3115994573559E+00  0.0000000000000E+00 -0.3041245361142E+00
 0.2826823520318E+00 -0.3357332753432E+00  0.0000000000000E+00 -0.2754409720608E+00
 0.3052292028704E+00 -0.3561769725237E+00  0.0000000000000E+00 -0.2509671764641E+00
 0.3242196410367E+00 -0.3732430639094E+00  0.0000000000000E+00 -0.2310306139666E+00
 0.3399725733296E+00 -0.3872605619472E+00  0.0000000000000E+00 -0.2157233670757E+00
 0.3528084852959E+00 -0.3985572673761E+00  0.0000000000000E+00 -0.2049812483514E+00
 0.3630307552837E+00 -0.4074433913034E+00  0.0000000000000E+00 -0.1986599676444E+00
 0.3709164721389E+00 -0.4141978677883E+00  0.0000000000000E+00 -0.1965341604556E+00
 0.3766875267616E+00 -0.4190407442143E+00  0.0000000000000E+00 -0.1983020197244E+00
 0.3805187172522E+00 -0.4221416325869E+00  0.0000000000000E+00 -0.2035893069704E+00
 0.3825839975828E+00 -0.4236605884215E+00  0.0000000000000E+00 -0.2118647850624E+00
 0.3831818808145E+00 -0.4238255824935E+00  0.0000000000000E+00 -0.2222092955467E+00
 0.3824638904121E+00 -0.4228038710943E+00  0.0000000000000E+00 -0.2342266400923E+00
 0.3812970601878E+00 -0.4214971834280E+00  0.0000000000000E+00 -0.2480002004985E+00
 0.3821400888749E+00 -0.4209175161907E+00  0.0000000000000E+00 -0.2679384736749E+00
 0.7279831662601E-01 -0.1408073561389E+00  0.0000000000000E+00  0.4976636527294E+00
 0.1138565877712E+00 -0.1793249113877E+00  0.0000000000000E+00  0.4529048176777E+00
 0.1539813333786E+00 -0.2168420658999E+00  0.0000000000000E+00  0.4112228229344E+00
 0.1916008768327E+00 -0.2518607913497E+00  0.0000000000000E+00  0.3723722224594E+00
 0.2258546053614E+00 -0.2835869107180E+00  0.0000000000000E+00  0.3365574338580E+00
 0.2562811127157E+00 -0.3115994570680E+00  0.0000000000000E+00  0.3041245379137E+00
 0.2826823517648E+00 -0.3357332749781E+00  0.0000000000000E+00  0.2754409732646E+00
 0.3052292025645E+00 -0.3561769721399E+00  0.0000000000000E+00  0.2509671772416E+00
 0.3242196407443E+00 -0.3732430635580E+00  0.0000000000000E+00  0.2310306144552E+00
 0.3399725730875E+00 -0.3872605616629E+00  0.0000000000000E+00  0.2157233673753E+00
 0.3528084851215E+00 -0.3985572671733E+00  0.0000000000000E+00  0.2049812485280E+00
 0.3630307551774E+00 -0.4074433911789E+00  0.0000000000000E+00  0.1986599677397E+00
 0.3709164720905E+00 -0.4141978677290E+00  0.0000000000000E+00  0.1965341604955E+00
 0.3766875267568E+00 -0.4190407442034E+00  0.0000000000000E+00  0.1983020197264E+00
 0.3805187172774E+00 -0.4221416326091E+00  0.0000000000000E+00  0.2035893069478E+00
 0.3825839976291E+00 -0.4236605884666E+00  0.0000000000000E+00  0.2118647850212E+00
 0.3831818808776E+00 -0.4238255825556E+00  0.0000000000000E+00  0.2222092954909E+00
 0.3824638904819E+00 -0.4228038711672E+00  0.0000000000000E+00  0.2342266400551E+00
 0.3812970602670E+00 -0.4214971835158E+00  0.0000000000000E+00  0.2480002005268E+00
 0.3821400889587E+00 -0.4209175162874E+00  0.0000000000000E+00  0.2679384737866E+00
 0.7711264753236E-01 -0.1444026842657E+00  0.0000000000000E+00  0.5157811627123E+00
 0.1189771894963E+00 -0.1836028160055E+00  0.0000000000000E+00  0.4692577722101E+00
 0.1597657367254E+00 -0.2216446845013E+00  0.0000000000000E+00  0.4247214875786E+00
 0.1976407289142E+00 -0.2567676948425E+00  0.0000000000000E+00  0.3825690221130E+00
 0.2315480986100E+00 -0.2879844889360E+00  0.0000000000000E+00  0.3435039708430E+00
 0.2609598292071E+00 -0.3148116874447E+00  0.0000000000000E+00  0.3080931011311E+00
 0.2857326825956E+00 -0.3371439644941E+00  0.0000000000000E+00  0.2767851468165E+00
 0.3061830097762E+00 -0.3553403107232E+00  0.0000000000000E+00  0.2501762064995E+00
 0.3227699530674E+00 -0.3698777147941E+00  0.0000000000000E+00  0.2287287206012E+00
 0.3359307697648E+00 -0.3812005084141E+00  0.0000000000000E+00  0.2125603220004E+00
 0.3460664472561E+00 -0.3897154408150E+00  0.0000000000000E+00  0.2015496367065E+00
 0.3535405315646E+00 -0.3957902458836E+00  0.0000000000000E+00  0.1954438158647E+00
 0.3586866291052E+00 -0.3997555544832E+00  0.0000000000000E+00  0.1938592207793E+00
 0.3617876507781E+00 -0.4018861718765E+00  0.0000000000000E+00  0.1963147096588E+00
 0.3631097189867E+00 -0.4024363197385E+00  0.0000000000000E+00  0.2022632299768E+00
 0.3629907375265E+00 -0.4017167452949E+00  0.0000000000000E+00  0.2110898795093E+00
 0.3619276919726E+00 -0.4001688644801E+00  0.0000000000000E+00  0.2222317700600E+00
 0.3600137728131E+00 -0.3980146763404E+00  0.0000000000000E+00  0.2363942319013E+00
 0.3580595766216E+00 -0.3959492966649E+00  0.0000000000000E+00  0.2558415359981E+00
 0.3538500010898E+00 -0.3926752144347E+00  0.0000000000000E+00  0.2828349597181E+00
 0.8163199819964E-01 -0.1482282573111E+00  0.0000000000000E+00  0.5333179522039E+00
 0.1244374433883E+00 -0.1882503668100E+00  0.0000000000000E+00  0.4847418882196E+00
 0.1659105825989E+00 -0.2268185758725E+00  0.0000000000000E+00  0.4368628687982E+00
 0.2038956121651E+00 -0.2618754773496E+00  0.0000000000000E+00  0.3907817818310E+00
 0.2371862276920E+00 -0.2922884046217E+00  0.0000000000000E+00  0.3478047964204E+00
 0.2652386127317E+00 -0.3175614749072E+00  0.0000000000000E+00  0.3088159208662E+00
 0.2880061515564E+00 -0.3377017329762E+00  0.0000000000000E+00  0.2744661437881E+00
 0.3059744965410E+00 -0.3532530286464E+00  0.0000000000000E+00  0.2455618153635E+00
 0.3197958971565E+00 -0.3648895573981E+00  0.0000000000000E+00  0.2226348798261E+00
 0.3300569067454E+00 -0.3732027540377E+00  0.0000000000000E+00  0.2057373928864E+00
 0.3372575105535E+00 -0.3786956367473E+00  0.0000000000000E+00  0.1946189210070E+00
 0.3418351462541E+00 -0.3818071550680E+00  0.0000000000000E+00  0.1888737025801E+00
 0.3441901862820E+00 -0.3829300538766E+00  0.0000000000000E+00  0.1879566251926E+00
 0.3446675976117E+00 -0.3823976518467E+00  0.0000000000000E+00  0.1912703862764E+00
 0.3436002485499E+00 -0.3805305452877E+00  0.0000000000000E+00  0.1982659035740E+00
 0.3413658801945E+00 -0.3776869531120E+00  0.0000000000000E+00  0.2085284079054E+00
 0.3383475559403E+00 -0.3742148373701E+00  0.0000000000000E+00  0.2218841524632E+00
 0.3343245574957E+00 -0.3700446442411E+00  0.0000000000000E+00  0.2397243203692E+00
 0.3291845569417E+00 -0.3653354569259E+00  0.0000000000000E+00  0.2635517358723E+00
 0.3228481677489E+00 -0.3599176109987E+00  0.0000000000000E+00  0.2906474126160E+00
 0.8641578089286E-01 -0.1523679871452E+00  0.0000000000000E+00  0.5503690201773E+00
 0.1303317060033E+00 -0.1933644881479E+00  0.0000000000000E+00  0.4993443753326E+00
 0.1724901119162E+00 -0.2324393777010E+00  0.0000000000000E+00  0.4474389429142E+00
 0.2104083932282E+00 -0.2672270647963E+00  0.0000000000000E+00  0.3966719342182E+00
 0.2427614986547E+00 -0.2964886090219E+00  0.0000000000000E+00  0.3490841912931E+00
 0.2690463026197E+00 -0.3197758426997E+00  0.0000000000000E+00  0.3059669353835E+00
 0.2893684660153E+00 -0.3372655303735E+00  0.0000000000000E+00  0.2682618726575E+00
 0.3044366909664E+00 -0.3497415259892E+00  0.0000000000000E+00  0.2370245511505E+00
 0.3151403627113E+00 -0.3581168187298E+00  0.0000000000000E+00  0.2127826934724E+00
 0.3222370818538E+00 -0.3631512408017E+00  0.0000000000000E+00  0.1954191420446E+00
 0.3263322175845E+00 -0.3654504351698E+00  0.0000000000000E+00  0.1844828253845E+00
 0.3279336968513E+00 -0.3655211055133E+00  0.0000000000000E+00  0.1793833389998E+00
 0.3274921157678E+00 -0.3638021454441E+00  0.0000000000000E+00  0.1794211595324E+00
 0.3253749681207E+00 -0.3606473175103E+00  0.0000000000000E+00  0.1839233347385E+00
 0.3219043454912E+00 -0.3563683507341E+00  0.0000000000000E+00  0.1923761349556E+00
 0.3173764319082E+00 -0.3512481063167E+00  0.0000000000000E+00  0.2044694033497E+00
 0.3119712215869E+00 -0.3454241852866E+00  0.0000000000000E+00  0.2200653295107E+00
 0.3051275635980E+00 -0.3385759206792E+00  0.0000000000000E+00  0.2403274161540E+00
 0.2973487417441E+00 -0.3313356673685E+00  0.0000000000000E+00  0.2652795256987E+00
 0.2903396202075E+00 -0.3253370392988E+00  0.0000000000000E+00  0.2919623180589E+00
 0.9153115450169E-01 -0.1569046609968E+00  0.0000000000000E+00  0.5670140405510E+00
 0.1367762481605E+00 -0.1990707406539E+00  0.0000000000000E+00  0.5129783398179E+00
 0.1795944439926E+00 -0.2385994614318E+00  0.0000000000000E+00  0.4561915621041E+00
 0.2172078905697E+00 -0.2728500631882E+00  0.0000000000000E+00  0.3998613004390E+00
 0.2482252847595E+00 -0.3005326561503E+00  0.0000000000000E+00  0.3469407880000E+00
 0.2722574714569E+00 -0.3213226160412E+00  0.0000000000000E+00  0.2992109410090E+00
 0.2896386321611E+00 -0.3356469822278E+00  0.0000000000000E+00  0.2579807349458E+00
 0.3013720385078E+00 -0.3446014400244E+00  0.0000000000000E+00  0.2245532744050E+00
 0.3086306277505E+00 -0.3493823122050E+00  0.0000000000000E+00  0.1993356150449E+00
 0.3123524840364E+00 -0.3509263757901E+00  0.0000000000000E+00  0.1819215526790E+00
 0.3132373625008E+00 -0.3499304569094E+00  0.0000000000000E+00  0.1715830062211E+00
 0.3118416290203E+00 -0.3469463588325E+00  0.0000000000000E+00  0.1675061117566E+00
 0.3086311607061E+00 -0.3424233205937E+00  0.0000000000000E+00  0.1688192459593E+00
 0.3039462529610E+00 -0.3366846234142E+00  0.0000000000000E+00  0.1747521721082E+00
 0.2980418565366E+00 -0.3299741930861E+00  0.0000000000000E+00  0.1847518214736E+00
 0.2911047633165E+00 -0.3224623061941E+00  0.0000000000000E+00  0.1984427867039E+00
 0.2831333803049E+00 -0.3141057500981E+00  0.0000000000000E+00  0.2154460911612E+00
 0.2736285980480E+00 -0.3046440486982E+00  0.0000000000000E+00  0.2364962948477E+00
 0.2639148087726E+00 -0.2955360570087E+00  0.0000000000000E+00  0.2613213218636E+00
 0.2567009803996E+00 -0.2893725012863E+00  0.0000000000000E+00  0.2876383034352E+00
 0.9705988282441E-01 -0.1619377656357E+00  0.0000000000000E+00  0.5833449549829E+00
 0.1439054729184E+00 -0.2055132368053E+00  0.0000000000000E+00  0.5255048859436E+00
 0.1873167230574E+00 -0.2453952862729E+00  0.0000000000000E+00  0.4627890626346E+00
 0.2243003615879E+00 -0.2787484664088E+00  0.0000000000000E+00  0.3999104293852E+00
 0.2534828346696E+00 -0.3043192916660E+00  0.0000000000000E+00  0.3409401998727E+00
 0.2746907338152E+00 -0.3220112374099E+00  0.0000000000000E+00  0.2882271462034E+00
 0.2885858687780E+00 -0.3326059568850E+00  0.0000000000000E+00  0.2435032989658E+00
 0.2965513772870E+00 -0.3375961579603E+00  0.0000000000000E+00  0.2082562366952E+00
 0.3000828726649E+00 -0.3384979874343E+00  0.0000000000000E+00  0.1826012585996E+00
 0.3002890999502E+00 -0.3364142172829E+00  0.0000000000000E+00  0.1657013890562E+00
 0.2979349895998E+00 -0.3321023784441E+00  0.0000000000000E+00  0.1564668393384E+00
 0.2935899045856E+00 -0.3261221324828E+00  0.0000000000000E+00  0.1538095156961E+00
 0.2876952070573E+00 -0.3188910565195E+00  0.0000000000000E+00  0.1566467474520E+00
 0.2805255235352E+00 -0.3106610113283E+00  0.0000000000000E+00  0.1640611770733E+00
 0.2722493086955E+00 -0.3015847469889E+00  0.0000000000000E+00  0.1753800470802E+00
 0.2629593873781E+00 -0.2917342035145E+00  0.0000000000000E+00  0.1900628534961E+00
 0.2525682637010E+00 -0.2809669965817E+00  0.0000000000000E+00  0.2074350528181E+00
 0.2408016481417E+00 -0.2692575962953E+00  0.0000000000000E+00  0.2280446521406E+00
 0.2296927596880E+00 -0.2587662683775E+00  0.0000000000000E+00  0.2518848742954E+00
 0.2224611421123E+00 -0.2526204824612E+00  0.0000000000000E+00  0.2776619988351E+00
 0.1031029707768E+00 -0.1675890586938E+00  0.0000000000000E+00  0.5994666045616E+00
 0.1518739461593E+00 -0.2128576793354E+00  0.0000000000000E+00  0.5367232878198E+00
 0.1957461941152E+00 -0.2529193368508E+00  0.0000000000000E+00  0.4668103517268E+00
 0.2316586362303E+00 -0.2848912574579E+00  0.0000000000000E+00  0.3963037747238E+00
 0.2583835179053E+00 -0.3076886236133E+00  0.0000000000000E+00  0.3306195878028E+00
 0.2761024743107E+00 -0.3215859751479E+00  0.0000000000000E+00  0.2727354758860E+00
 0.2859295985347E+00 -0.3278505307858E+00  0.0000000000000E+00  0.2248192579747E+00
 0.2897209143323E+00 -0.3284635612001E+00  0.0000000000000E+00  0.1883920453013E+00
 0.2893154031331E+00 -0.3252781967230E+00  0.0000000000000E+00  0.1630440539007E+00
 0.2859570084962E+00 -0.3195259287092E+00  0.0000000000000E+00  0.1473480826937E+00
 0.2804289897836E+00 -0.3119757509894E+00  0.0000000000000E+00  0.1397657113575E+00
 0.2732703778378E+00 -0.3031489311522E+00  0.0000000000000E+00  0.1388830074965E+00
 0.2648607094035E+00 -0.2933913165184E+00  0.0000000000000E+00  0.1433691925434E+00
 0.2553851001921E+00 -0.2828569547586E+00  0.0000000000000E+00  0.1521232201724E+00
 0.2449256702773E+00 -0.2716057486316E+00  0.0000000000000E+00  0.1643138973606E+00
 0.2335136779210E+00 -0.2596402900169E+00  0.0000000000000E+00  0.1792218161192E+00
 0.2210265251597E+00 -0.2467724819414E+00  0.0000000000000E+00  0.1959621990449E+00
 0.2074711976599E+00 -0.2332557065608E+00  0.0000000000000E+00  0.2150765531346E+00
 0.1954151373263E+00 -0.2217958408875E+00  0.0000000000000E+00  0.2371392717131E+00
 0.1882906069086E+00 -0.2157729019454E+00  0.0000000000000E+00  0.2619393569718E+00
 0.1097855948666E+00 -0.1740089294945E+00  0.0000000000000E+00  0.6154964748436E+00
 0.1608585620174E+00 -0.2212939372357E+00  0.0000000000000E+00  0.5463514485412E+00
 0.2049612244457E+00 -0.2612529125895E+00  0.0000000000000E+00  0.4677228621335E+00
 0.2392088517385E+00 -0.2911983411554E+00  0.0000000000000E+00  0.3884396932029E+00
 0.2627076420683E+00 -0.3104080865415E+00  0.0000000000000E+00  0.3154999751284E+00
 0.2761803838083E+00 -0.3197189186735E+00  0.0000000000000E+00  0.2525310829851E+00
 0.2813436165607E+00 -0.3210409338335E+00  0.0000000000000E+00  0.2020692837325E+00
 0.2806164033769E+00 -0.3169304579049E+00  0.0000000000000E+00  0.1654005669260E+00
 0.2761691799169E+00 -0.3095608368043E+00  0.0000000000000E+00  0.1412963068929E+00
 0.2693139229895E+00 -0.3002221865660E+00  0.0000000000000E+00  0.1275767729466E+00
 0.2607888816551E+00 -0.2896278781707E+00  0.0000000000000E+00  0.1221819472114E+00
 0.2510552013838E+00 -0.2782095446533E+00  0.0000000000000E+00  0.1233384511563E+00
 0.2403981278057E+00 -0.2662061944520E+00  0.0000000000000E+00  0.1294546837080E+00
 0.2288998544314E+00 -0.2536590595263E+00  0.0000000000000E+00  0.1392428207470E+00
 0.2165655559127E+00 -0.2405431835994E+00  0.0000000000000E+00  0.1517200064783E+00
 0.2033892052638E+00 -0.2268160297199E+00  0.0000000000000E+00  0.1660311260591E+00
 0.1892346763455E+00 -0.2122648326677E+00  0.0000000000000E+00  0.1811861295599E+00
 0.1744002226649E+00 -0.1974261144665E+00  0.0000000000000E+00  0.1978352046809E+00
 0.1618288661139E+00 -0.1853988744621E+00  0.0000000000000E+00  0.2172837890328E+00
 0.1549528732626E+00 -0.1796142064274E+00  0.0000000000000E+00  0.2404850202985E+00
 0.1172632587733E+00 -0.1813843739629E+00  0.0000000000000E+00  0.6315622733496E+00
 0.1710609409860E+00 -0.2310391885641E+00  0.0000000000000E+00  0.5539971106529E+00
 0.2150196842767E+00 -0.2704561407450E+00  0.0000000000000E+00  0.4648539709518E+00
 0.2468130265857E+00 -0.2975219297774E+00  0.0000000000000E+00  0.3756223041833E+00
 0.2661507121870E+00 -0.3121553670476E+00  0.0000000000000E+00  0.2951088354468E+00
 0.2745388597173E+00 -0.3160046105297E+00  0.0000000000000E+00  0.2275314507959E+00
 0.2744667377746E+00 -0.3118002725910E+00  0.0000000000000E+00  0.1755941348885E+00
 0.2689852775253E+00 -0.3027355387580E+00  0.0000000000000E+00  0.1399329882109E+00
 0.2605340265861E+00 -0.2912348734103E+00  0.0000000000000E+00  0.1181629328557E+00
 0.2503892072723E+00 -0.2785385858898E+00  0.0000000000000E+00  0.1072137367381E+00
 0.2391667213880E+00 -0.2652219477063E+00  0.0000000000000E+00  0.1044680957317E+00
 0.2272017558031E+00 -0.2515749471242E+00  0.0000000000000E+00  0.1077971708948E+00
 0.2146592627015E+00 -0.2377019155616E+00  0.0000000000000E+00  0.1153739829176E+00
 0.2015139991534E+00 -0.2235260958405E+00  0.0000000000000E+00  0.1257574690932E+00
 0.1877071192234E+00 -0.2089505215783E+00  0.0000000000000E+00  0.1378540223446E+00
 0.1732130598414E+00 -0.1939053442807E+00  0.0000000000000E+00  0.1507373196368E+00
 0.1578889893377E+00 -0.1781613788494E+00  0.0000000000000E+00  0.1634108159581E+00
 0.1423215016242E+00 -0.1625278012514E+00  0.0000000000000E+00  0.1766858279651E+00
 0.1296936191440E+00 -0.1503644950832E+00  0.0000000000000E+00  0.1926668259492E+00
 0.1232529346096E+00 -0.1449730553459E+00  0.0000000000000E+00  0.2135481057138E+00
 0.1257298705016E+00 -0.1899498495563E+00  0.0000000000000E+00  0.6477966169793E+00
 0.1827097335436E+00 -0.2423413152158E+00  0.0000000000000E+00  0.5591164028526E+00
 0.2259445765412E+00 -0.2805529287885E+00  0.0000000000000E+00  0.4573533967185E+00
 0.2542455316876E+00 -0.3036210637805E+00  0.0000000000000E+00  0.3570567503992E+00
 0.2683054394474E+00 -0.3124984632942E+00  0.0000000000000E+00  0.2690178612459E+00
 0.2707190125719E+00 -0.3099593041057E+00  0.0000000000000E+00  0.1978406629866E+00
 0.2649230281557E+00 -0.2997354502932E+00  0.0000000000000E+00  0.1459907396007E+00
 0.2546179178860E+00 -0.2856623587529E+00  0.0000000000000E+00  0.1128755246485E+00
 0.2423790682823E+00 -0.2702727693751E+00  0.0000000000000E+00  0.9461118536765E-01
 0.2293054925429E+00 -0.2546087805398E+00  0.0000000000000E+00  0.8716408370266E-01
 0.2158056875930E+00 -0.2390163588439E+00  0.0000000000000E+00  0.8738870684510E-01
 0.2020464214109E+00 -0.2235981001047E+00  0.0000000000000E+00  0.9285797945178E-01
 0.1880566022404E+00 -0.2083074797219E+00  0.0000000000000E+00  0.1015770142408E+00
 0.1737087894281E+00 -0.1929556293178E+00  0.0000000000000E+00  0.1120150058469E+00
 0.1588971420549E+00 -0.1773913504045E+00  0.0000000000000E+00  0.1230268024981E+00
 0.1435916015753E+00 -0.1615335460079E+00  0.0000000000000E+00  0.1336835129045E+00
 0.1276465933943E+00 -0.1451423123330E+00  0.0000000000000E+00  0.1430629568576E+00
 0.1119309852128E+00 -0.1292860210563E+00  0.0000000000000E+00  0.1521498635893E+00
 0.9974912392756E-01 -0.1174657103323E+00  0.0000000000000E+00  0.1638621222317E+00
 0.9399046946905E-01 -0.1126797922646E+00  0.0000000000000E+00  0.1816818917214E+00
 0.1354286517714E+00 -0.2000025990956E+00  0.0000000000000E+00  0.6643265132157E+00
 0.1960622211539E+00 -0.2554821295172E+00  0.0000000000000E+00  0.5609528605653E+00
 0.2377017544132E+00 -0.2915072920015E+00  0.0000000000000E+00  0.4441431087218E+00
 0.2611608600613E+00 -0.3091261304249E+00  0.0000000000000E+00  0.3318520773597E+00
 0.2686425243962E+00 -0.3108737512863E+00  0.0000000000000E+00  0.2369045892657E+00
 0.2641976694508E+00 -0.3010296343263E+00  0.0000000000000E+00  0.1638354842017E+00
 0.2523558570973E+00 -0.2844731236402E+00  0.0000000000000E+00  0.1141706699808E+00
 0.2373888734007E+00 -0.2655834635904E+00  0.0000000000000E+00  0.8535575107642E-01
 0.2217847652554E+00 -0.2467649672820E+00  0.0000000000000E+00  0.7173369841772E-01
 0.2062941449383E+00 -0.2286810620362E+00  0.0000000000000E+00  0.6835411360424E-01
 0.1910383289268E+00 -0.2113628080275E+00  0.0000000000000E+00  0.7166362001615E-01
 0.1759885927789E+00 -0.1946970278556E+00  0.0000000000000E+00  0.7905338201257E-01
 0.1610375190886E+00 -0.1784876297814E+00  0.0000000000000E+00  0.8846263104637E-01
 0.1459722675550E+00 -0.1624523083310E+00  0.0000000000000E+00  0.9835060671030E-01
 0.1306619666274E+00 -0.1464092000624E+00  0.0000000000000E+00  0.1075844626454E+00
 0.1150874735856E+00 -0.1302829835397E+00  0.0000000000000E+00  0.1152951168149E+00
 0.9910728396491E-01 -0.1138320613580E+00  0.0000000000000E+00  0.1206977839144E+00
 0.8386279205565E-01 -0.9836719388442E-01  0.0000000000000E+00  0.1249383981112E+00
 0.7267279591478E-01 -0.8741891738627E-01  0.0000000000000E+00  0.1317168490480E+00
 0.6791125039598E-01 -0.8351954681655E-01  0.0000000000000E+00  0.1457900223507E+00
 0.1466672127271E+00 -0.2119250300682E+00  0.0000000000000E+00  0.6812530097454E+00
 0.2114037902144E+00 -0.2707792633038E+00  0.0000000000000E+00  0.5584447222315E+00
 0.2501643235858E+00 -0.3031848709989E+00  0.0000000000000E+00  0.4238500433552E+00
 0.2670491874880E+00 -0.3134889473516E+00  0.0000000000000E+00  0.2990408854193E+00
 0.2664932317776E+00 -0.3065650379797E+00  0.0000000000000E+00  0.1986517630062E+00
 0.2544127996425E+00 -0.2886190345304E+00  0.0000000000000E+00  0.1262763900229E+00
 0.2364808169000E+00 -0.2657166790646E+00  0.0000000000000E+00  0.8140871173845E-01
 0.2173066789356E+00 -0.2425144558675E+00  0.0000000000000E+00  0.5871348504078E-01
 0.1989707626739E+00 -0.2209500066465E+00  0.0000000000000E+00  0.5067239990134E-01
 0.1816986921949E+00 -0.2011217156418E+00  0.0000000000000E+00  0.5164699600181E-01
 0.1652716560640E+00 -0.1826900046692E+00  0.0000000000000E+00  0.5790122827114E-01
 0.1494654057944E+00 -0.1653279231395E+00  0.0000000000000E+00  0.6680771900750E-01
 0.1340550534218E+00 -0.1487122296983E+00  0.0000000000000E+00  0.7635609873020E-01
 0.1187703079196E+00 -0.1324978476723E+00  0.0000000000000E+00  0.8507483010792E-01
 0.1034813477218E+00 -0.1165004836219E+00  0.0000000000000E+00  0.9190151053340E-01
 0.8819644639872E-01 -0.1006692422369E+00  0.0000000000000E+00  0.9607934843667E-01
 0.7278924912651E-01 -0.8477444380000E-01  0.0000000000000E+00  0.9700966301391E-01
 0.5865628262237E-01 -0.7034601766099E-01  0.0000000000000E+00  0.9597301392459E-01
 0.4903394750617E-01 -0.6083877943619E-01  0.0000000000000E+00  0.9737363720322E-01
 0.4565411457001E-01 -0.5818048498856E-01  0.0000000000000E+00  0.1071511077367E+00
 0.1598388240754E+00 -0.2262186438960E+00  0.0000000000000E+00  0.6986116104655E+00
 0.2290419848850E+00 -0.2885837792770E+00  0.0000000000000E+00  0.5500783569522E+00
 0.2630540534273E+00 -0.3152882456734E+00  0.0000000000000E+00  0.3947160066553E+00
 0.2711754409668E+00 -0.3159125696506E+00  0.0000000000000E+00  0.2576349335860E+00
 0.2610413460681E+00 -0.2986916678150E+00  0.0000000000000E+00  0.1545058162863E+00
 0.2408173495884E+00 -0.2721458691690E+00  0.0000000000000E+00  0.8644015312574E-01
 0.2171614100489E+00 -0.2433293268258E+00  0.0000000000000E+00  0.4935505292873E-01
 0.1945652167920E+00 -0.2166704080794E+00  0.0000000000000E+00  0.3441056526893E-01
 0.1743086703933E+00 -0.1932279200122E+00  0.0000000000000E+00  0.3249574167859E-01
 0.1559588368773E+00 -0.1723969147171E+00  0.0000000000000E+00  0.3774256965148E-01
 0.1389576689479E+00 -0.1534716993238E+00  0.0000000000000E+00  0.4654005456803E-01
 0.1229197537043E+00 -0.1359514245357E+00  0.0000000000000E+00  0.5641287817299E-01
 0.1075382870325E+00 -0.1194255934753E+00  0.0000000000000E+00  0.6550312029453E-01
 0.9252048935406E-01 -0.1035242135027E+00  0.0000000000000E+00  0.7247403871840E-01
 0.7776523136211E-01 -0.8809074466939E-01  0.0000000000000E+00  0.7638246497148E-01
 0.6332486520289E-01 -0.7311808518574E-01  0.0000000000000E+00  0.7662778892234E-01
 0.4910251153813E-01 -0.5840565743672E-01  0.0000000000000E+00  0.7283650363719E-01
 0.3672087833723E-01 -0.4566987019216E-01  0.0000000000000E+00  0.6638775492124E-01
 0.2924690377511E-01 -0.3819130259026E-01  0.0000000000000E+00  0.6226593456993E-01
 0.2769273646815E-01 -0.3719620973854E-01  0.0000000000000E+00  0.6741712553968E-01
 0.1754528888456E+00 -0.2435577649587E+00  0.0000000000000E+00  0.7162931734962E+00
 0.2492873006830E+00 -0.3092659651516E+00  0.0000000000000E+00  0.5336456581560E+00
 0.2758418199135E+00 -0.3272442123473E+00  0.0000000000000E+00  0.3544804268907E+00
 0.2724982492982E+00 -0.3152545951521E+00  0.0000000000000E+00  0.2067573703754E+00
 0.2513419878715E+00 -0.2862255203235E+00  0.0000000000000E+00  0.1053249210251E+00
 0.2229788673925E+00 -0.2511544797248E+00  0.0000000000000E+00  0.4625129117703E-01
 0.1945043720032E+00 -0.2174410441312E+00  0.0000000000000E+00  0.1996087815360E-01
 0.1695783103758E+00 -0.1885036793515E+00  0.0000000000000E+00  0.1385206259220E-01
 0.1483039880821E+00 -0.1641388732075E+00  0.0000000000000E+00  0.1804018265786E-01
 0.1295704308846E+00 -0.1430282007743E+00  0.0000000000000E+00  0.2709128506480E-01
 0.1125534741353E+00 -0.1241842928440E+00  0.0000000000000E+00  0.3782336074401E-01
 0.9676793348808E-01 -0.1069992262172E+00  0.0000000000000E+00  0.4803157236040E-01
 0.8186676775580E-01 -0.9102048813628E-01  0.0000000000000E+00  0.5607989709297E-01
 0.6757077438869E-01 -0.7589196183499E-01  0.0000000000000E+00  0.6081812783437E-01
 0.5383428799687E-01 -0.6151480797096E-01  0.0000000000000E+00  0.6146514996149E-01
 0.4076919922660E-01 -0.4794458931074E-01  0.0000000000000E+00  0.5761491817441E-01
 0.2832334728716E-01 -0.3502821343992E-01  0.0000000000000E+00  0.4915158339556E-01
 0.1830241798340E-01 -0.2462435795953E-01  0.0000000000000E+00  0.3750774926179E-01
 0.1352543273307E-01 -0.1974734404592E-01  0.0000000000000E+00  0.2808156805052E-01
 0.1427371957279E-01 -0.2088355534063E-01  0.0000000000000E+00  0.2857564320683E-01
 0.1941788519953E+00 -0.2648792130780E+00  0.0000000000000E+00  0.7338790012855E+00
 0.2724011334625E+00 -0.3331696657924E+00  0.0000000000000E+00  0.5058194133790E+00
 0.2875726752414E+00 -0.3379987606964E+00  0.0000000000000E+00  0.3002430788705E+00
 0.2695717740261E+00 -0.3099041045819E+00  0.0000000000000E+00  0.1459393002438E+00
 0.2364054478132E+00 -0.2680820945433E+00  0.0000000000000E+00  0.5295101504976E-01
 0.2007436497036E+00 -0.2255052158503E+00  0.0000000000000E+00  0.8339666351029E-02
 0.1689501591035E+00 -0.1885513789769E+00  0.0000000000000E+00 -0.4762715031277E-02
 0.1429633626142E+00 -0.1586833714684E+00  0.0000000000000E+00 -0.1884812227551E-02
 0.1215338883956E+00 -0.1342913471804E+00  0.0000000000000E+00  0.7768361362148E-02
 0.1030287913324E+00 -0.1135316678174E+00  0.0000000000000E+00  0.1987053435473E-01
 0.8648327721607E-01 -0.9526790869323E-01  0.0000000000000E+00  0.3182151054394E-01
 0.7137493798855E-01 -0.7884953767956E-01  0.0000000000000E+00  0.4172279846954E-01
 0.5735215654047E-01 -0.6381976954467E-01  0.0000000000000E+00  0.4820907358751E-01
 0.4418350354587E-01 -0.4987394102698E-01  0.0000000000000E+00  0.5036766449517E-01
 0.3190438553511E-01 -0.3700081866874E-01  0.0000000000000E+00  0.4762078002164E-01
 0.2069916546539E-01 -0.2533590652323E-01  0.0000000000000E+00  0.3978935876395E-01
 0.1057295679899E-01 -0.1478912426071E-01  0.0000000000000E+00  0.2703992447480E-01
 0.3455396661129E-02 -0.7304484123081E-02  0.0000000000000E+00  0.1080042189159E-01
 0.1843020955802E-02 -0.5540901117945E-02  0.0000000000000E+00 -0.3313462479901E-02
 0.5355637889535E-02 -0.9279794011450E-02  0.0000000000000E+00 -0.7138364415875E-02
 0.2169060104184E+00 -0.2915429143932E+00  0.0000000000000E+00  0.7502672445516E+00
 0.2984590499382E+00 -0.3604770308406E+00  0.0000000000000E+00  0.4613607287465E+00
 0.2965476014608E+00 -0.3456299533488E+00  0.0000000000000E+00  0.2283614967485E+00
 0.2604621652903E+00 -0.2976601704089E+00  0.0000000000000E+00  0.7577583338813E-01
 0.2154231966823E+00 -0.2433896214296E+00  0.0000000000000E+00  0.7041815593083E-03
 0.1744624738682E+00 -0.1956424084044E+00  0.0000000000000E+00 -0.2415914521632E-01
 0.1412874046670E+00 -0.1575460248721E+00  0.0000000000000E+00 -0.2323596671857E-01
 0.1154323630064E+00 -0.1279614702915E+00  0.0000000000000E+00 -0.1232650939477E-01
 0.9455529072260E-01 -0.1042627390132E+00  0.0000000000000E+00  0.1754299953054E-02
 0.7678099166432E-01 -0.8436963973959E-01  0.0000000000000E+00  0.1604876650509E-01
 0.6111627170248E-01 -0.6710593415400E-01  0.0000000000000E+00  0.2848537227024E-01
 0.4704128774876E-01 -0.5181461790204E-01  0.0000000000000E+00  0.3746752907390E-01
 0.3422608761750E-01 -0.3806402784682E-01  0.0000000000000E+00  0.4196879915197E-01
 0.2252311745258E-01 -0.2564236937755E-01  0.0000000000000E+00  0.4137631145143E-01
 0.1207477177948E-01 -0.1465802446606E-01  0.0000000000000E+00  0.3535048003395E-01
 0.3146119893418E-02 -0.5339153398566E-02  0.0000000000000E+00  0.2395852245689E-01
-0.4195420273002E-02  0.2333150720328E-02  0.0000000000000E+00  0.7659905906253E-02
-0.7972388997748E-02  0.6401946007174E-02  0.0000000000000E+00 -0.1220306407034E-01
-0.6092187334257E-02  0.4658770800836E-02  0.0000000000000E+00 -0.2999880155272E-01
 0.5596089314857E-03 -0.2088781851260E-02  0.0000000000000E+00 -0.3739971070630E-01
 0.2448187894632E+00 -0.3256450014526E+00  0.0000000000000E+00  0.7627694253687E+00
 0.3269728192082E+00 -0.3908178635955E+00  0.0000000000000E+00  0.3914883240943E+00
 0.2997327751778E+00 -0.3465593300627E+00  0.0000000000000E+00  0.1346598315813E+00
 0.2428134134122E+00 -0.2758001761030E+00  0.0000000000000E+00 -0.6426097319312E-03
 0.1882687548117E+00 -0.2121007015859E+00  0.0000000000000E+00 -0.4620230953277E-01
 0.1451697603266E+00 -0.1628411594219E+00  0.0000000000000E+00 -0.4845269129571E-01
 0.1124498374575E+00 -0.1254131434441E+00  0.0000000000000E+00 -0.3495905496293E-01
 0.8762230887585E-01 -0.9699087252870E-01  0.0000000000000E+00 -0.1758904471098E-01
 0.6784235939090E-01 -0.7453625926902E-01  0.0000000000000E+00 -0.1599901563409E-03
 0.5121182798611E-01 -0.5594185142998E-01  0.0000000000000E+00  0.1549392185037E-01
 0.3676432728365E-01 -0.4002523748256E-01  0.0000000000000E+00  0.2768378652619E-01
 0.2399621039494E-01 -0.2613374618064E-01  0.0000000000000E+00  0.3517193982071E-01
 0.1262954926097E-01 -0.1389965835176E-01  0.0000000000000E+00  0.3739276394278E-01
 0.2646000364479E-02 -0.3258382779392E-02  0.0000000000000E+00  0.3409209576150E-01
-0.5679756255494E-02  0.5532039188216E-02  0.0000000000000E+00  0.2518111788018E-01
-0.1200118718843E-01  0.1214271766177E-01  0.0000000000000E+00  0.1097040979359E-01
-0.1619618356951E-01  0.1652926272768E-01  0.0000000000000E+00 -0.7804625963927E-02
-0.1633282873604E-01  0.1680714809518E-01  0.0000000000000E+00 -0.3000973340387E-01
-0.1083216184977E-01  0.1134583468157E-01  0.0000000000000E+00 -0.5017414688000E-01
-0.8469550302386E-03  0.1342178178861E-02  0.0000000000000E+00 -0.6003276395281E-01
 0.2793044306813E+00 -0.3707333489415E+00  0.0000000000000E+00  0.7641720550225E+00
 0.3557708052271E+00 -0.4218283676260E+00  0.0000000000000E+00  0.2803488243390E+00
 0.2916728000395E+00 -0.3341304814042E+00  0.0000000000000E+00  0.1600594442548E-01
 0.2145726647871E+00 -0.2418235779819E+00  0.0000000000000E+00 -0.7464532912012E-01
 0.1563524088880E+00 -0.1763803870906E+00  0.0000000000000E+00 -0.8145331383869E-01
 0.1142638037079E+00 -0.1285621456244E+00  0.0000000000000E+00 -0.6394597224622E-01
 0.8315527456161E-01 -0.9287937297646E-01  0.0000000000000E+00 -0.4041294196550E-01
 0.6001646378391E-01 -0.6624214197555E-01  0.0000000000000E+00 -0.1802417063512E-01
 0.4179235061364E-01 -0.4551911615626E-01  0.0000000000000E+00  0.1857004603644E-02
 0.2666691776269E-01 -0.2861648897787E-01  0.0000000000000E+00  0.1802973662787E-01
 0.1368411282981E-01 -0.1429824710779E-01  0.0000000000000E+00  0.2918044820635E-01
 0.2385480217306E-02 -0.1957383859556E-02  0.0000000000000E+00  0.3465267098781E-01
-0.7398835705173E-02  0.8632850109572E-02  0.0000000000000E+00  0.3447600045337E-01
-0.1550611513668E-01  0.1733609642541E-01  0.0000000000000E+00  0.2876439754776E-01
-0.2151131658656E-01  0.2371619571323E-01  0.0000000000000E+00  0.1765871417941E-01
-0.2499411858832E-01  0.2735313927532E-01  0.0000000000000E+00  0.1695820370593E-02
-0.2579244461929E-01  0.2813638355346E-01  0.0000000000000E+00 -0.1818226579684E-01
-0.2213730678391E-01  0.2438547240018E-01  0.0000000000000E+00 -0.4127503657242E-01
-0.1313176359991E-01  0.1522002622351E-01  0.0000000000000E+00 -0.6235431267425E-01
 0.1057277993435E-03  0.1978729790829E-02  0.0000000000000E+00 -0.7333142890757E-01
 0.3217969705705E+00 -0.4335649307678E+00  0.0000000000000E+00  0.7347896491924E+00
 0.3767825972776E+00 -0.4447886709937E+00  0.0000000000000E+00  0.9433468867131E-01
 0.2631569380978E+00 -0.2943221272916E+00  0.0000000000000E+00 -0.1198707196339E+00
 0.1771922337634E+00 -0.2001416450830E+00  0.0000000000000E+00 -0.1273998330951E+00
 0.1224359939616E+00 -0.1389235413340E+00  0.0000000000000E+00 -0.1042750746689E+00
 0.8257116172241E-01 -0.9365201816980E-01  0.0000000000000E+00 -0.7191196081445E-01
 0.5384034259434E-01 -0.6032199967103E-01  0.0000000000000E+00 -0.4031815382743E-01
 0.3297796919946E-01 -0.3605547074351E-01  0.0000000000000E+00 -0.1378200197517E-01
 0.1681055013460E-01 -0.1765164769820E-01  0.0000000000000E+00  0.7743969073094E-02
 0.3477393080476E-02 -0.2757879014522E-02  0.0000000000000E+00  0.2334077243455E-01
-0.7945101672152E-02  0.9888903306211E-02  0.0000000000000E+00  0.3256354961288E-01
-0.1775286710741E-01  0.2067897531954E-01  0.0000000000000E+00  0.3564716093354E-01
-0.2592702505700E-01  0.2960672046237E-01  0.0000000000000E+00  0.3321750837568E-01
-0.3210140530269E-01  0.3630183794563E-01  0.0000000000000E+00  0.2563853614778E-01
-0.3570359623917E-01  0.4019004803869E-01  0.0000000000000E+00  0.1332469364770E-01
-0.3621853770017E-01  0.4066458900897E-01  0.0000000000000E+00 -0.2963894923806E-02
-0.3346147924367E-01  0.3762127881275E-01  0.0000000000000E+00 -0.2231042202718E-01
-0.2595857003739E-01  0.2965157670019E-01  0.0000000000000E+00 -0.4484365026621E-01
-0.1381451772502E-01  0.1706825688372E-01  0.0000000000000E+00 -0.6559397991000E-01
 0.2243253220628E-02  0.9443526912718E-03  0.0000000000000E+00 -0.7634389845602E-01
 0.3518474106232E+00 -0.5337540698766E+00  0.0000000000000E+00  0.5414386164053E+00
 0.3572870661565E+00 -0.3921481524702E+00  0.0000000000000E+00 -0.2252443933208E+00
 0.2104024869238E+00 -0.2368508670524E+00  0.0000000000000E+00 -0.2043712285108E+00
 0.1380522315608E+00 -0.1570198253270E+00  0.0000000000000E+00 -0.1580009713419E+00
 0.8755388747740E-01 -0.1008599560303E+00  0.0000000000000E+00 -0.1179531299781E+00
 0.5054683641056E-01 -0.5850987346447E-01  0.0000000000000E+00 -0.7397122570466E-01
 0.2461202746082E-01 -0.2768343356391E-01  0.0000000000000E+00 -0.3492649725161E-01
 0.6990562641263E-02 -0.6957050337491E-02  0.0000000000000E+00 -0.4414723419623E-02
-0.6598090780437E-02  0.8477646795790E-02  0.0000000000000E+00  0.1728347755545E-01
-0.1809098467990E-01  0.2135743857845E-01  0.0000000000000E+00  0.3074899948685E-01
-0.2807191189363E-01  0.3248562001187E-01  0.0000000000000E+00  0.3725195489542E-01
-0.3651098307211E-01  0.4188448197287E-01  0.0000000000000E+00  0.3787923381515E-01
-0.4312752146778E-01  0.4920042343907E-01  0.0000000000000E+00  0.3369588815157E-01
-0.4736089536978E-01  0.5385826327930E-01  0.0000000000000E+00  0.2501182115905E-01
-0.4867392111825E-01  0.5532310105280E-01  0.0000000000000E+00  0.1243799345522E-01
-0.4630687374187E-01  0.5286198176479E-01  0.0000000000000E+00 -0.2061524509313E-02
-0.3965867719740E-01  0.4529754247563E-01  0.0000000000000E+00 -0.1852257003170E-01
-0.2813814943458E-01  0.3288914768192E-01  0.0000000000000E+00 -0.4005813718810E-01
-0.1362352803215E-01  0.1763365179648E-01  0.0000000000000E+00 -0.5990779009521E-01
 0.4326125792519E-02 -0.5178429439814E-03  0.0000000000000E+00 -0.6908947485130E-01
 0.3849239651463E+00 -0.4293995544851E+00  0.0000000000000E+00 -0.2948502961153E+00
 0.3577832883204E+00 -0.3983697591916E+00  0.0000000000000E+00 -0.3027016444117E+00
 0.3285677288498E+00 -0.3670950104734E+00  0.0000000000000E+00 -0.3098723903412E+00
 0.2974978268019E+00 -0.3338376093387E+00  0.0000000000000E+00 -0.3129143814822E+00
 0.2646584189751E+00 -0.2987011673033E+00  0.0000000000000E+00 -0.3107850988237E+00
 0.2307669850908E+00 -0.2623431594466E+00  0.0000000000000E+00 -0.3029378747274E+00
 0.1965858195975E+00 -0.2255275767853E+00  0.0000000000000E+00 -0.2889827724857E+00
 0.1629463371690E+00 -0.1890919434607E+00  0.0000000000000E+00 -0.2687350890368E+00
 0.1307197804524E+00 -0.1539231444937E+00  0.0000000000000E+00 -0.2422771332989E+00
 0.1007920243283E+00 -0.1209309828530E+00  0.0000000000000E+00 -0.2100264260482E+00
 0.7402263766094E-01 -0.9100886775850E-01  0.0000000000000E+00 -0.1727962613997E+00
 0.5119127657297E-01 -0.6498161976518E-01  0.0000000000000E+00 -0.1318431139713E+00
 0.3293088995119E-01 -0.4354010009500E-01  0.0000000000000E+00 -0.8889092701476E-01
 0.1964867757540E-01 -0.2716312961766E-01  0.0000000000000E+00 -0.4611843521724E-01
 0.1143770686678E-01 -0.1602883058121E-01  0.0000000000000E+00 -0.6088995119627E-02
 0.7987473978555E-02 -0.9922404299101E-02  0.0000000000000E+00  0.2840738550267E-01
 0.8518425818663E-02 -0.8161315121889E-02  0.0000000000000E+00  0.5464457470549E-01
 0.1178867460047E-01 -0.9590047342626E-02  0.0000000000000E+00  0.7040317365334E-01
 0.1627790839307E-01 -0.1273006314469E-01  0.0000000000000E+00  0.7450941209017E-01
 0.2037155764763E-01 -0.1611084446397E-01  0.0000000000000E+00  0.6655129801974E-01
 0.4004142952447E+00 -0.4450861136417E+00  0.0000000000000E+00 -0.3024243707261E+00
 0.3772045997181E+00 -0.4201292032602E+00  0.0000000000000E+00 -0.3124936847877E+00
 0.3489535363524E+00 -0.3895794431940E+00  0.0000000000000E+00 -0.3208859712938E+00
 0.3183952073950E+00 -0.3569800573358E+00  0.0000000000000E+00 -0.3275554824805E+00
 0.2860776925108E+00 -0.3224939539770E+00  0.0000000000000E+00 -0.3296897507199E+00
 0.2523928025856E+00 -0.2864796981030E+00  0.0000000000000E+00 -0.3262299658554E+00
 0.2179632729564E+00 -0.2495267118191E+00  0.0000000000000E+00 -0.3164712738856E+00
 0.1835431248663E+00 -0.2123842962887E+00  0.0000000000000E+00 -0.2999845483352E+00
 0.1499905933880E+00 -0.1759154474858E+00  0.0000000000000E+00 -0.2766016177260E+00
 0.1182339531776E+00 -0.1410635858109E+00  0.0000000000000E+00 -0.2464839735934E+00
 0.8923450379887E-01 -0.1088158114401E+00  0.0000000000000E+00 -0.2102032010787E+00
 0.6393628626920E-01 -0.8015436377612E-01  0.0000000000000E+00 -0.1688209086929E+00
 0.4319883853700E-01 -0.5599138770359E-01  0.0000000000000E+00 -0.1239544031348E+00
 0.2770963455628E-01 -0.3708359496343E-01  0.0000000000000E+00 -0.7781288467987E-01
 0.1787404720040E-01 -0.2392433437983E-01  0.0000000000000E+00 -0.3318095398100E-01
 0.1368367175076E-01 -0.1661258396770E-01  0.0000000000000E+00  0.6690070777628E-02
 0.1457246259468E-01 -0.1470636301753E-01  0.0000000000000E+00  0.3835189738367E-01
 0.1931526451705E-01 -0.1710141224405E-01  0.0000000000000E+00  0.5870895200657E-01
 0.2608238886957E-01 -0.2207090109287E-01  0.0000000000000E+00  0.6583966510054E-01
 0.3313047471595E-01 -0.2780615512339E-01  0.0000000000000E+00  0.5970599275469E-01
 0.4152975661192E+00 -0.4611293660150E+00  0.0000000000000E+00 -0.3032925691879E+00
 0.3949074415011E+00 -0.4393360938312E+00  0.0000000000000E+00 -0.3193326003820E+00
 0.3694547294202E+00 -0.4121942862204E+00  0.0000000000000E+00 -0.3309516550332E+00
 0.3405725826167E+00 -0.3814375874374E+00  0.0000000000000E+00 -0.3405895636758E+00
 0.3094077256795E+00 -0.3483073039059E+00  0.0000000000000E+00 -0.3467513236394E+00
 0.2765166815481E+00 -0.3132723890370E+00  0.0000000000000E+00 -0.3479241100681E+00
 0.2424319279707E+00 -0.2768344463441E+00  0.0000000000000E+00 -0.3430751482825E+00
 0.2078102190518E+00 -0.2396281198632E+00  0.0000000000000E+00 -0.3314663513777E+00
 0.1734367399533E+00 -0.2024304959222E+00  0.0000000000000E+00 -0.3126270615720E+00
 0.1402128214978E+00 -0.1661448586209E+00  0.0000000000000E+00 -0.2863915819613E+00
 0.1091314100342E+00 -0.1317772252592E+00  0.0000000000000E+00 -0.2529816251124E+00
 0.8124048095743E-01 -0.1004013643498E+00  0.0000000000000E+00 -0.2131073132759E+00
 0.5758774922295E-01 -0.7310599959717E-01  0.0000000000000E+00 -0.1680728097062E+00
 0.3913982416488E-01 -0.5091712212068E-01  0.0000000000000E+00 -0.1198717369452E+00
 0.2666783961841E-01 -0.3468761674958E-01  0.0000000000000E+00 -0.7125149798638E-01
 0.2058972106509E-01 -0.2494479205276E-01  0.0000000000000E+00 -0.2571022157170E-01
 0.2076027838335E-01 -0.2168543388881E-01  0.0000000000000E+00  0.1264836439443E-01
 0.2621101829882E-01 -0.2411716747111E-01  0.0000000000000E+00  0.3957432164376E-01
 0.3500433705665E-01 -0.3045945242515E-01  0.0000000000000E+00  0.5179438831133E-01
 0.4455839979287E-01 -0.3821148627003E-01  0.0000000000000E+00  0.4894581918931E-01
 0.4306699019821E+00 -0.4777435352255E+00  0.0000000000000E+00 -0.3008952407782E+00
 0.4123634801072E+00 -0.4583712579855E+00  0.0000000000000E+00 -0.3216951110919E+00
 0.3896563667262E+00 -0.4343246218628E+00  0.0000000000000E+00 -0.3375979991975E+00
 0.3632501360061E+00 -0.4063934574126E+00  0.0000000000000E+00 -0.3508039827803E+00
 0.3340290395384E+00 -0.3754659042755E+00  0.0000000000000E+00 -0.3609057197763E+00
 0.3026409502947E+00 -0.3421843376341E+00  0.0000000000000E+00 -0.3667492427194E+00
 0.2696148617725E+00 -0.3070382106919E+00  0.0000000000000E+00 -0.3671759087109E+00
 0.2355226566831E+00 -0.2705706950910E+00  0.0000000000000E+00 -0.3612268075191E+00
 0.2010474446994E+00 -0.2334424611009E+00  0.0000000000000E+00 -0.3481530540607E+00
 0.1670013554865E+00 -0.1964520160515E+00  0.0000000000000E+00 -0.3274549798798E+00
 0.1343254085982E+00 -0.1605363213709E+00  0.0000000000000E+00 -0.2989548517667E+00
 0.1040757492580E+00 -0.1267592612221E+00  0.0000000000000E+00 -0.2629017540974E+00
 0.7739355697457E-01 -0.9628450305554E-01  0.0000000000000E+00 -0.2201001598805E+00
 0.5545055159794E-01 -0.7032488474286E-01  0.0000000000000E+00 -0.1720543079331E+00
 0.3935792827411E-01 -0.5005654613468E-01  0.0000000000000E+00 -0.1211169110135E+00
 0.3002037321655E-01 -0.3648042794208E-01  0.0000000000000E+00 -0.7062162335569E-01
 0.2790383496804E-01 -0.3020284775376E-01  0.0000000000000E+00 -0.2495323797824E-01
 0.3266671967427E-01 -0.3108695582071E-01  0.0000000000000E+00  0.1057651816087E-01
 0.4261370299762E-01 -0.3772579810960E-01  0.0000000000000E+00  0.3056568695765E-01
 0.5442144247507E-01 -0.4704721207749E-01  0.0000000000000E+00  0.3223022615623E-01
 0.4462336801164E+00 -0.4945685574746E+00  0.0000000000000E+00 -0.2958353137451E+00
 0.4298205266644E+00 -0.4773742943544E+00  0.0000000000000E+00 -0.3201112047174E+00
 0.4097026140980E+00 -0.4562489811711E+00  0.0000000000000E+00 -0.3398909116840E+00
 0.3860244275716E+00 -0.4313738379865E+00  0.0000000000000E+00 -0.3568038591130E+00
 0.3593250528663E+00 -0.4032916438184E+00  0.0000000000000E+00 -0.3708389455509E+00
 0.3301314898542E+00 -0.3725106498839E+00  0.0000000000000E+00 -0.3812343986837E+00
 0.2989260109470E+00 -0.3394859076266E+00  0.0000000000000E+00 -0.3869747723426E+00
 0.2662042149623E+00 -0.3046778491217E+00  0.0000000000000E+00 -0.3870457282073E+00
 0.2325377527860E+00 -0.2686251095061E+00  0.0000000000000E+00 -0.3805373596039E+00
 0.1986114501497E+00 -0.2319830181125E+00  0.0000000000000E+00 -0.3666975719445E+00
 0.1652421063098E+00 -0.1955446888652E+00  0.0000000000000E+00 -0.3449969215767E+00
 0.1333865905778E+00 -0.1602514398776E+00  0.0000000000000E+00 -0.3152189699193E+00
 0.1041395601557E+00 -0.1271938217612E+00  0.0000000000000E+00 -0.2775821060565E+00
 0.7871632581504E-01 -0.9759889774395E-01  0.0000000000000E+00 -0.2328957725616E+00
 0.5841093531162E-01 -0.7279423550022E-01  0.0000000000000E+00 -0.1827543042256E+00
 0.4451115141658E-01 -0.5413133204170E-01  0.0000000000000E+00 -0.1297721016132E+00
 0.3813460077051E-01 -0.4283549889591E-01  0.0000000000000E+00 -0.7786427650546E-01
 0.3990220994321E-01 -0.3970929355564E-01  0.0000000000000E+00 -0.3256254643187E-01
 0.4921134019093E-01 -0.4449075756801E-01  0.0000000000000E+00 -0.1206665436186E-02
 0.6288005389396E-01 -0.5459024909368E-01  0.0000000000000E+00  0.8618794978565E-02
 0.4617599959890E+00 -0.5113299919921E+00  0.0000000000000E+00 -0.2884017340763E+00
 0.4471705206516E+00 -0.4962159549840E+00  0.0000000000000E+00 -0.3148843728412E+00
 0.4295055616912E+00 -0.4778421943852E+00  0.0000000000000E+00 -0.3377074606650E+00
 0.4086008062397E+00 -0.4560615874687E+00  0.0000000000000E+00 -0.3578839360761E+00
 0.3847114130953E+00 -0.4311219214711E+00  0.0000000000000E+00 -0.3755115381105E+00
 0.3581986311188E+00 -0.4033650162243E+00  0.0000000000000E+00 -0.3900851417380E+00
 0.3294457330074E+00 -0.3731444313812E+00  0.0000000000000E+00 -0.4007929570309E+00
 0.2988628316188E+00 -0.3408347110546E+00  0.0000000000000E+00 -0.4067099806567E+00
 0.2669176098916E+00 -0.3068638841484E+00  0.0000000000000E+00 -0.4069093319667E+00
 0.2341666352975E+00 -0.2717477533405E+00  0.0000000000000E+00 -0.4005298132640E+00
 0.2012791239262E+00 -0.2361150819005E+00  0.0000000000000E+00 -0.3868321760547E+00
 0.1690539697673E+00 -0.2007263828890E+00  0.0000000000000E+00 -0.3652666465178E+00
 0.1384317390701E+00 -0.1664882115231E+00  0.0000000000000E+00 -0.3355632932338E+00
 0.1105012522936E+00 -0.1344630976483E+00  0.0000000000000E+00 -0.2978551394129E+00
 0.8649786598420E-01 -0.1058726364708E+00  0.0000000000000E+00 -0.2528462443531E+00
 0.6778664244059E-01 -0.8208746202028E-01  0.0000000000000E+00 -0.2020447755140E+00
 0.5581451055328E-01 -0.6458960076040E-01  0.0000000000000E+00 -0.1481006573829E+00
 0.5198696101606E-01 -0.5486736416036E-01  0.0000000000000E+00 -0.9534200692933E-01
 0.5729359888060E-01 -0.5409740701668E-01  0.0000000000000E+00 -0.5078500313223E-01
 0.7069674523276E-01 -0.6187988967607E-01  0.0000000000000E+00 -0.2585513214524E-01
 0.4770401895285E+00 -0.5278084418263E+00  0.0000000000000E+00 -0.2788075675035E+00
 0.4642621167697E+00 -0.5147339210886E+00  0.0000000000000E+00 -0.3063900318224E+00
 0.4489326795156E+00 -0.4989674046679E+00  0.0000000000000E+00 -0.3312818989487E+00
 0.4307470812745E+00 -0.4802071699557E+00  0.0000000000000E+00 -0.3539860087240E+00
 0.4097631260268E+00 -0.4585001542515E+00  0.0000000000000E+00 -0.3745637298903E+00
 0.3861897333429E+00 -0.4340340879558E+00  0.0000000000000E+00 -0.3926597350968E+00
 0.3603013531344E+00 -0.4070546202899E+00  0.0000000000000E+00 -0.4076427201858E+00
 0.3324184747646E+00 -0.3778467755569E+00  0.0000000000000E+00 -0.4187302941722E+00
 0.3029172575730E+00 -0.3467459858856E+00  0.0000000000000E+00 -0.4250779022351E+00
 0.2722484075932E+00 -0.3141577136717E+00  0.0000000000000E+00 -0.4258414710019E+00
 0.2409565354537E+00 -0.2805775540882E+00  0.0000000000000E+00 -0.4202279272857E+00
 0.2096967912239E+00 -0.2466082524933E+00  0.0000000000000E+00 -0.4075461368953E+00
 0.1792482999097E+00 -0.2129735918194E+00  0.0000000000000E+00 -0.3872682548051E+00
 0.1505245711662E+00 -0.1805294894058E+00  0.0000000000000E+00 -0.3591095387129E+00
 0.1245809875826E+00 -0.1502725798363E+00  0.0000000000000E+00 -0.3231360947426E+00
 0.1026199148241E+00 -0.1233467726362E+00  0.0000000000000E+00 -0.2799155936232E+00
 0.8599631883768E-01 -0.1010497430845E+00  0.0000000000000E+00 -0.2307419368946E+00
 0.7623277199899E-01 -0.8484480924007E-01  0.0000000000000E+00 -0.1780151129961E+00
 0.7507456836426E-01 -0.7639074878507E-01  0.0000000000000E+00 -0.1260511384544E+00
 0.8432511439380E-01 -0.7737494160608E-01  0.0000000000000E+00 -0.8389944303108E-01
 0.4918870858624E+00 -0.5438064543413E+00  0.0000000000000E+00 -0.2672023252238E+00
 0.4809208349513E+00 -0.5327470408528E+00  0.0000000000000E+00 -0.2949637433169E+00
 0.4678247036371E+00 -0.5194578836675E+00  0.0000000000000E+00 -0.3209666075175E+00
 0.4522554871122E+00 -0.5035913526267E+00  0.0000000000000E+00 -0.3453402137262E+00
 0.4341504629902E+00 -0.4850722398738E+00  0.0000000000000E+00 -0.3680580441400E+00
 0.4135998857170E+00 -0.4639707534897E+00  0.0000000000000E+00 -0.3888370107553E+00
 0.3907789126874E+00 -0.4404354060795E+00  0.0000000000000E+00 -0.4071796765054E+00
 0.3659227670146E+00 -0.4146688842411E+00  0.0000000000000E+00 -0.4224412199043E+00
 0.3393259814914E+00 -0.3869275615817E+00  0.0000000000000E+00 -0.4338900618229E+00
 0.3113532191209E+00 -0.3575325416624E+00  0.0000000000000E+00 -0.4407582031992E+00
 0.2824545434329E+00 -0.3268848415915E+00  0.0000000000000E+00 -0.4422852871858E+00
 0.2531815177961E+00 -0.2954811751000E+00  0.0000000000000E+00 -0.4377624284512E+00
 0.2242024224539E+00 -0.2639285286868E+00  0.0000000000000E+00 -0.4265816066109E+00
 0.1963158015850E+00 -0.2329567427608E+00  0.0000000000000E+00 -0.4082958032260E+00
 0.1704620579276E+00 -0.2034286713344E+00  0.0000000000000E+00 -0.3826946125266E+00
 0.1477339346132E+00 -0.1763483431537E+00  0.0000000000000E+00 -0.3499003746616E+00
 0.1293912863718E+00 -0.1528710897812E+00  0.0000000000000E+00 -0.3104907234226E+00
 0.1169033890773E+00 -0.1343335328083E+00  0.0000000000000E+00 -0.2656572736512E+00
 0.1121118929283E+00 -0.1223755580818E+00  0.0000000000000E+00 -0.2174176067972E+00
 0.1181694450670E+00 -0.1195827163362E+00  0.0000000000000E+00 -0.1691419174597E+00
 0.5061366387359E+00 -0.5591520793198E+00  0.0000000000000E+00 -0.2537070414035E+00
 0.4969772201401E+00 -0.5500798913284E+00  0.0000000000000E+00 -0.2809106837984E+00
 0.4860208708487E+00 -0.5391477930613E+00  0.0000000000000E+00 -0.3071614877425E+00
 0.4729424233169E+00 -0.5260225080209E+00  0.0000000000000E+00 -0.3323444704500E+00
 0.4576167000654E+00 -0.5105666460582E+00  0.0000000000000E+00 -0.3563416943233E+00
 0.4400509238829E+00 -0.4927697278878E+00  0.0000000000000E+00 -0.3788965256279E+00
 0.4203383470012E+00 -0.4727020247388E+00  0.0000000000000E+00 -0.3996001195431E+00
 0.3986368146939E+00 -0.4504932737609E+00  0.0000000000000E+00 -0.4179166931521E+00
 0.3751647422415E+00 -0.4263286829904E+00  0.0000000000000E+00 -0.4332175095106E+00
 0.3502077075515E+00 -0.4004553707219E+00  0.0000000000000E+00 -0.4448149046581E+00
 0.3241311918306E+00 -0.3731948092492E+00  0.0000000000000E+00 -0.4519956686665E+00
 0.2973968569878E+00 -0.3449585767998E+00  0.0000000000000E+00 -0.4540562020284E+00
 0.2705810305105E+00 -0.3162660612321E+00  0.0000000000000E+00 -0.4503430619898E+00
 0.2443948491385E+00 -0.2877634965321E+00  0.0000000000000E+00 -0.4403028301073E+00
 0.2197059992896E+00 -0.2602441983863E+00  0.0000000000000E+00 -0.4235450999100E+00
 0.1975626192451E+00 -0.2346704202114E+00  0.0000000000000E+00 -0.3999212285107E+00
 0.1792214673496E+00 -0.2121988364383E+00  0.0000000000000E+00 -0.3696170157687E+00
 0.1661890734107E+00 -0.1942177833930E+00  0.0000000000000E+00 -0.3332375879454E+00
 0.1603058380262E+00 -0.1824273530715E+00  0.0000000000000E+00 -0.2917907474634E+00
 0.1640451753504E+00 -0.1791453718345E+00  0.0000000000000E+00 -0.2458191493683E+00
 0.5196481282641E+00 -0.5736982940439E+00  0.0000000000000E+00 -0.2384307980573E+00
 0.5122770626741E+00 -0.5665748614275E+00  0.0000000000000E+00 -0.2645068072295E+00
 0.5033709677460E+00 -0.5578856637382E+00  0.0000000000000E+00 -0.2902740236379E+00
 0.4926489710137E+00 -0.5473409215873E+00  0.0000000000000E+00 -0.3154767314746E+00
 0.4799631040161E+00 -0.5347816499073E+00  0.0000000000000E+00 -0.3399256759434E+00
 0.4652683949105E+00 -0.5201482204091E+00  0.0000000000000E+00 -0.3633694664864E+00
 0.4485956681347E+00 -0.5034527643833E+00  0.0000000000000E+00 -0.3854553389061E+00
 0.4300364582085E+00 -0.4847639640678E+00  0.0000000000000E+00 -0.4057278237061E+00
 0.4097390324671E+00 -0.4642029024341E+00  0.0000000000000E+00 -0.4236415499644E+00
 0.3879126671254E+00 -0.4419470725895E+00  0.0000000000000E+00 -0.4385788060043E+00
 0.3648378287015E+00 -0.4182401532060E+00  0.0000000000000E+00 -0.4498690161027E+00
 0.3408807832828E+00 -0.3934060454415E+00  0.0000000000000E+00 -0.4568103132857E+00
 0.3165119088632E+00 -0.3678663946134E+00  0.0000000000000E+00 -0.4586948693661E+00
 0.2923275306840E+00 -0.3421613761784E+00  0.0000000000000E+00 -0.4548404274409E+00
 0.2690754002447E+00 -0.3169738328333E+00  0.0000000000000E+00 -0.4446308161571E+00
 0.2476838132237E+00 -0.2931568487961E+00  0.0000000000000E+00 -0.4275679327412E+00
 0.2292934516500E+00 -0.2717641960916E+00  0.0000000000000E+00 -0.4033354056340E+00
 0.2152850263155E+00 -0.2540795597366E+00  0.0000000000000E+00 -0.3718665065574E+00
 0.2072783560681E+00 -0.2416269797481E+00  0.0000000000000E+00 -0.3333728072407E+00
 0.2068208873714E+00 -0.2359950283325E+00  0.0000000000000E+00 -0.2882609543465E+00
 0.5323036339856E+00 -0.5873220311326E+00  0.0000000000000E+00 -0.2214728074219E+00
 0.5266859270691E+00 -0.5820947254758E+00  0.0000000000000E+00 -0.2459937753835E+00
 0.5197386496354E+00 -0.5755355480992E+00  0.0000000000000E+00 -0.2706826691681E+00
 0.5112347205773E+00 -0.5674088721537E+00  0.0000000000000E+00 -0.2952186751492E+00
 0.5010273567455E+00 -0.5575586717645E+00  0.0000000000000E+00 -0.3193690958116E+00
 0.4890428594438E+00 -0.5458997919108E+00  0.0000000000000E+00 -0.3428823746942E+00
 0.4752677677397E+00 -0.5324044855585E+00  0.0000000000000E+00 -0.3654418423492E+00
 0.4597401625223E+00 -0.5170934112432E+00  0.0000000000000E+00 -0.3866501824007E+00
 0.4425471268714E+00 -0.5000328474437E+00  0.0000000000000E+00 -0.4060280531481E+00
 0.4238278611856E+00 -0.4813375158486E+00  0.0000000000000E+00 -0.4230187823162E+00
 0.4037815566253E+00 -0.4611780745752E+00  0.0000000000000E+00 -0.4369956473698E+00
 0.3826793884499E+00 -0.4397926029761E+00  0.0000000000000E+00 -0.4472706492303E+00
 0.3608803926698E+00 -0.4175018041903E+00  0.0000000000000E+00 -0.4531049958695E+00
 0.3388513610273E+00 -0.3947280167358E+00  0.0000000000000E+00 -0.4537223238000E+00
 0.3171911153392E+00 -0.3720183694455E+00  0.0000000000000E+00 -0.4483263333305E+00
 0.2966594515739E+00 -0.3500723654949E+00  0.0000000000000E+00 -0.4361252452019E+00
 0.2782098643558E+00 -0.3297733174099E+00  0.0000000000000E+00 -0.4163669719647E+00
 0.2630222544594E+00 -0.3122199042305E+00  0.0000000000000E+00 -0.3883938456049E+00
 0.2525110646862E+00 -0.2987398517758E+00  0.0000000000000E+00 -0.3517523319427E+00
 0.2483130342737E+00 -0.2908408636917E+00  0.0000000000000E+00 -0.3065914774431E+00
 0.5439955042242E+00 -0.5999111613131E+00  0.0000000000000E+00 -0.2029272094784E+00
 0.5400696405561E+00 -0.5965049598736E+00  0.0000000000000E+00 -0.2255762133828E+00
 0.5349790480827E+00 -0.5919570725460E+00  0.0000000000000E+00 -0.2487154651571E+00
 0.5285486268794E+00 -0.5860848858035E+00  0.0000000000000E+00 -0.2720115240796E+00
 0.5206444851452E+00 -0.5787472841135E+00  0.0000000000000E+00 -0.2952140942013E+00
 0.5111796520934E+00 -0.5698489432545E+00  0.0000000000000E+00 -0.3180739777911E+00
 0.5001106639880E+00 -0.5593362516172E+00  0.0000000000000E+00 -0.3402995426620E+00
 0.4874338971335E+00 -0.5471932756028E+00  0.0000000000000E+00 -0.3615354534551E+00
 0.4731846391616E+00 -0.5334405650533E+00  0.0000000000000E+00 -0.3813531202081E+00
 0.4574395771459E+00 -0.5181373839134E+00  0.0000000000000E+00 -0.3992467659474E+00
 0.4403226501859E+00 -0.5013872628836E+00  0.0000000000000E+00 -0.4146318373811E+00
 0.4220141392753E+00 -0.4833467132123E+00  0.0000000000000E+00 -0.4268441231331E+00
 0.4027630405716E+00 -0.4642371134784E+00  0.0000000000000E+00 -0.4351388856203E+00
 0.3829030264814E+00 -0.4443600351436E+00  0.0000000000000E+00 -0.4386899189885E+00
 0.3628725774249E+00 -0.4241165340170E+00  0.0000000000000E+00 -0.4365890036212E+00
 0.3432400828934E+00 -0.4040311469805E+00  0.0000000000000E+00 -0.4278470893683E+00
 0.3247350874137E+00 -0.3847814918475E+00  0.0000000000000E+00 -0.4114004636931E+00
 0.3082870858994E+00 -0.3672346897661E+00  0.0000000000000E+00 -0.3861302011589E+00
 0.2950845090370E+00 -0.3524961682890E+00  0.0000000000000E+00 -0.3509212447884E+00
 0.2867011086447E+00 -0.3420146547131E+00  0.0000000000000E+00 -0.3047587139005E+00
 0.5546253302111E+00 -0.6113612186938E+00  0.0000000000000E+00 -0.1828911280097E+00
 0.5522948333566E+00 -0.6096684095797E+00  0.0000000000000E+00 -0.2034194771125E+00
 0.5489370123447E+00 -0.6069936676374E+00  0.0000000000000E+00 -0.2246282714522E+00
 0.5444201962009E+00 -0.6031995338188E+00  0.0000000000000E+00 -0.2462048554290E+00
 0.5386271264990E+00 -0.5981636912979E+00  0.0000000000000E+00 -0.2679018394619E+00
 0.5314664001508E+00 -0.5917893174004E+00  0.0000000000000E+00 -0.2894785377073E+00
 0.5228744897580E+00 -0.5840065015510E+00  0.0000000000000E+00 -0.3106642943711E+00
 0.5128153906547E+00 -0.5747715387520E+00  0.0000000000000E+00 -0.3311364970350E+00
 0.5012808747321E+00 -0.5640669406336E+00  0.0000000000000E+00 -0.3505071820893E+00
 0.4882924577231E+00 -0.5519031991899E+00  0.0000000000000E+00 -0.3683140639822E+00
 0.4739054257977E+00 -0.5383226085908E+00  0.0000000000000E+00 -0.3840133255247E+00
 0.4582150354154E+00 -0.5234052321057E+00  0.0000000000000E+00 -0.3969724766980E+00
 0.4413650216299E+00 -0.5072771260149E+00  0.0000000000000E+00 -0.4064621476210E+00
 0.4235587081609E+00 -0.4901210835002E+00  0.0000000000000E+00 -0.4116459866655E+00
 0.4050732730657E+00 -0.4721904068003E+00  0.0000000000000E+00 -0.4115680428917E+00
 0.3862781505644E+00 -0.4538265827336E+00  0.0000000000000E+00 -0.4051373003877E+00
 0.3676592076895E+00 -0.4354823610032E+00  0.0000000000000E+00 -0.3911094278386E+00
 0.3498526073362E+00 -0.4177532689847E+00  0.0000000000000E+00 -0.3680659493009E+00
 0.3336962094009E+00 -0.4014257263448E+00  0.0000000000000E+00 -0.3343808045291E+00
 0.3203046633042E+00 -0.3875507417507E+00  0.0000000000000E+00 -0.2881396094573E+00
 0.5641075897106E+00 -0.6215794750595E+00  0.0000000000000E+00 -0.1614801855000E+00
 0.5632418076684E+00 -0.6214579127659E+00  0.0000000000000E+00 -0.1796805227417E+00
 0.5614662506160E+00 -0.6204913360545E+00  0.0000000000000E+00 -0.1986438558308E+00
 0.5586821166424E+00 -0.6185772771070E+00  0.0000000000000E+00 -0.2180963527677E+00
 0.5547879908370E+00 -0.6156115270346E+00  0.0000000000000E+00 -0.2378085284317E+00
 0.5496923130618E+00 -0.6114998635175E+00  0.0000000000000E+00 -0.2575556917385E+00
 0.5433178651590E+00 -0.6061620754224E+00  0.0000000000000E+00 -0.2770891873058E+00
 0.5356032066861E+00 -0.5995331070046E+00  0.0000000000000E+00 -0.2961163712140E+00
 0.5265035225473E+00 -0.5915637122209E+00  0.0000000000000E+00 -0.3142862717218E+00
 0.5159920032358E+00 -0.5822216939371E+00  0.0000000000000E+00 -0.3311783495561E+00
 0.5040622188752E+00 -0.5714941626940E+00  0.0000000000000E+00 -0.3462924245532E+00
 0.4907316632268E+00 -0.5593909758296E+00  0.0000000000000E+00 -0.3590383206576E+00
 0.4760465606947E+00 -0.5459494396212E+00  0.0000000000000E+00 -0.3687240419434E+00
 0.4600880695342E+00 -0.5312403968827E+00  0.0000000000000E+00 -0.3745413466712E+00
 0.4429801654814E+00 -0.5153759621726E+00  0.0000000000000E+00 -0.3755474648885E+00
 0.4248997687536E+00 -0.4985194336048E+00  0.0000000000000E+00 -0.3706413975744E+00
 0.4060901704103E+00 -0.4808983469474E+00  0.0000000000000E+00 -0.3585327015591E+00
 0.3868790003517E+00 -0.4628221507707E+00  0.0000000000000E+00 -0.3376986653467E+00
 0.3677002739734E+00 -0.4447047744172E+00  0.0000000000000E+00 -0.3063220383571E+00
 0.3491158819438E+00 -0.4270884399205E+00  0.0000000000000E+00 -0.2621982571996E+00
 0.5723688232648E+00 -0.6304854618409E+00  0.0000000000000E+00 -0.1388331534329E+00
 0.5728076844916E+00 -0.6317625091897E+00  0.0000000000000E+00 -0.1545292397322E+00
 0.5724380519324E+00 -0.6323122697887E+00  0.0000000000000E+00 -0.1709866692323E+00
 0.5711841480276E+00 -0.6320575002483E+00  0.0000000000000E+00 -0.1879775726555E+00
 0.5689574013864E+00 -0.6309090659227E+00  0.0000000000000E+00 -0.2053002648099E+00
 0.5656674935003E+00 -0.6287765327973E+00  0.0000000000000E+00 -0.2227533284803E+00
 0.5612273544095E+00 -0.6255728475984E+00  0.0000000000000E+00 -0.2401141056525E+00
 0.5555552148014E+00 -0.6212161819560E+00  0.0000000000000E+00 -0.2571218307957E+00
 0.5485755171530E+00 -0.6156307109534E+00  0.0000000000000E+00 -0.2734641599871E+00
 0.5402196224207E+00 -0.6087472396351E+00  0.0000000000000E+00 -0.2887656662613E+00
 0.5304267416924E+00 -0.6005040934766E+00  0.0000000000000E+00 -0.3025770526956E+00
 0.5191452429521E+00 -0.5908484180955E+00  0.0000000000000E+00 -0.3143640352764E+00
 0.5063343352415E+00 -0.5797378927945E+00  0.0000000000000E+00 -0.3234949451922E+00
 0.4919660612628E+00 -0.5671427968738E+00  0.0000000000000E+00 -0.3292260458719E+00
 0.4760275125869E+00 -0.5530483557630E+00  0.0000000000000E+00 -0.3306833084632E+00
 0.4585232242643E+00 -0.5374573371960E+00  0.0000000000000E+00 -0.3268388955094E+00
 0.4394777846020E+00 -0.5203929692064E+00  0.0000000000000E+00 -0.3164797792255E+00
 0.4189385484638E+00 -0.5019021817832E+00  0.0000000000000E+00 -0.2981656869404E+00
 0.3969772337424E+00 -0.4820582504327E+00  0.0000000000000E+00 -0.2701755937143E+00
 0.3736864268067E+00 -0.4609594299378E+00  0.0000000000000E+00 -0.2304456490916E+00
 0.5793468256224E+00 -0.6380107108615E+00  0.0000000000000E+00 -0.1151094264754E+00
 0.5809062714152E+00 -0.6404885298534E+00  0.0000000000000E+00 -0.1281528304797E+00
 0.5817432807638E+00 -0.6423387354662E+00  0.0000000000000E+00 -0.1418923010594E+00
 0.5817972223958E+00 -0.6435012515709E+00  0.0000000000000E+00 -0.1561465772509E+00
 0.5809887581732E+00 -0.6438982259641E+00  0.0000000000000E+00 -0.1707474986284E+00
 0.5792286675881E+00 -0.6434425861021E+00  0.0000000000000E+00 -0.1855230671312E+00
 0.5764222884703E+00 -0.6420422846540E+00  0.0000000000000E+00 -0.2002818474275E+00
 0.5724714234159E+00 -0.6396020766677E+00  0.0000000000000E+00 -0.2147995540531E+00
 0.5672749382040E+00 -0.6360240434243E+00  0.0000000000000E+00 -0.2288074717635E+00
 0.5607287597839E+00 -0.6312075611380E+00  0.0000000000000E+00 -0.2419820210521E+00
 0.5527256221973E+00 -0.6250490582834E+00  0.0000000000000E+00 -0.2539347737930E+00
 0.5431546698213E+00 -0.6174416725590E+00  0.0000000000000E+00 -0.2642023033881E+00
 0.5319008578928E+00 -0.6082747568069E+00  0.0000000000000E+00 -0.2722353130303E+00
 0.5188439484290E+00 -0.5974330514329E+00  0.0000000000000E+00 -0.2773864672557E+00
 0.5038567534004E+00 -0.5847952082167E+00  0.0000000000000E+00 -0.2788962047487E+00
 0.4868021102816E+00 -0.5702311991260E+00  0.0000000000000E+00 -0.2758754537872E+00
 0.4675278898505E+00 -0.5535979764175E+00  0.0000000000000E+00 -0.2672835975057E+00
 0.4458595852331E+00 -0.5347327988187E+00  0.0000000000000E+00 -0.2518992123486E+00
 0.4215910801098E+00 -0.5134446367399E+00  0.0000000000000E+00 -0.2282827575442E+00
 0.3944742051927E+00 -0.4895044029032E+00  0.0000000000000E+00 -0.1947384383977E+00
 0.5849901869765E+00 -0.6440984592457E+00  0.0000000000000E+00 -0.9048488613927E-01
 0.5874672650221E+00 -0.6475592283903E+00  0.0000000000000E+00 -0.1007543261315E+00
 0.5892923814727E+00 -0.6504737126236E+00  0.0000000000000E+00 -0.1116079266892E+00
 0.5904143861228E+00 -0.6527930072271E+00  0.0000000000000E+00 -0.1229087335137E+00
 0.5907599278873E+00 -0.6544469891485E+00  0.0000000000000E+00 -0.1345249175512E+00
 0.5902401935800E+00 -0.6553508937016E+00  0.0000000000000E+00 -0.1463185741129E+00
 0.5887544068036E+00 -0.6554087002776E+00  0.0000000000000E+00 -0.1581347138797E+00
 0.5861912114369E+00 -0.6545144472643E+00  0.0000000000000E+00 -0.1697911673418E+00
 0.5824287668765E+00 -0.6525522983064E+00  0.0000000000000E+00 -0.1810693884419E+00
 0.5773340761006E+00 -0.6493958772006E+00  0.0000000000000E+00 -0.1917058842839E+00
 0.5707618259065E+00 -0.6449071493902E+00  0.0000000000000E+00 -0.2013839618291E+00
 0.5625528365781E+00 -0.6389349500755E+00  0.0000000000000E+00 -0.2097255404083E+00
 0.5525320696376E+00 -0.6313131165503E+00  0.0000000000000E+00 -0.2162828696521E+00
 0.5405059951659E+00 -0.6218580448648E+00  0.0000000000000E+00 -0.2205300871821E+00
 0.5262589392723E+00 -0.6103653248753E+00  0.0000000000000E+00 -0.2218546271212E+00
 0.5095477705186E+00 -0.5966048730681E+00  0.0000000000000E+00 -0.2195485122796E+00
 0.4900939536778E+00 -0.5803136582518E+00  0.0000000000000E+00 -0.2127993635348E+00
 0.4675714752015E+00 -0.5611847286718E+00  0.0000000000000E+00 -0.2006800096957E+00
 0.4415905493347E+00 -0.5388516116907E+00  0.0000000000000E+00 -0.1821307023226E+00
 0.4116827029781E+00 -0.5128726649058E+00  0.0000000000000E+00 -0.1559286762862E+00
 0.5892580651948E+00 -0.6487034971913E+00  0.0000000000000E+00 -0.6514797555779E-01
 0.5924354523143E+00 -0.6529141576127E+00  0.0000000000000E+00 -0.7254951183591E-01
 0.5950148479583E+00 -0.6566406309977E+00  0.0000000000000E+00 -0.8039028004402E-01
 0.5969508106563E+00 -0.6598410055770E+00  0.0000000000000E+00 -0.8857470615300E-01
 0.5981735196055E+00 -0.6624500392868E+00  0.0000000000000E+00 -0.9700839993086E-01
 0.5985939613584E+00 -0.6643842381190E+00  0.0000000000000E+00 -0.1055908243370E+00
 0.5981065248626E+00 -0.6655443867161E+00  0.0000000000000E+00 -0.1142079177601E+00
 0.5965897839082E+00 -0.6658163015349E+00  0.0000000000000E+00 -0.1227250670602E+00
 0.5939060680174E+00 -0.6650704029572E+00  0.0000000000000E+00 -0.1309804848189E+00
 0.5899002276075E+00 -0.6631605083298E+00  0.0000000000000E+00 -0.1387789134248E+00
 0.5843978384165E+00 -0.6599220886549E+00  0.0000000000000E+00 -0.1458855695977E+00
 0.5772029676228E+00 -0.6551701109151E+00  0.0000000000000E+00 -0.1520203100348E+00
 0.5680955260136E+00 -0.6486964927549E+00  0.0000000000000E+00 -0.1568521233877E+00
 0.5568281376027E+00 -0.6402671079233E+00  0.0000000000000E+00 -0.1599942393449E+00
 0.5431223426299E+00 -0.6296181748187E+00  0.0000000000000E+00 -0.1610004153362E+00
 0.5266637735839E+00 -0.6164516991513E+00  0.0000000000000E+00 -0.1593633515719E+00
 0.5070955661285E+00 -0.6004293354705E+00  0.0000000000000E+00 -0.1545166954673E+00
 0.4840085854396E+00 -0.5811633732312E+00  0.0000000000000E+00 -0.1458425255270E+00
 0.4569235781736E+00 -0.5582014931467E+00  0.0000000000000E+00 -0.1326848994091E+00
 0.4252629534335E+00 -0.5309993966205E+00  0.0000000000000E+00 -0.1143439436747E+00
 0.5921200508348E+00 -0.6517920911572E+00  0.0000000000000E+00 -0.3929623587321E-01
 0.5957700243095E+00 -0.6565085880050E+00  0.0000000000000E+00 -0.4376338707368E-01
 0.5988585284289E+00 -0.6607828372210E+00  0.0000000000000E+00 -0.4850274353383E-01
 0.6013433954999E+00 -0.6645770497818E+00  0.0000000000000E+00 -0.5345778845070E-01
 0.6031566842625E+00 -0.6678287746241E+00  0.0000000000000E+00 -0.5857188523085E-01
 0.6042089371299E+00 -0.6704550714541E+00  0.0000000000000E+00 -0.6378396703520E-01
 0.6043911239984E+00 -0.6723544125084E+00  0.0000000000000E+00 -0.6902425263714E-01
 0.6035749386413E+00 -0.6734069713910E+00  0.0000000000000E+00 -0.7421009313340E-01
 0.6016119515679E+00 -0.6734737937244E+00  0.0000000000000E+00 -0.7924198159425E-01
 0.5983319699086E+00 -0.6723951944671E+00  0.0000000000000E+00 -0.8399971793564E-01
 0.5935408433988E+00 -0.6699886159903E+00  0.0000000000000E+00 -0.8833873304738E-01
 0.5870178821361E+00 -0.6660461073569E+00  0.0000000000000E+00 -0.9208663650639E-01
 0.5785130105504E+00 -0.6603315428589E+00  0.0000000000000E+00 -0.9504016401903E-01
 0.5677437672401E+00 -0.6525776811007E+00  0.0000000000000E+00 -0.9696288257776E-01
 0.5543922682215E+00 -0.6424831703469E+00  0.0000000000000E+00 -0.9758430706426E-01
 0.5381022683608E+00 -0.6297096234533E+00  0.0000000000000E+00 -0.9660157918526E-01
 0.5184764690644E+00 -0.6138788906630E+00  0.0000000000000E+00 -0.9368580073094E-01
 0.4950738888256E+00 -0.5945704891446E+00  0.0000000000000E+00 -0.8849699597568E-01
 0.4674065599544E+00 -0.5713183243413E+00  0.0000000000000E+00 -0.8071762558853E-01
 0.4349140474666E+00 -0.5435957781434E+00  0.0000000000000E+00 -0.7012857426061E-01
 0.5935560459106E+00 -0.6533419265378E+00  0.0000000000000E+00 -0.1313339096322E-01
 0.5974440491860E+00 -0.6583130756968E+00  0.0000000000000E+00 -0.1462678684713E-01
 0.6007889851335E+00 -0.6628630972346E+00  0.0000000000000E+00 -0.1621240366540E-01
 0.6035502444423E+00 -0.6669561643045E+00  0.0000000000000E+00 -0.1787151699772E-01
 0.6056606896030E+00 -0.6705310869093E+00  0.0000000000000E+00 -0.1958526224012E-01
 0.6070305417612E+00 -0.6735051056370E+00  0.0000000000000E+00 -0.2133317536631E-01
 0.6075489928833E+00 -0.6757754707191E+00  0.0000000000000E+00 -0.2309178131099E-01
 0.6070842370576E+00 -0.6772194746597E+00  0.0000000000000E+00 -0.2483321653616E-01
 0.6054823934891E+00 -0.6776933999000E+00  0.0000000000000E+00 -0.2652389415844E-01
 0.6025656532083E+00 -0.6770307059671E+00  0.0000000000000E+00 -0.2812321399065E-01
 0.5981298924665E+00 -0.6750396920726E+00  0.0000000000000E+00 -0.2958232803927E-01
 0.5919419503486E+00 -0.6715008240800E+00  0.0000000000000E+00 -0.3084299648285E-01
 0.5837367638179E+00 -0.6661639066916E+00  0.0000000000000E+00 -0.3183661412355E-01
 0.5732145946246E+00 -0.6587453159843E+00  0.0000000000000E+00 -0.3248356265788E-01
 0.5600386837874E+00 -0.6489255963720E+00  0.0000000000000E+00 -0.3269317035197E-01
 0.5438338680994E+00 -0.6363478997394E+00  0.0000000000000E+00 -0.3236479354732E-01
 0.5241870716631E+00 -0.6206180751769E+00  0.0000000000000E+00 -0.3139098025904E-01
 0.5006514790416E+00 -0.6013079279560E+00  0.0000000000000E+00 -0.2966501713150E-01
 0.4727582517503E+00 -0.5779649434539E+00  0.0000000000000E+00 -0.2709795343133E-01
 0.4400539955780E+00 -0.5501401075852E+00  0.0000000000000E+00 -0.2368488419331E-01
 0.5935560459162E+00 -0.6533419265436E+00  0.0000000000000E+00  0.1313339088348E-01
 0.5974440491965E+00 -0.6583130757079E+00  0.0000000000000E+00  0.1462678660821E-01
 0.6007889851497E+00 -0.6628630972516E+00  0.0000000000000E+00  0.1621240325237E-01
 0.6035502444649E+00 -0.6669561643283E+00  0.0000000000000E+00  0.1787151639697E-01
 0.6056606896328E+00 -0.6705310869409E+00  0.0000000000000E+00  0.1958526143957E-01
 0.6070305417990E+00 -0.6735051056771E+00  0.0000000000000E+00  0.2133317435576E-01
 0.6075489929299E+00 -0.6757754707687E+00  0.0000000000000E+00  0.2309178008255E-01
 0.6070842371137E+00 -0.6772194747197E+00  0.0000000000000E+00  0.2483321508466E-01
 0.6054823935553E+00 -0.6776933999711E+00  0.0000000000000E+00  0.2652389248205E-01
 0.6025656532849E+00 -0.6770307060500E+00  0.0000000000000E+00  0.2812321209171E-01
 0.5981298925538E+00 -0.6750396921677E+00  0.0000000000000E+00  0.2958232592539E-01
 0.5919419504465E+00 -0.6715008241874E+00  0.0000000000000E+00  0.3084299416797E-01
 0.5837367639259E+00 -0.6661639068111E+00  0.0000000000000E+00  0.3183661162915E-01
 0.5732145947416E+00 -0.6587453161150E+00  0.0000000000000E+00  0.3248356001458E-01
 0.5600386839118E+00 -0.6489255965127E+00  0.0000000000000E+00  0.3269316760100E-01
 0.5438338682289E+00 -0.6363478998883E+00  0.0000000000000E+00  0.3236479074187E-01
 0.5241870717949E+00 -0.6206180753317E+00  0.0000000000000E+00  0.3139097746571E-01
 0.5006514791727E+00 -0.6013079281137E+00  0.0000000000000E+00  0.2966501443080E-01
 0.4727582518781E+00 -0.5779649436123E+00  0.0000000000000E+00  0.2709795091687E-01
 0.4400539957032E+00 -0.5501401077441E+00  0.0000000000000E+00  0.2368488196609E-01
 0.5921200508515E+00 -0.6517920911747E+00  0.0000000000000E+00  0.3929623579384E-01
 0.5957700243410E+00 -0.6565085880381E+00  0.0000000000000E+00  0.4376338683560E-01
 0.5988585284773E+00 -0.6607828372720E+00  0.0000000000000E+00  0.4850274312247E-01
 0.6013433955675E+00 -0.6645770498531E+00  0.0000000000000E+00  0.5345778785299E-01
 0.6031566843515E+00 -0.6678287747183E+00  0.0000000000000E+00  0.5857188443524E-01
 0.6042089372429E+00 -0.6704550715740E+00  0.0000000000000E+00  0.6378396603212E-01
 0.6043911241375E+00 -0.6723544126567E+00  0.0000000000000E+00  0.6902425141929E-01
 0.6035749388087E+00 -0.6734069715703E+00  0.0000000000000E+00  0.7421009169616E-01
 0.6016119517655E+00 -0.6734737939371E+00  0.0000000000000E+00  0.7924197993622E-01
 0.5983319701377E+00 -0.6723951947150E+00  0.0000000000000E+00  0.8399971605951E-01
 0.5935408436600E+00 -0.6699886162747E+00  0.0000000000000E+00  0.8833873096089E-01
 0.5870178824291E+00 -0.6660461076783E+00  0.0000000000000E+00  0.9208663422333E-01
 0.5785130108735E+00 -0.6603315432164E+00  0.0000000000000E+00  0.9504016156048E-01
 0.5677437675901E+00 -0.6525776814922E+00  0.0000000000000E+00  0.9696287997366E-01
 0.5543922685936E+00 -0.6424831707686E+00  0.0000000000000E+00  0.9758430435486E-01
 0.5381022687481E+00 -0.6297096238994E+00  0.0000000000000E+00  0.9660157642279E-01
 0.5184764694583E+00 -0.6138788911260E+00  0.0000000000000E+00  0.9368579798143E-01
 0.4950738892160E+00 -0.5945704896156E+00  0.0000000000000E+00  0.8849699332074E-01
 0.4674065603311E+00 -0.5713183248111E+00  0.0000000000000E+00  0.8071762312722E-01
 0.4349140478230E+00 -0.5435957786051E+00  0.0000000000000E+00  0.7012857211411E-01
 0.5892580652226E+00 -0.6487034972204E+00  0.0000000000000E+00  0.6514797547906E-01
 0.5924354523666E+00 -0.6529141576675E+00  0.0000000000000E+00  0.7254951159944E-01
 0.5950148480385E+00 -0.6566406310821E+00  0.0000000000000E+00  0.8039027963601E-01
 0.5969508107681E+00 -0.6598410056950E+00  0.0000000000000E+00  0.8857470556141E-01
 0.5981735197528E+00 -0.6624500394428E+00  0.0000000000000E+00  0.9700839914526E-01
 0.5985939615451E+00 -0.6643842383174E+00  0.0000000000000E+00  0.1055908233490E+00
 0.5981065250926E+00 -0.6655443869615E+00  0.0000000000000E+00  0.1142079165636E+00
 0.5965897841852E+00 -0.6658163018317E+00  0.0000000000000E+00  0.1227250656516E+00
 0.5939060683445E+00 -0.6650704033093E+00  0.0000000000000E+00  0.1309804831975E+00
 0.5899002279869E+00 -0.6631605087405E+00  0.0000000000000E+00  0.1387789115942E+00
 0.5843978388493E+00 -0.6599220891264E+00  0.0000000000000E+00  0.1458855675658E+00
 0.5772029681084E+00 -0.6551701114480E+00  0.0000000000000E+00  0.1520203078153E+00
 0.5680955265494E+00 -0.6486964933482E+00  0.0000000000000E+00  0.1568521210010E+00
 0.5568281381835E+00 -0.6402671085733E+00  0.0000000000000E+00  0.1599942368196E+00
 0.5431223432475E+00 -0.6296181755190E+00  0.0000000000000E+00  0.1610004127108E+00
 0.5266637742267E+00 -0.6164516998924E+00  0.0000000000000E+00  0.1593633488966E+00
 0.5070955667811E+00 -0.6004293362390E+00  0.0000000000000E+00  0.1545166928065E+00
 0.4840085860827E+00 -0.5811633740101E+00  0.0000000000000E+00  0.1458425229625E+00
 0.4569235787845E+00 -0.5582014939156E+00  0.0000000000000E+00  0.1326848970448E+00
 0.4252629539860E+00 -0.5309993973557E+00  0.0000000000000E+00  0.1143439416450E+00
 0.5849901870153E+00 -0.6440984592863E+00  0.0000000000000E+00  0.9048488606184E-01
 0.5874672650946E+00 -0.6475592284664E+00  0.0000000000000E+00  0.1007543258981E+00
 0.5892923815838E+00 -0.6504737127405E+00  0.0000000000000E+00  0.1116079262871E+00
 0.5904143862775E+00 -0.6527930073904E+00  0.0000000000000E+00  0.1229087329326E+00
 0.5907599280911E+00 -0.6544469893643E+00  0.0000000000000E+00  0.1345249167823E+00
 0.5902401938383E+00 -0.6553508939762E+00  0.0000000000000E+00  0.1463185731497E+00
 0.5887544071221E+00 -0.6554087006174E+00  0.0000000000000E+00  0.1581347127177E+00
 0.5861912118206E+00 -0.6545144476754E+00  0.0000000000000E+00  0.1697911659791E+00
 0.5824287673298E+00 -0.6525522987945E+00  0.0000000000000E+00  0.1810693868794E+00
 0.5773340766267E+00 -0.6493958777703E+00  0.0000000000000E+00  0.1917058825260E+00
 0.5707618265071E+00 -0.6449071500447E+00  0.0000000000000E+00  0.2013839598844E+00
 0.5625528372525E+00 -0.6389349508159E+00  0.0000000000000E+00  0.2097255382905E+00
 0.5525320703824E+00 -0.6313131173752E+00  0.0000000000000E+00  0.2162828673807E+00
 0.5405059959741E+00 -0.6218580457695E+00  0.0000000000000E+00  0.2205300847840E+00
 0.5262589401324E+00 -0.6103653258508E+00  0.0000000000000E+00  0.2218546246322E+00
 0.5095477714137E+00 -0.5966048741007E+00  0.0000000000000E+00  0.2195485097460E+00
 0.4900939545850E+00 -0.5803136593216E+00  0.0000000000000E+00  0.2127993610167E+00
 0.4675714760905E+00 -0.5611847297522E+00  0.0000000000000E+00  0.2006800072705E+00
 0.4415905501665E+00 -0.5388516127466E+00  0.0000000000000E+00  0.1821307000904E+00
 0.4116827037034E+00 -0.5128726658924E+00  0.0000000000000E+00  0.1559286743762E+00
 0.5793468256719E+00 -0.6380107109132E+00  0.0000000000000E+00  0.1151094263988E+00
 0.5809062715073E+00 -0.6404885299499E+00  0.0000000000000E+00  0.1281528302491E+00
 0.5817432809045E+00 -0.6423387356142E+00  0.0000000000000E+00  0.1418923006640E+00
 0.5817972225916E+00 -0.6435012517774E+00  0.0000000000000E+00  0.1561465766822E+00
 0.5809887584310E+00 -0.6438982262370E+00  0.0000000000000E+00  0.1707474978803E+00
 0.5792286679150E+00 -0.6434425864496E+00  0.0000000000000E+00  0.1855230661994E+00
 0.5764222888735E+00 -0.6420422850843E+00  0.0000000000000E+00  0.2002818463100E+00
 0.5724714239020E+00 -0.6396020771888E+00  0.0000000000000E+00  0.2147995527503E+00
 0.5672749387789E+00 -0.6360240440435E+00  0.0000000000000E+00  0.2288074702782E+00
 0.5607287604517E+00 -0.6312075618613E+00  0.0000000000000E+00  0.2419820193906E+00
 0.5527256229604E+00 -0.6250490591151E+00  0.0000000000000E+00  0.2539347719651E+00
 0.5431546706791E+00 -0.6174416735009E+00  0.0000000000000E+00  0.2642023014080E+00
 0.5319008588413E+00 -0.6082747578574E+00  0.0000000000000E+00  0.2722353109171E+00
 0.5188439494592E+00 -0.5974330525863E+00  0.0000000000000E+00  0.2773864650348E+00
 0.5038567544979E+00 -0.5847952094618E+00  0.0000000000000E+00  0.2788962024525E+00
 0.4868021114246E+00 -0.5702312004448E+00  0.0000000000000E+00  0.2758754514570E+00
 0.4675278910081E+00 -0.5535979777837E+00  0.0000000000000E+00  0.2672835951941E+00
 0.4458595863632E+00 -0.5347328001953E+00  0.0000000000000E+00  0.2518992101227E+00
 0.4215910811563E+00 -0.5134446380766E+00  0.0000000000000E+00  0.2282827554900E+00
 0.3944742060825E+00 -0.4895044041333E+00  0.0000000000000E+00  0.1947384366254E+00
 0.5723688233248E+00 -0.6304854619036E+00  0.0000000000000E+00  0.1388331533582E+00
 0.5728076846026E+00 -0.6317625093060E+00  0.0000000000000E+00  0.1545292395063E+00
 0.5724380521014E+00 -0.6323122699663E+00  0.0000000000000E+00  0.1709866688467E+00
 0.5711841482624E+00 -0.6320575004959E+00  0.0000000000000E+00  0.1879775721047E+00
 0.5689574016955E+00 -0.6309090662499E+00  0.0000000000000E+00  0.2053002640908E+00
 0.5656674938925E+00 -0.6287765332142E+00  0.0000000000000E+00  0.2227533275918E+00
 0.5612273548936E+00 -0.6255728481150E+00  0.0000000000000E+00  0.2401141045956E+00
 0.5555552153855E+00 -0.6212161825822E+00  0.0000000000000E+00  0.2571218295737E+00
 0.5485755178443E+00 -0.6156307116980E+00  0.0000000000000E+00  0.2734641586057E+00
 0.5402196232243E+00 -0.6087472405056E+00  0.0000000000000E+00  0.2887656647293E+00
 0.5304267426114E+00 -0.6005040944783E+00  0.0000000000000E+00  0.3025770510247E+00
 0.5191452439860E+00 -0.5908484192306E+00  0.0000000000000E+00  0.3143640334820E+00
 0.5063343363855E+00 -0.5797378940615E+00  0.0000000000000E+00  0.3234949432936E+00
 0.4919660625066E+00 -0.5671427982661E+00  0.0000000000000E+00  0.3292260438926E+00
 0.4760275139131E+00 -0.5530483572674E+00  0.0000000000000E+00  0.3306833064318E+00
 0.4585232256464E+00 -0.5374573387908E+00  0.0000000000000E+00  0.3268388934598E+00
 0.4394777860019E+00 -0.5203929708591E+00  0.0000000000000E+00  0.3164797771985E+00
 0.4189385498285E+00 -0.5019021834474E+00  0.0000000000000E+00  0.2981656849844E+00
 0.3969772349997E+00 -0.4820582520440E+00  0.0000000000000E+00  0.2701755918880E+00
 0.3736864278602E+00 -0.4609594314084E+00  0.0000000000000E+00  0.2304456474679E+00
 0.5641075897806E+00 -0.6215794751325E+00  0.0000000000000E+00  0.1614801854259E+00
 0.5632418077968E+00 -0.6214579129002E+00  0.0000000000000E+00  0.1796805225194E+00
 0.5614662508109E+00 -0.6204913362592E+00  0.0000000000000E+00  0.1986438554550E+00
 0.5586821169130E+00 -0.6185772773922E+00  0.0000000000000E+00  0.2180963522366E+00
 0.5547879911932E+00 -0.6156115274117E+00  0.0000000000000E+00  0.2378085277456E+00
 0.5496923135142E+00 -0.6114998639983E+00  0.0000000000000E+00  0.2575556909002E+00
 0.5433178657179E+00 -0.6061620760189E+00  0.0000000000000E+00  0.2770891863199E+00
 0.5356032073610E+00 -0.5995331077282E+00  0.0000000000000E+00  0.2961163700876E+00
 0.5265035233466E+00 -0.5915637130820E+00  0.0000000000000E+00  0.3142862704644E+00
 0.5159920041657E+00 -0.5822216949444E+00  0.0000000000000E+00  0.3311783481799E+00
 0.5040622199391E+00 -0.5714941638536E+00  0.0000000000000E+00  0.3462924230733E+00
 0.4907316644244E+00 -0.5593909771446E+00  0.0000000000000E+00  0.3590383190920E+00
 0.4760465620207E+00 -0.5459494410899E+00  0.0000000000000E+00  0.3687240403128E+00
 0.4600880709771E+00 -0.5312403984978E+00  0.0000000000000E+00  0.3745413449988E+00
 0.4429801670215E+00 -0.5153759639194E+00  0.0000000000000E+00  0.3755474631998E+00
 0.4248997703609E+00 -0.4985194354592E+00  0.0000000000000E+00  0.3706413958961E+00
 0.4060901720414E+00 -0.4808983488726E+00  0.0000000000000E+00  0.3585326999181E+00
 0.3868790019461E+00 -0.4628221527144E+00  0.0000000000000E+00  0.3376986637686E+00
 0.3677002754479E+00 -0.4447047763056E+00  0.0000000000000E+00  0.3063220368641E+00
 0.3491158831847E+00 -0.4270884416520E+00  0.0000000000000E+00  0.2621982558086E+00
 0.5546253302910E+00 -0.6113612187769E+00  0.0000000000000E+00  0.1828911279373E+00
 0.5522948335016E+00 -0.6096684097312E+00  0.0000000000000E+00  0.2034194768962E+00
 0.5489370125638E+00 -0.6069936678673E+00  0.0000000000000E+00  0.2246282710907E+00
 0.5444201965047E+00 -0.6031995341390E+00  0.0000000000000E+00  0.2462048549247E+00
 0.5386271268992E+00 -0.5981636917215E+00  0.0000000000000E+00  0.2679018388196E+00
 0.5314664006593E+00 -0.5917893179410E+00  0.0000000000000E+00  0.2894785369339E+00
 0.5228744903867E+00 -0.5840065022220E+00  0.0000000000000E+00  0.3106642934757E+00
 0.5128153914143E+00 -0.5747715395664E+00  0.0000000000000E+00  0.3311364960293E+00
 0.5012808756318E+00 -0.5640669416030E+00  0.0000000000000E+00  0.3505071809877E+00
 0.4882924587697E+00 -0.5519032003238E+00  0.0000000000000E+00  0.3683140628017E+00
 0.4739054269949E+00 -0.5383226098961E+00  0.0000000000000E+00  0.3840133242849E+00
 0.4582150367626E+00 -0.5234052335854E+00  0.0000000000000E+00  0.3969724754209E+00
 0.4413650231211E+00 -0.5072771276672E+00  0.0000000000000E+00  0.4064621463300E+00
 0.4235587097832E+00 -0.4901210853169E+00  0.0000000000000E+00  0.4116459853847E+00
 0.4050732747974E+00 -0.4721904087655E+00  0.0000000000000E+00  0.4115680416439E+00
 0.3862781523730E+00 -0.4538265848211E+00  0.0000000000000E+00  0.4051372991920E+00
 0.3676592095285E+00 -0.4354823631741E+00  0.0000000000000E+00  0.3911094267067E+00
 0.3498526091417E+00 -0.4177532711842E+00  0.0000000000000E+00  0.3680659482312E+00
 0.3336962110864E+00 -0.4014257284975E+00  0.0000000000000E+00  0.3343808034978E+00
 0.3203046647529E+00 -0.3875507437534E+00  0.0000000000000E+00  0.2881396084043E+00
 0.5439955043130E+00 -0.5999111614052E+00  0.0000000000000E+00  0.2029272094062E+00
 0.5400696407153E+00 -0.5965049600396E+00  0.0000000000000E+00  0.2255762131712E+00
 0.5349790483223E+00 -0.5919570727973E+00  0.0000000000000E+00  0.2487154648102E+00
 0.5285486272116E+00 -0.5860848861536E+00  0.0000000000000E+00  0.2720115236046E+00
 0.5206444855831E+00 -0.5787472845771E+00  0.0000000000000E+00  0.2952140936078E+00
 0.5111796526506E+00 -0.5698489438468E+00  0.0000000000000E+00  0.3180739770909E+00
 0.5001106646773E+00 -0.5593362523531E+00  0.0000000000000E+00  0.3402995418693E+00
 0.4874338979666E+00 -0.5471932764963E+00  0.0000000000000E+00  0.3615354525872E+00
 0.4731846401481E+00 -0.5334405661166E+00  0.0000000000000E+00  0.3813531192853E+00
 0.4574395782928E+00 -0.5181373851565E+00  0.0000000000000E+00  0.3992467649929E+00
 0.4403226514965E+00 -0.5013872643135E+00  0.0000000000000E+00  0.4146318364209E+00
 0.4220141407484E+00 -0.4833467148317E+00  0.0000000000000E+00  0.4268441221951E+00
 0.4027630422002E+00 -0.4642371152849E+00  0.0000000000000E+00  0.4351388847331E+00
 0.3829030282515E+00 -0.4443600371284E+00  0.0000000000000E+00  0.4386899181790E+00
 0.3628725793136E+00 -0.4241165361633E+00  0.0000000000000E+00  0.4365890029121E+00
 0.3432400848670E+00 -0.4040311492618E+00  0.0000000000000E+00  0.4278470887737E+00
 0.3247350894258E+00 -0.3847814942256E+00  0.0000000000000E+00  0.4114004632121E+00
 0.3082870878888E+00 -0.3672346921891E+00  0.0000000000000E+00  0.3861302007676E+00
 0.2950845109265E+00 -0.3524961706903E+00  0.0000000000000E+00  0.3509212444251E+00
 0.2867011103396E+00 -0.3420146570126E+00  0.0000000000000E+00  0.3047587134361E+00
 0.5323036340825E+00 -0.5873220312330E+00  0.0000000000000E+00  0.2214728073489E+00
 0.5266859272406E+00 -0.5820947256547E+00  0.0000000000000E+00  0.2459937751775E+00
 0.5197386498929E+00 -0.5755355483694E+00  0.0000000000000E+00  0.2706826688392E+00
 0.5112347209346E+00 -0.5674088725304E+00  0.0000000000000E+00  0.2952186747101E+00
 0.5010273572173E+00 -0.5575586722643E+00  0.0000000000000E+00  0.3193690952771E+00
 0.4890428600448E+00 -0.5458997925503E+00  0.0000000000000E+00  0.3428823740816E+00
 0.4752677684835E+00 -0.5324044863534E+00  0.0000000000000E+00  0.3654418416785E+00
 0.4597401634209E+00 -0.5170934122081E+00  0.0000000000000E+00  0.3866501816956E+00
 0.4425471279342E+00 -0.5000328485910E+00  0.0000000000000E+00  0.4060280524360E+00
 0.4238278624191E+00 -0.4813375171879E+00  0.0000000000000E+00  0.4230187816282E+00
 0.4037815580317E+00 -0.4611780761126E+00  0.0000000000000E+00  0.4369956467396E+00
 0.3826793900266E+00 -0.4397926047134E+00  0.0000000000000E+00  0.4472706486934E+00
 0.3608803944082E+00 -0.4175018061237E+00  0.0000000000000E+00  0.4531049954608E+00
 0.3388513629116E+00 -0.3947280188551E+00  0.0000000000000E+00  0.4537223235511E+00
 0.3171911173451E+00 -0.3720183717330E+00  0.0000000000000E+00  0.4483263332652E+00
 0.2966594536677E+00 -0.3500723679238E+00  0.0000000000000E+00  0.4361252453303E+00
 0.2782098664927E+00 -0.3297733199439E+00  0.0000000000000E+00  0.4163669722754E+00
 0.2630222565831E+00 -0.3122199068226E+00  0.0000000000000E+00  0.3883938460549E+00
 0.2525110667314E+00 -0.2987398543699E+00  0.0000000000000E+00  0.3517523324472E+00
 0.2483130361836E+00 -0.2908408662356E+00  0.0000000000000E+00  0.3065914778593E+00
 0.5196481283681E+00 -0.5736982941516E+00  0.0000000000000E+00  0.2384307979833E+00
 0.5122770628560E+00 -0.5665748616175E+00  0.0000000000000E+00  0.2645068070322E+00
 0.5033709680189E+00 -0.5578856640252E+00  0.0000000000000E+00  0.2902740233343E+00
 0.4926489713931E+00 -0.5473409219886E+00  0.0000000000000E+00  0.3154767310834E+00
 0.4799631045182E+00 -0.5347816504409E+00  0.0000000000000E+00  0.3399256754850E+00
 0.4652683955506E+00 -0.5201482210925E+00  0.0000000000000E+00  0.3633694659835E+00
 0.4485956689267E+00 -0.5034527652327E+00  0.0000000000000E+00  0.3854553383853E+00
 0.4300364591637E+00 -0.4847639650975E+00  0.0000000000000E+00  0.4057278231981E+00
 0.4097390335941E+00 -0.4642029036555E+00  0.0000000000000E+00  0.4236415495046E+00
 0.3879126684290E+00 -0.4419470740110E+00  0.0000000000000E+00  0.4385788056317E+00
 0.3648378301819E+00 -0.4182401548318E+00  0.0000000000000E+00  0.4498690158594E+00
 0.3408807849351E+00 -0.3934060472711E+00  0.0000000000000E+00  0.4568103132147E+00
 0.3165119106763E+00 -0.3678663966407E+00  0.0000000000000E+00  0.4586948695086E+00
 0.2923275326401E+00 -0.3421613783910E+00  0.0000000000000E+00  0.4548404278325E+00
 0.2690754023183E+00 -0.3169738352120E+00  0.0000000000000E+00  0.4446308168223E+00
 0.2476838153818E+00 -0.2931568513144E+00  0.0000000000000E+00  0.4275679336864E+00
 0.2292934538518E+00 -0.2717641987164E+00  0.0000000000000E+00  0.4033354068386E+00
 0.2152850285132E+00 -0.2540795624281E+00  0.0000000000000E+00  0.3718665079639E+00
 0.2072783582060E+00 -0.2416269824600E+00  0.0000000000000E+00  0.3333728087482E+00
 0.2068208893872E+00 -0.2359950310063E+00  0.0000000000000E+00  0.2882609558501E+00
 0.5061366388461E+00 -0.5591520794341E+00  0.0000000000000E+00  0.2537070413287E+00
 0.4969772203309E+00 -0.5500798915284E+00  0.0000000000000E+00  0.2809106836148E+00
 0.4860208711353E+00 -0.5391477933640E+00  0.0000000000000E+00  0.3071614874746E+00
 0.4729424237166E+00 -0.5260225084456E+00  0.0000000000000E+00  0.3323444701220E+00
 0.4576167005951E+00 -0.5105666466238E+00  0.0000000000000E+00  0.3563416939608E+00
 0.4400509245580E+00 -0.4927697286122E+00  0.0000000000000E+00  0.3788965252595E+00
 0.4203383478348E+00 -0.4727020256375E+00  0.0000000000000E+00  0.3996001192016E+00
 0.3986368156960E+00 -0.4504932748467E+00  0.0000000000000E+00  0.4179166928759E+00
 0.3751647434185E+00 -0.4263286842730E+00  0.0000000000000E+00  0.4332175093428E+00
 0.3502077089057E+00 -0.4004553722071E+00  0.0000000000000E+00  0.4448149046462E+00
 0.3241311933596E+00 -0.3731948109384E+00  0.0000000000000E+00  0.4519956688606E+00
 0.2973968586836E+00 -0.3449585786892E+00  0.0000000000000E+00  0.4540562024795E+00
 0.2705810323595E+00 -0.3162660633128E+00  0.0000000000000E+00  0.4503430627463E+00
 0.2443948511214E+00 -0.2877634987895E+00  0.0000000000000E+00  0.4403028312114E+00
 0.2197060013815E+00 -0.2602442008009E+00  0.0000000000000E+00  0.4235451013927E+00
 0.1975626214174E+00 -0.2346704227600E+00  0.0000000000000E+00  0.3999212303852E+00
 0.1792214695711E+00 -0.2121988390956E+00  0.0000000000000E+00  0.3696170180231E+00
 0.1661890756504E+00 -0.1942177861347E+00  0.0000000000000E+00  0.3332375905330E+00
 0.1603058402517E+00 -0.1824273558738E+00  0.0000000000000E+00  0.2917907502919E+00
 0.1640451774793E+00 -0.1791453746455E+00  0.0000000000000E+00  0.2458191522883E+00
 0.4918870859773E+00 -0.5438064544607E+00  0.0000000000000E+00  0.2672023251503E+00
 0.4809208351494E+00 -0.5327470410615E+00  0.0000000000000E+00  0.2949637431551E+00
 0.4678247039361E+00 -0.5194578839851E+00  0.0000000000000E+00  0.3209666072987E+00
 0.4522554875307E+00 -0.5035913530739E+00  0.0000000000000E+00  0.3453402134795E+00
 0.4341504635451E+00 -0.4850722404698E+00  0.0000000000000E+00  0.3680580438955E+00
 0.4135998864226E+00 -0.4639707542512E+00  0.0000000000000E+00  0.3888370105470E+00
 0.3907789135549E+00 -0.4404354070202E+00  0.0000000000000E+00  0.4071796763728E+00
 0.3659227680514E+00 -0.4146688853713E+00  0.0000000000000E+00  0.4224412198926E+00
 0.3393259827007E+00 -0.3869275629076E+00  0.0000000000000E+00  0.4338900619830E+00
 0.3113532205014E+00 -0.3575325431859E+00  0.0000000000000E+00  0.4407582035861E+00
 0.2824545449780E+00 -0.3268848433093E+00  0.0000000000000E+00  0.4422852878571E+00
 0.2531815194937E+00 -0.2954811770036E+00  0.0000000000000E+00  0.4377624294647E+00
 0.2242024242862E+00 -0.2639285307618E+00  0.0000000000000E+00  0.4265816080220E+00
 0.1963158035291E+00 -0.2329567449875E+00  0.0000000000000E+00  0.4082958050838E+00
 0.1704620599563E+00 -0.2034286736887E+00  0.0000000000000E+00  0.3826946148695E+00
 0.1477339366972E+00 -0.1763483456087E+00  0.0000000000000E+00  0.3499003775116E+00
 0.1293912884828E+00 -0.1528710923099E+00  0.0000000000000E+00  0.3104907267776E+00
 0.1169033911923E+00 -0.1343335353877E+00  0.0000000000000E+00  0.2656572774714E+00
 0.1121118950332E+00 -0.1223755606981E+00  0.0000000000000E+00  0.2174176109745E+00
 0.1181694471725E+00 -0.1195827190005E+00  0.0000000000000E+00  0.1691419216798E+00
 0.4770401896462E+00 -0.5278084419491E+00  0.0000000000000E+00  0.2788075674347E+00
 0.4642621169734E+00 -0.5147339213045E+00  0.0000000000000E+00  0.3063900316923E+00
 0.4489326798253E+00 -0.4989674049990E+00  0.0000000000000E+00  0.3312818987937E+00
 0.4307470817092E+00 -0.4802071704234E+00  0.0000000000000E+00  0.3539860085764E+00
 0.4097631266023E+00 -0.4585001548736E+00  0.0000000000000E+00  0.3745637297838E+00
 0.3861897340710E+00 -0.4340340887465E+00  0.0000000000000E+00  0.3926597350700E+00
 0.3603013540229E+00 -0.4070546212592E+00  0.0000000000000E+00  0.4076427202837E+00
 0.3324184758167E+00 -0.3778467767107E+00  0.0000000000000E+00  0.4187302944456E+00
 0.3029172587871E+00 -0.3467459872248E+00  0.0000000000000E+00  0.4250779027396E+00
 0.2722484089621E+00 -0.3141577151914E+00  0.0000000000000E+00  0.4258414717962E+00
 0.2409565369639E+00 -0.2805775557772E+00  0.0000000000000E+00  0.4202279284286E+00
 0.2096967928548E+00 -0.2466082543329E+00  0.0000000000000E+00  0.4075461384429E+00
 0.1792483016334E+00 -0.2129735937827E+00  0.0000000000000E+00  0.3872682568059E+00
 0.1505245729469E+00 -0.1805294914571E+00  0.0000000000000E+00  0.3591095412022E+00
 0.1245809893773E+00 -0.1502725819307E+00  0.0000000000000E+00  0.3231360977343E+00
 0.1026199165823E+00 -0.1233467747188E+00  0.0000000000000E+00  0.2799155970987E+00
 0.8599632050385E-01 -0.1010497450915E+00  0.0000000000000E+00  0.2307419407861E+00
 0.7623277351675E-01 -0.8484481110063E-01  0.0000000000000E+00  0.1780151171602E+00
 0.7507456969405E-01 -0.7639075043309E-01  0.0000000000000E+00  0.1260511426219E+00
 0.8432511559714E-01 -0.7737494304222E-01  0.0000000000000E+00  0.8389944670897E-01
 0.4617599961071E+00 -0.5113299921161E+00  0.0000000000000E+00  0.2884017340180E+00
 0.4471705208588E+00 -0.4962159552053E+00  0.0000000000000E+00  0.3148843727545E+00
 0.4295055620093E+00 -0.4778421947278E+00  0.0000000000000E+00  0.3377074605884E+00
 0.4086008066866E+00 -0.4560615879527E+00  0.0000000000000E+00  0.3578839360423E+00
 0.3847114136837E+00 -0.4311219221111E+00  0.0000000000000E+00  0.3755115381553E+00
 0.3581986318563E+00 -0.4033650170299E+00  0.0000000000000E+00  0.3900851419030E+00
 0.3294457338966E+00 -0.3731444323571E+00  0.0000000000000E+00  0.4007929573640E+00
 0.2988628326572E+00 -0.3408347122000E+00  0.0000000000000E+00  0.4067099812101E+00
 0.2669176110706E+00 -0.3068638854563E+00  0.0000000000000E+00  0.4069093327948E+00
 0.2341666366014E+00 -0.2717477547964E+00  0.0000000000000E+00  0.4005298144197E+00
 0.2012791253316E+00 -0.2361150834812E+00  0.0000000000000E+00  0.3868321775857E+00
 0.1690539712417E+00 -0.2007263845616E+00  0.0000000000000E+00  0.3652666484608E+00
 0.1384317405718E+00 -0.1664882132440E+00  0.0000000000000E+00  0.3355632956075E+00
 0.1105012537718E+00 -0.1344630993626E+00  0.0000000000000E+00  0.2978551422093E+00
 0.8649786737967E-01 -0.1058726381129E+00  0.0000000000000E+00  0.2528462475254E+00
 0.6778664368923E-01 -0.8208746351580E-01  0.0000000000000E+00  0.2020447789631E+00
 0.5581451159284E-01 -0.6458960203212E-01  0.0000000000000E+00  0.1481006609412E+00
 0.5198696180191E-01 -0.5486736514137E-01  0.0000000000000E+00  0.9534201034492E-01
 0.5729359942098E-01 -0.5409740768109E-01  0.0000000000000E+00  0.5078500606745E-01
 0.7069674566570E-01 -0.6187989010255E-01  0.0000000000000E+00  0.2585513429176E-01
 0.4462336802322E+00 -0.4945685575972E+00  0.0000000000000E+00  0.2958353137050E+00
 0.4298205268727E+00 -0.4773742945788E+00  0.0000000000000E+00  0.3201112046860E+00
 0.4097026144211E+00 -0.4562489815217E+00  0.0000000000000E+00  0.3398909116968E+00
 0.3860244280240E+00 -0.4313738384796E+00  0.0000000000000E+00  0.3568038592005E+00
 0.3593250534554E+00 -0.4032916444631E+00  0.0000000000000E+00  0.3708389457487E+00
 0.3301314905817E+00 -0.3725106506832E+00  0.0000000000000E+00  0.3812343990341E+00
 0.2989260118092E+00 -0.3394859085784E+00  0.0000000000000E+00  0.3869747728921E+00
 0.2662042159497E+00 -0.3046778502171E+00  0.0000000000000E+00  0.3870457290032E+00
 0.2325377538822E+00 -0.2686251107290E+00  0.0000000000000E+00  0.3805373606902E+00
 0.1986114513302E+00 -0.2319830194381E+00  0.0000000000000E+00  0.3666975733580E+00
 0.1652421075420E+00 -0.1955446902594E+00  0.0000000000000E+00  0.3449969233411E+00
 0.1333865918206E+00 -0.1602514412967E+00  0.0000000000000E+00  0.3152189720390E+00
 0.1041395613613E+00 -0.1271938231530E+00  0.0000000000000E+00  0.2775821085091E+00
 0.7871632693099E-01 -0.9759889905011E-01  0.0000000000000E+00  0.2328957752899E+00
 0.5841093628656E-01 -0.7279423666079E-01  0.0000000000000E+00  0.1827543071297E+00
 0.4451115220866E-01 -0.5413133300383E-01  0.0000000000000E+00  0.1297721045458E+00
 0.3813460136154E-01 -0.4283549962746E-01  0.0000000000000E+00  0.7786427927372E-01
 0.3990221035991E-01 -0.3970929406621E-01  0.0000000000000E+00  0.3256254881761E-01
 0.4921134053359E-01 -0.4449075793768E-01  0.0000000000000E+00  0.1206667263973E-02
 0.6288005432046E-01 -0.5459024947797E-01  0.0000000000000E+00 -0.8618793641256E-02
 0.4306699020932E+00 -0.4777435353445E+00  0.0000000000000E+00  0.3008952407651E+00
 0.4123634803146E+00 -0.4583712582109E+00  0.0000000000000E+00  0.3216951111248E+00
 0.3896563670497E+00 -0.4343246222163E+00  0.0000000000000E+00  0.3375979993030E+00
 0.3632501364539E+00 -0.4063934579038E+00  0.0000000000000E+00  0.3508039829839E+00
 0.3340290401108E+00 -0.3754659049057E+00  0.0000000000000E+00  0.3609057201121E+00
 0.3026409509869E+00 -0.3421843383991E+00  0.0000000000000E+00  0.3667492432272E+00
 0.2696148625746E+00 -0.3070382115824E+00  0.0000000000000E+00  0.3671759094308E+00
 0.2355226575793E+00 -0.2705706960909E+00  0.0000000000000E+00  0.3612268084864E+00
 0.2010474456666E+00 -0.2334424621865E+00  0.0000000000000E+00  0.3481530553022E+00
 0.1670013564949E+00 -0.1964520171913E+00  0.0000000000000E+00  0.3274549814093E+00
 0.1343254096117E+00 -0.1605363225262E+00  0.0000000000000E+00  0.2989548535801E+00
 0.1040757502362E+00 -0.1267592623488E+00  0.0000000000000E+00  0.2629017561677E+00
 0.7739355787613E-01 -0.9628450410715E-01  0.0000000000000E+00  0.2201001621531E+00
 0.5545055238561E-01 -0.7032488567578E-01  0.0000000000000E+00  0.1720543103229E+00
 0.3935792892184E-01 -0.5005654691509E-01  0.0000000000000E+00  0.1211169134053E+00
 0.3002037371860E-01 -0.3648042855511E-01  0.0000000000000E+00  0.7062162561101E-01
 0.2790383534927E-01 -0.3020284821418E-01  0.0000000000000E+00  0.2495323995375E-01
 0.3266671999877E-01 -0.3108695618244E-01  0.0000000000000E+00 -0.1057651657485E-01
 0.4261370336160E-01 -0.3772579846407E-01  0.0000000000000E+00 -0.3056568576137E-01
 0.5442144295943E-01 -0.4704721251160E-01  0.0000000000000E+00 -0.3223022517216E-01
 0.4152975662233E+00 -0.4611293661279E+00  0.0000000000000E+00  0.3032925692095E+00
 0.3949074417049E+00 -0.4393360940543E+00  0.0000000000000E+00  0.3193326004811E+00
 0.3694547297374E+00 -0.4121942865690E+00  0.0000000000000E+00  0.3309516552213E+00
 0.3405725830457E+00 -0.3814375879104E+00  0.0000000000000E+00  0.3405895639737E+00
 0.3094077262138E+00 -0.3483073044971E+00  0.0000000000000E+00  0.3467513240809E+00
 0.2765166821779E+00 -0.3132723897370E+00  0.0000000000000E+00  0.3479241106874E+00
 0.2424319286818E+00 -0.2768344471384E+00  0.0000000000000E+00  0.3430751491079E+00
 0.2078102198243E+00 -0.2396281207311E+00  0.0000000000000E+00  0.3314663524288E+00
 0.1734367407617E+00 -0.2024304968367E+00  0.0000000000000E+00  0.3126270628559E+00
 0.1402128223122E+00 -0.1661448595498E+00  0.0000000000000E+00  0.2863915834698E+00
 0.1091314108223E+00 -0.1317772261673E+00  0.0000000000000E+00  0.2529816268188E+00
 0.8124048168766E-01 -0.1004013652014E+00  0.0000000000000E+00  0.2131073151329E+00
 0.5758774986854E-01 -0.7310600036079E-01  0.0000000000000E+00  0.1680728116454E+00
 0.3913982470897E-01 -0.5091712277378E-01  0.0000000000000E+00  0.1198717388792E+00
 0.2666784005966E-01 -0.3468761728444E-01  0.0000000000000E+00  0.7125149981554E-01
 0.2058972142298E-01 -0.2494479248205E-01  0.0000000000000E+00  0.2571022319695E-01
 0.2076027870110E-01 -0.2168543424925E-01  0.0000000000000E+00 -0.1264836304983E-01
 0.2621101863954E-01 -0.2411716782146E-01  0.0000000000000E+00 -0.3957432060124E-01
 0.3500433748454E-01 -0.3045945282996E-01  0.0000000000000E+00 -0.5179438750365E-01
 0.4455840033936E-01 -0.3821148676676E-01  0.0000000000000E+00 -0.4894581847391E-01
 0.4004142953425E+00 -0.4450861137487E+00  0.0000000000000E+00  0.3024243707911E+00
 0.3772045999192E+00 -0.4201292034818E+00  0.0000000000000E+00  0.3124936849463E+00
 0.3489535366556E+00 -0.3895794435292E+00  0.0000000000000E+00  0.3208859715409E+00
 0.3183952077894E+00 -0.3569800577732E+00  0.0000000000000E+00  0.3275554828444E+00
 0.2860776929873E+00 -0.3224939545077E+00  0.0000000000000E+00  0.3296897512309E+00
 0.2523928031321E+00 -0.2864796987148E+00  0.0000000000000E+00  0.3262299665367E+00
 0.2179632735561E+00 -0.2495267124946E+00  0.0000000000000E+00  0.3164712747511E+00
 0.1835431254984E+00 -0.2123842970056E+00  0.0000000000000E+00  0.2999845493876E+00
 0.1499905940282E+00 -0.1759154482182E+00  0.0000000000000E+00  0.2766016189549E+00
 0.1182339538007E+00 -0.1410635865311E+00  0.0000000000000E+00  0.2464839749741E+00
 0.8923450438084E-01 -0.1088158121209E+00  0.0000000000000E+00  0.2102032025710E+00
 0.6393628679051E-01 -0.8015436439452E-01  0.0000000000000E+00  0.1688209102422E+00
 0.4319883898627E-01 -0.5599138824402E-01  0.0000000000000E+00  0.1239544046744E+00
 0.2770963493388E-01 -0.3708359542165E-01  0.0000000000000E+00  0.7781288613657E-01
 0.1787404752146E-01 -0.2392433476621E-01  0.0000000000000E+00  0.3318095528413E-01
 0.1368367204638E-01 -0.1661258430879E-01  0.0000000000000E+00 -0.6690069683627E-02
 0.1457246290948E-01 -0.1470636335451E-01  0.0000000000000E+00 -0.3835189652266E-01
 0.1931526490004E-01 -0.1710141262473E-01  0.0000000000000E+00 -0.5870895135446E-01
 0.2608238935632E-01 -0.2207090155470E-01  0.0000000000000E+00 -0.6583966458328E-01
 0.3313047530864E-01 -0.2780615567177E-01  0.0000000000000E+00 -0.5970599227532E-01
 0.3849239652476E+00 -0.4293995545978E+00  0.0000000000000E+00  0.2948502962238E+00
 0.3577832885148E+00 -0.3983697594090E+00  0.0000000000000E+00  0.3027016445905E+00
 0.3285677291198E+00 -0.3670950107746E+00  0.0000000000000E+00  0.3098723906214E+00
 0.2974978271404E+00 -0.3338376097174E+00  0.0000000000000E+00  0.3129143818867E+00
 0.2646584193716E+00 -0.2987011677492E+00  0.0000000000000E+00  0.3107850993684E+00
 0.2307669855310E+00 -0.2623431599448E+00  0.0000000000000E+00  0.3029378754208E+00
 0.1965858200641E+00 -0.2255275773178E+00  0.0000000000000E+00  0.2889827733271E+00
 0.1629463376432E+00 -0.1890919440070E+00  0.0000000000000E+00  0.2687350900146E+00
 0.1307197809150E+00 -0.1539231450328E+00  0.0000000000000E+00  0.2422771343901E+00
 0.1007920247619E+00 -0.1209309833653E+00  0.0000000000000E+00  0.2100264272183E+00
 0.7402263805238E-01 -0.9100886822816E-01  0.0000000000000E+00  0.1727962626039E+00
 0.5119127691553E-01 -0.6498162018251E-01  0.0000000000000E+00  0.1318431151575E+00
 0.3293089024706E-01 -0.4354010045897E-01  0.0000000000000E+00  0.8889092812804E-01
 0.1964867783728E-01 -0.2716312993769E-01  0.0000000000000E+00  0.4611843620600E-01
 0.1143770711837E-01 -0.1602883087785E-01  0.0000000000000E+00  0.6088995943795E-02
 0.7987474252608E-02 -0.9922404602606E-02  0.0000000000000E+00 -0.2840738486246E-01
 0.8518426151819E-02 -0.8161315467469E-02  0.0000000000000E+00 -0.5464457423957E-01
 0.1178867502335E-01 -0.9590047761067E-02  0.0000000000000E+00 -0.7040317332060E-01
 0.1627790891791E-01 -0.1273006364952E-01  0.0000000000000E+00 -0.7450941182834E-01
 0.2037155825407E-01 -0.1611084503725E-01  0.0000000000000E+00 -0.6655129777268E-01
</DataArray>
<DataArray type="Float64" Name="S_Centroid" NumberOfComponents="4" ComponentName0="S11" ComponentName1="S22" ComponentName2="S33" ComponentName3="S12" format="ascii">
-0.6117644206076E+00 -0.4876062291379E+01 -0.1097565358752E+01 -0.6440949782345E+00
 0.8365530721909E-01 -0.3807246229712E+01 -0.7447181955957E+00 -0.3791713153844E-01
-0.1705239095658E-01 -0.3495813188913E+01 -0.7025731264431E+00 -0.3877323757389E-01
 0.2439901618140E-02 -0.3344155775857E+01 -0.6683431848069E+00 -0.1765058432974E-01
-0.1073675639293E-02 -0.3261969873663E+01 -0.6526087195852E+00 -0.9761488251697E-02
-0.8869293494707E-04 -0.3217569399562E+01 -0.6435316280887E+00 -0.4683027279636E-02
-0.2066568179688E-03 -0.3196332506648E+01 -0.6393078422197E+00 -0.1448402060690E-02
-0.1176203969337E-03 -0.3190544311023E+01 -0.6381323957929E+00  0.8275890065176E-03
-0.1034704528586E-03 -0.3195852962537E+01 -0.6391912961227E+00  0.2526697021817E-02
-0.8671458711373E-04 -0.3209650050896E+01 -0.6419473626625E+00  0.3882555974970E-02
-0.8063064815589E-04 -0.3230374926535E+01 -0.6460911210641E+00  0.5038076489161E-02
-0.7921152281254E-04 -0.3257132219423E+01 -0.6514422958964E+00  0.6090810331589E-02
-0.8245287737396E-04 -0.3289488664494E+01 -0.6579142332780E+00  0.7111784073981E-02
-0.8966168468305E-04 -0.3327354438524E+01 -0.6654888299584E+00  0.8156778393569E-02
-0.1008066165444E-03 -0.3370914266767E+01 -0.6742030247231E+00  0.9272715519011E-02
-0.1160083031206E-03 -0.3420588261365E+01 -0.6841408641281E+00  0.1050188888571E-01
-0.1358323668884E-03 -0.3477013949264E+01 -0.6954299666889E+00  0.1188538488304E-01
-0.1608604091546E-03 -0.3541043868329E+01 -0.7082409563012E+00  0.1346595328605E-01
-0.1923613162261E-03 -0.3613766483138E+01 -0.7227917796613E+00  0.1529298918290E-01
-0.2324837244694E-03 -0.3696554227812E+01 -0.7393573533245E+00  0.1742940621901E-01
-0.2853495855193E-03 -0.3791167562357E+01 -0.7582905936878E+00  0.1996812154130E-01
-0.3556474708739E-03 -0.3900002578604E+01 -0.7800716568390E+00  0.2306898465987E-01
-0.6014497062434E-03 -0.4026827069675E+01 -0.8054857158790E+00  0.2726300284439E-01
-0.1634362783591E-02 -0.4177305776165E+01 -0.8357880402439E+00  0.3467906396407E-01
-0.3719559003217E-02 -0.4353582139597E+01 -0.8714603527058E+00  0.4922040637242E-01
-0.6492651899517E-02 -0.4551385853811E+01 -0.9115757147257E+00  0.7414573529288E-01
-0.9809956029761E-02 -0.4765111736263E+01 -0.9549843526889E+00  0.1104910461631E+00
-0.1386024192080E-01 -0.4991140778946E+01 -0.1001000219089E+01  0.1577231636677E+00
-0.1904904654896E-01 -0.5228626111015E+01 -0.1049535047152E+01  0.2148864085495E+00
-0.2590788107888E-01 -0.5478939657017E+01 -0.1100969524025E+01  0.2814993517871E+00
-0.3508988345593E-01 -0.5744562997545E+01 -0.1155930593425E+01  0.3580302519790E+00
-0.4738741234199E-01 -0.6027767964363E+01 -0.1215031093446E+01  0.4459411153625E+00
-0.6282675114276E-01 -0.6328254146374E+01 -0.1278216198550E+01  0.5460381403986E+00
-0.8115543510137E-01 -0.6648767259363E+01 -0.1345984558950E+01  0.6568286033071E+00
-0.1022051146442E+00 -0.7006551499623E+01 -0.1421751344039E+01  0.7786175002548E+00
-0.1335550327069E+00 -0.7431304679893E+01 -0.1512971965065E+01  0.9182895628909E+00
-0.1569635195127E+00 -0.7964727174347E+01 -0.1624338162976E+01  0.1091625789141E+01
-0.2943303418414E+00 -0.8680734154171E+01 -0.1795012925950E+01  0.1336742610841E+01
-0.8459281343701E-02 -0.9741010943472E+01 -0.1949894074019E+01  0.1672168738901E+01
-0.2569580041608E+01 -0.1157010438033E+02 -0.2827936926526E+01  0.2959254951894E+01
 0.7659077062208E+01 -0.1194533889628E+02 -0.8572523795878E+00  0.2887588257974E+01
-0.6505865920573E+00 -0.4265491630747E+01 -0.9832156592120E+00 -0.7093963838235E+00
-0.1062310102606E+00 -0.3949736311962E+01 -0.8111934765322E+00 -0.3148690887780E+00
-0.6775814347670E-02 -0.3583297725027E+01 -0.7180147185742E+00 -0.1085652517066E+00
-0.1348828637436E-01 -0.3420056701899E+01 -0.6867090078874E+00 -0.6492433702306E-01
-0.4869681094435E-02 -0.3325102696389E+01 -0.6659944854207E+00 -0.3471790458373E-01
-0.3650208245245E-02 -0.3271295203363E+01 -0.6549890920817E+00 -0.1839610244003E-01
-0.2322597997540E-02 -0.3242546429853E+01 -0.6489738152405E+00 -0.7572779507342E-02
-0.1715088977522E-02 -0.3230755650327E+01 -0.6464941574944E+00 -0.7704533710329E-04
-0.1315997848988E-02 -0.3231125006833E+01 -0.6464882105698E+00  0.5505221293573E-02
-0.1086091030440E-02 -0.3240785020780E+01 -0.6483742320237E+00  0.9922022602488E-02
-0.9552285125828E-03 -0.3257972543493E+01 -0.6517855641136E+00  0.1364827720122E-01
-0.8965981465443E-03 -0.3281643317504E+01 -0.6565079929128E+00  0.1699962129609E-01
-0.8919221187743E-03 -0.3311244459789E+01 -0.6624272862524E+00  0.2020382901688E-01
-0.9313274152338E-03 -0.3346585546021E+01 -0.6695033846637E+00  0.2343675979710E-01
-0.1009219044568E-02 -0.3387761234292E+01 -0.6777541007667E+00  0.2684405527638E-01
-0.1123277867261E-02 -0.3435106469130E+01 -0.6872459596402E+00  0.3055506314493E-01
-0.1273983540262E-02 -0.3489173823472E+01 -0.6980895718048E+00  0.3469340575599E-01
-0.1464892614690E-02 -0.3550727671501E+01 -0.7104385234095E+00  0.3938709897474E-01
-0.1704388659171E-02 -0.3620759610812E+01 -0.7244928106900E+00  0.4478207070610E-01
-0.2010201139408E-02 -0.3700529880920E+01 -0.7405080274463E+00  0.5106423427885E-01
-0.2418388097148E-02 -0.3791654896034E+01 -0.7588146681335E+00  0.5850358832195E-01
-0.3039628932355E-02 -0.3896303010517E+01 -0.7798685395108E+00  0.6759080467304E-01
-0.4443839952460E-02 -0.4017401661389E+01 -0.8043691122543E+00  0.7942373402424E-01
-0.7673757420746E-02 -0.4157840384414E+01 -0.8331028407811E+00  0.9584150672303E-01
-0.1313338654971E-01 -0.4318230179564E+01 -0.8662727261312E+00  0.1189724521077E+00
-0.2018932369521E-01 -0.4496051940894E+01 -0.9032482663773E+00  0.1506386062606E+00
-0.2814330784105E-01 -0.4687557917091E+01 -0.9431402590404E+00  0.1918267548392E+00
-0.3685594549713E-01 -0.4889843458371E+01 -0.9853398954563E+00  0.2426520248869E+00
-0.4671414638837E-01 -0.5101580829599E+01 -0.1029659010540E+01  0.3028760232993E+00
-0.5845735790066E-01 -0.5322743573792E+01 -0.1076240202376E+01  0.3724324522719E+00
-0.7306584269751E-01 -0.5553826889571E+01 -0.1125378563223E+01  0.4517209280412E+00
-0.9121919082067E-01 -0.5794863339822E+01 -0.1177216523670E+01  0.5413295670276E+00
-0.1126484231149E+00 -0.6045513015697E+01 -0.1231632306115E+01  0.6416798081853E+00
-0.1371875199176E+00 -0.6307814626969E+01 -0.1289000448585E+01  0.7538596994983E+00
-0.1686851709811E+00 -0.6589033287939E+01 -0.1351543711924E+01  0.8814755918609E+00
-0.2082643328281E+00 -0.6899806750091E+01 -0.1421614237767E+01  0.1031328636240E+01
-0.2865191749563E+00 -0.7252349106102E+01 -0.1507773678679E+01  0.1225051940226E+01
-0.3398383503349E+00 -0.7641418111456E+01 -0.1596251316144E+01  0.1455854395884E+01
-0.7461911622261E+00 -0.8084271416986E+01 -0.1766092542159E+01  0.1989670014179E+01
-0.1376940314872E+01 -0.7493796926110E+01 -0.1774147474633E+01  0.1886153574011E+01
 0.6526456223749E+01 -0.6305551641497E+01  0.4418091710873E-01  0.5378620749420E+00
-0.6897046207282E+00 -0.3956204890949E+01 -0.9291819161812E+00 -0.6863973682202E+00
-0.2400557662591E+00 -0.3874909944542E+01 -0.8229931544239E+00 -0.4393036644261E+00
-0.5855011266879E-01 -0.3643294103409E+01 -0.7403688542479E+00 -0.2058502434464E+00
-0.2906841317747E-01 -0.3473615848951E+01 -0.7005368628645E+00 -0.1098732381334E+00
-0.1698835473632E-01 -0.3376955087753E+01 -0.6787886986127E+00 -0.6353560102501E-01
-0.1026224360515E-01 -0.3317586074026E+01 -0.6655696734441E+00 -0.3450055485917E-01
-0.7034881519546E-02 -0.3283747264047E+01 -0.6581564389206E+00 -0.1590115350034E-01
-0.5055835184666E-02 -0.3267296229490E+01 -0.6544704226873E+00 -0.2814131191593E-02
-0.3895967279719E-02 -0.3263562737645E+01 -0.6534917507228E+00  0.6910547758120E-02
-0.3189385749373E-02 -0.3269594470171E+01 -0.6545567809378E+00  0.1459975882094E-01
-0.2785782209331E-02 -0.3283547282365E+01 -0.6572666227089E+00  0.2105902414269E-01
-0.2591044268002E-02 -0.3304288953324E+01 -0.6613760093737E+00  0.2683202054572E-01
-0.2553383862474E-02 -0.3331184232896E+01 -0.6667475332871E+00  0.3230800435773E-01
-0.2641790573865E-02 -0.3363963497731E+01 -0.6733210676942E+00  0.3778617186444E-01
-0.2838869656568E-02 -0.3402643563369E+01 -0.6810964967541E+00  0.4351231184146E-01
-0.3136517987760E-02 -0.3447479834631E+01 -0.6901232808074E+00  0.4970277301531E-01
-0.3534622688214E-02 -0.3498940309060E+01 -0.7004949967878E+00  0.5656238414045E-01
-0.4041959127462E-02 -0.3557695321381E+01 -0.7123474667165E+00  0.6430131440280E-01
-0.4680593044798E-02 -0.3624625835000E+01 -0.7258612964251E+00  0.7315659089026E-01
-0.5497151947901E-02 -0.3700851181835E+01 -0.7412696778024E+00  0.8342597694265E-01
-0.6590990258266E-02 -0.3787785409532E+01 -0.7588752912662E+00  0.9553619805072E-01
-0.8256998181095E-02 -0.3887204576454E+01 -0.7790923265364E+00  0.1102106398853E+00
-0.1130896543967E-01 -0.4001051859268E+01 -0.8024721768992E+00  0.1286347250577E+00
-0.1687151138711E-01 -0.4130686361399E+01 -0.8295115869179E+00  0.1521909324635E+00
-0.2533128347400E-01 -0.4275984079235E+01 -0.8602630853606E+00  0.1820580323051E+00
-0.3598848253314E-01 -0.4435154014679E+01 -0.8942285127674E+00  0.2192224643361E+00
-0.4794217662391E-01 -0.4605534678021E+01 -0.9306953847975E+00  0.2644423393689E+00
-0.6085301361321E-01 -0.4784666102112E+01 -0.9691038375857E+00  0.3180917291633E+00
-0.7504630815783E-01 -0.4970817285383E+01 -0.1009172733746E+01  0.3802774676177E+00
-0.9133443349694E-01 -0.5162848216729E+01 -0.1050836545704E+01  0.4510764932435E+00
-0.1107231313004E+00 -0.5359666736280E+01 -0.1094077989819E+01  0.5306231978401E+00
-0.1337979782369E+00 -0.5559784343021E+01 -0.1138716481220E+01  0.6189825336235E+00
-0.1603803119223E+00 -0.5761653025805E+01 -0.1184406685194E+01  0.7164972628486E+00
-0.1914916074546E+00 -0.5964224787511E+01 -0.1231143297339E+01  0.8249133640054E+00
-0.2302896791266E+00 -0.6165904903576E+01 -0.1279238935603E+01  0.9472939131405E+00
-0.2868050740634E+00 -0.6362216796421E+01 -0.1329804393913E+01  0.1090221511998E+01
-0.3656425060113E+00 -0.6531569811475E+01 -0.1379442484052E+01  0.1253718955058E+01
-0.4966410855365E+00 -0.6637648809461E+01 -0.1426858000261E+01  0.1466224342961E+01
-0.8626181948756E+00 -0.6365011504758E+01 -0.1445525961467E+01  0.1636887313743E+01
-0.1716048705728E+00 -0.5296303318242E+01 -0.1093581654059E+01  0.7676086450502E+00
 0.6246585241774E+01 -0.4433551570529E+01  0.3626067396523E+00 -0.2529832734906E+00
-0.7140712041562E+00 -0.3769568597602E+01 -0.8967279737139E+00 -0.6481343177591E+00
-0.3370701211159E+00 -0.3776260102539E+01 -0.8226660569897E+00 -0.4888949157493E+00
-0.1247034152974E+00 -0.3649684449584E+01 -0.7548775842247E+00 -0.2805540639924E+00
-0.5738216108137E-01 -0.3510635434152E+01 -0.7136035296802E+00 -0.1569433399870E+00
-0.3334880899093E-01 -0.3416408679745E+01 -0.6899515080282E+00 -0.9211675659148E-01
-0.2089566351912E-01 -0.3356380453242E+01 -0.6754552334172E+00 -0.5220511205742E-01
-0.1416508429169E-01 -0.3319654371856E+01 -0.6667639011651E+00 -0.2567189940091E-01
-0.1026325985737E-01 -0.3299978836736E+01 -0.6620484291840E+00 -0.6983464302692E-02
-0.7889801567964E-02 -0.3293006572382E+01 -0.6601792846275E+00  0.7005726532257E-02
-0.6450074329537E-02 -0.3295956203289E+01 -0.6604812653656E+00  0.1807575555399E-01
-0.5610977633719E-02 -0.3307005349543E+01 -0.6625232753077E+00  0.2736409285221E-01
-0.5191809298093E-02 -0.3325000806233E+01 -0.6660385330309E+00  0.3563293836176E-01
-0.5085692682086E-02 -0.3349262460434E+01 -0.6708696406199E+00  0.4343150894617E-01
-0.5229848111177E-02 -0.3379464410522E+01 -0.6769388618137E+00  0.5118078746645E-01
-0.5588109325927E-02 -0.3415558813606E+01 -0.6842293947822E+00  0.5922521106998E-01
-0.6142967706088E-02 -0.3457728179843E+01 -0.6927742398329E+00  0.6786585433945E-01
-0.6892605989821E-02 -0.3506357144198E+01 -0.7026499605078E+00  0.7738524611864E-01
-0.7852488864929E-02 -0.3562017599575E+01 -0.7139740283270E+00  0.8807009150141E-01
-0.9063226584643E-02 -0.3625468022631E+01 -0.7269062606749E+00  0.1002389506058E+00
-0.1060996336190E-01 -0.3697663298070E+01 -0.7416546633380E+00  0.1142838151158E+00
-0.1267861812438E-01 -0.3779765988810E+01 -0.7584889326892E+00  0.1307478697844E+00
-0.1572310671319E-01 -0.3873083760462E+01 -0.7777613850246E+00  0.1504442455999E+00
-0.2066237966377E-01 -0.3978752566537E+01 -0.7998830011594E+00  0.1744383086898E+00
-0.2855594247712E-01 -0.4097224477611E+01 -0.8251560963134E+00  0.2036985469293E+00
-0.3972085157788E-01 -0.4227961634383E+01 -0.8535365099109E+00  0.2388372591004E+00
-0.5347135543991E-01 -0.4369484624090E+01 -0.8845912090874E+00  0.2803245615145E+00
-0.6886776536074E-01 -0.4519698764271E+01 -0.9177133196014E+00  0.3286558669933E+00
-0.8546419114563E-01 -0.4676371458125E+01 -0.9523671440456E+00  0.3842140991679E+00
-0.1035011029179E+00 -0.4837419591027E+01 -0.9881841535140E+00  0.4471823894774E+00
-0.1237353544760E+00 -0.5000816556765E+01 -0.1024910397521E+01  0.5175611831906E+00
-0.1470655943991E+00 -0.5164254813512E+01 -0.1062264097411E+01  0.5951472907754E+00
-0.1739791958133E+00 -0.5324920955229E+01 -0.1099780046596E+01  0.6795618896018E+00
-0.2046423519367E+00 -0.5479505526321E+01 -0.1136829592592E+01  0.7707860725735E+00
-0.2402591860948E+00 -0.5623296640897E+01 -0.1172711182873E+01  0.8696550027749E+00
-0.2850535217524E+00 -0.5747762523444E+01 -0.1206563227019E+01  0.9775251211085E+00
-0.3455495098735E+00 -0.5834478374192E+01 -0.1236005595231E+01  0.1092988212477E+01
-0.4270660979490E+00 -0.5847548951781E+01 -0.1254923028646E+01  0.1209070462337E+01
-0.5584649852791E+00 -0.5685924570534E+01 -0.1248877929772E+01  0.1298155745413E+01
-0.6145722878902E+00 -0.5088262622576E+01 -0.1140566999089E+01  0.1088902678894E+01
 0.8211594656574E+00 -0.4166890219832E+01 -0.6691461608060E+00  0.2383590732084E-01
 0.5973034395892E+01 -0.3679662278000E+01  0.4586744304132E+00 -0.5170062368226E+00
-0.7284771957413E+00 -0.3645631653968E+01 -0.8748217829777E+00 -0.6091266930379E+00
-0.4079582411186E+00 -0.3688184186943E+01 -0.8192284978198E+00 -0.5023134003287E+00
-0.1895221752047E+00 -0.3628935855183E+01 -0.7636916174573E+00 -0.3290214422431E+00
-0.9403502032590E-01 -0.3528594384737E+01 -0.7245258918089E+00 -0.1985667481312E+00
-0.5455695729264E-01 -0.3445182961514E+01 -0.6999479941914E+00 -0.1197641997025E+00
-0.3482280089172E-01 -0.3387549824519E+01 -0.6844745352817E+00 -0.7005781169648E-01
-0.2378142742497E-01 -0.3350275468095E+01 -0.6748113891594E+00 -0.3629549971704E-01
-0.1728969790312E-01 -0.3328707141294E+01 -0.6691993778112E+00 -0.1214928304968E-01
-0.1332096302885E-01 -0.3319371571530E+01 -0.6665385168441E+00  0.6052021684677E-02
-0.1088491321160E-01 -0.3319793077529E+01 -0.6661356080743E+00  0.2051844392216E-01
-0.9449166600148E-02 -0.3328286068243E+01 -0.6675470569158E+00  0.3266386351534E-01
-0.8711388943220E-02 -0.3343735371909E+01 -0.6704893621616E+00  0.4345431876291E-01
-0.8494574139919E-02 -0.3365453838923E+01 -0.6747896926676E+00  0.5358852949697E-01
-0.8692869620391E-02 -0.3393081967609E+01 -0.6803549775839E+00  0.6360366220008E-01
-0.9244744816387E-02 -0.3426520960524E+01 -0.6871531513075E+00  0.7393829464451E-01
-0.1011934243610E-01 -0.3465887762407E+01 -0.6952014313280E+00  0.8497377507566E-01
-0.1131145292470E-01 -0.3511485910536E+01 -0.7045594831909E+00  0.9706480938302E-01
-0.1284358199473E-01 -0.3563786175069E+01 -0.7153259620720E+00  0.1105667028521E+00
-0.1477720395898E-01 -0.3623416010380E+01 -0.7276386537105E+00  0.1258667306233E+00
-0.1724150312749E-01 -0.3691149090761E+01 -0.7416781298297E+00  0.1434282337587E+00
-0.2050694679807E-01 -0.3767868890791E+01 -0.7576751788081E+00  0.1638567227608E+00
-0.2513315585622E-01 -0.3854431432009E+01 -0.7759129291350E+00  0.1879497273324E+00
-0.3204989066573E-01 -0.3951360260262E+01 -0.7966820420571E+00  0.2165784223927E+00
-0.4219379649187E-01 -0.4058535975669E+01 -0.8201459666532E+00  0.2503709213200E+00
-0.5579949953119E-01 -0.4175154765239E+01 -0.8461908655632E+00  0.2895696782169E+00
-0.7222023678474E-01 -0.4299847842160E+01 -0.8744136288187E+00  0.3342959186169E+00
-0.9054516648855E-01 -0.4430780724991E+01 -0.9042651917706E+00  0.3847820131606E+00
-0.1102713395449E+00 -0.4565793057866E+01 -0.9352128934180E+00  0.4412697057958E+00
-0.1315307284481E+00 -0.4702491210784E+01 -0.9668044022529E+00  0.5038273183585E+00
-0.1549361722707E+00 -0.4838158713995E+01 -0.9986189921337E+00  0.5722269254264E+00
-0.1811930733454E+00 -0.4969535542009E+01 -0.1030145738421E+01  0.6458636060711E+00
-0.2106882009374E+00 -0.5092610456146E+01 -0.1060659747222E+01  0.7238390519241E+00
-0.2436450150706E+00 -0.5202222429746E+01 -0.1089173505193E+01  0.8053047360892E+00
-0.2812589719147E+00 -0.5290506891112E+01 -0.1114353189211E+01  0.8894726967635E+00
-0.3265392039651E+00 -0.5343304689603E+01 -0.1133968795611E+01  0.9738732725407E+00
-0.3820548585433E+00 -0.5334973962459E+01 -0.1143405781239E+01  0.1049962911622E+01
-0.4477485582660E+00 -0.5216974684948E+01 -0.1132944665525E+01  0.1095456117278E+01
-0.4951262293749E+00 -0.4883192853318E+01 -0.1075663832567E+01  0.1026525966736E+01
-0.2123571925723E+00 -0.4229738609147E+01 -0.8884191735824E+00  0.5750701178944E+00
 0.1554309159556E+01 -0.3568505987511E+01 -0.4028393715939E+00 -0.4107797366991E+00
 0.5721534604013E+01 -0.3301082733584E+01  0.4840903812993E+00 -0.6146378971631E+00
-0.7371172910860E+00 -0.3558203340532E+01 -0.8590641391246E+00 -0.5725297133517E+00
-0.4604937944527E+00 -0.3615380574635E+01 -0.8151748859646E+00 -0.4979021493197E+00
-0.2477119082101E+00 -0.3597637767166E+01 -0.7690699465353E+00 -0.3569269113986E+00
-0.1341128609251E+00 -0.3531890215019E+01 -0.7332006261144E+00 -0.2312489069193E+00
-0.7974244416029E-01 -0.3463986964025E+01 -0.7087458921983E+00 -0.1447984191918E+00
-0.5164274500233E-01 -0.3411680730870E+01 -0.6926647054960E+00 -0.8719867750030E-01
-0.3565630296426E-01 -0.3375703032998E+01 -0.6822718773592E+00 -0.4711397093533E-01
-0.2607225575510E-01 -0.3353512135722E+01 -0.6759168883673E+00 -0.1792535653227E-01
-0.2015386205321E-01 -0.3342634992651E+01 -0.6725577809627E+00  0.4312551883071E-02
-0.1648495772861E-01 -0.3341074310183E+01 -0.6715118635886E+00  0.2209501418227E-01
-0.1429649143132E-01 -0.3347360743522E+01 -0.6723314570091E+00  0.3706232822987E-01
-0.1314652782655E-01 -0.3360473695828E+01 -0.6747240547850E+00  0.5035270531106E-01
-0.1277280525652E-01 -0.3379752842143E+01 -0.6785051395903E+00  0.6279896524452E-01
-0.1301719763378E-01 -0.3404826952623E+01 -0.6835688402373E+00  0.7504444001653E-01
-0.1378645455664E-01 -0.3435559785070E+01 -0.6898692582051E+00  0.8761470775988E-01
-0.1503239289536E-01 -0.3472010528408E+01 -0.6974085946529E+00  0.1009648865344E+00
-0.1674411757017E-01 -0.3514404962653E+01 -0.7062298265683E+00  0.1155145592305E+00
-0.1895013863865E-01 -0.3563112111064E+01 -0.7164124606158E+00  0.1316778014035E+00
-0.2173257412767E-01 -0.3618623897038E+01 -0.7280713050823E+00  0.1498956062847E+00
-0.2526280091919E-01 -0.3681524520890E+01 -0.7413574754089E+00  0.1706760156699E+00
-0.2987771865406E-01 -0.3752418047198E+01 -0.7564591644426E+00  0.1946365302048E+00
-0.3618913489213E-01 -0.3831765240014E+01 -0.7735908865086E+00  0.2224957868597E+00
-0.4507880880264E-01 -0.3919634117293E+01 -0.7929425970349E+00  0.2549154929469E+00
-0.5734203639736E-01 -0.4015525713509E+01 -0.8145735621193E+00  0.2922479412430E+00
-0.7313041161985E-01 -0.4118445956471E+01 -0.8383152861100E+00  0.3344714479972E+00
-0.9183488641672E-01 -0.4227034192342E+01 -0.8637738286229E+00  0.3814454638117E+00
-0.1125900151144E+00 -0.4339543769322E+01 -0.8904267701557E+00  0.4331437946098E+00
-0.1348502820850E+00 -0.4453792959158E+01 -0.9177286619238E+00  0.4895778598984E+00
-0.1586140163049E+00 -0.4567122678945E+01 -0.9451473531337E+00  0.5505742382993E+00
-0.1842845323552E+00 -0.4676290461997E+01 -0.9721150133561E+00  0.6155715988063E+00
-0.2123120715469E+00 -0.4777293025421E+01 -0.9979210342637E+00  0.6834947493211E+00
-0.2428643685406E+00 -0.4865091513985E+01 -0.1021591191728E+01  0.7527767097027E+00
-0.2759480101145E+00 -0.4932969153080E+01 -0.1041783448163E+01  0.8214298500596E+00
-0.3120251519101E+00 -0.4970649983657E+01 -0.1056535042857E+01  0.8864332024137E+00
-0.3516046700873E+00 -0.4960803942654E+01 -0.1062481738380E+01  0.9411031731071E+00
-0.3918960241984E+00 -0.4874548122169E+01 -0.1053288844969E+01  0.9696695923179E+00
-0.4164917414054E+00 -0.4662327239918E+01 -0.1015763811401E+01  0.9332250183296E+00
-0.3364421207744E+00 -0.4253709297781E+01 -0.9180302973908E+00  0.7266503291465E+00
 0.2199336268148E+00 -0.3669107222109E+01 -0.6898347293381E+00  0.1653291971563E+00
 0.2078939659971E+01 -0.3228352071793E+01 -0.2298824857899E+00 -0.6533075208098E+00
 0.5497235522799E+01 -0.3080528891424E+01  0.4833413334775E+00 -0.6556745237047E+00
-0.7424915827974E+00 -0.3493867305362E+01 -0.8472717902572E+00 -0.5388161567651E+00
-0.5001608624756E+00 -0.3556314606133E+01 -0.8112951058109E+00 -0.4846187968353E+00
-0.2980901226585E+00 -0.3563932208679E+01 -0.7724044777773E+00 -0.3702950030401E+00
-0.1742849913326E+00 -0.3525700942645E+01 -0.7399971978223E+00 -0.2546752045700E+00
-0.1074436478595E+00 -0.3474312964845E+01 -0.7163513332154E+00 -0.1659406316186E+00
-0.7083594521670E-01 -0.3429423910496E+01 -0.7000519815740E+00 -0.1028929564228E+00
-0.4950184269261E-01 -0.3396234643954E+01 -0.6891473075984E+00 -0.5759654455327E-01
-0.3647331361869E-01 -0.3374503760313E+01 -0.6821954249518E+00 -0.2394654557112E-01
-0.2831967156160E-01 -0.3362839795725E+01 -0.6782319035637E+00  0.2030735076161E-02
-0.2321200370246E-01 -0.3359810736427E+01 -0.6766045581082E+00  0.2296854604225E-01
-0.2012977053210E-01 -0.3364231734460E+01 -0.6768723110847E+00  0.4066288108164E-01
-0.1847859660765E-01 -0.3375220308316E+01 -0.6787397910987E+00  0.5638726951240E-01
-0.1790092684449E-01 -0.3392173002097E+01 -0.6820147959512E+00  0.7108710700579E-01
-0.1817866893821E-01 -0.3414726516259E+01 -0.6865810472702E+00  0.8549866676174E-01
-0.1918138697752E-01 -0.3442720069093E+01 -0.6923803015313E+00  0.1002249502552E+00
-0.2083963424308E-01 -0.3476163118479E+01 -0.6994005609662E+00  0.1157865937920E+00
-0.2313397066279E-01 -0.3515208083712E+01 -0.7076684214201E+00  0.1326592868470E+00
-0.2609649700800E-01 -0.3560123848719E+01 -0.7172440798333E+00  0.1513047389726E+00
-0.2982682366520E-01 -0.3611266581089E+01 -0.7282186918022E+00  0.1722013862529E+00
-0.3453009753880E-01 -0.3669032525073E+01 -0.7407125355599E+00  0.1958754988357E+00
-0.4058475239417E-01 -0.3733765270617E+01 -0.7548700158507E+00  0.2229174771195E+00
-0.4861006608658E-01 -0.3805596173005E+01 -0.7708412593047E+00  0.2539341205840E+00
-0.5940499194664E-01 -0.3884255062653E+01 -0.7887320226729E+00  0.2893860939793E+00
-0.7362119267918E-01 -0.3968979766847E+01 -0.8085202039532E+00  0.3293987749512E+00
-0.9132823108695E-01 -0.4058630351507E+01 -0.8299917288867E+00  0.3737443155510E+00
-0.1119405228120E+00 -0.4151804430659E+01 -0.8527490034011E+00  0.4220651389899E+00
-0.1346273170876E+00 -0.4246753157942E+01 -0.8762761080635E+00  0.4740800475951E+00
-0.1587922199259E+00 -0.4341229439672E+01 -0.9000043453307E+00  0.5295188947329E+00
-0.1842717022634E+00 -0.4432360689712E+01 -0.9233264921537E+00  0.5878873297373E+00
-0.2112081852385E+00 -0.4516520605380E+01 -0.9455457722134E+00  0.6482201149482E+00
-0.2397231377825E+00 -0.4589153906928E+01 -0.9657754233333E+00  0.7089040076873E+00
-0.2696141847063E+00 -0.4644446449066E+01 -0.9828121413995E+00  0.7675848404338E+00
-0.3003204445194E+00 -0.4674580721576E+01 -0.9949802480455E+00  0.8209352185339E+00
-0.3308872852434E+00 -0.4667927508670E+01 -0.9997629736804E+00  0.8635304897141E+00
-0.3584404308393E+00 -0.4606176786433E+01 -0.9929234582503E+00  0.8847249698834E+00
-0.3726350701164E+00 -0.4461311414167E+01 -0.9667893112630E+00  0.8622137594384E+00
-0.3367592549740E+00 -0.4194259828884E+01 -0.9062038302750E+00  0.7473484921632E+00
-0.1221159033595E+00 -0.3779052579684E+01 -0.7802337082350E+00  0.4439914154517E+00
 0.6252124696609E+00 -0.3302182870129E+01 -0.5353940880716E+00 -0.1388456544107E+00
 0.2451336567090E+01 -0.3020350298234E+01 -0.1138027479244E+00 -0.7844172433026E+00
 0.5301533440796E+01 -0.2937666829605E+01  0.4727733292831E+00 -0.6761654222529E+00
-0.7460026464495E+00 -0.3445005919781E+01 -0.8382017257362E+00 -0.5077867939462E+00
-0.5307342031501E+00 -0.3508431966732E+01 -0.8078332460140E+00 -0.4669946680562E+00
-0.3410693556740E+00 -0.3531474627981E+01 -0.7745088082721E+00 -0.3737763407741E+00
-0.2126510647147E+00 -0.3514026025258E+01 -0.7453354291009E+00 -0.2699279398168E+00
-0.1362670181046E+00 -0.3478035956459E+01 -0.7228606056842E+00 -0.1826546510459E+00
-0.9176054935077E-01 -0.3441572998775E+01 -0.7066667201553E+00 -0.1165785043340E+00
-0.6498695437300E-01 -0.3412270993745E+01 -0.6954515999866E+00 -0.6732289623065E-01
-0.4830848100794E-01 -0.3391875525257E+01 -0.6880368115054E+00 -0.2989839633396E-01
-0.3771613818907E-01 -0.3380081314493E+01 -0.6835595007222E+00 -0.5719324867457E-03
-0.3100428615567E-01 -0.3376052406401E+01 -0.6814113486652E+00  0.2329136728845E-01
-0.2690759509066E-01 -0.3378929858278E+01 -0.6811675008239E+00  0.4356567878834E-01
-0.2467497547606E-01 -0.3388001907620E+01 -0.6825353867898E+00  0.6161773160267E-01
-0.2384801864464E-01 -0.3402745822416E+01 -0.6853187784242E+00  0.7848046342088E-01
-0.2414335334955E-01 -0.3422823231522E+01 -0.6893933272471E+00  0.9496709838324E-01
-0.2538889407360E-01 -0.3448060596598E+01 -0.6946899084860E+00  0.1117465959017E+00
-0.2749022087789E-01 -0.3478425674789E+01 -0.7011831895819E+00  0.1293954293919E+00
-0.3041600052115E-01 -0.3514002890902E+01 -0.7088837888479E+00  0.1484355526610E+00
-0.3419819795519E-01 -0.3554964796899E+01 -0.7178326096674E+00  0.1693644315206E+00
-0.3894802609988E-01 -0.3601535923044E+01 -0.7280968006783E+00  0.1926816121724E+00
-0.4489172846158E-01 -0.3653934491941E+01 -0.7397652551039E+00  0.2189082606378E+00
-0.5242344962592E-01 -0.3712272764539E+01 -0.7529392540526E+00  0.2485805412824E+00
-0.6213541254891E-01 -0.3776415120770E+01 -0.7677101181036E+00  0.2821794678194E+00
-0.7472387742556E-01 -0.3845839791991E+01 -0.7841127455675E+00  0.3199809932023E+00
-0.9070011426943E-01 -0.3919596683254E+01 -0.8020593714563E+00  0.3619187331266E+00
-0.1100505729629E+00 -0.3996431128678E+01 -0.8212963525665E+00  0.4075908426672E+00
-0.1321923664754E+00 -0.4074880151816E+01 -0.8414145161964E+00  0.4564455655778E+00
-0.1563048470870E+00 -0.4153153751281E+01 -0.8618917325168E+00  0.5079499108293E+00
-0.1817189045628E+00 -0.4228931285137E+01 -0.8821300510847E+00  0.5615256352661E+00
-0.2080787801878E+00 -0.4299186065986E+01 -0.9014529826674E+00  0.6163130964812E+00
-0.2352184199399E+00 -0.4360038333258E+01 -0.9190513643345E+00  0.6708996012340E+00
-0.2628502411104E+00 -0.4406575098254E+01 -0.9338850817889E+00  0.7230878814552E+00
-0.2902334077937E+00 -0.4432506551748E+01 -0.9445480059833E+00  0.7696720817622E+00
-0.3158966667214E+00 -0.4429466600138E+01 -0.9490726675143E+00  0.8059413145371E+00
-0.3369523592984E+00 -0.4385548631200E+01 -0.9445002121738E+00  0.8242373157905E+00
-0.3464492736606E+00 -0.4283368709829E+01 -0.9259636104958E+00  0.8106186263282E+00
-0.3253677321421E+00 -0.4099525224039E+01 -0.8849786044234E+00  0.7384827589444E+00
-0.2195038280752E+00 -0.3811021466420E+01 -0.8061050709109E+00  0.5583625186065E+00
 0.1161799044942E+00 -0.3427788684369E+01 -0.6623217658442E+00  0.1987213044930E+00
 0.9824029814453E+00 -0.3058388249755E+01 -0.4151970598489E+00 -0.3563191256042E+00
 0.2716354953566E+01 -0.2884694025963E+01 -0.3366781498098E-01 -0.8521137860311E+00
 0.5131778456001E+01 -0.2838833966463E+01  0.4585889047412E+00 -0.6879564031089E+00
-0.7484342717748E+00 -0.3406969440212E+01 -0.8310807547814E+00 -0.4791043324829E+00
-0.5547963527429E+00 -0.3469390331426E+01 -0.8048373488267E+00 -0.4473898084454E+00
-0.3775896530285E+00 -0.3501722520164E+01 -0.7758624461998E+00 -0.3706545478594E+00
-0.2482844360139E+00 -0.3499557232759E+01 -0.7495683449240E+00 -0.2784842124151E+00
-0.1651244599736E+00 -0.3476937869564E+01 -0.7284124767618E+00 -0.1949764942669E+00
-0.1137610980725E+00 -0.3449021030761E+01 -0.7125564363847E+00 -0.1279271820157E+00
-0.8174971744891E-01 -0.3424279241280E+01 -0.7012058021945E+00 -0.7597849139519E-01
-0.6136518274387E-01 -0.3405881549066E+01 -0.6934493566951E+00 -0.3552545139378E-01
-0.4821502078934E-01 -0.3394500148427E+01 -0.6885430441034E+00 -0.3302529823571E-02
-0.3978011572525E-01 -0.3389882977566E+01 -0.6859326288794E+00  0.2320165589514E-01
-0.3457281737713E-01 -0.3391511762660E+01 -0.6852169262179E+00  0.4586485215206E-01
-0.3169042508963E-01 -0.3398865477660E+01 -0.6861111907737E+00  0.6610271027171E-01
-0.3057276135570E-01 -0.3411519452679E+01 -0.6884184530652E+00  0.8500864454566E-01
-0.3086841222095E-01 -0.3429173932321E+01 -0.6920084792202E+00  0.1034550444092E+00
-0.3236039098538E-01 -0.3451652983951E+01 -0.6968026853705E+00  0.1221639650679E+00
-0.3492594050676E-01 -0.3478890477401E+01 -0.7027632940536E+00  0.1417570151516E+00
-0.3851812718854E-01 -0.3510909035739E+01 -0.7098854431637E+00  0.1627919079679E+00
-0.4316391957580E-01 -0.3547790724702E+01 -0.7181909395575E+00  0.1857898299408E+00
-0.4897818282247E-01 -0.3589636424624E+01 -0.7277229323331E+00  0.2112561631264E+00
-0.5619360393964E-01 -0.3636502159164E+01 -0.7385391636257E+00  0.2396881040797E+00
-0.6519626716128E-01 -0.3688301819964E+01 -0.7506996286114E+00  0.2715504485491E+00
-0.7652569406087E-01 -0.3744687579925E+01 -0.7642426661852E+00  0.3071954702121E+00
-0.9076430331200E-01 -0.3804950741017E+01 -0.7791430204759E+00  0.3467319578895E+00
-0.1082869620648E+00 -0.3868005743707E+01 -0.7952585530046E+00  0.3899267132263E+00
-0.1289930296468E+00 -0.3932509181579E+01 -0.8123004543494E+00  0.4362222119980E+00
-0.1522785885694E+00 -0.3996937943708E+01 -0.8298433188211E+00  0.4848847863114E+00
-0.1773022483112E+00 -0.4059453777656E+01 -0.8473512178199E+00  0.5351341495419E+00
-0.2032935013063E+00 -0.4117678614102E+01 -0.8641944359591E+00  0.5860746124475E+00
-0.2296725249864E+00 -0.4168497244968E+01 -0.8796339670984E+00  0.6364624259474E+00
-0.2559189947891E+00 -0.4207901831806E+01 -0.8927641786222E+00  0.6844190729220E+00
-0.2812553881134E+00 -0.4230818601000E+01 -0.9024148112697E+00  0.7271489280690E+00
-0.3042416433571E+00 -0.4230802383683E+01 -0.9070088189236E+00  0.7605983150634E+00
-0.3222216479192E+00 -0.4199499447549E+01 -0.9043442325694E+00  0.7787786549249E+00
-0.3300344253339E+00 -0.4125678570908E+01 -0.8911426125274E+00  0.7721974263214E+00
-0.3163336483560E+00 -0.3994440247998E+01 -0.8621547921179E+00  0.7246778131205E+00
-0.2539502964285E+00 -0.3789348068167E+01 -0.8086596849691E+00  0.6083337242928E+00
-0.7721989095659E-01 -0.3503563426187E+01 -0.7161566741003E+00  0.3798071230376E+00
 0.3573580211600E+00 -0.3169756839438E+01 -0.5624797720372E+00 -0.3952558279137E-02
 0.1287769494147E+01 -0.2893270342765E+01 -0.3211001745084E+00 -0.5081126980195E+00
 0.2906255270575E+01 -0.2791782324228E+01  0.2289458961052E-01 -0.8835897608589E+00
 0.4984222369909E+01 -0.2768029244410E+01  0.4432386317045E+00 -0.6949654488115E+00
-0.7502292668769E+00 -0.3376761392123E+01 -0.8253981440993E+00 -0.4524409805371E+00
-0.5741222172983E+00 -0.3437291874959E+01 -0.8022828304063E+00 -0.4270585025607E+00
-0.4086745898653E+00 -0.3475090563785E+01 -0.7767530423046E+00 -0.3631752684887E+00
-0.2808510102932E+00 -0.3483985808535E+01 -0.7529673749858E+00 -0.2817744981492E+00
-0.1932594561727E+00 -0.3472496929268E+01 -0.7331512880130E+00 -0.2032724121948E+00
-0.1362509428766E+00 -0.3452661126738E+01 -0.7177824246186E+00 -0.1368308604694E+00
-0.9942382598481E-01 -0.3432764413971E+01 -0.7064376585179E+00 -0.8335686986626E-01
-0.7541574939476E-01 -0.3416815696109E+01 -0.6984462995084E+00 -0.4063198650360E-01
-0.5967060343595E-01 -0.3406272247215E+01 -0.6931885804595E+00 -0.6000661572192E-02
-0.4944206997040E-01 -0.3401414282682E+01 -0.6901712808149E+00  0.2282074507884E-01
-0.4305515494771E-01 -0.3402056577644E+01 -0.6890223567856E+00  0.4764650482195E-01
-0.3946875312076E-01 -0.3407876176227E+01 -0.6894689961435E+00  0.6989829316847E-01
-0.3802462154803E-01 -0.3418557119786E+01 -0.6913163585683E+00  0.9070240755784E-01
-0.3830308312192E-01 -0.3433848394747E+01 -0.6944303059215E+00  0.1109717470275E+00
-0.4004030654972E-01 -0.3453580374902E+01 -0.6987241467021E+00  0.1314677685977E+00
-0.4308229002313E-01 -0.3477660456633E+01 -0.7041485598238E+00  0.1528459111462E+00
-0.4736258295412E-01 -0.3506056290235E+01 -0.7106837852278E+00  0.1756888921076E+00
-0.5289746635594E-01 -0.3538767037801E+01 -0.7183329115353E+00  0.2005299654490E+00
-0.5979628673488E-01 -0.3575780915521E+01 -0.7271154512861E+00  0.2278668777333E+00
-0.6828323114816E-01 -0.3617010978534E+01 -0.7370588529195E+00  0.2581586103601E+00
-0.7871578051125E-01 -0.3662205765505E+01 -0.7481843203521E+00  0.2917889679267E+00
-0.9156203064304E-01 -0.3710851832170E+01 -0.7604827838947E+00  0.3289845069375E+00
-0.1072842542070E+00 -0.3762103103811E+01 -0.7738774831353E+00  0.3697031320586E+00
-0.1261237422670E+00 -0.3814778091066E+01 -0.7881803784114E+00  0.4135628564703E+00
-0.1478862369887E+00 -0.3867469040023E+01 -0.8030710673690E+00  0.4598617592994E+00
-0.1719222549190E+00 -0.3918605411887E+01 -0.8181055455519E+00  0.5076922782154E+00
-0.1973370832021E+00 -0.3966313327081E+01 -0.8327300944652E+00  0.5560339682615E+00
-0.2232277203027E+00 -0.4008188934599E+01 -0.8462833435910E+00  0.6036770171974E+00
-0.2487585993115E+00 -0.4041098246542E+01 -0.8579713819555E+00  0.6489945192380E+00
-0.2730124639603E+00 -0.4061026860389E+01 -0.8668078777864E+00  0.6896475980753E+00
-0.2946485228561E+00 -0.4062933323221E+01 -0.8715163822021E+00  0.7222633618769E+00
-0.3113973677604E+00 -0.4040528915798E+01 -0.8703852696815E+00  0.7420121864301E+00
-0.3192372915849E+00 -0.3985976056612E+01 -0.8610426824700E+00  0.7418482053413E+00
-0.3105911340485E+00 -0.3889482691376E+01 -0.8400147776021E+00  0.7109992223780E+00
-0.2698990252730E+00 -0.3739679796953E+01 -0.8019157763946E+00  0.6323370410821E+00
-0.1635934751192E+00 -0.3527798815707E+01 -0.7382784691665E+00  0.4795071473064E+00
 0.7903240459314E-01 -0.3260150399044E+01 -0.6362236083707E+00  0.2190952536560E+00
 0.5889468025405E+00 -0.2980511097618E+01 -0.4783128661429E+00 -0.1661745378462E+00
 0.1544997049100E+01 -0.2779407330250E+01 -0.2468820599089E+00 -0.6118433146414E+00
 0.3043419490242E+01 -0.2726125673872E+01  0.6345876421969E-01 -0.8940405592547E+00
 0.4855238255646E+01 -0.2716699232755E+01  0.4277078109515E+00 -0.6985294362962E+00
-0.7516413663998E+00 -0.3352366808772E+01 -0.8208016472653E+00 -0.4275144427009E+00
-0.5899438463845E+00 -0.3410658428811E+01 -0.8001204669617E+00 -0.4066735451214E+00
-0.4352610486006E+00 -0.3451518554175E+01 -0.7773559321387E+00 -0.3528576986102E+00
-0.3103502378079E+00 -0.3468322674164E+01 -0.7557345936556E+00 -0.2810260409492E+00
-0.2201945182243E+00 -0.3465851005032E+01 -0.7372091156365E+00 -0.2080556588447E+00
-0.1587501482324E+00 -0.3453310302765E+01 -0.7224121009643E+00 -0.1433481358473E+00
-0.1176645156377E+00 -0.3438237218298E+01 -0.7111803573845E+00 -0.8935269513960E-01
-0.9022960582339E-01 -0.3424994211614E+01 -0.7030447739637E+00 -0.4508027996331E-01
-0.7192732045469E-01 -0.3415598507132E+01 -0.6975051759110E+00 -0.8539482499545E-02
-0.5988148442385E-01 -0.3410780578082E+01 -0.6941324228446E+00  0.2225144938087E-01
-0.5227389341646E-01 -0.3410662345810E+01 -0.6925872581657E+00  0.4898732692900E-01
-0.4794461376767E-01 -0.3415114981322E+01 -0.6926119293387E+00  0.7305693699824E-01
-0.4614514708624E-01 -0.3423935403075E+01 -0.6940161203739E+00  0.9559285230167E-01
-0.4638974537920E-01 -0.3436927889133E+01 -0.6966635372836E+00  0.1175298152061E+00
-0.4836709889475E-01 -0.3453936036219E+01 -0.7004606374605E+00  0.1396547239244E+00
-0.5188959461027E-01 -0.3474847625835E+01 -0.7053474545996E+00  0.1626453551473E+00
-0.5686730705021E-01 -0.3499582583203E+01 -0.7112899886497E+00  0.1870988104750E+00
-0.6329967368868E-01 -0.3528066070648E+01 -0.7182731595705E+00  0.2135495736050E+00
-0.7128090920450E-01 -0.3560186629320E+01 -0.7262935185276E+00  0.2424764419165E+00
-0.8101253987145E-01 -0.3595735034281E+01 -0.7353495257882E+00  0.2742900953927E+00
-0.9280633174708E-01 -0.3634325621569E+01 -0.7454264017710E+00  0.3092890346729E+00
-0.1070453364440E+00 -0.3675318616742E+01 -0.7564728019096E+00  0.3475801652687E+00
-0.1240679008374E+00 -0.3717769785366E+01 -0.7683675486902E+00  0.3889849116554E+00
-0.1439828773190E+00 -0.3760433743598E+01 -0.7808833358194E+00  0.4329861817017E+00
-0.1664940689141E+00 -0.3801862516887E+01 -0.7936713289868E+00  0.4787458708020E+00
-0.1908825012561E+00 -0.3840458455957E+01 -0.8062682034570E+00  0.5251898031789E+00
-0.2161685377450E+00 -0.3874336444495E+01 -0.8181010086387E+00  0.5710679444832E+00
-0.2412861989410E+00 -0.3901107543320E+01 -0.8284787607974E+00  0.6148695750101E+00
-0.2651147144846E+00 -0.3917690114865E+01 -0.8365609783357E+00  0.6546014882024E+00
-0.2863032336954E+00 -0.3920178765207E+01 -0.8412964123167E+00  0.6874917601816E+00
-0.3028902187738E+00 -0.3903744592700E+01 -0.8413269748315E+00  0.7096453155896E+00
-0.3116916377794E+00 -0.3862533391277E+01 -0.8348450182514E+00  0.7155845746496E+00
-0.3072427131327E+00 -0.3789631876553E+01 -0.8193749301468E+00  0.6975028480179E+00
-0.2796168359868E+00 -0.3677217662998E+01 -0.7913669115892E+00  0.6439815748502E+00
-0.2096653850982E+00 -0.3517916843050E+01 -0.7455164567387E+00  0.5382041360522E+00
-0.5972211225403E-01 -0.3310060240429E+01 -0.6739564805793E+00  0.3574041876271E+00
 0.2406250516554E+00 -0.3069098492455E+01 -0.5656946965894E+00  0.7929681878093E-01
 0.8044401731612E+00 -0.2841619570542E+01 -0.4074358855474E+00 -0.2930103318795E+00
 0.1760332440340E+01 -0.2699840113113E+01 -0.1879015373546E+00 -0.6808564089622E+00
 0.3143221949546E+01 -0.2679085534362E+01  0.9282728442008E-01 -0.8919790593567E+00
 0.4741730637116E+01 -0.2679747176127E+01  0.4123966983430E+00 -0.6991738376972E+00
-0.7528178737930E+00 -0.3332383459189E+01 -0.8170402787712E+00 -0.4040907622999E+00
-0.6031273096897E+00 -0.3388352244120E+01 -0.7982959226575E+00 -0.3865937803740E+00
-0.4581476079448E+00 -0.3430748535238E+01 -0.7777792402265E+00 -0.3407276194951E+00
-0.3369536374514E+00 -0.3453140592830E+01 -0.7580188573516E+00 -0.2772331396650E+00
-0.2456614649789E+00 -0.3457836601126E+01 -0.7406996242583E+00 -0.2098734022164E+00
-0.1808917586248E+00 -0.3451671702996E+01 -0.7265127031500E+00 -0.1476455534360E+00
-0.1361660835588E+00 -0.3441185938770E+01 -0.7154704151270E+00 -0.9394535350030E-01
-0.1055841139981E+00 -0.3430740294010E+01 -0.7072648921408E+00 -0.4878615552780E-01
-0.8482645130255E-01 -0.3422695206047E+01 -0.7015043419231E+00 -0.1082476999055E-01
-0.7098275003505E-01 -0.3418132734219E+01 -0.6978231072492E+00  0.2157754253832E-01
-0.6214061501246E-01 -0.3417442373201E+01 -0.6959166080126E+00  0.4995378224434E-01
-0.5704535390483E-01 -0.3420676216548E+01 -0.6955443244549E+00  0.7562669982885E-01
-0.5486932557635E-01 -0.3427742402659E+01 -0.6965223560261E+00  0.9971078161788E-01
-0.5506503715868E-01 -0.3438503648094E+01 -0.6987137474622E+00  0.1231447207739E+00
-0.5727430718335E-01 -0.3452821890037E+01 -0.7020192499049E+00  0.1467271534415E+00
-0.6127413854801E-01 -0.3470571478637E+01 -0.7063691339627E+00  0.1711469051117E+00
-0.6694730286227E-01 -0.3491632048527E+01 -0.7117158808833E+00  0.1970053141738E+00
-0.7427013555521E-01 -0.3515864522230E+01 -0.7180269422565E+00  0.2248283690628E+00
-0.8331228037007E-01 -0.3543071834570E+01 -0.7252768337956E+00  0.2550668240299E+00
-0.9423981341615E-01 -0.3572943271275E+01 -0.7334366278672E+00  0.2880764469304E+00
-0.1073048544635E+00 -0.3604987430588E+01 -0.7424584680738E+00  0.3240697447113E+00
-0.1227954578124E+00 -0.3638471415967E+01 -0.7522533859654E+00  0.3630414653394E+00
-0.1409234936340E+00 -0.3672384925205E+01 -0.7626616951323E+00  0.4046892465468E+00
-0.1616649448346E+00 -0.3705446158893E+01 -0.7734222322705E+00  0.4483721120060E+00
-0.1846123904002E+00 -0.3736191045673E+01 -0.7841606988996E+00  0.4931232179600E+00
-0.2089550269215E+00 -0.3763019514566E+01 -0.7943949201348E+00  0.5377101910573E+00
-0.2335993335057E+00 -0.3784065999949E+01 -0.8035330786645E+00  0.5806677148478E+00
-0.2572886173328E+00 -0.3797001373035E+01 -0.8108580101564E+00  0.6202053719864E+00
-0.2785917653633E+00 -0.3798865772018E+01 -0.8154915196281E+00  0.6539934450533E+00
-0.2956968735442E+00 -0.3785968900846E+01 -0.8163331670424E+00  0.6788731676300E+00
-0.3059861792429E+00 -0.3753852811063E+01 -0.8119678101605E+00  0.6905107184345E+00
-0.3053268082138E+00 -0.3697324901815E+01 -0.8005303539347E+00  0.6829476633461E+00
-0.2868360306188E+00 -0.3610688838745E+01 -0.7795049854884E+00  0.6479510467135E+00
-0.2384927057295E+00 -0.3488373775106E+01 -0.7453733072740E+00  0.5740856128704E+00
-0.1384654314350E+00 -0.3326952949545E+01 -0.6930836865237E+00  0.4458951294732E+00
 0.5271153056316E-01 -0.3130569620707E+01 -0.6155716272015E+00  0.2453662444583E+00
 0.4013658662520E+00 -0.2920033214108E+01 -0.5037334770774E+00 -0.3922706688366E-01
 0.1001114224531E+01 -0.2739637782127E+01 -0.3477047167004E+00 -0.3901827931533E+00
 0.1940370122576E+01 -0.2643921538257E+01 -0.1407102852328E+00 -0.7248240242779E+00
 0.3216255110016E+01 -0.2645506331889E+01  0.1141497573263E+00 -0.8822317442838E+00
 0.4641178111702E+01 -0.2653847470366E+01  0.3974661341898E+00 -0.6971819558505E+00
-0.7538451493987E+00 -0.3315807672100E+01 -0.8139305764282E+00 -0.3819780986648E+00
-0.6142898313271E+00 -0.3369498199075E+01 -0.7967576179531E+00 -0.3670050204729E+00
-0.4779920206268E+00 -0.3412458393185E+01 -0.7780900943569E+00 -0.3274789564447E+00
-0.3609092996361E+00 -0.3438739178864E+01 -0.7599297070238E+00 -0.2711772974732E+00
-0.2695383732110E+00 -0.3449049557568E+01 -0.7437175972380E+00 -0.2092457267393E+00
-0.2024111567425E+00 -0.3448325865938E+01 -0.7301474154162E+00 -0.1499486850602E+00
-0.1546701481667E+00 -0.3442057403190E+01 -0.7193455209904E+00 -0.9717839990540E-01
-0.1212728237770E+00 -0.3434371061849E+01 -0.7111287877219E+00 -0.5171191894156E-01
-0.9821180269225E-01 -0.3427785577264E+01 -0.7051994864996E+00 -0.1279255584779E-01
-0.8262718192710E-01 -0.3423632745604E+01 -0.7012519959556E+00  0.2086421285140E-01
-0.7256181553601E-01 -0.3422521624923E+01 -0.6990166985080E+00  0.5060184749699E-01
-0.6669284057053E-01 -0.3424665048419E+01 -0.6982715882030E+00  0.7765078386371E-01
-0.6412695590234E-01 -0.3430075855313E+01 -0.6988405726566E+00  0.1030862259669E+00
-0.6426099027886E-01 -0.3438675288356E+01 -0.7005872661666E+00  0.1278343578280E+00
-0.6669160877072E-01 -0.3450347017879E+01 -0.7034077358116E+00  0.1526925690773E+00
-0.7115927331535E-01 -0.3464957390751E+01 -0.7072233433518E+00  0.1783499941140E+00
-0.7751590993132E-01 -0.3482353144567E+01 -0.7119738215088E+00  0.2054028066218E+00
-0.8570870512410E-01 -0.3502341125732E+01 -0.7176099768645E+00  0.2343600584552E+00
-0.9577390221815E-01 -0.3524653051952E+01 -0.7240854016238E+00  0.2656374696482E+00
-0.1078309681280E+00 -0.3548896750479E+01 -0.7313455546193E+00  0.2995320674327E+00
-0.1220612095070E+00 -0.3574500642255E+01 -0.7393123813691E+00  0.3361721003446E+00
-0.1386503448589E+00 -0.3600666991153E+01 -0.7478634783463E+00  0.3754482493808E+00
-0.1576817877147E+00 -0.3626346484493E+01 -0.7568056657188E+00  0.4169457724818E+00
-0.1789970469588E+00 -0.3650245375941E+01 -0.7658484959921E+00  0.4599098690287E+00
-0.2020679994614E+00 -0.3670907382532E+01 -0.7745950879410E+00  0.5032529219906E+00
-0.2259719445644E+00 -0.3686756719193E+01 -0.7825457444124E+00  0.5455948017673E+00
-0.2494761921116E+00 -0.3695980823571E+01 -0.7890914148949E+00  0.5852728889909E+00
-0.2711098600247E+00 -0.3696355804082E+01 -0.7934931446452E+00  0.6202447578479E+00
-0.2891125085306E+00 -0.3685108289053E+01 -0.7948441713609E+00  0.6478842442547E+00
-0.3011955477949E+00 -0.3658855929695E+01 -0.7920103072998E+00  0.6647069244192E+00
-0.3040747440370E+00 -0.3613641425835E+01 -0.7835432456500E+00  0.6660439355773E+00
-0.2926852798764E+00 -0.3545100657938E+01 -0.7675571990004E+00  0.6456440007881E+00
-0.2588429978952E+00 -0.3448926311778E+01 -0.7415538729846E+00  0.5951846871047E+00
-0.1888250788872E+00 -0.3321852547463E+01 -0.7021355357327E+00  0.5037698782616E+00
-0.5912754538609E-01 -0.3163987064979E+01 -0.6446229316787E+00  0.3580433171636E+00
 0.1695417323352E+00 -0.2983748686935E+01 -0.5628413993069E+00  0.1451364773200E+00
 0.5571104728392E+00 -0.2804277758560E+01 -0.4494334638412E+00 -0.1376239777042E+00
 0.1178487406073E+01 -0.2664888473207E+01 -0.2972802178567E+00 -0.4630494438614E+00
 0.2091147892831E+01 -0.2604815236366E+01 -0.1027334702378E+00 -0.7506207790076E+00
 0.3269888811092E+01 -0.2622100881886E+01  0.1295575877716E+00 -0.8675846162403E+00
 0.4551552624933E+01 -0.2636673579039E+01  0.3829758148858E+00 -0.6927695176383E+00
-0.7547740850794E+00 -0.3301904092233E+01 -0.8113356475522E+00 -0.3610190065261E+00
-0.6238774992844E+00 -0.3353420371883E+01 -0.7954595860868E+00 -0.3479963072813E+00
-0.4953268348804E+00 -0.3396324301085E+01 -0.7783302387910E+00 -0.3135825661041E+00
-0.3824879393842E+00 -0.3425252246009E+01 -0.7615480484266E+00 -0.2634624848637E+00
-0.2917999494701E+00 -0.3439903994445E+01 -0.7463407999044E+00 -0.2066375597400E+00
-0.2231286686856E+00 -0.3443738605333E+01 -0.7333734657318E+00 -0.1505067433206E+00
-0.1729667834333E+00 -0.3441247240073E+01 -0.7228428154725E+00 -0.9913943218700E-01
-0.1371106507683E+00 -0.3436187718253E+01 -0.7146596844536E+00 -0.5385772115944E-01
-0.1119341908838E+00 -0.3431092698326E+01 -0.7086053884011E+00 -0.1440567290994E-01
-0.9469634443396E-01 -0.3427448788524E+01 -0.7044290370884E+00  0.2015927577606E-01
-0.8344130140358E-01 -0.3426033302303E+01 -0.7018949312003E+00  0.5097723694569E-01
-0.7680520844138E-01 -0.3427195033245E+01 -0.7008000587800E+00  0.7916736254002E-01
-0.7384399142557E-01 -0.3431041251890E+01 -0.7009770591085E+00  0.1057481236252E+00
-0.7390615168730E-01 -0.3437549224825E+01 -0.7022910857674E+00  0.1316186669184E+00
-0.7654585512652E-01 -0.3446626170484E+01 -0.7046344156219E+00  0.1575632507937E+00
-0.8146647474189E-01 -0.3458135063370E+01 -0.7079203181711E+00  0.1842614150391E+00
-0.8848595952116E-01 -0.3471896891788E+01 -0.7120765808725E+00  0.2122957170402E+00
-0.9751675610563E-01 -0.3487674596497E+01 -0.7170382812053E+00  0.2421511843676E+00
-0.1085537632733E+00 -0.3505142814434E+01 -0.7227393263111E+00  0.2742034092018E+00
-0.1216603658440E+00 -0.3523846682312E+01 -0.7291014204957E+00  0.3086890248933E+00
-0.1369382227313E+00 -0.3543157175447E+01 -0.7360190906032E+00  0.3456553714637E+00
-0.1544652695543E+00 -0.3562236020529E+01 -0.7433402690933E+00  0.3848973656617E+00
-0.1741947788845E+00 -0.3580018241289E+01 -0.7508426152231E+00  0.4258984567315E+00
-0.1958314849095E+00 -0.3595220359380E+01 -0.7582103801562E+00  0.4677997712620E+00
-0.2187175429712E+00 -0.3606417087010E+01 -0.7650269373960E+00  0.5094020633119E+00
-0.2418010280290E+00 -0.3612083903909E+01 -0.7707769978731E+00  0.5491902086713E+00
-0.2636891020386E+00 -0.3610494718002E+01 -0.7748367755541E+00  0.5853255910295E+00
-0.2826785012821E+00 -0.3599574038782E+01 -0.7764505195828E+00  0.6155465526973E+00
-0.2966679842226E+00 -0.3576792381006E+01 -0.7746920845895E+00  0.6369782053771E+00
-0.3028900088733E+00 -0.3539151864778E+01 -0.7684083861805E+00  0.6458820838942E+00
-0.2974092965145E+00 -0.3483292816173E+01 -0.7561404338049E+00  0.6373693185514E+00
-0.2742922277907E+00 -0.3405783894370E+01 -0.7360152353996E+00  0.6050874942438E+00
-0.2242411266483E+00 -0.3303766230796E+01 -0.7056014820031E+00  0.5409334549698E+00
-0.1323006276540E+00 -0.3176150848770E+01 -0.6616903051448E+00  0.4349874945211E+00
 0.2573195250987E-01 -0.3025962825114E+01 -0.6000461834622E+00  0.2764140862000E+00
 0.2874630590967E+00 -0.2864416181050E+01 -0.5153906320707E+00  0.5732153677250E-01
 0.7052862720351E+00 -0.2714812281580E+01 -0.4019052078978E+00 -0.2177639205538E+00
 0.1337316166025E+01 -0.2610417923948E+01 -0.2546203553786E+00 -0.5162265893581E+00
 0.2217859091296E+01 -0.2578010389843E+01 -0.7203026078280E-01 -0.7630982248702E+00
 0.3309321463937E+01 -0.2606645651204E+01  0.1405351646406E+00 -0.8496808339175E+00
 0.4471213761869E+01 -0.2626514600437E+01  0.3689398377841E+00 -0.6861355596597E+00
-0.7556346421790E+00 -0.3290123360867E+01 -0.8091516126664E+00 -0.3410834612677E+00
-0.6322171961006E+00 -0.3339593460305E+01 -0.7943621431180E+00 -0.3296021337447E+00
-0.5105797495241E+00 -0.3382047867700E+01 -0.7785255350458E+00 -0.2993587507080E+00
-0.4019540648646E+00 -0.3412715940940E+01 -0.7629340125294E+00 -0.2545510326505E+00
-0.3124812139563E+00 -0.3430681480824E+01 -0.7486325501115E+00 -0.2024495357149E+00
-0.2429311624693E+00 -0.3438276332570E+01 -0.7362415099787E+00 -0.1495693573347E+00
-0.1908911773717E+00 -0.3439097348169E+01 -0.7259977159263E+00 -0.9994288922246E-01
-0.1529362461095E+00 -0.3436469120457E+01 -0.7178810840106E+00 -0.5525257195585E-01
-0.1258546302891E+00 -0.3432833846856E+01 -0.7117377060348E+00 -0.1564961805969E-01
-0.1070747661058E+00 -0.3429750952439E+01 -0.7073651542496E+00  0.1949493753537E-01
-0.9468229909762E-01 -0.3428115709568E+01 -0.7045596122318E+00  0.5111601896832E-01
-0.8729847732905E-01 -0.3428385782107E+01 -0.7031368623647E+00  0.8020965584003E-01
-0.8394382095747E-01 -0.3430750003926E+01 -0.7029387754512E+00  0.1077241428792E+00
-0.8392666590224E-01 -0.3435237112745E+01 -0.7038327662174E+00  0.1345193234471E+00
-0.8676206497715E-01 -0.3441778314013E+01 -0.7057080863140E+00  0.1613558279771E+00
-0.9211632902211E-01 -0.3450237038636E+01 -0.7084706840887E+00  0.1888947561691E+00
-0.9977079872966E-01 -0.3460415258898E+01 -0.7120372221356E+00  0.2176976848884E+00
-0.1095982165613E+00 -0.3472041866387E+01 -0.7163280272638E+00  0.2482198812601E+00
-0.1215452284819E+00 -0.3484747896728E+01 -0.7212586357896E+00  0.2807933791430E+00
-0.1356112931129E+00 -0.3498033039117E+01 -0.7267288772750E+00  0.3155944479043E+00
-0.1518115349381E+00 -0.3511230923118E+01 -0.7326085025279E+00  0.3525939535722E+00
-0.1701120768862E+00 -0.3523483781275E+01 -0.7387191826401E+00  0.3914994153336E+00
-0.1903346042657E+00 -0.3533731424696E+01 -0.7448132168908E+00  0.4317025910096E+00
-0.2120445452042E+00 -0.3540720920484E+01 -0.7505531043217E+00  0.4722504958801E+00
-0.2344462912736E+00 -0.3543080014469E+01 -0.7555052724064E+00  0.5118428333059E+00
-0.2563444117410E+00 -0.3539361394122E+01 -0.7591411724847E+00  0.5488444951238E+00
-0.2761695921478E+00 -0.3527957023654E+01 -0.7608253344976E+00  0.5812649544224E+00
-0.2919738822842E+00 -0.3506978647187E+01 -0.7597905172159E+00  0.6066598054668E+00
-0.3013120223124E+00 -0.3474188751596E+01 -0.7551001660336E+00  0.6219581888377E+00
-0.3009489429107E+00 -0.3427032177293E+01 -0.7455962351510E+00  0.6232449038390E+00
-0.2863375020540E+00 -0.3362810018098E+01 -0.7298295149058E+00  0.6055288086099E+00
-0.2507760905248E+00 -0.3279068750557E+01 -0.7059689787361E+00  0.5625370548076E+00
-0.1840881063775E+00 -0.3174362540712E+01 -0.6716901394268E+00  0.4866449841083E+00
-0.7057351970146E-01 -0.3049527285098E+01 -0.6240201702586E+00  0.3692106821493E+00
 0.1138205789901E+00 -0.2909817106555E+01 -0.5591993138456E+00  0.2020644100419E+00
 0.4039735454260E+00 -0.2767976731806E+01 -0.4728006443213E+00 -0.1822285237697E-01
 0.8444582242111E+00 -0.2646059799187E+01 -0.3603203203643E+00 -0.2817645352785E+00
 0.1478971528359E+01 -0.2571200146451E+01 -0.2184457268735E+00 -0.5535234596516E+00
 0.2324835824343E+01 -0.2560436846505E+01 -0.4712020513457E-01 -0.7656760819563E+00
 0.3338281438866E+01 -0.2597560812990E+01  0.1481441273827E+00 -0.8295101292122E+00
 0.4398812725652E+01 -0.2622069482368E+01  0.3553486539518E+00 -0.6774793644406E+00
-0.7564443016582E+00 -0.3280048338241E+01 -0.8072985400095E+00 -0.3220631258665E+00
-0.6395516576441E+00 -0.3327606428872E+01 -0.7934316291264E+00 -0.3118262566362E+00
-0.5240932445525E+00 -0.3369365932601E+01 -0.7786918470340E+00 -0.2850255408477E+00
-0.4195518689500E+00 -0.3401111294021E+01 -0.7641326439806E+00 -0.2447949201042E+00
-0.3316521474938E+00 -0.3421569181245E+01 -0.7506442769332E+00 -0.1970188729666E+00
-0.2617553971763E+00 -0.3432223322797E+01 -0.7387957550035E+00 -0.1473726600489E+00
-0.2083179946049E+00 -0.3435898073820E+01 -0.7288432245456E+00 -0.9971660727256E-01
-0.1686121878428E+00 -0.3435468379390E+01 -0.7208161241875E+00 -0.5594594547900E-01
-0.1398462868687E+00 -0.3433216358324E+01 -0.7146125396871E+00 -0.1652815177718E-01
-0.1196520193768E+00 -0.3430707708039E+01 -0.7100719560641E+00  0.1888991273706E-01
-0.1061892373465E+00 -0.3428909478589E+01 -0.7070197537225E+00  0.5104552456583E-01
-0.9808800147546E-01 -0.3428360797197E+01 -0.7052897702441E+00  0.8080620841953E-01
-0.9434845743844E-01 -0.3429317698174E+01 -0.7047332416238E+00  0.1090406271187E+00
-0.9424729423035E-01 -0.3431854348420E+01 -0.7052203390388E+00  0.1365594854540E+00
-0.9726435397887E-01 -0.3435925239064E+01 -0.7066379291384E+00  0.1640908695646E+00
-0.1030294301401E+00 -0.3441397311992E+01 -0.7088853589896E+00  0.1922698059108E+00
-0.1112851748413E+00 -0.3448059716480E+01 -0.7118689888719E+00  0.2216306922924E+00
-0.1218603924917E+00 -0.3455616596968E+01 -0.7154954085536E+00  0.2525946015561E+00
-0.1346476638274E+00 -0.3463667944769E+01 -0.7196631324432E+00  0.2854480125829E+00
-0.1495761937899E+00 -0.3471683609992E+01 -0.7242519715486E+00  0.3203081620394E+00
-0.1665693184897E+00 -0.3478977572728E+01 -0.7291093891082E+00  0.3570746218549E+00
-0.1854784392734E+00 -0.3484690880311E+01 -0.7340338748548E+00  0.3953759101756E+00
-0.2059925019460E+00 -0.3487786170217E+01 -0.7387557454410E+00  0.4345220402684E+00
-0.2275352747433E+00 -0.3487059475771E+01 -0.7429189611733E+00  0.4734763621932E+00
-0.2491667077553E+00 -0.3481211986754E+01 -0.7460757500192E+00  0.5108495398694E+00
-0.2695367942799E+00 -0.3468897537773E+01 -0.7476868775521E+00  0.5449034460157E+00
-0.2868881833222E+00 -0.3448654520951E+01 -0.7471085519874E+00  0.5735218286191E+00
-0.2990220454781E+00 -0.3418814977367E+01 -0.7435674156490E+00  0.5941163373912E+00
-0.3031542668783E+00 -0.3377470873697E+01 -0.7361250390842E+00  0.6034753543703E+00
-0.2956065750492E+00 -0.3322549095671E+01 -0.7236311449269E+00  0.5975854194551E+00
-0.2712791988661E+00 -0.3252042225639E+01 -0.7046642954013E+00  0.5714660190010E+00
-0.2228302912904E+00 -0.3164467913769E+01 -0.6774596511069E+00  0.5190824839361E+00
-0.1394607637490E+00 -0.3059686304634E+01 -0.6398294232108E+00  0.4334867008847E+00
-0.5187865552207E-02 -0.2940137828769E+01 -0.5890651476419E+00  0.3074844484072E+00
 0.2032110098279E+00 -0.2812638684972E+01 -0.5218855428056E+00  0.1355067644607E+00
 0.5172603252376E+00 -0.2690471797971E+01 -0.4346423010234E+00 -0.8210000303425E-01
 0.9739783138315E+00 -0.2593629401987E+01 -0.3239302224580E+00 -0.3317261027938E+00
 0.1605066725193E+01 -0.2543561250717E+01 -0.1876989079016E+00 -0.5780102478535E+00
 0.2415636102123E+01 -0.2549928625625E+01 -0.2685850510056E-01 -0.7607664938264E+00
 0.3359498499895E+01 -0.2593677079620E+01  0.1531642863372E+00 -0.8076738760891E+00
 0.4333214282947E+01 -0.2622328631044E+01  0.3421771354793E+00 -0.6670120543371E+00
-0.7572130575170E+00 -0.3271357947419E+01 -0.8057142129933E+00 -0.3038668043588E+00
-0.6460634197420E+00 -0.3317135489096E+01 -0.7926397935789E+00 -0.2946553168855E+00
-0.5361415839162E+00 -0.3358052050333E+01 -0.7788387384555E+00 -0.2707309573631E+00
-0.4354994965091E+00 -0.3390390421663E+01 -0.7651779950364E+00 -0.2344612276833E+00
-0.3494006259562E+00 -0.3412688267570E+01 -0.7524177899171E+00 -0.1906249721390E+00
-0.2795741460015E+00 -0.3425798081307E+01 -0.7410744565045E+00 -0.1441318929791E+00
-0.2251549480234E+00 -0.3431892998053E+01 -0.7314096001141E+00 -0.9859201099988E-01
-0.1840236951855E+00 -0.3433411824683E+01 -0.7234871147545E+00 -0.5600052050214E-01
-0.1537953767400E+00 -0.3432434880786E+01 -0.7172460621931E+00 -0.1705899565318E-01
-0.1323241905118E+00 -0.3430483123252E+01 -0.7125614733708E+00  0.1835171164978E-01
-0.1178691910623E+00 -0.3428555188827E+01 -0.7092848865470E+00  0.5078545091464E-01
-0.1090897309132E+00 -0.3427245517493E+01 -0.7072670602204E+00  0.8098132266649E-01
-0.1049796161001E+00 -0.3426862469807E+01 -0.7063684277072E+00  0.1097226423471E+00
-0.1047923562484E+00 -0.3427518652669E+01 -0.7064622123105E+00  0.1377635963191E+00
-0.1079767900997E+00 -0.3429190251618E+01 -0.7074334188851E+00  0.1657924905390E+00
-0.1141271832041E+00 -0.3431750055036E+01 -0.7091754582156E+00  0.1944119470080E+00
-0.1229459860049E+00 -0.3434979959664E+01 -0.7115851997372E+00  0.2241241799052E+00
-0.1342146099998E+00 -0.3438567944078E+01 -0.7145565214632E+00  0.2553128585014E+00
-0.1477668528709E+00 -0.3442094430159E+01 -0.7179722673046E+00  0.2882181352990E+00
-0.1634567228920E+00 -0.3445013384253E+01 -0.7216940321831E+00  0.3229005574385E+00
-0.1811118997472E+00 -0.3446634646480E+01 -0.7255493200569E+00  0.3591941120407E+00
-0.2004670990190E+00 -0.3446114025500E+01 -0.7293162357715E+00  0.3966567529758E+00
-0.2210777739662E+00 -0.3442452888234E+01 -0.7327061433582E+00  0.4345267100967E+00
-0.2422241889549E+00 -0.3434512764785E+01 -0.7353474017055E+00  0.4716946996992E+00
-0.2628168050687E+00 -0.3421086681859E+01 -0.7367807083645E+00  0.5066956288657E+00
-0.2813432236269E+00 -0.3400950864492E+01 -0.7364588285978E+00  0.5377068449899E+00
-0.2958511940478E+00 -0.3372814399429E+01 -0.7337331296289E+00  0.5625138993937E+00
-0.3038908117494E+00 -0.3335256030479E+01 -0.7278293792912E+00  0.5784242579953E+00
-0.3023522044868E+00 -0.3286723604150E+01 -0.7178151724237E+00  0.5821408166803E+00
-0.2871494314571E+00 -0.3225646998892E+01 -0.7025592965388E+00  0.5696275250071E+00
-0.2527045420584E+00 -0.3150711981837E+01 -0.6806833149221E+00  0.5360166183963E+00
-0.1911788508277E+00 -0.3061359235134E+01 -0.6505076268857E+00  0.4756410863973E+00
-0.9140748184638E-01 -0.2958600380129E+01 -0.6100015814848E+00  0.3823634648979E+00
 0.6246836859090E-01 -0.2846137237693E+01 -0.5567337821163E+00  0.2504936285393E+00
 0.2923369340115E+00 -0.2731756774653E+01 -0.4878839753984E+00  0.7685599252157E-01
 0.6260704451298E+00 -0.2628554666252E+01 -0.4004968501923E+00 -0.1351653370679E+00
 0.1093721606632E+01 -0.2554075527142E+01 -0.2920707884542E+00 -0.3695981231439E+00
 0.1717243600712E+01 -0.2524775388688E+01 -0.1615063600020E+00 -0.5921339366645E+00
 0.2493156178071E+01 -0.2544888086065E+01 -0.1034638175297E-01 -0.7500724451912E+00
 0.3375027744124E+01 -0.2594090327778E+01  0.1561874855966E+00 -0.7845222945488E+00
 0.4273435728022E+01 -0.2626498442283E+01  0.3293874620559E+00 -0.6549712083092E+00
-0.7579464125363E+00 -0.3263802243906E+01 -0.8043497432743E+00 -0.2864168838698E+00
-0.6518913804385E+00 -0.3307923993627E+01 -0.7919630866143E+00 -0.2780667013857E+00
-0.5469448188614E+00 -0.3347914227975E+01 -0.7789718209749E+00 -0.2565746987351E+00
-0.4499878997031E+00 -0.3380492401367E+01 -0.7660960716298E+00 -0.2237521142685E+00
-0.3658213171003E+00 -0.3404114548734E+01 -0.7539871844021E+00 -0.1834967760260E+00
-0.2963852116831E+00 -0.3419167590354E+01 -0.7431105714807E+00 -0.1400382880693E+00
-0.2413364914162E+00 -0.3427284844272E+01 -0.7337242780710E+00 -0.9669738907768E-01
-0.1990764745685E+00 -0.3430499626307E+01 -0.7259152309921E+00 -0.5548626294971E-01
-0.1676012426338E+00 -0.3430669820074E+01 -0.7196542232653E+00 -0.1726988598233E-01
-0.1449948019183E+00 -0.3429234789092E+01 -0.7148459288542E+00  0.1787893753516E-01
-0.1296329939018E+00 -0.3427191391814E+01 -0.7113648877432E+00  0.5034907034581E-01
-0.1202212744688E+00 -0.3425165595644E+01 -0.7090773845886E+00  0.8075559852221E-01
-0.1157596676938E+00 -0.3423503516297E+01 -0.7078526473460E+00  0.1097941038831E+00
-0.1154865799711E+00 -0.3422348756133E+01 -0.7075670777644E+00  0.1381572345529E+00
-0.1188241638292E+00 -0.3421696961667E+01 -0.7081042356508E+00  0.1664879783015E+00
-0.1253325080741E+00 -0.3421428459365E+01 -0.7093522040579E+00  0.1953515543858E+00
-0.1346729031929E+00 -0.3421322798703E+01 -0.7111991509769E+00  0.2252141703606E+00
-0.1465766980822E+00 -0.3421059549805E+01 -0.7135272602099E+00  0.2564200133536E+00
-0.1608152440675E+00 -0.3420209875433E+01 -0.7162050345723E+00  0.2891631804931E+00
-0.1771636613396E+00 -0.3418224193358E+01 -0.7190775816545E+00  0.3234506661901E+00
-0.1953513024935E+00 -0.3414421715749E+01 -0.7219546144064E+00  0.3590569711622E+00
-0.2149950783893E+00 -0.3407986855527E+01 -0.7245963975805E+00  0.3954779798594E+00
-0.2355167112519E+00 -0.3397973627306E+01 -0.7266980785403E+00  0.4318902126234E+00
-0.2560518793414E+00 -0.3383323622360E+01 -0.7278751111864E+00  0.4671233490545E+00
-0.2753582937679E+00 -0.3362937779697E+01 -0.7276592255360E+00  0.4996508354900E+00
-0.2917565374862E+00 -0.3335732799683E+01 -0.7254978782445E+00  0.5275850256326E+00
-0.3030970604614E+00 -0.3300608097624E+01 -0.7207410423569E+00  0.5486413687049E+00
-0.3066842773906E+00 -0.3256408472398E+01 -0.7126185605765E+00  0.5600625823579E+00
-0.2991026692583E+00 -0.3201953086959E+01 -0.7002111616774E+00  0.5585192945843E+00
-0.2759030661808E+00 -0.3136178925144E+01 -0.6824164084338E+00  0.5400225052166E+00
-0.2311136868042E+00 -0.3058442329971E+01 -0.6579112131586E+00  0.4999044113590E+00
-0.1565475414816E+00 -0.2969028552432E+01 -0.6251152280977E+00  0.4329628330303E+00
-0.4091436363944E-01 -0.2869920700733E+01 -0.5821670215495E+00  0.3339450360557E+00
 0.1311846594878E+00 -0.2765749015491E+01 -0.5269128790523E+00  0.1986320506309E+00
 0.3799630564909E+00 -0.2664780209605E+01 -0.4569634374322E+00  0.2595068392538E-01
 0.7295886604566E+00 -0.2579429374844E+01 -0.3699681483904E+00 -0.1783870720389E+00
 0.1203896705917E+01 -0.2524694109756E+01 -0.2641594847040E+00 -0.3971230722032E+00
 0.1817058631152E+01 -0.2512789152252E+01 -0.1391461062935E+00 -0.5978414622981E+00
 0.2559730742193E+01 -0.2544070647293E+01  0.3132019026598E-02 -0.7348047923874E+00
 0.3386480568498E+01 -0.2598043495484E+01  0.1576874169526E+00 -0.7602142059386E+00
 0.4218596618256E+01 -0.2633933984495E+01  0.3169325314749E+00 -0.6416399868293E+00
-0.7586471950886E+00 -0.3257184833899E+01 -0.8031664177655E+00 -0.2696465575205E+00
-0.6571424000865E+00 -0.3299767399541E+01 -0.7913819717181E+00 -0.2620330948679E+00
-0.5566800218002E+00 -0.3338791198271E+01 -0.7790942556236E+00 -0.2426228283877E+00
-0.4631820623899E+00 -0.3371352672562E+01 -0.7669069584182E+00 -0.2128201915539E+00
-0.3810087254356E+00 -0.3395893191935E+01 -0.7553803947301E+00 -0.1758203326545E+00
-0.3122030404885E+00 -0.3412459107885E+01 -0.7449324407750E+00 -0.1352585968101E+00
-0.2568181142045E+00 -0.3422241563109E+01 -0.7358119464271E+00 -0.9415359089184E-01
-0.2136941601717E+00 -0.3426907455103E+01 -0.7281203339047E+00 -0.5447583567680E-01
-0.1811758428252E+00 -0.3428086725113E+01 -0.7218525243442E+00 -0.1719513368215E-01
-0.1575752722411E+00 -0.3427112380157E+01 -0.7169375411627E+00  0.1746346972751E-01
-0.1413960419349E+00 -0.3424953027712E+01 -0.7132698245579E+00  0.4974446704668E-01
-0.1314027635726E+00 -0.3422245414694E+01 -0.7107296462440E+00  0.8014653569031E-01
-0.1266124581770E+00 -0.3419359766241E+01 -0.7091944554514E+00  0.1092779597992E+00
-0.1262558508260E+00 -0.3416463200622E+01 -0.7085438208476E+00  0.1377670028491E+00
-0.1297326652844E+00 -0.3413568181249E+01 -0.7086601798666E+00  0.1662074419883E+00
-0.1365704403692E+00 -0.3410563707880E+01 -0.7094268402212E+00  0.1951234089746E+00
-0.1463888697283E+00 -0.3407231213307E+01 -0.7107240271976E+00  0.2249424186014E+00
-0.1588673308932E+00 -0.3403248740159E+01 -0.7124232248264E+00  0.2559681261053E+00
-0.1737120573436E+00 -0.3398187309708E+01 -0.7143798840555E+00  0.2883497285327E+00
-0.1906167169378E+00 -0.3391504566259E+01 -0.7164242673149E+00  0.3220444316432E+00
-0.2092107191308E+00 -0.3382540767697E+01 -0.7183503080699E+00  0.3567736407873E+00
-0.2289928422720E+00 -0.3370520850879E+01 -0.7199027493576E+00  0.3919797313754E+00
-0.2492514569016E+00 -0.3354563493068E+01 -0.7207630007341E+00  0.4267877300508E+00
-0.2689775091191E+00 -0.3333702868369E+01 -0.7205360862344E+00  0.4599783427510E+00
-0.2867745463840E+00 -0.3306961380305E+01 -0.7187471960479E+00  0.4899785561165E+00
-0.3007945378926E+00 -0.3273410864825E+01 -0.7148410911954E+00  0.5148557895359E+00
-0.3086923278277E+00 -0.3232155840245E+01 -0.7081696441670E+00  0.5322833013578E+00
-0.3075369974377E+00 -0.3182319478175E+01 -0.6979713055232E+00  0.5394770252658E+00
-0.2936332596555E+00 -0.3123097435719E+01 -0.6833461492575E+00  0.5331247447416E+00
-0.2622194243209E+00 -0.3053923339365E+01 -0.6632285626201E+00  0.5093457654906E+00
-0.2070189149399E+00 -0.2974782579451E+01 -0.6363603083606E+00  0.4637422180749E+00
-0.1196412455250E+00 -0.2886707006479E+01 -0.6012696593605E+00  0.3916416839498E+00
 0.1111622473404E-01 -0.2792463704110E+01 -0.5562695041643E+00  0.2886982864178E+00
 0.1999314895573E+00 -0.2697309360012E+01 -0.4994755815337E+00  0.1520670456848E+00
 0.4651428668417E+00 -0.2609604846085E+01 -0.4288924022397E+00 -0.1755192157999E-01
 0.8273316433555E+00 -0.2540776759267E+01 -0.3426890282887E+00 -0.2127568491789E+00
 0.1304913531691E+01 -0.2503358621731E+01 -0.2396890215795E+00 -0.4158226311288E+00
 0.1905934871223E+01 -0.2506037935195E+01 -0.1200206145828E+00 -0.5966884953150E+00
 0.2617207249227E+01 -0.2546461672036E+01  0.1414911564908E-01 -0.7158569685205E+00
 0.3395189243828E+01 -0.2604804437574E+01  0.1580769636064E+00 -0.7347438025356E+00
 0.4167883995888E+01 -0.2643973903182E+01  0.3047820230829E+00 -0.6273576927778E+00
-0.7593166660507E+00 -0.3251350212496E+01 -0.8021333876620E+00 -0.2534976446105E+00
-0.6618995309329E+00 -0.3292501961854E+01 -0.7908803103425E+00 -0.2465251032360E+00
-0.5654901740973E+00 -0.3330548325605E+01 -0.7792077115516E+00 -0.2289178050075E+00
-0.4752233276167E+00 -0.3362908414809E+01 -0.7676263599237E+00 -0.2017802249904E+00
-0.3950530511051E+00 -0.3388049084712E+01 -0.7566204384380E+00 -0.1677458138095E+00
-0.3270525032821E+00 -0.3405769630199E+01 -0.7465644378208E+00 -0.1299361483354E+00
-0.2715714432175E+00 -0.3416902056691E+01 -0.7376947109741E+00 -0.9107152220147E-01
-0.2278156723925E+00 -0.3422788703064E+01 -0.7301208859710E+00 -0.5304119748996E-01
-0.1944428634309E+00 -0.3424836364635E+01 -0.7238558563995E+00 -0.1687275098926E-01
-0.1699850126711E+00 -0.3424256752824E+01 -0.7188483638107E+00  0.1709244711951E-01
-0.1530788262964E+00 -0.3421970204899E+01 -0.7150098168935E+00  0.4897573878142E-01
-0.1425575284563E+00 -0.3418606842158E+01 -0.7122328847358E+00  0.7916915971334E-01
-0.1374639962622E+00 -0.3414548709635E+01 -0.7104025517653E+00  0.1081964108311E+00
-0.1370278582172E+00 -0.3409979264226E+01 -0.7094014350595E+00  0.1366204493696E+00
-0.1406304685205E+00 -0.3404924936840E+01 -0.7091110916387E+00  0.1649834877703E+00
-0.1477686350375E+00 -0.3399284071967E+01 -0.7094105519720E+00  0.1937661384748E+00
-0.1580204916975E+00 -0.3392843557701E+01 -0.7101728204621E+00  0.2233556047898E+00
-0.1710122524296E+00 -0.3385285899578E+01 -0.7112596410002E+00  0.2540148837619E+00
-0.1863832789171E+00 -0.3376189911164E+01 -0.7125146486335E+00  0.2858501749235E+00
-0.2037442371766E+00 -0.3365029751171E+01 -0.7137548083053E+00  0.3187731565511E+00
-0.2226239228730E+00 -0.3351176691059E+01 -0.7147601334372E+00  0.3524587491332E+00
-0.2424034148978E+00 -0.3333906316938E+01 -0.7152619570253E+00  0.3863044351909E+00
-0.2622388087338E+00 -0.3312412128607E+01 -0.7149301981215E+00  0.4193940822625E+00
-0.2809772123066E+00 -0.3285831308127E+01 -0.7133617147166E+00  0.4504718028779E+00
-0.2970684222091E+00 -0.3253318639432E+01 -0.7100774229093E+00  0.4779335035644E+00
-0.3084969919459E+00 -0.3214112230248E+01 -0.7045218549369E+00  0.4998217623058E+00
-0.3127274706808E+00 -0.3167531637777E+01 -0.6960518320636E+00  0.5137946917770E+00
-0.3066081035829E+00 -0.3112984044530E+01 -0.6839184398137E+00  0.5170769712259E+00
-0.2861940362390E+00 -0.3050037645178E+01 -0.6672463462262E+00  0.5064178516262E+00
-0.2464653427597E+00 -0.2978600355619E+01 -0.6450131492871E+00  0.4780963328176E+00
-0.1809296852495E+00 -0.2899231630708E+01 -0.6160322723712E+00  0.4280364784440E+00
-0.8112743252116E-01 -0.2813602006364E+01 -0.5789458964040E+00  0.3521307394157E+00
 0.6387706534696E-01 -0.2725080801694E+01 -0.5322407552004E+00  0.2469204051939E+00
 0.2678520480236E+00 -0.2639291412456E+01 -0.4742878799539E+00  0.1107955567003E+00
 0.5471736454294E+00 -0.2564401049007E+01 -0.4034454867274E+00 -0.5410413004728E-01
 0.9190598863780E+00 -0.2510683142702E+01 -0.3183246560081E+00 -0.2392370882726E+00
 0.1397294510769E+01 -0.2488384410148E+01 -0.2182179831275E+00 -0.4270030977396E+00
 0.1985153586567E+01 -0.2503337518349E+01 -0.1036367879008E+00 -0.5899274486765E+00
 0.2667009035678E+01 -0.2551199961416E+01  0.2316181519772E-01 -0.6939373181486E+00
 0.3402338119192E+01 -0.2613699778361E+01  0.1577276705165E+00 -0.7080246926939E+00
 0.4120351291637E+01 -0.2655213272218E+01  0.2930276082503E+00 -0.6125580953966E+00
-0.7599577282982E+00 -0.3246175286683E+01 -0.8012266149356E+00 -0.2379194288504E+00
-0.6662289934437E+00 -0.3285996874084E+01 -0.7904451852840E+00 -0.2315147699035E+00
-0.5734917793373E+00 -0.3323075227409E+01 -0.7793134129620E+00 -0.2154882591753E+00
-0.4862312576199E+00 -0.3355103444456E+01 -0.7682669518633E+00 -0.1907215476223E+00
-0.4080355020537E+00 -0.3380596520149E+01 -0.7577264157316E+00 -0.1593972931177E+00
-0.3409603704663E+00 -0.3399176032946E+01 -0.7480272918289E+00 -0.1241959759144E+00
-0.2855747534666E+00 -0.3411384067989E+01 -0.7393917753088E+00 -0.8755356354948E-01
-0.2413860997452E+00 -0.3418279678171E+01 -0.7319331664898E+00 -0.5125310380552E-01
-0.2073290940265E+00 -0.3421058026918E+01 -0.7256774350023E+00 -0.1634329550891E-01
-0.1821429503685E+00 -0.3420802393757E+01 -0.7205890795626E+00  0.1674953668661E-01
-0.1645982295610E+00 -0.3418370693347E+01 -0.7165937952597E+00  0.4804425952565E-01
-0.1536028757057E+00 -0.3414372510413E+01 -0.7135950878571E+00  0.7783732145979E-01
-0.1482324812661E+00 -0.3409191148520E+01 -0.7114847365592E+00  0.1065723280694E+00
-0.1477211654157E+00 -0.3403019884662E+01 -0.7101482205976E+00  0.1347476911324E+00
-0.1514356371366E+00 -0.3395896333984E+01 -0.7094664047961E+00  0.1628531455307E+00
-0.1588439005059E+00 -0.3387728579125E+01 -0.7093145064957E+00  0.1913245717817E+00
-0.1694830046352E+00 -0.3378312000764E+01 -0.7095590116531E+00  0.2205082914276E+00
-0.1829255190111E+00 -0.3367338762741E+01 -0.7100528669310E+00  0.2506274150641E+00
-0.1987431092707E+00 -0.3354402321743E+01 -0.7106290967919E+00  0.2817477681387E+00
-0.2164629432492E+00 -0.3339001274103E+01 -0.7110928540665E+00  0.3137402601902E+00
-0.2355135853785E+00 -0.3320546288501E+01 -0.7112119853738E+00  0.3462402105293E+00
-0.2551598426371E+00 -0.3298371990800E+01 -0.7107063772777E+00  0.3786089733876E+00
-0.2744276775542E+00 -0.3271754943843E+01 -0.7092365348479E+00  0.4098997699805E+00
-0.2920227181625E+00 -0.3239943466898E+01 -0.7063932475382E+00  0.4388327529099E+00
-0.3062436080532E+00 -0.3202232703936E+01 -0.7016952728540E+00  0.4637882765390E+00
-0.3149116897855E+00 -0.3158034290913E+01 -0.6945892064900E+00  0.4828038127641E+00
-0.3153101876780E+00 -0.3106887589145E+01 -0.6844395655635E+00  0.4935479413795E+00
-0.3040849343510E+00 -0.3048482611838E+01 -0.6705135192293E+00  0.4932863671253E+00
-0.2770752561718E+00 -0.2982747417906E+01 -0.6519645445305E+00  0.4788679051541E+00
-0.2290590270797E+00 -0.2910031580927E+01 -0.6278181309565E+00  0.4467715945223E+00
-0.1534138351026E+00 -0.2831403859093E+01 -0.5969635477345E+00  0.3932770666334E+00
-0.4173018279969E-01 -0.2749061929481E+01 -0.5581584307733E+00  0.3148492874069E+00
 0.1165179379857E+00 -0.2666809103037E+01 -0.5100582406108E+00  0.2088632668757E+00
 0.3340677837386E+00 -0.2590421266665E+01 -0.4512707033098E+00  0.7477942957068E-01
 0.6253364976577E+00 -0.2527670738706E+01 -0.3804668538790E+00 -0.8414427653794E-01
 0.1004476861784E+01 -0.2487617131731E+01 -0.2966280584096E+00 -0.2586821197119E+00
 0.1481365680421E+01 -0.2478460264748E+01 -0.1994189198369E+00 -0.4317858833740E+00
 0.2055669730469E+01 -0.2503724083709E+01 -0.8961087198334E-01 -0.5785583775245E+00
 0.2710224004159E+01 -0.2557791148759E+01  0.3048657153427E-01 -0.6698723679457E+00
 0.3407811775078E+01 -0.2623305713887E+01  0.1569012145762E+00 -0.6796308184188E+00
 0.4082998478016E+01 -0.2669469578289E+01  0.2827057841582E+00 -0.6000347700248E+00
-0.7605651401002E+00 -0.3241559790784E+01 -0.8004249981042E+00 -0.2228660304971E+00
-0.6701797227938E+00 -0.3280145216125E+01 -0.7900649995566E+00 -0.2169719860995E+00
-0.5807761674041E+00 -0.3316278439234E+01 -0.7794109329417E+00 -0.2023474166580E+00
-0.4963056741509E+00 -0.3347884758410E+01 -0.7688380979687E+00 -0.1797071329935E+00
-0.4200302834335E+00 -0.3373538610641E+01 -0.7587137901207E+00 -0.1508703413530E+00
-0.3539589714951E+00 -0.3392734998375E+01 -0.7493388051400E+00 -0.1181402328540E+00
-0.2988198301077E+00 -0.3405782921629E+01 -0.7409205613879E+00 -0.8368783461511E-01
-0.2543672181624E+00 -0.3413496748360E+01 -0.7335728042356E+00 -0.4917565959239E-01
-0.2197781845260E+00 -0.3416875336666E+01 -0.7273307150766E+00 -0.1564563599834E-01
-0.1939838532907E+00 -0.3416872126154E+01 -0.7221712066502E+00  0.1641769622087E-01
-0.1758859063755E+00 -0.3414273326662E+01 -0.7180318573070E+00  0.4695012293392E-01
-0.1644702975117E+00 -0.3409657270826E+01 -0.7148255243192E+00  0.7616411008251E-01
-0.1588503705213E+00 -0.3403399687355E+01 -0.7124500221915E+00  0.1044288961453E+00
-0.1582693468372E+00 -0.3395697879248E+01 -0.7107934558087E+00  0.1321804462486E+00
-0.1620826490234E+00 -0.3386597964350E+01 -0.7097361332507E+00  0.1598563176695E+00
-0.1697314643732E+00 -0.3376017861765E+01 -0.7091498757949E+00  0.1878474861864E+00
-0.1807126024302E+00 -0.3363763889936E+01 -0.7088953090366E+00  0.2164596926474E+00
-0.1945451128121E+00 -0.3349542203284E+01 -0.7088174737814E+00  0.2458776314661E+00
-0.2107329064433E+00 -0.3332966625203E+01 -0.7087399168902E+00  0.2761298754414E+00
-0.2287199822439E+00 -0.3313566751966E+01 -0.7084573573988E+00  0.3070515915288E+00
-0.2478358368089E+00 -0.3290799501138E+01 -0.7077270781354E+00  0.3382454336604E+00
-0.2672311347190E+00 -0.3264065275094E+01 -0.7062592924867E+00  0.3690453155026E+00
-0.2858045895314E+00 -0.3232730123022E+01 -0.7037069529967E+00  0.3984842219417E+00
-0.3021237395177E+00 -0.3196159489770E+01 -0.6996566562833E+00  0.4252708459583E+00
-0.3143402162670E+00 -0.3153794199931E+01 -0.6936268935754E+00  0.4477851642249E+00
-0.3201184388963E+00 -0.3105223309819E+01 -0.6850683599515E+00  0.4640783212309E+00
-0.3165716451078E+00 -0.3050206490552E+01 -0.6733556371657E+00  0.4718528678829E+00
-0.3001638259324E+00 -0.2988710148578E+01 -0.6577748047038E+00  0.4684438699100E+00
-0.2665533170163E+00 -0.2921003427827E+01 -0.6375113584683E+00  0.4508310846286E+00
-0.2103702376649E+00 -0.2847838841134E+01 -0.6116418248739E+00  0.4157231547031E+00
-0.1249403978523E+00 -0.2770726124343E+01 -0.5791333130688E+00  0.3597728077133E+00
-0.2005314195328E-02 -0.2692282840633E+01 -0.5388576389952E+00  0.2800040086394E+00
 0.1684445567425E+00 -0.2616598669913E+01 -0.4896308299301E+00  0.1745508630504E+00
 0.3980492449652E+00 -0.2549433637291E+01 -0.4302768848768E+00  0.4377214815168E-01
 0.6993331010933E+00 -0.2498034373867E+01 -0.3597402599152E+00 -0.1082457779060E+00
 0.1083701135489E+01 -0.2470257745769E+01 -0.2773113261883E+00 -0.2719591414713E+00
 0.1557793717305E+01 -0.2472507677416E+01 -0.1829427947484E+00 -0.4311465666573E+00
 0.2118498418616E+01 -0.2506476556909E+01 -0.7759562881493E-01 -0.5634467405773E+00
 0.2748164888455E+01 -0.2565720114638E+01  0.3648895530720E-01 -0.6438601146215E+00
 0.3411115899045E+01 -0.2633601989595E+01  0.1555027842072E+00 -0.6513128838906E+00
 0.4060186396983E+01 -0.2684967901455E+01  0.2750437032042E+00 -0.5821586442229E+00
-0.7611411007396E+00 -0.3237424737874E+01 -0.7997131796394E+00 -0.2082959503642E+00
-0.6737942662582E+00 -0.3274860912406E+01 -0.7897310475007E+00 -0.2028658436536E+00
-0.5874230581202E+00 -0.3310080520940E+01 -0.7795007274276E+00 -0.1894977931076E+00
-0.5055369587205E+00 -0.3341204772639E+01 -0.7693483577360E+00 -0.1687801067003E+00
-0.4311107344763E+00 -0.3366871949492E+01 -0.7595965481125E+00 -0.1422376346477E+00
-0.3660889530302E+00 -0.3386488071933E+01 -0.7505154161763E+00 -0.1118513110243E+00
-0.3113130213261E+00 -0.3400175290357E+01 -0.7422976733978E+00 -0.7954894748810E-01
-0.2667380119107E+00 -0.3408538185391E+01 -0.7350552504135E+00 -0.4686574354522E-01
-0.2317511097515E+00 -0.3412396376285E+01 -0.7288295080676E+00 -0.1481612490218E-01
-0.2054587679599E+00 -0.3412576030095E+01 -0.7236069703936E+00  0.1607950948834E-01
-0.1868885676824E+00 -0.3409786221959E+01 -0.7193349686472E+00  0.4569156627286E-01
-0.1751054695273E+00 -0.3404566076715E+01 -0.7159343199168E+00  0.7416014040790E-01
-0.1692639928614E+00 -0.3397276514756E+01 -0.7133081121526E+00  0.1017866214734E+00
-0.1686201467400E+00 -0.3388113777841E+01 -0.7113467955161E+00  0.1289476420788E+00
-0.1725210394178E+00 -0.3377129901433E+01 -0.7099301987489E+00  0.1560298631992E+00
-0.1803830343345E+00 -0.3364252418803E+01 -0.7089271011914E+00  0.1833800369371E+00
-0.1916638351382E+00 -0.3349300396342E+01 -0.7081928568488E+00  0.2112643218450E+00
-0.2058295819231E+00 -0.3331997408834E+01 -0.7075654086949E+00  0.2398309875683E+00
-0.2223169696691E+00 -0.3311982232006E+01 -0.7068598508680E+00  0.2690747951009E+00
-0.2404877689886E+00 -0.3288820698630E+01 -0.7058617040419E+00  0.2988002977454E+00
-0.2595741094185E+00 -0.3262021376901E+01 -0.7043191077591E+00  0.3285843303651E+00
-0.2786150867177E+00 -0.3231055649215E+01 -0.7019341576462E+00  0.3577418446449E+00
-0.2963854999027E+00 -0.3195383823492E+01 -0.6983538750853E+00  0.3852957356158E+00
-0.3113188305397E+00 -0.3154492574183E+01 -0.6931622912734E+00  0.4099553761634E+00
-0.3214248109296E+00 -0.3107971485457E+01 -0.6858792694978E+00  0.4301148974138E+00
-0.3242184747558E+00 -0.3055588215967E+01 -0.6759613482172E+00  0.4438566401356E+00
-0.3166556486536E+00 -0.2997320026062E+01 -0.6627951448196E+00  0.4489382841655E+00
-0.2950397150595E+00 -0.2933399655442E+01 -0.6456878837218E+00  0.4427885819137E+00
-0.2548820189673E+00 -0.2864414990813E+01 -0.6238594112523E+00  0.4225432448376E+00
-0.1907154811856E+00 -0.2791480449920E+01 -0.5964391951087E+00  0.3851606109570E+00
-0.9588284530223E-01 -0.2716479924819E+01 -0.5624725624057E+00  0.3276711582297E+00
 0.3764149859678E-01 -0.2642353450382E+01 -0.5209423981197E+00  0.2476296154500E+00
 0.2192752593308E+00 -0.2573353564163E+01 -0.4708156679821E+00  0.1438438273170E+00
 0.4595371618583E+00 -0.2515098329736E+01 -0.4111122397016E+00  0.1740444662701E-01
 0.7691599887245E+00 -0.2474232997165E+01 -0.3410146067695E+00 -0.1270252502611E+00
 0.1157119336545E+01 -0.2457465272123E+01 -0.2600691909908E+00 -0.2798671636144E+00
 0.1627369970825E+01 -0.2469646521851E+01 -0.1684553127153E+00 -0.4259042487264E+00
 0.2174787686775E+01 -0.2511029849903E+01 -0.6724843362760E-01 -0.5451832274562E+00
 0.2781393914729E+01 -0.2574637030245E+01  0.4135137751303E-01 -0.6162762752821E+00
 0.3415121471597E+01 -0.2644830533994E+01  0.1540581898162E+00 -0.6226029913569E+00
 0.4036921188034E+01 -0.2701553840704E+01  0.2670734734458E+00 -0.5608094811964E+00
-0.7616852489233E+00 -0.3233706116626E+01 -0.7990782850170E+00 -0.1941717211153E+00
-0.6771056041575E+00 -0.3270074764633E+01 -0.7894360855217E+00 -0.1891681682356E+00
-0.5934954787443E+00 -0.3304418604085E+01 -0.7795828281825E+00 -0.1769383012325E+00
-0.5139981638477E+00 -0.3335024061433E+01 -0.7698044565271E+00 -0.1579734375488E+00
-0.4413370825982E+00 -0.3360593038921E+01 -0.7603860356346E+00 -0.1335585582535E+00
-0.3773834863018E+00 -0.3380470021178E+01 -0.7515707126953E+00 -0.1053994176260E+00
-0.3230573483939E+00 -0.3394627654394E+01 -0.7435370116371E+00 -0.7520289240030E-01
-0.2784759290103E+00 -0.3403491701745E+01 -0.7363935371241E+00 -0.4437547691316E-01
-0.2432072145141E+00 -0.3407720190079E+01 -0.7301854917992E+00 -0.1388922499677E-01
-0.2165159970174E+00 -0.3408017449665E+01 -0.7249067001384E+00  0.1571791031039E-01
-0.1975487293036E+00 -0.3405013195693E+01 -0.7205123957358E+00  0.4426674600162E-01
-0.1854484513251E+00 -0.3399201932570E+01 -0.7169300874621E+00  0.7183624866756E-01
-0.1794127986047E+00 -0.3390924179972E+01 -0.7140674063558E+00  0.9866693936600E-01
-0.1787133284645E+00 -0.3380370888531E+01 -0.7118168540061E+00  0.1250800219442E+00
-0.1826913755139E+00 -0.3367597699721E+01 -0.7100578256276E+00  0.1514133859400E+00
-0.1907404291268E+00 -0.3352541389630E+01 -0.7086563743112E+00  0.1779710149401E+00
-0.2022804726965E+00 -0.3335035110341E+01 -0.7074631271495E+00  0.2049811360119E+00
-0.2167258152465E+00 -0.3314822545119E+01 -0.7063096825979E+00  0.2325580864194E+00
-0.2334470814817E+00 -0.3291571034566E+01 -0.7050036337149E+00  0.2606665826046E+00
-0.2517254196867E+00 -0.3264886721170E+01 -0.7033224386516E+00  0.2890858362501E+00
-0.2706979535102E+00 -0.3234333913447E+01 -0.7010063838373E+00  0.3173736909261E+00
-0.2892954338292E+00 -0.3199458729629E+01 -0.6977508430890E+00  0.3448344836867E+00
-0.3061728002824E+00 -0.3159818876551E+01 -0.6931983456961E+00  0.3704909486628E+00
-0.3196344309987E+00 -0.3115024443058E+01 -0.6869317850474E+00  0.3930649054525E+00
-0.3275544627690E+00 -0.3064814550061E+01 -0.6784738126761E+00  0.4109784588154E+00
-0.3273074575308E+00 -0.3009133893421E+01 -0.6672882801337E+00  0.4223613066630E+00
-0.3157056541116E+00 -0.2948171412030E+01 -0.6527754229555E+00  0.4250449622729E+00
-0.2889135918012E+00 -0.2882412681131E+01 -0.6342652640377E+00  0.4165721256016E+00
-0.2423284819530E+00 -0.2812738872091E+01 -0.6110134799136E+00  0.3942532265588E+00
-0.1704322343509E+00 -0.2740583756635E+01 -0.5822032068726E+00  0.3553074928684E+00
-0.6664329039036E-01 -0.2668141071433E+01 -0.5469568805149E+00  0.2971364548517E+00
 0.7676754001765E-01 -0.2598586208772E+01 -0.5043637412665E+00  0.2177856390652E+00
 0.2685790671954E+00 -0.2536233224799E+01 -0.4535308382789E+00  0.1166448029235E+00
 0.5181987724344E+00 -0.2486467634254E+01 -0.3936537782299E+00 -0.4621101688872E-02
 0.8346964005169E+00 -0.2455299309893E+01 -0.3241205867051E+00 -0.1409873592730E+00
 0.1224920351414E+01 -0.2448368659463E+01 -0.2446896652559E+00 -0.2830579157197E+00
 0.1690638207032E+01 -0.2469202726962E+01 -0.1557129063061E+00 -0.4167235832121E+00
 0.2225216645897E+01 -0.2516943351982E+01 -0.5834534208642E-01 -0.5242579727872E+00
 0.2810913167912E+01 -0.2584299621448E+01  0.4532270996810E-01 -0.5874410603939E+00
 0.3418861597621E+01 -0.2657124099808E+01  0.1523475018327E+00 -0.5928742923493E+00
 0.4015186034625E+01 -0.2718272342658E+01  0.2593827422585E+00 -0.5373310584100E+00
-0.7621972455530E+00 -0.3230352412203E+01 -0.7985099434500E+00 -0.1804588370065E+00
-0.6801403688177E+00 -0.3265730775185E+01 -0.7891742405601E+00 -0.1758516609631E+00
-0.5990452414324E+00 -0.3299241143975E+01 -0.7796572886994E+00 -0.1646632887367E+00
-0.5217509708801E+00 -0.3329309124535E+01 -0.7702120305600E+00 -0.1473096765112E+00
-0.4507622670794E+00 -0.3354697344263E+01 -0.7610919336096E+00 -0.1248790321955E+00
-0.3878739674797E+00 -0.3374708620763E+01 -0.7525165288620E+00 -0.9884184886916E-01
-0.3340585848240E+00 -0.3389196114617E+01 -0.7446509509844E+00 -0.7070571553331E-01
-0.2895637301442E+00 -0.3398433834089E+01 -0.7375995238378E+00 -0.4175065561122E-01
-0.2541119586046E+00 -0.3402935566240E+01 -0.7314095158678E+00 -0.1289610885173E-01
-0.2271096791096E+00 -0.3403291107661E+01 -0.7260801681736E+00  0.1531714655594E-01
-0.2078140244379E+00 -0.3400051075777E+01 -0.7215730307953E+00  0.4267416601937E-01
-0.1954436828969E+00 -0.3393662110862E+01 -0.7178211694482E+00  0.6920339363797E-01
-0.1892400760109E+00 -0.3384440248856E+01 -0.7147360756238E+00  0.9509163250652E-01
-0.1884922222163E+00 -0.3372567770787E+01 -0.7122120092134E+00  0.1206091108447E+00
-0.1925377969833E+00 -0.3358101927655E+01 -0.7101279555094E+00  0.1460477345881E+00
-0.2007492939001E+00 -0.3340988269846E+01 -0.7083475233044E+00  0.1716708105118E+00
-0.2125105681293E+00 -0.3321074952374E+01 -0.7067171146315E+00  0.1976708250208E+00
-0.2271855866469E+00 -0.3298127768970E+01 -0.7050626816297E+00  0.2241310790543E+00
-0.2440805908780E+00 -0.3271845329652E+01 -0.7031851945844E+00  0.2509902545483E+00
-0.2623983130868E+00 -0.3241877071717E+01 -0.7008550874042E+00  0.2780075686408E+00
-0.2811838394122E+00 -0.3207845900352E+01 -0.6978059583510E+00  0.3047286260920E+00
-0.2992634108169E+00 -0.3169375053561E+01 -0.6937277032129E+00  0.3304553027601E+00
-0.3151768358440E+00 -0.3126121226066E+01 -0.6882596226379E+00  0.3542197902575E+00
-0.3271051582113E+00 -0.3077818302330E+01 -0.6809847022557E+00  0.3747676115072E+00
-0.3327941989501E+00 -0.3024353611481E+01 -0.6714295720913E+00  0.3905617811718E+00
-0.3294879710185E+00 -0.2965844907204E+01 -0.6590665854653E+00  0.3997939871663E+00
-0.3138696514845E+00 -0.2902684255879E+01 -0.6433107910587E+00  0.4003857276324E+00
-0.2819864924976E+00 -0.2835594005150E+01 -0.6235161088207E+00  0.3900099156552E+00
-0.2291523618080E+00 -0.2765721344208E+01 -0.5989747501286E+00  0.3661646536128E+00
-0.1498390174708E+00 -0.2694777101219E+01 -0.5689232322157E+00  0.3263335130241E+00
-0.3758892426265E-01 -0.2625205025792E+01 -0.5325587979468E+00  0.2682733953207E+00
 0.1149844646809E+00 -0.2560340330424E+01 -0.4890711804363E+00  0.1904728782937E+00
 0.3159980262621E+00 -0.2504478336688E+01 -0.4376960686074E+00  0.9281049500928E-01
 0.5737841674259E+00 -0.2462711225305E+01 -0.3777854172052E+00 -0.2261904427246E-01
 0.8958911658482E+00 -0.2440410520422E+01 -0.3089038755179E+00 -0.1506097710734E+00
 0.1287327188727E+01 -0.2442245544400E+01 -0.2309836745765E+00 -0.2821097145240E+00
 0.1748080783742E+01 -0.2470630612223E+01 -0.1445099678495E+00 -0.4041573851220E+00
 0.2270456370442E+01 -0.2523850487616E+01 -0.5067882418990E-01 -0.5010911292233E+00
 0.2837216855395E+01 -0.2594580741784E+01  0.4852722344516E-01 -0.5574170032344E+00
 0.3422215745995E+01 -0.2670039170478E+01  0.1504353173450E+00 -0.5621016386047E+00
 0.3995162735748E+01 -0.2735108936516E+01  0.2520107636017E+00 -0.5121063837284E+00
-0.7626768122802E+00 -0.3227322159233E+01 -0.7979998061938E+00 -0.1671252120191E+00
-0.6829201819666E+00 -0.3261783688890E+01 -0.7889407859275E+00 -0.1628898747563E+00
-0.6041150488680E+00 -0.3294506014642E+01 -0.7797242243207E+00 -0.1526637130252E+00
-0.5288474203915E+00 -0.3324031863640E+01 -0.7705758682887E+00 -0.1368031906731E+00
-0.4594325103937E+00 -0.3349180205721E+01 -0.7617225545734E+00 -0.1162339135029E+00
-0.3975894884177E+00 -0.3369226462281E+01 -0.7533632013657E+00 -0.9222476875361E-01
-0.3443241426970E+00 -0.3383928347738E+01 -0.7456505091981E+00 -0.6610436735089E-01
-0.2999883267642E+00 -0.3393431509549E+01 -0.7386839782700E+00 -0.3903081755612E-01
-0.2644360179813E+00 -0.3398122013400E+01 -0.7325116171915E+00 -0.1186427810687E-01
-0.2371992396977E+00 -0.3398483534861E+01 -0.7271365657468E+00  0.1486330388676E-01
-0.2176369578139E+00 -0.3394989729044E+01 -0.7225253481381E+00  0.4091314939703E-01
-0.2050399497396E+00 -0.3388037931009E+01 -0.7186155868579E+00  0.6627298318656E-01
-0.1986930361640E+00 -0.3377916956840E+01 -0.7153220092599E+00  0.9108298335590E-01
-0.1979038554769E+00 -0.3364797850744E+01 -0.7125403518618E+00  0.1155671956175E+00
-0.2020081339752E+00 -0.3348737809546E+01 -0.7101491992864E+00  0.1399748235839E+00
-0.2103591588685E+00 -0.3329690631962E+01 -0.7080099687163E+00  0.1645310907648E+00
-0.2223064164543E+00 -0.3307520021106E+01 -0.7059652980319E+00  0.1893953630092E+00
-0.2371653785347E+00 -0.3282015253012E+01 -0.7038361367974E+00  0.2146231107064E+00
-0.2541800711381E+00 -0.3252908069147E+01 -0.7014176385090E+00  0.2401311549961E+00
-0.2724775569956E+00 -0.3219893172595E+01 -0.6984741563262E+00  0.2656640756848E+00
-0.2910144081407E+00 -0.3182653766230E+01 -0.6947336452265E+00  0.2907618594622E+00
-0.3085167554261E+00 -0.3140891300281E+01 -0.6898816214214E+00  0.3147318181097E+00
-0.3234146157311E+00 -0.3094361589339E+01 -0.6835552511998E+00  0.3366248231765E+00
-0.3337721646419E+00 -0.3042921028354E+01 -0.6753386486624E+00  0.3552207340336E+00
-0.3372149454380E+00 -0.2986601940261E+01 -0.6647633870454E+00  0.3690354048106E+00
-0.3308670065997E+00 -0.2925689093931E+01 -0.6513112298113E+00  0.3763355245224E+00
-0.3112972007152E+00 -0.2860767037549E+01 -0.6344128571063E+00  0.3751461776071E+00
-0.2744562104625E+00 -0.2792777075010E+01 -0.6134466662355E+00  0.3632829697817E+00
-0.2156025760234E+00 -0.2723104466031E+01 -0.5877414171689E+00  0.3384394198000E+00
-0.1292328563837E+00 -0.2653696432471E+01 -0.5565858660648E+00  0.2983604317777E+00
-0.9051462059536E-02 -0.2587192669426E+01 -0.5192488340345E+00  0.2411358794765E+00
 0.1519550250822E+00 -0.2527024609944E+01 -0.4750139240506E+00  0.1656452207690E+00
 0.3612384609715E+00 -0.2477407738184E+01 -0.4232338617493E+00  0.7216505856673E-01
 0.6261106841647E+00 -0.2443104496471E+01 -0.3633987678764E+00 -0.3690932852924E-01
 0.9527459713991E+00 -0.2428866802533E+01 -0.2952241706259E+00 -0.1563389167596E+00
 0.1344572439630E+01 -0.2438495964787E+01 -0.2187847082915E+00 -0.2775310352705E+00
 0.1800147475333E+01 -0.2473478377894E+01 -0.1346661825189E+00 -0.3886766240012E+00
 0.2311054192413E+01 -0.2531466605337E+01 -0.4408248324167E-01 -0.4759941495821E+00
 0.2860685460817E+01 -0.2605262258127E+01  0.5108464129910E-01 -0.5262800118658E+00
 0.3425153072685E+01 -0.2683254065099E+01  0.1483798037283E+00 -0.5303241675659E+00
 0.3976943688708E+01 -0.2751852020026E+01  0.2450183373875E+00 -0.4854019865834E+00
-0.7631237567469E+00 -0.3224582019943E+01 -0.7975411672222E+00 -0.1541407316568E+00
-0.6854626799155E+00 -0.3258196999173E+01 -0.7887319475708E+00 -0.1502571513885E+00
-0.6087401761137E+00 -0.3290178929307E+01 -0.7797838327038E+00 -0.1409279939027E+00
-0.5353313880039E+00 -0.3319168989579E+01 -0.7709000870038E+00 -0.1264618758222E+00
-0.4673879483007E+00 -0.3344037382407E+01 -0.7622850775004E+00 -0.1076489578036E+00
-0.4065565686371E+00 -0.3364042281223E+01 -0.7541197812093E+00 -0.8558478090443E-01
-0.3538622576731E+00 -0.3378865161302E+01 -0.7465454949194E+00 -0.6143758110267E-01
-0.3097398376036E+00 -0.3388543379350E+01 -0.7396566544125E+00 -0.3624947557194E-01
-0.2741544939434E+00 -0.3393350661314E+01 -0.7335010419815E+00 -0.1081738001618E-01
-0.2467488607797E+00 -0.3393673526377E+01 -0.7280844882807E+00  0.1434466282911E-01
-0.2269746252857E+00 -0.3389912166583E+01 -0.7233773691528E+00  0.3898419462184E-01
-0.2141902884731E+00 -0.3382414633299E+01 -0.7193209950732E+00  0.6305713373597E-01
-0.2077228303049E+00 -0.3371440957991E+01 -0.7158327683260E+00  0.8666389763994E-01
-0.2068990156074E+00 -0.3357149128847E+01 -0.7128096395126E+00  0.1099873050435E+00
-0.2110539600208E+00 -0.3339594956366E+01 -0.7101297938590E+00  0.1332374771403E+00
-0.2195234368651E+00 -0.3318739932910E+01 -0.7076526844999E+00  0.1566045211781E+00
-0.2316244578404E+00 -0.3294463526719E+01 -0.7052176074204E+00  0.1802176249739E+00
-0.2466261568956E+00 -0.3266579292638E+01 -0.7026411003768E+00  0.2041078539541E+00
-0.2637129381515E+00 -0.3234853187966E+01 -0.6997132356500E+00  0.2281744308838E+00
-0.2819394255473E+00 -0.3199026211415E+01 -0.6961931377665E+00  0.2521526036477E+00
-0.3001777039065E+00 -0.3158842487531E+01 -0.6918040485963E+00  0.2755831749098E+00
-0.3170587072298E+00 -0.3114081564879E+01 -0.6862280646473E+00  0.2977864738444E+00
-0.3309085400237E+00 -0.3064597157872E+01 -0.6791011496985E+00  0.3178408041267E+00
-0.3396815486060E+00 -0.3010365372121E+01 -0.6700093941294E+00  0.3345702836630E+00
-0.3408915840626E+00 -0.2951558655944E+01 -0.6584900578135E+00  0.3465544495089E+00
-0.3315536594386E+00 -0.2888621038896E+01 -0.6440349492638E+00  0.3521463521927E+00
-0.3081368256148E+00 -0.2822317328295E+01 -0.6260908401114E+00  0.3494858040625E+00
-0.2665145686897E+00 -0.2753788939608E+01 -0.6040607106608E+00  0.3365401122131E+00
-0.2019148482466E+00 -0.2684631505451E+01 -0.5773092793421E+00  0.3112014467218E+00
-0.1088878129707E+00 -0.2616990624113E+01 -0.5451756955404E+00  0.2714678638479E+00
 0.1867221514522E-01 -0.2553654350966E+01 -0.5069964347191E+00  0.2157351568561E+00
 0.1873889506093E+00 -0.2498098364999E+01 -0.4621418897644E+00  0.1432197787009E+00
 0.4040620669774E+00 -0.2454414060588E+01 -0.4100704048326E+00  0.5451075170994E-01
 0.6750498796921E+00 -0.2427017000919E+01 -0.3503934294667E+00 -0.4780931591953E-01
 0.1005298884591E+01 -0.2420073194678E+01 -0.2829548662339E+00 -0.1585875903779E+00
 0.1396890807823E+01 -0.2436618142425E+01 -0.2079454700190E+00 -0.2697701546780E+00
 0.1847241654331E+01 -0.2477373805366E+01 -0.1260264320850E+00 -0.3706765418183E+00
 0.2347464956698E+01 -0.2539538894762E+01 -0.3841478818533E-01 -0.4492171227115E+00
 0.2881619870604E+01 -0.2616121451467E+01  0.5309968461860E-01 -0.4941130861839E+00
 0.3427705655720E+01 -0.2696493575115E+01  0.1462424183002E+00 -0.4976164575112E+00
 0.3960512065246E+01 -0.2768300429260E+01  0.2384423307501E+00 -0.4573921246876E+00
-0.7635379729618E+00 -0.3222105249477E+01 -0.7971286563659E+00 -0.1414768863948E+00
-0.6877823012993E+00 -0.3254941334343E+01 -0.7885447388787E+00 -0.1379285377933E+00
-0.6129498105025E+00 -0.3286232113772E+01 -0.7798363964753E+00 -0.1294426322422E+00
-0.5412398320429E+00 -0.3314701421635E+01 -0.7711882622271E+00 -0.1162884767680E+00
-0.4746632607004E+00 -0.3339265340232E+01 -0.7627857315528E+00 -0.9914241549583E-01
-0.4147990647630E+00 -0.3359171917365E+01 -0.7547942076730E+00 -0.7895029942363E-01
-0.3626814053904E+00 -0.3374041717249E+01 -0.7473446356641E+00 -0.5673673445449E-01
-0.3188108344526E+00 -0.3383820937545E+01 -0.7405263654343E+00 -0.3343445565512E-01
-0.2832462323517E+00 -0.3388685070029E+01 -0.7343862714193E+00 -0.9775172718086E-02
-0.2557269887309E+00 -0.3388932596861E+01 -0.7289319279804E+00  0.1375191839598E-01
-0.2357884237089E+00 -0.3384894698575E+01 -0.7241366352473E+00  0.3688922961860E-01
-0.2228518578504E+00 -0.3376871323545E+01 -0.7199446470071E+00  0.5956886606514E-01
-0.2162845230997E+00 -0.3365093149464E+01 -0.7162755451861E+00  0.8185799736807E-01
-0.2154322673753E+00 -0.3349703960316E+01 -0.7130272561631E+00  0.1039031861080E+00
-0.2196306029824E+00 -0.3330757164368E+01 -0.7100775640511E+00  0.1258792913715E+00
-0.2281993843109E+00 -0.3308221383509E+01 -0.7072841641033E+00  0.1479445248974E+00
-0.2404251513636E+00 -0.3281991779032E+01 -0.7044833965768E+00  0.1702010600127E+00
-0.2555331259334E+00 -0.3251906458448E+01 -0.7014879273293E+00  0.1926591172906E+00
-0.2726510589261E+00 -0.3217765965142E+01 -0.6980834152159E+00  0.2152046013893E+00
-0.2907647982051E+00 -0.3179357754206E+01 -0.6940245208241E+00  0.2375686229987E+00
-0.3086664208233E+00 -0.3136486497839E+01 -0.6890305939998E+00  0.2592989957027E+00
-0.3248970358084E+00 -0.3089008611988E+01 -0.6827811397336E+00  0.2797362776233E+00
-0.3376851781300E+00 -0.3036873251511E+01 -0.6749116959851E+00  0.2979944249514E+00
-0.3448828518363E+00 -0.2980172077824E+01 -0.6650109958414E+00  0.3129509632173E+00
-0.3439011525717E+00 -0.2919211376029E+01 -0.6526225154449E+00  0.3232588311813E+00
-0.3316570520883E+00 -0.2854585307784E+01 -0.6372484814702E+00  0.3273671778729E+00
-0.3045337544518E+00 -0.2787225612045E+01 -0.6183518825136E+00  0.3235393851659E+00
-0.2583451943196E+00 -0.2718454563083E+01 -0.5953599603522E+00  0.3099003888027E+00
-0.1883099257730E+00 -0.2650051448012E+01 -0.5676722832160E+00  0.2845404851439E+00
-0.8905432005280E-01 -0.2584325550072E+01 -0.5346759819923E+00  0.2456987817076E+00
 0.4531866883573E-01 -0.2524172447910E+01 -0.4957707632024E+00  0.1920470837139E+00
 0.2210384337843E+00 -0.2473070973627E+01 -0.4504065146800E+00  0.1230853617228E+00
 0.4442777077227E+00 -0.2434958575909E+01 -0.3981361795699E+00  0.3963608377360E-01
 0.7205159669153E+00 -0.2413901719490E+01 -0.3386771555616E+00 -0.5562831054482E-01
 0.1053612783079E+01 -0.2413523435821E+01 -0.2719821346014E+00 -0.1577355218389E+00
 0.1444510341467E+01 -0.2436191419895E+01 -0.1983362186411E+00 -0.2592216724917E+00
 0.1889720685713E+01 -0.2482004052637E+01 -0.1184566751499E+00 -0.3504917807643E+00
 0.2380068898404E+01 -0.2547840850680E+01 -0.3355439095522E-01 -0.4209695966153E+00
 0.2900270712282E+01 -0.2626948818776E+01  0.5466437951570E-01 -0.4610051398008E+00
 0.3429924139958E+01 -0.2709528313957E+01  0.1440791673470E+00 -0.4640589110348E+00
 0.3945803953774E+01 -0.2784269707858E+01  0.2323068526450E+00 -0.4282046452603E+00
-0.7639194395607E+00 -0.3219870462297E+01 -0.7967579922442E+00 -0.1291064719960E+00
-0.6898909036012E+00 -0.3251993147134E+01 -0.7883768218948E+00 -0.1258796950476E+00
-0.6167681318789E+00 -0.3282643191969E+01 -0.7798822763906E+00 -0.1181926607497E+00
-0.5466038526505E+00 -0.3310613710326E+01 -0.7714435240908E+00 -0.1062816112472E+00
-0.4812882823778E+00 -0.3334861368573E+01 -0.7632299415631E+00 -0.9072633180861E-01
-0.4223382055961E+00 -0.3354628999257E+01 -0.7553934522270E+00 -0.7234273556736E-01
-0.3707899026750E+00 -0.3369488486004E+01 -0.7480556888828E+00 -0.5202666903733E-01
-0.3271957538399E+00 -0.3379309447939E+01 -0.7413010514020E+00 -0.3060829891193E-01
-0.2916932523016E+00 -0.3384181941993E+01 -0.7351750498140E+00 -0.8753602027874E-02
-0.2641058932311E+00 -0.3384325415163E+01 -0.7296862725521E+00  0.1307828644639E-01
-0.2440437689281E+00 -0.3380007116202E+01 -0.7248101878266E+00  0.3463177499549E-01
-0.2309857927881E+00 -0.3371480967775E+01 -0.7204933628488E+00  0.5582223986252E-01
-0.2243370375263E+00 -0.3358948553132E+01 -0.7166571288106E+00  0.7668968033240E-01
-0.2234619392604E+00 -0.3342538891450E+01 -0.7132001767695E+00  0.9734927011969E-01
-0.2276971268487E+00 -0.3322302264098E+01 -0.7099998887691E+00  0.1179445058958E+00
-0.2363480381173E+00 -0.3298213860393E+01 -0.7069123902359E+00  0.1386050688151E+00
-0.2486728320794E+00 -0.3270184207809E+01 -0.7037714184647E+00  0.1594094074950E+00
-0.2638554753985E+00 -0.3238075767650E+01 -0.7003862590463E+00  0.1803505121246E+00
-0.2809703637737E+00 -0.3201723387331E+01 -0.6965387606001E+00  0.2013052007071E+00
-0.2989386146474E+00 -0.3160960341096E+01 -0.6919798014600E+00  0.2220054752627E+00
-0.3164771791623E+00 -0.3115650556445E+01 -0.6864255573499E+00  0.2420120672358E+00
-0.3320431153736E+00 -0.3065725061094E+01 -0.6795536454196E+00  0.2606925575047E+00
-0.3437741175117E+00 -0.3011224868939E+01 -0.6709998072888E+00  0.2772041953732E+00
-0.3494276634310E+00 -0.2952351849274E+01 -0.6603559123810E+00  0.2904862523298E+00
-0.3463212048121E+00 -0.2889538642761E+01 -0.6471719791582E+00  0.2992736604003E+00
-0.3312844944273E+00 -0.2823519354040E+01 -0.6309607790955E+00  0.3021198544177E+00
-0.3006279976823E+00 -0.2755378636881E+01 -0.6112013360202E+00  0.2974185394635E+00
-0.2501217495618E+00 -0.2686600473176E+01 -0.5873444532998E+00  0.2834555599082E+00
-0.1749923669727E+00 -0.2619122605147E+01 -0.5588230027510E+00  0.2585158083682E+00
-0.6995912995128E-01 -0.2555387033354E+01 -0.5250692404853E+00  0.2210645762156E+00
 0.7065601981859E-01 -0.2498362700654E+01 -0.4855413434022E+00  0.1700184383680E+00
 0.2526935864654E+00 -0.2451500371145E+01 -0.4397613634888E+00  0.1051093894320E+00
 0.4817339261336E+00 -0.2418565727218E+01 -0.3873663659890E+00  0.2732195238300E-01
 0.7624562791070E+00 -0.2403285092192E+01 -0.3281657675071E+00 -0.6066429477535E-01
 0.1097766138183E+01 -0.2408786610273E+01 -0.2622040983252E+00 -0.1541308885819E+00
 0.1487646970692E+01 -0.2436861487897E+01 -0.1898429062699E+00 -0.2462336671091E+00
 0.1927898953681E+01 -0.2487103037183E+01 -0.1118408183668E+00 -0.3284091081054E+00
 0.2409186915317E+01 -0.2556170484452E+01 -0.2939671426499E-01 -0.3914327044066E+00
 0.2916850689567E+01 -0.2637556326259E+01  0.5585887349382E-01 -0.4270458329990E+00
 0.3431860281824E+01 -0.2722165662145E+01  0.1419389260508E+00 -0.4297284487163E+00
 0.3932729285512E+01 -0.2799595461868E+01  0.2266267681058E+00 -0.3979418907296E+00
-0.7642682089202E+00 -0.3217860631401E+01 -0.7964257799320E+00 -0.1170033445119E+00
-0.6917982449941E+00 -0.3249333644654E+01 -0.7882263896750E+00 -0.1140868107917E+00
-0.6202151806734E+00 -0.3279394249492E+01 -0.7799218976547E+00 -0.1071619782943E+00
-0.5514495808410E+00 -0.3306893501125E+01 -0.7716686278919E+00 -0.9643657409655E-01
-0.4872885663650E+00 -0.3330823587283E+01 -0.7636224421084E+00 -0.8240761396366E-01
-0.4291926973047E+00 -0.3350425426524E+01 -0.7559236360300E+00 -0.6577752614373E-01
-0.3781956366875E+00 -0.3365231988792E+01 -0.7486855362522E+00 -0.4732645917999E-01
-0.3348904326787E+00 -0.3375048710064E+01 -0.7419878396051E+00 -0.2778870044901E-01
-0.2994802596780E+00 -0.3379891745681E+01 -0.7358744120372E+00 -0.7764960808793E-02
-0.2718612646880E+00 -0.3379910215158E+01 -0.7303543068523E+00  0.1231952001283E-01
-0.2517098146290E+00 -0.3375312894523E+01 -0.7254045526397E+00  0.3221703308334E-01
-0.2385570349099E+00 -0.3366310433504E+01 -0.7209735044260E+00  0.5183243937510E-01
-0.2318430633884E+00 -0.3353076255848E+01 -0.7169838745313E+00  0.7118415721645E-01
-0.2309500684029E+00 -0.3335724558884E+01 -0.7133349360870E+00  0.9036064092083E-01
-0.2352162721321E+00 -0.3314302032763E+01 -0.7099036715574E+00  0.1094778996724E+00
-0.2439341143289E+00 -0.3288789879745E+01 -0.7065448093431E+00  0.1286404944937E+00
-0.2563355353390E+00 -0.3259113441778E+01 -0.7030898059003E+00  0.1479064780020E+00
-0.2715661026724E+00 -0.3225158909494E+01 -0.6993450128544E+00  0.1672552043049E+00
-0.2886504425342E+00 -0.3186794559882E+01 -0.6950890108408E+00  0.1865585252154E+00
-0.3064493247416E+00 -0.3143898121193E+01 -0.6900694994698E+00  0.2055541446763E+00
-0.3236098102508E+00 -0.3096390645456E+01 -0.6840001013338E+00  0.2238212862729E+00
-0.3385110262245E+00 -0.3044274585836E+01 -0.6765571324935E+00  0.2407608890461E+00
-0.3492068657111E+00 -0.2987678230465E+01 -0.6673770291799E+00  0.2555805215085E+00
-0.3533683164634E+00 -0.2926907274414E+01 -0.6560551279515E+00  0.2672887126450E+00
-0.3482283202767E+00 -0.2862512254070E+01 -0.6421481244381E+00  0.2747098797252E+00
-0.3305398700247E+00 -0.2795356248473E+01 -0.6251792330154E+00  0.2765084906838E+00
-0.2965527486977E+00 -0.2726662471634E+01 -0.6046430530763E+00  0.2712134866821E+00
-0.2420065921803E+00 -0.2658057961913E+01 -0.5800129194616E+00  0.2572727068615E+00
-0.1621498467188E+00 -0.2591615602977E+01 -0.5507530981459E+00  0.2331598331340E+00
-0.5180579696561E-01 -0.2529883035792E+01 -0.5163377742456E+00  0.1975497380071E+00
 0.9448167868406E-01 -0.2475874774066E+01 -0.4762786261735E+00  0.1495724299288E+00
 0.2821778965179E+00 -0.2432991031384E+01 -0.4301626333830E+00  0.8914353778518E-01
 0.5163121422076E+00 -0.2404817750852E+01 -0.3777011273570E+00  0.1734617817887E-01
 0.8008431885332E+00 -0.2394758194660E+01 -0.3187830059757E+00 -0.6320213186252E-01
 0.1137845770749E+01 -0.2405495894757E+01 -0.2535300285793E+00 -0.1480926220726E+00
 0.1526501160905E+01 -0.2438328745553E+01 -0.1823655196471E+00 -0.2311145876170E+00
 0.1962051800586E+01 -0.2492443060082E+01 -0.1060782534799E+00 -0.3046774499525E+00
 0.2435091569309E+01 -0.2564349429816E+01 -0.2585157248657E-01 -0.3607661221057E+00
 0.2931541225182E+01 -0.2647778891284E+01  0.5675246762520E-01 -0.3923221636783E+00
 0.3433558756054E+01 -0.2734242353178E+01  0.1398632826593E+00 -0.3946961732063E+00
 0.3921186486891E+01 -0.2814130952624E+01  0.2214111101527E+00 -0.3666934114970E+00
-0.7645843920574E+00 -0.3216062271879E+01 -0.7961293446505E+00 -0.1051422189971E+00
-0.6935123639117E+00 -0.3246947910206E+01 -0.7880920665670E+00 -0.1025265158743E+00
-0.6233075595219E+00 -0.3276471045419E+01 -0.7799557326105E+00 -0.9633359648394E-01
-0.5557989261232E+00 -0.3303531044694E+01 -0.7718660056652E+00 -0.8674596879596E-01
-0.4926858977021E+00 -0.3327150881856E+01 -0.7639673672956E+00 -0.7418890534744E-01
-0.4353788756864E+00 -0.3346571698993E+01 -0.7563901262069E+00 -0.5926501798064E-01
-0.3849058973938E+00 -0.3361295366844E+01 -0.7492402640121E+00 -0.4265011863255E-01
-0.3418917551794E+00 -0.3371073682356E+01 -0.7425930985726E+00 -0.2498896028356E-01
-0.3065942482843E+00 -0.3375859249409E+01 -0.7364907105133E+00 -0.6818105109623E-02
-0.2789718650961E+00 -0.3375739168571E+01 -0.7309422176252E+00  0.1147385439068E-01
-0.2587591943201E+00 -0.3370869395742E+01 -0.7259257288296E+00  0.2965191203103E-01
-0.2455341653810E+00 -0.3361420554195E+01 -0.7213909546648E+00  0.4761581050957E-01
-0.2387689567794E+00 -0.3347539383171E+01 -0.7172616786780E+00  0.6536745929623E-01
-0.2378623325122E+00 -0.3329325623973E+01 -0.7134376019281E+00  0.8297299200198E-01
-0.2421543843582E+00 -0.3306822137865E+01 -0.7097953150214E+00  0.1005246922048E+00
-0.2509258995666E+00 -0.3280015594470E+01 -0.7061883093304E+00  0.1181053692276E+00
-0.2633848212713E+00 -0.3248845399932E+01 -0.7024460547078E+00  0.1357559679073E+00
-0.2786413444578E+00 -0.3213220468485E+01 -0.6983723729950E+00  0.1534457118215E+00
-0.2956741614925E+00 -0.3173041097771E+01 -0.6937430621902E+00  0.1710454386127E+00
-0.3132883717499E+00 -0.3128227445872E+01 -0.6883031737809E+00  0.1883030991813E+00
-0.3300666890291E+00 -0.3078754799820E+01 -0.6817643079289E+00  0.2048216109334E+00
-0.3443167216233E+00 -0.3024693015386E+01 -0.6738019574422E+00  0.2200411148170E+00
-0.3540158413703E+00 -0.2966252184030E+01 -0.6640536149751E+00  0.2332258878515E+00
-0.3567567058125E+00 -0.2903834562228E+01 -0.6521182633255E+00  0.2434604039506E+00
-0.3496967779357E+00 -0.2838099339359E+01 -0.6375592329593E+00  0.2496650098379E+00
-0.3295222407762E+00 -0.2770027064828E+01 -0.6199098703582E+00  0.2506206495436E+00
-0.2924330634396E+00 -0.2700965106401E+01 -0.5986796428891E+00  0.2449948396323E+00
-0.2341497689072E+00 -0.2632665700879E+01 -0.5733631025010E+00  0.2313967588408E+00
-0.1499528141918E+00 -0.2567315661898E+01 -0.5434537033160E+00  0.2084814738275E+00
-0.3477544788732E-01 -0.2507545069793E+01 -0.5084641111128E+00  0.1751159964740E+00
 0.1166199996009E+00 -0.2456392110255E+01 -0.4679544291039E+00  0.1306133228542E+00
 0.3093440202664E+00 -0.2417191539543E+01 -0.4215695101373E+00  0.7502817523691E-01
 0.5479207826457E+00 -0.2393349493006E+01 -0.3690857475719E+00  0.9486683044711E-02
 0.8356675638150E+00 -0.2387968943737E+01 -0.3104602806105E+00 -0.6351288900687E-01
 0.1173941511320E+01 -0.2403339171849E+01 -0.2458795357697E+00 -0.1399131608477E+00
 0.1561256274747E+01 -0.2440339285132E+01 -0.1758166046968E+00 -0.2141394162549E+00
 0.1992419561666E+01 -0.2497828967215E+01 -0.1010818826161E+00 -0.2795154469030E+00
 0.2458015171001E+01 -0.2572221684381E+01 -0.2284130301627E-01 -0.3291123529245E+00
 0.2944496637351E+01 -0.2657473193270E+01  0.5740468967165E-01 -0.3569166834084E+00
 0.3435054594070E+01 -0.2745618579347E+01  0.1378872049993E+00 -0.3590280148383E+00
 0.3911071201761E+01 -0.2827745127418E+01  0.2166652180972E+00 -0.3345428167802E+00
-0.7648681468888E+00 -0.3214464773270E+01 -0.7958665958911E+00 -0.9349850451246E-01
-0.6950398819953E+00 -0.3244824181192E+01 -0.7879728243791E+00 -0.9117581002129E-01
-0.6260590043088E+00 -0.3273862350661E+01 -0.7799842826167E+00 -0.8568982642468E-01
-0.5596702049806E+00 -0.3300518758840E+01 -0.7720378042685E+00 -0.7720021173580E-01
-0.4974987539837E+00 -0.3323842798347E+01 -0.7642683218547E+00 -0.6606931006699E-01
-0.4409108810702E+00 -0.3343077136562E+01 -0.7567976148036E+00 -0.5281123395286E-01
-0.3909272819137E+00 -0.3357698817311E+01 -0.7497252310167E+00 -0.3800724957479E-01
-0.3481973838903E+00 -0.3367414988778E+01 -0.7431224856070E+00 -0.2221843586230E-01
-0.3130241700905E+00 -0.3372123977401E+01 -0.7370296404809E+00 -0.5918710813575E-02
-0.2854192214666E+00 -0.3371858722034E+01 -0.7314555995996E+00  0.1054189691331E-01
-0.2651677798994E+00 -0.3366728070657E+01 -0.7263791809352E+00  0.2694499819721E-01
-0.2518892347762E+00 -0.3356866214452E+01 -0.7217511006005E+00  0.4318986023918E-01
-0.2450846246004E+00 -0.3342395106147E+01 -0.7174959568411E+00  0.5926642658003E-01
-0.2441679613113E+00 -0.3323400745190E+01 -0.7135137519325E+00  0.7522258279430E-01
-0.2484813214425E+00 -0.3299922118821E+01 -0.7096806986278E+00  0.9113046190739E-01
-0.2572951242918E+00 -0.3271950825885E+01 -0.7058492005534E+00  0.1070543713058E+00
-0.2697955867743E+00 -0.3239439411114E+01 -0.7018470100361E+00  0.1230213244743E+00
-0.2850607039233E+00 -0.3202318167139E+01 -0.6974757846057E+00  0.1389937688905E+00
-0.3020272856687E+00 -0.3160517524821E+01 -0.6925089724172E+00  0.1548452591027E+00
-0.3194496928618E+00 -0.3113997456391E+01 -0.6866894400830E+00  0.1703382292220E+00
-0.3358520985999E+00 -0.3062783914391E+01 -0.6797272127269E+00  0.1851040845752E+00
-0.3494772455748E+00 -0.3007009390828E+01 -0.6712973372837E+00  0.1986274940015E+00
-0.3582334415346E+00 -0.2946959536974E+01 -0.6610386055520E+00  0.2102351841860E+00
-0.3596432164213E+00 -0.2883125165668E+01 -0.6485536860821E+00  0.2190934551856E+00
-0.3507973847200E+00 -0.2816264267445E+01 -0.6334123398716E+00  0.2242240492883E+00
-0.3283246594261E+00 -0.2747463026868E+01 -0.6151575464254E+00  0.2245286773527E+00
-0.2883848044742E+00 -0.2678178727836E+01 -0.5933127153030E+00  0.2188154711130E+00
-0.2266883194864E+00 -0.2610271937193E+01 -0.5673920597906E+00  0.2058529877641E+00
-0.1385544709293E+00 -0.2546024378623E+01 -0.5369157779111E+00  0.1844692926180E+00
-0.1902780570934E-01 -0.2488129094438E+01 -0.5014313875013E+00  0.1537060157780E+00
 0.1369198707924E+00 -0.2439631371553E+01 -0.4605423070148E+00  0.1130303421312E+00
 0.3340698517024E+00 -0.2403792050965E+01 -0.4139444460208E+00  0.6259584440587E-01
 0.5764901374459E+00 -0.2383843622881E+01 -0.3614707024734E+00  0.3523652371589E-02
 0.8669333723648E+00 -0.2382615345198E+01 -0.3031363990837E+00 -0.6185393326664E-01
 0.1206142173176E+01 -0.2402051308898E+01 -0.2391818307084E+00 -0.1298613707074E+00
 0.1592077823582E+01 -0.2442677905966E+01 -0.1701200190118E+00 -0.1955550219854E+00
 0.2019211107074E+01 -0.2503093763542E+01 -0.9677653273563E-01 -0.2531172487206E+00
 0.2478155688195E+01 -0.2579651960045E+01 -0.2029925467244E-01 -0.2965997726704E+00
 0.2955847320863E+01 -0.2666515523327E+01  0.5786636036946E-01 -0.3209070962734E+00
 0.3436373273766E+01 -0.2756173766276E+01  0.1360399035251E+00 -0.3227862606268E+00
 0.3902281679155E+01 -0.2840321128980E+01  0.2123921131998E+00 -0.3015715849962E+00
-0.7651196607210E+00 -0.3213059850022E+01 -0.7956359140045E+00 -0.8204816845334E-01
-0.6963862428256E+00 -0.3242953253106E+01 -0.7878679109265E+00 -0.8001199610904E-01
-0.6284808447011E+00 -0.3271559391874E+01 -0.7800080589381E+00 -0.7521242110112E-01
-0.5630786634552E+00 -0.3297850840480E+01 -0.7721859122934E+00 -0.6778793745588E-01
-0.5017427088341E+00 -0.3320899416418E+01 -0.7645284364428E+00 -0.5804499594709E-01
-0.4458008376294E+00 -0.3339950018951E+01 -0.7571501825985E+00 -0.4641853651636E-01
-0.3962656479644E+00 -0.3354459923532E+01 -0.7501451254773E+00 -0.3340363439600E-01
-0.3538055565361E+00 -0.3364099327033E+01 -0.7435809877940E+00 -0.1948298549053E-01
-0.3187606649049E+00 -0.3368720594844E+01 -0.7374962629393E+00 -0.5069555832595E-02
-0.2911873605623E+00 -0.3368309896176E+01 -0.7318994622538E+00  0.9526475130969E-02
-0.2709144616569E+00 -0.3362934650834E+01 -0.7267698333279E+00  0.2410648654992E-01
-0.2575975984479E+00 -0.3352696446134E+01 -0.7220588196759E+00  0.3857322346614E-01
-0.2507634044587E+00 -0.3337694670687E+01 -0.7176916257236E+00  0.5290867750197E-01
-0.2498396387719E+00 -0.3318002577789E+01 -0.7135684539452E+00  0.6714619196038E-01
-0.2541703517686E+00 -0.3293655395344E+01 -0.7095651599959E+00  0.8134107668467E-01
-0.2630168301758E+00 -0.3264649117754E+01 -0.7055332000993E+00  0.9554220197407E-01
-0.2755458777413E+00 -0.3230948348310E+01 -0.7012988556604E+00  0.1097656513912E+00
-0.2908065863913E+00 -0.3192503112847E+01 -0.6966619502287E+00  0.1239702435924E+00
-0.3076981198125E+00 -0.3149271663539E+01 -0.6913939669729E+00  0.1380357127918E+00
-0.3249292504178E+00 -0.3101250645582E+01 -0.6852359894109E+00  0.1517428651143E+00
-0.3409716397491E+00 -0.3048512504939E+01 -0.6778968390391E+00  0.1647559503050E+00
-0.3540100131987E+00 -0.2991246950548E+01 -0.6690514027190E+00  0.1766089538079E+00
-0.3618911939396E+00 -0.2929808285254E+01 -0.6583399056487E+00  0.1866961428274E+00
-0.3620757648543E+00 -0.2864767261568E+01 -0.6453686149012E+00  0.1942707479814E+00
-0.3515964514521E+00 -0.2796970360199E+01 -0.6297133717136E+00  0.1984604766411E+00
-0.3270331668996E+00 -0.2727597398612E+01 -0.6109261222059E+00  0.1982911047112E+00
-0.2845138034450E+00 -0.2658201667248E+01 -0.5885431029085E+00  0.1927123889918E+00
-0.2197458149316E+00 -0.2590736294976E+01 -0.5620964303573E+00  0.1806494045044E+00
-0.1280909580293E+00 -0.2527561072505E+01 -0.5311304140214E+00  0.1610943928244E+00
-0.4702325154323E-02 -0.2471415998775E+01 -0.4952236721652E+00  0.1332466312880E+00
 0.1552523930554E+00 -0.2425341606316E+01 -0.4540178494175E+00  0.9670090539170E-01
 0.3562549883466E+00 -0.2392521762263E+01 -0.4072533608518E+00  0.5167391906216E-01
 0.6019679793877E+00 -0.2376026299706E+01 -0.3548116693507E+00 -0.7591139673973E-03
 0.8946533430929E+00 -0.2378439711870E+01 -0.2967572781775E+00 -0.5846956883914E-01
 0.1234532615306E+01 -0.2401407851143E+01 -0.2333750506448E+00 -0.1181854447614E+00
 0.1619113319246E+01 -0.2445162648789E+01 -0.1652098683702E+00 -0.1755847337430E+00
 0.2042606899929E+01 -0.2508095144220E+01 -0.9309765024549E-01 -0.2256570345393E+00
 0.2495681268587E+01 -0.2586523875794E+01 -0.1816852171196E-01 -0.2633450183587E+00
 0.2965702538782E+01 -0.2674799577475E+01  0.5818059312825E-01 -0.2843666068245E+00
 0.3437531974893E+01 -0.2765803662461E+01  0.1343456644883E+00 -0.2860310464874E+00
 0.3894722228576E+01 -0.2851755284398E+01  0.2085933919438E+00 -0.2678611025205E+00
-0.7653391380548E+00 -0.3211841090915E+01 -0.7954360576469E+00 -0.7076762486960E-01
-0.6975559043672E+00 -0.3241327988503E+01 -0.7877767903128E+00 -0.6901262251521E-01
-0.6305823807073E+00 -0.3269555386256E+01 -0.7800275650159E+00 -0.6488268504464E-01
-0.5660369150250E+00 -0.3295522926607E+01 -0.7723119798348E+00 -0.5849632715128E-01
-0.5054307861719E+00 -0.3318321214547E+01 -0.7647504115394E+00 -0.5010969962550E-01
-0.4500590322424E+00 -0.3337197668231E+01 -0.7574513513817E+00 -0.4008620434672E-01
-0.4009261056031E+00 -0.3351593902310E+01 -0.7505040127660E+00 -0.2884177415016E-01
-0.3587149389885E+00 -0.3361149794039E+01 -0.7439729576916E+00 -0.1678539719880E-01
-0.3237958448402E+00 -0.3365679228401E+01 -0.7378950256438E+00 -0.4270818003079E-02
-0.2962625858875E+00 -0.3365128545220E+01 -0.7322782371334E+00  0.8432453059008E-02
-0.2759809548563E+00 -0.3359529324621E+01 -0.7271020667301E+00  0.2114807585623E-01
-0.2626377649338E+00 -0.3348954525552E+01 -0.7223184688606E+00  0.3378560026643E-01
-0.2557819484876E+00 -0.3333483438102E+01 -0.7178530880148E+00  0.4632255927941E-01
-0.2548534049110E+00 -0.3313177788349E+01 -0.7136062492857E+00  0.5878106334924E-01
-0.2591980516821E+00 -0.3288069289191E+01 -0.7094534787463E+00  0.7120262926737E-01
-0.2680692402095E+00 -0.3258157797902E+01 -0.7052454181314E+00  0.8362351365699E-01
-0.2806167101610E+00 -0.3223418761053E+01 -0.7008071046857E+00  0.9605164131034E-01
-0.2958640523334E+00 -0.3183820030044E+01 -0.6959368268456E+00  0.1084450925308E+00
-0.3126771770917E+00 -0.3139344994208E+01 -0.6904044445479E+00  0.1206929334968E+00
-0.3297246030781E+00 -0.3090023369386E+01 -0.6839496046844E+00  0.1325978496654E+00
-0.3454316948132E+00 -0.3035969395761E+01 -0.6762802281922E+00  0.1438608288794E+00
-0.3579321626651E+00 -0.2977424014343E+01 -0.6670712453418E+00  0.1540694109615E+00
-0.3650190016562E+00 -0.2914802707618E+01 -0.6559643516294E+00  0.1626898492945E+00
-0.3640989578362E+00 -0.2848747054712E+01 -0.6425692120848E+00  0.1690666700952E+00
-0.3521549130811E+00 -0.2780181381966E+01 -0.6264672683446E+00  0.1724373065945E+00
-0.3257259603315E+00 -0.2710367095870E+01 -0.6072186202886E+00  0.1719540655096E+00
-0.2809152121009E+00 -0.2640940014675E+01 -0.5843710540630E+00  0.1667085654864E+00
-0.2134320805418E+00 -0.2573931198669E+01 -0.5574726641491E+00  0.1557790090512E+00
-0.1186816830734E+00 -0.2511763742266E+01 -0.5260890929072E+00  0.1383130276858E+00
 0.8080641541991E-02 -0.2457211748152E+01 -0.4898262286210E+00  0.1136516362022E+00
 0.1715087191648E+00 -0.2413303229680E+01 -0.4483589087842E+00  0.8149324825309E-01
 0.3758176231515E+00 -0.2383146470751E+01 -0.4014657755022E+00  0.4208656853313E-01
 0.6243158939127E+00 -0.2369663305782E+01 -0.3490694875754E+00 -0.3573479012005E-02
 0.9188455297186E+00 -0.2375223754744E+01 -0.2912756493455E+00 -0.5359202623663E-01
 0.1259191638193E+01 -0.2401219883353E+01 -0.2284056524355E+00 -0.1051156661533E+00
 0.1642492480121E+01 -0.2447640471259E+01 -0.1610296006272E+00 -0.1544322181513E+00
 0.2062761600559E+01 -0.2512712670903E+01 -0.8999021540984E-01 -0.1972926034595E+00
 0.2510733824595E+01 -0.2592738208362E+01 -0.1640087699781E-01 -0.2294549526602E+00
 0.2974152951916E+01 -0.2682234544518E+01  0.5838368234954E-01 -0.2473645543431E+00
 0.3438541230989E+01 -0.2774418376800E+01  0.1328245728170E+00 -0.2488214866713E+00
 0.3888305313704E+01 -0.2861956450363E+01  0.2052697757271E+00 -0.2334936354271E+00
-0.7655267872810E+00 -0.3210803589112E+01 -0.7952660871291E+00 -0.5963364272835E-01
-0.6985524915631E+00 -0.3239942913129E+01 -0.7876990926761E+00 -0.5815543473173E-01
-0.6323711863626E+00 -0.3267845154094E+01 -0.7800432797150E+00 -0.5468156260048E-01
-0.5685553016055E+00 -0.3293531802061E+01 -0.7724174322433E+00 -0.4931138125278E-01
-0.5085737627585E+00 -0.3316108937778E+01 -0.7649365515057E+00 -0.4225515694778E-01
-0.4536940799526E+00 -0.3334826493092E+01 -0.7577041258995E+00 -0.3381093984301E-01
-0.4049130286344E+00 -0.3349113789006E+01 -0.7508053747160E+00 -0.2432138195542E-01
-0.3629245156468E+00 -0.3358586145782E+01 -0.7443021433768E+00 -0.1412580233451E-01
-0.3281231183221E+00 -0.3363025733304E+01 -0.7382297813257E+00 -0.3520382007852E-02
-0.3006332860927E+00 -0.3362345582781E+01 -0.7325957846913E+00  0.7266524974139E-02
-0.2803516256825E+00 -0.3356546899282E+01 -0.7273797158318E+00  0.1808283893808E-01
-0.2669912524150E+00 -0.3345678072803E+01 -0.7225338758102E+00  0.2884767389579E-01
-0.2601201070467E+00 -0.3329800938443E+01 -0.7179842197968E+00  0.3953708960981E-01
-0.2591885531655E+00 -0.3308967087513E+01 -0.7136311387695E+00  0.5016485618033E-01
-0.2635441979623E+00 -0.3283205065000E+01 -0.7093498631627E+00  0.6076139042453E-01
-0.2724336264032E+00 -0.3252518056098E+01 -0.7049903470054E+00  0.7135286972203E-01
-0.2849918941247E+00 -0.3216891018125E+01 -0.7003765928864E+00  0.8194155335159E-01
-0.3002205808751E+00 -0.3176307493848E+01 -0.6953056253054E+00  0.9248737360793E-01
-0.3169568679208E+00 -0.3130773003894E+01 -0.6895459846379E+00  0.1028915335792E+00
-0.3338345087694E+00 -0.3080346333915E+01 -0.6828361787120E+00  0.1129816944373E+00
-0.3492389372345E+00 -0.3025178365269E+01 -0.6748834705573E+00  0.1224989922326E+00
-0.3612599695026E+00 -0.2965554804047E+01 -0.6653629646246E+00  0.1310881991516E+00
-0.3676444699974E+00 -0.2901944370078E+01 -0.6539177777592E+00  0.1382913654941E+00
-0.3657533559254E+00 -0.2835049960585E+01 -0.6401606728412E+00  0.1435479805200E+00
-0.3525275782804E+00 -0.2765862870995E+01 -0.6236780991486E+00  0.1462082442941E+00
-0.3244727120706E+00 -0.2695714100338E+01 -0.6040373714825E+00  0.1455527813917E+00
-0.2776730159356E+00 -0.2626308999223E+01 -0.5807964116862E+00  0.1408147726468E+00
-0.2078430715460E+00 -0.2559743040896E+01 -0.5535172307365E+00  0.1312219558690E+00
-0.1104297524500E+00 -0.2498489778552E+01 -0.5217839139756E+00  0.1160690023486E+00
 0.1921867405566E-01 -0.2445347354937E+01 -0.4852257434066E+00  0.9482422188155E-01
 0.1855980501871E+00 -0.2403326977903E+01 -0.4435457921525E+00  0.6726857879913E-01
 0.3926918007696E+00 -0.2375466345486E+01 -0.3965549148525E+00  0.3365619368032E-01
 0.6435061734320E+00 -0.2364556692872E+01 -0.3442101090172E+00 -0.5126705985206E-02
 0.9395305351537E+00 -0.2372784481433E+01 -0.2866507935274E+00 -0.4744267822819E-01
 0.1280190412727E+01 -0.2401329864662E+01 -0.2242278937282E+00 -0.9086702495756E-01
 0.1662327545969E+01 -0.2449983794508E+01 -0.1575312520552E+00 -0.1322848482996E+00
 0.2079806202378E+01 -0.2516845434503E+01 -0.8740784772744E-01 -0.1681683858909E+00
 0.2523431899094E+01 -0.2598211301802E+01 -0.1495588076456E-01 -0.1950284337454E+00
 0.2981272884277E+01 -0.2688743542818E+01  0.5850586916363E-01 -0.2099672146183E+00
 0.3439406591340E+01 -0.2781941032380E+01  0.1314931137514E+00 -0.2112165244087E+00
 0.3882952892857E+01 -0.2870845537380E+01  0.2024214741117E+00 -0.1985528319900E+00
-0.7656828083281E+00 -0.3209943640361E+01 -0.7951253015862E+00 -0.4862327003089E-01
-0.6993789174542E+00 -0.3238793885666E+01 -0.7876345723607E+00 -0.4741833353260E-01
-0.6338533543378E+00 -0.3266424798404E+01 -0.7800556421720E+00 -0.4458970844622E-01
-0.5706421901202E+00 -0.3291875150568E+01 -0.7725034796489E+00 -0.4021814608450E-01
-0.5111804249792E+00 -0.3314263473226E+01 -0.7650887910417E+00 -0.3447147074242E-01
-0.4567130748556E+00 -0.3332842006159E+01 -0.7579110274967E+00 -0.2758731626345E-01
-0.4082300806475E+00 -0.3347030572923E+01 -0.7510521419057E+00 -0.1983983393830E-01
-0.3664335125576E+00 -0.3356425000773E+01 -0.7445717137612E+00 -0.1150207087523E-01
-0.3317370522584E+00 -0.3360781910724E+01 -0.7385038036010E+00 -0.2814149446533E-02
-0.3042897776983E+00 -0.3359987171938E+01 -0.7328554008477E+00  0.6036992384462E-02
-0.2840133433163E+00 -0.3354016942790E+01 -0.7276060680634E+00  0.1492507096340E-01
-0.2706424628301E+00 -0.3342899143538E+01 -0.7227083320429E+00  0.2378100846285E-01
-0.2637608237766E+00 -0.3326680924531E+01 -0.7180883603620E+00  0.3258188390371E-01
-0.2628275360214E+00 -0.3305405266748E+01 -0.7136465711881E+00  0.4133558868791E-01
-0.2671916687886E+00 -0.3279097973854E+01 -0.7092579390974E+00  0.5006376416492E-01
-0.2760941892846E+00 -0.3247765019180E+01 -0.7047718521949E+00  0.5878471457863E-01
-0.2886578755752E+00 -0.3211399438258E+01 -0.7000114731977E+00  0.6749720876324E-01
-0.3038658592042E+00 -0.3169998139007E+01 -0.6947728099952E+00  0.7616528414009E-01
-0.3205312247278E+00 -0.3123585494766E+01 -0.6888233541629E+00  0.8470470663729E-01
-0.3372585752621E+00 -0.3072245022568E+01 -0.6819007297271E+00  0.9297077362314E-01
-0.3523999020377E+00 -0.3016158708890E+01 -0.6737117322246E+00  0.1007476792235E+00
-0.3640083366870E+00 -0.2955650155027E+01 -0.6639317082362E+00  0.1077405411991E+00
-0.3697923253467E+00 -0.2891232990954E+01 -0.6522050729787E+00  0.1135703961171E+00
-0.3670748454662E+00 -0.2823661614894E+01 -0.6381473015812E+00  0.1177747091949E+00
-0.3527625014015E+00 -0.2753983261896E+01 -0.6213491619183E+00  0.1198188542410E+00
-0.3233340182711E+00 -0.2683586630650E+01 -0.6013841387455E+00  0.1191130243166E+00
-0.2748596705048E+00 -0.2614234100805E+01 -0.5778187628721E+00  0.1150313381323E+00
-0.2030608401772E+00 -0.2548073075998E+01 -0.5502267914341E+00  0.1069475581003E+00
-0.1034224275839E+00 -0.2487616432298E+01 -0.5182077796982E+00  0.9429581354357E-01
 0.2862620307064E-01 -0.2435678689550E+01 -0.4814105044694E+00  0.7665905012766E-01
 0.1974458807294E+00 -0.2395252856216E+01 -0.4395614016473E+00  0.5388278370796E-01
 0.4068251061859E+00 -0.2369313912245E+01 -0.3924977670605E+00  0.2620440268665E-01
 0.6595192996538E+00 -0.2360541900010E+01 -0.3402045251406E+00 -0.5621555639813E-02
 0.9567293702861E+00 -0.2370970794201E+01 -0.2828482889978E+00 -0.4023338450995E-01
 0.1297591394185E+01 -0.2401608265199E+01 -0.2208033774929E+00 -0.7564164212854E-01
 0.1678713710995E+01 -0.2452087745301E+01 -0.1546748091660E+00 -0.1093166022304E+00
 0.2093849851161E+01 -0.2520410142578E+01 -0.8531205955470E-01 -0.1384179434112E+00
 0.2533873042539E+01 -0.2602873720209E+01 -0.1380013573967E-01 -0.1601578113763E+00
 0.2987122341855E+01 -0.2694262421490E+01  0.5857198494577E-01 -0.1722384891969E+00
 0.3440130125642E+01 -0.2788306864864E+01  0.1303646540981E+00 -0.1732754113406E+00
 0.3878597251688E+01 -0.2878355192376E+01  0.2000484148434E+00 -0.1631238215559E+00
-0.7658073840341E+00 -0.3209258500005E+01 -0.7950131886545E+00 -0.3771377106838E-01
-0.7000374796326E+00 -0.3237877831069E+01 -0.7875830738762E+00 -0.3677934018439E-01
-0.6350336922033E+00 -0.3265291444009E+01 -0.7800650388664E+00 -0.3458754706454E-01
-0.5723042137854E+00 -0.3290551347231E+01 -0.7725711237154E+00 -0.3120090776085E-01
-0.5132577831322E+00 -0.3312785738758E+01 -0.7652087157805E+00 -0.2674743188911E-01
-0.4591217228417E+00 -0.3331248825420E+01 -0.7580741209485E+00 -0.2140817832403E-01
-0.4108802474265E+00 -0.3345353296017E+01 -0.7512467198831E+00 -0.1539258618243E-01
-0.3692413435814E+00 -0.3354679998619E+01 -0.7447842795382E+00 -0.8910190858018E-02
-0.3346332637721E+00 -0.3358965683441E+01 -0.7387198004505E+00 -0.2146349595079E-02
-0.3072241757403E+00 -0.3358074883868E+01 -0.7330598228451E+00  0.4753529638332E-02
-0.2869553538586E+00 -0.3351963906721E+01 -0.7277838629608E+00  0.1169012271823E-01
-0.2735785708086E+00 -0.3340644313060E+01 -0.7228445875450E+00  0.1860793385791E-01
-0.2666900398307E+00 -0.3324151426217E+01 -0.7181683039112E+00  0.2548707606823E-01
-0.2657558767599E+00 -0.3302521239184E+01 -0.7136554338231E+00  0.3233158383776E-01
-0.2701263507215E+00 -0.3275777300675E+01 -0.7091807408470E+00  0.3915625448751E-01
-0.2790379461804E+00 -0.3243927826023E+01 -0.7045931649400E+00  0.4597336502150E-01
-0.2916035921985E+00 -0.3206972413248E+01 -0.6997152115159E+00  0.5278001738670E-01
-0.3067915937452E+00 -0.3164918850660E+01 -0.6943420992275E+00  0.5954623906703E-01
-0.3233956580857E+00 -0.3117806860646E+01 -0.6882405140019E+00  0.6620437922959E-01
-0.3399969534894E+00 -0.3065740074830E+01 -0.6811474158137E+00  0.7263957536742E-01
-0.3549206120789E+00 -0.3008925734158E+01 -0.6727692792725E+00  0.7868147624155E-01
-0.3661903550108E+00 -0.2947718137375E+01 -0.6627817083534E+00  0.8409809144737E-01
-0.3714839196954E+00 -0.2882667190282E+01 -0.6508302316936E+00  0.8859202666785E-01
-0.3680941112114E+00 -0.2814568740195E+01 -0.6365325797664E+00  0.9180112285912E-01
-0.3529004669003E+00 -0.2744514838058E+01 -0.6194830702227E+00  0.9330777906404E-01
-0.3223609640879E+00 -0.2673940120389E+01 -0.5992602258251E+00  0.9265259755641E-01
-0.2725358442227E+00 -0.2604651956754E+01 -0.5754375687700E+00  0.8934986908509E-01
-0.1991535764692E+00 -0.2538838117346E+01 -0.5475983469229E+00  0.8291618951079E-01
-0.9773159092407E-01 -0.2479041129653E+01 -0.5153545517949E+00  0.7291860133789E-01
 0.3623351962533E-01 -0.2428086227667E+01 -0.4783705487366E+00  0.5904405068980E-01
 0.2069924650728E+00 -0.2388949166152E+01 -0.4363913467186E+00  0.4118779712745E-01
 0.4181767119460E+00 -0.2364552306858E+01 -0.3892751247831E+00  0.1955264528184E-01
 0.6723418828529E+00 -0.2357485342463E+01 -0.3370286969442E+00 -0.5256640793369E-02
 0.9704617648636E+00 -0.2369660718142E+01 -0.2798397948257E+00 -0.3216791421748E-01
 0.1311447525623E+01 -0.2401950876940E+01 -0.2181006735134E+00 -0.5963104142785E-01
 0.1691729536507E+01 -0.2453867961046E+01 -0.1524276871791E+00 -0.8569063665337E-01
 0.2104981322652E+01 -0.2523339565403E+01 -0.8367164979708E-01 -0.1081661482050E+00
 0.2542135738398E+01 -0.2606669138350E+01 -0.1290668018273E-01 -0.1249302701330E+00
 0.2991748728584E+01 -0.2698738850218E+01  0.5860197654653E-01 -0.1342405323655E+00
 0.3440711702927E+01 -0.2793462597832E+01  0.1294498229479E+00 -0.1350579834725E+00
 0.3875181493169E+01 -0.2884429567611E+01  0.1981503880643E+00 -0.1272931765754E+00
-0.7659006702511E+00 -0.3208746189909E+01 -0.7949293838775E+00 -0.2688257400717E-01
-0.7005299339154E+00 -0.3237192528762E+01 -0.7875445042708E+00 -0.2621656711211E-01
-0.6359158747766E+00 -0.3264443028765E+01 -0.7800717923323E+00 -0.2465532370281E-01
-0.5735464624101E+00 -0.3289559289288E+01 -0.7726211618526E+00 -0.2224336044101E-01
-0.5148112439893E+00 -0.3311676587085E+01 -0.7652975776186E+00 -0.1907080311680E-01
-0.4609244526221E+00 -0.3330050666347E+01 -0.7581950350919E+00 -0.1526500458764E-01
-0.4128658693248E+00 -0.3344089123321E+01 -0.7513910097258E+00 -0.1097356244844E-01
-0.3713475728190E+00 -0.3353361921147E+01 -0.7449419098938E+00 -0.6344632600385E-02
-0.3368083363583E+00 -0.3357591234594E+01 -0.7388799252006E+00 -0.1509848497631E-02
-0.3094302898183E+00 -0.3356625826702E+01 -0.7332112342298E+00  0.3426941831041E-02
-0.2891691762245E+00 -0.3350407229280E+01 -0.7279152919477E+00  0.8394222203863E-02
-0.2757894296681E+00 -0.3338934749927E+01 -0.7229448466917E+00  0.1335141983539E-01
-0.2688966110050E+00 -0.3322234800945E+01 -0.7182262930923E+00  0.1828323266545E-01
-0.2679620919663E+00 -0.3300338079967E+01 -0.7136600450210E+00  0.2319141459478E-01
-0.2723370568831E+00 -0.3273266410540E+01 -0.7091207040513E+00  0.2808543872295E-01
-0.2812546337686E+00 -0.3241029697072E+01 -0.7044568766654E+00  0.3297301539346E-01
-0.2938203490940E+00 -0.3203632517788E+01 -0.6994905837996E+00  0.3785102500637E-01
-0.3089913487486E+00 -0.3161090930704E+01 -0.6940164662322E+00  0.4269697678296E-01
-0.3255467497050E+00 -0.3113456324987E+01 -0.6878006251873E+00  0.4746139652288E-01
-0.3420500786806E+00 -0.3060847609400E+01 -0.6805795477576E+00  0.5206099268256E-01
-0.3568062642391E+00 -0.3003491180226E+01 -0.6720594989075E+00  0.5637274198347E-01
-0.3678169361898E+00 -0.2941764579026E+01 -0.6619163129065E+00  0.6022952484380E-01
-0.3727368204040E+00 -0.2876245116760E+01 -0.6497963971155E+00  0.6341750698557E-01
-0.3688362045262E+00 -0.2807759865150E+01 -0.6353192234022E+00  0.6567672901954E-01
-0.3529745744975E+00 -0.2737434514011E+01 -0.6180818269119E+00  0.6670797971230E-01
-0.3215947850112E+00 -0.2666738010055E+01 -0.5976665679192E+00  0.6618280880161E-01
-0.2707502369521E+00 -0.2597511079837E+01 -0.5736522719060E+00  0.6375492373282E-01
-0.1961756819833E+00 -0.2531971065968E+01 -0.5456293577209E+00  0.5908107491839E-01
-0.9341417390866E-01 -0.2472681670859E+01 -0.5132191766010E+00  0.5185592063104E-01
 0.4198592226396E-01 -0.2422474775214E+01 -0.4760977776843E+00  0.4186197335051E-01
 0.2141915402541E+00 -0.2384311647088E+01 -0.4340240278342E+00  0.2903268406617E-01
 0.4267157959266E+00 -0.2361073809256E+01 -0.3868716084306E+00  0.1352257280785E-01
 0.6819650380716E+00 -0.2355282446572E+01 -0.3346634866869E+00 -0.4226971667777E-02
 0.9807448847081E+00 -0.2368759190310E+01 -0.2776028652571E+00 -0.2344340582815E-01
 0.1321801687468E+01 -0.2402276700289E+01 -0.2160950057842E+00 -0.4301827760319E-01
 0.1701437346311E+01 -0.2455258870174E+01 -0.1507643070193E+00 -0.6156159054556E-01
 0.2113270230120E+01 -0.2525581303825E+01 -0.8246221596981E-01 -0.7753109467867E-01
 0.2548280964548E+01 -0.2609553464809E+01 -0.1225450023480E-01 -0.8942900668408E-01
 0.2995188279209E+01 -0.2702131648020E+01  0.5861132711104E-01 -0.9603425893900E-01
 0.3441150030254E+01 -0.2797366015094E+01  0.1287568049507E+00 -0.9662475650684E-01
 0.3872659872668E+01 -0.2889024153193E+01  0.1967271468264E+00 -0.9114875189010E-01
-0.7659627900775E+00 -0.3208405350776E+01 -0.7948736400152E+00 -0.1610722648878E-01
-0.7008575509565E+00 -0.3236736450079E+01 -0.7875188119420E+00 -0.1570819277193E-01
-0.6365025613356E+00 -0.3263878142398E+01 -0.7800761523707E+00 -0.1477314899891E-01
-0.5743726299645E+00 -0.3288898263459E+01 -0.7726541901982E+00 -0.1332875508221E-01
-0.5158447469816E+00 -0.3310936727430E+01 -0.7653563062870E+00 -0.1142857397759E-01
-0.4621245065573E+00 -0.3329250330117E+01 -0.7582749786340E+00 -0.9148239645356E-02
-0.4141886722146E+00 -0.3343243391766E+01 -0.7514864239941E+00 -0.6575518030839E-02
-0.3727518907782E+00 -0.3352478781981E+01 -0.7450461456538E+00 -0.3798699696640E-02
-0.3382597584086E+00 -0.3356669113175E+01 -0.7389857853285E+00 -0.8964555926632E-03
-0.3109035448250E+00 -0.3355652745611E+01 -0.7333112690145E+00  0.2068917282352E-02
-0.2906485207690E+00 -0.3349361417020E+01 -0.7280019984060E+00  0.5054286939921E-02
-0.2772674964213E+00 -0.3337786275814E+01 -0.7230107652208E+00  0.8034940680351E-02
-0.2703722404592E+00 -0.3320947776127E+01 -0.7182640140203E+00  0.1100126026742E-01
-0.2694376278656E+00 -0.3298873060832E+01 -0.7136621483739E+00  0.1395384661661E-01
-0.2738154595258E+00 -0.3271582787974E+01 -0.7090796600660E+00  0.1689794325661E-01
-0.2827366280895E+00 -0.3239087991946E+01 -0.7043649345030E+00  0.1983775023253E-01
-0.2953017173752E+00 -0.3201396598913E+01 -0.6993396736786E+00  0.2277097311481E-01
-0.3104604154252E+00 -0.3158530231991E+01 -0.6937981398217E+00  0.2568368198514E-01
-0.3269820853981E+00 -0.3110548131756E+01 -0.6875060536755E+00  0.2854572912193E-01
-0.3434184623293E+00 -0.3057579482417E+01 -0.6801995990850E+00  0.3130663909128E-01
-0.3580609782843E+00 -0.2999863552032E+01 -0.6715849160707E+00  0.3389205946947E-01
-0.3688965207097E+00 -0.2937793481033E+01 -0.6613380102032E+00  0.3620115393173E-01
-0.3735644857492E+00 -0.2871964943247E+01 -0.6491058954718E+00  0.3810506013540E-01
-0.3693202052650E+00 -0.2803225889562E+01 -0.6345092284203E+00  0.3944729754731E-01
-0.3530099195064E+00 -0.2732724444768E+01 -0.6171468820510E+00  0.4004797791254E-01
-0.3210666140296E+00 -0.2661952355951E+01 -0.5966038028862E+00  0.3970992014162E-01
-0.2695394588993E+00 -0.2592772398456E+01 -0.5724623800014E+00  0.3822562298136E-01
-0.1941678568526E+00 -0.2527421289934E+01 -0.5443178374684E+00  0.3538997316021E-01
-0.9051252664082E-01 -0.2468476339729E+01 -0.5117977809004E+00  0.3102135242627E-01
 0.4584301631453E-01 -0.2418773200010E+01 -0.4745860438109E+00  0.2499173301043E-01
 0.2190093052654E+00 -0.2381262753916E+01 -0.4324506961741E+00  0.1726449330407E-01
 0.4324203044505E+00 -0.2358798661323E+01 -0.3852756771156E+00  0.7936187279564E-02
 0.6883831446994E+00 -0.2353856104246E+01 -0.3330945968729E+00 -0.2724636584665E-02
 0.9875923814503E+00 -0.2368196352317E+01 -0.2761207982879E+00 -0.1425183677962E-01
 0.1328686323254E+01 -0.2402526331624E+01 -0.2147680048744E+00 -0.2597993508854E-01
 0.1707883569932E+01 -0.2456212384462E+01 -0.1496657651364E+00 -0.3707766692398E-01
 0.2118767972745E+01 -0.2527096847634E+01 -0.8166577619461E-01 -0.4662578820847E-01
 0.2552353412995E+01 -0.2611494179512E+01 -0.1182815347960E-01 -0.5373424537077E-01
 0.2997467191150E+01 -0.2704410305257E+01  0.5861137805194E-01 -0.5767971830254E-01
 0.3441443460153E+01 -0.2799985672525E+01  0.1282915594373E+00 -0.5803686735523E-01
 0.3870997960958E+01 -0.2892105663613E+01  0.1957784623863E+00 -0.5477942593213E-01
-0.7659938283727E+00 -0.3208235134591E+01 -0.7948458044369E+00 -0.5365357368572E-02
-0.7010211562875E+00 -0.3236508639995E+01 -0.7875059709912E+00 -0.5232440466037E-02
-0.6367954794363E+00 -0.3263595908750E+01 -0.7800782892614E+00 -0.4921040220875E-02
-0.5747851211631E+00 -0.3288567847981E+01 -0.7726706053426E+00 -0.4440035413514E-02
-0.5163608637213E+00 -0.3310566666028E+01 -0.7653855173550E+00 -0.3807196063214E-02
-0.4627240082989E+00 -0.3328849691966E+01 -0.7583147513528E+00 -0.3047605075149E-02
-0.4148497919478E+00 -0.3342819642952E+01 -0.7515338981787E+00 -0.2190386472001E-02
-0.3734540984647E+00 -0.3352035890087E+01 -0.7450980088131E+00 -0.1264870144742E-02
-0.3389858787781E+00 -0.3356206310702E+01 -0.7390384489086E+00 -0.2972279046952E-03
-0.3116409222425E+00 -0.3355164097007E+01 -0.7333610147778E+00  0.6917771327065E-03
-0.2913892278974E+00 -0.3348836106824E+01 -0.7280450777931E+00  0.1687731174672E-02
-0.2780077741981E+00 -0.3337209412345E+01 -0.7230434480827E+00  0.2682335564803E-02
-0.2711114262189E+00 -0.3320301483758E+01 -0.7182825926986E+00  0.3672311576354E-02
-0.2701768100935E+00 -0.3298137679474E+01 -0.7136629085480E+00  0.4657784252839E-02
-0.2745560367371E+00 -0.3270738070332E+01 -0.7090588319797E+00  0.5640427874848E-02
-0.2834788817178E+00 -0.3238114256963E+01 -0.7043186382313E+00  0.6621571174200E-02
-0.2960434552388E+00 -0.3200275847851E+01 -0.6992638710378E+00  0.7600378613054E-02
-0.3111957109172E+00 -0.3157247264222E+01 -0.6936886053645E+00  0.8572134039833E-02
-0.3277001269882E+00 -0.3109091694372E+01 -0.6873583745146E+00  0.9526710782437E-02
-0.3441025335549E+00 -0.3055943487366E+01 -0.6800092143171E+00  0.1044720010650E-01
-0.3586876063477E+00 -0.2998048377499E+01 -0.6713472067731E+00  0.1130872804056E-01
-0.3694348574262E+00 -0.2935807335529E+01 -0.6610484484415E+00  0.1207758841712E-01
-0.3739760218195E+00 -0.2869825244216E+01 -0.6487602628745E+00  0.1271073371787E-01
-0.3695589707709E+00 -0.2800960512363E+01 -0.6341039060757E+00  0.1315592011540E-01
-0.3530233589387E+00 -0.2730372484206E+01 -0.6166791778183E+00  0.1335312546687E-01
-0.3207973018817E+00 -0.2659564284112E+01 -0.5960723260810E+00  0.1323660554210E-01
-0.2689279538608E+00 -0.2590409653934E+01 -0.5718675300804E+00  0.1273724071149E-01
-0.1931571823849E+00 -0.2525154895813E+01 -0.5436624237407E+00  0.1178680139352E-01
-0.8905471308710E-01 -0.2466383969052E+01 -0.5110877440435E+00  0.1032501476545E-01
 0.4777817428666E-01 -0.2416934214034E+01 -0.4738312150101E+00  0.8309617251506E-02
 0.2214236509708E+00 -0.2379751105209E+01 -0.4316654972800E+00  0.5728953064423E-02
 0.4352760345350E+00 -0.2357674183538E+01 -0.3844796355298E+00  0.2615844953103E-02
 0.6915929409962E+00 -0.2353155535087E+01 -0.3323125237700E+00 -0.9395768028623E-03
 0.9910137125131E+00 -0.2367926307282E+01 -0.2753825230574E+00 -0.4781503219304E-02
 0.1332123184976E+01 -0.2402660797476E+01 -0.2141075256903E+00 -0.8688048178630E-02
 0.1711099005263E+01 -0.2456696953765E+01 -0.1491195919225E+00 -0.1238258397088E-01
 0.2121508431015E+01 -0.2527860891312E+01 -0.8127049327039E-01 -0.1555971267570E-01
 0.2554382385066E+01 -0.2612469855974E+01 -0.1161749435476E-01 -0.1792417880570E-01
 0.2998602465794E+01 -0.2705554651619E+01  0.5860956370816E-01 -0.1923641917903E-01
 0.3441590576238E+01 -0.2801300703846E+01  0.1280579763867E+00 -0.1935596469979E-01
 0.3870172760436E+01 -0.2893651949460E+01  0.1953041651053E+00 -0.1827484912792E-01
-0.7659938283765E+00 -0.3208235134608E+01 -0.7948458044410E+00  0.5365357424212E-02
-0.7010211562903E+00 -0.3236508640012E+01 -0.7875059709953E+00  0.5232440640823E-02
-0.6367954794367E+00 -0.3263595908770E+01 -0.7800782892654E+00  0.4921040498471E-02
-0.5747851211598E+00 -0.3288567848003E+01 -0.7726706053463E+00  0.4440035767768E-02
-0.5163608637135E+00 -0.3310566666053E+01 -0.7653855173584E+00  0.3807196459736E-02
-0.4627240082862E+00 -0.3328849691993E+01 -0.7583147513557E+00  0.3047605473585E-02
-0.4148497919299E+00 -0.3342819642982E+01 -0.7515338981811E+00  0.2190386828520E-02
-0.3734540984417E+00 -0.3352035890120E+01 -0.7450980088151E+00  0.1264870414333E-02
-0.3389858787503E+00 -0.3356206310738E+01 -0.7390384489102E+00  0.2972280429526E-03
-0.3116409222101E+00 -0.3355164097046E+01 -0.7333610147792E+00 -0.6917771685661E-03
-0.2913892278608E+00 -0.3348836106869E+01 -0.7280450777946E+00 -0.1687731425536E-02
-0.2780077741574E+00 -0.3337209412394E+01 -0.7230434480846E+00 -0.2682336069960E-02
-0.2711114261741E+00 -0.3320301483815E+01 -0.7182825927011E+00 -0.3672312374032E-02
-0.2701768100447E+00 -0.3298137679541E+01 -0.7136629085515E+00 -0.4657785380840E-02
-0.2745560366842E+00 -0.3270738070411E+01 -0.7090588319847E+00 -0.5640429371148E-02
-0.2834788816609E+00 -0.3238114257055E+01 -0.7043186382384E+00 -0.6621573077053E-02
-0.2960434551779E+00 -0.3200275847960E+01 -0.6992638710475E+00 -0.7600380959968E-02
-0.3111957108531E+00 -0.3157247264350E+01 -0.6936886053775E+00 -0.8572136866530E-02
-0.3277001269222E+00 -0.3109091694523E+01 -0.6873583745315E+00 -0.9526714120676E-02
-0.3441025334885E+00 -0.3055943487541E+01 -0.6800092143389E+00 -0.1044720398047E-01
-0.3586876062841E+00 -0.2998048377700E+01 -0.6713472068006E+00 -0.1130873246216E-01
-0.3694348573693E+00 -0.2935807335757E+01 -0.6610484484757E+00 -0.1207759338086E-01
-0.3739760217747E+00 -0.2869825244471E+01 -0.6487602629163E+00 -0.1271073919342E-01
-0.3695589707448E+00 -0.2800960512642E+01 -0.6341039061263E+00 -0.1315592604074E-01
-0.3530233589397E+00 -0.2730372484506E+01 -0.6166791778784E+00 -0.1335313173972E-01
-0.3207973019193E+00 -0.2659564284427E+01 -0.5960723261515E+00 -0.1323661201276E-01
-0.2689279539455E+00 -0.2590409654256E+01 -0.5718675301618E+00 -0.1273724717510E-01
-0.1931571825280E+00 -0.2525154896132E+01 -0.5436624238331E+00 -0.1178680758626E-01
-0.8905471329895E-01 -0.2466383969356E+01 -0.5110877441468E+00 -0.1032502036352E-01
 0.4777817399765E-01 -0.2416934214310E+01 -0.4738312151231E+00 -0.8309621877395E-02
 0.2214236506000E+00 -0.2379751105443E+01 -0.4316654974009E+00 -0.5728956303620E-02
 0.4352760340839E+00 -0.2357674183717E+01 -0.3844796356558E+00 -0.2615846380948E-02
 0.6915929404758E+00 -0.2353155535202E+01 -0.3323125238971E+00  0.9395775799548E-03
 0.9910137119445E+00 -0.2367926307328E+01 -0.2753825231803E+00  0.4781506512526E-02
 0.1332123184392E+01 -0.2402660797454E+01 -0.2141075258028E+00  0.8688054158188E-02
 0.1711099004706E+01 -0.2456696953682E+01 -0.1491195920172E+00  0.1238259261098E-01
 0.2121508430535E+01 -0.2527860891179E+01 -0.8127049333972E-01  0.1555972371284E-01
 0.2554382384711E+01 -0.2612469855802E+01 -0.1161749439122E-01  0.1792419172461E-01
 0.2998602465605E+01 -0.2705554651415E+01  0.5860956371137E-01  0.1923643323840E-01
 0.3441590576242E+01 -0.2801300703609E+01  0.1280579764348E+00  0.1935597899585E-01
 0.3870172760635E+01 -0.2893651949177E+01  0.1953041652018E+00  0.1827486269359E-01
-0.7659627900890E+00 -0.3208405350826E+01 -0.7948736400276E+00  0.1610722654466E-01
-0.7008575509647E+00 -0.3236736450132E+01 -0.7875188119544E+00  0.1570819294719E-01
-0.6365025613365E+00 -0.3263878142457E+01 -0.7800761523827E+00  0.1477314927716E-01
-0.5743726299546E+00 -0.3288898263525E+01 -0.7726541902094E+00  0.1332875543725E-01
-0.5158447469584E+00 -0.3310936727503E+01 -0.7653563062970E+00  0.1142857437496E-01
-0.4621245065191E+00 -0.3329250330199E+01 -0.7582749786427E+00  0.9148240044641E-02
-0.4141886721608E+00 -0.3343243391856E+01 -0.7514864240014E+00  0.6575518388210E-02
-0.3727518907092E+00 -0.3352478782079E+01 -0.7450461456598E+00  0.3798699967153E-02
-0.3382597583251E+00 -0.3356669113283E+01 -0.7389857853334E+00  0.8964557320569E-03
-0.3109035447279E+00 -0.3355652745730E+01 -0.7333112690189E+00 -0.2068917316650E-02
-0.2906485206592E+00 -0.3349361417153E+01 -0.7280019984105E+00 -0.5054287188564E-02
-0.2772674962993E+00 -0.3337786275964E+01 -0.7230107652264E+00 -0.8034941182406E-02
-0.2703722403252E+00 -0.3320947776299E+01 -0.7182640140278E+00 -0.1100126106084E-01
-0.2694376277194E+00 -0.3298873061031E+01 -0.7136621483845E+00 -0.1395384773905E-01
-0.2738154593673E+00 -0.3271582788208E+01 -0.7090796600811E+00 -0.1689794474589E-01
-0.2827366279188E+00 -0.3239087992222E+01 -0.7043649345241E+00 -0.1983775212677E-01
-0.2953017171929E+00 -0.3201396599240E+01 -0.6993396737075E+00 -0.2277097545152E-01
-0.3104604152332E+00 -0.3158530232377E+01 -0.6937981398604E+00 -0.2568368480022E-01
-0.3269820851998E+00 -0.3110548132208E+01 -0.6875060537262E+00 -0.2854573244729E-01
-0.3434184621304E+00 -0.3057579482942E+01 -0.6801995991502E+00 -0.3130664295151E-01
-0.3580609780934E+00 -0.2999863552635E+01 -0.6715849161532E+00 -0.3389206387704E-01
-0.3688965205387E+00 -0.2937793481716E+01 -0.6613380103057E+00 -0.3620115888188E-01
-0.3735644856142E+00 -0.2871964944010E+01 -0.6491058955973E+00 -0.3810506559884E-01
-0.3693202051861E+00 -0.2803225890399E+01 -0.6345092285719E+00 -0.3944730346322E-01
-0.3530099195082E+00 -0.2732724445667E+01 -0.6171468822313E+00 -0.4004798418019E-01
-0.3210666141408E+00 -0.2661952356896E+01 -0.5966038030975E+00 -0.3970992661277E-01
-0.2695394591517E+00 -0.2592772399424E+01 -0.5724623802455E+00 -0.3822562945302E-01
-0.1941678572799E+00 -0.2527421290894E+01 -0.5443178377458E+00 -0.3538997936997E-01
-0.9051252727439E-01 -0.2468476340645E+01 -0.5117977812102E+00 -0.3102135805155E-01
 0.4584301544878E-01 -0.2418773200840E+01 -0.4745860441502E+00 -0.2499173767435E-01
 0.2190093041539E+00 -0.2381262754621E+01 -0.4324506965374E+00 -0.1726449659158E-01
 0.4324203030986E+00 -0.2358798661864E+01 -0.3852756774942E+00 -0.7936188764221E-02
 0.6883831431385E+00 -0.2353856104595E+01 -0.3330945972548E+00  0.2724637299833E-02
 0.9875923797442E+00 -0.2368196352459E+01 -0.2761207986575E+00  0.1425184001027E-01
 0.1328686321500E+01 -0.2402526331562E+01 -0.2147680052126E+00  0.2597994100996E-01
 0.1707883568259E+01 -0.2456212384216E+01 -0.1496657654216E+00  0.3707767551514E-01
 0.2118767971302E+01 -0.2527096847236E+01 -0.8166577640361E-01  0.4662579920826E-01
 0.2552353411928E+01 -0.2611494178996E+01 -0.1182815358974E-01  0.5373425826376E-01
 0.2997467190584E+01 -0.2704410304646E+01  0.5861137806099E-01  0.5767973234265E-01
 0.3441443460164E+01 -0.2799985671815E+01  0.1282915595815E+00  0.5803688163076E-01
 0.3870997961558E+01 -0.2892105662766E+01  0.1957784626757E+00  0.5477943946536E-01
-0.7659006702703E+00 -0.3208746189993E+01 -0.7949293838980E+00  0.2688257406356E-01
-0.7005299339291E+00 -0.3237192528851E+01 -0.7875445042914E+00  0.2621656728830E-01
-0.6359158747781E+00 -0.3264443028863E+01 -0.7800717923523E+00  0.2465532398239E-01
-0.5735464623937E+00 -0.3289559289398E+01 -0.7726211618712E+00  0.2224336079763E-01
-0.5148112439505E+00 -0.3311676587207E+01 -0.7652975776353E+00  0.1907080351585E-01
-0.4609244525583E+00 -0.3330050666483E+01 -0.7581950351062E+00  0.1526500498860E-01
-0.4128658692351E+00 -0.3344089123471E+01 -0.7513910097378E+00  0.1097356280749E-01
-0.3713475727040E+00 -0.3353361921311E+01 -0.7449419099036E+00  0.6344632872722E-02
-0.3368083362192E+00 -0.3357591234774E+01 -0.7388799252088E+00  0.1509848639297E-02
-0.3094302896568E+00 -0.3356625826900E+01 -0.7332112342370E+00 -0.3426941862235E-02
-0.2891691760419E+00 -0.3350407229500E+01 -0.7279152919552E+00 -0.8394222448106E-02
-0.2757894294653E+00 -0.3338934750175E+01 -0.7229448467008E+00 -0.1335142033128E-01
-0.2688966107821E+00 -0.3322234801229E+01 -0.7182262931047E+00 -0.1828323345042E-01
-0.2679620917233E+00 -0.3300338080298E+01 -0.7136600450385E+00 -0.2319141570612E-01
-0.2723370566196E+00 -0.3273266410928E+01 -0.7091207040763E+00 -0.2808544019816E-01
-0.2812546334847E+00 -0.3241029697532E+01 -0.7044568767005E+00 -0.3297301727045E-01
-0.2938203487907E+00 -0.3203632518331E+01 -0.6994905838476E+00 -0.3785102732275E-01
-0.3089913484290E+00 -0.3161090931345E+01 -0.6940164662964E+00 -0.4269697957476E-01
-0.3255467493748E+00 -0.3113456325738E+01 -0.6878006252716E+00 -0.4746139982246E-01
-0.3420500783491E+00 -0.3060847610274E+01 -0.6805795478660E+00 -0.5206099651523E-01
-0.3568062639204E+00 -0.3003491181230E+01 -0.6720594990446E+00 -0.5637274636288E-01
-0.3678169359039E+00 -0.2941764580165E+01 -0.6619163130771E+00 -0.6022952976667E-01
-0.3727368201772E+00 -0.2876245118032E+01 -0.6497963973245E+00 -0.6341751242464E-01
-0.3688362043919E+00 -0.2807759866545E+01 -0.6353192236544E+00 -0.6567673491641E-01
-0.3529745744968E+00 -0.2737434515513E+01 -0.6180818272121E+00 -0.6670798596918E-01
-0.3215947851918E+00 -0.2666738011635E+01 -0.5976665682713E+00 -0.6618281527339E-01
-0.2707502373672E+00 -0.2597511081456E+01 -0.5736522723128E+00 -0.6375493022001E-01
-0.1961756826888E+00 -0.2531971067576E+01 -0.5456293581835E+00 -0.5908108116171E-01
-0.9341417495778E-01 -0.2472681672394E+01 -0.5132191771180E+00 -0.5185592631040E-01
 0.4198592082783E-01 -0.2422474776610E+01 -0.4760977782508E+00 -0.4186197809020E-01
 0.2141915384072E+00 -0.2384311648275E+01 -0.4340240284410E+00 -0.2903268745012E-01
 0.4267157936770E+00 -0.2361073810171E+01 -0.3868716090636E+00 -0.1352257440612E-01
 0.6819650354710E+00 -0.2355282447167E+01 -0.3346634873261E+00  0.4226972258751E-02
 0.9807448818617E+00 -0.2368759190560E+01 -0.2776028658762E+00  0.2344340893322E-01
 0.1321801684539E+01 -0.2402276700196E+01 -0.2160950063515E+00  0.4301828340776E-01
 0.1701437343514E+01 -0.2455258869773E+01 -0.1507643074982E+00  0.6156159903823E-01
 0.2113270227704E+01 -0.2525581303169E+01 -0.8246221632170E-01  0.7753110560338E-01
 0.2548280962760E+01 -0.2609553463955E+01 -0.1225450042151E-01  0.8942901952484E-01
 0.2995188278260E+01 -0.2702131647007E+01  0.5861132712385E-01  0.9603427294076E-01
 0.3441150030275E+01 -0.2797366013918E+01  0.1287568051899E+00  0.9662477074143E-01
 0.3872659873676E+01 -0.2889024151789E+01  0.1967271473089E+00  0.9114876535861E-01
-0.7658073840610E+00 -0.3209258500122E+01 -0.7950131886832E+00  0.3771377112552E-01
-0.7000374796517E+00 -0.3237877831195E+01 -0.7875830739052E+00  0.3677934036199E-01
-0.6350336922054E+00 -0.3265291444147E+01 -0.7800650388944E+00  0.3458754734610E-01
-0.5723042137623E+00 -0.3290551347384E+01 -0.7725711237415E+00  0.3120090811982E-01
-0.5132577830778E+00 -0.3312785738929E+01 -0.7652087158039E+00  0.2674743229066E-01
-0.4591217227523E+00 -0.3331248825610E+01 -0.7580741209686E+00  0.2140817872748E-01
-0.4108802473009E+00 -0.3345353296226E+01 -0.7512467198998E+00  0.1539258654396E-01
-0.3692413434204E+00 -0.3354679998848E+01 -0.7447842795518E+00  0.8910191133036E-02
-0.3346332635777E+00 -0.3358965683692E+01 -0.7387198004617E+00  0.2146349740064E-02
-0.3072241755147E+00 -0.3358074884144E+01 -0.7330598228551E+00 -0.4753529664972E-02
-0.2869553536037E+00 -0.3351963907028E+01 -0.7277838629711E+00 -0.1169012295595E-01
-0.2735785705256E+00 -0.3340644313406E+01 -0.7228445875575E+00 -0.1860793434456E-01
-0.2666900395199E+00 -0.3324151426613E+01 -0.7181683039282E+00 -0.2548707684054E-01
-0.2657558764210E+00 -0.3302521239644E+01 -0.7136554338474E+00 -0.3233158493246E-01
-0.2701263503539E+00 -0.3275777301216E+01 -0.7091807408816E+00 -0.3915625594165E-01
-0.2790379457842E+00 -0.3243927826663E+01 -0.7045931649886E+00 -0.4597336687267E-01
-0.2916035917751E+00 -0.3206972414005E+01 -0.6997152115826E+00 -0.5278001967250E-01
-0.3067915932987E+00 -0.3164918851554E+01 -0.6943420993170E+00 -0.5954624182384E-01
-0.3233956576238E+00 -0.3117806861695E+01 -0.6882405141193E+00 -0.6620438249037E-01
-0.3399969530252E+00 -0.3065740076050E+01 -0.6811474159649E+00 -0.7263957915863E-01
-0.3549206116319E+00 -0.3008925735562E+01 -0.6727692794638E+00 -0.7868148057845E-01
-0.3661903546083E+00 -0.2947718138968E+01 -0.6627817085915E+00 -0.8409809632899E-01
-0.3714839193740E+00 -0.2882667192062E+01 -0.6508302319854E+00 -0.8859203206984E-01
-0.3680941110178E+00 -0.2814568742151E+01 -0.6365325801189E+00 -0.9180112872676E-01
-0.3529004668916E+00 -0.2744514840166E+01 -0.6194830706424E+00 -0.9330778530391E-01
-0.3223609643309E+00 -0.2673940122609E+01 -0.5992602263177E+00 -0.9265260402822E-01
-0.2725358447921E+00 -0.2604651959032E+01 -0.5754375693396E+00 -0.8934987559448E-01
-0.1991535774434E+00 -0.2538838119613E+01 -0.5475983475711E+00 -0.8291619580334E-01
-0.9773159237835E-01 -0.2479041131824E+01 -0.5153545525198E+00 -0.7291860709735E-01
 0.3623351762878E-01 -0.2428086229646E+01 -0.4783705495318E+00 -0.5904405554233E-01
 0.2069924624993E+00 -0.2388949167842E+01 -0.4363913475713E+00 -0.4118780065567E-01
 0.4181767088046E+00 -0.2364552308169E+01 -0.3892751256735E+00 -0.1955264705057E-01
 0.6723418792140E+00 -0.2357485343325E+01 -0.3370286978444E+00  0.5256641197392E-02
 0.9704617608732E+00 -0.2369660718518E+01 -0.2798397956989E+00  0.3216791713277E-01
 0.1311447521510E+01 -0.2401950876834E+01 -0.2181006743148E+00  0.5963104705555E-01
 0.1691729532572E+01 -0.2453867960503E+01 -0.1524276878574E+00  0.8569064499642E-01
 0.2104981319247E+01 -0.2523339564499E+01 -0.8367165029728E-01  0.1081661590158E+00
 0.2542135735875E+01 -0.2606669137167E+01 -0.1290668045067E-01  0.1249302828947E+00
 0.2991748727244E+01 -0.2698738848812E+01  0.5860197655957E-01  0.1342405463095E+00
 0.3440711702956E+01 -0.2793462596199E+01  0.1294498232803E+00  0.1350579976460E+00
 0.3875181494596E+01 -0.2884429565659E+01  0.1981503887401E+00  0.1272931899472E+00
-0.7656828083627E+00 -0.3209943640512E+01 -0.7951253016232E+00  0.4862327008902E-01
-0.6993789174788E+00 -0.3238793885827E+01 -0.7876345723979E+00  0.4741833371209E-01
-0.6338533543404E+00 -0.3266424798581E+01 -0.7800556422080E+00  0.4458970873041E-01
-0.5706421900902E+00 -0.3291875150766E+01 -0.7725034796824E+00  0.4021814644659E-01
-0.5111804249089E+00 -0.3314263473446E+01 -0.7650887910717E+00  0.3447147114727E-01
-0.4567130747403E+00 -0.3332842006403E+01 -0.7579110275224E+00  0.2758731667015E-01
-0.4082300804858E+00 -0.3347030573192E+01 -0.7510521419270E+00  0.1983983430302E-01
-0.3664335123506E+00 -0.3356425001067E+01 -0.7445717137785E+00  0.1150207115371E-01
-0.3317370520088E+00 -0.3360781911044E+01 -0.7385038036152E+00  0.2814149595832E-02
-0.3042897774090E+00 -0.3359987172290E+01 -0.7328554008603E+00 -0.6036992405100E-02
-0.2840133429899E+00 -0.3354016943181E+01 -0.7276060680763E+00 -0.1492507119251E-01
-0.2706424624679E+00 -0.3342899143979E+01 -0.7227083320586E+00 -0.2378100893726E-01
-0.2637608233790E+00 -0.3326680925036E+01 -0.7180883603834E+00 -0.3258188465924E-01
-0.2628275355879E+00 -0.3305405267335E+01 -0.7136465712188E+00 -0.4133558976048E-01
-0.2671916683184E+00 -0.3279097974545E+01 -0.7092579391414E+00 -0.5006376559096E-01
-0.2760941887775E+00 -0.3247765019997E+01 -0.7047718522568E+00 -0.5878471639535E-01
-0.2886578750328E+00 -0.3211399439226E+01 -0.7000114732827E+00 -0.6749721100824E-01
-0.3038658586317E+00 -0.3169998140151E+01 -0.6947728101094E+00 -0.7616528685009E-01
-0.3205312241349E+00 -0.3123585496109E+01 -0.6888233543130E+00 -0.8470470984615E-01
-0.3372585746651E+00 -0.3072245024132E+01 -0.6819007299204E+00 -0.9297077735868E-01
-0.3523999014610E+00 -0.3016158710690E+01 -0.6737117324693E+00 -0.1007476835033E+00
-0.3640083361656E+00 -0.2955650157073E+01 -0.6639317085411E+00 -0.1077405460250E+00
-0.3697923249271E+00 -0.2891232993243E+01 -0.6522050733527E+00 -0.1135704014688E+00
-0.3670748452080E+00 -0.2823661617413E+01 -0.6381473020334E+00 -0.1177747150224E+00
-0.3527625013775E+00 -0.2753983264614E+01 -0.6213491624572E+00 -0.1198188604567E+00
-0.3233340185671E+00 -0.2683586633518E+01 -0.6013841393784E+00 -0.1191130307867E+00
-0.2748596712166E+00 -0.2614234103755E+01 -0.5778187636045E+00 -0.1150313446693E+00
-0.2030608414065E+00 -0.2548073078941E+01 -0.5502267922685E+00 -0.1069475644565E+00
-0.1034224294289E+00 -0.2487616435124E+01 -0.5182077806324E+00 -0.9429581940782E-01
 0.2862620052820E-01 -0.2435678692137E+01 -0.4814105054953E+00 -0.7665905512905E-01
 0.1974458774420E+00 -0.2395252858437E+01 -0.4395614027489E+00 -0.5388278742771E-01
 0.4068251021615E+00 -0.2369313913981E+01 -0.3924977682126E+00 -0.2620440468288E-01
 0.6595192949791E+00 -0.2360541901168E+01 -0.3402045263073E+00  0.5621555793249E-02
 0.9567293651464E+00 -0.2370970794731E+01 -0.2828482901318E+00  0.4023338716990E-01
 0.1297591388874E+01 -0.2401608265102E+01 -0.2208033785360E+00  0.7564164751742E-01
 0.1678713705902E+01 -0.2452087744635E+01 -0.1546748100515E+00  0.1093166103706E+00
 0.2093849846744E+01 -0.2520410141442E+01 -0.8531206021093E-01  0.1384179540676E+00
 0.2533873039261E+01 -0.2602873718711E+01 -0.1380013609564E-01  0.1601578240310E+00
 0.2987122340111E+01 -0.2694262419704E+01  0.5857198495406E-01  0.1722385030637E+00
 0.3440130125681E+01 -0.2788306862788E+01  0.1303646545211E+00  0.1732754254334E+00
 0.3878597253552E+01 -0.2878355189893E+01  0.2000484157127E+00  0.1631238347995E+00
-0.7655267873233E+00 -0.3210803589296E+01 -0.7952660871743E+00  0.5963364278776E-01
-0.6985524915931E+00 -0.3239942913326E+01 -0.7876990927215E+00  0.5815543491358E-01
-0.6323711863656E+00 -0.3267845154312E+01 -0.7800432797590E+00  0.5468156288797E-01
-0.5685553015686E+00 -0.3293531802303E+01 -0.7724174322842E+00  0.4931138161875E-01
-0.5085737626721E+00 -0.3316108938047E+01 -0.7649365515422E+00  0.4225515735667E-01
-0.4536940798112E+00 -0.3334826493389E+01 -0.7577041259308E+00  0.3381094025364E-01
-0.4049130284365E+00 -0.3349113789333E+01 -0.7508053747418E+00  0.2432138232397E-01
-0.3629245153939E+00 -0.3358586146139E+01 -0.7443021433976E+00  0.1412580261712E-01
-0.3281231180177E+00 -0.3363025733693E+01 -0.7382297813426E+00  0.3520382162343E-02
-0.3006332857405E+00 -0.3362345583208E+01 -0.7325957847062E+00 -0.7266524987507E-02
-0.2803516252855E+00 -0.3356546899755E+01 -0.7273797158470E+00 -0.1808283915661E-01
-0.2669912519749E+00 -0.3345678073336E+01 -0.7225338758288E+00 -0.2884767435507E-01
-0.2601201065638E+00 -0.3329800939054E+01 -0.7179842198223E+00 -0.3953709034449E-01
-0.2591885526391E+00 -0.3308967088223E+01 -0.7136311388063E+00 -0.5016485722531E-01
-0.2635441973912E+00 -0.3283205065836E+01 -0.7093498632156E+00 -0.6076139181550E-01
-0.2724336257870E+00 -0.3252518057087E+01 -0.7049903470800E+00 -0.7135287149571E-01
-0.2849918934652E+00 -0.3216891019299E+01 -0.7003765929892E+00 -0.8194155554555E-01
-0.3002205801778E+00 -0.3176307495236E+01 -0.6953056254436E+00 -0.9248737625925E-01
-0.3169568671974E+00 -0.3130773005526E+01 -0.6895459848198E+00 -0.1028915367228E+00
-0.3338345080392E+00 -0.3080346335819E+01 -0.6828361789466E+00 -0.1129816981028E+00
-0.3492389365270E+00 -0.3025178367464E+01 -0.6748834708547E+00 -0.1224989964402E+00
-0.3612599688596E+00 -0.2965554806544E+01 -0.6653629649954E+00 -0.1310882039068E+00
-0.3676444694750E+00 -0.2901944372877E+01 -0.6539177782145E+00 -0.1382913707813E+00
-0.3657533555957E+00 -0.2835049963670E+01 -0.6401606733922E+00 -0.1435479862954E+00
-0.3525275782318E+00 -0.2765862874330E+01 -0.6236780998059E+00 -0.1462082504772E+00
-0.3244727124073E+00 -0.2695714103865E+01 -0.6040373722553E+00 -0.1455527878569E+00
-0.2776730167751E+00 -0.2626309002860E+01 -0.5807964125815E+00 -0.1408147792152E+00
-0.2078430730129E+00 -0.2559743044535E+01 -0.5535172317576E+00 -0.1312219623013E+00
-0.1104297546665E+00 -0.2498489782060E+01 -0.5217839151205E+00 -0.1160690083408E+00
 0.1921867098637E-01 -0.2445347358163E+01 -0.4852257446658E+00 -0.9482422706645E-01
 0.1855980462025E+00 -0.2403326980691E+01 -0.4435457935070E+00 -0.6726858275685E-01
 0.3926917958739E+00 -0.2375466347686E+01 -0.3965549162716E+00 -0.3365619596103E-01
 0.6435061677255E+00 -0.2364556694367E+01 -0.3442101104573E+00  0.5126705823478E-02
 0.9395305288586E+00 -0.2372784482154E+01 -0.2866507949306E+00  0.4744268056517E-01
 0.1280190406201E+01 -0.2401329864608E+01 -0.2242278950226E+00  0.9086703004302E-01
 0.1662327539693E+01 -0.2449983793747E+01 -0.1575312531582E+00  0.1322848561811E+00
 0.2079806196918E+01 -0.2516845433155E+01 -0.8740784854983E-01  0.1681683963500E+00
 0.2523431895032E+01 -0.2598211300004E+01 -0.1495588121739E-01  0.1950284462638E+00
 0.2981272882111E+01 -0.2688743540667E+01  0.5850586916053E-01  0.2099672283883E+00
 0.3439406591389E+01 -0.2781941029878E+01  0.1314931142617E+00  0.2112165384016E+00
 0.3882952895178E+01 -0.2870845534385E+01  0.2024214751749E+00  0.1985528450746E+00
-0.7653391381049E+00 -0.3211841091132E+01 -0.7954360577003E+00  0.7076762493052E-01
-0.6975559044027E+00 -0.3241327988736E+01 -0.7877767903666E+00  0.6901262269990E-01
-0.6305823807107E+00 -0.3269555386513E+01 -0.7800275650680E+00  0.6488268533608E-01
-0.5660369149809E+00 -0.3295522926893E+01 -0.7723119798831E+00  0.5849632752186E-01
-0.5054307860691E+00 -0.3318321214865E+01 -0.7647504115824E+00  0.5010970003915E-01
-0.4500590320746E+00 -0.3337197668583E+01 -0.7574513514183E+00  0.4008620476190E-01
-0.4009261053688E+00 -0.3351593902695E+01 -0.7505040127961E+00  0.2884177452309E-01
-0.3587149386898E+00 -0.3361149794458E+01 -0.7439729577157E+00  0.1678539748611E-01
-0.3237958444814E+00 -0.3365679228857E+01 -0.7378950256632E+00  0.4270818163506E-02
-0.2962625854731E+00 -0.3365128545719E+01 -0.7322782371502E+00 -0.8432453063915E-02
-0.2759809543899E+00 -0.3359529325173E+01 -0.7271020667473E+00 -0.2114807606230E-01
-0.2626377644175E+00 -0.3348954526174E+01 -0.7223184688816E+00 -0.3378560070775E-01
-0.2557819479214E+00 -0.3333483438815E+01 -0.7178530880440E+00 -0.4632255998928E-01
-0.2548534042939E+00 -0.3313177789178E+01 -0.7136062493280E+00 -0.5878106436127E-01
-0.2591980510123E+00 -0.3288069290167E+01 -0.7094534788075E+00 -0.7120263061632E-01
-0.2680692394864E+00 -0.3258157799060E+01 -0.7052454182182E+00 -0.8362351537903E-01
-0.2806167093862E+00 -0.3223418762427E+01 -0.7008071048056E+00 -0.9605164344291E-01
-0.2958640515130E+00 -0.3183820031672E+01 -0.6959368270072E+00 -0.1084450951115E+00
-0.3126771762388E+00 -0.3139344996126E+01 -0.6904044447607E+00 -0.1206929365617E+00
-0.3297246022147E+00 -0.3090023371624E+01 -0.6839496049594E+00 -0.1325978532461E+00
-0.3454316939734E+00 -0.3035969398345E+01 -0.6762802285411E+00 -0.1438608329992E+00
-0.3579321618972E+00 -0.2977424017289E+01 -0.6670712457773E+00 -0.1540694156303E+00
-0.3650190010256E+00 -0.2914802710926E+01 -0.6559643521649E+00 -0.1626898545023E+00
-0.3640989574267E+00 -0.2848747058366E+01 -0.6425692127335E+00 -0.1690666758053E+00
-0.3521549129965E+00 -0.2780181385925E+01 -0.6264672691194E+00 -0.1724373127349E+00
-0.3257259606942E+00 -0.2710367100068E+01 -0.6072186212008E+00 -0.1719540719646E+00
-0.2809152130496E+00 -0.2640940019017E+01 -0.5843710551211E+00 -0.1667085720878E+00
-0.2134320822254E+00 -0.2573931203029E+01 -0.5574726653578E+00 -0.1557790155700E+00
-0.1186816856383E+00 -0.2511763746488E+01 -0.5260890942646E+00 -0.1383130338267E+00
 0.8080637969417E-02 -0.2457211752057E+01 -0.4898262301165E+00 -0.1136516416034E+00
 0.1715087145038E+00 -0.2413303233079E+01 -0.4483589103961E+00 -0.8149325249407E-01
 0.3758176173994E+00 -0.2383146473463E+01 -0.4014657771951E+00 -0.4208657115520E-01
 0.6243158871801E+00 -0.2369663307660E+01 -0.3490694892976E+00  0.3573478469314E-02
 0.9188455222616E+00 -0.2375223755702E+01 -0.2912756510283E+00  0.5359202818071E-01
 0.1259191630431E+01 -0.2401219883381E+01 -0.2284056539935E+00  0.1051156708673E+00
 0.1642492472628E+01 -0.2447640470434E+01 -0.1610296019607E+00  0.1544322257147E+00
 0.2062761594019E+01 -0.2512712669370E+01 -0.8999021641110E-01  0.1972926136754E+00
 0.2510733819714E+01 -0.2592738206287E+01 -0.1640087755887E-01  0.2294549650114E+00
 0.2974152949307E+01 -0.2682234542024E+01  0.5838368232676E-01  0.2473645679962E+00
 0.3438541231048E+01 -0.2774418373894E+01  0.1328245734102E+00  0.2488215005458E+00
 0.3888305316508E+01 -0.2861956446879E+01  0.2052697769846E+00  0.2334936483226E+00
-0.7651196607788E+00 -0.3213059850273E+01 -0.7956359140663E+00  0.8204816851603E-01
-0.6963862428665E+00 -0.3242953253376E+01 -0.7878679109886E+00  0.8001199629706E-01
-0.6284808447046E+00 -0.3271559392171E+01 -0.7800080589982E+00  0.7521242139716E-01
-0.5630786634037E+00 -0.3297850840810E+01 -0.7721859123491E+00  0.6778793783179E-01
-0.5017427087145E+00 -0.3320899416785E+01 -0.7645284364922E+00  0.5804499636614E-01
-0.4458008374348E+00 -0.3339950019355E+01 -0.7571501826405E+00  0.4641853693661E-01
-0.3962656476934E+00 -0.3354459923974E+01 -0.7501451255115E+00  0.3340363477370E-01
-0.3538055561916E+00 -0.3364099327513E+01 -0.7435809878211E+00  0.1948298578291E-01
-0.3187606644920E+00 -0.3368720595365E+01 -0.7374962629609E+00  0.5069555999551E-02
-0.2911873600866E+00 -0.3368309896744E+01 -0.7318994622724E+00 -0.9526475126395E-02
-0.2709144611226E+00 -0.3362934651462E+01 -0.7267698333467E+00 -0.2410648674184E-01
-0.2575975978571E+00 -0.3352696446840E+01 -0.7220588196990E+00 -0.3857322388685E-01
-0.2507634038115E+00 -0.3337694671497E+01 -0.7176916257560E+00 -0.5290867818310E-01
-0.2498396380666E+00 -0.3318002578732E+01 -0.7135684539926E+00 -0.6714619293414E-01
-0.2541703510029E+00 -0.3293655396455E+01 -0.7095651600649E+00 -0.8134107798473E-01
-0.2630168293484E+00 -0.3264649119073E+01 -0.7055332001975E+00 -0.9554220363587E-01
-0.2755458768536E+00 -0.3230948349878E+01 -0.7012988557965E+00 -0.1097656534521E+00
-0.2908065854496E+00 -0.3192503114708E+01 -0.6966619504125E+00 -0.1239702460903E+00
-0.3076981188311E+00 -0.3149271665734E+01 -0.6913939672157E+00 -0.1380357157642E+00
-0.3249292494212E+00 -0.3101250648150E+01 -0.6852359897250E+00 -0.1517428685951E+00
-0.3409716387755E+00 -0.3048512507909E+01 -0.6778968394383E+00 -0.1647559543209E+00
-0.3540100123024E+00 -0.2991246953939E+01 -0.6690514032180E+00 -0.1766089583736E+00
-0.3618911931945E+00 -0.2929808289070E+01 -0.6583399062630E+00 -0.1866961479397E+00
-0.3620757643559E+00 -0.2864767265792E+01 -0.6453686156464E+00 -0.1942707536114E+00
-0.3515964513185E+00 -0.2796970364789E+01 -0.6297133726049E+00 -0.1984604827271E+00
-0.3270331672713E+00 -0.2727597403495E+01 -0.6109261232567E+00 -0.1982911111487E+00
-0.2845138044820E+00 -0.2658201672316E+01 -0.5885431041295E+00 -0.1927123956251E+00
-0.2197458168065E+00 -0.2590736300086E+01 -0.5620964317544E+00 -0.1806494111170E+00
-0.1280909609147E+00 -0.2527561077479E+01 -0.5311304155932E+00 -0.1610943991321E+00
-0.4702329201803E-02 -0.2471416003405E+01 -0.4952236739007E+00 -0.1332466369360E+00
 0.1552523877442E+00 -0.2425341610380E+01 -0.4540178512925E+00 -0.9670090995971E-01
 0.3562549817579E+00 -0.2392521765545E+01 -0.4072533628260E+00 -0.5167392208218E-01
 0.6019679716373E+00 -0.2376026302028E+01 -0.3548116713652E+00  0.7591129766562E-03
 0.8946533344668E+00 -0.2378439713120E+01 -0.2967572801527E+00  0.5846957031739E-01
 0.1234532606286E+01 -0.2401407851302E+01 -0.2333750524808E+00  0.1181854490317E+00
 0.1619113310500E+01 -0.2445162647941E+01 -0.1652098699500E+00  0.1755847409243E+00
 0.2042606892264E+01 -0.2508095142533E+01 -0.9309765144114E-01  0.2256570444621E+00
 0.2495681262845E+01 -0.2586523873466E+01 -0.1816852239488E-01  0.2633450305089E+00
 0.2965702535703E+01 -0.2674799574660E+01  0.5818059307539E-01  0.2843666203401E+00
 0.3437531974961E+01 -0.2765803659176E+01  0.1343456651590E+00  0.2860310602259E+00
 0.3894722231895E+01 -0.2851755280454E+01  0.2085933933964E+00  0.2678611151976E+00
-0.7648681469544E+00 -0.3214464773555E+01 -0.7958665959611E+00  0.9349850457720E-01
-0.6950398820416E+00 -0.3244824181498E+01 -0.7879728244496E+00  0.9117581021312E-01
-0.6260590043124E+00 -0.3273862350998E+01 -0.7799842826848E+00  0.8568982672597E-01
-0.5596702049213E+00 -0.3300518759215E+01 -0.7720378043315E+00  0.7720021211771E-01
-0.4974987538469E+00 -0.3323842798763E+01 -0.7642683219104E+00  0.6606931049203E-01
-0.4409108808483E+00 -0.3343077137019E+01 -0.7567976148507E+00  0.5281123437858E-01
-0.3909272816058E+00 -0.3357698817810E+01 -0.7497252310549E+00  0.3800724995750E-01
-0.3481973835001E+00 -0.3367414989317E+01 -0.7431224856368E+00  0.2221843615997E-01
-0.3130241696243E+00 -0.3372123977985E+01 -0.7370296405044E+00  0.5918710987440E-02
-0.2854192209308E+00 -0.3371858722669E+01 -0.7314555996194E+00 -0.1054189689843E-01
-0.2651677792987E+00 -0.3366728071358E+01 -0.7263791809552E+00 -0.2694499837340E-01
-0.2518892341131E+00 -0.3356866215239E+01 -0.7217511006253E+00 -0.4318986063672E-01
-0.2450846238747E+00 -0.3342395107048E+01 -0.7174959568762E+00 -0.5926642722867E-01
-0.2441679605207E+00 -0.3323400746240E+01 -0.7135137519844E+00 -0.7522258372461E-01
-0.2484813205839E+00 -0.3299922120060E+01 -0.7096806987038E+00 -0.9113046315173E-01
-0.2572951233632E+00 -0.3271950827358E+01 -0.7058492006622E+00 -0.1070543728988E+00
-0.2697955857765E+00 -0.3239439412869E+01 -0.7018470101875E+00 -0.1230213264530E+00
-0.2850607028627E+00 -0.3202318169225E+01 -0.6974757848108E+00 -0.1389937712935E+00
-0.3020272845604E+00 -0.3160517527287E+01 -0.6925089726886E+00 -0.1548452619687E+00
-0.3194496917323E+00 -0.3113997459280E+01 -0.6866894404349E+00 -0.1703382325872E+00
-0.3358520974909E+00 -0.3062783917740E+01 -0.6797272131748E+00 -0.1851040884704E+00
-0.3494772445462E+00 -0.3007009394661E+01 -0.6712973378445E+00 -0.1986274984467E+00
-0.3582334406684E+00 -0.2946959541298E+01 -0.6610386062435E+00 -0.2102351891852E+00
-0.3596432158235E+00 -0.2883125170467E+01 -0.6485536869223E+00 -0.2190934607192E+00
-0.3507973845225E+00 -0.2816264272675E+01 -0.6334123408780E+00 -0.2242240553057E+00
-0.3283246597870E+00 -0.2747463032450E+01 -0.6151575476140E+00 -0.2245286837625E+00
-0.2883848055747E+00 -0.2678178733653E+01 -0.5933127166866E+00 -0.2188154777741E+00
-0.2266883215235E+00 -0.2610271943086E+01 -0.5673920613768E+00 -0.2058529944748E+00
-0.1385544741024E+00 -0.2546024384392E+01 -0.5369157796995E+00 -0.1844692991073E+00
-0.1902781019792E-01 -0.2488129099846E+01 -0.5014313894807E+00 -0.1537060217002E+00
 0.1369198648621E+00 -0.2439631376344E+01 -0.4605423091591E+00 -0.1130303470680E+00
 0.3340698443007E+00 -0.2403792054886E+01 -0.4139444482854E+00 -0.6259584787998E-01
 0.5764901286890E+00 -0.2383843625717E+01 -0.3614707047920E+00 -0.3523653878885E-02
 0.8669333625638E+00 -0.2382615346808E+01 -0.3031364013659E+00  0.6185393420283E-01
 0.1206142162870E+01 -0.2402051309248E+01 -0.2391818328396E+00  0.1298613744570E+00
 0.1592077813538E+01 -0.2442677905145E+01 -0.1701200208563E+00  0.1955550287151E+00
 0.2019211098229E+01 -0.2503093761739E+01 -0.9677653414420E-01  0.2531172582957E+00
 0.2478155681540E+01 -0.2579651957497E+01 -0.2029925549384E-01  0.2965997845830E+00
 0.2955847317279E+01 -0.2666515520220E+01  0.5786636027409E-01  0.3209071096296E+00
 0.3436373273841E+01 -0.2756173762642E+01  0.1360399042669E+00  0.3227862742125E+00
 0.3902281683025E+01 -0.2840321124608E+01  0.2123921148483E+00  0.3015715974266E+00
-0.7645843921308E+00 -0.3216062272197E+01 -0.7961293447289E+00  0.1051422190642E+00
-0.6935123639634E+00 -0.3246947910548E+01 -0.7880920666458E+00  0.1025265160705E+00
-0.6233075595254E+00 -0.3276471045797E+01 -0.7799557326866E+00  0.9633359679112E-01
-0.5557989260557E+00 -0.3303531045113E+01 -0.7718660057355E+00  0.8674596918451E-01
-0.4926858975475E+00 -0.3327150882320E+01 -0.7639673673575E+00  0.7418890577895E-01
-0.4353788754367E+00 -0.3346571699503E+01 -0.7563901262590E+00  0.5926501841207E-01
-0.3849058970486E+00 -0.3361295367398E+01 -0.7492402640538E+00  0.4265011902034E-01
-0.3418917547436E+00 -0.3371073682953E+01 -0.7425930986049E+00  0.2498896058651E-01
-0.3065942477654E+00 -0.3375859250053E+01 -0.7364907105382E+00  0.6818105290561E-02
-0.2789718645015E+00 -0.3375739169268E+01 -0.7309422176459E+00 -0.1147385436486E-01
-0.2587591936552E+00 -0.3370869396510E+01 -0.7259257288502E+00 -0.2965191219012E-01
-0.2455341646482E+00 -0.3361420555057E+01 -0.7213909546906E+00 -0.4761581088157E-01
-0.2387689559782E+00 -0.3347539384157E+01 -0.7172616787151E+00 -0.6536745990871E-01
-0.2378623316396E+00 -0.3329325625124E+01 -0.7134376019837E+00 -0.8297299288371E-01
-0.2421543834104E+00 -0.3306822139224E+01 -0.7097953151037E+00 -0.1005246933867E+00
-0.2509258985404E+00 -0.3280015596089E+01 -0.7061883094489E+00 -0.1181053707432E+00
-0.2633848201667E+00 -0.3248845401864E+01 -0.7024460548735E+00 -0.1357559697934E+00
-0.2786413432812E+00 -0.3213220470787E+01 -0.6983723732202E+00 -0.1534457141171E+00
-0.2956741602593E+00 -0.3173041100498E+01 -0.6937430624890E+00 -0.1710454413579E+00
-0.3132883704880E+00 -0.3128227449075E+01 -0.6883031741690E+00 -0.1883031024152E+00
-0.3300666877832E+00 -0.3078754803541E+01 -0.6817643084238E+00 -0.2048216146904E+00
-0.3443167204585E+00 -0.3024693019655E+01 -0.6738019580630E+00 -0.2200411191233E+00
-0.3540158403756E+00 -0.2966252188858E+01 -0.6640536157420E+00 -0.2332258927186E+00
-0.3567567051039E+00 -0.2903834567604E+01 -0.6521182642589E+00 -0.2434604093694E+00
-0.3496967776583E+00 -0.2838099345236E+01 -0.6375592340793E+00 -0.2496650157701E+00
-0.3295222411047E+00 -0.2770027071126E+01 -0.6199098716834E+00 -0.2506206559127E+00
-0.2924330645761E+00 -0.2700965112993E+01 -0.5986796444348E+00 -0.2449948463135E+00
-0.2341497710735E+00 -0.2632665707592E+01 -0.5733631042769E+00 -0.2313967656496E+00
-0.1499528176154E+00 -0.2567315668511E+01 -0.5434537053233E+00 -0.2084814805090E+00
-0.3477545277775E-01 -0.2507545076041E+01 -0.5084641133404E+00 -0.1751160026944E+00
 0.1166199930889E+00 -0.2456392115845E+01 -0.4679544315244E+00 -0.1306133281989E+00
 0.3093440120813E+00 -0.2417191544183E+01 -0.4215695127022E+00 -0.7502817922028E-01
 0.5479207728979E+00 -0.2393349496438E+01 -0.3690857502079E+00 -0.9486685138256E-02
 0.8356675528346E+00 -0.2387968945787E+01 -0.3104602832166E+00  0.6351288932098E-01
 0.1173941499702E+01 -0.2403339172462E+01 -0.2458795382160E+00  0.1399131639938E+00
 0.1561256263356E+01 -0.2440339284396E+01 -0.1758166068278E+00  0.2141394224568E+00
 0.1992419551577E+01 -0.2497828965344E+01 -0.1010818842595E+00  0.2795154560694E+00
 0.2458015163370E+01 -0.2572221681648E+01 -0.2284130399592E-01  0.3291123645591E+00
 0.2944496633220E+01 -0.2657473189903E+01  0.5740468951873E-01  0.3569166965823E+00
 0.3435054594145E+01 -0.2745618575397E+01  0.1378872058043E+00  0.3590280282549E+00
 0.3911071206223E+01 -0.2827745122655E+01  0.2166652199422E+00  0.3345428289367E+00
-0.7642682090015E+00 -0.3217860631754E+01 -0.7964257800187E+00  0.1170033445816E+00
-0.6917982450512E+00 -0.3249333645033E+01 -0.7882263897624E+00  0.1140868109927E+00
-0.6202151806765E+00 -0.3279394249909E+01 -0.7799218977389E+00  0.1071619786080E+00
-0.5514495807648E+00 -0.3306893501588E+01 -0.7716686279694E+00  0.9643657449234E-01
-0.4872885661919E+00 -0.3330823587796E+01 -0.7636224421764E+00  0.8240761440202E-01
-0.4291926970266E+00 -0.3350425427087E+01 -0.7559236360868E+00  0.6577752658096E-01
-0.3781956363046E+00 -0.3365231989401E+01 -0.7486855362974E+00  0.4732645957266E-01
-0.3348904321974E+00 -0.3375048710717E+01 -0.7419878396395E+00  0.2778870075700E-01
-0.2994802591071E+00 -0.3379891746381E+01 -0.7358744120631E+00  0.7764960996767E-02
-0.2718612640360E+00 -0.3379910215915E+01 -0.7303543068732E+00 -0.1231951997563E-01
-0.2517098139021E+00 -0.3375312895353E+01 -0.7254045526605E+00 -0.3221703322412E-01
-0.2385570341104E+00 -0.3366310434434E+01 -0.7209735044522E+00 -0.5183243971930E-01
-0.2318430625153E+00 -0.3353076256914E+01 -0.7169838745697E+00 -0.7118415778928E-01
-0.2309500674524E+00 -0.3335724560128E+01 -0.7133349361455E+00 -0.9036064174898E-01
-0.2352162710991E+00 -0.3314302034234E+01 -0.7099036716450E+00 -0.1094779007851E+00
-0.2439341132091E+00 -0.3288789881501E+01 -0.7065448094704E+00 -0.1286404959235E+00
-0.2563355341317E+00 -0.3259113443879E+01 -0.7030898060790E+00 -0.1479064797852E+00
-0.2715661013830E+00 -0.3225158912003E+01 -0.6993450130982E+00 -0.1672552064807E+00
-0.2886504411782E+00 -0.3186794562860E+01 -0.6950890111653E+00 -0.1865585278254E+00
-0.3064493233482E+00 -0.3143898124699E+01 -0.6900694998923E+00 -0.2055541477622E+00
-0.3236098088671E+00 -0.3096390649540E+01 -0.6840001018739E+00 -0.2238212898735E+00
-0.3385110249196E+00 -0.3044274590535E+01 -0.6765571331723E+00 -0.2407608931937E+00
-0.3492068645802E+00 -0.2987678235796E+01 -0.6673770300199E+00 -0.2555805262232E+00
-0.3533683156317E+00 -0.2926907280368E+01 -0.6560551289759E+00 -0.2672887179285E+00
-0.3482283199019E+00 -0.2862512260603E+01 -0.6421481256698E+00 -0.2747098855530E+00
-0.3305398702974E+00 -0.2795356255502E+01 -0.6251792344758E+00 -0.2765084969957E+00
-0.2965527498401E+00 -0.2726662479028E+01 -0.6046430547836E+00 -0.2712134933717E+00
-0.2420065944389E+00 -0.2658057969486E+01 -0.5800129214279E+00 -0.2572727137642E+00
-0.1621498503508E+00 -0.2591615610487E+01 -0.5507531003745E+00 -0.2331598400137E+00
-0.5180580221269E-01 -0.2529883042948E+01 -0.5163377767261E+00 -0.1975497445451E+00
 0.9448167163421E-01 -0.2475874780537E+01 -0.4762786288777E+00 -0.1495724357172E+00
 0.2821778875858E+00 -0.2432991036833E+01 -0.4301626362594E+00 -0.8914354233142E-01
 0.5163121314892E+00 -0.2404817754977E+01 -0.3777011303257E+00 -0.1734618092943E-01
 0.8008431763713E+00 -0.2394758197244E+01 -0.3187830089248E+00  0.6320213147054E-01
 0.1137845757790E+01 -0.2405495895717E+01 -0.2535300313633E+00  0.1480926245258E+00
 0.1526501148110E+01 -0.2438328744972E+01 -0.1823655220899E+00  0.2311145932072E+00
 0.1962051789180E+01 -0.2492443058196E+01 -0.1060782553839E+00  0.3046774586423E+00
 0.2435091560629E+01 -0.2564349426942E+01 -0.2585157364783E-01  0.3607661334166E+00
 0.2931541220451E+01 -0.2647778887695E+01  0.5675246739682E-01  0.3923221766450E+00
 0.3433558756121E+01 -0.2734242348952E+01  0.1398632835179E+00  0.3946961864383E+00
 0.3921186491991E+01 -0.2814130947512E+01  0.2214111121951E+00  0.3666934233540E+00
-0.7639194396498E+00 -0.3219870462684E+01 -0.7967579923393E+00  0.1291064720686E+00
-0.6898909036635E+00 -0.3251993147551E+01 -0.7883768219906E+00  0.1258796952539E+00
-0.6167681318814E+00 -0.3282643192427E+01 -0.7798822764829E+00  0.1181926610706E+00
-0.5466038525651E+00 -0.3310613710836E+01 -0.7714435241755E+00  0.1062816116508E+00
-0.4812882821854E+00 -0.3334861369135E+01 -0.7632299416371E+00  0.9072633225408E-01
-0.4223382052887E+00 -0.3354628999871E+01 -0.7553934522883E+00  0.7234273601027E-01
-0.3707899022540E+00 -0.3369488486666E+01 -0.7480556889309E+00  0.5202666943446E-01
-0.3271957533132E+00 -0.3379309448645E+01 -0.7413010514380E+00  0.3060829922443E-01
-0.2916932516797E+00 -0.3384181942747E+01 -0.7351750498404E+00  0.8753602222524E-02
-0.2641058925237E+00 -0.3384325415975E+01 -0.7296862725728E+00 -0.1307828639764E-01
-0.2440437681416E+00 -0.3380007117090E+01 -0.7248101878468E+00 -0.3463177511700E-01
-0.2309857919251E+00 -0.3371480968768E+01 -0.7204933628748E+00 -0.5582224017685E-01
-0.2243370365850E+00 -0.3358948554268E+01 -0.7166571288496E+00 -0.7668968086220E-01
-0.2234619382360E+00 -0.3342538892777E+01 -0.7132001768301E+00 -0.9734927088938E-01
-0.2276971257350E+00 -0.3322302265672E+01 -0.7099998888612E+00 -0.1179445069328E+00
-0.2363480369086E+00 -0.3298213862276E+01 -0.7069123903706E+00 -0.1386050701507E+00
-0.2486728307735E+00 -0.3270184210067E+01 -0.7037714186551E+00 -0.1594094091647E+00
-0.2638554740001E+00 -0.3238075770353E+01 -0.7003862593073E+00 -0.1803505141682E+00
-0.2809703622979E+00 -0.3201723390549E+01 -0.6965387609486E+00 -0.2013052031672E+00
-0.2989386131239E+00 -0.3160960344895E+01 -0.6919798019151E+00 -0.2220054781837E+00
-0.3164771776398E+00 -0.3115650560882E+01 -0.6864255579330E+00 -0.2420120706611E+00
-0.3320431139247E+00 -0.3065725066215E+01 -0.6795536461541E+00 -0.2606925614729E+00
-0.3437741162371E+00 -0.3011224874767E+01 -0.6709998081995E+00 -0.2772041999133E+00
-0.3494276624640E+00 -0.2952351855806E+01 -0.6603559134941E+00 -0.2904862574553E+00
-0.3463212043216E+00 -0.2889538649958E+01 -0.6471719804995E+00 -0.2992736661015E+00
-0.3312844946189E+00 -0.2823519361819E+01 -0.6309607806895E+00 -0.3021198606520E+00
-0.3006279987977E+00 -0.2755378645105E+01 -0.6112013378882E+00 -0.2974185461452E+00
-0.2501217518724E+00 -0.2686600481652E+01 -0.5873444554569E+00 -0.2834555668952E+00
-0.1749923707656E+00 -0.2619122613614E+01 -0.5588230052029E+00 -0.2585158154465E+00
-0.6995913550352E-01 -0.2555387041493E+01 -0.5250692432234E+00 -0.2210645830853E+00
 0.7065601228161E-01 -0.2498362708097E+01 -0.4855413463982E+00 -0.1700184446314E+00
 0.2526935768296E+00 -0.2451500377508E+01 -0.4397613666887E+00 -0.1051093945924E+00
 0.4817339144724E+00 -0.2418565732147E+01 -0.3873663693071E+00 -0.2732195586216E-01
 0.7624562657654E+00 -0.2403285095420E+01 -0.3281657708209E+00  0.6066429358911E-01
 0.1097766123851E+01 -0.2408786611680E+01 -0.2622041014730E+00  0.1541308902457E+00
 0.1487646956432E+01 -0.2436861487556E+01 -0.1898429090536E+00  0.2462336719945E+00
 0.1927898940875E+01 -0.2487103035348E+01 -0.1118408205612E+00  0.3284091162418E+00
 0.2409186905502E+01 -0.2556170481488E+01 -0.2939671563522E-01  0.3914327153420E+00
 0.2916850684175E+01 -0.2637556322493E+01  0.5585887316881E-01  0.4270458457309E+00
 0.3431860281868E+01 -0.2722165657686E+01  0.1419389269514E+00  0.4297284617483E+00
 0.3932729291300E+01 -0.2799595456454E+01  0.2266267703463E+00  0.3979419022625E+00
-0.7635379730588E+00 -0.3222105249898E+01 -0.7971286564695E+00  0.1414768864705E+00
-0.6877823013669E+00 -0.3254941334797E+01 -0.7885447389830E+00  0.1379285380055E+00
-0.6129498105040E+00 -0.3286232114272E+01 -0.7798363965757E+00  0.1294426325709E+00
-0.5412398319475E+00 -0.3314701422190E+01 -0.7711882623190E+00  0.1162884771798E+00
-0.4746632604878E+00 -0.3339265340844E+01 -0.7627857316327E+00  0.9914241594852E-01
-0.4147990644254E+00 -0.3359171918031E+01 -0.7547942077386E+00  0.7895029987187E-01
-0.3626814049308E+00 -0.3374041717962E+01 -0.7473446357149E+00  0.5673673485536E-01
-0.3188108338808E+00 -0.3383820938303E+01 -0.7405263654714E+00  0.3343445597128E-01
-0.2832462316799E+00 -0.3388685070833E+01 -0.7343862714457E+00  0.9775172918796E-02
-0.2557269879699E+00 -0.3388932597722E+01 -0.7289319280003E+00 -0.1375191833577E-01
-0.2357884228658E+00 -0.3384894699514E+01 -0.7241366352664E+00 -0.3688922972008E-01
-0.2228518569275E+00 -0.3376871324592E+01 -0.7199446470320E+00 -0.5956886634777E-01
-0.2162845220945E+00 -0.3365093150663E+01 -0.7162755452249E+00 -0.8185799785165E-01
-0.2154322662819E+00 -0.3349703961718E+01 -0.7130272562249E+00 -0.1039031868145E+00
-0.2196306017930E+00 -0.3330757166034E+01 -0.7100775641464E+00 -0.1258792923263E+00
-0.2281993830184E+00 -0.3308221385507E+01 -0.7072841642444E+00 -0.1479445261304E+00
-0.2404251499642E+00 -0.3281991781435E+01 -0.7044833967775E+00 -0.1702010615587E+00
-0.2555331244304E+00 -0.3251906461334E+01 -0.7014879276058E+00 -0.1926591191891E+00
-0.2726510573338E+00 -0.3217765968587E+01 -0.6980834155865E+00 -0.2152046036844E+00
-0.2907647965533E+00 -0.3179357758285E+01 -0.6940245213095E+00 -0.2375686257374E+00
-0.3086664191618E+00 -0.3136486502619E+01 -0.6890305946234E+00 -0.2592989989328E+00
-0.3248970342120E+00 -0.3089008617522E+01 -0.6827811405210E+00 -0.2797362813901E+00
-0.3376851767042E+00 -0.3036873257831E+01 -0.6749116969640E+00 -0.2979944292931E+00
-0.3448828507214E+00 -0.2980172084934E+01 -0.6650109970406E+00 -0.3129509681598E+00
-0.3439011519464E+00 -0.2919211383896E+01 -0.6526225168934E+00 -0.3232588367304E+00
-0.3316570521723E+00 -0.2854585316328E+01 -0.6372484831958E+00 -0.3273671840053E+00
-0.3045337555053E+00 -0.2787225621129E+01 -0.6183518845411E+00 -0.3235393918185E+00
-0.2583451966383E+00 -0.2718454572506E+01 -0.5953599627003E+00 -0.3099003958585E+00
-0.1883099296749E+00 -0.2650051457498E+01 -0.5676722858935E+00 -0.2845404924149E+00
-0.8905432585245E-01 -0.2584325559275E+01 -0.5346759849929E+00 -0.2456987889168E+00
 0.4531866087071E-01 -0.2524172456426E+01 -0.4957707664987E+00 -0.1920470904785E+00
 0.2210384234972E+00 -0.2473070981021E+01 -0.4504065182164E+00 -0.1230853675456E+00
 0.4442776951537E+00 -0.2434958581769E+01 -0.3981361832557E+00 -0.3963608805291E-01
 0.7205159524016E+00 -0.2413901723489E+01 -0.3386771592641E+00  0.5562830847196E-01
 0.1053612767345E+01 -0.2413523437793E+01 -0.2719821381425E+00  0.1577355226082E+00
 0.1444510325675E+01 -0.2436191419892E+01 -0.1983362217989E+00  0.2592216765682E+00
 0.1889720671411E+01 -0.2482004050931E+01 -0.1184566776691E+00  0.3504917882600E+00
 0.2380068887353E+01 -0.2547840847685E+01 -0.3355439256648E-01  0.4209696071156E+00
 0.2900270706154E+01 -0.2626948814882E+01  0.5466437906883E-01  0.4610051522669E+00
 0.3429924139960E+01 -0.2709528309315E+01  0.1440791682758E+00  0.4640589238515E+00
 0.3945803960307E+01 -0.2784269702193E+01  0.2323068550844E+00  0.4282046564457E+00
-0.7631237568519E+00 -0.3224582020398E+01 -0.7975411673343E+00  0.1541407317360E+00
-0.6854626799883E+00 -0.3258196999665E+01 -0.7887319476837E+00  0.1502571516071E+00
-0.6087401761138E+00 -0.3290178929849E+01 -0.7797838328123E+00  0.1409279942398E+00
-0.5353313878977E+00 -0.3319168990180E+01 -0.7709000871028E+00  0.1264618762428E+00
-0.4673879480667E+00 -0.3344037383068E+01 -0.7622850775859E+00  0.1076489582634E+00
-0.4065565682683E+00 -0.3364042281939E+01 -0.7541197812788E+00  0.8558478135734E-01
-0.3538622571743E+00 -0.3378865162065E+01 -0.7465454949723E+00  0.6143758150621E-01
-0.3097398369869E+00 -0.3388543380155E+01 -0.7396566544502E+00  0.3624947589058E-01
-0.2741544932228E+00 -0.3393350662163E+01 -0.7335010420073E+00  0.1081738022197E-01
-0.2467488599674E+00 -0.3393673527282E+01 -0.7280844882991E+00 -0.1434466275783E-01
-0.2269746243892E+00 -0.3389912167565E+01 -0.7233773691700E+00 -0.3898419470278E-01
-0.2141902874944E+00 -0.3382414634394E+01 -0.7193209950963E+00 -0.6305713398520E-01
-0.2077228292406E+00 -0.3371440959244E+01 -0.7158327683637E+00 -0.8666389807425E-01
-0.2068990144502E+00 -0.3357149130314E+01 -0.7128096395746E+00 -0.1099873056822E+00
-0.2110539587614E+00 -0.3339594958113E+01 -0.7101297939566E+00 -0.1332374780066E+00
-0.2195234354944E+00 -0.3318739935012E+01 -0.7076526846461E+00 -0.1566045223002E+00
-0.2316244563530E+00 -0.3294463529254E+01 -0.7052176076299E+00 -0.1802176263856E+00
-0.2466261552932E+00 -0.3266579295691E+01 -0.7026411006671E+00 -0.2041078556950E+00
-0.2637129364469E+00 -0.3234853191623E+01 -0.6997132360406E+00 -0.2281744329989E+00
-0.2819394237697E+00 -0.3199026215760E+01 -0.6961931382799E+00 -0.2521526061864E+00
-0.3001777021061E+00 -0.3158842492640E+01 -0.6918040492579E+00 -0.2755831779243E+00
-0.3170587054831E+00 -0.3114081570814E+01 -0.6862280654850E+00 -0.2977864773866E+00
-0.3309085384395E+00 -0.3064597164676E+01 -0.6791011507424E+00 -0.3178408082444E+00
-0.3396815473304E+00 -0.3010365379807E+01 -0.6700093954114E+00 -0.3345702883947E+00
-0.3408915832831E+00 -0.2951558664486E+01 -0.6584900593661E+00 -0.3465544548769E+00
-0.3315536593872E+00 -0.2888621048221E+01 -0.6440349511185E+00 -0.3521463581944E+00
-0.3081368265692E+00 -0.2822317338268E+01 -0.6260908422969E+00 -0.3494858106592E+00
-0.2665145709692E+00 -0.2753788950023E+01 -0.6040607131997E+00 -0.3365401193158E+00
-0.2019148522005E+00 -0.2684631516022E+01 -0.5773092822470E+00 -0.3112014541722E+00
-0.1088878189530E+00 -0.2616990634469E+01 -0.5451756988082E+00 -0.2714678713969E+00
 0.1867220681927E-01 -0.2553654360667E+01 -0.5069964383244E+00 -0.2157351641412E+00
 0.1873889397327E+00 -0.2498098373557E+01 -0.4621418936512E+00 -0.1432197852295E+00
 0.4040620535460E+00 -0.2454414067523E+01 -0.4100704089060E+00 -0.5451075686017E-01
 0.6750498640210E+00 -0.2427017005837E+01 -0.3503934335845E+00  0.4780931286360E-01
 0.1005298867430E+01 -0.2420073197353E+01 -0.2829548702010E+00  0.1585875901389E+00
 0.1396890790426E+01 -0.2436618142877E+01 -0.2079454735888E+00  0.2697701578293E+00
 0.1847241638425E+01 -0.2477373803881E+01 -0.1260264349692E+00  0.3706765485733E+00
 0.2347464944294E+01 -0.2539538891808E+01 -0.3841479007519E-01  0.4492171327076E+00
 0.2881619863648E+01 -0.2616121447504E+01  0.5309968402003E-01  0.4941130983482E+00
 0.3427705655652E+01 -0.2696493570346E+01  0.1462424192404E+00  0.4976164700963E+00
 0.3960512072582E+01 -0.2768300423402E+01  0.2384423333889E+00  0.4573921355029E+00
-0.7626768123932E+00 -0.3227322159723E+01 -0.7979998063144E+00  0.1671252121020E+00
-0.6829201820444E+00 -0.3261783689420E+01 -0.7889407860491E+00  0.1628898749819E+00
-0.6041150488662E+00 -0.3294506015227E+01 -0.7797242244374E+00  0.1526637133714E+00
-0.5288474202733E+00 -0.3324031864288E+01 -0.7705758683948E+00  0.1368031911026E+00
-0.4594325101369E+00 -0.3349180206432E+01 -0.7617225546643E+00  0.1162339139695E+00
-0.3975894880165E+00 -0.3369226463047E+01 -0.7533632014387E+00  0.9222476921022E-01
-0.3443241421584E+00 -0.3383928348550E+01 -0.7456505092527E+00  0.6610436775563E-01
-0.2999883261028E+00 -0.3393431510400E+01 -0.7386839783077E+00  0.3903081787565E-01
-0.2644360172134E+00 -0.3398122014289E+01 -0.7325116172158E+00  0.1186427831645E-01
-0.2371992388366E+00 -0.3398483535802E+01 -0.7271365657629E+00 -0.1486330380506E-01
-0.2176369568675E+00 -0.3394989730063E+01 -0.7225253481525E+00 -0.4091314945709E-01
-0.2050399487095E+00 -0.3388037932142E+01 -0.7186155868784E+00 -0.6627298340088E-01
-0.1986930350458E+00 -0.3377916958136E+01 -0.7153220092956E+00 -0.9108298373806E-01
-0.1979038542618E+00 -0.3364797852265E+01 -0.7125403519229E+00 -0.1155671961839E+00
-0.2020081326519E+00 -0.3348737811363E+01 -0.7101491993850E+00 -0.1399748243556E+00
-0.2103591574260E+00 -0.3329690634153E+01 -0.7080099688660E+00 -0.1645310917680E+00
-0.2223064148851E+00 -0.3307520023760E+01 -0.7059652982486E+00 -0.1893953642765E+00
-0.2371653768385E+00 -0.3282015256219E+01 -0.7038361370995E+00 -0.2146231122770E+00
-0.2541800693260E+00 -0.3252908073002E+01 -0.7014176389175E+00 -0.2401311569158E+00
-0.2724775550955E+00 -0.3219893177190E+01 -0.6984741568652E+00 -0.2656640780052E+00
-0.2910144062022E+00 -0.3182653771652E+01 -0.6947336459232E+00 -0.2907618622398E+00
-0.3085167535267E+00 -0.3140891306603E+01 -0.6898816223060E+00 -0.3147318214029E+00
-0.3234146139820E+00 -0.3094361596616E+01 -0.6835552523054E+00 -0.3366248270427E+00
-0.3337721631932E+00 -0.3042921036610E+01 -0.6753386500239E+00 -0.3552207385244E+00
-0.3372149444846E+00 -0.2986601949481E+01 -0.6647633886989E+00 -0.3690354099652E+00
-0.3308670063847E+00 -0.2925689104050E+01 -0.6513112317922E+00 -0.3763355303599E+00
-0.3112972015319E+00 -0.2860767048439E+01 -0.6344128594476E+00 -0.3751461841151E+00
-0.2744562126528E+00 -0.2792777086464E+01 -0.6134466689645E+00 -0.3632829769022E+00
-0.2156025799674E+00 -0.2723104477755E+01 -0.5877414203026E+00 -0.3384394274083E+00
-0.1292328624773E+00 -0.2653696444076E+01 -0.5565858696045E+00 -0.2983604396580E+00
-0.9051470669360E-02 -0.2587192680432E+01 -0.5192488379577E+00 -0.2411358872931E+00
 0.1519550136898E+00 -0.2527024619810E+01 -0.4750139283023E+00 -0.1656452280408E+00
 0.3612384467348E+00 -0.2477407746359E+01 -0.4232338662315E+00 -0.7216506465647E-01
 0.6261106673615E+00 -0.2443104502478E+01 -0.3633987724384E+00  0.3690932439026E-01
 0.9527459527886E+00 -0.2428866806072E+01 -0.2952241750559E+00  0.1563389153885E+00
 0.1344572420554E+01 -0.2438495965835E+01 -0.2187847123163E+00  0.2775310373658E+00
 0.1800147457704E+01 -0.2473478376739E+01 -0.1346661858138E+00  0.3886766299003E+00
 0.2311054178521E+01 -0.2531466602506E+01 -0.4408248545382E-01  0.4759941589936E+00
 0.2860685452926E+01 -0.2605262254165E+01  0.5108464051346E-01  0.5262800236867E+00
 0.3425153072508E+01 -0.2683254060267E+01  0.1483798046591E+00  0.5303241799016E+00
 0.3976943696909E+01 -0.2751852014038E+01  0.2450183402253E+00  0.4854019970056E+00
-0.7621972456740E+00 -0.3230352412728E+01 -0.7985099435792E+00  0.1804588370935E+00
-0.6801403689005E+00 -0.3265730775754E+01 -0.7891742406905E+00  0.1758516611963E+00
-0.5990452414280E+00 -0.3299241144605E+01 -0.7796572888243E+00  0.1646632890925E+00
-0.5217509707488E+00 -0.3329309125231E+01 -0.7702120306731E+00  0.1473096769498E+00
-0.4507622667983E+00 -0.3354697345024E+01 -0.7610919337057E+00  0.1248790326684E+00
-0.3878739670447E+00 -0.3374708621579E+01 -0.7525165289382E+00  0.9884184932812E-01
-0.3340585842450E+00 -0.3389196115475E+01 -0.7446509510402E+00  0.7070571593736E-01
-0.2895637294387E+00 -0.3398433834980E+01 -0.7375995238749E+00  0.4175065592962E-01
-0.2541119577910E+00 -0.3402935567165E+01 -0.7314095158901E+00  0.1289610906343E-01
-0.2271096782027E+00 -0.3403291108634E+01 -0.7260801681867E+00 -0.1531714646475E-01
-0.2078140234457E+00 -0.3400051076824E+01 -0.7215730308062E+00 -0.4267416605848E-01
-0.1954436818203E+00 -0.3393662112023E+01 -0.7178211694651E+00 -0.6920339381610E-01
-0.1892400748444E+00 -0.3384440250185E+01 -0.7147360756564E+00 -0.9509163283382E-01
-0.1884922209493E+00 -0.3372567772350E+01 -0.7122120092726E+00 -0.1206091113347E+00
-0.1925377956027E+00 -0.3358101929527E+01 -0.7101279556077E+00 -0.1460477352591E+00
-0.2007492923927E+00 -0.3340988272113E+01 -0.7083475234563E+00 -0.1716708113882E+00
-0.2125105664851E+00 -0.3321074955129E+01 -0.7067171148538E+00 -0.1976708261335E+00
-0.2271855848634E+00 -0.3298127772314E+01 -0.7050626819416E+00 -0.2241310804421E+00
-0.2440805889641E+00 -0.3271845333686E+01 -0.7031851950083E+00 -0.2509902562571E+00
-0.2623983110684E+00 -0.3241877076543E+01 -0.7008550879659E+00 -0.2780075707246E+00
-0.2811838373376E+00 -0.3207845906070E+01 -0.6978059590796E+00 -0.3047286286107E+00
-0.2992634087636E+00 -0.3169375060255E+01 -0.6937277041411E+00 -0.3304553057788E+00
-0.3151768339240E+00 -0.3126121233804E+01 -0.6882596238014E+00 -0.3542197938430E+00
-0.3271051565781E+00 -0.3077818311149E+01 -0.6809847036928E+00 -0.3747676157241E+00
-0.3327941978041E+00 -0.3024353621379E+01 -0.6714295738418E+00 -0.3905617860770E+00
-0.3294879706112E+00 -0.2965844918129E+01 -0.6590665875689E+00 -0.3997939928011E+00
-0.3138696521238E+00 -0.2902684267712E+01 -0.6433107935532E+00 -0.4003857340128E+00
-0.2819864945461E+00 -0.2835594017691E+01 -0.6235161117384E+00 -0.3900099227562E+00
-0.2291523656762E+00 -0.2765721357157E+01 -0.5989747534921E+00 -0.3661646613480E+00
-0.1498390235971E+00 -0.2694777114172E+01 -0.5689232360314E+00 -0.3263335212169E+00
-0.3758893306989E-01 -0.2625205038235E+01 -0.5325588021967E+00 -0.2682734036699E+00
 0.1149844528583E+00 -0.2560340341759E+01 -0.4890711850678E+00 -0.1904728863379E+00
 0.3159980112910E+00 -0.2504478346287E+01 -0.4376960735214E+00 -0.9281050210318E-01
 0.5737841495279E+00 -0.2462711232597E+01 -0.3777854222432E+00  0.2261903894801E-01
 0.8958911457729E+00 -0.2440410525016E+01 -0.3089038804516E+00  0.1506097684365E+00
 0.1287327167892E+01 -0.2442245546208E+01 -0.2309836791051E+00  0.2821097154162E+00
 0.1748080764255E+01 -0.2470630611528E+01 -0.1445099716079E+00  0.4041573900319E+00
 0.2270456354905E+01 -0.2523850485006E+01 -0.5067882677541E-01  0.5010911379556E+00
 0.2837216846441E+01 -0.2594580737904E+01  0.4852722243056E-01  0.5574170146629E+00
 0.3422215745659E+01 -0.2670039165660E+01  0.1504353182413E+00  0.5621016506692E+00
 0.3995162744877E+01 -0.2735108930468E+01  0.2520107666371E+00  0.5121063937333E+00
-0.7616852490526E+00 -0.3233706117186E+01 -0.7990782851550E+00  0.1941717212067E+00
-0.6771056042452E+00 -0.3270074765242E+01 -0.7894360856610E+00  0.1891681684771E+00
-0.5934954787365E+00 -0.3304418604758E+01 -0.7795828283157E+00  0.1769383015986E+00
-0.5139981637017E+00 -0.3335024062178E+01 -0.7698044566470E+00  0.1579734379966E+00
-0.4413370822910E+00 -0.3360593039734E+01 -0.7603860357356E+00  0.1335585587317E+00
-0.3773834858314E+00 -0.3380470022043E+01 -0.7515707127742E+00  0.1053994180854E+00
-0.3230573477738E+00 -0.3394627655295E+01 -0.7435370116934E+00  0.7520289280129E-01
-0.2784759282612E+00 -0.3403491702672E+01 -0.7363935371598E+00  0.4437547722797E-01
-0.2432072136569E+00 -0.3407720191033E+01 -0.7301854918187E+00  0.1388922520853E-01
-0.2165159960679E+00 -0.3408017450660E+01 -0.7249067001476E+00 -0.1571791021094E-01
-0.1975487282699E+00 -0.3405013196759E+01 -0.7205123957422E+00 -0.4426674601992E-01
-0.1854484502074E+00 -0.3399201933750E+01 -0.7169300874745E+00 -0.7183624880835E-01
-0.1794127973960E+00 -0.3390924181323E+01 -0.7140674063843E+00 -0.9866693963592E-01
-0.1787133271525E+00 -0.3380370890124E+01 -0.7118168540621E+00 -0.1250800223536E+00
-0.1826913740832E+00 -0.3367597701635E+01 -0.7100578257243E+00 -0.1514133865047E+00
-0.1907404275619E+00 -0.3352541391958E+01 -0.7086563744638E+00 -0.1779710156819E+00
-0.2022804709850E+00 -0.3335035113182E+01 -0.7074631273754E+00 -0.2049811369602E+00
-0.2167258133830E+00 -0.3314822548580E+01 -0.7063096829174E+00 -0.2325580876117E+00
-0.2334470794723E+00 -0.3291571038759E+01 -0.7050036341517E+00 -0.2606665840873E+00
-0.2517254175551E+00 -0.3264886726208E+01 -0.7033224392330E+00 -0.2890858380784E+00
-0.2706979513026E+00 -0.3234333919441E+01 -0.7010063845945E+00 -0.3173736931636E+00
-0.2892954316217E+00 -0.3199458736676E+01 -0.6977508440568E+00 -0.3448344864044E+00
-0.3061727981871E+00 -0.3159818884732E+01 -0.6931983469134E+00 -0.3704909519366E+00
-0.3196344291704E+00 -0.3115024452428E+01 -0.6869317865558E+00 -0.3930649093601E+00
-0.3275544614118E+00 -0.3064814560634E+01 -0.6784738145193E+00 -0.4109784634313E+00
-0.3273074569034E+00 -0.3009133905160E+01 -0.6672882823561E+00 -0.4223613120516E+00
-0.3157056545334E+00 -0.2948171424831E+01 -0.6527754255999E+00 -0.4250449684796E+00
-0.2889135936535E+00 -0.2882412694802E+01 -0.6342652671423E+00 -0.4165721326376E+00
-0.2423284856755E+00 -0.2812738886337E+01 -0.6110134835072E+00 -0.3942532343798E+00
-0.1704322404247E+00 -0.2740583771038E+01 -0.5822032109680E+00 -0.3553075013433E+00
-0.6664329929821E-01 -0.2668141085451E+01 -0.5469568851001E+00 -0.2971364637224E+00
 0.7676752786491E-01 -0.2598586221752E+01 -0.5043637462931E+00 -0.2177856479005E+00
 0.2685790515779E+00 -0.2536233236029E+01 -0.4535308436484E+00 -0.1166448110800E+00
 0.5181987534959E+00 -0.2486467643056E+01 -0.3936537837779E+00  0.4621095075296E-02
 0.8346963789731E+00 -0.2455299315763E+01 -0.3241205921878E+00  0.1409873552259E+00
 0.1224920328741E+01 -0.2448368662227E+01 -0.2446896703432E+00  0.2830579152433E+00
 0.1690638185539E+01 -0.2469202726882E+01 -0.1557129105889E+00  0.4167235869776E+00
 0.2225216628533E+01 -0.2516943349709E+01 -0.5834534510468E-01  0.5242579807292E+00
 0.2810913157744E+01 -0.2584299617746E+01  0.4532270867493E-01  0.5874410713734E+00
 0.3418861597062E+01 -0.2657124095097E+01  0.1523475026633E+00  0.5928743041167E+00
 0.4015186044741E+01 -0.2718272336630E+01  0.2593827454873E+00  0.5373310679683E+00
-0.7611411008771E+00 -0.3237424738470E+01 -0.7997131797862E+00  0.2082959504603E+00
-0.6737942663506E+00 -0.3274860913055E+01 -0.7897310476491E+00  0.2028658439041E+00
-0.5874230581081E+00 -0.3310080521660E+01 -0.7795007275691E+00  0.1894977934844E+00
-0.5055369585580E+00 -0.3341204773435E+01 -0.7693483578628E+00  0.1687801071570E+00
-0.4311107341408E+00 -0.3366871950355E+01 -0.7595965482181E+00  0.1422376351300E+00
-0.3660889525227E+00 -0.3386488072846E+01 -0.7505154162573E+00  0.1118513114819E+00
-0.3113130206641E+00 -0.3400175291300E+01 -0.7422976734539E+00  0.7954894788306E-01
-0.2667380111188E+00 -0.3408538186351E+01 -0.7350552504471E+00  0.4686574385349E-01
-0.2317511088529E+00 -0.3412396377262E+01 -0.7288295080833E+00  0.1481612511162E-01
-0.2054587669714E+00 -0.3412576031106E+01 -0.7236069703980E+00 -0.1607950938213E-01
-0.1868885666121E+00 -0.3409786223035E+01 -0.7193349686483E+00 -0.4569156627067E-01
-0.1751054683742E+00 -0.3404566077903E+01 -0.7159343199237E+00 -0.7416014051037E-01
-0.1692639916171E+00 -0.3397276516117E+01 -0.7133081121760E+00 -0.1017866216835E+00
-0.1686201453901E+00 -0.3388113779450E+01 -0.7113467955678E+00 -0.1289476424038E+00
-0.1725210379448E+00 -0.3377129903375E+01 -0.7099301988427E+00 -0.1560298636518E+00
-0.1803830327203E+00 -0.3364252421175E+01 -0.7089271013429E+00 -0.1833800375369E+00
-0.1916638333676E+00 -0.3349300399250E+01 -0.7081928570764E+00 -0.2112643226192E+00
-0.2058295799876E+00 -0.3331997412394E+01 -0.7075654090198E+00 -0.2398309885530E+00
-0.2223169675719E+00 -0.3311982236338E+01 -0.7068598513151E+00 -0.2690747963421E+00
-0.2404877667501E+00 -0.3288820703859E+01 -0.7058617046399E+00 -0.2988002992994E+00
-0.2595741070820E+00 -0.3262021383148E+01 -0.7043191085411E+00 -0.3285843322984E+00
-0.2786150843570E+00 -0.3231055656593E+01 -0.7019341586496E+00 -0.3577418470340E+00
-0.2963854976286E+00 -0.3195383832099E+01 -0.6983538763518E+00 -0.3852957385453E+00
-0.3113188285070E+00 -0.3154492584090E+01 -0.6931622928483E+00 -0.4099553797237E+00
-0.3214248093442E+00 -0.3107971496698E+01 -0.6858792714289E+00 -0.4301149016969E+00
-0.3242184738813E+00 -0.3055588228524E+01 -0.6759613505537E+00 -0.4438566452294E+00
-0.3166556488181E+00 -0.2997320039850E+01 -0.6627951476100E+00 -0.4489382901457E+00
-0.2950397166602E+00 -0.2933399670286E+01 -0.6456878870107E+00 -0.4427885888298E+00
-0.2548820224710E+00 -0.2864415006425E+01 -0.6238594150754E+00 -0.4225432526916E+00
-0.1907154871155E+00 -0.2791480465880E+01 -0.5964391994868E+00 -0.3851606196700E+00
-0.9588285420320E-01 -0.2716479940560E+01 -0.5624725673342E+00 -0.3276711675964E+00
 0.3764148622920E-01 -0.2642353465198E+01 -0.5209424035565E+00 -0.2476296250816E+00
 0.2192752431739E+00 -0.2573353577254E+01 -0.4708156738318E+00 -0.1438438365853E+00
 0.4595371419535E+00 -0.2515098340305E+01 -0.4111122457963E+00 -0.1740445463210E-01
 0.7691599657238E+00 -0.2474233004570E+01 -0.3410146128509E+00  0.1270252446494E+00
 0.1157119311961E+01 -0.2457465276078E+01 -0.2600691966987E+00  0.2798671615824E+00
 0.1627369947163E+01 -0.2469646522573E+01 -0.1684553175923E+00  0.4259042511658E+00
 0.2174787667373E+01 -0.2511029848103E+01 -0.6724843714804E-01  0.5451832344751E+00
 0.2781393903168E+01 -0.2574637026833E+01  0.4135137588311E-01  0.6162762857487E+00
 0.3415121470740E+01 -0.2644830529506E+01  0.1540581905425E+00  0.6226030027962E+00
 0.4036921199191E+01 -0.2701553834793E+01  0.2670734768594E+00  0.5608094902669E+00
-0.7605651402461E+00 -0.3241559791417E+01 -0.8004249982599E+00  0.2228660305983E+00
-0.6701797228907E+00 -0.3280145216816E+01 -0.7900649997142E+00  0.2169719863596E+00
-0.5807761673863E+00 -0.3316278440002E+01 -0.7794109330917E+00  0.2023474170461E+00
-0.4963056739697E+00 -0.3347884759258E+01 -0.7688380981021E+00  0.1797071334586E+00
-0.4200302830672E+00 -0.3373538611557E+01 -0.7587137902305E+00  0.1508703418375E+00
-0.3539589709486E+00 -0.3392734999334E+01 -0.7493388052226E+00  0.1181402333068E+00
-0.2988198294034E+00 -0.3405782922609E+01 -0.7409205614430E+00  0.8368783500048E-01
-0.2543672173287E+00 -0.3413496749346E+01 -0.7335728042661E+00  0.4917565989064E-01
-0.2197781835887E+00 -0.3416875337659E+01 -0.7273307150876E+00  0.1564563620266E-01
-0.1939838522674E+00 -0.3416872127170E+01 -0.7221712066488E+00 -0.1641769610960E-01
-0.1758859052739E+00 -0.3414273327737E+01 -0.7180318573016E+00 -0.4695012291169E-01
-0.1644702963296E+00 -0.3409657272010E+01 -0.7148255243196E+00 -0.7616411014580E-01
-0.1588503692484E+00 -0.3403399688713E+01 -0.7124500222086E+00 -0.1044288962934E+00
-0.1582693454571E+00 -0.3395697880859E+01 -0.7107934558549E+00 -0.1321804464855E+00
-0.1620826475162E+00 -0.3386597966304E+01 -0.7097361333400E+00 -0.1598563180049E+00
-0.1697314627183E+00 -0.3376017864164E+01 -0.7091498759437E+00 -0.1878474866370E+00
-0.1807126006093E+00 -0.3363763892893E+01 -0.7088953092639E+00 -0.2164596932382E+00
-0.1945451108136E+00 -0.3349542206922E+01 -0.7088174741092E+00 -0.2458776322313E+00
-0.2107329042667E+00 -0.3332966629651E+01 -0.7087399173446E+00 -0.2761298764260E+00
-0.2287199799057E+00 -0.3313566757360E+01 -0.7084573580100E+00 -0.3070515927896E+00
-0.2478358343490E+00 -0.3290799507613E+01 -0.7077270789383E+00 -0.3382454352662E+00
-0.2672311322079E+00 -0.3264065282779E+01 -0.7062592935214E+00 -0.3690453175347E+00
-0.2858045870772E+00 -0.3232730132031E+01 -0.7037069543076E+00 -0.3984842244928E+00
-0.3021237372734E+00 -0.3196159500195E+01 -0.6996566579194E+00 -0.4252708491309E+00
-0.3143402144382E+00 -0.3153794211828E+01 -0.6936268955890E+00 -0.4477851681280E+00
-0.3201184377489E+00 -0.3105223323194E+01 -0.6850683623968E+00 -0.4640783259758E+00
-0.3165716449756E+00 -0.3050206505342E+01 -0.6733556400973E+00 -0.4718528735764E+00
-0.3001638272256E+00 -0.2988710164632E+01 -0.6577748081731E+00 -0.4684438766417E+00
-0.2665533202255E+00 -0.2921003444874E+01 -0.6375113625195E+00 -0.4508310924506E+00
-0.2103702433533E+00 -0.2847838858758E+01 -0.6116418295364E+00 -0.4157231635954E+00
-0.1249404066283E+00 -0.2770726141960E+01 -0.5791333183474E+00 -0.3597728175335E+00
-0.2005326646569E-02 -0.2692282857490E+01 -0.5388576448570E+00 -0.2800040190557E+00
 0.1684445401752E+00 -0.2616598685121E+01 -0.4896308362853E+00 -0.1745508734664E+00
 0.3980492241931E+00 -0.2549433649920E+01 -0.4302768915570E+00 -0.4377215764627E-01
 0.6993330766680E+00 -0.2498034383113E+01 -0.3597402666495E+00  0.1082457705667E+00
 0.1083701108925E+01 -0.2470257751195E+01 -0.2773113325864E+00  0.2719591376737E+00
 0.1557793691297E+01 -0.2472507679166E+01 -0.1829428002998E+00  0.4311465675572E+00
 0.2118498396929E+01 -0.2506476555745E+01 -0.7759563291962E-01  0.5634467465102E+00
 0.2748164875287E+01 -0.2565720111637E+01  0.3648895327370E-01  0.6438601245062E+00
 0.3411115897806E+01 -0.2633601985486E+01  0.1555027847813E+00  0.6513128949726E+00
 0.4060186409219E+01 -0.2684967895785E+01  0.2750437067851E+00  0.5821586527388E+00
-0.7599577284528E+00 -0.3246175287352E+01 -0.8012266151002E+00  0.2379194289570E+00
-0.6662289935449E+00 -0.3285996874818E+01 -0.7904451854511E+00  0.2315147701742E+00
-0.5734917793123E+00 -0.3323075228227E+01 -0.7793134131205E+00  0.2154882595750E+00
-0.4862312574175E+00 -0.3355103445358E+01 -0.7682669520032E+00  0.1907215480952E+00
-0.4080355016538E+00 -0.3380596521117E+01 -0.7577264158452E+00  0.1593972936020E+00
-0.3409603698788E+00 -0.3399176033951E+01 -0.7480272919124E+00  0.1241959763587E+00
-0.2855747527194E+00 -0.3411384069002E+01 -0.7393917753622E+00  0.8755356392102E-01
-0.2413860988711E+00 -0.3418279679177E+01 -0.7319331665163E+00  0.5125310408977E-01
-0.2073290930537E+00 -0.3421058027917E+01 -0.7256774350076E+00  0.1634329570497E-01
-0.1821429493150E+00 -0.3420802394769E+01 -0.7205890795544E+00 -0.1674953657221E-01
-0.1645982284338E+00 -0.3418370694410E+01 -0.7165937952469E+00 -0.4804425948399E-01
-0.1536028745012E+00 -0.3414372511581E+01 -0.7135950878499E+00 -0.7783732148311E-01
-0.1482324799722E+00 -0.3409191149863E+01 -0.7114847365689E+00 -0.1065723281534E+00
-0.1477211640136E+00 -0.3403019886261E+01 -0.7101482206369E+00 -0.1347476912776E+00
-0.1514356356042E+00 -0.3395896335934E+01 -0.7094664048795E+00 -0.1628531457438E+00
-0.1588438988195E+00 -0.3387728581533E+01 -0.7093145066401E+00 -0.1913245720765E+00
-0.1694830027737E+00 -0.3378312003750E+01 -0.7095590118779E+00 -0.2205082918261E+00
-0.1829255169594E+00 -0.3367338766434E+01 -0.7100528672593E+00 -0.2506274155982E+00
-0.1987431070243E+00 -0.3354402326283E+01 -0.7106290972506E+00 -0.2817477688521E+00
-0.2164629408203E+00 -0.3339001279636E+01 -0.7110928546873E+00 -0.3137402611391E+00
-0.2355135828026E+00 -0.3320546295176E+01 -0.7112119861936E+00 -0.3462402117843E+00
-0.2551598399801E+00 -0.3298371998762E+01 -0.7107063783388E+00 -0.3786089750339E+00
-0.2744276749202E+00 -0.3271754953227E+01 -0.7092365361979E+00 -0.4098997721180E+00
-0.2920227157012E+00 -0.3239943477817E+01 -0.7063932492298E+00 -0.4388327556522E+00
-0.3062436059680E+00 -0.3202232716471E+01 -0.7016952749439E+00 -0.4637882800114E+00
-0.3149116883414E+00 -0.3158034305098E+01 -0.6945892090380E+00 -0.4828038171010E+00
-0.3153101872118E+00 -0.3106887604946E+01 -0.6844395686306E+00 -0.4935479467187E+00
-0.3040849352818E+00 -0.3048482629134E+01 -0.6705135228746E+00 -0.4932863735981E+00
-0.2770752590093E+00 -0.2982747436450E+01 -0.6519645488069E+00 -0.4788679128658E+00
-0.2290590324246E+00 -0.2910031600319E+01 -0.6278181359039E+00 -0.4467716035181E+00
-0.1534138436259E+00 -0.2831403878743E+01 -0.5969635533693E+00 -0.3932770768450E+00
-0.4173019518533E-01 -0.2749061948597E+01 -0.5581584370737E+00 -0.3148492985756E+00
 0.1165179211621E+00 -0.2666809120644E+01 -0.5100582474968E+00 -0.2088632784573E+00
 0.3340677622281E+00 -0.2590421281686E+01 -0.4512707106161E+00 -0.7477944064377E-01
 0.6253364718687E+00 -0.2527670750148E+01 -0.3804668613253E+00  0.8414426730148E-01
 0.1004476833187E+01 -0.2487617138965E+01 -0.2966280655756E+00  0.2586821139135E+00
 0.1481365651880E+01 -0.2478460267799E+01 -0.1994189261553E+00  0.4317858824824E+00
 0.2055669706215E+01 -0.2503724083376E+01 -0.8961087676746E-01  0.5785583821741E+00
 0.2710223989099E+01 -0.2557791146311E+01  0.3048656901190E-01  0.6698723771513E+00
 0.3407811773416E+01 -0.2623305710286E+01  0.1569012149640E+00  0.6796308291801E+00
 0.4082998491320E+01 -0.2669469573215E+01  0.2827057878336E+00  0.6000347778056E+00
-0.7593166662218E+00 -0.3251350213203E+01 -0.8021333878377E+00  0.2534976447218E+00
-0.6618995310425E+00 -0.3292501962632E+01 -0.7908803105200E+00  0.2465251035126E+00
-0.5654901740718E+00 -0.3330548326472E+01 -0.7792077117198E+00  0.2289178054108E+00
-0.4752233274023E+00 -0.3362908415761E+01 -0.7676263600712E+00  0.2017802254599E+00
-0.3950530506850E+00 -0.3388049085726E+01 -0.7566204385567E+00  0.1677458142809E+00
-0.3270525026718E+00 -0.3405769631239E+01 -0.7465644379068E+00  0.1299361487584E+00
-0.2715714424505E+00 -0.3416902057725E+01 -0.7376947110277E+00  0.9107152254776E-01
-0.2278156715054E+00 -0.3422788704076E+01 -0.7301208859959E+00  0.5304119775138E-01
-0.1944428624532E+00 -0.3424836365625E+01 -0.7238558564020E+00  0.1687275117129E-01
-0.1699850116209E+00 -0.3424256753815E+01 -0.7188483637988E+00 -0.1709244700476E-01
-0.1530788251794E+00 -0.3421970205931E+01 -0.7150098168765E+00 -0.4897573872039E-01
-0.1425575272675E+00 -0.3418606843287E+01 -0.7122328847239E+00 -0.7916915969441E-01
-0.1374639949878E+00 -0.3414548710932E+01 -0.7104025517699E+00 -0.1081964108465E+00
-0.1370278568369E+00 -0.3409979265775E+01 -0.7094014350933E+00 -0.1366204494166E+00
-0.1406304670101E+00 -0.3404924938738E+01 -0.7091110917162E+00 -0.1649834878523E+00
-0.1477686333715E+00 -0.3399284074323E+01 -0.7094105521099E+00 -0.1937661386019E+00
-0.1580204898522E+00 -0.3392843560636E+01 -0.7101728206800E+00 -0.2233556049805E+00
-0.1710122503866E+00 -0.3385285903226E+01 -0.7112596413212E+00 -0.2540148840446E+00
-0.1863832766682E+00 -0.3376189915669E+01 -0.7125146490848E+00 -0.2858501753384E+00
-0.2037442347289E+00 -0.3365029756688E+01 -0.7137548089191E+00 -0.3187731571520E+00
-0.2226239202559E+00 -0.3351176697746E+01 -0.7147601342512E+00 -0.3524587499895E+00
-0.2424034121707E+00 -0.3333906324954E+01 -0.7152619580831E+00 -0.3863044363887E+00
-0.2622388059931E+00 -0.3312412138103E+01 -0.7149301994725E+00 -0.4193940839051E+00
-0.2809772096936E+00 -0.3285831319236E+01 -0.7133617164159E+00 -0.4504718050860E+00
-0.2970684199176E+00 -0.3253318652261E+01 -0.7100774250168E+00 -0.4779335064752E+00
-0.3084969902312E+00 -0.3214112244860E+01 -0.7045218575163E+00 -0.4998217660716E+00
-0.3127274698706E+00 -0.3167531654175E+01 -0.6960518351810E+00 -0.5137946965622E+00
-0.3066081040904E+00 -0.3112984062627E+01 -0.6839184435348E+00 -0.5170769771996E+00
-0.2861940385758E+00 -0.3050037664771E+01 -0.6672463506121E+00 -0.5064178589455E+00
-0.2464653475427E+00 -0.2978600376341E+01 -0.6450131543881E+00 -0.4780963415962E+00
-0.1809296931915E+00 -0.2899231651993E+01 -0.6160322782165E+00 -0.4280364886979E+00
-0.8112744438670E-01 -0.2813602027412E+01 -0.5789459029868E+00 -0.3521307509811E+00
 0.6387704885253E-01 -0.2725080821477E+01 -0.5322407624558E+00 -0.2469204176155E+00
 0.2678520264713E+00 -0.2639291429778E+01 -0.4742878877287E+00 -0.1107955691060E+00
 0.5471736190268E+00 -0.2564401062688E+01 -0.4034454947441E+00  0.5410411902629E-01
 0.9190598564574E+00 -0.2510683151891E+01 -0.3183246638301E+00  0.2392370804174E+00
 0.1397294480253E+01 -0.2488384414704E+01 -0.2182179901418E+00  0.4270030948398E+00
 0.1985153560067E+01 -0.2503337519056E+01 -0.1036367933421E+00  0.5899274517303E+00
 0.2667009018812E+01 -0.2551199959717E+01  0.2316181216401E-01  0.6939373263624E+00
 0.3402338116924E+01 -0.2613699775479E+01  0.1577276706392E+00  0.7080247028936E+00
 0.4120351306064E+01 -0.2655213267976E+01  0.2930276119840E+00  0.6125581025644E+00
-0.7586471952683E+00 -0.3257184834643E+01 -0.8031664179503E+00  0.2696465576352E+00
-0.6571424002008E+00 -0.3299767400361E+01 -0.7913819719049E+00  0.2620330951443E+00
-0.5566800217714E+00 -0.3338791199182E+01 -0.7790942558002E+00  0.2426228287847E+00
-0.4631820621653E+00 -0.3371352673558E+01 -0.7669069585726E+00  0.2128201920071E+00
-0.3810087250032E+00 -0.3395893192985E+01 -0.7553803948537E+00  0.1758203330985E+00
-0.3122030398701E+00 -0.3412459108949E+01 -0.7449324408641E+00  0.1352585971979E+00
-0.2568181134389E+00 -0.3422241564151E+01 -0.7358119464824E+00  0.9415359120119E-01
-0.2136941592978E+00 -0.3426907456106E+01 -0.7281203339305E+00  0.5447583590662E-01
-0.1811758418730E+00 -0.3428086726080E+01 -0.7218525243471E+00  0.1719513384421E-01
-0.1575752712275E+00 -0.3427112381111E+01 -0.7169375411509E+00 -0.1746346961608E-01
-0.1413960408641E+00 -0.3424953028696E+01 -0.7132698245405E+00 -0.4974446696846E-01
-0.1314027624380E+00 -0.3422245415764E+01 -0.7107296462312E+00 -0.8014653563060E-01
-0.1266124569635E+00 -0.3419359767469E+01 -0.7091944554543E+00 -0.1092779597473E+00
-0.1262558495123E+00 -0.3416463202089E+01 -0.7085438208784E+00 -0.1377670027996E+00
-0.1297326638454E+00 -0.3413568183052E+01 -0.7086601799392E+00 -0.1662074419410E+00
-0.1365704387782E+00 -0.3410563710125E+01 -0.7094268403519E+00 -0.1951234089361E+00
-0.1463888679597E+00 -0.3407231216114E+01 -0.7107240274053E+00 -0.2249424185859E+00
-0.1588673289261E+00 -0.3403248743662E+01 -0.7124232251335E+00 -0.2559681261364E+00
-0.1737120551659E+00 -0.3398187314052E+01 -0.7143798844887E+00 -0.2883497286456E+00
-0.1906167145513E+00 -0.3391504571601E+01 -0.7164242679060E+00 -0.3220444318872E+00
-0.2092107165579E+00 -0.3382540774202E+01 -0.7183503088562E+00 -0.3567736412278E+00
-0.2289928395631E+00 -0.3370520858714E+01 -0.7199027503827E+00 -0.3919797320959E+00
-0.2492514541420E+00 -0.3354563502396E+01 -0.7207630020478E+00 -0.4267877311538E+00
-0.2689775064367E+00 -0.3333702879342E+01 -0.7205360878925E+00 -0.4599783443590E+00
-0.2867745439564E+00 -0.3306961393052E+01 -0.7187471981118E+00 -0.4899785583725E+00
-0.3007945359560E+00 -0.3273410879440E+01 -0.7148410937311E+00 -0.5148557926035E+00
-0.3086923266883E+00 -0.3232155856768E+01 -0.7081696472437E+00 -0.5322833054205E+00
-0.3075369974869E+00 -0.3182319496567E+01 -0.6979713092113E+00 -0.5394770305231E+00
-0.2936332613864E+00 -0.3123097455825E+01 -0.6833461536250E+00 -0.5331247513960E+00
-0.2622194283423E+00 -0.3053923360878E+01 -0.6632285677270E+00 -0.5093457737207E+00
-0.2070189219786E+00 -0.2974782601854E+01 -0.6363603142491E+00 -0.4637422279845E+00
-0.1196412563981E+00 -0.2886707029007E+01 -0.6012696660406E+00 -0.3916416954856E+00
 0.1111620920944E-01 -0.2792463725722E+01 -0.5562695115917E+00 -0.2886982992466E+00
 0.1999314687666E+00 -0.2697309379432E+01 -0.4994755895759E+00 -0.1520670590378E+00
 0.4651428407457E+00 -0.2609604861963E+01 -0.4288924106345E+00  0.1755190904230E-01
 0.8273316130477E+00 -0.2540776770511E+01 -0.3426890365991E+00  0.2127568393542E+00
 0.1304913500009E+01 -0.2503358627975E+01 -0.2396890291648E+00  0.4158226261066E+00
 0.1905934843026E+01 -0.2506037937142E+01 -0.1200206206116E+00  0.5966884965053E+00
 0.2617207230774E+01 -0.2546461671279E+01  0.1414911210984E-01  0.7158569754325E+00
 0.3395189240883E+01 -0.2604804435594E+01  0.1580769634132E+00  0.7347438119308E+00
 0.4167884010919E+01 -0.2643973899867E+01  0.3047820267520E+00  0.6273576991492E+00
-0.7579464127245E+00 -0.3263802244688E+01 -0.8043497434683E+00  0.2864168839881E+00
-0.6518913805567E+00 -0.3307923994490E+01 -0.7919630868106E+00  0.2780667016619E+00
-0.5469448188283E+00 -0.3347914228933E+01 -0.7789718211599E+00  0.2565746991249E+00
-0.4499878994674E+00 -0.3380492402408E+01 -0.7660960717908E+00  0.2237521147029E+00
-0.3658213166559E+00 -0.3404114549819E+01 -0.7539871845304E+00  0.1834967764389E+00
-0.2963852110593E+00 -0.3419167591439E+01 -0.7431105715728E+00  0.1400382884179E+00
-0.2413364906566E+00 -0.3427284845317E+01 -0.7337242781281E+00  0.9669738934670E-01
-0.1990764737142E+00 -0.3430499627296E+01 -0.7259152310191E+00  0.5548626314538E-01
-0.1676012417142E+00 -0.3430669821013E+01 -0.7196542232691E+00  0.1726988612247E-01
-0.1449948009488E+00 -0.3429234790006E+01 -0.7148459288430E+00 -0.1787893742896E-01
-0.1296329928848E+00 -0.3427191392746E+01 -0.7113648877262E+00 -0.5034907025295E-01
-0.1202212733962E+00 -0.3425165596652E+01 -0.7090773845756E+00 -0.8075559842549E-01
-0.1157596665493E+00 -0.3423503517450E+01 -0.7078526473477E+00 -0.1097941037695E+00
-0.1154865787326E+00 -0.3422348757512E+01 -0.7075670777926E+00 -0.1381572344144E+00
-0.1188241624710E+00 -0.3421696963365E+01 -0.7081042357189E+00 -0.1664879781351E+00
-0.1253325065686E+00 -0.3421428461487E+01 -0.7093522041812E+00 -0.1953515541942E+00
-0.1346729015132E+00 -0.3421322801367E+01 -0.7111991511737E+00 -0.2252141701538E+00
-0.1465766962051E+00 -0.3421059553142E+01 -0.7135272605019E+00 -0.2564200131503E+00
-0.1608152419773E+00 -0.3420209879589E+01 -0.7162050349855E+00 -0.2891631803232E+00
-0.1771636590329E+00 -0.3418224198490E+01 -0.7190775822198E+00 -0.3234506660975E+00
-0.1953512999857E+00 -0.3414421722027E+01 -0.7219546151606E+00 -0.3590569712073E+00
-0.2149950757213E+00 -0.3407986863126E+01 -0.7245963985668E+00 -0.3954779801216E+00
-0.2355167084979E+00 -0.3397973636402E+01 -0.7266980798086E+00 -0.4318902132026E+00
-0.2560518766150E+00 -0.3383323633120E+01 -0.7278751127932E+00 -0.4671233500730E+00
-0.2753582912292E+00 -0.3362937792274E+01 -0.7276592275437E+00 -0.4996508370934E+00
-0.2917565353502E+00 -0.3335732814199E+01 -0.7254978807206E+00 -0.5275850279920E+00
-0.3030970590099E+00 -0.3300608114159E+01 -0.7207410453736E+00 -0.5486413720184E+00
-0.3066842769880E+00 -0.3256408490960E+01 -0.7126185642085E+00 -0.5600625868501E+00
-0.2991026703718E+00 -0.3201953107454E+01 -0.7002111659991E+00 -0.5585193004977E+00
-0.2759030694017E+00 -0.3136178947327E+01 -0.6824164135145E+00 -0.5400225127901E+00
-0.2311136928602E+00 -0.3058442353392E+01 -0.6579112190541E+00 -0.4999044207829E+00
-0.1565475512281E+00 -0.2969028576380E+01 -0.6251152348365E+00 -0.4329628443673E+00
-0.4091437799429E-01 -0.2869920724182E+01 -0.5821670291101E+00 -0.3339450491123E+00
 0.1311846397215E+00 -0.2765749037106E+01 -0.5269128873285E+00 -0.1986320647755E+00
 0.3799630309951E+00 -0.2664780227870E+01 -0.4569634461843E+00 -0.2595069789242E-01
 0.7295886300169E+00 -0.2579429388400E+01 -0.3699681571895E+00  0.1783870602254E+00
 0.1203896673197E+01 -0.2524694117948E+01 -0.2641594928865E+00  0.3971230649359E+00
 0.1817058601204E+01 -0.2512789155640E+01 -0.1391461129607E+00  0.5978414614670E+00
 0.2559730721964E+01 -0.2544070647594E+01  0.3132014920542E-02  0.7348047979068E+00
 0.3386480564672E+01 -0.2598043494467E+01  0.1576874163908E+00  0.7602142145469E+00
 0.4218596633965E+01 -0.2633933982101E+01  0.3169325350954E+00  0.6416399923542E+00
-0.7572130577136E+00 -0.3271357948240E+01 -0.8057142131967E+00  0.3038668044810E+00
-0.6460634198635E+00 -0.3317135490004E+01 -0.7926397937847E+00  0.2946553171616E+00
-0.5361415838776E+00 -0.3358052051339E+01 -0.7788387386490E+00  0.2707309577443E+00
-0.4354994962613E+00 -0.3390390422748E+01 -0.7651779952040E+00  0.2344612280958E+00
-0.3494006255007E+00 -0.3412688268689E+01 -0.7524177900499E+00  0.1906249725168E+00
-0.2795741453754E+00 -0.3425798082407E+01 -0.7410744565994E+00  0.1441318932844E+00
-0.2251549472750E+00 -0.3431892999096E+01 -0.7314096001731E+00  0.9859201122543E-01
-0.1840236943573E+00 -0.3433411825653E+01 -0.7234871147829E+00  0.5600052066160E-01
-0.1537953758601E+00 -0.3432434881692E+01 -0.7172460621981E+00  0.1705899577001E-01
-0.1323241895935E+00 -0.3430483124121E+01 -0.7125614733609E+00 -0.1835171155028E-01
-0.1178691901062E+00 -0.3428555189703E+01 -0.7092848865311E+00 -0.5078545080940E-01
-0.1090897299095E+00 -0.3427245518435E+01 -0.7072670602081E+00 -0.8098132253647E-01
-0.1049796150316E+00 -0.3426862470883E+01 -0.7063684277086E+00 -0.1097226421775E+00
-0.1047923550927E+00 -0.3427518653956E+01 -0.7064622123368E+00 -0.1377635960998E+00
-0.1079767888306E+00 -0.3429190253206E+01 -0.7074334189489E+00 -0.1657924902642E+00
-0.1141271817936E+00 -0.3431750057027E+01 -0.7091754583316E+00 -0.1944119466772E+00
-0.1229459844252E+00 -0.3434979962172E+01 -0.7115851999228E+00 -0.2241241795239E+00
-0.1342146082258E+00 -0.3438567947231E+01 -0.7145565217392E+00 -0.2553128580832E+00
-0.1477668508835E+00 -0.3442094434102E+01 -0.7179722676958E+00 -0.2882181348683E+00
-0.1634567206830E+00 -0.3445013389145E+01 -0.7216940327197E+00 -0.3229005570329E+00
-0.1811118973250E+00 -0.3446634652492E+01 -0.7255493207749E+00 -0.3591941117147E+00
-0.2004670964155E+00 -0.3446114032814E+01 -0.7293162367136E+00 -0.3966567528036E+00
-0.2210777712437E+00 -0.3442452897035E+01 -0.7327061445740E+00 -0.4345267101738E+00
-0.2422241862123E+00 -0.3434512775257E+01 -0.7353474032514E+00 -0.4716947001451E+00
-0.2628168024480E+00 -0.3421086694176E+01 -0.7367807103036E+00 -0.5066956298259E+00
-0.2813432213204E+00 -0.3400950878805E+01 -0.7364588309991E+00 -0.5377068466390E+00
-0.2958511923098E+00 -0.3372814415856E+01 -0.7337331325667E+00 -0.5625139019396E+00
-0.3038908109132E+00 -0.3335256049078E+01 -0.7278293828438E+00 -0.5784242616817E+00
-0.3023522049878E+00 -0.3286723624888E+01 -0.7178151766714E+00 -0.5821408217829E+00
-0.2871494338578E+00 -0.3225647021597E+01 -0.7025593015600E+00 -0.5696275318184E+00
-0.2527045470733E+00 -0.3150712006142E+01 -0.6806833207860E+00 -0.5360166271888E+00
-0.1911788593326E+00 -0.3061359260401E+01 -0.6505076336401E+00 -0.4756410973511E+00
-0.9140749484236E-01 -0.2958600405378E+01 -0.6100015891339E+00 -0.3823634779736E+00
 0.6246835011740E-01 -0.2846137261564E+01 -0.5567337905853E+00 -0.2504936432767E+00
 0.2923369094398E+00 -0.2731756795481E+01 -0.4878839844783E+00 -0.7685600778313E-01
 0.6260704148653E+00 -0.2628554682388E+01 -0.4004968594724E+00  0.1351653232810E+00
 0.1093721573053E+01 -0.2554075537575E+01 -0.2920707972566E+00  0.3695981135135E+00
 0.1717243568979E+01 -0.2524775393746E+01 -0.1615063673601E+00  0.5921339336278E+00
 0.2493156155851E+01 -0.2544888087551E+01 -0.1034638649423E-01  0.7500724491936E+00
 0.3375027739218E+01 -0.2594090327774E+01  0.1561874846163E+00  0.7845223023454E+00
 0.4273435744418E+01 -0.2626498440884E+01  0.3293874656150E+00  0.6549712129918E+00
-0.7564443018630E+00 -0.3280048339101E+01 -0.8072985402225E+00  0.3220631259929E+00
-0.6395516577679E+00 -0.3327606429826E+01 -0.7934316293418E+00  0.3118262569122E+00
-0.5240932445067E+00 -0.3369365933656E+01 -0.7786918472360E+00  0.2850255412186E+00
-0.4195518686892E+00 -0.3401111295151E+01 -0.7641326441545E+00  0.2447949204914E+00
-0.3316521470283E+00 -0.3421569182395E+01 -0.7506442770702E+00  0.1970188733048E+00
-0.2617553965515E+00 -0.3432223323909E+01 -0.7387957551011E+00  0.1473726603069E+00
-0.2083179938735E+00 -0.3435898074856E+01 -0.7288432246065E+00  0.9971660745201E-01
-0.1686121870473E+00 -0.3435468380336E+01 -0.7208161242177E+00  0.5594594560091E-01
-0.1398462860353E+00 -0.3433216359193E+01 -0.7146125396941E+00  0.1652815186997E-01
-0.1196520185164E+00 -0.3430707708861E+01 -0.7100719560564E+00 -0.1888991264520E-01
-0.1061892364573E+00 -0.3428909479409E+01 -0.7070197537087E+00 -0.5104552445024E-01
-0.9808800054649E-01 -0.3428360798072E+01 -0.7052897702334E+00 -0.8080620825997E-01
-0.9434845645187E-01 -0.3429317699170E+01 -0.7047332416258E+00 -0.1090406268992E+00
-0.9424729316350E-01 -0.3431854349613E+01 -0.7052203390639E+00 -0.1365594851627E+00
-0.9726435280562E-01 -0.3435925240539E+01 -0.7066379291986E+00 -0.1640908691934E+00
-0.1030294288325E+00 -0.3441397313845E+01 -0.7088853590987E+00 -0.1922698054558E+00
-0.1112851733711E+00 -0.3448059718822E+01 -0.7118689890463E+00 -0.2216306917550E+00
-0.1218603908324E+00 -0.3455616599923E+01 -0.7154954088129E+00 -0.2525946009448E+00
-0.1346476619570E+00 -0.3463667948480E+01 -0.7196631328112E+00 -0.2854480119160E+00
-0.1495761916957E+00 -0.3471683614615E+01 -0.7242519720544E+00 -0.3203081613479E+00
-0.1665693161733E+00 -0.3478977578437E+01 -0.7291093897867E+00 -0.3570746211867E+00
-0.1854784367577E+00 -0.3484690887291E+01 -0.7340338757477E+00 -0.3953759095980E+00
-0.2059924992817E+00 -0.3487786178664E+01 -0.7387557465974E+00 -0.4345220398710E+00
-0.2275352720145E+00 -0.3487059485881E+01 -0.7429189626494E+00 -0.4734763620907E+00
-0.2491667050853E+00 -0.3481211998720E+01 -0.7460757518784E+00 -0.5108495402039E+00
-0.2695367918375E+00 -0.3468897551776E+01 -0.7476868798640E+00 -0.5449034469616E+00
-0.2868881813321E+00 -0.3448654537144E+01 -0.7471085548280E+00 -0.5735218303889E+00
-0.2990220442391E+00 -0.3418814995858E+01 -0.7435674190995E+00 -0.5941163402412E+00
-0.3031542667870E+00 -0.3377470894517E+01 -0.7361250432299E+00 -0.6034753586019E+00
-0.2956065766306E+00 -0.3322549118727E+01 -0.7236311498544E+00 -0.5975854254054E+00
-0.2712792028063E+00 -0.3252042250657E+01 -0.7046643011929E+00 -0.5714660270164E+00
-0.2228302984643E+00 -0.3164467940210E+01 -0.6774596578298E+00 -0.5190824943112E+00
-0.1394607752172E+00 -0.3059686331599E+01 -0.6398294308974E+00 -0.4334867137435E+00
-0.5187882465883E-02 -0.2940137854911E+01 -0.5890651562532E+00 -0.3074844634926E+00
 0.2032109865317E+00 -0.2812638708512E+01 -0.5218855521728E+00 -0.1355067808245E+00
 0.5172602955131E+00 -0.2690471816963E+01 -0.4346423107666E+00  0.8209998733832E-01
 0.9739782796407E+00 -0.2593629414989E+01 -0.3239302318966E+00  0.3317260906969E+00
 0.1605066691677E+01 -0.2543561257714E+01 -0.1876989160044E+00  0.5780102423998E+00
 0.2415636077683E+01 -0.2549928628440E+01 -0.2685851055158E-01  0.7607664961400E+00
 0.3359498493683E+01 -0.2593677080703E+01  0.1531642848784E+00  0.8076738830340E+00
 0.4333214300020E+01 -0.2622328630732E+01  0.3421771389565E+00  0.6670120582028E+00
-0.7556346423920E+00 -0.3290123361767E+01 -0.8091516128891E+00  0.3410834613986E+00
-0.6322171962258E+00 -0.3339593461306E+01 -0.7943621433433E+00  0.3296021340201E+00
-0.5105797494695E+00 -0.3382047868806E+01 -0.7785255352561E+00  0.2993587510666E+00
-0.4019540645899E+00 -0.3412715942114E+01 -0.7629340127094E+00  0.2545510330084E+00
-0.3124812134825E+00 -0.3430681482002E+01 -0.7486325502524E+00  0.2024495360088E+00
-0.2429311618502E+00 -0.3438276333690E+01 -0.7362415100788E+00  0.1495693575419E+00
-0.1908911766635E+00 -0.3439097349192E+01 -0.7259977159894E+00  0.9994288935390E-01
-0.1529362453535E+00 -0.3436469121376E+01 -0.7178810840431E+00  0.5525257203977E-01
-0.1258546295088E+00 -0.3432833847686E+01 -0.7117377060446E+00  0.1564961812858E-01
-0.1070747653090E+00 -0.3429750953213E+01 -0.7073651542450E+00 -0.1949493745148E-01
-0.9468229828060E-01 -0.3428115710332E+01 -0.7045596122213E+00 -0.5111601884405E-01
-0.8729847647957E-01 -0.3428385782917E+01 -0.7031368623569E+00 -0.8020965565469E-01
-0.8394382005736E-01 -0.3430750004844E+01 -0.7029387754550E+00 -0.1077241426162E+00
-0.8392666492894E-01 -0.3435237113844E+01 -0.7038327662424E+00 -0.1345193230932E+00
-0.8676206390513E-01 -0.3441778315373E+01 -0.7057080863715E+00 -0.1613558275221E+00
-0.9211632782386E-01 -0.3450237040349E+01 -0.7084706841915E+00 -0.1888947556062E+00
-0.9977079737689E-01 -0.3460415261067E+01 -0.7120372222990E+00 -0.2176976842150E+00
-0.1095982150267E+00 -0.3472041869134E+01 -0.7163280275063E+00 -0.2482198804796E+00
-0.1215452267413E+00 -0.3484747900189E+01 -0.7212586361337E+00 -0.2807933782673E+00
-0.1356112911493E+00 -0.3498033043447E+01 -0.7267288777483E+00 -0.3155944469575E+00
-0.1518115327469E+00 -0.3511230928490E+01 -0.7326085031641E+00 -0.3525939525943E+00
-0.1701120744813E+00 -0.3523483787879E+01 -0.7387191834797E+00 -0.3914994143846E+00
-0.1903346016866E+00 -0.3533731432731E+01 -0.7448132179820E+00 -0.4317025901716E+00
-0.2120445425208E+00 -0.3540720930159E+01 -0.7505531057201E+00 -0.4722504952607E+00
-0.2344462885903E+00 -0.3543080025995E+01 -0.7555052741750E+00 -0.5118428330413E+00
-0.2563444092021E+00 -0.3539361407705E+01 -0.7591411746935E+00 -0.5488444953840E+00
-0.2761695899477E+00 -0.3527957039483E+01 -0.7608253372233E+00 -0.5812649554194E+00
-0.2919738806841E+00 -0.3506978665417E+01 -0.7597905205419E+00 -0.6066598074630E+00
-0.3013120216657E+00 -0.3474188772321E+01 -0.7551001700491E+00 -0.6219581921510E+00
-0.3009489436958E+00 -0.3427032200503E+01 -0.7455962399499E+00 -0.6232449088410E+00
-0.2863375049139E+00 -0.3362810043622E+01 -0.7298295205824E+00 -0.6055288157090E+00
-0.2507760963105E+00 -0.3279068777975E+01 -0.7059689853768E+00 -0.5625370644041E+00
-0.1840881161775E+00 -0.3174362569242E+01 -0.6716901470929E+00 -0.4866449964912E+00
-0.7057353480185E-01 -0.3049527313464E+01 -0.6240201789518E+00 -0.3692106972908E+00
 0.1138205573408E+00 -0.2909817132911E+01 -0.5591993234468E+00 -0.2020644272476E+00
 0.4039735166691E+00 -0.2767976753924E+01 -0.4728006544962E+00  0.1822283490365E-01
 0.8444581897398E+00 -0.2646059815127E+01 -0.3603203304466E+00  0.2817645206421E+00
 0.1478971493117E+01 -0.2571200155712E+01 -0.2184457357741E+00  0.5535234515427E+00
 0.2324835797448E+01 -0.2560436850830E+01 -0.4712021137862E-01  0.7656760823565E+00
 0.3338281431079E+01 -0.2597560815255E+01  0.1481441253724E+00  0.8295101352509E+00
 0.4398812743372E+01 -0.2622069483241E+01  0.3553486573212E+00  0.6774793675254E+00
-0.7547740853003E+00 -0.3301904093174E+01 -0.8113356477848E+00  0.3610190066621E+00
-0.6238774994096E+00 -0.3353420372934E+01 -0.7954595863220E+00  0.3479963075560E+00
-0.4953268348149E+00 -0.3396324302243E+01 -0.7783302390096E+00  0.3135825664481E+00
-0.3824879390950E+00 -0.3425252247226E+01 -0.7615480486122E+00  0.2634624851877E+00
-0.2917999489903E+00 -0.3439903995647E+01 -0.7463408000488E+00  0.2066375599848E+00
-0.2231286680776E+00 -0.3443738606454E+01 -0.7333734658345E+00  0.1505067434738E+00
-0.1729667827549E+00 -0.3441247241079E+01 -0.7228428155380E+00  0.9913943226958E-01
-0.1371106500587E+00 -0.3436187719141E+01 -0.7146596844891E+00  0.5385772120606E-01
-0.1119341901625E+00 -0.3431092699116E+01 -0.7086053884147E+00  0.1440567295595E-01
-0.9469634370589E-01 -0.3427448789251E+01 -0.7044290370883E+00 -0.2015927569990E-01
-0.8344130066285E-01 -0.3426033303014E+01 -0.7018949311944E+00 -0.5097723681418E-01
-0.7680520767487E-01 -0.3427195033993E+01 -0.7008000587763E+00 -0.7916736233268E-01
-0.7384399061507E-01 -0.3431041252735E+01 -0.7009770591154E+00 -0.1057481233251E+00
-0.7390615081089E-01 -0.3437549225833E+01 -0.7022910857937E+00 -0.1316186665116E+00
-0.7654585415950E-01 -0.3446626171731E+01 -0.7046344156779E+00 -0.1575632502684E+00
-0.8146647365770E-01 -0.3458135064941E+01 -0.7079203182687E+00 -0.1842614143857E+00
-0.8848595829209E-01 -0.3471896893783E+01 -0.7120765810257E+00 -0.2122957162523E+00
-0.9751675470392E-01 -0.3487674599029E+01 -0.7170382814312E+00 -0.2421511834436E+00
-0.1085537616733E+00 -0.3505142817633E+01 -0.7227393266309E+00 -0.2742034081474E+00
-0.1216603640251E+00 -0.3523846686330E+01 -0.7291014209356E+00 -0.3086890237250E+00
-0.1369382206832E+00 -0.3543157180455E+01 -0.7360190911951E+00 -0.3456553702134E+00
-0.1544652672828E+00 -0.3562236026716E+01 -0.7433402698764E+00 -0.3848973643807E+00
-0.1741947764179E+00 -0.3580018248860E+01 -0.7508426162441E+00 -0.4258984554931E+00
-0.1958314823038E+00 -0.3595220368554E+01 -0.7582103814698E+00 -0.4677997701651E+00
-0.2187175403125E+00 -0.3606417098011E+01 -0.7650269390645E+00 -0.5094020624840E+00
-0.2418010254375E+00 -0.3612083916966E+01 -0.7707769999661E+00 -0.5491902082748E+00
-0.2636890996775E+00 -0.3610494733335E+01 -0.7748367781485E+00 -0.5853255912708E+00
-0.2826784993738E+00 -0.3599574056590E+01 -0.7764505227628E+00 -0.6155465538377E+00
-0.2966679830732E+00 -0.3576792401445E+01 -0.7746920884474E+00 -0.6369782077419E+00
-0.3028900089073E+00 -0.3539151887921E+01 -0.7684083908158E+00 -0.6458820878772E+00
-0.2974092983184E+00 -0.3483292841957E+01 -0.7561404393225E+00 -0.6373693246085E+00
-0.2742922321678E+00 -0.3405783922514E+01 -0.7360152419039E+00 -0.6050875028657E+00
-0.2242411346788E+00 -0.3303766260672E+01 -0.7056014895844E+00 -0.5409334666027E+00
-0.1323006407151E+00 -0.3176150879229E+01 -0.6616903138488E+00 -0.4349875093820E+00
 0.2573193288583E-01 -0.3025962854322E+01 -0.6000461932286E+00 -0.2764141039106E+00
 0.2874630317968E+00 -0.2864416206541E+01 -0.5153906426287E+00 -0.5732155580335E-01
 0.7052862377196E+00 -0.2714812300862E+01 -0.4019052186173E+00  0.2177639033585E+00
 0.1337316129200E+01 -0.2610417935867E+01 -0.2546203651276E+00  0.5162265783367E+00
 0.2217859061708E+01 -0.2578010395910E+01 -0.7203026791369E-01  0.7630982230714E+00
 0.3309321454248E+01 -0.2606645654765E+01  0.1405351619908E+00  0.8496808389724E+00
 0.4471213780189E+01 -0.2626514602595E+01  0.3689398410164E+00  0.6861355620037E+00
-0.7538451496274E+00 -0.3315807673084E+01 -0.8139305766709E+00  0.3819780988062E+00
-0.6142898314509E+00 -0.3369498200178E+01 -0.7967576181984E+00  0.3670050207462E+00
-0.4779920205482E+00 -0.3412458394397E+01 -0.7780900945835E+00  0.3274789567707E+00
-0.3609092993321E+00 -0.3438739180122E+01 -0.7599297072147E+00  0.2711772977579E+00
-0.2695383727287E+00 -0.3449049558788E+01 -0.7437175973856E+00  0.2092457269301E+00
-0.2024111561517E+00 -0.3448325867055E+01 -0.7301474155213E+00  0.1499486851572E+00
-0.1546701475254E+00 -0.3442057404173E+01 -0.7193455210588E+00  0.9717839993961E-01
-0.1212728231203E+00 -0.3434371062703E+01 -0.7111287877614E+00  0.5171191895286E-01
-0.9821180203551E-01 -0.3427785578014E+01 -0.7051994865182E+00  0.1279255587294E-01
-0.8262718127175E-01 -0.3423632746287E+01 -0.7012519959613E+00 -0.2086421278211E-01
-0.7256181487444E-01 -0.3422521625585E+01 -0.6990166985081E+00 -0.5060184735938E-01
-0.6669283988911E-01 -0.3424665049111E+01 -0.6982715882051E+00 -0.7765078363811E-01
-0.6412695518317E-01 -0.3430075856090E+01 -0.6988405726681E+00 -0.1030862256367E+00
-0.6426098950100E-01 -0.3438675289280E+01 -0.7005872661957E+00 -0.1278343573788E+00
-0.6669160791085E-01 -0.3450347019019E+01 -0.7034077358675E+00 -0.1526925684958E+00
-0.7115927234824E-01 -0.3464957392186E+01 -0.7072233434452E+00 -0.1783499933885E+00
-0.7751590883016E-01 -0.3482353146387E+01 -0.7119738216527E+00 -0.2054028057423E+00
-0.8570870386160E-01 -0.3502341128045E+01 -0.7176099770746E+00 -0.2343600574154E+00
-0.9577390076769E-01 -0.3524653054882E+01 -0.7240854019197E+00 -0.2656374684474E+00
-0.1078309664662E+00 -0.3548896754171E+01 -0.7313455550253E+00 -0.2995320660800E+00
-0.1220612076184E+00 -0.3574500646875E+01 -0.7393123819153E+00 -0.3361720988631E+00
-0.1386503427417E+00 -0.3600666996890E+01 -0.7478634790703E+00 -0.3754482478123E+00
-0.1576817853869E+00 -0.3626346491555E+01 -0.7568056666656E+00 -0.4169457708899E+00
-0.1789970444631E+00 -0.3650245384552E+01 -0.7658484972150E+00 -0.4599098675018E+00
-0.2020679968664E+00 -0.3670907392928E+01 -0.7745950895012E+00 -0.5032529206454E+00
-0.2259719419672E+00 -0.3686756731620E+01 -0.7825457463783E+00 -0.5455948007552E+00
-0.2494761896445E+00 -0.3695980838277E+01 -0.7890914173427E+00 -0.5852728885082E+00
-0.2711098578702E+00 -0.3696355821305E+01 -0.7934931476591E+00 -0.6202447581482E+00
-0.2891125069462E+00 -0.3685108309006E+01 -0.7948441750344E+00 -0.6478842456615E+00
-0.3011955471461E+00 -0.3658855952529E+01 -0.7920103117368E+00 -0.6647069273352E+00
-0.3040747448416E+00 -0.3613641451600E+01 -0.7835432509640E+00 -0.6660439404880E+00
-0.2926852828679E+00 -0.3545100686502E+01 -0.7675572053115E+00 -0.6456440082536E+00
-0.2588430041059E+00 -0.3448926342699E+01 -0.7415538804109E+00 -0.5951846977099E+00
-0.1888250897285E+00 -0.3321852579784E+01 -0.7021355443652E+00 -0.5037698924682E+00
-0.5912756261854E-01 -0.3163987096974E+01 -0.6446229415242E+00 -0.3580433349599E+00
 0.1695417070368E+00 -0.2983748715989E+01 -0.5628414101774E+00 -0.1451364975754E+00
 0.5571104392400E+00 -0.2804277781615E+01 -0.4494334751721E+00  0.1376239580182E+00
 0.1178487367928E+01 -0.2664888488267E+01 -0.2972802284976E+00  0.4630494296684E+00
 0.2091147860331E+01 -0.2604815244481E+01 -0.1027334783608E+00  0.7506207746514E+00
 0.3269888799104E+01 -0.2622100886879E+01  0.1295575843754E+00  0.8675846201956E+00
 0.4551552643793E+01 -0.2636673582585E+01  0.3829758179485E+00  0.6927695192831E+00
-0.7528178740293E+00 -0.3332383460218E+01 -0.8170402790244E+00  0.4040907624473E+00
-0.6031273098102E+00 -0.3388352245277E+01 -0.7982959229130E+00  0.3865937806452E+00
-0.4581476078508E+00 -0.3430748536504E+01 -0.7777792404609E+00  0.3407276197994E+00
-0.3369536371332E+00 -0.3453140594127E+01 -0.7580188575473E+00  0.2772331399047E+00
-0.2456614644987E+00 -0.3457836602359E+01 -0.7406996244088E+00  0.2098734023491E+00
-0.1808917580586E+00 -0.3451671704101E+01 -0.7265127032578E+00  0.1476455534759E+00
-0.1361660829620E+00 -0.3441185939726E+01 -0.7154704151990E+00  0.9394535348827E-01
-0.1055841134006E+00 -0.3430740294831E+01 -0.7072648921853E+00  0.4878615550716E-01
-0.8482645071467E-01 -0.3422695206760E+01 -0.7015043419481E+00  0.1082476999782E-01
-0.7098274945523E-01 -0.3418132734864E+01 -0.6978231072623E+00 -0.2157754247451E-01
-0.6214061443162E-01 -0.3417442373821E+01 -0.6959166080206E+00 -0.4995378210159E-01
-0.5704535330915E-01 -0.3420676217191E+01 -0.6955443244645E+00 -0.7562669958883E-01
-0.5486932494874E-01 -0.3427742403377E+01 -0.6965223560441E+00 -0.9971078126471E-01
-0.5506503647955E-01 -0.3438503648942E+01 -0.6987137474959E+00 -0.1231447202930E+00
-0.5727430643101E-01 -0.3452821891076E+01 -0.7020192499624E+00 -0.1467271528187E+00
-0.6127413769896E-01 -0.3470571479941E+01 -0.7063691340537E+00 -0.1711469043332E+00
-0.6694730189140E-01 -0.3491632050179E+01 -0.7117158810194E+00 -0.1970053132267E+00
-0.7427013443602E-01 -0.3515864524327E+01 -0.7180269424521E+00 -0.2248283679362E+00
-0.8331227907575E-01 -0.3543071837229E+01 -0.7252768340683E+00 -0.2550668227173E+00
-0.9423981192148E-01 -0.3572943274631E+01 -0.7334366282396E+00 -0.2880764454333E+00
-0.1073048527485E+00 -0.3604987434804E+01 -0.7424584685740E+00 -0.3240697430437E+00
-0.1227954558685E+00 -0.3638471421228E+01 -0.7522533866287E+00 -0.3630414635331E+00
-0.1409234914699E+00 -0.3672384931717E+01 -0.7626616960020E+00 -0.4046892446547E+00
-0.1616649424805E+00 -0.3705446166885E+01 -0.7734222333981E+00 -0.4483721101050E+00
-0.1846123879084E+00 -0.3736191055389E+01 -0.7841607003444E+00 -0.4931232161541E+00
-0.2089550243670E+00 -0.3763019526264E+01 -0.7943949219637E+00 -0.5377101894839E+00
-0.2335993309912E+00 -0.3784066013901E+01 -0.8035330809519E+00 -0.5806677136893E+00
-0.2572886150024E+00 -0.3797001389511E+01 -0.8108580129854E+00 -0.6202053714826E+00
-0.2785917634249E+00 -0.3798865791278E+01 -0.8154915230923E+00 -0.6539934455166E+00
-0.2956968723011E+00 -0.3785968923115E+01 -0.8163331712476E+00 -0.6788731694586E+00
-0.3059861791365E+00 -0.3753852836499E+01 -0.8119678152263E+00 -0.6905107221242E+00
-0.3053268098885E+00 -0.3697324930439E+01 -0.8005303599944E+00 -0.6829476695001E+00
-0.2868360350205E+00 -0.3610688870325E+01 -0.7795049926847E+00 -0.6479510560252E+00
-0.2384927142362E+00 -0.3488373808939E+01 -0.7453733157419E+00 -0.5740856260262E+00
-0.1384654459492E+00 -0.3326952984127E+01 -0.6930836963431E+00 -0.4458951468560E+00
 0.5271150784698E-01 -0.3130569653417E+01 -0.6155716382868E+00 -0.2453662654680E+00
 0.4013658340695E+00 -0.2920033241371E+01 -0.5037334889665E+00  0.3922704490893E-01
 0.1001114185501E+01 -0.2739637800913E+01 -0.3477047282636E+00  0.3901827755586E+00
 0.1940370086989E+01 -0.2643921548829E+01 -0.1407102944649E+00  0.7248240169206E+00
 0.3216255095243E+01 -0.2645506338483E+01  0.1141497530529E+00  0.8822317469622E+00
 0.4641178131028E+01 -0.2653847475406E+01  0.3974661370471E+00  0.6971819568370E+00
-0.7516413666434E+00 -0.3352366809848E+01 -0.8208016475291E+00  0.4275144428549E+00
-0.5899438464994E+00 -0.3410658430025E+01 -0.8001204672276E+00  0.4066735453893E+00
-0.4352610484888E+00 -0.3451518555496E+01 -0.7773559323804E+00  0.3528576988878E+00
-0.3103502374769E+00 -0.3468322675493E+01 -0.7557345938554E+00  0.2810260411376E+00
-0.2201945177524E+00 -0.3465851006269E+01 -0.7372091157895E+00  0.2080556589158E+00
-0.1587501476990E+00 -0.3453310303852E+01 -0.7224121010750E+00  0.1433481358314E+00
-0.1176645150930E+00 -0.3438237219225E+01 -0.7111803574610E+00  0.8935269508546E-01
-0.9022960529039E-01 -0.3424994212402E+01 -0.7030447740146E+00  0.4508027991560E-01
-0.7192731993894E-01 -0.3415598507814E+01 -0.6975051759441E+00  0.8539482492814E-02
-0.5988148392097E-01 -0.3410780578697E+01 -0.6941324228669E+00 -0.2225144932071E-01
-0.5227389291642E-01 -0.3410662346399E+01 -0.6925872581834E+00 -0.4898732678199E-01
-0.4794461325694E-01 -0.3415114981928E+01 -0.6926119293577E+00 -0.7305693674778E-01
-0.4614514654886E-01 -0.3423935403744E+01 -0.6940161204002E+00 -0.9559285193287E-01
-0.4638974479721E-01 -0.3436927889916E+01 -0.6966635373236E+00 -0.1175298147046E+00
-0.4836709824854E-01 -0.3453936037170E+01 -0.7004606375215E+00 -0.1396547232755E+00
-0.5188959387846E-01 -0.3474847627019E+01 -0.7053474546900E+00 -0.1626453543356E+00
-0.5686730620964E-01 -0.3499582584694E+01 -0.7112899887798E+00 -0.1870988094851E+00
-0.6329967271446E-01 -0.3528066072535E+01 -0.7182731597531E+00 -0.2135495724222E+00
-0.7128090807038E-01 -0.3560186631710E+01 -0.7262935187787E+00 -0.2424764405286E+00
-0.8101253855109E-01 -0.3595735037301E+01 -0.7353495261280E+00 -0.2742900937939E+00
-0.9280633021723E-01 -0.3634325625372E+01 -0.7454264022256E+00 -0.3092890328681E+00
-0.1070453346899E+00 -0.3675318621508E+01 -0.7564728025118E+00 -0.3475801632791E+00
-0.1240678988594E+00 -0.3717769791298E+01 -0.7683675494811E+00 -0.3889849095228E+00
-0.1439828751362E+00 -0.3760433750925E+01 -0.7808833368482E+00 -0.4329861794905E+00
-0.1664940665638E+00 -0.3801862525857E+01 -0.7936713303107E+00 -0.4787458686021E+00
-0.1908824987929E+00 -0.3840458466838E+01 -0.8062682051405E+00 -0.5251898011121E+00
-0.2161685352441E+00 -0.3874336457572E+01 -0.8181010107538E+00 -0.5710679427142E+00
-0.2412861965096E+00 -0.3901107558888E+01 -0.8284787634248E+00 -0.6148695737600E+00
-0.2651147122832E+00 -0.3917690133224E+01 -0.8365609815672E+00 -0.6546014877641E+00
-0.2863032319650E+00 -0.3920178786645E+01 -0.8412964162582E+00 -0.6874917609354E+00
-0.3028902178745E+00 -0.3903744617471E+01 -0.8413269796058E+00 -0.7096453180218E+00
-0.3116916382525E+00 -0.3862533419552E+01 -0.8348450240010E+00 -0.7155845793770E+00
-0.3072427158038E+00 -0.3789631908320E+01 -0.8193749370345E+00 -0.6975028558020E+00
-0.2796168421311E+00 -0.3677217697859E+01 -0.7913669197902E+00 -0.6439815865596E+00
-0.2096653966451E+00 -0.3517916879845E+01 -0.7455164664070E+00 -0.5382041524554E+00
-0.5972213180706E-01 -0.3310060276726E+01 -0.6739564917493E+00 -0.3574042087641E+00
 0.2406250217336E+00 -0.3069098524313E+01 -0.5656947089455E+00 -0.7929684264922E-01
 0.8044401339091E+00 -0.2841619593751E+01 -0.4074358980397E+00  0.2930103107378E+00
 0.1760332401586E+01 -0.2699840126697E+01 -0.1879015478223E+00  0.6808563980666E+00
 0.3143221931399E+01 -0.2679085542780E+01  0.9282727910709E-01  0.8919790604842E+00
 0.4741730656822E+01 -0.2679747182778E+01  0.4123967009540E+00  0.6991738380632E+00
-0.7502292671272E+00 -0.3376761393247E+01 -0.8253981443743E+00  0.4524409806984E+00
-0.5741222174050E+00 -0.3437291876233E+01 -0.8022828306825E+00  0.4270585028236E+00
-0.4086745897338E+00 -0.3475090565159E+01 -0.7767530425531E+00  0.3631752687335E+00
-0.2808510099527E+00 -0.3483985809891E+01 -0.7529673751889E+00  0.2817744982798E+00
-0.1932594557172E+00 -0.3472496930500E+01 -0.7331512881683E+00  0.2032724122027E+00
-0.1362509423850E+00 -0.3452661127800E+01 -0.7177824247329E+00  0.1368308604012E+00
-0.9942382549922E-01 -0.3432764414868E+01 -0.7064376586002E+00  0.8335686977633E-01
-0.7541574893058E-01 -0.3416815696869E+01 -0.6984462995675E+00  0.4063198643509E-01
-0.5967060299406E-01 -0.3406272247873E+01 -0.6931885805027E+00  0.6000661556013E-02
-0.4944206954429E-01 -0.3401414283276E+01 -0.6901712808484E+00 -0.2282074502032E-01
-0.4305515452697E-01 -0.3402056578212E+01 -0.6890223568151E+00 -0.4764650467163E-01
-0.3946875269261E-01 -0.3407876176808E+01 -0.6894689961740E+00 -0.6989829291175E-01
-0.3802462109791E-01 -0.3418557120421E+01 -0.6913163586051E+00 -0.9070240718111E-01
-0.3830308263392E-01 -0.3433848395477E+01 -0.6944303059701E+00 -0.1109717465168E+00
-0.4004030600648E-01 -0.3453580375778E+01 -0.6987241467687E+00 -0.1314677679382E+00
-0.4308228940568E-01 -0.3477660457710E+01 -0.7041485599158E+00 -0.1528459103215E+00
-0.4736258224172E-01 -0.3506056291578E+01 -0.7106837853541E+00 -0.1756888911003E+00
-0.5289746552579E-01 -0.3538767039490E+01 -0.7183329117071E+00 -0.2005299642411E+00
-0.5979628576214E-01 -0.3575780917651E+01 -0.7271154515175E+00 -0.2278668763079E+00
-0.6828323000631E-01 -0.3617010981222E+01 -0.7370588532287E+00 -0.2581586087044E+00
-0.7871577917467E-01 -0.3662205768893E+01 -0.7481843207624E+00 -0.2917889660366E+00
-0.9156202909210E-01 -0.3710851836430E+01 -0.7604827844364E+00 -0.3289845048238E+00
-0.1072842524346E+00 -0.3762103109141E+01 -0.7738774838469E+00 -0.3697031297513E+00
-0.1261237402823E+00 -0.3814778097691E+01 -0.7881803793395E+00 -0.4135628540208E+00
-0.1478862348159E+00 -0.3867469048192E+01 -0.8030710685682E+00 -0.4598617567829E+00
-0.1719222525946E+00 -0.3918605421871E+01 -0.8181055470838E+00 -0.5076922757366E+00
-0.1973370807760E+00 -0.3966313339172E+01 -0.8327300963983E+00 -0.5560339659652E+00
-0.2232277178487E+00 -0.4008188949109E+01 -0.8462833460022E+00 -0.6036770152817E+00
-0.2487585969455E+00 -0.4041098263798E+01 -0.8579713849334E+00 -0.6489945179692E+00
-0.2730124618639E+00 -0.4061026880727E+01 -0.8668078814347E+00 -0.6896475978043E+00
-0.2946485213090E+00 -0.4062933346976E+01 -0.8715163866437E+00 -0.7222633630611E+00
-0.3113973671928E+00 -0.4040528943277E+01 -0.8703852750636E+00 -0.7420121896691E+00
-0.3192372926765E+00 -0.3985976088019E+01 -0.8610426889696E+00 -0.7418482114175E+00
-0.3105911379079E+00 -0.3889482726641E+01 -0.8400147854269E+00 -0.7109992322781E+00
-0.2698990337237E+00 -0.3739679835369E+01 -0.8019157857681E+00 -0.6323370559041E+00
-0.1635934909863E+00 -0.3527798855278E+01 -0.7382784802541E+00 -0.4795071677825E+00
 0.7903237790033E-01 -0.3260150435754E+01 -0.6362236210512E+00 -0.2190952787595E+00
 0.5889467640297E+00 -0.2980511126047E+01 -0.4783128795308E+00  0.1661745131868E+00
 0.1544997007283E+01 -0.2779407347606E+01 -0.2468820717433E+00  0.6118432995844E+00
 0.3043419468018E+01 -0.2726125684433E+01  0.6345875766263E-01  0.8940405584089E+00
 0.4855238275625E+01 -0.2716699241160E+01  0.4277078132663E+00  0.6985294360718E+00
-0.7484342720312E+00 -0.3406969441388E+01 -0.8310807550680E+00  0.4791043326522E+00
-0.5547963528382E+00 -0.3469390332763E+01 -0.8048373491132E+00  0.4473898087008E+00
-0.3775896528757E+00 -0.3501722521589E+01 -0.7758624464541E+00  0.3706545480640E+00
-0.2482844356694E+00 -0.3499557234131E+01 -0.7495683451295E+00  0.2784842124820E+00
-0.1651244595445E+00 -0.3476937870781E+01 -0.7284124769193E+00  0.1949764942128E+00
-0.1137610976320E+00 -0.3449021031795E+01 -0.7125564365033E+00  0.1279271819021E+00
-0.8174971702848E-01 -0.3424279242149E+01 -0.7012058022842E+00  0.7597849127801E-01
-0.6136518235116E-01 -0.3405881549805E+01 -0.6934493567643E+00  0.3552545131187E-01
-0.4821502042132E-01 -0.3394500149072E+01 -0.6885430441587E+00  0.3302529802899E-02
-0.3978011537409E-01 -0.3389882978152E+01 -0.6859326289264E+00 -0.2320165583631E-01
-0.3457281703262E-01 -0.3391511763222E+01 -0.6852169262614E+00 -0.4586485199969E-01
-0.3169042474011E-01 -0.3398865478231E+01 -0.6861111908180E+00 -0.6610271001331E-01
-0.3057276098844E-01 -0.3411519453294E+01 -0.6884184531148E+00 -0.8500864416898E-01
-0.3086841182223E-01 -0.3429173933017E+01 -0.6920084792796E+00 -0.1034550439011E+00
-0.3236039054026E-01 -0.3451652984769E+01 -0.6968026854450E+00 -0.1221639644135E+00
-0.3492593999886E-01 -0.3478890478389E+01 -0.7027632941495E+00 -0.1417570143344E+00
-0.3851812659988E-01 -0.3510909036953E+01 -0.7098854432886E+00 -0.1627919069690E+00
-0.4316391888618E-01 -0.3547790726209E+01 -0.7181909397210E+00 -0.1857898287397E+00
-0.4897818200904E-01 -0.3589636426509E+01 -0.7277229325475E+00 -0.2112561617022E+00
-0.5619360297689E-01 -0.3636502161531E+01 -0.7385391639067E+00 -0.2396881024134E+00
-0.6519626602250E-01 -0.3688301822945E+01 -0.7506996289798E+00 -0.2715504466285E+00
-0.7652569272272E-01 -0.3744687583678E+01 -0.7642426666683E+00 -0.3071954680373E+00
-0.9076430176080E-01 -0.3804950745734E+01 -0.7791430211091E+00 -0.3467319554788E+00
-0.1082869603012E+00 -0.3868005749606E+01 -0.7952585538317E+00 -0.3899267106179E+00
-0.1289930276837E+00 -0.3932509188905E+01 -0.8123004554219E+00 -0.4362222092523E+00
-0.1522785864275E+00 -0.3996937952729E+01 -0.8298433201970E+00 -0.4848847835155E+00
-0.1773022460185E+00 -0.4059453788666E+01 -0.8473512195634E+00 -0.5351341468194E+00
-0.2032934989073E+00 -0.4117678627416E+01 -0.8641944381422E+00 -0.5860746099706E+00
-0.2296725225578E+00 -0.4168497260928E+01 -0.8796339698048E+00 -0.6364624239504E+00
-0.2559189924581E+00 -0.4207901850781E+01 -0.8927641819510E+00 -0.6844190717167E+00
-0.2812553860833E+00 -0.4230818623385E+01 -0.9024148153407E+00 -0.7271489280673E+00
-0.3042416419482E+00 -0.4230802409894E+01 -0.9070088238839E+00 -0.7605983168181E+00
-0.3222216476522E+00 -0.4199499477983E+01 -0.9043442386028E+00 -0.7787786591903E+00
-0.3300344271025E+00 -0.4125678605822E+01 -0.8911426198639E+00 -0.7721974341224E+00
-0.3163336537472E+00 -0.3994440287207E+01 -0.8621548010379E+00 -0.7246778257774E+00
-0.2539503082294E+00 -0.3789348110361E+01 -0.8086596957680E+00 -0.6083337431849E+00
-0.7721991339021E-01 -0.3503563467732E+01 -0.7161566868959E+00 -0.3798071483866E+00
 0.3573579847189E+00 -0.3169756873918E+01 -0.5624797862215E+00  0.3952530447118E-02
 0.1287769449694E+01 -0.2893270364933E+01 -0.3211001878326E+00  0.5081126781382E+00
 0.2906255243452E+01 -0.2791782337419E+01  0.2289458154777E-01  0.8835897573946E+00
 0.4984222390024E+01 -0.2768029254766E+01  0.4432386336562E+00  0.6949654480048E+00
-0.7460026467112E+00 -0.3445005921012E+01 -0.8382017260349E+00  0.5077867941243E+00
-0.5307342032305E+00 -0.3508431968135E+01 -0.8078332463107E+00  0.4669946683002E+00
-0.3410693554999E+00 -0.3531474629450E+01 -0.7745088085310E+00  0.3737763409296E+00
-0.2126510643745E+00 -0.3514026026633E+01 -0.7453354293078E+00  0.2699279398158E+00
-0.1362670177136E+00 -0.3478035957650E+01 -0.7228606058443E+00  0.1826546509349E+00
-0.9176054897029E-01 -0.3441572999778E+01 -0.7066667202799E+00  0.1165785041854E+00
-0.6498695402199E-01 -0.3412270994592E+01 -0.6954516000858E+00  0.6732289609675E-01
-0.4830848068726E-01 -0.3391875525985E+01 -0.6880368115871E+00  0.2989839624678E-01
-0.3771613789296E-01 -0.3380081315138E+01 -0.6835595007921E+00  0.5719324665477E-03
-0.3100428587588E-01 -0.3376052406996E+01 -0.6814113487282E+00 -0.2329136722767E-01
-0.2690759481774E-01 -0.3378929858850E+01 -0.6811675008838E+00 -0.4356567863558E-01
-0.2467497519983E-01 -0.3388001908199E+01 -0.6825353868504E+00 -0.6161773134761E-01
-0.2384801835436E-01 -0.3402745823030E+01 -0.6853187784889E+00 -0.7848046305270E-01
-0.2414335303380E-01 -0.3422823232202E+01 -0.6893933273199E+00 -0.9496709788975E-01
-0.2538889371994E-01 -0.3448060597377E+01 -0.6946899085711E+00 -0.1117465952686E+00
-0.2749022047280E-01 -0.3478425675708E+01 -0.7011831896845E+00 -0.1293954286026E+00
-0.3041600004959E-01 -0.3514002892006E+01 -0.7088837889743E+00 -0.1484355516960E+00
-0.3419819739979E-01 -0.3554964798246E+01 -0.7178326098258E+00 -0.1693644303581E+00
-0.3894802544055E-01 -0.3601535924706E+01 -0.7280968008788E+00 -0.1926816107886E+00
-0.4489172767488E-01 -0.3653934494009E+01 -0.7397652553601E+00 -0.2189082590087E+00
-0.5242344868523E-01 -0.3712272767128E+01 -0.7529392543824E+00 -0.2485805393882E+00
-0.6213541142828E-01 -0.3776415124028E+01 -0.7677101185311E+00 -0.2821794656501E+00
-0.7472387610622E-01 -0.3845839796096E+01 -0.7841127461246E+00 -0.3199809907646E+00
-0.9070011274487E-01 -0.3919596688416E+01 -0.8020593721837E+00 -0.3619187304459E+00
-0.1100505712367E+00 -0.3996431135133E+01 -0.8212963535123E+00 -0.4075908397892E+00
-0.1321923645549E+00 -0.4074880159826E+01 -0.8414145174143E+00 -0.4564455625726E+00
-0.1563048449823E+00 -0.4153153761131E+01 -0.8618917340658E+00 -0.5079499077994E+00
-0.1817189022941E+00 -0.4228931297137E+01 -0.8821300530309E+00 -0.5615256323565E+00
-0.2080787777978E+00 -0.4299186080477E+01 -0.9014529850878E+00 -0.6163130938903E+00
-0.2352184175096E+00 -0.4360038350623E+01 -0.9190513673215E+00 -0.6708995992274E+00
-0.2628502387758E+00 -0.4406575118924E+01 -0.9338850854559E+00 -0.7230878803864E+00
-0.2902334057727E+00 -0.4432506576214E+01 -0.9445480104723E+00 -0.7696720821129E+00
-0.3158966653765E+00 -0.4429466628951E+01 -0.9490726730077E+00 -0.8059413169868E+00
-0.3369523592856E+00 -0.4385548664902E+01 -0.9445002189117E+00 -0.8242373213185E+00
-0.3464492762297E+00 -0.4283368748761E+01 -0.9259636187962E+00 -0.8106186363302E+00
-0.3253677397469E+00 -0.4099525267776E+01 -0.8849786146918E+00 -0.7384827752710E+00
-0.2195038452866E+00 -0.3811021512302E+01 -0.8061050835297E+00 -0.5583625428417E+00
 0.1161798718514E+00 -0.3427788725615E+01 -0.6623217806220E+00 -0.1987213346352E+00
 0.9824029353169E+00 -0.3058388278130E+01 -0.4151970747495E+00  0.3563191003252E+00
 0.2716354920645E+01 -0.2884694042568E+01 -0.3366782488642E-01  0.8521137789830E+00
 0.5131778476058E+01 -0.2838833979083E+01  0.4585889062284E+00  0.6879564016698E+00
-0.7424915830634E+00 -0.3493867306653E+01 -0.8472717905687E+00  0.5388161569529E+00
-0.5001608625372E+00 -0.3556314607603E+01 -0.8112951061173E+00  0.4846187970625E+00
-0.2980901224655E+00 -0.3563932210182E+01 -0.7724044780392E+00  0.3702950031365E+00
-0.1742849910090E+00 -0.3525700944006E+01 -0.7399971980297E+00  0.2546752045005E+00
-0.1074436475194E+00 -0.3474312966002E+01 -0.7163513333788E+00  0.1659406314613E+00
-0.7083594490337E-01 -0.3429423911472E+01 -0.7000519817066E+00  0.1028929562531E+00
-0.4950184241269E-01 -0.3396234644790E+01 -0.6891473077097E+00  0.5759654441444E-01
-0.3647331336815E-01 -0.3374503761047E+01 -0.6821954250485E+00  0.2394654548685E-01
-0.2831967133343E-01 -0.3362839796389E+01 -0.6782319036509E+00 -0.2030735091470E-02
-0.2321200348870E-01 -0.3359810737048E+01 -0.6766045581896E+00 -0.2296854597864E-01
-0.2012977032459E-01 -0.3364231735062E+01 -0.6768723111636E+00 -0.4066288093091E-01
-0.1847859639800E-01 -0.3375220308922E+01 -0.6787397911780E+00 -0.5638726926622E-01
-0.1790092662398E-01 -0.3392173002730E+01 -0.6820147960337E+00 -0.7108710665487E-01
-0.1817866869775E-01 -0.3414726516943E+01 -0.6865810473590E+00 -0.8549866629505E-01
-0.1918138670732E-01 -0.3442720069855E+01 -0.6923803016297E+00 -0.1002249496592E+00
-0.2083963393226E-01 -0.3476163119351E+01 -0.6994005610785E+00 -0.1157865930507E+00
-0.2313397029928E-01 -0.3515208084732E+01 -0.7076684215512E+00 -0.1326592859412E+00
-0.2609649657777E-01 -0.3560123849933E+01 -0.7172440799899E+00 -0.1513047378800E+00
-0.2982682315137E-01 -0.3611266582556E+01 -0.7282186919928E+00 -0.1722013849481E+00
-0.3453009692072E-01 -0.3669032526869E+01 -0.7407125357955E+00 -0.1958754972914E+00
-0.4058475164680E-01 -0.3733765272842E+01 -0.7548700161462E+00 -0.2229174753095E+00
-0.4861006518299E-01 -0.3805596175789E+01 -0.7708412596808E+00 -0.2539341184892E+00
-0.5940499086426E-01 -0.3884255066161E+01 -0.7887320231580E+00 -0.2893860915953E+00
-0.7362119140564E-01 -0.3968979771276E+01 -0.8085202045842E+00 -0.3293987722912E+00
-0.9132822961809E-01 -0.4058630357082E+01 -0.8299917297078E+00 -0.3737443126469E+00
-0.1119405211447E+00 -0.4151804437627E+01 -0.8527490044614E+00 -0.4220651358960E+00
-0.1346273152181E+00 -0.4246753166575E+01 -0.8762761094161E+00 -0.4740800443940E+00
-0.1587922178554E+00 -0.4341229450261E+01 -0.9000043470344E+00 -0.5295188915423E+00
-0.1842717000085E+00 -0.4432360702585E+01 -0.9233264942773E+00 -0.5878873267182E+00
-0.2112081828426E+00 -0.4516520620912E+01 -0.9455457748407E+00 -0.6482201123161E+00
-0.2397231353260E+00 -0.4589153925560E+01 -0.9657754265684E+00 -0.7089040057293E+00
-0.2696141823194E+00 -0.4644446471326E+01 -0.9828121453742E+00 -0.7675848395435E+00
-0.3003204424215E+00 -0.4674580748110E+01 -0.9949802529327E+00 -0.8209352192788E+00
-0.3308872838565E+00 -0.4667927540238E+01 -0.9997629797164E+00 -0.8635304929512E+00
-0.3584404310330E+00 -0.4606176823825E+01 -0.9929234657673E+00 -0.8847249769254E+00
-0.3726350737568E+00 -0.4461311457892E+01 -0.9667893207360E+00 -0.8622137723058E+00
-0.3367592662907E+00 -0.4194259877859E+01 -0.9062038423335E+00 -0.7473485136047E+00
-0.1221159301407E+00 -0.3779052627957E+01 -0.7802337232459E+00 -0.4439914462735E+00
 0.6252124236469E+00 -0.3302182906470E+01 -0.5353941045425E+00  0.1388456235369E+00
 0.2451336527512E+01 -0.3020350319554E+01 -0.1138027601041E+00  0.7844172312863E+00
 0.5301533460498E+01 -0.2937666845048E+01  0.4727733301349E+00  0.6761654199835E+00
-0.7371172913547E+00 -0.3558203341889E+01 -0.8590641394499E+00  0.5725297135502E+00
-0.4604937944918E+00 -0.3615380576172E+01 -0.8151748862798E+00  0.4979021495217E+00
-0.2477119080044E+00 -0.3597637768686E+01 -0.7690699467980E+00  0.3569269114261E+00
-0.1341128606336E+00 -0.3531890216348E+01 -0.7332006263220E+00  0.2312489067874E+00
-0.7974244388305E-01 -0.3463986965146E+01 -0.7087458923669E+00  0.1447984190055E+00
-0.5164274475997E-01 -0.3411680731829E+01 -0.6926647056394E+00  0.8719867732623E-01
-0.3565630275381E-01 -0.3375703033840E+01 -0.6822718774854E+00  0.4711397080354E-01
-0.2607225557022E-01 -0.3353512136480E+01 -0.6759168884820E+00  0.1792535645828E-01
-0.2015386188687E-01 -0.3342634993353E+01 -0.6725577810699E+00 -0.4312551890143E-02
-0.1648495757393E-01 -0.3341074310851E+01 -0.6715118636913E+00 -0.2209501411602E-01
-0.1429649128170E-01 -0.3347360744174E+01 -0.6723314571097E+00 -0.3706232808452E-01
-0.1314652767551E-01 -0.3360473696482E+01 -0.6747240548857E+00 -0.5035270508008E-01
-0.1277280509746E-01 -0.3379752842816E+01 -0.6785051396933E+00 -0.6279896492006E-01
-0.1301719745974E-01 -0.3404826953334E+01 -0.6835688403448E+00 -0.7504443958886E-01
-0.1378645436029E-01 -0.3435559785839E+01 -0.6898692583198E+00 -0.8761470721672E-01
-0.1503239266858E-01 -0.3472010529260E+01 -0.6974085947780E+00 -0.1009648858608E+00
-0.1674411730380E-01 -0.3514404963617E+01 -0.7062298267077E+00 -0.1155145584083E+00
-0.1895013832175E-01 -0.3563112112175E+01 -0.7164124607747E+00 -0.1316778004111E+00
-0.2173257374700E-01 -0.3618623898344E+01 -0.7280713052673E+00 -0.1498956050967E+00
-0.2526280045785E-01 -0.3681524522451E+01 -0.7413574756288E+00 -0.1706760142573E+00
-0.2987771809002E-01 -0.3752418049096E+01 -0.7564591647093E+00 -0.1946365285371E+00
-0.3618913419893E-01 -0.3831765242360E+01 -0.7735908868391E+00 -0.2224957849101E+00
-0.4507880795539E-01 -0.3919634120234E+01 -0.7929425974536E+00 -0.2549154907005E+00
-0.5734203537939E-01 -0.4015525717226E+01 -0.8145735626591E+00 -0.2922479387017E+00
-0.7313041042087E-01 -0.4118445961174E+01 -0.8383152868109E+00 -0.3344714451807E+00
-0.9183488502581E-01 -0.4227034198261E+01 -0.8637738295287E+00 -0.3814454607609E+00
-0.1125900135179E+00 -0.4339543776704E+01 -0.8904267713128E+00 -0.4331437913894E+00
-0.1348502802714E+00 -0.4453792968266E+01 -0.9177286633828E+00 -0.4895778566005E+00
-0.1586140142722E+00 -0.4567122690079E+01 -0.9451473549541E+00 -0.5505742350480E+00
-0.1842845301189E+00 -0.4676290475508E+01 -0.9721150156111E+00 -0.6155715957661E+00
-0.2123120691451E+00 -0.4777293041730E+01 -0.9979210370452E+00 -0.6834947467102E+00
-0.2428643660361E+00 -0.4865091533618E+01 -0.1021591195154E+01 -0.7527767078188E+00
-0.2759480076101E+00 -0.4932969176710E+01 -0.1041783452388E+01 -0.8214298493354E+00
-0.3120251496229E+00 -0.4970650012160E+01 -0.1056535048100E+01 -0.8864332035252E+00
-0.3516046685291E+00 -0.4960803977134E+01 -0.1062481744965E+01 -0.9411031771524E+00
-0.3918960245378E+00 -0.4874548163908E+01 -0.1053288853384E+01 -0.9696696011348E+00
-0.4164917467673E+00 -0.4662327289731E+01 -0.1015763822436E+01 -0.9332250352043E+00
-0.3364421395729E+00 -0.4253709352276E+01 -0.9180303120495E+00 -0.7266503580300E+00
 0.2199335838916E+00 -0.3669107268331E+01 -0.6898347471672E+00 -0.1653292328859E+00
 0.2078939613240E+01 -0.3228352099986E+01 -0.2298825007747E+00  0.6533075020091E+00
 0.5497235541678E+01 -0.3080528910762E+01  0.4833413333857E+00  0.6556745200581E+00
-0.7284771960112E+00 -0.3645631655400E+01 -0.8748217833180E+00  0.6091266932478E+00
-0.4079582411328E+00 -0.3688184188542E+01 -0.8192284981424E+00  0.5023134004935E+00
-0.1895221749979E+00 -0.3628935856693E+01 -0.7636916177181E+00  0.3290214421951E+00
-0.9403502008505E-01 -0.3528594386018E+01 -0.7245258920170E+00  0.1985667479535E+00
-0.5455695708664E-01 -0.3445182962606E+01 -0.6999479943685E+00  0.1197641995104E+00
-0.3482280071919E-01 -0.3387549825481E+01 -0.6844745354394E+00  0.7005781153509E-01
-0.2378142727875E-01 -0.3350275468964E+01 -0.6748113893041E+00  0.3629549960303E-01
-0.1728969777676E-01 -0.3328707142100E+01 -0.6691993779472E+00  0.1214928299172E-01
-0.1332096291626E-01 -0.3319371572294E+01 -0.6665385169742E+00 -0.6052021681884E-02
-0.1088491310754E-01 -0.3319793078266E+01 -0.6661356082009E+00 -0.2051844385495E-01
-0.9449166499747E-02 -0.3328286068968E+01 -0.6675470570407E+00 -0.3266386337987E-01
-0.8711388841800E-02 -0.3343735372634E+01 -0.6704893622863E+00 -0.4345431855420E-01
-0.8494574032848E-02 -0.3365453839660E+01 -0.6747896927937E+00 -0.5358852920857E-01
-0.8692869502852E-02 -0.3393081968371E+01 -0.6803549777129E+00 -0.6360366182370E-01
-0.9244744683186E-02 -0.3426520961327E+01 -0.6871531514414E+00 -0.7393829416943E-01
-0.1011934228157E-01 -0.3465887763268E+01 -0.6952014314692E+00 -0.8497377448857E-01
-0.1131145274234E-01 -0.3511485911475E+01 -0.7045594833422E+00 -0.9706480866760E-01
-0.1284358177682E-01 -0.3563786176114E+01 -0.7153259622374E+00 -0.1105667019885E+00
-0.1477720369589E-01 -0.3623416011565E+01 -0.7276386538948E+00 -0.1258667295878E+00
-0.1724150280648E-01 -0.3691149092132E+01 -0.7416781300395E+00 -0.1434282325228E+00
-0.2050694640138E-01 -0.3767868892410E+01 -0.7576751790526E+00 -0.1638567212924E+00
-0.2513315535984E-01 -0.3854431433966E+01 -0.7759129294271E+00 -0.1879497255991E+00
-0.3204989004431E-01 -0.3951360262683E+01 -0.7966820424169E+00 -0.2165784203704E+00
-0.4219379572545E-01 -0.4058535978715E+01 -0.8201459671092E+00 -0.2503709190002E+00
-0.5579949860478E-01 -0.4175154769102E+01 -0.8461908661506E+00 -0.2895696756093E+00
-0.7222023568224E-01 -0.4299847847047E+01 -0.8744136295757E+00 -0.3342959157515E+00
-0.9054516519095E-01 -0.4430780731117E+01 -0.9042651927361E+00 -0.3847820100878E+00
-0.1102713380339E+00 -0.4565793065457E+01 -0.9352128946339E+00 -0.4412697025849E+00
-0.1315307267110E+00 -0.4702491220097E+01 -0.9668044037681E+00 -0.5038273150988E+00
-0.1549361703048E+00 -0.4838158725339E+01 -0.9986189940093E+00 -0.5722269222336E+00
-0.1811930711602E+00 -0.4969535555764E+01 -0.1030145740735E+01 -0.6458636030975E+00
-0.2106881985492E+00 -0.5092610472791E+01 -0.1060659750073E+01 -0.7238390493744E+00
-0.2436450125016E+00 -0.5202222449916E+01 -0.1089173508714E+01 -0.8053047342576E+00
-0.2812589692261E+00 -0.5290506915682E+01 -0.1114353193587E+01 -0.8894726961127E+00
-0.3265392013760E+00 -0.5343304719815E+01 -0.1133968801136E+01 -0.9738732738678E+00
-0.3820548566294E+00 -0.5334974000039E+01 -0.1143405788372E+01 -0.1049962916327E+01
-0.4477485585741E+00 -0.5216974732276E+01 -0.1132944675052E+01 -0.1095456128227E+01
-0.4951262386817E+00 -0.4883192911220E+01 -0.1075663846009E+01 -0.1026525990131E+01
-0.2123572279863E+00 -0.4229738666505E+01 -0.8884191921368E+00 -0.5750701558670E+00
 0.1554309106225E+01 -0.3568506025996E+01 -0.4028393899570E+00  0.4107797092014E+00
 0.5721534621359E+01 -0.3301082758967E+01  0.4840903796920E+00  0.6146378908257E+00
-0.7140712044264E+00 -0.3769568599120E+01 -0.8967279740715E+00  0.6481343179807E+00
-0.3370701211053E+00 -0.3776260104186E+01 -0.8226660573169E+00  0.4888949158604E+00
-0.1247034151082E+00 -0.3649684451050E+01 -0.7548775844803E+00  0.2805540638725E+00
-0.5738216090875E-01 -0.3510635435382E+01 -0.7136035298917E+00  0.1569433397944E+00
-0.3334880885691E-01 -0.3416408680830E+01 -0.6899515082184E+00  0.9211675641983E-01
-0.2089566340956E-01 -0.3356380454231E+01 -0.6754552335933E+00  0.5220511192354E-01
-0.1416508420096E-01 -0.3319654372780E+01 -0.6667639013317E+00  0.2567189931287E-01
-0.1026325977993E-01 -0.3299978837616E+01 -0.6620484293444E+00  0.6983464263866E-02
-0.7889801499481E-02 -0.3293006573232E+01 -0.6601792847837E+00 -0.7005726520218E-02
-0.6450074266495E-02 -0.3295956204119E+01 -0.6604812655191E+00 -0.1807575548929E-01
-0.5610977572971E-02 -0.3307005350364E+01 -0.6625232754597E+00 -0.2736409273241E-01
-0.5191809236615E-02 -0.3325000807052E+01 -0.6660385331824E+00 -0.3563293818322E-01
-0.5085692616934E-02 -0.3349262461258E+01 -0.6708696407718E+00 -0.4343150870381E-01
-0.5229848039358E-02 -0.3379464411361E+01 -0.6769388619673E+00 -0.5118078715353E-01
-0.5588109244191E-02 -0.3415558814470E+01 -0.6842293949386E+00 -0.5922521067764E-01
-0.6142967610899E-02 -0.3457728180742E+01 -0.6927742399938E+00 -0.6786585385669E-01
-0.6892605876920E-02 -0.3506357145147E+01 -0.7026499606751E+00 -0.7738524553161E-01
-0.7852488729346E-02 -0.3562017600593E+01 -0.7139740285034E+00 -0.8807009079308E-01
-0.9063226420242E-02 -0.3625468023741E+01 -0.7269062608639E+00 -0.1002389497556E+00
-0.1060996316022E-01 -0.3697663299303E+01 -0.7416546635442E+00 -0.1142838140983E+00
-0.1267861787271E-01 -0.3779765990210E+01 -0.7584889329189E+00 -0.1307478685691E+00
-0.1572310639211E-01 -0.3873083762096E+01 -0.7777613852871E+00 -0.1504442441520E+00
-0.2066237924938E-01 -0.3978752568503E+01 -0.7998830014697E+00 -0.1744383069785E+00
-0.2855594194796E-01 -0.4097224480050E+01 -0.8251560966953E+00 -0.2036985449371E+00
-0.3972085091590E-01 -0.4227961637463E+01 -0.8535365103945E+00 -0.2388372568290E+00
-0.5347135462602E-01 -0.4369484627989E+01 -0.8845912097044E+00 -0.2803245589865E+00
-0.6886776437453E-01 -0.4519698769165E+01 -0.9177133203829E+00 -0.3286558642485E+00
-0.8546418996800E-01 -0.4676371464194E+01 -0.9523671450238E+00 -0.3842140962562E+00
-0.1035011015327E+00 -0.4837419598476E+01 -0.9881841547268E+00 -0.4471823864572E+00
-0.1237353528713E+00 -0.5000816565847E+01 -0.1024910399016E+01 -0.5175611801342E+00
-0.1470655925678E+00 -0.5164254824542E+01 -0.1062264099251E+01 -0.5951472877773E+00
-0.1739791937459E+00 -0.5324920968610E+01 -0.1099780048859E+01 -0.6795618867859E+00
-0.2046423496098E+00 -0.5479505542586E+01 -0.1136829595379E+01 -0.7707860701100E+00
-0.2402591834846E+00 -0.5623296660804E+01 -0.1172711186332E+01 -0.8696550009214E+00
-0.2850535188593E+00 -0.5747762548166E+01 -0.1206563231384E+01 -0.9775251203134E+00
-0.3455495069061E+00 -0.5834478405567E+01 -0.1236005600913E+01 -0.1092988213646E+01
-0.4270660951893E+00 -0.5847548992716E+01 -0.1254923036281E+01 -0.1209070467170E+01
-0.5584649854218E+00 -0.5685924626070E+01 -0.1248877940908E+01 -0.1298155759704E+01
-0.6145723102626E+00 -0.5088262689461E+01 -0.1140567016941E+01 -0.1088902713446E+01
 0.8211594086347E+00 -0.4166890273300E+01 -0.6691461829040E+00 -0.2383594419555E-01
 0.5973034410888E+01 -0.3679662313753E+01  0.4586744262618E+00  0.5170062249931E+00
-0.6897046210022E+00 -0.3956204892570E+01 -0.9291819165603E+00  0.6863973684518E+00
-0.2400557662278E+00 -0.3874909946203E+01 -0.8229931547497E+00  0.4393036644640E+00
-0.5855011252166E-01 -0.3643294104797E+01 -0.7403688544961E+00  0.2058502432808E+00
-0.2906841308220E-01 -0.3473615850157E+01 -0.7005368630867E+00  0.1098732379695E+00
-0.1698835466374E-01 -0.3376955088868E+01 -0.6787886988211E+00  0.6353560089450E-01
-0.1026224354693E-01 -0.3317586075078E+01 -0.6655696736428E+00  0.3450055476310E-01
-0.7034881472403E-02 -0.3283747265057E+01 -0.6581564391133E+00  0.1590115344243E-01
-0.5055835144641E-02 -0.3267296230472E+01 -0.6544704228756E+00  0.2814131171458E-02
-0.3895967244575E-02 -0.3263562738607E+01 -0.6534917509082E+00 -0.6910547740163E-02
-0.3189385717033E-02 -0.3269594471120E+01 -0.6545567811210E+00 -0.1459975876427E-01
-0.2785782178103E-02 -0.3283547283305E+01 -0.6572666228907E+00 -0.2105902404580E-01
-0.2591044236341E-02 -0.3304288954261E+01 -0.6613760095547E+00 -0.2683202040612E-01
-0.2553383828818E-02 -0.3331184233833E+01 -0.6667475334677E+00 -0.3230800417172E-01
-0.2641790536540E-02 -0.3363963498673E+01 -0.6733210678752E+00 -0.3778617162700E-01
-0.2838869613843E-02 -0.3402643564322E+01 -0.6810964969362E+00 -0.4351231154594E-01
-0.3136517937746E-02 -0.3447479835601E+01 -0.6901232809915E+00 -0.4970277265329E-01
-0.3534622628624E-02 -0.3498940310056E+01 -0.7004949969752E+00 -0.5656238370134E-01
-0.4041959055688E-02 -0.3557695322414E+01 -0.7123474669088E+00 -0.6430131387359E-01
-0.4680592957316E-02 -0.3624625836085E+01 -0.7258612966246E+00 -0.7315659025481E-01
-0.5497151840152E-02 -0.3700851182990E+01 -0.7412696780119E+00 -0.8342597618089E-01
-0.6590990122865E-02 -0.3787785410785E+01 -0.7588752914896E+00 -0.9553619713713E-01
-0.8256998004853E-02 -0.3887204577845E+01 -0.7790923267794E+00 -0.1102106387880E+00
-0.1130896520302E-01 -0.4001051860867E+01 -0.8024721771718E+00 -0.1286347237427E+00
-0.1687151106904E-01 -0.4130686363318E+01 -0.8295115872381E+00 -0.1521909309070E+00
-0.2533128305494E-01 -0.4275984081614E+01 -0.8602630857527E+00 -0.1820580305032E+00
-0.3598848199387E-01 -0.4435154017661E+01 -0.8942285132560E+00 -0.2192224623073E+00
-0.4794217594648E-01 -0.4605534681738E+01 -0.9306953854053E+00 -0.2644423371446E+00
-0.6085301278254E-01 -0.4784666106691E+01 -0.9691038383355E+00 -0.3180917267779E+00
-0.7504630716059E-01 -0.4970817290971E+01 -0.1009172734664E+01 -0.3802774651047E+00
-0.9133443231947E-01 -0.5162848223510E+01 -0.1050836546825E+01 -0.4510764906400E+00
-0.1107231299291E+00 -0.5359666744490E+01 -0.1094077991187E+01 -0.5306231951946E+00
-0.1337979766532E+00 -0.5559784352960E+01 -0.1138716482891E+01 -0.6189825309992E+00
-0.1603803100875E+00 -0.5761653037855E+01 -0.1184406687238E+01 -0.7164972603206E+00
-0.1914916053191E+00 -0.5964224802226E+01 -0.1231143299854E+01 -0.8249133616710E+00
-0.2302896766093E+00 -0.6165904921866E+01 -0.1279238938757E+01 -0.9472939111359E+00
-0.2868050710650E+00 -0.6362216819898E+01 -0.1329804398008E+01 -0.1090221510715E+01
-0.3656425026667E+00 -0.6531569842716E+01 -0.1379442489632E+01 -0.1253718955290E+01
-0.4966410801215E+00 -0.6637648854308E+01 -0.1426858008148E+01 -0.1466224346819E+01
-0.8626181997957E+00 -0.6365011572472E+01 -0.1445525975994E+01 -0.1636887336107E+01
-0.1716049238842E+00 -0.5296303389794E+01 -0.1093581679031E+01 -0.7676086870032E+00
 0.6246585254073E+01 -0.4433551625503E+01  0.3626067311173E+00  0.2529832510364E+00
-0.6505865923555E+00 -0.4265491632503E+01 -0.9832156596228E+00  0.7093963840577E+00
-0.1062310102093E+00 -0.3949736313558E+01 -0.8111934768412E+00  0.3148690887322E+00
-0.6775814268242E-02 -0.3583297726351E+01 -0.7180147188231E+00  0.1085652515601E+00
-0.1348828634374E-01 -0.3420056703142E+01 -0.6867090081299E+00  0.6492433692454E-01
-0.4869681063866E-02 -0.3325102697576E+01 -0.6659944856521E+00  0.3471790450344E-01
-0.3650208223726E-02 -0.3271295204517E+01 -0.6549890923081E+00  0.1839610238639E-01
-0.2322597979516E-02 -0.3242546430983E+01 -0.6489738154629E+00  0.7572779477760E-02
-0.1715088962458E-02 -0.3230755651441E+01 -0.6464941577141E+00  0.7704533121968E-04
-0.1315997835718E-02 -0.3231125007934E+01 -0.6464882107873E+00 -0.5505221276145E-02
-0.1086091018230E-02 -0.3240785021872E+01 -0.6483742322395E+00 -0.9922022561551E-02
-0.9552285007491E-03 -0.3257972544577E+01 -0.6517855643279E+00 -0.1364827713600E-01
-0.8965981344630E-03 -0.3281643318581E+01 -0.6565079931259E+00 -0.1699962120507E-01
-0.8919221058266E-03 -0.3311244460862E+01 -0.6624272864646E+00 -0.2020382889779E-01
-0.9313274008298E-03 -0.3346585547093E+01 -0.6695033848751E+00 -0.2343675964682E-01
-0.1009219027961E-02 -0.3387761235364E+01 -0.6777541009778E+00 -0.2684405509073E-01
-0.1123277847665E-02 -0.3435106470205E+01 -0.6872459598513E+00 -0.3055506291857E-01
-0.1273983516863E-02 -0.3489173824554E+01 -0.6980895720166E+00 -0.3469340548222E-01
-0.1464892586378E-02 -0.3550727672596E+01 -0.7104385236228E+00 -0.3938709864522E-01
-0.1704388624484E-02 -0.3620759611927E+01 -0.7244928109060E+00 -0.4478207031050E-01
-0.2010201096553E-02 -0.3700529882063E+01 -0.7405080276664E+00 -0.5106423380421E-01
-0.2418388043152E-02 -0.3791654897220E+01 -0.7588146683598E+00 -0.5850358775137E-01
-0.3039628861083E-02 -0.3896303011763E+01 -0.7798685397458E+00 -0.6759080398361E-01
-0.4443839851241E-02 -0.4017401662734E+01 -0.8043691125031E+00 -0.7942373318619E-01
-0.7673757272474E-02 -0.4157840385932E+01 -0.8331028410551E+00 -0.9584150571065E-01
-0.1313338633663E-01 -0.4318230181359E+01 -0.8662727264475E+00 -0.1189724509149E+00
-0.2018932340132E-01 -0.4496051943063E+01 -0.9032482667523E+00 -0.1506386049025E+00
-0.2814330745461E-01 -0.4687557919717E+01 -0.9431402594882E+00 -0.1918267533394E+00
-0.3685594500987E-01 -0.4889843461529E+01 -0.9853398959905E+00 -0.2426520232668E+00
-0.4671414579294E-01 -0.5101580833375E+01 -0.1029659011177E+01 -0.3028760215749E+00
-0.5845735718730E-01 -0.5322743578296E+01 -0.1076240203134E+01 -0.3724324504569E+00
-0.7306584185459E-01 -0.5553826894950E+01 -0.1125378564130E+01 -0.4517209261541E+00
-0.9121918983069E-01 -0.5794863346253E+01 -0.1177216524759E+01 -0.5413295650946E+00
-0.1126484219489E+00 -0.6045513023381E+01 -0.1231632307419E+01 -0.6416798062276E+00
-0.1371875185306E+00 -0.6307814636202E+01 -0.1289000450154E+01 -0.7538596975043E+00
-0.1686851693361E+00 -0.6589033299280E+01 -0.1351543713863E+01 -0.8814755898042E+00
-0.2082643306723E+00 -0.6899806764552E+01 -0.1421614240229E+01 -0.1031328634047E+01
-0.2865191724241E+00 -0.7252349125590E+01 -0.1507773682070E+01 -0.1225051938323E+01
-0.3398383460001E+00 -0.7641418139147E+01 -0.1596251320815E+01 -0.1455854393444E+01
-0.7461911520179E+00 -0.8084271466175E+01 -0.1766092549955E+01 -0.1989670017702E+01
-0.1376940352769E+01 -0.7493797005271E+01 -0.1774147498045E+01 -0.1886153605930E+01
 0.6526456239527E+01 -0.6305551726702E+01  0.4418090322351E-01 -0.5378621119807E+00
-0.6117644209715E+00 -0.4876062293296E+01 -0.1097565359208E+01  0.6440949784876E+00
 0.8365530732715E-01 -0.3807246231177E+01 -0.7447181958672E+00  0.3791713142642E-01
-0.1705239096554E-01 -0.3495813190294E+01 -0.7025731267211E+00  0.3877323753568E-01
 0.2439901629983E-02 -0.3344155777195E+01 -0.6683431850721E+00  0.1765058429171E-01
-0.1073675635176E-02 -0.3261969874976E+01 -0.6526087198469E+00  0.9761488225359E-02
-0.8869293052072E-04 -0.3217569400858E+01 -0.6435316283471E+00  0.4683027262341E-02
-0.2066568146810E-03 -0.3196332507933E+01 -0.6393078424759E+00  0.1448402051963E-02
-0.1176203940219E-03 -0.3190544312297E+01 -0.6381323960472E+00 -0.8275890071392E-03
-0.1034704502634E-03 -0.3195852963803E+01 -0.6391912963753E+00 -0.2526697014531E-02
-0.8671458467258E-04 -0.3209650052154E+01 -0.6419473629134E+00 -0.3882555959757E-02
-0.8063064574571E-04 -0.3230374927784E+01 -0.6460911213135E+00 -0.5038076465791E-02
-0.7921152031065E-04 -0.3257132220665E+01 -0.6514422961443E+00 -0.6090810299554E-02
-0.8245287464559E-04 -0.3289488665729E+01 -0.6579142335244E+00 -0.7111784032542E-02
-0.8966168160585E-04 -0.3327354439752E+01 -0.6654888302032E+00 -0.8156778341637E-02
-0.1008066129786E-03 -0.3370914267987E+01 -0.6742030249664E+00 -0.9272715455136E-02
-0.1160082988755E-03 -0.3420588262579E+01 -0.6841408643700E+00 -0.1050188880806E-01
-0.1358323617950E-03 -0.3477013950472E+01 -0.6954299669296E+00 -0.1188538478933E-01
-0.1608604029935E-03 -0.3541043869533E+01 -0.7082409565408E+00 -0.1346595317328E-01
-0.1923613086193E-03 -0.3613766484340E+01 -0.7227917799001E+00 -0.1529298904745E-01
-0.2324837150671E-03 -0.3696554229014E+01 -0.7393573535631E+00 -0.1742940605641E-01
-0.2853495736652E-03 -0.3791167563562E+01 -0.7582905939266E+00 -0.1996812134555E-01
-0.3556474553175E-03 -0.3900002579818E+01 -0.7800716570787E+00 -0.2306898442269E-01
-0.6014496825355E-03 -0.4026827070907E+01 -0.8054857161206E+00 -0.2726300255224E-01
-0.1634362744340E-02 -0.4177305777442E+01 -0.8357880404914E+00 -0.3467906360272E-01
-0.3719558940312E-02 -0.4353582140960E+01 -0.8714603529659E+00 -0.4922040593718E-01
-0.6492651806328E-02 -0.4551385855301E+01 -0.9115757150049E+00 -0.7414573479008E-01
-0.9809955902274E-02 -0.4765111737912E+01 -0.9549843529931E+00 -0.1104910456029E+00
-0.1386024175674E-01 -0.4991140780784E+01 -0.1001000219424E+01 -0.1577231630597E+00
-0.1904904634633E-01 -0.5228626113074E+01 -0.1049535047523E+01 -0.2148864079013E+00
-0.2590788083451E-01 -0.5478939659335E+01 -0.1100969524440E+01 -0.2814993511056E+00
-0.3508988316546E-01 -0.5744563000169E+01 -0.1155930593892E+01 -0.3580302512742E+00
-0.4738741200210E-01 -0.6027767967338E+01 -0.1215031093973E+01 -0.4459411146516E+00
-0.6282675073831E-01 -0.6328254149692E+01 -0.1278216199133E+01 -0.5460381396768E+00
-0.8115543462030E-01 -0.6648767263084E+01 -0.1345984559598E+01 -0.6568286025214E+00
-0.1022051140429E+00 -0.7006551503966E+01 -0.1421751344788E+01 -0.7786174993402E+00
-0.1335550320270E+00 -0.7431304685184E+01 -0.1512971965987E+01 -0.9182895618025E+00
-0.1569635181317E+00 -0.7964727181184E+01 -0.1624338164068E+01 -0.1091625787670E+01
-0.2943303418993E+00 -0.8680734163623E+01 -0.1795012927852E+01 -0.1336742609505E+01
-0.8459270404888E-02 -0.9741010958185E+01 -0.1949894074774E+01 -0.1672168733250E+01
-0.2569580059763E+01 -0.1157010442282E+02 -0.2827936938655E+01 -0.2959254958470E+01
 0.7659077087399E+01 -0.1194533895857E+02 -0.8572523870073E+00 -0.2887588283227E+01
-0.1908565040978E+01 -0.2756131717084E+01 -0.2192407470729E+01 -0.9798472654381E+00
-0.1664772283488E+01 -0.2837295028682E+01 -0.2115971631353E+01 -0.8920878031620E+00
-0.1420293749191E+01 -0.2910233844592E+01 -0.2035347963915E+01 -0.8111173338323E+00
-0.1186466593019E+01 -0.2974678602217E+01 -0.1955738236800E+01 -0.7360517101218E+00
-0.9674204716245E+00 -0.3029148656737E+01 -0.1878387485566E+01 -0.6669737298787E+00
-0.7657417246419E+00 -0.3073194545445E+01 -0.1804300042364E+01 -0.6042942840932E+00
-0.5825544126394E+00 -0.3106665039992E+01 -0.1733933138339E+01 -0.5487517781502E+00
-0.4186870215799E+00 -0.3130853040746E+01 -0.1668283825062E+01 -0.5012075936038E+00
-0.2740034163248E+00 -0.3147275603242E+01 -0.1608001135118E+01 -0.4622420361182E+00
-0.1478298532856E+00 -0.3157422459586E+01 -0.1553468583109E+01 -0.4320577528891E+00
-0.3935039756327E-01 -0.3162790435079E+01 -0.1505006187525E+01 -0.4105973595452E+00
 0.5236157314451E-01 -0.3164743235565E+01 -0.1462819377627E+01 -0.3976574952120E+00
 0.1282170089082E+00 -0.3164441160048E+01 -0.1427025347416E+01 -0.3929130202798E+00
 0.1890555071750E+00 -0.3162710450256E+01 -0.1397617819703E+01 -0.3959867842521E+00
 0.2355749081624E+00 -0.3160085750595E+01 -0.1374520092457E+01 -0.4065407167338E+00
 0.2684184584243E+00 -0.3156770601492E+01 -0.1357525503798E+01 -0.4242696988751E+00
 0.2861326646802E+00 -0.3154054088620E+01 -0.1347923065833E+01 -0.4486256943997E+00
 0.2872982911679E+00 -0.3153417039626E+01 -0.1347075808359E+01 -0.4801750846781E+00
 0.2771206012159E+00 -0.3152857998137E+01 -0.1351596573125E+01 -0.5189338077134E+00
 0.2328974685893E+00 -0.3180958064128E+01 -0.1385588476389E+01 -0.5564766042802E+00
-0.1948064331370E+01 -0.2776871282438E+01 -0.2220719732858E+01 -0.9389056101601E+00
-0.1693449501298E+01 -0.2856203331952E+01 -0.2138336826204E+01 -0.8519434560916E+00
-0.1445425477018E+01 -0.2931786365403E+01 -0.2057289560720E+01 -0.7743426212270E+00
-0.1208168765663E+01 -0.2998897948763E+01 -0.1977321350765E+01 -0.7035159683717E+00
-0.9860684363829E+00 -0.3056612928360E+01 -0.1900060236610E+01 -0.6390458342007E+00
-0.7812779314378E+00 -0.3104423255410E+01 -0.1826279553187E+01 -0.5810649409586E+00
-0.5951033559511E+00 -0.3142602589819E+01 -0.1756721790056E+01 -0.5299915367513E+00
-0.4280742973175E+00 -0.3171953833849E+01 -0.1692013217357E+01 -0.4864087512871E+00
-0.2801249866981E+00 -0.3193747800903E+01 -0.1632720206031E+01 -0.4508186875793E+00
-0.1507169091795E+00 -0.3209384057484E+01 -0.1579247450326E+01 -0.4234524714009E+00
-0.3908764882199E-01 -0.3220266238770E+01 -0.1531896323283E+01 -0.4043221544553E+00
 0.5562623839540E-01 -0.3227744218610E+01 -0.1490895446919E+01 -0.3933065165494E+00
 0.1343137044676E+00 -0.3233000591968E+01 -0.1456382833431E+01 -0.3901720779020E+00
 0.1977905089140E+00 -0.3236990754974E+01 -0.1428424112025E+01 -0.3946215475187E+00
 0.2467501912730E+00 -0.3240457152229E+01 -0.1407042268081E+01 -0.4063252443129E+00
 0.2813109184698E+00 -0.3244231098637E+01 -0.1392572481146E+01 -0.4248160571841E+00
 0.3004343483168E+00 -0.3249124489589E+01 -0.1385884362883E+01 -0.4495380811613E+00
 0.3036519013612E+00 -0.3255693226370E+01 -0.1387459419235E+01 -0.4805770152599E+00
 0.2845983829133E+00 -0.3269072846851E+01 -0.1402702994493E+01 -0.5167066695895E+00
 0.2455836910755E+00 -0.3282841197164E+01 -0.1427511024241E+01 -0.5586617430413E+00
-0.1984626480111E+01 -0.2795004146882E+01 -0.2246426388989E+01 -0.8970571810673E+00
-0.1722508530009E+01 -0.2877202289973E+01 -0.2161864079908E+01 -0.8116500535015E+00
-0.1469041215184E+01 -0.2954291588342E+01 -0.2078966412384E+01 -0.7370013348211E+00
-0.1228250991261E+01 -0.3023946010078E+01 -0.1998532585560E+01 -0.6701596533717E+00
-0.1002965398220E+01 -0.3084621306383E+01 -0.1921165746291E+01 -0.6100417250411E+00
-0.7952135877653E+00 -0.3136017141254E+01 -0.1847678437953E+01 -0.5564429063289E+00
-0.6060962685508E+00 -0.3178362640853E+01 -0.1778695682908E+01 -0.5095368082071E+00
-0.4360894275489E+00 -0.3212385048023E+01 -0.1714782999170E+01 -0.4697138069351E+00
-0.2851021309482E+00 -0.3239158591060E+01 -0.1656402535143E+01 -0.4373674364815E+00
-0.1526570003498E+00 -0.3259959815574E+01 -0.1603929899416E+01 -0.4127238827292E+00
-0.3805332114086E-01 -0.3276128881850E+01 -0.1557665631455E+01 -0.3958395508392E+00
 0.5952815811874E-01 -0.3288987389047E+01 -0.1517845834687E+01 -0.3866498661789E+00
 0.1409307175598E+00 -0.3299750603652E+01 -0.1484645342698E+01 -0.3849807857320E+00
 0.2069222368789E+00 -0.3309466538686E+01 -0.1458195818151E+01 -0.3905711904503E+00
 0.2580290441213E+00 -0.3319069820375E+01 -0.1438689161190E+01 -0.4030662955134E+00
 0.2942440318657E+00 -0.3329415163645E+01 -0.1426530428318E+01 -0.4219750621478E+00
 0.3147424152852E+00 -0.3341114538169E+01 -0.1422394894148E+01 -0.4467530217296E+00
 0.3173656220132E+00 -0.3355484549017E+01 -0.1427915892070E+01 -0.4772641247231E+00
 0.3006557682811E+00 -0.3371712600227E+01 -0.1443396707354E+01 -0.5138966535404E+00
 0.2656999307540E+00 -0.3387610253978E+01 -0.1467297848194E+01 -0.5590493088920E+00
-0.2020330676236E+01 -0.2813167963416E+01 -0.2271744354875E+01 -0.8539433498307E+00
-0.1750419001172E+01 -0.2898226520295E+01 -0.2184863389548E+01 -0.7707104428292E+00
-0.1491613458180E+01 -0.2977546278369E+01 -0.2100505070850E+01 -0.6991276957666E+00
-0.1246820113380E+01 -0.3049440633285E+01 -0.2019242545811E+01 -0.6360583082225E+00
-0.1018319199998E+01 -0.3112889543497E+01 -0.1941668104518E+01 -0.5800487262206E+00
-0.8076350807121E+00 -0.3167557293156E+01 -0.1868340410979E+01 -0.5305666558038E+00
-0.6156966380766E+00 -0.3213701704281E+01 -0.1799817216343E+01 -0.4875730710875E+00
-0.4428663730853E+00 -0.3251977719393E+01 -0.1736576719060E+01 -0.4512977341981E+00
-0.2890339036689E+00 -0.3283358659397E+01 -0.1679024500382E+01 -0.4220354149349E+00
-0.1537445282436E+00 -0.3309018490150E+01 -0.1627498614517E+01 -0.3999868017064E+00
-0.3633909274326E-01 -0.3330233846239E+01 -0.1582289277308E+01 -0.3852290229252E+00
 0.6395448385874E-01 -0.3348301465357E+01 -0.1543643077389E+01 -0.3777321146070E+00
 0.1479251318027E+00 -0.3364451964278E+01 -0.1511767607429E+01 -0.3773573901956E+00
 0.2162542630169E+00 -0.3379794719365E+01 -0.1486864010712E+01 -0.3838626822025E+00
 0.2693548549415E+00 -0.3395308462510E+01 -0.1469198191831E+01 -0.3968995205817E+00
 0.3071549636349E+00 -0.3411797743886E+01 -0.1459182103017E+01 -0.4160133794836E+00
 0.3286637819300E+00 -0.3429916881800E+01 -0.1457588953242E+01 -0.4407731458457E+00
 0.3327054992752E+00 -0.3449826521261E+01 -0.1465046876617E+01 -0.4714167440787E+00
 0.3185229355332E+00 -0.3471051650232E+01 -0.1481688492150E+01 -0.5089705018208E+00
 0.2871232548116E+00 -0.3493097143518E+01 -0.1506807723870E+01 -0.5557564630889E+00
-0.2054953149289E+01 -0.2831230899822E+01 -0.2296506497258E+01 -0.8095800536683E+00
-0.1777255232789E+01 -0.2919284232359E+01 -0.2207373543021E+01 -0.7290087166525E+00
-0.1512936470078E+01 -0.3000917385356E+01 -0.2121511306673E+01 -0.6606479498053E+00
-0.1264051239491E+01 -0.3075076169646E+01 -0.2039389877122E+01 -0.6012625590431E+00
-0.1032251156573E+01 -0.3141077686366E+01 -0.1961464551206E+01 -0.5491563698064E+00
-0.8186858105240E+00 -0.3198750148108E+01 -0.1888194895768E+01 -0.5035593013559E+00
-0.6240321746777E+00 -0.3248360787622E+01 -0.1820024687665E+01 -0.4642469599089E+00
-0.4485327452032E+00 -0.3290537546840E+01 -0.1757363032803E+01 -0.4313115267543E+00
-0.2920318682093E+00 -0.3326184761057E+01 -0.1700561811442E+01 -0.4049580128448E+00
-0.1540811389842E+00 -0.3356403826048E+01 -0.1649927929380E+01 -0.3853533003594E+00
-0.3404965168889E-01 -0.3382415424048E+01 -0.1605738581524E+01 -0.3725779718589E+00
 0.6879026014421E-01 -0.3405486486199E+01 -0.1568247222268E+01 -0.3666201336765E+00
 0.1551655499152E+00 -0.3426845810773E+01 -0.1537689718703E+01 -0.3673636848218E+00
 0.2256784754392E+00 -0.3447614090236E+01 -0.1514309735114E+01 -0.3745892075193E+00
 0.2806631235661E+00 -0.3468757128280E+01 -0.1498404178415E+01 -0.3879838193627E+00
 0.3199810090767E+00 -0.3491044963042E+01 -0.1490400054583E+01 -0.4071823176164E+00
 0.3429363722980E+00 -0.3514896929639E+01 -0.1490821458169E+01 -0.4319771521504E+00
 0.3487792236368E+00 -0.3540428615402E+01 -0.1500075210325E+01 -0.4628387995991E+00
 0.3372691731328E+00 -0.3567581222586E+01 -0.1518246659392E+01 -0.5009290906549E+00
 0.3093870106682E+00 -0.3596821742155E+01 -0.1545094319880E+01 -0.5482210890586E+00
-0.2088363509832E+01 -0.2849098132849E+01 -0.2320606966174E+01 -0.7639818919069E+00
-0.1802898397800E+01 -0.2940138353186E+01 -0.2229227267309E+01 -0.6865075791618E+00
-0.1533019792025E+01 -0.3024121124063E+01 -0.2141856225129E+01 -0.6215364738396E+00
-0.1279985243856E+01 -0.3100487249346E+01 -0.2058822066583E+01 -0.5657981477577E+00
-0.1044886001155E+01 -0.3168888774007E+01 -0.1980474139303E+01 -0.5174422215483E+00
-0.8284895735673E+00 -0.3229317508575E+01 -0.1907169323770E+01 -0.4755278324762E+00
-0.6312307209730E+00 -0.3282101492300E+01 -0.1839266135573E+01 -0.4396844623746E+00
-0.4532089766084E+00 -0.3327860808977E+01 -0.1777102794718E+01 -0.4098870336643E+00
-0.2942094577311E+00 -0.3367459433164E+01 -0.1720984374356E+01 -0.3862605172421E+00
-0.1537744374038E+00 -0.3401945182007E+01 -0.1671188216884E+01 -0.3689345383654E+00
-0.3129229611542E-01 -0.3432491162448E+01 -0.1627978221395E+01 -0.3579827531835E+00
 0.7392445324909E-01 -0.3460330069579E+01 -0.1591610635638E+01 -0.3534013874750E+00
 0.1625456298255E+00 -0.3486670294821E+01 -0.1562338588585E+01 -0.3550929985740E+00
 0.2351097747580E+00 -0.3512615074359E+01 -0.1540427486905E+01 -0.3628693432107E+00
 0.2918969615356E+00 -0.3539103078342E+01 -0.1526186871028E+01 -0.3764762200553E+00
 0.3328183930559E+00 -0.3566834243276E+01 -0.1519987445748E+01 -0.3956701781191E+00
 0.3574069221665E+00 -0.3596211137355E+01 -0.1522237977278E+01 -0.4204261263687E+00
 0.3652486266815E+00 -0.3627469025175E+01 -0.1533243583403E+01 -0.4513102272531E+00
 0.3564033632071E+00 -0.3660947801558E+01 -0.1553135882086E+01 -0.4894227711972E+00
 0.3319089326049E+00 -0.3697592415036E+01 -0.1581871232730E+01 -0.5363546212011E+00
-0.2120389900161E+01 -0.2866607729529E+01 -0.2343888880009E+01 -0.7171802234958E+00
-0.1827263335306E+01 -0.2960587496931E+01 -0.2250289885444E+01 -0.6432030499580E+00
-0.1551847329715E+01 -0.3046887673103E+01 -0.2161405445842E+01 -0.5817922965341E+00
-0.1294677432035E+01 -0.3125386450131E+01 -0.2077430019349E+01 -0.5296945577112E+00
-0.1056314927704E+01 -0.3196036640363E+01 -0.1998605231922E+01 -0.4849714316140E+00
-0.8371627077300E+00 -0.3259004023987E+01 -0.1925198359024E+01 -0.4465658072698E+00
-0.6374112581239E+00 -0.3314694574963E+01 -0.1857489736840E+01 -0.4139965316585E+00
-0.4570122735524E+00 -0.3363745119746E+01 -0.1795755970295E+01 -0.3871430617344E+00
-0.2956786939355E+00 -0.3406997957731E+01 -0.1740258021869E+01 -0.3660606498769E+00
-0.1529324649104E+00 -0.3445462545437E+01 -0.1691245650574E+01 -0.3508417898169E+00
-0.2817285148933E-01 -0.3480270628468E+01 -0.1648968431398E+01 -0.3415479273413E+00
 0.7925435164892E-01 -0.3512617499795E+01 -0.1613680675536E+01 -0.3381788467781E+00
 0.1699719224548E+00 -0.3543679802116E+01 -0.1585642699419E+01 -0.3406557519301E+00
 0.2444714402837E+00 -0.3574532276179E+01 -0.1565128588901E+01 -0.3488286788918E+00
 0.3030190094463E+00 -0.3606080213170E+01 -0.1552438761812E+01 -0.3625137268913E+00
 0.3455914952943E+00 -0.3639008044555E+01 -0.1547905774226E+01 -0.3815798939347E+00
 0.3719174221525E+00 -0.3673775736301E+01 -0.1551873403714E+01 -0.4061253673857E+00
 0.3818194607897E+00 -0.3710791570651E+01 -0.1564616887666E+01 -0.4367280434920E+00
 0.3755634715899E+00 -0.3750672323350E+01 -0.1586301156304E+01 -0.4743543773462E+00
 0.3542578736337E+00 -0.3794594664422E+01 -0.1616958287569E+01 -0.5202440303648E+00
-0.2150867159186E+01 -0.2883596133017E+01 -0.2366197741334E+01 -0.6692157908768E+00
-0.1850263975772E+01 -0.2980431077975E+01 -0.2270426669502E+01 -0.5991099585499E+00
-0.1569407653992E+01 -0.3068981077206E+01 -0.2180042698134E+01 -0.5414298503141E+00
-0.1308171193631E+01 -0.3149515784976E+01 -0.2095112874631E+01 -0.4929852886994E+00
-0.1066620444947E+01 -0.3222266344889E+01 -0.2015776786110E+01 -0.4518035496253E+00
-0.8448079438571E+00 -0.3287569911972E+01 -0.1942217587313E+01 -0.4167561626817E+00
-0.6426854846958E+00 -0.3345922185630E+01 -0.1874645600298E+01 -0.3872830549053E+00
-0.4600544171784E+00 -0.3397991657232E+01 -0.1813281650374E+01 -0.3631890591360E+00
-0.2965485375487E+00 -0.3444614383654E+01 -0.1758346568505E+01 -0.3444710015194E+00
-0.1516605994862E+00 -0.3486772618526E+01 -0.1710063608128E+01 -0.3311869162963E+00
-0.2479297824132E-01 -0.3525562158240E+01 -0.1668666909914E+01 -0.3233844125371E+00
 0.8468376694336E-01 -0.3562140192104E+01 -0.1634404515680E+01 -0.3210653899695E+00
 0.1773568975810E+00 -0.3597647835597E+01 -0.1607536736790E+01 -0.3241705108030E+00
 0.2536897632923E+00 -0.3633129421206E+01 -0.1588336635191E+01 -0.3325909685938E+00
 0.3139526419664E+00 -0.3669472710037E+01 -0.1577094427993E+01 -0.3462106217050E+00
 0.3581917340683E+00 -0.3707379981156E+01 -0.1574118472138E+01 -0.3649882817911E+00
 0.3862892613922E+00 -0.3747401164009E+01 -0.1579722590223E+01 -0.3890956627623E+00
 0.3982406343108E+00 -0.3790102080125E+01 -0.1594174875489E+01 -0.4190778234600E+00
 0.3944475077855E+00 -0.3836285524183E+01 -0.1617663863604E+01 -0.4557473087455E+00
 0.3760335621797E+00 -0.3887249442476E+01 -0.1650271459553E+01 -0.5000299664940E+00
-0.2179637000603E+01 -0.2899904044015E+01 -0.2387384284915E+01 -0.6201383439560E+00
-0.1871819916734E+01 -0.2999480624020E+01 -0.2289511248347E+01 -0.5542554300414E+00
-0.1585687411837E+01 -0.3090185639079E+01 -0.2197660328357E+01 -0.5004734897940E+00
-0.1320504629765E+01 -0.3172644611618E+01 -0.2111780138094E+01 -0.4557071591877E+00
-0.1075875162152E+01 -0.3247346195613E+01 -0.2031914032996E+01 -0.4179947566549E+00
-0.8515188006211E+00 -0.3314793897936E+01 -0.1958166963355E+01 -0.3861745661058E+00
-0.6471566111082E+00 -0.3375577909913E+01 -0.1890685220085E+01 -0.3596356349858E+00
-0.4624411514894E+00 -0.3430408313200E+01 -0.1829639243763E+01 -0.3381276459878E+00
-0.2969231804970E+00 -0.3480125730372E+01 -0.1775212983606E+01 -0.3216005311639E+00
-0.1500599140739E+00 -0.3525694085438E+01 -0.1727604375389E+01 -0.3100823098480E+00
-0.2124962226945E-01 -0.3568178306201E+01 -0.1687031122102E+01 -0.3036073846655E+00
 0.9012101488823E-01 -0.3608699487038E+01 -0.1653731877716E+01 -0.3021797119323E+00
 0.1846153059169E+00 -0.3648364462178E+01 -0.1627962099313E+01 -0.3057593583267E+00
 0.2626814672988E+00 -0.3688193262594E+01 -0.1609990539705E+01 -0.3142766461076E+00
 0.3246037029108E+00 -0.3729070848679E+01 -0.1600099554453E+01 -0.3276735344901E+00
 0.3704912571831E+00 -0.3771736981843E+01 -0.1598585486536E+01 -0.3459744683607E+00
 0.4003453990602E+00 -0.3816835576370E+01 -0.1605750379263E+01 -0.3693888619607E+00
 0.4142837999569E+00 -0.3865063277184E+01 -0.1621866350183E+01 -0.3984074785680E+00
 0.4127817519294E+00 -0.3917349566306E+01 -0.1647146868579E+01 -0.4336902893517E+00
 0.3969217029509E+00 -0.3975042742247E+01 -0.1681716884204E+01 -0.4758912158781E+00
-0.2206550643896E+01 -0.2915381684362E+01 -0.2407308188175E+01 -0.5700059407869E+00
-0.1891855608212E+01 -0.3017560570551E+01 -0.2307425598166E+01 -0.5086757398374E+00
-0.1600672694325E+01 -0.3110304632177E+01 -0.2214159337840E+01 -0.4589545429297E+00
-0.1331710430788E+01 -0.3194564062444E+01 -0.2127349006424E+01 -0.4178995143097E+00
-0.1084143939853E+01 -0.3271065716363E+01 -0.2046948533230E+01 -0.3835992235096E+00
-0.8573800038631E+00 -0.3340471916785E+01 -0.1972990397700E+01 -0.3548916876556E+00
-0.6509197905909E+00 -0.3403468181538E+01 -0.1905562342067E+01 -0.3311399754969E+00
-0.4642712506087E+00 -0.3460811742618E+01 -0.1844789002137E+01 -0.3120565113144E+00
-0.2969009738924E+00 -0.3513355303015E+01 -0.1790820445604E+01 -0.2975556411708E+00
-0.1482262279891E+00 -0.3562051370960E+01 -0.1743830467083E+01 -0.2876407460038E+00
-0.1763503823584E-01 -0.3607939159467E+01 -0.1704019868598E+01 -0.2823348350597E+00
 0.9547775894089E-01 -0.3652107575745E+01 -0.1671616009658E+01 -0.2816441646695E+00
 0.1916610131026E+00 -0.3695633855700E+01 -0.1646867231844E+01 -0.2855467259311E+00
 0.2713569056906E+00 -0.3739521471036E+01 -0.1630037341578E+01 -0.2940068219313E+00
 0.3348673983589E+00 -0.3784663683176E+01 -0.1621404249751E+01 -0.3070123472065E+00
 0.3823558458377E+00 -0.3831845836025E+01 -0.1621260291276E+01 -0.3246322051021E+00
 0.4139131686788E+00 -0.3881799312719E+01 -0.1629906483565E+01 -0.3470890984564E+00
 0.4297374685630E+00 -0.3935326611739E+01 -0.1647626893114E+01 -0.3748110434469E+00
 0.4303281762739E+00 -0.3993441887494E+01 -0.1674663440026E+01 -0.4083178653360E+00
 0.4166718935114E+00 -0.4057503236509E+01 -0.1711190726869E+01 -0.4480372808422E+00
-0.2231469943665E+01 -0.2929890868739E+01 -0.2425839575677E+01 -0.5188842929552E+00
-0.1910300903453E+01 -0.3034509577197E+01 -0.2324060920011E+01 -0.4624143343980E+00
-0.1614349435586E+01 -0.3129159036300E+01 -0.2229448976132E+01 -0.4169094592090E+00
-0.1341816979746E+01 -0.3215085084470E+01 -0.2141743964750E+01 -0.3796035704045E+00
-0.1091484729654E+01 -0.3293233741077E+01 -0.2060817676016E+01 -0.3486697728182E+00
-0.8624683458161E+00 -0.3364416864317E+01 -0.1986636043724E+01 -0.3229746682680E+00
-0.6540622310877E+00 -0.3429413148300E+01 -0.1919233423444E+01 -0.3018775068179E+00
-0.4656362211953E+00 -0.3489029425513E+01 -0.1858692849239E+01 -0.2850697319391E+00
-0.2965737957017E+00 -0.3544135363662E+01 -0.1805133300322E+01 -0.2724408278694E+00
-0.1462496856773E+00 -0.3595677506793E+01 -0.1758705776000E+01 -0.2639752021239E+00
-0.1403682724063E-01 -0.3644674428855E+01 -0.1719594286003E+01 -0.2596867141187E+00
 0.1006683376977E+00 -0.3692187886111E+01 -0.1688014183473E+01 -0.2595839468304E+00
 0.1984075389430E+00 -0.3739271373635E+01 -0.1664205998084E+01 -0.2636602157009E+00
 0.2796227895816E+00 -0.3786918966134E+01 -0.1648429198799E+01 -0.2719071873584E+00
 0.3446344977067E+00 -0.3836039072912E+01 -0.1640960146185E+01 -0.2843465600914E+00
 0.3936504691160E+00 -0.3887464175870E+01 -0.1642092438009E+01 -0.3010745042087E+00
 0.4268266663547E+00 -0.3942003138040E+01 -0.1652132937502E+01 -0.3223108544090E+00
 0.4444085563246E+00 -0.4000543041642E+01 -0.1671383203860E+01 -0.3484199540806E+00
 0.4468796912402E+00 -0.4064155945610E+01 -0.1700119835242E+01 -0.3797998412173E+00
 0.4350964970568E+00 -0.4134180463948E+01 -0.1738569460029E+01 -0.4166988392146E+00
-0.2254267801666E+01 -0.2943305696276E+01 -0.2442859537837E+01 -0.4668461574396E+00
-0.1927091159434E+01 -0.3050180846270E+01 -0.2339317836747E+01 -0.4155205712155E+00
-0.1626703753741E+01 -0.3146586842880E+01 -0.2243446574722E+01 -0.3743786839934E+00
-0.1350848820913E+01 -0.3234037023067E+01 -0.2154896341205E+01 -0.3408620320240E+00
-0.1097949125579E+01 -0.3313677282685E+01 -0.2073464406625E+01 -0.3132583505645E+00
-0.8668529881971E+00 -0.3386458212118E+01 -0.1999056259078E+01 -0.2904881641765E+00
-0.6566632134046E+00 -0.3453247307929E+01 -0.1931657940127E+01 -0.2719265979668E+00
-0.4666199632462E+00 -0.3514901082152E+01 -0.1871314886591E+01 -0.2572587775271E+00
-0.2960265728353E+00 -0.3572309046943E+01 -0.1818117736685E+01 -0.2463592271010E+00
-0.1442143313281E+00 -0.3626416011926E+01 -0.1772196256835E+01 -0.2391988880101E+00
-0.1053770666208E-01 -0.3678224709646E+01 -0.1733718331268E+01 -0.2357846990642E+00
 0.1056102288113E+00 -0.3728775040893E+01 -0.1702887457359E+01 -0.2361272572578E+00
 0.2047694096047E+00 -0.3779102554163E+01 -0.1679936573681E+01 -0.2402319698011E+00
 0.2873852543759E+00 -0.3830197581653E+01 -0.1665121789597E+01 -0.2481109279344E+00
 0.3537955186471E+00 -0.3882987234377E+01 -0.1658720102186E+01 -0.2598086634261E+00
 0.4042431470816E+00 -0.3938349111515E+01 -0.1661029799071E+01 -0.2754351534640E+00
 0.4389292107741E+00 -0.3997158837672E+01 -0.1672367920400E+01 -0.2951969578427E+00
 0.4581209904019E+00 -0.4060371197118E+01 -0.1693057592862E+01 -0.3193978544667E+00
 0.4622593318471E+00 -0.4129097779244E+01 -0.1723414065906E+01 -0.3483342049126E+00
 0.4520373298594E+00 -0.4204652160333E+01 -0.1763728965849E+01 -0.3821192893450E+00
-0.2274828773002E+01 -0.2955513032138E+01 -0.2458260642181E+01 -0.4139707236171E+00
-0.1942167532017E+01 -0.3064442362432E+01 -0.2353106644423E+01 -0.3680488171767E+00
-0.1637722379103E+01 -0.3162442740567E+01 -0.2256077600523E+01 -0.3314059062821E+00
-0.1358827197058E+01 -0.3251266969834E+01 -0.2166744252944E+01 -0.3017188344871E+00
-0.1103582855501E+01 -0.3332240988969E+01 -0.2084837201613E+01 -0.2774163332506E+00
-0.8705958055763E+00 -0.3406441991255E+01 -0.2010207759412E+01 -0.2574950533741E+00
-0.6587941887118E+00 -0.3474820145294E+01 -0.1942798732055E+01 -0.2413633954718E+00
-0.4672986406511E+00 -0.3538279896773E+01 -0.1882621907814E+01 -0.2287132228788E+00
-0.2953369962373E+00 -0.3597731895949E+01 -0.1829742374687E+01 -0.2194130300031E+00
-0.1421977715249E+00 -0.3654122383332E+01 -0.1784270468257E+01 -0.2134253701553E+00
-0.7215051850526E-02 -0.3708442533002E+01 -0.1746359060451E+01 -0.2107522602707E+00
 0.1102248930763E+00 -0.3761715374548E+01 -0.1716200521939E+01 -0.2114057141380E+00
 0.2106638262944E+00 -0.3814963593950E+01 -0.1694020886502E+01 -0.2153997956158E+00
 0.2945525061097E+00 -0.3869177832684E+01 -0.1680073899229E+01 -0.2227604289449E+00
 0.3622439941255E+00 -0.3925305107414E+01 -0.1674638718998E+01 -0.2335455688859E+00
 0.4140079917263E+00 -0.3984264218171E+01 -0.1678020422173E+01 -0.2478686937512E+00
 0.4500748770150E+00 -0.4046987304724E+01 -0.1690548836735E+01 -0.2659166011334E+00
 0.4707153415571E+00 -0.4114483074851E+01 -0.1712570830304E+01 -0.2879375020248E+00
 0.4763102692875E+00 -0.4187891079433E+01 -0.1744442976344E+01 -0.3141450093822E+00
 0.4673753729930E+00 -0.4268499464406E+01 -0.1786528318433E+01 -0.3445580618825E+00
-0.2293049378261E+01 -0.2966412548982E+01 -0.2471947099535E+01 -0.3603428955758E+00
-0.1955477166482E+01 -0.3077176912552E+01 -0.2365347411146E+01 -0.3200576547350E+00
-0.1647392918717E+01 -0.3176597855074E+01 -0.2267275657931E+01 -0.2880374472399E+00
-0.1365770371196E+01 -0.3266639337221E+01 -0.2177232557434E+01 -0.2622189132472E+00
-0.1108426067854E+01 -0.3348786828128E+01 -0.2094890055798E+01 -0.2411947049752E+00
-0.8737515514524E+00 -0.3424230830086E+01 -0.2020051714199E+01 -0.2240569058087E+00
-0.6605187799606E+00 -0.3493996635575E+01 -0.1952622240349E+01 -0.2102624067481E+00
-0.4677405074659E+00 -0.3559033430340E+01 -0.1892583745968E+01 -0.1995212673691E+00
-0.2945752028428E+00 -0.3620273007827E+01 -0.1839978654348E+01 -0.1917038296974E+00
-0.1402707165019E+00 -0.3678665233286E+01 -0.1794899891848E+01 -0.1867687657426E+00
-0.4140213204176E-02 -0.3735193334212E+01 -0.1757486762828E+01 -0.1847148606774E+00
 0.1144388812929E+00 -0.3790867819417E+01 -0.1727921596535E+01 -0.1855547737243E+00
 0.2160123910548E+00 -0.3846702652277E+01 -0.1706424418446E+01 -0.1893078934165E+00
 0.3010371933885E+00 -0.3903691408181E+01 -0.1693247476658E+01 -0.1960080782822E+00
 0.3698792068967E+00 -0.3962800592212E+01 -0.1688673046815E+01 -0.2057189097397E+00
 0.4228276737910E+00 -0.4024985351209E+01 -0.1693014104092E+01 -0.2185496243881E+00
 0.4601302107538E+00 -0.4091224808901E+01 -0.1706614456801E+01 -0.2346634688401E+00
 0.4820483466530E+00 -0.4162570245844E+01 -0.1729845288232E+01 -0.2542588753116E+00
 0.4888951784663E+00 -0.4240180438939E+01 -0.1763104067950E+01 -0.2774841801443E+00
 0.4810184446026E+00 -0.4325316419878E+01 -0.1806820043796E+01 -0.3042990923111E+00
-0.2308838397705E+01 -0.2975916695766E+01 -0.2483834887631E+01 -0.3060526878761E+00
-0.1966973382208E+01 -0.3088282058591E+01 -0.2375970051149E+01 -0.2716093106181E+00
-0.1655704088528E+01 -0.3188939586215E+01 -0.2276982521354E+01 -0.2443218663399E+00
-0.1371693889369E+01 -0.3280035623938E+01 -0.2186312865709E+01 -0.2224080955832E+00
-0.1112513557873E+01 -0.3363193947261E+01 -0.2103582522077E+01 -0.2046442389839E+00
-0.8763679915604E+00 -0.3439704060781E+01 -0.2028553859455E+01 -0.1902343713434E+00
-0.6618927849858E+00 -0.3510657670723E+01 -0.1961098709209E+01 -0.1786969712162E+00
-0.4680057642548E+00 -0.3577044338391E+01 -0.1901173543421E+01 -0.1697701694204E+00
-0.2938034769375E+00 -0.3639815932349E+01 -0.1848801117675E+01 -0.1633329468242E+00
-0.1384964985558E+00 -0.3699927245264E+01 -0.1804059155020E+01 -0.1593439698081E+00
-0.1377768623327E-02 -0.3758356428943E+01 -0.1767075068374E+01 -0.1578001670476E+00
 0.1181849695591E+00 -0.3816105058981E+01 -0.1738022437620E+01 -0.1587140065265E+00
 0.2207427235941E+00 -0.3874181551434E+01 -0.1717116244730E+01 -0.1621071658443E+00
 0.3067584738370E+00 -0.3933583861135E+01 -0.1704607927706E+01 -0.1680163821925E+00
 0.3766084730155E+00 -0.3995296465227E+01 -0.1700783352026E+01 -0.1765045852859E+00
 0.4305955652967E+00 -0.4060305566900E+01 -0.1705963696426E+01 -0.1876710850684E+00
 0.4689758086701E+00 -0.4129628519518E+01 -0.1720506769735E+01 -0.2016536721429E+00
 0.4919941402010E+00 -0.4204349484247E+01 -0.1744807007276E+01 -0.2186071073283E+00
 0.4998965728476E+00 -0.4285639119372E+01 -0.1779298992353E+01 -0.2386301976103E+00
 0.4928833750324E+00 -0.4374732634187E+01 -0.1824469147175E+01 -0.2616512612396E+00
-0.2322117177825E+01 -0.2983950661088E+01 -0.2493851877964E+01 -0.2511945166896E+00
-0.1976615859342E+01 -0.3097670109336E+01 -0.2384914399230E+01 -0.2227690688304E+00
-0.1662645922559E+01 -0.3199371528265E+01 -0.2285148196091E+01 -0.2003095653133E+00
-0.1376610795863E+01 -0.3291354317044E+01 -0.2193943597501E+01 -0.1823329493483E+00
-0.1115874944415E+01 -0.3375358658924E+01 -0.2110879788216E+01 -0.1678155770861E+00
-0.8784860013611E+00 -0.3452757886907E+01 -0.2035684622323E+01 -0.1560874220730E+00
-0.6629641647071E+00 -0.3524700456892E+01 -0.1968202367160E+01 -0.1467395746296E+00
-0.4681464129389E+00 -0.3592210985298E+01 -0.1908367972331E+01 -0.1395465455809E+00
-0.2930759478214E+00 -0.3656259447189E+01 -0.1856187630947E+01 -0.1344016561574E+00
-0.1369305728204E+00 -0.3717806061748E+01 -0.1811726213652E+01 -0.1312667998627E+00
 0.1015238179638E-02 -0.3777826041414E+01 -0.1775101073018E+01 -0.1301381345288E+00
 0.1214032583825E+00 -0.3837314847821E+01 -0.1746478442606E+01 -0.1310271225669E+00
 0.2247899358821E+00 -0.3897277644994E+01 -0.1726069218904E+01 -0.1339551019667E+00
 0.3116438090847E+00 -0.3958717277542E+01 -0.1714124525827E+01 -0.1389575157687E+00
 0.3823490820998E+00 -0.4022633937834E+01 -0.1710933877855E+01 -0.1460917290990E+00
 0.4372175449344E+00 -0.4090039449290E+01 -0.1716826290693E+01 -0.1554430773274E+00
 0.4765077883108E+00 -0.4161981393310E+01 -0.1732172589956E+01 -0.1671232913787E+00
 0.5004451725288E+00 -0.4239568477607E+01 -0.1757387948929E+01 -0.1812494586813E+00
 0.5092147846696E+00 -0.4323977924337E+01 -0.1792938671096E+01 -0.1978843216092E+00
 0.5028946911603E+00 -0.4416422189938E+01 -0.1839357919760E+01 -0.2169457323048E+00
-0.2332819789501E+01 -0.2990452228348E+01 -0.2501937842043E+01 -0.1958665378664E+00
-0.1984370757658E+01 -0.3105268049387E+01 -0.2392130233244E+01 -0.1736047619091E+00
-0.1668209891371E+01 -0.3207813379452E+01 -0.2291730931474E+01 -0.1560524676681E+00
-0.1380531756129E+01 -0.3300510814403E+01 -0.2200090002569E+01 -0.1420406702639E+00
-0.1118534762160E+01 -0.3385194438767E+01 -0.2116752719067E+01 -0.1307593005134E+00
-0.8801395965127E+00 -0.3463305518332E+01 -0.2041419198799E+01 -0.1216755488717E+00
-0.6637729846007E+00 -0.3536038820118E+01 -0.1973911543211E+01 -0.1144621001145E+00
-0.4682060824317E+00 -0.3604447920106E+01 -0.1914147376338E+01 -0.1089366071265E+00
-0.2924382695879E+00 -0.3669518183770E+01 -0.1862119528355E+01 -0.1050113563561E+00
-0.1356200120274E+00 -0.3732215055835E+01 -0.1817882477285E+01 -0.1026540703260E+00
 0.2990037729683E-02 -0.3793512273658E+01 -0.1781545446368E+01 -0.1018609667893E+00
 0.1240421923013E+00 -0.3854401304703E+01 -0.1753268778382E+01 -0.1026417741895E+00
 0.2280979401022E+00 -0.3915885607507E+01 -0.1733260199284E+01 -0.1050153246892E+00
 0.3156305003499E+00 -0.3978972707221E+01 -0.1721770832863E+01 -0.1090124583625E+00
 0.3870299075269E+00 -0.4044675766998E+01 -0.1719093549591E+01 -0.1146812597310E+00
 0.4426134543881E+00 -0.4114026822696E+01 -0.1725564278728E+01 -0.1220903205285E+00
 0.4826388309518E+00 -0.4188096427393E+01 -0.1741565065910E+01 -0.1313255213626E+00
 0.5073122029604E+00 -0.4268010918283E+01 -0.1767528391718E+01 -0.1424717194799E+00
 0.5167673023096E+00 -0.4354950554525E+01 -0.1803946123966E+01 -0.1555665321323E+00
 0.5109862904575E+00 -0.4450109005372E+01 -0.1851387671314E+01 -0.1705324633582E+00
-0.2340893289177E+01 -0.2995371756834E+01 -0.2508044565264E+01 -0.1401699837650E+00
-0.1990210870700E+01 -0.3111017526294E+01 -0.2397577340506E+01 -0.1241862975020E+00
-0.1672389056083E+01 -0.3214200936075E+01 -0.2296697290489E+01 -0.1116037315368E+00
-0.1383465200243E+01 -0.3307437433750E+01 -0.2204724232385E+01 -0.1015789784795E+00
-0.1120512573745E+01 -0.3392631992979E+01 -0.2121177940980E+01 -0.9352598014395E-01
-0.8813559891165E+00 -0.3471277337252E+01 -0.2045737658204E+01 -0.8705791353296E-01
-0.6643513916929E+00 -0.3544603496028E+01 -0.1978208792211E+01 -0.8193602195361E-01
-0.4682199006028E+00 -0.3613686297332E+01 -0.1918495908163E+01 -0.7802633518939E-01
-0.2919273590348E+00 -0.3679523180336E+01 -0.1866581748770E+01 -0.7526367289426E-01
-0.1346030767215E+00 -0.3743084034034E+01 -0.1822512937433E+01 -0.7362357889714E-01
 0.4506768062257E-02 -0.3805342013921E+01 -0.1786392561023E+01 -0.7310294017716E-01
 0.1260594217558E+00 -0.3867286124783E+01 -0.1758376545963E+01 -0.7370915169953E-01
 0.2306205318987E+00 -0.3929919066122E+01 -0.1738670306675E+01 -0.7545685776876E-01
 0.3186669290658E+00 -0.3994252300640E+01 -0.1727525120258E+01 -0.7836980416513E-01
 0.3905926645278E+00 -0.4061308910902E+01 -0.1725236631420E+01 -0.8248411091934E-01
 0.4467181573310E+00 -0.4132135866589E+01 -0.1732146318958E+01 -0.8784982487752E-01
 0.4872987280135E+00 -0.4207820176210E+01 -0.1748645076217E+01 -0.9452757866208E-01
 0.5125241888138E+00 -0.4289500169536E+01 -0.1775178706437E+01 -0.1025745446435E+00
 0.5224884807829E+00 -0.4378357081919E+01 -0.1812258237937E+01 -0.1120116232242E+00
 0.5171034653354E+00 -0.4475570097196E+01 -0.1860479312256E+01 -0.1227765055411E+00
-0.2346297822191E+01 -0.2998672067556E+01 -0.2512135841809E+01 -0.8420845290321E-01
-0.1994115703299E+01 -0.3114874799205E+01 -0.2401225530086E+01 -0.7458515912389E-01
-0.1675178132552E+01 -0.3218486051262E+01 -0.2300022160559E+01 -0.6701744225319E-01
-0.1385417381678E+01 -0.3312083397129E+01 -0.2207825360440E+01 -0.6099598578458E-01
-0.1121823005037E+01 -0.3397619293119E+01 -0.2124137874746E+01 -0.5616618239975E-01
-0.8821555812914E+00 -0.3476621010432E+01 -0.2048624992914E+01 -0.5229344346860E-01
-0.6647235465313E+00 -0.3550342338091E+01 -0.1981080960748E+01 -0.4923253331212E-01
-0.4682143420153E+00 -0.3619874192137E+01 -0.1921401606178E+01 -0.4690158381791E-01
-0.2915711338891E+00 -0.3686222314945E+01 -0.1869562916210E+01 -0.4526047929036E-01
-0.1339088169383E+00 -0.3750359811650E+01 -0.1825606250806E+01 -0.4429398956577E-01
 0.5535034825284E-02 -0.3813259703856E+01 -0.1789630589905E+01 -0.4400008622584E-01
 0.1274225381827E+00 -0.3875909611190E+01 -0.1761788919845E+01 -0.4438338735012E-01
 0.2323222854998E+00 -0.3939311973275E+01 -0.1742285148835E+01 -0.4545315455515E-01
 0.3207135496957E+00 -0.4004481073211E+01 -0.1731370731661E+01 -0.4722431089702E-01
 0.3929928743237E+00 -0.4072446681816E+01 -0.1729343285135E+01 -0.4971921317412E-01
 0.4494822743423E+00 -0.4144265595136E+01 -0.1736548156368E+01 -0.5296827107496E-01
 0.4904346899549E+00 -0.4221035400165E+01 -0.1753382329351E+01 -0.5700753354686E-01
 0.5160281234813E+00 -0.4303901822895E+01 -0.1780300634209E+01 -0.6186989546318E-01
 0.5263294358568E+00 -0.4394046114346E+01 -0.1817826834279E+01 -0.6756550186851E-01
 0.5212044803767E+00 -0.4492637526493E+01 -0.1866573526940E+01 -0.7405420969369E-01
-0.2349006755203E+01 -0.3000328405847E+01 -0.2514187519317E+01 -0.2808725578662E-01
-0.1996071550942E+01 -0.3116810719974E+01 -0.2403054661236E+01 -0.2487396722165E-01
-0.1676573564236E+01 -0.3220636631155E+01 -0.2301688785996E+01 -0.2234835714224E-01
-0.1386392440820E+01 -0.3314414844503E+01 -0.2209379418498E+01 -0.2034009761817E-01
-0.1122475789294E+01 -0.3400121625398E+01 -0.2125620779514E+01 -0.1873049108498E-01
-0.8825519758387E+00 -0.3479301591696E+01 -0.2050071171542E+01 -0.1744092585262E-01
-0.6649055850324E+00 -0.3553220487521E+01 -0.1982519249071E+01 -0.1642266001105E-01
-0.4682071230223E+00 -0.3622976848921E+01 -0.1922856461936E+01 -0.1564815684015E-01
-0.2913883215064E+00 -0.3689580646380E+01 -0.1871055410161E+01 -0.1510387691194E-01
-0.1335567746184E+00 -0.3754006669727E+01 -0.1827154814208E+01 -0.1478465116657E-01
 0.6054331850804E-02 -0.3817227950625E+01 -0.1791251596280E+01 -0.1468977709879E-01
 0.1281096233000E+00 -0.3880231493591E+01 -0.1763497274564E+01 -0.1482082450531E-01
 0.2331792144018E+00 -0.3944019681779E+01 -0.1744095015244E+01 -0.1518095952306E-01
 0.3217436070231E+00 -0.4009608265380E+01 -0.1733296385032E+01 -0.1577526792352E-01
 0.3942005320276E+00 -0.4078030378662E+01 -0.1731400023527E+01 -0.1661131356760E-01
 0.4508726537876E+00 -0.4150347687424E+01 -0.1738753261399E+01 -0.1769929263952E-01
 0.4920114827392E+00 -0.4227662946354E+01 -0.1755756183446E+01 -0.1905116171544E-01
 0.5177888470462E+00 -0.4311125397207E+01 -0.1782868174053E+01 -0.2067764744493E-01
 0.5282578812560E+00 -0.4401916114874E+01 -0.1820619365183E+01 -0.2258172734612E-01
 0.5232617012862E+00 -0.4501199214967E+01 -0.1869630626688E+01 -0.2474953865277E-01
-0.2349006754719E+01 -0.3000328405568E+01 -0.2514187518958E+01  0.2808727604624E-01
-0.1996071550623E+01 -0.3116810719682E+01 -0.2403054660949E+01  0.2487398332374E-01
-0.1676573564032E+01 -0.3220636630868E+01 -0.2301688785765E+01  0.2234836995469E-01
-0.1386392440695E+01 -0.3314414844233E+01 -0.2209379418312E+01  0.2034010778604E-01
-0.1122475789225E+01 -0.3400121625152E+01 -0.2125620779365E+01  0.1873049910127E-01
-0.8825519758072E+00 -0.3479301591478E+01 -0.2050071171424E+01  0.1744093210594E-01
-0.6649055850263E+00 -0.3553220487333E+01 -0.1982519248980E+01  0.1642266481793E-01
-0.4682071230323E+00 -0.3622976848766E+01 -0.1922856461868E+01  0.1564816046634E-01
-0.2913883215250E+00 -0.3689580646257E+01 -0.1871055410112E+01  0.1510387958619E-01
-0.1335567746397E+00 -0.3754006669636E+01 -0.1827154814175E+01  0.1478465308955E-01
 0.6054331830660E-02 -0.3817227950561E+01 -0.1791251596260E+01  0.1468977844606E-01
 0.1281096232834E+00 -0.3880231493550E+01 -0.1763497274553E+01  0.1482082542664E-01
 0.2331792143899E+00 -0.3944019681756E+01 -0.1744095015239E+01  0.1518096013948E-01
 0.3217436070158E+00 -0.4009608265370E+01 -0.1733296385030E+01  0.1577526832698E-01
 0.3942005320240E+00 -0.4078030378660E+01 -0.1731400023527E+01  0.1661131382446E-01
 0.4508726537871E+00 -0.4150347687426E+01 -0.1738753261400E+01  0.1769929279605E-01
 0.4920114827417E+00 -0.4227662946359E+01 -0.1755756183447E+01  0.1905116180257E-01
 0.5177888470517E+00 -0.4311125397213E+01 -0.1782868174054E+01  0.2067764748119E-01
 0.5282578812645E+00 -0.4401916114881E+01 -0.1820619365182E+01  0.2258172733813E-01
 0.5232617012989E+00 -0.4501199214975E+01 -0.1869630626685E+01  0.2474953859514E-01
-0.2346297820740E+01 -0.2998672066723E+01 -0.2512135840736E+01  0.8420847312488E-01
-0.1994115702345E+01 -0.3114874798331E+01 -0.2401225529227E+01  0.7458517520203E-01
-0.1675178131940E+01 -0.3218486050404E+01 -0.2300022159868E+01  0.6701745504924E-01
-0.1385417381305E+01 -0.3312083396321E+01 -0.2207825359884E+01  0.6099599593967E-01
-0.1121823004828E+01 -0.3397619292382E+01 -0.2124137874301E+01  0.5616619040479E-01
-0.8821555811962E+00 -0.3476621009778E+01 -0.2048624992562E+01  0.5229344971139E-01
-0.6647235465128E+00 -0.3550342337529E+01 -0.1981080960475E+01  0.4923253810916E-01
-0.4682143420449E+00 -0.3619874191672E+01 -0.1921401605974E+01  0.4690158743522E-01
-0.2915711339444E+00 -0.3686222314579E+01 -0.1869562916064E+01  0.4526048195704E-01
-0.1339088170021E+00 -0.3750359811377E+01 -0.1825606250708E+01  0.4429399148258E-01
 0.5535034765010E-02 -0.3813259703666E+01 -0.1789630589844E+01  0.4400008756829E-01
 0.1274225381333E+00 -0.3875909611069E+01 -0.1761788919811E+01  0.4438338826765E-01
 0.2323222854641E+00 -0.3939311973206E+01 -0.1742285148820E+01  0.4545315516846E-01
 0.3207135496733E+00 -0.4004481073179E+01 -0.1731370731656E+01  0.4722431129777E-01
 0.3929928743130E+00 -0.4072446681809E+01 -0.1729343285137E+01  0.4971921342848E-01
 0.4494822743410E+00 -0.4144265595143E+01 -0.1736548156372E+01  0.5296827122916E-01
 0.4904346899622E+00 -0.4221035400179E+01 -0.1753382329355E+01  0.5700753363192E-01
 0.5160281234973E+00 -0.4303901822914E+01 -0.1780300634210E+01  0.6186989549784E-01
 0.5263294358826E+00 -0.4394046114367E+01 -0.1817826834277E+01  0.6756550185955E-01
 0.5212044804148E+00 -0.4492637526517E+01 -0.1866573526934E+01  0.7405420963581E-01
-0.2340893286767E+01 -0.2995371755452E+01 -0.2508044563482E+01  0.1401700039111E+00
-0.1990210869114E+01 -0.3111017524846E+01 -0.2397577339080E+01  0.1241863135324E+00
-0.1672389055065E+01 -0.3214200934653E+01 -0.2296697289342E+01  0.1116037443001E+00
-0.1383465199619E+01 -0.3307437432410E+01 -0.2204724231462E+01  0.1015789886090E+00
-0.1120512573395E+01 -0.3392631991756E+01 -0.2121177940241E+01  0.9352598812648E-01
-0.8813559889561E+00 -0.3471277336166E+01 -0.2045737657619E+01  0.8705791975469E-01
-0.6643513916603E+00 -0.3544603495095E+01 -0.1978208791757E+01  0.8193602673095E-01
-0.4682199006507E+00 -0.3613686296560E+01 -0.1918495907823E+01  0.7802633878895E-01
-0.2919273591257E+00 -0.3679523179728E+01 -0.1866581748527E+01  0.7526367554578E-01
-0.1346030768268E+00 -0.3743084033581E+01 -0.1822512937269E+01  0.7362358080166E-01
 0.4506767962789E-02 -0.3805342013606E+01 -0.1786392560922E+01  0.7310294151001E-01
 0.1260594216742E+00 -0.3867286124583E+01 -0.1758376545907E+01  0.7370915260955E-01
 0.2306205318397E+00 -0.3929919066009E+01 -0.1738670306650E+01  0.7545685837594E-01
 0.3186669290292E+00 -0.3994252300588E+01 -0.1727525120251E+01  0.7836980456047E-01
 0.3905926645105E+00 -0.4061308910890E+01 -0.1725236631423E+01  0.8248411116861E-01
 0.4467181573295E+00 -0.4132135866601E+01 -0.1732146318964E+01  0.8784982502701E-01
 0.4872987280259E+00 -0.4207820176236E+01 -0.1748645076223E+01  0.9452757874304E-01
 0.5125241888401E+00 -0.4289500169568E+01 -0.1775178706439E+01  0.1025745446750E+00
 0.5224884808255E+00 -0.4378357081955E+01 -0.1812258237934E+01  0.1120116232133E+00
 0.5171034653983E+00 -0.4475570097237E+01 -0.1860479312245E+01  0.1227765054827E+00
-0.2332819786144E+01 -0.2990452226429E+01 -0.2501937839564E+01  0.1958665578997E+00
-0.1984370755445E+01 -0.3105268047376E+01 -0.2392130231258E+01  0.1736047778683E+00
-0.1668209889948E+01 -0.3207813377476E+01 -0.2291730929877E+01  0.1560524803825E+00
-0.1380531755254E+01 -0.3300510812541E+01 -0.2200090001284E+01  0.1420406803552E+00
-0.1118534761668E+01 -0.3385194437067E+01 -0.2116752718036E+01  0.1307593084621E+00
-0.8801395962845E+00 -0.3463305516823E+01 -0.2041419197983E+01  0.1216755550618E+00
-0.6637729845515E+00 -0.3536038818821E+01 -0.1973911542578E+01  0.1144621048623E+00
-0.4682060824956E+00 -0.3604447919032E+01 -0.1914147375863E+01  0.1089366106995E+00
-0.2924382697126E+00 -0.3669518182923E+01 -0.1862119528016E+01  0.1050113589850E+00
-0.1356200121726E+00 -0.3732215055205E+01 -0.1817882477057E+01  0.1026540722122E+00
 0.2990037592321E-02 -0.3793512273222E+01 -0.1781545446227E+01  0.1018609681079E+00
 0.1240421921886E+00 -0.3854401304425E+01 -0.1753268778304E+01  0.1026417750884E+00
 0.2280979400210E+00 -0.3915885607350E+01 -0.1733260199249E+01  0.1050153252873E+00
 0.3156305002999E+00 -0.3978972707151E+01 -0.1721770832853E+01  0.1090124587497E+00
 0.3870299075036E+00 -0.4044675766983E+01 -0.1719093549595E+01  0.1146812599727E+00
 0.4426134543866E+00 -0.4114026822715E+01 -0.1725564278737E+01  0.1220903206709E+00
 0.4826388309691E+00 -0.4188096427430E+01 -0.1741565065919E+01  0.1313255214374E+00
 0.5073122029968E+00 -0.4268010918329E+01 -0.1767528391723E+01  0.1424717195066E+00
 0.5167673023683E+00 -0.4354950554577E+01 -0.1803946123963E+01  0.1555665321187E+00
 0.5109862905445E+00 -0.4450109005430E+01 -0.1851387671301E+01  0.1705324632993E+00
-0.2322117173539E+01 -0.2983950658648E+01 -0.2493851874803E+01  0.2511945365737E+00
-0.1976615856510E+01 -0.3097670106778E+01 -0.2384914396696E+01  0.2227690846953E+00
-0.1662645920733E+01 -0.3199371525752E+01 -0.2285148194052E+01  0.2003095779629E+00
-0.1376610794736E+01 -0.3291354314675E+01 -0.2193943595859E+01  0.1823329593886E+00
-0.1115874943776E+01 -0.3375358656760E+01 -0.2110879786898E+01  0.1678155849897E+00
-0.8784860010615E+00 -0.3452757884985E+01 -0.2035684621279E+01  0.1560874282209E+00
-0.6629641646380E+00 -0.3524700455239E+01 -0.1968202366350E+01  0.1467395793379E+00
-0.4681464130159E+00 -0.3592210983929E+01 -0.1908367971724E+01  0.1395465491184E+00
-0.2930759479773E+00 -0.3656259446109E+01 -0.1856187630513E+01  0.1344016587562E+00
-0.1369305730034E+00 -0.3717806060946E+01 -0.1811726213361E+01  0.1312668017246E+00
 0.1015238006460E-02 -0.3777826040858E+01 -0.1775101072838E+01  0.1301381358286E+00
 0.1214032582406E+00 -0.3837314847468E+01 -0.1746478442507E+01  0.1310271234511E+00
 0.2247899357805E+00 -0.3897277644797E+01 -0.1726069218860E+01  0.1339551025528E+00
 0.3116438090226E+00 -0.3958717277455E+01 -0.1714124525816E+01  0.1389575161454E+00
 0.3823490820715E+00 -0.4022633937818E+01 -0.1710933877861E+01  0.1460917293308E+00
 0.4372175449335E+00 -0.4090039449317E+01 -0.1716826290706E+01  0.1554430774605E+00
 0.4765077883333E+00 -0.4161981393359E+01 -0.1732172589969E+01  0.1671232914454E+00
 0.5004451725749E+00 -0.4239568477668E+01 -0.1757387948936E+01  0.1812494587018E+00
 0.5092147847437E+00 -0.4323977924406E+01 -0.1792938671094E+01  0.1978843215919E+00
 0.5028946912704E+00 -0.4416422190016E+01 -0.1839357919745E+01  0.2169457322449E+00
-0.2308838392510E+01 -0.2975916692825E+01 -0.2483834883807E+01  0.3060527075758E+00
-0.1966973378768E+01 -0.3088282055508E+01 -0.2375970048083E+01  0.2716093263663E+00
-0.1655704086302E+01 -0.3188939583186E+01 -0.2276982518884E+01  0.2443218789089E+00
-0.1371693887988E+01 -0.3280035621082E+01 -0.2186312863718E+01  0.2224081055598E+00
-0.1112513557084E+01 -0.3363193944649E+01 -0.2103582520479E+01  0.2046442468311E+00
-0.8763679911848E+00 -0.3439704058459E+01 -0.2028553858187E+01  0.1902343774383E+00
-0.6618927848923E+00 -0.3510657668724E+01 -0.1961098708226E+01  0.1786969758751E+00
-0.4680057643409E+00 -0.3577044336735E+01 -0.1901173542684E+01  0.1697701729138E+00
-0.2938034771214E+00 -0.3639815931043E+01 -0.1848801117148E+01  0.1633329493856E+00
-0.1384964987736E+00 -0.3699927244294E+01 -0.1804059154666E+01  0.1593439716399E+00
-0.1377768829899E-02 -0.3758356428272E+01 -0.1767075068156E+01  0.1578001683240E+00
 0.1181849693904E+00 -0.3816105058558E+01 -0.1738022437500E+01  0.1587140073926E+00
 0.2207427234740E+00 -0.3874181551200E+01 -0.1717116244676E+01  0.1621071664157E+00
 0.3067584737647E+00 -0.3933583861033E+01 -0.1704607927693E+01  0.1680163825561E+00
 0.3766084729837E+00 -0.3995296465213E+01 -0.1700783352034E+01  0.1765045855054E+00
 0.4305955652971E+00 -0.4060305566936E+01 -0.1705963696443E+01  0.1876710851900E+00
 0.4689758086974E+00 -0.4129628519581E+01 -0.1720506769752E+01  0.2016536721994E+00
 0.4919941402557E+00 -0.4204349484325E+01 -0.1744807007287E+01  0.2186071073412E+00
 0.4998965729359E+00 -0.4285639119458E+01 -0.1779298992352E+01  0.2386301975888E+00
 0.4928833751646E+00 -0.4374732634284E+01 -0.1824469147159E+01  0.2616512611795E+00
-0.2293049372183E+01 -0.2966412545565E+01 -0.2471947095072E+01  0.3603429150570E+00
-0.1955477162445E+01 -0.3077176908969E+01 -0.2365347407565E+01  0.3200576703449E+00
-0.1647392916094E+01 -0.3176597851553E+01 -0.2267275655043E+01  0.2880374597130E+00
-0.1365770369558E+01 -0.3266639333899E+01 -0.2177232555103E+01  0.2622189231477E+00
-0.1108426066910E+01 -0.3348786825087E+01 -0.2094890053925E+01  0.2411947127546E+00
-0.8737515509953E+00 -0.3424230827381E+01 -0.2020051712713E+01  0.2240569118401E+00
-0.6605187798373E+00 -0.3493996633244E+01 -0.1952622239196E+01  0.2102624113477E+00
-0.4677405075565E+00 -0.3559033428408E+01 -0.1892583745103E+01  0.1995212708095E+00
-0.2945752030506E+00 -0.3620273006303E+01 -0.1839978653729E+01  0.1917038322139E+00
-0.1402707167512E+00 -0.3678665232154E+01 -0.1794899891433E+01  0.1867687675387E+00
-0.4140213441090E-02 -0.3735193333431E+01 -0.1757486762572E+01  0.1847148619263E+00
 0.1144388811002E+00 -0.3790867818926E+01 -0.1727921596395E+01  0.1855547745693E+00
 0.2160123909188E+00 -0.3846702652008E+01 -0.1706424418384E+01  0.1893078939707E+00
 0.3010371933078E+00 -0.3903691408069E+01 -0.1693247476643E+01  0.1960080786306E+00
 0.3698792068625E+00 -0.3962800592202E+01 -0.1688673046826E+01  0.2057189099448E+00
 0.4228276737932E+00 -0.4024985351258E+01 -0.1693014104114E+01  0.2185496244961E+00
 0.4601302107859E+00 -0.4091224808981E+01 -0.1706614456823E+01  0.2346634688845E+00
 0.4820483467155E+00 -0.4162570245940E+01 -0.1729845288248E+01  0.2542588753154E+00
 0.4888951785675E+00 -0.4240180439045E+01 -0.1763104067952E+01  0.2774841801180E+00
 0.4810184447549E+00 -0.4325316419997E+01 -0.1806820043781E+01  0.3042990922502E+00
-0.2274828766073E+01 -0.2955513028273E+01 -0.2458260637107E+01  0.4139707428475E+00
-0.1942167527397E+01 -0.3064442358380E+01 -0.2353106640347E+01  0.3680488326275E+00
-0.1637722376085E+01 -0.3162442736584E+01 -0.2256077597232E+01  0.3314059186443E+00
-0.1358827195161E+01 -0.3251266966074E+01 -0.2166744250285E+01  0.3017188442991E+00
-0.1103582854397E+01 -0.3332240985523E+01 -0.2084837199475E+01  0.2774163409507E+00
-0.8705958050308E+00 -0.3406441988185E+01 -0.2010207757713E+01  0.2574950593309E+00
-0.6587941885523E+00 -0.3474820142646E+01 -0.1942798730736E+01  0.2413634000022E+00
-0.4672986407407E+00 -0.3538279894578E+01 -0.1882621906825E+01  0.2287132262574E+00
-0.2953369964645E+00 -0.3597731894217E+01 -0.1829742373979E+01  0.2194130324677E+00
-0.1421977718018E+00 -0.3654122382047E+01 -0.1784270467783E+01  0.2134253719101E+00
-0.7215052114285E-02 -0.3708442532117E+01 -0.1746359060159E+01  0.2107522614881E+00
 0.1102248928627E+00 -0.3761715373995E+01 -0.1716200521779E+01  0.2114057149587E+00
 0.2106638261454E+00 -0.3814963593651E+01 -0.1694020886431E+01  0.2153997961503E+00
 0.2945525060234E+00 -0.3869177832563E+01 -0.1680073899212E+01  0.2227604292759E+00
 0.3622439940912E+00 -0.3925305107409E+01 -0.1674638719012E+01  0.2335455690747E+00
 0.4140079917318E+00 -0.3984264218234E+01 -0.1678020422200E+01  0.2478686938435E+00
 0.4500748770518E+00 -0.4046987304822E+01 -0.1690548836764E+01  0.2659166011638E+00
 0.4707153416262E+00 -0.4114483074966E+01 -0.1712570830326E+01  0.2879375020181E+00
 0.4763102693999E+00 -0.4187891079560E+01 -0.1744442976351E+01  0.3141450093506E+00
 0.4673753731649E+00 -0.4268499464549E+01 -0.1786528318419E+01  0.3445580618223E+00
-0.2254267793920E+01 -0.2943305691998E+01 -0.2442859532185E+01  0.4668461763884E+00
-0.1927091154247E+01 -0.3050180841785E+01 -0.2339317832202E+01  0.4155205864876E+00
-0.1626703750332E+01 -0.3146586838470E+01 -0.2243446571047E+01  0.3743786962303E+00
-0.1350848818753E+01 -0.3234037018898E+01 -0.2154896338231E+01  0.3408620417350E+00
-0.1097949124307E+01 -0.3313677278860E+01 -0.2073464404230E+01  0.3132583581738E+00
-0.8668529875557E+00 -0.3386458208707E+01 -0.1999056257173E+01  0.2904881700478E+00
-0.6566632132018E+00 -0.3453247304983E+01 -0.1931657938647E+01  0.2719266024178E+00
-0.4666199633285E+00 -0.3514901079706E+01 -0.1871314885480E+01  0.2572587808352E+00
-0.2960265730765E+00 -0.3572309045014E+01 -0.1818117735891E+01  0.2463592295065E+00
-0.1442143316280E+00 -0.3626416010496E+01 -0.1772196256303E+01  0.2391988897182E+00
-0.1053770694883E-01 -0.3678224708664E+01 -0.1733718330941E+01  0.2357847002460E+00
 0.1056102285804E+00 -0.3728775040283E+01 -0.1702887457181E+01  0.2361272580515E+00
 0.2047694094461E+00 -0.3779102553837E+01 -0.1679936573603E+01  0.2402319703139E+00
 0.2873852542867E+00 -0.3830197581529E+01 -0.1665121789580E+01  0.2481109282462E+00
 0.3537955186148E+00 -0.3882987234383E+01 -0.1658720102204E+01  0.2598086635966E+00
 0.4042431470912E+00 -0.3938349111596E+01 -0.1661029799104E+01  0.2754351535388E+00
 0.4389292108158E+00 -0.3997158837791E+01 -0.1672367920437E+01  0.2951969578573E+00
 0.4581209904766E+00 -0.4060371197256E+01 -0.1693057592892E+01  0.3193978544481E+00
 0.4622593319681E+00 -0.4129097779395E+01 -0.1723414065919E+01  0.3483342048751E+00
 0.4520373300487E+00 -0.4204652160501E+01 -0.1763728965839E+01  0.3821192892853E+00
-0.2231469935141E+01 -0.2929890864086E+01 -0.2425839569484E+01  0.5188843115941E+00
-0.1910300897718E+01 -0.3034509572319E+01 -0.2324060915023E+01  0.4624143494729E+00
-0.1614349431791E+01 -0.3129159031500E+01 -0.2229448972092E+01  0.4169094713066E+00
-0.1341816977320E+01 -0.3215085079929E+01 -0.2141743961475E+01  0.3796035800025E+00
-0.1091484728206E+01 -0.3293233736904E+01 -0.2060817673375E+01  0.3486697803251E+00
-0.8624683450700E+00 -0.3364416860588E+01 -0.1986636041621E+01  0.3229746740428E+00
-0.6540622308335E+00 -0.3429413145075E+01 -0.1919233421809E+01  0.3018775111792E+00
-0.4656362212634E+00 -0.3489029422834E+01 -0.1858692848011E+01  0.2850697351679E+00
-0.2965737959512E+00 -0.3544135361547E+01 -0.1805133299446E+01  0.2724408302089E+00
-0.1462496859954E+00 -0.3595677505227E+01 -0.1758705775414E+01  0.2639752037799E+00
-0.1403682754586E-01 -0.3644674427783E+01 -0.1719594285643E+01  0.2596867152612E+00
 0.1006683374535E+00 -0.3692187885450E+01 -0.1688014183277E+01  0.2595839475944E+00
 0.1984075387782E+00 -0.3739271373288E+01 -0.1664205997998E+01  0.2636602161899E+00
 0.2796227894927E+00 -0.3786918966009E+01 -0.1648429198781E+01  0.2719071876494E+00
 0.3446344976789E+00 -0.3836039072930E+01 -0.1640960146206E+01  0.2843465602421E+00
 0.3936504691315E+00 -0.3887464175971E+01 -0.1642092438050E+01  0.3010745042642E+00
 0.4268266664012E+00 -0.3942003138183E+01 -0.1652132937547E+01  0.3223108544060E+00
 0.4444085564031E+00 -0.4000543041805E+01 -0.1671383203900E+01  0.3484199540486E+00
 0.4468796913673E+00 -0.4064155945786E+01 -0.1700119835265E+01  0.3797998411734E+00
 0.4350964972622E+00 -0.4134180464144E+01 -0.1738569460025E+01  0.4166988391562E+00
-0.2206550634639E+01 -0.2915381679377E+01 -0.2407308181482E+01  0.5700059590898E+00
-0.1891855601948E+01 -0.3017560565324E+01 -0.2307425592766E+01  0.5086757546981E+00
-0.1600672690147E+01 -0.3110304627031E+01 -0.2214159333458E+01  0.4589545548749E+00
-0.1331710428090E+01 -0.3194564057568E+01 -0.2127349002864E+01  0.4178995237824E+00
-0.1084143938222E+01 -0.3271065711875E+01 -0.2046948530353E+01  0.3835992309023E+00
-0.8573800030026E+00 -0.3340471912767E+01 -0.1972990395408E+01  0.3548916933226E+00
-0.6509197902760E+00 -0.3403468178056E+01 -0.1905562340283E+01  0.3311399797584E+00
-0.4642712506547E+00 -0.3460811739722E+01 -0.1844789000798E+01  0.3120565144551E+00
-0.2969009741438E+00 -0.3513355300729E+01 -0.1790820444648E+01  0.2975556434372E+00
-0.1482262283198E+00 -0.3562051369268E+01 -0.1743830466443E+01  0.2876407476026E+00
-0.1763503855477E-01 -0.3607939158313E+01 -0.1704019868206E+01  0.2823348361591E+00
 0.9547775868771E-01 -0.3652107575037E+01 -0.1671616009445E+01  0.2816441654011E+00
 0.1916610129357E+00 -0.3695633855335E+01 -0.1646867231751E+01  0.2855467263945E+00
 0.2713569056056E+00 -0.3739521470913E+01 -0.1630037341560E+01  0.2940068222001E+00
 0.3348673983385E+00 -0.3784663683210E+01 -0.1621404249777E+01  0.3070123473362E+00
 0.3823558458608E+00 -0.3831845836150E+01 -0.1621260291324E+01  0.3246322051370E+00
 0.4139131687301E+00 -0.3881799312889E+01 -0.1629906483621E+01  0.3470890984345E+00
 0.4297374686434E+00 -0.3935326611929E+01 -0.1647626893165E+01  0.3748110434005E+00
 0.4303281764040E+00 -0.3993441887699E+01 -0.1674663440061E+01  0.4083178652853E+00
 0.4166718937295E+00 -0.4057503236737E+01 -0.1711190726873E+01  0.4480372807866E+00
-0.2179636990660E+01 -0.2899904038748E+01 -0.2387384277766E+01  0.6201383618995E+00
-0.1871819909962E+01 -0.2999480618496E+01 -0.2289511242568E+01  0.5542554446725E+00
-0.1585687407280E+01 -0.3090185633635E+01 -0.2197660323656E+01  0.5004735015742E+00
-0.1320504626789E+01 -0.3172644606452E+01 -0.2111780134267E+01  0.4557071685231E+00
-0.1075875160327E+01 -0.3247346190847E+01 -0.2031914029898E+01  0.4179947639216E+00
-0.8515187996350E+00 -0.3314793893660E+01 -0.1958166960882E+01  0.3861745716536E+00
-0.6471566107225E+00 -0.3375577906200E+01 -0.1890685218158E+01  0.3596356391371E+00
-0.4624411515048E+00 -0.3430408310108E+01 -0.1829639242317E+01  0.3381276490317E+00
-0.2969231807430E+00 -0.3480125727930E+01 -0.1775212982574E+01  0.3216005333502E+00
-0.1500599144114E+00 -0.3525694083633E+01 -0.1727604374699E+01  0.3100823113843E+00
-0.2124962259709E-01 -0.3568178304974E+01 -0.1687031121679E+01  0.3036073857181E+00
 0.9012101463068E-01 -0.3608699486292E+01 -0.1653731877486E+01  0.3021797126289E+00
 0.1846153057521E+00 -0.3648364461800E+01 -0.1627962099213E+01  0.3057593587627E+00
 0.2626814672216E+00 -0.3688193262477E+01 -0.1609990539687E+01  0.3142766463528E+00
 0.3246037029011E+00 -0.3729070848731E+01 -0.1600099554482E+01  0.3276735345977E+00
 0.3704912572158E+00 -0.3771736981994E+01 -0.1598585486591E+01  0.3459744683739E+00
 0.4003453991169E+00 -0.3816835576570E+01 -0.1605750379330E+01  0.3693888619186E+00
 0.4142838000375E+00 -0.3865063277405E+01 -0.1621866350249E+01  0.3984074785062E+00
 0.4127817520584E+00 -0.3917349566544E+01 -0.1647146868631E+01  0.4336902892945E+00
 0.3969217031771E+00 -0.3975042742512E+01 -0.1681716884222E+01  0.4758912158277E+00
-0.2150867148608E+01 -0.2883596127520E+01 -0.2366197733778E+01  0.6692158084402E+00
-0.1850263968514E+01 -0.2980431072207E+01 -0.2270426663380E+01  0.5991099729377E+00
-0.1569407649060E+01 -0.3068981071516E+01 -0.2180042693141E+01  0.5414298619173E+00
-0.1308171190371E+01 -0.3149515779565E+01 -0.2095112870556E+01  0.4929852978858E+00
-0.1066620442917E+01 -0.3222266339884E+01 -0.2015776782804E+01  0.4518035567539E+00
-0.8448079427338E+00 -0.3287569907469E+01 -0.1942217584669E+01  0.4167561680988E+00
-0.6426854842284E+00 -0.3345922181712E+01 -0.1874645598237E+01  0.3872830589359E+00
-0.4600544171538E+00 -0.3397991653964E+01 -0.1813281648826E+01  0.3631890620742E+00
-0.2965485377818E+00 -0.3444614381073E+01 -0.1758346567402E+01  0.3444710036186E+00
-0.1516605998240E+00 -0.3486772616622E+01 -0.1710063607392E+01  0.3311869177649E+00
-0.2479297857211E-01 -0.3525562156950E+01 -0.1668666909463E+01  0.3233844135389E+00
 0.8468376668609E-01 -0.3562140191326E+01 -0.1634404515435E+01  0.3210653906284E+00
 0.1773568974223E+00 -0.3597647835212E+01 -0.1607536736684E+01  0.3241705112095E+00
 0.2536897632270E+00 -0.3633129421098E+01 -0.1588336635171E+01  0.3325909688143E+00
 0.3139526419708E+00 -0.3669472710110E+01 -0.1577094428025E+01  0.3462106217898E+00
 0.3581917341131E+00 -0.3707379981333E+01 -0.1574118472201E+01  0.3649882817822E+00
 0.3862892614548E+00 -0.3747401164241E+01 -0.1579722590303E+01  0.3890956626996E+00
 0.3982406343893E+00 -0.3790102080381E+01 -0.1594174875573E+01  0.4190778233826E+00
 0.3944475079081E+00 -0.3836285524459E+01 -0.1617663863676E+01  0.4557473086825E+00
 0.3760335624061E+00 -0.3887249442785E+01 -0.1650271459592E+01  0.5000299664522E+00
-0.2120389889003E+01 -0.2866607723860E+01 -0.2343888872101E+01  0.7171802406617E+00
-0.1827263327586E+01 -0.2960587490979E+01 -0.2250289879018E+01  0.6432030640907E+00
-0.1551847324412E+01 -0.3046887667224E+01 -0.2161405440587E+01  0.5817923079494E+00
-0.1294677428485E+01 -0.3125386444526E+01 -0.2077430015046E+01  0.5296945667368E+00
-0.1056314925455E+01 -0.3196036635163E+01 -0.1998605228421E+01  0.4849714385925E+00
-0.8371627064562E+00 -0.3259004019295E+01 -0.1925198356220E+01  0.4465658125445E+00
-0.6374112575628E+00 -0.3314694570870E+01 -0.1857489734652E+01  0.4139965355581E+00
-0.4570122734776E+00 -0.3363745116327E+01 -0.1795755968653E+01  0.3871430645582E+00
-0.2956786941472E+00 -0.3406997955030E+01 -0.1740258020700E+01  0.3660606518820E+00
-0.1529324652417E+00 -0.3445462543448E+01 -0.1691245649794E+01  0.3508417912122E+00
-0.2817285181734E-01 -0.3480270627126E+01 -0.1648968430921E+01  0.3415479282881E+00
 0.7925435139743E-01 -0.3512617498992E+01 -0.1613680675276E+01  0.3381788473959E+00
 0.1699719223072E+00 -0.3543679801726E+01 -0.1585642699305E+01  0.3406557523050E+00
 0.2444714402341E+00 -0.3574532276081E+01 -0.1565128588878E+01  0.3488286790863E+00
 0.3030190094683E+00 -0.3606080213263E+01 -0.1552438761846E+01  0.3625137269530E+00
 0.3455914953538E+00 -0.3639008044761E+01 -0.1547905774295E+01  0.3815798939038E+00
 0.3719174222214E+00 -0.3673775736566E+01 -0.1551873403806E+01  0.4061253673025E+00
 0.3818194608639E+00 -0.3710791570945E+01 -0.1564616887770E+01  0.4367280433995E+00
 0.3755634717002E+00 -0.3750672323669E+01 -0.1586301156402E+01  0.4743543772789E+00
 0.3542578738492E+00 -0.3794594664783E+01 -0.1616958287638E+01  0.5202440303361E+00
-0.2088363498153E+01 -0.2849098127072E+01 -0.2320606957970E+01  0.7639819086614E+00
-0.1802898389643E+01 -0.2940138347116E+01 -0.2229227260623E+01  0.6865075930297E+00
-0.1533019786355E+01 -0.3024121118056E+01 -0.2141856219641E+01  0.6215364850567E+00
-0.1279985240007E+01 -0.3100487243602E+01 -0.2058822062074E+01  0.5657981566109E+00
-0.1044885998676E+01 -0.3168888768658E+01 -0.1980474135624E+01  0.5174422283647E+00
-0.8284895721283E+00 -0.3229317503730E+01 -0.1907169320816E+01  0.4755278375970E+00
-0.6312307203048E+00 -0.3282101488062E+01 -0.1839266133268E+01  0.4396844661329E+00
-0.4532089764724E+00 -0.3327860805432E+01 -0.1777102792988E+01  0.4098870363651E+00
-0.2942094579124E+00 -0.3367459430364E+01 -0.1720984373125E+01  0.3862605191460E+00
-0.1537744377210E+00 -0.3401945179949E+01 -0.1671188216066E+01  0.3689345396816E+00
-0.3129229643450E-01 -0.3432491161065E+01 -0.1627978220895E+01  0.3579827540704E+00
 0.7392445300835E-01 -0.3460330068759E+01 -0.1591610635366E+01  0.3534013880477E+00
 0.1625456296935E+00 -0.3486670294430E+01 -0.1562338588463E+01  0.3550929989144E+00
 0.2351097747282E+00 -0.3512615074272E+01 -0.1540427486878E+01  0.3628693433776E+00
 0.2918969615787E+00 -0.3539103078455E+01 -0.1526186871061E+01  0.3764762200936E+00
 0.3328183931328E+00 -0.3566834243509E+01 -0.1519987445822E+01  0.3956701780669E+00
 0.3574069222427E+00 -0.3596211137654E+01 -0.1522237977382E+01  0.4204261262663E+00
 0.3652486267490E+00 -0.3627469025509E+01 -0.1533243583528E+01  0.4513102271473E+00
 0.3564033632982E+00 -0.3660947801925E+01 -0.1553135882215E+01  0.4894227711285E+00
 0.3319089327953E+00 -0.3697592415456E+01 -0.1581871232838E+01  0.5363546211909E+00
-0.2054953137151E+01 -0.2831230894007E+01 -0.2296506488819E+01  0.8095800700012E+00
-0.1777255224222E+01 -0.2919284226241E+01 -0.2207373536119E+01  0.7290087302479E+00
-0.1512936464042E+01 -0.3000917379286E+01 -0.2121511300983E+01  0.6606479608145E+00
-0.1264051235332E+01 -0.3075076163820E+01 -0.2039389872429E+01  0.6012625677123E+00
-0.1032251153848E+01 -0.3141077680915E+01 -0.1961464547364E+01  0.5491563764487E+00
-0.8186858089042E+00 -0.3198750143152E+01 -0.1888194892677E+01  0.5035593063116E+00
-0.6240321738879E+00 -0.3248360783274E+01 -0.1820024685250E+01  0.4642469635159E+00
-0.4485327449936E+00 -0.3290537543198E+01 -0.1757363030993E+01  0.4313115293235E+00
-0.2920318683501E+00 -0.3326184758183E+01 -0.1700561810157E+01  0.4049580146403E+00
-0.1540811392792E+00 -0.3356403823940E+01 -0.1649927928528E+01  0.3853533015900E+00
-0.3404965199211E-01 -0.3382415422638E+01 -0.1605738581004E+01  0.3725779726801E+00
 0.6879025992001E-01 -0.3405486485369E+01 -0.1568247221983E+01  0.3666201341991E+00
 0.1551655498034E+00 -0.3426845810384E+01 -0.1537689718573E+01  0.3673636851237E+00
 0.2256784754327E+00 -0.3447614090159E+01 -0.1514309735080E+01  0.3745892076564E+00
 0.2806631236336E+00 -0.3468757128409E+01 -0.1498404178444E+01  0.3879838193776E+00
 0.3199810091740E+00 -0.3491044963299E+01 -0.1490400054658E+01  0.4071823175445E+00
 0.3429363723826E+00 -0.3514896929969E+01 -0.1490821458284E+01  0.4319771520311E+00
 0.3487792236955E+00 -0.3540428615778E+01 -0.1500075210474E+01  0.4628387994833E+00
 0.3372691731969E+00 -0.3567581223006E+01 -0.1518246659560E+01  0.5009290905891E+00
 0.3093870108151E+00 -0.3596821742643E+01 -0.1545094320040E+01  0.5482210890732E+00
-0.2020330663704E+01 -0.2813167957638E+01 -0.2271744346269E+01  0.8539433657353E+00
-0.1750418992221E+01 -0.2898226514205E+01 -0.2184863382479E+01  0.7707104561465E+00
-0.1491613451782E+01 -0.2977546272307E+01 -0.2100505064994E+01  0.6991277065590E+00
-0.1246820108901E+01 -0.3049440627435E+01 -0.2019242540957E+01  0.6360583166965E+00
-0.1018319197011E+01 -0.3112889537995E+01 -0.1941668100528E+01  0.5800487326772E+00
-0.8076350788941E+00 -0.3167557288131E+01 -0.1868340407763E+01  0.5305666605839E+00
-0.6156966371493E+00 -0.3213701699860E+01 -0.1799817213829E+01  0.4875730745340E+00
-0.4428663727884E+00 -0.3251977715687E+01 -0.1736576717179E+01  0.4512977366276E+00
-0.2890339037580E+00 -0.3283358656475E+01 -0.1679024499051E+01  0.4220354166145E+00
-0.1537445285072E+00 -0.3309018488014E+01 -0.1627498613637E+01  0.3999868028443E+00
-0.3633909302355E-01 -0.3330233844817E+01 -0.1582289276772E+01  0.3852290236734E+00
 0.6395448365654E-01 -0.3348301464525E+01 -0.1543643077093E+01  0.3777321150725E+00
 0.1479251317151E+00 -0.3364451963891E+01 -0.1511767607288E+01  0.3773573904532E+00
 0.2162542630372E+00 -0.3379794719293E+01 -0.1486864010669E+01  0.3838626823066E+00
 0.2693548550364E+00 -0.3395308462649E+01 -0.1469198191851E+01  0.3968995205728E+00
 0.3071549637551E+00 -0.3411797744159E+01 -0.1459182103089E+01  0.4160133793942E+00
 0.3286637820241E+00 -0.3429916882156E+01 -0.1457588953365E+01  0.4407731457133E+00
 0.3327054993223E+00 -0.3449826521676E+01 -0.1465046876790E+01  0.4714167439579E+00
 0.3185229355627E+00 -0.3471051650707E+01 -0.1481688492360E+01  0.5089705017642E+00
 0.2871232548957E+00 -0.3493097144079E+01 -0.1506807724094E+01  0.5557564631353E+00
-0.1984626467255E+01 -0.2795004141224E+01 -0.2246426380287E+01  0.8970571965410E+00
-0.1722508520703E+01 -0.2877202283994E+01 -0.2161864072724E+01  0.8116500665365E+00
-0.1469041208426E+01 -0.2954291582360E+01 -0.2078966406397E+01  0.7370013453877E+00
-0.1228250986450E+01 -0.3023946004267E+01 -0.1998532580568E+01  0.6701596616394E+00
-0.1002965394954E+01 -0.3084621300882E+01 -0.1921165742170E+01  0.6100417313016E+00
-0.7952135857301E+00 -0.3136017136205E+01 -0.1847678434623E+01  0.5564429109243E+00
-0.6060962674680E+00 -0.3178362636398E+01 -0.1778695680306E+01  0.5095368114851E+00
-0.4360894271493E+00 -0.3212385044288E+01 -0.1714782997226E+01  0.4697138092175E+00
-0.2851021309727E+00 -0.3239158588121E+01 -0.1656402533773E+01  0.4373674380374E+00
-0.1526570005718E+00 -0.3259959813435E+01 -0.1603929898515E+01  0.4127238837655E+00
-0.3805332139012E-01 -0.3276128880434E+01 -0.1557665630907E+01  0.3958395515050E+00
 0.5952815794428E-01 -0.3288987388223E+01 -0.1517845834381E+01  0.3866498665780E+00
 0.1409307174996E+00 -0.3299750603270E+01 -0.1484645342547E+01  0.3849807859375E+00
 0.2069222369275E+00 -0.3309466538613E+01 -0.1458195818094E+01  0.3905711905161E+00
 0.2580290442451E+00 -0.3319069820511E+01 -0.1438689161196E+01  0.4030662954795E+00
 0.2942440320113E+00 -0.3329415163922E+01 -0.1426530428380E+01  0.4219750620437E+00
 0.3147424153888E+00 -0.3341114538542E+01 -0.1422394894274E+01  0.4467530215896E+00
 0.3173656220479E+00 -0.3355484549464E+01 -0.1427915892264E+01  0.4772641246050E+00
 0.3006557682675E+00 -0.3371712600761E+01 -0.1443396707611E+01  0.5138966535011E+00
 0.2656999307569E+00 -0.3387610254614E+01 -0.1467297848491E+01  0.5590493089760E+00
-0.1948064318267E+01 -0.2776871276993E+01 -0.2220719724140E+01  0.9389056252039E+00
-0.1693449491671E+01 -0.2856203326171E+01 -0.2138336818962E+01  0.8519434688398E+00
-0.1445425469901E+01 -0.2931786359572E+01 -0.2057289554634E+01  0.7743426315589E+00
-0.1208168760505E+01 -0.2998897943049E+01 -0.1977321345655E+01  0.7035159764237E+00
-0.9860684328185E+00 -0.3056612922913E+01 -0.1900060232375E+01  0.6390458402569E+00
-0.7812779291646E+00 -0.3104423250385E+01 -0.1826279549756E+01  0.5810649453624E+00
-0.5951033546921E+00 -0.3142602585375E+01 -0.1756721787376E+01  0.5299915398547E+00
-0.4280742967967E+00 -0.3171953830126E+01 -0.1692013215362E+01  0.4864087534158E+00
-0.2801249866431E+00 -0.3193747797986E+01 -0.1632720204634E+01  0.4508186890030E+00
-0.1507169093482E+00 -0.3209384055373E+01 -0.1579247449413E+01  0.4234524723248E+00
-0.3908764903130E-01 -0.3220266237380E+01 -0.1531896322728E+01  0.4043221550262E+00
 0.5562623825472E-01 -0.3227744217802E+01 -0.1490895446606E+01  0.3933065168696E+00
 0.1343137044374E+00 -0.3233000591590E+01 -0.1456382833268E+01  0.3901720780443E+00
 0.1977905089905E+00 -0.3236990754892E+01 -0.1428424111951E+01  0.3946215475383E+00
 0.2467501914265E+00 -0.3240457152347E+01 -0.1407042268064E+01  0.4063252442513E+00
 0.2813109186420E+00 -0.3244231098897E+01 -0.1392572481188E+01  0.4248160570688E+00
 0.3004343484331E+00 -0.3249124489958E+01 -0.1385884363002E+01  0.4495380810212E+00
 0.3036519013749E+00 -0.3255693226845E+01 -0.1387459419452E+01  0.4805770151536E+00
 0.2845983828610E+00 -0.3269072847428E+01 -0.1402702994789E+01  0.5167066695789E+00
 0.2455836909712E+00 -0.3282841197887E+01 -0.1427511024630E+01  0.5586617431698E+00
-0.1908565027723E+01 -0.2756131711946E+01 -0.2192407462084E+01  0.9798472800520E+00
-0.1664772273584E+01 -0.2837295023183E+01 -0.2115971624114E+01  0.8920878156202E+00
-0.1420293741709E+01 -0.2910233838973E+01 -0.2035347957758E+01  0.8111173439236E+00
-0.1186466587503E+01 -0.2974678596661E+01 -0.1955738231597E+01  0.7360517179519E+00
-0.9674204677425E+00 -0.3029148651398E+01 -0.1878387481232E+01  0.6669737357253E+00
-0.7657417221073E+00 -0.3073194540492E+01 -0.1804300038845E+01  0.6042942883020E+00
-0.5825544111795E+00 -0.3106665035605E+01 -0.1733933135591E+01  0.5487517810762E+00
-0.4186870209159E+00 -0.3130853037085E+01 -0.1668283823029E+01  0.5012075955744E+00
-0.2740034161724E+00 -0.3147275600394E+01 -0.1608001133708E+01  0.4622420374011E+00
-0.1478298533873E+00 -0.3157422457542E+01 -0.1553468582196E+01  0.4320577536864E+00
-0.3935039772255E-01 -0.3162790433739E+01 -0.1505006186970E+01  0.4105973600032E+00
 0.5236157304489E-01 -0.3164743234780E+01 -0.1462819377305E+01  0.3976574954358E+00
 0.1282170089112E+00 -0.3164441159669E+01 -0.1427025347237E+01  0.3929130203444E+00
 0.1890555072763E+00 -0.3162710450155E+01 -0.1397617819608E+01  0.3959867842140E+00
 0.2355749083379E+00 -0.3160085750676E+01 -0.1374520092412E+01  0.4065407166375E+00
 0.2684184586298E+00 -0.3156770601696E+01 -0.1357525503798E+01  0.4242696987518E+00
 0.2861326648049E+00 -0.3154054088964E+01 -0.1347923065936E+01  0.4486256942716E+00
 0.2872982911714E+00 -0.3153417040107E+01 -0.1347075808583E+01  0.4801750845994E+00
 0.2771206010838E+00 -0.3152857998793E+01 -0.1351596573495E+01  0.5189338077386E+00
 0.2328974684338E+00 -0.3180958064857E+01 -0.1385588476804E+01  0.5564766044613E+00
-0.4379951106681E+01 -0.7994651024953E+01 -0.5816062987116E+01 -0.1104976776248E+01
 0.3437084321275E+00 -0.2715210833422E+01 -0.1114606125781E+01  0.4596824276737E+00
 0.1315721708060E-01 -0.1812366682455E+01 -0.8456284465812E+00  0.4170841392406E+00
-0.4296835288698E-01 -0.1247344099812E+01 -0.6064468512302E+00  0.3224509623191E+00
-0.6806929927799E-01 -0.8371053993961E+00 -0.4254321072978E+00  0.2407206741681E+00
-0.4828687557865E-01 -0.4934163073193E+00 -0.2546004953163E+00  0.1509616860659E+00
 0.2255839191113E-02 -0.2111950248850E+00 -0.9820141702704E-01  0.7127856664166E-01
 0.2960439048319E-01 -0.2732464398202E-01  0.1071480852831E-02  0.9009640255972E-02
 0.3316366294282E-01  0.9469728428726E-01  0.6009464504571E-01 -0.3527240277881E-01
 0.3059688363310E-01  0.1916108550113E+00  0.1044376368980E+00 -0.6275306000699E-01
 0.2653932088278E-01  0.2737129196287E+00  0.1411185526825E+00 -0.7602439777269E-01
 0.2278131934414E-01  0.3427628087046E+00  0.1718057397471E+00 -0.7730455900428E-01
 0.1813690607567E-01  0.3949856604975E+00  0.1941676057969E+00 -0.6876711903174E-01
 0.1442918820445E-01  0.4275686113956E+00  0.2077389652851E+00 -0.5104453349261E-01
 0.1392375290565E-01  0.4384013951540E+00  0.2125928190488E+00 -0.2538366075202E-01
 0.2057742946103E-01  0.4253482698060E+00  0.2095850781239E+00  0.4207192171173E-02
 0.1841809080150E-01  0.3651781736928E+00  0.1802902438550E+00  0.3780116239741E-01
 0.3705306821376E-01  0.2861440803619E+00  0.1519026594453E+00  0.8175129919425E-01
 0.7260859759847E-01  0.2001889276049E+00  0.1282148365204E+00  0.1222607952210E+00
 0.1394190727936E+00  0.1196477767227E+00  0.1217614189639E+00  0.1409989281566E+00
-0.2260076223016E+01 -0.5343186013191E+01 -0.3573533241953E+01 -0.1499570718423E+01
-0.6364556165455E+00 -0.3989807731927E+01 -0.2174343768267E+01 -0.1925197858997E+00
 0.7767196766937E-01 -0.2197752798381E+01 -0.9964379879073E+00  0.2446341153554E+00
-0.1052304963468E-01 -0.1550661338995E+01 -0.7337566607947E+00  0.2599996578644E+00
-0.2741410121864E-01 -0.1094187721581E+01 -0.5271528553786E+00  0.2128062748096E+00
-0.1726072109259E-01 -0.7365390121927E+00 -0.3542858737455E+00  0.1467591042733E+00
 0.1251985442757E-01 -0.4534488940369E+00 -0.2072366480908E+00  0.8228194725345E-01
 0.3620765230038E-01 -0.2455614936689E+00 -0.9839630519365E-01  0.2812653524073E-01
 0.4172225668844E-01 -0.9893977776240E-01 -0.2689223483655E-01 -0.1580401804413E-01
 0.3719831195090E-01  0.1174821989482E-01  0.2300486990914E-01 -0.4763422916049E-01
 0.2971977096370E-01  0.1025116265793E+00  0.6214875668758E-01 -0.6645622358911E-01
 0.2109515502491E-01  0.1779598169046E+00  0.9355583656958E-01 -0.7274930810070E-01
 0.1182552837697E-01  0.2384938766798E+00  0.1176501200783E+00 -0.6779083367498E-01
 0.3273397454930E-02  0.2824703083074E+00  0.1342995413677E+00 -0.5232354360116E-01
-0.2284593004771E-02  0.3074853837916E+00  0.1434443713060E+00 -0.2719325297206E-01
-0.5678111281815E-02  0.3081305699155E+00  0.1421526551973E+00  0.6048764352983E-02
-0.3577077792407E-02  0.2865566300701E+00  0.1330003892332E+00  0.4553147253540E-01
 0.1212237038040E-01  0.2391025637832E+00  0.1180757187574E+00  0.9151765246558E-01
 0.4764532342393E-01  0.1736974683630E+00  0.1040311118760E+00  0.1338652642724E+00
 0.1110727805286E+00  0.1057711501687E+00  0.1019166471693E+00  0.1558038743184E+00
-0.1783219301625E+01 -0.4436434713661E+01 -0.2923237379770E+01 -0.1559534808161E+01
-0.6599186897888E+00 -0.3833792856236E+01 -0.2112044421275E+01 -0.5721404703493E+00
-0.1669892162221E+00 -0.2721288330331E+01 -0.1357490443437E+01 -0.3266520281824E-01
 0.4519129467047E-02 -0.1858322687915E+01 -0.8712876702605E+00  0.1523374017474E+00
-0.2177198465874E-02 -0.1360270252538E+01 -0.6403503003477E+00  0.1662312513137E+00
 0.9225021397374E-02 -0.9819013101837E+00 -0.4571578545700E+00  0.1305019841080E+00
 0.2850274947960E-01 -0.6900060221328E+00 -0.3109065373584E+00  0.8247539213951E-01
 0.4591287106347E-01 -0.4694283816078E+00 -0.1990522894510E+00  0.3678402216939E-01
 0.5142593948940E-01 -0.3049473977947E+00 -0.1191550851013E+00 -0.3789804872211E-02
 0.4651133596611E-01 -0.1791352248325E+00 -0.6233322760911E-01 -0.3679538052813E-01
 0.3621793719771E-01 -0.7799577888413E-01 -0.1963558554281E-01 -0.5955193491274E-01
 0.2342408829525E-01  0.5698110883076E-02  0.1368743357910E-01 -0.7071973667374E-01
 0.9255551568837E-02  0.7469100265331E-01  0.3945488038434E-01 -0.7035918474425E-01
-0.4780662231483E-02  0.1292691800159E+00  0.5850960321026E-01 -0.5870285248402E-01
-0.1730515962762E-01  0.1672969309489E+00  0.7049613234222E-01 -0.3603819276402E-01
-0.2659234271447E-01  0.1870699342956E+00  0.7542446785185E-01 -0.3460858666149E-02
-0.3033302220240E-01  0.1897846444258E+00  0.7494226225490E-01  0.3710666391961E-01
-0.1847623278612E-01  0.1714126636078E+00  0.7188012230387E-01  0.8423476741619E-01
 0.1316854127151E-01  0.1288901353880E+00  0.6676757786063E-01  0.1272536985471E+00
 0.6707746033706E-01  0.7472237020736E-01  0.6664592018684E-01  0.1496559773511E+00
-0.1584978949128E+01 -0.3913402569231E+01 -0.2584239307074E+01 -0.1556672296400E+01
-0.7067211222204E+00 -0.3636478998095E+01 -0.2041304051371E+01 -0.7989557740354E+00
-0.2737764237078E+00 -0.2911703384954E+01 -0.1497175506274E+01 -0.2748159939174E+00
-0.6360360894481E-01 -0.2180393779165E+01 -0.1054678769737E+01  0.1311441277429E-02
 0.6470120301397E-02 -0.1627690936664E+01 -0.7619737817577E+00  0.9429042431329E-01
 0.2752574157512E-01 -0.1229661695325E+01 -0.5650038968292E+00  0.9888304239902E-01
 0.4450589782258E-01 -0.9263634195757E+00 -0.4144730341727E+00  0.7134501001815E-01
 0.5810298011076E-01 -0.6954202151874E+00 -0.2995390997263E+00  0.3589600983572E-01
 0.6288494963685E-01 -0.5182522738998E+00 -0.2140226418607E+00  0.3265108474098E-03
 0.5779583407476E-01 -0.3795661261842E+00 -0.1512320369079E+00 -0.3162024835687E-01
 0.4579808945096E-01 -0.2676287081835E+00 -0.1042603905399E+00 -0.5649752328332E-01
 0.2960073833218E-01 -0.1750113314217E+00 -0.6834297857874E-01 -0.7177946890666E-01
 0.1094025269528E-01 -0.9734222904145E-01 -0.4060892877970E-01 -0.7631176319182E-01
-0.8779571088222E-02 -0.3287909547135E-01 -0.1957957323334E-01 -0.6957570586942E-01
-0.2790560468223E-01  0.1785682469707E-01 -0.4722926581047E-02 -0.5139003693959E-01
-0.4445931345735E-01  0.5408723629609E-01  0.4525123722732E-02 -0.2238859208458E-01
-0.5545740241131E-01  0.7811584758685E-01  0.1064946920549E-01  0.1592780720431E-01
-0.5149929534578E-01  0.8376591712303E-01  0.1516531219684E-01  0.6124435288615E-01
-0.2778935405322E-01  0.6273308300066E-01  0.1642355256364E-01  0.1023962174544E+00
 0.1237670409230E-01  0.2131194471669E-01  0.1583366490007E-01  0.1225158449447E+00
-0.1501019231701E+01 -0.3576320949154E+01 -0.2386349878949E+01 -0.1531157640116E+01
-0.7646875421726E+00 -0.3454222550195E+01 -0.1982887738383E+01 -0.9415525161042E+00
-0.3589012520312E+00 -0.2980034125653E+01 -0.1569299623531E+01 -0.4660438815684E+00
-0.1262130480476E+00 -0.2404263403984E+01 -0.1189323929438E+01 -0.1546445663829E+00
-0.1488621093160E-01 -0.1887591601022E+01 -0.8941645693502E+00 -0.1437110246861E-02
 0.3491017803479E-01 -0.1475722004706E+01 -0.6771815568180E+00  0.4930437568496E-01
 0.5684987151225E-01 -0.1162878421051E+01 -0.5198334169649E+00  0.4742033943124E-01
 0.7056201438094E-01 -0.9228822101160E+00 -0.4005904909795E+00  0.2515614146743E-01
 0.7556577866152E-01 -0.7359363889406E+00 -0.3103741860440E+00 -0.3580203865500E-02
 0.7076156887088E-01 -0.5869961145222E+00 -0.2426302358407E+00 -0.3275258448281E-01
 0.5794796438160E-01 -0.4654079811558E+00 -0.1915062073981E+00 -0.5813341257446E-01
 0.3938858471919E-01 -0.3641049103279E+00 -0.1526166726490E+00 -0.7646434489286E-01
 0.1698866892742E-01 -0.2780730289768E+00 -0.1227096489120E+00 -0.8565061047487E-01
-0.7800087617206E-02 -0.2043939132126E+00 -0.9973118013704E-01 -0.8444145206285E-01
-0.3330900662209E-01 -0.1424224621964E+00 -0.8259379013521E-01 -0.7214383712018E-01
-0.5727608870613E-01 -0.9190985849876E-01 -0.7011739500846E-01 -0.4889494431796E-01
-0.7666611327104E-01 -0.5001888564503E-01 -0.5954194933953E-01 -0.1563246177503E-01
-0.8275180387650E-01 -0.2408104864794E-01 -0.5021144055913E-01  0.2490421155312E-01
-0.7069639394147E-01 -0.2681493070573E-01 -0.4583032246794E-01  0.6122204350778E-01
-0.4660780375511E-01 -0.5741755970234E-01 -0.4889192070099E-01  0.7632594058915E-01
-0.1467920895803E+01 -0.3341627267787E+01 -0.2260487631154E+01 -0.1497712244603E+01
-0.8310980320101E+00 -0.3302815563407E+01 -0.1942939384918E+01 -0.1032284523514E+01
-0.4384965127966E+00 -0.2991849306315E+01 -0.1612262530893E+01 -0.6127409868055E+00
-0.1892440942804E+00 -0.2554451765210E+01 -0.1289537050690E+01 -0.2978353153636E+00
-0.4787051043876E-01 -0.2107003344914E+01 -0.1012790709447E+01 -0.1080633021883E+00
 0.2766553543078E-01 -0.1712125762662E+01 -0.7916963047906E+00 -0.1701973075396E-01
 0.6288684317455E-01 -0.1396303117542E+01 -0.6267056473633E+00  0.9719824941194E-02
 0.8091142259690E-01 -0.1150299744692E+01 -0.5026125101098E+00  0.3846554905414E-02
 0.8816516562921E-01 -0.9560194755544E+00 -0.4078915246303E+00 -0.1585379887327E-01
 0.8471943864107E-01 -0.7992008076354E+00 -0.3358062425756E+00 -0.4055211086984E-01
 0.7212381096480E-01 -0.6697177679873E+00 -0.2808691590882E+00 -0.6494185810234E-01
 0.5234248852952E-01 -0.5608186397023E+00 -0.2389837904451E+00 -0.8514856815069E-01
 0.2730281752440E-01 -0.4672764751624E+00 -0.2067876185654E+00 -0.9838586437109E-01
-0.1598318461723E-02 -0.3855062576986E+00 -0.1819391503339E+00 -0.1027911520530E+00
-0.3272519254809E-01 -0.3139709259465E+00 -0.1629471752791E+00 -0.9718526552991E-01
-0.6376314752809E-01 -0.2516614023102E+00 -0.1482495380480E+00 -0.8120277335350E-01
-0.9164770124487E-01 -0.1951664009865E+00 -0.1348026277068E+00 -0.5518351989538E-01
-0.1089623965511E+00 -0.1528802779188E+00 -0.1230660566887E+00 -0.2204167794927E-01
-0.1107090032664E+00 -0.1408474599566E+00 -0.1182315374149E+00  0.6762168093085E-02
-0.1036064644387E+00 -0.1633429193764E+00 -0.1254662100749E+00  0.1456809128808E-01
-0.1461368510315E+01 -0.3171616061500E+01 -0.2177502743230E+01 -0.1461822799328E+01
-0.9001859299684E+00 -0.3179995161586E+01 -0.1917685108166E+01 -0.1089072776269E+01
-0.5175928114915E+00 -0.2979168445126E+01 -0.1643477786442E+01 -0.7234294507014E+00
-0.2548018246317E+00 -0.2653793026966E+01 -0.1367039576784E+01 -0.4219538254489E+00
-0.8943811814573E-01 -0.2283591219377E+01 -0.1115323785807E+01 -0.2149488251111E+00
 0.9264951189962E-02 -0.1925973209590E+01 -0.9008528791631E+00 -0.9439039457660E-01
 0.6054604547437E-01 -0.1620863825715E+01 -0.7333493548530E+00 -0.4073648850792E-01
 0.8705956333570E-01 -0.1374499586639E+01 -0.6050968094178E+00 -0.2826951673722E-01
 0.9903697928275E-01 -0.1176240012318E+01 -0.5062854242422E+00 -0.3681669985002E-01
 0.9857648157223E-01 -0.1014070999973E+01 -0.4302824225571E+00 -0.5528833703574E-01
 0.8753223768809E-01 -0.8787443665103E+00 -0.3718696996032E+00 -0.7719053210358E-01
 0.6784820669618E-01 -0.7638544894403E+00 -0.3271229520600E+00 -0.9802361695252E-01
 0.4148011411852E-01 -0.6641821577336E+00 -0.2926699597568E+00 -0.1144487694651E+00
 0.9747519635414E-02 -0.5758146715856E+00 -0.2660515607418E+00 -0.1241186281807E+00
-0.2583584660987E-01 -0.4966484855367E+00 -0.2455676354860E+00 -0.1254390816093E+00
-0.6301232878651E-01 -0.4251094270431E+00 -0.2294172246580E+00 -0.1175814658628E+00
-0.9876776270844E-01 -0.3573455636361E+00 -0.2143732628382E+00 -0.1003093542264E+00
-0.1274262978360E+00 -0.3026376294403E+00 -0.2021300453072E+00 -0.7654642743948E-01
-0.1437260017928E+00 -0.2795332537941E+00 -0.1989318496213E+00 -0.5730932251624E-01
-0.1530747959308E+00 -0.2965738757935E+00 -0.2113348751744E+00 -0.5831763828200E-01
-0.1469944529756E+01 -0.3045689282473E+01 -0.2122347886364E+01 -0.1425737976182E+01
-0.9688519183729E+00 -0.3081610123238E+01 -0.1903717154729E+01 -0.1122608894537E+01
-0.5963827362032E+00 -0.2956963539455E+01 -0.1670072745323E+01 -0.8055428772195E+00
-0.3235321920009E+00 -0.2719809784773E+01 -0.1430370725456E+01 -0.5257855862800E+00
-0.1383108686347E+00 -0.2422935419662E+01 -0.1203785752446E+01 -0.3153179991088E+00
-0.1873215234997E-01 -0.2112459583858E+01 -0.1001660113477E+01 -0.1764084807168E+00
 0.4971185190518E-01 -0.1829842185106E+01 -0.8366612544823E+00 -0.1007246009623E+00
 0.8737915224492E-01 -0.1591133610635E+01 -0.7067645936507E+00 -0.7022564521453E-01
 0.1065628082196E+00 -0.1393586547433E+01 -0.6049011558959E+00 -0.6631784111860E-01
 0.1109955074761E+00 -0.1229232055819E+01 -0.5255711763879E+00 -0.7702565279327E-01
 0.1031201466472E+00 -0.1090469116255E+01 -0.4640540145386E+00 -0.9497970334261E-01
 0.8505443528646E-01 -0.9715626225474E+00 -0.4166588469558E+00 -0.1151283227797E+00
 0.5886145844497E-01 -0.8675217305033E+00 -0.3800703269034E+00 -0.1336798372420E+00
 0.2581491429137E-01 -0.7743675491818E+00 -0.3518197375061E+00 -0.1479062013707E+00
-0.1272633718412E-01 -0.6896895072720E+00 -0.3301354460570E+00 -0.1558825815298E+00
-0.5464770570176E-01 -0.6115577097921E+00 -0.3131165444879E+00 -0.1563832427489E+00
-0.9702909413322E-01 -0.5358379495115E+00 -0.2974475097586E+00 -0.1486459259501E+00
-0.1362430805449E+00 -0.4725318517582E+00 -0.2861242174568E+00 -0.1354852142514E+00
-0.1666022470019E+00 -0.4418602324761E+00 -0.2859773646293E+00 -0.1270733355578E+00
-0.1908209558322E+00 -0.4556737963079E+00 -0.3038525327351E+00 -0.1375859693372E+00
-0.1487832662897E+01 -0.2951474456612E+01 -0.2086474340877E+01 -0.1390312259890E+01
-0.1035526794413E+01 -0.3003620875058E+01 -0.1898399399837E+01 -0.1139683107826E+01
-0.6741358457306E+00 -0.2932703977002E+01 -0.1695214712384E+01 -0.8650000933836E+00
-0.3948119088380E+00 -0.2764355313275E+01 -0.1484808590627E+01 -0.6102875277119E+00
-0.1934798830781E+00 -0.2532493231832E+01 -0.1281207360758E+01 -0.4054117675158E+00
-0.5524910084856E-01 -0.2271705573451E+01 -0.1093668694147E+01 -0.2577069235156E+00
 0.3047580649324E-01 -0.2019309899465E+01 -0.9347520213257E+00 -0.1661402316165E+00
 0.8100313401908E-01 -0.1795817832391E+01 -0.8059629061907E+00 -0.1198234411310E+00
 0.1093878590974E+00 -0.1604574471764E+01 -0.7027377061711E+00 -0.1034130623705E+00
 0.1206191088910E+00 -0.1441913173954E+01 -0.6210082090046E+00 -0.1054020333911E+00
 0.1176650252519E+00 -0.1302586656101E+01 -0.5569131650866E+00 -0.1181657723249E+00
 0.1028939808142E+00 -0.1181976753560E+01 -0.5071689019041E+00 -0.1363422837895E+00
 0.7853269763087E-01 -0.1075619481792E+01 -0.4686307873671E+00 -0.1558287728808E+00
 0.4586905264921E-01 -0.9797152589287E+00 -0.4389077158381E+00 -0.1736221021593E+00
 0.6114779587253E-02 -0.8917702491230E+00 -0.4162580696260E+00 -0.1875541030188E+00
-0.3880455784622E-01 -0.8096849223457E+00 -0.3987900546787E+00 -0.1960803028606E+00
-0.8610110872240E-01 -0.7292182253822E+00 -0.3832000860572E+00 -0.1979789040943E+00
-0.1343400180807E+00 -0.6608800212924E+00 -0.3737534175574E+00 -0.1958632936228E+00
-0.1772948238390E+00 -0.6257549344586E+00 -0.3774333854426E+00 -0.1987217080483E+00
-0.2141596572500E+00 -0.6379743482585E+00 -0.4005029815732E+00 -0.2186757287498E+00
-0.1511839110535E+01 -0.2880946244207E+01 -0.2064609111492E+01 -0.1355768388925E+01
-0.1099566163552E+01 -0.2942604315290E+01 -0.1899820120237E+01 -0.1144801756061E+01
-0.7501017996009E+00 -0.2910138713874E+01 -0.1720313036970E+01 -0.9064145109452E+00
-0.4676207222093E+00 -0.2795322720186E+01 -0.1533583414036E+01 -0.6772491426877E+00
-0.2537499600009E+00 -0.2619122515206E+01 -0.1350250059922E+01 -0.4834787591843E+00
-0.9926276487735E-01 -0.2406312989612E+01 -0.1177620601623E+01 -0.3343581359484E+00
 0.3145357804737E-02 -0.2187993346258E+01 -0.1026878551969E+01 -0.2330013710565E+00
 0.6747452794685E-01 -0.1985473793816E+01 -0.9014596526719E+00 -0.1741954129388E+00
 0.1065572417641E+00 -0.1805890653064E+01 -0.7986867012853E+00 -0.1463953045559E+00
 0.1262447690793E+00 -0.1649164244950E+01 -0.7157721518436E+00 -0.1394981920329E+00
 0.1299180248883E+00 -0.1512535600326E+01 -0.6498302588074E+00 -0.1462522862984E+00
 0.1201599631478E+00 -0.1392842574220E+01 -0.5981608256866E+00 -0.1613334329257E+00
 0.9936731115100E-01 -0.1286449626570E+01 -0.5579286868318E+00 -0.1805359817768E+00
 0.6889232822824E-01 -0.1189983494880E+01 -0.5269128469901E+00 -0.2007155238270E+00
 0.2983119772502E-01 -0.1101071526397E+01 -0.5034829531987E+00 -0.2195601277100E+00
-0.1609802379468E-01 -0.1017610096536E+01 -0.4858428153232E+00 -0.2352961566109E+00
-0.6627265519320E-01 -0.9354128429972E+00 -0.4707921829554E+00 -0.2463220078348E+00
-0.1214490498768E+00 -0.8652449131380E+00 -0.4637461614407E+00 -0.2549763223884E+00
-0.1748509543806E+00 -0.8282865197573E+00 -0.4714746116490E+00 -0.2688098953094E+00
-0.2218519707939E+00 -0.8399368563576E+00 -0.4990407474954E+00 -0.2975306564391E+00
-0.1540108621590E+01 -0.2828597263003E+01 -0.2053291760551E+01 -0.1322033906316E+01
-0.1160833899035E+01 -0.2895736125805E+01 -0.1906587906839E+01 -0.1141053881871E+01
-0.8237585036281E+00 -0.2891095250605E+01 -0.1745981260061E+01 -0.9333742808781E+00
-0.5409365515624E+00 -0.2817943059206E+01 -0.1578673413057E+01 -0.7286872496370E+00
-0.3178499350524E+00 -0.2688478109888E+01 -0.1412974177538E+01 -0.5490160480492E+00
-0.1496459554006E+00 -0.2519761537750E+01 -0.1254621518599E+01 -0.4037564595610E+00
-0.3173170467938E-01 -0.2336460194345E+01 -0.1113050189718E+01 -0.2979402885727E+00
 0.4667948729383E-01 -0.2158546138508E+01 -0.9925773235530E+00 -0.2303582162739E+00
 0.9746293390184E-01 -0.1994993552902E+01 -0.8918393886682E+00 -0.1930840536377E+00
 0.1269241288489E+00 -0.1848236175269E+01 -0.8090166597657E+00 -0.1778858863245E+00
 0.1387296755247E+00 -0.1717686845507E+01 -0.7421098680094E+00 -0.1783443004242E+00
 0.1356120225047E+00 -0.1601712559303E+01 -0.6890672505475E+00 -0.1895060809125E+00
 0.1201009609809E+00 -0.1497711622062E+01 -0.6474770090658E+00 -0.2073000292211E+00
 0.9364034065308E-01 -0.1402949126828E+01 -0.6153751279415E+00 -0.2286020527393E+00
 0.5724836570027E-01 -0.1315357728950E+01 -0.5913113992277E+00 -0.2510751070136E+00
 0.1243418900756E-01 -0.1232974579512E+01 -0.5736539820821E+00 -0.2728234955305E+00
-0.3838040390737E-01 -0.1151804511765E+01 -0.5593869089473E+00 -0.2919652178323E+00
-0.9802771245129E-01 -0.1082586924112E+01 -0.5548888777772E+00 -0.3105099252723E+00
-0.1593093746131E+00 -0.1045900535887E+01 -0.5664486564984E+00 -0.3344124935322E+00
-0.2139151810491E+00 -0.1057467268770E+01 -0.5975497498996E+00 -0.3707793694305E+00
-0.1571505268146E+01 -0.2790475186568E+01 -0.2050130808516E+01 -0.1288902592267E+01
-0.1219463866772E+01 -0.2860688873527E+01 -0.1917671783077E+01 -0.1130606345562E+01
-0.8948267012529E+00 -0.2876360672126E+01 -0.1772458060993E+01 -0.9486815738185E+00
-0.6139048984117E+00 -0.2835680225961E+01 -0.1621305004343E+01 -0.7665761336016E+00
-0.3845676343736E+00 -0.2745000610580E+01 -0.1470897071397E+01 -0.6022629331639E+00
-0.2052088800758E+00 -0.2615590394458E+01 -0.1325775655668E+01 -0.4643499034375E+00
-0.7338478882254E-01 -0.2466311367069E+01 -0.1193657190242E+01 -0.3583553807118E+00
 0.1880915095034E-01 -0.2314745207424E+01 -0.1079089943806E+01 -0.2855775296166E+00
 0.8181252959172E-01 -0.2170305435707E+01 -0.9815916633846E+00 -0.2411488445063E+00
 0.1219826557635E+00 -0.2036906301483E+01 -0.9000141112052E+00 -0.2188035457129E+00
 0.1431324782467E+00 -0.1915596788188E+01 -0.8330582235597E+00 -0.2132001962575E+00
 0.1480752322067E+00 -0.1806115396113E+01 -0.7792788750595E+00 -0.2199942268523E+00
 0.1394224067842E+00 -0.1706949752962E+01 -0.7367378508349E+00 -0.2354571082693E+00
 0.1187180237759E+00 -0.1616139509996E+01 -0.7037880967384E+00 -0.2566478961848E+00
 0.8694071268127E-01 -0.1532070069048E+01 -0.6792107957696E+00 -0.2813347394014E+00
 0.4540206288346E-01 -0.1453040405750E+01 -0.6615900194693E+00 -0.3076271827452E+00
-0.3719952118197E-02 -0.1375354110782E+01 -0.6481648079190E+00 -0.3334914608557E+00
-0.6514764013430E-01 -0.1309430511440E+01 -0.6460517296012E+00 -0.3605833218861E+00
-0.1315438174140E+00 -0.1274638162318E+01 -0.6609055287977E+00 -0.3931976031192E+00
-0.1913796072037E+00 -0.1286179565274E+01 -0.6944528093031E+00 -0.4358124592812E+00
-0.1605294586726E+01 -0.2763639573691E+01 -0.2053399050188E+01 -0.1256115247810E+01
-0.1275721875156E+01 -0.2835527983978E+01 -0.1932287428892E+01 -0.1115002952368E+01
-0.9632257802491E+00 -0.2866140617326E+01 -0.1799802202295E+01 -0.9545364524453E+00
-0.6858862584355E+00 -0.2850813572060E+01 -0.1662248916117E+01 -0.7927340690844E+00
-0.4528401033216E+00 -0.2792087974634E+01 -0.1525116192771E+01 -0.6438775028688E+00
-0.2647814665631E+00 -0.2697023520054E+01 -0.1392048340179E+01 -0.5153695601992E+00
-0.1208926108694E+00 -0.2579605066078E+01 -0.1269233904946E+01 -0.4123862962678E+00
-0.1568848511599E-01 -0.2454655271445E+01 -0.1161061562639E+01 -0.3375521798477E+00
 0.5959678269380E-01 -0.2331137985109E+01 -0.1067624362427E+01 -0.2883598118782E+00
 0.1110171499460E+00 -0.2213620037165E+01 -0.9882233544864E+00 -0.2603607625045E+00
 0.1423812997645E+00 -0.2104217724554E+01 -0.9220631173122E+00 -0.2493509136498E+00
 0.1565150534427E+00 -0.2003749220087E+01 -0.8682000561206E+00 -0.2517111254517E+00
 0.1560610108437E+00 -0.1911711736535E+01 -0.8251558389821E+00 -0.2641932324395E+00
 0.1426643106893E+00 -0.1826963912642E+01 -0.7916208109101E+00 -0.2841690221059E+00
 0.1173094438266E+00 -0.1748440516221E+01 -0.7666316020808E+00 -0.3096326662807E+00
 0.8113913566068E-01 -0.1674800601689E+01 -0.7490208871334E+00 -0.3388390326330E+00
 0.3604813445145E-01 -0.1602725374405E+01 -0.7363383009106E+00 -0.3697676110757E+00
-0.2436430709807E-01 -0.1542022828386E+01 -0.7362019518101E+00 -0.4037453151738E+00
-0.9307288931341E-01 -0.1510328974475E+01 -0.7535988740690E+00 -0.4434363033181E+00
-0.1560308633331E+00 -0.1521610779618E+01 -0.7884915701869E+00 -0.4907857544917E+00
-0.1640971559543E+01 -0.2745836976128E+01 -0.2061800006536E+01 -0.1223401226198E+01
-0.1329926309455E+01 -0.2818626812292E+01 -0.1949819962276E+01 -0.1095353643701E+01
-0.1029020709552E+01 -0.2860308584031E+01 -0.1827984763347E+01 -0.9526741850465E+00
-0.7564498541353E+00 -0.2864816763304E+01 -0.1701995305879E+01 -0.8087832137887E+00
-0.5217950828457E+00 -0.2832293619077E+01 -0.1576421685905E+01 -0.6747338541667E+00
-0.3272854488508E+00 -0.2766830142710E+01 -0.1454234324345E+01 -0.5566030142458E+00
-0.1732694870245E+00 -0.2678494508773E+01 -0.1340329074625E+01 -0.4588148145529E+00
-0.5617608352463E-01 -0.2579378029561E+01 -0.1238710430008E+01 -0.3844735639485E+00
 0.3104842838343E-01 -0.2477496882414E+01 -0.1149830770478E+01 -0.3327429688693E+00
 0.9387950110675E-01 -0.2377479431200E+01 -0.1073291964421E+01 -0.3007103741796E+00
 0.1359702205223E+00 -0.2282008317634E+01 -0.1008637903084E+01 -0.2852361466198E+00
 0.1600886533334E+00 -0.2192643223911E+01 -0.9553006457483E+00 -0.2834347098822E+00
 0.1688610739539E+00 -0.2109718627015E+01 -0.9122030476249E+00 -0.2925901893335E+00
 0.1640363886379E+00 -0.2032869961066E+01 -0.8783517768136E+00 -0.3104555516416E+00
 0.1466601308776E+00 -0.1961631377596E+01 -0.8530364837939E+00 -0.3353344845009E+00
 0.1177764295522E+00 -0.1895096911543E+01 -0.8353406244171E+00 -0.3657588083452E+00
 0.7897907081665E-01 -0.1830404634153E+01 -0.8231700126802E+00 -0.3999228549805E+00
 0.2241858516541E-01 -0.1776466740478E+01 -0.8244026309058E+00 -0.4389317406370E+00
-0.4585182962974E-01 -0.1748753782750E+01 -0.8434646356790E+00 -0.4839576966318E+00
-0.1101524964277E+00 -0.1759391307454E+01 -0.8786855855957E+00 -0.5345701152425E+00
-0.1678164000606E+01 -0.2735297250315E+01 -0.2074326782672E+01 -0.1190499899827E+01
-0.1382402691746E+01 -0.2808601498675E+01 -0.1969771964502E+01 -0.1072458944963E+01
-0.1092375530712E+01 -0.2858546991350E+01 -0.1856933580660E+01 -0.9444674714157E+00
-0.8253460270804E+00 -0.2878606546300E+01 -0.1740857705073E+01 -0.8161437322939E+00
-0.5907594412608E+00 -0.2867502813697E+01 -0.1625383255707E+01 -0.6957963266808E+00
-0.3917817542561E+00 -0.2827300006234E+01 -0.1512968423593E+01 -0.5882186670537E+00
-0.2295434323947E+00 -0.2765020275649E+01 -0.1407444939211E+01 -0.4969455097909E+00
-0.1019022785493E+00 -0.2690259570006E+01 -0.1312316065492E+01 -0.4250127296193E+00
-0.3410261079880E-02 -0.2609862756215E+01 -0.1228238315013E+01 -0.3726556312548E+00
 0.7064908548806E-01 -0.2528139969107E+01 -0.1155020712371E+01 -0.3381661013108E+00
 0.1236345096071E+00 -0.2447946588618E+01 -0.1092426674365E+01 -0.3193200812246E+00
 0.1581801228654E+00 -0.2371256766765E+01 -0.1040146019995E+01 -0.3138969715266E+00
 0.1768478771735E+00 -0.2299014426315E+01 -0.9974182755668E+00 -0.3196872402226E+00
 0.1814865815094E+00 -0.2231519686062E+01 -0.9635155566961E+00 -0.3348187290737E+00
 0.1732859257351E+00 -0.2168893895960E+01 -0.9379357436265E+00 -0.3579184636194E+00
 0.1532925328625E+00 -0.2110762942576E+01 -0.9200110902318E+00 -0.3878833745223E+00
 0.1229042134142E+00 -0.2054790728846E+01 -0.9079866599500E+00 -0.4233368423675E+00
 0.7304787979043E-01 -0.2008826589475E+01 -0.9098159912440E+00 -0.4653972489080E+00
 0.7960346108003E-02 -0.1985749973812E+01 -0.9295611226630E+00 -0.5140507632628E+00
-0.5627352585908E-01 -0.1995382197249E+01 -0.9642781874150E+00 -0.5666571396812E+00
-0.1716576710428E+01 -0.2730600438274E+01 -0.2090173254588E+01 -0.1157171502250E+01
-0.1433458196552E+01 -0.2804262225279E+01 -0.1991728593209E+01 -0.1046894564107E+01
-0.1153516361352E+01 -0.2860430256027E+01 -0.1886554905383E+01 -0.9310031834757E+00
-0.8924725645446E+00 -0.2892709108012E+01 -0.1779035381589E+01 -0.8160434679734E+00
-0.6592480622935E+00 -0.2899076392567E+01 -0.1672412489543E+01 -0.7080424238198E+00
-0.4574944733703E+00 -0.2880270342883E+01 -0.1568749459660E+01 -0.6106345738994E+00
-0.2888167166302E+00 -0.2841002901515E+01 -0.1471015216797E+01 -0.5264912967893E+00
-0.1520745288810E+00 -0.2788700976400E+01 -0.1382164483976E+01 -0.4582719897402E+00
-0.4322811147500E-01 -0.2728995218049E+01 -0.1302944961571E+01 -0.4068073787604E+00
 0.4159324299956E-01 -0.2665667413815E+01 -0.1233314857155E+01 -0.3712684758399E+00
 0.1053393264968E+00 -0.2601468103660E+01 -0.1173180522291E+01 -0.3501694012802E+00
 0.1504268994804E+00 -0.2538503666669E+01 -0.1122396077732E+01 -0.3418492083454E+00
 0.1792894669303E+00 -0.2478075765904E+01 -0.1080429557778E+01 -0.3445290739281E+00
 0.1938599805254E+00 -0.2420959925740E+01 -0.1046736971596E+01 -0.3566370863481E+00
 0.1955315543026E+00 -0.2367799262922E+01 -0.1020965820462E+01 -0.3770445339027E+00
 0.1855946442354E+00 -0.2318760743774E+01 -0.1002588064240E+01 -0.4049852791411E+00
 0.1653734444355E+00 -0.2272337294053E+01 -0.9902730068085E+00 -0.4396859003322E+00
 0.1252010001475E+00 -0.2235095519235E+01 -0.9916504214557E+00 -0.4826454994636E+00
 0.6618384317325E-01 -0.2217289079746E+01 -0.1011019458625E+01 -0.5333088196932E+00
 0.3159500900754E-02 -0.2225711852952E+01 -0.1044599602814E+01 -0.5870169452297E+00
-0.1755958431777E+01 -0.2730586047892E+01 -0.2108675900096E+01 -0.1123202072058E+01
-0.1483367628853E+01 -0.2804576578235E+01 -0.2015333772220E+01 -0.1019070145791E+01
-0.1212703887073E+01 -0.2865477310030E+01 -0.1916745157777E+01 -0.9131406942330E+00
-0.9578415660056E+00 -0.2907374046040E+01 -0.1816651333054E+01 -0.8095345561984E+00
-0.7269422428839E+00 -0.2927963091090E+01 -0.1717805502611E+01 -0.7124167152019E+00
-0.5238166487514E+00 -0.2927172346363E+01 -0.1621964823590E+01 -0.6244223166002E+00
-0.3503068966893E+00 -0.2907996681634E+01 -0.1531402677928E+01 -0.5474732097432E+00
-0.2059231382886E+00 -0.2876038314011E+01 -0.1448521878907E+01 -0.4837235743767E+00
-0.8778991370072E-01 -0.2835778413989E+01 -0.1374077110529E+01 -0.4342503955626E+00
 0.7113673921374E-02 -0.2790389688203E+01 -0.1308139723394E+01 -0.3988145763185E+00
 0.8124976597005E-01 -0.2742352902216E+01 -0.1250718470863E+01 -0.3764955626715E+00
 0.1367306450285E+00 -0.2693697123109E+01 -0.1201774241650E+01 -0.3660884475300E+00
 0.1757696405695E+00 -0.2645839591813E+01 -0.1160932874140E+01 -0.3661656322171E+00
 0.2003057532483E+00 -0.2599785211113E+01 -0.1127755342336E+01 -0.3753537448072E+00
 0.2119849624953E+00 -0.2556475024442E+01 -0.1101910326320E+01 -0.3926043574107E+00
 0.2124421506481E+00 -0.2516637599348E+01 -0.1082971858142E+01 -0.4172844968972E+00
 0.2037674164044E+00 -0.2479479144268E+01 -0.1069584509383E+01 -0.4491129175094E+00
 0.1759814053204E+00 -0.2451379756935E+01 -0.1069437222546E+01 -0.4904641145340E+00
 0.1270115745135E+00 -0.2439047239655E+01 -0.1086656759861E+01 -0.5413867868903E+00
 0.6609462183769E-01 -0.2446871335807E+01 -0.1118965052728E+01 -0.5958414651072E+00
-0.1796076241622E+01 -0.2734281357906E+01 -0.2129268066378E+01 -0.1088403973215E+01
-0.1532369135367E+01 -0.2808645906143E+01 -0.2040277064335E+01 -0.9892691506811E+00
-0.1270212299288E+01 -0.2873188453159E+01 -0.1947398348711E+01 -0.8915568684373E+00
-0.1021550942759E+01 -0.2922657429669E+01 -0.1853777930339E+01 -0.7975138359595E+00
-0.7936631620670E+00 -0.2954784111423E+01 -0.1761770214072E+01 -0.7098057042352E+00
-0.5903011891384E+00 -0.2969077059859E+01 -0.1672907772786E+01 -0.6302365717796E+00
-0.4133709680130E+00 -0.2967280704763E+01 -0.1588906282175E+01 -0.5601349868082E+00
-0.2627509786560E+00 -0.2953475575809E+01 -0.1511626476764E+01 -0.5011465619828E+00
-0.1364806534794E+00 -0.2931115166486E+01 -0.1441770031727E+01 -0.4543568978937E+00
-0.3232197117716E-01 -0.2902769570536E+01 -0.1379493021106E+01 -0.4198722307912E+00
 0.5166885297310E-01 -0.2870588894963E+01 -0.1324892416375E+01 -0.3971814718979E+00
 0.1172289403102E+00 -0.2836413109252E+01 -0.1278016556161E+01 -0.3854565363415E+00
 0.1662363383716E+00 -0.2801601379474E+01 -0.1238621566177E+01 -0.3835849498284E+00
 0.2004715043247E+00 -0.2767141761343E+01 -0.1206335017739E+01 -0.3903477275317E+00
 0.2216854542965E+00 -0.2733950441232E+01 -0.1180764540865E+01 -0.4046242934134E+00
 0.2320441673658E+00 -0.2702865358433E+01 -0.1161285956856E+01 -0.4255681797602E+00
 0.2342334554811E+00 -0.2674184478331E+01 -0.1146776977831E+01 -0.4528248012266E+00
 0.2225192783963E+00 -0.2652457057095E+01 -0.1142070753092E+01 -0.4892333069866E+00
 0.1877653842809E+00 -0.2647010184117E+01 -0.1155845052991E+01 -0.5378606853963E+00
 0.1325341822903E+00 -0.2654264915605E+01 -0.1185213441652E+01 -0.5931579848270E+00
-0.1836704576302E+01 -0.2740848779688E+01 -0.2151450071858E+01 -0.1052614605889E+01
-0.1580640269553E+01 -0.2815660695297E+01 -0.2066261448239E+01 -0.9576689129104E+00
-0.1326337425090E+01 -0.2883114652242E+01 -0.1978442471328E+01 -0.8667785383663E+00
-0.1083757086949E+01 -0.2938485347042E+01 -0.1890453939181E+01 -0.7807531007919E+00
-0.8593344553612E+00 -0.2979875630779E+01 -0.1804428735909E+01 -0.7010285081873E+00
-0.6566518780464E+00 -0.3006739704375E+01 -0.1721794039371E+01 -0.6287614285751E+00
-0.4775061602224E+00 -0.3019859826076E+01 -0.1643762009391E+01 -0.5648676453015E+00
-0.3219693814847E+00 -0.3022064571932E+01 -0.1571695954119E+01 -0.5105636861567E+00
-0.1887380889355E+00 -0.3015871431878E+01 -0.1506166470962E+01 -0.4667933071893E+00
-0.7625374755024E-01 -0.3003320193493E+01 -0.1447399748619E+01 -0.4337965755929E+00
 0.1693610371867E-01 -0.2986255280062E+01 -0.1395580009342E+01 -0.4113257894188E+00
 0.9218142858335E-01 -0.2966311543979E+01 -0.1350841150810E+01 -0.3988649306425E+00
 0.1509390226120E+00 -0.2944743362325E+01 -0.1313088036335E+01 -0.3956310631751E+00
 0.1946227840443E+00 -0.2922413229397E+01 -0.1282061506064E+01 -0.4006422650044E+00
 0.2246994262453E+00 -0.2899978285196E+01 -0.1257381060518E+01 -0.4127821024076E+00
 0.2434164196027E+00 -0.2877838614476E+01 -0.1238178428450E+01 -0.4307956728925E+00
 0.2545789930380E+00 -0.2856019198541E+01 -0.1222676893485E+01 -0.4535342250177E+00
 0.2544491474326E+00 -0.2839544524477E+01 -0.1214994824129E+01 -0.4824372082577E+00
 0.2500276826085E+00 -0.2827559557038E+01 -0.1211439977909E+01 -0.5221255838075E+00
 0.2029354129034E+00 -0.2844106284584E+01 -0.1241350306541E+01 -0.5772142035819E+00
-0.1877302614123E+01 -0.2749162495064E+01 -0.2174438595803E+01 -0.1015640094625E+01
-0.1628484060826E+01 -0.2825143236728E+01 -0.2093204824541E+01 -0.9242955352627E+00
-0.1381337629975E+01 -0.2894902523358E+01 -0.2009832866969E+01 -0.8392302421273E+00
-0.1144633069047E+01 -0.2954680694860E+01 -0.1926677464150E+01 -0.7599433045552E+00
-0.9240072193121E+00 -0.3003360348548E+01 -0.1845862752213E+01 -0.6868519011334E+00
-0.7226363290945E+00 -0.3040516209509E+01 -0.1768681688658E+01 -0.6206623191038E+00
-0.5423803936673E+00 -0.3066525813571E+01 -0.1696185913100E+01 -0.5621244332330E+00
-0.3831087453844E+00 -0.3082725789998E+01 -0.1628942227498E+01 -0.5121779115665E+00
-0.2440700215545E+00 -0.3090856574663E+01 -0.1567415496247E+01 -0.4714910492938E+00
-0.1242856675130E+00 -0.3092584181254E+01 -0.1511928825086E+01 -0.4402517698993E+00
-0.2268146607436E-01 -0.3089480459059E+01 -0.1462716101103E+01 -0.4183290786073E+00
 0.6176239938254E-01 -0.3083030038217E+01 -0.1419995786651E+01 -0.4054285057255E+00
 0.1301179071141E+00 -0.3074430421718E+01 -0.1383826878354E+01 -0.4010901237041E+00
 0.1833496766376E+00 -0.3064520819776E+01 -0.1354150433840E+01 -0.4046979997657E+00
 0.2223369834998E+00 -0.3053827712377E+01 -0.1330800639197E+01 -0.4154883819091E+00
 0.2482342163169E+00 -0.3042560014941E+01 -0.1313333122022E+01 -0.4323771127228E+00
 0.2645152292787E+00 -0.3029392786895E+01 -0.1299492448784E+01 -0.4534883586264E+00
 0.2712954631856E+00 -0.3015511729302E+01 -0.1289781641803E+01 -0.4780135515965E+00
 0.2710045231516E+00 -0.3005706677938E+01 -0.1285310009489E+01 -0.5061228585706E+00
 0.3199330114498E+00 -0.2957853134333E+01 -0.1239822454611E+01 -0.5468132120249E+00
-0.1877302601677E+01 -0.2749162491221E+01 -0.2174438588147E+01  0.1015640108435E+01
-0.1628484051166E+01 -0.2825143232377E+01 -0.2093204817956E+01  0.9242955470305E+00
-0.1381337622438E+01 -0.2894902518679E+01 -0.2009832861227E+01  0.8392302515672E+00
-0.1144633063227E+01 -0.2954680689929E+01 -0.1926677459096E+01  0.7599433117579E+00
-0.9240072149607E+00 -0.3003360343501E+01 -0.1845862747795E+01  0.6868519063897E+00
-0.7226363260002E+00 -0.3040516204548E+01 -0.1768681684872E+01  0.6206623227761E+00
-0.5423803916208E+00 -0.3066525808945E+01 -0.1696185909964E+01  0.5621244356897E+00
-0.3831087441422E+00 -0.3082725785941E+01 -0.1628942225008E+01  0.5121779131533E+00
-0.2440700208638E+00 -0.3090856571345E+01 -0.1567415494363E+01  0.4714910502910E+00
-0.1242856671515E+00 -0.3092584178744E+01 -0.1511928823736E+01  0.4402517705107E+00
-0.2268146587427E-01 -0.3089480457320E+01 -0.1462716100191E+01  0.4183290789679E+00
 0.6176239953008E-01 -0.3083030037128E+01 -0.1419995786069E+01  0.4054285059200E+00
 0.1301179072672E+00 -0.3074430421125E+01 -0.1383826878003E+01  0.4010901237855E+00
 0.1833496768147E+00 -0.3064520819534E+01 -0.1354150433644E+01  0.4046979997699E+00
 0.2223369836961E+00 -0.3053827712375E+01 -0.1330800639104E+01  0.4154883818631E+00
 0.2482342165439E+00 -0.3042560015087E+01 -0.1313333121984E+01  0.4323771126388E+00
 0.2645152295690E+00 -0.3029392787115E+01 -0.1299492448751E+01  0.4534883585125E+00
 0.2712954633708E+00 -0.3015511729699E+01 -0.1289781641903E+01  0.4780135515205E+00
 0.2710045231975E+00 -0.3005706678573E+01 -0.1285310009767E+01  0.5061228586284E+00
 0.3199330113805E+00 -0.2957853135139E+01 -0.1239822455022E+01  0.5468132122528E+00
-0.1836704564470E+01 -0.2740848776624E+01 -0.2151450064857E+01  0.1052614618634E+01
-0.1580640260160E+01 -0.2815660691782E+01 -0.2066261442172E+01  0.9576689236544E+00
-0.1326337417518E+01 -0.2883114648277E+01 -0.1978442465906E+01  0.8667785467816E+00
-0.1083757080926E+01 -0.2938485342661E+01 -0.1890453934291E+01  0.7807531069863E+00
-0.8593344507197E+00 -0.2979875626097E+01 -0.1804428731527E+01  0.7010285124929E+00
-0.6566518746368E+00 -0.3006739699611E+01 -0.1721794035529E+01  0.6287614313897E+00
-0.4775061578760E+00 -0.3019859821528E+01 -0.1643762006151E+01  0.5648676470224E+00
-0.3219693799775E+00 -0.3022064567879E+01 -0.1571695951506E+01  0.5105636871477E+00
-0.1887380880154E+00 -0.3015871428518E+01 -0.1506166468951E+01  0.4667933077278E+00
-0.7625374699108E-01 -0.3003320190911E+01 -0.1447399747143E+01  0.4337965758628E+00
 0.1693610408872E-01 -0.2986255278229E+01 -0.1395580008306E+01  0.4113257895305E+00
 0.9218142887458E-01 -0.2966311542782E+01 -0.1350841150110E+01  0.3988649306597E+00
 0.1509390228828E+00 -0.2944743361621E+01 -0.1313088035877E+01  0.3956310631358E+00
 0.1946227843157E+00 -0.2922413229047E+01 -0.1282061505772E+01  0.4006422649347E+00
 0.2246994265223E+00 -0.2899978285094E+01 -0.1257381060340E+01  0.4127821023283E+00
 0.2434164199155E+00 -0.2877838614540E+01 -0.1238178428333E+01  0.4307956728174E+00
 0.2545789933775E+00 -0.2856019198748E+01 -0.1222676893423E+01  0.4535342249801E+00
 0.2544491475515E+00 -0.2839544524972E+01 -0.1214994824306E+01  0.4824372083532E+00
 0.2500276824976E+00 -0.2827559557902E+01 -0.1211439978368E+01  0.5221255840931E+00
 0.2029354127265E+00 -0.2844106285763E+01 -0.1241350307178E+01  0.5772142039744E+00
-0.1796076230522E+01 -0.2734281355816E+01 -0.2129268060178E+01  0.1088403984972E+01
-0.1532369126215E+01 -0.2808645903570E+01 -0.2040277058824E+01  0.9892691604341E+00
-0.1270212291676E+01 -0.2873188450002E+01 -0.1947398343649E+01  0.8915568758214E+00
-0.1021550936532E+01 -0.2922657425889E+01 -0.1853777925636E+01  0.7975138411181E+00
-0.7936631571525E+00 -0.2954784107124E+01 -0.1761770209742E+01  0.7098057075560E+00
-0.5903011854438E+00 -0.2969077055287E+01 -0.1672907768900E+01  0.6302365737074E+00
-0.4133709654073E+00 -0.2967280700264E+01 -0.1588906278836E+01  0.5601349877768E+00
-0.2627509769286E+00 -0.2953475571712E+01 -0.1511626474027E+01  0.5011465623727E+00
-0.1364806523745E+00 -0.2931115163027E+01 -0.1441770029582E+01  0.4543568979727E+00
-0.3232197046382E-01 -0.2902769567825E+01 -0.1379493019497E+01  0.4198722307209E+00
 0.5166885346931E-01 -0.2870588892985E+01 -0.1324892415212E+01  0.3971814717649E+00
 0.1172289407001E+00 -0.2836413107907E+01 -0.1278016555346E+01  0.3854565361904E+00
 0.1662363387144E+00 -0.2801601378625E+01 -0.1238621565617E+01  0.3835849496837E+00
 0.2004715046440E+00 -0.2767141760858E+01 -0.1206335017361E+01  0.3903477274113E+00
 0.2216854545992E+00 -0.2733950441012E+01 -0.1180764540619E+01  0.4046242933362E+00
 0.2320441676762E+00 -0.2702865358403E+01 -0.1161285956696E+01  0.4255681797440E+00
 0.2342334557698E+00 -0.2674184478468E+01 -0.1146776977759E+01  0.4528248013125E+00
 0.2225192783501E+00 -0.2652457057601E+01 -0.1142070753351E+01  0.4892333072726E+00
 0.1877653839755E+00 -0.2647010185130E+01 -0.1155845053611E+01  0.5378606858898E+00
 0.1325341820156E+00 -0.2654264917173E+01 -0.1185213442518E+01  0.5931579854116E+00
-0.1755958421470E+01 -0.2730586046905E+01 -0.2108675894788E+01  0.1123202082905E+01
-0.1483367619942E+01 -0.2804576576732E+01 -0.2015333767325E+01  0.1019070154566E+01
-0.1212703879408E+01 -0.2865477307757E+01 -0.1916745153106E+01  0.9131407005655E+00
-0.9578415595811E+00 -0.2907374042895E+01 -0.1816651328556E+01  0.8095345602855E+00
-0.7269422377211E+00 -0.2927963087166E+01 -0.1717805498340E+01  0.7124167175025E+00
-0.5238166448128E+00 -0.2927172341943E+01 -0.1621964819661E+01  0.6244223176155E+00
-0.3503068938761E+00 -0.2907996677129E+01 -0.1531402674488E+01  0.5474732099491E+00
-0.2059231363959E+00 -0.2876038309809E+01 -0.1448521876042E+01  0.4837235741688E+00
-0.8778991246372E-01 -0.2835778410370E+01 -0.1374077108247E+01  0.4342503951937E+00
 0.7113674738632E-02 -0.2790389685307E+01 -0.1308139721649E+01  0.3988145759247E+00
 0.8124976654305E-01 -0.2742352900050E+01 -0.1250718469576E+01  0.3764955623145E+00
 0.1367306454672E+00 -0.2693697121582E+01 -0.1201774240726E+01  0.3660884472353E+00
 0.1757696409330E+00 -0.2645839590791E+01 -0.1160932873489E+01  0.3661656319957E+00
 0.2003057535600E+00 -0.2599785210470E+01 -0.1127755341887E+01  0.3753537446687E+00
 0.2119849627583E+00 -0.2556475024080E+01 -0.1101910326026E+01  0.3926043573707E+00
 0.2124421508825E+00 -0.2516637599187E+01 -0.1082971857957E+01  0.4172844969705E+00
 0.2037674165616E+00 -0.2479479144282E+01 -0.1069584509316E+01  0.4491129177330E+00
 0.1759814050610E+00 -0.2451379757385E+01 -0.1069437222880E+01  0.4904641149977E+00
 0.1270115740072E+00 -0.2439047240778E+01 -0.1086656760626E+01  0.5413867875792E+00
 0.6609462147364E-01 -0.2446871337733E+01 -0.1118965053804E+01  0.5958414659095E+00
-0.1716576700966E+01 -0.2730600438517E+01 -0.2090173250255E+01  0.1157171512267E+01
-0.1433458187870E+01 -0.2804262224958E+01 -0.1991728588977E+01  0.1046894571906E+01
-0.1153516353627E+01 -0.2860430254702E+01 -0.1886554901130E+01  0.9310031887226E+00
-0.8924725579353E+00 -0.2892709105508E+01 -0.1779035377306E+01  0.8160434709454E+00
-0.6592480569189E+00 -0.2899076388979E+01 -0.1672412485330E+01  0.7080424250639E+00
-0.4574944692417E+00 -0.2880270338545E+01 -0.1568749455681E+01  0.6106345739829E+00
-0.2888167136737E+00 -0.2841002896922E+01 -0.1471015213249E+01  0.5264912962346E+00
-0.1520745268877E+00 -0.2788700972014E+01 -0.1382164480978E+01  0.4582719889534E+00
-0.4322811016634E-01 -0.2728995214204E+01 -0.1302944959149E+01  0.4068073779725E+00
 0.4159324386404E-01 -0.2665667410685E+01 -0.1233314855278E+01  0.3712684751562E+00
 0.1053393270921E+00 -0.2601468101267E+01 -0.1173180520887E+01  0.3501694007352E+00
 0.1504268999143E+00 -0.2538503664931E+01 -0.1122396076711E+01  0.3418492079437E+00
 0.1792894672611E+00 -0.2478075764689E+01 -0.1080429557051E+01  0.3445290736657E+00
 0.1938599807748E+00 -0.2420959924918E+01 -0.1046736971092E+01  0.3566370862242E+00
 0.1955315544696E+00 -0.2367799262395E+01 -0.1020965820136E+01  0.3770445339254E+00
 0.1855946443369E+00 -0.2318760743452E+01 -0.1002588064041E+01  0.4049852793161E+00
 0.1653734444115E+00 -0.2272337293904E+01 -0.9902730067499E+00  0.4396859006855E+00
 0.1252009996599E+00 -0.2235095519586E+01 -0.9916504218501E+00  0.4826455000806E+00
 0.6618384247635E-01 -0.2217289080932E+01 -0.1011019459510E+01  0.5333088205622E+00
 0.3159500435141E-02 -0.2225711855192E+01 -0.1044599604086E+01  0.5870169462621E+00
-0.1678163992030E+01 -0.2735297251908E+01 -0.2074326779390E+01  0.1190499909094E+01
-0.1382402683280E+01 -0.2808601499635E+01 -0.1969771960974E+01  0.1072458951775E+01
-0.1092375522924E+01 -0.2858546991011E+01 -0.1856933576840E+01  0.9444674755304E+00
-0.8253460203118E+00 -0.2878606544413E+01 -0.1740857701005E+01  0.8161437341010E+00
-0.5907594357255E+00 -0.2867502810370E+01 -0.1625383251542E+01  0.6957963268351E+00
-0.3917817500056E+00 -0.2827300001879E+01 -0.1512968419548E+01  0.5882186661983E+00
-0.2295434293710E+00 -0.2765020270868E+01 -0.1407444935543E+01  0.4969455084965E+00
-0.1019022765284E+00 -0.2690259565351E+01 -0.1312316062355E+01  0.4250127282941E+00
-0.3410259765587E-02 -0.2609862752080E+01 -0.1228238312452E+01  0.3726556300973E+00
 0.7064908634003E-01 -0.2528139965698E+01 -0.1155020710369E+01  0.3381661003890E+00
 0.1236345101696E+00 -0.2447946585973E+01 -0.1092426672857E+01  0.3193200805413E+00
 0.1581801232431E+00 -0.2371256764802E+01 -0.1040146018894E+01  0.3138969710630E+00
 0.1768478774236E+00 -0.2299014424898E+01 -0.9974182747830E+00  0.3196872399573E+00
 0.1814865816512E+00 -0.2231519685054E+01 -0.9635155561556E+00  0.3348187289925E+00
 0.1732859257650E+00 -0.2168893895254E+01 -0.9379357432811E+00  0.3579184637193E+00
 0.1532925327952E+00 -0.2110762942072E+01 -0.9200110900266E+00  0.3878833747963E+00
 0.1229042131857E+00 -0.2054790728510E+01 -0.9079866598994E+00  0.4233368428293E+00
 0.7304787908468E-01 -0.2008826589694E+01 -0.9098159916785E+00  0.4653972496439E+00
 0.7960345236040E-02 -0.1985749975015E+01 -0.9295611236386E+00  0.5140507642851E+00
-0.5627352644421E-01 -0.1995382199745E+01 -0.9642781888632E+00  0.5666571409394E+00
-0.1640971551887E+01 -0.2745836979194E+01 -0.2061800004378E+01  0.1223401234791E+01
-0.1329926301188E+01 -0.2818626814618E+01 -0.1949819959483E+01  0.1095353649500E+01
-0.1029020701709E+01 -0.2860308584689E+01 -0.1827984759971E+01  0.9526741879701E+00
-0.7564498472483E+00 -0.2864816761971E+01 -0.1701995302016E+01  0.8087832143779E+00
-0.5217950772172E+00 -0.2832293615902E+01 -0.1576421681767E+01  0.6747338532060E+00
-0.3272854445617E+00 -0.2766830138208E+01 -0.1454234320213E+01  0.5566030124637E+00
-0.1732694840208E+00 -0.2678494503687E+01 -0.1340329070823E+01  0.4588148125653E+00
-0.5617608155553E-01 -0.2579378024550E+01 -0.1238710426728E+01  0.3844735621511E+00
 0.3104842963504E-01 -0.2477496877934E+01 -0.1149830767784E+01  0.3327429674140E+00
 0.9387950188684E-01 -0.2377479427486E+01 -0.1073291962309E+01  0.3007103730882E+00
 0.1359702210001E+00 -0.2282008314728E+01 -0.1008637901494E+01  0.2852361458588E+00
 0.1600886536106E+00 -0.2192643221726E+01 -0.9553006445912E+00  0.2834347094063E+00
 0.1688610740855E+00 -0.2109718625402E+01 -0.9122030468053E+00  0.2925901891014E+00
 0.1640363886409E+00 -0.2032869959878E+01 -0.8783517762537E+00  0.3104555516240E+00
 0.1466601307458E+00 -0.1961631376714E+01 -0.8530364834416E+00  0.3353344846812E+00
 0.1177764293005E+00 -0.1895096910854E+01 -0.8353406242114E+00  0.3657588087031E+00
 0.7897907038346E-01 -0.1830404633618E+01 -0.8231700126324E+00  0.3999228555181E+00
 0.2241858426961E-01 -0.1776466740539E+01 -0.8244026313556E+00  0.4389317414470E+00
-0.4585183065274E-01 -0.1748753783927E+01 -0.8434646367130E+00  0.4839576977661E+00
-0.1101524971467E+00 -0.1759391310133E+01 -0.8786855871929E+00  0.5345701167024E+00
-0.1605294580018E+01 -0.2763639578349E+01 -0.2053399049224E+01  0.1256115255802E+01
-0.1275721867074E+01 -0.2835527987740E+01 -0.1932287426861E+01  0.1115002957111E+01
-0.9632257723737E+00 -0.2866140618959E+01 -0.1799802199361E+01  0.9545364541077E+00
-0.6858862514886E+00 -0.2850813571179E+01 -0.1662248912438E+01  0.7927340684040E+00
-0.4528400976848E+00 -0.2792087971459E+01 -0.1525116188629E+01  0.6438775007841E+00
-0.2647814623322E+00 -0.2697023515251E+01 -0.1392048335933E+01  0.5153695575304E+00
-0.1208926079809E+00 -0.2579605060563E+01 -0.1269233900997E+01  0.4123862936661E+00
-0.1568848327934E-01 -0.2454655265999E+01 -0.1161061559216E+01  0.3375521776738E+00
 0.5959678381642E-01 -0.2331137980250E+01 -0.1067624359616E+01  0.2883598102194E+00
 0.1110171506001E+00 -0.2213620033144E+01 -0.9882233522891E+00  0.2603607613266E+00
 0.1423813001144E+00 -0.2104217721405E+01 -0.9220631156677E+00  0.2493509128785E+00
 0.1565150535860E+00 -0.2003749217705E+01 -0.8682000549339E+00  0.2517111250130E+00
 0.1560610108325E+00 -0.1911711734753E+01 -0.8251558381500E+00  0.2641932322713E+00
 0.1426643105377E+00 -0.1826963911295E+01 -0.7916208103481E+00  0.2841690221632E+00
 0.1173094435269E+00 -0.1748440515178E+01 -0.7666316017318E+00  0.3096326665334E+00
 0.8113913522804E-01 -0.1674800600823E+01 -0.7490208869300E+00  0.3388390330484E+00
 0.3604813383109E-01 -0.1602725373674E+01 -0.7363383008587E+00  0.3697676116467E+00
-0.2436430814088E-01 -0.1542022828276E+01 -0.7362019522485E+00  0.4037453160027E+00
-0.9307289045135E-01 -0.1510328975585E+01 -0.7535988751255E+00  0.4434363045081E+00
-0.1560308641885E+00 -0.1521610782398E+01 -0.7884915718958E+00  0.4907857561092E+00
-0.1571505262414E+01 -0.2790475192938E+01 -0.2050130808816E+01  0.1288902599718E+01
-0.1219463858871E+01 -0.2860688878773E+01 -0.1917671781829E+01  0.1130606349188E+01
-0.8948266933831E+00 -0.2876360674670E+01 -0.1772458058490E+01  0.9486815741403E+00
-0.6139048914835E+00 -0.2835680225379E+01 -0.1621305000813E+01  0.7665761316079E+00
-0.3845676288305E+00 -0.2745000607212E+01 -0.1470897067209E+01  0.6022629299716E+00
-0.2052088760109E+00 -0.2615590389178E+01 -0.1325775651276E+01  0.4643498999601E+00
-0.7338478614677E-01 -0.2466311361008E+01 -0.1193657186135E+01  0.3583553776141E+00
 0.1880915257733E-01 -0.2314745201492E+01 -0.1079089940253E+01  0.2855775271927E+00
 0.8181253052678E-01 -0.2170305430468E+01 -0.9815916604828E+00  0.2411488427581E+00
 0.1219826562478E+00 -0.2036906297185E+01 -0.9000141089578E+00  0.2188035445410E+00
 0.1431324784383E+00 -0.1915596784840E+01 -0.8330582218960E+00  0.2132001955436E+00
 0.1480752321975E+00 -0.1806115393581E+01 -0.7792788738735E+00  0.2199942264943E+00
 0.1394224066217E+00 -0.1706949751052E+01 -0.7367378500135E+00  0.2354571081861E+00
 0.1187180234703E+00 -0.1616139508524E+01 -0.7037880961900E+00  0.2566478963168E+00
 0.8694071222362E-01 -0.1532070067872E+01 -0.6792107954318E+00  0.2813347397069E+00
 0.4540206229006E-01 -0.1453040404730E+01 -0.6615900192687E+00  0.3076271831818E+00
-0.3719952892133E-02 -0.1375354109870E+01 -0.6481648078543E+00  0.3334914614094E+00
-0.6514764126796E-01 -0.1309430511157E+01 -0.6460517300010E+00  0.3605833226703E+00
-0.1315438186162E+00 -0.1274638163328E+01 -0.6609055298374E+00  0.3931976042967E+00
-0.1913796081802E+00 -0.1286179568070E+01 -0.6944528110762E+00  0.4358124609938E+00
-0.1540108616871E+01 -0.2828597271214E+01 -0.2053291762192E+01  0.1322033913275E+01
-0.1160833891321E+01 -0.2895736132562E+01 -0.1906587906389E+01  0.1141053884298E+01
-0.8237584958239E+00 -0.2891095253948E+01 -0.1745981257964E+01  0.9333742797744E+00
-0.5409365447520E+00 -0.2817943058713E+01 -0.1578673409624E+01  0.7286872463035E+00
-0.3178499297190E+00 -0.2688478106097E+01 -0.1412974173250E+01  0.5490160438041E+00
-0.1496459516150E+00 -0.2519761531813E+01 -0.1254621514029E+01  0.4037564554021E+00
-0.3173170231039E-01 -0.2336460187644E+01 -0.1113050185456E+01  0.2979402851409E+00
 0.4667948864444E-01 -0.2158546132078E+01 -0.9925773198963E+00  0.2303582137551E+00
 0.9746293460353E-01 -0.1994993547328E+01 -0.8918393857184E+00  0.1930840519273E+00
 0.1269241291348E+00 -0.1848236170764E+01 -0.8090166575136E+00  0.1778858852517E+00
 0.1387296755437E+00 -0.1717686842031E+01 -0.7421098663667E+00  0.1783442998285E+00
 0.1356120223406E+00 -0.1601712556683E+01 -0.6890672493932E+00  0.1895060806675E+00
 0.1201009606741E+00 -0.1497711620076E+01 -0.6474770082765E+00  0.2073000292310E+00
 0.9364034020914E-01 -0.1402949125273E+01 -0.6153751274194E+00  0.2286020529341E+00
 0.5724836510922E-01 -0.1315357727675E+01 -0.5913113989062E+00  0.2510751073426E+00
 0.1243418828665E-01 -0.1232974578369E+01 -0.5736539818836E+00  0.2728234959448E+00
-0.3838040478953E-01 -0.1151804510702E+01 -0.5593869088622E+00  0.2919652183136E+00
-0.9802771360883E-01 -0.1082586923669E+01 -0.5548888781131E+00  0.3105099259444E+00
-0.1593093758133E+00 -0.1045900536776E+01 -0.5664486574804E+00  0.3344124946216E+00
-0.2139151821070E+00 -0.1057467271500E+01 -0.5975497516796E+00  0.3707793711607E+00
-0.1511839106884E+01 -0.2880946254390E+01 -0.2064609114562E+01  0.1355768395417E+01
-0.1099566156056E+01 -0.2942604323555E+01 -0.1899820120598E+01  0.1144801757184E+01
-0.7501017919475E+00 -0.2910138717841E+01 -0.1720313035237E+01  0.9064145083305E+00
-0.4676207156343E+00 -0.2795322719506E+01 -0.1533583410626E+01  0.6772491380180E+00
-0.2537499550017E+00 -0.2619122510726E+01 -0.1350250055467E+01  0.4834787539955E+00
-0.9926276148324E-01 -0.2406312982852E+01 -0.1177620596851E+01  0.3343581312951E+00
 0.3145359784266E-02 -0.2187993338880E+01 -0.1026878547571E+01  0.2330013674967E+00
 0.6747452897082E-01 -0.1985473786943E+01 -0.9014596489606E+00  0.1741954105013E+00
 0.1065572422053E+00 -0.1805890647253E+01 -0.7986866983469E+00  0.1463953030120E+00
 0.1262447691574E+00 -0.1649164240342E+01 -0.7157721496411E+00  0.1394981911422E+00
 0.1299180247392E+00 -0.1512535596814E+01 -0.6498302572272E+00  0.1462522858659E+00
 0.1201599628428E+00 -0.1392842571586E+01 -0.5981608245922E+00  0.1613334328096E+00
 0.9936731072127E-01 -0.1286449624566E+01 -0.5579286860917E+00  0.1805359818737E+00
 0.6889232767359E-01 -0.1189983493290E+01 -0.5269128465033E+00  0.2007155240613E+00
 0.2983119703581E-01 -0.1101071525064E+01 -0.5034829528963E+00  0.2195601280258E+00
-0.1609802459919E-01 -0.1017610095311E+01 -0.4858428151253E+00  0.2352961569560E+00
-0.6627265612830E-01 -0.9354128418245E+00 -0.4707921828437E+00  0.2463220081883E+00
-0.1214490509831E+00 -0.8652449125662E+00 -0.4637461616919E+00  0.2549763228827E+00
-0.1748509554978E+00 -0.8282865205218E+00 -0.4714746125334E+00  0.2688098962343E+00
-0.2218519718671E+00 -0.8399368589501E+00 -0.4990407492183E+00  0.2975306580998E+00
-0.1487832660401E+01 -0.2951474468915E+01 -0.2086474345486E+01  0.1390312265914E+01
-0.1035526787198E+01 -0.3003620884786E+01 -0.1898399401017E+01  0.1139683107519E+01
-0.6741358383393E+00 -0.2932703981333E+01 -0.1695214710946E+01  0.8650000891816E+00
-0.3948119026284E+00 -0.2764355312058E+01 -0.1484808587137E+01  0.6102875217589E+00
-0.1934798785373E+00 -0.2532493226382E+01 -0.1281207356063E+01  0.4054117615659E+00
-0.5524909794752E-01 -0.2271705565757E+01 -0.1093668689167E+01  0.2577069186232E+00
 0.3047580802057E-01 -0.2019309891456E+01 -0.9347520168440E+00  0.1661402281724E+00
 0.8100313468936E-01 -0.1795817825212E+01 -0.8059629025016E+00  0.1198234389559E+00
 0.1093878592743E+00 -0.1604574465872E+01 -0.7027377033186E+00  0.1034130611070E+00
 0.1206191087739E+00 -0.1441913169377E+01 -0.6210082069086E+00  0.1054020327422E+00
 0.1176650249572E+00 -0.1302586652657E+01 -0.5569131636063E+00  0.1181657720777E+00
 0.1028939803966E+00 -0.1181976750988E+01 -0.5071689008915E+00  0.1363422837993E+00
 0.7853269710998E-01 -0.1075619479826E+01 -0.4686307866880E+00  0.1558287730451E+00
 0.4586905202016E-01 -0.9797152573501E+00 -0.4389077153918E+00  0.1736221024019E+00
 0.6114778842231E-02 -0.8917702477786E+00 -0.4162580693443E+00  0.1875541032815E+00
-0.3880455868424E-01 -0.8096849210873E+00 -0.3987900544811E+00  0.1960803030910E+00
-0.8610110964985E-01 -0.7292182241571E+00 -0.3832000859173E+00  0.1979789042706E+00
-0.1343400190585E+00 -0.6608800206420E+00 -0.3737534177113E+00  0.1958632938825E+00
-0.1772948247831E+00 -0.6257549351156E+00 -0.3774333861951E+00  0.1987217087392E+00
-0.2141596582447E+00 -0.6379743506641E+00 -0.4005029831713E+00  0.2186757302523E+00
-0.1469944528561E+01 -0.3045689297068E+01 -0.2122347892663E+01  0.1425737981698E+01
-0.9688519115458E+00 -0.3081610134328E+01 -0.1903717156732E+01  0.1122608892650E+01
-0.5963827292078E+00 -0.2956963543778E+01 -0.1670072744067E+01  0.8055428713784E+00
-0.3235321862869E+00 -0.2719809782587E+01 -0.1430370721743E+01  0.5257855791733E+00
-0.1383108646647E+00 -0.2422935412979E+01 -0.1203785747439E+01  0.3153179926767E+00
-0.1873215002592E-01 -0.2112459575223E+01 -0.1001660108327E+01  0.1764084759099E+00
 0.4971185294354E-01 -0.1829842176641E+01 -0.8366612500157E+00  0.1007245978954E+00
 0.8737915256295E-01 -0.1591133603375E+01 -0.7067645900891E+00  0.7022564346292E-01
 0.1065628081555E+00 -0.1393586541655E+01 -0.6049011532106E+00  0.6631784021418E-01
 0.1109955071984E+00 -0.1229232051417E+01 -0.5255711744495E+00  0.7702565241243E-01
 0.1031201462443E+00 -0.1090469112975E+01 -0.4640540131866E+00  0.9497970327709E-01
 0.8505443479331E-01 -0.9715626201043E+00 -0.4166588460394E+00  0.1151283228954E+00
 0.5886145787016E-01 -0.8675217286272E+00 -0.3800703262918E+00  0.1336798374442E+00
 0.2581491362834E-01 -0.7743675476602E+00 -0.3518197371026E+00  0.1479062015861E+00
-0.1272633793852E-01 -0.6896895059630E+00 -0.3301354457964E+00  0.1558825817009E+00
-0.5464770652007E-01 -0.6115577085579E+00 -0.3131165442925E+00  0.1563832428255E+00
-0.9702909499082E-01 -0.5358379483052E+00 -0.2974475095947E+00  0.1486459259107E+00
-0.1362430813202E+00 -0.4725318511007E+00 -0.2861242175121E+00  0.1354852142349E+00
-0.1666022476795E+00 -0.4418602330675E+00 -0.2859773652257E+00  0.1270733359601E+00
-0.1908209566294E+00 -0.4556737985041E+00 -0.3038525341421E+00  0.1375859706007E+00
-0.1461368510663E+01 -0.3171616078598E+01 -0.2177502751430E+01  0.1461822804239E+01
-0.9001859236946E+00 -0.3179995173848E+01 -0.1917685110981E+01  0.1089072772630E+01
-0.5175928050328E+00 -0.2979168448910E+01 -0.1643477785185E+01  0.7234294432206E+00
-0.2548018195227E+00 -0.2653793023306E+01 -0.1367039572662E+01  0.4219538174347E+00
-0.8943811483639E-01 -0.2283591211289E+01 -0.1115323780450E+01  0.2149488185928E+00
 0.9264952874734E-02 -0.1925973200194E+01 -0.9008528739552E+00  0.9439039023375E-01
 0.6054604601866E-01 -0.1620863817118E+01 -0.7333493505565E+00  0.4073648606079E-01
 0.8705956333648E-01 -0.1374499579593E+01 -0.6050968061057E+00  0.2826951551721E-01
 0.9903697903005E-01 -0.1176240006860E+01 -0.5062854217957E+00  0.3681669933161E-01
 0.9857648118665E-01 -0.1014070995874E+01 -0.4302824208119E+00  0.5528833691178E-01
 0.8753223722289E-01 -0.8787443634763E+00 -0.3718696983959E+00  0.7719053219323E-01
 0.6784820616817E-01 -0.7638544871810E+00 -0.3271229512463E+00  0.9802361714154E-01
 0.4148011352937E-01 -0.6641821559901E+00 -0.2926699592142E+00  0.1144487696703E+00
 0.9747518979851E-02 -0.5758146701631E+00 -0.2660515603813E+00  0.1241186283341E+00
-0.2583584732775E-01 -0.4966484843129E+00 -0.2455676352483E+00  0.1254390816558E+00
-0.6301232953314E-01 -0.4251094258975E+00 -0.2294172244705E+00  0.1175814657574E+00
-0.9876776343750E-01 -0.3573455625333E+00 -0.2143732626625E+00  0.1003093539498E+00
-0.1274262983463E+00 -0.3026376288677E+00 -0.2021300452779E+00  0.7654642712695E-01
-0.1437260021190E+00 -0.2795332543882E+00 -0.1989318500538E+00  0.5730932259855E-01
-0.1530747963957E+00 -0.2965738777913E+00 -0.2113348763319E+00  0.5831763924491E-01
-0.1467920898093E+01 -0.3341627287667E+01 -0.2260487641574E+01  0.1497712248736E+01
-0.8310980265177E+00 -0.3302815576501E+01 -0.1942939388491E+01  0.1032284517937E+01
-0.4384965069856E+00 -0.2991849308802E+01 -0.1612262529331E+01  0.6127409777837E+00
-0.1892440898360E+00 -0.2554451759542E+01 -0.1289537045937E+01  0.2978353068615E+00
-0.4787050786170E-01 -0.2107003335477E+01 -0.1012790703800E+01  0.1080632961075E+00
 0.2766553643215E-01 -0.1712125752954E+01 -0.7916962997571E+00  0.1701972726080E-01
 0.6288684325918E-01 -0.1396303109273E+01 -0.6267056434368E+00 -0.9719826602326E-02
 0.8091142235875E-01 -0.1150299738161E+01 -0.5026125071521E+00 -0.3846555569551E-02
 0.8816516526457E-01 -0.9560194705864E+00 -0.4078915224667E+00  0.1585379871112E-01
 0.8471943820714E-01 -0.7992008039373E+00 -0.3358062410415E+00  0.4055211096090E-01
 0.7212381048277E-01 -0.6697177652588E+00 -0.2808691580324E+00  0.6494185830560E-01
 0.5234248800475E-01 -0.5608186376685E+00 -0.2389837897358E+00  0.8514856837424E-01
 0.2730281695779E-01 -0.4672764735867E+00 -0.2067876180911E+00  0.9838586454410E-01
-0.1598319070232E-02 -0.3855062564136E+00 -0.1819391500159E+00  0.1027911521143E+00
-0.3272519318584E-01 -0.3139709248582E+00 -0.1629471750674E+00  0.9718526542910E-01
-0.6376314815599E-01 -0.2516614013231E+00 -0.1482495378792E+00  0.8120277305350E-01
-0.9164770179541E-01 -0.1951664000822E+00 -0.1348026275406E+00  0.5518351938108E-01
-0.1089623967534E+00 -0.1528802775409E+00 -0.1230660566061E+00  0.2204167734766E-01
-0.1107090031775E+00 -0.1408474606458E+00 -0.1182315376971E+00 -0.6762168331812E-02
-0.1036064644352E+00 -0.1633429212223E+00 -0.1254662109408E+00 -0.1456809065646E-01
-0.1501019236603E+01 -0.3576320972210E+01 -0.2386349892089E+01  0.1531157643184E+01
-0.7646875377402E+00 -0.3454222563508E+01 -0.1982887742557E+01  0.9415525084094E+00
-0.3589012468558E+00 -0.2980034125755E+01 -0.1569299621147E+01  0.4660438712933E+00
-0.1262130442701E+00 -0.2404263395910E+01 -0.1189323923868E+01  0.1546445580604E+00
-0.1488620917218E-01 -0.1887591590740E+01 -0.8941645636907E+00  0.1437105224244E-02
 0.3491017831763E-01 -0.1475721995449E+01 -0.6771815523340E+00 -0.4930437803248E-01
 0.5684987124547E-01 -0.1162878413577E+01 -0.5198334135772E+00 -0.4742034028044E-01
 0.7056201402341E-01 -0.9228822043248E+00 -0.4005904884256E+00 -0.2515614164237E-01
 0.7556577826916E-01 -0.7359363845758E+00 -0.3103741841769E+00  0.3580203988727E-02
 0.7076156844222E-01 -0.5869961112908E+00 -0.2426302345234E+00  0.3275258473082E-01
 0.5794796392048E-01 -0.4654079787753E+00 -0.1915062064960E+00  0.5813341284356E-01
 0.3938858423072E-01 -0.3641049085487E+00 -0.1526166720424E+00  0.7646434511078E-01
 0.1698866841672E-01 -0.2780730275953E+00 -0.1227096485027E+00  0.8565061058368E-01
-0.7800088143079E-02 -0.2043939120990E+00 -0.9973117986080E-01  0.8444145201017E-01
-0.3330900714290E-01 -0.1424224612948E+00 -0.8259378995624E-01  0.7214383686248E-01
-0.5727608917862E-01 -0.9190985774542E-01 -0.7011739487646E-01  0.4889494382922E-01
-0.7666611360892E-01 -0.5001888504310E-01 -0.5954194921543E-01  0.1563246104585E-01
-0.8275180375642E-01 -0.2408104858671E-01 -0.5021144047392E-01 -0.2490421240865E-01
-0.7069639340998E-01 -0.2681493159850E-01 -0.4583032263775E-01 -0.6122204403479E-01
-0.4660780316860E-01 -0.5741756147428E-01 -0.4889192125815E-01 -0.7632594027884E-01
-0.1584978957840E+01 -0.3913402596120E+01 -0.2584239323806E+01  0.1556672297933E+01
-0.7067211190126E+00 -0.3636479010383E+01 -0.2041304055639E+01  0.7989557641057E+00
-0.2737764189225E+00 -0.2911703381227E+01 -0.1497175502273E+01  0.2748159830419E+00
-0.6360360580306E-01 -0.2180393768806E+01 -0.1054678763391E+01 -0.1311448433576E-02
 0.6470120981028E-02 -0.1627690926865E+01 -0.7619737768329E+00 -0.9429042769437E-01
 0.2752574124148E-01 -0.1229661687323E+01 -0.5650038932253E+00 -0.9888304354082E-01
 0.4450589740536E-01 -0.9263634131846E+00 -0.4144730313650E+00 -0.7134501018629E-01
 0.5810297976470E-01 -0.6954202102527E+00 -0.2995390975696E+00 -0.3589600964336E-01
 0.6288494928442E-01 -0.5182522702069E+00 -0.2140226402907E+00 -0.3265105234096E-03
 0.5779583368819E-01 -0.3795661234669E+00 -0.1512320358124E+00  0.3162024869987E-01
 0.4579808903845E-01 -0.2676287061799E+00 -0.1042603897920E+00  0.5649752356866E-01
 0.2960073790730E-01 -0.1750113299141E+00 -0.6834297806984E-01  0.7177946908007E-01
 0.1094025226882E-01 -0.9734222787092E-01 -0.4060892842999E-01  0.7631176321042E-01
-0.8779571501891E-02 -0.3287909455764E-01 -0.1957957299832E-01  0.6957570569214E-01
-0.2790560505771E-01  0.1785682536189E-01 -0.4722926445058E-02  0.5139003653183E-01
-0.4445931375345E-01  0.5408723673544E-01  0.4525123790055E-02  0.2238859143365E-01
-0.5545740252453E-01  0.7811584777638E-01  0.1064946924136E-01 -0.1592780810256E-01
-0.5149929492553E-01  0.8376591674017E-01  0.1516531221442E-01 -0.6124435393512E-01
-0.2778935310047E-01  0.6273308179474E-01  0.1642355244465E-01 -0.1023962182055E+00
 0.1237670532968E-01  0.2131194292509E-01  0.1583366463958E-01 -0.1225158449010E+00
-0.1783219316067E+01 -0.4436434745250E+01 -0.2923237401405E+01  0.1559534807433E+01
-0.6599186877049E+00 -0.3833792865189E+01 -0.2112044424503E+01  0.5721404582986E+00
-0.1669892107121E+00 -0.2721288320717E+01 -0.1357490436328E+01  0.3266519273156E-01
 0.4519131097039E-02 -0.1858322677634E+01 -0.8712876646625E+00 -0.1523374064911E+00
-0.2177198914418E-02 -0.1360270244826E+01 -0.6403502969339E+00 -0.1662312528668E+00
 0.9225020808836E-02 -0.9819013038004E+00 -0.4571578518465E+00 -0.1305019842818E+00
 0.2850274913314E-01 -0.6900060169110E+00 -0.3109065350670E+00 -0.8247539183322E-01
 0.4591287083001E-01 -0.4694283775857E+00 -0.1990522876703E+00 -0.3678402173416E-01
 0.5142593921398E-01 -0.3049473948297E+00 -0.1191550838372E+00  0.3789805316632E-02
 0.4651133564041E-01 -0.1791352226673E+00 -0.6233322674454E-01  0.3679538090304E-01
 0.3621793685493E-01 -0.7799577726871E-01 -0.1963558494467E-01  0.5955193516329E-01
 0.2342408795611E-01  0.5698112117812E-02  0.1368743400003E-01  0.7071973676716E-01
 0.9255551248280E-02  0.7469100360642E-01  0.3945488068164E-01  0.7035918465577E-01
-0.4780662511034E-02  0.1292691807082E+00  0.5850960340427E-01  0.5870285218588E-01
-0.1730515984148E-01  0.1672969313278E+00  0.7049613241976E-01  0.3603819223211E-01
-0.2659234282963E-01  0.1870699343381E+00  0.7542446781768E-01  0.3460857901977E-02
-0.3033302211087E-01  0.1897846440788E+00  0.7494226213487E-01 -0.3710666492160E-01
-0.1847623212734E-01  0.1714126626556E+00  0.7188012216597E-01 -0.8423476858344E-01
 0.1316854256878E-01  0.1288901337786E+00  0.6676757771393E-01 -0.1272536994384E+00
 0.6707746222632E-01  0.7472236832022E-01  0.6664592018783E-01 -0.1496559774838E+00
-0.2260076249306E+01 -0.5343186053188E+01 -0.3573533273108E+01  0.1499570713854E+01
-0.6364556099526E+00 -0.3989807728065E+01 -0.2174343763353E+01  0.1925197729547E+00
 0.7767197176502E-01 -0.2197752786772E+01 -0.9964379805258E+00 -0.2446341219002E+00
-0.1052305024294E-01 -0.1550661332498E+01 -0.7337566580272E+00 -0.2599996595886E+00
-0.2741410204315E-01 -0.1094187716360E+01 -0.5271528533123E+00 -0.2128062750070E+00
-0.1726072156317E-01 -0.7365390074208E+00 -0.3542858717239E+00 -0.1467591038220E+00
 0.1251985432271E-01 -0.4534488899954E+00 -0.2072366462406E+00 -0.8228194665332E-01
 0.3620765223402E-01 -0.2455614906189E+00 -0.9839630379131E-01 -0.2812653466602E-01
 0.4172225648925E-01 -0.9893977559546E-01 -0.2689223391171E-01  0.1580401852934E-01
 0.3719831169897E-01  0.1174822149467E-01  0.2300487054266E-01  0.4763422949690E-01
 0.2971977070837E-01  0.1025116278219E+00  0.6214875715161E-01  0.6645622375366E-01
 0.2109515478689E-01  0.1779598178813E+00  0.9355583691674E-01  0.7274930808663E-01
 0.1182552817241E-01  0.2384938774149E+00  0.1176501203276E+00  0.6779083347474E-01
 0.3273397320147E-02  0.2824703087642E+00  0.1342995415190E+00  0.5232354320117E-01
-0.2284593043645E-02  0.3074853838519E+00  0.1434443713160E+00  0.2719325236430E-01
-0.5678111243290E-02  0.3081305694567E+00  0.1421526549997E+00 -0.6048765155531E-02
-0.3577077540473E-02  0.2865566290475E+00  0.1330003888710E+00 -0.4553147356179E-01
 0.1212237115956E-01  0.2391025621093E+00  0.1180757183369E+00 -0.9151765367873E-01
 0.4764532496650E-01  0.1736974663289E+00  0.1040311116450E+00 -0.1338652652310E+00
 0.1110727829811E+00  0.1057711481631E+00  0.1019166473793E+00 -0.1558038745264E+00
-0.4379951132637E+01 -0.7994651055976E+01 -0.5816063013896E+01  0.1104976769070E+01
 0.3437084420849E+00 -0.2715210820096E+01 -0.1114606114838E+01 -0.4596824357213E+00
 0.1315721636926E-01 -0.1812366678892E+01 -0.8456284452407E+00 -0.4170841401562E+00
-0.4296835375073E-01 -0.1247344097126E+01 -0.6064468503741E+00 -0.3224509621838E+00
-0.6806929984090E-01 -0.8371053964143E+00 -0.4254321061609E+00 -0.2407206736199E+00
-0.4828687571899E-01 -0.4934163041413E+00 -0.2546004938886E+00 -0.1509616852340E+00
 0.2255839472765E-02 -0.2111950220257E+00 -0.9820141555083E-01 -0.7127856587742E-01
 0.2960439053981E-01 -0.2732464207269E-01  0.1071481776828E-02 -0.9009639639189E-02
 0.3316366281917E-01  0.9469728562919E-01  0.6009464561831E-01  0.3527240320299E-01
 0.3059688346873E-01  0.1916108560824E+00  0.1044376373241E+00  0.6275306022814E-01
 0.2653932071964E-01  0.2737129205344E+00  0.1411185530315E+00  0.7602439780740E-01
 0.2278131922048E-01  0.3427628094595E+00  0.1718057400438E+00  0.7730455886912E-01
 0.1813690598603E-01  0.3949856610135E+00  0.1941676059973E+00  0.6876711873245E-01
 0.1442918818831E-01  0.4275686115808E+00  0.2077389653646E+00  0.5104453301904E-01
 0.1392375307465E-01  0.4384013949334E+00  0.2125928190246E+00  0.2538366013328E-01
 0.2057742967795E-01  0.4253482688089E+00  0.2095850777572E+00 -0.4207192879560E-02
 0.1841809095969E-01  0.3651781715390E+00  0.1802902429171E+00 -0.3780116336065E-01
 0.3705306913072E-01  0.2861440779715E+00  0.1519026587528E+00 -0.8175130045018E-01
 0.7260859921757E-01  0.2001889251522E+00  0.1282148361286E+00 -0.1222607962118E+00
 0.1394190756709E+00  0.1196477746896E+00  0.1217614193606E+00 -0.1409989283823E+00
 0.1491096465977E+00 -0.3174659823981E+01 -0.1422008579763E+01 -0.6017352986825E+00
 0.1626773332027E+00 -0.2923661638737E+01 -0.1297662620310E+01 -0.6177584584840E+00
 0.1092681724255E+00 -0.2730171582217E+01 -0.1231824599478E+01 -0.6323926338622E+00
 0.5239268969144E-01 -0.2524486643585E+01 -0.1161884155383E+01 -0.6386007790529E+00
-0.8203122413477E-02 -0.2307630007047E+01 -0.1088441568086E+01 -0.6342553042362E+00
-0.6767225953919E-01 -0.2080366728671E+01 -0.1009578321898E+01 -0.6182405611696E+00
-0.1229575597878E+00 -0.1845869383155E+01 -0.9253486608363E+00 -0.5897607606532E+00
-0.1708608305807E+00 -0.1607751773092E+01 -0.8359479216057E+00 -0.5484389576626E+00
-0.2083261097759E+00 -0.1370133967641E+01 -0.7418762345042E+00 -0.4944431295824E+00
-0.2325026292227E+00 -0.1137494496002E+01 -0.6438986472226E+00 -0.4286253596297E+00
-0.2409639150735E+00 -0.9145618969236E+00 -0.5430971302612E+00 -0.3526454317139E+00
-0.2319717302539E+00 -0.7061468177329E+00 -0.4409157164354E+00 -0.2690675797515E+00
-0.2047942287193E+00 -0.5169207189569E+00 -0.3392060245474E+00 -0.1814100552793E+00
-0.1600592964592E+00 -0.3511278974022E+00 -0.2402579805055E+00 -0.9411925562172E-01
-0.1001065063775E+00 -0.2122148225827E+00 -0.1467910242390E+00 -0.1242652066238E-01
-0.2926318189446E-01 -0.1023647259442E+00 -0.6186511652725E-01  0.5797425617491E-01
 0.4618690952781E-01 -0.2189366579495E-01  0.1141782452549E-01  0.1115195403057E+00
 0.1184132819691E+00  0.3115319233468E-01  0.7029624274449E-01  0.1436799463478E+00
 0.1798749457128E+00  0.6147506178917E-01  0.1134345032382E+00  0.1520600247971E+00
 0.2193760934110E+00  0.7046832956940E-01  0.1362268784553E+00  0.1358189756606E+00
 0.2060614937484E+00 -0.3244960586138E+01 -0.1428282569800E+01 -0.6171925938192E+00
 0.1671913723196E+00 -0.3087232315945E+01 -0.1372419240023E+01 -0.6377422143695E+00
 0.1253766513095E+00 -0.2889043675814E+01 -0.1298923498223E+01 -0.6548693297021E+00
 0.6590705706870E-01 -0.2690726678762E+01 -0.1233665219067E+01 -0.6684805770330E+00
 0.3334652047293E-02 -0.2480631253999E+01 -0.1164329399964E+01 -0.6728362265046E+00
-0.5967837153103E-01 -0.2259157967962E+01 -0.1089853076797E+01 -0.6657754410611E+00
-0.1195251198933E+00 -0.2027647508279E+01 -0.1009171132682E+01 -0.6458597431474E+00
-0.1729770411970E+00 -0.1789007332936E+01 -0.9221326535037E+00 -0.6122133644458E+00
-0.2166833544368E+00 -0.1546912093776E+01 -0.8288898585575E+00 -0.5644930978577E+00
-0.2473394351263E+00 -0.1305696737979E+01 -0.7299269995080E+00 -0.5030285179454E+00
-0.2618465290826E+00 -0.1070215163367E+01 -0.6260689938631E+00 -0.4289861249982E+00
-0.2575727165270E+00 -0.8456978192297E+00 -0.5185371504905E+00 -0.3445324669996E+00
-0.2326916697065E+00 -0.6375497363230E+00 -0.4090134597965E+00 -0.2529681698681E+00
-0.1866110975485E+00 -0.4510732590679E+00 -0.2997116468495E+00 -0.1588018055979E+00
-0.1204892533016E+00 -0.2910948925430E+00 -0.1934445480563E+00 -0.6771623266921E-01
-0.3779376729094E-01 -0.1614519539972E+00 -0.9364548876790E-01  0.1365320567970E-01
 0.5519826940534E-01 -0.6430714135363E-01 -0.4281169804838E-02  0.7826917839749E-01
 0.1496208433425E+00  0.9813462378402E-03  0.7078302892321E-01  0.1198141878657E+00
 0.2347171775729E+00  0.3817313675043E-01  0.1282584474066E+00  0.1343666635794E+00
 0.3054597679805E+00  0.5673882965911E-01  0.1702333404589E+00  0.1218489649043E+00
 0.2297216958817E+00 -0.3347531091240E+01 -0.1465370412102E+01 -0.6189644274160E+00
 0.1913592367287E+00 -0.3213716420450E+01 -0.1420507872746E+01 -0.6516991849815E+00
 0.1414757088392E+00 -0.3048928439220E+01 -0.1366502779813E+01 -0.6754115414319E+00
 0.8352404790342E-01 -0.2863456240421E+01 -0.1306568127170E+01 -0.6950807427592E+00
 0.1916071751557E-01 -0.2665390425826E+01 -0.1243727959751E+01 -0.7076557631034E+00
-0.4654291817631E-01 -0.2453845249047E+01 -0.1175182435614E+01 -0.7100492047965E+00
-0.1104263452402E+00 -0.2229880935999E+01 -0.1099944419392E+01 -0.7001533644096E+00
-0.1691020141572E+00 -0.1995380949985E+01 -0.1017306990567E+01 -0.6764619421357E+00
-0.2191061452210E+00 -0.1753258129631E+01 -0.9270112068290E+00 -0.6380144118889E+00
-0.2568222888306E+00 -0.1507261800533E+01 -0.8291195198980E+00 -0.5844726167216E+00
-0.2786155174917E+00 -0.1261916070507E+01 -0.7240498445229E+00 -0.5162890312603E+00
-0.2810330584783E+00 -0.1022428346048E+01 -0.6126268585735E+00 -0.4349128845891E+00
-0.2611096882516E+00 -0.7945535614194E+00 -0.4961617260869E+00 -0.3430057343724E+00
-0.2167986638042E+00 -0.5843780366964E+00 -0.3765530482802E+00 -0.2446361980458E+00
-0.1475663072765E+00 -0.3979967416346E+00 -0.2564146323379E+00 -0.1454112204983E+00
-0.5520408261430E-01 -0.2410592383481E+00 -0.1392437604992E+00 -0.5246983998479E-01
 0.5515602955592E-01 -0.1180917757771E+00 -0.2957980064892E-01  0.2581298858100E-01
 0.1739299964235E+00 -0.3149117015092E-01  0.6694624817833E-01  0.8076392178745E-01
 0.2881874770983E+00  0.2098833613954E-01  0.1453126318532E+00  0.1057028333741E+00
 0.3847995388975E+00  0.4696326897909E-01  0.2029285191873E+00  0.9988942699797E-01
 0.2527610498520E+00 -0.3455048900941E+01 -0.1505075286194E+01 -0.6140719204535E+00
 0.2121193279091E+00 -0.3341900014127E+01 -0.1470996918791E+01 -0.6565206354139E+00
 0.1622655087606E+00 -0.3200922202493E+01 -0.1428168642432E+01 -0.6889755091250E+00
 0.1032413576660E+00 -0.3038161066999E+01 -0.1379412259888E+01 -0.7159264960506E+00
 0.3853175303370E-01 -0.2857365979168E+01 -0.1324852082923E+01 -0.7365422858551E+00
-0.2904314602277E-01 -0.2660983098887E+01 -0.1264312331901E+01 -0.7484678428914E+00
-0.9605996893855E-01 -0.2449745980906E+01 -0.1196528793392E+01 -0.7493385898136E+00
-0.1592665276363E+00 -0.2224953679410E+01 -0.1120583494470E+01 -0.7371975669633E+00
-0.2151571690932E+00 -0.1988585357471E+01 -0.1035758984858E+01 -0.7105164374348E+00
-0.2599815343064E+00 -0.1743464684644E+01 -0.9416197205184E+00 -0.6682754696844E+00
-0.2897689775465E+00 -0.1493286243702E+01 -0.8380359518615E+00 -0.6101119428757E+00
-0.3004561374531E+00 -0.1242639854463E+01 -0.7252551143609E+00 -0.5365341924706E+00
-0.2881041406588E+00 -0.9969941821729E+00 -0.6039962101989E+00 -0.4491840001205E+00
-0.2492451149444E+00 -0.7626142432823E+00 -0.4755738971603E+00 -0.3511312409646E+00
-0.1814200331717E+00 -0.5463770718709E+00 -0.3420646385024E+00 -0.2471773696158E+00
-0.8401382317401E-01 -0.3554456648579E+00 -0.2065459588511E+00 -0.1441257620673E+00
 0.4038735611922E-01 -0.1967827776315E+00 -0.7350584792434E-01 -0.5092497550710E-01
 0.1838430042474E+00 -0.7637607961659E-01  0.5050945444838E-01  0.2158473095806E-01
 0.3302134274864E+00  0.2297096170605E-02  0.1562799457224E+00  0.6237895302538E-01
 0.4579030404295E+00  0.4374526640966E-01  0.2357747036164E+00  0.6577597180076E-01
 0.2759611845050E+00 -0.3564047951633E+01 -0.1545400776631E+01 -0.6037455387450E+00
 0.2339429750442E+00 -0.3468893032117E+01 -0.1520426522968E+01 -0.6532881734225E+00
 0.1840384522780E+00 -0.3350457857809E+01 -0.1488217116825E+01 -0.6936549223666E+00
 0.1256628341362E+00 -0.3210656619827E+01 -0.1449947075597E+01 -0.7281711416374E+00
 0.6089838767132E-01 -0.3051822825811E+01 -0.1405734482360E+01 -0.7568141752074E+00
-0.7504420459412E-02 -0.2875431523757E+01 -0.1354979890345E+01 -0.7780293856998E+00
-0.7670680120017E-01 -0.2682469736267E+01 -0.1296812969320E+01 -0.7897444339927E+00
-0.1435615234347E+00 -0.2473692399136E+01 -0.1230109340488E+01 -0.7898892418800E+00
-0.2046797127018E+00 -0.2250242417594E+01 -0.1153813398312E+01 -0.7766068569642E+00
-0.2563230798356E+00 -0.2013851523147E+01 -0.1066982060696E+01 -0.7483623923304E+00
-0.2944004642106E+00 -0.1766999629385E+01 -0.9688580415325E+00 -0.7040753507275E+00
-0.3145090616481E+00 -0.1513031635907E+01 -0.8589441256723E+00 -0.6433040207652E+00
-0.3120495844132E+00 -0.1256267470554E+01 -0.7371090139650E+00 -0.5664940944522E+00
-0.2824373391762E+00 -0.1002091313470E+01 -0.6037284652124E+00 -0.4752974954091E+00
-0.2214622235929E+00 -0.7569935334633E+00 -0.4598742046500E+00 -0.3729679681098E+00
-0.1259058244337E+00 -0.5285282062226E+00 -0.3075839936283E+00 -0.2648410239152E+00
 0.5350613656628E-02 -0.3251395893315E+00 -0.1503008181860E+00 -0.1589066868747E+00
 0.1690342378866E+00 -0.1559106746171E+00  0.6168074721053E-02 -0.6645417644546E-01
 0.3517927996349E+00 -0.3066474254850E-01  0.1509301864478E+00 -0.2462582524825E-02
 0.5217014511075E+00  0.4223082627938E-01  0.2650481696996E+00  0.1758937752154E-01
 0.2998437160762E+00 -0.3671952156455E+01 -0.1584890962958E+01 -0.5885749679799E+00
 0.2570665360778E+00 -0.3593490510455E+01 -0.1568119263980E+01 -0.6426211695847E+00
 0.2076270270813E+00 -0.3495833204805E+01 -0.1545456899610E+01 -0.6891988998752E+00
 0.1503049075850E+00 -0.3378929355311E+01 -0.1517453486583E+01 -0.7303753803394E+00
 0.8637733144289E-01 -0.3243554649079E+01 -0.1483873335526E+01 -0.7663500783980E+00
 0.1793998402405E-01 -0.3090483068877E+01 -0.1444095246218E+01 -0.7960921266416E+00
-0.5249274745963E-01 -0.2920207706473E+01 -0.1397169209805E+01 -0.8179448109306E+00
-0.1221097010367E+00 -0.2733120081413E+01 -0.1341957994348E+01 -0.8300203693602E+00
-0.1877341167181E+00 -0.2529699400413E+01 -0.1277193749812E+01 -0.8304272087687E+00
-0.2457909264385E+00 -0.2310747616431E+01 -0.1201573112101E+01 -0.8174077828342E+00
-0.2922552465097E+00 -0.2077537720720E+01 -0.1113802691773E+01 -0.7894534211600E+00
-0.3226391398461E+00 -0.1831946702932E+01 -0.1012655343537E+01 -0.7454421363552E+00
-0.3320161330092E+00 -0.1576587360929E+01 -0.8970436398759E+00 -0.6848230479713E+00
-0.3151014766518E+00 -0.1314955967021E+01 -0.7661269965833E+00 -0.6078676319479E+00
-0.2664129107415E+00 -0.1051598635685E+01 -0.6194654252491E+00 -0.5160127439962E+00
-0.1805568961930E+00 -0.7922879353049E+00 -0.4572370696443E+00 -0.4123362768936E+00
-0.5274976805687E-01 -0.5441951207561E+00 -0.2805640970305E+00 -0.3022462398021E+00
 0.1200971593063E+00 -0.3160429438083E+00 -0.9209451848235E-01 -0.1945755245034E+00
 0.3360425883934E+00 -0.1186145789030E+00  0.1021911642013E+00 -0.1036428636192E+00
 0.5704575957304E+00  0.2932847321473E-01  0.2818994516892E+00 -0.5276557584941E-01
 0.3239002587940E+00 -0.3777522729654E+01 -0.1623202557187E+01 -0.5689950361829E+00
 0.2812231280552E+00 -0.3714679070525E+01 -0.1613724288868E+01 -0.6252857797364E+00
 0.2326286357981E+00 -0.3636351302782E+01 -0.1599749649425E+01 -0.6760855086068E+00
 0.1767744340867E+00 -0.3541406186195E+01 -0.1581376919480E+01 -0.7224204265532E+00
 0.1142438956245E+00 -0.3429687863487E+01 -0.1558258660943E+01 -0.7644157759062E+00
 0.4656723017908E-01 -0.3301285104368E+01 -0.1529717396989E+01 -0.8013463988066E+00
-0.2421452016110E-01 -0.3156279720351E+01 -0.1494832289249E+01 -0.8319239194213E+00
-0.9565931871176E-01 -0.2994701159110E+01 -0.1452469420892E+01 -0.8545516214527E+00
-0.1649296587544E+00 -0.2816616368899E+01 -0.1401326629443E+01 -0.8675059236322E+00
-0.2287393585953E+00 -0.2622233733046E+01 -0.1339957349673E+01 -0.8690642272392E+00
-0.2832983569496E+00 -0.2412008928235E+01 -0.1266794420823E+01 -0.8576080155642E+00
-0.3242570471881E+00 -0.2186726614891E+01 -0.1180162318184E+01 -0.8317268106649E+00
-0.3466658868749E+00 -0.1947571568700E+01 -0.1078291601385E+01 -0.7903433777942E+00
-0.3449548782736E+00 -0.1696195942928E+01 -0.9593408835317E+00 -0.7328766102125E+00
-0.3129379998344E+00 -0.1434789296332E+01 -0.8214318271147E+00 -0.6594614183768E+00
-0.2438386308384E+00 -0.1166151641628E+01 -0.6626954263784E+00 -0.5712563139800E+00
-0.1302945556593E+00 -0.8937478702463E+00 -0.4812999389549E+00 -0.4709019124118E+00
 0.3580333252810E-01 -0.6216561832666E+00 -0.2753508391487E+00 -0.3632961492663E+00
 0.2643448526103E+00 -0.3538809321740E+00 -0.4208195728822E-01 -0.2572472215441E+00
 0.5664005403074E+00 -0.9359968879876E-01  0.2222163996454E+00 -0.1712233532635E+00
 0.3476954423346E+00 -0.3879625133353E+01 -0.1660006950568E+01 -0.5453108682460E+00
 0.3059139018166E+00 -0.3831506002780E+01 -0.1657028283250E+01 -0.6019668235840E+00
 0.2586318797891E+00 -0.3771092969620E+01 -0.1650856708033E+01 -0.6550338934241E+00
 0.2045900311104E+00 -0.3696825644457E+01 -0.1641350734110E+01 -0.7047759469515E+00
 0.1439315413299E+00 -0.3607997861158E+01 -0.1628111166190E+01 -0.7511388662009E+00
 0.7766573411881E-01 -0.3504255245140E+01 -0.1610497066095E+01 -0.7935449205523E+00
 0.7359445826733E-02 -0.3385352062096E+01 -0.1587656525620E+01 -0.8309789323175E+00
-0.6498694611336E-01 -0.3251075321169E+01 -0.1558549261670E+01 -0.8621249392793E+00
-0.1369512114861E+00 -0.3101251389698E+01 -0.1521955218696E+01 -0.8854899228056E+00
-0.2056522130757E+00 -0.2935798177671E+01 -0.1476481679906E+01 -0.8995065378706E+00
-0.2676848060540E+00 -0.2754784338783E+01 -0.1420560494470E+01 -0.9026230358051E+00
-0.3190440155423E+00 -0.2558483580200E+01 -0.1352437966569E+01 -0.8933927118493E+00
-0.3550424351838E+00 -0.2347413665945E+01 -0.1270154364309E+01 -0.8705747080752E+00
-0.3702240499273E+00 -0.2122356885413E+01 -0.1171513036638E+01 -0.8332567419533E+00
-0.3582710323020E+00 -0.1884355642772E+01 -0.1054034534611E+01 -0.7810094139530E+00
-0.3118867600315E+00 -0.1634671568316E+01 -0.9148824120028E+00 -0.7140823978476E+00
-0.2225870718544E+00 -0.1374678404026E+01 -0.7507147717595E+00 -0.6336545381109E+00
-0.8013359616203E-01 -0.1105590421016E+01 -0.5572902866604E+00 -0.5421577017686E+00
 0.1294415754449E+00 -0.8276500621070E+00 -0.3281579878989E+00 -0.4437094019868E+00
 0.4371380435937E+00 -0.5332789425124E+00 -0.4518622237715E-01 -0.3451875869325E+00
 0.3708124018650E+00 -0.3977304818215E+01 -0.1695051431385E+01 -0.5177694726718E+00
 0.3306380142091E+00 -0.3943064485047E+01 -0.1697840436987E+01 -0.5732871102575E+00
 0.2851428482952E+00 -0.3899219048608E+01 -0.1698615809839E+01 -0.6268601795747E+00
 0.2332589554767E+00 -0.3844148930842E+01 -0.1697118284117E+01 -0.6782540218765E+00
 0.1748658803700E+00 -0.3776902882523E+01 -0.1692957386718E+01 -0.7272279481882E+00
 0.1105590883953E+00 -0.3696872146409E+01 -0.1685567132991E+01 -0.7732582161943E+00
 0.4145396763564E-01 -0.3603608777116E+01 -0.1674212756209E+01 -0.8155104487084E+00
-0.3090652040168E-01 -0.3496743618946E+01 -0.1657995561288E+01 -0.8528912112061E+00
-0.1045691566136E+00 -0.3375970894907E+01 -0.1635853820066E+01 -0.8841173670651E+00
-0.1771386558366E+00 -0.3241069590049E+01 -0.1606557871492E+01 -0.9077855204465E+00
-0.2457161704102E+00 -0.3091944748555E+01 -0.1568700627935E+01 -0.9224401408837E+00
-0.3068160510916E+00 -0.2928674966636E+01 -0.1520680774475E+01 -0.9266453110134E+00
-0.3562654221146E+00 -0.2751559676067E+01 -0.1460677792441E+01 -0.9190674741939E+00
-0.3890865625615E+00 -0.2561161444611E+01 -0.1386616559854E+01 -0.8985772050292E+00
-0.3993600556064E+00 -0.2358340455872E+01 -0.1296119237107E+01 -0.8643777556193E+00
-0.3800618072587E+00 -0.2144278296267E+01 -0.1186439845648E+01 -0.8161657731328E+00
-0.3228622298906E+00 -0.1920496124198E+01 -0.1054378423747E+01 -0.7543204409560E+00
-0.2178332471240E+00 -0.1688881643434E+01 -0.8961559962893E+00 -0.6800767106442E+00
-0.5297696264047E-01 -0.1451887947847E+01 -0.7072865061352E+00 -0.5954913218367E+00
 0.1867767670566E+00 -0.1214000977691E+01 -0.4827953777737E+00 -0.5016717338115E+00
 0.3928782896528E+00 -0.4069760172366E+01 -0.1728134480492E+01 -0.4865934658177E+00
 0.3548747911166E+00 -0.4048602453685E+01 -0.1736051997004E+01 -0.5398098111103E+00
 0.3115885738293E+00 -0.4020071150027E+01 -0.1742986806392E+01 -0.5923959670884E+00
 0.2621579987067E+00 -0.3982698709230E+01 -0.1748654129511E+01 -0.6438300647560E+00
 0.2063313444704E+00 -0.3935483981025E+01 -0.1752701734735E+01 -0.6937258698349E+00
 0.1443936600240E+00 -0.3877714977195E+01 -0.1754661014620E+01 -0.7415703403694E+00
 0.7706843143314E-01 -0.3808843541180E+01 -0.1753934297132E+01 -0.7866435494259E+00
 0.5459920137222E-02 -0.3728419357488E+01 -0.1749790931117E+01 -0.8280159674186E+00
-0.6895754116859E-01 -0.3636067482433E+01 -0.1741361756676E+01 -0.8645745924653E+00
-0.1443135693013E+00 -0.3531496183129E+01 -0.1727630579261E+01 -0.8950587884898E+00
-0.2182871929654E+00 -0.3414523856404E+01 -0.1707421188873E+01 -0.9181000336071E+00
-0.2880289236363E+00 -0.3285118022901E+01 -0.1679379060613E+01 -0.9322659462370E+00
-0.3500607316076E+00 -0.3143441564390E+01 -0.1641946074954E+01 -0.9361119790573E+00
-0.4001533711559E+00 -0.2989904013511E+01 -0.1593326966752E+01 -0.9282457710403E+00
-0.4331794799650E+00 -0.2825217167938E+01 -0.1531446420630E+01 -0.9074098296279E+00
-0.4429453760134E+00 -0.2650458284007E+01 -0.1453899716522E+01 -0.8725876185468E+00
-0.4220164591698E+00 -0.2467149716917E+01 -0.1357908099316E+01 -0.8231334815532E+00
-0.3616549906454E+00 -0.2277428812820E+01 -0.1240369384483E+01 -0.7589112384877E+00
-0.2521871487116E+00 -0.2084453826998E+01 -0.1098221255798E+01 -0.6803526683900E+00
-0.8861172998974E-01 -0.1896023632288E+01 -0.9327786179045E+00 -0.5882876624088E+00
 0.4135763590530E+00 -0.4156324318605E+01 -0.1759091536528E+01 -0.4519853216357E+00
 0.3781647264204E+00 -0.4147470593759E+01 -0.1771573753156E+01 -0.5020281134346E+00
 0.3373998512049E+00 -0.4133107081949E+01 -0.1783982393925E+01 -0.5524136109951E+00
 0.2906281029431E+00 -0.4111998809733E+01 -0.1796044227636E+01 -0.6024870926299E+00
 0.2375458824362E+00 -0.4083213421109E+01 -0.1807463738592E+01 -0.6517736654501E+00
 0.1782186693122E+00 -0.4046037053928E+01 -0.1817874636159E+01 -0.6997599489230E+00
 0.1130482874888E+00 -0.3999899688492E+01 -0.1826820153838E+01 -0.7457996788685E+00
 0.4274721037818E-01 -0.3944328604143E+01 -0.1833743250418E+01 -0.7890820055393E+00
-0.3166393979264E-01 -0.3878929144199E+01 -0.1837978744814E+01 -0.8286286805660E+00
-0.1088343455202E+00 -0.3803386907839E+01 -0.1838743984415E+01 -0.8633036380801E+00
-0.1870387007340E+00 -0.3717486177884E+01 -0.1835126688296E+01 -0.8918278524982E+00
-0.2641119992332E+00 -0.3621140538388E+01 -0.1826068688050E+01 -0.9127972440674E+00
-0.3373631791497E+00 -0.3514433372992E+01 -0.1810344374915E+01 -0.9247040739529E+00
-0.4034656745567E+00 -0.3397667218875E+01 -0.1786532455382E+01 -0.9259639268734E+00
-0.4583225459723E+00 -0.3271422486150E+01 -0.1752980160651E+01 -0.9149517014165E+00
-0.4969048566731E+00 -0.3136626561135E+01 -0.1707759762038E+01 -0.8900515215419E+00
-0.5130768745365E+00 -0.2994640883756E+01 -0.1648627342216E+01 -0.8497285149027E+00
-0.4994257927465E+00 -0.2847352972977E+01 -0.1572986015900E+01 -0.7926405018774E+00
-0.4474057916875E+00 -0.2697409534173E+01 -0.1478063199406E+01 -0.7178619025059E+00
-0.3462106754564E+00 -0.2546838832201E+01 -0.1359733265150E+01 -0.6256968932484E+00
 0.4326103767201E+00 -0.4236396425178E+01 -0.1787779438241E+01 -0.4141371625368E+00
 0.3999713932115E+00 -0.4239108612305E+01 -0.1804394488397E+01 -0.4603596195218E+00
 0.3618416682719E+00 -0.4237897603330E+01 -0.1821746284857E+01 -0.5075825823649E+00
 0.3177467391402E+00 -0.4231777806112E+01 -0.1839594596811E+01 -0.5551255597963E+00
 0.2673710715081E+00 -0.4219942276044E+01 -0.1857708461420E+01 -0.6024777437566E+00
 0.2106267651734E+00 -0.4201734852070E+01 -0.1875820796083E+01 -0.6491305674471E+00
 0.1476608729283E+00 -0.4176612255498E+01 -0.1893607145005E+01 -0.6944888631387E+00
 0.7885218609979E-01 -0.4144115869310E+01 -0.1910673926262E+01 -0.7378274566291E+00
 0.4815944069151E-02 -0.4103858362181E+01 -0.1926549931626E+01 -0.7782716745252E+00
-0.7357777869758E-01 -0.4055524561761E+01 -0.1940678095093E+01 -0.8147893189208E+00
-0.1551705949249E+00 -0.3998884528938E+01 -0.1952405903263E+01 -0.8461874239129E+00
-0.2384666787878E+00 -0.3933817100101E+01 -0.1960973371104E+01 -0.8711104560801E+00
-0.3215667084618E+00 -0.3860342850311E+01 -0.1965497487638E+01 -0.8880385428025E+00
-0.4020823990517E+00 -0.3778666326790E+01 -0.1964951896162E+01 -0.8952855496822E+00
-0.4770274654186E+00 -0.3689227922888E+01 -0.1958140027538E+01 -0.8909979672963E+00
-0.5426798602704E+00 -0.3592766515290E+01 -0.1943659791584E+01 -0.8731573259496E+00
-0.5944016090566E+00 -0.3490387649206E+01 -0.1919850946514E+01 -0.8395927837280E+00
-0.6264045918131E+00 -0.3383636331460E+01 -0.1884719229158E+01 -0.7880208193306E+00
-0.6311842294582E+00 -0.3274370669667E+01 -0.1835610797933E+01 -0.7161658062714E+00
-0.5983196626958E+00 -0.3164506453992E+01 -0.1768528270358E+01 -0.6219565594849E+00
 0.4497723373087E+00 -0.4309356437591E+01 -0.1814004522532E+01 -0.3732472003225E+00
 0.4198714504403E+00 -0.4322835667431E+01 -0.1834393177333E+01 -0.4151417903621E+00
 0.3843261164073E+00 -0.4333758295509E+01 -0.1856233119470E+01 -0.4584250441517E+00
 0.3427839635067E+00 -0.4341378203637E+01 -0.1879339288095E+01 -0.5024588890381E+00
 0.2949281170651E+00 -0.4345034408318E+01 -0.1903549952061E+01 -0.5467384483248E+00
 0.2405587825231E+00 -0.4344158435690E+01 -0.1928691832096E+01 -0.5907725264123E+00
 0.1796207523472E+00 -0.4338260848496E+01 -0.1954560840233E+01 -0.6340087645368E+00
 0.1122132697862E+00 -0.4326917057922E+01 -0.1980910775400E+01 -0.6757887700072E+00
 0.3859882708459E-01 -0.4309759606506E+01 -0.2007445561236E+01 -0.7153207803541E+00
-0.4078229677907E-01 -0.4286478859051E+01 -0.2033812738082E+01 -0.7516613556753E+00
-0.1252890535066E+00 -0.4256832054361E+01 -0.2059596915474E+01 -0.7837006649716E+00
-0.2140468725756E+00 -0.4220660212646E+01 -0.2084312324767E+01 -0.8101479122856E+00
-0.3059038406292E+00 -0.4177912609667E+01 -0.2107393726294E+01 -0.8295145876543E+00
-0.3993736464016E+00 -0.4128678921512E+01 -0.2128184701522E+01 -0.8400938510191E+00
-0.4925615744031E+00 -0.4073229658392E+01 -0.2145921873971E+01 -0.8399347820927E+00
-0.5830661735034E+00 -0.4012065087705E+01 -0.2159711687290E+01 -0.8268108177883E+00
-0.6678454596254E+00 -0.3945974314091E+01 -0.2168495288147E+01 -0.7981825064404E+00
-0.7430036186670E+00 -0.3876088830681E+01 -0.2170973445687E+01 -0.7511549991824E+00
-0.8034761267704E+00 -0.3803973826125E+01 -0.2165501472368E+01 -0.6824098057149E+00
-0.8426786221479E+00 -0.3731884359409E+01 -0.2150044595878E+01 -0.5880400197774E+00
 0.4649435657188E+00 -0.4374595478084E+01 -0.1837536394151E+01 -0.3295513992468E+00
 0.4376149813712E+00 -0.4397894085547E+01 -0.1861331174242E+01 -0.3666949446682E+00
 0.4045024529520E+00 -0.4419814231248E+01 -0.1887196531013E+01 -0.4053956244732E+00
 0.3653199166385E+00 -0.4439820469909E+01 -0.1915015255180E+01 -0.4450945978460E+00
 0.3197427652799E+00 -0.4457398127866E+01 -0.1944698015483E+01 -0.4853235278051E+00
 0.2674824014098E+00 -0.4472077506839E+01 -0.1976159694539E+01 -0.5256238611172E+00
 0.2083193426397E+00 -0.4483435520681E+01 -0.2009304598583E+01 -0.5654881378173E+00
 0.1421184029484E+00 -0.4491091044444E+01 -0.2044017136319E+01 -0.6043191254166E+00
 0.6883833331102E-01 -0.4494701404138E+01 -0.2080155638012E+01 -0.6414005550545E+00
-0.1145803535408E-01 -0.4493962925409E+01 -0.2117547846188E+01 -0.6758741833156E+00
-0.9859041657965E-01 -0.4488616467361E+01 -0.2155987229984E+01 -0.7067192343551E+00
-0.1922432495145E+00 -0.4478458106282E+01 -0.2195229631656E+01 -0.7327312672423E+00
-0.2919427257434E+00 -0.4463354975314E+01 -0.2234989913828E+01 -0.7524980453926E+00
-0.3970277736602E+00 -0.4443266415378E+01 -0.2274938263078E+01 -0.7643700958672E+00
-0.5066131349413E+00 -0.4418270802007E+01 -0.2314695444495E+01 -0.7664233983531E+00
-0.6195411496294E+00 -0.4388599121496E+01 -0.2353825921459E+01 -0.7564110160714E+00
-0.7343150523969E+00 -0.4354676350670E+01 -0.2391825953375E+01 -0.7316993915304E+00
-0.8490162705503E+00 -0.4317184237128E+01 -0.2428114232450E+01 -0.6891809502459E+00
-0.9612311055561E+00 -0.4277170081268E+01 -0.2462048551563E+01 -0.6251470175622E+00
-0.1068037265032E+01 -0.4236218173171E+01 -0.2493000049632E+01 -0.5350984845147E+00
 0.4780483282633E+00 -0.4431561002680E+01 -0.1858150952263E+01 -0.2833329664194E+00
 0.4530404515716E+00 -0.4463572587850E+01 -0.1884950099270E+01 -0.3153657956276E+00
 0.4221361849062E+00 -0.4495212071004E+01 -0.1914345661610E+01 -0.3489523864713E+00
 0.3850730987744E+00 -0.4526117306334E+01 -0.1946290772617E+01 -0.3836276996080E+00
 0.3415076861285E+00 -0.4555906470125E+01 -0.1980767423454E+01 -0.4189801326049E+00
 0.2910749930466E+00 -0.4584206750897E+01 -0.2017771921072E+01 -0.4545986299203E+00
 0.2334190984355E+00 -0.4610663362668E+01 -0.2057304798971E+01 -0.4900287874433E+00
 0.1682081382291E+00 -0.4634940423860E+01 -0.2099364168922E+01 -0.5247384306208E+00
 0.9514226370132E-01 -0.4656719895689E+01 -0.2143941481596E+01 -0.5580901228752E+00
 0.1395908953378E-01 -0.4675701575721E+01 -0.2191018962951E+01 -0.5893176867254E+00
-0.7556118677677E-01 -0.4691605415700E+01 -0.2240568297481E+01 -0.6175041896754E+00
-0.1735902256949E+00 -0.4704176600992E+01 -0.2292550402728E+01 -0.6415592561864E+00
-0.2802456109091E+00 -0.4713193484038E+01 -0.2346916368673E+01 -0.6601937662338E+00
-0.3955850729582E+00 -0.4718478374980E+01 -0.2403609814435E+01 -0.6718898900794E+00
-0.5196016335719E+00 -0.4719911303713E+01 -0.2462571074278E+01 -0.6748638953701E+00
-0.6522202762969E+00 -0.4717447061064E+01 -0.2523743642159E+01 -0.6670181546417E+00
-0.7932971489638E+00 -0.4711136963604E+01 -0.2587084026345E+01 -0.6458771009839E+00
-0.9426253819840E+00 -0.4701158977877E+01 -0.2652578642407E+01 -0.6085014024126E+00
-0.1099962050520E+01 -0.4687861988838E+01 -0.2720277291599E+01 -0.5513787631293E+00
-0.1265110486007E+01 -0.4671828271400E+01 -0.2790361208904E+01 -0.4702972434255E+00
 0.4890329691409E+00 -0.4479773306251E+01 -0.1875647953685E+01 -0.2349171970790E+00
 0.4660351026059E+00 -0.4519249804574E+01 -0.1905010905093E+01 -0.2615363889461E+00
 0.4370567581503E+00 -0.4559196373371E+01 -0.1937405614240E+01 -0.2895761248459E+00
 0.4018327117134E+00 -0.4599385553431E+01 -0.1972849830603E+01 -0.3186664844439E+00
 0.3599916246842E+00 -0.4639547090135E+01 -0.2011391063660E+01 -0.3484642831978E+00
 0.3111006553197E+00 -0.4679394261749E+01 -0.2053097989814E+01 -0.3786185046564E+00
 0.2546898237210E+00 -0.4718634968575E+01 -0.2098054212760E+01 -0.4087384644692E+00
 0.1902639260301E+00 -0.4756974853833E+01 -0.2146354130623E+01 -0.4383664371986E+00
 0.1173073609541E+00 -0.4794117057838E+01 -0.2198100551960E+01 -0.4669540243857E+00
 0.3528505791106E-01 -0.4829761153879E+01 -0.2253403759389E+01 -0.4938408596905E+00
-0.5635892464992E-01 -0.4863602522347E+01 -0.2312381874224E+01 -0.5182342326508E+00
-0.1582047362861E+00 -0.4895332668211E+01 -0.2375162574089E+01 -0.5391883746987E+00
-0.2708625511465E+00 -0.4924640574103E+01 -0.2441886462674E+01 -0.5555822719409E+00
-0.3949823094844E+00 -0.4951214965677E+01 -0.2512712712953E+01 -0.5660948315932E+00
-0.5312698610822E+00 -0.4974747259041E+01 -0.2587828039894E+01 -0.5691759285201E+00
-0.6805131626168E+00 -0.4994934837167E+01 -0.2667460553133E+01 -0.5630111306346E+00
-0.8436235098928E+00 -0.5011484191918E+01 -0.2751900612871E+01 -0.5454767300458E+00
-0.1021689354943E+01 -0.5024107252278E+01 -0.2841524398187E+01 -0.5140800256182E+00
-0.1216034353681E+01 -0.5032506670448E+01 -0.2936814273892E+01 -0.4658831790394E+00
-0.1428281547027E+01 -0.5036357501365E+01 -0.3038380345038E+01 -0.3974253848074E+00
 0.4978588049241E+00 -0.4518829551072E+01 -0.1889856245896E+01 -0.1846630330870E+00
 0.4765179808067E+00 -0.4564406486189E+01 -0.1921307592657E+01 -0.2056210739045E+00
 0.4491373107704E+00 -0.4611132465155E+01 -0.1956137717599E+01 -0.2277712791422E+00
 0.4154362239889E+00 -0.4658879671350E+01 -0.1994418415201E+01 -0.2508341502314E+00
 0.3750121190679E+00 -0.4707465097445E+01 -0.2036252894673E+01 -0.2745406482862E+00
 0.3273730513718E+00 -0.4756672206962E+01 -0.2081770597847E+01 -0.2986093351665E+00
 0.2719556328572E+00 -0.4806261134858E+01 -0.2131123580535E+01 -0.3227239061386E+00
 0.2081328712465E+00 -0.4855971862253E+01 -0.2184484320232E+01 -0.3465125866928E+00
 0.1352154854007E+00 -0.4905523560250E+01 -0.2242044789493E+01 -0.3695293644668E+00
 0.5244894431213E-01 -0.4954612093631E+01 -0.2304016674336E+01 -0.3912364988559E+00
-0.4099258573463E-01 -0.5002906774643E+01 -0.2370632693365E+01 -0.4109876775355E+00
-0.1460150770924E+00 -0.5050046863329E+01 -0.2442149105804E+01 -0.4280113073029E+00
-0.2636167556890E+00 -0.5095637927721E+01 -0.2518849694814E+01 -0.4413936118928E+00
-0.3949049004703E+00 -0.5139247924852E+01 -0.2601051821304E+01 -0.4500614027774E+00
-0.5411199464249E+00 -0.5180402660994E+01 -0.2689115618666E+01 -0.4527645455125E+00
-0.7036714452966E+00 -0.5218580198292E+01 -0.2783458265427E+01 -0.4480581886891E+00
-0.8841919827990E+00 -0.5253202647279E+01 -0.2884575468820E+01 -0.4342844157294E+00
-0.1084621685167E+01 -0.5283626602341E+01 -0.2993076687537E+01 -0.4095510405274E+00
-0.1307296900027E+01 -0.5309101642151E+01 -0.3109707306936E+01 -0.3716953111639E+00
-0.1554987614652E+01 -0.5328682996831E+01 -0.3235325179191E+01 -0.3182217885972E+00
 0.5044987796204E+00 -0.4548405560747E+01 -0.1900636182309E+01 -0.1329550522666E+00
 0.4844310786408E+00 -0.4598628557836E+01 -0.1933672810317E+01 -0.1480602283566E+00
 0.4582839509387E+00 -0.4650513926494E+01 -0.1970348083513E+01 -0.1640617961412E+00
 0.4257590667504E+00 -0.4704003452647E+01 -0.2010774856271E+01 -0.1807647065813E+00
 0.3864250481484E+00 -0.4758977237217E+01 -0.2055099523650E+01 -0.1979763265501E+00
 0.3397421030748E+00 -0.4815270960197E+01 -0.2103498557512E+01 -0.2154914784135E+00
 0.2850746778125E+00 -0.4872684149140E+01 -0.2156176446055E+01 -0.2330773833730E+00
 0.2216955869371E+00 -0.4930982317009E+01 -0.2213364757520E+01 -0.2504593207342E+00
 0.1487842227909E+00 -0.4989895254742E+01 -0.2275322179246E+01 -0.2673071120920E+00
 0.6542062403544E-01 -0.5049112996183E+01 -0.2342335408968E+01 -0.2832222725252E+00
-0.2942352427826E-01 -0.5108280373587E+01 -0.2414720825872E+01 -0.2977256524816E+00
-0.1368964450715E+00 -0.5166990647265E+01 -0.2492826927075E+01 -0.3102455309349E+00
-0.2582803543739E+00 -0.5224778394191E+01 -0.2577037605289E+01 -0.3201063745203E+00
-0.3950085810504E+00 -0.5281111627976E+01 -0.2667776491476E+01 -0.3265188560707E+00
-0.5486869972086E+00 -0.5335382990676E+01 -0.2765512887291E+01 -0.3285722764628E+00
-0.7211222330821E+00 -0.5386899676602E+01 -0.2870770290270E+01 -0.3252313300023E+00
-0.9143629782005E+00 -0.5434872784311E+01 -0.2984140800812E+01 -0.3153401950869E+00
-0.1130764164549E+01 -0.5478404815711E+01 -0.3106309412843E+01 -0.2976378074393E+00
-0.1373143085109E+01 -0.5516510726511E+01 -0.3238137283248E+01 -0.2707855092177E+00
-0.1644921701407E+01 -0.5548033337446E+01 -0.3380688859686E+01 -0.2333549872804E+00
 0.5089350537560E+00 -0.4568257366655E+01 -0.1907881482224E+01 -0.8019639980628E-01
 0.4897331792023E+00 -0.4621608099696E+01 -0.1941981207706E+01 -0.8931303491667E-01
 0.4644277421284E+00 -0.4676965591224E+01 -0.1979892784053E+01 -0.9898519096564E-01
 0.4327066312249E+00 -0.4734315598605E+01 -0.2021756209541E+01 -0.1090975275389E+00
 0.3941169983268E+00 -0.4793578756437E+01 -0.2067747021067E+01 -0.1195344597517E+00
 0.3480853344065E+00 -0.4854624908931E+01 -0.2118073594654E+01 -0.1301713614019E+00
 0.2939267478916E+00 -0.4917279527791E+01 -0.2172975801041E+01 -0.1408658218227E+00
 0.2308464160750E+00 -0.4981324649508E+01 -0.2232724764050E+01 -0.1514491697828E+00
 0.1579355585122E+00 -0.5046496059146E+01 -0.2297623429470E+01 -0.1617183299153E+00
 0.7416354587597E-01 -0.5112477945578E+01 -0.2368007761854E+01 -0.1714279959260E+00
-0.2163272077965E-01 -0.5178895824509E+01 -0.2444248410086E+01 -0.1802831288143E+00
-0.1307613168036E+00 -0.5245308216841E+01 -0.2526752674404E+01 -0.1879319113899E+00
-0.2546889747887E+00 -0.5311197360152E+01 -0.2615966570787E+01 -0.1939595185635E+00
-0.3950552244415E+00 -0.5375959099259E+01 -0.2712376725260E+01 -0.1978834339926E+00
-0.5536861334722E+00 -0.5438892009142E+01 -0.2816511719885E+01 -0.1991516472314E+00
-0.7326067333662E+00 -0.5499185887493E+01 -0.2928942524375E+01 -0.1971460801298E+00
-0.9340508927294E+00 -0.5555909507610E+01 -0.3050281380423E+01 -0.1911955118508E+00
-0.1160473935876E+01 -0.5608002012830E+01 -0.3181183687823E+01 -0.1806061143825E+00
-0.1414566912715E+01 -0.5654260321441E+01 -0.3322348791627E+01 -0.1647298482734E+00
-0.1699698532723E+01 -0.5693616191513E+01 -0.3474857911577E+01 -0.1431195394234E+00
 0.5111564662450E+00 -0.4578223017264E+01 -0.1911521274130E+01 -0.2680283872218E-01
 0.4923946738968E+00 -0.4633144615496E+01 -0.1946152467615E+01 -0.2985058542652E-01
 0.4675175278488E+00 -0.4690246077836E+01 -0.1984682413460E+01 -0.3308653811949E-01
 0.4362063670928E+00 -0.4749534080977E+01 -0.2027264020384E+01 -0.3647248369838E-01
 0.3979970024371E+00 -0.4810949028368E+01 -0.2074087446927E+01 -0.3996992297143E-01
 0.3522985584346E+00 -0.4874377557633E+01 -0.2125377124233E+01 -0.4353709261961E-01
 0.2984011121953E+00 -0.4939657927164E+01 -0.2181390697503E+01 -0.4712608434636E-01
 0.2354757786908E+00 -0.5006580191754E+01 -0.2242419068452E+01 -0.5068003378836E-01
 0.1625695260464E+00 -0.5074882696116E+01 -0.2308787184077E+01 -0.5413039628561E-01
 0.7859631811462E-01 -0.5144245968469E+01 -0.2380855329628E+01 -0.5739431431318E-01
-0.1767419993650E-01 -0.5214284753290E+01 -0.2459020701779E+01 -0.6037209808828E-01
-0.1276293914061E+00 -0.5284538678970E+01 -0.2543718986625E+01 -0.6294489083238E-01
-0.2528265093150E+00 -0.5354461903287E+01 -0.2635425547239E+01 -0.6497268193750E-01
-0.3950041950284E+00 -0.5423411997510E+01 -0.2734655603557E+01 -0.6629298506984E-01
-0.5560902127945E+00 -0.5490638299079E+01 -0.2841962393373E+01 -0.6672075587445E-01
-0.7382014255453E+00 -0.5555269869610E+01 -0.2957931501221E+01 -0.6605059912973E-01
-0.9436289419757E+00 -0.5616303014500E+01 -0.3083168011724E+01 -0.6406322507039E-01
-0.1174791854518E+01 -0.5672585356115E+01 -0.3218267280834E+01 -0.6054085133787E-01
-0.1434125709013E+01 -0.5722791815365E+01 -0.3363751227926E+01 -0.5530194582307E-01
-0.1723621138914E+01 -0.5765229726531E+01 -0.3519759897832E+01 -0.4833649839290E-01
 0.5111564662591E+00 -0.4578223017296E+01 -0.1911521274139E+01  0.2680283855945E-01
 0.4923946739232E+00 -0.4633144615557E+01 -0.1946152467632E+01  0.2985058493892E-01
 0.4675175278879E+00 -0.4690246077933E+01 -0.1984682413487E+01  0.3308653727658E-01
 0.4362063671454E+00 -0.4749534081114E+01 -0.2027264020423E+01  0.3647248247237E-01
 0.3979970025036E+00 -0.4810949028552E+01 -0.2074087446982E+01  0.3996992133765E-01
 0.3522985585142E+00 -0.4874377557872E+01 -0.2125377124307E+01  0.4353709055726E-01
 0.2984011122876E+00 -0.4939657927465E+01 -0.2181390697600E+01  0.4712608183934E-01
 0.2354757787934E+00 -0.5006580192124E+01 -0.2242419068578E+01  0.5068003082612E-01
 0.1625695261564E+00 -0.5074882696566E+01 -0.2308787184236E+01  0.5413039286441E-01
 0.7859631822775E-01 -0.5144245969007E+01 -0.2380855329828E+01  0.5739431043778E-01
-0.1767419982673E-01 -0.5214284753925E+01 -0.2459020702026E+01  0.6037209377424E-01
-0.1276293913083E+00 -0.5284538679710E+01 -0.2543718986927E+01  0.6294488610812E-01
-0.2528265092404E+00 -0.5354461904141E+01 -0.2635425547605E+01  0.6497267684688E-01
-0.3950041949915E+00 -0.5423411998484E+01 -0.2734655603997E+01  0.6629297967534E-01
-0.5560902128129E+00 -0.5490638300180E+01 -0.2841962393898E+01  0.6672075026023E-01
-0.7382014256403E+00 -0.5555269870841E+01 -0.2957931501844E+01  0.6605059340432E-01
-0.9436289421704E+00 -0.5616303015864E+01 -0.3083168012456E+01  0.6406321936972E-01
-0.1174791854834E+01 -0.5672585357610E+01 -0.3218267281686E+01  0.6054084582623E-01
-0.1434125709470E+01 -0.5722791816990E+01 -0.3363751228904E+01  0.5530194069153E-01
-0.1723621139479E+01 -0.5765229728256E+01 -0.3519759898908E+01  0.4833649384755E-01
 0.5089350537981E+00 -0.4568257366753E+01 -0.1907881482250E+01  0.8019639964430E-01
 0.4897331792807E+00 -0.4621608099881E+01 -0.1941981207757E+01  0.8931303443079E-01
 0.4644277422457E+00 -0.4676965591512E+01 -0.1979892784134E+01  0.9898519012613E-01
 0.4327066313822E+00 -0.4734315599015E+01 -0.2021756209659E+01  0.1090975263191E+00
 0.3941169985244E+00 -0.4793578756988E+01 -0.2067747021233E+01  0.1195344581280E+00
 0.3480853346432E+00 -0.4854624909645E+01 -0.2118073594879E+01  0.1301713593548E+00
 0.2939267481646E+00 -0.4917279528691E+01 -0.2172975801336E+01  0.1408658193373E+00
 0.2308464163789E+00 -0.4981324650620E+01 -0.2232724764430E+01  0.1514491668497E+00
 0.1579355588381E+00 -0.5046496060495E+01 -0.2297623429951E+01  0.1617183265316E+00
 0.7416354621043E-01 -0.5112477947191E+01 -0.2368007762455E+01  0.1714279920972E+00
-0.2163272045584E-01 -0.5178895826413E+01 -0.2444248410829E+01  0.1802831245562E+00
-0.1307613165161E+00 -0.5245308219061E+01 -0.2526752675313E+01  0.1879319067306E+00
-0.2546889745718E+00 -0.5311197362713E+01 -0.2615966571889E+01  0.1939595135460E+00
-0.3950552243385E+00 -0.5375959102183E+01 -0.2712376726585E+01  0.1978834286781E+00
-0.5536861335374E+00 -0.5438892012447E+01 -0.2816511721469E+01  0.1991516417020E+00
-0.7326067336638E+00 -0.5499185891193E+01 -0.2928942526254E+01  0.1971460744921E+00
-0.9340508933321E+00 -0.5555909511710E+01 -0.3050281382633E+01  0.1911955062396E+00
-0.1160473936861E+01 -0.5608002017332E+01 -0.3181183690402E+01  0.1806061089643E+00
-0.1414566914152E+01 -0.5654260326334E+01 -0.3322348794601E+01  0.1647298432504E+00
-0.1699698534637E+01 -0.5693616196766E+01 -0.3474857914946E+01  0.1431195350428E+00
 0.5044987796908E+00 -0.4548405560909E+01 -0.1900636182352E+01  0.1329550521059E+00
 0.4844310787715E+00 -0.4598628558143E+01 -0.1933672810400E+01  0.1480602278740E+00
 0.4582839511326E+00 -0.4650513926972E+01 -0.1970348083647E+01  0.1640617953086E+00
 0.4257590670099E+00 -0.4704003453326E+01 -0.2010774856468E+01  0.1807647053740E+00
 0.3864250484734E+00 -0.4758977238130E+01 -0.2055099523926E+01  0.1979763249468E+00
 0.3397421034639E+00 -0.4815270961380E+01 -0.2103498557885E+01  0.2154914763972E+00
 0.2850746782611E+00 -0.4872684150632E+01 -0.2156176446546E+01  0.2330773809310E+00
 0.2216955874354E+00 -0.4930982318853E+01 -0.2213364758152E+01  0.2504593178594E+00
 0.1487842233249E+00 -0.4989895256980E+01 -0.2275322180047E+01  0.2673071087832E+00
 0.6542062458262E-01 -0.5049112998860E+01 -0.2342335409970E+01  0.2832222687893E+00
-0.2942352374926E-01 -0.5108280376748E+01 -0.2414720827109E+01  0.2977256483349E+00
-0.1368964446039E+00 -0.5166990650954E+01 -0.2492826928590E+01  0.3102455264053E+00
-0.2582803540242E+00 -0.5224778398450E+01 -0.2577037607127E+01  0.3201063696494E+00
-0.3950085808917E+00 -0.5281111632841E+01 -0.2667776493688E+01  0.3265188509170E+00
-0.5486869973325E+00 -0.5335382996180E+01 -0.2765512889936E+01  0.3285722711049E+00
-0.7211222335998E+00 -0.5386899682768E+01 -0.2870770293411E+01  0.3252313245426E+00
-0.9143629792434E+00 -0.5434872791154E+01 -0.2984140804518E+01  0.3153401896568E+00
-0.1130764166267E+01 -0.5478404823232E+01 -0.3106309417186E+01  0.2976378022056E+00
-0.1373143087665E+01 -0.5516510734699E+01 -0.3238137288298E+01  0.2707855043927E+00
-0.1644921704993E+01 -0.5548033346288E+01 -0.3380688865527E+01  0.2333549831383E+00
 0.4978588050235E+00 -0.4518829551296E+01 -0.1889856245955E+01  0.1846630329290E+00
 0.4765179809891E+00 -0.4564406486613E+01 -0.1921307592770E+01  0.2056210734281E+00
 0.4491373110398E+00 -0.4611132465816E+01 -0.1956137717783E+01  0.2277712783217E+00
 0.4154362243477E+00 -0.4658879672290E+01 -0.1994418415474E+01  0.2508341490454E+00
 0.3750121195164E+00 -0.4707465098709E+01 -0.2036252895056E+01  0.2745406467171E+00
 0.3273730519079E+00 -0.4756672208601E+01 -0.2081770598366E+01  0.2986093332007E+00
 0.2719556334744E+00 -0.4806261136927E+01 -0.2131123581217E+01  0.3227239037672E+00
 0.2081328719326E+00 -0.4855971864811E+01 -0.2184484321112E+01  0.3465125839118E+00
 0.1352154861354E+00 -0.4905523563358E+01 -0.2242044790608E+01  0.3695293612780E+00
 0.5244894506497E-01 -0.4954612097351E+01 -0.2304016675730E+01  0.3912364952683E+00
-0.4099258500694E-01 -0.5002906779038E+01 -0.2370632695088E+01  0.4109876735668E+00
-0.1460150764494E+00 -0.5050046868461E+01 -0.2442149107913E+01  0.4280113029808E+00
-0.2636167552099E+00 -0.5095637933649E+01 -0.2518849697375E+01  0.4413936072573E+00
-0.3949049002578E+00 -0.5139247931630E+01 -0.2601051824390E+01  0.4500613978833E+00
-0.5411199466086E+00 -0.5180402668670E+01 -0.2689115622360E+01  0.4527645404328E+00
-0.7036714460382E+00 -0.5218580206901E+01 -0.2783458269822E+01  0.4480581835186E+00
-0.8841919842964E+00 -0.5253202656846E+01 -0.2884575474020E+01  0.4342844105904E+00
-0.1084621687658E+01 -0.5283626612870E+01 -0.2993076693657E+01  0.4095510355779E+00
-0.1307296903800E+01 -0.5309101653629E+01 -0.3109707314104E+01  0.3716953066084E+00
-0.1554987620050E+01 -0.5328683009216E+01 -0.3235325187549E+01  0.3182217846993E+00
 0.4890329692703E+00 -0.4479773306535E+01 -0.1875647953757E+01  0.2349171969228E+00
 0.4660351028395E+00 -0.4519249805110E+01 -0.1905010905235E+01  0.2615363884755E+00
 0.4370567584933E+00 -0.4559196374206E+01 -0.1937405614471E+01  0.2895761240388E+00
 0.4018327121682E+00 -0.4599385554618E+01 -0.1972849830948E+01  0.3186664832834E+00
 0.3599916252519E+00 -0.4639547091733E+01 -0.2011391064144E+01  0.3484642816709E+00
 0.3111006559971E+00 -0.4679394263824E+01 -0.2053097990471E+01  0.3786185027548E+00
 0.2546898245004E+00 -0.4718634971197E+01 -0.2098054213626E+01  0.4087384621887E+00
 0.1902639268966E+00 -0.4756974857078E+01 -0.2146354131741E+01  0.4383664345397E+00
 0.1173073618827E+00 -0.4794117061783E+01 -0.2198100553378E+01  0.4669540213545E+00
 0.3528505886309E-01 -0.4829761158605E+01 -0.2253403761163E+01  0.4938408562997E+00
-0.5635892372870E-01 -0.4863602527935E+01 -0.2312381876417E+01  0.5182342289204E+00
-0.1582047354711E+00 -0.4895332674741E+01 -0.2375162576776E+01  0.5391883706576E+00
-0.2708625505383E+00 -0.4924640581654E+01 -0.2441886465937E+01  0.5555822676282E+00
-0.3949823092143E+00 -0.4951214974319E+01 -0.2512712716888E+01  0.5660948270607E+00
-0.5312698613185E+00 -0.4974747268839E+01 -0.2587828044610E+01  0.5691759238339E+00
-0.6805131635735E+00 -0.4994934848172E+01 -0.2667460558755E+01  0.5630111258791E+00
-0.8436235118379E+00 -0.5011484204164E+01 -0.2751900619541E+01  0.5454767253283E+00
-0.1021689358211E+01 -0.5024107265778E+01 -0.2841524406068E+01  0.5140800210755E+00
-0.1216034358686E+01 -0.5032506685181E+01 -0.2936814283169E+01  0.4658831748471E+00
-0.1428281554278E+01 -0.5036357517268E+01 -0.3038380355920E+01  0.3974253811904E+00
 0.4780483284227E+00 -0.4431561003022E+01 -0.1858150952349E+01  0.2833329662668E+00
 0.4530404518564E+00 -0.4463572588492E+01 -0.1884950099438E+01  0.3153657951665E+00
 0.4221361853207E+00 -0.4495212072004E+01 -0.1914345661886E+01  0.3489523856844E+00
 0.3850730993217E+00 -0.4526117307756E+01 -0.1946290773028E+01  0.3836276984840E+00
 0.3415076868094E+00 -0.4555906472042E+01 -0.1980767424035E+01  0.4189801311374E+00
 0.2910749938582E+00 -0.4584206753388E+01 -0.2017771921861E+01  0.4545986281071E+00
 0.2334190993694E+00 -0.4610663365819E+01 -0.2057304800013E+01  0.4900287852864E+00
 0.1682081392676E+00 -0.4634940427761E+01 -0.2099364170267E+01  0.5247384281269E+00
 0.9514226481480E-01 -0.4656719900436E+01 -0.2143941483304E+01  0.5580901200561E+00
 0.1395909067665E-01 -0.4675701581412E+01 -0.2191018965088E+01  0.5893176835989E+00
-0.7556118566975E-01 -0.4691605422432E+01 -0.2240568300125E+01  0.6175041862654E+00
-0.1735902247138E+00 -0.4704176608864E+01 -0.2292550405967E+01  0.6415592525243E+00
-0.2802456101748E+00 -0.4713193493145E+01 -0.2346916372608E+01  0.6601937623590E+00
-0.3955850726294E+00 -0.4718478385412E+01 -0.2403609819183E+01  0.6718898860400E+00
-0.5196016338541E+00 -0.4719911315548E+01 -0.2462571079973E+01  0.6748638912243E+00
-0.6522202774537E+00 -0.4717447074372E+01 -0.2523743648957E+01  0.6670181504590E+00
-0.7932971513316E+00 -0.4711136978431E+01 -0.2587084034427E+01  0.6458770968472E+00
-0.9426253859887E+00 -0.4701158994244E+01 -0.2652578651982E+01  0.6085013984209E+00
-0.1099962056703E+01 -0.4687862006730E+01 -0.2720277302914E+01  0.5513787594023E+00
-0.1265110495044E+01 -0.4671828290740E+01 -0.2790361222241E+01  0.4702972401117E+00
 0.4649435659104E+00 -0.4374595478476E+01 -0.1837536394245E+01  0.3295513990956E+00
 0.4376149817061E+00 -0.4397894086285E+01 -0.1861331174431E+01  0.3666949442146E+00
 0.4045024534351E+00 -0.4419814232396E+01 -0.1887196531325E+01  0.4053956237064E+00
 0.3653199172731E+00 -0.4439820471543E+01 -0.1915015255650E+01  0.4450945967621E+00
 0.3197427660676E+00 -0.4457398130071E+01 -0.1944698016149E+01  0.4853235264050E+00
 0.2674824023476E+00 -0.4472077509710E+01 -0.1976159695448E+01  0.5256238594063E+00
 0.2083193437185E+00 -0.4483435524318E+01 -0.2009304599785E+01  0.5654881358053E+00
 0.1421184041485E+00 -0.4491091048952E+01 -0.2044017137874E+01  0.6043191231178E+00
 0.6883833459835E-01 -0.4494701409627E+01 -0.2080155639988E+01  0.6414005524883E+00
-0.1145803403208E-01 -0.4493962931994E+01 -0.2117547848661E+01  0.6758741805071E+00
-0.9859041529880E-01 -0.4488616475156E+01 -0.2155987233045E+01  0.7067192313350E+00
-0.1922432483784E+00 -0.4478458115401E+01 -0.2195229635408E+01  0.7327312640473E+00
-0.2919427248924E+00 -0.4463354985870E+01 -0.2234989918390E+01  0.7524980420649E+00
-0.3970277732787E+00 -0.4443266427478E+01 -0.2274938268586E+01  0.7643700924542E+00
-0.5066131352676E+00 -0.4418270815749E+01 -0.2314695451107E+01  0.7664233949068E+00
-0.6195411509702E+00 -0.4388599136966E+01 -0.2353825929360E+01  0.7564110126462E+00
-0.7343150551456E+00 -0.4354676367935E+01 -0.2391825962781E+01  0.7316993881814E+00
-0.8490162752104E+00 -0.4317184256229E+01 -0.2428114243618E+01  0.6891809470255E+00
-0.9612311127743E+00 -0.4277170102212E+01 -0.2462048564799E+01  0.6251470145153E+00
-0.1068037275655E+01 -0.4236218195925E+01 -0.2493000065319E+01  0.5350984816761E+00
 0.4497723375315E+00 -0.4309356438034E+01 -0.1814004522635E+01  0.3732472001748E+00
 0.4198714508241E+00 -0.4322835668258E+01 -0.1834393177541E+01  0.4151417899206E+00
 0.3843261169543E+00 -0.4333758296795E+01 -0.1856233119817E+01  0.4584250434140E+00
 0.3427839642213E+00 -0.4341378205470E+01 -0.1879339288620E+01  0.5024588880089E+00
 0.2949281179502E+00 -0.4345034410795E+01 -0.1903549952809E+01  0.5467384470139E+00
 0.2405587835765E+00 -0.4344158438918E+01 -0.1928691833119E+01  0.5907725248339E+00
 0.1796207535589E+00 -0.4338260852589E+01 -0.1954560841587E+01  0.6340087627096E+00
 0.1122132711332E+00 -0.4326917063000E+01 -0.1980910777153E+01  0.6757887679549E+00
 0.3859882852806E-01 -0.4309759612691E+01 -0.2007445563465E+01  0.7153207781059E+00
-0.4078229529878E-01 -0.4286478866471E+01 -0.2033812740873E+01  0.7516613532660E+00
-0.1252890520758E+00 -0.4256832063144E+01 -0.2059596918930E+01  0.7837006624414E+00
-0.2140468713132E+00 -0.4220660222921E+01 -0.2084312329004E+01  0.8101479096792E+00
-0.3059038396925E+00 -0.4177912621560E+01 -0.2107393731444E+01  0.8295145850197E+00
-0.3993736459976E+00 -0.4128678935145E+01 -0.2128184707739E+01  0.8400938484052E+00
-0.4925615747987E+00 -0.4073229673877E+01 -0.2145921881435E+01  0.8399347795462E+00
-0.5830661750391E+00 -0.4012065105143E+01 -0.2159711696208E+01  0.8268108153480E+00
-0.6678454627337E+00 -0.3945974333566E+01 -0.2168495298761E+01  0.7981825041303E+00
-0.7430036238953E+00 -0.3876088852256E+01 -0.2170973458285E+01  0.7511549969994E+00
-0.8034761348247E+00 -0.3803973849845E+01 -0.2165501487302E+01  0.6824098036101E+00
-0.8426786339487E+00 -0.3731884385297E+01 -0.2150044613592E+01  0.5880400176285E+00
 0.4326103769755E+00 -0.4236396425660E+01 -0.1787779438347E+01  0.4141371623894E+00
 0.3999713936397E+00 -0.4239108613203E+01 -0.1804394488618E+01  0.4603596190900E+00
 0.3618416688756E+00 -0.4237897604730E+01 -0.1821746285231E+01  0.5075825816568E+00
 0.3177467399249E+00 -0.4231777808112E+01 -0.1839594597382E+01  0.5551255588268E+00
 0.2673710724780E+00 -0.4219942278754E+01 -0.1857708462238E+01  0.6024777425453E+00
 0.2106267663269E+00 -0.4201734855608E+01 -0.1875820797204E+01  0.6491305660180E+00
 0.1476608742532E+00 -0.4176612259990E+01 -0.1893607146493E+01  0.6944888615210E+00
 0.7885218757029E-01 -0.4144115874886E+01 -0.1910673928192E+01  0.7378274548580E+00
 0.4815945639994E-02 -0.4103858368977E+01 -0.1926549934082E+01  0.7782716726419E+00
-0.7357777709558E-01 -0.4055524569914E+01 -0.1940678098172E+01  0.8147893169728E+00
-0.1551705933896E+00 -0.3998884538588E+01 -0.1952405907078E+01  0.8461874219533E+00
-0.2384666774515E+00 -0.3933817111387E+01 -0.1960973375781E+01  0.8711104541659E+00
-0.3215667075006E+00 -0.3860342863371E+01 -0.1965497493324E+01  0.8880385409917E+00
-0.4020823986923E+00 -0.3778666341757E+01 -0.1964951903027E+01  0.8952855480301E+00
-0.4770274659501E+00 -0.3689227939889E+01 -0.1958140035778E+01  0.8909979658492E+00
-0.5426798620548E+00 -0.3592766534442E+01 -0.1943659801424E+01  0.8731573247360E+00
-0.5944016125451E+00 -0.3490387670614E+01 -0.1919850958215E+01  0.8395927827464E+00
-0.6264045975569E+00 -0.3383636355213E+01 -0.1884719243021E+01  0.7880208185321E+00
-0.6311842381146E+00 -0.3274370695837E+01 -0.1835610814301E+01  0.7161658055300E+00
-0.5983196751096E+00 -0.3164506482710E+01 -0.1768528289689E+01  0.6219565585372E+00
 0.4135763593379E+00 -0.4156324319125E+01 -0.1759091536638E+01  0.4519853214868E+00
 0.3781647268847E+00 -0.4147470594725E+01 -0.1771573753392E+01  0.5020281130142E+00
 0.3373998518513E+00 -0.4133107083457E+01 -0.1783982394330E+01  0.5524136103238E+00
 0.2906281037792E+00 -0.4111998811893E+01 -0.1796044228258E+01  0.6024870917337E+00
 0.2375458834667E+00 -0.4083213424044E+01 -0.1807463739487E+01  0.6517736643594E+00
 0.1782186705354E+00 -0.4046037057768E+01 -0.1817874637389E+01  0.6997599476727E+00
 0.1130482888894E+00 -0.3999899693372E+01 -0.1826820155473E+01  0.7457996774997E+00
 0.4274721192388E-01 -0.3944328610203E+01 -0.1833743252540E+01  0.7890820041004E+00
-0.3166393815541E-01 -0.3878929151582E+01 -0.1837978747515E+01  0.8286286791129E+00
-0.1088343438714E+00 -0.3803386916692E+01 -0.1838743987801E+01  0.8633036366759E+00
-0.1870386991849E+00 -0.3717486188351E+01 -0.1835126692487E+01  0.8918278512122E+00
-0.2641119979328E+00 -0.3621140550614E+01 -0.1826068693185E+01  0.9127972429717E+00
-0.3373631782903E+00 -0.3514433387119E+01 -0.1810344381151E+01  0.9247040731189E+00
-0.4034656743819E+00 -0.3397667235042E+01 -0.1786532462898E+01  0.9259639263654E+00
-0.4583225467852E+00 -0.3271422504488E+01 -0.1752980169652E+01  0.9149517012833E+00
-0.4969048588450E+00 -0.3136626581768E+01 -0.1707759772756E+01  0.8900515218039E+00
-0.5130768785136E+00 -0.2994640906798E+01 -0.1648627354915E+01  0.8497285155367E+00
-0.4994257990533E+00 -0.2847352998532E+01 -0.1572986030875E+01  0.7926405027957E+00
-0.4474058008864E+00 -0.2697409562308E+01 -0.1478063216953E+01  0.7178619035355E+00
-0.3462106879287E+00 -0.2546838862853E+01 -0.1359733285419E+01  0.6256968940978E+00
 0.3928782899601E+00 -0.4069760172923E+01 -0.1728134480609E+01  0.4865934656666E+00
 0.3548747915990E+00 -0.4048602454721E+01 -0.1736051997264E+01  0.5398098107075E+00
 0.3115885744907E+00 -0.4020071151651E+01 -0.1742986806845E+01  0.5923959664687E+00
 0.2621579995557E+00 -0.3982698711567E+01 -0.1748654130210E+01  0.6438300639577E+00
 0.2063313455118E+00 -0.3935483984211E+01 -0.1752701735743E+01  0.6937258688993E+00
 0.1443936612525E+00 -0.3877714981369E+01 -0.1754661016004E+01  0.7415703393431E+00
 0.7706843282778E-01 -0.3808843546484E+01 -0.1753934298970E+01  0.7866435483629E+00
 0.5459921656939E-02 -0.3728419364070E+01 -0.1749790933496E+01  0.8280159663819E+00
-0.6895753958834E-01 -0.3636067490439E+01 -0.1741361759696E+01  0.8645745915268E+00
-0.1443135677530E+00 -0.3531496192704E+01 -0.1727630583033E+01  0.8950587877294E+00
-0.2182871915737E+00 -0.3414523867691E+01 -0.1707421193524E+01  0.9181000331106E+00
-0.2880289225626E+00 -0.3285118036039E+01 -0.1679379066283E+01  0.9322659460921E+00
-0.3500607310555E+00 -0.3143441579513E+01 -0.1641946081803E+01  0.9361119793482E+00
-0.4001533713744E+00 -0.2989904030744E+01 -0.1593326974955E+01  0.9282457718395E+00
-0.4331794812528E+00 -0.2825217187398E+01 -0.1531446430382E+01  0.9074098309855E+00
-0.4429453787222E+00 -0.2650458305803E+01 -0.1453899728039E+01  0.8725876204758E+00
-0.4220164637056E+00 -0.2467149741153E+01 -0.1357908112839E+01  0.8231334840117E+00
-0.3616549974651E+00 -0.2277428839596E+01 -0.1240369400273E+01  0.7589112413580E+00
-0.2521871583405E+00 -0.2084453856422E+01 -0.1098221274153E+01  0.6803526714665E+00
-0.8861174280285E-01 -0.1896023664242E+01 -0.9327786389452E+00  0.5882876654773E+00
 0.3708124021867E+00 -0.3977304818809E+01 -0.1695051431513E+01  0.5177694725193E+00
 0.3306380146942E+00 -0.3943064486156E+01 -0.1697840437281E+01  0.5732871098829E+00
 0.2851428489489E+00 -0.3899219050360E+01 -0.1698615810355E+01  0.6268601790279E+00
 0.2332589563085E+00 -0.3844148933374E+01 -0.1697118284916E+01  0.6782540212072E+00
 0.1748658813825E+00 -0.3776902885981E+01 -0.1692957387867E+01  0.7272279474485E+00
 0.1105590895777E+00 -0.3696872150939E+01 -0.1685567134565E+01  0.7732582154423E+00
 0.4145396895854E-01 -0.3603608782864E+01 -0.1674212758289E+01  0.8155104480116E+00
-0.3090651898861E-01 -0.3496743626055E+01 -0.1657995563965E+01  0.8528912106424E+00
-0.1045691551857E+00 -0.3375970903518E+01 -0.1635853823442E+01  0.8841173667227E+00
-0.1771386544971E+00 -0.3241069600299E+01 -0.1606557875679E+01  0.9077855204222E+00
-0.2457161692927E+00 -0.3091944760572E+01 -0.1568700633058E+01  0.9224401412800E+00
-0.3068160503625E+00 -0.2928674980541E+01 -0.1520680780668E+01  0.9266453119341E+00
-0.3562654219754E+00 -0.2751559691968E+01 -0.1460677799848E+01  0.9190674757378E+00
-0.3890865632474E+00 -0.2561161462604E+01 -0.1386616568633E+01  0.8985772072826E+00
-0.3993600573855E+00 -0.2358340476045E+01 -0.1296119247425E+01  0.8643777586452E+00
-0.3800618104251E+00 -0.2144278318702E+01 -0.1186439857681E+01  0.8161657769583E+00
-0.3228622347577E+00 -0.1920496148979E+01 -0.1054378437682E+01  0.7543204455568E+00
-0.2178332540332E+00 -0.1688881670675E+01 -0.8961560123401E+00  0.6800767159249E+00
-0.5297697200027E-01 -0.1451887977728E+01 -0.7072865245785E+00  0.5954913276092E+00
 0.1867767539388E+00 -0.1214001010972E+01 -0.4827953995811E+00  0.5016717397707E+00
 0.3476954426607E+00 -0.3879625133984E+01 -0.1660006950712E+01  0.5453108680958E+00
 0.3059139022885E+00 -0.3831506003969E+01 -0.1657028283587E+01  0.6019668232536E+00
 0.2586318804141E+00 -0.3771092971512E+01 -0.1650856708629E+01  0.6550338929774E+00
 0.2045900318980E+00 -0.3696825647203E+01 -0.1641350735030E+01  0.7047759464480E+00
 0.1439315422794E+00 -0.3607997864906E+01 -0.1628111167505E+01  0.7511388657019E+00
 0.7766573521212E-01 -0.3504255250035E+01 -0.1610497067882E+01  0.7935449201272E+00
 0.7359447025905E-02 -0.3385352068277E+01 -0.1587656527961E+01  0.8309789320469E+00
-0.6498694486782E-01 -0.3251075328768E+01 -0.1558549264656E+01  0.8621249392555E+00
-0.1369512102772E+00 -0.3101251398837E+01 -0.1521955222424E+01  0.8854899231325E+00
-0.2056522120119E+00 -0.2935798188460E+01 -0.1476481684477E+01  0.8995065386602E+00
-0.2676848052699E+00 -0.2754784351317E+01 -0.1420560499993E+01  0.9026230371749E+00
-0.3190440151981E+00 -0.2558483594554E+01 -0.1352437973153E+01  0.8933927139178E+00
-0.3550424354628E+00 -0.2347413682172E+01 -0.1270154372067E+01  0.8705747109550E+00
-0.3702240510295E+00 -0.2122356903539E+01 -0.1171513045676E+01  0.8332567457447E+00
-0.3582710344329E+00 -0.1884355662793E+01 -0.1054034545023E+01  0.7810094187345E+00
-0.3118867633857E+00 -0.1634671590197E+01 -0.9148824238634E+00  0.7140824036640E+00
-0.2225870765925E+00 -0.1374678427701E+01 -0.7507147851139E+00  0.6336545449579E+00
-0.8013360237751E-01 -0.1105590446393E+01 -0.5572903015086E+00  0.5421577095649E+00
 0.1294415676856E+00 -0.8276500891369E+00 -0.3281580042498E+00  0.4437094105118E+00
 0.4371380343170E+00 -0.5332789712575E+00 -0.4518624024739E-01  0.3451875955449E+00
 0.3239002591117E+00 -0.3777522730318E+01 -0.1623202557350E+01  0.5689950360425E+00
 0.2812231284977E+00 -0.3714679071796E+01 -0.1613724289257E+01  0.6252857794709E+00
 0.2326286363761E+00 -0.3636351304820E+01 -0.1599749650111E+01  0.6760855082905E+00
 0.1767744348092E+00 -0.3541406189155E+01 -0.1581376920532E+01  0.7224204262519E+00
 0.1142438964851E+00 -0.3429687867515E+01 -0.1558258662432E+01  0.7644157756889E+00
 0.4656723115200E-01 -0.3301285109594E+01 -0.1529717398988E+01  0.8013463987519E+00
-0.2421451912120E-01 -0.3156279726894E+01 -0.1494832291836E+01  0.8319239196209E+00
-0.9565931767069E-01 -0.2994701167072E+01 -0.1452469424145E+01  0.8545516220105E+00
-0.1649296577988E+00 -0.2816616378365E+01 -0.1401326633443E+01  0.8675059246620E+00
-0.2287393578316E+00 -0.2622233744073E+01 -0.1339957354496E+01  0.8690642288603E+00
-0.2832983565044E+00 -0.2412008940847E+01 -0.1266794426542E+01  0.8576080178968E+00
-0.3242570472033E+00 -0.2186726629072E+01 -0.1180162324856E+01  0.8317268138233E+00
-0.3466658875000E+00 -0.1947571584374E+01 -0.1078291609046E+01  0.7903433818774E+00
-0.3449548796538E+00 -0.1696195959950E+01 -0.9593408921804E+00  0.7328766152926E+00
-0.3129380020906E+00 -0.1434789314461E+01 -0.8214318366960E+00  0.6594614244823E+00
-0.2438386340363E+00 -0.1166151660503E+01 -0.6626954367527E+00  0.5712563210728E+00
-0.1302945597575E+00 -0.8937478893372E+00 -0.4812999498538E+00  0.4709019203534E+00
 0.3580332776263E-01 -0.6216562018211E+00 -0.2753508501091E+00  0.3632961577644E+00
 0.2643448478638E+00 -0.3538809490748E+00 -0.4208196746246E-01  0.2572472300493E+00
 0.5664005377759E+00 -0.9359970210365E-01  0.2222163922023E+00  0.1712233607694E+00
 0.2998437163706E+00 -0.3671952157149E+01 -0.1584890963146E+01  0.5885749678610E+00
 0.2570665364748E+00 -0.3593490511807E+01 -0.1568119264429E+01  0.6426211694078E+00
 0.2076270275970E+00 -0.3495833206986E+01 -0.1545456900393E+01  0.6891988997188E+00
 0.1503049082259E+00 -0.3378929358470E+01 -0.1517453487766E+01  0.7303753802705E+00
 0.8637733219494E-01 -0.3243554653341E+01 -0.1483873337175E+01  0.7663500784894E+00
 0.1793998485421E-01 -0.3090483074345E+01 -0.1444095248398E+01  0.7960921269782E+00
-0.5249274660235E-01 -0.2920207713228E+01 -0.1397169212577E+01  0.8179448116102E+00
-0.1221097002206E+00 -0.2733120089510E+01 -0.1341957997770E+01  0.8300203704896E+00
-0.1877341160276E+00 -0.2529699409873E+01 -0.1277193753934E+01  0.8304272104587E+00
-0.2457909259729E+00 -0.2310747627230E+01 -0.1201573116958E+01  0.8174077851930E+00
-0.2922552463792E+00 -0.2077537732777E+01 -0.1113802697378E+01  0.7894534242845E+00
-0.3226391401656E+00 -0.1831946716097E+01 -0.1012655349875E+01  0.7454421403204E+00
-0.3320161338860E+00 -0.1576587374960E+01 -0.8970436468823E+00  0.6848230528156E+00
-0.3151014781691E+00 -0.1314955981569E+01 -0.7661270041339E+00  0.6078676376548E+00
-0.2664129129307E+00 -0.1051598650272E+01 -0.6194654331340E+00  0.5160127504703E+00
-0.1805568989901E+00 -0.7922879493026E+00 -0.4572370775378E+00  0.4123362839325E+00
-0.5274977123629E-01 -0.5441951333693E+00 -0.2805641044530E+00  0.3022462470638E+00
 0.1200971562740E+00 -0.3160429540523E+00 -0.9209452472223E-01  0.1945755314740E+00
 0.3360425866331E+00 -0.1186145855808E+00  0.1021911602354E+00  0.1036428696095E+00
 0.5704575977040E+00  0.2932847168043E-01  0.2818994518957E+00  0.5276558023006E-01
 0.2759611847605E+00 -0.3564047952351E+01 -0.1545400776848E+01  0.6037455386631E+00
 0.2339429753812E+00 -0.3468893033546E+01 -0.1520426523481E+01  0.6532881733584E+00
 0.1840384527186E+00 -0.3350457860118E+01 -0.1488217117703E+01  0.6936549223928E+00
 0.1256628346810E+00 -0.3210656623141E+01 -0.1449947076899E+01  0.7281711418160E+00
 0.6089838829748E-01 -0.3051822830220E+01 -0.1405734484138E+01  0.7568141756110E+00
-0.7504419791553E-02 -0.2875431529321E+01 -0.1354979892646E+01  0.7780293864148E+00
-0.7670680054391E-01 -0.2682469743015E+01 -0.1296812972183E+01  0.7897444351140E+00
-0.1435615228565E+00 -0.2473692407060E+01 -0.1230109343941E+01  0.7898892435041E+00
-0.2046797122796E+00 -0.2250242426637E+01 -0.1153813402364E+01  0.7766068591812E+00
-0.2563230796559E+00 -0.2013851533196E+01 -0.1066982065334E+01  0.7483623952151E+00
-0.2944004643623E+00 -0.1766999640256E+01 -0.9688580467132E+00  0.7040753543282E+00
-0.3145090622131E+00 -0.1513031647337E+01 -0.8589441313100E+00  0.6433040250911E+00
-0.3120495854510E+00 -0.1256267482193E+01 -0.7371090199233E+00  0.5664940994575E+00
-0.2824373407027E+00 -0.1002091324883E+01 -0.6037284712939E+00  0.4752975009770E+00
-0.2214622255487E+00 -0.7569935441354E+00 -0.4598742105851E+00  0.3729679740366E+00
-0.1259058266378E+00 -0.5285282155867E+00 -0.3075839990654E+00  0.2648410299001E+00
 0.5350611576204E-02 -0.3251395968102E+00 -0.1503008226787E+00  0.1589066925242E+00
 0.1690342365860E+00 -0.1559106797025E+00  0.6168071719596E-02  0.6645418131431E-01
 0.3517928001700E+00 -0.3066474492087E-01  0.1509301855843E+00  0.2462586255003E-02
 0.5217014541982E+00  0.4223082606070E-01  0.2650481710494E+00 -0.1758937479234E-01
 0.2527610500518E+00 -0.3455048901680E+01 -0.1505075286448E+01  0.6140719204268E+00
 0.2121193281792E+00 -0.3341900015623E+01 -0.1470996919368E+01  0.6565206354811E+00
 0.1622655091224E+00 -0.3200922204895E+01 -0.1428168643391E+01  0.6889755093404E+00
 0.1032413581090E+00 -0.3038161070388E+01 -0.1379412261273E+01  0.7159264964661E+00
 0.3853175352565E-01 -0.2857365983584E+01 -0.1324852084767E+01  0.7365422865404E+00
-0.2904314552563E-01 -0.2660983104338E+01 -0.1264312334229E+01  0.7484678439278E+00
-0.9605996848944E-01 -0.2449745987366E+01 -0.1196528796217E+01  0.7493385912827E+00
-0.1592665272972E+00 -0.2224953686810E+01 -0.1120583497788E+01  0.7371975689375E+00
-0.2151571689322E+00 -0.1988585365689E+01 -0.1035758988645E+01  0.7105164399685E+00
-0.2599815343936E+00 -0.1743464693499E+01 -0.9416197247213E+00  0.6682754728059E+00
-0.2897689779452E+00 -0.1493286252953E+01 -0.8380359563967E+00  0.6101119465766E+00
-0.3004561382078E+00 -0.1242639863808E+01 -0.7252551191081E+00  0.5365341966958E+00
-0.2881041417768E+00 -0.9969941912630E+00 -0.6039962149967E+00  0.4491840047584E+00
-0.2492451163734E+00 -0.7626142517341E+00 -0.4755739018043E+00  0.3511312458416E+00
-0.1814200347696E+00 -0.5463770792979E+00 -0.3420646427441E+00  0.2471773744969E+00
-0.8401382467306E-01 -0.3554456709083E+00 -0.2065459623994E+00  0.1441257666700E+00
 0.4038735514334E-01 -0.1967827820427E+00 -0.7350585045624E-01  0.5092497953874E-01
 0.1838430043815E+00 -0.7637608228343E-01  0.5050945325798E-01 -0.2158472772128E-01
 0.3302134292763E+00  0.2297095028070E-02  0.1562799460267E+00 -0.6237895058400E-01
 0.4579030440133E+00  0.4374526624470E-01  0.2357747052233E+00 -0.6577596979244E-01
 0.2297216960244E+00 -0.3347531091983E+01 -0.1465370412384E+01  0.6189644274601E+00
 0.1913592369452E+00 -0.3213716421976E+01 -0.1420507873362E+01  0.6516991851837E+00
 0.1414757091341E+00 -0.3048928441643E+01 -0.1366502780813E+01  0.6754115418157E+00
 0.8352404824991E-01 -0.2863456243757E+01 -0.1306568128574E+01  0.6950807433671E+00
 0.1916071787501E-01 -0.2665390430060E+01 -0.1243727961573E+01  0.7076557640043E+00
-0.4654291784951E-01 -0.2453845254148E+01 -0.1175182437858E+01  0.7100492060602E+00
-0.1104263449975E+00 -0.2229880941901E+01 -0.1099944422052E+01  0.7001533660942E+00
-0.1691020140540E+00 -0.1995380956577E+01 -0.1017306993616E+01  0.6764619442808E+00
-0.2191061453133E+00 -0.1753258136755E+01 -0.9270112102207E+00  0.6380144145090E+00
-0.2568222891690E+00 -0.1507261807987E+01 -0.8291195235603E+00  0.5844726198001E+00
-0.2786155181096E+00 -0.1261916078048E+01 -0.7240498483575E+00  0.5162890347427E+00
-0.2810330593791E+00 -0.1022428353405E+01 -0.6126268624547E+00  0.4349128883790E+00
-0.2611096893904E+00 -0.7945535683101E+00 -0.4961617298608E+00  0.3430057383299E+00
-0.2167986650688E+00 -0.5843780428475E+00 -0.3765530517656E+00  0.2446362019927E+00
-0.1475663084685E+00 -0.3979967468108E+00 -0.2564146353309E+00  0.1454112242313E+00
-0.5520408343654E-01 -0.2410592423833E+00 -0.1392437627821E+00  0.5246984330163E-01
 0.5515602948833E-01 -0.1180917786128E+00 -0.2957980201347E-01 -0.2581298583692E-01
 0.1739299975064E+00 -0.3149117188878E-01  0.6694624787047E-01 -0.8076391965986E-01
 0.2881874795826E+00  0.2098833522512E-01  0.1453126325911E+00 -0.1057028317258E+00
 0.3847995427190E+00  0.4696326854245E-01  0.2029285207782E+00 -0.9988942553796E-01
 0.2060614938527E+00 -0.3244960586869E+01 -0.1428282570095E+01  0.6171925939517E+00
 0.1671913724847E+00 -0.3087232317506E+01 -0.1372419240679E+01  0.6377422146932E+00
 0.1253766515234E+00 -0.2889043678206E+01 -0.1298923499246E+01  0.6548693302063E+00
 0.6590705730389E-01 -0.2690726681922E+01 -0.1233665220441E+01  0.6684805777756E+00
 0.3334652259122E-02 -0.2480631257898E+01 -0.1164329401697E+01  0.6728362275475E+00
-0.5967837138728E-01 -0.2259157972546E+01 -0.1089853078884E+01  0.6657754424516E+00
-0.1195251198647E+00 -0.2027647513456E+01 -0.1009171135101E+01  0.6458597449137E+00
-0.1729770413291E+00 -0.1789007338574E+01 -0.9221326562157E+00  0.6122133665935E+00
-0.2166833547694E+00 -0.1546912099711E+01 -0.8288898615034E+00  0.5644931003658E+00
-0.2473394356849E+00 -0.1305696744020E+01 -0.7299270026099E+00  0.5030285207632E+00
-0.2618465298682E+00 -0.1070215169306E+01 -0.6260689970242E+00  0.4289861280439E+00
-0.2575727175035E+00 -0.8456978248581E+00 -0.5185371535947E+00  0.3445324701614E+00
-0.2326916707874E+00 -0.6375497414434E+00 -0.4090134627110E+00  0.2529681730100E+00
-0.1866110985852E+00 -0.4510732635162E+00 -0.2997116494275E+00  0.1588018085708E+00
-0.1204892540798E+00 -0.2910948962086E+00 -0.1934445501449E+00  0.6771623532865E-01
-0.3779376753791E-01 -0.1614519568429E+00 -0.9364549022148E-01 -0.1365320344705E-01
 0.5519826998097E-01 -0.6430714343835E-01 -0.4281170514109E-02 -0.7826917664034E-01
 0.1496208449794E+00  0.9813447577571E-03  0.7078302899695E-01 -0.1198141865348E+00
 0.2347171803563E+00  0.3817313566215E-01  0.1282584482034E+00 -0.1343666625238E+00
 0.3054597718168E+00  0.5673882883787E-01  0.1702333418759E+00 -0.1218489639260E+00
 0.1491096466484E+00 -0.3174659824804E+01 -0.1422008580126E+01  0.6017352989039E+00
 0.1626773332596E+00 -0.2923661640361E+01 -0.1297662621046E+01  0.6177584588489E+00
 0.1092681725290E+00 -0.2730171584445E+01 -0.1231824600476E+01  0.6323926344341E+00
 0.5239268978626E-01 -0.2524486646417E+01 -0.1161884156670E+01  0.6386007798785E+00
-0.8203122373990E-02 -0.2307630010446E+01 -0.1088441569665E+01  0.6342553053477E+00
-0.6767225959951E-01 -0.2080366732561E+01 -0.1009578323755E+01  0.6182405625847E+00
-0.1229575599869E+00 -0.1845869387433E+01 -0.9253486629402E+00  0.5897607623703E+00
-0.1708608309505E+00 -0.1607751777627E+01 -0.8359479239112E+00  0.5484389596582E+00
-0.2083261103351E+00 -0.1370133972289E+01 -0.7418762369516E+00  0.4944431318093E+00
-0.2325026299693E+00 -0.1137494500610E+01 -0.6438986497392E+00  0.4286253620175E+00
-0.2409639159769E+00 -0.9145619013416E+00 -0.5430971327622E+00  0.3526454341715E+00
-0.2319717312465E+00 -0.7061468218271E+00 -0.4409157188263E+00  0.2690675821724E+00
-0.2047942296892E+00 -0.5169207226200E+00 -0.3392060267250E+00  0.1814100575513E+00
-0.1600592972492E+00 -0.3511279005673E+00 -0.2402579823644E+00  0.9411925763959E-01
-0.1001065067913E+00 -0.2122148252341E+00 -0.1467910256796E+00  0.1242652234435E-01
-0.2926318171752E-01 -0.1023647281246E+00 -0.6186511746889E-01 -0.5797425486835E-01
 0.4618691049039E-01 -0.2189366760273E-01  0.1141782412824E-01 -0.1115195393549E+00
 0.1184132838367E+00  0.3115319076838E-01  0.7029624288611E-01 -0.1436799456688E+00
 0.1798749484950E+00  0.6147506036865E-01  0.1134345038782E+00 -0.1520600242628E+00
 0.2193760969463E+00  0.7046832828952E-01  0.1362268795153E+00 -0.1358189751564E+00
</DataArray>
<DataArray type="Float64" Name="S_Mises" NumberOfComponents="1" ComponentName0="S_Mises" format="ascii">
 0.4043345023123E+01
 0.3549957421576E+01
 0.3191700598017E+01
 0.3066726724046E+01
 0.2988871656678E+01
 0.2948887193272E+01
 0.2929338313308E+01
 0.2924097459635E+01
 0.2928973108582E+01
 0.2941630414965E+01
 0.2960629458323E+01
 0.2985153944231E+01
 0.3014806781815E+01
 0.3049506145789E+01
 0.3089421362209E+01
 0.3134937383361E+01
 0.3186638105049E+01
 0.3245304472339E+01
 0.3311933165799E+01
 0.3387780494893E+01
 0.3474456979750E+01
 0.3574155298763E+01
 0.3690214867898E+01
 0.3827387156379E+01
 0.3987445967900E+01
 0.4166740177644E+01
 0.4360236251641E+01
 0.4564481819779E+01
 0.4778409605094E+01
 0.5002895939898E+01
 0.5239747822070E+01
 0.5490481741236E+01
 0.5754808216971E+01
 0.6035429651422E+01
 0.6348275121365E+01
 0.6715154618834E+01
 0.7187311543600E+01
 0.7745869026600E+01
 0.8921693588767E+01
 0.8874166959274E+01
 0.1702654772460E+02
 0.3460600821272E+01
 0.3544005940520E+01
 0.3279269466171E+01
 0.3124829925442E+01
 0.3044001458638E+01
 0.2995563705185E+01
 0.2970170633528E+01
 0.2959801552248E+01
 0.2960427400493E+01
 0.2969446479612E+01
 0.2985293326234E+01
 0.3007030163628E+01
 0.3034163425104E+01
 0.3066525692447E+01
 0.3104207750094E+01
 0.3147518250299E+01
 0.3196963290167E+01
 0.3253240870848E+01
 0.3317253772438E+01
 0.3390144261991E+01
 0.3473367853648E+01
 0.3568832212837E+01
 0.3678810207098E+01
 0.3805200122037E+01
 0.3948272748321E+01
 0.4106176902418E+01
 0.4275981028929E+01
 0.4455123885834E+01
 0.4642111862693E+01
 0.4836392362329E+01
 0.5037720630098E+01
 0.5245646237791E+01
 0.5460057448893E+01
 0.5682948516134E+01
 0.5918248107746E+01
 0.6174931218885E+01
 0.6442608013602E+01
 0.6761496954514E+01
 0.6885020150456E+01
 0.5928241652378E+01
 0.1111304239555E+02
 0.3153588549586E+01
 0.3381285036026E+01
 0.3297138249887E+01
 0.3162731729004E+01
 0.3082811866270E+01
 0.3033233401490E+01
 0.3004540772007E+01
 0.2990887025064E+01
 0.2988299909018E+01
 0.2994336635648E+01
 0.3007415110586E+01
 0.3026565342283E+01
 0.3051242380039E+01
 0.3081221429732E+01
 0.3116530426604E+01
 0.3157409290867E+01
 0.3204287037795E+01
 0.3257771732732E+01
 0.3318654924196E+01
 0.3387928961402E+01
 0.3466818383650E+01
 0.3556738897960E+01
 0.3658886413274E+01
 0.3773699206628E+01
 0.3900789036330E+01
 0.4039021338072E+01
 0.4186606410110E+01
 0.4341534581734E+01
 0.4501988071615E+01
 0.4666344197522E+01
 0.4832889565258E+01
 0.4999851511151E+01
 0.5165949578300E+01
 0.5329511440884E+01
 0.5486862806647E+01
 0.5626884118510E+01
 0.5726729691967E+01
 0.5732783801565E+01
 0.5235334354730E+01
 0.4731566588109E+01
 0.9265248509330E+01
 0.2968386857123E+01
 0.3223937726381E+01
 0.3255957429312E+01
 0.3176395136567E+01
 0.3107232683811E+01
 0.3061149052832E+01
 0.3032323572400E+01
 0.3017095401110E+01
 0.3012412097866E+01
 0.3016151150036E+01
 0.3026881564140E+01
 0.3043676275387E+01
 0.3065988797805E+01
 0.3093565598357E+01
 0.3126388858772E+01
 0.3164638468363E+01
 0.3208668284695E+01
 0.3258991365930E+01
 0.3316273703898E+01
 0.3381329301840E+01
 0.3455090109789E+01
 0.3538428617239E+01
 0.3631726477729E+01
 0.3734639671091E+01
 0.3846453022017E+01
 0.3966308917635E+01
 0.4092965581301E+01
 0.4224698710857E+01
 0.4359430112152E+01
 0.4494767363226E+01
 0.4627964120176E+01
 0.4756107858428E+01
 0.4876063413529E+01
 0.4982683508175E+01
 0.5065217706275E+01
 0.5102313397683E+01
 0.5057627622524E+01
 0.4819486213521E+01
 0.4235261289612E+01
 0.4434854226896E+01
 0.8387745514119E+01
 0.2846804718675E+01
 0.3095152033896E+01
 0.3191305497148E+01
 0.3166742559770E+01
 0.3118428235251E+01
 0.3079727414094E+01
 0.3053482491465E+01
 0.3038375656430E+01
 0.3032671018642E+01
 0.3034808451797E+01
 0.3043624755069E+01
 0.3058314836755E+01
 0.3078376052266E+01
 0.3103555000017E+01
 0.3133805397293E+01
 0.3169256662549E+01
 0.3210190806923E+01
 0.3257023209824E+01
 0.3310284880577E+01
 0.3370592257895E+01
 0.3438561088976E+01
 0.3514574777142E+01
 0.3598447634786E+01
 0.3689402656920E+01
 0.3786542417691E+01
 0.3889084015413E+01
 0.3996004053357E+01
 0.4105685976802E+01
 0.4215846164927E+01
 0.4323565620619E+01
 0.4425366439594E+01
 0.4517313529886E+01
 0.4594539142324E+01
 0.4649025189907E+01
 0.4665746840100E+01
 0.4619540382725E+01
 0.4466223950518E+01
 0.4128524545691E+01
 0.3725642818286E+01
 0.4477449638306E+01
 0.7847483071546E+01
 0.2762132324917E+01
 0.2993347722142E+01
 0.3122067694697E+01
 0.3141373944108E+01
 0.3117700247920E+01
 0.3089806835916E+01
 0.3068272742931E+01
 0.3054805272843E+01
 0.3049083801157E+01
 0.3050288368837E+01
 0.3057622361263E+01
 0.3070466994463E+01
 0.3088405192030E+01
 0.3111210265609E+01
 0.3138824393950E+01
 0.3171336547967E+01
 0.3208961633073E+01
 0.3252017579690E+01
 0.3300896535681E+01
 0.3356011293417E+01
 0.3417674408290E+01
 0.3485870744125E+01
 0.3560033633770E+01
 0.3639142225909E+01
 0.3722186384654E+01
 0.3808364695271E+01
 0.3896702203893E+01
 0.3985593752481E+01
 0.4072609027349E+01
 0.4154498158205E+01
 0.4227285488294E+01
 0.4286250924551E+01
 0.4325255832569E+01
 0.4334592026390E+01
 0.4298079812473E+01
 0.4191278609112E+01
 0.3980180330871E+01
 0.3661282653448E+01
 0.3523377766621E+01
 0.4609166143946E+01
 0.7463857858626E+01
 0.2700510607197E+01
 0.2913075031594E+01
 0.3056413397325E+01
 0.3107423734639E+01
 0.3107485311991E+01
 0.3092369404462E+01
 0.3077181227233E+01
 0.3066588371527E+01
 0.3061742143160E+01
 0.3062630268964E+01
 0.3068894701690E+01
 0.3080151533919E+01
 0.3096103742715E+01
 0.3116574779984E+01
 0.3141510999784E+01
 0.3170971114090E+01
 0.3205109044997E+01
 0.3244148554261E+01
 0.3288345105784E+01
 0.3337915479196E+01
 0.3392904560744E+01
 0.3452991448748E+01
 0.3517361146668E+01
 0.3584857014359E+01
 0.3654395793640E+01
 0.3725121763846E+01
 0.3796033285151E+01
 0.3865501692012E+01
 0.3931016600535E+01
 0.3989162066511E+01
 0.4035689010090E+01
 0.4065425836846E+01
 0.4071619141010E+01
 0.4044301153597E+01
 0.3968717202846E+01
 0.3826354546847E+01
 0.3606652884049E+01
 0.3376330813435E+01
 0.3494750484754E+01
 0.4741693553985E+01
 0.7170510699653E+01
 0.2654105070053E+01
 0.2849271950967E+01
 0.2997283444361E+01
 0.3069892252133E+01
 0.3090509900313E+01
 0.3088613394231E+01
 0.3080819998629E+01
 0.3074039419575E+01
 0.3070810032617E+01
 0.3071926651448E+01
 0.3077501504017E+01
 0.3087417810128E+01
 0.3101524115156E+01
 0.3119713246731E+01
 0.3141949679523E+01
 0.3168271890541E+01
 0.3198780184644E+01
 0.3233610404868E+01
 0.3272889468566E+01
 0.3316656541427E+01
 0.3364734330256E+01
 0.3416578347492E+01
 0.3471218828750E+01
 0.3527429646302E+01
 0.3584083232106E+01
 0.3640266683024E+01
 0.3694932996145E+01
 0.3746437129320E+01
 0.3792262959899E+01
 0.3828978854306E+01
 0.3852292784796E+01
 0.3856968317831E+01
 0.3836372725071E+01
 0.3781604182650E+01
 0.3681530966494E+01
 0.3527799531698E+01
 0.3337111213957E+01
 0.3225956097579E+01
 0.3554415515663E+01
 0.4850913592011E+01
 0.6936943151082E+01
 0.2618190424960E+01
 0.2797965435578E+01
 0.2945262342486E+01
 0.3031872296074E+01
 0.3069185012726E+01
 0.3079833855264E+01
 0.3079882985866E+01
 0.3077548417634E+01
 0.3076511659602E+01
 0.3078315265151E+01
 0.3083537625883E+01
 0.3092342978570E+01
 0.3104741578439E+01
 0.3120709960393E+01
 0.3140242472045E+01
 0.3163366924679E+01
 0.3190138387352E+01
 0.3220613719853E+01
 0.3254804453233E+01
 0.3292597328625E+01
 0.3333640303029E+01
 0.3377233937595E+01
 0.3422320741395E+01
 0.3467649822413E+01
 0.3512075359111E+01
 0.3554643996501E+01
 0.3594278020217E+01
 0.3629349814645E+01
 0.3657417921942E+01
 0.3675178757000E+01
 0.3678529623984E+01
 0.3662568168413E+01
 0.3621477442279E+01
 0.3548519391494E+01
 0.3437848241010E+01
 0.3293269131720E+01
 0.3155765092323E+01
 0.3168953653167E+01
 0.3652780797080E+01
 0.4934764805824E+01
 0.6746487225754E+01
 0.2589765992171E+01
 0.2756181272957E+01
 0.2899949486809E+01
 0.2995115029670E+01
 0.3045397850635E+01
 0.3067272150232E+01
 0.3075100229741E+01
 0.3077552017972E+01
 0.3079115991009E+01
 0.3081970980687E+01
 0.3087128023510E+01
 0.3095028794753E+01
 0.3105851914930E+01
 0.3119666838076E+01
 0.3136507057028E+01
 0.3156398583620E+01
 0.3179360361764E+01
 0.3205381386156E+01
 0.3234374568936E+01
 0.3266102700711E+01
 0.3300084058111E+01
 0.3335520286446E+01
 0.3371315745843E+01
 0.3406228384050E+01
 0.3439120405379E+01
 0.3469026300343E+01
 0.3494871248087E+01
 0.3515094356478E+01
 0.3527412426308E+01
 0.3528787395824E+01
 0.3515529046618E+01
 0.3483439414866E+01
 0.3428099680973E+01
 0.3345744216957E+01
 0.3236732755996E+01
 0.3116854518564E+01
 0.3045219594956E+01
 0.3173410538443E+01
 0.3763308931137E+01
 0.4997479297937E+01
 0.6588799542537E+01
 0.2566844184793E+01
 0.2721719439766E+01
 0.2860592943637E+01
 0.2960514417101E+01
 0.3020519548427E+01
 0.3052019527902E+01
 0.3067189532023E+01
 0.3074508590609E+01
 0.3078921565669E+01
 0.3083097159362E+01
 0.3088422443929E+01
 0.3095598092450E+01
 0.3104968848599E+01
 0.3116701271113E+01
 0.3130874681417E+01
 0.3147521251460E+01
 0.3166633315659E+01
 0.3188144652917E+01
 0.3211888448065E+01
 0.3237532730418E+01
 0.3264506895240E+01
 0.3291959228678E+01
 0.3318794120219E+01
 0.3343806191658E+01
 0.3365892845222E+01
 0.3384111013248E+01
 0.3397432131248E+01
 0.3404418820640E+01
 0.3403029139157E+01
 0.3390618332235E+01
 0.3364109691191E+01
 0.3320321031319E+01
 0.3256665474138E+01
 0.3172831076420E+01
 0.3075538000256E+01
 0.2990904949960E+01
 0.2989268475731E+01
 0.3216181388589E+01
 0.3872892345961E+01
 0.5044188375007E+01
 0.6456888531882E+01
 0.2548061463342E+01
 0.2692950098981E+01
 0.2826372828696E+01
 0.2928446536078E+01
 0.2995493718528E+01
 0.3034979014264E+01
 0.3056818187899E+01
 0.3068876149737E+01
 0.3076242770302E+01
 0.3081917123857E+01
 0.3087590030136E+01
 0.3094191117628E+01
 0.3102221329042E+01
 0.3111943861628E+01
 0.3123488001701E+01
 0.3136898986941E+01
 0.3152152123988E+01
 0.3169139463047E+01
 0.3187634179696E+01
 0.3207237775195E+01
 0.3227326724817E+01
 0.3247033203000E+01
 0.3265292292391E+01
 0.3280959964563E+01
 0.3292996529537E+01
 0.3300518613306E+01
 0.3302590991801E+01
 0.3297958281211E+01
 0.3284898199175E+01
 0.3261272555779E+01
 0.3224785968106E+01
 0.3173507229496E+01
 0.3106953668799E+01
 0.3028424216968E+01
 0.2950535659563E+01
 0.2907326622029E+01
 0.2974004126719E+01
 0.3281301715861E+01
 0.3975719574657E+01
 0.5079321143211E+01
 0.6345746776560E+01
 0.2532454464360E+01
 0.2668657128653E+01
 0.2796519987360E+01
 0.2898988982162E+01
 0.2970939104351E+01
 0.3016866084779E+01
 0.3044579875338E+01
 0.3061094451084E+01
 0.3071397938255E+01
 0.3078666252057E+01
 0.3084814056723E+01
 0.3090961853781E+01
 0.3097750759661E+01
 0.3105536105225E+01
 0.3114498898169E+01
 0.3124703205049E+01
 0.3136116629651E+01
 0.3148603173334E+01
 0.3161895533366E+01
 0.3175554982938E+01
 0.3188936305465E+01
 0.3201186325716E+01
 0.3211296366771E+01
 0.3218206406196E+01
 0.3220967156025E+01
 0.3218792245316E+01
 0.3210886544056E+01
 0.3196232602055E+01
 0.3173497953847E+01
 0.3141145188540E+01
 0.3097787708574E+01
 0.3042898026332E+01
 0.2978213127093E+01
 0.2910521084403E+01
 0.2857459808986E+01
 0.2858357711612E+01
 0.2988089121079E+01
 0.3358198704668E+01
 0.4069741902773E+01
 0.5106312126572E+01
 0.6251636227539E+01
 0.2519325471364E+01
 0.2647924478487E+01
 0.2770358292329E+01
 0.2872056862612E+01
 0.2947240162057E+01
 0.2998229252985E+01
 0.3030985269640E+01
 0.3051572317861E+01
 0.3064699566693E+01
 0.3073584989616E+01
 0.3080287002992E+01
 0.3086074456991E+01
 0.3091708251676E+01
 0.3097628079364E+01
 0.3104066313363E+01
 0.3111110438419E+01
 0.3118729144071E+01
 0.3126771713321E+01
 0.3134948983558E+01
 0.3142805867795E+01
 0.3149702340498E+01
 0.3154825550941E+01
 0.3157244915060E+01
 0.3156005415388E+01
 0.3150274602113E+01
 0.3139398602791E+01
 0.3122766060863E+01
 0.3099647820108E+01
 0.3069160241017E+01
 0.3030438712777E+01
 0.2983089688043E+01
 0.2928061891937E+01
 0.2869289347613E+01
 0.2816717009630E+01
 0.2791908920746E+01
 0.2836973547960E+01
 0.3022621893420E+01
 0.3440105268549E+01
 0.4154749916188E+01
 0.5127712743172E+01
 0.6171675078322E+01
 0.2508158482498E+01
 0.2630055101876E+01
 0.2747312562697E+01
 0.2847484667665E+01
 0.2924618552825E+01
 0.2979477977561E+01
 0.3016462493558E+01
 0.3040680163936E+01
 0.3056446852543E+01
 0.3066912944926E+01
 0.3074206113328E+01
 0.3079699901710E+01
 0.3084251973999E+01
 0.3088376190537E+01
 0.3092354159821E+01
 0.3096300222385E+01
 0.3100192187094E+01
 0.3103877182218E+01
 0.3107061413452E+01
 0.3109294675143E+01
 0.3109965136416E+01
 0.3108321870264E+01
 0.3103531343530E+01
 0.3094762860215E+01
 0.3081325406271E+01
 0.3062729956266E+01
 0.3038587704298E+01
 0.3008500512192E+01
 0.2972079503878E+01
 0.2929181311783E+01
 0.2880447416429E+01
 0.2828303328502E+01
 0.2778746667422E+01
 0.2744408269147E+01
 0.2749613121605E+01
 0.2837061403424E+01
 0.3070815232001E+01
 0.3522823391303E+01
 0.4231360597616E+01
 0.5145390894996E+01
 0.6103581220747E+01
 0.2498565093376E+01
 0.2614513283043E+01
 0.2726902027518E+01
 0.2825074239424E+01
 0.2903186312009E+01
 0.2960910876178E+01
 0.3001363493458E+01
 0.3028746888586E+01
 0.3046920526995E+01
 0.3058884140499E+01
 0.3066769536932E+01
 0.3072012914991E+01
 0.3075544657641E+01
 0.3077941026951E+01
 0.3079529337401E+01
 0.3080453139913E+01
 0.3080706490178E+01
 0.3080145864271E+01
 0.3078488390388E+01
 0.3075307345799E+01
 0.3070038664340E+01
 0.3062011574004E+01
 0.3050506075315E+01
 0.3034833234725E+01
 0.3014465584086E+01
 0.2989107235149E+01
 0.2958624662231E+01
 0.2922984608280E+01
 0.2882324938879E+01
 0.2837248717531E+01
 0.2789435891281E+01
 0.2742729466730E+01
 0.2704976278231E+01
 0.2690946554566E+01
 0.2726597178776E+01
 0.2853456737314E+01
 0.3127612967432E+01
 0.3603831993587E+01
 0.4300493913776E+01
 0.5160717782407E+01
 0.6045504494274E+01
 0.2490248573398E+01
 0.2600883422006E+01
 0.2708728659119E+01
 0.2804621951071E+01
 0.2882983959718E+01
 0.2942740944192E+01
 0.2985973315086E+01
 0.3016060006917E+01
 0.3036379751698E+01
 0.3049723409174E+01
 0.3058173088424E+01
 0.3063189248915E+01
 0.3065751296957E+01
 0.3066485350383E+01
 0.3065759886496E+01
 0.3063749043619E+01
 0.3060469260180E+01
 0.3055796616364E+01
 0.3049472901936E+01
 0.3041110924363E+01
 0.3030210905839E+01
 0.3016197574024E+01
 0.2998478667304E+01
 0.2976522342565E+01
 0.2949983809753E+01
 0.2918783981059E+01
 0.2883070681183E+01
 0.2843200022835E+01
 0.2799854697967E+01
 0.2754387850648E+01
 0.2709488380342E+01
 0.2670311202835E+01
 0.2646285252305E+01
 0.2653748863283E+01
 0.2719269439160E+01
 0.2881897522394E+01
 0.3189318887262E+01
 0.3681675367497E+01
 0.4363101919812E+01
 0.5174714060553E+01
 0.5995909845815E+01
 0.2482979391737E+01
 0.2588840339883E+01
 0.2692464600602E+01
 0.2785933342668E+01
 0.2864007118454E+01
 0.2925116621597E+01
 0.2970520254375E+01
 0.3002867913532E+01
 0.3025060710188E+01
 0.3039643851244E+01
 0.3048607631704E+01
 0.3053403318817E+01
 0.3055037078871E+01
 0.3054172255228E+01
 0.3051213300019E+01
 0.3046365468883E+01
 0.3039672699157E+01
 0.3031039589425E+01
 0.3020244473695E+01
 0.3006953316956E+01
 0.2990744427849E+01
 0.2971150816029E+01
 0.2947719961165E+01
 0.2920090110962E+01
 0.2888114979778E+01
 0.2851951032240E+01
 0.2812046668921E+01
 0.2769162561530E+01
 0.2724531265278E+01
 0.2680240807764E+01
 0.2639933051022E+01
 0.2609936281396E+01
 0.2600965992822E+01
 0.2630371108160E+01
 0.2724459800782E+01
 0.2918933404947E+01
 0.3253274906967E+01
 0.3755562548532E+01
 0.4420024155924E+01
 0.5188144482838E+01
 0.5953476778438E+01
 0.2476578151448E+01
 0.2578127673802E+01
 0.2677840466481E+01
 0.2768830311545E+01
 0.2846224721039E+01
 0.2908138660470E+01
 0.2955185678393E+01
 0.2989383372243E+01
 0.3013176488431E+01
 0.3028845217723E+01
 0.3038257057621E+01
 0.3042826215377E+01
 0.3043565559514E+01
 0.3041163515173E+01
 0.3036055010947E+01
 0.3028476246265E+01
 0.3018502771604E+01
 0.3006075249429E+01
 0.2991018609934E+01
 0.2973063336843E+01
 0.2951877158973E+01
 0.2927111809092E+01
 0.2898464335760E+01
 0.2865753592639E+01
 0.2829044144710E+01
 0.2788741800703E+01
 0.2745608070419E+01
 0.2700814608914E+01
 0.2656137232875E+01
 0.2614368049246E+01
 0.2580026012720E+01
 0.2560453350685E+01
 0.2567347997706E+01
 0.2618553809770E+01
 0.2739423235213E+01
 0.2961814668152E+01
 0.3317599576558E+01
 0.3825119496780E+01
 0.4471918826478E+01
 0.5201554273898E+01
 0.5916930217693E+01
 0.2470903430256E+01
 0.2568542006503E+01
 0.2664635124736E+01
 0.2753153976852E+01
 0.2829591220760E+01
 0.2891873239438E+01
 0.2940112886450E+01
 0.2975787556893E+01
 0.3000917859224E+01
 0.3017513056171E+01
 0.3027296799583E+01
 0.3031624079167E+01
 0.3031497093032E+01
 0.3027618125602E+01
 0.3020447059852E+01
 0.3010250307950E+01
 0.2997138197260E+01
 0.2981093654280E+01
 0.2961996495064E+01
 0.2939650974718E+01
 0.2913823324979E+01
 0.2884292259627E+01
 0.2850912060595E+01
 0.2813690130781E+01
 0.2772910715017E+01
 0.2729237939152E+01
 0.2683752673828E+01
 0.2638036080474E+01
 0.2594390750444E+01
 0.2556269873481E+01
 0.2528979936448E+01
 0.2520707088245E+01
 0.2543834694866E+01
 0.2616246841207E+01
 0.2761820301507E+01
 0.3008379421336E+01
 0.3380978918950E+01
 0.3890254568990E+01
 0.4519235102287E+01
 0.5215410772549E+01
 0.5884250420642E+01
 0.2465842135672E+01
 0.2559921057593E+01
 0.2652668076807E+01
 0.2738767496214E+01
 0.2814058486071E+01
 0.2876367167472E+01
 0.2925421044244E+01
 0.2962241281037E+01
 0.2988462413346E+01
 0.3005826938335E+01
 0.3015902249550E+01
 0.3019967597052E+01
 0.3019000200213E+01
 0.3013706334652E+01
 0.3004565635452E+01
 0.2991873668818E+01
 0.2975777892975E+01
 0.2956308448034E+01
 0.2933406653913E+01
 0.2906957777507E+01
 0.2876833437355E+01
 0.2842945317039E+01
 0.2805310150416E+01
 0.2764128831156E+01
 0.2719910137018E+01
 0.2673580261158E+01
 0.2626539102408E+01
 0.2580767863003E+01
 0.2539069970297E+01
 0.2505506025599E+01
 0.2486070234445E+01
 0.2489618591526E+01
 0.2528940628747E+01
 0.2621579474084E+01
 0.2789585949342E+01
 0.3056797964563E+01
 0.3442331175258E+01
 0.3950838101912E+01
 0.4562464132272E+01
 0.5228400721213E+01
 0.5863164196108E+01
 0.2461306801380E+01
 0.2552135560752E+01
 0.2641791550610E+01
 0.2725551216960E+01
 0.2799573788865E+01
 0.2861645364891E+01
 0.2911199418427E+01
 0.2948875186286E+01
 0.2975961192877E+01
 0.2993944199980E+01
 0.3004229799553E+01
 0.3008009932615E+01
 0.3006225452635E+01
 0.2999578150046E+01
 0.2988562582611E+01
 0.2973502105202E+01
 0.2954582851461E+01
 0.2931885894706E+01
 0.2905419091425E+01
 0.2875154126256E+01
 0.2841072945100E+01
 0.2803224218012E+01
 0.2761790241840E+01
 0.2717167803179E+01
 0.2670091804057E+01
 0.2621750137626E+01
 0.2573856470790E+01
 0.2528777028375E+01
 0.2489784256730E+01
 0.2461487011597E+01
 0.2450464483028E+01
 0.2466074176393E+01
 0.2521261706091E+01
 0.2632926590306E+01
 0.2821089937567E+01
 0.3105800432229E+01
 0.3501114129004E+01
 0.4007036632740E+01
 0.4602284880155E+01
 0.5240073307979E+01
 0.5856025974230E+01
 0.2457224663921E+01
 0.2545079515495E+01
 0.2631880656701E+01
 0.2713397669345E+01
 0.2786079849895E+01
 0.2847713678105E+01
 0.2897510251414E+01
 0.2935791236581E+01
 0.2963538626523E+01
 0.2981998767338E+01
 0.2992415112103E+01
 0.2995884876164E+01
 0.2993303796094E+01
 0.2985362032791E+01
 0.2972564618056E+01
 0.2955261040104E+01
 0.2933676866842E+01
 0.2907946650579E+01
 0.2878148350738E+01
 0.2844343836203E+01
 0.2806628636384E+01
 0.2765190755627E+01
 0.2720379423726E+01
 0.2672787695143E+01
 0.2623375699771E+01
 0.2573589685823E+01
 0.2525448522169E+01
 0.2481685159692E+01
 0.2446006536404E+01
 0.2423509466142E+01
 0.2421258219873E+01
 0.2448956282673E+01
 0.2519490706338E+01
 0.2648890725884E+01
 0.2855057477050E+01
 0.3154536000204E+01
 0.3557106518736E+01
 0.4059290551485E+01
 0.4638873566869E+01
 0.5253157627852E+01
 0.5849424998854E+01
 0.2453538066543E+01
 0.2538668495543E+01
 0.2622835144305E+01
 0.2702219050670E+01
 0.2773528802167E+01
 0.2834577251593E+01
 0.2884408855209E+01
 0.2923082682322E+01
 0.2951311765602E+01
 0.2970120024805E+01
 0.2980592545496E+01
 0.2983728072297E+01
 0.2980371041389E+01
 0.2971194299946E+01
 0.2956709475842E+01
 0.2937290436299E+01
 0.2913202332562E+01
 0.2884634731188E+01
 0.2851737944967E+01
 0.2814666274158E+01
 0.2773630456687E+01
 0.2728958462413E+01
 0.2681165935245E+01
 0.2631040347628E+01
 0.2579763486303E+01
 0.2529033498043E+01
 0.2481162503983E+01
 0.2439228578142E+01
 0.2407335965752E+01
 0.2391008237010E+01
 0.2397698294347E+01
 0.2437313991945E+01
 0.2522505098085E+01
 0.2668273329852E+01
 0.2890402336575E+01
 0.3202265359712E+01
 0.3610091701061E+01
 0.4107763440895E+01
 0.4672885897892E+01
 0.5266917846985E+01
 0.5844311332154E+01
 0.2450200637858E+01
 0.2532834223146E+01
 0.2614572759314E+01
 0.2691941085975E+01
 0.2761877301818E+01
 0.2822236419088E+01
 0.2871939287276E+01
 0.2910828801411E+01
 0.2939383822163E+01
 0.2958425124162E+01
 0.2968886183909E+01
 0.2971666543808E+01
 0.2967555438634E+01
 0.2957204109665E+01
 0.2941127504441E+01
 0.2919722083426E+01
 0.2893292203128E+01
 0.2862083065904E+01
 0.2826318386169E+01
 0.2786245748389E+01
 0.2742191215012E+01
 0.2694621747396E+01
 0.2644217117428E+01
 0.2591955327486E+01
 0.2539233892561E+01
 0.2487993788549E+01
 0.2440825779721E+01
 0.2401129153849E+01
 0.2373366975873E+01
 0.2363429298871E+01
 0.2379067096539E+01
 0.2430267667705E+01
 0.2529301350794E+01
 0.2690046892691E+01
 0.2926239960323E+01
 0.3248434985208E+01
 0.3659935986300E+01
 0.4152687377937E+01
 0.4704637856197E+01
 0.5280870831456E+01
 0.5840831600547E+01
 0.2447175054541E+01
 0.2527521451792E+01
 0.2607026043613E+01
 0.2682501280009E+01
 0.2751086886118E+01
 0.2810688691323E+01
 0.2860136931083E+01
 0.2899097191766E+01
 0.2927845749765E+01
 0.2947019817349E+01
 0.2957410082043E+01
 0.2959818553160E+01
 0.2954977333967E+01
 0.2943513049151E+01
 0.2925941288506E+01
 0.2902679337062E+01
 0.2874069925838E+01
 0.2840413694342E+01
 0.2802007714600E+01
 0.2759192433423E+01
 0.2712407964166E+01
 0.2662257798300E+01
 0.2609581921293E+01
 0.2555543147100E+01
 0.2501746759479E+01
 0.2450365363970E+01
 0.2404251766465E+01
 0.2367101131820E+01
 0.2343696694959E+01
 0.2340237132174E+01
 0.2364688684565E+01
 0.2427011516566E+01
 0.2538989895975E+01
 0.2713336202747E+01
 0.2961854597114E+01
 0.3292628903071E+01
 0.3706576878281E+01
 0.4194267290512E+01
 0.4734269747350E+01
 0.5294715817877E+01
 0.5838886471617E+01
 0.2444431287680E+01
 0.2522685479823E+01
 0.2600139732845E+01
 0.2673847303393E+01
 0.2741123970878E+01
 0.2799930122607E+01
 0.2849030494554E+01
 0.2887945688512E+01
 0.2916777672295E+01
 0.2935999298133E+01
 0.2946268606235E+01
 0.2948293595952E+01
 0.2942748966323E+01
 0.2930234860058E+01
 0.2911265403099E+01
 0.2886276985198E+01
 0.2855649493879E+01
 0.2819738075114E+01
 0.2778912127192E+01
 0.2733603377313E+01
 0.2684363443926E+01
 0.2631928522895E+01
 0.2577293421188E+01
 0.2521798433106E+01
 0.2467246942086E+01
 0.2416030303344E+01
 0.2371245362967E+01
 0.2336857147166E+01
 0.2317931183568E+01
 0.2320920499068E+01
 0.2353932891812E+01
 0.2426813878725E+01
 0.2550787960253E+01
 0.2737400077592E+01
 0.2996668680195E+01
 0.3334536866720E+01
 0.3749994685660E+01
 0.4232661727432E+01
 0.4761849827549E+01
 0.5308246656183E+01
 0.5838288392994E+01
 0.2441945214813E+01
 0.2518290167542E+01
 0.2593868625936E+01
 0.2665935545129E+01
 0.2731959626917E+01
 0.2789956222514E+01
 0.2838643539348E+01
 0.2877423944789E+01
 0.2906250145953E+01
 0.2925449013040E+01
 0.2935556827731E+01
 0.2937192485649E+01
 0.2930974367712E+01
 0.2917475266412E+01
 0.2897206263808E+01
 0.2870621201157E+01
 0.2838135573499E+01
 0.2800157452410E+01
 0.2757126643174E+01
 0.2709563521151E+01
 0.2658127507612E+01
 0.2603682438936E+01
 0.2547371230269E+01
 0.2490702929769E+01
 0.2435667946361E+01
 0.2384862229399E+01
 0.2341607773722E+01
 0.2310113390177E+01
 0.2295690539526E+01
 0.2304996803564E+01
 0.2346217782626E+01
 0.2429015781279E+01
 0.2564011330777E+01
 0.2761613775882E+01
 0.3030217367700E+01
 0.3373928487867E+01
 0.3790191928267E+01
 0.4267991815808E+01
 0.4787414776831E+01
 0.5321312304087E+01
 0.5838822071123E+01
 0.2439697505752E+01
 0.2514306343746E+01
 0.2588175830647E+01
 0.2658729828870E+01
 0.2723569225651E+01
 0.2780762532548E+01
 0.2828995632458E+01
 0.2867574715624E+01
 0.2896325250676E+01
 0.2915445414696E+01
 0.2925360934435E+01
 0.2926607497320E+01
 0.2919749338307E+01
 0.2905331878759E+01
 0.2883862046787E+01
 0.2855809555305E+01
 0.2821623674616E+01
 0.2781763246036E+01
 0.2736735768307E+01
 0.2687146687687E+01
 0.2633758483122E+01
 0.2577556456591E+01
 0.2519823754007E+01
 0.2462228266020E+01
 0.2406935227540E+01
 0.2356730105000E+01
 0.2315140686509E+01
 0.2286593925420E+01
 0.2276612947972E+01
 0.2292015206730E+01
 0.2341010733551E+01
 0.2433028221478E+01
 0.2578065577332E+01
 0.2785452843812E+01
 0.3062127340795E+01
 0.3410632744450E+01
 0.3827182483573E+01
 0.4300351724662E+01
 0.4810987263928E+01
 0.5333793815772E+01
 0.5840265976773E+01
 0.2437672724643E+01
 0.2510710519764E+01
 0.2583031319311E+01
 0.2652200292622E+01
 0.2715932026566E+01
 0.2772344973616E+01
 0.2820103213783E+01
 0.2858434903739E+01
 0.2887057536656E+01
 0.2906056663201E+01
 0.2915758659931E+01
 0.2916622570784E+01
 0.2909161502151E+01
 0.2893894186997E+01
 0.2871322698021E+01
 0.2841931112021E+01
 0.2806200399190E+01
 0.2764637508333E+01
 0.2717814211627E+01
 0.2666416604334E+01
 0.2611304545563E+01
 0.2553577642186E+01
 0.2494650382342E+01
 0.2436338599726E+01
 0.2380969279428E+01
 0.2331501706209E+01
 0.2291649985698E+01
 0.2266034388191E+01
 0.2260357948586E+01
 0.2281558817980E+01
 0.2337828519638E+01
 0.2438328621148E+01
 0.2592437210766E+01
 0.2808478591670E+01
 0.3092099114086E+01
 0.3444522579087E+01
 0.3860985843955E+01
 0.4329816556308E+01
 0.4832582810149E+01
 0.5345590874752E+01
 0.5842403378073E+01
 0.2435858601353E+01
 0.2507483845315E+01
 0.2578410735329E+01
 0.2646322414988E+01
 0.2709030741008E+01
 0.2764700025087E+01
 0.2811980233286E+01
 0.2850036393966E+01
 0.2878494823643E+01
 0.2897343252289E+01
 0.2906819694950E+01
 0.2907313532998E+01
 0.2899290400397E+01
 0.2883243595606E+01
 0.2859669980783E+01
 0.2829066554117E+01
 0.2791943700972E+01
 0.2748853371397E+01
 0.2700427566602E+01
 0.2647427859858E+01
 0.2590804987234E+01
 0.2531764835357E+01
 0.2471843480313E+01
 0.2412992990774E+01
 0.2357688365813E+01
 0.2309046634608E+01
 0.2270948891927E+01
 0.2248184996091E+01
 0.2246608923979E+01
 0.2273246052680E+01
 0.2336236609591E+01
 0.2444456793654E+01
 0.2606685205579E+01
 0.2830325388886E+01
 0.3119892704345E+01
 0.3475503717704E+01
 0.3891624129838E+01
 0.4356447635104E+01
 0.4852212269514E+01
 0.5356614568760E+01
 0.5845028461968E+01
 0.2434245435391E+01
 0.2504611256630E+01
 0.2574294405321E+01
 0.2641076175544E+01
 0.2702851102092E+01
 0.2757824792090E+01
 0.2804638616501E+01
 0.2842406720002E+01
 0.2870678877415E+01
 0.2889358569842E+01
 0.2898606083371E+01
 0.2898748340277E+01
 0.2890207624891E+01
 0.2873453508069E+01
 0.2848977572771E+01
 0.2817288351413E+01
 0.2778923179020E+01
 0.2734475513403E+01
 0.2684632992586E+01
 0.2630226838185E+01
 0.2572291436194E+01
 0.2512130178907E+01
 0.2451390245277E+01
 0.2392147581676E+01
 0.2337010986324E+01
 0.2289238979205E+01
 0.2252860661154E+01
 0.2232813034577E+01
 0.2235074993910E+01
 0.2266731365697E+01
 0.2335847906406E+01
 0.2451010677106E+01
 0.2620433049990E+01
 0.2850689638070E+01
 0.3145316046120E+01
 0.3503506413803E+01
 0.3919120287125E+01
 0.4380295742221E+01
 0.4869882660153E+01
 0.5366783911694E+01
 0.5847949887619E+01
 0.2432825610123E+01
 0.2502080781153E+01
 0.2570666523281E+01
 0.2636445337117E+01
 0.2697381458731E+01
 0.2751716999713E+01
 0.2798088599738E+01
 0.2835569593379E+01
 0.2863645976732E+01
 0.2882149391674E+01
 0.2891172592152E+01
 0.2890987324835E+01
 0.2881976974392E+01
 0.2864589441772E+01
 0.2839311193397E+01
 0.2806660952759E+01
 0.2767200382780E+01
 0.2721560620032E+01
 0.2670479870624E+01
 0.2614852601415E+01
 0.2555788993834E+01
 0.2494680530969E+01
 0.2433274401510E+01
 0.2373757561277E+01
 0.2318858062609E+01
 0.2271959631355E+01
 0.2237220872270E+01
 0.2219704879107E+01
 0.2225492418262E+01
 0.2261705512578E+01
 0.2336321143643E+01
 0.2457642086394E+01
 0.2633361521375E+01
 0.2869320404701E+01
 0.3168215760910E+01
 0.3528479351162E+01
 0.3943496920004E+01
 0.4401403135513E+01
 0.4885597640047E+01
 0.5376024504665E+01
 0.5850993020595E+01
 0.2431593193230E+01
 0.2499882967903E+01
 0.2567514475115E+01
 0.2632416833605E+01
 0.2692612400264E+01
 0.2746374938040E+01
 0.2792338963413E+01
 0.2829545316169E+01
 0.2857427380266E+01
 0.2875756306546E+01
 0.2884567045012E+01
 0.2884083430723E+01
 0.2874654616250E+01
 0.2856709155065E+01
 0.2830728741939E+01
 0.2797240981054E+01
 0.2756829106712E+01
 0.2710157817070E+01
 0.2658010407492E+01
 0.2601337693594E+01
 0.2541317260773E+01
 0.2479418727311E+01
 0.2417477700243E+01
 0.2357778882880E+01
 0.2303154823831E+01
 0.2257098244789E+01
 0.2223879314007E+01
 0.2208667588308E+01
 0.2217625571723E+01
 0.2257895436075E+01
 0.2337359072895E+01
 0.2464052630443E+01
 0.2645202253824E+01
 0.2886011557917E+01
 0.3188469843689E+01
 0.3550385100901E+01
 0.3964775484584E+01
 0.4419804895929E+01
 0.4899358029814E+01
 0.5384268347706E+01
 0.5854001254673E+01
 0.2430543610699E+01
 0.2498010422943E+01
 0.2564828283522E+01
 0.2628980254970E+01
 0.2688536421820E+01
 0.2741797383612E+01
 0.2787397195254E+01
 0.2824351106222E+01
 0.2852049714415E+01
 0.2870214085085E+01
 0.2878830626594E+01
 0.2878082443050E+01
 0.2868289257048E+01
 0.2849862791347E+01
 0.2823280453929E+01
 0.2789077441847E+01
 0.2747855688870E+01
 0.2700309092957E+01
 0.2647260211662E+01
 0.2589708894412E+01
 0.2528891286385E+01
 0.2466344736145E+01
 0.2403981275932E+01
 0.2344169797904E+01
 0.2289832465134E+01
 0.2244554928962E+01
 0.2212701575090E+01
 0.2199530187507E+01
 0.2211267623957E+01
 0.2255063925209E+01
 0.2338706594621E+01
 0.2469989914058E+01
 0.2655732100678E+01
 0.2900595213377E+01
 0.3205981829757E+01
 0.3569196636862E+01
 0.3982975646288E+01
 0.4435529853836E+01
 0.4911162420435E+01
 0.5391454180192E+01
 0.5856836811990E+01
 0.2429673381826E+01
 0.2496457432103E+01
 0.2562600153959E+01
 0.2626127417079E+01
 0.2685147630393E+01
 0.2737983508080E+01
 0.2783269598278E+01
 0.2820001346781E+01
 0.2847535286497E+01
 0.2865551988813E+01
 0.2873998146234E+01
 0.2873023194382E+01
 0.2862922302469E+01
 0.2844093017641E+01
 0.2817009050578E+01
 0.2782211917456E+01
 0.2740319282088E+01
 0.2692049676259E+01
 0.2638258802193E+01
 0.2579987879806E+01
 0.2518522395353E+01
 0.2455456656381E+01
 0.2392766809331E+01
 0.2332892158447E+01
 0.2278829539394E+01
 0.2234241647744E+01
 0.2203570326239E+01
 0.2192144653143E+01
 0.2206240963877E+01
 0.2253009119605E+01
 0.2340148935840E+01
 0.2475244127072E+01
 0.2664768328004E+01
 0.2912936384034E+01
 0.3220676230304E+01
 0.3584894722046E+01
 0.3998114843078E+01
 0.4448601350634E+01
 0.4921007889212E+01
 0.5397528057219E+01
 0.5859381223531E+01
 0.2428979905078E+01
 0.2495219657423E+01
 0.2560824107320E+01
 0.2623852007994E+01
 0.2682441493751E+01
 0.2734932786142E+01
 0.2779961360956E+01
 0.2816507777747E+01
 0.2843902336677E+01
 0.2861794027549E+01
 0.2870098265359E+01
 0.2868937749760E+01
 0.2858588006860E+01
 0.2839435158425E+01
 0.2811949883210E+01
 0.2776678750305E+01
 0.2734252103611E+01
 0.2685408376368E+01
 0.2631030061652E+01
 0.2572191803784E+01
 0.2510218909275E+01
 0.2446751581860E+01
 0.2383817525548E+01
 0.2323912523934E+01
 0.2270093125736E+01
 0.2226083376068E+01
 0.2196386355979E+01
 0.2186386668935E+01
 0.2202397447414E+01
 0.2251563944544E+01
 0.2341509953025E+01
 0.2479645055926E+01
 0.2672164575681E+01
 0.2922928641207E+01
 0.3232494942042E+01
 0.3597465900572E+01
 0.4010207950659E+01
 0.4459037850756E+01
 0.4928890706255E+01
 0.5402443959431E+01
 0.5861535576283E+01
 0.2428461289810E+01
 0.2494293898024E+01
 0.2559495689412E+01
 0.2622149304393E+01
 0.2680414633093E+01
 0.2732644910842E+01
 0.2777476601494E+01
 0.2813879640056E+01
 0.2841165236551E+01
 0.2858959168373E+01
 0.2867153687275E+01
 0.2865851565750E+01
 0.2855313605746E+01
 0.2835917316710E+01
 0.2808131063908E+01
 0.2772505206215E+01
 0.2729679653546E+01
 0.2680407877519E+01
 0.2625592623030E+01
 0.2566333791594E+01
 0.2503986754272E+01
 0.2440226324337E+01
 0.2377119023122E+01
 0.2317203073062E+01
 0.2263579783302E+01
 0.2220019032345E+01
 0.2191069389271E+01
 0.2182156196203E+01
 0.2199618527010E+01
 0.2250595550746E+01
 0.2342650639249E+01
 0.2483059572084E+01
 0.2677807575366E+01
 0.2930490691353E+01
 0.3241394489927E+01
 0.3606900996170E+01
 0.4019267060438E+01
 0.4466853466280E+01
 0.4934807003497E+01
 0.5406164355858E+01
 0.5863220674513E+01
 0.2428116226461E+01
 0.2493677906640E+01
 0.2558611747185E+01
 0.2621015950757E+01
 0.2679064657478E+01
 0.2731119719837E+01
 0.2775818393148E+01
 0.2812123780291E+01
 0.2839334639179E+01
 0.2857061497503E+01
 0.2865181307322E+01
 0.2863783618877E+01
 0.2853119424873E+01
 0.2833560474829E+01
 0.2805573574184E+01
 0.2769711608930E+01
 0.2726620892950E+01
 0.2677064976532E+01
 0.2621960180694E+01
 0.2562423334142E+01
 0.2499829944707E+01
 0.2435877986292E+01
 0.2372659927252E+01
 0.2312742317506E+01
 0.2259256291414E+01
 0.2216002193683E+01
 0.2187558703011E+01
 0.2179377880852E+01
 0.2197815295287E+01
 0.2250004799853E+01
 0.2343467873861E+01
 0.2485389607522E+01
 0.2681614578387E+01
 0.2935563757619E+01
 0.3247343963550E+01
 0.3613194013386E+01
 0.4025301338898E+01
 0.4472058391356E+01
 0.4938753349614E+01
 0.5408660679072E+01
 0.5864377092879E+01
 0.2427943892806E+01
 0.2493370256901E+01
 0.2558170266552E+01
 0.2620449798102E+01
 0.2678390040988E+01
 0.2730357138075E+01
 0.2774988778972E+01
 0.2811244724522E+01
 0.2838417588243E+01
 0.2856110340460E+01
 0.2864192326517E+01
 0.2862746504895E+01
 0.2852018966325E+01
 0.2832378575295E+01
 0.2804291352349E+01
 0.2768311447328E+01
 0.2725088384088E+01
 0.2675390768093E+01
 0.2620141730770E+01
 0.2560466590955E+01
 0.2497750952746E+01
 0.2433704396308E+01
 0.2370432383703E+01
 0.2310515638496E+01
 0.2257100202440E+01
 0.2214001625675E+01
 0.2185813575809E+01
 0.2178001340280E+01
 0.2196928492010E+01
 0.2249725847405E+01
 0.2343893457857E+01
 0.2486570630761E+01
 0.2683531456847E+01
 0.2938109678939E+01
 0.3250323540021E+01
 0.3616341360152E+01
 0.4028316935177E+01
 0.4474659231096E+01
 0.4940727198184E+01
 0.5409913682430E+01
 0.5864965207777E+01
 0.2427943892818E+01
 0.2493370256915E+01
 0.2558170266570E+01
 0.2620449798124E+01
 0.2678390041015E+01
 0.2730357138108E+01
 0.2774988779012E+01
 0.2811244724567E+01
 0.2838417588295E+01
 0.2856110340518E+01
 0.2864192326583E+01
 0.2862746504968E+01
 0.2852018966408E+01
 0.2832378575389E+01
 0.2804291352457E+01
 0.2768311447452E+01
 0.2725088384229E+01
 0.2675390768255E+01
 0.2620141730952E+01
 0.2560466591160E+01
 0.2497750952972E+01
 0.2433704396554E+01
 0.2370432383965E+01
 0.2310515638767E+01
 0.2257100202713E+01
 0.2214001625937E+01
 0.2185813576046E+01
 0.2178001340474E+01
 0.2196928492139E+01
 0.2249725847447E+01
 0.2343893457793E+01
 0.2486570630576E+01
 0.2683531456538E+01
 0.2938109678517E+01
 0.3250323539515E+01
 0.3616341359608E+01
 0.4028316934649E+01
 0.4474659230640E+01
 0.4940727197844E+01
 0.5409913682230E+01
 0.5864965207711E+01
 0.2428116226499E+01
 0.2493677906684E+01
 0.2558611747238E+01
 0.2621015950824E+01
 0.2679064657560E+01
 0.2731119719937E+01
 0.2775818393266E+01
 0.2812123780427E+01
 0.2839334639334E+01
 0.2857061497678E+01
 0.2865181307519E+01
 0.2863783619098E+01
 0.2853119425122E+01
 0.2833560475112E+01
 0.2805573574507E+01
 0.2769711609300E+01
 0.2726620893374E+01
 0.2677064977015E+01
 0.2621960181241E+01
 0.2562423334756E+01
 0.2499829945386E+01
 0.2435877987030E+01
 0.2372659928039E+01
 0.2312742318322E+01
 0.2259256292235E+01
 0.2216002194472E+01
 0.2187558703725E+01
 0.2179377881436E+01
 0.2197815295678E+01
 0.2250004799985E+01
 0.2343467873673E+01
 0.2485389606971E+01
 0.2681614577462E+01
 0.2935563756356E+01
 0.3247343962035E+01
 0.3613194011754E+01
 0.4025301337314E+01
 0.4472058389985E+01
 0.4938753348595E+01
 0.5408660678476E+01
 0.5864377092687E+01
 0.2428461289874E+01
 0.2494293898097E+01
 0.2559495689500E+01
 0.2622149304504E+01
 0.2680414633229E+01
 0.2732644911009E+01
 0.2777476601691E+01
 0.2813879640283E+01
 0.2841165236810E+01
 0.2858959168664E+01
 0.2867153687602E+01
 0.2865851566117E+01
 0.2855313606160E+01
 0.2835917317180E+01
 0.2808131064445E+01
 0.2772505206830E+01
 0.2729679654250E+01
 0.2680407878323E+01
 0.2625592623941E+01
 0.2566333792617E+01
 0.2503986755403E+01
 0.2440226325568E+01
 0.2377119024434E+01
 0.2317203074425E+01
 0.2263579784673E+01
 0.2220019033667E+01
 0.2191069390470E+01
 0.2182156197188E+01
 0.2199618527676E+01
 0.2250595550983E+01
 0.2342650638954E+01
 0.2483059571182E+01
 0.2677807573839E+01
 0.2930490689259E+01
 0.3241394487409E+01
 0.3606900993451E+01
 0.4019267057795E+01
 0.4466853463994E+01
 0.4934807001799E+01
 0.5406164354871E+01
 0.5863220674206E+01
 0.2428979905167E+01
 0.2495219657524E+01
 0.2560824107444E+01
 0.2623852008149E+01
 0.2682441493943E+01
 0.2734932786375E+01
 0.2779961361231E+01
 0.2816507778065E+01
 0.2843902337039E+01
 0.2861794027955E+01
 0.2870098265814E+01
 0.2868937750271E+01
 0.2858588007437E+01
 0.2839435159080E+01
 0.2811949883958E+01
 0.2776678751162E+01
 0.2734252104594E+01
 0.2685408377490E+01
 0.2631030062924E+01
 0.2572191805213E+01
 0.2510218910858E+01
 0.2446751583584E+01
 0.2383817527388E+01
 0.2323912525849E+01
 0.2270093127666E+01
 0.2226083377933E+01
 0.2196386357676E+01
 0.2186386670337E+01
 0.2202397448377E+01
 0.2251563944909E+01
 0.2341509952648E+01
 0.2479645054700E+01
 0.2672164573575E+01
 0.2922928638297E+01
 0.3232494938527E+01
 0.3597465896767E+01
 0.4010207946952E+01
 0.4459037847549E+01
 0.4928890703878E+01
 0.5402443958062E+01
 0.5861535575881E+01
 0.2429673381940E+01
 0.2496457432234E+01
 0.2562600154118E+01
 0.2626127417278E+01
 0.2685147630640E+01
 0.2737983508379E+01
 0.2783269598631E+01
 0.2820001347189E+01
 0.2847535286960E+01
 0.2865551989333E+01
 0.2873998146816E+01
 0.2873023195034E+01
 0.2862922303205E+01
 0.2844093018478E+01
 0.2817009051534E+01
 0.2782211918551E+01
 0.2740319283344E+01
 0.2692049677695E+01
 0.2638258803823E+01
 0.2579987881639E+01
 0.2518522397386E+01
 0.2455456658599E+01
 0.2392766811702E+01
 0.2332892160919E+01
 0.2278829541891E+01
 0.2234241650166E+01
 0.2203570328453E+01
 0.2192144654989E+01
 0.2206240965166E+01
 0.2253009120135E+01
 0.2340148935420E+01
 0.2475244125559E+01
 0.2664768325351E+01
 0.2912936380333E+01
 0.3220676225806E+01
 0.3584894717156E+01
 0.3998114838303E+01
 0.4448601346499E+01
 0.4921007886156E+01
 0.5397528055479E+01
 0.5859381223062E+01
 0.2430543610839E+01
 0.2498010423103E+01
 0.2564828283718E+01
 0.2628980255214E+01
 0.2688536422121E+01
 0.2741797383977E+01
 0.2787397195686E+01
 0.2824351106719E+01
 0.2852049714978E+01
 0.2870214085717E+01
 0.2878830627300E+01
 0.2878082443841E+01
 0.2868289257940E+01
 0.2849862792361E+01
 0.2823280455087E+01
 0.2789077443176E+01
 0.2747855690396E+01
 0.2700309094703E+01
 0.2647260213647E+01
 0.2589708896646E+01
 0.2528891288866E+01
 0.2466344738857E+01
 0.2403981278836E+01
 0.2344169800940E+01
 0.2289832468211E+01
 0.2244554931958E+01
 0.2212701577846E+01
 0.2199530189827E+01
 0.2211267625611E+01
 0.2255063925948E+01
 0.2338706594205E+01
 0.2469989912305E+01
 0.2655732097520E+01
 0.2900595208915E+01
 0.3205981824294E+01
 0.3569196630890E+01
 0.3982975640436E+01
 0.4435529848765E+01
 0.4911162416698E+01
 0.5391454178098E+01
 0.5856836811489E+01
 0.2431593193395E+01
 0.2499882968093E+01
 0.2567514475346E+01
 0.2632416833894E+01
 0.2692612400621E+01
 0.2746374938472E+01
 0.2792338963922E+01
 0.2829545316755E+01
 0.2857427380928E+01
 0.2875756307286E+01
 0.2884567045839E+01
 0.2884083431649E+01
 0.2874654617293E+01
 0.2856709156250E+01
 0.2830728743295E+01
 0.2797240982611E+01
 0.2756829108501E+01
 0.2710157819120E+01
 0.2658010409826E+01
 0.2601337696225E+01
 0.2541317263700E+01
 0.2479418730517E+01
 0.2417477703685E+01
 0.2357778886489E+01
 0.2303154827502E+01
 0.2257098248380E+01
 0.2223879317333E+01
 0.2208667591140E+01
 0.2217625573789E+01
 0.2257895437077E+01
 0.2337359072544E+01
 0.2464052628511E+01
 0.2645202250215E+01
 0.2886011552735E+01
 0.3188469837281E+01
 0.3550385093851E+01
 0.3964775477648E+01
 0.4419804889910E+01
 0.4899358025395E+01
 0.5384268345276E+01
 0.5854001254184E+01
 0.2432825610314E+01
 0.2502080781372E+01
 0.2570666523548E+01
 0.2636445337451E+01
 0.2697381459144E+01
 0.2751717000212E+01
 0.2798088600324E+01
 0.2835569594051E+01
 0.2863645977490E+01
 0.2882149392521E+01
 0.2891172593095E+01
 0.2890987325889E+01
 0.2881976975580E+01
 0.2864589443122E+01
 0.2839311194943E+01
 0.2806660954536E+01
 0.2767200384825E+01
 0.2721560622379E+01
 0.2670479873300E+01
 0.2614852604438E+01
 0.2555788997205E+01
 0.2494680534669E+01
 0.2433274405494E+01
 0.2373757565467E+01
 0.2318858066889E+01
 0.2271959635565E+01
 0.2237220876200E+01
 0.2219704882495E+01
 0.2225492420795E+01
 0.2261705513909E+01
 0.2336321143429E+01
 0.2457642084356E+01
 0.2633361517381E+01
 0.2869320398850E+01
 0.3168215753587E+01
 0.3528479343040E+01
 0.3943496911973E+01
 0.4401403128531E+01
 0.4885597634942E+01
 0.5376024501919E+01
 0.5850993020171E+01
 0.2434245435607E+01
 0.2504611256879E+01
 0.2574294405624E+01
 0.2641076175923E+01
 0.2702851102561E+01
 0.2757824792655E+01
 0.2804638617163E+01
 0.2842406720760E+01
 0.2870678878268E+01
 0.2889358570791E+01
 0.2898606084426E+01
 0.2898748341456E+01
 0.2890207626218E+01
 0.2873453509577E+01
 0.2848977574499E+01
 0.2817288353401E+01
 0.2778923181313E+01
 0.2734475516038E+01
 0.2684632995597E+01
 0.2630226841594E+01
 0.2572291440005E+01
 0.2512130183101E+01
 0.2451390249807E+01
 0.2392147586458E+01
 0.2337010991232E+01
 0.2289238984061E+01
 0.2252860665727E+01
 0.2232813038571E+01
 0.2235074996974E+01
 0.2266731367434E+01
 0.2335847906415E+01
 0.2451010675051E+01
 0.2620433045692E+01
 0.2850689631614E+01
 0.3145316037920E+01
 0.3503506404620E+01
 0.3919120277988E+01
 0.4380295734259E+01
 0.4869882654356E+01
 0.5366783908656E+01
 0.5847949887319E+01
 0.2435858601596E+01
 0.2507483845593E+01
 0.2578410735669E+01
 0.2646322415412E+01
 0.2709030741533E+01
 0.2764700025719E+01
 0.2811980234025E+01
 0.2850036394808E+01
 0.2878494824587E+01
 0.2897343253336E+01
 0.2906819696113E+01
 0.2907313534294E+01
 0.2899290401855E+01
 0.2883243597264E+01
 0.2859669982684E+01
 0.2829066556308E+01
 0.2791943703502E+01
 0.2748853374311E+01
 0.2700427569939E+01
 0.2647427863645E+01
 0.2590804991479E+01
 0.2531764840044E+01
 0.2471843485392E+01
 0.2412992996158E+01
 0.2357688371367E+01
 0.2309046640140E+01
 0.2270948897183E+01
 0.2248185000748E+01
 0.2246608927646E+01
 0.2273246054908E+01
 0.2336236609920E+01
 0.2444456791684E+01
 0.2606685201075E+01
 0.2830325381901E+01
 0.3119892695315E+01
 0.3475503707474E+01
 0.3891624119583E+01
 0.4356447626141E+01
 0.4852212263017E+01
 0.5356614565454E+01
 0.5845028461862E+01
 0.2437672724912E+01
 0.2510710520072E+01
 0.2583031319689E+01
 0.2652200293094E+01
 0.2715932027148E+01
 0.2772344974315E+01
 0.2820103214597E+01
 0.2858434904664E+01
 0.2887057537688E+01
 0.2906056664343E+01
 0.2915758661194E+01
 0.2916622572190E+01
 0.2909161503732E+01
 0.2893894188795E+01
 0.2871322700084E+01
 0.2841931114403E+01
 0.2806200401946E+01
 0.2764637511515E+01
 0.2717814215280E+01
 0.2666416608490E+01
 0.2611304550236E+01
 0.2553577647362E+01
 0.2494650387973E+01
 0.2436338605723E+01
 0.2380969285647E+01
 0.2331501712447E+01
 0.2291649991684E+01
 0.2266034393573E+01
 0.2260357952934E+01
 0.2281558820797E+01
 0.2337828520400E+01
 0.2438328619381E+01
 0.2592437206168E+01
 0.2808478584249E+01
 0.3092099104286E+01
 0.3444522567831E+01
 0.3860985832571E+01
 0.4329816546318E+01
 0.4832582802939E+01
 0.5345590871203E+01
 0.5842403378237E+01
 0.2439697506047E+01
 0.2514306344085E+01
 0.2588175831062E+01
 0.2658729829389E+01
 0.2723569226291E+01
 0.2780762533314E+01
 0.2828995633347E+01
 0.2867574716630E+01
 0.2896325251793E+01
 0.2915445415926E+01
 0.2925360935793E+01
 0.2926607498828E+01
 0.2919749340001E+01
 0.2905331880687E+01
 0.2883862049001E+01
 0.2855809557866E+01
 0.2821623677585E+01
 0.2781763249473E+01
 0.2736735772264E+01
 0.2687146692203E+01
 0.2633758488215E+01
 0.2577556462253E+01
 0.2519823760192E+01
 0.2462228272637E+01
 0.2406935234444E+01
 0.2356730111977E+01
 0.2315140693272E+01
 0.2286593931593E+01
 0.2276612953090E+01
 0.2292015210245E+01
 0.2341010734872E+01
 0.2433028220052E+01
 0.2578065572774E+01
 0.2785452836069E+01
 0.3062127330301E+01
 0.3410632732198E+01
 0.3827182471050E+01
 0.4300351713616E+01
 0.4810987255989E+01
 0.5333793812006E+01
 0.5840265977292E+01
 0.2441945215134E+01
 0.2518290167911E+01
 0.2593868626390E+01
 0.2665935545696E+01
 0.2731959627615E+01
 0.2789956223348E+01
 0.2838643540311E+01
 0.2877423945872E+01
 0.2906250147151E+01
 0.2925449014354E+01
 0.2935556829175E+01
 0.2937192487250E+01
 0.2930974369509E+01
 0.2917475268457E+01
 0.2897206266161E+01
 0.2870621203883E+01
 0.2838135576668E+01
 0.2800157456087E+01
 0.2757126647421E+01
 0.2709563526013E+01
 0.2658127513115E+01
 0.2603682445078E+01
 0.2547371237008E+01
 0.2490702937016E+01
 0.2435667953969E+01
 0.2384862237149E+01
 0.2341607781313E+01
 0.2310113397212E+01
 0.2295690545506E+01
 0.2304996807894E+01
 0.2346217784646E+01
 0.2429015780348E+01
 0.2564011326415E+01
 0.2761613767953E+01
 0.3030217356606E+01
 0.3373928474658E+01
 0.3790191914596E+01
 0.4267991803673E+01
 0.4787414768141E+01
 0.5321312300129E+01
 0.5838822072092E+01
 0.2444431288027E+01
 0.2522685480223E+01
 0.2600139733337E+01
 0.2673847304009E+01
 0.2741123971636E+01
 0.2799930123508E+01
 0.2849030495591E+01
 0.2887945689671E+01
 0.2916777673569E+01
 0.2935999299523E+01
 0.2946268607757E+01
 0.2948293597635E+01
 0.2942748968211E+01
 0.2930234862208E+01
 0.2911265405576E+01
 0.2886276988075E+01
 0.2855649497231E+01
 0.2819738079016E+01
 0.2778912131714E+01
 0.2733603382508E+01
 0.2684363449828E+01
 0.2631928529509E+01
 0.2577293428479E+01
 0.2521798440991E+01
 0.2467246950416E+01
 0.2416030311899E+01
 0.2371245371437E+01
 0.2336857155137E+01
 0.2317931190511E+01
 0.2320920504341E+01
 0.2353932894686E+01
 0.2426813878465E+01
 0.2550787956267E+01
 0.2737400069638E+01
 0.2996668668619E+01
 0.3334536852612E+01
 0.3749994670837E+01
 0.4232661714171E+01
 0.4761849818080E+01
 0.5308246652055E+01
 0.5838288394514E+01
 0.2447175054914E+01
 0.2527521452224E+01
 0.2607026044146E+01
 0.2682501280676E+01
 0.2751086886937E+01
 0.2810688692293E+01
 0.2860136932191E+01
 0.2899097192997E+01
 0.2927845751109E+01
 0.2947019818808E+01
 0.2957410083634E+01
 0.2959818554915E+01
 0.2954977335935E+01
 0.2943513051392E+01
 0.2925941291092E+01
 0.2902679340073E+01
 0.2874069929357E+01
 0.2840413698452E+01
 0.2802007719378E+01
 0.2759192438934E+01
 0.2712407970452E+01
 0.2662257805376E+01
 0.2609581929132E+01
 0.2555543155626E+01
 0.2501746768548E+01
 0.2450365373362E+01
 0.2404251775866E+01
 0.2367101140803E+01
 0.2343696702971E+01
 0.2340237138527E+01
 0.2364688688463E+01
 0.2427011517174E+01
 0.2538989892573E+01
 0.2713336194962E+01
 0.2961854585203E+01
 0.3292628888136E+01
 0.3706576862307E+01
 0.4194267276083E+01
 0.4734269737068E+01
 0.5294715813602E+01
 0.5838886473797E+01
 0.2450200638259E+01
 0.2532834223609E+01
 0.2614572759889E+01
 0.2691941086695E+01
 0.2761877302700E+01
 0.2822236420127E+01
 0.2871939288455E+01
 0.2910828802711E+01
 0.2939383823573E+01
 0.2958425125682E+01
 0.2968886185559E+01
 0.2971666545624E+01
 0.2967555440667E+01
 0.2957204111982E+01
 0.2941127507120E+01
 0.2919722086554E+01
 0.2893292206795E+01
 0.2862083070202E+01
 0.2826318391185E+01
 0.2786245754197E+01
 0.2742191221666E+01
 0.2694621754921E+01
 0.2644217125809E+01
 0.2591955336655E+01
 0.2539233902383E+01
 0.2487993798809E+01
 0.2440825790105E+01
 0.2401129163923E+01
 0.2373366985062E+01
 0.2363429306450E+01
 0.2379067101645E+01
 0.2430267669400E+01
 0.2529301348214E+01
 0.2690046885303E+01
 0.2926239948257E+01
 0.3248434969548E+01
 0.3659935969187E+01
 0.4152687362295E+01
 0.4704637845060E+01
 0.5280870827054E+01
 0.5840831603504E+01
 0.2453538066970E+01
 0.2538668496040E+01
 0.2622835144922E+01
 0.2702219051445E+01
 0.2773528803113E+01
 0.2834577252701E+01
 0.2884408856457E+01
 0.2923082683687E+01
 0.2951311767069E+01
 0.2970120026377E+01
 0.2980592547194E+01
 0.2983728074159E+01
 0.2980371043473E+01
 0.2971194302323E+01
 0.2956709478597E+01
 0.2937290439524E+01
 0.2913202336357E+01
 0.2884634735653E+01
 0.2851737950198E+01
 0.2814666280242E+01
 0.2773630463689E+01
 0.2728958470372E+01
 0.2681165944157E+01
 0.2631040357438E+01
 0.2579763496888E+01
 0.2529033509198E+01
 0.2481162515399E+01
 0.2439228589383E+01
 0.2407335976231E+01
 0.2391008245969E+01
 0.2397698300859E+01
 0.2437313994966E+01
 0.2522505096598E+01
 0.2668273323133E+01
 0.2890402324578E+01
 0.3202265343460E+01
 0.3610091682833E+01
 0.4107763423990E+01
 0.4672885885853E+01
 0.5266917842479E+01
 0.5844311336009E+01
 0.2457224664375E+01
 0.2545079516026E+01
 0.2631880657363E+01
 0.2713397670178E+01
 0.2786079850908E+01
 0.2847713679283E+01
 0.2897510252729E+01
 0.2935791238006E+01
 0.2963538628041E+01
 0.2981998768952E+01
 0.2992415113837E+01
 0.2995884878060E+01
 0.2993303798214E+01
 0.2985362035211E+01
 0.2972564620867E+01
 0.2955261043407E+01
 0.2933676870742E+01
 0.2907946655188E+01
 0.2878148356162E+01
 0.2844343842539E+01
 0.2806628643712E+01
 0.2765190763998E+01
 0.2720379433154E+01
 0.2672787705588E+01
 0.2623375711125E+01
 0.2573589697895E+01
 0.2525448534663E+01
 0.2481685172176E+01
 0.2446006548287E+01
 0.2423509476639E+01
 0.2421258228002E+01
 0.2448956287285E+01
 0.2519490706249E+01
 0.2648890720149E+01
 0.2855057465397E+01
 0.3154535983535E+01
 0.3557106499439E+01
 0.4059290533261E+01
 0.4638873553870E+01
 0.5253157623276E+01
 0.5849425003737E+01
 0.2461306801862E+01
 0.2552135561317E+01
 0.2641791551319E+01
 0.2725551217852E+01
 0.2799573789946E+01
 0.2861645366139E+01
 0.2911199419807E+01
 0.2948875187765E+01
 0.2975961194437E+01
 0.2993944201626E+01
 0.3004229801310E+01
 0.3008009934530E+01
 0.3006225454774E+01
 0.2999578152492E+01
 0.2988562585459E+01
 0.2973502108560E+01
 0.2954582855445E+01
 0.2931885899433E+01
 0.2905419097014E+01
 0.2875154132817E+01
 0.2841072952727E+01
 0.2803224226773E+01
 0.2761790251766E+01
 0.2717167814247E+01
 0.2670091816181E+01
 0.2621750150634E+01
 0.2573856484402E+01
 0.2528777042175E+01
 0.2489784270129E+01
 0.2461487023795E+01
 0.2450464492994E+01
 0.2466074182880E+01
 0.2521261707742E+01
 0.2632926585925E+01
 0.2821089926597E+01
 0.3105800415373E+01
 0.3501114108714E+01
 0.4007036613138E+01
 0.4602284866118E+01
 0.5240073303391E+01
 0.5856025980281E+01
 0.2465842136181E+01
 0.2559921058195E+01
 0.2652668077567E+01
 0.2738767497170E+01
 0.2814058487224E+01
 0.2876367168791E+01
 0.2925421045685E+01
 0.2962241282564E+01
 0.2988462414940E+01
 0.3005826940000E+01
 0.3015902251316E+01
 0.3019967598969E+01
 0.3019000202354E+01
 0.3013706337104E+01
 0.3004565638317E+01
 0.2991873672209E+01
 0.2975777897016E+01
 0.2956308452853E+01
 0.2933406659639E+01
 0.2906957784263E+01
 0.2876833445252E+01
 0.2842945326162E+01
 0.2805310160815E+01
 0.2764128842832E+01
 0.2719910149906E+01
 0.2673580275112E+01
 0.2626539117173E+01
 0.2580767878186E+01
 0.2539069985321E+01
 0.2505506039662E+01
 0.2486070246479E+01
 0.2489618600193E+01
 0.2528940632518E+01
 0.2621579471484E+01
 0.2789585939466E+01
 0.3056797947823E+01
 0.3442331154090E+01
 0.3950838080876E+01
 0.4562464117074E+01
 0.5228400716686E+01
 0.5863164203616E+01
 0.2470903430790E+01
 0.2568542007139E+01
 0.2664635125541E+01
 0.2753153977862E+01
 0.2829591221969E+01
 0.2891873240806E+01
 0.2940112887926E+01
 0.2975787558436E+01
 0.3000917860814E+01
 0.3017513057816E+01
 0.3027296801314E+01
 0.3031624081039E+01
 0.3031497095120E+01
 0.3027618127995E+01
 0.3020447062656E+01
 0.3010250311281E+01
 0.2997138201245E+01
 0.2981093659054E+01
 0.2961996500763E+01
 0.2939650981477E+01
 0.2913823332920E+01
 0.2884292268853E+01
 0.2850912071176E+01
 0.2813690142742E+01
 0.2772910728322E+01
 0.2729237953686E+01
 0.2683752689375E+01
 0.2638036096679E+01
 0.2594390766769E+01
 0.2556269889153E+01
 0.2528979950408E+01
 0.2520707099113E+01
 0.2543834700985E+01
 0.2616246840853E+01
 0.2761820293392E+01
 0.3008379405472E+01
 0.3380978897592E+01
 0.3890254546996E+01
 0.4519235086175E+01
 0.5215410768102E+01
 0.5884250429856E+01
 0.2476578152010E+01
 0.2578127674474E+01
 0.2677840467329E+01
 0.2768830312603E+01
 0.2846224722291E+01
 0.2908138661867E+01
 0.2955185679877E+01
 0.2989383373770E+01
 0.3013176489984E+01
 0.3028845219310E+01
 0.3038257059277E+01
 0.3042826217159E+01
 0.3043565561496E+01
 0.3041163517446E+01
 0.3036055013615E+01
 0.3028476249444E+01
 0.3018502775422E+01
 0.3006075254021E+01
 0.2991018615440E+01
 0.2973063343405E+01
 0.2951877166722E+01
 0.2927111818146E+01
 0.2898464346208E+01
 0.2865753604529E+01
 0.2829044158040E+01
 0.2788741815397E+01
 0.2745608086309E+01
 0.2700814625701E+01
 0.2656137250085E+01
 0.2614368066169E+01
 0.2580026028350E+01
 0.2560453363661E+01
 0.2567348006312E+01
 0.2618553812085E+01
 0.2739423229569E+01
 0.2961814654057E+01
 0.3317599555890E+01
 0.3825119474499E+01
 0.4471918809816E+01
 0.5201554269624E+01
 0.5916930228235E+01
 0.2482979392328E+01
 0.2588840340591E+01
 0.2692464601495E+01
 0.2785933343775E+01
 0.2864007119747E+01
 0.2925116623017E+01
 0.2970520255859E+01
 0.3002867915035E+01
 0.3025060711693E+01
 0.3039643852764E+01
 0.3048607633276E+01
 0.3053403320499E+01
 0.3055037080738E+01
 0.3054172257368E+01
 0.3051213302536E+01
 0.3046365471892E+01
 0.3039672702783E+01
 0.3031039593805E+01
 0.3020244478971E+01
 0.3006953323274E+01
 0.2990744435352E+01
 0.2971150824846E+01
 0.2947719971404E+01
 0.2920090122696E+01
 0.2888114993035E+01
 0.2851951046988E+01
 0.2812046685040E+01
 0.2769162578784E+01
 0.2724531283264E+01
 0.2680240825851E+01
 0.2639933068276E+01
 0.2609936296505E+01
 0.2600966004047E+01
 0.2630371113417E+01
 0.2724459798025E+01
 0.2918933393101E+01
 0.3253274887378E+01
 0.3755562526122E+01
 0.4420024138660E+01
 0.5188144478609E+01
 0.5953476790365E+01
 0.2490248574018E+01
 0.2600883422753E+01
 0.2708728660060E+01
 0.2804621952228E+01
 0.2882983961051E+01
 0.2942740945631E+01
 0.2985973316562E+01
 0.3016060008386E+01
 0.3036379753147E+01
 0.3049723410618E+01
 0.3058173089904E+01
 0.3063189250490E+01
 0.3065751298700E+01
 0.3066485352382E+01
 0.3065759888850E+01
 0.3063749046441E+01
 0.3060469263595E+01
 0.3055796620506E+01
 0.3049472906949E+01
 0.3041110930397E+01
 0.3030210913043E+01
 0.3016197582540E+01
 0.2998478677258E+01
 0.2976522354054E+01
 0.2949983822837E+01
 0.2918783995744E+01
 0.2883070697405E+01
 0.2843200040422E+01
 0.2799854716595E+01
 0.2754387869776E+01
 0.2709488399131E+01
 0.2670311220049E+01
 0.2646285266230E+01
 0.2653748871717E+01
 0.2719269439703E+01
 0.2881897513329E+01
 0.3189318869220E+01
 0.3681675345172E+01
 0.4363101901881E+01
 0.5174714056238E+01
 0.5995909859199E+01
 0.2498565094027E+01
 0.2614513283830E+01
 0.2726902028510E+01
 0.2825074240631E+01
 0.2903186313378E+01
 0.2960910877628E+01
 0.3001363494917E+01
 0.3028746890011E+01
 0.3046920528378E+01
 0.3058884141860E+01
 0.3066769538314E+01
 0.3072012916453E+01
 0.3075544659255E+01
 0.3077941028802E+01
 0.3079529339585E+01
 0.3080453142539E+01
 0.3080706493366E+01
 0.3080145868153E+01
 0.3078488395108E+01
 0.3075307351509E+01
 0.3070038671197E+01
 0.3062011582159E+01
 0.3050506084910E+01
 0.3034833245880E+01
 0.3014465596890E+01
 0.2989107249651E+01
 0.2958624678418E+01
 0.2922984626049E+01
 0.2882324957990E+01
 0.2837248737542E+01
 0.2789435911466E+01
 0.2742729485965E+01
 0.2704976294869E+01
 0.2690946566357E+01
 0.2726597183012E+01
 0.2853456731604E+01
 0.3127612951504E+01
 0.3603831971641E+01
 0.4300493895126E+01
 0.5160717777872E+01
 0.6045504509181E+01
 0.2508158483181E+01
 0.2630055102705E+01
 0.2747312563741E+01
 0.2847484668922E+01
 0.2924618554227E+01
 0.2979477979015E+01
 0.3016462494991E+01
 0.3040680165309E+01
 0.3056446853855E+01
 0.3066912946200E+01
 0.3074206114609E+01
 0.3079699903056E+01
 0.3084251975481E+01
 0.3088376192236E+01
 0.3092354161830E+01
 0.3096300224805E+01
 0.3100192190043E+01
 0.3103877185822E+01
 0.3107061417855E+01
 0.3109294680497E+01
 0.3109965142881E+01
 0.3108321878002E+01
 0.3103531352695E+01
 0.3094762870948E+01
 0.3081325418691E+01
 0.3062729970459E+01
 0.3038587720305E+01
 0.3008500529975E+01
 0.2972079523285E+01
 0.2929181332480E+01
 0.2880447437820E+01
 0.2828303349603E+01
 0.2778746686709E+01
 0.2744408284394E+01
 0.2749613129880E+01
 0.2837061401673E+01
 0.3070815218865E+01
 0.3522823370143E+01
 0.4231360578228E+01
 0.5145390890088E+01
 0.6103581237229E+01
 0.2519325472079E+01
 0.2647924479361E+01
 0.2770358293428E+01
 0.2872056863920E+01
 0.2947240163487E+01
 0.2998229254435E+01
 0.3030985271037E+01
 0.3051572319175E+01
 0.3064699567927E+01
 0.3073584990800E+01
 0.3080287004170E+01
 0.3086074458222E+01
 0.3091708253027E+01
 0.3097628080912E+01
 0.3104066315195E+01
 0.3111110440631E+01
 0.3118729146773E+01
 0.3126771716636E+01
 0.3134948987624E+01
 0.3142805872763E+01
 0.3149702346531E+01
 0.3154825558209E+01
 0.3157244923727E+01
 0.3156005425614E+01
 0.3150274614042E+01
 0.3139398616546E+01
 0.3122766076534E+01
 0.3099647837724E+01
 0.3069160260512E+01
 0.3030438733929E+01
 0.2983089710397E+01
 0.2928061914680E+01
 0.2869289369393E+01
 0.2816717028331E+01
 0.2791908933325E+01
 0.2836973550768E+01
 0.3022621883869E+01
 0.3440105248736E+01
 0.4154749896104E+01
 0.5127712737706E+01
 0.6171675096420E+01
 0.2532454465109E+01
 0.2668657129575E+01
 0.2796519988517E+01
 0.2898988983519E+01
 0.2970939105801E+01
 0.3016866086214E+01
 0.3044579876691E+01
 0.3061094452331E+01
 0.3071397939409E+01
 0.3078666253149E+01
 0.3084814057802E+01
 0.3090961854901E+01
 0.3097750760886E+01
 0.3105536106626E+01
 0.3114498899826E+01
 0.3124703207053E+01
 0.3136116632104E+01
 0.3148603176351E+01
 0.3161895537081E+01
 0.3175554987499E+01
 0.3188936311035E+01
 0.3201186332468E+01
 0.3211296374880E+01
 0.3218206415835E+01
 0.3220967167362E+01
 0.3218792258507E+01
 0.3210886559235E+01
 0.3196232619314E+01
 0.3173497973202E+01
 0.3141145209883E+01
 0.3097787731599E+01
 0.3042898050414E+01
 0.2978213151105E+01
 0.2910521106430E+01
 0.2857459826014E+01
 0.2858357719536E+01
 0.2988089116018E+01
 0.3358198686972E+01
 0.4069741882133E+01
 0.5106312120325E+01
 0.6251636247283E+01
 0.2548061464126E+01
 0.2692950099956E+01
 0.2826372829914E+01
 0.2928446537480E+01
 0.2995493719990E+01
 0.3034979015673E+01
 0.3056818189197E+01
 0.3068876150912E+01
 0.3076242771373E+01
 0.3081917124861E+01
 0.3087590031119E+01
 0.3094191118643E+01
 0.3102221330148E+01
 0.3111943862890E+01
 0.3123488003191E+01
 0.3136898988743E+01
 0.3152152126194E+01
 0.3169139465766E+01
 0.3187634183053E+01
 0.3207237779333E+01
 0.3227326729897E+01
 0.3247033209196E+01
 0.3265292299886E+01
 0.3280959973543E+01
 0.3292996540186E+01
 0.3300518625808E+01
 0.3302591006330E+01
 0.3297958297915E+01
 0.3284898218147E+01
 0.3261272577020E+01
 0.3224785991457E+01
 0.3173507254539E+01
 0.3106953694668E+01
 0.3028424242041E+01
 0.2950535681018E+01
 0.2907326635517E+01
 0.2974004127129E+01
 0.3281301701308E+01
 0.3975719553758E+01
 0.5079321135915E+01
 0.6345746797971E+01
 0.2566844185615E+01
 0.2721719440796E+01
 0.2860592944918E+01
 0.2960514418545E+01
 0.3020519549888E+01
 0.3052019529273E+01
 0.3067189533259E+01
 0.3074508591710E+01
 0.3078921566661E+01
 0.3083097160284E+01
 0.3088422444825E+01
 0.3095598093371E+01
 0.3104968849597E+01
 0.3116701272246E+01
 0.3130874682751E+01
 0.3147521253068E+01
 0.3166633317626E+01
 0.3188144655342E+01
 0.3211888451064E+01
 0.3237532734125E+01
 0.3264506899812E+01
 0.3291959234289E+01
 0.3318794127055E+01
 0.3343806199912E+01
 0.3365892855094E+01
 0.3384111024943E+01
 0.3397432144974E+01
 0.3404418836591E+01
 0.3403029157496E+01
 0.3390618353058E+01
 0.3364109714485E+01
 0.3320321056870E+01
 0.3256665501372E+01
 0.3172831104085E+01
 0.3075538025898E+01
 0.2990904969270E+01
 0.2989268482601E+01
 0.3216181378510E+01
 0.3872892325363E+01
 0.5044188366366E+01
 0.6456888554978E+01
 0.2589765993034E+01
 0.2756181274047E+01
 0.2899949488153E+01
 0.2995115031145E+01
 0.3045397852082E+01
 0.3067272151553E+01
 0.3075100230907E+01
 0.3077552018999E+01
 0.3079115991927E+01
 0.3081970981536E+01
 0.3087128024331E+01
 0.3095028795592E+01
 0.3105851915834E+01
 0.3119666839095E+01
 0.3136507058220E+01
 0.3156398585050E+01
 0.3179360363506E+01
 0.3205381388297E+01
 0.3234374571583E+01
 0.3266102703988E+01
 0.3300084062168E+01
 0.3335520291453E+01
 0.3371315751985E+01
 0.3406228391526E+01
 0.3439120414398E+01
 0.3469026311126E+01
 0.3494871260866E+01
 0.3515094371484E+01
 0.3527412443760E+01
 0.3528787415902E+01
 0.3515529069437E+01
 0.3483439440410E+01
 0.3428099708965E+01
 0.3345744246573E+01
 0.3236732785314E+01
 0.3116854543662E+01
 0.3045219609154E+01
 0.3173410534478E+01
 0.3763308911803E+01
 0.4997479287652E+01
 0.6588799567339E+01
 0.2618190425865E+01
 0.2797965436733E+01
 0.2945262343891E+01
 0.3031872297569E+01
 0.3069185014142E+01
 0.3079833856523E+01
 0.3079882986962E+01
 0.3077548418591E+01
 0.3076511660456E+01
 0.3078315265940E+01
 0.3083537626645E+01
 0.3092342979344E+01
 0.3104741579266E+01
 0.3120709961316E+01
 0.3140242473113E+01
 0.3163366925948E+01
 0.3190138388885E+01
 0.3220613721728E+01
 0.3254804455543E+01
 0.3292597331483E+01
 0.3333640306573E+01
 0.3377233941989E+01
 0.3422320746821E+01
 0.3467649829071E+01
 0.3512075367213E+01
 0.3554644006279E+01
 0.3594278031918E+01
 0.3629349828525E+01
 0.3657417938260E+01
 0.3675178776002E+01
 0.3678529645891E+01
 0.3662568193385E+01
 0.3621477470321E+01
 0.3548519422230E+01
 0.3437848273179E+01
 0.3293269162157E+01
 0.3155765114419E+01
 0.3168953657195E+01
 0.3652780780585E+01
 0.4934764793676E+01
 0.6746487252302E+01
 0.2654105071005E+01
 0.2849271952193E+01
 0.2997283445823E+01
 0.3069892253629E+01
 0.3090509901680E+01
 0.3088613395421E+01
 0.3080819999656E+01
 0.3074039420473E+01
 0.3070810033420E+01
 0.3071926652194E+01
 0.3077501504737E+01
 0.3087417810857E+01
 0.3101524115927E+01
 0.3119713247580E+01
 0.3141949680491E+01
 0.3168271891673E+01
 0.3198780185994E+01
 0.3233610406501E+01
 0.3272889470561E+01
 0.3316656543885E+01
 0.3364734333302E+01
 0.3416578351278E+01
 0.3471218833453E+01
 0.3527429652117E+01
 0.3584083239247E+01
 0.3640266691724E+01
 0.3694933006657E+01
 0.3746437141912E+01
 0.3792262974853E+01
 0.3828978871913E+01
 0.3852292805354E+01
 0.3856968341639E+01
 0.3836372752381E+01
 0.3781604213508E+01
 0.3681531000356E+01
 0.3527799566486E+01
 0.3337111243958E+01
 0.3225956111494E+01
 0.3554415504442E+01
 0.4850913578036E+01
 0.6936943179463E+01
 0.2700510608200E+01
 0.2913075032894E+01
 0.3056413398833E+01
 0.3107423736113E+01
 0.3107485313293E+01
 0.3092369405580E+01
 0.3077181228199E+01
 0.3066588372380E+01
 0.3061742143932E+01
 0.3062630269686E+01
 0.3068894702391E+01
 0.3080151534625E+01
 0.3096103743454E+01
 0.3116574780783E+01
 0.3141511000676E+01
 0.3170971115112E+01
 0.3205109046192E+01
 0.3244148555682E+01
 0.3288345107496E+01
 0.3337915481285E+01
 0.3392904563319E+01
 0.3452991451947E+01
 0.3517361150656E+01
 0.3584857019327E+01
 0.3654395799795E+01
 0.3725121771416E+01
 0.3796033294385E+01
 0.3865501703177E+01
 0.3931016613919E+01
 0.3989162082424E+01
 0.4035689028878E+01
 0.4065425858901E+01
 0.4071619166767E+01
 0.4044301183458E+01
 0.3968717236938E+01
 0.3826354584357E+01
 0.3606652921075E+01
 0.3376330838698E+01
 0.3494750482278E+01
 0.4741693538841E+01
 0.7170510730067E+01
 0.2762132325978E+01
 0.2993347723519E+01
 0.3122067696231E+01
 0.3141373945532E+01
 0.3117700249144E+01
 0.3089806836969E+01
 0.3068272743854E+01
 0.3054805273671E+01
 0.3049083801920E+01
 0.3050288369560E+01
 0.3057622361968E+01
 0.3070466995172E+01
 0.3088405192761E+01
 0.3111210266386E+01
 0.3138824394797E+01
 0.3171336548910E+01
 0.3208961634147E+01
 0.3252017580936E+01
 0.3300896537151E+01
 0.3356011295179E+01
 0.3417674410434E+01
 0.3485870746772E+01
 0.3560033637072E+01
 0.3639142230043E+01
 0.3722186389820E+01
 0.3808364701687E+01
 0.3896702211792E+01
 0.3985593762114E+01
 0.4072609038990E+01
 0.4154498172162E+01
 0.4227285504925E+01
 0.4286250944292E+01
 0.4325255855963E+01
 0.4334592054084E+01
 0.4298079845121E+01
 0.4191278647079E+01
 0.3980180372771E+01
 0.3661282690362E+01
 0.3523377777206E+01
 0.4609166129618E+01
 0.7463857891554E+01
 0.2846804719803E+01
 0.3095152035348E+01
 0.3191305498677E+01
 0.3166742561116E+01
 0.3118428236399E+01
 0.3079727415099E+01
 0.3053482492366E+01
 0.3038375657260E+01
 0.3032671019423E+01
 0.3034808452547E+01
 0.3043624755806E+01
 0.3058314837492E+01
 0.3078376053018E+01
 0.3103555000801E+01
 0.3133805398125E+01
 0.3169256663449E+01
 0.3210190807915E+01
 0.3257023210938E+01
 0.3310284881852E+01
 0.3370592259382E+01
 0.3438561090744E+01
 0.3514574779292E+01
 0.3598447637450E+01
 0.3689402660262E+01
 0.3786542421895E+01
 0.3889084020679E+01
 0.3996004059895E+01
 0.4105685984833E+01
 0.4215846174695E+01
 0.4323565632406E+01
 0.4425366453741E+01
 0.4517313546820E+01
 0.4594539162608E+01
 0.4649025214296E+01
 0.4665746869573E+01
 0.4619540418455E+01
 0.4466223993614E+01
 0.4128524592309E+01
 0.3725642845988E+01
 0.4477449629284E+01
 0.7847483108167E+01
 0.2968386858329E+01
 0.3223937727895E+01
 0.3255957430790E+01
 0.3176395137818E+01
 0.3107232684902E+01
 0.3061149053818E+01
 0.3032323573312E+01
 0.3017095401972E+01
 0.3012412098694E+01
 0.3016151150843E+01
 0.3026881564936E+01
 0.3043676276182E+01
 0.3065988798608E+01
 0.3093565599178E+01
 0.3126388859622E+01
 0.3164638469255E+01
 0.3208668285646E+01
 0.3258991366960E+01
 0.3316273705033E+01
 0.3381329303115E+01
 0.3455090111254E+01
 0.3538428618966E+01
 0.3631726479828E+01
 0.3734639673705E+01
 0.3846453025314E+01
 0.3966308921791E+01
 0.4092965586491E+01
 0.4224698717260E+01
 0.4359430119966E+01
 0.4494767372690E+01
 0.4627964131584E+01
 0.4756107872153E+01
 0.4876063430075E+01
 0.4982683528252E+01
 0.5065217730951E+01
 0.5102313428488E+01
 0.5057627661909E+01
 0.4819486264214E+01
 0.4235261335693E+01
 0.4434854231399E+01
 0.8387745557410E+01
 0.3153588550884E+01
 0.3381285037569E+01
 0.3297138251264E+01
 0.3162731730178E+01
 0.3082811867343E+01
 0.3033233402496E+01
 0.3004540772967E+01
 0.2990887025993E+01
 0.2988299909924E+01
 0.2994336636540E+01
 0.3007415111471E+01
 0.3026565343164E+01
 0.3051242380922E+01
 0.3081221430622E+01
 0.3116530427508E+01
 0.3157409291793E+01
 0.3204287038751E+01
 0.3257771733731E+01
 0.3318654925253E+01
 0.3387928962539E+01
 0.3466818384895E+01
 0.3556738899361E+01
 0.3658886414910E+01
 0.3773699208615E+01
 0.3900789038811E+01
 0.4039021341192E+01
 0.4186606414002E+01
 0.4341534586526E+01
 0.4501988077450E+01
 0.4666344204577E+01
 0.4832889573760E+01
 0.4999851521386E+01
 0.5165949590645E+01
 0.5329511455880E+01
 0.5486862825183E+01
 0.5626884142127E+01
 0.5726729722919E+01
 0.5732783846363E+01
 0.5235334413253E+01
 0.4731566615913E+01
 0.9265248566737E+01
 0.3460600822677E+01
 0.3544005942019E+01
 0.3279269467441E+01
 0.3124829926604E+01
 0.3044001459748E+01
 0.2995563706258E+01
 0.2970170634577E+01
 0.2959801553279E+01
 0.2960427401511E+01
 0.2969446480621E+01
 0.2985293327235E+01
 0.3007030164624E+01
 0.3034163426097E+01
 0.3066525693439E+01
 0.3104207751088E+01
 0.3147518251298E+01
 0.3196963291176E+01
 0.3253240871872E+01
 0.3317253773484E+01
 0.3390144263070E+01
 0.3473367854773E+01
 0.3568832214031E+01
 0.3678810208404E+01
 0.3805200123536E+01
 0.3948272750119E+01
 0.4106176904617E+01
 0.4275981031613E+01
 0.4455123889078E+01
 0.4642111866581E+01
 0.4836392366968E+01
 0.5037720635631E+01
 0.5245646244392E+01
 0.5460057456767E+01
 0.5682948525584E+01
 0.5918248119308E+01
 0.6174931233665E+01
 0.6442608033244E+01
 0.6761496982933E+01
 0.6885020202436E+01
 0.5928241700075E+01
 0.1111304248288E+02
 0.4043345024631E+01
 0.3549957422998E+01
 0.3191700599277E+01
 0.3066726725281E+01
 0.2988871657885E+01
 0.2948887194463E+01
 0.2929338314488E+01
 0.2924097460805E+01
 0.2928973109743E+01
 0.2941630416119E+01
 0.2960629459470E+01
 0.2985153945372E+01
 0.3014806782949E+01
 0.3049506146916E+01
 0.3089421363330E+01
 0.3134937384477E+01
 0.3186638106160E+01
 0.3245304473447E+01
 0.3311933166906E+01
 0.3387780496001E+01
 0.3474456980864E+01
 0.3574155299887E+01
 0.3690214869044E+01
 0.3827387157577E+01
 0.3987445969195E+01
 0.4166740179076E+01
 0.4360236253244E+01
 0.4564481821582E+01
 0.4778409607126E+01
 0.5002895942198E+01
 0.5239747824683E+01
 0.5490481744207E+01
 0.5754808220303E+01
 0.6035429655176E+01
 0.6348275125776E+01
 0.6715154624168E+01
 0.7187311550851E+01
 0.7745869035220E+01
 0.8921693610125E+01
 0.8874166986481E+01
 0.1702654780098E+02
 0.7472351776049E+00
 0.1024377343327E+01
 0.1296849736696E+01
 0.1553660278189E+01
 0.1789530005735E+01
 0.2001628731744E+01
 0.2188743966631E+01
 0.2351217280204E+01
 0.2490442617496E+01
 0.2608269151424E+01
 0.2706683688025E+01
 0.2787658648581E+01
 0.2852980048167E+01
 0.2904084991357E+01
 0.2942036874342E+01
 0.2967566072224E+01
 0.2980531185836E+01
 0.2980987196261E+01
 0.2971701158196E+01
 0.2957808167287E+01
 0.7316305338761E+00
 0.1016182444898E+01
 0.1293907069469E+01
 0.1555944319691E+01
 0.1797240889939E+01
 0.2015277140902E+01
 0.2209046776798E+01
 0.2378722423164E+01
 0.2525422626291E+01
 0.2650800783641E+01
 0.2756716156155E+01
 0.2845074211405E+01
 0.2917661024400E+01
 0.2976004840898E+01
 0.3021345287501E+01
 0.3054502560616E+01
 0.3075280679000E+01
 0.3083755242806E+01
 0.3078871674270E+01
 0.3057063801176E+01
 0.7163060489568E+00
 0.1009470092006E+01
 0.1293091563040E+01
 0.1560340832367E+01
 0.1806932765696E+01
 0.2030623075724E+01
 0.2230539314806E+01
 0.2406832619762E+01
 0.2560471743704E+01
 0.2692949952773E+01
 0.2806017716755E+01
 0.2901517489899E+01
 0.2981223959229E+01
 0.3046704074801E+01
 0.3099219287018E+01
 0.3139501634334E+01
 0.3167366506129E+01
 0.3182087119288E+01
 0.3181698497226E+01
 0.3165245357276E+01
 0.7017618277007E+00
 0.1003765655882E+01
 0.1293821205148E+01
 0.1566426706287E+01
 0.1818180104180E+01
 0.2047228999572E+01
 0.2252869416226E+01
 0.2435285733446E+01
 0.2595374991740E+01
 0.2734521345103E+01
 0.2854383894671E+01
 0.2956742504780E+01
 0.3043337984832E+01
 0.3115715552306E+01
 0.3175076747225E+01
 0.3222053981141E+01
 0.3256355700584E+01
 0.3277103319183E+01
 0.3283230307195E+01
 0.3275179405378E+01
 0.6880717086852E+00
 0.9990117182115E+00
 0.1295724813993E+01
 0.1573786420893E+01
 0.1830583788599E+01
 0.2064716809140E+01
 0.2275702394238E+01
 0.2463803168351E+01
 0.2629894518082E+01
 0.2775291714246E+01
 0.2901580607224E+01
 0.3010476601963E+01
 0.3103665179171E+01
 0.3182632791845E+01
 0.3248501457363E+01
 0.3301816061319E+01
 0.3342336539050E+01
 0.3369513492393E+01
 0.3383087921530E+01
 0.3384313315970E+01
 0.6752618391866E+00
 0.9951044149051E+00
 0.1298548485150E+01
 0.1582068377380E+01
 0.1843779038728E+01
 0.2082738653743E+01
 0.2298721304968E+01
 0.2492104373592E+01
 0.2663778537480E+01
 0.2815020198558E+01
 0.2947357004738E+01
 0.3062439753468E+01
 0.3161886695253E+01
 0.3247113948751E+01
 0.3319173224272E+01
 0.3378591568458E+01
 0.3425312057120E+01
 0.3459179607953E+01
 0.3480540302756E+01
 0.3491110980270E+01
 0.6633354500189E+00
 0.9919419878022E+00
 0.1302072482639E+01
 0.1590976084468E+01
 0.1857439366839E+01
 0.2100972928372E+01
 0.2321624796678E+01
 0.2519912746258E+01
 0.2696770198752E+01
 0.2853457438143E+01
 0.2991456594259E+01
 0.3112357102422E+01
 0.3217708899783E+01
 0.3308862707218E+01
 0.3386829157480E+01
 0.3452178595295E+01
 0.3505073022284E+01
 0.3545711866688E+01
 0.3574859242150E+01
 0.3594493756185E+01
 0.6522883198462E+00
 0.9894242336216E+00
 0.1306102417602E+01
 0.1600248826077E+01
 0.1871272837048E+01
 0.2119123266339E+01
 0.2344127681917E+01
 0.2546959459531E+01
 0.2728614226959E+01
 0.2890353527211E+01
 0.3033625415087E+01
 0.3159964742675E+01
 0.3270859841627E+01
 0.3367610589382E+01
 0.3451215976360E+01
 0.3522321732217E+01
 0.3581300708751E+01
 0.3628638211872E+01
 0.3665376940470E+01
 0.3693613712543E+01
 0.6421137171220E+00
 0.9874566404801E+00
 0.1310463123595E+01
 0.1609654135777E+01
 0.1885016195374E+01
 0.2136917289083E+01
 0.2365962012102E+01
 0.2572986718794E+01
 0.2759062040766E+01
 0.2925463996675E+01
 0.3073617235630E+01
 0.3205011261291E+01
 0.3321083893885E+01
 0.3423100797124E+01
 0.3512070526823E+01
 0.3588725778630E+01
 0.3653623776486E+01
 0.3707468900332E+01
 0.3751477271924E+01
 0.3787753620370E+01
 0.6328047538695E+00
 0.9859517629649E+00
 0.1314996357051E+01
 0.1618983071531E+01
 0.1898431249695E+01
 0.2154105116271E+01
 0.2386877927377E+01
 0.2597750342150E+01
 0.2787875550871E+01
 0.2958553890830E+01
 0.3111196405336E+01
 0.3247257540688E+01
 0.3368136887324E+01
 0.3475080483159E+01
 0.3569119392037E+01
 0.3651072574667E+01
 0.3721650561762E+01
 0.3781718995305E+01
 0.3832588209698E+01
 0.3876288483730E+01
 0.6243552868631E+00
 0.9848298807212E+00
 0.1319559351367E+01
 0.1628047562695E+01
 0.1911302491447E+01
 0.2170458406862E+01
 0.2406644309096E+01
 0.2621021803495E+01
 0.2814830020887E+01
 0.2989400615177E+01
 0.3146139634202E+01
 0.3286476511887E+01
 0.3411784043553E+01
 0.3523299930880E+01
 0.3622084281770E+01
 0.3709035321253E+01
 0.3784986950410E+01
 0.3850919048141E+01
 0.3908178361767E+01
 0.3958665666703E+01
 0.6167602535254E+00
 0.9840191808276E+00
 0.1324023915164E+01
 0.1636678775886E+01
 0.1923435638082E+01
 0.2185769762612E+01
 0.2425049314460E+01
 0.2642589751530E+01
 0.2839716140233E+01
 0.3017795933650E+01
 0.3178237284442E+01
 0.3322453519504E+01
 0.3451800275272E+01
 0.3567514916134E+01
 0.3670688729365E+01
 0.3762289403898E+01
 0.3843247686443E+01
 0.3914620968029E+01
 0.3977753288720E+01
 0.4034382438902E+01
 0.6100156762674E+00
 0.9834557063748E+00
 0.1328275786049E+01
 0.1644726084524E+01
 0.1934656736523E+01
 0.2199852416972E+01
 0.2441900844229E+01
 0.2662261182006E+01
 0.2862341601412E+01
 0.3043547552174E+01
 0.3207294678006E+01
 0.3354987499598E+01
 0.3487972043327E+01
 0.3607490527106E+01
 0.3714664700688E+01
 0.3810521077458E+01
 0.3896064707093E+01
 0.3972402639246E+01
 0.4040851261299E+01
 0.4102972891403E+01
 0.6041185459241E+00
 0.9830832052436E+00
 0.1332214173091E+01
 0.1652056421182E+01
 0.1944811642723E+01
 0.2212540124308E+01
 0.2457026977555E+01
 0.2679862378916E+01
 0.2882532367817E+01
 0.3066480500991E+01
 0.3233133526268E+01
 0.3383892704813E+01
 0.3520099979265E+01
 0.3643005375541E+01
 0.3753758630733E+01
 0.3853434638849E+01
 0.3943094058012E+01
 0.4023872888226E+01
 0.4097045529934E+01
 0.4164005510014E+01
 0.5990666628712E+00
 0.9828529439551E+00
 0.1335751412241E+01
 0.1658553846636E+01
 0.1953765703640E+01
 0.2223687137239E+01
 0.2470276339092E+01
 0.2695239660971E+01
 0.2900133710784E+01
 0.3086438379574E+01
 0.3255593422511E+01
 0.3409000685563E+01
 0.3548001757096E+01
 0.3673855715105E+01
 0.3787736791966E+01
 0.3890758544364E+01
 0.3984022046478E+01
 0.4068677426897E+01
 0.4145951345484E+01
 0.4217087394077E+01
 0.5948584638465E+00
 0.9827235194578E+00
 0.1338812714474E+01
 0.1664119278764E+01
 0.1961403593066E+01
 0.2233168267985E+01
 0.2481518453940E+01
 0.2708260039650E+01
 0.2915011143029E+01
 0.3103284557777E+01
 0.3274533391668E+01
 0.3430162384395E+01
 0.3571514987554E+01
 0.3699859306646E+01
 0.3816390056300E+01
 0.3922250720805E+01
 0.4018570748550E+01
 0.4106504595442E+01
 0.4187231901730E+01
 0.4261870840526E+01
 0.5914928765191E+00
 0.9826606925462E+00
 0.1341335983163E+01
 0.1668670318942E+01
 0.1967629230231E+01
 0.2240878979330E+01
 0.2490644063480E+01
 0.2718811782568E+01
 0.2927051238063E+01
 0.3116903281500E+01
 0.3289833370286E+01
 0.3447250138347E+01
 0.3590499900181E+01
 0.3720858852783E+01
 0.3839537983414E+01
 0.3947703042344E+01
 0.4046502596755E+01
 0.4137089768734E+01
 0.4220602402989E+01
 0.4298059436632E+01
 0.5889691865315E+00
 0.9826372419777E+00
 0.1343271674773E+01
 0.1672141136036E+01
 0.1972365741792E+01
 0.2246735480355E+01
 0.2497565396698E+01
 0.2726804889114E+01
 0.2936162336273E+01
 0.3127200653482E+01
 0.3301395541423E+01
 0.3460159474803E+01
 0.3604841694122E+01
 0.3736724922641E+01
 0.3857032210253E+01
 0.3966944945870E+01
 0.4067623900566E+01
 0.4160218437469E+01
 0.4245832824495E+01
 0.4325412638106E+01
 0.5872869416782E+00
 0.9826328514346E+00
 0.1344582706608E+01
 0.1674482402150E+01
 0.1975555461868E+01
 0.2250674829613E+01
 0.2502216409764E+01
 0.2732171495427E+01
 0.2942275146645E+01
 0.3134105476439E+01
 0.3309145483899E+01
 0.3468810641194E+01
 0.3614452501834E+01
 0.3747358339462E+01
 0.3868759150608E+01
 0.3979846215450E+01
 0.4081787408974E+01
 0.4175728284438E+01
 0.4262749696665E+01
 0.4343748819385E+01
 0.5864458794235E+00
 0.9826340235445E+00
 0.1345244389920E+01
 0.1675661249665E+01
 0.1977159936915E+01
 0.2252655015053E+01
 0.2504552966506E+01
 0.2734866180720E+01
 0.2945343207724E+01
 0.3137569906457E+01
 0.3313033066478E+01
 0.3473149789413E+01
 0.3619272892164E+01
 0.3752691979642E+01
 0.3874641987587E+01
 0.3986318975726E+01
 0.4088894058440E+01
 0.4183510493205E+01
 0.4271237107731E+01
 0.4352946957352E+01
 0.5864458795887E+00
 0.9826340235642E+00
 0.1345244389847E+01
 0.1675661249539E+01
 0.1977159936761E+01
 0.2252655014891E+01
 0.2504552966348E+01
 0.2734866180577E+01
 0.2945343207602E+01
 0.3137569906360E+01
 0.3313033066405E+01
 0.3473149789364E+01
 0.3619272892134E+01
 0.3752691979626E+01
 0.3874641987582E+01
 0.3986318975728E+01
 0.4088894058446E+01
 0.4183510493215E+01
 0.4271237107745E+01
 0.4352946957370E+01
 0.5872869421737E+00
 0.9826328514947E+00
 0.1344582706390E+01
 0.1674482401772E+01
 0.1975555461409E+01
 0.2250674829128E+01
 0.2502216409293E+01
 0.2732171494999E+01
 0.2942275146280E+01
 0.3134105476147E+01
 0.3309145483683E+01
 0.3468810641046E+01
 0.3614452501743E+01
 0.3747358339415E+01
 0.3868759150592E+01
 0.3979846215455E+01
 0.4081787408993E+01
 0.4175728284468E+01
 0.4262749696706E+01
 0.4343748819439E+01
 0.5889691873574E+00
 0.9826372420815E+00
 0.1343271674417E+01
 0.1672141135413E+01
 0.1972365741034E+01
 0.2246735479553E+01
 0.2497565395918E+01
 0.2726804888404E+01
 0.2936162335668E+01
 0.3127200652998E+01
 0.3301395541064E+01
 0.3460159474559E+01
 0.3604841693973E+01
 0.3736724922564E+01
 0.3857032210228E+01
 0.3966944945880E+01
 0.4067623900598E+01
 0.4160218437520E+01
 0.4245832824563E+01
 0.4325412638196E+01
 0.5914928776755E+00
 0.9826606926989E+00
 0.1341335982676E+01
 0.1668670318083E+01
 0.1967629229184E+01
 0.2240878978220E+01
 0.2490644062398E+01
 0.2718811781583E+01
 0.2927051237222E+01
 0.3116903280829E+01
 0.3289833369789E+01
 0.3447250138009E+01
 0.3590499899976E+01
 0.3720858852679E+01
 0.3839537983381E+01
 0.3947703042359E+01
 0.4046502596801E+01
 0.4137089768806E+01
 0.4220602403084E+01
 0.4298059436758E+01
 0.5948584653336E+00
 0.9827235196670E+00
 0.1338812713869E+01
 0.1664119277683E+01
 0.1961403591742E+01
 0.2233168266578E+01
 0.2481518452567E+01
 0.2708260038397E+01
 0.2915011141959E+01
 0.3103284556923E+01
 0.3274533391037E+01
 0.3430162383967E+01
 0.3571514987295E+01
 0.3699859306517E+01
 0.3816390056262E+01
 0.3922250720827E+01
 0.4018570748612E+01
 0.4106504595535E+01
 0.4187231901854E+01
 0.4261870840688E+01
 0.5990666646891E+00
 0.9828529442306E+00
 0.1335751411533E+01
 0.1658553845351E+01
 0.1953765702058E+01
 0.2223687135552E+01
 0.2470276337441E+01
 0.2695239659462E+01
 0.2900133709494E+01
 0.3086438378545E+01
 0.3255593421751E+01
 0.3409000685051E+01
 0.3548001756789E+01
 0.3673855714954E+01
 0.3787736791926E+01
 0.3890758544396E+01
 0.3984022046557E+01
 0.4068677427011E+01
 0.4145951345635E+01
 0.4217087394276E+01
 0.6041185480734E+00
 0.9830832055974E+00
 0.1332214172299E+01
 0.1652056419716E+01
 0.1944811640904E+01
 0.2212540122359E+01
 0.2457026975642E+01
 0.2679862377164E+01
 0.2882532366317E+01
 0.3066480499795E+01
 0.3233133525387E+01
 0.3383892704221E+01
 0.3520099978915E+01
 0.3643005375374E+01
 0.3753758630694E+01
 0.3853434638894E+01
 0.3943094058109E+01
 0.4023872888363E+01
 0.4097045530113E+01
 0.4164005510249E+01
 0.6100156787488E+00
 0.9834557068215E+00
 0.1328275785195E+01
 0.1644726082901E+01
 0.1934656734491E+01
 0.2199852414784E+01
 0.2441900842072E+01
 0.2662261180026E+01
 0.2862341599715E+01
 0.3043547550821E+01
 0.3207294677012E+01
 0.3354987498934E+01
 0.3487972042939E+01
 0.3607490526927E+01
 0.3714664700655E+01
 0.3810521077517E+01
 0.3896064707210E+01
 0.3972402639406E+01
 0.4040851261506E+01
 0.4102972891675E+01
 0.6167602563399E+00
 0.9840191813840E+00
 0.1324023914276E+01
 0.1636678774136E+01
 0.1923435635867E+01
 0.2185769760211E+01
 0.2425049312082E+01
 0.2642589749340E+01
 0.2839716138353E+01
 0.3017795932151E+01
 0.3178237283343E+01
 0.3322453518776E+01
 0.3451800274852E+01
 0.3567514915949E+01
 0.3670688729341E+01
 0.3762289403977E+01
 0.3843247686582E+01
 0.3914620968213E+01
 0.3977753288954E+01
 0.4034382439211E+01
 0.6243552900121E+00
 0.9848298814069E+00
 0.1319559350475E+01
 0.1628047560852E+01
 0.1911302489081E+01
 0.2170458404276E+01
 0.2406644306521E+01
 0.2621021801114E+01
 0.2814830018839E+01
 0.2989400613544E+01
 0.3146139633009E+01
 0.3286476511103E+01
 0.3411784043110E+01
 0.3523299930694E+01
 0.3622084281761E+01
 0.3709035321354E+01
 0.3784986950574E+01
 0.3850919048350E+01
 0.3908178362030E+01
 0.3958665667050E+01
 0.6328047573552E+00
 0.9859517638022E+00
 0.1314996356187E+01
 0.1618983069633E+01
 0.1898431247215E+01
 0.2154105113534E+01
 0.2386877924633E+01
 0.2597750339602E+01
 0.2787875548673E+01
 0.2958553889078E+01
 0.3111196404060E+01
 0.3247257539856E+01
 0.3368136886864E+01
 0.3475080482979E+01
 0.3569119392049E+01
 0.3651072574795E+01
 0.3721650561954E+01
 0.3781718995540E+01
 0.3832588209988E+01
 0.3876288484116E+01
 0.6421137209473E+00
 0.9874566414941E+00
 0.1310463122799E+01
 0.1609654133866E+01
 0.1885016192820E+01
 0.2136917286229E+01
 0.2365962009218E+01
 0.2572986716101E+01
 0.2759062038437E+01
 0.2925463994820E+01
 0.3073617234283E+01
 0.3205011260422E+01
 0.3321083893415E+01
 0.3423100796956E+01
 0.3512070526860E+01
 0.3588725778788E+01
 0.3653623776708E+01
 0.3707468900593E+01
 0.3751477272242E+01
 0.3787753620795E+01
 0.6522883240149E+00
 0.9894242348408E+00
 0.1306102416915E+01
 0.1600248824198E+01
 0.1871272834464E+01
 0.2119123263408E+01
 0.2344127678926E+01
 0.2546959456721E+01
 0.2728614224521E+01
 0.2890353525268E+01
 0.3033625413683E+01
 0.3159964741778E+01
 0.3270859841155E+01
 0.3367610589231E+01
 0.3451215976426E+01
 0.3522321732410E+01
 0.3581300709005E+01
 0.3628638212162E+01
 0.3665376940815E+01
 0.3693613713006E+01
 0.6633354545362E+00
 0.9919419892580E+00
 0.1302072482107E+01
 0.1590976082672E+01
 0.1857439364274E+01
 0.2100972925406E+01
 0.2321624793616E+01
 0.2519912743359E+01
 0.2696770196229E+01
 0.2853457436132E+01
 0.2991456592812E+01
 0.3112357101508E+01
 0.3217708899317E+01
 0.3308862707090E+01
 0.3386829157580E+01
 0.3452178595525E+01
 0.3505073022573E+01
 0.3545711867007E+01
 0.3574859242522E+01
 0.3594493756684E+01
 0.6752618440589E+00
 0.9951044166326E+00
 0.1298548484823E+01
 0.1582068375721E+01
 0.1843779036232E+01
 0.2082738650788E+01
 0.2298721301873E+01
 0.2492104370638E+01
 0.2663778534898E+01
 0.2815020196500E+01
 0.2947357003263E+01
 0.3062439752548E+01
 0.3161886694800E+01
 0.3247113948650E+01
 0.3319173224407E+01
 0.3378591568726E+01
 0.3425312057445E+01
 0.3459179608301E+01
 0.3480540303153E+01
 0.3491110980799E+01
 0.6880717139209E+00
 0.9990117202495E+00
 0.1295724813926E+01
 0.1573786419429E+01
 0.1830583786227E+01
 0.2064716806244E+01
 0.2275702391153E+01
 0.2463803165377E+01
 0.2629894515470E+01
 0.2775291712165E+01
 0.2901580605740E+01
 0.3010476601050E+01
 0.3103665178737E+01
 0.3182632791772E+01
 0.3248501457533E+01
 0.3301816061625E+01
 0.3342336539409E+01
 0.3369513492769E+01
 0.3383087921949E+01
 0.3384313316519E+01
 0.7017618333102E+00
 0.1003765658273E+01
 0.1293821205398E+01
 0.1566426705079E+01
 0.1818180101989E+01
 0.2047228996787E+01
 0.2252869413195E+01
 0.2435285730490E+01
 0.2595374989131E+01
 0.2734521343023E+01
 0.2854383893197E+01
 0.2956742503884E+01
 0.3043337984421E+01
 0.3115715552261E+01
 0.3175076747427E+01
 0.3222053981482E+01
 0.3256355700973E+01
 0.3277103319583E+01
 0.3283230307633E+01
 0.3275179405937E+01
 0.7163060549528E+00
 0.1009470094797E+01
 0.1293091563669E+01
 0.1560340831477E+01
 0.1806932763748E+01
 0.2030623073106E+01
 0.2230539311881E+01
 0.2406832616870E+01
 0.2560471741136E+01
 0.2692949950727E+01
 0.2806017715312E+01
 0.2901517489033E+01
 0.2981223958846E+01
 0.3046704074780E+01
 0.3099219287243E+01
 0.3139501634700E+01
 0.3167366506542E+01
 0.3182087119706E+01
 0.3181698497676E+01
 0.3165245357829E+01
 0.7316305402751E+00
 0.1016182448137E+01
 0.1293907070537E+01
 0.1555944319183E+01
 0.1797240888294E+01
 0.2015277138510E+01
 0.2209046774034E+01
 0.2378722420389E+01
 0.2525422623811E+01
 0.2650800781666E+01
 0.2756716154769E+01
 0.2845074210583E+01
 0.2917661024047E+01
 0.2976004840893E+01
 0.3021345287735E+01
 0.3054502560991E+01
 0.3075280679421E+01
 0.3083755243230E+01
 0.3078871674725E+01
 0.3057063801713E+01
 0.7472351844068E+00
 0.1024377347048E+01
 0.1296849738263E+01
 0.1553660278128E+01
 0.1789530004457E+01
 0.2001628729640E+01
 0.2188743964090E+01
 0.2351217277605E+01
 0.2490442615159E+01
 0.2608269149565E+01
 0.2706683686726E+01
 0.2787658647815E+01
 0.2852980047842E+01
 0.2904084991357E+01
 0.2942036874564E+01
 0.2967566072579E+01
 0.2980531186241E+01
 0.2980987196680E+01
 0.2971701158651E+01
 0.2957808167784E+01
 0.3152357742301E+01
 0.2650056966659E+01
 0.1581871224308E+01
 0.1043738051696E+01
 0.6665581742307E+00
 0.3858357893934E+00
 0.1849601134278E+00
 0.4930203749720E-01
 0.5342755373057E-01
 0.1396014430046E+00
 0.2142480506594E+00
 0.2773290021223E+00
 0.3265958374256E+00
 0.3580348629803E+00
 0.3678587906069E+00
 0.3507970063523E+00
 0.3005234563397E+00
 0.2159369352714E+00
 0.1107904874053E+00
 0.1880378114396E-01
 0.2679776693086E+01
 0.2907402602005E+01
 0.1971601802658E+01
 0.1334620931188E+01
 0.9244656075264E+00
 0.6233236219739E+00
 0.4037575169570E+00
 0.2441000508934E+00
 0.1218289883910E+00
 0.2208928645521E-01
 0.6316428826853E-01
 0.1359799698723E+00
 0.1964441368947E+00
 0.2419435281152E+00
 0.2684248715570E+00
 0.2719177192524E+00
 0.2514065353538E+00
 0.1967150444760E+00
 0.1093661318903E+00
 0.7962388333294E-02
 0.2305315532900E+01
 0.2751959668834E+01
 0.2213784295345E+01
 0.1614226643491E+01
 0.1176853089609E+01
 0.8588364472815E+00
 0.6225632249949E+00
 0.4464794327741E+00
 0.3087220634595E+00
 0.1954561536196E+00
 0.9891991991147E-01
 0.1537598773120E-01
 0.5672469494008E-01
 0.1161506255169E+00
 0.1599334132189E+00
 0.1850995791901E+00
 0.1906875001437E+00
 0.1645125993006E+00
 0.1003084149558E+00
 0.7869559033393E-02
 0.2023209429976E+01
 0.2540588112690E+01
 0.2286509685925E+01
 0.1834429731761E+01
 0.1416060482997E+01
 0.1089353389169E+01
 0.8412136049033E+00
 0.6528502587505E+00
 0.5034649718796E+00
 0.3788895561076E+00
 0.2715171376749E+00
 0.1772529382966E+00
 0.9381119688074E-01
 0.2090818516260E-01
 0.3963257293200E-01
 0.8534430431168E-01
 0.1156798249522E+00
 0.1171471096512E+00
 0.7840173891880E-01
 0.7803866118521E-02
 0.1803707116101E+01
 0.2332641893420E+01
 0.2272176665049E+01
 0.1974309511845E+01
 0.1622814403577E+01
 0.1308959716205E+01
 0.1056836695088E+01
 0.8607278171328E+00
 0.7030606705378E+00
 0.5698453525839E+00
 0.4534043511123E+00
 0.3495713761730E+00
 0.2556509392144E+00
 0.1703742142006E+00
 0.9464197291347E-01
 0.3032580273114E-01
 0.2338803617916E-01
 0.5091134522555E-01
 0.3811488849587E-01
 0.9867992051127E-02
 0.1629079573302E+01
 0.2144159738671E+01
 0.2213661765528E+01
 0.2049983067193E+01
 0.1784432726679E+01
 0.1507550658029E+01
 0.1264328559072E+01
 0.1066742675705E+01
 0.9046651467309E+00
 0.7657974187953E+00
 0.6427037442756E+00
 0.5312321715560E+00
 0.4285215592210E+00
 0.3326767865739E+00
 0.2437879207496E+00
 0.1629995674893E+00
 0.9006179544816E-01
 0.3883671793975E-01
 0.2716979061467E-01
 0.5234948727223E-01
 0.1487624988942E+01
 0.1978163464070E+01
 0.2134366546849E+01
 0.2079418914955E+01
 0.1901525444360E+01
 0.1676951534171E+01
 0.1456895843495E+01
 0.1266336492962E+01
 0.1104894965053E+01
 0.9639723185310E+00
 0.8371566591028E+00
 0.7205782493083E+00
 0.6114069132059E+00
 0.5073959978971E+00
 0.4080368814691E+00
 0.3139270106332E+00
 0.2243526126306E+00
 0.1522849878962E+00
 0.1182959882777E+00
 0.1250038199046E+00
 0.1371342590165E+01
 0.1833732816911E+01
 0.2047100373746E+01
 0.2077244680876E+01
 0.1980034340392E+01
 0.1814348009288E+01
 0.1628617361863E+01
 0.1454334545849E+01
 0.1299741071968E+01
 0.1161155824526E+01
 0.1034102929425E+01
 0.9154436150440E+00
 0.8026380865080E+00
 0.6933421082842E+00
 0.5866458893519E+00
 0.4827121411501E+00
 0.3804935969539E+00
 0.2918066988367E+00
 0.2390782777293E+00
 0.2301878152271E+00
 0.1274528218429E+01
 0.1708721444933E+01
 0.1958968061960E+01
 0.2054272198038E+01
 0.2027295099695E+01
 0.1920776592382E+01
 0.1776168909617E+01
 0.1626188560925E+01
 0.1485012517986E+01
 0.1353773093074E+01
 0.1230487612386E+01
 0.1113201500533E+01
 0.9999726015600E+00
 0.8886237938755E+00
 0.7780450441280E+00
 0.6680870776237E+00
 0.5574925922450E+00
 0.4566206507614E+00
 0.3891243415435E+00
 0.3679234817389E+00
 0.1192982676252E+01
 0.1600717792336E+01
 0.1873866918642E+01
 0.2018224359237E+01
 0.2050284992607E+01
 0.1999377571623E+01
 0.1898713464516E+01
 0.1778836265146E+01
 0.1657012876736E+01
 0.1538227951522E+01
 0.1423011209230E+01
 0.1310854781279E+01
 0.1200680926282E+01
 0.1090737096857E+01
 0.9799176133273E+00
 0.8678891180283E+00
 0.7532971100882E+00
 0.6448258859584E+00
 0.5666914371677E+00
 0.5362241605565E+00
 0.1123534275244E+01
 0.1507389958785E+01
 0.1793831386895E+01
 0.1974518382470E+01
 0.2055004298200E+01
 0.2054141929982E+01
 0.1997217453932E+01
 0.1910832025196E+01
 0.1813014388343E+01
 0.1711318291283E+01
 0.1608401541910E+01
 0.1505209963020E+01
 0.1401676209238E+01
 0.1296679561921E+01
 0.1189310797761E+01
 0.1079177000124E+01
 0.9649144102928E+00
 0.8533885966408E+00
 0.7686612995177E+00
 0.7315325458517E+00
 0.1063738658699E+01
 0.1426603492577E+01
 0.1719784093453E+01
 0.1926894880166E+01
 0.2046349836839E+01
 0.2089166221706E+01
 0.2073735339437E+01
 0.2022090786323E+01
 0.1951397478702E+01
 0.1870535053631E+01
 0.1783704603161E+01
 0.1693109549475E+01
 0.1599696546903E+01
 0.1503102139251E+01
 0.1402774569429E+01
 0.1298376168577E+01
 0.1188590282557E+01
 0.1078369332181E+01
 0.9908471749664E+00
 0.9491601942224E+00
 0.1011682341506E+01
 0.1356450685397E+01
 0.1651971943234E+01
 0.1877881819224E+01
 0.2028185656132E+01
 0.2108256653163E+01
 0.2130848099350E+01
 0.2113506938123E+01
 0.2071558219637E+01
 0.2014182808015E+01
 0.1946501812038E+01
 0.1871664325011E+01
 0.1791518121551E+01
 0.1706496317736E+01
 0.1616527672194E+01
 0.1521439795807E+01
 0.1419997531684E+01
 0.1315170617219E+01
 0.1228321992053E+01
 0.1183697349137E+01
 0.9658495603178E+00
 0.1295245666001E+01
 0.1590228176901E+01
 0.1829128339789E+01
 0.2003478858179E+01
 0.2114745831501E+01
 0.2171274650954E+01
 0.2186586969867E+01
 0.2173703356419E+01
 0.2141355779726E+01
 0.2095020307808E+01
 0.2038437787920E+01
 0.1974166742136E+01
 0.1903402589393E+01
 0.1826645702462E+01
 0.1744014706642E+01
 0.1654409363542E+01
 0.1558768850012E+01
 0.1475738745530E+01
 0.1429383491834E+01
 0.9250290851185E+00
 0.1241507286902E+01
 0.1534134945920E+01
 0.1781644299242E+01
 0.1974445215458E+01
 0.2111430346039E+01
 0.2197624351038E+01
 0.2243147710861E+01
 0.2258615114138E+01
 0.2251824537668E+01
 0.2228145909254E+01
 0.2191562495510E+01
 0.2145104622501E+01
 0.2090629524321E+01
 0.2029270544852E+01
 0.1961608757764E+01
 0.1886829460599E+01
 0.1803891209273E+01
 0.1727622967179E+01
 0.1680444938694E+01
 0.8882470028230E+00
 0.1193938948231E+01
 0.1483127396662E+01
 0.1735973650047E+01
 0.1942683380884E+01
 0.2100573443798E+01
 0.2212251553553E+01
 0.2285089191465E+01
 0.2327428927719E+01
 0.2345877743441E+01
 0.2345359768009E+01
 0.2329783962553E+01
 0.2302378870319E+01
 0.2265485893524E+01
 0.2220865941820E+01
 0.2169779318333E+01
 0.2112065482110E+01
 0.2045056535714E+01
 0.1978598233845E+01
 0.1931410468915E+01
 0.8547165712924E+00
 0.1151408978700E+01
 0.1436563050340E+01
 0.1692321946810E+01
 0.1909290989172E+01
 0.2083940342314E+01
 0.2217180115768E+01
 0.2314235279126E+01
 0.2381443496178E+01
 0.2424147429347E+01
 0.2446614465800E+01
 0.2452422329711E+01
 0.2444708595445E+01
 0.2426018097302E+01
 0.2398588125363E+01
 0.2364463067328E+01
 0.2324762365677E+01
 0.2276385227056E+01
 0.2223354298518E+01
 0.2177464056328E+01
 0.8237981291651E+00
 0.1112933856299E+01
 0.1393772006626E+01
 0.1650653055235E+01
 0.1874960957082E+01
 0.2062845907821E+01
 0.2214074780484E+01
 0.2332232588306E+01
 0.2421973508596E+01
 0.2487439517302E+01
 0.2532162008794E+01
 0.2559229490398E+01
 0.2571438541771E+01
 0.2571181710417E+01
 0.2560765117788E+01
 0.2542786838398E+01
 0.2519827213047E+01
 0.2490869493871E+01
 0.2456095985361E+01
 0.2414624219787E+01
 0.7949629879059E+00
 0.1077660107057E+01
 0.1354110054838E+01
 0.1610767916562E+01
 0.1840050743652E+01
 0.2038200919598E+01
 0.2204241373930E+01
 0.2340502047784E+01
 0.2450256063105E+01
 0.2536596909837E+01
 0.2602365085279E+01
 0.2650135658703E+01
 0.2682249406801E+01
 0.2700672488287E+01
 0.2707240201030E+01
 0.2704241280580E+01
 0.2694987305092E+01
 0.2680599201324E+01
 0.2666390203479E+01
 0.2640004836243E+01
 0.7677033945423E+00
 0.1044914448827E+01
 0.1317048451285E+01
 0.1572363902851E+01
 0.1804622917001E+01
 0.2010514994066E+01
 0.2188653549596E+01
 0.2340247839367E+01
 0.2467418655575E+01
 0.2572432793526E+01
 0.2657566376384E+01
 0.2724977955814E+01
 0.2776625573075E+01
 0.2814066115808E+01
 0.2838513156959E+01
 0.2851144057378E+01
 0.2853813695377E+01
 0.2847648818166E+01
 0.2838900836298E+01
 0.2839748980796E+01
 0.7677034017817E+00
 0.1044914453333E+01
 0.1317048453713E+01
 0.1572363903593E+01
 0.1804622916381E+01
 0.2010514992438E+01
 0.2188653547355E+01
 0.2340247836924E+01
 0.2467418653296E+01
 0.2572432791664E+01
 0.2657566375049E+01
 0.2724977954997E+01
 0.2776625572693E+01
 0.2814066115752E+01
 0.2838513157127E+01
 0.2851144057701E+01
 0.2853813695819E+01
 0.2847648818670E+01
 0.2838900836888E+01
 0.2839748981434E+01
 0.7949629953079E+00
 0.1077660112061E+01
 0.1354110057916E+01
 0.1610767917957E+01
 0.1840050743599E+01
 0.2038200918414E+01
 0.2204241372015E+01
 0.2340502045574E+01
 0.2450256060988E+01
 0.2536596908083E+01
 0.2602365084010E+01
 0.2650135657918E+01
 0.2682249406425E+01
 0.2700672488219E+01
 0.2707240201181E+01
 0.2704241280905E+01
 0.2694987305564E+01
 0.2680599201855E+01
 0.2666390204132E+01
 0.2640004837111E+01
 0.8237981367961E+00
 0.1112933861916E+01
 0.1393772010439E+01
 0.1650653057327E+01
 0.1874960957597E+01
 0.2062845907049E+01
 0.2214074778837E+01
 0.2332232586249E+01
 0.2421973506554E+01
 0.2487439515569E+01
 0.2532162007510E+01
 0.2559229489571E+01
 0.2571438541332E+01
 0.2571181710273E+01
 0.2560765117860E+01
 0.2542786838640E+01
 0.2519827213415E+01
 0.2490869494269E+01
 0.2456095985975E+01
 0.2414624220908E+01
 0.8547165792099E+00
 0.1151408985041E+01
 0.1436563054968E+01
 0.1692321949624E+01
 0.1909290990228E+01
 0.2083940341885E+01
 0.2217180114294E+01
 0.2314235277120E+01
 0.2381443494111E+01
 0.2424147427545E+01
 0.2446614464418E+01
 0.2452422328767E+01
 0.2444708594874E+01
 0.2426018097014E+01
 0.2398588125277E+01
 0.2364463067392E+01
 0.2324762365826E+01
 0.2276385227221E+01
 0.2223354299053E+01
 0.2177464057683E+01
 0.8882470110903E+00
 0.1193938955402E+01
 0.1483127402165E+01
 0.1735973653577E+01
 0.1942683382414E+01
 0.2100573443605E+01
 0.2212251552128E+01
 0.2285089189387E+01
 0.2327428925519E+01
 0.2345877741476E+01
 0.2345359766450E+01
 0.2329783961422E+01
 0.2302378869552E+01
 0.2265485893027E+01
 0.2220865941508E+01
 0.2169779318141E+01
 0.2112065481961E+01
 0.2045056535597E+01
 0.1978598234270E+01
 0.1931410470454E+01
 0.9250290938047E+00
 0.1241507295001E+01
 0.1534134952333E+01
 0.1781644303444E+01
 0.1974445217354E+01
 0.2111430345936E+01
 0.2197624349507E+01
 0.2243147708575E+01
 0.2258615111691E+01
 0.2251824535451E+01
 0.2228145907448E+01
 0.2191562494135E+01
 0.2145104621489E+01
 0.2090629523570E+01
 0.2029270544267E+01
 0.1961608757269E+01
 0.1886829460110E+01
 0.1803891208853E+01
 0.1727622967469E+01
 0.1680444940351E+01
 0.9658495694977E+00
 0.1295245675116E+01
 0.1590228184227E+01
 0.1829128344576E+01
 0.2003478860287E+01
 0.2114745831306E+01
 0.2171274649143E+01
 0.2186586967227E+01
 0.2173703353619E+01
 0.2141355777183E+01
 0.2095020305704E+01
 0.2038437786266E+01
 0.1974166740853E+01
 0.1903402588366E+01
 0.1826645701585E+01
 0.1744014705827E+01
 0.1654409362704E+01
 0.1558768849291E+01
 0.1475738745666E+01
 0.1429383493534E+01
 0.1011682351258E+01
 0.1356450695599E+01
 0.1651971951435E+01
 0.1877881824456E+01
 0.2028185658249E+01
 0.2108256652656E+01
 0.2130848097068E+01
 0.2113506934992E+01
 0.2071558216397E+01
 0.2014182805096E+01
 0.1946501809612E+01
 0.1871664323071E+01
 0.1791518119997E+01
 0.1706496316437E+01
 0.1616527671032E+01
 0.1521439794683E+01
 0.1419997530515E+01
 0.1315170616222E+01
 0.1228321992032E+01
 0.1183697350808E+01
 0.1063738669104E+01
 0.1426603503915E+01
 0.1719784102442E+01
 0.1926894885642E+01
 0.2046349838709E+01
 0.2089166220643E+01
 0.2073735336497E+01
 0.2022090782589E+01
 0.1951397474971E+01
 0.1870535050326E+01
 0.1783704600426E+01
 0.1693109547272E+01
 0.1599696545107E+01
 0.1503102137711E+01
 0.1402774568014E+01
 0.1298376167180E+01
 0.1188590281098E+01
 0.1078369330956E+01
 0.9908471748029E+00
 0.9491601958017E+00
 0.1123534286377E+01
 0.1507389971274E+01
 0.1793831396523E+01
 0.1974518387922E+01
 0.2055004299523E+01
 0.2054141928109E+01
 0.1997217450174E+01
 0.1910832020792E+01
 0.1813014384119E+01
 0.1711318287626E+01
 0.1608401538914E+01
 0.1505209960608E+01
 0.1401676207252E+01
 0.1296679560189E+01
 0.1189310796145E+01
 0.1079176998510E+01
 0.9649144086090E+00
 0.8533885952570E+00
 0.7686612992518E+00
 0.7315325473031E+00
 0.1192982688182E+01
 0.1600717805948E+01
 0.1873866928682E+01
 0.2018224364326E+01
 0.2050284993045E+01
 0.1999377568699E+01
 0.1898713459834E+01
 0.1778836260076E+01
 0.1657012872083E+01
 0.1538227947597E+01
 0.1423011206059E+01
 0.1310854778733E+01
 0.1200680924174E+01
 0.1090737094999E+01
 0.9799176115768E+00
 0.8678891162709E+00
 0.7532971082640E+00
 0.6448258845073E+00
 0.5666914368657E+00
 0.5362241618764E+00
 0.1274528231207E+01
 0.1708721459576E+01
 0.1958968072092E+01
 0.2054272202347E+01
 0.2027295098897E+01
 0.1920776588223E+01
 0.1776168903998E+01
 0.1626188555284E+01
 0.1485012513034E+01
 0.1353773089007E+01
 0.1230487609146E+01
 0.1113201497943E+01
 0.9999725994061E+00
 0.8886237919637E+00
 0.7780450423190E+00
 0.6680870758090E+00
 0.5574925903823E+00
 0.4566206493539E+00
 0.3891243412984E+00
 0.3679234829650E+00
 0.1371342603812E+01
 0.1833732832403E+01
 0.2047100383531E+01
 0.2077244683918E+01
 0.1980034338032E+01
 0.1814348003814E+01
 0.1628617355426E+01
 0.1454334539833E+01
 0.1299741066906E+01
 0.1161155820471E+01
 0.1034102926235E+01
 0.9154436125005E+00
 0.8026380843853E+00
 0.6933421063925E+00
 0.5866458875656E+00
 0.4827121393737E+00
 0.3804935951682E+00
 0.2918066975985E+00
 0.2390782776578E+00
 0.2301878164420E+00
 0.1487625003433E+01
 0.1978163480103E+01
 0.2134366555705E+01
 0.2079418916198E+01
 0.1901525440212E+01
 0.1676951527486E+01
 0.1456895836515E+01
 0.1266336486857E+01
 0.1104894960105E+01
 0.9639723146457E+00
 0.8371566560714E+00
 0.7205782468939E+00
 0.6114069111857E+00
 0.5073959960977E+00
 0.4080368797883E+00
 0.3139270089957E+00
 0.2243526110463E+00
 0.1522849869616E+00
 0.1182959885115E+00
 0.1250038212323E+00
 0.1629079588534E+01
 0.2144159754753E+01
 0.2213661772703E+01
 0.2049983066122E+01
 0.1784432720728E+01
 0.1507550650482E+01
 0.1264328551979E+01
 0.1066742669839E+01
 0.9046651421106E+00
 0.7657974152156E+00
 0.6427037414944E+00
 0.5312321693398E+00
 0.4285215573657E+00
 0.3326767849344E+00
 0.2437879192556E+00
 0.1629995660925E+00
 0.9006179419301E-01
 0.3883671744658E-01
 0.2716979126705E-01
 0.5234948886343E-01
 0.1803707131838E+01
 0.2332641908780E+01
 0.2272176669608E+01
 0.1974309508113E+01
 0.1622814396188E+01
 0.1308959708427E+01
 0.1056836688380E+01
 0.8607278118053E+00
 0.7030606664162E+00
 0.5698453494132E+00
 0.4534043486508E+00
 0.3495713742088E+00
 0.2556509375757E+00
 0.1703742127811E+00
 0.9464197168291E-01
 0.3032580167991E-01
 0.2338803698095E-01
 0.5091134517433E-01
 0.3811488726690E-01
 0.9867994000033E-02
 0.2023209445751E+01
 0.2540588126107E+01
 0.2286509686830E+01
 0.1834429725500E+01
 0.1416060475094E+01
 0.1089353381947E+01
 0.8412135990045E+00
 0.6528502541752E+00
 0.5034649683749E+00
 0.3788895534186E+00
 0.2715171355818E+00
 0.1772529366227E+00
 0.9381119549763E-01
 0.2090818401422E-01
 0.3963257383283E-01
 0.8534430494861E-01
 0.1156798252144E+00
 0.1171471089558E+00
 0.7840173704939E-01
 0.7803863515275E-02
 0.2305315547813E+01
 0.2751959678391E+01
 0.2213784291776E+01
 0.1614226635991E+01
 0.1176853082539E+01
 0.8588364412413E+00
 0.6225632201704E+00
 0.4464794290870E+00
 0.3087220606521E+00
 0.1954561514617E+00
 0.9891991821527E-01
 0.1537598637191E-01
 0.5672469604286E-01
 0.1161506263586E+00
 0.1599334137321E+00
 0.1850995793265E+00
 0.1906874997639E+00
 0.1645125979057E+00
 0.1003084124404E+00
 0.7869556281981E-02
 0.2679776705083E+01
 0.2907402604352E+01
 0.1971601796139E+01
 0.1334620925032E+01
 0.9244656022896E+00
 0.6233236174321E+00
 0.4037575133642E+00
 0.2441000481931E+00
 0.1218289863412E+00
 0.2208928485776E-01
 0.6316428956510E-01
 0.1359799709242E+00
 0.1964441377085E+00
 0.2419435286276E+00
 0.2684248716429E+00
 0.2719177188215E+00
 0.2514065342498E+00
 0.1967150423521E+00
 0.1093661287976E+00
 0.7962390570518E-02
 0.3152357746860E+01
 0.2650056963725E+01
 0.1581871220605E+01
 0.1043738048622E+01
 0.6665581711606E+00
 0.3858357865184E+00
 0.1849601111937E+00
 0.4930203589280E-01
 0.5342755499915E-01
 0.1396014440746E+00
 0.2142480515851E+00
 0.2773290028833E+00
 0.3265958379501E+00
 0.3580348631548E+00
 0.3678587902697E+00
 0.3507970053008E+00
 0.3005234543366E+00
 0.2159369324080E+00
 0.1107904838868E+00
 0.1880378502674E-01
 0.2879899508543E+01
 0.2674131058630E+01
 0.2460283685246E+01
 0.2232874928831E+01
 0.1992573655726E+01
 0.1744235343705E+01
 0.1493254002232E+01
 0.1245527519665E+01
 0.1007268835376E+01
 0.7848228540558E+00
 0.5843820641257E+00
 0.4116109449727E+00
 0.2711752103114E+00
 0.1661793875030E+00
 0.9753971539847E-01
 0.6343082944112E-01
 0.5896401188669E-01
 0.7570254652963E-01
 0.1027926273257E+00
 0.1292507269450E+00
 0.2990062953264E+01
 0.2819774659945E+01
 0.2611880836076E+01
 0.2388613169995E+01
 0.2152460978937E+01
 0.1906075070267E+01
 0.1653737464772E+01
 0.1400760462233E+01
 0.1153226177495E+01
 0.9177477130278E+00
 0.7012074131915E+00
 0.5104055619764E+00
 0.3515880099303E+00
 0.2298285304102E+00
 0.1482638677360E+00
 0.1072578171005E+00
 0.1034950823706E+00
 0.1288048446054E+00
 0.1704088970791E+00
 0.2156725479071E+00
 0.3099403457088E+01
 0.2950275640112E+01
 0.2764347468176E+01
 0.2553522045348E+01
 0.2326244486273E+01
 0.2086134015709E+01
 0.1836843802957E+01
 0.1582936370096E+01
 0.1329931551802E+01
 0.1084204788289E+01
 0.8528164498626E+00
 0.6432568226720E+00
 0.4630602086683E+00
 0.3192391615587E+00
 0.2174958091486E+00
 0.1612004930226E+00
 0.1500488798930E+00
 0.1779512621376E+00
 0.2315870601281E+00
 0.2928613770672E+00
 0.3212494382387E+01
 0.3079302857435E+01
 0.2914032219719E+01
 0.2721958720152E+01
 0.2509346329395E+01
 0.2280755040378E+01
 0.2039782193716E+01
 0.1790366893280E+01
 0.1537256155577E+01
 0.1286139226665E+01
 0.1043648271693E+01
 0.8172671829548E+00
 0.6151261238689E+00
 0.4456258183115E+00
 0.3168153245559E+00
 0.2354362879873E+00
 0.2054489421592E+00
 0.2253793977541E+00
 0.2841590174341E+00
 0.3589867438711E+00
 0.3327008113624E+01
 0.3208218241389E+01
 0.3062437218279E+01
 0.2890819277098E+01
 0.2697188551322E+01
 0.2485203128651E+01
 0.2258174507322E+01
 0.2019479497346E+01
 0.1773039498591E+01
 0.1523587212998E+01
 0.1276806821555E+01
 0.1039397991867E+01
 0.8190691174153E+00
 0.6244288547378E+00
 0.4647117128487E+00
 0.3492335068104E+00
 0.2863736531190E+00
 0.2814108244660E+00
 0.3313580232818E+00
 0.4155782450150E+00
 0.3441163443431E+01
 0.3336182058835E+01
 0.3208807307634E+01
 0.3057940888374E+01
 0.2885360677393E+01
 0.2693550978993E+01
 0.2485114699251E+01
 0.2262823128043E+01
 0.2029839166900E+01
 0.1789948853883E+01
 0.1547733653372E+01
 0.1308695918257E+01
 0.1079350103930E+01
 0.8672791535411E+00
 0.6811394175261E+00
 0.5305779231997E+00
 0.4259807623861E+00
 0.3777541494633E+00
 0.3937986824245E+00
 0.4689768805041E+00
 0.3553447291833E+01
 0.3462085432806E+01
 0.3352190495762E+01
 0.3221620557535E+01
 0.3070746193933E+01
 0.2900968857262E+01
 0.2714125697837E+01
 0.2512355068469E+01
 0.2298169371967E+01
 0.2074590738866E+01
 0.1845289878575E+01
 0.1614704060648E+01
 0.1388132351364E+01
 0.1171810128994E+01
 0.9729654898503E+00
 0.7998657592733E+00
 0.6618833124815E+00
 0.5696478406987E+00
 0.5354059728545E+00
 0.5717529303920E+00
 0.3662500035867E+01
 0.3584671452281E+01
 0.3491434578645E+01
 0.3380348997466E+01
 0.3250927630957E+01
 0.3103737390822E+01
 0.2939921475739E+01
 0.2761026257228E+01
 0.2568996695432E+01
 0.2366253279174E+01
 0.2155799121599E+01
 0.1941331842310E+01
 0.1727347759855E+01
 0.1519232954185E+01
 0.1323339380529E+01
 0.1147052709092E+01
 0.9988903642196E+00
 0.8887837881798E+00
 0.8291302959249E+00
 0.8404107114728E+00
 0.3767134007358E+01
 0.3702721222635E+01
 0.3625385325208E+01
 0.3532800019568E+01
 0.3424037743800E+01
 0.3299086984903E+01
 0.3158525267113E+01
 0.3003368105991E+01
 0.2835040518933E+01
 0.2655422812078E+01
 0.2466939160671E+01
 0.2272670167980E+01
 0.2076479867977E+01
 0.1883153083931E+01
 0.1698542780713E+01
 0.1529731979526E+01
 0.1385227395258E+01
 0.1275248816499E+01
 0.1212333334987E+01
 0.1213500469028E+01
 0.3866332118084E+01
 0.3815132782320E+01
 0.3752976756144E+01
 0.3677847812925E+01
 0.3588661528387E+01
 0.3485048398149E+01
 0.3367160142626E+01
 0.3235562583257E+01
 0.3091206801585E+01
 0.2935458220642E+01
 0.2770166816635E+01
 0.2597767877198E+01
 0.2421407950150E+01
 0.2245094548826E+01
 0.2073870454034E+01
 0.1914013365023E+01
 0.1773256914586E+01
 0.1660996776272E+01
 0.1588337113967E+01
 0.1566396577651E+01
 0.3959242541170E+01
 0.3920946083474E+01
 0.3873246807862E+01
 0.3814509848838E+01
 0.3743665444905E+01
 0.3660152500883E+01
 0.3563825562981E+01
 0.3454892222310E+01
 0.3333894214025E+01
 0.3201728268533E+01
 0.3059700201957E+01
 0.2909607555867E+01
 0.2753848936765E+01
 0.2595560809763E+01
 0.2438784195920E+01
 0.2288663431833E+01
 0.2151672285748E+01
 0.2035841931203E+01
 0.1950843025130E+01
 0.1907775137615E+01
 0.4045088416541E+01
 0.4019211682826E+01
 0.3985187881991E+01
 0.3941753146413E+01
 0.3887936000974E+01
 0.3823092639672E+01
 0.3746880405404E+01
 0.3659230538087E+01
 0.3560340622918E+01
 0.3450691188168E+01
 0.3331085883417E+01
 0.3202714194275E+01
 0.3067236862168E+01
 0.2926895977134E+01
 0.2784653614192E+01
 0.2644364418650E+01
 0.2510989508680E+01
 0.2390861254051E+01
 0.2292063250116E+01
 0.2225248067346E+01
 0.4123152528541E+01
 0.4108973463316E+01
 0.4087698448109E+01
 0.4058376681326E+01
 0.4020161962380E+01
 0.3972389653161E+01
 0.3914588800803E+01
 0.3846478377201E+01
 0.3767968197119E+01
 0.3679172073402E+01
 0.3580435499233E+01
 0.3472378551982E+01
 0.3355954868741E+01
 0.3232528625046E+01
 0.3103973220227E+01
 0.2972798155759E+01
 0.2842315111137E+01
 0.2716867612598E+01
 0.2602180925676E+01
 0.2505886332116E+01
 0.4192804605360E+01
 0.4189358707825E+01
 0.4179716983128E+01
 0.4163168505032E+01
 0.4138987135599E+01
 0.4106516997672E+01
 0.4065202544884E+01
 0.4014597681666E+01
 0.3954371080259E+01
 0.3884315448661E+01
 0.3804363910919E+01
 0.3714614684780E+01
 0.3615364668899E+01
 0.3507152828724E+01
 0.3390815287447E+01
 0.3267555939894E+01
 0.3139039661987E+01
 0.3007517655829E+01
 0.2875984219748E+01
 0.2748335735533E+01
 0.4253500331986E+01
 0.4259611339890E+01
 0.4260301204853E+01
 0.4255029590974E+01
 0.4243169111180E+01
 0.4224081787288E+01
 0.4197153250652E+01
 0.4161806532160E+01
 0.4117508066697E+01
 0.4063772450162E+01
 0.4000168938161E+01
 0.3926330733397E+01
 0.3841967090800E+01
 0.3746877787949E+01
 0.3640969409650E+01
 0.3524273202426E+01
 0.3396964899357E+01
 0.3259386164231E+01
 0.3112060168816E+01
 0.2955675400333E+01
 0.4304777608718E+01
 0.4319095379818E+01
 0.4328648963406E+01
 0.4333012301834E+01
 0.4331630600308E+01
 0.4323881754796E+01
 0.4309107070415E+01
 0.4286624315712E+01
 0.4255731742221E+01
 0.4215708040734E+01
 0.4165810686530E+01
 0.4105273462348E+01
 0.4033302783650E+01
 0.3949071493128E+01
 0.3851707821716E+01
 0.3740276116903E+01
 0.3613744741761E+01
 0.3470937663262E+01
 0.3310473614110E+01
 0.3130698240715E+01
 0.4346253896428E+01
 0.4367290849240E+01
 0.4384100550671E+01
 0.4396330002015E+01
 0.4403472962055E+01
 0.4404917021341E+01
 0.4399967964673E+01
 0.4387859356451E+01
 0.4367753181168E+01
 0.4338735214688E+01
 0.4299807105449E+01
 0.4249875877712E+01
 0.4187740549146E+01
 0.4112074563366E+01
 0.4021401536836E+01
 0.3914060110229E+01
 0.3788151461334E+01
 0.3641459988983E+01
 0.3471344113654E+01
 0.3274634187276E+01
 0.4377624877681E+01
 0.4403788756401E+01
 0.4426135913927E+01
 0.4444358296526E+01
 0.4457979452783E+01
 0.4466390834444E+01
 0.4468869950430E+01
 0.4464585852159E+01
 0.4452596186688E+01
 0.4431838680133E+01
 0.4401118786731E+01
 0.4359094385383E+01
 0.4304257732374E+01
 0.4234914255065E+01
 0.4149157017340E+01
 0.4044834546121E+01
 0.3919507392331E+01
 0.3770384254953E+01
 0.3594209531863E+01
 0.3387074708094E+01
 0.4398663711227E+01
 0.4428286621772E+01
 0.4454370324195E+01
 0.4476632942260E+01
 0.4494614574329E+01
 0.4507707113111E+01
 0.4515167880505E+01
 0.4516121760249E+01
 0.4509555362812E+01
 0.4494305688675E+01
 0.4469044975180E+01
 0.4432262899225E+01
 0.4382247023192E+01
 0.4317062277256E+01
 0.4234530343715E+01
 0.4132209982871E+01
 0.4007379495676E+01
 0.3857020941057E+01
 0.3677801196394E+01
 0.3465938357091E+01
 0.4409220404317E+01
 0.4440585094965E+01
 0.4468550363724E+01
 0.4492846793934E+01
 0.4513021803216E+01
 0.4528466815247E+01
 0.4538428584295E+01
 0.4542009488450E+01
 0.4538160097982E+01
 0.4525666347675E+01
 0.4503133019289E+01
 0.4468964920327E+01
 0.4421347112253E+01
 0.4358225825236E+01
 0.4277292396790E+01
 0.4175973934519E+01
 0.4051436989595E+01
 0.3900616324096E+01
 0.3720294619261E+01
 0.3507338675434E+01
 0.4409220404358E+01
 0.4440585095041E+01
 0.4468550363842E+01
 0.4492846794098E+01
 0.4513021803432E+01
 0.4528466815523E+01
 0.4538428584635E+01
 0.4542009488860E+01
 0.4538160098467E+01
 0.4525666348239E+01
 0.4503133019935E+01
 0.4468964921053E+01
 0.4421347113057E+01
 0.4358225826112E+01
 0.4277292397727E+01
 0.4175973935504E+01
 0.4051436990608E+01
 0.3900616325119E+01
 0.3720294620274E+01
 0.3507338676440E+01
 0.4398663711348E+01
 0.4428286622001E+01
 0.4454370324546E+01
 0.4476632942751E+01
 0.4494614574977E+01
 0.4507707113934E+01
 0.4515167881521E+01
 0.4516121761475E+01
 0.4509555364262E+01
 0.4494305690362E+01
 0.4469044977110E+01
 0.4432262901397E+01
 0.4382247025599E+01
 0.4317062279878E+01
 0.4234530346522E+01
 0.4132209985820E+01
 0.4007379498709E+01
 0.3857020944107E+01
 0.3677801199392E+01
 0.3465938359991E+01
 0.4377624877883E+01
 0.4403788756780E+01
 0.4426135914509E+01
 0.4444358297338E+01
 0.4457979453855E+01
 0.4466390835806E+01
 0.4468869952111E+01
 0.4464585854188E+01
 0.4452596189090E+01
 0.4431838682927E+01
 0.4401118789929E+01
 0.4359094388984E+01
 0.4304257736366E+01
 0.4234914259418E+01
 0.4149157022002E+01
 0.4044834551017E+01
 0.3919507397359E+01
 0.3770384259987E+01
 0.3594209536751E+01
 0.3387074712660E+01
 0.4346253896708E+01
 0.4367290849765E+01
 0.4384100551477E+01
 0.4396330003139E+01
 0.4403472963538E+01
 0.4404917023225E+01
 0.4399967966999E+01
 0.4387859359260E+01
 0.4367753184496E+01
 0.4338735218562E+01
 0.4299807109886E+01
 0.4249875882715E+01
 0.4187740554697E+01
 0.4112074569424E+01
 0.4021401543329E+01
 0.3914060117049E+01
 0.3788151468331E+01
 0.3641459995955E+01
 0.3471344120342E+01
 0.3274634193348E+01
 0.4304777609075E+01
 0.4319095380485E+01
 0.4328648964427E+01
 0.4333012303256E+01
 0.4331630602184E+01
 0.4323881757180E+01
 0.4309107073362E+01
 0.4286624319273E+01
 0.4255731746442E+01
 0.4215708045653E+01
 0.4165810692169E+01
 0.4105273468712E+01
 0.4033302790718E+01
 0.3949071500850E+01
 0.3851707830002E+01
 0.3740276125612E+01
 0.3613744750693E+01
 0.3470937672136E+01
 0.3310473622554E+01
 0.3130698248237E+01
 0.4253500332420E+01
 0.4259611340693E+01
 0.4260301206078E+01
 0.4255029592680E+01
 0.4243169113430E+01
 0.4224081790149E+01
 0.4197153254190E+01
 0.4161806536439E+01
 0.4117508071773E+01
 0.4063772456080E+01
 0.4000168944952E+01
 0.3926330741066E+01
 0.3841967099326E+01
 0.3746877797272E+01
 0.3640969419662E+01
 0.3524273212957E+01
 0.3396964910159E+01
 0.3259386174955E+01
 0.3112060178981E+01
 0.2955675409291E+01
 0.4192804605866E+01
 0.4189358708754E+01
 0.4179716984541E+01
 0.4163168506997E+01
 0.4138987138192E+01
 0.4106517000972E+01
 0.4065202548968E+01
 0.4014597686611E+01
 0.3954371086129E+01
 0.3884315455510E+01
 0.3804363918781E+01
 0.3714614693664E+01
 0.3615364678781E+01
 0.3507152839539E+01
 0.3390815299073E+01
 0.3267555952141E+01
 0.3139039674573E+01
 0.3007517668355E+01
 0.2875984231664E+01
 0.2748335746080E+01
 0.4123152529117E+01
 0.4108973464364E+01
 0.4087698449696E+01
 0.4058376683532E+01
 0.4020161965291E+01
 0.3972389656869E+01
 0.3914588805397E+01
 0.3846478382766E+01
 0.3767968203727E+01
 0.3679172081112E+01
 0.3580435508081E+01
 0.3472378561977E+01
 0.3355954879857E+01
 0.3232528637208E+01
 0.3103973233304E+01
 0.2972798169542E+01
 0.2842315125327E+01
 0.2716867626777E+01
 0.2602180939275E+01
 0.2505886344360E+01
 0.4045088417180E+01
 0.4019211683975E+01
 0.3985187883726E+01
 0.3941753148825E+01
 0.3887936004161E+01
 0.3823092643735E+01
 0.3746880410442E+01
 0.3659230544191E+01
 0.3560340630165E+01
 0.3450691196618E+01
 0.3331085893107E+01
 0.3202714205210E+01
 0.3067236874316E+01
 0.2926895990413E+01
 0.2784653628464E+01
 0.2644364433704E+01
 0.2510989524217E+01
 0.2390861269672E+01
 0.2292063265317E+01
 0.2225248081510E+01
 0.3959242541867E+01
 0.3920946084712E+01
 0.3873246809727E+01
 0.3814509851433E+01
 0.3743665448339E+01
 0.3660152505268E+01
 0.3563825568421E+01
 0.3454892228898E+01
 0.3333894221839E+01
 0.3201728277629E+01
 0.3059700212365E+01
 0.2909607567585E+01
 0.2753848949749E+01
 0.2595560823923E+01
 0.2438784211107E+01
 0.2288663447834E+01
 0.2151672302278E+01
 0.2035841947899E+01
 0.1950843041564E+01
 0.1907775153401E+01
 0.3866332118832E+01
 0.3815132783635E+01
 0.3752976758124E+01
 0.3677847815684E+01
 0.3588661532048E+01
 0.3485048402828E+01
 0.3367160148429E+01
 0.3235562590275E+01
 0.3091206809888E+01
 0.2935458230277E+01
 0.2770166827618E+01
 0.2597767889510E+01
 0.2421407963732E+01
 0.2245094563570E+01
 0.2073870469783E+01
 0.1914013381569E+01
 0.1773256931669E+01
 0.1660996793582E+01
 0.1588337131145E+01
 0.1566396594267E+01
 0.3767134008151E+01
 0.3702721224016E+01
 0.3625385327291E+01
 0.3532800022483E+01
 0.3424037747672E+01
 0.3299086989851E+01
 0.3158525273237E+01
 0.3003368113372E+01
 0.2835040527630E+01
 0.2655422822118E+01
 0.2466939172050E+01
 0.2272670180659E+01
 0.2076479881875E+01
 0.1883153098929E+01
 0.1698542796656E+01
 0.1529731996231E+01
 0.1385227412527E+01
 0.1275248834135E+01
 0.1212333352790E+01
 0.1213500486520E+01
 0.3662500036696E+01
 0.3584671453719E+01
 0.3491434580825E+01
 0.3380349000526E+01
 0.3250927635025E+01
 0.3103737396009E+01
 0.2939921482132E+01
 0.2761026264889E+01
 0.2568996704396E+01
 0.2366253289443E+01
 0.2155799133137E+01
 0.1941331855045E+01
 0.1727347773675E+01
 0.1519232968938E+01
 0.1323339396036E+01
 0.1147052725154E+01
 0.9988903806419E+00
 0.8887838047983E+00
 0.8291303126347E+00
 0.8404107283368E+00
 0.3553447292683E+01
 0.3462085434289E+01
 0.3352190498027E+01
 0.3221620560725E+01
 0.3070746198167E+01
 0.2900968862631E+01
 0.2714125704405E+01
 0.2512355076268E+01
 0.2298169380996E+01
 0.2074590749081E+01
 0.1845289889888E+01
 0.1614704072922E+01
 0.1388132364405E+01
 0.1171810142550E+01
 0.9729655036101E+00
 0.7998657728661E+00
 0.6618833254839E+00
 0.5696478526563E+00
 0.5354059833836E+00
 0.5717529397073E+00
 0.3441163444287E+01
 0.3336182060350E+01
 0.3208807309970E+01
 0.3057940891665E+01
 0.2885360681736E+01
 0.2693550984449E+01
 0.2485114705846E+01
 0.2262823135765E+01
 0.2029839175694E+01
 0.1789948863642E+01
 0.1547733663932E+01
 0.1308695929387E+01
 0.1079350115329E+01
 0.8672791648351E+00
 0.6811394282744E+00
 0.5305779329128E+00
 0.4259807705687E+00
 0.3777541557143E+00
 0.3937986866784E+00
 0.4689768835402E+00
 0.3327008114467E+01
 0.3208218242918E+01
 0.3062437220660E+01
 0.2890819280441E+01
 0.2697188555684E+01
 0.2485203134050E+01
 0.2258174513736E+01
 0.2019479504711E+01
 0.1773039506792E+01
 0.1523587221861E+01
 0.1276806830843E+01
 0.1039398001282E+01
 0.8190691266033E+00
 0.6244288633071E+00
 0.4647117204061E+00
 0.3492335130208E+00
 0.2863736578010E+00
 0.2814108277435E+00
 0.3313580257971E+00
 0.4155782478821E+00
 0.3212494383200E+01
 0.3079302858965E+01
 0.2914032222113E+01
 0.2721958723473E+01
 0.2509346333648E+01
 0.2280755045531E+01
 0.2039782199702E+01
 0.1790366899986E+01
 0.1537256162837E+01
 0.1286139234262E+01
 0.1043648279364E+01
 0.8172671904003E+00
 0.6151261307785E+00
 0.4456258243996E+00
 0.3168153296107E+00
 0.2354362919353E+00
 0.2054489451371E+00
 0.2253794001784E+00
 0.2841590199728E+00
 0.3589867471191E+00
 0.3099403457855E+01
 0.2950275641622E+01
 0.2764347470530E+01
 0.2553522048538E+01
 0.2326244490253E+01
 0.2086134020412E+01
 0.1836843808281E+01
 0.1582936375898E+01
 0.1329931557895E+01
 0.1084204794456E+01
 0.8528164558625E+00
 0.6432568282683E+00
 0.4630602136544E+00
 0.3192391657952E+00
 0.2174958126036E+00
 0.1612004958089E+00
 0.1500488822912E+00
 0.1779512645792E+00
 0.2315870630711E+00
 0.2928613807557E+00
 0.2990062953988E+01
 0.2819774661439E+01
 0.2611880838333E+01
 0.2388613172936E+01
 0.2152460982499E+01
 0.1906075074364E+01
 0.1653737469282E+01
 0.1400760467004E+01
 0.1153226182350E+01
 0.9177477177798E+00
 0.7012074176595E+00
 0.5104055660094E+00
 0.3515880134329E+00
 0.2298285333681E+00
 0.1482638702390E+00
 0.1072578193527E+00
 0.1034950846747E+00
 0.1288048473033E+00
 0.1704089004307E+00
 0.2156725519400E+00
 0.2879899509300E+01
 0.2674131060087E+01
 0.2460283687266E+01
 0.2232874931367E+01
 0.1992573658705E+01
 0.1744235347024E+01
 0.1493254005766E+01
 0.1245527523276E+01
 0.1007268838921E+01
 0.7848228574034E+00
 0.5843820671737E+00
 0.4116109476629E+00
 0.2711752126474E+00
 0.1661793895621E+00
 0.9753971733624E-01
 0.6343083148245E-01
 0.5896401428539E-01
 0.7570254949880E-01
 0.1027926309592E+00
 0.1292507311102E+00
</DataArray>
<DataArray type="Float64" Name="S_Hyd" NumberOfComponents="1" ComponentName0="S_Hyd" format="ascii">
 0.2195130690246E+01
 0.1489436372696E+01
 0.1405146235438E+01
 0.1336686353015E+01
 0.1305217422963E+01
 0.1287063240195E+01
 0.1278615668562E+01
 0.1276264775738E+01
 0.1278382576371E+01
 0.1283894709382E+01
 0.1292182226082E+01
 0.1302884575614E+01
 0.1315828450217E+01
 0.1330977643389E+01
 0.1348406032702E+01
 0.1368281711265E+01
 0.1390859916107E+01
 0.1416481895013E+01
 0.1445583541372E+01
 0.1478714688287E+01
 0.1516581168543E+01
 0.1560143294305E+01
 0.1610971411754E+01
 0.1671576059731E+01
 0.1742920683769E+01
 0.1823151406812E+01
 0.1909968681660E+01
 0.2002000413319E+01
 0.2099070068239E+01
 0.2201939020707E+01
 0.2311861158142E+01
 0.2430062156717E+01
 0.2556432365356E+01
 0.2691969084472E+01
 0.2843502652769E+01
 0.3025943892555E+01
 0.3248676285612E+01
 0.3590025807321E+01
 0.3899788099612E+01
 0.5655873782820E+01
 0.1714504737885E+01
 0.1966431294006E+01
 0.1622386932918E+01
 0.1436029419316E+01
 0.1373417998720E+01
 0.1331988954301E+01
 0.1309978167897E+01
 0.1297947614364E+01
 0.1292988298933E+01
 0.1292976405084E+01
 0.1296748447945E+01
 0.1303571112040E+01
 0.1313015969521E+01
 0.1324854556053E+01
 0.1339006752700E+01
 0.1355508184701E+01
 0.1374491902212E+01
 0.1396179126272E+01
 0.1420877029175E+01
 0.1448985603387E+01
 0.1481016036502E+01
 0.1517629317422E+01
 0.1559737059653E+01
 0.1608738204532E+01
 0.1666205660872E+01
 0.1732545430748E+01
 0.1806496510322E+01
 0.1886280494658E+01
 0.1970679766441E+01
 0.2059317995509E+01
 0.2152480378023E+01
 0.2250757098497E+01
 0.2354433018104E+01
 0.2463264581642E+01
 0.2578000865157E+01
 0.2703087390281E+01
 0.2843228440229E+01
 0.3015547319912E+01
 0.3192502592645E+01
 0.3532185040457E+01
 0.3548294905205E+01
-0.8836183312021E-01
 0.1858363809286E+01
 0.1645986288408E+01
 0.1480737690109E+01
 0.1401073708331E+01
 0.1357577380367E+01
 0.1331139330359E+01
 0.1316312861496E+01
 0.1308940829121E+01
 0.1306983485216E+01
 0.1309113545619E+01
 0.1314533229094E+01
 0.1322752002322E+01
 0.1333495050015E+01
 0.1346642118666E+01
 0.1362192976593E+01
 0.1380246544475E+01
 0.1400989976179E+01
 0.1424694915742E+01
 0.1451722574823E+01
 0.1482539337195E+01
 0.1517750563686E+01
 0.1558184633724E+01
 0.1604944333869E+01
 0.1659023153235E+01
 0.1720526149356E+01
 0.1788457003326E+01
 0.1861390746481E+01
 0.1938207651104E+01
 0.2018345442429E+01
 0.2101673065310E+01
 0.2188155952466E+01
 0.2277432934159E+01
 0.2368813340974E+01
 0.2462286564101E+01
 0.2558477839435E+01
 0.2659608754799E+01
 0.2758884933846E+01
 0.2853715965086E+01
 0.2891051887033E+01
 0.2187163280958E+01
-0.7252134702991E+00
 0.1793455925157E+01
 0.1645332093548E+01
 0.1509755149702E+01
 0.1427207041638E+01
 0.1379902998921E+01
 0.1350910450059E+01
 0.1333527785771E+01
 0.1324096841926E+01
 0.1320358552859E+01
 0.1320962514328E+01
 0.1325046534161E+01
 0.1332077049521E+01
 0.1341739264578E+01
 0.1353877706815E+01
 0.1368458772571E+01
 0.1385548462461E+01
 0.1405299903565E+01
 0.1427948038922E+01
 0.1453812503297E+01
 0.1483309308257E+01
 0.1516977846541E+01
 0.1555522750733E+01
 0.1599765982453E+01
 0.1650312172134E+01
 0.1707072998624E+01
 0.1769182396206E+01
 0.1835426616411E+01
 0.1904734264439E+01
 0.1976368282486E+01
 0.2049820769587E+01
 0.2124528168441E+01
 0.2199560065880E+01
 0.2273659156950E+01
 0.2345422336622E+01
 0.2413126424072E+01
 0.2472011159765E+01
 0.2509846026125E+01
 0.2497755828528E+01
 0.2281133969852E+01
 0.1338292304994E+01
-0.9173488494350E+00
 0.1749643544229E+01
 0.1638456975294E+01
 0.1527383215948E+01
 0.1449051765624E+01
 0.1399895970999E+01
 0.1368949053564E+01
 0.1349622761560E+01
 0.1338398739003E+01
 0.1333077017134E+01
 0.1332271199605E+01
 0.1335094097253E+01
 0.1340978707671E+01
 0.1349579368577E+01
 0.1360709938271E+01
 0.1374306285549E+01
 0.1390402845391E+01
 0.1409118948884E+01
 0.1430651906379E+01
 0.1455277289350E+01
 0.1483356241240E+01
 0.1515350338799E+01
 0.1551825839000E+01
 0.1593364064328E+01
 0.1640291912938E+01
 0.1692381710111E+01
 0.1748827235921E+01
 0.1808530361083E+01
 0.1870425763610E+01
 0.1933608780495E+01
 0.1997237959466E+01
 0.2060291451259E+01
 0.2121319468102E+01
 0.2178346983336E+01
 0.2228706350746E+01
 0.2267937563060E+01
 0.2286811534080E+01
 0.2265889302913E+01
 0.2151327638420E+01
 0.1776838325101E+01
 0.8056787331832E+00
-0.9681807505761E+00
 0.1718128256914E+01
 0.1630349751684E+01
 0.1538139873970E+01
 0.1466401234020E+01
 0.1417491766795E+01
 0.1385329393789E+01
 0.1364543737774E+01
 0.1351833759948E+01
 0.1345115545222E+01
 0.1343023710500E+01
 0.1344662897321E+01
 0.1349448092813E+01
 0.1357010262330E+01
 0.1367137663498E+01
 0.1379738499277E+01
 0.1394817171986E+01
 0.1412459635597E+01
 0.1432824903439E+01
 0.1456142592083E+01
 0.1482714932406E+01
 0.1512918310098E+01
 0.1547181753805E+01
 0.1585885174377E+01
 0.1629147104008E+01
 0.1676630551400E+01
 0.1727547635794E+01
 0.1780853518197E+01
 0.1835457301056E+01
 0.1890294682794E+01
 0.1944230002570E+01
 0.1995842043744E+01
 0.2043182358085E+01
 0.2083566870452E+01
 0.2113070059475E+01
 0.2124963450374E+01
 0.2106577663779E+01
 0.2031527597575E+01
 0.1836060571982E+01
 0.1379669441544E+01
 0.4597649658705E+00
-0.9666826549511E+00
 0.1694543559472E+01
 0.1622590191473E+01
 0.1544808936372E+01
 0.1479994377266E+01
 0.1432702648640E+01
 0.1400103945762E+01
 0.1378294598082E+01
 0.1364390832961E+01
 0.1356463790283E+01
 0.1353209099413E+01
 0.1353744605359E+01
 0.1357479565341E+01
 0.1364029574964E+01
 0.1373162077489E+01
 0.1384760585867E+01
 0.1398801104563E+01
 0.1415336825265E+01
 0.1434488141854E+01
 0.1456437365519E+01
 0.1481425052724E+01
 0.1509740012954E+01
 0.1541682499465E+01
 0.1577464025757E+01
 0.1617040387827E+01
 0.1659983437160E+01
 0.1705497985624E+01
 0.1752552194365E+01
 0.1800008668310E+01
 0.1846652961376E+01
 0.1891091520944E+01
 0.1931550822681E+01
 0.1965624258391E+01
 0.1989960471380E+01
 0.1999525922531E+01
 0.1985846891841E+01
 0.1933578598516E+01
 0.1812407638044E+01
 0.1560467397093E+01
 0.1070788162847E+01
 0.2276054930226E+00
-0.9455466468247E+00
 0.1676403430655E+01
 0.1615666471965E+01
 0.1549017597309E+01
 0.1490670839691E+01
 0.1445721193416E+01
 0.1413333422760E+01
 0.1390903182701E+01
 0.1376073605923E+01
 0.1367118984468E+01
 0.1362822680407E+01
 0.1362334984731E+01
 0.1365070756629E+01
 0.1370637539828E+01
 0.1378786637373E+01
 0.1389379799719E+01
 0.1402366361750E+01
 0.1417767560090E+01
 0.1435665201507E+01
 0.1456193583274E+01
 0.1479530491835E+01
 0.1505878489406E+01
 0.1535420217141E+01
 0.1568225471661E+01
 0.1604118722993E+01
 0.1642592684736E+01
 0.1682829011496E+01
 0.1723783443628E+01
 0.1764260080261E+01
 0.1802905942947E+01
 0.1838102705844E+01
 0.1867770140385E+01
 0.1889095988508E+01
 0.1898145311458E+01
 0.1889000400891E+01
 0.1851927197995E+01
 0.1769957186868E+01
 0.1612210121802E+01
 0.1324643515240E+01
 0.8303941093862E+00
 0.6733562912581E-01
-0.9171777980933E+00
 0.1662161488923E+01
 0.1609674677665E+01
 0.1551724873131E+01
 0.1499136671232E+01
 0.1456824935433E+01
 0.1425112855073E+01
 0.1402411586974E+01
 0.1386898696168E+01
 0.1377086071107E+01
 0.1371865240723E+01
 0.1370433835418E+01
 0.1372222364508E+01
 0.1376836889033E+01
 0.1384016941254E+01
 0.1393605353436E+01
 0.1405526570654E+01
 0.1419770868697E+01
 0.1436381861278E+01
 0.1455445846593E+01
 0.1477078308910E+01
 0.1501399238579E+01
 0.1528485313390E+01
 0.1558286021602E+01
 0.1590517086259E+01
 0.1624600888525E+01
 0.1659686617033E+01
 0.1694702414596E+01
 0.1728388850456E+01
 0.1759267912351E+01
 0.1785528335072E+01
 0.1804829600128E+01
 0.1814017615321E+01
 0.1808688442679E+01
 0.1782285202923E+01
 0.1724309562824E+01
 0.1617319349855E+01
 0.1432313330415E+01
 0.1124959530105E+01
 0.6422003410423E+00
-0.4578917865244E-01
-0.8864772524010E+00
 0.1650796267700E+01
 0.1604565640888E+01
 0.1553506065318E+01
 0.1505934731271E+01
 0.1466302557818E+01
 0.1435564831411E+01
 0.1412875299491E+01
 0.1396892581671E+01
 0.1386377143704E+01
 0.1380342544489E+01
 0.1378044696459E+01
 0.1378937975164E+01
 0.1382632699968E+01
 0.1388860594597E+01
 0.1397448276051E+01
 0.1408297102160E+01
 0.1421367552806E+01
 0.1436665805231E+01
 0.1454230884514E+01
 0.1474117687534E+01
 0.1496368622123E+01
 0.1520965548903E+01
 0.1547754947051E+01
 0.1576360737248E+01
 0.1606142114793E+01
 0.1636211070786E+01
 0.1665460168249E+01
 0.1692566666164E+01
 0.1715942742603E+01
 0.1733615734045E+01
 0.1743032742760E+01
 0.1740770517747E+01
 0.1722085343556E+01
 0.1680029534342E+01
 0.1603831532873E+01
 0.1476556919998E+01
 0.1272447200941E+01
 0.9566257204068E+00
 0.4937641136864E+00
-0.1269175268634E+00
-0.8554156112808E+00
 0.1641603274146E+01
 0.1600240914052E+01
 0.1554711844971E+01
 0.1511469168542E+01
 0.1474418212964E+01
 0.1444824183987E+01
 0.1422360697107E+01
 0.1406089530467E+01
 0.1395010334499E+01
 0.1388264828450E+01
 0.1385174499131E+01
 0.1385223841476E+01
 0.1388032223512E+01
 0.1393327057265E+01
 0.1400921257525E+01
 0.1410694891682E+01
 0.1422579959634E+01
 0.1436546301302E+01
 0.1452587019018E+01
 0.1470699033314E+01
 0.1490852785029E+01
 0.1512945585032E+01
 0.1536735078298E+01
 0.1561766652245E+01
 0.1587342638263E+01
 0.1612536386890E+01
 0.1636201996960E+01
 0.1656957501019E+01
 0.1673121935895E+01
 0.1682592803740E+01
 0.1682653928768E+01
 0.1669690015769E+01
 0.1638749839944E+01
 0.1582733803525E+01
 0.1491032894962E+01
 0.1347912944421E+01
 0.1131389379130E+01
 0.8148717609760E+00
 0.3758030700426E+00
-0.1856545665348E+00
-0.8247933864440E+00
 0.1634080537251E+01
 0.1596591825489E+01
 0.1555558461137E+01
 0.1516037695878E+01
 0.1481399230121E+01
 0.1453025388257E+01
 0.1430940812485E+01
 0.1414529766716E+01
 0.1403008666424E+01
 0.1395646197168E+01
 0.1391833198742E+01
 0.1391088631636E+01
 0.1393044694754E+01
 0.1397427477572E+01
 0.1404038482375E+01
 0.1412738250382E+01
 0.1423431744091E+01
 0.1436053866681E+01
 0.1450553649579E+01
 0.1466873237519E+01
 0.1484916917708E+01
 0.1504506753248E+01
 0.1525323371324E+01
 0.1546844445333E+01
 0.1568321378324E+01
 0.1588789820541E+01
 0.1607066137373E+01
 0.1621716000175E+01
 0.1630983019003E+01
 0.1632666313811E+01
 0.1623935600156E+01
 0.1601060687988E+01
 0.1559009951618E+01
 0.1490746596036E+01
 0.1386167355834E+01
 0.1231143239115E+01
 0.1007466941644E+01
 0.6954094247655E+00
 0.2814205669711E+00
-0.2282995118176E+00
-0.7949322585083E+00
 0.1627861132642E+01
 0.1593515216118E+01
 0.1556180169390E+01
 0.1519859395174E+01
 0.1487435176006E+01
 0.1460294812699E+01
 0.1438691024116E+01
 0.1422257557783E+01
 0.1410398955485E+01
 0.1402503974495E+01
 0.1398033379656E+01
 0.1396543159064E+01
 0.1397681127957E+01
 0.1401174514934E+01
 0.1406815454154E+01
 0.1414446669139E+01
 0.1423947625336E+01
 0.1435219935907E+01
 0.1448170785265E+01
 0.1462691091075E+01
 0.1478624744377E+01
 0.1495726938119E+01
 0.1513611312642E+01
 0.1531696972964E+01
 0.1549190156645E+01
 0.1565091469390E+01
 0.1578182810193E+01
 0.1586986269584E+01
 0.1589688322982E+01
 0.1584020594930E+01
 0.1567086471841E+01
 0.1535114378938E+01
 0.1483107727552E+01
 0.1404271054028E+01
 0.1289245847348E+01
 0.1125682784636E+01
 0.8988669165206E+00
 0.5945604283304E+00
 0.2054669379241E+00
-0.2591151723256E+00
-0.7659516202602E+00
 0.1622671274955E+01
 0.1590919152418E+01
 0.1556660458252E+01
 0.1523096077940E+01
 0.1492681581273E+01
 0.1466746913250E+01
 0.1445685612993E+01
 0.1429319351158E+01
 0.1417210759204E+01
 0.1408858056682E+01
 0.1403789844969E+01
 0.1401600100155E+01
 0.1401954100808E+01
 0.1404582154093E+01
 0.1409268813744E+01
 0.1415840618761E+01
 0.1424153144060E+01
 0.1434076544603E+01
 0.1445478634673E+01
 0.1458202822884E+01
 0.1472038162927E+01
 0.1486680519726E+01
 0.1501685211799E+01
 0.1516420741482E+01
 0.1530053855792E+01
 0.1541553976604E+01
 0.1549673531865E+01
 0.1552901019882E+01
 0.1549384149939E+01
 0.1536816753277E+01
 0.1512280848831E+01
 0.1472030452520E+01
 0.1411202946482E+01
 0.1323380593856E+01
 0.1200092352022E+01
 0.1030781251341E+01
 0.8038104058142E+00
 0.5092407044337E+00
 0.1440605197767E+00
-0.2810703257910E+00
-0.7378796664055E+00
 0.1618303205237E+01
 0.1588724266508E+01
 0.1557051050757E+01
 0.1525868006111E+01
 0.1497265081631E+01
 0.1472483001673E+01
 0.1451995413822E+01
 0.1435762150192E+01
 0.1423475394393E+01
 0.1414730290932E+01
 0.1409119206966E+01
 0.1406273707267E+01
 0.1405877533445E+01
 0.1407665514955E+01
 0.1411416155102E+01
 0.1416941350582E+01
 0.1424074426588E+01
 0.1432656036737E+01
 0.1442517253667E+01
 0.1453457736502E+01
 0.1465216986861E+01
 0.1477438346934E+01
 0.1489626415284E+01
 0.1501106190003E+01
 0.1511010526050E+01
 0.1518282326116E+01
 0.1521650650100E+01
 0.1519581015562E+01
 0.1510200313314E+01
 0.1491192451785E+01
 0.1459659011686E+01
 0.1411937939939E+01
 0.1343380262172E+01
 0.1248040325020E+01
 0.1118398613803E+01
 0.9456012769004E+00
 0.7206406317800E+00
 0.4368914483218E+00
 0.9424040909890E-01
-0.2962882510862E+00
-0.7106972990784E+00
 0.1614597059970E+01
 0.1586863238548E+01
 0.1557383674729E+01
 0.1528265268984E+01
 0.1501288535224E+01
 0.1477591491659E+01
 0.1457686430990E+01
 0.1441632230473E+01
 0.1429225061627E+01
 0.1420143894493E+01
 0.1414039489886E+01
 0.1410579522972E+01
 0.1409466465745E+01
 0.1410440660563E+01
 0.1413275840727E+01
 0.1417770700374E+01
 0.1423737960064E+01
 0.1430990799338E+01
 0.1439326247013E+01
 0.1448503925110E+01
 0.1458218760109E+01
 0.1468067731480E+01
 0.1477511472535E+01
 0.1485837903896E+01
 0.1492151481509E+01
 0.1495373736535E+01
 0.1494217085420E+01
 0.1487134812831E+01
 0.1472250059887E+01
 0.1447262271882E+01
 0.1409328573302E+01
 0.1354919285389E+01
 0.1279658830531E+01
 0.1178130280654E+01
 0.1043771072650E+01
 0.8692845912523E+00
 0.6478604368711E+00
 0.3753978111416E+00
 0.5371700953409E-01
-0.3063285688706E+00
-0.6843542624606E+00
 0.1611428405977E+01
 0.1585279567472E+01
 0.1557677457568E+01
 0.1530355971069E+01
 0.1504835561148E+01
 0.1482148894604E+01
 0.1462819182064E+01
 0.1446974211541E+01
 0.1434492106573E+01
 0.1425122929045E+01
 0.1418569755479E+01
 0.1414534102876E+01
 0.1412736837872E+01
 0.1412924407076E+01
 0.1414866820201E+01
 0.1418350898819E+01
 0.1423170381802E+01
 0.1429113025180E+01
 0.1435944516778E+01
 0.1443388046443E+01
 0.1451098622095E+01
 0.1458632453430E+01
 0.1465412268520E+01
 0.1470694785148E+01
 0.1473561398431E+01
 0.1472917638905E+01
 0.1467466241035E+01
 0.1455658740507E+01
 0.1435630327020E+01
 0.1405118575629E+01
 0.1361366612939E+01
 0.1301015237616E+01
 0.1220003147820E+01
 0.1113467550406E+01
 0.9757679386801E+00
 0.8009936904381E+00
 0.5841415696548E+00
 0.3230127159929E+00
 0.2069276324899E-01
-0.3123749673143E+00
-0.6587749159313E+00
 0.1608699466572E+01
 0.1583926153560E+01
 0.1557943622604E+01
 0.1532192124233E+01
 0.1507974350079E+01
 0.1486221124506E+01
 0.1467448537920E+01
 0.1451830443956E+01
 0.1439308428658E+01
 0.1429691839955E+01
 0.1422729757820E+01
 0.1418154751567E+01
 0.1415705277112E+01
 0.1415134137956E+01
 0.1416208453716E+01
 0.1418704390499E+01
 0.1422398284291E+01
 0.1427054502699E+01
 0.1432410051358E+01
 0.1438155145451E+01
 0.1443909210883E+01
 0.1449192777165E+01
 0.1453396139033E+01
 0.1455750204296E+01
 0.1455318433000E+01
 0.1450995738471E+01
 0.1441482066814E+01
 0.1425237103455E+01
 0.1400422305965E+01
 0.1364832799920E+01
 0.1315822409978E+01
 0.1250230440671E+01
 0.1164334028641E+01
 0.1053825745019E+01
 0.9139268635156E+00
 0.7399362875925E+00
 0.5283189628476E+00
 0.2782922091313E+00
-0.6264037975411E-02
-0.3153748299890E+00
-0.6338650550787E+00
 0.1606332815584E+01
 0.1582763923782E+01
 0.1558188491898E+01
 0.1533813897790E+01
 0.1510760770700E+01
 0.1489864863049E+01
 0.1471623874580E+01
 0.1456240649726E+01
 0.1443705030761E+01
 0.1433875064520E+01
 0.1426539631401E+01
 0.1421459274837E+01
 0.1418388893290E+01
 0.1417087624098E+01
 0.1417320342133E+01
 0.1418853662824E+01
 0.1421448036744E+01
 0.1424846431960E+01
 0.1428759750369E+01
 0.1432848516837E+01
 0.1436700598299E+01
 0.1439805480836E+01
 0.1441525983568E+01
 0.1441072154574E+01
 0.1437494374245E+01
 0.1429682164638E+01
 0.1416339270747E+01
 0.1395942593712E+01
 0.1366692281544E+01
 0.1326457108769E+01
 0.1272720600917E+01
 0.1202539303788E+01
 0.1112538994514E+01
 0.9989511506627E+00
 0.8577847938278E+00
 0.6853780480666E+00
 0.4793780372064E+00
 0.2400412261849E+00
-0.2829823094676E-01
-0.3161539232870E+00
-0.6095640385964E+00
 0.1604266755403E+01
 0.1581760601043E+01
 0.1558415403751E+01
 0.1535252700783E+01
 0.1513240858085E+01
 0.1493128857101E+01
 0.1475389403627E+01
 0.1460241753809E+01
 0.1447711694822E+01
 0.1437696709769E+01
 0.1430019616030E+01
 0.1424465751783E+01
 0.1420805085888E+01
 0.1418802852501E+01
 0.1418222165666E+01
 0.1418821086326E+01
 0.1420345623287E+01
 0.1422519264336E+01
 0.1425029279571E+01
 0.1427509598884E+01
 0.1429520249123E+01
 0.1430523896287E+01
 0.1429860378487E+01
 0.1426723411717E+01
 0.1420154828184E+01
 0.1409043692377E+01
 0.1392103646841E+01
 0.1367836862642E+01
 0.1334492675881E+01
 0.1290026282555E+01
 0.1232064529443E+01
 0.1157891778430E+01
 0.1064481497183E+01
 0.9485757481286E+00
 0.8068909634351E+00
 0.6366493041106E+00
 0.4364359608354E+00
 0.2072735732278E+00
-0.4632362982022E-01
-0.3154553371158E+00
-0.5860552092232E+00
 0.1602453209972E+01
 0.1580890350937E+01
 0.1558626806570E+01
 0.1536533884646E+01
 0.1515452812645E+01
 0.1496054565080E+01
 0.1478783532255E+01
 0.1463866314802E+01
 0.1451354851982E+01
 0.1441178141229E+01
 0.1433187572723E+01
 0.1427190157992E+01
 0.1422969455449E+01
 0.1420296423558E+01
 0.1418932791972E+01
 0.1418628995375E+01
 0.1419118005684E+01
 0.1420105716228E+01
 0.1421258175935E+01
 0.1422185690473E+01
 0.1422423953084E+01
 0.1421412736905E+01
 0.1418473052082E+01
 0.1412786477533E+01
 0.1403390528281E+01
 0.1389178395730E+01
 0.1368879114129E+01
 0.1341027021806E+01
 0.1303929072869E+01
 0.1255636246321E+01
 0.1193927080643E+01
 0.1116316847685E+01
 0.1020116468554E+01
 0.9025413954122E+00
 0.7609336983090E+00
 0.5932561094523E+00
 0.3988378347211E+00
 0.1792217417412E+00
-0.6097314231141E-01
-0.3138024252558E+00
-0.5654115612953E+00
 0.1600849976330E+01
 0.1580129979492E+01
 0.1558821846526E+01
 0.1537676176843E+01
 0.1517427561398E+01
 0.1498677591670E+01
 0.1481841104375E+01
 0.1467145590253E+01
 0.1454661412090E+01
 0.1444342395365E+01
 0.1436063696781E+01
 0.1429651030886E+01
 0.1424900026689E+01
 0.1421586893965E+01
 0.1419472248875E+01
 0.1418299733978E+01
 0.1417790600468E+01
 0.1417634929959E+01
 0.1417479816179E+01
 0.1416914697203E+01
 0.1415454138694E+01
 0.1412518567433E+01
 0.1407413888517E+01
 0.1399313295190E+01
 0.1387253769924E+01
 0.1370136702889E+01
 0.1346711257609E+01
 0.1315549593072E+01
 0.1275022701104E+01
 0.1223283634558E+01
 0.1158266611755E+01
 0.1077715264608E+01
 0.9792616477001E+00
 0.8605537590676E+00
 0.7194805108962E+00
 0.5546226454896E+00
 0.3658855849533E+00
 0.1551912557028E+00
-0.7297790970819E-01
-0.3110055645524E+00
-0.5500873995777E+00
 0.1599426339418E+01
 0.1579462075388E+01
 0.1559001435496E+01
 0.1538696696365E+01
 0.1519193077360E+01
 0.1501030813713E+01
 0.1484595328360E+01
 0.1470110482572E+01
 0.1457658998035E+01
 0.1447213922816E+01
 0.1438669919430E+01
 0.1431868622053E+01
 0.1426616206590E+01
 0.1422693573366E+01
 0.1419860379866E+01
 0.1417854184776E+01
 0.1416385696110E+01
 0.1415130799817E+01
 0.1413719684181E+01
 0.1411723390554E+01
 0.1408638198026E+01
 0.1403868297860E+01
 0.1396707732827E+01
 0.1386324565332E+01
 0.1371758521962E+01
 0.1351922679647E+01
 0.1325590273178E+01
 0.1291375751408E+01
 0.1247718807011E+01
 0.1192878375405E+01
 0.1124945110842E+01
 0.1041884783302E+01
 0.9416313242714E+00
 0.8222244691932E+00
 0.6820292050699E+00
 0.5201383755228E+00
 0.3369106212470E+00
 0.1344968655851E+00
-0.8270275399908E-01
-0.3081163758063E+00
-0.5341469402587E+00
 0.1598156550189E+01
 0.1578872151437E+01
 0.1559165637004E+01
 0.1539608893936E+01
 0.1520772052385E+01
 0.1503141406725E+01
 0.1487074004808E+01
 0.1472787055960E+01
 0.1460370965464E+01
 0.1449813382274E+01
 0.1441024773577E+01
 0.1433860157119E+01
 0.1428134794978E+01
 0.1423633690334E+01
 0.1420115633621E+01
 0.1417312731023E+01
 0.1414926236729E+01
 0.1412619347654E+01
 0.1410007249921E+01
 0.1406644859836E+01
 0.1402012750265E+01
 0.1395501668849E+01
 0.1386396674176E+01
 0.1373863553035E+01
 0.1356947608502E+01
 0.1334576543695E+01
 0.1305550829699E+01
 0.1268530512323E+01
 0.1222026944652E+01
 0.1164406399286E+01
 0.1093913747446E+01
 0.1008727470007E+01
 0.9070616652943E+00
 0.7873075466833E+00
 0.6482411653605E+00
 0.4893793244349E+00
 0.3114258087451E+00
 0.1166906827238E+00
-0.9064541881060E-01
-0.3046949998818E+00
-0.5187654780751E+00
 0.1597019867069E+01
 0.1578348461521E+01
 0.1559314558036E+01
 0.1540424041992E+01
 0.1522183848317E+01
 0.1505033039035E+01
 0.1489301883475E+01
 0.1475199029357E+01
 0.1462819013571E+01
 0.1452160318315E+01
 0.1443146043670E+01
 0.1435642321069E+01
 0.1429472133497E+01
 0.1424424000739E+01
 0.1420255893383E+01
 0.1416695029017E+01
 0.1413434211712E+01
 0.1410125345749E+01
 0.1406370371705E+01
 0.1401710157403E+01
 0.1395611899372E+01
 0.1387455389197E+01
 0.1376519228183E+01
 0.1361969387599E+01
 0.1342859127507E+01
 0.1318133154562E+01
 0.1286621566141E+01
 0.1247032202156E+01
 0.1197949485381E+01
 0.1137846450302E+01
 0.1065117582667E+01
 0.9781423487263E+00
 0.8753921263445E+00
 0.7555708250280E+00
 0.6178077433640E+00
 0.4619673434166E+00
 0.2890199321101E+00
 0.1013576471212E+00
-0.9705444568514E-01
-0.3008706309539E+00
-0.5040215209447E+00
 0.1595999592569E+01
 0.1577881552261E+01
 0.1559448429277E+01
 0.1541151717440E+01
 0.1523445090229E+01
 0.1506726384021E+01
 0.1491300999878E+01
 0.1477367938195E+01
 0.1465023216191E+01
 0.1454273113435E+01
 0.1445050678332E+01
 0.1437231155869E+01
 0.1430644000755E+01
 0.1425080686027E+01
 0.1420298380936E+01
 0.1416019919849E+01
 0.1411930578531E+01
 0.1407672256115E+01
 0.1402835259598E+01
 0.1396948295306E+01
 0.1389467273199E+01
 0.1379763225709E+01
 0.1367110485423E+01
 0.1350677280553E+01
 0.1329526757581E+01
 0.1302622443447E+01
 0.1268825698457E+01
 0.1226893317236E+01
 0.1175482819741E+01
 0.1113171718307E+01
 0.1038497655173E+01
 0.9500278363042E+00
 0.8464677129874E+00
 0.7267975267277E+00
 0.5904483339198E+00
 0.4375694111494E+00
 0.2693323616934E+00
 0.8816496538854E-01
-0.1021692813295E+00
-0.2967596037715E+00
-0.4900366686899E+00
 0.1595082314637E+01
 0.1577463875553E+01
 0.1559567646041E+01
 0.1541800154862E+01
 0.1524570136069E+01
 0.1508239543690E+01
 0.1493090971298E+01
 0.1479313290455E+01
 0.1467002065746E+01
 0.1456168958479E+01
 0.1446754720340E+01
 0.1438641972282E+01
 0.1431665518874E+01
 0.1425619261322E+01
 0.1420259570082E+01
 0.1415305351425E+01
 0.1410435197326E+01
 0.1405282183303E+01
 0.1399426453922E+01
 0.1392386258243E+01
 0.1383608080011E+01
 0.1372456112252E+01
 0.1358202282531E+01
 0.1340018771619E+01
 0.1316980099273E+01
 0.1288069882533E+01
 0.1252181664674E+01
 0.1208121406320E+01
 0.1154618544347E+01
 0.1090351377541E+01
 0.1013992856847E+01
 0.9242837680514E+00
 0.8201407994811E+00
 0.7007868502313E+00
 0.5659097254406E+00
 0.4158909348736E+00
 0.2520528610402E+00
 0.7682957541661E-01
-0.1061993679185E+00
-0.2924848329685E+00
-0.4768846555784E+00
 0.1594257292935E+01
 0.1577089458174E+01
 0.1559672773583E+01
 0.1542376505302E+01
 0.1525571444162E+01
 0.1509588396600E+01
 0.1494689252768E+01
 0.1481052712477E+01
 0.1468772524600E+01
 0.1457863837857E+01
 0.1448273252511E+01
 0.1439889276134E+01
 0.1432551072583E+01
 0.1426054494618E+01
 0.1420155110467E+01
 0.1414568310641E+01
 0.1408966775657E+01
 0.1402975837237E+01
 0.1396166813095E+01
 0.1388049024412E+01
 0.1378061170887E+01
 0.1365562262510E+01
 0.1349823375209E+01
 0.1330021975167E+01
 0.1305245014682E+01
 0.1274496947114E+01
 0.1236703749670E+01
 0.1190719905918E+01
 0.1135344552334E+01
 0.1069351950706E+01
 0.9915415140922E+00
 0.9008130181741E+00
 0.7962723492519E+00
 0.6773543027121E+00
 0.5439642624480E+00
 0.3966724323565E+00
 0.2369133473579E+00
 0.6710878107711E-01
-0.1093287576738E+00
-0.2881583311158E+00
-0.4646136995205E+00
 0.1593515964701E+01
 0.1576753624210E+01
 0.1559764533413E+01
 0.1542887029023E+01
 0.1526459864171E+01
 0.1510786885694E+01
 0.1496111359187E+01
 0.1482602084394E+01
 0.1470350081370E+01
 0.1459372526982E+01
 0.1449620357652E+01
 0.1440986707804E+01
 0.1433314239823E+01
 0.1426400335826E+01
 0.1419999759905E+01
 0.1413824762915E+01
 0.1407542819451E+01
 0.1400772500698E+01
 0.1393077503901E+01
 0.1383959585735E+01
 0.1372851097652E+01
 0.1359107273962E+01
 0.1341999597913E+01
 0.1320711808362E+01
 0.1294343942244E+01
 0.1261921542521E+01
 0.1222402656861E+01
 0.1174688892013E+01
 0.1117645991623E+01
 0.1050138467930E+01
 0.9710826747459E+00
 0.8795227160560E+00
 0.7747327223576E+00
 0.6563315268641E+00
 0.5244081901384E+00
 0.3796858078251E+00
 0.2236816339560E+00
 0.5879342779989E-01
-0.1117177456004E+00
-0.2838778485764E+00
-0.4532535305833E+00
 0.1592851540084E+01
 0.1576452759774E+01
 0.1559843775940E+01
 0.1543337236619E+01
 0.1527244865252E+01
 0.1511847253286E+01
 0.1497371053911E+01
 0.1483975660783E+01
 0.1471748805799E+01
 0.1460708595566E+01
 0.1450809087264E+01
 0.1441946990947E+01
 0.1433967731256E+01
 0.1426669854458E+01
 0.1419807325484E+01
 0.1413089601139E+01
 0.1406179594339E+01
 0.1398690008340E+01
 0.1390178004419E+01
 0.1380138981801E+01
 0.1368000185680E+01
 0.1353114248185E+01
 0.1334754041785E+01
 0.1312110239610E+01
 0.1284296232928E+01
 0.1250358450504E+01
 0.1209286091136E+01
 0.1160025824518E+01
 0.1101506182614E+01
 0.1032675535668E+01
 0.9525572405186E+00
 0.8603252560829E+00
 0.7554022453336E+00
 0.6375660040343E+00
 0.5070600508621E+00
 0.3647310347650E+00
 0.2121565043254E+00
 0.5170314433111E-01
-0.1135049338409E+00
-0.2797265618450E+00
-0.4428222148066E+00
 0.1592258669529E+01
 0.1576184113561E+01
 0.1559911445851E+01
 0.1543731992161E+01
 0.1527934715618E+01
 0.1512780233629E+01
 0.1498480509417E+01
 0.1485186178703E+01
 0.1472981402736E+01
 0.1461884417097E+01
 0.1451851439631E+01
 0.1442781891414E+01
 0.1434523339543E+01
 0.1426875186138E+01
 0.1419590612415E+01
 0.1412376601122E+01
 0.1404892091970E+01
 0.1396744728646E+01
 0.1387486107151E+01
 0.1376606330468E+01
 0.1363528598926E+01
 0.1347603898150E+01
 0.1328107213458E+01
 0.1304236510455E+01
 0.1275118450085E+01
 0.1239819725321E+01
 0.1197359270910E+01
 0.1146726190762E+01
 0.1086907393135E+01
 0.1016928209598E+01
 0.9359088465859E+00
 0.8431390098048E+00
 0.7381714859774E+00
 0.6209205535107E+00
 0.4917590654330E+00
 0.3516332050271E+00
 0.2021637627218E+00
 0.4568260546527E-01
-0.1148093779176E+00
-0.2757744065741E+00
-0.4333304308135E+00
 0.1591733172017E+01
 0.1575945629189E+01
 0.1559968545862E+01
 0.1544075589363E+01
 0.1528536624729E+01
 0.1513595210812E+01
 0.1499450443414E+01
 0.1486244952758E+01
 0.1474059262658E+01
 0.1462911181033E+01
 0.1452758343831E+01
 0.1443502183276E+01
 0.1434991895863E+01
 0.1427027486145E+01
 0.1419361379630E+01
 0.1411698383577E+01
 0.1403694002642E+01
 0.1394951551889E+01
 0.1385017927636E+01
 0.1373378863112E+01
 0.1359454408573E+01
 0.1342594657895E+01
 0.1322077194687E+01
 0.1297107356057E+01
 0.1266824664012E+01
 0.1230315077573E+01
 0.1186625415871E+01
 0.1134784105490E+01
 0.1073831542488E+01
 0.1002862762549E+01
 0.9210846025919E+00
 0.8278888817612E+00
 0.7229413959696E+00
 0.6062727906389E+00
 0.4783636554767E+00
 0.3402400337986E+00
 0.1935530630678E+00
 0.4059850884074E-01
-0.1157327193018E+00
-0.2720798036716E+00
-0.4247842211248E+00
 0.1591271808249E+01
 0.1575735802286E+01
 0.1560016098505E+01
 0.1544371805409E+01
 0.1529056853898E+01
 0.1514300346393E+01
 0.1500290232325E+01
 0.1487161957121E+01
 0.1474992507563E+01
 0.1463798906331E+01
 0.1453539648606E+01
 0.1444117621419E+01
 0.1435383233623E+01
 0.1427136890169E+01
 0.1419130302369E+01
 0.1411066382677E+01
 0.1402597693904E+01
 0.1393323883156E+01
 0.1382787916775E+01
 0.1370471961804E+01
 0.1355793661242E+01
 0.1338102788822E+01
 0.1316679794947E+01
 0.1290737213774E+01
 0.1259426727788E+01
 0.1221852229239E+01
 0.1177086191200E+01
 0.1124192846755E+01
 0.1062260814852E+01
 0.9904473320315E+00
 0.9080356875593E+00
 0.8145067115893E+00
 0.7096233298896E+00
 0.5935145489849E+00
 0.4667500954937E+00
 0.3304197326375E+00
 0.1861952981789E+00
 0.3633704297270E-01
-0.1163611848116E+00
-0.2686913256400E+00
-0.4171867787071E+00
 0.1590872095539E+01
 0.1575553561061E+01
 0.1560055110660E+01
 0.1544623940489E+01
 0.1529500804086E+01
 0.1514902683952E+01
 0.1501008006893E+01
 0.1487945896906E+01
 0.1475790032962E+01
 0.1464556456080E+01
 0.1454204115403E+01
 0.1444636919782E+01
 0.1435706158202E+01
 0.1427212480849E+01
 0.1418906939873E+01
 0.1410490818748E+01
 0.1401614191967E+01
 0.1391873636408E+01
 0.1380808871949E+01
 0.1367899192383E+01
 0.1352560439589E+01
 0.1334142474117E+01
 0.1311928686968E+01
 0.1285138408211E+01
 0.1252934521131E+01
 0.1214437225497E+01
 0.1168742093613E+01
 0.1114945314453E+01
 0.1052178172749E+01
 0.9796524450769E+00
 0.8967178064332E+00
 0.8029315410340E+00
 0.6981389664815E+00
 0.5825512914570E+00
 0.4568112991985E+00
 0.3220591972551E+00
 0.1799804285847E+00
 0.3280175358831E-01
-0.1167673632491E+00
-0.2656491423353E+00
-0.4105395463562E+00
 0.1590532154507E+01
 0.1575398165789E+01
 0.1560086540057E+01
 0.1544834845303E+01
 0.1529873084014E+01
 0.1515408232981E+01
 0.1501610730786E+01
 0.1488604268269E+01
 0.1476459544317E+01
 0.1465191551188E+01
 0.1454759413599E+01
 0.1445067733676E+01
 0.1435968421762E+01
 0.1427262259816E+01
 0.1418699708708E+01
 0.1409980676502E+01
 0.1400753168379E+01
 0.1390611233343E+01
 0.1379091952151E+01
 0.1365672340465E+01
 0.1349766924354E+01
 0.1330725912725E+01
 0.1307835539278E+01
 0.1280321329784E+01
 0.1247356182808E+01
 0.1208074727964E+01
 0.1161592808948E+01
 0.1107034447726E+01
 0.1043567814993E+01
 0.9704514747625E+00
 0.8870915732895E+00
 0.7931098198564E+00
 0.6884202094858E+00
 0.5733015799357E+00
 0.4484557818877E+00
 0.3150625001980E+00
 0.1748156932841E+00
 0.2991176115768E-01
-0.1170117368743E+00
-0.2629862242372E+00
-0.4048429431963E+00
 0.1590250583425E+01
 0.1575269125160E+01
 0.1560111264971E+01
 0.1545006940112E+01
 0.1530177563082E+01
 0.1515822036171E+01
 0.1502104265159E+01
 0.1489143409031E+01
 0.1477007588861E+01
 0.1465710783495E+01
 0.1455212118057E+01
 0.1445416646137E+01
 0.1436176702890E+01
 0.1427293124652E+01
 0.1418515860580E+01
 0.1409543686887E+01
 0.1400022929010E+01
 0.1389545602736E+01
 0.1377646691219E+01
 0.1363801442519E+01
 0.1347423447717E+01
 0.1327863399983E+01
 0.1304410129760E+01
 0.1276294587314E+01
 0.1242698308405E+01
 0.1202768262555E+01
 0.1155637511394E+01
 0.1100453569203E+01
 0.1036415546527E+01
 0.9628209969829E+00
 0.8791227923779E+00
 0.7849955243732E+00
 0.6804090418321E+00
 0.5656965709710E+00
 0.4416067495022E+00
 0.3093496144907E+00
 0.1706241169907E+00
 0.2760027113661E-01
-0.1171439684369E+00
-0.2607293049585E+00
-0.4000968247186E+00
 0.1590026357565E+01
 0.1575166128193E+01
 0.1560130058360E+01
 0.1545142228244E+01
 0.1530417412557E+01
 0.1516148223070E+01
 0.1502493421109E+01
 0.1489568540579E+01
 0.1477439582555E+01
 0.1466119627485E+01
 0.1455567707847E+01
 0.1445689157138E+01
 0.1436336589986E+01
 0.1427310849922E+01
 0.1418361464081E+01
 0.1409186312381E+01
 0.1399430405654E+01
 0.1388684181211E+01
 0.1376481010911E+01
 0.1362294814711E+01
 0.1345538541837E+01
 0.1325563400247E+01
 0.1301660447224E+01
 0.1273065143724E+01
 0.1238966125060E+01
 0.1198520436767E+01
 0.1150875123249E+01
 0.1095196680246E+01
 0.1030709090791E+01
 0.9567410855928E+00
 0.8727826825993E+00
 0.7785502398984E+00
 0.6740573855182E+00
 0.5596795827015E+00
 0.4362013416101E+00
 0.3048553705727E+00
 0.1673432975162E+00
 0.2581336004492E-01
-0.1172039516377E+00
-0.2588996426809E+00
-0.3963007712076E+00
 0.1589858748013E+01
 0.1575088988983E+01
 0.1560143565291E+01
 0.1545242304517E+01
 0.1530595136231E+01
 0.1516390051354E+01
 0.1502782000791E+01
 0.1489883801287E+01
 0.1477759832051E+01
 0.1466422450250E+01
 0.1455830565817E+01
 0.1445889675429E+01
 0.1436452568347E+01
 0.1427320072318E+01
 0.1418241390491E+01
 0.1408913735836E+01
 0.1398981150227E+01
 0.1388032915228E+01
 0.1375601233293E+01
 0.1361159078613E+01
 0.1344118981124E+01
 0.1323832609374E+01
 0.1299592778093E+01
 0.1270638431026E+01
 0.1236163638473E+01
 0.1195333120995E+01
 0.1147304529565E+01
 0.1091258701891E+01
 0.1026438340456E+01
 0.9521955435446E+00
 0.8680480448892E+00
 0.7737432072532E+00
 0.6693269650624E+00
 0.5552057236198E+00
 0.4321900062016E+00
 0.3015286102943E+00
 0.1649244298917E+00
 0.2450900016525E-01
-0.1172226527665E+00
-0.2575136067036E+00
-0.3934542887671E+00
 0.1589747260290E+01
 0.1575037604326E+01
 0.1560152285368E+01
 0.1545308361207E+01
 0.1530712593566E+01
 0.1516549938436E+01
 0.1502972829325E+01
 0.1490092272804E+01
 0.1477971552304E+01
 0.1466622519817E+01
 0.1456003978732E+01
 0.1446021512485E+01
 0.1436528010202E+01
 0.1427324279024E+01
 0.1418159302522E+01
 0.1408729851513E+01
 0.1398679329989E+01
 0.1387596262413E+01
 0.1375012090277E+01
 0.1360399181277E+01
 0.1343169815462E+01
 0.1322676003982E+01
 0.1298211774823E+01
 0.1269018441082E+01
 0.1234293748775E+01
 0.1193207590956E+01
 0.1144924745786E+01
 0.1088635661418E+01
 0.1023595549090E+01
 0.9491720758353E+00
 0.8649013816082E+00
 0.7705513446628E+00
 0.6661891854732E+00
 0.5522415897183E+00
 0.4295360044149E+00
 0.2993315265557E+00
 0.1633315503610E+00
 0.2365630666544E-01
-0.1172227546483E+00
-0.2565831156884E+00
-0.3915569199105E+00
 0.1589691589134E+01
 0.1575011922424E+01
 0.1560156559149E+01
 0.1545341191496E+01
 0.1530771015702E+01
 0.1516629483873E+01
 0.1503067777693E+01
 0.1490195999122E+01
 0.1478076879463E+01
 0.1466722011342E+01
 0.1456090137505E+01
 0.1446086878208E+01
 0.1436565167558E+01
 0.1427325799372E+01
 0.1418117646350E+01
 0.1408637258971E+01
 0.1398527724709E+01
 0.1387377193501E+01
 0.1374716731958E+01
 0.1360018411746E+01
 0.1342694396873E+01
 0.1322096880466E+01
 0.1297520509637E+01
 0.1268207796403E+01
 0.1233358340321E+01
 0.1192144637358E+01
 0.1143735045958E+01
 0.1087324833979E+01
 0.1022175475394E+01
 0.9476624182525E+00
 0.8633309838396E+00
 0.7689592615110E+00
 0.6646250392870E+00
 0.5507650392756E+00
 0.4282150460632E+00
 0.2982391801415E+00
 0.1625409845224E+00
 0.2323498842101E-01
-0.1172191259607E+00
-0.2561159495930E+00
-0.3906083253602E+00
 0.1589691589142E+01
 0.1575011922433E+01
 0.1560156559157E+01
 0.1545341191503E+01
 0.1530771015708E+01
 0.1516629483878E+01
 0.1503067777698E+01
 0.1490195999126E+01
 0.1478076879466E+01
 0.1466722011345E+01
 0.1456090137508E+01
 0.1446086878212E+01
 0.1436565167563E+01
 0.1427325799379E+01
 0.1418117646360E+01
 0.1408637258985E+01
 0.1398527724728E+01
 0.1387377193527E+01
 0.1374716731992E+01
 0.1360018411790E+01
 0.1342694396928E+01
 0.1322096880534E+01
 0.1297520509721E+01
 0.1268207796504E+01
 0.1233358340441E+01
 0.1192144637499E+01
 0.1143735046121E+01
 0.1087324834164E+01
 0.1022175475601E+01
 0.9476624184784E+00
 0.8633309840813E+00
 0.7689592617630E+00
 0.6646250395411E+00
 0.5507650395214E+00
 0.4282150462882E+00
 0.2982391803309E+00
 0.1625409846611E+00
 0.2323498849391E-01
-0.1172191259672E+00
-0.2561159496893E+00
-0.3906083255532E+00
 0.1589747260314E+01
 0.1575037604351E+01
 0.1560152285392E+01
 0.1545308361230E+01
 0.1530712593586E+01
 0.1516549938453E+01
 0.1502972829339E+01
 0.1490092272816E+01
 0.1477971552314E+01
 0.1466622519826E+01
 0.1456003978741E+01
 0.1446021512497E+01
 0.1436528010217E+01
 0.1427324279045E+01
 0.1418159302552E+01
 0.1408729851555E+01
 0.1398679330047E+01
 0.1387596262490E+01
 0.1375012090378E+01
 0.1360399181408E+01
 0.1343169815627E+01
 0.1322676004187E+01
 0.1298211775074E+01
 0.1269018441386E+01
 0.1234293749136E+01
 0.1193207591378E+01
 0.1144924746274E+01
 0.1088635661973E+01
 0.1023595549710E+01
 0.9491720765139E+00
 0.8649013823347E+00
 0.7705513454199E+00
 0.6661891862370E+00
 0.5522415904575E+00
 0.4295360050915E+00
 0.2993315271261E+00
 0.1633315507790E+00
 0.2365630688572E-01
-0.1172227546663E+00
-0.2565831159769E+00
-0.3915569204892E+00
 0.1589858748054E+01
 0.1575088989024E+01
 0.1560143565331E+01
 0.1545242304554E+01
 0.1530595136264E+01
 0.1516390051383E+01
 0.1502782000815E+01
 0.1489883801306E+01
 0.1477759832067E+01
 0.1466422450265E+01
 0.1455830565832E+01
 0.1445889675447E+01
 0.1436452568372E+01
 0.1427320072353E+01
 0.1418241390541E+01
 0.1408913735906E+01
 0.1398981150323E+01
 0.1388032915357E+01
 0.1375601233462E+01
 0.1361159078830E+01
 0.1344118981398E+01
 0.1323832609715E+01
 0.1299592778511E+01
 0.1270638431531E+01
 0.1236163639074E+01
 0.1195333121699E+01
 0.1147304530379E+01
 0.1091258702816E+01
 0.1026438341490E+01
 0.9521955446776E+00
 0.8680480461030E+00
 0.7737432085192E+00
 0.6693269663407E+00
 0.5552057248580E+00
 0.4321900073361E+00
 0.3015286112522E+00
 0.1649244305954E+00
 0.2450900053867E-01
-0.1172226527921E+00
-0.2575136071822E+00
-0.3934542897320E+00
 0.1590026357622E+01
 0.1575166128250E+01
 0.1560130058416E+01
 0.1545142228296E+01
 0.1530417412604E+01
 0.1516148223110E+01
 0.1502493421142E+01
 0.1489568540607E+01
 0.1477439582577E+01
 0.1466119627505E+01
 0.1455567707867E+01
 0.1445689157163E+01
 0.1436336590021E+01
 0.1427310849971E+01
 0.1418361464151E+01
 0.1409186312478E+01
 0.1399430405788E+01
 0.1388684181390E+01
 0.1376481011146E+01
 0.1362294815013E+01
 0.1345538542219E+01
 0.1325563400723E+01
 0.1301660447807E+01
 0.1273065144429E+01
 0.1238966125900E+01
 0.1198520437753E+01
 0.1150875124388E+01
 0.1095196681543E+01
 0.1030709092241E+01
 0.9567410871831E+00
 0.8727826843048E+00
 0.7785502416793E+00
 0.6740573873185E+00
 0.5596795844480E+00
 0.4362013432130E+00
 0.3048553719291E+00
 0.1673432985166E+00
 0.2581336058081E-01
-0.1172039516637E+00
-0.2588996433458E+00
-0.3963007725590E+00
 0.1590250583499E+01
 0.1575269125235E+01
 0.1560111265043E+01
 0.1545006940179E+01
 0.1530177563142E+01
 0.1515822036222E+01
 0.1502104265201E+01
 0.1489143409065E+01
 0.1477007588889E+01
 0.1465710783520E+01
 0.1455212118082E+01
 0.1445416646168E+01
 0.1436176702933E+01
 0.1427293124714E+01
 0.1418515860668E+01
 0.1409543687010E+01
 0.1400022929180E+01
 0.1389545602964E+01
 0.1377646691519E+01
 0.1363801442906E+01
 0.1347423448207E+01
 0.1327863400593E+01
 0.1304410130508E+01
 0.1276294588218E+01
 0.1242698309483E+01
 0.1202768263821E+01
 0.1155637512859E+01
 0.1100453570872E+01
 0.1036415548395E+01
 0.9628209990346E+00
 0.8791227945812E+00
 0.7849955266774E+00
 0.6804090441655E+00
 0.5656965732389E+00
 0.4416067515883E+00
 0.3093496162615E+00
 0.1706241183031E+00
 0.2760027184855E-01
-0.1171439684535E+00
-0.2607293058046E+00
-0.4000968264571E+00
 0.1590532154598E+01
 0.1575398165880E+01
 0.1560086540145E+01
 0.1544834845385E+01
 0.1529873084087E+01
 0.1515408233044E+01
 0.1501610730837E+01
 0.1488604268310E+01
 0.1476459544351E+01
 0.1465191551218E+01
 0.1454759413629E+01
 0.1445067733713E+01
 0.1435968421813E+01
 0.1427262259889E+01
 0.1418699708814E+01
 0.1409980676651E+01
 0.1400753168584E+01
 0.1390611233619E+01
 0.1379091952515E+01
 0.1365672340935E+01
 0.1349766924949E+01
 0.1330725913466E+01
 0.1307835540189E+01
 0.1280321330886E+01
 0.1247356184123E+01
 0.1208074729509E+01
 0.1161592810739E+01
 0.1107034449768E+01
 0.1043567817282E+01
 0.9704514772809E+00
 0.8870915759983E+00
 0.7931098226947E+00
 0.6884202123661E+00
 0.5733015827421E+00
 0.4484557844765E+00
 0.3150625024040E+00
 0.1748156949289E+00
 0.2991176206334E-01
-0.1170117368681E+00
-0.2629862252577E+00
-0.4048429453227E+00
 0.1590872095646E+01
 0.1575553561169E+01
 0.1560055110764E+01
 0.1544623940586E+01
 0.1529500804172E+01
 0.1514902684025E+01
 0.1501008006953E+01
 0.1487945896955E+01
 0.1475790033001E+01
 0.1464556456114E+01
 0.1454204115437E+01
 0.1444636919824E+01
 0.1435706158260E+01
 0.1427212480933E+01
 0.1418906939996E+01
 0.1410490818921E+01
 0.1401614192206E+01
 0.1391873636731E+01
 0.1380808872375E+01
 0.1367899192933E+01
 0.1352560440287E+01
 0.1334142474988E+01
 0.1311928688039E+01
 0.1285138409509E+01
 0.1252934522680E+01
 0.1214437227321E+01
 0.1168742095729E+01
 0.1114945316871E+01
 0.1052178175464E+01
 0.9796524480680E+00
 0.8967178096571E+00
 0.8029315444197E+00
 0.6981389699260E+00
 0.5825512948227E+00
 0.4568113023145E+00
 0.3220591999222E+00
 0.1799804305873E+00
 0.3280175471042E-01
-0.1167673632035E+00
-0.2656491435217E+00
-0.4105395488713E+00
 0.1591271808373E+01
 0.1575735802410E+01
 0.1560016098625E+01
 0.1544371805521E+01
 0.1529056853997E+01
 0.1514300346477E+01
 0.1500290232393E+01
 0.1487161957175E+01
 0.1474992507606E+01
 0.1463798906368E+01
 0.1453539648644E+01
 0.1444117621466E+01
 0.1435383233688E+01
 0.1427136890264E+01
 0.1419130302508E+01
 0.1411066382873E+01
 0.1402597694176E+01
 0.1393323883523E+01
 0.1382787917260E+01
 0.1370471962432E+01
 0.1355793662041E+01
 0.1338102789820E+01
 0.1316679796176E+01
 0.1290737215265E+01
 0.1259426729571E+01
 0.1221852231341E+01
 0.1177086193642E+01
 0.1124192849549E+01
 0.1062260817996E+01
 0.9904473355024E+00
 0.9080356913093E+00
 0.8145067155377E+00
 0.7096233339185E+00
 0.5935145529353E+00
 0.4667500991657E+00
 0.3304197357969E+00
 0.1861953005702E+00
 0.3633704433855E-01
-0.1163611847059E+00
-0.2686913269816E+00
-0.4171867816123E+00
 0.1591733172157E+01
 0.1575945629330E+01
 0.1559968545998E+01
 0.1544075589489E+01
 0.1528536624840E+01
 0.1513595210906E+01
 0.1499450443490E+01
 0.1486244952818E+01
 0.1474059262704E+01
 0.1462911181073E+01
 0.1452758343871E+01
 0.1443502183326E+01
 0.1434991895933E+01
 0.1427027486248E+01
 0.1419361379783E+01
 0.1411698383794E+01
 0.1403694002944E+01
 0.1394951552300E+01
 0.1385017928179E+01
 0.1373378863816E+01
 0.1359454409468E+01
 0.1342594659017E+01
 0.1322077196070E+01
 0.1297107357738E+01
 0.1266824666025E+01
 0.1230315079950E+01
 0.1186625418638E+01
 0.1134784108662E+01
 0.1073831546065E+01
 0.1002862766508E+01
 0.9210846068805E+00
 0.8278888862903E+00
 0.7229414006067E+00
 0.6062727952033E+00
 0.4783636597391E+00
 0.3402400374877E+00
 0.1935530658849E+00
 0.4059851048354E-01
-0.1157327191110E+00
-0.2720798051553E+00
-0.4247842244217E+00
 0.1592258669686E+01
 0.1576184113719E+01
 0.1559911446003E+01
 0.1543731992301E+01
 0.1527934715742E+01
 0.1512780233733E+01
 0.1498480509500E+01
 0.1485186178767E+01
 0.1472981402785E+01
 0.1461884417139E+01
 0.1451851439672E+01
 0.1442781891465E+01
 0.1434523339617E+01
 0.1426875186249E+01
 0.1419590612579E+01
 0.1412376601359E+01
 0.1404892092302E+01
 0.1396744729096E+01
 0.1387486107749E+01
 0.1376606331244E+01
 0.1363528599916E+01
 0.1347603899392E+01
 0.1328107214992E+01
 0.1304236512322E+01
 0.1275118452325E+01
 0.1239819727971E+01
 0.1197359274001E+01
 0.1146726194314E+01
 0.1086907397150E+01
 0.1016928214053E+01
 0.9359088514270E+00
 0.8431390149346E+00
 0.7381714912495E+00
 0.6209205587229E+00
 0.4917590703255E+00
 0.3516332092892E+00
 0.2021637660087E+00
 0.4568260742458E-01
-0.1148093776118E+00
-0.2757744081841E+00
-0.4333304345035E+00
 0.1592851540258E+01
 0.1576452759949E+01
 0.1559843776108E+01
 0.1543337236774E+01
 0.1527244865388E+01
 0.1511847253400E+01
 0.1497371054001E+01
 0.1483975660851E+01
 0.1471748805851E+01
 0.1460708595608E+01
 0.1450809087305E+01
 0.1441946990999E+01
 0.1433967731333E+01
 0.1426669854575E+01
 0.1419807325659E+01
 0.1413089601393E+01
 0.1406179594697E+01
 0.1398690008828E+01
 0.1390178005068E+01
 0.1380138982647E+01
 0.1368000186760E+01
 0.1353114249542E+01
 0.1334754043465E+01
 0.1312110241658E+01
 0.1284296235392E+01
 0.1250358453425E+01
 0.1209286094551E+01
 0.1160025828451E+01
 0.1101506187071E+01
 0.1032675540629E+01
 0.9525572459269E+00
 0.8603252618356E+00
 0.7554022512711E+00
 0.6375660099326E+00
 0.5070600564301E+00
 0.3647310396506E+00
 0.2121565081334E+00
 0.5170314665362E-01
-0.1135049333842E+00
-0.2797265635622E+00
-0.4428222188913E+00
 0.1593515964891E+01
 0.1576753624402E+01
 0.1559764533597E+01
 0.1542887029192E+01
 0.1526459864319E+01
 0.1510786885816E+01
 0.1496111359284E+01
 0.1482602084466E+01
 0.1470350081422E+01
 0.1459372527024E+01
 0.1449620357693E+01
 0.1440986707856E+01
 0.1433314239901E+01
 0.1426400335948E+01
 0.1419999760089E+01
 0.1413824763185E+01
 0.1407542819832E+01
 0.1400772501220E+01
 0.1393077504598E+01
 0.1383959586645E+01
 0.1372851098818E+01
 0.1359107275431E+01
 0.1341999599735E+01
 0.1320711810588E+01
 0.1294343944926E+01
 0.1261921545709E+01
 0.1222402660597E+01
 0.1174688896327E+01
 0.1117645996527E+01
 0.1050138473407E+01
 0.9710826807379E+00
 0.8795227224558E+00
 0.7747327289938E+00
 0.6563315334918E+00
 0.5244081964341E+00
 0.3796858133923E+00
 0.2236816383448E+00
 0.5879343054037E-01
-0.1117177449504E+00
-0.2838778503776E+00
-0.4532535350642E+00
 0.1594257293142E+01
 0.1577089458382E+01
 0.1559672773784E+01
 0.1542376505485E+01
 0.1525571444321E+01
 0.1509588396732E+01
 0.1494689252869E+01
 0.1481052712552E+01
 0.1468772524653E+01
 0.1457863837897E+01
 0.1448273252549E+01
 0.1439889276184E+01
 0.1432551072661E+01
 0.1426054494742E+01
 0.1420155110658E+01
 0.1414568310923E+01
 0.1408966776059E+01
 0.1402975837790E+01
 0.1396166813836E+01
 0.1388049025383E+01
 0.1378061172135E+01
 0.1365562264085E+01
 0.1349823377166E+01
 0.1330021977565E+01
 0.1305245017579E+01
 0.1274496950565E+01
 0.1236703753725E+01
 0.1190719910615E+01
 0.1135344557689E+01
 0.1069351956707E+01
 0.9915415206847E+00
 0.9008130252469E+00
 0.7962723566235E+00
 0.6773543101170E+00
 0.5439642695302E+00
 0.3966724386721E+00
 0.2369133523964E+00
 0.6710878429964E-01
-0.1093287567801E+00
-0.2881583329734E+00
-0.4646137043995E+00
 0.1595082314862E+01
 0.1577463875779E+01
 0.1559567646258E+01
 0.1541800155060E+01
 0.1524570136240E+01
 0.1508239543829E+01
 0.1493090971404E+01
 0.1479313290531E+01
 0.1467002065798E+01
 0.1456168958516E+01
 0.1446754720375E+01
 0.1438641972328E+01
 0.1431665518949E+01
 0.1425619261446E+01
 0.1420259570277E+01
 0.1415305351717E+01
 0.1410435197746E+01
 0.1405282183884E+01
 0.1399426454704E+01
 0.1392386259270E+01
 0.1383608081335E+01
 0.1372456113927E+01
 0.1358202284619E+01
 0.1340018774183E+01
 0.1316980102378E+01
 0.1288069886242E+01
 0.1252181669045E+01
 0.1208121411397E+01
 0.1154618550156E+01
 0.1090351384077E+01
 0.1013992864057E+01
 0.9242837758251E+00
 0.8201408076278E+00
 0.7007868584668E+00
 0.5659097333747E+00
 0.4158909420131E+00
 0.2520528668084E+00
 0.7682957919635E-01
-0.1061993667213E+00
-0.2924848348488E+00
-0.4768846608561E+00
 0.1595999592810E+01
 0.1577881552505E+01
 0.1559448429510E+01
 0.1541151717652E+01
 0.1523445090411E+01
 0.1506726384168E+01
 0.1491300999987E+01
 0.1477367938270E+01
 0.1465023216240E+01
 0.1454273113467E+01
 0.1445050678361E+01
 0.1437231155910E+01
 0.1430644000826E+01
 0.1425080686150E+01
 0.1420298381133E+01
 0.1416019920148E+01
 0.1411930578964E+01
 0.1407672256719E+01
 0.1402835260415E+01
 0.1396948296384E+01
 0.1389467274592E+01
 0.1379763227479E+01
 0.1367110487634E+01
 0.1350677283276E+01
 0.1329526760888E+01
 0.1302622447409E+01
 0.1268825703139E+01
 0.1226893322694E+01
 0.1175482826009E+01
 0.1113171725386E+01
 0.1038497663020E+01
 0.9500278448075E+00
 0.8464677219519E+00
 0.7267975358516E+00
 0.5904483427798E+00
 0.4375694191991E+00
 0.2693323682831E+00
 0.8816496981285E-01
-0.1021692797582E+00
-0.2967596056332E+00
-0.4900366743655E+00
 0.1597019867327E+01
 0.1578348461782E+01
 0.1559314558286E+01
 0.1540424042218E+01
 0.1522183848509E+01
 0.1505033039187E+01
 0.1489301883587E+01
 0.1475199029431E+01
 0.1462819013615E+01
 0.1452160318341E+01
 0.1443146043692E+01
 0.1435642321103E+01
 0.1429472133562E+01
 0.1424424000857E+01
 0.1420255893579E+01
 0.1416695029321E+01
 0.1413434212156E+01
 0.1410125346373E+01
 0.1406370372553E+01
 0.1401710158526E+01
 0.1395611900829E+01
 0.1387455391053E+01
 0.1376519230510E+01
 0.1361969390473E+01
 0.1342859131008E+01
 0.1318133158770E+01
 0.1286621571130E+01
 0.1247032207992E+01
 0.1197949492109E+01
 0.1137846457933E+01
 0.1065117591167E+01
 0.9781423579893E+00
 0.8753921361724E+00
 0.7555708351039E+00
 0.6178077532315E+00
 0.4619673524737E+00
 0.2890199396269E+00
 0.1013576522922E+00
-0.9705444365594E-01
-0.3008706327466E+00
-0.5040215270153E+00
 0.1598156550465E+01
 0.1578872151716E+01
 0.1559165637270E+01
 0.1539608894176E+01
 0.1520772052587E+01
 0.1503141406883E+01
 0.1487074004921E+01
 0.1472787056031E+01
 0.1460370965503E+01
 0.1449813382292E+01
 0.1441024773590E+01
 0.1433860157144E+01
 0.1428134795035E+01
 0.1423633690446E+01
 0.1420115633814E+01
 0.1417312731328E+01
 0.1414926237181E+01
 0.1412619348293E+01
 0.1410007250794E+01
 0.1406644860999E+01
 0.1402012751779E+01
 0.1395501670785E+01
 0.1386396676611E+01
 0.1373863556051E+01
 0.1356947612189E+01
 0.1334576548140E+01
 0.1305550834988E+01
 0.1268530518532E+01
 0.1222026951840E+01
 0.1164406407477E+01
 0.1093913756616E+01
 0.1008727480060E+01
 0.9070616760332E+00
 0.7873075577793E+00
 0.6482411763259E+00
 0.4893793346095E+00
 0.3114258173106E+00
 0.1166906887603E+00
-0.9064541622425E-01
-0.3046950015430E+00
-0.5187654845327E+00
 0.1599426339711E+01
 0.1579462075685E+01
 0.1559001435779E+01
 0.1538696696619E+01
 0.1519193077571E+01
 0.1501030813875E+01
 0.1484595328473E+01
 0.1470110482639E+01
 0.1457658998066E+01
 0.1447213922825E+01
 0.1438669919432E+01
 0.1431868622067E+01
 0.1426616206637E+01
 0.1422693573469E+01
 0.1419860380054E+01
 0.1417854185079E+01
 0.1416385696565E+01
 0.1415130800467E+01
 0.1413719685075E+01
 0.1411723391750E+01
 0.1408638199590E+01
 0.1403868299867E+01
 0.1396707735360E+01
 0.1386324568482E+01
 0.1371758525824E+01
 0.1351922684320E+01
 0.1325590278759E+01
 0.1291375757986E+01
 0.1247718814657E+01
 0.1192878384161E+01
 0.1124945120699E+01
 0.1041884794175E+01
 0.9416313359707E+00
 0.8222244813826E+00
 0.6820292172325E+00
 0.5201383869385E+00
 0.3369106310009E+00
 0.1344968726259E+00
-0.8270275073926E-01
-0.3081163772588E+00
-0.5341469470860E+00
 0.1600849976641E+01
 0.1580129979807E+01
 0.1558821846827E+01
 0.1537676177110E+01
 0.1517427561618E+01
 0.1498677591835E+01
 0.1481841104485E+01
 0.1467145590314E+01
 0.1454661412112E+01
 0.1444342395362E+01
 0.1436063696771E+01
 0.1429651030886E+01
 0.1424900026723E+01
 0.1421586894057E+01
 0.1419472249054E+01
 0.1418299734275E+01
 0.1417790600922E+01
 0.1417634930615E+01
 0.1417479817087E+01
 0.1416914698425E+01
 0.1415454140300E+01
 0.1412518569503E+01
 0.1407413891139E+01
 0.1399313298463E+01
 0.1387253773952E+01
 0.1370136707780E+01
 0.1346711263472E+01
 0.1315549600010E+01
 0.1275022709206E+01
 0.1223283643882E+01
 0.1158266622312E+01
 0.1077715276331E+01
 0.9792616604105E+00
 0.8605537724279E+00
 0.7194805243648E+00
 0.5546226582857E+00
 0.3658855960561E+00
 0.1551912639121E+00
-0.7297790564119E-01
-0.3110055657006E+00
-0.5500874067394E+00
 0.1602453210302E+01
 0.1580890351271E+01
 0.1558626806887E+01
 0.1536533884926E+01
 0.1515452812872E+01
 0.1496054565247E+01
 0.1478783532361E+01
 0.1463866314855E+01
 0.1451354851993E+01
 0.1441178141213E+01
 0.1433187572697E+01
 0.1427190157977E+01
 0.1422969455468E+01
 0.1420296423637E+01
 0.1418932792139E+01
 0.1418628995664E+01
 0.1419118006134E+01
 0.1420105716884E+01
 0.1421258176852E+01
 0.1422185691714E+01
 0.1422423954724E+01
 0.1421412739027E+01
 0.1418473054782E+01
 0.1412786480916E+01
 0.1403390532461E+01
 0.1389178400826E+01
 0.1368879120263E+01
 0.1341027029097E+01
 0.1303929081422E+01
 0.1255636256216E+01
 0.1193927091913E+01
 0.1116316860285E+01
 0.1020116482326E+01
 0.9025414100248E+00
 0.7609337132016E+00
 0.5932561237844E+00
 0.3988378473581E+00
 0.1792217513094E+00
-0.6097313726666E-01
-0.3138024260314E+00
-0.5654115686462E+00
 0.1604266755754E+01
 0.1581760601398E+01
 0.1558415404088E+01
 0.1535252701078E+01
 0.1513240858323E+01
 0.1493128857272E+01
 0.1475389403735E+01
 0.1460241753859E+01
 0.1447711694827E+01
 0.1437696709745E+01
 0.1430019615996E+01
 0.1424465751759E+01
 0.1420805085897E+01
 0.1418802852568E+01
 0.1418222165821E+01
 0.1418821086601E+01
 0.1420345623723E+01
 0.1422519264978E+01
 0.1425029280474E+01
 0.1427509600112E+01
 0.1429520250751E+01
 0.1430523898402E+01
 0.1429860381189E+01
 0.1426723415115E+01
 0.1420154832399E+01
 0.1409043697536E+01
 0.1392103653075E+01
 0.1367836870084E+01
 0.1334492684653E+01
 0.1290026292757E+01
 0.1232064541134E+01
 0.1157891791595E+01
 0.1064481511693E+01
 0.9485757636784E+00
 0.8068909794686E+00
 0.6366493197546E+00
 0.4364359748642E+00
 0.2072735841104E+00
-0.4632362375279E-01
-0.3154553373613E+00
-0.5860552166906E+00
 0.1606332815954E+01
 0.1582763924156E+01
 0.1558188492251E+01
 0.1533813898099E+01
 0.1510760770947E+01
 0.1489864863228E+01
 0.1471623874691E+01
 0.1456240649778E+01
 0.1443705030767E+01
 0.1433875064497E+01
 0.1426539631367E+01
 0.1421459274811E+01
 0.1418388893296E+01
 0.1417087624160E+01
 0.1417320342279E+01
 0.1418853663085E+01
 0.1421448037160E+01
 0.1424846432574E+01
 0.1428759751236E+01
 0.1432848518019E+01
 0.1436700599872E+01
 0.1439805482886E+01
 0.1441525986195E+01
 0.1441072157890E+01
 0.1437494378373E+01
 0.1429682169709E+01
 0.1416339276900E+01
 0.1395942601088E+01
 0.1366692290279E+01
 0.1326457118983E+01
 0.1272720612694E+01
 0.1202539317149E+01
 0.1112539009368E+01
 0.9989511667472E+00
 0.8577848106173E+00
 0.6853780646875E+00
 0.4793780523768E+00
 0.2400412382425E+00
-0.2829822386829E-01
-0.3161539229004E+00
-0.6095640459348E+00
 0.1608699466960E+01
 0.1583926153953E+01
 0.1557943622974E+01
 0.1532192124555E+01
 0.1507974350335E+01
 0.1486221124690E+01
 0.1467448538034E+01
 0.1451830444010E+01
 0.1439308428665E+01
 0.1429691839933E+01
 0.1422729757786E+01
 0.1418154751541E+01
 0.1415705277116E+01
 0.1415134138013E+01
 0.1416208453852E+01
 0.1418704390746E+01
 0.1422398284685E+01
 0.1427054503283E+01
 0.1432410052184E+01
 0.1438155146581E+01
 0.1443909212391E+01
 0.1449192779138E+01
 0.1453396141570E+01
 0.1455750207509E+01
 0.1455318437016E+01
 0.1450995743423E+01
 0.1441482072847E+01
 0.1425237110719E+01
 0.1400422314608E+01
 0.1364832810081E+01
 0.1315822421769E+01
 0.1250230454148E+01
 0.1164334043762E+01
 0.1053825761571E+01
 0.9139268810198E+00
 0.7399363051907E+00
 0.5283189792125E+00
 0.2782922224657E+00
-0.6264029763300E-02
-0.3153748288654E+00
-0.6338650623196E+00
 0.1611428406383E+01
 0.1585279567884E+01
 0.1557677457955E+01
 0.1530355971405E+01
 0.1504835561413E+01
 0.1482148894794E+01
 0.1462819182181E+01
 0.1446974211598E+01
 0.1434492106583E+01
 0.1425122929025E+01
 0.1418569755447E+01
 0.1414534102851E+01
 0.1412736837874E+01
 0.1412924407128E+01
 0.1414866820329E+01
 0.1418350899051E+01
 0.1423170382173E+01
 0.1429113025732E+01
 0.1435944517561E+01
 0.1443388047516E+01
 0.1451098623531E+01
 0.1458632455314E+01
 0.1465412270951E+01
 0.1470694788240E+01
 0.1473561402309E+01
 0.1472917643708E+01
 0.1467466246911E+01
 0.1455658747612E+01
 0.1435630335516E+01
 0.1405118585672E+01
 0.1361366624667E+01
 0.1301015251125E+01
 0.1220003163118E+01
 0.1113467567344E+01
 0.9757679568399E+00
 0.8009937089983E+00
 0.5841415872595E+00
 0.3230127307092E+00
 0.2069277273150E-01
-0.3123749653537E+00
-0.6587749230496E+00
 0.1614597060396E+01
 0.1586863238979E+01
 0.1557383675133E+01
 0.1528265269332E+01
 0.1501288535498E+01
 0.1477591491854E+01
 0.1457686431112E+01
 0.1441632230534E+01
 0.1429225061641E+01
 0.1420143894478E+01
 0.1414039489858E+01
 0.1410579522951E+01
 0.1409466465749E+01
 0.1410440660613E+01
 0.1413275840848E+01
 0.1417770700592E+01
 0.1423737960413E+01
 0.1430990799856E+01
 0.1439326247749E+01
 0.1448503926122E+01
 0.1458218761466E+01
 0.1468067733266E+01
 0.1477511474848E+01
 0.1485837906848E+01
 0.1492151485228E+01
 0.1495373741159E+01
 0.1494217091101E+01
 0.1487134819732E+01
 0.1472250068178E+01
 0.1447262281737E+01
 0.1409328584885E+01
 0.1354919298835E+01
 0.1279658845904E+01
 0.1178130297877E+01
 0.1043771091384E+01
 0.8692846107388E+00
 0.6478604557484E+00
 0.3753978273473E+00
 0.5371702043611E-01
-0.3063285659528E+00
-0.6843542694150E+00
 0.1618303205683E+01
 0.1588724266958E+01
 0.1557051051177E+01
 0.1525868006471E+01
 0.1497265081912E+01
 0.1472483001873E+01
 0.1451995413948E+01
 0.1435762150258E+01
 0.1423475394413E+01
 0.1414730290922E+01
 0.1409119206945E+01
 0.1406273707251E+01
 0.1405877533452E+01
 0.1407665515005E+01
 0.1411416155217E+01
 0.1416941350788E+01
 0.1424074426914E+01
 0.1432656037222E+01
 0.1442517254355E+01
 0.1453457737448E+01
 0.1465216988134E+01
 0.1477438348613E+01
 0.1489626417466E+01
 0.1501106192800E+01
 0.1511010529587E+01
 0.1518282330534E+01
 0.1521650655551E+01
 0.1519581022214E+01
 0.1510200321345E+01
 0.1491192461383E+01
 0.1459659023039E+01
 0.1411937953221E+01
 0.1343380277504E+01
 0.1248040342406E+01
 0.1118398633006E+01
 0.9456012972503E+00
 0.7206406519445E+00
 0.4368914661231E+00
 0.9424042158700E-01
-0.2962882470657E+00
-0.7106973058172E+00
 0.1622671275420E+01
 0.1590919152889E+01
 0.1556660458689E+01
 0.1523096078311E+01
 0.1492681581562E+01
 0.1466746913455E+01
 0.1445685613124E+01
 0.1429319351229E+01
 0.1417210759231E+01
 0.1408858056682E+01
 0.1403789844957E+01
 0.1401600100148E+01
 0.1401954100822E+01
 0.1404582154146E+01
 0.1409268813856E+01
 0.1415840618956E+01
 0.1424153144367E+01
 0.1434076545055E+01
 0.1445478635312E+01
 0.1458202823764E+01
 0.1472038164111E+01
 0.1486680521292E+01
 0.1501685213841E+01
 0.1516420744109E+01
 0.1530053859129E+01
 0.1541553980790E+01
 0.1549673537054E+01
 0.1552901026242E+01
 0.1549384157655E+01
 0.1536816762548E+01
 0.1512280859866E+01
 0.1472030465529E+01
 0.1411202961645E+01
 0.1323380611264E+01
 0.1200092371555E+01
 0.1030781272457E+01
 0.8038104272532E+00
 0.5092407239316E+00
 0.1440605340385E+00
-0.2810703204915E+00
-0.7378796728700E+00
 0.1627861133128E+01
 0.1593515216609E+01
 0.1556180169843E+01
 0.1519859395556E+01
 0.1487435176301E+01
 0.1460294812909E+01
 0.1438691024252E+01
 0.1422257557862E+01
 0.1410398955523E+01
 0.1402503974507E+01
 0.1398033379656E+01
 0.1396543159068E+01
 0.1397681127980E+01
 0.1401174514992E+01
 0.1406815454266E+01
 0.1414446669326E+01
 0.1423947625623E+01
 0.1435219936327E+01
 0.1448170785857E+01
 0.1462691091887E+01
 0.1478624745470E+01
 0.1495726939567E+01
 0.1513611314536E+01
 0.1531696975410E+01
 0.1549190159765E+01
 0.1565091473322E+01
 0.1578182815088E+01
 0.1586986275612E+01
 0.1589688330329E+01
 0.1584020603804E+01
 0.1567086482468E+01
 0.1535114391561E+01
 0.1483107742405E+01
 0.1404271071293E+01
 0.1289245867039E+01
 0.1125682806377E+01
 0.8988669391824E+00
 0.5945604496122E+00
 0.2054669541702E+00
-0.2591151655333E+00
-0.7659516263857E+00
 0.1634080537757E+01
 0.1596591826000E+01
 0.1555558461605E+01
 0.1516037696269E+01
 0.1481399230422E+01
 0.1453025388472E+01
 0.1430940812629E+01
 0.1414529766805E+01
 0.1403008666474E+01
 0.1395646197194E+01
 0.1391833198758E+01
 0.1391088631655E+01
 0.1393044694790E+01
 0.1397427477639E+01
 0.1404038482490E+01
 0.1412738250564E+01
 0.1423431744363E+01
 0.1436053867072E+01
 0.1450553650124E+01
 0.1466873238264E+01
 0.1484916918709E+01
 0.1504506754575E+01
 0.1525323373063E+01
 0.1546844447588E+01
 0.1568321381214E+01
 0.1588789824198E+01
 0.1607066141948E+01
 0.1621716005833E+01
 0.1630983025932E+01
 0.1632666322221E+01
 0.1623935610287E+01
 0.1601060700107E+01
 0.1559009966010E+01
 0.1490746612972E+01
 0.1386167375473E+01
 0.1231143261286E+01
 0.1007466965423E+01
 0.6954094478919E+00
 0.2814205854351E+00
-0.2282995032708E+00
-0.7949322642230E+00
 0.1641603274673E+01
 0.1600240914584E+01
 0.1554711845455E+01
 0.1511469168942E+01
 0.1474418213270E+01
 0.1444824184209E+01
 0.1422360697260E+01
 0.1406089530569E+01
 0.1395010334566E+01
 0.1388264828495E+01
 0.1385174499166E+01
 0.1385223841514E+01
 0.1388032223564E+01
 0.1393327057345E+01
 0.1400921257647E+01
 0.1410694891862E+01
 0.1422579959895E+01
 0.1436546301668E+01
 0.1452587019520E+01
 0.1470699033993E+01
 0.1490852785938E+01
 0.1512945586236E+01
 0.1536735079880E+01
 0.1561766654303E+01
 0.1587342640910E+01
 0.1612536390257E+01
 0.1636202001190E+01
 0.1656957506274E+01
 0.1673121942358E+01
 0.1682592811623E+01
 0.1682653938317E+01
 0.1669690027268E+01
 0.1638749853720E+01
 0.1582733819927E+01
 0.1491032914299E+01
 0.1347912966761E+01
 0.1131389403842E+01
 0.8148717859607E+00
 0.3758030909779E+00
-0.1856545559088E+00
-0.8247933916660E+00
 0.1650796268250E+01
 0.1604565641440E+01
 0.1553506065815E+01
 0.1505934731678E+01
 0.1466302558129E+01
 0.1435564831639E+01
 0.1412875299656E+01
 0.1396892581789E+01
 0.1386377143790E+01
 0.1380342544556E+01
 0.1378044696518E+01
 0.1378937975225E+01
 0.1382632700041E+01
 0.1388860594694E+01
 0.1397448276184E+01
 0.1408297102344E+01
 0.1421367553058E+01
 0.1436665805574E+01
 0.1454230884977E+01
 0.1474117688152E+01
 0.1496368622943E+01
 0.1520965549986E+01
 0.1547754948474E+01
 0.1576360739104E+01
 0.1606142117192E+01
 0.1636211073850E+01
 0.1665460172116E+01
 0.1692566670987E+01
 0.1715942748559E+01
 0.1733615741342E+01
 0.1743032751643E+01
 0.1740770528511E+01
 0.1722085356555E+01
 0.1680029549992E+01
 0.1603831551620E+01
 0.1476556942173E+01
 0.1272447226302E+01
 0.9566257471826E+00
 0.4937641373553E+00
-0.1269175137492E+00
-0.8554156159104E+00
 0.1662161489496E+01
 0.1609674678238E+01
 0.1551724873640E+01
 0.1499136671643E+01
 0.1456824935748E+01
 0.1425112855310E+01
 0.1402411587154E+01
 0.1386898696307E+01
 0.1377086071217E+01
 0.1371865240817E+01
 0.1370433835505E+01
 0.1372222364596E+01
 0.1376836889132E+01
 0.1384016941373E+01
 0.1393605353585E+01
 0.1405526570846E+01
 0.1419770868947E+01
 0.1436381861606E+01
 0.1455445847022E+01
 0.1477078309472E+01
 0.1501399239316E+01
 0.1528485314356E+01
 0.1558286022868E+01
 0.1590517087913E+01
 0.1624600890670E+01
 0.1659686619785E+01
 0.1694702418083E+01
 0.1728388854822E+01
 0.1759267917764E+01
 0.1785528341730E+01
 0.1804829608270E+01
 0.1814017625242E+01
 0.1808688454746E+01
 0.1782285217596E+01
 0.1724309580664E+01
 0.1617319371453E+01
 0.1432313356006E+01
 0.1124959558474E+01
 0.6422003676905E+00
-0.4578916252696E-01
-0.8864772563044E+00
 0.1676403431253E+01
 0.1615666472559E+01
 0.1549017597827E+01
 0.1490670840105E+01
 0.1445721193736E+01
 0.1413333423010E+01
 0.1390903182900E+01
 0.1376073606087E+01
 0.1367118984608E+01
 0.1362822680533E+01
 0.1362334984851E+01
 0.1365070756750E+01
 0.1370637539958E+01
 0.1378786637519E+01
 0.1389379799889E+01
 0.1402366361955E+01
 0.1417767560343E+01
 0.1435665201824E+01
 0.1456193583675E+01
 0.1479530492348E+01
 0.1505878490065E+01
 0.1535420217996E+01
 0.1568225472776E+01
 0.1604118724448E+01
 0.1642592686628E+01
 0.1682829013932E+01
 0.1723783446726E+01
 0.1764260084154E+01
 0.1802905947788E+01
 0.1838102711818E+01
 0.1867770147719E+01
 0.1889095997486E+01
 0.1898145322445E+01
 0.1889000414366E+01
 0.1851927214596E+01
 0.1769957207405E+01
 0.1612210147040E+01
 0.1324643544795E+01
 0.8303941391874E+00
 0.6733564893669E-01
-0.9171778010676E+00
 0.1694543560095E+01
 0.1622590192086E+01
 0.1544808936896E+01
 0.1479994377681E+01
 0.1432702648967E+01
 0.1400103946027E+01
 0.1378294598304E+01
 0.1364390833154E+01
 0.1356463790458E+01
 0.1353209099576E+01
 0.1353744605517E+01
 0.1357479565499E+01
 0.1364029575129E+01
 0.1373162077666E+01
 0.1384760586064E+01
 0.1398801104787E+01
 0.1415336825527E+01
 0.1434488142167E+01
 0.1456437365900E+01
 0.1481425053195E+01
 0.1509740013545E+01
 0.1541682500218E+01
 0.1577464026728E+01
 0.1617040389089E+01
 0.1659983438803E+01
 0.1705497987745E+01
 0.1752552197070E+01
 0.1800008671717E+01
 0.1846652965623E+01
 0.1891091526198E+01
 0.1931550829151E+01
 0.1965624266340E+01
 0.1989960481155E+01
 0.1999525934604E+01
 0.1985846906875E+01
 0.1933578617462E+01
 0.1812407662161E+01
 0.1560467427115E+01
 0.1070788195788E+01
 0.2276055173820E+00
-0.9455466485283E+00
 0.1718128257565E+01
 0.1630349752315E+01
 0.1538139874496E+01
 0.1466401234435E+01
 0.1417491767132E+01
 0.1385329394076E+01
 0.1364543738026E+01
 0.1351833760177E+01
 0.1345115545437E+01
 0.1343023710705E+01
 0.1344662897522E+01
 0.1349448093014E+01
 0.1357010262536E+01
 0.1367137663713E+01
 0.1379738499506E+01
 0.1394817172236E+01
 0.1412459635876E+01
 0.1432824903757E+01
 0.1456142592453E+01
 0.1482714932846E+01
 0.1512918310632E+01
 0.1547181754466E+01
 0.1585885175214E+01
 0.1629147105088E+01
 0.1676630552802E+01
 0.1727547637605E+01
 0.1780853520512E+01
 0.1835457303974E+01
 0.1890294686435E+01
 0.1944230007079E+01
 0.1995842049307E+01
 0.2043182364936E+01
 0.2083566878902E+01
 0.2113070069961E+01
 0.2124963463542E+01
 0.2106577680610E+01
 0.2031527619645E+01
 0.1836060601300E+01
 0.1379669477202E+01
 0.4597649958403E+00
-0.9666826547675E+00
 0.1749643544910E+01
 0.1638456975939E+01
 0.1527383216470E+01
 0.1449051766040E+01
 0.1399895971354E+01
 0.1368949053880E+01
 0.1349622761849E+01
 0.1338398739275E+01
 0.1333077017395E+01
 0.1332271199858E+01
 0.1335094097503E+01
 0.1340978707921E+01
 0.1349579368829E+01
 0.1360709938529E+01
 0.1374306285817E+01
 0.1390402845673E+01
 0.1409118949186E+01
 0.1430651906709E+01
 0.1455277289718E+01
 0.1483356241659E+01
 0.1515350339288E+01
 0.1551825839584E+01
 0.1593364065048E+01
 0.1640291913850E+01
 0.1692381711286E+01
 0.1748827237435E+01
 0.1808530363015E+01
 0.1870425766042E+01
 0.1933608783525E+01
 0.1997237963218E+01
 0.2060291455886E+01
 0.2121319473804E+01
 0.2178346990377E+01
 0.2228706359498E+01
 0.2267937574109E+01
 0.2286811548347E+01
 0.2265889321967E+01
 0.2151327665304E+01
 0.1776838362210E+01
 0.8056787699094E+00
-0.9681807473615E+00
 0.1793455925873E+01
 0.1645332094203E+01
 0.1509755150213E+01
 0.1427207042061E+01
 0.1379902999302E+01
 0.1350910450411E+01
 0.1333527786104E+01
 0.1324096842247E+01
 0.1320358553172E+01
 0.1320962514635E+01
 0.1325046534465E+01
 0.1332077049824E+01
 0.1341739264882E+01
 0.1353877707123E+01
 0.1368458772884E+01
 0.1385548462782E+01
 0.1405299903900E+01
 0.1427948039275E+01
 0.1453812503675E+01
 0.1483309308669E+01
 0.1516977847000E+01
 0.1555522751258E+01
 0.1599765983074E+01
 0.1650312172898E+01
 0.1707072999591E+01
 0.1769182397440E+01
 0.1835426617974E+01
 0.1904734266395E+01
 0.1976368284912E+01
 0.2049820772578E+01
 0.2124528172120E+01
 0.2199560070405E+01
 0.2273659162525E+01
 0.2345422343540E+01
 0.2413126432803E+01
 0.2472011171129E+01
 0.2509846041396E+01
 0.2497755850800E+01
 0.2281134005555E+01
 0.1338292349190E+01
-0.9173488411323E+00
 0.1858363810044E+01
 0.1645986289060E+01
 0.1480737690605E+01
 0.1401073708775E+01
 0.1357577380784E+01
 0.1331139330756E+01
 0.1316312861881E+01
 0.1308940829497E+01
 0.1306983485587E+01
 0.1309113545986E+01
 0.1314533229458E+01
 0.1322752002684E+01
 0.1333495050377E+01
 0.1346642119028E+01
 0.1362192976957E+01
 0.1380246544844E+01
 0.1400989976553E+01
 0.1424694916126E+01
 0.1451722575222E+01
 0.1482539337614E+01
 0.1517750564132E+01
 0.1558184634210E+01
 0.1604944334414E+01
 0.1659023153875E+01
 0.1720526150140E+01
 0.1788457004304E+01
 0.1861390747697E+01
 0.1938207652603E+01
 0.2018345444265E+01
 0.2101673067551E+01
 0.2188155955202E+01
 0.2277432937502E+01
 0.2368813345060E+01
 0.2462286569133E+01
 0.2558477845744E+01
 0.2659608762990E+01
 0.2758884945005E+01
 0.2853715980859E+01
 0.2891051916087E+01
 0.2187163330903E+01
-0.7252134532292E+00
 0.1966431294827E+01
 0.1622386933536E+01
 0.1436029419814E+01
 0.1373417999205E+01
 0.1331988954764E+01
 0.1309978168349E+01
 0.1297947614808E+01
 0.1292988299372E+01
 0.1292976405519E+01
 0.1296748448376E+01
 0.1303571112469E+01
 0.1313015969947E+01
 0.1324854556478E+01
 0.1339006753123E+01
 0.1355508185123E+01
 0.1374491902635E+01
 0.1396179126696E+01
 0.1420877029602E+01
 0.1448985603819E+01
 0.1481016036942E+01
 0.1517629317874E+01
 0.1559737060123E+01
 0.1608738205029E+01
 0.1666205661420E+01
 0.1732545431381E+01
 0.1806496511072E+01
 0.1886280495553E+01
 0.1970679767510E+01
 0.2059317996781E+01
 0.2152480379539E+01
 0.2250757100311E+01
 0.2354433020281E+01
 0.2463264584250E+01
 0.2578000868295E+01
 0.2703087394160E+01
 0.2843228445151E+01
 0.3015547326695E+01
 0.3192502601988E+01
 0.3532185056049E+01
 0.3548294952028E+01
-0.8836180534978E-01
 0.2195130691159E+01
 0.1489436373239E+01
 0.1405146235994E+01
 0.1336686353546E+01
 0.1305217423486E+01
 0.1287063240712E+01
 0.1278615669074E+01
 0.1276264776246E+01
 0.1278382576876E+01
 0.1283894709884E+01
 0.1292182226581E+01
 0.1302884576110E+01
 0.1315828450709E+01
 0.1330977643879E+01
 0.1348406033189E+01
 0.1368281711749E+01
 0.1390859916588E+01
 0.1416481895492E+01
 0.1445583541850E+01
 0.1478714688764E+01
 0.1516581169021E+01
 0.1560143294784E+01
 0.1610971412237E+01
 0.1671576060226E+01
 0.1742920684289E+01
 0.1823151407371E+01
 0.1909968682269E+01
 0.2002000413988E+01
 0.2099070068981E+01
 0.2201939021537E+01
 0.2311861159075E+01
 0.2430062157771E+01
 0.2556432366521E+01
 0.2691969085767E+01
 0.2843502654266E+01
 0.3025943894399E+01
 0.3248676287795E+01
 0.3590025811125E+01
 0.3899788101121E+01
 0.5655873807078E+01
 0.1714504752724E+01
 0.2285701409597E+01
 0.2206012981175E+01
 0.2121958519233E+01
 0.2038961144012E+01
 0.1958318871309E+01
 0.1881078770817E+01
 0.1807717530323E+01
 0.1739274629129E+01
 0.1676426718228E+01
 0.1619573631994E+01
 0.1569049006722E+01
 0.1525067013349E+01
 0.1487749832852E+01
 0.1457090920928E+01
 0.1433010311630E+01
 0.1415292548955E+01
 0.1405281496591E+01
 0.1404398185605E+01
 0.1409111323349E+01
 0.1444549690642E+01
 0.2315218448889E+01
 0.2229329886484E+01
 0.2144833801047E+01
 0.2061462688397E+01
 0.1980913867118E+01
 0.1903993580012E+01
 0.1831475911942E+01
 0.1764013782841E+01
 0.1702197664544E+01
 0.1646449472330E+01
 0.1597083403625E+01
 0.1554337809044E+01
 0.1518356573644E+01
 0.1489208119362E+01
 0.1466916409679E+01
 0.1451830887105E+01
 0.1444858168052E+01
 0.1446500248081E+01
 0.1462392486144E+01
 0.1488256176776E+01
 0.2342019005327E+01
 0.2253858299963E+01
 0.2167433071970E+01
 0.2083576528967E+01
 0.2002917483631E+01
 0.1926303055657E+01
 0.1854384864104E+01
 0.1787752491581E+01
 0.1726887752384E+01
 0.1672182238447E+01
 0.1623949278149E+01
 0.1582435021872E+01
 0.1547821742930E+01
 0.1520246706653E+01
 0.1499909979148E+01
 0.1487233853366E+01
 0.1482922339011E+01
 0.1488678273025E+01
 0.1504817846433E+01
 0.1529736057139E+01
 0.2368414331509E+01
 0.2277836303671E+01
 0.2189888269133E+01
 0.2105167764159E+01
 0.2024292282671E+01
 0.1947844261616E+01
 0.1876405186234E+01
 0.1810473603846E+01
 0.1750472354483E+01
 0.1696753877637E+01
 0.1649620738764E+01
 0.1609330019629E+01
 0.1576098146635E+01
 0.1550134822353E+01
 0.1531717266467E+01
 0.1521274961089E+01
 0.1519614017704E+01
 0.1527389299534E+01
 0.1544739068950E+01
 0.1570927204192E+01
 0.2394230182123E+01
 0.2301304336056E+01
 0.2211788387369E+01
 0.2126172428753E+01
 0.2044931131381E+01
 0.1968543618133E+01
 0.1897472549988E+01
 0.1832144441615E+01
 0.1772926146903E+01
 0.1720137631471E+01
 0.1674067885754E+01
 0.1634981149441E+01
 0.1603123326520E+01
 0.1578748449970E+01
 0.1562166061043E+01
 0.1553821336183E+01
 0.1554260671837E+01
 0.1563908200697E+01
 0.1582852902949E+01
 0.1610843017122E+01
 0.2419356202952E+01
 0.2324088006098E+01
 0.2232999047073E+01
 0.2146431519929E+01
 0.2064749638155E+01
 0.1988325468637E+01
 0.1917532782949E+01
 0.1852724193434E+01
 0.1794217755083E+01
 0.1742302612098E+01
 0.1697253893319E+01
 0.1659338750656E+01
 0.1628821084527E+01
 0.1605977595502E+01
 0.1591130995945E+01
 0.1584667765323E+01
 0.1587014064155E+01
 0.1598487993965E+01
 0.1619226773479E+01
 0.1649184905054E+01
 0.2443628836566E+01
 0.2346046905893E+01
 0.2253380149553E+01
 0.2165831300505E+01
 0.2083652266663E+01
 0.2007121696914E+01
 0.1936531856642E+01
 0.1872171121198E+01
 0.1814311557845E+01
 0.1763213553641E+01
 0.1719137303785E+01
 0.1682347941227E+01
 0.1653116859693E+01
 0.1631729808266E+01
 0.1618499988512E+01
 0.1613774107829E+01
 0.1617910572621E+01
 0.1631196332509E+01
 0.1653803336022E+01
 0.1685765026119E+01
 0.2466887011179E+01
 0.2367040574416E+01
 0.2272810476444E+01
 0.2184266617746E+01
 0.2101554525315E+01
 0.2024865147714E+01
 0.1954417756875E+01
 0.1890442574928E+01
 0.1833169829903E+01
 0.1782832275380E+01
 0.1739674015465E+01
 0.1703953646947E+01
 0.1675942558269E+01
 0.1655925431035E+01
 0.1644204832021E+01
 0.1641102239742E+01
 0.1646944830947E+01
 0.1662012107101E+01
 0.1686500626667E+01
 0.1720495779950E+01
 0.2488975109845E+01
 0.2386937263034E+01
 0.2291177793091E+01
 0.2201643126492E+01
 0.2118378463587E+01
 0.2041493220637E+01
 0.1971139913702E+01
 0.1907496236151E+01
 0.1850753964825E+01
 0.1801119458300E+01
 0.1758819683524E+01
 0.1724103449955E+01
 0.1697237085191E+01
 0.1678500778334E+01
 0.1668188900074E+01
 0.1666610403732E+01
 0.1674080185524E+01
 0.1690881942470E+01
 0.1717238227652E+01
 0.1753279307833E+01
 0.2509746838811E+01
 0.2405613925643E+01
 0.2308378888114E+01
 0.2217874499885E+01
 0.2134052729815E+01
 0.2056947439449E+01
 0.1986650104732E+01
 0.1923290665121E+01
 0.1867025574171E+01
 0.1818036022011E+01
 0.1776531355434E+01
 0.1742748608821E+01
 0.1716946691480E+01
 0.1699400635641E+01
 0.1690400178189E+01
 0.1690250093821E+01
 0.1699264209202E+01
 0.1717738678763E+01
 0.1745925717082E+01
 0.1784007356622E+01
 0.2529066796027E+01
 0.2422957133554E+01
 0.2324319149340E+01
 0.2232882009655E+01
 0.2148512048916E+01
 0.2071173751285E+01
 0.2000902934277E+01
 0.1937786165316E+01
 0.1881947486562E+01
 0.1833544322824E+01
 0.1792768514033E+01
 0.1759844577295E+01
 0.1735023277592E+01
 0.1718575125117E+01
 0.1710788240463E+01
 0.1711968714921E+01
 0.1722436469729E+01
 0.1742505896393E+01
 0.1772465363204E+01
 0.1812551142307E+01
 0.2546811011926E+01
 0.2438863280817E+01
 0.2338912390448E+01
 0.2246594061728E+01
 0.2161696938296E+01
 0.2084122486464E+01
 0.2013856153820E+01
 0.1950945310663E+01
 0.1895484452154E+01
 0.1847608866696E+01
 0.1807493582525E+01
 0.1775350756480E+01
 0.1751423239413E+01
 0.1735978038958E+01
 0.1729303939305E+01
 0.1731711921168E+01
 0.1743532515766E+01
 0.1765102599860E+01
 0.1796750837768E+01
 0.1838781265441E+01
 0.2562867482440E+01
 0.2453238846290E+01
 0.2352080906731E+01
 0.2258946139946E+01
 0.2173553682028E+01
 0.2095748518748E+01
 0.2025471022020E+01
 0.1962733481746E+01
 0.1907603755624E+01
 0.1860196874372E+01
 0.1820672215101E+01
 0.1789230334470E+01
 0.1766106884719E+01
 0.1751566408601E+01
 0.1745899944095E+01
 0.1749425549539E+01
 0.1762487088148E+01
 0.1785446187866E+01
 0.1818674595497E+01
 0.1862550803282E+01
 0.2577136342259E+01
 0.2466000496727E+01
 0.2363755477241E+01
 0.2269880755283E+01
 0.2184034317260E+01
 0.2106011365246E+01
 0.2035712551962E+01
 0.1973119227925E+01
 0.1918275621672E+01
 0.1871278613879E+01
 0.1832273436748E+01
 0.1801450178220E+01
 0.1779038226556E+01
 0.1765300563817E+01
 0.1760531477377E+01
 0.1765057260503E+01
 0.1779236351649E+01
 0.1803455729141E+01
 0.1838129776141E+01
 0.1883706006357E+01
 0.2589529993701E+01
 0.2477075163983E+01
 0.2373875398699E+01
 0.2279347459672E+01
 0.2193096675737E+01
 0.2114875303932E+01
 0.2044549721639E+01
 0.1982074548689E+01
 0.1927473508987E+01
 0.1880827632947E+01
 0.1842269755314E+01
 0.1811980842347E+01
 0.1790185024190E+01
 0.1777144438335E+01
 0.1773157114746E+01
 0.1778557899343E+01
 0.1793719826861E+01
 0.1819054117108E+01
 0.1855013846292E+01
 0.1902106135443E+01
 0.2599973238959E+01
 0.2486400122636E+01
 0.2382388548971E+01
 0.2287302903469E+01
 0.2200704463852E+01
 0.2122309503530E+01
 0.2051955662920E+01
 0.1989575123523E+01
 0.1935174341986E+01
 0.1888820949407E+01
 0.1850637292084E+01
 0.1820796677348E+01
 0.1799518976005E+01
 0.1787065998095E+01
 0.1783739577863E+01
 0.1789882731683E+01
 0.1805882064985E+01
 0.1832170418003E+01
 0.1869233936921E+01
 0.1917628472846E+01
 0.2608403286630E+01
 0.2493923013430E+01
 0.2389251400765E+01
 0.2293710857700E+01
 0.2206827306665E+01
 0.2128288104548E+01
 0.2057907782643E+01
 0.1995600459625E+01
 0.1941358660571E+01
 0.1895239181716E+01
 0.1857355894099E+01
 0.1827875963594E+01
 0.1807015955563E+01
 0.1795037679911E+01
 0.1792246469687E+01
 0.1798992549012E+01
 0.1815674220784E+01
 0.1842742369014E+01
 0.1880709792060E+01
 0.1930170128743E+01
 0.2614769870425E+01
 0.2499601912500E+01
 0.2394429094216E+01
 0.2298542288792E+01
 0.2211440835901E+01
 0.2132790328191E+01
 0.2062387893311E+01
 0.2000134035366E+01
 0.1946010762714E+01
 0.1900066682729E+01
 0.1862409268960E+01
 0.1833201082997E+01
 0.1812656280299E+01
 0.1801036830611E+01
 0.1798650959265E+01
 0.1805854676072E+01
 0.1823055508138E+01
 0.1850718229053E+01
 0.1889375613024E+01
 0.1939648648039E+01
 0.2619035243852E+01
 0.2503405344197E+01
 0.2397895448124E+01
 0.2301775379749E+01
 0.2214526724301E+01
 0.2135800528213E+01
 0.2065382281790E+01
 0.2003163380110E+01
 0.1949118788348E+01
 0.1903291626465E+01
 0.1865785086312E+01
 0.1836758664284E+01
 0.1816424945537E+01
 0.1805046085059E+01
 0.1802932364209E+01
 0.1810443825721E+01
 0.1827994346520E+01
 0.1856058111208E+01
 0.1895181170923E+01
 0.1946002191019E+01
 0.2621174226789E+01
 0.2505312310717E+01
 0.2399632993796E+01
 0.2303395567940E+01
 0.2216072731402E+01
 0.2137308246359E+01
 0.2066881773875E+01
 0.2004680144626E+01
 0.1950674792682E+01
 0.1904906086184E+01
 0.1867475071685E+01
 0.1838539714951E+01
 0.1818311827540E+01
 0.1807053681130E+01
 0.1805076623387E+01
 0.1812742765012E+01
 0.1830469215687E+01
 0.1858734908071E+01
 0.1898092532934E+01
 0.1949189380123E+01
 0.2621174226415E+01
 0.2505312310418E+01
 0.2399632993555E+01
 0.2303395567747E+01
 0.2216072731247E+01
 0.2137308246236E+01
 0.2066881773780E+01
 0.2004680144555E+01
 0.1950674792631E+01
 0.1904906086150E+01
 0.1867475071664E+01
 0.1838539714940E+01
 0.1818311827535E+01
 0.1807053681128E+01
 0.1805076623388E+01
 0.1812742765013E+01
 0.1830469215688E+01
 0.1858734908072E+01
 0.1898092532933E+01
 0.1949189380120E+01
 0.2619035242733E+01
 0.2503405343301E+01
 0.2397895447404E+01
 0.2301775379170E+01
 0.2214526723837E+01
 0.2135800527845E+01
 0.2065382281505E+01
 0.2003163379897E+01
 0.1949118788196E+01
 0.1903291626362E+01
 0.1865785086249E+01
 0.1836758664249E+01
 0.1816424945521E+01
 0.1805046085054E+01
 0.1802932364211E+01
 0.1810443825725E+01
 0.1827994346524E+01
 0.1856058111209E+01
 0.1895181170921E+01
 0.1946002191012E+01
 0.2614769868567E+01
 0.2499601911013E+01
 0.2394429093020E+01
 0.2298542287830E+01
 0.2211440835131E+01
 0.2132790327580E+01
 0.2062387892838E+01
 0.2000134035011E+01
 0.1946010762460E+01
 0.1900066682559E+01
 0.1862409268855E+01
 0.1833201082939E+01
 0.1812656280273E+01
 0.1801036830603E+01
 0.1798650959267E+01
 0.1805854676079E+01
 0.1823055508144E+01
 0.1850718229056E+01
 0.1889375613021E+01
 0.1939648648028E+01
 0.2608403284046E+01
 0.2493923011360E+01
 0.2389251399100E+01
 0.2293710856360E+01
 0.2206827305590E+01
 0.2128288103697E+01
 0.2057907781983E+01
 0.1995600459130E+01
 0.1941358660217E+01
 0.1895239181478E+01
 0.1857355893952E+01
 0.1827875963514E+01
 0.1807015955526E+01
 0.1795037679901E+01
 0.1792246469692E+01
 0.1798992549022E+01
 0.1815674220793E+01
 0.1842742369018E+01
 0.1880709792057E+01
 0.1930170128729E+01
 0.2599973235663E+01
 0.2486400119995E+01
 0.2382388546846E+01
 0.2287302901757E+01
 0.2200704462478E+01
 0.2122309502442E+01
 0.2051955662075E+01
 0.1989575122890E+01
 0.1935174341533E+01
 0.1888820949103E+01
 0.1850637291897E+01
 0.1820796677245E+01
 0.1799518975959E+01
 0.1787065998083E+01
 0.1783739577869E+01
 0.1789882731697E+01
 0.1805882064998E+01
 0.1832170418010E+01
 0.1869233936919E+01
 0.1917628472830E+01
 0.2589529989714E+01
 0.2477075160786E+01
 0.2373875396124E+01
 0.2279347457596E+01
 0.2193096674070E+01
 0.2114875302610E+01
 0.2044549720614E+01
 0.1982074547920E+01
 0.1927473508438E+01
 0.1880827632578E+01
 0.1842269755086E+01
 0.1811980842223E+01
 0.1790185024134E+01
 0.1777144438320E+01
 0.1773157114754E+01
 0.1778557899361E+01
 0.1793719826879E+01
 0.1819054117119E+01
 0.1855013846292E+01
 0.1902106135426E+01
 0.2577136337607E+01
 0.2466000492993E+01
 0.2363755474230E+01
 0.2269880752853E+01
 0.2184034315308E+01
 0.2106011363696E+01
 0.2035712550759E+01
 0.1973119227023E+01
 0.1918275621028E+01
 0.1871278613446E+01
 0.1832273436482E+01
 0.1801450178074E+01
 0.1779038226491E+01
 0.1765300563801E+01
 0.1760531477388E+01
 0.1765057260526E+01
 0.1779236351673E+01
 0.1803455729157E+01
 0.1838129776143E+01
 0.1883706006341E+01
 0.2562867477151E+01
 0.2453238842041E+01
 0.2352080903300E+01
 0.2258946137173E+01
 0.2173553679798E+01
 0.2095748516976E+01
 0.2025471020645E+01
 0.1962733480714E+01
 0.1907603754887E+01
 0.1860196873877E+01
 0.1820672214797E+01
 0.1789230334304E+01
 0.1766106884646E+01
 0.1751566408584E+01
 0.1745899944110E+01
 0.1749425549568E+01
 0.1762487088178E+01
 0.1785446187889E+01
 0.1818674595504E+01
 0.1862550803268E+01
 0.2546811006034E+01
 0.2438863276078E+01
 0.2338912386616E+01
 0.2246594058627E+01
 0.2161696935799E+01
 0.2084122484478E+01
 0.2013856152277E+01
 0.1950945309505E+01
 0.1895484451327E+01
 0.1847608866142E+01
 0.1807493582185E+01
 0.1775350756295E+01
 0.1751423239331E+01
 0.1735978038941E+01
 0.1729303939324E+01
 0.1731711921203E+01
 0.1743532515804E+01
 0.1765102599890E+01
 0.1796750837782E+01
 0.1838781265430E+01
 0.2529066789570E+01
 0.2422957128353E+01
 0.2324319145128E+01
 0.2232882006241E+01
 0.2148512046162E+01
 0.2071173749093E+01
 0.2000902932572E+01
 0.1937786164036E+01
 0.1881947485648E+01
 0.1833544322212E+01
 0.1792768513657E+01
 0.1759844577091E+01
 0.1735023277503E+01
 0.1718575125099E+01
 0.1710788240486E+01
 0.1711968714963E+01
 0.1722436469776E+01
 0.1742505896434E+01
 0.1772465363228E+01
 0.1812551142302E+01
 0.2509746831833E+01
 0.2405613920013E+01
 0.2308378883545E+01
 0.2217874496174E+01
 0.2134052726817E+01
 0.2056947437059E+01
 0.1986650102872E+01
 0.1923290663725E+01
 0.1867025573173E+01
 0.1818036021344E+01
 0.1776531355025E+01
 0.1742748608598E+01
 0.1716946691383E+01
 0.1699400635622E+01
 0.1690400178216E+01
 0.1690250093871E+01
 0.1699264209260E+01
 0.1717738678817E+01
 0.1745925717119E+01
 0.1784007356627E+01
 0.2488975102391E+01
 0.2386937257008E+01
 0.2291177788190E+01
 0.2201643122503E+01
 0.2118378460357E+01
 0.2041493218059E+01
 0.1971139911694E+01
 0.1907496234643E+01
 0.1850753963749E+01
 0.1801119457581E+01
 0.1758819683083E+01
 0.1724103449716E+01
 0.1697237085087E+01
 0.1678500778314E+01
 0.1668188900104E+01
 0.1666610403790E+01
 0.1674080185594E+01
 0.1690881942539E+01
 0.1717238227705E+01
 0.1753279307852E+01
 0.2466887003302E+01
 0.2367040568034E+01
 0.2272810471239E+01
 0.2184266613498E+01
 0.2101554521868E+01
 0.2024865144958E+01
 0.1954417754726E+01
 0.1890442573315E+01
 0.1833169828752E+01
 0.1782832274613E+01
 0.1739674014995E+01
 0.1703953646692E+01
 0.1675942558158E+01
 0.1655925431014E+01
 0.1644204832055E+01
 0.1641102239807E+01
 0.1646944831029E+01
 0.1662012107188E+01
 0.1686500626742E+01
 0.1720495779990E+01
 0.2443628828321E+01
 0.2346046899195E+01
 0.2253380144074E+01
 0.2165831296019E+01
 0.2083652263013E+01
 0.2007121693990E+01
 0.1936531854362E+01
 0.1872171119486E+01
 0.1814311556626E+01
 0.1763213552828E+01
 0.1719137303288E+01
 0.1682347940957E+01
 0.1653116859575E+01
 0.1631729808242E+01
 0.1618499988547E+01
 0.1613774107901E+01
 0.1617910572717E+01
 0.1631196332617E+01
 0.1653803336124E+01
 0.1685765026190E+01
 0.2419356194398E+01
 0.2324087999127E+01
 0.2232999041350E+01
 0.2146431515228E+01
 0.2064749634319E+01
 0.1988325465558E+01
 0.1917532780545E+01
 0.1852724191631E+01
 0.1794217753800E+01
 0.1742302611245E+01
 0.1697253892798E+01
 0.1659338750372E+01
 0.1628821084400E+01
 0.1605977595474E+01
 0.1591130995979E+01
 0.1584667765399E+01
 0.1587014064264E+01
 0.1598487994096E+01
 0.1619226773614E+01
 0.1649184905166E+01
 0.2394230173326E+01
 0.2301304328860E+01
 0.2211788381437E+01
 0.2126172423860E+01
 0.2044931127376E+01
 0.1968543614911E+01
 0.1897472547471E+01
 0.1832144439728E+01
 0.1772926145563E+01
 0.1720137630582E+01
 0.1674067885211E+01
 0.1634981149144E+01
 0.1603123326384E+01
 0.1578748449935E+01
 0.1562166061073E+01
 0.1553821336261E+01
 0.1554260671957E+01
 0.1563908200852E+01
 0.1582852903123E+01
 0.1610843017289E+01
 0.2368414322537E+01
 0.2277836296301E+01
 0.2189888263028E+01
 0.2105167759098E+01
 0.2024292278512E+01
 0.1947844258263E+01
 0.1876405183613E+01
 0.1810473601885E+01
 0.1750472353094E+01
 0.1696753876719E+01
 0.1649620738204E+01
 0.1609330019320E+01
 0.1576098146488E+01
 0.1550134822308E+01
 0.1531717266488E+01
 0.1521274961164E+01
 0.1519614017832E+01
 0.1527389299715E+01
 0.1544739069168E+01
 0.1570927204426E+01
 0.2342018996255E+01
 0.2253858292474E+01
 0.2167433065728E+01
 0.2083576523762E+01
 0.2002917479335E+01
 0.1926303052186E+01
 0.1854384861391E+01
 0.1787752489554E+01
 0.1726887750956E+01
 0.1672182237507E+01
 0.1623949277577E+01
 0.1582435021553E+01
 0.1547821742772E+01
 0.1520246706593E+01
 0.1499909979154E+01
 0.1487233853430E+01
 0.1482922339142E+01
 0.1488678273227E+01
 0.1504817846701E+01
 0.1529736057449E+01
 0.2315218439800E+01
 0.2229329878935E+01
 0.2144833794702E+01
 0.2061462683070E+01
 0.1980913862702E+01
 0.1903993576435E+01
 0.1831475909148E+01
 0.1764013780762E+01
 0.1702197663088E+01
 0.1646449471378E+01
 0.1597083403046E+01
 0.1554337808717E+01
 0.1518356573473E+01
 0.1489208119284E+01
 0.1466916409661E+01
 0.1451830887148E+01
 0.1444858168176E+01
 0.1446500248307E+01
 0.1462392486452E+01
 0.1488256177182E+01
 0.2285701400584E+01
 0.2206012973627E+01
 0.2121958512813E+01
 0.2038961138587E+01
 0.1958318866791E+01
 0.1881078767148E+01
 0.1807717527459E+01
 0.1739274627010E+01
 0.1676426716758E+01
 0.1619573631042E+01
 0.1569049006144E+01
 0.1525067013014E+01
 0.1487749832665E+01
 0.1457090920829E+01
 0.1433010311583E+01
 0.1415292548955E+01
 0.1405281496698E+01
 0.1404398185840E+01
 0.1409111323735E+01
 0.1444549691076E+01
 0.6063555039583E+01
 0.1162036175692E+01
 0.8816126373186E+00
 0.6322531013096E+00
 0.4435356019906E+00
 0.2654345594047E+00
 0.1023802009070E+00
-0.1117075784666E-02
-0.6265186409193E-01
-0.1088817918475E+00
-0.1471235977313E+00
-0.1791166225986E+00
-0.2024300574567E+00
-0.2165789216284E+00
-0.2216393223695E+00
-0.2185035924636E+00
-0.1879621694498E+00
-0.1583666026737E+00
-0.1336707872412E+00
-0.1269427561601E+00
 0.3725598492720E+01
 0.2266869038913E+01
 0.1038839606206E+01
 0.7649803498080E+00
 0.5495848927259E+00
 0.3693618690102E+00
 0.2160552292334E+00
 0.1025833821874E+00
 0.2803658530351E-01
-0.2398380058496E-01
-0.6479338474353E-01
-0.9753693616637E-01
-0.1226565083783E+00
-0.1400144157100E+00
-0.1495483873643E+00
-0.1482017046103E+00
-0.1386599805036E+00
-0.1231002176403E+00
-0.1084579678876E+00
-0.1062535259555E+00
 0.3047630465018E+01
 0.2201918655767E+01
 0.1415255996663E+01
 0.9083637429027E+00
 0.6675992504506E+00
 0.4766113811188E+00
 0.3241366033372E+00
 0.2075225999984E+00
 0.1242255144689E+00
 0.6498570549184E-01
 0.2047114240974E-01
-0.1426987758581E-01
-0.4113381153550E-01
-0.6099937366488E-01
-0.7349596788785E-01
-0.7863401981101E-01
-0.7813129482609E-01
-0.7493885104185E-01
-0.6960875150672E-01
-0.6948191691042E-01
 0.2694206941811E+01
 0.2128168057229E+01
 0.1560885104979E+01
 0.1099558719282E+01
 0.7943981993734E+00
 0.5890466168595E+00
 0.4321101853086E+00
 0.3122854449343E+00
 0.2231299887079E+00
 0.1576674430058E+00
 0.1086970030908E+00
 0.7125119055609E-01
 0.4233696837529E-01
 0.2041274659764E-01
 0.4923902188736E-02
-0.4717682187158E-02
-0.1110263812701E-01
-0.1581064465803E-01
-0.1712242717036E-01
-0.1650743790302E-01
 0.2487896686601E+01
 0.2067265943584E+01
 0.1636078333738E+01
 0.1239933460490E+01
 0.9322141271012E+00
 0.7059977944965E+00
 0.5419539888347E+00
 0.4176368955715E+00
 0.3235815987744E+00
 0.2529549271640E+00
 0.1996554080574E+00
 0.1591109994192E+00
 0.1279313363204E+00
 0.1039750603223E+00
 0.8610841965124E-01
 0.7310111407112E-01
 0.6207564941854E-01
 0.5234809769452E-01
 0.4778054903838E-01
 0.5097242805282E-01
 0.2356678598248E+01
 0.2025617660112E+01
 0.1680869450001E+01
 0.1344410970060E+01
 0.1055888188267E+01
 0.8253855106739E+00
 0.6533739739103E+00
 0.5240002774016E+00
 0.4252486115185E+00
 0.3500958705233E+00
 0.2928210387036E+00
 0.2491533138726E+00
 0.2155870920678E+00
 0.1896812421648E+00
 0.1698810979246E+00
 0.1545580292954E+00
 0.1405389099794E+00
 0.1283029103862E+00
 0.1232626668793E+00
 0.1308051979633E+00
 0.2270162438348E+01
 0.1999288733240E+01
 0.1713413014353E+01
 0.1425211476127E+01
 0.1162784374443E+01
 0.9391870458544E+00
 0.7645557116979E+00
 0.6308456109070E+00
 0.5278294857590E+00
 0.4485923136527E+00
 0.3876939428085E+00
 0.3410430782680E+00
 0.3051240011240E+00
 0.2773729042306E+00
 0.2560173225442E+00
 0.2391796601626E+00
 0.2234955297276E+00
 0.2107313241945E+00
 0.2073970350694E+00
 0.2203278489662E+00
 0.2212660566198E+01
 0.1984726398780E+01
 0.1741139673660E+01
 0.1491237567410E+01
 0.1255010680247E+01
 0.1044283949895E+01
 0.8722638625610E+00
 0.7368396840136E+00
 0.6306416317030E+00
 0.5479359082435E+00
 0.4838009947155E+00
 0.4343890114056E+00
 0.3962435329872E+00
 0.3667907907988E+00
 0.3441837635044E+00
 0.3264406533272E+00
 0.3101048511344E+00
 0.2982997165866E+00
 0.2981466147024E+00
 0.3167824282917E+00
 0.2175260486795E+01
 0.1979182356436E+01
 0.1767351511706E+01
 0.1547991937580E+01
 0.1335726825223E+01
 0.1140207789482E+01
 0.9745287047657E+00
 0.8402592015209E+00
 0.7326414396127E+00
 0.6474340913559E+00
 0.5806115986453E+00
 0.5287505582166E+00
 0.4885725238428E+00
 0.4575846407059E+00
 0.4339711797206E+00
 0.4157598449569E+00
 0.3995064733873E+00
 0.3896578189768E+00
 0.3934943812467E+00
 0.4175456623606E+00
 0.2152464822078E+01
 0.1980663533027E+01
 0.1793517850148E+01
 0.1598842285477E+01
 0.1407707511710E+01
 0.1227732118704E+01
 0.1070575513474E+01
 0.9398196395136E+00
 0.8326733708618E+00
 0.7462305425713E+00
 0.6774826114150E+00
 0.6236144789195E+00
 0.5816703340836E+00
 0.5493346712141E+00
 0.5249077606234E+00
 0.5065169785514E+00
 0.4908258937152E+00
 0.4834800414852E+00
 0.4915373619290E+00
 0.5202765248823E+00
 0.2140665881715E+01
 0.1987719310559E+01
 0.1820278338098E+01
 0.1645851007942E+01
 0.1473100740826E+01
 0.1308009670583E+01
 0.1160414029581E+01
 0.1034814658256E+01
 0.9297900025562E+00
 0.8434429020621E+00
 0.7736890126639E+00
 0.7183892624486E+00
 0.6750292233822E+00
 0.6415613047055E+00
 0.6164735874925E+00
 0.5980647908622E+00
 0.5831906082066E+00
 0.5785011714467E+00
 0.5905528556662E+00
 0.6229773999063E+00
 0.2137370421076E+01
 0.1999274841125E+01
 0.1847881811457E+01
 0.1690296709572E+01
 0.1533488438784E+01
 0.1382191643401E+01
 0.1244451115378E+01
 0.1125008666760E+01
 0.1023361523167E+01
 0.9383125856414E+00
 0.8685075111672E+00
 0.8124396796554E+00
 0.7680883990042E+00
 0.7337365276528E+00
 0.7081133840454E+00
 0.6897427874453E+00
 0.6757462902730E+00
 0.6735432937251E+00
 0.6890291695098E+00
 0.7240039939269E+00
 0.2140777736869E+01
 0.2014512429342E+01
 0.1876389533290E+01
 0.1732982915537E+01
 0.1590014756909E+01
 0.1451284442266E+01
 0.1323243860631E+01
 0.1210468439733E+01
 0.1113055188281E+01
 0.1030275413902E+01
 0.9612998473671E+00
 0.9051447409215E+00
 0.8602688548912E+00
 0.8253068042877E+00
 0.7992542248250E+00
 0.7808941177205E+00
 0.7676718469547E+00
 0.7675296957646E+00
 0.7856669126190E+00
 0.8220444043792E+00
 0.2149536180736E+01
 0.2032791028008E+01
 0.1905771352310E+01
 0.1774420641106E+01
 0.1643503462609E+01
 0.1516116638635E+01
 0.1397364356808E+01
 0.1291421514365E+01
 0.1198759741503E+01
 0.1118963964838E+01
 0.1051558666732E+01
 0.9959517387752E+00
 0.9510202002286E+00
 0.9157284497474E+00
 0.8893359101706E+00
 0.8708870354694E+00
 0.8581985253388E+00
 0.8594835954060E+00
 0.8793567493528E+00
 0.9160764631591E+00
 0.2162596011197E+01
 0.2053592051641E+01
 0.1935952034241E+01
 0.1814936759485E+01
 0.1694548503555E+01
 0.1577350061361E+01
 0.1467336215752E+01
 0.1368159304682E+01
 0.1280503777436E+01
 0.1204170531997E+01
 0.1138912917792E+01
 0.1084407554631E+01
 0.1039861608236E+01
 0.1004516220416E+01
 0.9778479046170E+00
 0.9591604999817E+00
 0.9466243917940E+00
 0.9485315669761E+00
 0.9691169167889E+00
 0.1005311303508E+01
 0.2179116801097E+01
 0.2076483005013E+01
 0.1966833840921E+01
 0.1854739018049E+01
 0.1743578981468E+01
 0.1635504758638E+01
 0.1533611611648E+01
 0.1440979996419E+01
 0.1358389430365E+01
 0.1285796342657E+01
 0.1223103099818E+01
 0.1170157614973E+01
 0.1126405285584E+01
 0.1091278972270E+01
 0.1064411176361E+01
 0.1045251387926E+01
 0.1032412285475E+01
 0.1033848313514E+01
 0.1054041565066E+01
 0.1089050651622E+01
 0.2198406793255E+01
 0.2101092659769E+01
 0.1998308784960E+01
 0.1893955648366E+01
 0.1790903612195E+01
 0.1690984606235E+01
 0.1596568752084E+01
 0.1510161110402E+01
 0.1432548479406E+01
 0.1363805245892E+01
 0.1303940535703E+01
 0.1252913573244E+01
 0.1210334275128E+01
 0.1175744933400E+01
 0.1148800129422E+01
 0.1129055768947E+01
 0.1115098745749E+01
 0.1114945191387E+01
 0.1132897475001E+01
 0.1166580588899E+01
 0.2219875221969E+01
 0.2127097368615E+01
 0.2030266367052E+01
 0.1932662100922E+01
 0.1836739162521E+01
 0.1744095340594E+01
 0.1656519318317E+01
 0.1575951010410E+01
 0.1503121950564E+01
 0.1438194854273E+01
 0.1381270819455E+01
 0.1332400241701E+01
 0.1291328869093E+01
 0.1257668424919E+01
 0.1231009842600E+01
 0.1210702382641E+01
 0.1195576000227E+01
 0.1190669510597E+01
 0.1205029950942E+01
 0.1235648058322E+01
 0.2243001142616E+01
 0.2154187471030E+01
 0.2062631516220E+01
 0.1970898791057E+01
 0.1881212940683E+01
 0.1795061873931E+01
 0.1713709331897E+01
 0.1638576635845E+01
 0.1570258663925E+01
 0.1508991229888E+01
 0.1454966395229E+01
 0.1408323755402E+01
 0.1368964125349E+01
 0.1336617317139E+01
 0.1310886639823E+01
 0.1290866874441E+01
 0.1274705699663E+01
 0.1266696733725E+01
 0.1262990617446E+01
 0.1294173726074E+01
 0.2266967901663E+01
 0.2182277374032E+01
 0.2095357673434E+01
 0.2008663742686E+01
 0.1924410106691E+01
 0.1843944742421E+01
 0.1768364040113E+01
 0.1698258920960E+01
 0.1634114030822E+01
 0.1576266224617E+01
 0.1524959342079E+01
 0.1480421141828E+01
 0.1442713130986E+01
 0.1411773858993E+01
 0.1387430456025E+01
 0.1369219640215E+01
 0.1354790002133E+01
 0.1344665969306E+01
 0.1340004054758E+01
 0.1292580859165E+01
 0.2266967893682E+01
 0.2182277367167E+01
 0.2095357667448E+01
 0.2008663737417E+01
 0.1924410102086E+01
 0.1843944738473E+01
 0.1768364036843E+01
 0.1698258918364E+01
 0.1634114028857E+01
 0.1576266223211E+01
 0.1524959341128E+01
 0.1480421141222E+01
 0.1442713130621E+01
 0.1411773858788E+01
 0.1387430455928E+01
 0.1369219640176E+01
 0.1354790002099E+01
 0.1344665969410E+01
 0.1340004055048E+01
 0.1292580859593E+01
 0.2243001135317E+01
 0.2154187464705E+01
 0.2062631510567E+01
 0.1970898785960E+01
 0.1881212936114E+01
 0.1795061869926E+01
 0.1713709328518E+01
 0.1638576633121E+01
 0.1570258661828E+01
 0.1508991228348E+01
 0.1454966394149E+01
 0.1408323754673E+01
 0.1368964124872E+01
 0.1336617316835E+01
 0.1310886639637E+01
 0.1290866874319E+01
 0.1274705699598E+01
 0.1266696733909E+01
 0.1262990617924E+01
 0.1294173726738E+01
 0.2219875215505E+01
 0.2127097362870E+01
 0.2030266361776E+01
 0.1932662096019E+01
 0.1836739158006E+01
 0.1744095336544E+01
 0.1656519314836E+01
 0.1575951007556E+01
 0.1503121948328E+01
 0.1438194852595E+01
 0.1381270818243E+01
 0.1332400240851E+01
 0.1291328868509E+01
 0.1257668424525E+01
 0.1231009842344E+01
 0.1210702382475E+01
 0.1195576000153E+01
 0.1190669510867E+01
 0.1205029951588E+01
 0.1235648059225E+01
 0.2198406787721E+01
 0.2101092654666E+01
 0.1998308780091E+01
 0.1893955643677E+01
 0.1790903607742E+01
 0.1690984602139E+01
 0.1596568748498E+01
 0.1510161107416E+01
 0.1432548477027E+01
 0.1363805244073E+01
 0.1303940534361E+01
 0.1252913572280E+01
 0.1210334274449E+01
 0.1175744932932E+01
 0.1148800129116E+01
 0.1129055768754E+01
 0.1115098745679E+01
 0.1114945191734E+01
 0.1132897475799E+01
 0.1166580590021E+01
 0.2179116796579E+01
 0.2076483000602E+01
 0.1966833836486E+01
 0.1854739013583E+01
 0.1743578977076E+01
 0.1635504754489E+01
 0.1533611607948E+01
 0.1440979993293E+01
 0.1358389427840E+01
 0.1285796340699E+01
 0.1223103098354E+01
 0.1170157613909E+01
 0.1126405284826E+01
 0.1091278971745E+01
 0.1064411176020E+01
 0.1045251387719E+01
 0.1032412285414E+01
 0.1033848313925E+01
 0.1054041565988E+01
 0.1089050652948E+01
 0.2162596007776E+01
 0.2053592047963E+01
 0.1935952030258E+01
 0.1814936755243E+01
 0.1694548499213E+01
 0.1577350057144E+01
 0.1467336211927E+01
 0.1368159301411E+01
 0.1280503774766E+01
 0.1204170529909E+01
 0.1138912916220E+01
 0.1084407553484E+01
 0.1039861607419E+01
 0.1004516219853E+01
 0.9778479042569E+00
 0.9591604997678E+00
 0.9466243917413E+00
 0.9485315674291E+00
 0.9691169178060E+00
 0.1005311305018E+01
 0.2149536178486E+01
 0.2032791025097E+01
 0.1905771348790E+01
 0.1774420637078E+01
 0.1643503458295E+01
 0.1516116634328E+01
 0.1397364352844E+01
 0.1291421510944E+01
 0.1198759738695E+01
 0.1118963962636E+01
 0.1051558665074E+01
 0.9959517375688E+00
 0.9510201993741E+00
 0.9157284491637E+00
 0.8893359098034E+00
 0.8708870352550E+00
 0.8581985252890E+00
 0.8594835958750E+00
 0.8793567504309E+00
 0.9160764648243E+00
 0.2140777735864E+01
 0.2014512427225E+01
 0.1876389530231E+01
 0.1732982911702E+01
 0.1590014752591E+01
 0.1451284437839E+01
 0.1323243856514E+01
 0.1210468436165E+01
 0.1113055185350E+01
 0.1030275411611E+01
 0.9612998456526E+00
 0.9051447396843E+00
 0.8602688540236E+00
 0.8253068037018E+00
 0.7992542244611E+00
 0.7808941175085E+00
 0.7676718469006E+00
 0.7675296962216E+00
 0.7856669137205E+00
 0.8220444061608E+00
 0.2137370421390E+01
 0.1999274839824E+01
 0.1847881808848E+01
 0.1690296705892E+01
 0.1533488434418E+01
 0.1382191638822E+01
 0.1244451111097E+01
 0.1125008663056E+01
 0.1023361520141E+01
 0.9383125832983E+00
 0.8685075094327E+00
 0.8124396784188E+00
 0.7680883981478E+00
 0.7337365270811E+00
 0.7081133836933E+00
 0.6897427872361E+00
 0.6757462902056E+00
 0.6735432941419E+00
 0.6890291705938E+00
 0.7240039957755E+00
 0.2140665883426E+01
 0.1987719310090E+01
 0.1820278335912E+01
 0.1645851004363E+01
 0.1473100736355E+01
 0.1308009665819E+01
 0.1160414025137E+01
 0.1034814654443E+01
 0.9297899994809E+00
 0.8434428997142E+00
 0.7736890109513E+00
 0.7183892612452E+00
 0.6750292225593E+00
 0.6415613041612E+00
 0.6164735871573E+00
 0.5980647906552E+00
 0.5831906081179E+00
 0.5785011717969E+00
 0.5905528566900E+00
 0.6229774017621E+00
 0.2152464825278E+01
 0.1980663533403E+01
 0.1793517848342E+01
 0.1598842281922E+01
 0.1407707507065E+01
 0.1227732113729E+01
 0.1070575508889E+01
 0.9398196356443E+00
 0.8326733677983E+00
 0.7462305402750E+00
 0.6774826097675E+00
 0.6236144777785E+00
 0.5816703333120E+00
 0.5493346707066E+00
 0.5249077603083E+00
 0.5065169783451E+00
 0.4908258935988E+00
 0.4834800417471E+00
 0.4915373628510E+00
 0.5202765266785E+00
 0.2175260491601E+01
 0.1979182357667E+01
 0.1767351510206E+01
 0.1547991933941E+01
 0.1335726820327E+01
 0.1140207784291E+01
 0.9745287000933E+00
 0.8402591976748E+00
 0.7326414366388E+00
 0.6474340891707E+00
 0.5806115971020E+00
 0.5287505571609E+00
 0.4885725231347E+00
 0.4575846402406E+00
 0.4339711794269E+00
 0.4157598447509E+00
 0.3995064732414E+00
 0.3896578191372E+00
 0.3934943820313E+00
 0.4175456640267E+00
 0.2212660572764E+01
 0.1984726400869E+01
 0.1741139672351E+01
 0.1491237563539E+01
 0.1255010675028E+01
 0.1044283944525E+01
 0.8722638579043E+00
 0.7368396803004E+00
 0.6306416289034E+00
 0.5479359062226E+00
 0.4838009933059E+00
 0.4343890104501E+00
 0.3962435323496E+00
 0.3667907903782E+00
 0.3441837632326E+00
 0.3264406531235E+00
 0.3101048509636E+00
 0.2982997166443E+00
 0.2981466153242E+00
 0.3167824297585E+00
 0.2270162446897E+01
 0.1999288736174E+01
 0.1713413013042E+01
 0.1425211471830E+01
 0.1162784368859E+01
 0.9391870404248E+00
 0.7645557072186E+00
 0.6308456074540E+00
 0.5278294832084E+00
 0.4485923118332E+00
 0.3876939415498E+00
 0.3410430774197E+00
 0.3051240005583E+00
 0.2773729038549E+00
 0.2560173222963E+00
 0.2391796599671E+00
 0.2234955295444E+00
 0.2107313241640E+00
 0.2073970355203E+00
 0.2203278501730E+00
 0.2356678609111E+01
 0.2025617663837E+01
 0.1680869448373E+01
 0.1344410965105E+01
 0.1055888182379E+01
 0.8253855054263E+00
 0.6533739698168E+00
 0.5240002743180E+00
 0.4252486092629E+00
 0.3500958689239E+00
 0.2928210376028E+00
 0.2491533131332E+00
 0.2155870915733E+00
 0.1896812418333E+00
 0.1698810977038E+00
 0.1545580291194E+00
 0.1405389098061E+00
 0.1283029103001E+00
 0.1232626671734E+00
 0.1308051988661E+00
 0.2487896700301E+01
 0.2067265947935E+01
 0.1636078331253E+01
 0.1239933454683E+01
 0.9322141212009E+00
 0.7059977898217E+00
 0.5419539853028E+00
 0.4176368929090E+00
 0.3235815968278E+00
 0.2529549257907E+00
 0.1996554071170E+00
 0.1591109987868E+00
 0.1279313358938E+00
 0.1039750600343E+00
 0.8610841946465E-01
 0.7310111393350E-01
 0.6207564928915E-01
 0.5234809760568E-01
 0.4778054921541E-01
 0.5097242863368E-01
 0.2694206959255E+01
 0.2128168061678E+01
 0.1560885100807E+01
 0.1099558712667E+01
 0.7943981942390E+00
 0.5890466131023E+00
 0.4321101823814E+00
 0.3122854426859E+00
 0.2231299870711E+00
 0.1576674418637E+00
 0.1086970023111E+00
 0.7125119002553E-01
 0.4233696801070E-01
 0.2041274635262E-01
 0.4923902046960E-02
-0.4717682257346E-02
-0.1110263816440E-01
-0.1581064467635E-01
-0.1712242704631E-01
-0.1650743763145E-01
 0.3047630487574E+01
 0.2201918659133E+01
 0.1415255989252E+01
 0.9083637370665E+00
 0.6675992468915E+00
 0.4766113782794E+00
 0.3241366009483E+00
 0.2075225981420E+00
 0.1242255131510E+00
 0.6498570459048E-01
 0.2047114178615E-01
-0.1426987802465E-01
-0.4113381184545E-01
-0.6099937386715E-01
-0.7349596796869E-01
-0.7863401977538E-01
-0.7813129470095E-01
-0.7493885089807E-01
-0.6960875135377E-01
-0.6948191691146E-01
 0.3725598525201E+01
 0.2266869033790E+01
 0.1038839598511E+01
 0.7649803469227E+00
 0.5495848905717E+00
 0.3693618669026E+00
 0.2160552273044E+00
 0.1025833807254E+00
 0.2803658433931E-01
-0.2398380124543E-01
-0.6479338522731E-01
-0.9753693652829E-01
-0.1226565086383E+00
-0.1400144158678E+00
-0.1495483873747E+00
-0.1482017044044E+00
-0.1386599801260E+00
-0.1231002172019E+00
-0.1084579676468E+00
-0.1062535261745E+00
 0.6063555067503E+01
 0.1162036164283E+01
 0.8816126359211E+00
 0.6322531004171E+00
 0.4435356008054E+00
 0.2654345579163E+00
 0.1023801993679E+00
-0.1117076747982E-02
-0.6265186468889E-01
-0.1088817922918E+00
-0.1471235980952E+00
-0.1791166229079E+00
-0.2024300576656E+00
-0.2165789217112E+00
-0.2216393223442E+00
-0.2185035920814E+00
-0.1879621684719E+00
-0.1583666019517E+00
-0.1336707868328E+00
-0.1269427565737E+00
 0.1482519585715E+01
 0.1352882308615E+01
 0.1284242669756E+01
 0.1211326036425E+01
 0.1134758232516E+01
 0.1052539103369E+01
 0.9647252012598E+00
 0.8715201750927E+00
 0.7734454373070E+00
 0.6712985908159E+00
 0.5662076474194E+00
 0.4596780881407E+00
 0.3536403240745E+00
 0.2504817247890E+00
 0.1530374510664E+00
 0.6449767478863E-01
-0.1190368941945E-01
-0.7328757234943E-01
-0.1182615035801E+00
-0.1420237671452E+00
 0.1489060554063E+01
 0.1430820061216E+01
 0.1354196840909E+01
 0.1286161613587E+01
 0.1213875333972E+01
 0.1136229805430E+01
 0.1052114586951E+01
 0.9613723425457E+00
 0.8641617689234E+00
 0.7609877242044E+00
 0.6527102287707E+00
 0.5406025620824E+00
 0.4264182886087E+00
 0.3124653344886E+00
 0.2016762313003E+00
 0.9763040335201E-01
 0.4463347251042E-02
-0.7379507283451E-01
-0.1337162539100E+00
-0.1774773126995E+00
 0.1527726602487E+01
 0.1480955018823E+01
 0.1424651836731E+01
 0.1362166773229E+01
 0.1296652556021E+01
 0.1225190200946E+01
 0.1146750566877E+01
 0.1060596651570E+01
 0.9664584938935E+00
 0.8644012030873E+00
 0.7548604775072E+00
 0.6386960876999E+00
 0.5172749919193E+00
 0.3925765829269E+00
 0.2673258937497E+00
 0.1451690271539E+00
 0.3083851562336E-01
-0.6979502481698E-01
-0.1514961483637E+00
-0.2115637756880E+00
 0.1569121045761E+01
 0.1533592535003E+01
 0.1488941778721E+01
 0.1438110656407E+01
 0.1381228769686E+01
 0.1318112858937E+01
 0.1247444914412E+01
 0.1168267900505E+01
 0.1079833837141E+01
 0.9816886464896E+00
 0.8736970577035E+00
 0.7561170354255E+00
 0.6296981776769E+00
 0.4958110851290E+00
 0.3566205811817E+00
 0.2153351489610E+00
 0.7663375647887E-01
-0.5265879302640E-01
-0.1629301564598E+00
-0.2458076701518E+00
 0.1611162514586E+01
 0.1585125526680E+01
 0.1551545507452E+01
 0.1511646953763E+01
 0.1465552973500E+01
 0.1412638611520E+01
 0.1351996502263E+01
 0.1282454421020E+01
 0.1202911842869E+01
 0.1112385554560E+01
 0.1010086045043E+01
 0.8954949410758E+00
 0.7684753563108E+00
 0.6294190392862E+00
 0.4794433205687E+00
 0.3206726747615E+00
 0.1566965979536E+00
-0.6430545996874E-02
-0.1573527478447E+00
-0.2763268156955E+00
 0.1652333134446E+01
 0.1634847746119E+01
 0.1611221025778E+01
 0.1582025978103E+01
 0.1547016884387E+01
 0.1505546110357E+01
 0.1456623221246E+01
 0.1399062592266E+01
 0.1331542422315E+01
 0.1252703884990E+01
 0.1161198553001E+01
 0.1055747062105E+01
 0.9352157112714E+00
 0.7987281467522E+00
 0.6458256572251E+00
 0.4766939670474E+00
 0.2925029952812E+00
 0.9601343432811E-01
-0.1065397245639E+00
-0.2938951735448E+00
 0.1692275009349E+01
 0.1682393410446E+01
 0.1667824105470E+01
 0.1648669557196E+01
 0.1624567542935E+01
 0.1594811757059E+01
 0.1558442176587E+01
 0.1514276632904E+01
 0.1460957552365E+01
 0.1396976813771E+01
 0.1320700568669E+01
 0.1230381993421E+01
 0.1124176352320E+01
 0.1000163901578E+01
 0.8563863744269E+00
 0.6908952329483E+00
 0.5017807882868E+00
 0.2870678966290E+00
 0.4387267895065E-01
-0.2316724170514E+00
 0.1730645547196E+01
 0.1727540128071E+01
 0.1721105932621E+01
 0.1711195449152E+01
 0.1697392495339E+01
 0.1679028859039E+01
 0.1655216380630E+01
 0.1624870509651E+01
 0.1586719273294E+01
 0.1539310690217E+01
 0.1481009879769E+01
 0.1409988520770E+01
 0.1324203488479E+01
 0.1221364657326E+01
 0.1098887069895E+01
 0.9538135801167E+00
 0.7826600825465E+00
 0.5810047679463E+00
 0.3421221581870E+00
 0.4710904043193E-01
 0.1767181282578E+01
 0.1770088969275E+01
 0.1770897336717E+01
 0.1769336086494E+01
 0.1764998129624E+01
 0.1757293397002E+01
 0.1745455855230E+01
 0.1728548566879E+01
 0.1705464623862E+01
 0.1674922039126E+01
 0.1635453848966E+01
 0.1585390597401E+01
 0.1522834296874E+01
 0.1445621522342E+01
 0.1351273249529E+01
 0.1236926649725E+01
 0.1099245592612E+01
 0.9342902956157E+00
 0.7373838055409E+00
 0.5033398628028E+00
 0.1801672121068E+01
 0.1809926553191E+01
 0.1817156460863E+01
 0.1823064946678E+01
 0.1827284790430E+01
 0.1829327443930E+01
 0.1828569802293E+01
 0.1824250122823E+01
 0.1815462260093E+01
 0.1801146777230E+01
 0.1780077412748E+01
 0.1750842002383E+01
 0.1711816123650E+01
 0.1661128117140E+01
 0.1596614356178E+01
 0.1515767792181E+01
 0.1415691425134E+01
 0.1293151062649E+01
 0.1144954077169E+01
 0.9724713267272E+00
 0.1833946498693E+01
 0.1846959873498E+01
 0.1859896541557E+01
 0.1872471644809E+01
 0.1884377092421E+01
 0.1895231006925E+01
 0.1904557184947E+01
 0.1911774881394E+01
 0.1916190609602E+01
 0.1916988412592E+01
 0.1913217188972E+01
 0.1903773741891E+01
 0.1887380309019E+01
 0.1862555116271E+01
 0.1827575064258E+01
 0.1780430393282E+01
 0.1718781700169E+01
 0.1639921593874E+01
 0.1540959508422E+01
 0.1417594257603E+01
 0.1863855162233E+01
 0.1881177235830E+01
 0.1899267406638E+01
 0.1917875221261E+01
 0.1936759888652E+01
 0.1955642960993E+01
 0.1974186175858E+01
 0.1991979203157E+01
 0.2008530783246E+01
 0.2023260145184E+01
 0.2035487009042E+01
 0.2044419049998E+01
 0.2049135682137E+01
 0.2048566874001E+01
 0.2041465138615E+01
 0.2026368722381E+01
 0.2001546734925E+01
 0.1964920050810E+01
 0.1913721899019E+01
 0.1843784795682E+01
 0.1891196207605E+01
 0.1912452464775E+01
 0.1935221766190E+01
 0.1959311176075E+01
 0.1984552081104E+01
 0.2010763828421E+01
 0.2037733645461E+01
 0.2065204854512E+01
 0.2092868780219E+01
 0.2120357964637E+01
 0.2147239341114E+01
 0.2173006469996E+01
 0.2197070058863E+01
 0.2218745756478E+01
 0.2237237702256E+01
 0.2251614316166E+01
 0.2260771687288E+01
 0.2263355298345E+01
 0.2257650475088E+01
 0.2241535859145E+01
 0.1915729435505E+01
 0.1940536759473E+01
 0.1967502769770E+01
 0.1996505269483E+01
 0.2027451126023E+01
 0.2060251599989E+01
 0.2094806925541E+01
 0.2130996592605E+01
 0.2168672902946E+01
 0.2207656268984E+01
 0.2247731371308E+01
 0.2288643662484E+01
 0.2330095871628E+01
 0.2371744150705E+01
 0.2413193127148E+01
 0.2453988730861E+01
 0.2493605785481E+01
 0.2531438246710E+01
 0.2566816579462E+01
 0.2599085162612E+01
 0.1937221208893E+01
 0.1965160745183E+01
 0.1995807182569E+01
 0.2029111660059E+01
 0.2065055402484E+01
 0.2103634559641E+01
 0.2144849687734E+01
 0.2188698818184E+01
 0.2235173037861E+01
 0.2284253816380E+01
 0.2335911633319E+01
 0.2390105743138E+01
 0.2446785154540E+01
 0.2505891087458E+01
 0.2567361337187E+01
 0.2631136993173E+01
 0.2697172712971E+01
 0.2765454334089E+01
 0.2836033776986E+01
 0.2909099988770E+01
 0.1955462763598E+01
 0.1986075202354E+01
 0.2019848409820E+01
 0.2056800890774E+01
 0.2096982176370E+01
 0.2140463865414E+01
 0.2187333119204E+01
 0.2237688352809E+01
 0.2291636749615E+01
 0.2349293285119E+01
 0.2410781107074E+01
 0.2476233326195E+01
 0.2545796529308E+01
 0.2619636662705E+01
 0.2697948386673E+01
 0.2780969517639E+01
 0.2869002771561E+01
 0.2962440335136E+01
 0.3061785099340E+01
 0.3167673131144E+01
 0.1970275664015E+01
 0.2003065366013E+01
 0.2039377623995E+01
 0.2079287287521E+01
 0.2122901957683E+01
 0.2170356584479E+01
 0.2221809694179E+01
 0.2277441103746E+01
 0.2337450954781E+01
 0.2402059941218E+01
 0.2471510684581E+01
 0.2546070348742E+01
 0.2626034792741E+01
 0.2711734882209E+01
 0.2803546075362E+01
 0.2901903303005E+01
 0.3007323366299E+01
 0.3120441658348E+01
 0.3242035283038E+01
 0.3372998596891E+01
 0.1981514321145E+01
 0.2015956763171E+01
 0.2054192686356E+01
 0.2096339747389E+01
 0.2142550570906E+01
 0.2193009138212E+01
 0.2247928639128E+01
 0.2307550495864E+01
 0.2372144403732E+01
 0.2442009260372E+01
 0.2517474907912E+01
 0.2598904673137E+01
 0.2686698784618E+01
 0.2781298900168E+01
 0.2883194291725E+01
 0.2992930733318E+01
 0.3111125521108E+01
 0.3238492797701E+01
 0.3375930364956E+01
 0.3524547966179E+01
 0.1989067931708E+01
 0.2024618709400E+01
 0.2064143544383E+01
 0.2107788392307E+01
 0.2155736259726E+01
 0.2208204389726E+01
 0.2265442860313E+01
 0.2327734332494E+01
 0.2395394643368E+01
 0.2468774053852E+01
 0.2548258985125E+01
 0.2634274069350E+01
 0.2727284301909E+01
 0.2827797016320E+01
 0.2936363287500E+01
 0.3053578381745E+01
 0.3180080593587E+01
 0.3316553212176E+01
 0.3463725341928E+01
 0.3622724211938E+01
 0.1992862608383E+01
 0.2028967469738E+01
 0.2069136987816E+01
 0.2113530578089E+01
 0.2162346490953E+01
 0.2215818707810E+01
 0.2274215837491E+01
 0.2337841160505E+01
 0.2407033451382E+01
 0.2482168326661E+01
 0.2563659885002E+01
 0.2651962352334E+01
 0.2747571319947E+01
 0.2851023932032E+01
 0.2962896968415E+01
 0.3083800932125E+01
 0.3214366656066E+01
 0.3355214830489E+01
 0.3506889584101E+01
 0.3669536921092E+01
 0.1992862608392E+01
 0.2028967469755E+01
 0.2069136987844E+01
 0.2113530578131E+01
 0.2162346491010E+01
 0.2215818707888E+01
 0.2274215837592E+01
 0.2337841160636E+01
 0.2407033451549E+01
 0.2482168326869E+01
 0.2563659885259E+01
 0.2651962352649E+01
 0.2747571320329E+01
 0.2851023932491E+01
 0.2962896968964E+01
 0.3083800932775E+01
 0.3214366656830E+01
 0.3355214831377E+01
 0.3506889585121E+01
 0.3669536922214E+01
 0.1989067931735E+01
 0.2024618709452E+01
 0.2064143544467E+01
 0.2107788392431E+01
 0.2155736259899E+01
 0.2208204389960E+01
 0.2265442860621E+01
 0.2327734332890E+01
 0.2395394643869E+01
 0.2468774054478E+01
 0.2548258985899E+01
 0.2634274070297E+01
 0.2727284303058E+01
 0.2827797017702E+01
 0.2936363289151E+01
 0.3053578383703E+01
 0.3180080595892E+01
 0.3316553214865E+01
 0.3463725345029E+01
 0.3622724215450E+01
 0.1981514321190E+01
 0.2015956763257E+01
 0.2054192686495E+01
 0.2096339747595E+01
 0.2142550571194E+01
 0.2193009138601E+01
 0.2247928639639E+01
 0.2307550496523E+01
 0.2372144404567E+01
 0.2442009261416E+01
 0.2517474909202E+01
 0.2598904674716E+01
 0.2686698786534E+01
 0.2781298902474E+01
 0.2883194294483E+01
 0.2992930736593E+01
 0.3111125524972E+01
 0.3238492802228E+01
 0.3375930370221E+01
 0.3524547972269E+01
 0.1970275664076E+01
 0.2003065366132E+01
 0.2039377624187E+01
 0.2079287287805E+01
 0.2122901958083E+01
 0.2170356585020E+01
 0.2221809694890E+01
 0.2277441104663E+01
 0.2337450955943E+01
 0.2402059942672E+01
 0.2471510686378E+01
 0.2546070350941E+01
 0.2626034795411E+01
 0.2711734885426E+01
 0.2803546079213E+01
 0.2901903307587E+01
 0.3007323371721E+01
 0.3120441664728E+01
 0.3242035290511E+01
 0.3372998605605E+01
 0.1955462763674E+01
 0.1986075202502E+01
 0.2019848410061E+01
 0.2056800891132E+01
 0.2096982176875E+01
 0.2140463866099E+01
 0.2187333120108E+01
 0.2237688353974E+01
 0.2291636751093E+01
 0.2349293286968E+01
 0.2410781109360E+01
 0.2476233328996E+01
 0.2545796532709E+01
 0.2619636666807E+01
 0.2697948391589E+01
 0.2780969523500E+01
 0.2869002778514E+01
 0.2962440343352E+01
 0.3061785109012E+01
 0.3167673142489E+01
 0.1937221208983E+01
 0.1965160745358E+01
 0.1995807182856E+01
 0.2029111660487E+01
 0.2065055403089E+01
 0.2103634560464E+01
 0.2144849688821E+01
 0.2188698819587E+01
 0.2235173039642E+01
 0.2284253818608E+01
 0.2335911636076E+01
 0.2390105746515E+01
 0.2446785158643E+01
 0.2505891092408E+01
 0.2567361343125E+01
 0.2631137000261E+01
 0.2697172721397E+01
 0.2765454344072E+01
 0.2836033788782E+01
 0.2909100002675E+01
 0.1915729435604E+01
 0.1940536759670E+01
 0.1967502770095E+01
 0.1996505269973E+01
 0.2027451126718E+01
 0.2060251600937E+01
 0.2094806926795E+01
 0.2130996594226E+01
 0.2168672905006E+01
 0.2207656271563E+01
 0.2247731374500E+01
 0.2288643666396E+01
 0.2330095876384E+01
 0.2371744156447E+01
 0.2413193134041E+01
 0.2453988739099E+01
 0.2493605795287E+01
 0.2531438258352E+01
 0.2566816593262E+01
 0.2599085178966E+01
 0.1891196207712E+01
 0.1912452464992E+01
 0.1935221766552E+01
 0.1959311176623E+01
 0.1984552081884E+01
 0.2010763829487E+01
 0.2037733646872E+01
 0.2065204856340E+01
 0.2092868782543E+01
 0.2120357967548E+01
 0.2147239344717E+01
 0.2173006474413E+01
 0.2197070064232E+01
 0.2218745762960E+01
 0.2237237710037E+01
 0.2251614325463E+01
 0.2260771698354E+01
 0.2263355311479E+01
 0.2257650490657E+01
 0.2241535877613E+01
 0.1863855162344E+01
 0.1881177236061E+01
 0.1899267407029E+01
 0.1917875221856E+01
 0.1936759889504E+01
 0.1955642962162E+01
 0.1974186177410E+01
 0.1991979205170E+01
 0.2008530785806E+01
 0.2023260148394E+01
 0.2035487013018E+01
 0.2044419054873E+01
 0.2049135688065E+01
 0.2048566881159E+01
 0.2041465147206E+01
 0.2026368732640E+01
 0.2001546747125E+01
 0.1964920065264E+01
 0.1913721916084E+01
 0.1843784815836E+01
 0.1833946498809E+01
 0.1846959873744E+01
 0.1859896541978E+01
 0.1872471645457E+01
 0.1884377093355E+01
 0.1895231008207E+01
 0.1904557186652E+01
 0.1911774883607E+01
 0.1916190612418E+01
 0.1916988416121E+01
 0.1913217193341E+01
 0.1903773747244E+01
 0.1887380315520E+01
 0.1862555124107E+01
 0.1827575073642E+01
 0.1780430404456E+01
 0.1718781713409E+01
 0.1639921609487E+01
 0.1540959526716E+01
 0.1417594278733E+01
 0.1801672121191E+01
 0.1809926553462E+01
 0.1817156461335E+01
 0.1823064947407E+01
 0.1827284791481E+01
 0.1829327445373E+01
 0.1828569804209E+01
 0.1824250125303E+01
 0.1815462263241E+01
 0.1801146781163E+01
 0.1780077417596E+01
 0.1750842008295E+01
 0.1711816130790E+01
 0.1661128125691E+01
 0.1596614366344E+01
 0.1515767804188E+01
 0.1415691439233E+01
 0.1293151079111E+01
 0.1144954096305E+01
 0.9724713486633E+00
 0.1767181282712E+01
 0.1770088969581E+01
 0.1770897337255E+01
 0.1769336087327E+01
 0.1764998130822E+01
 0.1757293398642E+01
 0.1745455857398E+01
 0.1728548569670E+01
 0.1705464627382E+01
 0.1674922043492E+01
 0.1635453854308E+01
 0.1585390603857E+01
 0.1522834304597E+01
 0.1445621531495E+01
 0.1351273260285E+01
 0.1236926662269E+01
 0.1099245607139E+01
 0.9342903123496E+00
 0.7373838247690E+00
 0.5033398855381E+00
 0.1730645547345E+01
 0.1727540128422E+01
 0.1721105933242E+01
 0.1711195450112E+01
 0.1697392496710E+01
 0.1679028860901E+01
 0.1655216383071E+01
 0.1624870512764E+01
 0.1586719277179E+01
 0.1539310694983E+01
 0.1481009885527E+01
 0.1409988527635E+01
 0.1324203496567E+01
 0.1221364666748E+01
 0.1098887080750E+01
 0.9538135924820E+00
 0.7826600964691E+00
 0.5810047834263E+00
 0.3421221752337E+00
 0.4710905906260E-01
 0.1692275009519E+01
 0.1682393410852E+01
 0.1667824106185E+01
 0.1648669558293E+01
 0.1624567544487E+01
 0.1594811759143E+01
 0.1558442179284E+01
 0.1514276636296E+01
 0.1460957556536E+01
 0.1396976818800E+01
 0.1320700574631E+01
 0.1230382000377E+01
 0.1124176360307E+01
 0.1000163910595E+01
 0.8563863844160E+00
 0.6908952437640E+00
 0.5017807996495E+00
 0.2870679080558E+00
 0.4387268955784E-01
-0.2316724092915E+00
 0.1652333134641E+01
 0.1634847746587E+01
 0.1611221026594E+01
 0.1582025979337E+01
 0.1547016886107E+01
 0.1505546112629E+01
 0.1456623224136E+01
 0.1399062595834E+01
 0.1331542426612E+01
 0.1252703890054E+01
 0.1161198558845E+01
 0.1055747068712E+01
 0.9352157185760E+00
 0.7987281546241E+00
 0.6458256654456E+00
 0.4766939752768E+00
 0.2925030030196E+00
 0.9601344083352E-01
-0.1065397204292E+00
-0.2938951737600E+00
 0.1611162514813E+01
 0.1585125527215E+01
 0.1551545508368E+01
 0.1511646955120E+01
 0.1465552975354E+01
 0.1412638613920E+01
 0.1351996505247E+01
 0.1282454424619E+01
 0.1202911847094E+01
 0.1112385559396E+01
 0.1010086050444E+01
 0.8954949469534E+00
 0.7684753625226E+00
 0.6294190456264E+00
 0.4794433267564E+00
 0.3206726804300E+00
 0.1566966026376E+00
-0.6430542867695E-02
-0.1573527469444E+00
-0.2763268171028E+00
 0.1569121046025E+01
 0.1533592535604E+01
 0.1488941779721E+01
 0.1438110657851E+01
 0.1381228771608E+01
 0.1318112861364E+01
 0.1247444917357E+01
 0.1168267903965E+01
 0.1079833841089E+01
 0.9816886508714E+00
 0.8736970624317E+00
 0.7561170403748E+00
 0.6296981826788E+00
 0.4958110899706E+00
 0.3566205856039E+00
 0.2153351526603E+00
 0.7663375911852E-01
-0.5265879178535E-01
-0.1629301567770E+00
-0.2458076718271E+00
 0.1527726602781E+01
 0.1480955019464E+01
 0.1424651837774E+01
 0.1362166774694E+01
 0.1296652557919E+01
 0.1225190203285E+01
 0.1146750569650E+01
 0.1060596654749E+01
 0.9664584974296E+00
 0.8644012069054E+00
 0.7548604815050E+00
 0.6386960917463E+00
 0.5172749958537E+00
 0.3925765865606E+00
 0.2673258968701E+00
 0.1451690295340E+00
 0.3083851704597E-01
-0.6979502449602E-01
-0.1514961491329E+00
-0.2115637773465E+00
 0.1489060554370E+01
 0.1430820061900E+01
 0.1354196841976E+01
 0.1286161615020E+01
 0.1213875335779E+01
 0.1136229807606E+01
 0.1052114589474E+01
 0.9613723453730E+00
 0.8641617719946E+00
 0.7609877274382E+00
 0.6527102320663E+00
 0.5406025653188E+00
 0.4264182916473E+00
 0.3124653371763E+00
 0.2016762334777E+00
 0.9763040486745E-01
 0.4463347990495E-02
-0.7379507291138E-01
-0.1337162547406E+00
-0.1774773141768E+00
 0.1482519586094E+01
 0.1352882309382E+01
 0.1284242670797E+01
 0.1211326037767E+01
 0.1134758234162E+01
 0.1052539105305E+01
 0.9647252034533E+00
 0.8715201774962E+00
 0.7734454398585E+00
 0.6712985934396E+00
 0.5662076500269E+00
 0.4596780906333E+00
 0.3536403263447E+00
 0.2504817267270E+00
 0.1530374525684E+00
 0.6449767577035E-01
-0.1190368900530E-01
-0.7328757249707E-01
-0.1182615042473E+00
-0.1420237682504E+00
</DataArray>
<DataArray type="Float64" Name="S_Oct" NumberOfComponents="1" ComponentName0="S_Oct" format="ascii">
 0.1906051123018E+01
 0.1673465977146E+01
 0.1504582090917E+01
 0.1445668841746E+01
 0.1408967611022E+01
 0.1390118754211E+01
 0.1380903323820E+01
 0.1378432761706E+01
 0.1380731164661E+01
 0.1386697876111E+01
 0.1395654111041E+01
 0.1407215064568E+01
 0.1421193546259E+01
 0.1437550983305E+01
 0.1456367196774E+01
 0.1477823654913E+01
 0.1502195608845E+01
 0.1529851199604E+01
 0.1561260266915E+01
 0.1597015040740E+01
 0.1637874727548E+01
 0.1684872965846E+01
 0.1739583971417E+01
 0.1804247608334E+01
 0.1879700055678E+01
 0.1964220156703E+01
 0.2055435080740E+01
 0.2151717364912E+01
 0.2252563890032E+01
 0.2358387763115E+01
 0.2470040811129E+01
 0.2588237914139E+01
 0.2712842609766E+01
 0.2845128822597E+01
 0.2992605591437E+01
 0.3165554245129E+01
 0.3388131153987E+01
 0.3651437676595E+01
 0.4205726690857E+01
 0.4183322422856E+01
 0.8026391570840E+01
 0.1631342871801E+01
 0.1670660422071E+01
 0.1545862451245E+01
 0.1473058953557E+01
 0.1434956048896E+01
 0.1412122272942E+01
 0.1400151864166E+01
 0.1395263832374E+01
 0.1395558860066E+01
 0.1399810494736E+01
 0.1407280769874E+01
 0.1417527613289E+01
 0.1430318355413E+01
 0.1445574074541E+01
 0.1463337566869E+01
 0.1483754332463E+01
 0.1507062947788E+01
 0.1533592453740E+01
 0.1563768424938E+01
 0.1598129331236E+01
 0.1637361308580E+01
 0.1682363639076E+01
 0.1734207762758E+01
 0.1793788540043E+01
 0.1861233622875E+01
 0.1935670354968E+01
 0.2015716787854E+01
 0.2100165540466E+01
 0.2188312518091E+01
 0.2279897223921E+01
 0.2374804279511E+01
 0.2472821350965E+01
 0.2573895765187E+01
 0.2678967621928E+01
 0.2789888913154E+01
 0.2910890492156E+01
 0.3037074543296E+01
 0.3187400231673E+01
 0.3245629624663E+01
 0.2794599915273E+01
 0.5238738425006E+01
 0.1486615898990E+01
 0.1593953052066E+01
 0.1554285876670E+01
 0.1490926035102E+01
 0.1453251450508E+01
 0.1429879938077E+01
 0.1416354102825E+01
 0.1409917664790E+01
 0.1408698086590E+01
 0.1411543826815E+01
 0.1417709079026E+01
 0.1426736584822E+01
 0.1438369451980E+01
 0.1452501711534E+01
 0.1469146532284E+01
 0.1488417013702E+01
 0.1510515395529E+01
 0.1535728322515E+01
 0.1564428934211E+01
 0.1597085028524E+01
 0.1634273858814E+01
 0.1676662795772E+01
 0.1724815596278E+01
 0.1778938866110E+01
 0.1838849586378E+01
 0.1904012918339E+01
 0.1973585188499E+01
 0.2046619029000E+01
 0.2122257529507E+01
 0.2199735750279E+01
 0.2278245989546E+01
 0.2356952605640E+01
 0.2435251985389E+01
 0.2512355786840E+01
 0.2586531932014E+01
 0.2652538611433E+01
 0.2699606266141E+01
 0.2702460200775E+01
 0.2467960282672E+01
 0.2230481880058E+01
 0.4367680033551E+01
 0.1399310983904E+01
 0.1519778818965E+01
 0.1534873051681E+01
 0.1497367027196E+01
 0.1464763534298E+01
 0.1443039502320E+01
 0.1429451040531E+01
 0.1422272411741E+01
 0.1420064681420E+01
 0.1421827287516E+01
 0.1426885653235E+01
 0.1434802756042E+01
 0.1445320979980E+01
 0.1458320808429E+01
 0.1473793841776E+01
 0.1491824880655E+01
 0.1512580735124E+01
 0.1536303263118E+01
 0.1563306416198E+01
 0.1593973919170E+01
 0.1628745097495E+01
 0.1668031246663E+01
 0.1712012279878E+01
 0.1760526024478E+01
 0.1813235343589E+01
 0.1869735954627E+01
 0.1929442478467E+01
 0.1991542071278E+01
 0.2055055062941E+01
 0.2118853654929E+01
 0.2181643208310E+01
 0.2242050745833E+01
 0.2298598336801E+01
 0.2348859531425E+01
 0.2387766525529E+01
 0.2405253602160E+01
 0.2384188525735E+01
 0.2271927588944E+01
 0.1996521318654E+01
 0.2090610331608E+01
 0.3954021154601E+01
 0.1341996614193E+01
 0.1459068661314E+01
 0.1504395838581E+01
 0.1492816758857E+01
 0.1470041167860E+01
 0.1451797425808E+01
 0.1439425450633E+01
 0.1432304020303E+01
 0.1429614828260E+01
 0.1430622423912E+01
 0.1434778469131E+01
 0.1441703440048E+01
 0.1451160387733E+01
 0.1463029857532E+01
 0.1477290031563E+01
 0.1494001918273E+01
 0.1513298458985E+01
 0.1535375465432E+01
 0.1560483257810E+01
 0.1588912428115E+01
 0.1620953242359E+01
 0.1656786438603E+01
 0.1696324482868E+01
 0.1739201091491E+01
 0.1784993213867E+01
 0.1833331786602E+01
 0.1883734375852E+01
 0.1935438930413E+01
 0.1987368941106E+01
 0.2038148379496E+01
 0.2086137745781E+01
 0.2129482019819E+01
 0.2165886522643E+01
 0.2191571491794E+01
 0.2199454153290E+01
 0.2177672220393E+01
 0.2105398161140E+01
 0.1946205135036E+01
 0.1756284867393E+01
 0.2110690001112E+01
 0.3699338996758E+01
 0.1302081664989E+01
 0.1411077648517E+01
 0.1471756825496E+01
 0.1480857878748E+01
 0.1469697991341E+01
 0.1456548910822E+01
 0.1446397642038E+01
 0.1440049015755E+01
 0.1437351888136E+01
 0.1437919726786E+01
 0.1441377003971E+01
 0.1447432022130E+01
 0.1455888169557E+01
 0.1466638584340E+01
 0.1479656009277E+01
 0.1494982385661E+01
 0.1512719020875E+01
 0.1533015788758E+01
 0.1556057549583E+01
 0.1582038895543E+01
 0.1611107166660E+01
 0.1643255227674E+01
 0.1678215949128E+01
 0.1715508097095E+01
 0.1754655488953E+01
 0.1795280334172E+01
 0.1836923035091E+01
 0.1878826912956E+01
 0.1919846306907E+01
 0.1958449213396E+01
 0.1992761489856E+01
 0.2020558063078E+01
 0.2038945153051E+01
 0.2043346277025E+01
 0.2026134254321E+01
 0.1975787684230E+01
 0.1876275001536E+01
 0.1725945194729E+01
 0.1660936207640E+01
 0.2172781757333E+01
 0.3518496337098E+01
 0.1273032908677E+01
 0.1373236739297E+01
 0.1440807092905E+01
 0.1464853596522E+01
 0.1464882624364E+01
 0.1457756917219E+01
 0.1450597141811E+01
 0.1445603621743E+01
 0.1443319087782E+01
 0.1443737754301E+01
 0.1446690836208E+01
 0.1451997357811E+01
 0.1459517301154E+01
 0.1469167440668E+01
 0.1480922487413E+01
 0.1494810118480E+01
 0.1510902893440E+01
 0.1529306294596E+01
 0.1550140748787E+01
 0.1573508446911E+01
 0.1599430548547E+01
 0.1627755779193E+01
 0.1658099945794E+01
 0.1689917802958E+01
 0.1722698697882E+01
 0.1756039239974E+01
 0.1789467251693E+01
 0.1822214972740E+01
 0.1853098996797E+01
 0.1880509032321E+01
 0.1902442043863E+01
 0.1916460118430E+01
 0.1919379670011E+01
 0.1906501847246E+01
 0.1870871231163E+01
 0.1803760831533E+01
 0.1700192474465E+01
 0.1591617609139E+01
 0.1647441177550E+01
 0.2235255777554E+01
 0.3380211160197E+01
 0.1251157128677E+01
 0.1343159678649E+01
 0.1412932965764E+01
 0.1447161085997E+01
 0.1456880338557E+01
 0.1455986317016E+01
 0.1452312475097E+01
 0.1449116079478E+01
 0.1447593731866E+01
 0.1448120111031E+01
 0.1450748121735E+01
 0.1455422713265E+01
 0.1462072489227E+01
 0.1470646928081E+01
 0.1481129283025E+01
 0.1493537692296E+01
 0.1507919440058E+01
 0.1524338563332E+01
 0.1542854891531E+01
 0.1563486887540E+01
 0.1586150974543E+01
 0.1610590478644E+01
 0.1636348248528E+01
 0.1662846282039E+01
 0.1689553038506E+01
 0.1716038171262E+01
 0.1741808118403E+01
 0.1766087399621E+01
 0.1787689903325E+01
 0.1804997941933E+01
 0.1815988234163E+01
 0.1818192301573E+01
 0.1808483446038E+01
 0.1782665307543E+01
 0.1735490341037E+01
 0.1663020647687E+01
 0.1573129312642E+01
 0.1520730288272E+01
 0.1675567542853E+01
 0.2286742597241E+01
 0.3270106361890E+01
 0.1234226802618E+01
 0.1318973555348E+01
 0.1388409983164E+01
 0.1429238306830E+01
 0.1446827690143E+01
 0.1451847602657E+01
 0.1451870763045E+01
 0.1450770237026E+01
 0.1450281504603E+01
 0.1451131732412E+01
 0.1453593576871E+01
 0.1457744459934E+01
 0.1463589215964E+01
 0.1471116783407E+01
 0.1480324497702E+01
 0.1491225469214E+01
 0.1503845657747E+01
 0.1518211867260E+01
 0.1534329533545E+01
 0.1552145265858E+01
 0.1571493109539E+01
 0.1592043345951E+01
 0.1613297469090E+01
 0.1634665802806E+01
 0.1655608201644E+01
 0.1675675249753E+01
 0.1694358907710E+01
 0.1710891910156E+01
 0.1724123342826E+01
 0.1732495880765E+01
 0.1734075494610E+01
 0.1726551192295E+01
 0.1707180838233E+01
 0.1672788083265E+01
 0.1620617202605E+01
 0.1552461956874E+01
 0.1487641931076E+01
 0.1493859078280E+01
 0.1721937381202E+01
 0.2326270438506E+01
 0.3180324577679E+01
 0.1220827396500E+01
 0.1299276312191E+01
 0.1367049298148E+01
 0.1411910765276E+01
 0.1435614314397E+01
 0.1445925958116E+01
 0.1449616150185E+01
 0.1450771934242E+01
 0.1451509198202E+01
 0.1452855053243E+01
 0.1455286106543E+01
 0.1459010565825E+01
 0.1464112633606E+01
 0.1470625050831E+01
 0.1478563606176E+01
 0.1487940561737E+01
 0.1498764847760E+01
 0.1511031276293E+01
 0.1524698793728E+01
 0.1539655578483E+01
 0.1555674543984E+01
 0.1572379342221E+01
 0.1589253483604E+01
 0.1605711459088E+01
 0.1621216906640E+01
 0.1635314680725E+01
 0.1647498105931E+01
 0.1657031370651E+01
 0.1662838164456E+01
 0.1663486331302E+01
 0.1657236285548E+01
 0.1642109088069E+01
 0.1616021687333E+01
 0.1577198949284E+01
 0.1525810453769E+01
 0.1469299310699E+01
 0.1435530283864E+01
 0.1495960074148E+01
 0.1774040843271E+01
 0.2355834333607E+01
 0.3105989890938E+01
 0.1210021952877E+01
 0.1283030848231E+01
 0.1348496445774E+01
 0.1395599880089E+01
 0.1423886570266E+01
 0.1438735802996E+01
 0.1445887011519E+01
 0.1449337248824E+01
 0.1451417545217E+01
 0.1453385938961E+01
 0.1455896302180E+01
 0.1459278935333E+01
 0.1463696352145E+01
 0.1469227069158E+01
 0.1475908478850E+01
 0.1483755747224E+01
 0.1492765260689E+01
 0.1502905802321E+01
 0.1514098734694E+01
 0.1526187565328E+01
 0.1538903308569E+01
 0.1551844462659E+01
 0.1564494551846E+01
 0.1576285355397E+01
 0.1586697103736E+01
 0.1595285230504E+01
 0.1601564865751E+01
 0.1604858422716E+01
 0.1604203320582E+01
 0.1598352810092E+01
 0.1585856516864E+01
 0.1565214344641E+01
 0.1535206827213E+01
 0.1495686913131E+01
 0.1449822517185E+01
 0.1409926114667E+01
 0.1409154673318E+01
 0.1516122446265E+01
 0.1825698960423E+01
 0.2377853203700E+01
 0.3043806444173E+01
 0.1201167693073E+01
 0.1269468850924E+01
 0.1332364928888E+01
 0.1380482936002E+01
 0.1412089280915E+01
 0.1430702827830E+01
 0.1440997913012E+01
 0.1446682090734E+01
 0.1450154748971E+01
 0.1452829664889E+01
 0.1455503898555E+01
 0.1458615681041E+01
 0.1462401159005E+01
 0.1466984404819E+01
 0.1472426364638E+01
 0.1478748363709E+01
 0.1485938761469E+01
 0.1493946669898E+01
 0.1502665162937E+01
 0.1511906386479E+01
 0.1521376408149E+01
 0.1530666131053E+01
 0.1539273548337E+01
 0.1546659359830E+01
 0.1552333450973E+01
 0.1555879395267E+01
 0.1556856323859E+01
 0.1554672443143E+01
 0.1548515861429E+01
 0.1537378626326E+01
 0.1520178683948E+01
 0.1496005654747E+01
 0.1464632005360E+01
 0.1427612866752E+01
 0.1390895848673E+01
 0.1370526913041E+01
 0.1401958990187E+01
 0.1546820462936E+01
 0.1874172180891E+01
 0.2394414949459E+01
 0.2991413718266E+01
 0.1193810483197E+01
 0.1258017034888E+01
 0.1318292164524E+01
 0.1366596511915E+01
 0.1400514124786E+01
 0.1422164310986E+01
 0.1435228717144E+01
 0.1443013762809E+01
 0.1447870873242E+01
 0.1451297189226E+01
 0.1454195292139E+01
 0.1457093391465E+01
 0.1460293712388E+01
 0.1463963759483E+01
 0.1468188860596E+01
 0.1472999216990E+01
 0.1478379556945E+01
 0.1484265770086E+01
 0.1490531848698E+01
 0.1496970974978E+01
 0.1503278990911E+01
 0.1509053705837E+01
 0.1513819624896E+01
 0.1517077048719E+01
 0.1518378478670E+01
 0.1517353215929E+01
 0.1513626432615E+01
 0.1506718498108E+01
 0.1496001282164E+01
 0.1480750042339E+01
 0.1460311130273E+01
 0.1434435885919E+01
 0.1403943131991E+01
 0.1372032797045E+01
 0.1347019471935E+01
 0.1347442747292E+01
 0.1408598720203E+01
 0.1583070051095E+01
 0.1918494731420E+01
 0.2407138621036E+01
 0.2947049580003E+01
 0.1187621416545E+01
 0.1248243569872E+01
 0.1305959423215E+01
 0.1353900589004E+01
 0.1389342336251E+01
 0.1413378824225E+01
 0.1428820158559E+01
 0.1438524986161E+01
 0.1444713230606E+01
 0.1448901859141E+01
 0.1452061218544E+01
 0.1454789450523E+01
 0.1457445246807E+01
 0.1460235880341E+01
 0.1463270892955E+01
 0.1466591525351E+01
 0.1470183017638E+01
 0.1473974321141E+01
 0.1477829123299E+01
 0.1481532894047E+01
 0.1484783922457E+01
 0.1487199027021E+01
 0.1488339526204E+01
 0.1487755220455E+01
 0.1485053689169E+01
 0.1479926693921E+01
 0.1472086038464E+01
 0.1461187995259E+01
 0.1446816012648E+01
 0.1428562509183E+01
 0.1406241964868E+01
 0.1380301613015E+01
 0.1352595969922E+01
 0.1327813132128E+01
 0.1316118486876E+01
 0.1337362155873E+01
 0.1424877625200E+01
 0.1621681175591E+01
 0.1958567893247E+01
 0.2417226968449E+01
 0.2909355532774E+01
 0.1182357247510E+01
 0.1239819864954E+01
 0.1295095562082E+01
 0.1342317145220E+01
 0.1378678407391E+01
 0.1404539388219E+01
 0.1421974056260E+01
 0.1433390375559E+01
 0.1440822863846E+01
 0.1445756627111E+01
 0.1449194659666E+01
 0.1451784456346E+01
 0.1453930323802E+01
 0.1455874498123E+01
 0.1457749730827E+01
 0.1459609922558E+01
 0.1461444612317E+01
 0.1463181735678E+01
 0.1464682796677E+01
 0.1465735566334E+01
 0.1466051624809E+01
 0.1465276981716E+01
 0.1463018705757E+01
 0.1458885203082E+01
 0.1452550726545E+01
 0.1443784747346E+01
 0.1432403980626E+01
 0.1418220742249E+01
 0.1401051714279E+01
 0.1380829312591E+01
 0.1357855934006E+01
 0.1333274975224E+01
 0.1309913741156E+01
 0.1293726464972E+01
 0.1296180055951E+01
 0.1337403571336E+01
 0.1447596182879E+01
 0.1660674872609E+01
 0.1994682514813E+01
 0.2425560529138E+01
 0.2877255780475E+01
 0.1177834880508E+01
 0.1232493381295E+01
 0.1285473943526E+01
 0.1331752768035E+01
 0.1368575152180E+01
 0.1395786772689E+01
 0.1414856319353E+01
 0.1427764975611E+01
 0.1436332110916E+01
 0.1441971812407E+01
 0.1445689023934E+01
 0.1448160776055E+01
 0.1449825655507E+01
 0.1450955314833E+01
 0.1451704051559E+01
 0.1452139536240E+01
 0.1452258966700E+01
 0.1451994685113E+01
 0.1451213344432E+01
 0.1449713785632E+01
 0.1447230105373E+01
 0.1443446098700E+01
 0.1438022354604E+01
 0.1430634106696E+01
 0.1421032704107E+01
 0.1409078663779E+01
 0.1394709041099E+01
 0.1377908158546E+01
 0.1358741006577E+01
 0.1337491872053E+01
 0.1314952689607E+01
 0.1292935069923E+01
 0.1275138046190E+01
 0.1268524371030E+01
 0.1285330236451E+01
 0.1345132405852E+01
 0.1474370892132E+01
 0.1698862693948E+01
 0.2027272272588E+01
 0.2432785693153E+01
 0.2849878149063E+01
 0.1173914435393E+01
 0.1226068203184E+01
 0.1276906935505E+01
 0.1322111466845E+01
 0.1359051671979E+01
 0.1387221384609E+01
 0.1407601319693E+01
 0.1421784322238E+01
 0.1431363141789E+01
 0.1437653402247E+01
 0.1441636619244E+01
 0.1444001259977E+01
 0.1445209021006E+01
 0.1445555057110E+01
 0.1445213070154E+01
 0.1444265149731E+01
 0.1442719044991E+01
 0.1440516339572E+01
 0.1437535312002E+01
 0.1433593437972E+01
 0.1428455119963E+01
 0.1421849171994E+01
 0.1413496399263E+01
 0.1403146088521E+01
 0.1390635704178E+01
 0.1375927963884E+01
 0.1359092552870E+01
 0.1340297344278E+01
 0.1319864162179E+01
 0.1298430884807E+01
 0.1277265071524E+01
 0.1258796772935E+01
 0.1247470831239E+01
 0.1250989211196E+01
 0.1281875906869E+01
 0.1358539520513E+01
 0.1503459341699E+01
 0.1735558412323E+01
 0.2056785969671E+01
 0.2439383601946E+01
 0.2826499007573E+01
 0.1170487710296E+01
 0.1220391039827E+01
 0.1269239984793E+01
 0.1313301572356E+01
 0.1350105903217E+01
 0.1378913199262E+01
 0.1400316677014E+01
 0.1415565509778E+01
 0.1426027294450E+01
 0.1432901853071E+01
 0.1437127419703E+01
 0.1439388128289E+01
 0.1440158290164E+01
 0.1439750608389E+01
 0.1438355743527E+01
 0.1436070454013E+01
 0.1432915452108E+01
 0.1428845765152E+01
 0.1423756898794E+01
 0.1417491387421E+01
 0.1409850443819E+01
 0.1400613926628E+01
 0.1389568515719E+01
 0.1376543679425E+01
 0.1361470458032E+01
 0.1344422609673E+01
 0.1325611512404E+01
 0.1305395750311E+01
 0.1284356355488E+01
 0.1263477633589E+01
 0.1244476374837E+01
 0.1230335762027E+01
 0.1226107127440E+01
 0.1239968831745E+01
 0.1284322666802E+01
 0.1375998402980E+01
 0.1533608498520E+01
 0.1770389163492E+01
 0.2083619369108E+01
 0.2445714763727E+01
 0.2806495867780E+01
 0.1167470136685E+01
 0.1215341040607E+01
 0.1262346101856E+01
 0.1305239126165E+01
 0.1341723200685E+01
 0.1370909711633E+01
 0.1393087888572E+01
 0.1409208836053E+01
 0.1420425018588E+01
 0.1427811328411E+01
 0.1432248112288E+01
 0.1434402033910E+01
 0.1434750564079E+01
 0.1433618229517E+01
 0.1431210057531E+01
 0.1427637393598E+01
 0.1422935852555E+01
 0.1417077462419E+01
 0.1409979694493E+01
 0.1401515497586E+01
 0.1391528237559E+01
 0.1379853739667E+01
 0.1366349191229E+01
 0.1350929199043E+01
 0.1333624199334E+01
 0.1314625492170E+01
 0.1294292056716E+01
 0.1273176216461E+01
 0.1252115099419E+01
 0.1232424917426E+01
 0.1216235926155E+01
 0.1207009284787E+01
 0.1210259452562E+01
 0.1234398103860E+01
 0.1291376497440E+01
 0.1396212824312E+01
 0.1563931438564E+01
 0.1803178623348E+01
 0.2108082751412E+01
 0.2452036199855E+01
 0.2789267653825E+01
 0.1164795047461E+01
 0.1210822313707E+01
 0.1256121044059E+01
 0.1297849231122E+01
 0.1333882093457E+01
 0.1363242118626E+01
 0.1385982506308E+01
 0.1402799707233E+01
 0.1414646245361E+01
 0.1422469296225E+01
 0.1427081397099E+01
 0.1429121296258E+01
 0.1429061434420E+01
 0.1427232871638E+01
 0.1423852398824E+01
 0.1419045603880E+01
 0.1412864495624E+01
 0.1405301025529E+01
 0.1396298538340E+01
 0.1385764759030E+01
 0.1373589488181E+01
 0.1359668410471E+01
 0.1343932833742E+01
 0.1326386247755E+01
 0.1307162646809E+01
 0.1286575102831E+01
 0.1265133143127E+01
 0.1243582134345E+01
 0.1223007528458E+01
 0.1205037174721E+01
 0.1192172575032E+01
 0.1188272716989E+01
 0.1199175175305E+01
 0.1233310588450E+01
 0.1301934575743E+01
 0.1418163659472E+01
 0.1593808747092E+01
 0.1833883590850E+01
 0.2130387857736E+01
 0.2458568215962E+01
 0.2773862249757E+01
 0.1162409130313E+01
 0.1206758359418E+01
 0.1250479723565E+01
 0.1291067379111E+01
 0.1326559892104E+01
 0.1355932486201E+01
 0.1379056705474E+01
 0.1396413931554E+01
 0.1408774691866E+01
 0.1416960407447E+01
 0.1421709954702E+01
 0.1423626377893E+01
 0.1423170342649E+01
 0.1420674790492E+01
 0.1416365823566E+01
 0.1410382773117E+01
 0.1402795151619E+01
 0.1393617167256E+01
 0.1382821157973E+01
 0.1370353038066E+01
 0.1356152287932E+01
 0.1340177274814E+01
 0.1322435887127E+01
 0.1303022827056E+01
 0.1282177934736E+01
 0.1260337821807E+01
 0.1238162406909E+01
 0.1216585637732E+01
 0.1196929062603E+01
 0.1181106867337E+01
 0.1171944747521E+01
 0.1173617459091E+01
 0.1192154045203E+01
 0.1235824415696E+01
 0.1315023427655E+01
 0.1440988379640E+01
 0.1622730478077E+01
 0.1862442942155E+01
 0.2150766217900E+01
 0.2464691736487E+01
 0.2763922108185E+01
 0.1160271153224E+01
 0.1203088241010E+01
 0.1245352479945E+01
 0.1284837165322E+01
 0.1319731740359E+01
 0.1348992561910E+01
 0.1372352566771E+01
 0.1390113094064E+01
 0.1402881560021E+01
 0.1411358830867E+01
 0.1416207509005E+01
 0.1417989480819E+01
 0.1417148268889E+01
 0.1414014700398E+01
 0.1408821912110E+01
 0.1401722334974E+01
 0.1392803713231E+01
 0.1382104265208E+01
 0.1369627694490E+01
 0.1355360653088E+01
 0.1339294630217E+01
 0.1321452569162E+01
 0.1301920405480E+01
 0.1280885186166E+01
 0.1258693347360E+01
 0.1235904867262E+01
 0.1213327576198E+01
 0.1192076923249E+01
 0.1173695554417E+01
 0.1160356105135E+01
 0.1155160035337E+01
 0.1162518515358E+01
 0.1188534166349E+01
 0.1241173497581E+01
 0.1329874550127E+01
 0.1464088364428E+01
 0.1650441028218E+01
 0.1888935183649E+01
 0.2169537898473E+01
 0.2470194246658E+01
 0.2760557118122E+01
 0.1158346815171E+01
 0.1199761989377E+01
 0.1240680439751E+01
 0.1279107928033E+01
 0.1313370636525E+01
 0.1342425101777E+01
 0.1365899431555E+01
 0.1383945261023E+01
 0.1397025506082E+01
 0.1405727699916E+01
 0.1410638011929E+01
 0.1412273674393E+01
 0.1411056941580E+01
 0.1407313158455E+01
 0.1401280399295E+01
 0.1393123414423E+01
 0.1382948537569E+01
 0.1370819197302E+01
 0.1356772144045E+01
 0.1340836543070E+01
 0.1323057427373E+01
 0.1303523423052E+01
 0.1282399158611E+01
 0.1259964202605E+01
 0.1236671164606E+01
 0.1213201812558E+01
 0.1190507850376E+01
 0.1169877603459E+01
 0.1153058539145E+01
 0.1142453318519E+01
 0.1141392070851E+01
 0.1154449062872E+01
 0.1187699309059E+01
 0.1248699063263E+01
 0.1345887001799E+01
 0.1487062531494E+01
 0.1676836093867E+01
 0.1913567917174E+01
 0.2186785970800E+01
 0.2476362254197E+01
 0.2757445388488E+01
 0.1156608936501E+01
 0.1196739805589E+01
 0.1236416344315E+01
 0.1273838276654E+01
 0.1307454015886E+01
 0.1336232530932E+01
 0.1359723374155E+01
 0.1377954391093E+01
 0.1391261708568E+01
 0.1400128006985E+01
 0.1405064800583E+01
 0.1406542902092E+01
 0.1404960382545E+01
 0.1400634425143E+01
 0.1393806213578E+01
 0.1384651990548E+01
 0.1373296749549E+01
 0.1359829853113E+01
 0.1344322159369E+01
 0.1326846406156E+01
 0.1307501936286E+01
 0.1286443356233E+01
 0.1263913742865E+01
 0.1240284314255E+01
 0.1216112170015E+01
 0.1192197824210E+01
 0.1169631221195E+01
 0.1149863378979E+01
 0.1134829057318E+01
 0.1127132092175E+01
 0.1130285815448E+01
 0.1148960834390E+01
 0.1189120306956E+01
 0.1257836110399E+01
 0.1362548728367E+01
 0.1509562367341E+01
 0.1701813548350E+01
 0.1936418256378E+01
 0.2202819537407E+01
 0.2482848883704E+01
 0.2755034782887E+01
 0.1155035657531E+01
 0.1193989503205E+01
 0.1232521418678E+01
 0.1268993197632E+01
 0.1301961445947E+01
 0.1330415006699E+01
 0.1353845163459E+01
 0.1372177856234E+01
 0.1385638822108E+01
 0.1394614977952E+01
 0.1399546368809E+01
 0.1400857043035E+01
 0.1398919049470E+01
 0.1394039386198E+01
 0.1386460801816E+01
 0.1376370189581E+01
 0.1363911024524E+01
 0.1349198896147E+01
 0.1332339264435E+01
 0.1313448841825E+01
 0.1292681335630E+01
 0.1270256873544E+01
 0.1246495903108E+01
 0.1221859459065E+01
 0.1197006336299E+01
 0.1172851519622E+01
 0.1150616307024E+01
 0.1131903138128E+01
 0.1118815921923E+01
 0.1114131256058E+01
 0.1121502984574E+01
 0.1145639165289E+01
 0.1192324091207E+01
 0.1268100266354E+01
 0.1379442746216E+01
 0.1531326937523E+01
 0.1725310369748E+01
 0.1957595603391E+01
 0.2217787554096E+01
 0.2489426383662E+01
 0.2753394421677E+01
 0.1153609383877E+01
 0.1191485038771E+01
 0.1228963862779E+01
 0.1264543230424E+01
 0.1296874795205E+01
 0.1324971355626E+01
 0.1348281479394E+01
 0.1366647522411E+01
 0.1380199722618E+01
 0.1389238464759E+01
 0.1394136482508E+01
 0.1395271846681E+01
 0.1392989674067E+01
 0.1387585358377E+01
 0.1379301950971E+01
 0.1368336161898E+01
 0.1354849556109E+01
 0.1338983856430E+01
 0.1320879103954E+01
 0.1300695786848E+01
 0.1278641376537E+01
 0.1255000361630E+01
 0.1230168715072E+01
 0.1204694592620E+01
 0.1179334732293E+01
 0.1155113310165E+01
 0.1133375151832E+01
 0.1115862174709E+01
 0.1104829217367E+01
 0.1103198363830E+01
 0.1114724936167E+01
 0.1144104200921E+01
 0.1196891315205E+01
 0.1279078952401E+01
 0.1396231647005E+01
 0.1552160150195E+01
 0.1747297097081E+01
 0.1977196562153E+01
 0.2231756161545E+01
 0.2495952972851E+01
 0.2752477479106E+01
 0.1152315959775E+01
 0.1189205339722E+01
 0.1225717624751E+01
 0.1260463706724E+01
 0.1292178231920E+01
 0.1319899717696E+01
 0.1343045855004E+01
 0.1361390653364E+01
 0.1374982180862E+01
 0.1384043342179E+01
 0.1388884340444E+01
 0.1389838929751E+01
 0.1387225166278E+01
 0.1381325960011E+01
 0.1372383672244E+01
 0.1360604019077E+01
 0.1346166081209E+01
 0.1329237276055E+01
 0.1309991739639E+01
 0.1288632990115E+01
 0.1265421062913E+01
 0.1240703004091E+01
 0.1214947770153E+01
 0.1188787181890E+01
 0.1163071362407E+01
 0.1138927607364E+01
 0.1117815784008E+01
 0.1101605023617E+01
 0.1092683238816E+01
 0.1094092415657E+01
 0.1109654606839E+01
 0.1144011033549E+01
 0.1202452976043E+01
 0.1290422771790E+01
 0.1412643163157E+01
 0.1571915753716E+01
 0.1767764447762E+01
 0.1995295873291E+01
 0.2244757536035E+01
 0.2502331471198E+01
 0.2752195542139E+01
 0.1151144013787E+01
 0.1187133369643E+01
 0.1222761396604E+01
 0.1256734068111E+01
 0.1287858118747E+01
 0.1315197976102E+01
 0.1338149397363E+01
 0.1356430655806E+01
 0.1370019457352E+01
 0.1379069890091E+01
 0.1383834759632E+01
 0.1384605816169E+01
 0.1381674567262E+01
 0.1375311029883E+01
 0.1365756130423E+01
 0.1353223811704E+01
 0.1337909939965E+01
 0.1320006881993E+01
 0.1299721963986E+01
 0.1277300493241E+01
 0.1253053323927E+01
 0.1227387672419E+01
 0.1200842314082E+01
 0.1174128621040E+01
 0.1148184881060E+01
 0.1124234836402E+01
 0.1103844490452E+01
 0.1088997895669E+01
 0.1082198898670E+01
 0.1086585913609E+01
 0.1106017669490E+01
 0.1145049020368E+01
 0.1208686532688E+01
 0.1301837218630E+01
 0.1428458166113E+01
 0.1590485142006E+01
 0.1786713609651E+01
 0.2011950636671E+01
 0.2256808968700E+01
 0.2508490676688E+01
 0.2752447120422E+01
 0.1150084433574E+01
 0.1185255377096E+01
 0.1220077787169E+01
 0.1253337260891E+01
 0.1283902845659E+01
 0.1310864029089E+01
 0.1333601330439E+01
 0.1351787684651E+01
 0.1365340816850E+01
 0.1374354148607E+01
 0.1379028369438E+01
 0.1379616004818E+01
 0.1376383037655E+01
 0.1369586582046E+01
 0.1359465606193E+01
 0.1346241534889E+01
 0.1330126156185E+01
 0.1311335769952E+01
 0.1290109613391E+01
 0.1266733096604E+01
 0.1241565655616E+01
 0.1215071766231E+01
 0.1187856309235E+01
 0.1160705535821E+01
 0.1134640147514E+01
 0.1110973225781E+01
 0.1091367785887E+01
 0.1077910713656E+01
 0.1073205635766E+01
 0.1080466330174E+01
 0.1103563043016E+01
 0.1146940502817E+01
 0.1215311768050E+01
 0.1313075063023E+01
 0.1443500671688E+01
 0.1607787694492E+01
 0.1804151124649E+01
 0.2027205243997E+01
 0.2267921145684E+01
 0.2514374517722E+01
 0.2753127784073E+01
 0.1149129942606E+01
 0.1183560289414E+01
 0.1217652641268E+01
 0.1250259207985E+01
 0.1280302635484E+01
 0.1306895953755E+01
 0.1329409404074E+01
 0.1347479136009E+01
 0.1360971974563E+01
 0.1369928248708E+01
 0.1374501813827E+01
 0.1374909065309E+01
 0.1371391883825E+01
 0.1364194802441E+01
 0.1353554500497E+01
 0.1339699173983E+01
 0.1322855554424E+01
 0.1303262619777E+01
 0.1281189906031E+01
 0.1256960841595E+01
 0.1230980767941E+01
 0.1203768044717E+01
 0.1175989468029E+01
 0.1148501030089E+01
 0.1122399682187E+01
 0.1099080444539E+01
 0.1080294163329E+01
 0.1068218854861E+01
 0.1065542955569E+01
 0.1075537141246E+01
 0.1102062932991E+01
 0.1149439135183E+01
 0.1222086621022E+01
 0.1323929504658E+01
 0.1457629501114E+01
 0.1623763515748E+01
 0.1820086181550E+01
 0.2041095098839E+01
 0.2278101383801E+01
 0.2519935704657E+01
 0.2754135364708E+01
 0.1148274756686E+01
 0.1182039220492E+01
 0.1215474477090E+01
 0.1247488349896E+01
 0.1277049338273E+01
 0.1303292090457E+01
 0.1325580194346E+01
 0.1343520040534E+01
 0.1356935472939E+01
 0.1365820707412E+01
 0.1370287945324E+01
 0.1370520742812E+01
 0.1366738601833E+01
 0.1359174065511E+01
 0.1348061356912E+01
 0.1333634763229E+01
 0.1316134882432E+01
 0.1295821906268E+01
 0.1272993762965E+01
 0.1248009461605E+01
 0.1221317183470E+01
 0.1193485388967E+01
 0.1165238191307E+01
 0.1137495804488E+01
 0.1111424954261E+01
 0.1088495022272E+01
 0.1070535574140E+01
 0.1059804570732E+01
 0.1059061603213E+01
 0.1071618466103E+01
 0.1101312499398E+01
 0.1152327983407E+01
 0.1228803190189E+01
 0.1334228183631E+01
 0.1470731525211E+01
 0.1638368164552E+01
 0.1834529208025E+01
 0.2053649109777E+01
 0.2287354799687E+01
 0.2525132323849E+01
 0.2755372841124E+01
 0.1147514302958E+01
 0.1180685069200E+01
 0.1213534020515E+01
 0.1245015248905E+01
 0.1274136228551E+01
 0.1300051074541E+01
 0.1322119323004E+01
 0.1339923377736E+01
 0.1353251000553E+01
 0.1362056692010E+01
 0.1366416011693E+01
 0.1366483072242E+01
 0.1362456940398E+01
 0.1354558973987E+01
 0.1343020907437E+01
 0.1328082465228E+01
 0.1309996949521E+01
 0.1289044119011E+01
 0.1265548129370E+01
 0.1239900822226E+01
 0.1212589811814E+01
 0.1184229523153E+01
 0.1155596443847E+01
 0.1127669184401E+01
 0.1101677544092E+01
 0.1079157603968E+01
 0.1062008700380E+01
 0.1052558158581E+01
 0.1053624456436E+01
 0.1068547413208E+01
 0.1101129262960E+01
 0.1155417513695E+01
 0.1235283986195E+01
 0.1343827982758E+01
 0.1482716203458E+01
 0.1651568762087E+01
 0.1847491020874E+01
 0.2064891215285E+01
 0.2295684701718E+01
 0.2529926198081E+01
 0.2756750014383E+01
 0.1146844990908E+01
 0.1179492191620E+01
 0.1211823820521E+01
 0.1242832250735E+01
 0.1271557813944E+01
 0.1297171833602E+01
 0.1319031615490E+01
 0.1336700325336E+01
 0.1349935659376E+01
 0.1358658252830E+01
 0.1362911830327E+01
 0.1362824494477E+01
 0.1358576974544E+01
 0.1350380413062E+01
 0.1338464132500E+01
 0.1323072661458E+01
 0.1304470770377E+01
 0.1282955979890E+01
 0.1258876283694E+01
 0.1232653337509E+01
 0.1204810485881E+01
 0.1176003680228E+01
 0.1147056553197E+01
 0.1119000045648E+01
 0.1093120173787E+01
 0.1071012041276E+01
 0.1054636033196E+01
 0.1046378914833E+01
 0.1049107186955E+01
 0.1066178203327E+01
 0.1101352349133E+01
 0.1158543590012E+01
 0.1241378526053E+01
 0.1352610610374E+01
 0.1493511232534E+01
 0.1663341117655E+01
 0.1858982275815E+01
 0.2074841335904E+01
 0.2303092814284E+01
 0.2534282255382E+01
 0.2758184561025E+01
 0.1146264024013E+01
 0.1178456132518E+01
 0.1210337930766E+01
 0.1240933195968E+01
 0.1269309658223E+01
 0.1294653561579E+01
 0.1316321210934E+01
 0.1333860453825E+01
 0.1347004184889E+01
 0.1355644523599E+01
 0.1359797945544E+01
 0.1359569967582E+01
 0.1355125181813E+01
 0.1346665610283E+01
 0.1334418326083E+01
 0.1318632044211E+01
 0.1299581703952E+01
 0.1277580647024E+01
 0.1252998122401E+01
 0.1226282348864E+01
 0.1197988445492E+01
 0.1168809196988E+01
 0.1139609916806E+01
 0.1111467624415E+01
 0.1085717596036E+01
 0.1064006316463E+01
 0.1048346762317E+01
 0.1041175886053E+01
 0.1045398719932E+01
 0.1064382116039E+01
 0.1101841633675E+01
 0.1161565549458E+01
 0.1246960300859E+01
 0.1360478895457E+01
 0.1503059098721E+01
 0.1673667587114E+01
 0.1869013087354E+01
 0.2083516008955E+01
 0.2309579524228E+01
 0.2538168440261E+01
 0.2759602656169E+01
 0.1145769246063E+01
 0.1177573406359E+01
 0.1209071647905E+01
 0.1239313177263E+01
 0.1267388223557E+01
 0.1292495681728E+01
 0.1313991639083E+01
 0.1331411879774E+01
 0.1344469128896E+01
 0.1353031895347E+01
 0.1357093771968E+01
 0.1356741074863E+01
 0.1352124522709E+01
 0.1343438203475E+01
 0.1330907169443E+01
 0.1314783714923E+01
 0.1295351594215E+01
 0.1272937913953E+01
 0.1247930431488E+01
 0.1220800480358E+01
 0.1192130784991E+01
 0.1162646058448E+01
 0.1133247641371E+01
 0.1105052240234E+01
 0.1079437375918E+01
 0.1058093340677E+01
 0.1043077525659E+01
 0.1036868474007E+01
 0.1042401554612E+01
 0.1063047329016E+01
 0.1102476861508E+01
 0.1164364411795E+01
 0.1251924118270E+01
 0.1367353696571E+01
 0.1511314328122E+01
 0.1682535430209E+01
 0.1877592725861E+01
 0.2090928825202E+01
 0.2315144167332E+01
 0.2541555874180E+01
 0.2760939350708E+01
 0.1145359016238E+01
 0.1176841319456E+01
 0.1208021297556E+01
 0.1237968336584E+01
 0.1265790731959E+01
 0.1290697803560E+01
 0.1312045871208E+01
 0.1329361383509E+01
 0.1342341007167E+01
 0.1350834162088E+01
 0.1354815718880E+01
 0.1354356122169E+01
 0.1349594516057E+01
 0.1340718306066E+01
 0.1327950801552E+01
 0.1311547275687E+01
 0.1291798897987E+01
 0.1269044387582E+01
 0.1243687126370E+01
 0.1216217950127E+01
 0.1187242842883E+01
 0.1157513368425E+01
 0.1127961091117E+01
 0.1099735910010E+01
 0.1074250546982E+01
 0.1053231613286E+01
 0.1038773013670E+01
 0.1033386899720E+01
 0.1040031964326E+01
 0.1062078684365E+01
 0.1103156787680E+01
 0.1166841271563E+01
 0.1256183836682E+01
 0.1373171380211E+01
 0.1518241334969E+01
 0.1689935578532E+01
 0.1884729411669E+01
 0.2097090787886E+01
 0.2319785365823E+01
 0.2544419127269E+01
 0.2762138797811E+01
 0.1145032108164E+01
 0.1176257826876E+01
 0.1207184061142E+01
 0.1236895698455E+01
 0.1264515046912E+01
 0.1289259679447E+01
 0.1310486353179E+01
 0.1327714499273E+01
 0.1340628418198E+01
 0.1349062642159E+01
 0.1352977297405E+01
 0.1352430225105E+01
 0.1347551309513E+01
 0.1338522570175E+01
 0.1325565887183E+01
 0.1308938915678E+01
 0.1288938802625E+01
 0.1265913648790E+01
 0.1240279465400E+01
 0.1212542844646E+01
 0.1183328542008E+01
 0.1153409756941E+01
 0.1123742358284E+01
 0.1095502869705E+01
 0.1070132162089E+01
 0.1049385767136E+01
 0.1035386457612E+01
 0.1030672559933E+01
 0.1038220113290E+01
 0.1061397422308E+01
 0.1103798377333E+01
 0.1168915889321E+01
 0.1259670461274E+01
 0.1377881775415E+01
 0.1523812729113E+01
 0.1695861688921E+01
 0.1890430157253E+01
 0.2102010601225E+01
 0.2323501361414E+01
 0.2546736505796E+01
 0.2763154369437E+01
 0.1144787630582E+01
 0.1175821419710E+01
 0.1206557838934E+01
 0.1236093036280E+01
 0.1263559575634E+01
 0.1288181164688E+01
 0.1309315026336E+01
 0.1326475583284E+01
 0.1339338136825E+01
 0.1347726276728E+01
 0.1351589209984E+01
 0.1350975384011E+01
 0.1346007742025E+01
 0.1336864243687E+01
 0.1323765678500E+01
 0.1306971488126E+01
 0.1286783328993E+01
 0.1263556391026E+01
 0.1237716232252E+01
 0.1209781351216E+01
 0.1180390675965E+01
 0.1150333721046E+01
 0.1120584653958E+01
 0.1092340004232E+01
 0.1067061743020E+01
 0.1046527008090E+01
 0.1032880015469E+01
 0.1028678295962E+01
 0.1036910117648E+01
 0.1060940917094E+01
 0.1104336101976E+01
 0.1170525507674E+01
 0.1262330596836E+01
 0.1381446560040E+01
 0.1528008016219E+01
 0.1700309435640E+01
 0.1894700662557E+01
 0.2105694917716E+01
 0.2326290330680E+01
 0.2548490317491E+01
 0.2763948732361E+01
 0.1144624966160E+01
 0.1175531038587E+01
 0.1206141144572E+01
 0.1235558768252E+01
 0.1262923191027E+01
 0.1287462182753E+01
 0.1308533339425E+01
 0.1325647863053E+01
 0.1338475184947E+01
 0.1346831706101E+01
 0.1350659421158E+01
 0.1350000544506E+01
 0.1344973395242E+01
 0.1335753217769E+01
 0.1322560066282E+01
 0.1305654573737E+01
 0.1285341415420E+01
 0.1261980532389E+01
 0.1236003882513E+01
 0.1207937943895E+01
 0.1178431137143E+01
 0.1148283894833E+01
 0.1118482616006E+01
 0.1090237183897E+01
 0.1065023629398E+01
 0.1044633452185E+01
 0.1031225062095E+01
 0.1027368585546E+01
 0.1036060066062E+01
 0.1060662434452E+01
 0.1104721350067E+01
 0.1171623896913E+01
 0.1264125235271E+01
 0.1383838026412E+01
 0.1530812624981E+01
 0.1703275992405E+01
 0.1897545248703E+01
 0.2108148542926E+01
 0.2328150656080E+01
 0.2549667095539E+01
 0.2764493873207E+01
 0.1144543727296E+01
 0.1175386011109E+01
 0.1205933028606E+01
 0.1235291881331E+01
 0.1262605173763E+01
 0.1287102698262E+01
 0.1308142255552E+01
 0.1325233472189E+01
 0.1338042882990E+01
 0.1346383326371E+01
 0.1350193211135E+01
 0.1349511644286E+01
 0.1344454634107E+01
 0.1335196064986E+01
 0.1321955621113E+01
 0.1304994531228E+01
 0.1284618983814E+01
 0.1261191302962E+01
 0.1235146656998E+01
 0.1207015526311E+01
 0.1177451090934E+01
 0.1147259254688E+01
 0.1117432541907E+01
 0.1089187517345E+01
 0.1064007239309E+01
 0.1043690375382E+01
 0.1030402401243E+01
 0.1026719678097E+01
 0.1035642022988E+01
 0.1060530935007E+01
 0.1104921972287E+01
 0.1172180636607E+01
 0.1265028860443E+01
 0.1385038185232E+01
 0.1532217210799E+01
 0.1704759665899E+01
 0.1898966814422E+01
 0.2109374590538E+01
 0.2329081137219E+01
 0.2550257766987E+01
 0.2764771113228E+01
 0.1144543727302E+01
 0.1175386011116E+01
 0.1205933028614E+01
 0.1235291881341E+01
 0.1262605173776E+01
 0.1287102698278E+01
 0.1308142255570E+01
 0.1325233472211E+01
 0.1338042883015E+01
 0.1346383326398E+01
 0.1350193211166E+01
 0.1349511644321E+01
 0.1344454634147E+01
 0.1335196065030E+01
 0.1321955621163E+01
 0.1304994531286E+01
 0.1284618983881E+01
 0.1261191303038E+01
 0.1235146657084E+01
 0.1207015526407E+01
 0.1177451091041E+01
 0.1147259254804E+01
 0.1117432542030E+01
 0.1089187517473E+01
 0.1064007239437E+01
 0.1043690375505E+01
 0.1030402401355E+01
 0.1026719678188E+01
 0.1035642023049E+01
 0.1060530935027E+01
 0.1104921972256E+01
 0.1172180636520E+01
 0.1265028860297E+01
 0.1385038185033E+01
 0.1532217210561E+01
 0.1704759665643E+01
 0.1898966814173E+01
 0.2109374590323E+01
 0.2329081137059E+01
 0.2550257766893E+01
 0.2764771113197E+01
 0.1144624966178E+01
 0.1175531038607E+01
 0.1206141144597E+01
 0.1235558768284E+01
 0.1262923191065E+01
 0.1287462182800E+01
 0.1308533339480E+01
 0.1325647863117E+01
 0.1338475185021E+01
 0.1346831706183E+01
 0.1350659421250E+01
 0.1350000544610E+01
 0.1344973395359E+01
 0.1335753217903E+01
 0.1322560066435E+01
 0.1305654573911E+01
 0.1285341415620E+01
 0.1261980532616E+01
 0.1236003882771E+01
 0.1207937944184E+01
 0.1178431137464E+01
 0.1148283895181E+01
 0.1118482616377E+01
 0.1090237184282E+01
 0.1065023629785E+01
 0.1044633452557E+01
 0.1031225062432E+01
 0.1027368585821E+01
 0.1036060066246E+01
 0.1060662434514E+01
 0.1104721349978E+01
 0.1171623896653E+01
 0.1264125234835E+01
 0.1383838025817E+01
 0.1530812624267E+01
 0.1703275991636E+01
 0.1897545247956E+01
 0.2108148542281E+01
 0.2328150655599E+01
 0.2549667095258E+01
 0.2764493873116E+01
 0.1144787630612E+01
 0.1175821419744E+01
 0.1206557838975E+01
 0.1236093036332E+01
 0.1263559575699E+01
 0.1288181164766E+01
 0.1309315026428E+01
 0.1326475583391E+01
 0.1339338136947E+01
 0.1347726276865E+01
 0.1351589210138E+01
 0.1350975384184E+01
 0.1346007742220E+01
 0.1336864243908E+01
 0.1323765678753E+01
 0.1306971488416E+01
 0.1286783329325E+01
 0.1263556391405E+01
 0.1237716232681E+01
 0.1209781351698E+01
 0.1180390676498E+01
 0.1150333721626E+01
 0.1120584654577E+01
 0.1092340004875E+01
 0.1067061743666E+01
 0.1046527008713E+01
 0.1032880016034E+01
 0.1028678296426E+01
 0.1036910117962E+01
 0.1060940917205E+01
 0.1104336101837E+01
 0.1170525507249E+01
 0.1262330596116E+01
 0.1381446559053E+01
 0.1528008015032E+01
 0.1700309434359E+01
 0.1894700661311E+01
 0.2105694916638E+01
 0.2326290329879E+01
 0.2548490317025E+01
 0.2763948732216E+01
 0.1145032108206E+01
 0.1176257826924E+01
 0.1207184061200E+01
 0.1236895698528E+01
 0.1264515047002E+01
 0.1289259679557E+01
 0.1310486353309E+01
 0.1327714499423E+01
 0.1340628418368E+01
 0.1349062642351E+01
 0.1352977297619E+01
 0.1352430225346E+01
 0.1347551309785E+01
 0.1338522570483E+01
 0.1325565887536E+01
 0.1308938916082E+01
 0.1288938803088E+01
 0.1265913649319E+01
 0.1240279466000E+01
 0.1212542845319E+01
 0.1183328542754E+01
 0.1153409757754E+01
 0.1123742359152E+01
 0.1095502870608E+01
 0.1070132162999E+01
 0.1049385768015E+01
 0.1035386458412E+01
 0.1030672560594E+01
 0.1038220113743E+01
 0.1061397422480E+01
 0.1103798377156E+01
 0.1168915888743E+01
 0.1259670460281E+01
 0.1377881774043E+01
 0.1523812727456E+01
 0.1695861687128E+01
 0.1890430155505E+01
 0.2102010599713E+01
 0.2323501360293E+01
 0.2546736505150E+01
 0.2763154369248E+01
 0.1145359016292E+01
 0.1176841319517E+01
 0.1208021297631E+01
 0.1237968336678E+01
 0.1265790732075E+01
 0.1290697803701E+01
 0.1312045871375E+01
 0.1329361383702E+01
 0.1342341007385E+01
 0.1350834162333E+01
 0.1354815719154E+01
 0.1354356122477E+01
 0.1349594516404E+01
 0.1340718306461E+01
 0.1327950802002E+01
 0.1311547276204E+01
 0.1291798898579E+01
 0.1269044388260E+01
 0.1243687127139E+01
 0.1216217950991E+01
 0.1187242843841E+01
 0.1157513369470E+01
 0.1127961092235E+01
 0.1099735911175E+01
 0.1074250548160E+01
 0.1053231614428E+01
 0.1038773014714E+01
 0.1033386900590E+01
 0.1040031964933E+01
 0.1062078684615E+01
 0.1103156787481E+01
 0.1166841270850E+01
 0.1256183835431E+01
 0.1373171378465E+01
 0.1518241332849E+01
 0.1689935576227E+01
 0.1884729409418E+01
 0.2097090785937E+01
 0.2319785364382E+01
 0.2544419126449E+01
 0.2762138797590E+01
 0.1145769246129E+01
 0.1177573406434E+01
 0.1209071647997E+01
 0.1239313177378E+01
 0.1267388223699E+01
 0.1292495681900E+01
 0.1313991639287E+01
 0.1331411880009E+01
 0.1344469129161E+01
 0.1353031895645E+01
 0.1357093772301E+01
 0.1356741075236E+01
 0.1352124523129E+01
 0.1343438203953E+01
 0.1330907169989E+01
 0.1314783715550E+01
 0.1295351594934E+01
 0.1272937914776E+01
 0.1247930432424E+01
 0.1220800481412E+01
 0.1192130786161E+01
 0.1162646059726E+01
 0.1133247642740E+01
 0.1105052241665E+01
 0.1079437377369E+01
 0.1058093342089E+01
 0.1043077526958E+01
 0.1036868475101E+01
 0.1042401555392E+01
 0.1063047329364E+01
 0.1102476861312E+01
 0.1164364410969E+01
 0.1251924116781E+01
 0.1367353694467E+01
 0.1511314325546E+01
 0.1682535427394E+01
 0.1877592723102E+01
 0.2090928822811E+01
 0.2315144165570E+01
 0.2541555873193E+01
 0.2760939350471E+01
 0.1146264024091E+01
 0.1178456132607E+01
 0.1210337930875E+01
 0.1240933196104E+01
 0.1269309658391E+01
 0.1294653561783E+01
 0.1316321211174E+01
 0.1333860454101E+01
 0.1347004185201E+01
 0.1355644523948E+01
 0.1359797945933E+01
 0.1359569968018E+01
 0.1355125182305E+01
 0.1346665610841E+01
 0.1334418326722E+01
 0.1318632044945E+01
 0.1299581704796E+01
 0.1277580647990E+01
 0.1252998123502E+01
 0.1226282350105E+01
 0.1197988446873E+01
 0.1168809198500E+01
 0.1139609918429E+01
 0.1111467626117E+01
 0.1085717597766E+01
 0.1064006318156E+01
 0.1048346763885E+01
 0.1041175887388E+01
 0.1045398720906E+01
 0.1064382116512E+01
 0.1101841633509E+01
 0.1161565548547E+01
 0.1246960299158E+01
 0.1360478893014E+01
 0.1503059095700E+01
 0.1673667583790E+01
 0.1869013084085E+01
 0.2083516006118E+01
 0.2309579522145E+01
 0.2538168439115E+01
 0.2759602655939E+01
 0.1146844990998E+01
 0.1179492191723E+01
 0.1211823820647E+01
 0.1242832250893E+01
 0.1271557814138E+01
 0.1297171833837E+01
 0.1319031615767E+01
 0.1336700325653E+01
 0.1349935659734E+01
 0.1358658253229E+01
 0.1362911830772E+01
 0.1362824494974E+01
 0.1358576975104E+01
 0.1350380413698E+01
 0.1338464133229E+01
 0.1323072662296E+01
 0.1304470771341E+01
 0.1282955980996E+01
 0.1258876284955E+01
 0.1232653338934E+01
 0.1204810487470E+01
 0.1176003681972E+01
 0.1147056555075E+01
 0.1119000047623E+01
 0.1093120175804E+01
 0.1071012043260E+01
 0.1054636035049E+01
 0.1046378916430E+01
 0.1049107188149E+01
 0.1066178203955E+01
 0.1101352349032E+01
 0.1158543589052E+01
 0.1241378524171E+01
 0.1352610607616E+01
 0.1493511229082E+01
 0.1663341113827E+01
 0.1858982272030E+01
 0.2074841332613E+01
 0.2303092811878E+01
 0.2534282254088E+01
 0.2758184560825E+01
 0.1147514303060E+01
 0.1180685069317E+01
 0.1213534020658E+01
 0.1245015249084E+01
 0.1274136228772E+01
 0.1300051074807E+01
 0.1322119323316E+01
 0.1339923378093E+01
 0.1353251000955E+01
 0.1362056692457E+01
 0.1366416012191E+01
 0.1366483072798E+01
 0.1362456941024E+01
 0.1354558974697E+01
 0.1343020908251E+01
 0.1328082466165E+01
 0.1309996950602E+01
 0.1289044120253E+01
 0.1265548130789E+01
 0.1239900823833E+01
 0.1212589813610E+01
 0.1184229525130E+01
 0.1155596445982E+01
 0.1127669186656E+01
 0.1101677546405E+01
 0.1079157606258E+01
 0.1062008702536E+01
 0.1052558160464E+01
 0.1053624457880E+01
 0.1068547414027E+01
 0.1101129262964E+01
 0.1155417512726E+01
 0.1235283984170E+01
 0.1343827979715E+01
 0.1482716199592E+01
 0.1651568757758E+01
 0.1847491016567E+01
 0.2064891211531E+01
 0.2295684698985E+01
 0.2529926196649E+01
 0.2756750014242E+01
 0.1148274756800E+01
 0.1182039220623E+01
 0.1215474477251E+01
 0.1247488350096E+01
 0.1277049338521E+01
 0.1303292090755E+01
 0.1325580194694E+01
 0.1343520040932E+01
 0.1356935473384E+01
 0.1365820707906E+01
 0.1370287945872E+01
 0.1370520743423E+01
 0.1366738602521E+01
 0.1359174066292E+01
 0.1348061357807E+01
 0.1333634764262E+01
 0.1316134883625E+01
 0.1295821907642E+01
 0.1272993764538E+01
 0.1248009463390E+01
 0.1221317185471E+01
 0.1193485391176E+01
 0.1165238193702E+01
 0.1137495807026E+01
 0.1111424956879E+01
 0.1088495024879E+01
 0.1070535576618E+01
 0.1059804572927E+01
 0.1059061604942E+01
 0.1071618467154E+01
 0.1101312499554E+01
 0.1152327982478E+01
 0.1228803188066E+01
 0.1334228180338E+01
 0.1470731520954E+01
 0.1638368159729E+01
 0.1834529203191E+01
 0.2053649105552E+01
 0.2287354796624E+01
 0.2525132322290E+01
 0.2755372841074E+01
 0.1149129942732E+01
 0.1183560289560E+01
 0.1217652641446E+01
 0.1250259208208E+01
 0.1280302635759E+01
 0.1306895954084E+01
 0.1329409404458E+01
 0.1347479136445E+01
 0.1360971975050E+01
 0.1369928249246E+01
 0.1374501814422E+01
 0.1374909065972E+01
 0.1371391884570E+01
 0.1364194803289E+01
 0.1353554501470E+01
 0.1339699175106E+01
 0.1322855555723E+01
 0.1303262621277E+01
 0.1281189907753E+01
 0.1256960843554E+01
 0.1230980770144E+01
 0.1203768047157E+01
 0.1175989470684E+01
 0.1148501032915E+01
 0.1122399685119E+01
 0.1099080447480E+01
 0.1080294166150E+01
 0.1068218857398E+01
 0.1065542957619E+01
 0.1075537142575E+01
 0.1102062933351E+01
 0.1149439134350E+01
 0.1222086618854E+01
 0.1323929501160E+01
 0.1457629496494E+01
 0.1623763510442E+01
 0.1820086176184E+01
 0.2041095094130E+01
 0.2278101380403E+01
 0.2519935702985E+01
 0.2754135364786E+01
 0.1150084433713E+01
 0.1185255377255E+01
 0.1220077787365E+01
 0.1253337261136E+01
 0.1283902845961E+01
 0.1310864029451E+01
 0.1333601330858E+01
 0.1351787685125E+01
 0.1365340817377E+01
 0.1374354149187E+01
 0.1379028370078E+01
 0.1379616005528E+01
 0.1376383038453E+01
 0.1369586582954E+01
 0.1359465607237E+01
 0.1346241536096E+01
 0.1330126157584E+01
 0.1311335771572E+01
 0.1290109615256E+01
 0.1266733098733E+01
 0.1241565658016E+01
 0.1215071768900E+01
 0.1187856312151E+01
 0.1160705538941E+01
 0.1134640150768E+01
 0.1110973229070E+01
 0.1091367789076E+01
 0.1077910716566E+01
 0.1073205638178E+01
 0.1080466331831E+01
 0.1103563043639E+01
 0.1146940502144E+01
 0.1215311765901E+01
 0.1313075059373E+01
 0.1443500666742E+01
 0.1607787688716E+01
 0.1804151118745E+01
 0.2027205238790E+01
 0.2267921141941E+01
 0.2514374515947E+01
 0.2753127784317E+01
 0.1151144013938E+01
 0.1187133369817E+01
 0.1222761396818E+01
 0.1256734068379E+01
 0.1287858119076E+01
 0.1315197976495E+01
 0.1338149397817E+01
 0.1356430656316E+01
 0.1370019457916E+01
 0.1379069890710E+01
 0.1383834760312E+01
 0.1384605816923E+01
 0.1381674568109E+01
 0.1375311030847E+01
 0.1365756131532E+01
 0.1353223812989E+01
 0.1337909941459E+01
 0.1320006883726E+01
 0.1299721965987E+01
 0.1277300495533E+01
 0.1253053326521E+01
 0.1227387675314E+01
 0.1200842317259E+01
 0.1174128624457E+01
 0.1148184884647E+01
 0.1124234840056E+01
 0.1103844494030E+01
 0.1088997898986E+01
 0.1082198901489E+01
 0.1086585915650E+01
 0.1106017670443E+01
 0.1145049019929E+01
 0.1208686530631E+01
 0.1301837214892E+01
 0.1428458160883E+01
 0.1590485135780E+01
 0.1786713603206E+01
 0.2011950630951E+01
 0.2256808964604E+01
 0.2508490674822E+01
 0.2752447120879E+01
 0.1152315959939E+01
 0.1189205339911E+01
 0.1225717624984E+01
 0.1260463707015E+01
 0.1292178232278E+01
 0.1319899718121E+01
 0.1343045855493E+01
 0.1361390653910E+01
 0.1374982181463E+01
 0.1384043342834E+01
 0.1388884341161E+01
 0.1389838930545E+01
 0.1387225167168E+01
 0.1381325961024E+01
 0.1372383673411E+01
 0.1360604020434E+01
 0.1346166082789E+01
 0.1329237277895E+01
 0.1309991741771E+01
 0.1288632992564E+01
 0.1265421065695E+01
 0.1240703007209E+01
 0.1214947773590E+01
 0.1188787185607E+01
 0.1163071366334E+01
 0.1138927611397E+01
 0.1117815788000E+01
 0.1101605027374E+01
 0.1092683242089E+01
 0.1094092418143E+01
 0.1109654608194E+01
 0.1144011033427E+01
 0.1202452974163E+01
 0.1290422768041E+01
 0.1412643157700E+01
 0.1571915747065E+01
 0.1767764440775E+01
 0.1995295867040E+01
 0.2244757531571E+01
 0.2502331469253E+01
 0.2752195542856E+01
 0.1153609384054E+01
 0.1191485038975E+01
 0.1228963863030E+01
 0.1264543230739E+01
 0.1296874795591E+01
 0.1324971356083E+01
 0.1348281479916E+01
 0.1366647522991E+01
 0.1380199723252E+01
 0.1389238465447E+01
 0.1394136483258E+01
 0.1395271847508E+01
 0.1392989674995E+01
 0.1387585359434E+01
 0.1379301952190E+01
 0.1368336163317E+01
 0.1354849557768E+01
 0.1338983858367E+01
 0.1320879106206E+01
 0.1300695789446E+01
 0.1278641379501E+01
 0.1255000364965E+01
 0.1230168718768E+01
 0.1204694596639E+01
 0.1179334736568E+01
 0.1155113314593E+01
 0.1133375156263E+01
 0.1115862178944E+01
 0.1104829221143E+01
 0.1103198366825E+01
 0.1114724938005E+01
 0.1144104201208E+01
 0.1196891313602E+01
 0.1279078948731E+01
 0.1396231641390E+01
 0.1552160143155E+01
 0.1747297089551E+01
 0.1977196555352E+01
 0.2231756156698E+01
 0.2495952970836E+01
 0.2752477480134E+01
 0.1155035657720E+01
 0.1193989503424E+01
 0.1232521418949E+01
 0.1268993197971E+01
 0.1301961446363E+01
 0.1330415007189E+01
 0.1353845164015E+01
 0.1372177856847E+01
 0.1385638822772E+01
 0.1394614978668E+01
 0.1399546369586E+01
 0.1400857043890E+01
 0.1398919050429E+01
 0.1394039387290E+01
 0.1386460803079E+01
 0.1376370191055E+01
 0.1363911026253E+01
 0.1349198898173E+01
 0.1332339266800E+01
 0.1313448844563E+01
 0.1292681338767E+01
 0.1270256877092E+01
 0.1246495907059E+01
 0.1221859463387E+01
 0.1197006340929E+01
 0.1172851524458E+01
 0.1150616311919E+01
 0.1131903142876E+01
 0.1118815926255E+01
 0.1114131259631E+01
 0.1121502986981E+01
 0.1145639166087E+01
 0.1192324089991E+01
 0.1268100262872E+01
 0.1379442740527E+01
 0.1531326930141E+01
 0.1725310361680E+01
 0.1957595596018E+01
 0.2217787548846E+01
 0.2489426381587E+01
 0.2753394423071E+01
 0.1156608936702E+01
 0.1196739805823E+01
 0.1236416344606E+01
 0.1273838277019E+01
 0.1307454016332E+01
 0.1336232531455E+01
 0.1359723374743E+01
 0.1377954391736E+01
 0.1391261709260E+01
 0.1400128007726E+01
 0.1405064801383E+01
 0.1406542902970E+01
 0.1404960383528E+01
 0.1400634426264E+01
 0.1393806214876E+01
 0.1384651992068E+01
 0.1373296751338E+01
 0.1359829855218E+01
 0.1344322161835E+01
 0.1326846409024E+01
 0.1307501939587E+01
 0.1286443359984E+01
 0.1263913747067E+01
 0.1240284318880E+01
 0.1216112175005E+01
 0.1192197829468E+01
 0.1169631226576E+01
 0.1149863384278E+01
 0.1134829062258E+01
 0.1127132096398E+01
 0.1130285818518E+01
 0.1148960835814E+01
 0.1189120306255E+01
 0.1257836107231E+01
 0.1362548722711E+01
 0.1509562359679E+01
 0.1701813539758E+01
 0.1936418248409E+01
 0.2202819531732E+01
 0.2482848881580E+01
 0.2755034784705E+01
 0.1158346815386E+01
 0.1199761989627E+01
 0.1240680440063E+01
 0.1279107928426E+01
 0.1313370637003E+01
 0.1342425102333E+01
 0.1365899432175E+01
 0.1383945261695E+01
 0.1397025506797E+01
 0.1405727700677E+01
 0.1410638012746E+01
 0.1412273675287E+01
 0.1411056942579E+01
 0.1407313159597E+01
 0.1401280400620E+01
 0.1393123415980E+01
 0.1382948539408E+01
 0.1370819199475E+01
 0.1356772146602E+01
 0.1340836546057E+01
 0.1323057430827E+01
 0.1303523426998E+01
 0.1282399163056E+01
 0.1259964207529E+01
 0.1236671169958E+01
 0.1213201818249E+01
 0.1190507856265E+01
 0.1169877609344E+01
 0.1153058544747E+01
 0.1142453323468E+01
 0.1141392074683E+01
 0.1154449065046E+01
 0.1187699309017E+01
 0.1248699060560E+01
 0.1345886996306E+01
 0.1487062523636E+01
 0.1676836084771E+01
 0.1913567908584E+01
 0.2186785964672E+01
 0.2476362252040E+01
 0.2757445390790E+01
 0.1160271153451E+01
 0.1203088241277E+01
 0.1245352480280E+01
 0.1284837165743E+01
 0.1319731740869E+01
 0.1348992562498E+01
 0.1372352567421E+01
 0.1390113094761E+01
 0.1402881560756E+01
 0.1411358831642E+01
 0.1416207509833E+01
 0.1417989481722E+01
 0.1417148269897E+01
 0.1414014701551E+01
 0.1408821913453E+01
 0.1401722336557E+01
 0.1392803715108E+01
 0.1382104267436E+01
 0.1369627697125E+01
 0.1355360656181E+01
 0.1339294633813E+01
 0.1321452573292E+01
 0.1301920410159E+01
 0.1280885191384E+01
 0.1258693353075E+01
 0.1235904873393E+01
 0.1213327582615E+01
 0.1192076929754E+01
 0.1173695560733E+01
 0.1160356110885E+01
 0.1155160040035E+01
 0.1162518518416E+01
 0.1188534167127E+01
 0.1241173495516E+01
 0.1329874544956E+01
 0.1464088356482E+01
 0.1650441018653E+01
 0.1888935174409E+01
 0.2169537891856E+01
 0.2470194244495E+01
 0.2760557120974E+01
 0.1162409130553E+01
 0.1206758359701E+01
 0.1250479723923E+01
 0.1291067379562E+01
 0.1326559892648E+01
 0.1355932486823E+01
 0.1379056706153E+01
 0.1396413932274E+01
 0.1408774692617E+01
 0.1416960408231E+01
 0.1421709955534E+01
 0.1423626378797E+01
 0.1423170343659E+01
 0.1420674791648E+01
 0.1416365824916E+01
 0.1410382774715E+01
 0.1402795153523E+01
 0.1393617169528E+01
 0.1382821160672E+01
 0.1370353041250E+01
 0.1356152291654E+01
 0.1340177279114E+01
 0.1322435892029E+01
 0.1303022832560E+01
 0.1282177940811E+01
 0.1260337828385E+01
 0.1238162413870E+01
 0.1216585644889E+01
 0.1196929069685E+01
 0.1181106873966E+01
 0.1171944753194E+01
 0.1173617463177E+01
 0.1192154046981E+01
 0.1235824414471E+01
 0.1315023422999E+01
 0.1440988371749E+01
 0.1622730468098E+01
 0.1862442932238E+01
 0.2150766210735E+01
 0.2464691734353E+01
 0.2763922111725E+01
 0.1164795047713E+01
 0.1210822314007E+01
 0.1256121044439E+01
 0.1297849231598E+01
 0.1333882094027E+01
 0.1363242119271E+01
 0.1385982507004E+01
 0.1402799707960E+01
 0.1414646246110E+01
 0.1422469297000E+01
 0.1427081397915E+01
 0.1429121297141E+01
 0.1429061435404E+01
 0.1427232872766E+01
 0.1423852400146E+01
 0.1419045605450E+01
 0.1412864497503E+01
 0.1405301027780E+01
 0.1396298541027E+01
 0.1385764762216E+01
 0.1373589491925E+01
 0.1359668414820E+01
 0.1343932838730E+01
 0.1326386253394E+01
 0.1307162653081E+01
 0.1286575109682E+01
 0.1265133150456E+01
 0.1243582141984E+01
 0.1223007536154E+01
 0.1205037182109E+01
 0.1192172581612E+01
 0.1188272722112E+01
 0.1199175178190E+01
 0.1233310588283E+01
 0.1301934571918E+01
 0.1418163651994E+01
 0.1593808737024E+01
 0.1833883580482E+01
 0.2130387850140E+01
 0.2458568213865E+01
 0.2773862254101E+01
 0.1167470136950E+01
 0.1215341040924E+01
 0.1262346102256E+01
 0.1305239126664E+01
 0.1341723201275E+01
 0.1370909712291E+01
 0.1393087889271E+01
 0.1409208836773E+01
 0.1420425019320E+01
 0.1427811329159E+01
 0.1432248113068E+01
 0.1434402034750E+01
 0.1434750565013E+01
 0.1433618230589E+01
 0.1431210058788E+01
 0.1427637395096E+01
 0.1422935854354E+01
 0.1417077464583E+01
 0.1409979697089E+01
 0.1401515500679E+01
 0.1391528241213E+01
 0.1379853743935E+01
 0.1366349196154E+01
 0.1350929204648E+01
 0.1333624205617E+01
 0.1314625499097E+01
 0.1294292064206E+01
 0.1273176224374E+01
 0.1252115107532E+01
 0.1232424925404E+01
 0.1216235933523E+01
 0.1207009290904E+01
 0.1210259456620E+01
 0.1234398104951E+01
 0.1291376494779E+01
 0.1396212817668E+01
 0.1563931428821E+01
 0.1803178612844E+01
 0.2108082743558E+01
 0.2452036197841E+01
 0.2789267658795E+01
 0.1170487710574E+01
 0.1220391040161E+01
 0.1269239985215E+01
 0.1313301572878E+01
 0.1350105903827E+01
 0.1378913199931E+01
 0.1400316677713E+01
 0.1415565510486E+01
 0.1426027295159E+01
 0.1432901853788E+01
 0.1437127420444E+01
 0.1439388129082E+01
 0.1440158291044E+01
 0.1439750609398E+01
 0.1438355744713E+01
 0.1436070455431E+01
 0.1432915453817E+01
 0.1428845767216E+01
 0.1423756901281E+01
 0.1417491390399E+01
 0.1409850447355E+01
 0.1400613930785E+01
 0.1389568520546E+01
 0.1376543684956E+01
 0.1361470464281E+01
 0.1344422616625E+01
 0.1325611520003E+01
 0.1305395758444E+01
 0.1284356363967E+01
 0.1263477642115E+01
 0.1244476382971E+01
 0.1230335769149E+01
 0.1226107132732E+01
 0.1239968834223E+01
 0.1284322665502E+01
 0.1375998397396E+01
 0.1533608489286E+01
 0.1770389152927E+01
 0.2083619360970E+01
 0.2445714761733E+01
 0.2806495873403E+01
 0.1173914435686E+01
 0.1226068203536E+01
 0.1276906935949E+01
 0.1322111467390E+01
 0.1359051672607E+01
 0.1387221385287E+01
 0.1407601320389E+01
 0.1421784322930E+01
 0.1431363142472E+01
 0.1437653402928E+01
 0.1441636619942E+01
 0.1444001260719E+01
 0.1445209021828E+01
 0.1445555058052E+01
 0.1445213071264E+01
 0.1444265151062E+01
 0.1442719046601E+01
 0.1440516341524E+01
 0.1437535314365E+01
 0.1433593440816E+01
 0.1428455123359E+01
 0.1421849176008E+01
 0.1413496403955E+01
 0.1403146093936E+01
 0.1390635710346E+01
 0.1375927970806E+01
 0.1359092560517E+01
 0.1340297352568E+01
 0.1319864170961E+01
 0.1298430893824E+01
 0.1277265080381E+01
 0.1258796781050E+01
 0.1247470837803E+01
 0.1250989215172E+01
 0.1281875907125E+01
 0.1358539516240E+01
 0.1503459333195E+01
 0.1735558401799E+01
 0.2056785961219E+01
 0.2439383599912E+01
 0.2826499013882E+01
 0.1177834880815E+01
 0.1232493381665E+01
 0.1285473943994E+01
 0.1331752768604E+01
 0.1368575152825E+01
 0.1395786773373E+01
 0.1414856320041E+01
 0.1427764976283E+01
 0.1436332111568E+01
 0.1441971813049E+01
 0.1445689024585E+01
 0.1448160776744E+01
 0.1449825656268E+01
 0.1450955315705E+01
 0.1451704052589E+01
 0.1452139537478E+01
 0.1452258968203E+01
 0.1451994686943E+01
 0.1451213346657E+01
 0.1449713788323E+01
 0.1447230108605E+01
 0.1443446102544E+01
 0.1438022359127E+01
 0.1430634111955E+01
 0.1421032710143E+01
 0.1409078670615E+01
 0.1394709048730E+01
 0.1377908166922E+01
 0.1358741015585E+01
 0.1337491881486E+01
 0.1314952699122E+01
 0.1292935078991E+01
 0.1275138054034E+01
 0.1268524376588E+01
 0.1285330238448E+01
 0.1345132403160E+01
 0.1474370884624E+01
 0.1698862683603E+01
 0.2027272263797E+01
 0.2432785691015E+01
 0.2849878156090E+01
 0.1182357247832E+01
 0.1239819865345E+01
 0.1295095562574E+01
 0.1342317145813E+01
 0.1378678408052E+01
 0.1404539388905E+01
 0.1421974056935E+01
 0.1433390376206E+01
 0.1440822864465E+01
 0.1445756627711E+01
 0.1449194660270E+01
 0.1451784456980E+01
 0.1453930324501E+01
 0.1455874498924E+01
 0.1457749731773E+01
 0.1459609923699E+01
 0.1461444613707E+01
 0.1463181737377E+01
 0.1464682798752E+01
 0.1465735568858E+01
 0.1466051627856E+01
 0.1465276985364E+01
 0.1463018710077E+01
 0.1458885208141E+01
 0.1452550732399E+01
 0.1443784754036E+01
 0.1432403988172E+01
 0.1418220750632E+01
 0.1401051723427E+01
 0.1380829322348E+01
 0.1357855944089E+01
 0.1333274985171E+01
 0.1309913750248E+01
 0.1293726472160E+01
 0.1296180059852E+01
 0.1337403570510E+01
 0.1447596176687E+01
 0.1660674862634E+01
 0.1994682505674E+01
 0.2425560526825E+01
 0.2877255788245E+01
 0.1187621416882E+01
 0.1248243570284E+01
 0.1305959423733E+01
 0.1353900589621E+01
 0.1389342336925E+01
 0.1413378824908E+01
 0.1428820159218E+01
 0.1438524986780E+01
 0.1444713231187E+01
 0.1448901859698E+01
 0.1452061219100E+01
 0.1454789451104E+01
 0.1457445247444E+01
 0.1460235881071E+01
 0.1463270893818E+01
 0.1466591526394E+01
 0.1470183018912E+01
 0.1473974322704E+01
 0.1477829125215E+01
 0.1481532896389E+01
 0.1484783925301E+01
 0.1487199030447E+01
 0.1488339530290E+01
 0.1487755225275E+01
 0.1485053694793E+01
 0.1479926700405E+01
 0.1472086045851E+01
 0.1461188003563E+01
 0.1446816021838E+01
 0.1428562519155E+01
 0.1406241975406E+01
 0.1380301623736E+01
 0.1352595980189E+01
 0.1327813140944E+01
 0.1316118492806E+01
 0.1337362157197E+01
 0.1424877620698E+01
 0.1621681166251E+01
 0.1958567883779E+01
 0.2417226965873E+01
 0.2909355541306E+01
 0.1193810483550E+01
 0.1258017035323E+01
 0.1318292165069E+01
 0.1366596512554E+01
 0.1400514125470E+01
 0.1422164311662E+01
 0.1435228717781E+01
 0.1443013763397E+01
 0.1447870873785E+01
 0.1451297189741E+01
 0.1454195292647E+01
 0.1457093391993E+01
 0.1460293712966E+01
 0.1463963760144E+01
 0.1468188861377E+01
 0.1472999217935E+01
 0.1478379558102E+01
 0.1484265771509E+01
 0.1490531850449E+01
 0.1496970977128E+01
 0.1503278993536E+01
 0.1509053709020E+01
 0.1513819628718E+01
 0.1517077053263E+01
 0.1518378484014E+01
 0.1517353222147E+01
 0.1513626439770E+01
 0.1506718506244E+01
 0.1496001291288E+01
 0.1480750052400E+01
 0.1460311141127E+01
 0.1434435897271E+01
 0.1403943143310E+01
 0.1372032807429E+01
 0.1347019479962E+01
 0.1347442751027E+01
 0.1408598717817E+01
 0.1583070042753E+01
 0.1918494721690E+01
 0.2407138618091E+01
 0.2947049589310E+01
 0.1201167693443E+01
 0.1269468851384E+01
 0.1332364929462E+01
 0.1380482936663E+01
 0.1412089281604E+01
 0.1430702828494E+01
 0.1440997913624E+01
 0.1446682091288E+01
 0.1450154749476E+01
 0.1452829665363E+01
 0.1455503899019E+01
 0.1458615681520E+01
 0.1462401159526E+01
 0.1466984405414E+01
 0.1472426365341E+01
 0.1478748364558E+01
 0.1485938762509E+01
 0.1493946671179E+01
 0.1502665164519E+01
 0.1511906388429E+01
 0.1521376410543E+01
 0.1530666133974E+01
 0.1539273551870E+01
 0.1546659364062E+01
 0.1552333455993E+01
 0.1555879401161E+01
 0.1556856330708E+01
 0.1554672451017E+01
 0.1548515870373E+01
 0.1537378636339E+01
 0.1520178694956E+01
 0.1496005666553E+01
 0.1464632017555E+01
 0.1427612878571E+01
 0.1390895858787E+01
 0.1370526919399E+01
 0.1401958990380E+01
 0.1546820456076E+01
 0.1874172171039E+01
 0.2394414946020E+01
 0.2991413728359E+01
 0.1210021953265E+01
 0.1283030848716E+01
 0.1348496446377E+01
 0.1395599880769E+01
 0.1423886570955E+01
 0.1438735803642E+01
 0.1445887012101E+01
 0.1449337249343E+01
 0.1451417545685E+01
 0.1453385939396E+01
 0.1455896302603E+01
 0.1459278935767E+01
 0.1463696352615E+01
 0.1469227069692E+01
 0.1475908479479E+01
 0.1483755747982E+01
 0.1492765261617E+01
 0.1502905803464E+01
 0.1514098736108E+01
 0.1526187567075E+01
 0.1538903310725E+01
 0.1551844465304E+01
 0.1564494555068E+01
 0.1576285359288E+01
 0.1586697108389E+01
 0.1595285236017E+01
 0.1601564872221E+01
 0.1604858430235E+01
 0.1604203329227E+01
 0.1598352819908E+01
 0.1585856527845E+01
 0.1565214356686E+01
 0.1535206840051E+01
 0.1495686926172E+01
 0.1449822529273E+01
 0.1409926123770E+01
 0.1409154676556E+01
 0.1516122441514E+01
 0.1825698950713E+01
 0.2377853199626E+01
 0.3043806455060E+01
 0.1220827396907E+01
 0.1299276312705E+01
 0.1367049298781E+01
 0.1411910765971E+01
 0.1435614315079E+01
 0.1445925958738E+01
 0.1449616150735E+01
 0.1450771934726E+01
 0.1451509198634E+01
 0.1452855053643E+01
 0.1455286106930E+01
 0.1459010566220E+01
 0.1464112634032E+01
 0.1470625051311E+01
 0.1478563606738E+01
 0.1487940562411E+01
 0.1498764848580E+01
 0.1511031277303E+01
 0.1524698794976E+01
 0.1539655580028E+01
 0.1555674545897E+01
 0.1572379344581E+01
 0.1589253486500E+01
 0.1605711462612E+01
 0.1621216910892E+01
 0.1635314685808E+01
 0.1647498111955E+01
 0.1657031377725E+01
 0.1662838172683E+01
 0.1663486340767E+01
 0.1657236296305E+01
 0.1642109100111E+01
 0.1616021700529E+01
 0.1577198963245E+01
 0.1525810467590E+01
 0.1469299322530E+01
 0.1435530290557E+01
 0.1495960072279E+01
 0.1774040834157E+01
 0.2355834328759E+01
 0.3105989902630E+01
 0.1234226803044E+01
 0.1318973555893E+01
 0.1388409983826E+01
 0.1429238307535E+01
 0.1446827690811E+01
 0.1451847603250E+01
 0.1451870763561E+01
 0.1450770237477E+01
 0.1450281505005E+01
 0.1451131732784E+01
 0.1453593577230E+01
 0.1457744460299E+01
 0.1463589216354E+01
 0.1471116783842E+01
 0.1480324498206E+01
 0.1491225469813E+01
 0.1503845658470E+01
 0.1518211868144E+01
 0.1534329534634E+01
 0.1552145267206E+01
 0.1571493111210E+01
 0.1592043348022E+01
 0.1613297471648E+01
 0.1634665805944E+01
 0.1655608205463E+01
 0.1675675254363E+01
 0.1694358913226E+01
 0.1710891916699E+01
 0.1724123350518E+01
 0.1732495889723E+01
 0.1734075504937E+01
 0.1726551204067E+01
 0.1707180851452E+01
 0.1672788097754E+01
 0.1620617217770E+01
 0.1552461971222E+01
 0.1487641941492E+01
 0.1493859080179E+01
 0.1721937373426E+01
 0.2326270432779E+01
 0.3180324590194E+01
 0.1251157129126E+01
 0.1343159679227E+01
 0.1412932966453E+01
 0.1447161086702E+01
 0.1456880339201E+01
 0.1455986317577E+01
 0.1452312475581E+01
 0.1449116079901E+01
 0.1447593732245E+01
 0.1448120111383E+01
 0.1450748122074E+01
 0.1455422713609E+01
 0.1462072489591E+01
 0.1470646928481E+01
 0.1481129283481E+01
 0.1493537692830E+01
 0.1507919440694E+01
 0.1524338564101E+01
 0.1542854892472E+01
 0.1563486888699E+01
 0.1586150975979E+01
 0.1610590480429E+01
 0.1636348250745E+01
 0.1662846284780E+01
 0.1689553041872E+01
 0.1716038175364E+01
 0.1741808123358E+01
 0.1766087405557E+01
 0.1787689910374E+01
 0.1804997950233E+01
 0.1815988243855E+01
 0.1818192312797E+01
 0.1808483458912E+01
 0.1782665322090E+01
 0.1735490357000E+01
 0.1663020664086E+01
 0.1573129326784E+01
 0.1520730294832E+01
 0.1675567537564E+01
 0.2286742590653E+01
 0.3270106375269E+01
 0.1273032909150E+01
 0.1373236739910E+01
 0.1440807093616E+01
 0.1464853597217E+01
 0.1464882624978E+01
 0.1457756917746E+01
 0.1450597142266E+01
 0.1445603622145E+01
 0.1443319088146E+01
 0.1443737754641E+01
 0.1446690836539E+01
 0.1451997358144E+01
 0.1459517301502E+01
 0.1469167441045E+01
 0.1480922487834E+01
 0.1494810118962E+01
 0.1510902894003E+01
 0.1529306295266E+01
 0.1550140749595E+01
 0.1573508447896E+01
 0.1599430549761E+01
 0.1627755780700E+01
 0.1658099947674E+01
 0.1689917805300E+01
 0.1722698700783E+01
 0.1756039243543E+01
 0.1789467256047E+01
 0.1822214978003E+01
 0.1853099003106E+01
 0.1880509039823E+01
 0.1902442052720E+01
 0.1916460128826E+01
 0.1919379682154E+01
 0.1906501861323E+01
 0.1870871247234E+01
 0.1803760849215E+01
 0.1700192491919E+01
 0.1591617621049E+01
 0.1647441176382E+01
 0.2235255770415E+01
 0.3380211174534E+01
 0.1302081665489E+01
 0.1411077649167E+01
 0.1471756826219E+01
 0.1480857879419E+01
 0.1469697991918E+01
 0.1456548911318E+01
 0.1446397642472E+01
 0.1440049016145E+01
 0.1437351888496E+01
 0.1437919727127E+01
 0.1441377004304E+01
 0.1447432022464E+01
 0.1455888169902E+01
 0.1466638584706E+01
 0.1479656009676E+01
 0.1494982386106E+01
 0.1512719021382E+01
 0.1533015789345E+01
 0.1556057550276E+01
 0.1582038896373E+01
 0.1611107167670E+01
 0.1643255228921E+01
 0.1678215950684E+01
 0.1715508099044E+01
 0.1754655491388E+01
 0.1795280337196E+01
 0.1836923038815E+01
 0.1878826917497E+01
 0.1919846312394E+01
 0.1958449219975E+01
 0.1992761497696E+01
 0.2020558072384E+01
 0.2038945164079E+01
 0.2043346290080E+01
 0.2026134269711E+01
 0.1975787702128E+01
 0.1876275021288E+01
 0.1725945212131E+01
 0.1660936212629E+01
 0.2172781750579E+01
 0.3518496352620E+01
 0.1341996614725E+01
 0.1459068661998E+01
 0.1504395839301E+01
 0.1492816759491E+01
 0.1470041168401E+01
 0.1451797426282E+01
 0.1439425451058E+01
 0.1432304020694E+01
 0.1429614828628E+01
 0.1430622424266E+01
 0.1434778469478E+01
 0.1441703440396E+01
 0.1451160388088E+01
 0.1463029857901E+01
 0.1477290031955E+01
 0.1494001918697E+01
 0.1513298459453E+01
 0.1535375465957E+01
 0.1560483258411E+01
 0.1588912428816E+01
 0.1620953243193E+01
 0.1656786439616E+01
 0.1696324484124E+01
 0.1739201093066E+01
 0.1784993215848E+01
 0.1833331789084E+01
 0.1883734378934E+01
 0.1935438934199E+01
 0.1987368945711E+01
 0.2038148385053E+01
 0.2086137752450E+01
 0.2129482027801E+01
 0.2165886532205E+01
 0.2191571503290E+01
 0.2199454167183E+01
 0.2177672237236E+01
 0.2105398181455E+01
 0.1946205157011E+01
 0.1756284880452E+01
 0.2110689996858E+01
 0.3699339014021E+01
 0.1399310984473E+01
 0.1519778819678E+01
 0.1534873052378E+01
 0.1497367027786E+01
 0.1464763534812E+01
 0.1443039502785E+01
 0.1429451040961E+01
 0.1422272412147E+01
 0.1420064681810E+01
 0.1421827287896E+01
 0.1426885653610E+01
 0.1434802756417E+01
 0.1445320980358E+01
 0.1458320808816E+01
 0.1473793842177E+01
 0.1491824881076E+01
 0.1512580735572E+01
 0.1536303263604E+01
 0.1563306416733E+01
 0.1593973919771E+01
 0.1628745098185E+01
 0.1668031247477E+01
 0.1712012280868E+01
 0.1760526025710E+01
 0.1813235345144E+01
 0.1869735956586E+01
 0.1929442480914E+01
 0.1991542074296E+01
 0.2055055066624E+01
 0.2118853659390E+01
 0.2181643213687E+01
 0.2242050752303E+01
 0.2298598344601E+01
 0.2348859540889E+01
 0.2387766537161E+01
 0.2405253616682E+01
 0.2384188544302E+01
 0.2271927612841E+01
 0.1996521340377E+01
 0.2090610333731E+01
 0.3954021175008E+01
 0.1486615899601E+01
 0.1593953052793E+01
 0.1554285877319E+01
 0.1490926035655E+01
 0.1453251451014E+01
 0.1429879938551E+01
 0.1416354103278E+01
 0.1409917665228E+01
 0.1408698087018E+01
 0.1411543827235E+01
 0.1417709079443E+01
 0.1426736585237E+01
 0.1438369452396E+01
 0.1452501711954E+01
 0.1469146532710E+01
 0.1488417014139E+01
 0.1510515395979E+01
 0.1535728322986E+01
 0.1564428934710E+01
 0.1597085029060E+01
 0.1634273859401E+01
 0.1676662796432E+01
 0.1724815597049E+01
 0.1778938867047E+01
 0.1838849587548E+01
 0.1904012919809E+01
 0.1973585190333E+01
 0.2046619031259E+01
 0.2122257532257E+01
 0.2199735753604E+01
 0.2278245993554E+01
 0.2356952610465E+01
 0.2435251991209E+01
 0.2512355793909E+01
 0.2586531940752E+01
 0.2652538622566E+01
 0.2699606280732E+01
 0.2702460221893E+01
 0.2467960310261E+01
 0.2230481893165E+01
 0.4367680060612E+01
 0.1631342872463E+01
 0.1670660422778E+01
 0.1545862451844E+01
 0.1473058954104E+01
 0.1434956049420E+01
 0.1412122273447E+01
 0.1400151864661E+01
 0.1395263832860E+01
 0.1395558860546E+01
 0.1399810495212E+01
 0.1407280770346E+01
 0.1417527613759E+01
 0.1430318355881E+01
 0.1445574075009E+01
 0.1463337567337E+01
 0.1483754332934E+01
 0.1507062948263E+01
 0.1533592454223E+01
 0.1563768425431E+01
 0.1598129331745E+01
 0.1637361309110E+01
 0.1682363639639E+01
 0.1734207763374E+01
 0.1793788540749E+01
 0.1861233623722E+01
 0.1935670356004E+01
 0.2015716789119E+01
 0.2100165541995E+01
 0.2188312519924E+01
 0.2279897226108E+01
 0.2374804282119E+01
 0.2472821354077E+01
 0.2573895768899E+01
 0.2678967626383E+01
 0.2789888918605E+01
 0.2910890499124E+01
 0.3037074552556E+01
 0.3187400245070E+01
 0.3245629649166E+01
 0.2794599937757E+01
 0.5238738466172E+01
 0.1906051123729E+01
 0.1673465977817E+01
 0.1504582091510E+01
 0.1445668842328E+01
 0.1408967611591E+01
 0.1390118754773E+01
 0.1380903324376E+01
 0.1378432762257E+01
 0.1380731165208E+01
 0.1386697876655E+01
 0.1395654111581E+01
 0.1407215065105E+01
 0.1421193546794E+01
 0.1437550983836E+01
 0.1456367197302E+01
 0.1477823655439E+01
 0.1502195609369E+01
 0.1529851200126E+01
 0.1561260267437E+01
 0.1597015041263E+01
 0.1637874728073E+01
 0.1684872966376E+01
 0.1739583971957E+01
 0.1804247608899E+01
 0.1879700056288E+01
 0.1964220157378E+01
 0.2055435081496E+01
 0.2151717365762E+01
 0.2252563890991E+01
 0.2358387764199E+01
 0.2470040812361E+01
 0.2588237915540E+01
 0.2712842611336E+01
 0.2845128824366E+01
 0.2992605593516E+01
 0.3165554247644E+01
 0.3388131157405E+01
 0.3651437680658E+01
 0.4205726700926E+01
 0.4183322435682E+01
 0.8026391606848E+01
 0.3522500408170E+00
 0.4828961106404E+00
 0.6113408286654E+00
 0.7324024789115E+00
 0.8435925347947E+00
 0.9435768330895E+00
 0.1031783800724E+01
 0.1108374455250E+01
 0.1174005908658E+01
 0.1229549869421E+01
 0.1275942926886E+01
 0.1314114889363E+01
 0.1344907692433E+01
 0.1368998793687E+01
 0.1386889482899E+01
 0.1398924062192E+01
 0.1405035875362E+01
 0.1405250840737E+01
 0.1400873360414E+01
 0.1394324141692E+01
 0.3448939412179E+00
 0.4790329984732E+00
 0.6099536420312E+00
 0.7334791864014E+00
 0.8472274804677E+00
 0.9500107548682E+00
 0.1041354637221E+01
 0.1121340503987E+01
 0.1190495642942E+01
 0.1249599473125E+01
 0.1299528458549E+01
 0.1341180845242E+01
 0.1375398597038E+01
 0.1402902135895E+01
 0.1424275827399E+01
 0.1439906315842E+01
 0.1449701214782E+01
 0.1453696162472E+01
 0.1451394026186E+01
 0.1441113696221E+01
 0.3376699097482E+00
 0.4758687649748E+00
 0.6095692086136E+00
 0.7355517223526E+00
 0.8517962745147E+00
 0.9572448979190E+00
 0.1051486316802E+01
 0.1134591777743E+01
 0.1207017955340E+01
 0.1269468782001E+01
 0.1322769437098E+01
 0.1367788461892E+01
 0.1405362451871E+01
 0.1436230074374E+01
 0.1460985982823E+01
 0.1479975263456E+01
 0.1493110889992E+01
 0.1500050253583E+01
 0.1499867055386E+01
 0.1492110970833E+01
 0.3308136980967E+00
 0.4731796679976E+00
 0.6099131652019E+00
 0.7384206308314E+00
 0.8570983207226E+00
 0.9650730054928E+00
 0.1062012827561E+01
 0.1148004704164E+01
 0.1223471504254E+01
 0.1289065724281E+01
 0.1345569472021E+01
 0.1393821783568E+01
 0.1434643284345E+01
 0.1468762396856E+01
 0.1496745532500E+01
 0.1518890812943E+01
 0.1535060798559E+01
 0.1544841319762E+01
 0.1547729609610E+01
 0.1543934378097E+01
 0.3243601141026E+00
 0.4709386402881E+00
 0.6108105350173E+00
 0.7418900335683E+00
 0.8629454736325E+00
 0.9733168379820E+00
 0.1072776396619E+01
 0.1161447951900E+01
 0.1239744165027E+01
 0.1308285060610E+01
 0.1367818215685E+01
 0.1419152279901E+01
 0.1463081796483E+01
 0.1500307486093E+01
 0.1531358272797E+01
 0.1556491018126E+01
 0.1575592554513E+01
 0.1588403893180E+01
 0.1594802940443E+01
 0.1595380596921E+01
 0.3183214837102E+00
 0.4690967198454E+00
 0.6121416263661E+00
 0.7457941852973E+00
 0.8691657741963E+00
 0.9818124170009E+00
 0.1083627615201E+01
 0.1174789267995E+01
 0.1255717244954E+01
 0.1327013247718E+01
 0.1389397416418E+01
 0.1443647944435E+01
 0.1490527682371E+01
 0.1530704194965E+01
 0.1564673263210E+01
 0.1592683339277E+01
 0.1614707588846E+01
 0.1630672905417E+01
 0.1640742433515E+01
 0.1645725498683E+01
 0.3126993299399E+00
 0.4676059374124E+00
 0.6138028547135E+00
 0.7499933186886E+00
 0.8756053146233E+00
 0.9904081364940E+00
 0.1094424424735E+01
 0.1187898260585E+01
 0.1271269663226E+01
 0.1345132736225E+01
 0.1410186162284E+01
 0.1467179208398E+01
 0.1516842521947E+01
 0.1559812838859E+01
 0.1596566575983E+01
 0.1627372596400E+01
 0.1652307268407E+01
 0.1671464603379E+01
 0.1685204807941E+01
 0.1694460606621E+01
 0.3074916628347E+00
 0.4664190567094E+00
 0.6157025842736E+00
 0.7543645310030E+00
 0.8821264750177E+00
 0.9989642878658E+00
 0.1105032386567E+01
 0.1200648203494E+01
 0.1286281082083E+01
 0.1362525719411E+01
 0.1430064735058E+01
 0.1489621665237E+01
 0.1541898116217E+01
 0.1587506856098E+01
 0.1626918813482E+01
 0.1660438388247E+01
 0.1688241344417E+01
 0.1710556457392E+01
 0.1727875260141E+01
 0.1741186202148E+01
 0.3026953091132E+00
 0.4654915244074E+00
 0.6177582407928E+00
 0.7587982365153E+00
 0.8886051562638E+00
 0.1007352470630E+01
 0.1115325188525E+01
 0.1212917571175E+01
 0.1300634319160E+01
 0.1379076953444E+01
 0.1448917060057E+01
 0.1510856797759E+01
 0.1565573961504E+01
 0.1613665190888E+01
 0.1655605923681E+01
 0.1691741555925E+01
 0.1722334765505E+01
 0.1747717600309E+01
 0.1768463345630E+01
 0.1785564180285E+01
 0.2983070217521E+00
 0.4647821183436E+00
 0.6198952275375E+00
 0.7631959390039E+00
 0.8949290735173E+00
 0.1015454890069E+01
 0.1125185045542E+01
 0.1224591255176E+01
 0.1314217138083E+01
 0.1394675679141E+01
 0.1466632050544E+01
 0.1530771884853E+01
 0.1587754955328E+01
 0.1638168649874E+01
 0.1682499016649E+01
 0.1721132117434E+01
 0.1754402899619E+01
 0.1782719430748E+01
 0.1806699408382E+01
 0.1827299915121E+01
 0.2943239048071E+00
 0.4642532579821E+00
 0.6220462436866E+00
 0.7674689811174E+00
 0.9009966350675E+00
 0.1023163905184E+01
 0.1134503007244E+01
 0.1235561527259E+01
 0.1326923597104E+01
 0.1409216964450E+01
 0.1483104446603E+01
 0.1549259885177E+01
 0.1608330422094E+01
 0.1660899515519E+01
 0.1707466905112E+01
 0.1748456018212E+01
 0.1784259959558E+01
 0.1815340648494E+01
 0.1842332947795E+01
 0.1866132891584E+01
 0.2907435717561E+00
 0.4638710903872E+00
 0.6241508592439E+00
 0.7715377740355E+00
 0.9067162552425E+00
 0.1030381747504E+01
 0.1143179209978E+01
 0.1245728755467E+01
 0.1338655026269E+01
 0.1422602645947E+01
 0.1498235424032E+01
 0.1566219609212E+01
 0.1627194254631E+01
 0.1681742659455E+01
 0.1730379261439E+01
 0.1773560233522E+01
 0.1811724333909E+01
 0.1845370021512E+01
 0.1875130882894E+01
 0.1901826120298E+01
 0.2875641475459E+00
 0.4636054659828E+00
 0.6261552104006E+00
 0.7753313117076E+00
 0.9120059317756E+00
 0.1037020374434E+01
 0.1151123097293E+01
 0.1255001956724E+01
 0.1349320770954E+01
 0.1434742075337E+01
 0.1511933210721E+01
 0.1581556274508E+01
 0.1644245789617E+01
 0.1700587343188E+01
 0.1751109733127E+01
 0.1796296862483E+01
 0.1836622516218E+01
 0.1872608562543E+01
 0.1904875552420E+01
 0.1934159969690E+01
 0.2847842136423E+00
 0.4634298672656E+00
 0.6280117838570E+00
 0.7787868655472E+00
 0.9167930004668E+00
 0.1043001417030E+01
 0.1158253624925E+01
 0.1263299240519E+01
 0.1358838789515E+01
 0.1445552771085E+01
 0.1524113760604E+01
 0.1595182318921E+01
 0.1659391043862E+01
 0.1717329203296E+01
 0.1769538788486E+01
 0.1816526509326E+01
 0.1858792364851E+01
 0.1896871870598E+01
 0.1931365784698E+01
 0.1962931022019E+01
 0.2824027331327E+00
 0.4633213210532E+00
 0.6296792543836E+00
 0.7818497812794E+00
 0.9210139852624E+00
 0.1048256169319E+01
 0.1164499433851E+01
 0.1270548160797E+01
 0.1367136142162E+01
 0.1454961005274E+01
 0.1534701457229E+01
 0.1607018334554E+01
 0.1672544068070E+01
 0.1731872192834E+01
 0.1785556247299E+01
 0.1834121167119E+01
 0.1878086003641E+01
 0.1917992932680E+01
 0.1954420207241E+01
 0.1987954062139E+01
 0.2804189690880E+00
 0.4632603097601E+00
 0.6311223660958E+00
 0.7844733511446E+00
 0.9246145208671E+00
 0.1052725617215E+01
 0.1169799017614E+01
 0.1276686026169E+01
 0.1374149430980E+01
 0.1462902369837E+01
 0.1543629844314E+01
 0.1616994055051E+01
 0.1683628311206E+01
 0.1744130403444E+01
 0.1799063525642E+01
 0.1848966721463E+01
 0.1894372417985E+01
 0.1935824830941E+01
 0.1973880048076E+01
 0.2009065181252E+01
 0.2788324160068E+00
 0.4632306928699E+00
 0.6323118463627E+00
 0.7866187320590E+00
 0.9275493143716E+00
 0.1056360481402E+01
 0.1174100871206E+01
 0.1281660165482E+01
 0.1379825186210E+01
 0.1469322297768E+01
 0.1550842323402E+01
 0.1625049299514E+01
 0.1692577884845E+01
 0.1754029684427E+01
 0.1809975563130E+01
 0.1860965060901E+01
 0.1907539617503E+01
 0.1950242819900E+01
 0.1989611053230E+01
 0.2026124649057E+01
 0.2776427371376E+00
 0.4632196381659E+00
 0.6332243401388E+00
 0.7882548909281E+00
 0.9297821273341E+00
 0.1059121262461E+01
 0.1177363618975E+01
 0.1285428152043E+01
 0.1384120199096E+01
 0.1474176525472E+01
 0.1556292783146E+01
 0.1631134819080E+01
 0.1699338671345E+01
 0.1761509021485E+01
 0.1818222420750E+01
 0.1870035781212E+01
 0.1917496295604E+01
 0.1961145778901E+01
 0.2001504787990E+01
 0.2039019071890E+01
 0.2768497193086E+00
 0.4632175684440E+00
 0.6338423664723E+00
 0.7893585743583E+00
 0.9312857757979E+00
 0.1060978289510E+01
 0.1179556127560E+01
 0.1287957994521E+01
 0.1387001805540E+01
 0.1477431490229E+01
 0.1559946141065E+01
 0.1635213018027E+01
 0.1703869249549E+01
 0.1766521662246E+01
 0.1823750553448E+01
 0.1876117498016E+01
 0.1924173037498E+01
 0.1968457190879E+01
 0.2009479478009E+01
 0.2047662830639E+01
 0.2764532387595E+00
 0.4632181209820E+00
 0.6341542869771E+00
 0.7899142884065E+00
 0.9320421325886E+00
 0.1061911757879E+01
 0.1180657590971E+01
 0.1289228281350E+01
 0.1388448103402E+01
 0.1479064638202E+01
 0.1561778765068E+01
 0.1637258512114E+01
 0.1706141603343E+01
 0.1769035964339E+01
 0.1826523749395E+01
 0.1879168786472E+01
 0.1927523144184E+01
 0.1972125759273E+01
 0.2013480481955E+01
 0.2051998874459E+01
 0.2764532388374E+00
 0.4632181209913E+00
 0.6341542869427E+00
 0.7899142883468E+00
 0.9320421325163E+00
 0.1061911757802E+01
 0.1180657590897E+01
 0.1289228281282E+01
 0.1388448103345E+01
 0.1479064638156E+01
 0.1561778765034E+01
 0.1637258512090E+01
 0.1706141603328E+01
 0.1769035964332E+01
 0.1826523749393E+01
 0.1879168786473E+01
 0.1927523144187E+01
 0.1972125759278E+01
 0.2013480481961E+01
 0.2051998874468E+01
 0.2768497195422E+00
 0.4632175684724E+00
 0.6338423663698E+00
 0.7893585741803E+00
 0.9312857755817E+00
 0.1060978289282E+01
 0.1179556127338E+01
 0.1287957994319E+01
 0.1387001805367E+01
 0.1477431490092E+01
 0.1559946140963E+01
 0.1635213017957E+01
 0.1703869249506E+01
 0.1766521662224E+01
 0.1823750553441E+01
 0.1876117498019E+01
 0.1924173037507E+01
 0.1968457190893E+01
 0.2009479478028E+01
 0.2047662830664E+01
 0.2776427375269E+00
 0.4632196382148E+00
 0.6332243399707E+00
 0.7882548906344E+00
 0.9297821269768E+00
 0.1059121262083E+01
 0.1177363618607E+01
 0.1285428151709E+01
 0.1384120198810E+01
 0.1474176525244E+01
 0.1556292782977E+01
 0.1631134818965E+01
 0.1699338671275E+01
 0.1761509021449E+01
 0.1818222420738E+01
 0.1870035781217E+01
 0.1917496295620E+01
 0.1961145778925E+01
 0.2001504788022E+01
 0.2039019071932E+01
 0.2788324165519E+00
 0.4632306929419E+00
 0.6323118461331E+00
 0.7866187316543E+00
 0.9275493138778E+00
 0.1056360480879E+01
 0.1174100870696E+01
 0.1281660165018E+01
 0.1379825185813E+01
 0.1469322297451E+01
 0.1550842323168E+01
 0.1625049299355E+01
 0.1692577884748E+01
 0.1754029684378E+01
 0.1809975563115E+01
 0.1860965060908E+01
 0.1907539617525E+01
 0.1950242819933E+01
 0.1989611053275E+01
 0.2026124649116E+01
 0.2804189697891E+00
 0.4632603098587E+00
 0.6311223658103E+00
 0.7844733506354E+00
 0.9246145202431E+00
 0.1052725616552E+01
 0.1169799016967E+01
 0.1276686025578E+01
 0.1374149430476E+01
 0.1462902369435E+01
 0.1543629844016E+01
 0.1616994054850E+01
 0.1683628311084E+01
 0.1744130403383E+01
 0.1799063525624E+01
 0.1848966721474E+01
 0.1894372418014E+01
 0.1935824830984E+01
 0.1973880048134E+01
 0.2009065181328E+01
 0.2824027339897E+00
 0.4633213211831E+00
 0.6296792540497E+00
 0.7818497806740E+00
 0.9210139845165E+00
 0.1048256168524E+01
 0.1164499433073E+01
 0.1270548160086E+01
 0.1367136141554E+01
 0.1454961004789E+01
 0.1534701456871E+01
 0.1607018334313E+01
 0.1672544067925E+01
 0.1731872192763E+01
 0.1785556247281E+01
 0.1834121167135E+01
 0.1878086003678E+01
 0.1917992932733E+01
 0.1954420207312E+01
 0.1987954062233E+01
 0.2847842146555E+00
 0.4634298674323E+00
 0.6280117834835E+00
 0.7787868648559E+00
 0.9167929996089E+00
 0.1043001416111E+01
 0.1158253624023E+01
 0.1263299239693E+01
 0.1358838788808E+01
 0.1445552770521E+01
 0.1524113760188E+01
 0.1595182318642E+01
 0.1659391043697E+01
 0.1717329203217E+01
 0.1769538788468E+01
 0.1816526509347E+01
 0.1858792364897E+01
 0.1896871870663E+01
 0.1931365784782E+01
 0.1962931022130E+01
 0.2875641487156E+00
 0.4636054661934E+00
 0.6261552099983E+00
 0.7753313109426E+00
 0.9120059308177E+00
 0.1037020373402E+01
 0.1151123096276E+01
 0.1255001955791E+01
 0.1349320770154E+01
 0.1434742074699E+01
 0.1511933210252E+01
 0.1581556274195E+01
 0.1644245789434E+01
 0.1700587343104E+01
 0.1751109733111E+01
 0.1796296862511E+01
 0.1836622516273E+01
 0.1872608562618E+01
 0.1904875552518E+01
 0.1934159969819E+01
 0.2907435730829E+00
 0.4638710906495E+00
 0.6241508588252E+00
 0.7715377732106E+00
 0.9067162541981E+00
 0.1030381746372E+01
 0.1143179208857E+01
 0.1245728754435E+01
 0.1338655025383E+01
 0.1422602645241E+01
 0.1498235423514E+01
 0.1566219608869E+01
 0.1627194254433E+01
 0.1681742659368E+01
 0.1730379261428E+01
 0.1773560233559E+01
 0.1811724333975E+01
 0.1845370021599E+01
 0.1875130883005E+01
 0.1901826120444E+01
 0.2943239062915E+00
 0.4642532583053E+00
 0.6220462432658E+00
 0.7674689802487E+00
 0.9009966339521E+00
 0.1023163903965E+01
 0.1134503006030E+01
 0.1235561526137E+01
 0.1326923596139E+01
 0.1409216963680E+01
 0.1483104446041E+01
 0.1549259884807E+01
 0.1608330421885E+01
 0.1660899515432E+01
 0.1707466905108E+01
 0.1748456018260E+01
 0.1784259959636E+01
 0.1815340648592E+01
 0.1842332947919E+01
 0.1866132891748E+01
 0.2983070233953E+00
 0.4647821187383E+00
 0.6198952271304E+00
 0.7631959381091E+00
 0.8949290723481E+00
 0.1015454888779E+01
 0.1125185044248E+01
 0.1224591253975E+01
 0.1314217137047E+01
 0.1394675678315E+01
 0.1466632049943E+01
 0.1530771884461E+01
 0.1587754955111E+01
 0.1638168649789E+01
 0.1682499016655E+01
 0.1721132117494E+01
 0.1754402899710E+01
 0.1782719430859E+01
 0.1806699408519E+01
 0.1827299915303E+01
 0.3026953109165E+00
 0.4654915248855E+00
 0.6177582404175E+00
 0.7587982356142E+00
 0.8886051550598E+00
 0.1007352469285E+01
 0.1115325187165E+01
 0.1212917569905E+01
 0.1300634318062E+01
 0.1379076952570E+01
 0.1448917059422E+01
 0.1510856797349E+01
 0.1565573961282E+01
 0.1613665190809E+01
 0.1655605923699E+01
 0.1691741556000E+01
 0.1722334765610E+01
 0.1747717600432E+01
 0.1768463345780E+01
 0.1785564180486E+01
 0.3074916647998E+00
 0.4664190572841E+00
 0.6157025839497E+00
 0.7543645301173E+00
 0.8821264737997E+00
 0.9989642864841E+00
 0.1105032385157E+01
 0.1200648202170E+01
 0.1286281080934E+01
 0.1362525718496E+01
 0.1430064734397E+01
 0.1489621664815E+01
 0.1541898115994E+01
 0.1587506856027E+01
 0.1626918813513E+01
 0.1660438388338E+01
 0.1688241344537E+01
 0.1710556457528E+01
 0.1727875260303E+01
 0.1741186202367E+01
 0.3126993320693E+00
 0.4676059380987E+00
 0.6138028544626E+00
 0.7499933178420E+00
 0.8756053134138E+00
 0.9904081350959E+00
 0.1094424423291E+01
 0.1187898259219E+01
 0.1271269662037E+01
 0.1345132735278E+01
 0.1410186161602E+01
 0.1467179207967E+01
 0.1516842521728E+01
 0.1559812838799E+01
 0.1596566576030E+01
 0.1627372596508E+01
 0.1652307268543E+01
 0.1671464603530E+01
 0.1685204808116E+01
 0.1694460606856E+01
 0.3183214860071E+00
 0.4690967206597E+00
 0.6121416262121E+00
 0.7457941845153E+00
 0.8691657730196E+00
 0.9818124156077E+00
 0.1083627613742E+01
 0.1174789266602E+01
 0.1255717243737E+01
 0.1327013246748E+01
 0.1389397415723E+01
 0.1443647944001E+01
 0.1490527682158E+01
 0.1530704194917E+01
 0.1564673263274E+01
 0.1592683339404E+01
 0.1614707588999E+01
 0.1630672905581E+01
 0.1640742433702E+01
 0.1645725498932E+01
 0.3243601165707E+00
 0.4709386412489E+00
 0.6108105349857E+00
 0.7418900328782E+00
 0.8629454725143E+00
 0.9733168366168E+00
 0.1072776395164E+01
 0.1161447950498E+01
 0.1239744163796E+01
 0.1308285059628E+01
 0.1367818214985E+01
 0.1419152279470E+01
 0.1463081796278E+01
 0.1500307486059E+01
 0.1531358272877E+01
 0.1556491018271E+01
 0.1575592554683E+01
 0.1588403893358E+01
 0.1594802940640E+01
 0.1595380597181E+01
 0.3308137007410E+00
 0.4731796691249E+00
 0.6099131653201E+00
 0.7384206302618E+00
 0.8570983196900E+00
 0.9650730041801E+00
 0.1062012826132E+01
 0.1148004702771E+01
 0.1223471503024E+01
 0.1289065723301E+01
 0.1345569471326E+01
 0.1393821783146E+01
 0.1434643284151E+01
 0.1468762396835E+01
 0.1496745532595E+01
 0.1518890813103E+01
 0.1535060798743E+01
 0.1544841319951E+01
 0.1547729609816E+01
 0.1543934378360E+01
 0.3376699125747E+00
 0.4758687662904E+00
 0.6095692089104E+00
 0.7355517219332E+00
 0.8517962735960E+00
 0.9572448966848E+00
 0.1051486315423E+01
 0.1134591776380E+01
 0.1207017954129E+01
 0.1269468781037E+01
 0.1322769436418E+01
 0.1367788461485E+01
 0.1405362451691E+01
 0.1436230074364E+01
 0.1460985982929E+01
 0.1479975263628E+01
 0.1493110890186E+01
 0.1500050253780E+01
 0.1499867055599E+01
 0.1492110971094E+01
 0.3448939442345E+00
 0.4790330000002E+00
 0.6099536425348E+00
 0.7334791861622E+00
 0.8472274796921E+00
 0.9500107537404E+00
 0.1041354635919E+01
 0.1121340502678E+01
 0.1190495641772E+01
 0.1249599472194E+01
 0.1299528457896E+01
 0.1341180844855E+01
 0.1375398596871E+01
 0.1402902135893E+01
 0.1424275827509E+01
 0.1439906316019E+01
 0.1449701214980E+01
 0.1453696162672E+01
 0.1451394026401E+01
 0.1441113696474E+01
 0.3522500440235E+00
 0.4828961123944E+00
 0.6113408294038E+00
 0.7324024788829E+00
 0.8435925341923E+00
 0.9435768320977E+00
 0.1031783799526E+01
 0.1108374454025E+01
 0.1174005907557E+01
 0.1229549868545E+01
 0.1275942926274E+01
 0.1314114889002E+01
 0.1344907692279E+01
 0.1368998793687E+01
 0.1386889483003E+01
 0.1398924062360E+01
 0.1405035875553E+01
 0.1405250840935E+01
 0.1400873360628E+01
 0.1394324141926E+01
 0.1486035690871E+01
 0.1249248834437E+01
 0.7457012464481E+00
 0.4920228360909E+00
 0.3142185367026E+00
 0.1818847354030E+00
 0.8719103363590E-01
 0.2324120336039E-01
 0.2518599036340E-01
 0.6580875134132E-01
 0.1009974996515E+00
 0.1307341453469E+00
 0.1539587542339E+00
 0.1687792530097E+00
 0.1734102969048E+00
 0.1653672946744E+00
 0.1416681159223E+00
 0.1017936474927E+00
 0.5222713662351E-01
 0.8864187439228E-02
 0.1263258847831E+01
 0.1370562730345E+01
 0.9294220029729E+00
 0.6291463405043E+00
 0.4357972667038E+00
 0.2938375733143E+00
 0.1903331187969E+00
 0.1150698675165E+00
 0.5743073589090E-01
 0.1041298949604E-01
 0.2977593104233E-01
 0.6410157253483E-01
 0.9260465421506E-01
 0.1140532729297E+00
 0.1265366979447E+00
 0.1281832421388E+00
 0.1185141773222E+00
 0.9273236127359E-01
 0.5155568899450E-01
 0.3753505856608E-02
 0.1086736164059E+01
 0.1297286228923E+01
 0.1043587924882E+01
 0.7609537373229E+00
 0.5547738667488E+00
 0.4048593838686E+00
 0.2934791187408E+00
 0.2104724230499E+00
 0.1455329763827E+00
 0.9213891443269E-01
 0.4663129744256E-01
 0.7248310128114E-02
 0.2674027763524E-01
 0.5475392996138E-01
 0.7539333401694E-01
 0.8725677842674E-01
 0.8989094962606E-01
 0.7755198303738E-01
 0.4728584028355E-01
 0.3709745704974E-02
 0.9537500717976E+00
 0.1197644721790E+01
 0.1077871002778E+01
 0.8647584686254E+00
 0.6675373133984E+00
 0.5135261123932E+00
 0.3965518963023E+00
 0.3077565633746E+00
 0.2373356638040E+00
 0.1786102496296E+00
 0.1279944061722E+00
 0.8355783643649E-01
 0.4422302231040E-01
 0.9856213007185E-02
 0.1868297405072E-01
 0.4023169087629E-01
 0.5453199244677E-01
 0.5522367708720E-01
 0.3695893416420E-01
 0.3678777767919E-02
 0.8502756887128E+00
 0.1099617933945E+01
 0.1071114351940E+01
 0.9306984293245E+00
 0.7650020462509E+00
 0.6170495277522E+00
 0.4981975958024E+00
 0.4057509841670E+00
 0.3314259784819E+00
 0.2686276753598E+00
 0.2137368608607E+00
 0.1647895270671E+00
 0.1205150084902E+00
 0.8031517480039E-01
 0.4461465388799E-01
 0.1429572050407E-01
 0.1102522598728E-01
 0.2399983829888E-01
 0.1796753074640E-01
 0.4651816064031E-02
 0.7679554755829E+00
 0.1010766594108E+01
 0.1043530163772E+01
 0.9663712854199E+00
 0.8411896544039E+00
 0.7106661955164E+00
 0.5960101985116E+00
 0.5028673198478E+00
 0.4264632399710E+00
 0.3610003652302E+00
 0.3029734505808E+00
 0.2504252472611E+00
 0.2020070002732E+00
 0.1568253411532E+00
 0.1149227279556E+00
 0.7683873300145E-01
 0.4245553752482E-01
 0.1830780440948E-01
 0.1280796212470E-01
 0.2467778496122E-01
 0.7012731450287E+00
 0.9325151998263E+00
 0.1006150039210E+01
 0.9802474771282E+00
 0.8963876908704E+00
 0.7905225343559E+00
 0.6867872869450E+00
 0.5969567476249E+00
 0.5208524815251E+00
 0.4544209088729E+00
 0.3946394337114E+00
 0.3396838443076E+00
 0.2882199829282E+00
 0.2391887672400E+00
 0.1923504305740E+00
 0.1479866120109E+00
 0.1057608358453E+00
 0.7178783174286E-01
 0.5576526366556E-01
 0.5892736581916E-01
 0.6464570965570E+00
 0.8644299398149E+00
 0.9650123706971E+00
 0.9792225333541E+00
 0.9333971393821E+00
 0.8552918538665E+00
 0.7677375870212E+00
 0.6855798796556E+00
 0.6127038171836E+00
 0.5473741050244E+00
 0.4874807958942E+00
 0.4315442586610E+00
 0.3783672225389E+00
 0.3268446043000E+00
 0.2765475243440E+00
 0.2275526855789E+00
 0.1793664017361E+00
 0.1375589970288E+00
 0.1127025809445E+00
 0.1085115767291E+00
 0.6008183640433E+00
 0.8054990139142E+00
 0.9234664004934E+00
 0.9683932010905E+00
 0.9556760749739E+00
 0.9054627690787E+00
 0.8372940536818E+00
 0.7665926392787E+00
 0.7000416144100E+00
 0.6381747562002E+00
 0.5800574232559E+00
 0.5247682199026E+00
 0.4713916050426E+00
 0.4189012737154E+00
 0.3667739511810E+00
 0.3149392686739E+00
 0.2628045282918E+00
 0.2152530390555E+00
 0.1834349737534E+00
 0.1734407925969E+00
 0.5623774268108E+00
 0.7545856038180E+00
 0.8833493368084E+00
 0.9514000869149E+00
 0.9665136144250E+00
 0.9425156260313E+00
 0.8950621108595E+00
 0.8385514571369E+00
 0.7811233611024E+00
 0.7251276103547E+00
 0.6708139171675E+00
 0.6179428699954E+00
 0.5660064166770E+00
 0.5141783984527E+00
 0.4619375929253E+00
 0.4091268537839E+00
 0.3551076631944E+00
 0.3039738377639E+00
 0.2671409053744E+00
 0.2527784934437E+00
 0.5296391366139E+00
 0.7105904411660E+00
 0.8456202253193E+00
 0.9307968918812E+00
 0.9687383164166E+00
 0.9683317921400E+00
 0.9414973367863E+00
 0.9007748551498E+00
 0.8546631789241E+00
 0.8067231790233E+00
 0.7582077581035E+00
 0.7095627813073E+00
 0.6607565017201E+00
 0.6112606075067E+00
 0.5606464866899E+00
 0.5087289165920E+00
 0.4548650151885E+00
 0.4022912424480E+00
 0.3623504115498E+00
 0.3448477492202E+00
 0.5014512126511E+00
 0.6725073357773E+00
 0.8107139964385E+00
 0.9083469575994E+00
 0.9646585642060E+00
 0.9848424015961E+00
 0.9775682139346E+00
 0.9532227381225E+00
 0.9198975933204E+00
 0.8817786805799E+00
 0.8408464136861E+00
 0.7981394958169E+00
 0.7541041841038E+00
 0.7085691436536E+00
 0.6612742736796E+00
 0.6120603955546E+00
 0.5603068325657E+00
 0.5083481782726E+00
 0.4670898376922E+00
 0.4474384065113E+00
 0.4769116293903E+00
 0.6394369853260E+00
 0.7787470422603E+00
 0.8852419790937E+00
 0.9560958873043E+00
 0.9938417172889E+00
 0.1004491427153E+01
 0.9963167253545E+00
 0.9765419098185E+00
 0.9494948813976E+00
 0.9175897539226E+00
 0.8823110242135E+00
 0.8445297415783E+00
 0.8044500788938E+00
 0.7620384526562E+00
 0.7172135978548E+00
 0.6693932559481E+00
 0.6199773745685E+00
 0.5790365400410E+00
 0.5580002816317E+00
 0.4553058491378E+00
 0.6105846624879E+00
 0.7496407516806E+00
 0.8622593684833E+00
 0.9444489910546E+00
 0.9969007452936E+00
 0.1023548686339E+01
 0.1030766982698E+01
 0.1024693589074E+01
 0.1009444795185E+01
 0.9876020442499E+00
 0.9609287885767E+00
 0.9306311270383E+00
 0.8972725855252E+00
 0.8610890420243E+00
 0.8221364170369E+00
 0.7798960532127E+00
 0.7348106827640E+00
 0.6956699161494E+00
 0.6738178399946E+00
 0.4360628925881E+00
 0.5852521476406E+00
 0.7231981490101E+00
 0.8398751771042E+00
 0.9307624006211E+00
 0.9953378104580E+00
 0.1035970054080E+01
 0.1057429971702E+01
 0.1064721375532E+01
 0.1061520267085E+01
 0.1050358054604E+01
 0.1033112467979E+01
 0.1011212016617E+01
 0.9855322090641E+00
 0.9566073087513E+00
 0.9247112364331E+00
 0.8894599376881E+00
 0.8503624710666E+00
 0.8144092769508E+00
 0.7921693410406E+00
 0.4187236527099E+00
 0.5628282177446E+00
 0.6991529596957E+00
 0.8183458266062E+00
 0.9157897282142E+00
 0.9902198176599E+00
 0.1042865383472E+01
 0.1077201375267E+01
 0.1097160518347E+01
 0.1105857373481E+01
 0.1105613197521E+01
 0.1098270692414E+01
 0.1085351808042E+01
 0.1067960291995E+01
 0.1046926245045E+01
 0.1022843779781E+01
 0.9956372164734E+00
 0.9640488962089E+00
 0.9327201522636E+00
 0.9104756265495E+00
 0.4029172557022E+00
 0.5427793978387E+00
 0.6772023163316E+00
 0.7977682163601E+00
 0.9000484038013E+00
 0.9823788984256E+00
 0.1045188729981E+01
 0.1090940972754E+01
 0.1122623230107E+01
 0.1142754057258E+01
 0.1153345119811E+01
 0.1156082973115E+01
 0.1152446683910E+01
 0.1143635898589E+01
 0.1130705285812E+01
 0.1114618579182E+01
 0.1095903488945E+01
 0.1073098287096E+01
 0.1048099267642E+01
 0.1026466400013E+01
 0.3883421623076E+00
 0.5246420512009E+00
 0.6570304248755E+00
 0.7781253124953E+00
 0.8838650714749E+00
 0.9724348866423E+00
 0.1043724860890E+01
 0.1099424985664E+01
 0.1141729261188E+01
 0.1172590233651E+01
 0.1193672618321E+01
 0.1206432351515E+01
 0.1212187753527E+01
 0.1212066682066E+01
 0.1207156253209E+01
 0.1198681211029E+01
 0.1187857939842E+01
 0.1174207140111E+01
 0.1157814750996E+01
 0.1138264773219E+01
 0.3747491463604E+00
 0.5080138463430E+00
 0.6383336014994E+00
 0.7593232778124E+00
 0.8674082390423E+00
 0.9608171277789E+00
 0.1039089348585E+01
 0.1103323246246E+01
 0.1155061785243E+01
 0.1195763250722E+01
 0.1226766665949E+01
 0.1249285930222E+01
 0.1264424496255E+01
 0.1273109220155E+01
 0.1276205269633E+01
 0.1274791564975E+01
 0.1270429199095E+01
 0.1263646581933E+01
 0.1256948396113E+01
 0.1244510214715E+01
 0.3618988508139E+00
 0.4925773950169E+00
 0.6208625940364E+00
 0.7412194521326E+00
 0.8507074013972E+00
 0.9477658573206E+00
 0.1031741177725E+01
 0.1103203411249E+01
 0.1163152308922E+01
 0.1212656448299E+01
 0.1252788804130E+01
 0.1284566927427E+01
 0.1308913847691E+01
 0.1326563488797E+01
 0.1338087934515E+01
 0.1344042198074E+01
 0.1345300677496E+01
 0.1342394526509E+01
 0.1338270688308E+01
 0.1338670507459E+01
 0.3618988542265E+00
 0.4925773971409E+00
 0.6208625951814E+00
 0.7412194524822E+00
 0.8507074011051E+00
 0.9477658565532E+00
 0.1031741176668E+01
 0.1103203410098E+01
 0.1163152307848E+01
 0.1212656447421E+01
 0.1252788803501E+01
 0.1284566927042E+01
 0.1308913847512E+01
 0.1326563488770E+01
 0.1338087934594E+01
 0.1344042198227E+01
 0.1345300677705E+01
 0.1342394526746E+01
 0.1338270688587E+01
 0.1338670507760E+01
 0.3747491498497E+00
 0.5080138487018E+00
 0.6383336029503E+00
 0.7593232784701E+00
 0.8674082390174E+00
 0.9608171272207E+00
 0.1039089347683E+01
 0.1103323245204E+01
 0.1155061784245E+01
 0.1195763249895E+01
 0.1226766665351E+01
 0.1249285929852E+01
 0.1264424496078E+01
 0.1273109220122E+01
 0.1276205269704E+01
 0.1274791565128E+01
 0.1270429199317E+01
 0.1263646582183E+01
 0.1256948396421E+01
 0.1244510215124E+01
 0.3883421659049E+00
 0.5246420538485E+00
 0.6570304266732E+00
 0.7781253134817E+00
 0.8838650717180E+00
 0.9724348862784E+00
 0.1043724860113E+01
 0.1099424984694E+01
 0.1141729260226E+01
 0.1172590232834E+01
 0.1193672617715E+01
 0.1206432351125E+01
 0.1212187753320E+01
 0.1212066681998E+01
 0.1207156253243E+01
 0.1198681211143E+01
 0.1187857940016E+01
 0.1174207140299E+01
 0.1157814751285E+01
 0.1138264773748E+01
 0.4029172594346E+00
 0.5427794008278E+00
 0.6772023185132E+00
 0.7977682176866E+00
 0.9000484042989E+00
 0.9823788982233E+00
 0.1045188729286E+01
 0.1090940971808E+01
 0.1122623229132E+01
 0.1142754056409E+01
 0.1153345119159E+01
 0.1156082972669E+01
 0.1152446683640E+01
 0.1143635898453E+01
 0.1130705285771E+01
 0.1114618579212E+01
 0.1095903489015E+01
 0.1073098287174E+01
 0.1048099267894E+01
 0.1026466400652E+01
 0.4187236566071E+00
 0.5628282211250E+00
 0.6991529622898E+00
 0.8183458282702E+00
 0.9157897289354E+00
 0.9902198175689E+00
 0.1042865382800E+01
 0.1077201374288E+01
 0.1097160517309E+01
 0.1105857372555E+01
 0.1105613196786E+01
 0.1098270691881E+01
 0.1085351807680E+01
 0.1067960291761E+01
 0.1046926244898E+01
 0.1022843779690E+01
 0.9956372164029E+00
 0.9640488961537E+00
 0.9327201524640E+00
 0.9104756272750E+00
 0.4360628966828E+00
 0.5852521514586E+00
 0.7231981520332E+00
 0.8398751790853E+00
 0.9307624015150E+00
 0.9953378104098E+00
 0.1035970053358E+01
 0.1057429970624E+01
 0.1064721374378E+01
 0.1061520266040E+01
 0.1050358053753E+01
 0.1033112467331E+01
 0.1011212016140E+01
 0.9855322087102E+00
 0.9566073084755E+00
 0.9247112361998E+00
 0.8894599374576E+00
 0.8503624708683E+00
 0.8144092770872E+00
 0.7921693418219E+00
 0.4553058534653E+00
 0.6105846667847E+00
 0.7496407551339E+00
 0.8622593707401E+00
 0.9444489920485E+00
 0.9969007452014E+00
 0.1023548685485E+01
 0.1030766981454E+01
 0.1024693587755E+01
 0.1009444793986E+01
 0.9876020432578E+00
 0.9609287877973E+00
 0.9306311264333E+00
 0.8972725850410E+00
 0.8610890416107E+00
 0.8221364166527E+00
 0.7798960528177E+00
 0.7348106824240E+00
 0.6956699162134E+00
 0.6738178407962E+00
 0.4769116339875E+00
 0.6394369901353E+00
 0.7787470461262E+00
 0.8852419815599E+00
 0.9560958883020E+00
 0.9938417170499E+00
 0.1004491426077E+01
 0.9963167238786E+00
 0.9765419082914E+00
 0.9494948800218E+00
 0.9175897527790E+00
 0.8823110232991E+00
 0.8445297408459E+00
 0.8044500782817E+00
 0.7620384521083E+00
 0.7172135973250E+00
 0.6693932553968E+00
 0.6199773740986E+00
 0.5790365400308E+00
 0.5580002824191E+00
 0.5014512175556E+00
 0.6725073411219E+00
 0.8107140006758E+00
 0.9083469601807E+00
 0.9646585650875E+00
 0.9848424010952E+00
 0.9775682125488E+00
 0.9532227363621E+00
 0.9198975915615E+00
 0.8817786790218E+00
 0.8408464123965E+00
 0.7981394947786E+00
 0.7541041832573E+00
 0.7085691429276E+00
 0.6612742730125E+00
 0.6120603948960E+00
 0.5603068318780E+00
 0.5083481776951E+00
 0.4670898376151E+00
 0.4474384072558E+00
 0.5296391418619E+00
 0.7105904470536E+00
 0.8456202298576E+00
 0.9307968944517E+00
 0.9687383170401E+00
 0.9683317912569E+00
 0.9414973350146E+00
 0.9007748530737E+00
 0.8546631769330E+00
 0.8067231772993E+00
 0.7582077566914E+00
 0.7095627801701E+00
 0.6607565007837E+00
 0.6112606066906E+00
 0.5606464859281E+00
 0.5087289158312E+00
 0.4548650143947E+00
 0.4022912417957E+00
 0.3623504114244E+00
 0.3448477499045E+00
 0.5623774324344E+00
 0.7545856102347E+00
 0.8833493415413E+00
 0.9514000893138E+00
 0.9665136146314E+00
 0.9425156246531E+00
 0.8950621086523E+00
 0.8385514547469E+00
 0.7811233589087E+00
 0.7251276085042E+00
 0.6708139156723E+00
 0.6179428687953E+00
 0.5660064156830E+00
 0.5141783975770E+00
 0.4619375921001E+00
 0.4091268529554E+00
 0.3551076623345E+00
 0.3039738370798E+00
 0.2671409052320E+00
 0.2527784940659E+00
 0.6008183700667E+00
 0.8054990208166E+00
 0.9234664052695E+00
 0.9683932031216E+00
 0.9556760745975E+00
 0.9054627671177E+00
 0.8372940510330E+00
 0.7665926366194E+00
 0.7000416120752E+00
 0.6381747542830E+00
 0.5800574217288E+00
 0.5247682186817E+00
 0.4713916040272E+00
 0.4189012728141E+00
 0.3667739503282E+00
 0.3149392678184E+00
 0.2628045274137E+00
 0.2152530383919E+00
 0.1834349736379E+00
 0.1734407931749E+00
 0.6464571029905E+00
 0.8644299471175E+00
 0.9650123753097E+00
 0.9792225347881E+00
 0.9333971382697E+00
 0.8552918512863E+00
 0.7677375839865E+00
 0.6855798768196E+00
 0.6127038147975E+00
 0.5473741031131E+00
 0.4874807943902E+00
 0.4315442574620E+00
 0.3783672215383E+00
 0.3268446034082E+00
 0.2765475235019E+00
 0.2275526847414E+00
 0.1793664008943E+00
 0.1375589964450E+00
 0.1127025809108E+00
 0.1085115773018E+00
 0.7012731518602E+00
 0.9325152073843E+00
 0.1006150043384E+01
 0.9802474777141E+00
 0.8963876889150E+00
 0.7905225312043E+00
 0.6867872836549E+00
 0.5969567447469E+00
 0.5208524791925E+00
 0.4544209070414E+00
 0.3946394322824E+00
 0.3396838431695E+00
 0.2882199819758E+00
 0.2391887663917E+00
 0.1923504297817E+00
 0.1479866112390E+00
 0.1057608350985E+00
 0.7178783130228E-01
 0.5576526377576E-01
 0.5892736644508E-01
 0.7679554827633E+00
 0.1010766601689E+01
 0.1043530167154E+01
 0.9663712849150E+00
 0.8411896515987E+00
 0.7106661919588E+00
 0.5960101951681E+00
 0.5028673170829E+00
 0.4264632377930E+00
 0.3610003635427E+00
 0.3029734492698E+00
 0.2504252462164E+00
 0.2020069993986E+00
 0.1568253403803E+00
 0.1149227272513E+00
 0.7683873234298E-01
 0.4245553693314E-01
 0.1830780417700E-01
 0.1280796243224E-01
 0.2467778571132E-01
 0.8502756961314E+00
 0.1099617941185E+01
 0.1071114354089E+01
 0.9306984275652E+00
 0.7650020427677E+00
 0.6170495240858E+00
 0.4981975926403E+00
 0.4057509816556E+00
 0.3314259765390E+00
 0.2686276738651E+00
 0.2137368597003E+00
 0.1647895261411E+00
 0.1205150077177E+00
 0.8031517413123E-01
 0.4461465330790E-01
 0.1429572000852E-01
 0.1102522636525E-01
 0.2399983827473E-01
 0.1796753016706E-01
 0.4651816982754E-02
 0.9537500792344E+00
 0.1197644728115E+01
 0.1077871003204E+01
 0.8647584656739E+00
 0.6675373096727E+00
 0.5135261089886E+00
 0.3965518935216E+00
 0.3077565612178E+00
 0.2373356621518E+00
 0.1786102483620E+00
 0.1279944051855E+00
 0.8355783564740E-01
 0.4422302165839E-01
 0.9856212465832E-02
 0.1868297447538E-01
 0.4023169117654E-01
 0.5453199257037E-01
 0.5522367675935E-01
 0.3695893328295E-01
 0.3678776540737E-02
 0.1086736171089E+01
 0.1297286233428E+01
 0.1043587923199E+01
 0.7609537337875E+00
 0.5547738634157E+00
 0.4048593810212E+00
 0.2934791164666E+00
 0.2104724213118E+00
 0.1455329750593E+00
 0.9213891341546E-01
 0.4663129664296E-01
 0.7248309487339E-02
 0.2674027815510E-01
 0.5475393035813E-01
 0.7539333425888E-01
 0.8725677849105E-01
 0.8989094944702E-01
 0.7755198237983E-01
 0.4728583909779E-01
 0.3709744407945E-02
 0.1263258853486E+01
 0.1370562731451E+01
 0.9294219998997E+00
 0.6291463376026E+00
 0.4357972642351E+00
 0.2938375711733E+00
 0.1903331171032E+00
 0.1150698662435E+00
 0.5743073492464E-01
 0.1041298874299E-01
 0.2977593165354E-01
 0.6410157303070E-01
 0.9260465459868E-01
 0.1140532731712E+00
 0.1265366979852E+00
 0.1281832419356E+00
 0.1185141768018E+00
 0.9273236027237E-01
 0.5155568753659E-01
 0.3753506911246E-02
 0.1486035693020E+01
 0.1249248833054E+01
 0.7457012447026E+00
 0.4920228346421E+00
 0.3142185352553E+00
 0.1818847340477E+00
 0.8719103258270E-01
 0.2324120260407E-01
 0.2518599096141E-01
 0.6580875184574E-01
 0.1009975000879E+00
 0.1307341457057E+00
 0.1539587544812E+00
 0.1687792530920E+00
 0.1734102967458E+00
 0.1653672941788E+00
 0.1416681149780E+00
 0.1017936461429E+00
 0.5222713496488E-01
 0.8864189269586E-02
 0.1357597647751E+01
 0.1260597470226E+01
 0.1159788851654E+01
 0.1052587335812E+01
 0.9393082293182E+00
 0.8222404263461E+00
 0.7039266873412E+00
 0.5871473035399E+00
 0.4748310826483E+00
 0.3699690414220E+00
 0.2754803468981E+00
 0.1940352602672E+00
 0.1278332200672E+00
 0.7833771453118E-01
 0.4598066279551E-01
 0.2990157975607E-01
 0.2779590176736E-01
 0.3568652266946E-01
 0.4845690922532E-01
 0.6092937699740E-01
 0.1409529193618E+01
 0.1329254522310E+01
 0.1231252433893E+01
 0.1126003046757E+01
 0.1014679836297E+01
 0.8985324050910E+00
 0.7795793170951E+00
 0.6603248144420E+00
 0.5436360335657E+00
 0.4326304208669E+00
 0.3305523445907E+00
 0.2406074893526E+00
 0.1657401773371E+00
 0.1083422082421E+00
 0.6989225752070E-01
 0.5056181987133E-01
 0.4878804970915E-01
 0.6071918604676E-01
 0.8033152446611E-01
 0.1016690140939E+00
 0.1461072801427E+01
 0.1390773274329E+01
 0.1303125893535E+01
 0.1203741836117E+01
 0.1096602167294E+01
 0.9834130059810E+00
 0.8658964727009E+00
 0.7462033609880E+00
 0.6269357458621E+00
 0.5110990386629E+00
 0.4020215298702E+00
 0.3032341742373E+00
 0.2182886757647E+00
 0.1504907839723E+00
 0.1025285076857E+00
 0.7599064116458E-01
 0.7073372032119E-01
 0.8388702945213E-01
 0.1091711871011E+00
 0.1380561771145E+00
 0.1514384374873E+01
 0.1451597287879E+01
 0.1373687962106E+01
 0.1283143646086E+01
 0.1182917203907E+01
 0.1075158236851E+01
 0.9615625475470E+00
 0.8439870473670E+00
 0.7246695013528E+00
 0.6062918458164E+00
 0.4919805133920E+00
 0.3852634447390E+00
 0.2899732356484E+00
 0.2100700253333E+00
 0.1493481762515E+00
 0.1109857305155E+00
 0.9684956012558E-01
 0.1062448669944E+00
 0.1339538454420E+00
 0.1692279739649E+00
 0.1568366665471E+01
 0.1512368582675E+01
 0.1443646749335E+01
 0.1362745276014E+01
 0.1271466876519E+01
 0.1171535989930E+01
 0.1064513671487E+01
 0.9519917646935E+00
 0.8358188351769E+00
 0.7182259000267E+00
 0.6018925078578E+00
 0.4899769122670E+00
 0.3861128847899E+00
 0.2943585850357E+00
 0.2190672023014E+00
 0.1646302539221E+00
 0.1349978347157E+00
 0.1326583348528E+00
 0.1562036701754E+00
 0.1959054634425E+00
 0.1622180004014E+01
 0.1572691304717E+01
 0.1512646271166E+01
 0.1441527159091E+01
 0.1360172067436E+01
 0.1269752108479E+01
 0.1171494303911E+01
 0.1066705052310E+01
 0.9568753597554E+00
 0.8437899817051E+00
 0.7296086411798E+00
 0.6169251722071E+00
 0.5088105185086E+00
 0.4088393137671E+00
 0.3210922007108E+00
 0.2501168316283E+00
 0.2008092571588E+00
 0.1780750138046E+00
 0.1856384791764E+00
 0.2210778216161E+00
 0.1675111117763E+01
 0.1632042724390E+01
 0.1580237754255E+01
 0.1518686495095E+01
 0.1447563638022E+01
 0.1367529833987E+01
 0.1279451123955E+01
 0.1184335537108E+01
 0.1083367431489E+01
 0.9779714530926E+00
 0.8698779909300E+00
 0.7611787939290E+00
 0.6543718658895E+00
 0.5523965923164E+00
 0.4586603304891E+00
 0.3770603349474E+00
 0.3120147857399E+00
 0.2685345673642E+00
 0.2523927960621E+00
 0.2695269161623E+00
 0.1726519074305E+01
 0.1689830328156E+01
 0.1645878044419E+01
 0.1593511799257E+01
 0.1532501981997E+01
 0.1463115837382E+01
 0.1385892274434E+01
 0.1301560259680E+01
 0.1211036656124E+01
 0.1115462493139E+01
 0.1016253451839E+01
 0.9151526068203E+00
 0.8142795429740E+00
 0.7161732827374E+00
 0.6238281665220E+00
 0.5407258326515E+00
 0.4708814334677E+00
 0.4189766957537E+00
 0.3908557698238E+00
 0.3961734087095E+00
 0.1775844001494E+01
 0.1745479523579E+01
 0.1709023031912E+01
 0.1665377900275E+01
 0.1614106871786E+01
 0.1555204519166E+01
 0.1488943089950E+01
 0.1415801302764E+01
 0.1336450917251E+01
 0.1251778318225E+01
 0.1162926272857E+01
 0.1071346991453E+01
 0.9788619970957E+00
 0.8877268771066E+00
 0.8007007455850E+00
 0.7211225707473E+00
 0.6530024564484E+00
 0.6011580572309E+00
 0.5714994148183E+00
 0.5720496070820E+00
 0.1822606439344E+01
 0.1798470841004E+01
 0.1769170209270E+01
 0.1733754085794E+01
 0.1691711268070E+01
 0.1642867570063E+01
 0.1587294513461E+01
 0.1525258829050E+01
 0.1457208860967E+01
 0.1383788275804E+01
 0.1305869160707E+01
 0.1224599521277E+01
 0.1141462654380E+01
 0.1058347719920E+01
 0.9776319075665E+00
 0.9022745531262E+00
 0.8359213260598E+00
 0.7830013893537E+00
 0.7487492960642E+00
 0.7384064280563E+00
 0.1866404832815E+01
 0.1848351709528E+01
 0.1825866055365E+01
 0.1798177187344E+01
 0.1764780815057E+01
 0.1725412435701E+01
 0.1680003481700E+01
 0.1628651812443E+01
 0.1571612804330E+01
 0.1509309180131E+01
 0.1442356507468E+01
 0.1371602155563E+01
 0.1298176838367E+01
 0.1223559099710E+01
 0.1149653895191E+01
 0.1078886288335E+01
 0.1014308042762E+01
 0.9597050899851E+00
 0.9196362213998E+00
 0.8993338245244E+00
 0.1906872966557E+01
 0.1894674557300E+01
 0.1878635583772E+01
 0.1858160253062E+01
 0.1832790607405E+01
 0.1802223153744E+01
 0.1766296361971E+01
 0.1724977818271E+01
 0.1678360665199E+01
 0.1626671425956E+01
 0.1570288944586E+01
 0.1509773949983E+01
 0.1445909323163E+01
 0.1379751995506E+01
 0.1312698302567E+01
 0.1246565341571E+01
 0.1183691806051E+01
 0.1127062803744E+01
 0.1080488978044E+01
 0.1048991998828E+01
 0.1943672741865E+01
 0.1936988666417E+01
 0.1926959528069E+01
 0.1913137114650E+01
 0.1895122523378E+01
 0.1872602440844E+01
 0.1845354857736E+01
 0.1813247296138E+01
 0.1776237242319E+01
 0.1734378348170E+01
 0.1687833480739E+01
 0.1636894947302E+01
 0.1582012296695E+01
 0.1523828607433E+01
 0.1463227008430E+01
 0.1401390490024E+01
 0.1339880192902E+01
 0.1280743674969E+01
 0.1226679852280E+01
 0.1181286145548E+01
 0.1976507045760E+01
 0.1974882634084E+01
 0.1970337481474E+01
 0.1962536454087E+01
 0.1951137247217E+01
 0.1935830677408E+01
 0.1916354857589E+01
 0.1892499496295E+01
 0.1864108404119E+01
 0.1831083862677E+01
 0.1793394346342E+01
 0.1751086155402E+01
 0.1704299249227E+01
 0.1653287698565E+01
 0.1598445655670E+01
 0.1540340642004E+01
 0.1479757487603E+01
 0.1417757419317E+01
 0.1355751962913E+01
 0.1295577890382E+01
 0.2005119285684E+01
 0.2008000042437E+01
 0.2008325247899E+01
 0.2005840185285E+01
 0.2000249101491E+01
 0.1991251250719E+01
 0.1978557016810E+01
 0.1961894413918E+01
 0.1941011917034E+01
 0.1915680704472E+01
 0.1885697721377E+01
 0.1850890057844E+01
 0.1811120655333E+01
 0.1766295128091E+01
 0.1716369439771E+01
 0.1661358320126E+01
 0.1601344610525E+01
 0.1536489372822E+01
 0.1467039232554E+01
 0.1393318745708E+01
 0.2029291625749E+01
 0.2036041087774E+01
 0.2040544690267E+01
 0.2042601587728E+01
 0.2041950247382E+01
 0.2038297406577E+01
 0.2031332553566E+01
 0.2020734081360E+01
 0.2006171182557E+01
 0.1987303828737E+01
 0.1963781990390E+01
 0.1935244469234E+01
 0.1901317165932E+01
 0.1861610154787E+01
 0.1815712479923E+01
 0.1763183070515E+01
 0.1703535608251E+01
 0.1636215705845E+01
 0.1560572227651E+01
 0.1475825303906E+01
 0.2048843735282E+01
 0.2058760649941E+01
 0.2066684819189E+01
 0.2072449837839E+01
 0.2075817061494E+01
 0.2076497797570E+01
 0.2074164789882E+01
 0.2068456737226E+01
 0.2058978595302E+01
 0.2045299394719E+01
 0.2026948508038E+01
 0.2003410701554E+01
 0.1974119826768E+01
 0.1938450539001E+01
 0.1895706864381E+01
 0.1845105630610E+01
 0.1785751724314E+01
 0.1716600701086E+01
 0.1636407308398E+01
 0.1543677359819E+01
 0.2063632157666E+01
 0.2075965928376E+01
 0.2086500479461E+01
 0.2095090592997E+01
 0.2101511667635E+01
 0.2105476830977E+01
 0.2106645497460E+01
 0.2104625954168E+01
 0.2098973971662E+01
 0.2089188789231E+01
 0.2074707292604E+01
 0.2054896799824E+01
 0.2029046553691E+01
 0.1996357725000E+01
 0.1955931375446E+01
 0.1906753290893E+01
 0.1847673504018E+01
 0.1777376182904E+01
 0.1694326621991E+01
 0.1596682329652E+01
 0.2073549958912E+01
 0.2087514332862E+01
 0.2099810308103E+01
 0.2110305006903E+01
 0.2118781629552E+01
 0.2124953511523E+01
 0.2128470551001E+01
 0.2128920214224E+01
 0.2125824784787E+01
 0.2118636019458E+01
 0.2106728004919E+01
 0.2089388768029E+01
 0.2065811057956E+01
 0.2035082674035E+01
 0.1996176747454E+01
 0.1947942466783E+01
 0.1889096810787E+01
 0.1818217108400E+01
 0.1733732110551E+01
 0.1633859010316E+01
 0.2078526431759E+01
 0.2093311888724E+01
 0.2106494842842E+01
 0.2117948289882E+01
 0.2127458880464E+01
 0.2134739728960E+01
 0.2139435751924E+01
 0.2141123806331E+01
 0.2139309186262E+01
 0.2133419575886E+01
 0.2122797263016E+01
 0.2106690266699E+01
 0.2084243016702E+01
 0.2054487356644E+01
 0.2016334972592E+01
 0.1968572991438E+01
 0.1909865712595E+01
 0.1838768169050E+01
 0.1753763702194E+01
 0.1653375307545E+01
 0.2078526431778E+01
 0.2093311888760E+01
 0.2106494842897E+01
 0.2117948289959E+01
 0.2127458880567E+01
 0.2134739729090E+01
 0.2139435752084E+01
 0.2141123806524E+01
 0.2139309186491E+01
 0.2133419576152E+01
 0.2122797263320E+01
 0.2106690267041E+01
 0.2084243017081E+01
 0.2054487357057E+01
 0.2016334973034E+01
 0.1968572991902E+01
 0.1909865713073E+01
 0.1838768169532E+01
 0.1753763702672E+01
 0.1653375308019E+01
 0.2073549958969E+01
 0.2087514332970E+01
 0.2099810308268E+01
 0.2110305007135E+01
 0.2118781629857E+01
 0.2124953511911E+01
 0.2128470551480E+01
 0.2128920214802E+01
 0.2125824785471E+01
 0.2118636020253E+01
 0.2106728005828E+01
 0.2089388769053E+01
 0.2065811059090E+01
 0.2035082675271E+01
 0.1996176748777E+01
 0.1947942468173E+01
 0.1889096812217E+01
 0.1818217109838E+01
 0.1733732111964E+01
 0.1633859011683E+01
 0.2063632157761E+01
 0.2075965928555E+01
 0.2086500479735E+01
 0.2095090593380E+01
 0.2101511668141E+01
 0.2105476831618E+01
 0.2106645498252E+01
 0.2104625955124E+01
 0.2098973972794E+01
 0.2089188790548E+01
 0.2074707294111E+01
 0.2054896801522E+01
 0.2029046555573E+01
 0.1996357727052E+01
 0.1955931377644E+01
 0.1906753293201E+01
 0.1847673506389E+01
 0.1777376185277E+01
 0.1694326624295E+01
 0.1596682331805E+01
 0.2048843735414E+01
 0.2058760650189E+01
 0.2066684819569E+01
 0.2072449838369E+01
 0.2075817062193E+01
 0.2076497798458E+01
 0.2074164790979E+01
 0.2068456738551E+01
 0.2058978596871E+01
 0.2045299396545E+01
 0.2026948510130E+01
 0.2003410703913E+01
 0.1974119829384E+01
 0.1938450541856E+01
 0.1895706867441E+01
 0.1845105633825E+01
 0.1785751727612E+01
 0.1716600704373E+01
 0.1636407311550E+01
 0.1543677362681E+01
 0.2029291625918E+01
 0.2036041088088E+01
 0.2040544690748E+01
 0.2042601588398E+01
 0.2041950248266E+01
 0.2038297407700E+01
 0.2031332554955E+01
 0.2020734083038E+01
 0.2006171184547E+01
 0.1987303831056E+01
 0.1963781993048E+01
 0.1935244472234E+01
 0.1901317169264E+01
 0.1861610158428E+01
 0.1815712483829E+01
 0.1763183074620E+01
 0.1703535612461E+01
 0.1636215710029E+01
 0.1560572231631E+01
 0.1475825307452E+01
 0.2005119285889E+01
 0.2008000042816E+01
 0.2008325248477E+01
 0.2005840186089E+01
 0.2000249102552E+01
 0.1991251252067E+01
 0.1978557018478E+01
 0.1961894415935E+01
 0.1941011919427E+01
 0.1915680707262E+01
 0.1885697724578E+01
 0.1850890061459E+01
 0.1811120659353E+01
 0.1766295132486E+01
 0.1716369444491E+01
 0.1661358325091E+01
 0.1601344615618E+01
 0.1536489377878E+01
 0.1467039237345E+01
 0.1393318749931E+01
 0.1976507045999E+01
 0.1974882634522E+01
 0.1970337482140E+01
 0.1962536455013E+01
 0.1951137248440E+01
 0.1935830678963E+01
 0.1916354859515E+01
 0.1892499498625E+01
 0.1864108406886E+01
 0.1831083865906E+01
 0.1793394350048E+01
 0.1751086159590E+01
 0.1704299253886E+01
 0.1653287703664E+01
 0.1598445661150E+01
 0.1540340647777E+01
 0.1479757493536E+01
 0.1417757425221E+01
 0.1355751968530E+01
 0.1295577895354E+01
 0.1943672742137E+01
 0.1936988666911E+01
 0.1926959528817E+01
 0.1913137115690E+01
 0.1895122524751E+01
 0.1872602442592E+01
 0.1845354859902E+01
 0.1813247298761E+01
 0.1776237245434E+01
 0.1734378351804E+01
 0.1687833484910E+01
 0.1636894952014E+01
 0.1582012301935E+01
 0.1523828613166E+01
 0.1463227014594E+01
 0.1401390496521E+01
 0.1339880199592E+01
 0.1280743681653E+01
 0.1226679858690E+01
 0.1181286151320E+01
 0.1906872966858E+01
 0.1894674557842E+01
 0.1878635584590E+01
 0.1858160254198E+01
 0.1832790608908E+01
 0.1802223155660E+01
 0.1766296364346E+01
 0.1724977821148E+01
 0.1678360668616E+01
 0.1626671429940E+01
 0.1570288949154E+01
 0.1509773955137E+01
 0.1445909328889E+01
 0.1379752001766E+01
 0.1312698309295E+01
 0.1246565348667E+01
 0.1183691813375E+01
 0.1127062811108E+01
 0.1080488985209E+01
 0.1048992005505E+01
 0.1866404833144E+01
 0.1848351710111E+01
 0.1825866056245E+01
 0.1798177188567E+01
 0.1764780816676E+01
 0.1725412437768E+01
 0.1680003484264E+01
 0.1628651815548E+01
 0.1571612808014E+01
 0.1509309184419E+01
 0.1442356512374E+01
 0.1371602161087E+01
 0.1298176844487E+01
 0.1223559106385E+01
 0.1149653902350E+01
 0.1078886295878E+01
 0.1014308050555E+01
 0.9597050978558E+00
 0.9196362291470E+00
 0.8993338319660E+00
 0.1822606439697E+01
 0.1798470841623E+01
 0.1769170210203E+01
 0.1733754087095E+01
 0.1691711269796E+01
 0.1642867572269E+01
 0.1587294516197E+01
 0.1525258832358E+01
 0.1457208864881E+01
 0.1383788280346E+01
 0.1305869165885E+01
 0.1224599527081E+01
 0.1141462660783E+01
 0.1058347726870E+01
 0.9776319149909E+00
 0.9022745609263E+00
 0.8359213341127E+00
 0.7830013975142E+00
 0.7487493041619E+00
 0.7384064358891E+00
 0.1775844001868E+01
 0.1745479524230E+01
 0.1709023032894E+01
 0.1665377901649E+01
 0.1614106873612E+01
 0.1555204521499E+01
 0.1488943092837E+01
 0.1415801306243E+01
 0.1336450921350E+01
 0.1251778322958E+01
 0.1162926278221E+01
 0.1071346997430E+01
 0.9788620036473E+00
 0.8877268841770E+00
 0.8007007531008E+00
 0.7211225786219E+00
 0.6530024645888E+00
 0.6011580655448E+00
 0.5714994232111E+00
 0.5720496153276E+00
 0.1726519074696E+01
 0.1689830328834E+01
 0.1645878045447E+01
 0.1593511800699E+01
 0.1532501983916E+01
 0.1463115839827E+01
 0.1385892277448E+01
 0.1301560263292E+01
 0.1211036660349E+01
 0.1115462497980E+01
 0.1016253457278E+01
 0.9151526128239E+00
 0.8142795494886E+00
 0.7161732896923E+00
 0.6238281738321E+00
 0.5407258402234E+00
 0.4708814412093E+00
 0.4189767035878E+00
 0.3908557777009E+00
 0.3961734166592E+00
 0.1675111118163E+01
 0.1632042725089E+01
 0.1580237755323E+01
 0.1518686496599E+01
 0.1447563640018E+01
 0.1367529836518E+01
 0.1279451127052E+01
 0.1184335540785E+01
 0.1083367435745E+01
 0.9779714579080E+00
 0.8698779962633E+00
 0.7611787997150E+00
 0.6543718720369E+00
 0.5523965987067E+00
 0.4586603369755E+00
 0.3770603413551E+00
 0.3120147918693E+00
 0.2685345730011E+00
 0.2523928010256E+00
 0.2695269205536E+00
 0.1622180004418E+01
 0.1572691305431E+01
 0.1512646272267E+01
 0.1441527160643E+01
 0.1360172069483E+01
 0.1269752111051E+01
 0.1171494307020E+01
 0.1066705055950E+01
 0.9568753639009E+00
 0.8437899863058E+00
 0.7296086461580E+00
 0.6169251774541E+00
 0.5088105238822E+00
 0.4088393190911E+00
 0.3210922057776E+00
 0.2501168362071E+00
 0.2008092610161E+00
 0.1780750167513E+00
 0.1856384811818E+00
 0.2210778230474E+00
 0.1568366665868E+01
 0.1512368583396E+01
 0.1443646750458E+01
 0.1362745277590E+01
 0.1271466878575E+01
 0.1171535992475E+01
 0.1064513674510E+01
 0.9519917681656E+00
 0.8358188390429E+00
 0.7182259042047E+00
 0.6018925122364E+00
 0.4899769167055E+00
 0.3861128891212E+00
 0.2943585890754E+00
 0.2190672058640E+00
 0.1646302568498E+00
 0.1349978369229E+00
 0.1326583363978E+00
 0.1562036713611E+00
 0.1959054647940E+00
 0.1514384375256E+01
 0.1451597288601E+01
 0.1373687963235E+01
 0.1283143647652E+01
 0.1182917205912E+01
 0.1075158239280E+01
 0.9615625503687E+00
 0.8439870505279E+00
 0.7246695047752E+00
 0.6062918493980E+00
 0.4919805170082E+00
 0.3852634482489E+00
 0.2899732389057E+00
 0.2100700282032E+00
 0.1493481786344E+00
 0.1109857323766E+00
 0.9684956152940E-01
 0.1062448681373E+00
 0.1339538466387E+00
 0.1692279754960E+00
 0.1461072801788E+01
 0.1390773275040E+01
 0.1303125894645E+01
 0.1203741837620E+01
 0.1096602169171E+01
 0.9834130081981E+00
 0.8658964752107E+00
 0.7462033637228E+00
 0.6269357487345E+00
 0.5110990415697E+00
 0.4020215326986E+00
 0.3032341768754E+00
 0.2182886781151E+00
 0.1504907859694E+00
 0.1025285093144E+00
 0.7599064247806E-01
 0.7073372145169E-01
 0.8388703060312E-01
 0.1091711884884E+00
 0.1380561788533E+00
 0.1409529193960E+01
 0.1329254523015E+01
 0.1231252434958E+01
 0.1126003048143E+01
 0.1014679837976E+01
 0.8985324070221E+00
 0.7795793192212E+00
 0.6603248166912E+00
 0.5436360358546E+00
 0.4326304231071E+00
 0.3305523466969E+00
 0.2406074912538E+00
 0.1657401789882E+00
 0.1083422096365E+00
 0.6989225870065E-01
 0.5056182093307E-01
 0.4878805079529E-01
 0.6071918731858E-01
 0.8033152604607E-01
 0.1016690159950E+00
 0.1357597648108E+01
 0.1260597470913E+01
 0.1159788852606E+01
 0.1052587337008E+01
 0.9393082307226E+00
 0.8222404279108E+00
 0.7039266890073E+00
 0.5871473052418E+00
 0.4748310843191E+00
 0.3699690430001E+00
 0.2754803483349E+00
 0.1940352615354E+00
 0.1278332211684E+00
 0.7833771550186E-01
 0.4598066370898E-01
 0.2990158071836E-01
 0.2779590289812E-01
 0.3568652406914E-01
 0.4845691093817E-01
 0.6092937896088E-01
</DataArray>
<DataArray type="Float64" Name="OI" NumberOfComponents="1" ComponentName0="OI" format="ascii">
 0.1906051123018E+01
 0.1673465977146E+01
 0.1504582090917E+01
 0.1445668841746E+01
 0.1408967611022E+01
 0.1390118754211E+01
 0.1380903323820E+01
 0.1378432761706E+01
 0.1380731164661E+01
 0.1386697876111E+01
 0.1395654111041E+01
 0.1407215064568E+01
 0.1421193546259E+01
 0.1437550983305E+01
 0.1456367196774E+01
 0.1477823654913E+01
 0.1502195608845E+01
 0.1529851199604E+01
 0.1561260266915E+01
 0.1597015040740E+01
 0.1637874727548E+01
 0.1684872965846E+01
 0.1739583971417E+01
 0.1804247608334E+01
 0.1879700055678E+01
 0.1964220156703E+01
 0.2055435080740E+01
 0.2151717364912E+01
 0.2252563890032E+01
 0.2358387763115E+01
 0.2470040811129E+01
 0.2588237914139E+01
 0.2712842609766E+01
 0.2845128822597E+01
 0.2992605591437E+01
 0.3165554245129E+01
 0.3388131153987E+01
 0.3651437676595E+01
 0.4205726690857E+01
 0.4183322422856E+01
 0.8026391570840E+01
 0.1631342871801E+01
 0.1670660422071E+01
 0.1545862451245E+01
 0.1473058953557E+01
 0.1434956048896E+01
 0.1412122272942E+01
 0.1400151864166E+01
 0.1395263832374E+01
 0.1395558860066E+01
 0.1399810494736E+01
 0.1407280769874E+01
 0.1417527613289E+01
 0.1430318355413E+01
 0.1445574074541E+01
 0.1463337566869E+01
 0.1483754332463E+01
 0.1507062947788E+01
 0.1533592453740E+01
 0.1563768424938E+01
 0.1598129331236E+01
 0.1637361308580E+01
 0.1682363639076E+01
 0.1734207762758E+01
 0.1793788540043E+01
 0.1861233622875E+01
 0.1935670354968E+01
 0.2015716787854E+01
 0.2100165540466E+01
 0.2188312518091E+01
 0.2279897223921E+01
 0.2374804279511E+01
 0.2472821350965E+01
 0.2573895765187E+01
 0.2678967621928E+01
 0.2789888913154E+01
 0.2910890492156E+01
 0.3037074543296E+01
 0.3187400231673E+01
 0.3245629624663E+01
 0.2794599915273E+01
 0.5238738425006E+01
 0.1486615898990E+01
 0.1593953052066E+01
 0.1554285876670E+01
 0.1490926035102E+01
 0.1453251450508E+01
 0.1429879938077E+01
 0.1416354102825E+01
 0.1409917664790E+01
 0.1408698086590E+01
 0.1411543826815E+01
 0.1417709079026E+01
 0.1426736584822E+01
 0.1438369451980E+01
 0.1452501711534E+01
 0.1469146532284E+01
 0.1488417013702E+01
 0.1510515395529E+01
 0.1535728322515E+01
 0.1564428934211E+01
 0.1597085028524E+01
 0.1634273858814E+01
 0.1676662795772E+01
 0.1724815596278E+01
 0.1778938866110E+01
 0.1838849586378E+01
 0.1904012918339E+01
 0.1973585188499E+01
 0.2046619029000E+01
 0.2122257529507E+01
 0.2199735750279E+01
 0.2278245989546E+01
 0.2356952605640E+01
 0.2435251985389E+01
 0.2512355786840E+01
 0.2586531932014E+01
 0.2652538611433E+01
 0.2699606266141E+01
 0.2702460200775E+01
 0.2467960282672E+01
 0.2230481880058E+01
 0.4367680033551E+01
 0.1399310983904E+01
 0.1519778818965E+01
 0.1534873051681E+01
 0.1497367027196E+01
 0.1464763534298E+01
 0.1443039502320E+01
 0.1429451040531E+01
 0.1422272411741E+01
 0.1420064681420E+01
 0.1421827287516E+01
 0.1426885653235E+01
 0.1434802756042E+01
 0.1445320979980E+01
 0.1458320808429E+01
 0.1473793841776E+01
 0.1491824880655E+01
 0.1512580735124E+01
 0.1536303263118E+01
 0.1563306416198E+01
 0.1593973919170E+01
 0.1628745097495E+01
 0.1668031246663E+01
 0.1712012279878E+01
 0.1760526024478E+01
 0.1813235343589E+01
 0.1869735954627E+01
 0.1929442478467E+01
 0.1991542071278E+01
 0.2055055062941E+01
 0.2118853654929E+01
 0.2181643208310E+01
 0.2242050745833E+01
 0.2298598336801E+01
 0.2348859531425E+01
 0.2387766525529E+01
 0.2405253602160E+01
 0.2384188525735E+01
 0.2271927588944E+01
 0.1996521318654E+01
 0.2090610331608E+01
 0.3954021154601E+01
 0.1341996614193E+01
 0.1459068661314E+01
 0.1504395838581E+01
 0.1492816758857E+01
 0.1470041167860E+01
 0.1451797425808E+01
 0.1439425450633E+01
 0.1432304020303E+01
 0.1429614828260E+01
 0.1430622423912E+01
 0.1434778469131E+01
 0.1441703440048E+01
 0.1451160387733E+01
 0.1463029857532E+01
 0.1477290031563E+01
 0.1494001918273E+01
 0.1513298458985E+01
 0.1535375465432E+01
 0.1560483257810E+01
 0.1588912428115E+01
 0.1620953242359E+01
 0.1656786438603E+01
 0.1696324482868E+01
 0.1739201091491E+01
 0.1784993213867E+01
 0.1833331786602E+01
 0.1883734375852E+01
 0.1935438930413E+01
 0.1987368941106E+01
 0.2038148379496E+01
 0.2086137745781E+01
 0.2129482019819E+01
 0.2165886522643E+01
 0.2191571491794E+01
 0.2199454153290E+01
 0.2177672220393E+01
 0.2105398161140E+01
 0.1946205135036E+01
 0.1756284867393E+01
 0.2110690001112E+01
 0.3699338996758E+01
 0.1302081664989E+01
 0.1411077648517E+01
 0.1471756825496E+01
 0.1480857878748E+01
 0.1469697991341E+01
 0.1456548910822E+01
 0.1446397642038E+01
 0.1440049015755E+01
 0.1437351888136E+01
 0.1437919726786E+01
 0.1441377003971E+01
 0.1447432022130E+01
 0.1455888169557E+01
 0.1466638584340E+01
 0.1479656009277E+01
 0.1494982385661E+01
 0.1512719020875E+01
 0.1533015788758E+01
 0.1556057549583E+01
 0.1582038895543E+01
 0.1611107166660E+01
 0.1643255227674E+01
 0.1678215949128E+01
 0.1715508097095E+01
 0.1754655488953E+01
 0.1795280334172E+01
 0.1836923035091E+01
 0.1878826912956E+01
 0.1919846306907E+01
 0.1958449213396E+01
 0.1992761489856E+01
 0.2020558063078E+01
 0.2038945153051E+01
 0.2043346277025E+01
 0.2026134254321E+01
 0.1975787684230E+01
 0.1876275001536E+01
 0.1725945194729E+01
 0.1660936207640E+01
 0.2172781757333E+01
 0.3518496337098E+01
 0.1273032908677E+01
 0.1373236739297E+01
 0.1440807092905E+01
 0.1464853596522E+01
 0.1464882624364E+01
 0.1457756917219E+01
 0.1450597141811E+01
 0.1445603621743E+01
 0.1443319087782E+01
 0.1443737754301E+01
 0.1446690836208E+01
 0.1451997357811E+01
 0.1459517301154E+01
 0.1469167440668E+01
 0.1480922487413E+01
 0.1494810118480E+01
 0.1510902893440E+01
 0.1529306294596E+01
 0.1550140748787E+01
 0.1573508446911E+01
 0.1599430548547E+01
 0.1627755779193E+01
 0.1658099945794E+01
 0.1689917802958E+01
 0.1722698697882E+01
 0.1756039239974E+01
 0.1789467251693E+01
 0.1822214972740E+01
 0.1853098996797E+01
 0.1880509032321E+01
 0.1902442043863E+01
 0.1916460118430E+01
 0.1919379670011E+01
 0.1906501847246E+01
 0.1870871231163E+01
 0.1803760831533E+01
 0.1700192474465E+01
 0.1591617609139E+01
 0.1647441177550E+01
 0.2235255777554E+01
 0.3380211160197E+01
 0.1251157128677E+01
 0.1343159678649E+01
 0.1412932965764E+01
 0.1447161085997E+01
 0.1456880338557E+01
 0.1455986317016E+01
 0.1452312475097E+01
 0.1449116079478E+01
 0.1447593731866E+01
 0.1448120111031E+01
 0.1450748121735E+01
 0.1455422713265E+01
 0.1462072489227E+01
 0.1470646928081E+01
 0.1481129283025E+01
 0.1493537692296E+01
 0.1507919440058E+01
 0.1524338563332E+01
 0.1542854891531E+01
 0.1563486887540E+01
 0.1586150974543E+01
 0.1610590478644E+01
 0.1636348248528E+01
 0.1662846282039E+01
 0.1689553038506E+01
 0.1716038171262E+01
 0.1741808118403E+01
 0.1766087399621E+01
 0.1787689903325E+01
 0.1804997941933E+01
 0.1815988234163E+01
 0.1818192301573E+01
 0.1808483446038E+01
 0.1782665307543E+01
 0.1735490341037E+01
 0.1663020647687E+01
 0.1573129312642E+01
 0.1520730288272E+01
 0.1675567542853E+01
 0.2286742597241E+01
 0.3270106361890E+01
 0.1234226802618E+01
 0.1318973555348E+01
 0.1388409983164E+01
 0.1429238306830E+01
 0.1446827690143E+01
 0.1451847602657E+01
 0.1451870763045E+01
 0.1450770237026E+01
 0.1450281504603E+01
 0.1451131732412E+01
 0.1453593576871E+01
 0.1457744459934E+01
 0.1463589215964E+01
 0.1471116783407E+01
 0.1480324497702E+01
 0.1491225469214E+01
 0.1503845657747E+01
 0.1518211867260E+01
 0.1534329533545E+01
 0.1552145265858E+01
 0.1571493109539E+01
 0.1592043345951E+01
 0.1613297469090E+01
 0.1634665802806E+01
 0.1655608201644E+01
 0.1675675249753E+01
 0.1694358907710E+01
 0.1710891910156E+01
 0.1724123342826E+01
 0.1732495880765E+01
 0.1734075494610E+01
 0.1726551192295E+01
 0.1707180838233E+01
 0.1672788083265E+01
 0.1620617202605E+01
 0.1552461956874E+01
 0.1487641931076E+01
 0.1493859078280E+01
 0.1721937381202E+01
 0.2326270438506E+01
 0.3180324577679E+01
 0.1220827396500E+01
 0.1299276312191E+01
 0.1367049298148E+01
 0.1411910765276E+01
 0.1435614314397E+01
 0.1445925958116E+01
 0.1449616150185E+01
 0.1450771934242E+01
 0.1451509198202E+01
 0.1452855053243E+01
 0.1455286106543E+01
 0.1459010565825E+01
 0.1464112633606E+01
 0.1470625050831E+01
 0.1478563606176E+01
 0.1487940561737E+01
 0.1498764847760E+01
 0.1511031276293E+01
 0.1524698793728E+01
 0.1539655578483E+01
 0.1555674543984E+01
 0.1572379342221E+01
 0.1589253483604E+01
 0.1605711459088E+01
 0.1621216906640E+01
 0.1635314680725E+01
 0.1647498105931E+01
 0.1657031370651E+01
 0.1662838164456E+01
 0.1663486331302E+01
 0.1657236285548E+01
 0.1642109088069E+01
 0.1616021687333E+01
 0.1577198949284E+01
 0.1525810453769E+01
 0.1469299310699E+01
 0.1435530283864E+01
 0.1495960074148E+01
 0.1774040843271E+01
 0.2355834333607E+01
 0.3105989890938E+01
 0.1210021952877E+01
 0.1283030848231E+01
 0.1348496445774E+01
 0.1395599880089E+01
 0.1423886570266E+01
 0.1438735802996E+01
 0.1445887011519E+01
 0.1449337248824E+01
 0.1451417545217E+01
 0.1453385938961E+01
 0.1455896302180E+01
 0.1459278935333E+01
 0.1463696352145E+01
 0.1469227069158E+01
 0.1475908478850E+01
 0.1483755747224E+01
 0.1492765260689E+01
 0.1502905802321E+01
 0.1514098734694E+01
 0.1526187565328E+01
 0.1538903308569E+01
 0.1551844462659E+01
 0.1564494551846E+01
 0.1576285355397E+01
 0.1586697103736E+01
 0.1595285230504E+01
 0.1601564865751E+01
 0.1604858422716E+01
 0.1604203320582E+01
 0.1598352810092E+01
 0.1585856516864E+01
 0.1565214344641E+01
 0.1535206827213E+01
 0.1495686913131E+01
 0.1449822517185E+01
 0.1409926114667E+01
 0.1409154673318E+01
 0.1516122446265E+01
 0.1825698960423E+01
 0.2377853203700E+01
 0.3043806444173E+01
 0.1201167693073E+01
 0.1269468850924E+01
 0.1332364928888E+01
 0.1380482936002E+01
 0.1412089280915E+01
 0.1430702827830E+01
 0.1440997913012E+01
 0.1446682090734E+01
 0.1450154748971E+01
 0.1452829664889E+01
 0.1455503898555E+01
 0.1458615681041E+01
 0.1462401159005E+01
 0.1466984404819E+01
 0.1472426364638E+01
 0.1478748363709E+01
 0.1485938761469E+01
 0.1493946669898E+01
 0.1502665162937E+01
 0.1511906386479E+01
 0.1521376408149E+01
 0.1530666131053E+01
 0.1539273548337E+01
 0.1546659359830E+01
 0.1552333450973E+01
 0.1555879395267E+01
 0.1556856323859E+01
 0.1554672443143E+01
 0.1548515861429E+01
 0.1537378626326E+01
 0.1520178683948E+01
 0.1496005654747E+01
 0.1464632005360E+01
 0.1427612866752E+01
 0.1390895848673E+01
 0.1370526913041E+01
 0.1401958990187E+01
 0.1546820462936E+01
 0.1874172180891E+01
 0.2394414949459E+01
 0.2991413718266E+01
 0.1193810483197E+01
 0.1258017034888E+01
 0.1318292164524E+01
 0.1366596511915E+01
 0.1400514124786E+01
 0.1422164310986E+01
 0.1435228717144E+01
 0.1443013762809E+01
 0.1447870873242E+01
 0.1451297189226E+01
 0.1454195292139E+01
 0.1457093391465E+01
 0.1460293712388E+01
 0.1463963759483E+01
 0.1468188860596E+01
 0.1472999216990E+01
 0.1478379556945E+01
 0.1484265770086E+01
 0.1490531848698E+01
 0.1496970974978E+01
 0.1503278990911E+01
 0.1509053705837E+01
 0.1513819624896E+01
 0.1517077048719E+01
 0.1518378478670E+01
 0.1517353215929E+01
 0.1513626432615E+01
 0.1506718498108E+01
 0.1496001282164E+01
 0.1480750042339E+01
 0.1460311130273E+01
 0.1434435885919E+01
 0.1403943131991E+01
 0.1372032797045E+01
 0.1347019471935E+01
 0.1347442747292E+01
 0.1408598720203E+01
 0.1583070051095E+01
 0.1918494731420E+01
 0.2407138621036E+01
 0.2947049580003E+01
 0.1187621416545E+01
 0.1248243569872E+01
 0.1305959423215E+01
 0.1353900589004E+01
 0.1389342336251E+01
 0.1413378824225E+01
 0.1428820158559E+01
 0.1438524986161E+01
 0.1444713230606E+01
 0.1448901859141E+01
 0.1452061218544E+01
 0.1454789450523E+01
 0.1457445246807E+01
 0.1460235880341E+01
 0.1463270892955E+01
 0.1466591525351E+01
 0.1470183017638E+01
 0.1473974321141E+01
 0.1477829123299E+01
 0.1481532894047E+01
 0.1484783922457E+01
 0.1487199027021E+01
 0.1488339526204E+01
 0.1487755220455E+01
 0.1485053689169E+01
 0.1479926693921E+01
 0.1472086038464E+01
 0.1461187995259E+01
 0.1446816012648E+01
 0.1428562509183E+01
 0.1406241964868E+01
 0.1380301613015E+01
 0.1352595969922E+01
 0.1327813132128E+01
 0.1316118486876E+01
 0.1337362155873E+01
 0.1424877625200E+01
 0.1621681175591E+01
 0.1958567893247E+01
 0.2417226968449E+01
 0.2909355532774E+01
 0.1182357247510E+01
 0.1239819864954E+01
 0.1295095562082E+01
 0.1342317145220E+01
 0.1378678407391E+01
 0.1404539388219E+01
 0.1421974056260E+01
 0.1433390375559E+01
 0.1440822863846E+01
 0.1445756627111E+01
 0.1449194659666E+01
 0.1451784456346E+01
 0.1453930323802E+01
 0.1455874498123E+01
 0.1457749730827E+01
 0.1459609922558E+01
 0.1461444612317E+01
 0.1463181735678E+01
 0.1464682796677E+01
 0.1465735566334E+01
 0.1466051624809E+01
 0.1465276981716E+01
 0.1463018705757E+01
 0.1458885203082E+01
 0.1452550726545E+01
 0.1443784747346E+01
 0.1432403980626E+01
 0.1418220742249E+01
 0.1401051714279E+01
 0.1380829312591E+01
 0.1357855934006E+01
 0.1333274975224E+01
 0.1309913741156E+01
 0.1293726464972E+01
 0.1296180055951E+01
 0.1337403571336E+01
 0.1447596182879E+01
 0.1660674872609E+01
 0.1994682514813E+01
 0.2425560529138E+01
 0.2877255780475E+01
 0.1177834880508E+01
 0.1232493381295E+01
 0.1285473943526E+01
 0.1331752768035E+01
 0.1368575152180E+01
 0.1395786772689E+01
 0.1414856319353E+01
 0.1427764975611E+01
 0.1436332110916E+01
 0.1441971812407E+01
 0.1445689023934E+01
 0.1448160776055E+01
 0.1449825655507E+01
 0.1450955314833E+01
 0.1451704051559E+01
 0.1452139536240E+01
 0.1452258966700E+01
 0.1451994685113E+01
 0.1451213344432E+01
 0.1449713785632E+01
 0.1447230105373E+01
 0.1443446098700E+01
 0.1438022354604E+01
 0.1430634106696E+01
 0.1421032704107E+01
 0.1409078663779E+01
 0.1394709041099E+01
 0.1377908158546E+01
 0.1358741006577E+01
 0.1337491872053E+01
 0.1314952689607E+01
 0.1292935069923E+01
 0.1275138046190E+01
 0.1268524371030E+01
 0.1285330236451E+01
 0.1345132405852E+01
 0.1474370892132E+01
 0.1698862693948E+01
 0.2027272272588E+01
 0.2432785693153E+01
 0.2849878149063E+01
 0.1173914435393E+01
 0.1226068203184E+01
 0.1276906935505E+01
 0.1322111466845E+01
 0.1359051671979E+01
 0.1387221384609E+01
 0.1407601319693E+01
 0.1421784322238E+01
 0.1431363141789E+01
 0.1437653402247E+01
 0.1441636619244E+01
 0.1444001259977E+01
 0.1445209021006E+01
 0.1445555057110E+01
 0.1445213070154E+01
 0.1444265149731E+01
 0.1442719044991E+01
 0.1440516339572E+01
 0.1437535312002E+01
 0.1433593437972E+01
 0.1428455119963E+01
 0.1421849171994E+01
 0.1413496399263E+01
 0.1403146088521E+01
 0.1390635704178E+01
 0.1375927963884E+01
 0.1359092552870E+01
 0.1340297344278E+01
 0.1319864162179E+01
 0.1298430884807E+01
 0.1277265071524E+01
 0.1258796772935E+01
 0.1247470831239E+01
 0.1250989211196E+01
 0.1281875906869E+01
 0.1358539520513E+01
 0.1503459341699E+01
 0.1735558412323E+01
 0.2056785969671E+01
 0.2439383601946E+01
 0.2826499007573E+01
 0.1170487710296E+01
 0.1220391039827E+01
 0.1269239984793E+01
 0.1313301572356E+01
 0.1350105903217E+01
 0.1378913199262E+01
 0.1400316677014E+01
 0.1415565509778E+01
 0.1426027294450E+01
 0.1432901853071E+01
 0.1437127419703E+01
 0.1439388128289E+01
 0.1440158290164E+01
 0.1439750608389E+01
 0.1438355743527E+01
 0.1436070454013E+01
 0.1432915452108E+01
 0.1428845765152E+01
 0.1423756898794E+01
 0.1417491387421E+01
 0.1409850443819E+01
 0.1400613926628E+01
 0.1389568515719E+01
 0.1376543679425E+01
 0.1361470458032E+01
 0.1344422609673E+01
 0.1325611512404E+01
 0.1305395750311E+01
 0.1284356355488E+01
 0.1263477633589E+01
 0.1244476374837E+01
 0.1230335762027E+01
 0.1226107127440E+01
 0.1239968831745E+01
 0.1284322666802E+01
 0.1375998402980E+01
 0.1533608498520E+01
 0.1770389163492E+01
 0.2083619369108E+01
 0.2445714763727E+01
 0.2806495867780E+01
 0.1167470136685E+01
 0.1215341040607E+01
 0.1262346101856E+01
 0.1305239126165E+01
 0.1341723200685E+01
 0.1370909711633E+01
 0.1393087888572E+01
 0.1409208836053E+01
 0.1420425018588E+01
 0.1427811328411E+01
 0.1432248112288E+01
 0.1434402033910E+01
 0.1434750564079E+01
 0.1433618229517E+01
 0.1431210057531E+01
 0.1427637393598E+01
 0.1422935852555E+01
 0.1417077462419E+01
 0.1409979694493E+01
 0.1401515497586E+01
 0.1391528237559E+01
 0.1379853739667E+01
 0.1366349191229E+01
 0.1350929199043E+01
 0.1333624199334E+01
 0.1314625492170E+01
 0.1294292056716E+01
 0.1273176216461E+01
 0.1252115099419E+01
 0.1232424917426E+01
 0.1216235926155E+01
 0.1207009284787E+01
 0.1210259452562E+01
 0.1234398103860E+01
 0.1291376497440E+01
 0.1396212824312E+01
 0.1563931438564E+01
 0.1803178623348E+01
 0.2108082751412E+01
 0.2452036199855E+01
 0.2789267653825E+01
 0.1164795047461E+01
 0.1210822313707E+01
 0.1256121044059E+01
 0.1297849231122E+01
 0.1333882093457E+01
 0.1363242118626E+01
 0.1385982506308E+01
 0.1402799707233E+01
 0.1414646245361E+01
 0.1422469296225E+01
 0.1427081397099E+01
 0.1429121296258E+01
 0.1429061434420E+01
 0.1427232871638E+01
 0.1423852398824E+01
 0.1419045603880E+01
 0.1412864495624E+01
 0.1405301025529E+01
 0.1396298538340E+01
 0.1385764759030E+01
 0.1373589488181E+01
 0.1359668410471E+01
 0.1343932833742E+01
 0.1326386247755E+01
 0.1307162646809E+01
 0.1286575102831E+01
 0.1265133143127E+01
 0.1243582134345E+01
 0.1223007528458E+01
 0.1205037174721E+01
 0.1192172575032E+01
 0.1188272716989E+01
 0.1199175175305E+01
 0.1233310588450E+01
 0.1301934575743E+01
 0.1418163659472E+01
 0.1593808747092E+01
 0.1833883590850E+01
 0.2130387857736E+01
 0.2458568215962E+01
 0.2773862249757E+01
 0.1162409130313E+01
 0.1206758359418E+01
 0.1250479723565E+01
 0.1291067379111E+01
 0.1326559892104E+01
 0.1355932486201E+01
 0.1379056705474E+01
 0.1396413931554E+01
 0.1408774691866E+01
 0.1416960407447E+01
 0.1421709954702E+01
 0.1423626377893E+01
 0.1423170342649E+01
 0.1420674790492E+01
 0.1416365823566E+01
 0.1410382773117E+01
 0.1402795151619E+01
 0.1393617167256E+01
 0.1382821157973E+01
 0.1370353038066E+01
 0.1356152287932E+01
 0.1340177274814E+01
 0.1322435887127E+01
 0.1303022827056E+01
 0.1282177934736E+01
 0.1260337821807E+01
 0.1238162406909E+01
 0.1216585637732E+01
 0.1196929062603E+01
 0.1181106867337E+01
 0.1171944747521E+01
 0.1173617459091E+01
 0.1192154045203E+01
 0.1235824415696E+01
 0.1315023427655E+01
 0.1440988379640E+01
 0.1622730478077E+01
 0.1862442942155E+01
 0.2150766217900E+01
 0.2464691736487E+01
 0.2763922108185E+01
 0.1160271153224E+01
 0.1203088241010E+01
 0.1245352479945E+01
 0.1284837165322E+01
 0.1319731740359E+01
 0.1348992561910E+01
 0.1372352566771E+01
 0.1390113094064E+01
 0.1402881560021E+01
 0.1411358830867E+01
 0.1416207509005E+01
 0.1417989480819E+01
 0.1417148268889E+01
 0.1414014700398E+01
 0.1408821912110E+01
 0.1401722334974E+01
 0.1392803713231E+01
 0.1382104265208E+01
 0.1369627694490E+01
 0.1355360653088E+01
 0.1339294630217E+01
 0.1321452569162E+01
 0.1301920405480E+01
 0.1280885186166E+01
 0.1258693347360E+01
 0.1235904867262E+01
 0.1213327576198E+01
 0.1192076923249E+01
 0.1173695554417E+01
 0.1160356105135E+01
 0.1155160035337E+01
 0.1162518515358E+01
 0.1188534166349E+01
 0.1241173497581E+01
 0.1329874550127E+01
 0.1464088364428E+01
 0.1650441028218E+01
 0.1888935183649E+01
 0.2169537898473E+01
 0.2470194246658E+01
 0.2760557118122E+01
 0.1158346815171E+01
 0.1199761989377E+01
 0.1240680439751E+01
 0.1279107928033E+01
 0.1313370636525E+01
 0.1342425101777E+01
 0.1365899431555E+01
 0.1383945261023E+01
 0.1397025506082E+01
 0.1405727699916E+01
 0.1410638011929E+01
 0.1412273674393E+01
 0.1411056941580E+01
 0.1407313158455E+01
 0.1401280399295E+01
 0.1393123414423E+01
 0.1382948537569E+01
 0.1370819197302E+01
 0.1356772144045E+01
 0.1340836543070E+01
 0.1323057427373E+01
 0.1303523423052E+01
 0.1282399158611E+01
 0.1259964202605E+01
 0.1236671164606E+01
 0.1213201812558E+01
 0.1190507850376E+01
 0.1169877603459E+01
 0.1153058539145E+01
 0.1142453318519E+01
 0.1141392070851E+01
 0.1154449062872E+01
 0.1187699309059E+01
 0.1248699063263E+01
 0.1345887001799E+01
 0.1487062531494E+01
 0.1676836093867E+01
 0.1913567917174E+01
 0.2186785970800E+01
 0.2476362254197E+01
 0.2757445388488E+01
 0.1156608936501E+01
 0.1196739805589E+01
 0.1236416344315E+01
 0.1273838276654E+01
 0.1307454015886E+01
 0.1336232530932E+01
 0.1359723374155E+01
 0.1377954391093E+01
 0.1391261708568E+01
 0.1400128006985E+01
 0.1405064800583E+01
 0.1406542902092E+01
 0.1404960382545E+01
 0.1400634425143E+01
 0.1393806213578E+01
 0.1384651990548E+01
 0.1373296749549E+01
 0.1359829853113E+01
 0.1344322159369E+01
 0.1326846406156E+01
 0.1307501936286E+01
 0.1286443356233E+01
 0.1263913742865E+01
 0.1240284314255E+01
 0.1216112170015E+01
 0.1192197824210E+01
 0.1169631221195E+01
 0.1149863378979E+01
 0.1134829057318E+01
 0.1127132092175E+01
 0.1130285815448E+01
 0.1148960834390E+01
 0.1189120306956E+01
 0.1257836110399E+01
 0.1362548728367E+01
 0.1509562367341E+01
 0.1701813548350E+01
 0.1936418256378E+01
 0.2202819537407E+01
 0.2482848883704E+01
 0.2755034782887E+01
 0.1155035657531E+01
 0.1193989503205E+01
 0.1232521418678E+01
 0.1268993197632E+01
 0.1301961445947E+01
 0.1330415006699E+01
 0.1353845163459E+01
 0.1372177856234E+01
 0.1385638822108E+01
 0.1394614977952E+01
 0.1399546368809E+01
 0.1400857043035E+01
 0.1398919049470E+01
 0.1394039386198E+01
 0.1386460801816E+01
 0.1376370189581E+01
 0.1363911024524E+01
 0.1349198896147E+01
 0.1332339264435E+01
 0.1313448841825E+01
 0.1292681335630E+01
 0.1270256873544E+01
 0.1246495903108E+01
 0.1221859459065E+01
 0.1197006336299E+01
 0.1172851519622E+01
 0.1150616307024E+01
 0.1131903138128E+01
 0.1118815921923E+01
 0.1114131256058E+01
 0.1121502984574E+01
 0.1145639165289E+01
 0.1192324091207E+01
 0.1268100266354E+01
 0.1379442746216E+01
 0.1531326937523E+01
 0.1725310369748E+01
 0.1957595603391E+01
 0.2217787554096E+01
 0.2489426383662E+01
 0.2753394421677E+01
 0.1153609383877E+01
 0.1191485038771E+01
 0.1228963862779E+01
 0.1264543230424E+01
 0.1296874795205E+01
 0.1324971355626E+01
 0.1348281479394E+01
 0.1366647522411E+01
 0.1380199722618E+01
 0.1389238464759E+01
 0.1394136482508E+01
 0.1395271846681E+01
 0.1392989674067E+01
 0.1387585358377E+01
 0.1379301950971E+01
 0.1368336161898E+01
 0.1354849556109E+01
 0.1338983856430E+01
 0.1320879103954E+01
 0.1300695786848E+01
 0.1278641376537E+01
 0.1255000361630E+01
 0.1230168715072E+01
 0.1204694592620E+01
 0.1179334732293E+01
 0.1155113310165E+01
 0.1133375151832E+01
 0.1115862174709E+01
 0.1104829217367E+01
 0.1103198363830E+01
 0.1114724936167E+01
 0.1144104200921E+01
 0.1196891315205E+01
 0.1279078952401E+01
 0.1396231647005E+01
 0.1552160150195E+01
 0.1747297097081E+01
 0.1977196562153E+01
 0.2231756161545E+01
 0.2495952972851E+01
 0.2752477479106E+01
 0.1152315959775E+01
 0.1189205339722E+01
 0.1225717624751E+01
 0.1260463706724E+01
 0.1292178231920E+01
 0.1319899717696E+01
 0.1343045855004E+01
 0.1361390653364E+01
 0.1374982180862E+01
 0.1384043342179E+01
 0.1388884340444E+01
 0.1389838929751E+01
 0.1387225166278E+01
 0.1381325960011E+01
 0.1372383672244E+01
 0.1360604019077E+01
 0.1346166081209E+01
 0.1329237276055E+01
 0.1309991739639E+01
 0.1288632990115E+01
 0.1265421062913E+01
 0.1240703004091E+01
 0.1214947770153E+01
 0.1188787181890E+01
 0.1163071362407E+01
 0.1138927607364E+01
 0.1117815784008E+01
 0.1101605023617E+01
 0.1092683238816E+01
 0.1094092415657E+01
 0.1109654606839E+01
 0.1144011033549E+01
 0.1202452976043E+01
 0.1290422771790E+01
 0.1412643163157E+01
 0.1571915753716E+01
 0.1767764447762E+01
 0.1995295873291E+01
 0.2244757536035E+01
 0.2502331471198E+01
 0.2752195542139E+01
 0.1151144013787E+01
 0.1187133369643E+01
 0.1222761396604E+01
 0.1256734068111E+01
 0.1287858118747E+01
 0.1315197976102E+01
 0.1338149397363E+01
 0.1356430655806E+01
 0.1370019457352E+01
 0.1379069890091E+01
 0.1383834759632E+01
 0.1384605816169E+01
 0.1381674567262E+01
 0.1375311029883E+01
 0.1365756130423E+01
 0.1353223811704E+01
 0.1337909939965E+01
 0.1320006881993E+01
 0.1299721963986E+01
 0.1277300493241E+01
 0.1253053323927E+01
 0.1227387672419E+01
 0.1200842314082E+01
 0.1174128621040E+01
 0.1148184881060E+01
 0.1124234836402E+01
 0.1103844490452E+01
 0.1088997895669E+01
 0.1082198898670E+01
 0.1086585913609E+01
 0.1106017669490E+01
 0.1145049020368E+01
 0.1208686532688E+01
 0.1301837218630E+01
 0.1428458166113E+01
 0.1590485142006E+01
 0.1786713609651E+01
 0.2011950636671E+01
 0.2256808968700E+01
 0.2508490676688E+01
 0.2752447120422E+01
 0.1150084433574E+01
 0.1185255377096E+01
 0.1220077787169E+01
 0.1253337260891E+01
 0.1283902845659E+01
 0.1310864029089E+01
 0.1333601330439E+01
 0.1351787684651E+01
 0.1365340816850E+01
 0.1374354148607E+01
 0.1379028369438E+01
 0.1379616004818E+01
 0.1376383037655E+01
 0.1369586582046E+01
 0.1359465606193E+01
 0.1346241534889E+01
 0.1330126156185E+01
 0.1311335769952E+01
 0.1290109613391E+01
 0.1266733096604E+01
 0.1241565655616E+01
 0.1215071766231E+01
 0.1187856309235E+01
 0.1160705535821E+01
 0.1134640147514E+01
 0.1110973225781E+01
 0.1091367785887E+01
 0.1077910713656E+01
 0.1073205635766E+01
 0.1080466330174E+01
 0.1103563043016E+01
 0.1146940502817E+01
 0.1215311768050E+01
 0.1313075063023E+01
 0.1443500671688E+01
 0.1607787694492E+01
 0.1804151124649E+01
 0.2027205243997E+01
 0.2267921145684E+01
 0.2514374517722E+01
 0.2753127784073E+01
 0.1149129942606E+01
 0.1183560289414E+01
 0.1217652641268E+01
 0.1250259207985E+01
 0.1280302635484E+01
 0.1306895953755E+01
 0.1329409404074E+01
 0.1347479136009E+01
 0.1360971974563E+01
 0.1369928248708E+01
 0.1374501813827E+01
 0.1374909065309E+01
 0.1371391883825E+01
 0.1364194802441E+01
 0.1353554500497E+01
 0.1339699173983E+01
 0.1322855554424E+01
 0.1303262619777E+01
 0.1281189906031E+01
 0.1256960841595E+01
 0.1230980767941E+01
 0.1203768044717E+01
 0.1175989468029E+01
 0.1148501030089E+01
 0.1122399682187E+01
 0.1099080444539E+01
 0.1080294163329E+01
 0.1068218854861E+01
 0.1065542955569E+01
 0.1075537141246E+01
 0.1102062932991E+01
 0.1149439135183E+01
 0.1222086621022E+01
 0.1323929504658E+01
 0.1457629501114E+01
 0.1623763515748E+01
 0.1820086181550E+01
 0.2041095098839E+01
 0.2278101383801E+01
 0.2519935704657E+01
 0.2754135364708E+01
 0.1148274756686E+01
 0.1182039220492E+01
 0.1215474477090E+01
 0.1247488349896E+01
 0.1277049338273E+01
 0.1303292090457E+01
 0.1325580194346E+01
 0.1343520040534E+01
 0.1356935472939E+01
 0.1365820707412E+01
 0.1370287945324E+01
 0.1370520742812E+01
 0.1366738601833E+01
 0.1359174065511E+01
 0.1348061356912E+01
 0.1333634763229E+01
 0.1316134882432E+01
 0.1295821906268E+01
 0.1272993762965E+01
 0.1248009461605E+01
 0.1221317183470E+01
 0.1193485388967E+01
 0.1165238191307E+01
 0.1137495804488E+01
 0.1111424954261E+01
 0.1088495022272E+01
 0.1070535574140E+01
 0.1059804570732E+01
 0.1059061603213E+01
 0.1071618466103E+01
 0.1101312499398E+01
 0.1152327983407E+01
 0.1228803190189E+01
 0.1334228183631E+01
 0.1470731525211E+01
 0.1638368164552E+01
 0.1834529208025E+01
 0.2053649109777E+01
 0.2287354799687E+01
 0.2525132323849E+01
 0.2755372841124E+01
 0.1147514302958E+01
 0.1180685069200E+01
 0.1213534020515E+01
 0.1245015248905E+01
 0.1274136228551E+01
 0.1300051074541E+01
 0.1322119323004E+01
 0.1339923377736E+01
 0.1353251000553E+01
 0.1362056692010E+01
 0.1366416011693E+01
 0.1366483072242E+01
 0.1362456940398E+01
 0.1354558973987E+01
 0.1343020907437E+01
 0.1328082465228E+01
 0.1309996949521E+01
 0.1289044119011E+01
 0.1265548129370E+01
 0.1239900822226E+01
 0.1212589811814E+01
 0.1184229523153E+01
 0.1155596443847E+01
 0.1127669184401E+01
 0.1101677544092E+01
 0.1079157603968E+01
 0.1062008700380E+01
 0.1052558158581E+01
 0.1053624456436E+01
 0.1068547413208E+01
 0.1101129262960E+01
 0.1155417513695E+01
 0.1235283986195E+01
 0.1343827982758E+01
 0.1482716203458E+01
 0.1651568762087E+01
 0.1847491020874E+01
 0.2064891215285E+01
 0.2295684701718E+01
 0.2529926198081E+01
 0.2756750014383E+01
 0.1146844990908E+01
 0.1179492191620E+01
 0.1211823820521E+01
 0.1242832250735E+01
 0.1271557813944E+01
 0.1297171833602E+01
 0.1319031615490E+01
 0.1336700325336E+01
 0.1349935659376E+01
 0.1358658252830E+01
 0.1362911830327E+01
 0.1362824494477E+01
 0.1358576974544E+01
 0.1350380413062E+01
 0.1338464132500E+01
 0.1323072661458E+01
 0.1304470770377E+01
 0.1282955979890E+01
 0.1258876283694E+01
 0.1232653337509E+01
 0.1204810485881E+01
 0.1176003680228E+01
 0.1147056553197E+01
 0.1119000045648E+01
 0.1093120173787E+01
 0.1071012041276E+01
 0.1054636033196E+01
 0.1046378914833E+01
 0.1049107186955E+01
 0.1066178203327E+01
 0.1101352349133E+01
 0.1158543590012E+01
 0.1241378526053E+01
 0.1352610610374E+01
 0.1493511232534E+01
 0.1663341117655E+01
 0.1858982275815E+01
 0.2074841335904E+01
 0.2303092814284E+01
 0.2534282255382E+01
 0.2758184561025E+01
 0.1146264024013E+01
 0.1178456132518E+01
 0.1210337930766E+01
 0.1240933195968E+01
 0.1269309658223E+01
 0.1294653561579E+01
 0.1316321210934E+01
 0.1333860453825E+01
 0.1347004184889E+01
 0.1355644523599E+01
 0.1359797945544E+01
 0.1359569967582E+01
 0.1355125181813E+01
 0.1346665610283E+01
 0.1334418326083E+01
 0.1318632044211E+01
 0.1299581703952E+01
 0.1277580647024E+01
 0.1252998122401E+01
 0.1226282348864E+01
 0.1197988445492E+01
 0.1168809196988E+01
 0.1139609916806E+01
 0.1111467624415E+01
 0.1085717596036E+01
 0.1064006316463E+01
 0.1048346762317E+01
 0.1041175886053E+01
 0.1045398719932E+01
 0.1064382116039E+01
 0.1101841633675E+01
 0.1161565549458E+01
 0.1246960300859E+01
 0.1360478895457E+01
 0.1503059098721E+01
 0.1673667587114E+01
 0.1869013087354E+01
 0.2083516008955E+01
 0.2309579524228E+01
 0.2538168440261E+01
 0.2759602656169E+01
 0.1145769246063E+01
 0.1177573406359E+01
 0.1209071647905E+01
 0.1239313177263E+01
 0.1267388223557E+01
 0.1292495681728E+01
 0.1313991639083E+01
 0.1331411879774E+01
 0.1344469128896E+01
 0.1353031895347E+01
 0.1357093771968E+01
 0.1356741074863E+01
 0.1352124522709E+01
 0.1343438203475E+01
 0.1330907169443E+01
 0.1314783714923E+01
 0.1295351594215E+01
 0.1272937913953E+01
 0.1247930431488E+01
 0.1220800480358E+01
 0.1192130784991E+01
 0.1162646058448E+01
 0.1133247641371E+01
 0.1105052240234E+01
 0.1079437375918E+01
 0.1058093340677E+01
 0.1043077525659E+01
 0.1036868474007E+01
 0.1042401554612E+01
 0.1063047329016E+01
 0.1102476861508E+01
 0.1164364411795E+01
 0.1251924118270E+01
 0.1367353696571E+01
 0.1511314328122E+01
 0.1682535430209E+01
 0.1877592725861E+01
 0.2090928825202E+01
 0.2315144167332E+01
 0.2541555874180E+01
 0.2760939350708E+01
 0.1145359016238E+01
 0.1176841319456E+01
 0.1208021297556E+01
 0.1237968336584E+01
 0.1265790731959E+01
 0.1290697803560E+01
 0.1312045871208E+01
 0.1329361383509E+01
 0.1342341007167E+01
 0.1350834162088E+01
 0.1354815718880E+01
 0.1354356122169E+01
 0.1349594516057E+01
 0.1340718306066E+01
 0.1327950801552E+01
 0.1311547275687E+01
 0.1291798897987E+01
 0.1269044387582E+01
 0.1243687126370E+01
 0.1216217950127E+01
 0.1187242842883E+01
 0.1157513368425E+01
 0.1127961091117E+01
 0.1099735910010E+01
 0.1074250546982E+01
 0.1053231613286E+01
 0.1038773013670E+01
 0.1033386899720E+01
 0.1040031964326E+01
 0.1062078684365E+01
 0.1103156787680E+01
 0.1166841271563E+01
 0.1256183836682E+01
 0.1373171380211E+01
 0.1518241334969E+01
 0.1689935578532E+01
 0.1884729411669E+01
 0.2097090787886E+01
 0.2319785365823E+01
 0.2544419127269E+01
 0.2762138797811E+01
 0.1145032108164E+01
 0.1176257826876E+01
 0.1207184061142E+01
 0.1236895698455E+01
 0.1264515046912E+01
 0.1289259679447E+01
 0.1310486353179E+01
 0.1327714499273E+01
 0.1340628418198E+01
 0.1349062642159E+01
 0.1352977297405E+01
 0.1352430225105E+01
 0.1347551309513E+01
 0.1338522570175E+01
 0.1325565887183E+01
 0.1308938915678E+01
 0.1288938802625E+01
 0.1265913648790E+01
 0.1240279465400E+01
 0.1212542844646E+01
 0.1183328542008E+01
 0.1153409756941E+01
 0.1123742358284E+01
 0.1095502869705E+01
 0.1070132162089E+01
 0.1049385767136E+01
 0.1035386457612E+01
 0.1030672559933E+01
 0.1038220113290E+01
 0.1061397422308E+01
 0.1103798377333E+01
 0.1168915889321E+01
 0.1259670461274E+01
 0.1377881775415E+01
 0.1523812729113E+01
 0.1695861688921E+01
 0.1890430157253E+01
 0.2102010601225E+01
 0.2323501361414E+01
 0.2546736505796E+01
 0.2763154369437E+01
 0.1144787630582E+01
 0.1175821419710E+01
 0.1206557838934E+01
 0.1236093036280E+01
 0.1263559575634E+01
 0.1288181164688E+01
 0.1309315026336E+01
 0.1326475583284E+01
 0.1339338136825E+01
 0.1347726276728E+01
 0.1351589209984E+01
 0.1350975384011E+01
 0.1346007742025E+01
 0.1336864243687E+01
 0.1323765678500E+01
 0.1306971488126E+01
 0.1286783328993E+01
 0.1263556391026E+01
 0.1237716232252E+01
 0.1209781351216E+01
 0.1180390675965E+01
 0.1150333721046E+01
 0.1120584653958E+01
 0.1092340004232E+01
 0.1067061743020E+01
 0.1046527008090E+01
 0.1032880015469E+01
 0.1028678295962E+01
 0.1036910117648E+01
 0.1060940917094E+01
 0.1104336101976E+01
 0.1170525507674E+01
 0.1262330596836E+01
 0.1381446560040E+01
 0.1528008016219E+01
 0.1700309435640E+01
 0.1894700662557E+01
 0.2105694917716E+01
 0.2326290330680E+01
 0.2548490317491E+01
 0.2763948732361E+01
 0.1144624966160E+01
 0.1175531038587E+01
 0.1206141144572E+01
 0.1235558768252E+01
 0.1262923191027E+01
 0.1287462182753E+01
 0.1308533339425E+01
 0.1325647863053E+01
 0.1338475184947E+01
 0.1346831706101E+01
 0.1350659421158E+01
 0.1350000544506E+01
 0.1344973395242E+01
 0.1335753217769E+01
 0.1322560066282E+01
 0.1305654573737E+01
 0.1285341415420E+01
 0.1261980532389E+01
 0.1236003882513E+01
 0.1207937943895E+01
 0.1178431137143E+01
 0.1148283894833E+01
 0.1118482616006E+01
 0.1090237183897E+01
 0.1065023629398E+01
 0.1044633452185E+01
 0.1031225062095E+01
 0.1027368585546E+01
 0.1036060066062E+01
 0.1060662434452E+01
 0.1104721350067E+01
 0.1171623896913E+01
 0.1264125235271E+01
 0.1383838026412E+01
 0.1530812624981E+01
 0.1703275992405E+01
 0.1897545248703E+01
 0.2108148542926E+01
 0.2328150656080E+01
 0.2549667095539E+01
 0.2764493873207E+01
 0.1144543727296E+01
 0.1175386011109E+01
 0.1205933028606E+01
 0.1235291881331E+01
 0.1262605173763E+01
 0.1287102698262E+01
 0.1308142255552E+01
 0.1325233472189E+01
 0.1338042882990E+01
 0.1346383326371E+01
 0.1350193211135E+01
 0.1349511644286E+01
 0.1344454634107E+01
 0.1335196064986E+01
 0.1321955621113E+01
 0.1304994531228E+01
 0.1284618983814E+01
 0.1261191302962E+01
 0.1235146656998E+01
 0.1207015526311E+01
 0.1177451090934E+01
 0.1147259254688E+01
 0.1117432541907E+01
 0.1089187517345E+01
 0.1064007239309E+01
 0.1043690375382E+01
 0.1030402401243E+01
 0.1026719678097E+01
 0.1035642022988E+01
 0.1060530935007E+01
 0.1104921972287E+01
 0.1172180636607E+01
 0.1265028860443E+01
 0.1385038185232E+01
 0.1532217210799E+01
 0.1704759665899E+01
 0.1898966814422E+01
 0.2109374590538E+01
 0.2329081137219E+01
 0.2550257766987E+01
 0.2764771113228E+01
 0.1144543727302E+01
 0.1175386011116E+01
 0.1205933028614E+01
 0.1235291881341E+01
 0.1262605173776E+01
 0.1287102698278E+01
 0.1308142255570E+01
 0.1325233472211E+01
 0.1338042883015E+01
 0.1346383326398E+01
 0.1350193211166E+01
 0.1349511644321E+01
 0.1344454634147E+01
 0.1335196065030E+01
 0.1321955621163E+01
 0.1304994531286E+01
 0.1284618983881E+01
 0.1261191303038E+01
 0.1235146657084E+01
 0.1207015526407E+01
 0.1177451091041E+01
 0.1147259254804E+01
 0.1117432542030E+01
 0.1089187517473E+01
 0.1064007239437E+01
 0.1043690375505E+01
 0.1030402401355E+01
 0.1026719678188E+01
 0.1035642023049E+01
 0.1060530935027E+01
 0.1104921972256E+01
 0.1172180636520E+01
 0.1265028860297E+01
 0.1385038185033E+01
 0.1532217210561E+01
 0.1704759665643E+01
 0.1898966814173E+01
 0.2109374590323E+01
 0.2329081137059E+01
 0.2550257766893E+01
 0.2764771113197E+01
 0.1144624966178E+01
 0.1175531038607E+01
 0.1206141144597E+01
 0.1235558768284E+01
 0.1262923191065E+01
 0.1287462182800E+01
 0.1308533339480E+01
 0.1325647863117E+01
 0.1338475185021E+01
 0.1346831706183E+01
 0.1350659421250E+01
 0.1350000544610E+01
 0.1344973395359E+01
 0.1335753217903E+01
 0.1322560066435E+01
 0.1305654573911E+01
 0.1285341415620E+01
 0.1261980532616E+01
 0.1236003882771E+01
 0.1207937944184E+01
 0.1178431137464E+01
 0.1148283895181E+01
 0.1118482616377E+01
 0.1090237184282E+01
 0.1065023629785E+01
 0.1044633452557E+01
 0.1031225062432E+01
 0.1027368585821E+01
 0.1036060066246E+01
 0.1060662434514E+01
 0.1104721349978E+01
 0.1171623896653E+01
 0.1264125234835E+01
 0.1383838025817E+01
 0.1530812624267E+01
 0.1703275991636E+01
 0.1897545247956E+01
 0.2108148542281E+01
 0.2328150655599E+01
 0.2549667095258E+01
 0.2764493873116E+01
 0.1144787630612E+01
 0.1175821419744E+01
 0.1206557838975E+01
 0.1236093036332E+01
 0.1263559575699E+01
 0.1288181164766E+01
 0.1309315026428E+01
 0.1326475583391E+01
 0.1339338136947E+01
 0.1347726276865E+01
 0.1351589210138E+01
 0.1350975384184E+01
 0.1346007742220E+01
 0.1336864243908E+01
 0.1323765678753E+01
 0.1306971488416E+01
 0.1286783329325E+01
 0.1263556391405E+01
 0.1237716232681E+01
 0.1209781351698E+01
 0.1180390676498E+01
 0.1150333721626E+01
 0.1120584654577E+01
 0.1092340004875E+01
 0.1067061743666E+01
 0.1046527008713E+01
 0.1032880016034E+01
 0.1028678296426E+01
 0.1036910117962E+01
 0.1060940917205E+01
 0.1104336101837E+01
 0.1170525507249E+01
 0.1262330596116E+01
 0.1381446559053E+01
 0.1528008015032E+01
 0.1700309434359E+01
 0.1894700661311E+01
 0.2105694916638E+01
 0.2326290329879E+01
 0.2548490317025E+01
 0.2763948732216E+01
 0.1145032108206E+01
 0.1176257826924E+01
 0.1207184061200E+01
 0.1236895698528E+01
 0.1264515047002E+01
 0.1289259679557E+01
 0.1310486353309E+01
 0.1327714499423E+01
 0.1340628418368E+01
 0.1349062642351E+01
 0.1352977297619E+01
 0.1352430225346E+01
 0.1347551309785E+01
 0.1338522570483E+01
 0.1325565887536E+01
 0.1308938916082E+01
 0.1288938803088E+01
 0.1265913649319E+01
 0.1240279466000E+01
 0.1212542845319E+01
 0.1183328542754E+01
 0.1153409757754E+01
 0.1123742359152E+01
 0.1095502870608E+01
 0.1070132162999E+01
 0.1049385768015E+01
 0.1035386458412E+01
 0.1030672560594E+01
 0.1038220113743E+01
 0.1061397422480E+01
 0.1103798377156E+01
 0.1168915888743E+01
 0.1259670460281E+01
 0.1377881774043E+01
 0.1523812727456E+01
 0.1695861687128E+01
 0.1890430155505E+01
 0.2102010599713E+01
 0.2323501360293E+01
 0.2546736505150E+01
 0.2763154369248E+01
 0.1145359016292E+01
 0.1176841319517E+01
 0.1208021297631E+01
 0.1237968336678E+01
 0.1265790732075E+01
 0.1290697803701E+01
 0.1312045871375E+01
 0.1329361383702E+01
 0.1342341007385E+01
 0.1350834162333E+01
 0.1354815719154E+01
 0.1354356122477E+01
 0.1349594516404E+01
 0.1340718306461E+01
 0.1327950802002E+01
 0.1311547276204E+01
 0.1291798898579E+01
 0.1269044388260E+01
 0.1243687127139E+01
 0.1216217950991E+01
 0.1187242843841E+01
 0.1157513369470E+01
 0.1127961092235E+01
 0.1099735911175E+01
 0.1074250548160E+01
 0.1053231614428E+01
 0.1038773014714E+01
 0.1033386900590E+01
 0.1040031964933E+01
 0.1062078684615E+01
 0.1103156787481E+01
 0.1166841270850E+01
 0.1256183835431E+01
 0.1373171378465E+01
 0.1518241332849E+01
 0.1689935576227E+01
 0.1884729409418E+01
 0.2097090785937E+01
 0.2319785364382E+01
 0.2544419126449E+01
 0.2762138797590E+01
 0.1145769246129E+01
 0.1177573406434E+01
 0.1209071647997E+01
 0.1239313177378E+01
 0.1267388223699E+01
 0.1292495681900E+01
 0.1313991639287E+01
 0.1331411880009E+01
 0.1344469129161E+01
 0.1353031895645E+01
 0.1357093772301E+01
 0.1356741075236E+01
 0.1352124523129E+01
 0.1343438203953E+01
 0.1330907169989E+01
 0.1314783715550E+01
 0.1295351594934E+01
 0.1272937914776E+01
 0.1247930432424E+01
 0.1220800481412E+01
 0.1192130786161E+01
 0.1162646059726E+01
 0.1133247642740E+01
 0.1105052241665E+01
 0.1079437377369E+01
 0.1058093342089E+01
 0.1043077526958E+01
 0.1036868475101E+01
 0.1042401555392E+01
 0.1063047329364E+01
 0.1102476861312E+01
 0.1164364410969E+01
 0.1251924116781E+01
 0.1367353694467E+01
 0.1511314325546E+01
 0.1682535427394E+01
 0.1877592723102E+01
 0.2090928822811E+01
 0.2315144165570E+01
 0.2541555873193E+01
 0.2760939350471E+01
 0.1146264024091E+01
 0.1178456132607E+01
 0.1210337930875E+01
 0.1240933196104E+01
 0.1269309658391E+01
 0.1294653561783E+01
 0.1316321211174E+01
 0.1333860454101E+01
 0.1347004185201E+01
 0.1355644523948E+01
 0.1359797945933E+01
 0.1359569968018E+01
 0.1355125182305E+01
 0.1346665610841E+01
 0.1334418326722E+01
 0.1318632044945E+01
 0.1299581704796E+01
 0.1277580647990E+01
 0.1252998123502E+01
 0.1226282350105E+01
 0.1197988446873E+01
 0.1168809198500E+01
 0.1139609918429E+01
 0.1111467626117E+01
 0.1085717597766E+01
 0.1064006318156E+01
 0.1048346763885E+01
 0.1041175887388E+01
 0.1045398720906E+01
 0.1064382116512E+01
 0.1101841633509E+01
 0.1161565548547E+01
 0.1246960299158E+01
 0.1360478893014E+01
 0.1503059095700E+01
 0.1673667583790E+01
 0.1869013084085E+01
 0.2083516006118E+01
 0.2309579522145E+01
 0.2538168439115E+01
 0.2759602655939E+01
 0.1146844990998E+01
 0.1179492191723E+01
 0.1211823820647E+01
 0.1242832250893E+01
 0.1271557814138E+01
 0.1297171833837E+01
 0.1319031615767E+01
 0.1336700325653E+01
 0.1349935659734E+01
 0.1358658253229E+01
 0.1362911830772E+01
 0.1362824494974E+01
 0.1358576975104E+01
 0.1350380413698E+01
 0.1338464133229E+01
 0.1323072662296E+01
 0.1304470771341E+01
 0.1282955980996E+01
 0.1258876284955E+01
 0.1232653338934E+01
 0.1204810487470E+01
 0.1176003681972E+01
 0.1147056555075E+01
 0.1119000047623E+01
 0.1093120175804E+01
 0.1071012043260E+01
 0.1054636035049E+01
 0.1046378916430E+01
 0.1049107188149E+01
 0.1066178203955E+01
 0.1101352349032E+01
 0.1158543589052E+01
 0.1241378524171E+01
 0.1352610607616E+01
 0.1493511229082E+01
 0.1663341113827E+01
 0.1858982272030E+01
 0.2074841332613E+01
 0.2303092811878E+01
 0.2534282254088E+01
 0.2758184560825E+01
 0.1147514303060E+01
 0.1180685069317E+01
 0.1213534020658E+01
 0.1245015249084E+01
 0.1274136228772E+01
 0.1300051074807E+01
 0.1322119323316E+01
 0.1339923378093E+01
 0.1353251000955E+01
 0.1362056692457E+01
 0.1366416012191E+01
 0.1366483072798E+01
 0.1362456941024E+01
 0.1354558974697E+01
 0.1343020908251E+01
 0.1328082466165E+01
 0.1309996950602E+01
 0.1289044120253E+01
 0.1265548130789E+01
 0.1239900823833E+01
 0.1212589813610E+01
 0.1184229525130E+01
 0.1155596445982E+01
 0.1127669186656E+01
 0.1101677546405E+01
 0.1079157606258E+01
 0.1062008702536E+01
 0.1052558160464E+01
 0.1053624457880E+01
 0.1068547414027E+01
 0.1101129262964E+01
 0.1155417512726E+01
 0.1235283984170E+01
 0.1343827979715E+01
 0.1482716199592E+01
 0.1651568757758E+01
 0.1847491016567E+01
 0.2064891211531E+01
 0.2295684698985E+01
 0.2529926196649E+01
 0.2756750014242E+01
 0.1148274756800E+01
 0.1182039220623E+01
 0.1215474477251E+01
 0.1247488350096E+01
 0.1277049338521E+01
 0.1303292090755E+01
 0.1325580194694E+01
 0.1343520040932E+01
 0.1356935473384E+01
 0.1365820707906E+01
 0.1370287945872E+01
 0.1370520743423E+01
 0.1366738602521E+01
 0.1359174066292E+01
 0.1348061357807E+01
 0.1333634764262E+01
 0.1316134883625E+01
 0.1295821907642E+01
 0.1272993764538E+01
 0.1248009463390E+01
 0.1221317185471E+01
 0.1193485391176E+01
 0.1165238193702E+01
 0.1137495807026E+01
 0.1111424956879E+01
 0.1088495024879E+01
 0.1070535576618E+01
 0.1059804572927E+01
 0.1059061604942E+01
 0.1071618467154E+01
 0.1101312499554E+01
 0.1152327982478E+01
 0.1228803188066E+01
 0.1334228180338E+01
 0.1470731520954E+01
 0.1638368159729E+01
 0.1834529203191E+01
 0.2053649105552E+01
 0.2287354796624E+01
 0.2525132322290E+01
 0.2755372841074E+01
 0.1149129942732E+01
 0.1183560289560E+01
 0.1217652641446E+01
 0.1250259208208E+01
 0.1280302635759E+01
 0.1306895954084E+01
 0.1329409404458E+01
 0.1347479136445E+01
 0.1360971975050E+01
 0.1369928249246E+01
 0.1374501814422E+01
 0.1374909065972E+01
 0.1371391884570E+01
 0.1364194803289E+01
 0.1353554501470E+01
 0.1339699175106E+01
 0.1322855555723E+01
 0.1303262621277E+01
 0.1281189907753E+01
 0.1256960843554E+01
 0.1230980770144E+01
 0.1203768047157E+01
 0.1175989470684E+01
 0.1148501032915E+01
 0.1122399685119E+01
 0.1099080447480E+01
 0.1080294166150E+01
 0.1068218857398E+01
 0.1065542957619E+01
 0.1075537142575E+01
 0.1102062933351E+01
 0.1149439134350E+01
 0.1222086618854E+01
 0.1323929501160E+01
 0.1457629496494E+01
 0.1623763510442E+01
 0.1820086176184E+01
 0.2041095094130E+01
 0.2278101380403E+01
 0.2519935702985E+01
 0.2754135364786E+01
 0.1150084433713E+01
 0.1185255377255E+01
 0.1220077787365E+01
 0.1253337261136E+01
 0.1283902845961E+01
 0.1310864029451E+01
 0.1333601330858E+01
 0.1351787685125E+01
 0.1365340817377E+01
 0.1374354149187E+01
 0.1379028370078E+01
 0.1379616005528E+01
 0.1376383038453E+01
 0.1369586582954E+01
 0.1359465607237E+01
 0.1346241536096E+01
 0.1330126157584E+01
 0.1311335771572E+01
 0.1290109615256E+01
 0.1266733098733E+01
 0.1241565658016E+01
 0.1215071768900E+01
 0.1187856312151E+01
 0.1160705538941E+01
 0.1134640150768E+01
 0.1110973229070E+01
 0.1091367789076E+01
 0.1077910716566E+01
 0.1073205638178E+01
 0.1080466331831E+01
 0.1103563043639E+01
 0.1146940502144E+01
 0.1215311765901E+01
 0.1313075059373E+01
 0.1443500666742E+01
 0.1607787688716E+01
 0.1804151118745E+01
 0.2027205238790E+01
 0.2267921141941E+01
 0.2514374515947E+01
 0.2753127784317E+01
 0.1151144013938E+01
 0.1187133369817E+01
 0.1222761396818E+01
 0.1256734068379E+01
 0.1287858119076E+01
 0.1315197976495E+01
 0.1338149397817E+01
 0.1356430656316E+01
 0.1370019457916E+01
 0.1379069890710E+01
 0.1383834760312E+01
 0.1384605816923E+01
 0.1381674568109E+01
 0.1375311030847E+01
 0.1365756131532E+01
 0.1353223812989E+01
 0.1337909941459E+01
 0.1320006883726E+01
 0.1299721965987E+01
 0.1277300495533E+01
 0.1253053326521E+01
 0.1227387675314E+01
 0.1200842317259E+01
 0.1174128624457E+01
 0.1148184884647E+01
 0.1124234840056E+01
 0.1103844494030E+01
 0.1088997898986E+01
 0.1082198901489E+01
 0.1086585915650E+01
 0.1106017670443E+01
 0.1145049019929E+01
 0.1208686530631E+01
 0.1301837214892E+01
 0.1428458160883E+01
 0.1590485135780E+01
 0.1786713603206E+01
 0.2011950630951E+01
 0.2256808964604E+01
 0.2508490674822E+01
 0.2752447120879E+01
 0.1152315959939E+01
 0.1189205339911E+01
 0.1225717624984E+01
 0.1260463707015E+01
 0.1292178232278E+01
 0.1319899718121E+01
 0.1343045855493E+01
 0.1361390653910E+01
 0.1374982181463E+01
 0.1384043342834E+01
 0.1388884341161E+01
 0.1389838930545E+01
 0.1387225167168E+01
 0.1381325961024E+01
 0.1372383673411E+01
 0.1360604020434E+01
 0.1346166082789E+01
 0.1329237277895E+01
 0.1309991741771E+01
 0.1288632992564E+01
 0.1265421065695E+01
 0.1240703007209E+01
 0.1214947773590E+01
 0.1188787185607E+01
 0.1163071366334E+01
 0.1138927611397E+01
 0.1117815788000E+01
 0.1101605027374E+01
 0.1092683242089E+01
 0.1094092418143E+01
 0.1109654608194E+01
 0.1144011033427E+01
 0.1202452974163E+01
 0.1290422768041E+01
 0.1412643157700E+01
 0.1571915747065E+01
 0.1767764440775E+01
 0.1995295867040E+01
 0.2244757531571E+01
 0.2502331469253E+01
 0.2752195542856E+01
 0.1153609384054E+01
 0.1191485038975E+01
 0.1228963863030E+01
 0.1264543230739E+01
 0.1296874795591E+01
 0.1324971356083E+01
 0.1348281479916E+01
 0.1366647522991E+01
 0.1380199723252E+01
 0.1389238465447E+01
 0.1394136483258E+01
 0.1395271847508E+01
 0.1392989674995E+01
 0.1387585359434E+01
 0.1379301952190E+01
 0.1368336163317E+01
 0.1354849557768E+01
 0.1338983858367E+01
 0.1320879106206E+01
 0.1300695789446E+01
 0.1278641379501E+01
 0.1255000364965E+01
 0.1230168718768E+01
 0.1204694596639E+01
 0.1179334736568E+01
 0.1155113314593E+01
 0.1133375156263E+01
 0.1115862178944E+01
 0.1104829221143E+01
 0.1103198366825E+01
 0.1114724938005E+01
 0.1144104201208E+01
 0.1196891313602E+01
 0.1279078948731E+01
 0.1396231641390E+01
 0.1552160143155E+01
 0.1747297089551E+01
 0.1977196555352E+01
 0.2231756156698E+01
 0.2495952970836E+01
 0.2752477480134E+01
 0.1155035657720E+01
 0.1193989503424E+01
 0.1232521418949E+01
 0.1268993197971E+01
 0.1301961446363E+01
 0.1330415007189E+01
 0.1353845164015E+01
 0.1372177856847E+01
 0.1385638822772E+01
 0.1394614978668E+01
 0.1399546369586E+01
 0.1400857043890E+01
 0.1398919050429E+01
 0.1394039387290E+01
 0.1386460803079E+01
 0.1376370191055E+01
 0.1363911026253E+01
 0.1349198898173E+01
 0.1332339266800E+01
 0.1313448844563E+01
 0.1292681338767E+01
 0.1270256877092E+01
 0.1246495907059E+01
 0.1221859463387E+01
 0.1197006340929E+01
 0.1172851524458E+01
 0.1150616311919E+01
 0.1131903142876E+01
 0.1118815926255E+01
 0.1114131259631E+01
 0.1121502986981E+01
 0.1145639166087E+01
 0.1192324089991E+01
 0.1268100262872E+01
 0.1379442740527E+01
 0.1531326930141E+01
 0.1725310361680E+01
 0.1957595596018E+01
 0.2217787548846E+01
 0.2489426381587E+01
 0.2753394423071E+01
 0.1156608936702E+01
 0.1196739805823E+01
 0.1236416344606E+01
 0.1273838277019E+01
 0.1307454016332E+01
 0.1336232531455E+01
 0.1359723374743E+01
 0.1377954391736E+01
 0.1391261709260E+01
 0.1400128007726E+01
 0.1405064801383E+01
 0.1406542902970E+01
 0.1404960383528E+01
 0.1400634426264E+01
 0.1393806214876E+01
 0.1384651992068E+01
 0.1373296751338E+01
 0.1359829855218E+01
 0.1344322161835E+01
 0.1326846409024E+01
 0.1307501939587E+01
 0.1286443359984E+01
 0.1263913747067E+01
 0.1240284318880E+01
 0.1216112175005E+01
 0.1192197829468E+01
 0.1169631226576E+01
 0.1149863384278E+01
 0.1134829062258E+01
 0.1127132096398E+01
 0.1130285818518E+01
 0.1148960835814E+01
 0.1189120306255E+01
 0.1257836107231E+01
 0.1362548722711E+01
 0.1509562359679E+01
 0.1701813539758E+01
 0.1936418248409E+01
 0.2202819531732E+01
 0.2482848881580E+01
 0.2755034784705E+01
 0.1158346815386E+01
 0.1199761989627E+01
 0.1240680440063E+01
 0.1279107928426E+01
 0.1313370637003E+01
 0.1342425102333E+01
 0.1365899432175E+01
 0.1383945261695E+01
 0.1397025506797E+01
 0.1405727700677E+01
 0.1410638012746E+01
 0.1412273675287E+01
 0.1411056942579E+01
 0.1407313159597E+01
 0.1401280400620E+01
 0.1393123415980E+01
 0.1382948539408E+01
 0.1370819199475E+01
 0.1356772146602E+01
 0.1340836546057E+01
 0.1323057430827E+01
 0.1303523426998E+01
 0.1282399163056E+01
 0.1259964207529E+01
 0.1236671169958E+01
 0.1213201818249E+01
 0.1190507856265E+01
 0.1169877609344E+01
 0.1153058544747E+01
 0.1142453323468E+01
 0.1141392074683E+01
 0.1154449065046E+01
 0.1187699309017E+01
 0.1248699060560E+01
 0.1345886996306E+01
 0.1487062523636E+01
 0.1676836084771E+01
 0.1913567908584E+01
 0.2186785964672E+01
 0.2476362252040E+01
 0.2757445390790E+01
 0.1160271153451E+01
 0.1203088241277E+01
 0.1245352480280E+01
 0.1284837165743E+01
 0.1319731740869E+01
 0.1348992562498E+01
 0.1372352567421E+01
 0.1390113094761E+01
 0.1402881560756E+01
 0.1411358831642E+01
 0.1416207509833E+01
 0.1417989481722E+01
 0.1417148269897E+01
 0.1414014701551E+01
 0.1408821913453E+01
 0.1401722336557E+01
 0.1392803715108E+01
 0.1382104267436E+01
 0.1369627697125E+01
 0.1355360656181E+01
 0.1339294633813E+01
 0.1321452573292E+01
 0.1301920410159E+01
 0.1280885191384E+01
 0.1258693353075E+01
 0.1235904873393E+01
 0.1213327582615E+01
 0.1192076929754E+01
 0.1173695560733E+01
 0.1160356110885E+01
 0.1155160040035E+01
 0.1162518518416E+01
 0.1188534167127E+01
 0.1241173495516E+01
 0.1329874544956E+01
 0.1464088356482E+01
 0.1650441018653E+01
 0.1888935174409E+01
 0.2169537891856E+01
 0.2470194244495E+01
 0.2760557120974E+01
 0.1162409130553E+01
 0.1206758359701E+01
 0.1250479723923E+01
 0.1291067379562E+01
 0.1326559892648E+01
 0.1355932486823E+01
 0.1379056706153E+01
 0.1396413932274E+01
 0.1408774692617E+01
 0.1416960408231E+01
 0.1421709955534E+01
 0.1423626378797E+01
 0.1423170343659E+01
 0.1420674791648E+01
 0.1416365824916E+01
 0.1410382774715E+01
 0.1402795153523E+01
 0.1393617169528E+01
 0.1382821160672E+01
 0.1370353041250E+01
 0.1356152291654E+01
 0.1340177279114E+01
 0.1322435892029E+01
 0.1303022832560E+01
 0.1282177940811E+01
 0.1260337828385E+01
 0.1238162413870E+01
 0.1216585644889E+01
 0.1196929069685E+01
 0.1181106873966E+01
 0.1171944753194E+01
 0.1173617463177E+01
 0.1192154046981E+01
 0.1235824414471E+01
 0.1315023422999E+01
 0.1440988371749E+01
 0.1622730468098E+01
 0.1862442932238E+01
 0.2150766210735E+01
 0.2464691734353E+01
 0.2763922111725E+01
 0.1164795047713E+01
 0.1210822314007E+01
 0.1256121044439E+01
 0.1297849231598E+01
 0.1333882094027E+01
 0.1363242119271E+01
 0.1385982507004E+01
 0.1402799707960E+01
 0.1414646246110E+01
 0.1422469297000E+01
 0.1427081397915E+01
 0.1429121297141E+01
 0.1429061435404E+01
 0.1427232872766E+01
 0.1423852400146E+01
 0.1419045605450E+01
 0.1412864497503E+01
 0.1405301027780E+01
 0.1396298541027E+01
 0.1385764762216E+01
 0.1373589491925E+01
 0.1359668414820E+01
 0.1343932838730E+01
 0.1326386253394E+01
 0.1307162653081E+01
 0.1286575109682E+01
 0.1265133150456E+01
 0.1243582141984E+01
 0.1223007536154E+01
 0.1205037182109E+01
 0.1192172581612E+01
 0.1188272722112E+01
 0.1199175178190E+01
 0.1233310588283E+01
 0.1301934571918E+01
 0.1418163651994E+01
 0.1593808737024E+01
 0.1833883580482E+01
 0.2130387850140E+01
 0.2458568213865E+01
 0.2773862254101E+01
 0.1167470136950E+01
 0.1215341040924E+01
 0.1262346102256E+01
 0.1305239126664E+01
 0.1341723201275E+01
 0.1370909712291E+01
 0.1393087889271E+01
 0.1409208836773E+01
 0.1420425019320E+01
 0.1427811329159E+01
 0.1432248113068E+01
 0.1434402034750E+01
 0.1434750565013E+01
 0.1433618230589E+01
 0.1431210058788E+01
 0.1427637395096E+01
 0.1422935854354E+01
 0.1417077464583E+01
 0.1409979697089E+01
 0.1401515500679E+01
 0.1391528241213E+01
 0.1379853743935E+01
 0.1366349196154E+01
 0.1350929204648E+01
 0.1333624205617E+01
 0.1314625499097E+01
 0.1294292064206E+01
 0.1273176224374E+01
 0.1252115107532E+01
 0.1232424925404E+01
 0.1216235933523E+01
 0.1207009290904E+01
 0.1210259456620E+01
 0.1234398104951E+01
 0.1291376494779E+01
 0.1396212817668E+01
 0.1563931428821E+01
 0.1803178612844E+01
 0.2108082743558E+01
 0.2452036197841E+01
 0.2789267658795E+01
 0.1170487710574E+01
 0.1220391040161E+01
 0.1269239985215E+01
 0.1313301572878E+01
 0.1350105903827E+01
 0.1378913199931E+01
 0.1400316677713E+01
 0.1415565510486E+01
 0.1426027295159E+01
 0.1432901853788E+01
 0.1437127420444E+01
 0.1439388129082E+01
 0.1440158291044E+01
 0.1439750609398E+01
 0.1438355744713E+01
 0.1436070455431E+01
 0.1432915453817E+01
 0.1428845767216E+01
 0.1423756901281E+01
 0.1417491390399E+01
 0.1409850447355E+01
 0.1400613930785E+01
 0.1389568520546E+01
 0.1376543684956E+01
 0.1361470464281E+01
 0.1344422616625E+01
 0.1325611520003E+01
 0.1305395758444E+01
 0.1284356363967E+01
 0.1263477642115E+01
 0.1244476382971E+01
 0.1230335769149E+01
 0.1226107132732E+01
 0.1239968834223E+01
 0.1284322665502E+01
 0.1375998397396E+01
 0.1533608489286E+01
 0.1770389152927E+01
 0.2083619360970E+01
 0.2445714761733E+01
 0.2806495873403E+01
 0.1173914435686E+01
 0.1226068203536E+01
 0.1276906935949E+01
 0.1322111467390E+01
 0.1359051672607E+01
 0.1387221385287E+01
 0.1407601320389E+01
 0.1421784322930E+01
 0.1431363142472E+01
 0.1437653402928E+01
 0.1441636619942E+01
 0.1444001260719E+01
 0.1445209021828E+01
 0.1445555058052E+01
 0.1445213071264E+01
 0.1444265151062E+01
 0.1442719046601E+01
 0.1440516341524E+01
 0.1437535314365E+01
 0.1433593440816E+01
 0.1428455123359E+01
 0.1421849176008E+01
 0.1413496403955E+01
 0.1403146093936E+01
 0.1390635710346E+01
 0.1375927970806E+01
 0.1359092560517E+01
 0.1340297352568E+01
 0.1319864170961E+01
 0.1298430893824E+01
 0.1277265080381E+01
 0.1258796781050E+01
 0.1247470837803E+01
 0.1250989215172E+01
 0.1281875907125E+01
 0.1358539516240E+01
 0.1503459333195E+01
 0.1735558401799E+01
 0.2056785961219E+01
 0.2439383599912E+01
 0.2826499013882E+01
 0.1177834880815E+01
 0.1232493381665E+01
 0.1285473943994E+01
 0.1331752768604E+01
 0.1368575152825E+01
 0.1395786773373E+01
 0.1414856320041E+01
 0.1427764976283E+01
 0.1436332111568E+01
 0.1441971813049E+01
 0.1445689024585E+01
 0.1448160776744E+01
 0.1449825656268E+01
 0.1450955315705E+01
 0.1451704052589E+01
 0.1452139537478E+01
 0.1452258968203E+01
 0.1451994686943E+01
 0.1451213346657E+01
 0.1449713788323E+01
 0.1447230108605E+01
 0.1443446102544E+01
 0.1438022359127E+01
 0.1430634111955E+01
 0.1421032710143E+01
 0.1409078670615E+01
 0.1394709048730E+01
 0.1377908166922E+01
 0.1358741015585E+01
 0.1337491881486E+01
 0.1314952699122E+01
 0.1292935078991E+01
 0.1275138054034E+01
 0.1268524376588E+01
 0.1285330238448E+01
 0.1345132403160E+01
 0.1474370884624E+01
 0.1698862683603E+01
 0.2027272263797E+01
 0.2432785691015E+01
 0.2849878156090E+01
 0.1182357247832E+01
 0.1239819865345E+01
 0.1295095562574E+01
 0.1342317145813E+01
 0.1378678408052E+01
 0.1404539388905E+01
 0.1421974056935E+01
 0.1433390376206E+01
 0.1440822864465E+01
 0.1445756627711E+01
 0.1449194660270E+01
 0.1451784456980E+01
 0.1453930324501E+01
 0.1455874498924E+01
 0.1457749731773E+01
 0.1459609923699E+01
 0.1461444613707E+01
 0.1463181737377E+01
 0.1464682798752E+01
 0.1465735568858E+01
 0.1466051627856E+01
 0.1465276985364E+01
 0.1463018710077E+01
 0.1458885208141E+01
 0.1452550732399E+01
 0.1443784754036E+01
 0.1432403988172E+01
 0.1418220750632E+01
 0.1401051723427E+01
 0.1380829322348E+01
 0.1357855944089E+01
 0.1333274985171E+01
 0.1309913750248E+01
 0.1293726472160E+01
 0.1296180059852E+01
 0.1337403570510E+01
 0.1447596176687E+01
 0.1660674862634E+01
 0.1994682505674E+01
 0.2425560526825E+01
 0.2877255788245E+01
 0.1187621416882E+01
 0.1248243570284E+01
 0.1305959423733E+01
 0.1353900589621E+01
 0.1389342336925E+01
 0.1413378824908E+01
 0.1428820159218E+01
 0.1438524986780E+01
 0.1444713231187E+01
 0.1448901859698E+01
 0.1452061219100E+01
 0.1454789451104E+01
 0.1457445247444E+01
 0.1460235881071E+01
 0.1463270893818E+01
 0.1466591526394E+01
 0.1470183018912E+01
 0.1473974322704E+01
 0.1477829125215E+01
 0.1481532896389E+01
 0.1484783925301E+01
 0.1487199030447E+01
 0.1488339530290E+01
 0.1487755225275E+01
 0.1485053694793E+01
 0.1479926700405E+01
 0.1472086045851E+01
 0.1461188003563E+01
 0.1446816021838E+01
 0.1428562519155E+01
 0.1406241975406E+01
 0.1380301623736E+01
 0.1352595980189E+01
 0.1327813140944E+01
 0.1316118492806E+01
 0.1337362157197E+01
 0.1424877620698E+01
 0.1621681166251E+01
 0.1958567883779E+01
 0.2417226965873E+01
 0.2909355541306E+01
 0.1193810483550E+01
 0.1258017035323E+01
 0.1318292165069E+01
 0.1366596512554E+01
 0.1400514125470E+01
 0.1422164311662E+01
 0.1435228717781E+01
 0.1443013763397E+01
 0.1447870873785E+01
 0.1451297189741E+01
 0.1454195292647E+01
 0.1457093391993E+01
 0.1460293712966E+01
 0.1463963760144E+01
 0.1468188861377E+01
 0.1472999217935E+01
 0.1478379558102E+01
 0.1484265771509E+01
 0.1490531850449E+01
 0.1496970977128E+01
 0.1503278993536E+01
 0.1509053709020E+01
 0.1513819628718E+01
 0.1517077053263E+01
 0.1518378484014E+01
 0.1517353222147E+01
 0.1513626439770E+01
 0.1506718506244E+01
 0.1496001291288E+01
 0.1480750052400E+01
 0.1460311141127E+01
 0.1434435897271E+01
 0.1403943143310E+01
 0.1372032807429E+01
 0.1347019479962E+01
 0.1347442751027E+01
 0.1408598717817E+01
 0.1583070042753E+01
 0.1918494721690E+01
 0.2407138618091E+01
 0.2947049589310E+01
 0.1201167693443E+01
 0.1269468851384E+01
 0.1332364929462E+01
 0.1380482936663E+01
 0.1412089281604E+01
 0.1430702828494E+01
 0.1440997913624E+01
 0.1446682091288E+01
 0.1450154749476E+01
 0.1452829665363E+01
 0.1455503899019E+01
 0.1458615681520E+01
 0.1462401159526E+01
 0.1466984405414E+01
 0.1472426365341E+01
 0.1478748364558E+01
 0.1485938762509E+01
 0.1493946671179E+01
 0.1502665164519E+01
 0.1511906388429E+01
 0.1521376410543E+01
 0.1530666133974E+01
 0.1539273551870E+01
 0.1546659364062E+01
 0.1552333455993E+01
 0.1555879401161E+01
 0.1556856330708E+01
 0.1554672451017E+01
 0.1548515870373E+01
 0.1537378636339E+01
 0.1520178694956E+01
 0.1496005666553E+01
 0.1464632017555E+01
 0.1427612878571E+01
 0.1390895858787E+01
 0.1370526919399E+01
 0.1401958990380E+01
 0.1546820456076E+01
 0.1874172171039E+01
 0.2394414946020E+01
 0.2991413728359E+01
 0.1210021953265E+01
 0.1283030848716E+01
 0.1348496446377E+01
 0.1395599880769E+01
 0.1423886570955E+01
 0.1438735803642E+01
 0.1445887012101E+01
 0.1449337249343E+01
 0.1451417545685E+01
 0.1453385939396E+01
 0.1455896302603E+01
 0.1459278935767E+01
 0.1463696352615E+01
 0.1469227069692E+01
 0.1475908479479E+01
 0.1483755747982E+01
 0.1492765261617E+01
 0.1502905803464E+01
 0.1514098736108E+01
 0.1526187567075E+01
 0.1538903310725E+01
 0.1551844465304E+01
 0.1564494555068E+01
 0.1576285359288E+01
 0.1586697108389E+01
 0.1595285236017E+01
 0.1601564872221E+01
 0.1604858430235E+01
 0.1604203329227E+01
 0.1598352819908E+01
 0.1585856527845E+01
 0.1565214356686E+01
 0.1535206840051E+01
 0.1495686926172E+01
 0.1449822529273E+01
 0.1409926123770E+01
 0.1409154676556E+01
 0.1516122441514E+01
 0.1825698950713E+01
 0.2377853199626E+01
 0.3043806455060E+01
 0.1220827396907E+01
 0.1299276312705E+01
 0.1367049298781E+01
 0.1411910765971E+01
 0.1435614315079E+01
 0.1445925958738E+01
 0.1449616150735E+01
 0.1450771934726E+01
 0.1451509198634E+01
 0.1452855053643E+01
 0.1455286106930E+01
 0.1459010566220E+01
 0.1464112634032E+01
 0.1470625051311E+01
 0.1478563606738E+01
 0.1487940562411E+01
 0.1498764848580E+01
 0.1511031277303E+01
 0.1524698794976E+01
 0.1539655580028E+01
 0.1555674545897E+01
 0.1572379344581E+01
 0.1589253486500E+01
 0.1605711462612E+01
 0.1621216910892E+01
 0.1635314685808E+01
 0.1647498111955E+01
 0.1657031377725E+01
 0.1662838172683E+01
 0.1663486340767E+01
 0.1657236296305E+01
 0.1642109100111E+01
 0.1616021700529E+01
 0.1577198963245E+01
 0.1525810467590E+01
 0.1469299322530E+01
 0.1435530290557E+01
 0.1495960072279E+01
 0.1774040834157E+01
 0.2355834328759E+01
 0.3105989902630E+01
 0.1234226803044E+01
 0.1318973555893E+01
 0.1388409983826E+01
 0.1429238307535E+01
 0.1446827690811E+01
 0.1451847603250E+01
 0.1451870763561E+01
 0.1450770237477E+01
 0.1450281505005E+01
 0.1451131732784E+01
 0.1453593577230E+01
 0.1457744460299E+01
 0.1463589216354E+01
 0.1471116783842E+01
 0.1480324498206E+01
 0.1491225469813E+01
 0.1503845658470E+01
 0.1518211868144E+01
 0.1534329534634E+01
 0.1552145267206E+01
 0.1571493111210E+01
 0.1592043348022E+01
 0.1613297471648E+01
 0.1634665805944E+01
 0.1655608205463E+01
 0.1675675254363E+01
 0.1694358913226E+01
 0.1710891916699E+01
 0.1724123350518E+01
 0.1732495889723E+01
 0.1734075504937E+01
 0.1726551204067E+01
 0.1707180851452E+01
 0.1672788097754E+01
 0.1620617217770E+01
 0.1552461971222E+01
 0.1487641941492E+01
 0.1493859080179E+01
 0.1721937373426E+01
 0.2326270432779E+01
 0.3180324590194E+01
 0.1251157129126E+01
 0.1343159679227E+01
 0.1412932966453E+01
 0.1447161086702E+01
 0.1456880339201E+01
 0.1455986317577E+01
 0.1452312475581E+01
 0.1449116079901E+01
 0.1447593732245E+01
 0.1448120111383E+01
 0.1450748122074E+01
 0.1455422713609E+01
 0.1462072489591E+01
 0.1470646928481E+01
 0.1481129283481E+01
 0.1493537692830E+01
 0.1507919440694E+01
 0.1524338564101E+01
 0.1542854892472E+01
 0.1563486888699E+01
 0.1586150975979E+01
 0.1610590480429E+01
 0.1636348250745E+01
 0.1662846284780E+01
 0.1689553041872E+01
 0.1716038175364E+01
 0.1741808123358E+01
 0.1766087405557E+01
 0.1787689910374E+01
 0.1804997950233E+01
 0.1815988243855E+01
 0.1818192312797E+01
 0.1808483458912E+01
 0.1782665322090E+01
 0.1735490357000E+01
 0.1663020664086E+01
 0.1573129326784E+01
 0.1520730294832E+01
 0.1675567537564E+01
 0.2286742590653E+01
 0.3270106375269E+01
 0.1273032909150E+01
 0.1373236739910E+01
 0.1440807093616E+01
 0.1464853597217E+01
 0.1464882624978E+01
 0.1457756917746E+01
 0.1450597142266E+01
 0.1445603622145E+01
 0.1443319088146E+01
 0.1443737754641E+01
 0.1446690836539E+01
 0.1451997358144E+01
 0.1459517301502E+01
 0.1469167441045E+01
 0.1480922487834E+01
 0.1494810118962E+01
 0.1510902894003E+01
 0.1529306295266E+01
 0.1550140749595E+01
 0.1573508447896E+01
 0.1599430549761E+01
 0.1627755780700E+01
 0.1658099947674E+01
 0.1689917805300E+01
 0.1722698700783E+01
 0.1756039243543E+01
 0.1789467256047E+01
 0.1822214978003E+01
 0.1853099003106E+01
 0.1880509039823E+01
 0.1902442052720E+01
 0.1916460128826E+01
 0.1919379682154E+01
 0.1906501861323E+01
 0.1870871247234E+01
 0.1803760849215E+01
 0.1700192491919E+01
 0.1591617621049E+01
 0.1647441176382E+01
 0.2235255770415E+01
 0.3380211174534E+01
 0.1302081665489E+01
 0.1411077649167E+01
 0.1471756826219E+01
 0.1480857879419E+01
 0.1469697991918E+01
 0.1456548911318E+01
 0.1446397642472E+01
 0.1440049016145E+01
 0.1437351888496E+01
 0.1437919727127E+01
 0.1441377004304E+01
 0.1447432022464E+01
 0.1455888169902E+01
 0.1466638584706E+01
 0.1479656009676E+01
 0.1494982386106E+01
 0.1512719021382E+01
 0.1533015789345E+01
 0.1556057550276E+01
 0.1582038896373E+01
 0.1611107167670E+01
 0.1643255228921E+01
 0.1678215950684E+01
 0.1715508099044E+01
 0.1754655491388E+01
 0.1795280337196E+01
 0.1836923038815E+01
 0.1878826917497E+01
 0.1919846312394E+01
 0.1958449219975E+01
 0.1992761497696E+01
 0.2020558072384E+01
 0.2038945164079E+01
 0.2043346290080E+01
 0.2026134269711E+01
 0.1975787702128E+01
 0.1876275021288E+01
 0.1725945212131E+01
 0.1660936212629E+01
 0.2172781750579E+01
 0.3518496352620E+01
 0.1341996614725E+01
 0.1459068661998E+01
 0.1504395839301E+01
 0.1492816759491E+01
 0.1470041168401E+01
 0.1451797426282E+01
 0.1439425451058E+01
 0.1432304020694E+01
 0.1429614828628E+01
 0.1430622424266E+01
 0.1434778469478E+01
 0.1441703440396E+01
 0.1451160388088E+01
 0.1463029857901E+01
 0.1477290031955E+01
 0.1494001918697E+01
 0.1513298459453E+01
 0.1535375465957E+01
 0.1560483258411E+01
 0.1588912428816E+01
 0.1620953243193E+01
 0.1656786439616E+01
 0.1696324484124E+01
 0.1739201093066E+01
 0.1784993215848E+01
 0.1833331789084E+01
 0.1883734378934E+01
 0.1935438934199E+01
 0.1987368945711E+01
 0.2038148385053E+01
 0.2086137752450E+01
 0.2129482027801E+01
 0.2165886532205E+01
 0.2191571503290E+01
 0.2199454167183E+01
 0.2177672237236E+01
 0.2105398181455E+01
 0.1946205157011E+01
 0.1756284880452E+01
 0.2110689996858E+01
 0.3699339014021E+01
 0.1399310984473E+01
 0.1519778819678E+01
 0.1534873052378E+01
 0.1497367027786E+01
 0.1464763534812E+01
 0.1443039502785E+01
 0.1429451040961E+01
 0.1422272412147E+01
 0.1420064681810E+01
 0.1421827287896E+01
 0.1426885653610E+01
 0.1434802756417E+01
 0.1445320980358E+01
 0.1458320808816E+01
 0.1473793842177E+01
 0.1491824881076E+01
 0.1512580735572E+01
 0.1536303263604E+01
 0.1563306416733E+01
 0.1593973919771E+01
 0.1628745098185E+01
 0.1668031247477E+01
 0.1712012280868E+01
 0.1760526025710E+01
 0.1813235345144E+01
 0.1869735956586E+01
 0.1929442480914E+01
 0.1991542074296E+01
 0.2055055066624E+01
 0.2118853659390E+01
 0.2181643213687E+01
 0.2242050752303E+01
 0.2298598344601E+01
 0.2348859540889E+01
 0.2387766537161E+01
 0.2405253616682E+01
 0.2384188544302E+01
 0.2271927612841E+01
 0.1996521340377E+01
 0.2090610333731E+01
 0.3954021175008E+01
 0.1486615899601E+01
 0.1593953052793E+01
 0.1554285877319E+01
 0.1490926035655E+01
 0.1453251451014E+01
 0.1429879938551E+01
 0.1416354103278E+01
 0.1409917665228E+01
 0.1408698087018E+01
 0.1411543827235E+01
 0.1417709079443E+01
 0.1426736585237E+01
 0.1438369452396E+01
 0.1452501711954E+01
 0.1469146532710E+01
 0.1488417014139E+01
 0.1510515395979E+01
 0.1535728322986E+01
 0.1564428934710E+01
 0.1597085029060E+01
 0.1634273859401E+01
 0.1676662796432E+01
 0.1724815597049E+01
 0.1778938867047E+01
 0.1838849587548E+01
 0.1904012919809E+01
 0.1973585190333E+01
 0.2046619031259E+01
 0.2122257532257E+01
 0.2199735753604E+01
 0.2278245993554E+01
 0.2356952610465E+01
 0.2435251991209E+01
 0.2512355793909E+01
 0.2586531940752E+01
 0.2652538622566E+01
 0.2699606280732E+01
 0.2702460221893E+01
 0.2467960310261E+01
 0.2230481893165E+01
 0.4367680060612E+01
 0.1631342872463E+01
 0.1670660422778E+01
 0.1545862451844E+01
 0.1473058954104E+01
 0.1434956049420E+01
 0.1412122273447E+01
 0.1400151864661E+01
 0.1395263832860E+01
 0.1395558860546E+01
 0.1399810495212E+01
 0.1407280770346E+01
 0.1417527613759E+01
 0.1430318355881E+01
 0.1445574075009E+01
 0.1463337567337E+01
 0.1483754332934E+01
 0.1507062948263E+01
 0.1533592454223E+01
 0.1563768425431E+01
 0.1598129331745E+01
 0.1637361309110E+01
 0.1682363639639E+01
 0.1734207763374E+01
 0.1793788540749E+01
 0.1861233623722E+01
 0.1935670356004E+01
 0.2015716789119E+01
 0.2100165541995E+01
 0.2188312519924E+01
 0.2279897226108E+01
 0.2374804282119E+01
 0.2472821354077E+01
 0.2573895768899E+01
 0.2678967626383E+01
 0.2789888918605E+01
 0.2910890499124E+01
 0.3037074552556E+01
 0.3187400245070E+01
 0.3245629649166E+01
 0.2794599937757E+01
 0.5238738466172E+01
 0.1906051123729E+01
 0.1673465977817E+01
 0.1504582091510E+01
 0.1445668842328E+01
 0.1408967611591E+01
 0.1390118754773E+01
 0.1380903324376E+01
 0.1378432762257E+01
 0.1380731165208E+01
 0.1386697876655E+01
 0.1395654111581E+01
 0.1407215065105E+01
 0.1421193546794E+01
 0.1437550983836E+01
 0.1456367197302E+01
 0.1477823655439E+01
 0.1502195609369E+01
 0.1529851200126E+01
 0.1561260267437E+01
 0.1597015041263E+01
 0.1637874728073E+01
 0.1684872966376E+01
 0.1739583971957E+01
 0.1804247608899E+01
 0.1879700056288E+01
 0.1964220157378E+01
 0.2055435081496E+01
 0.2151717365762E+01
 0.2252563890991E+01
 0.2358387764199E+01
 0.2470040812361E+01
 0.2588237915540E+01
 0.2712842611336E+01
 0.2845128824366E+01
 0.2992605593516E+01
 0.3165554247644E+01
 0.3388131157405E+01
 0.3651437680658E+01
 0.4205726700926E+01
 0.4183322435682E+01
 0.8026391606848E+01
 0.3522500408170E+00
 0.4828961106404E+00
 0.6113408286654E+00
 0.7324024789115E+00
 0.8435925347947E+00
 0.9435768330895E+00
 0.1031783800724E+01
 0.1108374455250E+01
 0.1174005908658E+01
 0.1229549869421E+01
 0.1275942926886E+01
 0.1314114889363E+01
 0.1344907692433E+01
 0.1368998793687E+01
 0.1386889482899E+01
 0.1398924062192E+01
 0.1405035875362E+01
 0.1405250840737E+01
 0.1400873360414E+01
 0.1394324141692E+01
 0.3448939412179E+00
 0.4790329984732E+00
 0.6099536420312E+00
 0.7334791864014E+00
 0.8472274804677E+00
 0.9500107548682E+00
 0.1041354637221E+01
 0.1121340503987E+01
 0.1190495642942E+01
 0.1249599473125E+01
 0.1299528458549E+01
 0.1341180845242E+01
 0.1375398597038E+01
 0.1402902135895E+01
 0.1424275827399E+01
 0.1439906315842E+01
 0.1449701214782E+01
 0.1453696162472E+01
 0.1451394026186E+01
 0.1441113696221E+01
 0.3376699097482E+00
 0.4758687649748E+00
 0.6095692086136E+00
 0.7355517223526E+00
 0.8517962745147E+00
 0.9572448979190E+00
 0.1051486316802E+01
 0.1134591777743E+01
 0.1207017955340E+01
 0.1269468782001E+01
 0.1322769437098E+01
 0.1367788461892E+01
 0.1405362451871E+01
 0.1436230074374E+01
 0.1460985982823E+01
 0.1479975263456E+01
 0.1493110889992E+01
 0.1500050253583E+01
 0.1499867055386E+01
 0.1492110970833E+01
 0.3308136980967E+00
 0.4731796679976E+00
 0.6099131652019E+00
 0.7384206308314E+00
 0.8570983207226E+00
 0.9650730054928E+00
 0.1062012827561E+01
 0.1148004704164E+01
 0.1223471504254E+01
 0.1289065724281E+01
 0.1345569472021E+01
 0.1393821783568E+01
 0.1434643284345E+01
 0.1468762396856E+01
 0.1496745532500E+01
 0.1518890812943E+01
 0.1535060798559E+01
 0.1544841319762E+01
 0.1547729609610E+01
 0.1543934378097E+01
 0.3243601141026E+00
 0.4709386402881E+00
 0.6108105350173E+00
 0.7418900335683E+00
 0.8629454736325E+00
 0.9733168379820E+00
 0.1072776396619E+01
 0.1161447951900E+01
 0.1239744165027E+01
 0.1308285060610E+01
 0.1367818215685E+01
 0.1419152279901E+01
 0.1463081796483E+01
 0.1500307486093E+01
 0.1531358272797E+01
 0.1556491018126E+01
 0.1575592554513E+01
 0.1588403893180E+01
 0.1594802940443E+01
 0.1595380596921E+01
 0.3183214837102E+00
 0.4690967198454E+00
 0.6121416263661E+00
 0.7457941852973E+00
 0.8691657741963E+00
 0.9818124170009E+00
 0.1083627615201E+01
 0.1174789267995E+01
 0.1255717244954E+01
 0.1327013247718E+01
 0.1389397416418E+01
 0.1443647944435E+01
 0.1490527682371E+01
 0.1530704194965E+01
 0.1564673263210E+01
 0.1592683339277E+01
 0.1614707588846E+01
 0.1630672905417E+01
 0.1640742433515E+01
 0.1645725498683E+01
 0.3126993299399E+00
 0.4676059374124E+00
 0.6138028547135E+00
 0.7499933186886E+00
 0.8756053146233E+00
 0.9904081364940E+00
 0.1094424424735E+01
 0.1187898260585E+01
 0.1271269663226E+01
 0.1345132736225E+01
 0.1410186162284E+01
 0.1467179208398E+01
 0.1516842521947E+01
 0.1559812838859E+01
 0.1596566575983E+01
 0.1627372596400E+01
 0.1652307268407E+01
 0.1671464603379E+01
 0.1685204807941E+01
 0.1694460606621E+01
 0.3074916628347E+00
 0.4664190567094E+00
 0.6157025842736E+00
 0.7543645310030E+00
 0.8821264750177E+00
 0.9989642878658E+00
 0.1105032386567E+01
 0.1200648203494E+01
 0.1286281082083E+01
 0.1362525719411E+01
 0.1430064735058E+01
 0.1489621665237E+01
 0.1541898116217E+01
 0.1587506856098E+01
 0.1626918813482E+01
 0.1660438388247E+01
 0.1688241344417E+01
 0.1710556457392E+01
 0.1727875260141E+01
 0.1741186202148E+01
 0.3026953091132E+00
 0.4654915244074E+00
 0.6177582407928E+00
 0.7587982365153E+00
 0.8886051562638E+00
 0.1007352470630E+01
 0.1115325188525E+01
 0.1212917571175E+01
 0.1300634319160E+01
 0.1379076953444E+01
 0.1448917060057E+01
 0.1510856797759E+01
 0.1565573961504E+01
 0.1613665190888E+01
 0.1655605923681E+01
 0.1691741555925E+01
 0.1722334765505E+01
 0.1747717600309E+01
 0.1768463345630E+01
 0.1785564180285E+01
 0.2983070217521E+00
 0.4647821183436E+00
 0.6198952275375E+00
 0.7631959390039E+00
 0.8949290735173E+00
 0.1015454890069E+01
 0.1125185045542E+01
 0.1224591255176E+01
 0.1314217138083E+01
 0.1394675679141E+01
 0.1466632050544E+01
 0.1530771884853E+01
 0.1587754955328E+01
 0.1638168649874E+01
 0.1682499016649E+01
 0.1721132117434E+01
 0.1754402899619E+01
 0.1782719430748E+01
 0.1806699408382E+01
 0.1827299915121E+01
 0.2943239048071E+00
 0.4642532579821E+00
 0.6220462436866E+00
 0.7674689811174E+00
 0.9009966350675E+00
 0.1023163905184E+01
 0.1134503007244E+01
 0.1235561527259E+01
 0.1326923597104E+01
 0.1409216964450E+01
 0.1483104446603E+01
 0.1549259885177E+01
 0.1608330422094E+01
 0.1660899515519E+01
 0.1707466905112E+01
 0.1748456018212E+01
 0.1784259959558E+01
 0.1815340648494E+01
 0.1842332947795E+01
 0.1866132891584E+01
 0.2907435717561E+00
 0.4638710903872E+00
 0.6241508592439E+00
 0.7715377740355E+00
 0.9067162552425E+00
 0.1030381747504E+01
 0.1143179209978E+01
 0.1245728755467E+01
 0.1338655026269E+01
 0.1422602645947E+01
 0.1498235424032E+01
 0.1566219609212E+01
 0.1627194254631E+01
 0.1681742659455E+01
 0.1730379261439E+01
 0.1773560233522E+01
 0.1811724333909E+01
 0.1845370021512E+01
 0.1875130882894E+01
 0.1901826120298E+01
 0.2875641475459E+00
 0.4636054659828E+00
 0.6261552104006E+00
 0.7753313117076E+00
 0.9120059317756E+00
 0.1037020374434E+01
 0.1151123097293E+01
 0.1255001956724E+01
 0.1349320770954E+01
 0.1434742075337E+01
 0.1511933210721E+01
 0.1581556274508E+01
 0.1644245789617E+01
 0.1700587343188E+01
 0.1751109733127E+01
 0.1796296862483E+01
 0.1836622516218E+01
 0.1872608562543E+01
 0.1904875552420E+01
 0.1934159969690E+01
 0.2847842136423E+00
 0.4634298672656E+00
 0.6280117838570E+00
 0.7787868655472E+00
 0.9167930004668E+00
 0.1043001417030E+01
 0.1158253624925E+01
 0.1263299240519E+01
 0.1358838789515E+01
 0.1445552771085E+01
 0.1524113760604E+01
 0.1595182318921E+01
 0.1659391043862E+01
 0.1717329203296E+01
 0.1769538788486E+01
 0.1816526509326E+01
 0.1858792364851E+01
 0.1896871870598E+01
 0.1931365784698E+01
 0.1962931022019E+01
 0.2824027331327E+00
 0.4633213210532E+00
 0.6296792543836E+00
 0.7818497812794E+00
 0.9210139852624E+00
 0.1048256169319E+01
 0.1164499433851E+01
 0.1270548160797E+01
 0.1367136142162E+01
 0.1454961005274E+01
 0.1534701457229E+01
 0.1607018334554E+01
 0.1672544068070E+01
 0.1731872192834E+01
 0.1785556247299E+01
 0.1834121167119E+01
 0.1878086003641E+01
 0.1917992932680E+01
 0.1954420207241E+01
 0.1987954062139E+01
 0.2804189690880E+00
 0.4632603097601E+00
 0.6311223660958E+00
 0.7844733511446E+00
 0.9246145208671E+00
 0.1052725617215E+01
 0.1169799017614E+01
 0.1276686026169E+01
 0.1374149430980E+01
 0.1462902369837E+01
 0.1543629844314E+01
 0.1616994055051E+01
 0.1683628311206E+01
 0.1744130403444E+01
 0.1799063525642E+01
 0.1848966721463E+01
 0.1894372417985E+01
 0.1935824830941E+01
 0.1973880048076E+01
 0.2009065181252E+01
 0.2788324160068E+00
 0.4632306928699E+00
 0.6323118463627E+00
 0.7866187320590E+00
 0.9275493143716E+00
 0.1056360481402E+01
 0.1174100871206E+01
 0.1281660165482E+01
 0.1379825186210E+01
 0.1469322297768E+01
 0.1550842323402E+01
 0.1625049299514E+01
 0.1692577884845E+01
 0.1754029684427E+01
 0.1809975563130E+01
 0.1860965060901E+01
 0.1907539617503E+01
 0.1950242819900E+01
 0.1989611053230E+01
 0.2026124649057E+01
 0.2776427371376E+00
 0.4632196381659E+00
 0.6332243401388E+00
 0.7882548909281E+00
 0.9297821273341E+00
 0.1059121262461E+01
 0.1177363618975E+01
 0.1285428152043E+01
 0.1384120199096E+01
 0.1474176525472E+01
 0.1556292783146E+01
 0.1631134819080E+01
 0.1699338671345E+01
 0.1761509021485E+01
 0.1818222420750E+01
 0.1870035781212E+01
 0.1917496295604E+01
 0.1961145778901E+01
 0.2001504787990E+01
 0.2039019071890E+01
 0.2768497193086E+00
 0.4632175684440E+00
 0.6338423664723E+00
 0.7893585743583E+00
 0.9312857757979E+00
 0.1060978289510E+01
 0.1179556127560E+01
 0.1287957994521E+01
 0.1387001805540E+01
 0.1477431490229E+01
 0.1559946141065E+01
 0.1635213018027E+01
 0.1703869249549E+01
 0.1766521662246E+01
 0.1823750553448E+01
 0.1876117498016E+01
 0.1924173037498E+01
 0.1968457190879E+01
 0.2009479478009E+01
 0.2047662830639E+01
 0.2764532387595E+00
 0.4632181209820E+00
 0.6341542869771E+00
 0.7899142884065E+00
 0.9320421325886E+00
 0.1061911757879E+01
 0.1180657590971E+01
 0.1289228281350E+01
 0.1388448103402E+01
 0.1479064638202E+01
 0.1561778765068E+01
 0.1637258512114E+01
 0.1706141603343E+01
 0.1769035964339E+01
 0.1826523749395E+01
 0.1879168786472E+01
 0.1927523144184E+01
 0.1972125759273E+01
 0.2013480481955E+01
 0.2051998874459E+01
 0.2764532388374E+00
 0.4632181209913E+00
 0.6341542869427E+00
 0.7899142883468E+00
 0.9320421325163E+00
 0.1061911757802E+01
 0.1180657590897E+01
 0.1289228281282E+01
 0.1388448103345E+01
 0.1479064638156E+01
 0.1561778765034E+01
 0.1637258512090E+01
 0.1706141603328E+01
 0.1769035964332E+01
 0.1826523749393E+01
 0.1879168786473E+01
 0.1927523144187E+01
 0.1972125759278E+01
 0.2013480481961E+01
 0.2051998874468E+01
 0.2768497195422E+00
 0.4632175684724E+00
 0.6338423663698E+00
 0.7893585741803E+00
 0.9312857755817E+00
 0.1060978289282E+01
 0.1179556127338E+01
 0.1287957994319E+01
 0.1387001805367E+01
 0.1477431490092E+01
 0.1559946140963E+01
 0.1635213017957E+01
 0.1703869249506E+01
 0.1766521662224E+01
 0.1823750553441E+01
 0.1876117498019E+01
 0.1924173037507E+01
 0.1968457190893E+01
 0.2009479478028E+01
 0.2047662830664E+01
 0.2776427375269E+00
 0.4632196382148E+00
 0.6332243399707E+00
 0.7882548906344E+00
 0.9297821269768E+00
 0.1059121262083E+01
 0.1177363618607E+01
 0.1285428151709E+01
 0.1384120198810E+01
 0.1474176525244E+01
 0.1556292782977E+01
 0.1631134818965E+01
 0.1699338671275E+01
 0.1761509021449E+01
 0.1818222420738E+01
 0.1870035781217E+01
 0.1917496295620E+01
 0.1961145778925E+01
 0.2001504788022E+01
 0.2039019071932E+01
 0.2788324165519E+00
 0.4632306929419E+00
 0.6323118461331E+00
 0.7866187316543E+00
 0.9275493138778E+00
 0.1056360480879E+01
 0.1174100870696E+01
 0.1281660165018E+01
 0.1379825185813E+01
 0.1469322297451E+01
 0.1550842323168E+01
 0.1625049299355E+01
 0.1692577884748E+01
 0.1754029684378E+01
 0.1809975563115E+01
 0.1860965060908E+01
 0.1907539617525E+01
 0.1950242819933E+01
 0.1989611053275E+01
 0.2026124649116E+01
 0.2804189697891E+00
 0.4632603098587E+00
 0.6311223658103E+00
 0.7844733506354E+00
 0.9246145202431E+00
 0.1052725616552E+01
 0.1169799016967E+01
 0.1276686025578E+01
 0.1374149430476E+01
 0.1462902369435E+01
 0.1543629844016E+01
 0.1616994054850E+01
 0.1683628311084E+01
 0.1744130403383E+01
 0.1799063525624E+01
 0.1848966721474E+01
 0.1894372418014E+01
 0.1935824830984E+01
 0.1973880048134E+01
 0.2009065181328E+01
 0.2824027339897E+00
 0.4633213211831E+00
 0.6296792540497E+00
 0.7818497806740E+00
 0.9210139845165E+00
 0.1048256168524E+01
 0.1164499433073E+01
 0.1270548160086E+01
 0.1367136141554E+01
 0.1454961004789E+01
 0.1534701456871E+01
 0.1607018334313E+01
 0.1672544067925E+01
 0.1731872192763E+01
 0.1785556247281E+01
 0.1834121167135E+01
 0.1878086003678E+01
 0.1917992932733E+01
 0.1954420207312E+01
 0.1987954062233E+01
 0.2847842146555E+00
 0.4634298674323E+00
 0.6280117834835E+00
 0.7787868648559E+00
 0.9167929996089E+00
 0.1043001416111E+01
 0.1158253624023E+01
 0.1263299239693E+01
 0.1358838788808E+01
 0.1445552770521E+01
 0.1524113760188E+01
 0.1595182318642E+01
 0.1659391043697E+01
 0.1717329203217E+01
 0.1769538788468E+01
 0.1816526509347E+01
 0.1858792364897E+01
 0.1896871870663E+01
 0.1931365784782E+01
 0.1962931022130E+01
 0.2875641487156E+00
 0.4636054661934E+00
 0.6261552099983E+00
 0.7753313109426E+00
 0.9120059308177E+00
 0.1037020373402E+01
 0.1151123096276E+01
 0.1255001955791E+01
 0.1349320770154E+01
 0.1434742074699E+01
 0.1511933210252E+01
 0.1581556274195E+01
 0.1644245789434E+01
 0.1700587343104E+01
 0.1751109733111E+01
 0.1796296862511E+01
 0.1836622516273E+01
 0.1872608562618E+01
 0.1904875552518E+01
 0.1934159969819E+01
 0.2907435730829E+00
 0.4638710906495E+00
 0.6241508588252E+00
 0.7715377732106E+00
 0.9067162541981E+00
 0.1030381746372E+01
 0.1143179208857E+01
 0.1245728754435E+01
 0.1338655025383E+01
 0.1422602645241E+01
 0.1498235423514E+01
 0.1566219608869E+01
 0.1627194254433E+01
 0.1681742659368E+01
 0.1730379261428E+01
 0.1773560233559E+01
 0.1811724333975E+01
 0.1845370021599E+01
 0.1875130883005E+01
 0.1901826120444E+01
 0.2943239062915E+00
 0.4642532583053E+00
 0.6220462432658E+00
 0.7674689802487E+00
 0.9009966339521E+00
 0.1023163903965E+01
 0.1134503006030E+01
 0.1235561526137E+01
 0.1326923596139E+01
 0.1409216963680E+01
 0.1483104446041E+01
 0.1549259884807E+01
 0.1608330421885E+01
 0.1660899515432E+01
 0.1707466905108E+01
 0.1748456018260E+01
 0.1784259959636E+01
 0.1815340648592E+01
 0.1842332947919E+01
 0.1866132891748E+01
 0.2983070233953E+00
 0.4647821187383E+00
 0.6198952271304E+00
 0.7631959381091E+00
 0.8949290723481E+00
 0.1015454888779E+01
 0.1125185044248E+01
 0.1224591253975E+01
 0.1314217137047E+01
 0.1394675678315E+01
 0.1466632049943E+01
 0.1530771884461E+01
 0.1587754955111E+01
 0.1638168649789E+01
 0.1682499016655E+01
 0.1721132117494E+01
 0.1754402899710E+01
 0.1782719430859E+01
 0.1806699408519E+01
 0.1827299915303E+01
 0.3026953109165E+00
 0.4654915248855E+00
 0.6177582404175E+00
 0.7587982356142E+00
 0.8886051550598E+00
 0.1007352469285E+01
 0.1115325187165E+01
 0.1212917569905E+01
 0.1300634318062E+01
 0.1379076952570E+01
 0.1448917059422E+01
 0.1510856797349E+01
 0.1565573961282E+01
 0.1613665190809E+01
 0.1655605923699E+01
 0.1691741556000E+01
 0.1722334765610E+01
 0.1747717600432E+01
 0.1768463345780E+01
 0.1785564180486E+01
 0.3074916647998E+00
 0.4664190572841E+00
 0.6157025839497E+00
 0.7543645301173E+00
 0.8821264737997E+00
 0.9989642864841E+00
 0.1105032385157E+01
 0.1200648202170E+01
 0.1286281080934E+01
 0.1362525718496E+01
 0.1430064734397E+01
 0.1489621664815E+01
 0.1541898115994E+01
 0.1587506856027E+01
 0.1626918813513E+01
 0.1660438388338E+01
 0.1688241344537E+01
 0.1710556457528E+01
 0.1727875260303E+01
 0.1741186202367E+01
 0.3126993320693E+00
 0.4676059380987E+00
 0.6138028544626E+00
 0.7499933178420E+00
 0.8756053134138E+00
 0.9904081350959E+00
 0.1094424423291E+01
 0.1187898259219E+01
 0.1271269662037E+01
 0.1345132735278E+01
 0.1410186161602E+01
 0.1467179207967E+01
 0.1516842521728E+01
 0.1559812838799E+01
 0.1596566576030E+01
 0.1627372596508E+01
 0.1652307268543E+01
 0.1671464603530E+01
 0.1685204808116E+01
 0.1694460606856E+01
 0.3183214860071E+00
 0.4690967206597E+00
 0.6121416262121E+00
 0.7457941845153E+00
 0.8691657730196E+00
 0.9818124156077E+00
 0.1083627613742E+01
 0.1174789266602E+01
 0.1255717243737E+01
 0.1327013246748E+01
 0.1389397415723E+01
 0.1443647944001E+01
 0.1490527682158E+01
 0.1530704194917E+01
 0.1564673263274E+01
 0.1592683339404E+01
 0.1614707588999E+01
 0.1630672905581E+01
 0.1640742433702E+01
 0.1645725498932E+01
 0.3243601165707E+00
 0.4709386412489E+00
 0.6108105349857E+00
 0.7418900328782E+00
 0.8629454725143E+00
 0.9733168366168E+00
 0.1072776395164E+01
 0.1161447950498E+01
 0.1239744163796E+01
 0.1308285059628E+01
 0.1367818214985E+01
 0.1419152279470E+01
 0.1463081796278E+01
 0.1500307486059E+01
 0.1531358272877E+01
 0.1556491018271E+01
 0.1575592554683E+01
 0.1588403893358E+01
 0.1594802940640E+01
 0.1595380597181E+01
 0.3308137007410E+00
 0.4731796691249E+00
 0.6099131653201E+00
 0.7384206302618E+00
 0.8570983196900E+00
 0.9650730041801E+00
 0.1062012826132E+01
 0.1148004702771E+01
 0.1223471503024E+01
 0.1289065723301E+01
 0.1345569471326E+01
 0.1393821783146E+01
 0.1434643284151E+01
 0.1468762396835E+01
 0.1496745532595E+01
 0.1518890813103E+01
 0.1535060798743E+01
 0.1544841319951E+01
 0.1547729609816E+01
 0.1543934378360E+01
 0.3376699125747E+00
 0.4758687662904E+00
 0.6095692089104E+00
 0.7355517219332E+00
 0.8517962735960E+00
 0.9572448966848E+00
 0.1051486315423E+01
 0.1134591776380E+01
 0.1207017954129E+01
 0.1269468781037E+01
 0.1322769436418E+01
 0.1367788461485E+01
 0.1405362451691E+01
 0.1436230074364E+01
 0.1460985982929E+01
 0.1479975263628E+01
 0.1493110890186E+01
 0.1500050253780E+01
 0.1499867055599E+01
 0.1492110971094E+01
 0.3448939442345E+00
 0.4790330000002E+00
 0.6099536425348E+00
 0.7334791861622E+00
 0.8472274796921E+00
 0.9500107537404E+00
 0.1041354635919E+01
 0.1121340502678E+01
 0.1190495641772E+01
 0.1249599472194E+01
 0.1299528457896E+01
 0.1341180844855E+01
 0.1375398596871E+01
 0.1402902135893E+01
 0.1424275827509E+01
 0.1439906316019E+01
 0.1449701214980E+01
 0.1453696162672E+01
 0.1451394026401E+01
 0.1441113696474E+01
 0.3522500440235E+00
 0.4828961123944E+00
 0.6113408294038E+00
 0.7324024788829E+00
 0.8435925341923E+00
 0.9435768320977E+00
 0.1031783799526E+01
 0.1108374454025E+01
 0.1174005907557E+01
 0.1229549868545E+01
 0.1275942926274E+01
 0.1314114889002E+01
 0.1344907692279E+01
 0.1368998793687E+01
 0.1386889483003E+01
 0.1398924062360E+01
 0.1405035875553E+01
 0.1405250840935E+01
 0.1400873360628E+01
 0.1394324141926E+01
 0.1486035690871E+01
 0.1249248834437E+01
 0.7457012464481E+00
 0.4920228360909E+00
 0.3142185367026E+00
 0.1818847354030E+00
 0.8719103363590E-01
 0.2324120336039E-01
 0.2518599036340E-01
 0.6580875134132E-01
 0.1009974996515E+00
 0.1307341453469E+00
 0.1539587542339E+00
 0.1687792530097E+00
 0.1734102969048E+00
 0.1653672946744E+00
 0.1416681159223E+00
 0.1017936474927E+00
 0.5222713662351E-01
 0.8864187439228E-02
 0.1263258847831E+01
 0.1370562730345E+01
 0.9294220029729E+00
 0.6291463405043E+00
 0.4357972667038E+00
 0.2938375733143E+00
 0.1903331187969E+00
 0.1150698675165E+00
 0.5743073589090E-01
 0.1041298949604E-01
 0.2977593104233E-01
 0.6410157253483E-01
 0.9260465421506E-01
 0.1140532729297E+00
 0.1265366979447E+00
 0.1281832421388E+00
 0.1185141773222E+00
 0.9273236127359E-01
 0.5155568899450E-01
 0.3753505856608E-02
 0.1086736164059E+01
 0.1297286228923E+01
 0.1043587924882E+01
 0.7609537373229E+00
 0.5547738667488E+00
 0.4048593838686E+00
 0.2934791187408E+00
 0.2104724230499E+00
 0.1455329763827E+00
 0.9213891443269E-01
 0.4663129744256E-01
 0.7248310128114E-02
 0.2674027763524E-01
 0.5475392996138E-01
 0.7539333401694E-01
 0.8725677842674E-01
 0.8989094962606E-01
 0.7755198303738E-01
 0.4728584028355E-01
 0.3709745704974E-02
 0.9537500717976E+00
 0.1197644721790E+01
 0.1077871002778E+01
 0.8647584686254E+00
 0.6675373133984E+00
 0.5135261123932E+00
 0.3965518963023E+00
 0.3077565633746E+00
 0.2373356638040E+00
 0.1786102496296E+00
 0.1279944061722E+00
 0.8355783643649E-01
 0.4422302231040E-01
 0.9856213007185E-02
 0.1868297405072E-01
 0.4023169087629E-01
 0.5453199244677E-01
 0.5522367708720E-01
 0.3695893416420E-01
 0.3678777767919E-02
 0.8502756887128E+00
 0.1099617933945E+01
 0.1071114351940E+01
 0.9306984293245E+00
 0.7650020462509E+00
 0.6170495277522E+00
 0.4981975958024E+00
 0.4057509841670E+00
 0.3314259784819E+00
 0.2686276753598E+00
 0.2137368608607E+00
 0.1647895270671E+00
 0.1205150084902E+00
 0.8031517480039E-01
 0.4461465388799E-01
 0.1429572050407E-01
 0.1102522598728E-01
 0.2399983829888E-01
 0.1796753074640E-01
 0.4651816064031E-02
 0.7679554755829E+00
 0.1010766594108E+01
 0.1043530163772E+01
 0.9663712854199E+00
 0.8411896544039E+00
 0.7106661955164E+00
 0.5960101985116E+00
 0.5028673198478E+00
 0.4264632399710E+00
 0.3610003652302E+00
 0.3029734505808E+00
 0.2504252472611E+00
 0.2020070002732E+00
 0.1568253411532E+00
 0.1149227279556E+00
 0.7683873300145E-01
 0.4245553752482E-01
 0.1830780440948E-01
 0.1280796212470E-01
 0.2467778496122E-01
 0.7012731450287E+00
 0.9325151998263E+00
 0.1006150039210E+01
 0.9802474771282E+00
 0.8963876908704E+00
 0.7905225343559E+00
 0.6867872869450E+00
 0.5969567476249E+00
 0.5208524815251E+00
 0.4544209088729E+00
 0.3946394337114E+00
 0.3396838443076E+00
 0.2882199829282E+00
 0.2391887672400E+00
 0.1923504305740E+00
 0.1479866120109E+00
 0.1057608358453E+00
 0.7178783174286E-01
 0.5576526366556E-01
 0.5892736581916E-01
 0.6464570965570E+00
 0.8644299398149E+00
 0.9650123706971E+00
 0.9792225333541E+00
 0.9333971393821E+00
 0.8552918538665E+00
 0.7677375870212E+00
 0.6855798796556E+00
 0.6127038171836E+00
 0.5473741050244E+00
 0.4874807958942E+00
 0.4315442586610E+00
 0.3783672225389E+00
 0.3268446043000E+00
 0.2765475243440E+00
 0.2275526855789E+00
 0.1793664017361E+00
 0.1375589970288E+00
 0.1127025809445E+00
 0.1085115767291E+00
 0.6008183640433E+00
 0.8054990139142E+00
 0.9234664004934E+00
 0.9683932010905E+00
 0.9556760749739E+00
 0.9054627690787E+00
 0.8372940536818E+00
 0.7665926392787E+00
 0.7000416144100E+00
 0.6381747562002E+00
 0.5800574232559E+00
 0.5247682199026E+00
 0.4713916050426E+00
 0.4189012737154E+00
 0.3667739511810E+00
 0.3149392686739E+00
 0.2628045282918E+00
 0.2152530390555E+00
 0.1834349737534E+00
 0.1734407925969E+00
 0.5623774268108E+00
 0.7545856038180E+00
 0.8833493368084E+00
 0.9514000869149E+00
 0.9665136144250E+00
 0.9425156260313E+00
 0.8950621108595E+00
 0.8385514571369E+00
 0.7811233611024E+00
 0.7251276103547E+00
 0.6708139171675E+00
 0.6179428699954E+00
 0.5660064166770E+00
 0.5141783984527E+00
 0.4619375929253E+00
 0.4091268537839E+00
 0.3551076631944E+00
 0.3039738377639E+00
 0.2671409053744E+00
 0.2527784934437E+00
 0.5296391366139E+00
 0.7105904411660E+00
 0.8456202253193E+00
 0.9307968918812E+00
 0.9687383164166E+00
 0.9683317921400E+00
 0.9414973367863E+00
 0.9007748551498E+00
 0.8546631789241E+00
 0.8067231790233E+00
 0.7582077581035E+00
 0.7095627813073E+00
 0.6607565017201E+00
 0.6112606075067E+00
 0.5606464866899E+00
 0.5087289165920E+00
 0.4548650151885E+00
 0.4022912424480E+00
 0.3623504115498E+00
 0.3448477492202E+00
 0.5014512126511E+00
 0.6725073357773E+00
 0.8107139964385E+00
 0.9083469575994E+00
 0.9646585642060E+00
 0.9848424015961E+00
 0.9775682139346E+00
 0.9532227381225E+00
 0.9198975933204E+00
 0.8817786805799E+00
 0.8408464136861E+00
 0.7981394958169E+00
 0.7541041841038E+00
 0.7085691436536E+00
 0.6612742736796E+00
 0.6120603955546E+00
 0.5603068325657E+00
 0.5083481782726E+00
 0.4670898376922E+00
 0.4474384065113E+00
 0.4769116293903E+00
 0.6394369853260E+00
 0.7787470422603E+00
 0.8852419790937E+00
 0.9560958873043E+00
 0.9938417172889E+00
 0.1004491427153E+01
 0.9963167253545E+00
 0.9765419098185E+00
 0.9494948813976E+00
 0.9175897539226E+00
 0.8823110242135E+00
 0.8445297415783E+00
 0.8044500788938E+00
 0.7620384526562E+00
 0.7172135978548E+00
 0.6693932559481E+00
 0.6199773745685E+00
 0.5790365400410E+00
 0.5580002816317E+00
 0.4553058491378E+00
 0.6105846624879E+00
 0.7496407516806E+00
 0.8622593684833E+00
 0.9444489910546E+00
 0.9969007452936E+00
 0.1023548686339E+01
 0.1030766982698E+01
 0.1024693589074E+01
 0.1009444795185E+01
 0.9876020442499E+00
 0.9609287885767E+00
 0.9306311270383E+00
 0.8972725855252E+00
 0.8610890420243E+00
 0.8221364170369E+00
 0.7798960532127E+00
 0.7348106827640E+00
 0.6956699161494E+00
 0.6738178399946E+00
 0.4360628925881E+00
 0.5852521476406E+00
 0.7231981490101E+00
 0.8398751771042E+00
 0.9307624006211E+00
 0.9953378104580E+00
 0.1035970054080E+01
 0.1057429971702E+01
 0.1064721375532E+01
 0.1061520267085E+01
 0.1050358054604E+01
 0.1033112467979E+01
 0.1011212016617E+01
 0.9855322090641E+00
 0.9566073087513E+00
 0.9247112364331E+00
 0.8894599376881E+00
 0.8503624710666E+00
 0.8144092769508E+00
 0.7921693410406E+00
 0.4187236527099E+00
 0.5628282177446E+00
 0.6991529596957E+00
 0.8183458266062E+00
 0.9157897282142E+00
 0.9902198176599E+00
 0.1042865383472E+01
 0.1077201375267E+01
 0.1097160518347E+01
 0.1105857373481E+01
 0.1105613197521E+01
 0.1098270692414E+01
 0.1085351808042E+01
 0.1067960291995E+01
 0.1046926245045E+01
 0.1022843779781E+01
 0.9956372164734E+00
 0.9640488962089E+00
 0.9327201522636E+00
 0.9104756265495E+00
 0.4029172557022E+00
 0.5427793978387E+00
 0.6772023163316E+00
 0.7977682163601E+00
 0.9000484038013E+00
 0.9823788984256E+00
 0.1045188729981E+01
 0.1090940972754E+01
 0.1122623230107E+01
 0.1142754057258E+01
 0.1153345119811E+01
 0.1156082973115E+01
 0.1152446683910E+01
 0.1143635898589E+01
 0.1130705285812E+01
 0.1114618579182E+01
 0.1095903488945E+01
 0.1073098287096E+01
 0.1048099267642E+01
 0.1026466400013E+01
 0.3883421623076E+00
 0.5246420512009E+00
 0.6570304248755E+00
 0.7781253124953E+00
 0.8838650714749E+00
 0.9724348866423E+00
 0.1043724860890E+01
 0.1099424985664E+01
 0.1141729261188E+01
 0.1172590233651E+01
 0.1193672618321E+01
 0.1206432351515E+01
 0.1212187753527E+01
 0.1212066682066E+01
 0.1207156253209E+01
 0.1198681211029E+01
 0.1187857939842E+01
 0.1174207140111E+01
 0.1157814750996E+01
 0.1138264773219E+01
 0.3747491463604E+00
 0.5080138463430E+00
 0.6383336014994E+00
 0.7593232778124E+00
 0.8674082390423E+00
 0.9608171277789E+00
 0.1039089348585E+01
 0.1103323246246E+01
 0.1155061785243E+01
 0.1195763250722E+01
 0.1226766665949E+01
 0.1249285930222E+01
 0.1264424496255E+01
 0.1273109220155E+01
 0.1276205269633E+01
 0.1274791564975E+01
 0.1270429199095E+01
 0.1263646581933E+01
 0.1256948396113E+01
 0.1244510214715E+01
 0.3618988508139E+00
 0.4925773950169E+00
 0.6208625940364E+00
 0.7412194521326E+00
 0.8507074013972E+00
 0.9477658573206E+00
 0.1031741177725E+01
 0.1103203411249E+01
 0.1163152308922E+01
 0.1212656448299E+01
 0.1252788804130E+01
 0.1284566927427E+01
 0.1308913847691E+01
 0.1326563488797E+01
 0.1338087934515E+01
 0.1344042198074E+01
 0.1345300677496E+01
 0.1342394526509E+01
 0.1338270688308E+01
 0.1338670507459E+01
 0.3618988542265E+00
 0.4925773971409E+00
 0.6208625951814E+00
 0.7412194524822E+00
 0.8507074011051E+00
 0.9477658565532E+00
 0.1031741176668E+01
 0.1103203410098E+01
 0.1163152307848E+01
 0.1212656447421E+01
 0.1252788803501E+01
 0.1284566927042E+01
 0.1308913847512E+01
 0.1326563488770E+01
 0.1338087934594E+01
 0.1344042198227E+01
 0.1345300677705E+01
 0.1342394526746E+01
 0.1338270688587E+01
 0.1338670507760E+01
 0.3747491498497E+00
 0.5080138487018E+00
 0.6383336029503E+00
 0.7593232784701E+00
 0.8674082390174E+00
 0.9608171272207E+00
 0.1039089347683E+01
 0.1103323245204E+01
 0.1155061784245E+01
 0.1195763249895E+01
 0.1226766665351E+01
 0.1249285929852E+01
 0.1264424496078E+01
 0.1273109220122E+01
 0.1276205269704E+01
 0.1274791565128E+01
 0.1270429199317E+01
 0.1263646582183E+01
 0.1256948396421E+01
 0.1244510215124E+01
 0.3883421659049E+00
 0.5246420538485E+00
 0.6570304266732E+00
 0.7781253134817E+00
 0.8838650717180E+00
 0.9724348862784E+00
 0.1043724860113E+01
 0.1099424984694E+01
 0.1141729260226E+01
 0.1172590232834E+01
 0.1193672617715E+01
 0.1206432351125E+01
 0.1212187753320E+01
 0.1212066681998E+01
 0.1207156253243E+01
 0.1198681211143E+01
 0.1187857940016E+01
 0.1174207140299E+01
 0.1157814751285E+01
 0.1138264773748E+01
 0.4029172594346E+00
 0.5427794008278E+00
 0.6772023185132E+00
 0.7977682176866E+00
 0.9000484042989E+00
 0.9823788982233E+00
 0.1045188729286E+01
 0.1090940971808E+01
 0.1122623229132E+01
 0.1142754056409E+01
 0.1153345119159E+01
 0.1156082972669E+01
 0.1152446683640E+01
 0.1143635898453E+01
 0.1130705285771E+01
 0.1114618579212E+01
 0.1095903489015E+01
 0.1073098287174E+01
 0.1048099267894E+01
 0.1026466400652E+01
 0.4187236566071E+00
 0.5628282211250E+00
 0.6991529622898E+00
 0.8183458282702E+00
 0.9157897289354E+00
 0.9902198175689E+00
 0.1042865382800E+01
 0.1077201374288E+01
 0.1097160517309E+01
 0.1105857372555E+01
 0.1105613196786E+01
 0.1098270691881E+01
 0.1085351807680E+01
 0.1067960291761E+01
 0.1046926244898E+01
 0.1022843779690E+01
 0.9956372164029E+00
 0.9640488961537E+00
 0.9327201524640E+00
 0.9104756272750E+00
 0.4360628966828E+00
 0.5852521514586E+00
 0.7231981520332E+00
 0.8398751790853E+00
 0.9307624015150E+00
 0.9953378104098E+00
 0.1035970053358E+01
 0.1057429970624E+01
 0.1064721374378E+01
 0.1061520266040E+01
 0.1050358053753E+01
 0.1033112467331E+01
 0.1011212016140E+01
 0.9855322087102E+00
 0.9566073084755E+00
 0.9247112361998E+00
 0.8894599374576E+00
 0.8503624708683E+00
 0.8144092770872E+00
 0.7921693418219E+00
 0.4553058534653E+00
 0.6105846667847E+00
 0.7496407551339E+00
 0.8622593707401E+00
 0.9444489920485E+00
 0.9969007452014E+00
 0.1023548685485E+01
 0.1030766981454E+01
 0.1024693587755E+01
 0.1009444793986E+01
 0.9876020432578E+00
 0.9609287877973E+00
 0.9306311264333E+00
 0.8972725850410E+00
 0.8610890416107E+00
 0.8221364166527E+00
 0.7798960528177E+00
 0.7348106824240E+00
 0.6956699162134E+00
 0.6738178407962E+00
 0.4769116339875E+00
 0.6394369901353E+00
 0.7787470461262E+00
 0.8852419815599E+00
 0.9560958883020E+00
 0.9938417170499E+00
 0.1004491426077E+01
 0.9963167238786E+00
 0.9765419082914E+00
 0.9494948800218E+00
 0.9175897527790E+00
 0.8823110232991E+00
 0.8445297408459E+00
 0.8044500782817E+00
 0.7620384521083E+00
 0.7172135973250E+00
 0.6693932553968E+00
 0.6199773740986E+00
 0.5790365400308E+00
 0.5580002824191E+00
 0.5014512175556E+00
 0.6725073411219E+00
 0.8107140006758E+00
 0.9083469601807E+00
 0.9646585650875E+00
 0.9848424010952E+00
 0.9775682125488E+00
 0.9532227363621E+00
 0.9198975915615E+00
 0.8817786790218E+00
 0.8408464123965E+00
 0.7981394947786E+00
 0.7541041832573E+00
 0.7085691429276E+00
 0.6612742730125E+00
 0.6120603948960E+00
 0.5603068318780E+00
 0.5083481776951E+00
 0.4670898376151E+00
 0.4474384072558E+00
 0.5296391418619E+00
 0.7105904470536E+00
 0.8456202298576E+00
 0.9307968944517E+00
 0.9687383170401E+00
 0.9683317912569E+00
 0.9414973350146E+00
 0.9007748530737E+00
 0.8546631769330E+00
 0.8067231772993E+00
 0.7582077566914E+00
 0.7095627801701E+00
 0.6607565007837E+00
 0.6112606066906E+00
 0.5606464859281E+00
 0.5087289158312E+00
 0.4548650143947E+00
 0.4022912417957E+00
 0.3623504114244E+00
 0.3448477499045E+00
 0.5623774324344E+00
 0.7545856102347E+00
 0.8833493415413E+00
 0.9514000893138E+00
 0.9665136146314E+00
 0.9425156246531E+00
 0.8950621086523E+00
 0.8385514547469E+00
 0.7811233589087E+00
 0.7251276085042E+00
 0.6708139156723E+00
 0.6179428687953E+00
 0.5660064156830E+00
 0.5141783975770E+00
 0.4619375921001E+00
 0.4091268529554E+00
 0.3551076623345E+00
 0.3039738370798E+00
 0.2671409052320E+00
 0.2527784940659E+00
 0.6008183700667E+00
 0.8054990208166E+00
 0.9234664052695E+00
 0.9683932031216E+00
 0.9556760745975E+00
 0.9054627671177E+00
 0.8372940510330E+00
 0.7665926366194E+00
 0.7000416120752E+00
 0.6381747542830E+00
 0.5800574217288E+00
 0.5247682186817E+00
 0.4713916040272E+00
 0.4189012728141E+00
 0.3667739503282E+00
 0.3149392678184E+00
 0.2628045274137E+00
 0.2152530383919E+00
 0.1834349736379E+00
 0.1734407931749E+00
 0.6464571029905E+00
 0.8644299471175E+00
 0.9650123753097E+00
 0.9792225347881E+00
 0.9333971382697E+00
 0.8552918512863E+00
 0.7677375839865E+00
 0.6855798768196E+00
 0.6127038147975E+00
 0.5473741031131E+00
 0.4874807943902E+00
 0.4315442574620E+00
 0.3783672215383E+00
 0.3268446034082E+00
 0.2765475235019E+00
 0.2275526847414E+00
 0.1793664008943E+00
 0.1375589964450E+00
 0.1127025809108E+00
 0.1085115773018E+00
 0.7012731518602E+00
 0.9325152073843E+00
 0.1006150043384E+01
 0.9802474777141E+00
 0.8963876889150E+00
 0.7905225312043E+00
 0.6867872836549E+00
 0.5969567447469E+00
 0.5208524791925E+00
 0.4544209070414E+00
 0.3946394322824E+00
 0.3396838431695E+00
 0.2882199819758E+00
 0.2391887663917E+00
 0.1923504297817E+00
 0.1479866112390E+00
 0.1057608350985E+00
 0.7178783130228E-01
 0.5576526377576E-01
 0.5892736644508E-01
 0.7679554827633E+00
 0.1010766601689E+01
 0.1043530167154E+01
 0.9663712849150E+00
 0.8411896515987E+00
 0.7106661919588E+00
 0.5960101951681E+00
 0.5028673170829E+00
 0.4264632377930E+00
 0.3610003635427E+00
 0.3029734492698E+00
 0.2504252462164E+00
 0.2020069993986E+00
 0.1568253403803E+00
 0.1149227272513E+00
 0.7683873234298E-01
 0.4245553693314E-01
 0.1830780417700E-01
 0.1280796243224E-01
 0.2467778571132E-01
 0.8502756961314E+00
 0.1099617941185E+01
 0.1071114354089E+01
 0.9306984275652E+00
 0.7650020427677E+00
 0.6170495240858E+00
 0.4981975926403E+00
 0.4057509816556E+00
 0.3314259765390E+00
 0.2686276738651E+00
 0.2137368597003E+00
 0.1647895261411E+00
 0.1205150077177E+00
 0.8031517413123E-01
 0.4461465330790E-01
 0.1429572000852E-01
 0.1102522636525E-01
 0.2399983827473E-01
 0.1796753016706E-01
 0.4651816982754E-02
 0.9537500792344E+00
 0.1197644728115E+01
 0.1077871003204E+01
 0.8647584656739E+00
 0.6675373096727E+00
 0.5135261089886E+00
 0.3965518935216E+00
 0.3077565612178E+00
 0.2373356621518E+00
 0.1786102483620E+00
 0.1279944051855E+00
 0.8355783564740E-01
 0.4422302165839E-01
 0.9856212465832E-02
 0.1868297447538E-01
 0.4023169117654E-01
 0.5453199257037E-01
 0.5522367675935E-01
 0.3695893328295E-01
 0.3678776540737E-02
 0.1086736171089E+01
 0.1297286233428E+01
 0.1043587923199E+01
 0.7609537337875E+00
 0.5547738634157E+00
 0.4048593810212E+00
 0.2934791164666E+00
 0.2104724213118E+00
 0.1455329750593E+00
 0.9213891341546E-01
 0.4663129664296E-01
 0.7248309487339E-02
 0.2674027815510E-01
 0.5475393035813E-01
 0.7539333425888E-01
 0.8725677849105E-01
 0.8989094944702E-01
 0.7755198237983E-01
 0.4728583909779E-01
 0.3709744407945E-02
 0.1263258853486E+01
 0.1370562731451E+01
 0.9294219998997E+00
 0.6291463376026E+00
 0.4357972642351E+00
 0.2938375711733E+00
 0.1903331171032E+00
 0.1150698662435E+00
 0.5743073492464E-01
 0.1041298874299E-01
 0.2977593165354E-01
 0.6410157303070E-01
 0.9260465459868E-01
 0.1140532731712E+00
 0.1265366979852E+00
 0.1281832419356E+00
 0.1185141768018E+00
 0.9273236027237E-01
 0.5155568753659E-01
 0.3753506911246E-02
 0.1486035693020E+01
 0.1249248833054E+01
 0.7457012447026E+00
 0.4920228346421E+00
 0.3142185352553E+00
 0.1818847340477E+00
 0.8719103258270E-01
 0.2324120260407E-01
 0.2518599096141E-01
 0.6580875184574E-01
 0.1009975000879E+00
 0.1307341457057E+00
 0.1539587544812E+00
 0.1687792530920E+00
 0.1734102967458E+00
 0.1653672941788E+00
 0.1416681149780E+00
 0.1017936461429E+00
 0.5222713496488E-01
 0.8864189269586E-02
 0.1357597647751E+01
 0.1260597470226E+01
 0.1159788851654E+01
 0.1052587335812E+01
 0.9393082293182E+00
 0.8222404263461E+00
 0.7039266873412E+00
 0.5871473035399E+00
 0.4748310826483E+00
 0.3699690414220E+00
 0.2754803468981E+00
 0.1940352602672E+00
 0.1278332200672E+00
 0.7833771453118E-01
 0.4598066279551E-01
 0.2990157975607E-01
 0.2779590176736E-01
 0.3568652266946E-01
 0.4845690922532E-01
 0.6092937699740E-01
 0.1409529193618E+01
 0.1329254522310E+01
 0.1231252433893E+01
 0.1126003046757E+01
 0.1014679836297E+01
 0.8985324050910E+00
 0.7795793170951E+00
 0.6603248144420E+00
 0.5436360335657E+00
 0.4326304208669E+00
 0.3305523445907E+00
 0.2406074893526E+00
 0.1657401773371E+00
 0.1083422082421E+00
 0.6989225752070E-01
 0.5056181987133E-01
 0.4878804970915E-01
 0.6071918604676E-01
 0.8033152446611E-01
 0.1016690140939E+00
 0.1461072801427E+01
 0.1390773274329E+01
 0.1303125893535E+01
 0.1203741836117E+01
 0.1096602167294E+01
 0.9834130059810E+00
 0.8658964727009E+00
 0.7462033609880E+00
 0.6269357458621E+00
 0.5110990386629E+00
 0.4020215298702E+00
 0.3032341742373E+00
 0.2182886757647E+00
 0.1504907839723E+00
 0.1025285076857E+00
 0.7599064116458E-01
 0.7073372032119E-01
 0.8388702945213E-01
 0.1091711871011E+00
 0.1380561771145E+00
 0.1514384374873E+01
 0.1451597287879E+01
 0.1373687962106E+01
 0.1283143646086E+01
 0.1182917203907E+01
 0.1075158236851E+01
 0.9615625475470E+00
 0.8439870473670E+00
 0.7246695013528E+00
 0.6062918458164E+00
 0.4919805133920E+00
 0.3852634447390E+00
 0.2899732356484E+00
 0.2100700253333E+00
 0.1493481762515E+00
 0.1109857305155E+00
 0.9684956012558E-01
 0.1062448669944E+00
 0.1339538454420E+00
 0.1692279739649E+00
 0.1568366665471E+01
 0.1512368582675E+01
 0.1443646749335E+01
 0.1362745276014E+01
 0.1271466876519E+01
 0.1171535989930E+01
 0.1064513671487E+01
 0.9519917646935E+00
 0.8358188351769E+00
 0.7182259000267E+00
 0.6018925078578E+00
 0.4899769122670E+00
 0.3861128847899E+00
 0.2943585850357E+00
 0.2190672023014E+00
 0.1646302539221E+00
 0.1349978347157E+00
 0.1326583348528E+00
 0.1562036701754E+00
 0.1959054634425E+00
 0.1622180004014E+01
 0.1572691304717E+01
 0.1512646271166E+01
 0.1441527159091E+01
 0.1360172067436E+01
 0.1269752108479E+01
 0.1171494303911E+01
 0.1066705052310E+01
 0.9568753597554E+00
 0.8437899817051E+00
 0.7296086411798E+00
 0.6169251722071E+00
 0.5088105185086E+00
 0.4088393137671E+00
 0.3210922007108E+00
 0.2501168316283E+00
 0.2008092571588E+00
 0.1780750138046E+00
 0.1856384791764E+00
 0.2210778216161E+00
 0.1675111117763E+01
 0.1632042724390E+01
 0.1580237754255E+01
 0.1518686495095E+01
 0.1447563638022E+01
 0.1367529833987E+01
 0.1279451123955E+01
 0.1184335537108E+01
 0.1083367431489E+01
 0.9779714530926E+00
 0.8698779909300E+00
 0.7611787939290E+00
 0.6543718658895E+00
 0.5523965923164E+00
 0.4586603304891E+00
 0.3770603349474E+00
 0.3120147857399E+00
 0.2685345673642E+00
 0.2523927960621E+00
 0.2695269161623E+00
 0.1726519074305E+01
 0.1689830328156E+01
 0.1645878044419E+01
 0.1593511799257E+01
 0.1532501981997E+01
 0.1463115837382E+01
 0.1385892274434E+01
 0.1301560259680E+01
 0.1211036656124E+01
 0.1115462493139E+01
 0.1016253451839E+01
 0.9151526068203E+00
 0.8142795429740E+00
 0.7161732827374E+00
 0.6238281665220E+00
 0.5407258326515E+00
 0.4708814334677E+00
 0.4189766957537E+00
 0.3908557698238E+00
 0.3961734087095E+00
 0.1775844001494E+01
 0.1745479523579E+01
 0.1709023031912E+01
 0.1665377900275E+01
 0.1614106871786E+01
 0.1555204519166E+01
 0.1488943089950E+01
 0.1415801302764E+01
 0.1336450917251E+01
 0.1251778318225E+01
 0.1162926272857E+01
 0.1071346991453E+01
 0.9788619970957E+00
 0.8877268771066E+00
 0.8007007455850E+00
 0.7211225707473E+00
 0.6530024564484E+00
 0.6011580572309E+00
 0.5714994148183E+00
 0.5720496070820E+00
 0.1822606439344E+01
 0.1798470841004E+01
 0.1769170209270E+01
 0.1733754085794E+01
 0.1691711268070E+01
 0.1642867570063E+01
 0.1587294513461E+01
 0.1525258829050E+01
 0.1457208860967E+01
 0.1383788275804E+01
 0.1305869160707E+01
 0.1224599521277E+01
 0.1141462654380E+01
 0.1058347719920E+01
 0.9776319075665E+00
 0.9022745531262E+00
 0.8359213260598E+00
 0.7830013893537E+00
 0.7487492960642E+00
 0.7384064280563E+00
 0.1866404832815E+01
 0.1848351709528E+01
 0.1825866055365E+01
 0.1798177187344E+01
 0.1764780815057E+01
 0.1725412435701E+01
 0.1680003481700E+01
 0.1628651812443E+01
 0.1571612804330E+01
 0.1509309180131E+01
 0.1442356507468E+01
 0.1371602155563E+01
 0.1298176838367E+01
 0.1223559099710E+01
 0.1149653895191E+01
 0.1078886288335E+01
 0.1014308042762E+01
 0.9597050899851E+00
 0.9196362213998E+00
 0.8993338245244E+00
 0.1906872966557E+01
 0.1894674557300E+01
 0.1878635583772E+01
 0.1858160253062E+01
 0.1832790607405E+01
 0.1802223153744E+01
 0.1766296361971E+01
 0.1724977818271E+01
 0.1678360665199E+01
 0.1626671425956E+01
 0.1570288944586E+01
 0.1509773949983E+01
 0.1445909323163E+01
 0.1379751995506E+01
 0.1312698302567E+01
 0.1246565341571E+01
 0.1183691806051E+01
 0.1127062803744E+01
 0.1080488978044E+01
 0.1048991998828E+01
 0.1943672741865E+01
 0.1936988666417E+01
 0.1926959528069E+01
 0.1913137114650E+01
 0.1895122523378E+01
 0.1872602440844E+01
 0.1845354857736E+01
 0.1813247296138E+01
 0.1776237242319E+01
 0.1734378348170E+01
 0.1687833480739E+01
 0.1636894947302E+01
 0.1582012296695E+01
 0.1523828607433E+01
 0.1463227008430E+01
 0.1401390490024E+01
 0.1339880192902E+01
 0.1280743674969E+01
 0.1226679852280E+01
 0.1181286145548E+01
 0.1976507045760E+01
 0.1974882634084E+01
 0.1970337481474E+01
 0.1962536454087E+01
 0.1951137247217E+01
 0.1935830677408E+01
 0.1916354857589E+01
 0.1892499496295E+01
 0.1864108404119E+01
 0.1831083862677E+01
 0.1793394346342E+01
 0.1751086155402E+01
 0.1704299249227E+01
 0.1653287698565E+01
 0.1598445655670E+01
 0.1540340642004E+01
 0.1479757487603E+01
 0.1417757419317E+01
 0.1355751962913E+01
 0.1295577890382E+01
 0.2005119285684E+01
 0.2008000042437E+01
 0.2008325247899E+01
 0.2005840185285E+01
 0.2000249101491E+01
 0.1991251250719E+01
 0.1978557016810E+01
 0.1961894413918E+01
 0.1941011917034E+01
 0.1915680704472E+01
 0.1885697721377E+01
 0.1850890057844E+01
 0.1811120655333E+01
 0.1766295128091E+01
 0.1716369439771E+01
 0.1661358320126E+01
 0.1601344610525E+01
 0.1536489372822E+01
 0.1467039232554E+01
 0.1393318745708E+01
 0.2029291625749E+01
 0.2036041087774E+01
 0.2040544690267E+01
 0.2042601587728E+01
 0.2041950247382E+01
 0.2038297406577E+01
 0.2031332553566E+01
 0.2020734081360E+01
 0.2006171182557E+01
 0.1987303828737E+01
 0.1963781990390E+01
 0.1935244469234E+01
 0.1901317165932E+01
 0.1861610154787E+01
 0.1815712479923E+01
 0.1763183070515E+01
 0.1703535608251E+01
 0.1636215705845E+01
 0.1560572227651E+01
 0.1475825303906E+01
 0.2048843735282E+01
 0.2058760649941E+01
 0.2066684819189E+01
 0.2072449837839E+01
 0.2075817061494E+01
 0.2076497797570E+01
 0.2074164789882E+01
 0.2068456737226E+01
 0.2058978595302E+01
 0.2045299394719E+01
 0.2026948508038E+01
 0.2003410701554E+01
 0.1974119826768E+01
 0.1938450539001E+01
 0.1895706864381E+01
 0.1845105630610E+01
 0.1785751724314E+01
 0.1716600701086E+01
 0.1636407308398E+01
 0.1543677359819E+01
 0.2063632157666E+01
 0.2075965928376E+01
 0.2086500479461E+01
 0.2095090592997E+01
 0.2101511667635E+01
 0.2105476830977E+01
 0.2106645497460E+01
 0.2104625954168E+01
 0.2098973971662E+01
 0.2089188789231E+01
 0.2074707292604E+01
 0.2054896799824E+01
 0.2029046553691E+01
 0.1996357725000E+01
 0.1955931375446E+01
 0.1906753290893E+01
 0.1847673504018E+01
 0.1777376182904E+01
 0.1694326621991E+01
 0.1596682329652E+01
 0.2073549958912E+01
 0.2087514332862E+01
 0.2099810308103E+01
 0.2110305006903E+01
 0.2118781629552E+01
 0.2124953511523E+01
 0.2128470551001E+01
 0.2128920214224E+01
 0.2125824784787E+01
 0.2118636019458E+01
 0.2106728004919E+01
 0.2089388768029E+01
 0.2065811057956E+01
 0.2035082674035E+01
 0.1996176747454E+01
 0.1947942466783E+01
 0.1889096810787E+01
 0.1818217108400E+01
 0.1733732110551E+01
 0.1633859010316E+01
 0.2078526431759E+01
 0.2093311888724E+01
 0.2106494842842E+01
 0.2117948289882E+01
 0.2127458880464E+01
 0.2134739728960E+01
 0.2139435751924E+01
 0.2141123806331E+01
 0.2139309186262E+01
 0.2133419575886E+01
 0.2122797263016E+01
 0.2106690266699E+01
 0.2084243016702E+01
 0.2054487356644E+01
 0.2016334972592E+01
 0.1968572991438E+01
 0.1909865712595E+01
 0.1838768169050E+01
 0.1753763702194E+01
 0.1653375307545E+01
 0.2078526431778E+01
 0.2093311888760E+01
 0.2106494842897E+01
 0.2117948289959E+01
 0.2127458880567E+01
 0.2134739729090E+01
 0.2139435752084E+01
 0.2141123806524E+01
 0.2139309186491E+01
 0.2133419576152E+01
 0.2122797263320E+01
 0.2106690267041E+01
 0.2084243017081E+01
 0.2054487357057E+01
 0.2016334973034E+01
 0.1968572991902E+01
 0.1909865713073E+01
 0.1838768169532E+01
 0.1753763702672E+01
 0.1653375308019E+01
 0.2073549958969E+01
 0.2087514332970E+01
 0.2099810308268E+01
 0.2110305007135E+01
 0.2118781629857E+01
 0.2124953511911E+01
 0.2128470551480E+01
 0.2128920214802E+01
 0.2125824785471E+01
 0.2118636020253E+01
 0.2106728005828E+01
 0.2089388769053E+01
 0.2065811059090E+01
 0.2035082675271E+01
 0.1996176748777E+01
 0.1947942468173E+01
 0.1889096812217E+01
 0.1818217109838E+01
 0.1733732111964E+01
 0.1633859011683E+01
 0.2063632157761E+01
 0.2075965928555E+01
 0.2086500479735E+01
 0.2095090593380E+01
 0.2101511668141E+01
 0.2105476831618E+01
 0.2106645498252E+01
 0.2104625955124E+01
 0.2098973972794E+01
 0.2089188790548E+01
 0.2074707294111E+01
 0.2054896801522E+01
 0.2029046555573E+01
 0.1996357727052E+01
 0.1955931377644E+01
 0.1906753293201E+01
 0.1847673506389E+01
 0.1777376185277E+01
 0.1694326624295E+01
 0.1596682331805E+01
 0.2048843735414E+01
 0.2058760650189E+01
 0.2066684819569E+01
 0.2072449838369E+01
 0.2075817062193E+01
 0.2076497798458E+01
 0.2074164790979E+01
 0.2068456738551E+01
 0.2058978596871E+01
 0.2045299396545E+01
 0.2026948510130E+01
 0.2003410703913E+01
 0.1974119829384E+01
 0.1938450541856E+01
 0.1895706867441E+01
 0.1845105633825E+01
 0.1785751727612E+01
 0.1716600704373E+01
 0.1636407311550E+01
 0.1543677362681E+01
 0.2029291625918E+01
 0.2036041088088E+01
 0.2040544690748E+01
 0.2042601588398E+01
 0.2041950248266E+01
 0.2038297407700E+01
 0.2031332554955E+01
 0.2020734083038E+01
 0.2006171184547E+01
 0.1987303831056E+01
 0.1963781993048E+01
 0.1935244472234E+01
 0.1901317169264E+01
 0.1861610158428E+01
 0.1815712483829E+01
 0.1763183074620E+01
 0.1703535612461E+01
 0.1636215710029E+01
 0.1560572231631E+01
 0.1475825307452E+01
 0.2005119285889E+01
 0.2008000042816E+01
 0.2008325248477E+01
 0.2005840186089E+01
 0.2000249102552E+01
 0.1991251252067E+01
 0.1978557018478E+01
 0.1961894415935E+01
 0.1941011919427E+01
 0.1915680707262E+01
 0.1885697724578E+01
 0.1850890061459E+01
 0.1811120659353E+01
 0.1766295132486E+01
 0.1716369444491E+01
 0.1661358325091E+01
 0.1601344615618E+01
 0.1536489377878E+01
 0.1467039237345E+01
 0.1393318749931E+01
 0.1976507045999E+01
 0.1974882634522E+01
 0.1970337482140E+01
 0.1962536455013E+01
 0.1951137248440E+01
 0.1935830678963E+01
 0.1916354859515E+01
 0.1892499498625E+01
 0.1864108406886E+01
 0.1831083865906E+01
 0.1793394350048E+01
 0.1751086159590E+01
 0.1704299253886E+01
 0.1653287703664E+01
 0.1598445661150E+01
 0.1540340647777E+01
 0.1479757493536E+01
 0.1417757425221E+01
 0.1355751968530E+01
 0.1295577895354E+01
 0.1943672742137E+01
 0.1936988666911E+01
 0.1926959528817E+01
 0.1913137115690E+01
 0.1895122524751E+01
 0.1872602442592E+01
 0.1845354859902E+01
 0.1813247298761E+01
 0.1776237245434E+01
 0.1734378351804E+01
 0.1687833484910E+01
 0.1636894952014E+01
 0.1582012301935E+01
 0.1523828613166E+01
 0.1463227014594E+01
 0.1401390496521E+01
 0.1339880199592E+01
 0.1280743681653E+01
 0.1226679858690E+01
 0.1181286151320E+01
 0.1906872966858E+01
 0.1894674557842E+01
 0.1878635584590E+01
 0.1858160254198E+01
 0.1832790608908E+01
 0.1802223155660E+01
 0.1766296364346E+01
 0.1724977821148E+01
 0.1678360668616E+01
 0.1626671429940E+01
 0.1570288949154E+01
 0.1509773955137E+01
 0.1445909328889E+01
 0.1379752001766E+01
 0.1312698309295E+01
 0.1246565348667E+01
 0.1183691813375E+01
 0.1127062811108E+01
 0.1080488985209E+01
 0.1048992005505E+01
 0.1866404833144E+01
 0.1848351710111E+01
 0.1825866056245E+01
 0.1798177188567E+01
 0.1764780816676E+01
 0.1725412437768E+01
 0.1680003484264E+01
 0.1628651815548E+01
 0.1571612808014E+01
 0.1509309184419E+01
 0.1442356512374E+01
 0.1371602161087E+01
 0.1298176844487E+01
 0.1223559106385E+01
 0.1149653902350E+01
 0.1078886295878E+01
 0.1014308050555E+01
 0.9597050978558E+00
 0.9196362291470E+00
 0.8993338319660E+00
 0.1822606439697E+01
 0.1798470841623E+01
 0.1769170210203E+01
 0.1733754087095E+01
 0.1691711269796E+01
 0.1642867572269E+01
 0.1587294516197E+01
 0.1525258832358E+01
 0.1457208864881E+01
 0.1383788280346E+01
 0.1305869165885E+01
 0.1224599527081E+01
 0.1141462660783E+01
 0.1058347726870E+01
 0.9776319149909E+00
 0.9022745609263E+00
 0.8359213341127E+00
 0.7830013975142E+00
 0.7487493041619E+00
 0.7384064358891E+00
 0.1775844001868E+01
 0.1745479524230E+01
 0.1709023032894E+01
 0.1665377901649E+01
 0.1614106873612E+01
 0.1555204521499E+01
 0.1488943092837E+01
 0.1415801306243E+01
 0.1336450921350E+01
 0.1251778322958E+01
 0.1162926278221E+01
 0.1071346997430E+01
 0.9788620036473E+00
 0.8877268841770E+00
 0.8007007531008E+00
 0.7211225786219E+00
 0.6530024645888E+00
 0.6011580655448E+00
 0.5714994232111E+00
 0.5720496153276E+00
 0.1726519074696E+01
 0.1689830328834E+01
 0.1645878045447E+01
 0.1593511800699E+01
 0.1532501983916E+01
 0.1463115839827E+01
 0.1385892277448E+01
 0.1301560263292E+01
 0.1211036660349E+01
 0.1115462497980E+01
 0.1016253457278E+01
 0.9151526128239E+00
 0.8142795494886E+00
 0.7161732896923E+00
 0.6238281738321E+00
 0.5407258402234E+00
 0.4708814412093E+00
 0.4189767035878E+00
 0.3908557777009E+00
 0.3961734166592E+00
 0.1675111118163E+01
 0.1632042725089E+01
 0.1580237755323E+01
 0.1518686496599E+01
 0.1447563640018E+01
 0.1367529836518E+01
 0.1279451127052E+01
 0.1184335540785E+01
 0.1083367435745E+01
 0.9779714579080E+00
 0.8698779962633E+00
 0.7611787997150E+00
 0.6543718720369E+00
 0.5523965987067E+00
 0.4586603369755E+00
 0.3770603413551E+00
 0.3120147918693E+00
 0.2685345730011E+00
 0.2523928010256E+00
 0.2695269205536E+00
 0.1622180004418E+01
 0.1572691305431E+01
 0.1512646272267E+01
 0.1441527160643E+01
 0.1360172069483E+01
 0.1269752111051E+01
 0.1171494307020E+01
 0.1066705055950E+01
 0.9568753639009E+00
 0.8437899863058E+00
 0.7296086461580E+00
 0.6169251774541E+00
 0.5088105238822E+00
 0.4088393190911E+00
 0.3210922057776E+00
 0.2501168362071E+00
 0.2008092610161E+00
 0.1780750167513E+00
 0.1856384811818E+00
 0.2210778230474E+00
 0.1568366665868E+01
 0.1512368583396E+01
 0.1443646750458E+01
 0.1362745277590E+01
 0.1271466878575E+01
 0.1171535992475E+01
 0.1064513674510E+01
 0.9519917681656E+00
 0.8358188390429E+00
 0.7182259042047E+00
 0.6018925122364E+00
 0.4899769167055E+00
 0.3861128891212E+00
 0.2943585890754E+00
 0.2190672058640E+00
 0.1646302568498E+00
 0.1349978369229E+00
 0.1326583363978E+00
 0.1562036713611E+00
 0.1959054647940E+00
 0.1514384375256E+01
 0.1451597288601E+01
 0.1373687963235E+01
 0.1283143647652E+01
 0.1182917205912E+01
 0.1075158239280E+01
 0.9615625503687E+00
 0.8439870505279E+00
 0.7246695047752E+00
 0.6062918493980E+00
 0.4919805170082E+00
 0.3852634482489E+00
 0.2899732389057E+00
 0.2100700282032E+00
 0.1493481786344E+00
 0.1109857323766E+00
 0.9684956152940E-01
 0.1062448681373E+00
 0.1339538466387E+00
 0.1692279754960E+00
 0.1461072801788E+01
 0.1390773275040E+01
 0.1303125894645E+01
 0.1203741837620E+01
 0.1096602169171E+01
 0.9834130081981E+00
 0.8658964752107E+00
 0.7462033637228E+00
 0.6269357487345E+00
 0.5110990415697E+00
 0.4020215326986E+00
 0.3032341768754E+00
 0.2182886781151E+00
 0.1504907859694E+00
 0.1025285093144E+00
 0.7599064247806E-01
 0.7073372145169E-01
 0.8388703060312E-01
 0.1091711884884E+00
 0.1380561788533E+00
 0.1409529193960E+01
 0.1329254523015E+01
 0.1231252434958E+01
 0.1126003048143E+01
 0.1014679837976E+01
 0.8985324070221E+00
 0.7795793192212E+00
 0.6603248166912E+00
 0.5436360358546E+00
 0.4326304231071E+00
 0.3305523466969E+00
 0.2406074912538E+00
 0.1657401789882E+00
 0.1083422096365E+00
 0.6989225870065E-01
 0.5056182093307E-01
 0.4878805079529E-01
 0.6071918731858E-01
 0.8033152604607E-01
 0.1016690159950E+00
 0.1357597648108E+01
 0.1260597470913E+01
 0.1159788852606E+01
 0.1052587337008E+01
 0.9393082307226E+00
 0.8222404279108E+00
 0.7039266890073E+00
 0.5871473052418E+00
 0.4748310843191E+00
 0.3699690430001E+00
 0.2754803483349E+00
 0.1940352615354E+00
 0.1278332211684E+00
 0.7833771550186E-01
 0.4598066370898E-01
 0.2990158071836E-01
 0.2779590289812E-01
 0.3568652406914E-01
 0.4845691093817E-01
 0.6092937896088E-01
</DataArray>
<DataArray type="Float64" Name="CK" NumberOfComponents="1" ComponentName0="CK" format="ascii">
 0.0000000000000E+00
 0.0000000000000E+00
 0.0000000000000E+00
 0.0000000000000E+00
 0.0000000000000E+00
 0.0000000000000E+00
 0.0000000000000E+00
 0.0000000000000E+00
 0.0000000000000E+00
 0.0000000000000E+00
 0.0000000000000E+00
 0.0000000000000E+00
 0.0000000000000E+00
 0.0000000000000E+00
 0.0000000000000E+00
 0.0000000000000E+00
 0.0000000000000E+00
 0.0000000000000E+00
 0.0000000000000E+00
 0.0000000000000E+00
 0.0000000000000E+00
 0.0000000000000E+00
 0.0000000000000E+00
 0.0000000000000E+00
 0.0000000000000E+00
 0.0000000000000E+00
 0.0000000000000E+00
 0.0000000000000E+00
 0.0000000000000E+00
 0.0000000000000E+00
 0.0000000000000E+00
 0.0000000000000E+00
 0.0000000000000E+00
 0.0000000000000E+00
 0.0000000000000E+00
 0.0000000000000E+00
 0.0000000000000E+00
 0.0000000000000E+00
 0.0000000000000E+00
 0.0000000000000E+00
 0.0000000000000E+00
 0.0000000000000E+00
 0.0000000000000E+00
 0.0000000000000E+00
 0.0000000000000E+00
 0.0000000000000E+00
 0.0000000000000E+00
 0.0000000000000E+00
 0.0000000000000E+00
 0.0000000000000E+00
 0.0000000000000E+00
 0.0000000000000E+00
 0.0000000000000E+00
 0.0000000000000E+00
 0.0000000000000E+00
 0.0000000000000E+00
 0.0000000000000E+00
 0.0000000000000E+00
 0.0000000000000E+00
 0.0000000000000E+00
 0.0000000000000E+00
 0.0000000000000E+00
 0.0000000000000E+00
 0.0000000000000E+00
 0.0000000000000E+00
 0.0000000000000E+00
 0.0000000000000E+00
 0.0000000000000E+00
 0.0000000000000E+00
 0.0000000000000E+00
 0.0000000000000E+00
 0.0000000000000E+00
 0.0000000000000E+00
 0.0000000000000E+00
 0.0000000000000E+00
 0.0000000000000E+00
 0.0000000000000E+00
 0.0000000000000E+00
 0.0000000000000E+00
 0.0000000000000E+00
 0.0000000000000E+00
 0.0000000000000E+00
 0.0000000000000E+00
 0.0000000000000E+00
 0.0000000000000E+00
 0.0000000000000E+00
 0.0000000000000E+00
 0.0000000000000E+00
 0.0000000000000E+00
 0.0000000000000E+00
 0.0000000000000E+00
 0.0000000000000E+00
 0.0000000000000E+00
 0.0000000000000E+00
 0.0000000000000E+00
 0.0000000000000E+00
 0.0000000000000E+00
 0.0000000000000E+00
 0.0000000000000E+00
 0.0000000000000E+00
 0.0000000000000E+00
 0.0000000000000E+00
 0.0000000000000E+00
 0.0000000000000E+00
 0.0000000000000E+00
 0.0000000000000E+00
 0.0000000000000E+00
 0.0000000000000E+00
 0.0000000000000E+00
 0.0000000000000E+00
 0.0000000000000E+00
 0.0000000000000E+00
 0.0000000000000E+00
 0.0000000000000E+00
 0.0000000000000E+00
 0.0000000000000E+00
 0.0000000000000E+00
 0.0000000000000E+00
 0.0000000000000E+00
 0.0000000000000E+00
 0.0000000000000E+00
 0.0000000000000E+00
 0.0000000000000E+00
 0.0000000000000E+00
 0.0000000000000E+00
 0.0000000000000E+00
 0.0000000000000E+00
 0.0000000000000E+00
 0.0000000000000E+00
 0.0000000000000E+00
 0.0000000000000E+00
 0.0000000000000E+00
 0.0000000000000E+00
 0.0000000000000E+00
 0.0000000000000E+00
 0.0000000000000E+00
 0.0000000000000E+00
 0.0000000000000E+00
 0.0000000000000E+00
 0.0000000000000E+00
 0.0000000000000E+00
 0.0000000000000E+00
 0.0000000000000E+00
 0.0000000000000E+00
 0.0000000000000E+00
 0.0000000000000E+00
 0.0000000000000E+00
 0.0000000000000E+00
 0.0000000000000E+00
 0.0000000000000E+00
 0.0000000000000E+00
 0.0000000000000E+00
 0.0000000000000E+00
 0.0000000000000E+00
 0.0000000000000E+00
 0.0000000000000E+00
 0.0000000000000E+00
 0.0000000000000E+00
 0.0000000000000E+00
 0.0000000000000E+00
 0.0000000000000E+00
 0.0000000000000E+00
 0.0000000000000E+00
 0.0000000000000E+00
 0.0000000000000E+00
 0.0000000000000E+00
 0.0000000000000E+00
 0.0000000000000E+00
 0.0000000000000E+00
 0.0000000000000E+00
 0.0000000000000E+00
 0.0000000000000E+00
 0.0000000000000E+00
 0.0000000000000E+00
 0.0000000000000E+00
 0.0000000000000E+00
 0.0000000000000E+00
 0.0000000000000E+00
 0.0000000000000E+00
 0.0000000000000E+00
 0.0000000000000E+00
 0.0000000000000E+00
 0.0000000000000E+00
 0.0000000000000E+00
 0.0000000000000E+00
 0.0000000000000E+00
 0.0000000000000E+00
 0.0000000000000E+00
 0.0000000000000E+00
 0.0000000000000E+00
 0.0000000000000E+00
 0.0000000000000E+00
 0.0000000000000E+00
 0.0000000000000E+00
 0.0000000000000E+00
 0.0000000000000E+00
 0.0000000000000E+00
 0.0000000000000E+00
 0.0000000000000E+00
 0.0000000000000E+00
 0.0000000000000E+00
 0.0000000000000E+00
 0.0000000000000E+00
 0.0000000000000E+00
 0.0000000000000E+00
 0.0000000000000E+00
 0.0000000000000E+00
 0.0000000000000E+00
 0.0000000000000E+00
 0.0000000000000E+00
 0.0000000000000E+00
 0.0000000000000E+00
 0.0000000000000E+00
 0.0000000000000E+00
 0.0000000000000E+00
 0.0000000000000E+00
 0.0000000000000E+00
 0.0000000000000E+00
 0.0000000000000E+00
 0.0000000000000E+00
 0.0000000000000E+00
 0.0000000000000E+00
 0.0000000000000E+00
 0.0000000000000E+00
 0.0000000000000E+00
 0.0000000000000E+00
 0.0000000000000E+00
 0.0000000000000E+00
 0.0000000000000E+00
 0.0000000000000E+00
 0.0000000000000E+00
 0.0000000000000E+00
 0.0000000000000E+00
 0.0000000000000E+00
 0.0000000000000E+00
 0.0000000000000E+00
 0.0000000000000E+00
 0.0000000000000E+00
 0.0000000000000E+00
 0.0000000000000E+00
 0.0000000000000E+00
 0.0000000000000E+00
 0.0000000000000E+00
 0.0000000000000E+00
 0.0000000000000E+00
 0.0000000000000E+00
 0.0000000000000E+00
 0.0000000000000E+00
 0.0000000000000E+00
 0.0000000000000E+00
 0.0000000000000E+00
 0.0000000000000E+00
 0.0000000000000E+00
 0.0000000000000E+00
 0.0000000000000E+00
 0.0000000000000E+00
 0.0000000000000E+00
 0.0000000000000E+00
 0.0000000000000E+00
 0.0000000000000E+00
 0.0000000000000E+00
 0.0000000000000E+00
 0.0000000000000E+00
 0.0000000000000E+00
 0.0000000000000E+00
 0.0000000000000E+00
 0.0000000000000E+00
 0.0000000000000E+00
 0.0000000000000E+00
 0.0000000000000E+00
 0.0000000000000E+00
 0.0000000000000E+00
 0.0000000000000E+00
 0.0000000000000E+00
 0.0000000000000E+00
 0.0000000000000E+00
 0.0000000000000E+00
 0.0000000000000E+00
 0.0000000000000E+00
 0.0000000000000E+00
 0.0000000000000E+00
 0.0000000000000E+00
 0.0000000000000E+00
 0.0000000000000E+00
 0.0000000000000E+00
 0.0000000000000E+00
 0.0000000000000E+00
 0.0000000000000E+00
 0.0000000000000E+00
 0.0000000000000E+00
 0.0000000000000E+00
 0.0000000000000E+00
 0.0000000000000E+00
 0.0000000000000E+00
 0.0000000000000E+00
 0.0000000000000E+00
 0.0000000000000E+00
 0.0000000000000E+00
 0.0000000000000E+00
 0.0000000000000E+00
 0.0000000000000E+00
 0.0000000000000E+00
 0.0000000000000E+00
 0.0000000000000E+00
 0.0000000000000E+00
 0.0000000000000E+00
 0.0000000000000E+00
 0.0000000000000E+00
 0.0000000000000E+00
 0.0000000000000E+00
 0.0000000000000E+00
 0.0000000000000E+00
 0.0000000000000E+00
 0.0000000000000E+00
 0.0000000000000E+00
 0.0000000000000E+00
 0.0000000000000E+00
 0.0000000000000E+00
 0.0000000000000E+00
 0.0000000000000E+00
 0.0000000000000E+00
 0.0000000000000E+00
 0.0000000000000E+00
 0.0000000000000E+00
 0.0000000000000E+00
 0.0000000000000E+00
 0.0000000000000E+00
 0.0000000000000E+00
 0.0000000000000E+00
 0.0000000000000E+00
 0.0000000000000E+00
 0.0000000000000E+00
 0.0000000000000E+00
 0.0000000000000E+00
 0.0000000000000E+00
 0.0000000000000E+00
 0.0000000000000E+00
 0.0000000000000E+00
 0.0000000000000E+00
 0.0000000000000E+00
 0.0000000000000E+00
 0.0000000000000E+00
 0.0000000000000E+00
 0.0000000000000E+00
 0.0000000000000E+00
 0.0000000000000E+00
 0.0000000000000E+00
 0.0000000000000E+00
 0.0000000000000E+00
 0.0000000000000E+00
 0.0000000000000E+00
 0.0000000000000E+00
 0.0000000000000E+00
 0.0000000000000E+00
 0.0000000000000E+00
 0.0000000000000E+00
 0.0000000000000E+00
 0.0000000000000E+00
 0.0000000000000E+00
 0.0000000000000E+00
 0.0000000000000E+00
 0.0000000000000E+00
 0.0000000000000E+00
 0.0000000000000E+00
 0.0000000000000E+00
 0.0000000000000E+00
 0.0000000000000E+00
 0.0000000000000E+00
 0.0000000000000E+00
 0.0000000000000E+00
 0.0000000000000E+00
 0.0000000000000E+00
 0.0000000000000E+00
 0.0000000000000E+00
 0.0000000000000E+00
 0.0000000000000E+00
 0.0000000000000E+00
 0.0000000000000E+00
 0.0000000000000E+00
 0.0000000000000E+00
 0.0000000000000E+00
 0.0000000000000E+00
 0.0000000000000E+00
 0.0000000000000E+00
 0.0000000000000E+00
 0.0000000000000E+00
 0.0000000000000E+00
 0.0000000000000E+00
 0.0000000000000E+00
 0.0000000000000E+00
 0.0000000000000E+00
 0.0000000000000E+00
 0.0000000000000E+00
 0.0000000000000E+00
 0.0000000000000E+00
 0.0000000000000E+00
 0.0000000000000E+00
 0.0000000000000E+00
 0.0000000000000E+00
 0.0000000000000E+00
 0.0000000000000E+00
 0.0000000000000E+00
 0.0000000000000E+00
 0.0000000000000E+00
 0.0000000000000E+00
 0.0000000000000E+00
 0.0000000000000E+00
 0.0000000000000E+00
 0.0000000000000E+00
 0.0000000000000E+00
 0.0000000000000E+00
 0.0000000000000E+00
 0.0000000000000E+00
 0.0000000000000E+00
 0.0000000000000E+00
 0.0000000000000E+00
 0.0000000000000E+00
 0.0000000000000E+00
 0.0000000000000E+00
 0.0000000000000E+00
 0.0000000000000E+00
 0.0000000000000E+00
 0.0000000000000E+00
 0.0000000000000E+00
 0.0000000000000E+00
 0.0000000000000E+00
 0.0000000000000E+00
 0.0000000000000E+00
 0.0000000000000E+00
 0.0000000000000E+00
 0.0000000000000E+00
 0.0000000000000E+00
 0.0000000000000E+00
 0.0000000000000E+00
 0.0000000000000E+00
 0.0000000000000E+00
 0.0000000000000E+00
 0.0000000000000E+00
 0.0000000000000E+00
 0.0000000000000E+00
 0.0000000000000E+00
 0.0000000000000E+00
 0.0000000000000E+00
 0.0000000000000E+00
 0.0000000000000E+00
 0.0000000000000E+00
 0.0000000000000E+00
 0.0000000000000E+00
 0.0000000000000E+00
 0.0000000000000E+00
 0.0000000000000E+00
 0.0000000000000E+00
 0.0000000000000E+00
 0.0000000000000E+00
 0.0000000000000E+00
 0.0000000000000E+00
 0.0000000000000E+00
 0.0000000000000E+00
 0.0000000000000E+00
 0.0000000000000E+00
 0.0000000000000E+00
 0.0000000000000E+00
 0.0000000000000E+00
 0.0000000000000E+00
 0.0000000000000E+00
 0.0000000000000E+00
 0.0000000000000E+00
 0.0000000000000E+00
 0.0000000000000E+00
 0.0000000000000E+00
 0.0000000000000E+00
 0.0000000000000E+00
 0.0000000000000E+00
 0.0000000000000E+00
 0.0000000000000E+00
 0.0000000000000E+00
 0.0000000000000E+00
 0.0000000000000E+00
 0.0000000000000E+00
 0.0000000000000E+00
 0.0000000000000E+00
 0.0000000000000E+00
 0.0000000000000E+00
 0.0000000000000E+00
 0.0000000000000E+00
 0.0000000000000E+00
 0.0000000000000E+00
 0.0000000000000E+00
 0.0000000000000E+00
 0.0000000000000E+00
 0.0000000000000E+00
 0.0000000000000E+00
 0.0000000000000E+00
 0.0000000000000E+00
 0.0000000000000E+00
 0.0000000000000E+00
 0.0000000000000E+00
 0.0000000000000E+00
 0.0000000000000E+00
 0.0000000000000E+00
 0.0000000000000E+00
 0.0000000000000E+00
 0.0000000000000E+00
 0.0000000000000E+00
 0.0000000000000E+00
 0.0000000000000E+00
 0.0000000000000E+00
 0.0000000000000E+00
 0.0000000000000E+00
 0.0000000000000E+00
 0.0000000000000E+00
 0.0000000000000E+00
 0.0000000000000E+00
 0.0000000000000E+00
 0.0000000000000E+00
 0.0000000000000E+00
 0.0000000000000E+00
 0.0000000000000E+00
 0.0000000000000E+00
 0.0000000000000E+00
 0.0000000000000E+00
 0.0000000000000E+00
 0.0000000000000E+00
 0.0000000000000E+00
 0.0000000000000E+00
 0.0000000000000E+00
 0.0000000000000E+00
 0.0000000000000E+00
 0.0000000000000E+00
 0.0000000000000E+00
 0.0000000000000E+00
 0.0000000000000E+00
 0.0000000000000E+00
 0.0000000000000E+00
 0.0000000000000E+00
 0.0000000000000E+00
 0.0000000000000E+00
 0.0000000000000E+00
 0.0000000000000E+00
 0.0000000000000E+00
 0.0000000000000E+00
 0.0000000000000E+00
 0.0000000000000E+00
 0.0000000000000E+00
 0.0000000000000E+00
 0.0000000000000E+00
 0.0000000000000E+00
 0.0000000000000E+00
 0.0000000000000E+00
 0.0000000000000E+00
 0.0000000000000E+00
 0.0000000000000E+00
 0.0000000000000E+00
 0.0000000000000E+00
 0.0000000000000E+00
 0.0000000000000E+00
 0.0000000000000E+00
 0.0000000000000E+00
 0.0000000000000E+00
 0.0000000000000E+00
 0.0000000000000E+00
 0.0000000000000E+00
 0.0000000000000E+00
 0.0000000000000E+00
 0.0000000000000E+00
 0.0000000000000E+00
 0.0000000000000E+00
 0.0000000000000E+00
 0.0000000000000E+00
 0.0000000000000E+00
 0.0000000000000E+00
 0.0000000000000E+00
 0.0000000000000E+00
 0.0000000000000E+00
 0.0000000000000E+00
 0.0000000000000E+00
 0.0000000000000E+00
 0.0000000000000E+00
 0.0000000000000E+00
 0.0000000000000E+00
 0.0000000000000E+00
 0.0000000000000E+00
 0.0000000000000E+00
 0.0000000000000E+00
 0.0000000000000E+00
 0.0000000000000E+00
 0.0000000000000E+00
 0.0000000000000E+00
 0.0000000000000E+00
 0.0000000000000E+00
 0.0000000000000E+00
 0.0000000000000E+00
 0.0000000000000E+00
 0.0000000000000E+00
 0.0000000000000E+00
 0.0000000000000E+00
 0.0000000000000E+00
 0.0000000000000E+00
 0.0000000000000E+00
 0.0000000000000E+00
 0.0000000000000E+00
 0.0000000000000E+00
 0.0000000000000E+00
 0.0000000000000E+00
 0.0000000000000E+00
 0.0000000000000E+00
 0.0000000000000E+00
 0.0000000000000E+00
 0.0000000000000E+00
 0.0000000000000E+00
 0.0000000000000E+00
 0.0000000000000E+00
 0.0000000000000E+00
 0.0000000000000E+00
 0.0000000000000E+00
 0.0000000000000E+00
 0.0000000000000E+00
 0.0000000000000E+00
 0.0000000000000E+00
 0.0000000000000E+00
 0.0000000000000E+00
 0.0000000000000E+00
 0.0000000000000E+00
 0.0000000000000E+00
 0.0000000000000E+00
 0.0000000000000E+00
 0.0000000000000E+00
 0.0000000000000E+00
 0.0000000000000E+00
 0.0000000000000E+00
 0.0000000000000E+00
 0.0000000000000E+00
 0.0000000000000E+00
 0.0000000000000E+00
 0.0000000000000E+00
 0.0000000000000E+00
 0.0000000000000E+00
 0.0000000000000E+00
 0.0000000000000E+00
 0.0000000000000E+00
 0.0000000000000E+00
 0.0000000000000E+00
 0.0000000000000E+00
 0.0000000000000E+00
 0.0000000000000E+00
 0.0000000000000E+00
 0.0000000000000E+00
 0.0000000000000E+00
 0.0000000000000E+00
 0.0000000000000E+00
 0.0000000000000E+00
 0.0000000000000E+00
 0.0000000000000E+00
 0.0000000000000E+00
 0.0000000000000E+00
 0.0000000000000E+00
 0.0000000000000E+00
 0.0000000000000E+00
 0.0000000000000E+00
 0.0000000000000E+00
 0.0000000000000E+00
 0.0000000000000E+00
 0.0000000000000E+00
 0.0000000000000E+00
 0.0000000000000E+00
 0.0000000000000E+00
 0.0000000000000E+00
 0.0000000000000E+00
 0.0000000000000E+00
 0.0000000000000E+00
 0.0000000000000E+00
 0.0000000000000E+00
 0.0000000000000E+00
 0.0000000000000E+00
 0.0000000000000E+00
 0.0000000000000E+00
 0.0000000000000E+00
 0.0000000000000E+00
 0.0000000000000E+00
 0.0000000000000E+00
 0.0000000000000E+00
 0.0000000000000E+00
 0.0000000000000E+00
 0.0000000000000E+00
 0.0000000000000E+00
 0.0000000000000E+00
 0.0000000000000E+00
 0.0000000000000E+00
 0.0000000000000E+00
 0.0000000000000E+00
 0.0000000000000E+00
 0.0000000000000E+00
 0.0000000000000E+00
 0.0000000000000E+00
 0.0000000000000E+00
 0.0000000000000E+00
 0.0000000000000E+00
 0.0000000000000E+00
 0.0000000000000E+00
 0.0000000000000E+00
 0.0000000000000E+00
 0.0000000000000E+00
 0.0000000000000E+00
 0.0000000000000E+00
 0.0000000000000E+00
 0.0000000000000E+00
 0.0000000000000E+00
 0.0000000000000E+00
 0.0000000000000E+00
 0.0000000000000E+00
 0.0000000000000E+00
 0.0000000000000E+00
 0.0000000000000E+00
 0.0000000000000E+00
 0.0000000000000E+00
 0.0000000000000E+00
 0.0000000000000E+00
 0.0000000000000E+00
 0.0000000000000E+00
 0.0000000000000E+00
 0.0000000000000E+00
 0.0000000000000E+00
 0.0000000000000E+00
 0.0000000000000E+00
 0.0000000000000E+00
 0.0000000000000E+00
 0.0000000000000E+00
 0.0000000000000E+00
 0.0000000000000E+00
 0.0000000000000E+00
 0.0000000000000E+00
 0.0000000000000E+00
 0.0000000000000E+00
 0.0000000000000E+00
 0.0000000000000E+00
 0.0000000000000E+00
 0.0000000000000E+00
 0.0000000000000E+00
 0.0000000000000E+00
 0.0000000000000E+00
 0.0000000000000E+00
 0.0000000000000E+00
 0.0000000000000E+00
 0.0000000000000E+00
 0.0000000000000E+00
 0.0000000000000E+00
 0.0000000000000E+00
 0.0000000000000E+00
 0.0000000000000E+00
 0.0000000000000E+00
 0.0000000000000E+00
 0.0000000000000E+00
 0.0000000000000E+00
 0.0000000000000E+00
 0.0000000000000E+00
 0.0000000000000E+00
 0.0000000000000E+00
 0.0000000000000E+00
 0.0000000000000E+00
 0.0000000000000E+00
 0.0000000000000E+00
 0.0000000000000E+00
 0.0000000000000E+00
 0.0000000000000E+00
 0.0000000000000E+00
 0.0000000000000E+00
 0.0000000000000E+00
 0.0000000000000E+00
 0.0000000000000E+00
 0.0000000000000E+00
 0.0000000000000E+00
 0.0000000000000E+00
 0.0000000000000E+00
 0.0000000000000E+00
 0.0000000000000E+00
 0.0000000000000E+00
 0.0000000000000E+00
 0.0000000000000E+00
 0.0000000000000E+00
 0.0000000000000E+00
 0.0000000000000E+00
 0.0000000000000E+00
 0.0000000000000E+00
 0.0000000000000E+00
 0.0000000000000E+00
 0.0000000000000E+00
 0.0000000000000E+00
 0.0000000000000E+00
 0.0000000000000E+00
 0.0000000000000E+00
 0.0000000000000E+00
 0.0000000000000E+00
 0.0000000000000E+00
 0.0000000000000E+00
 0.0000000000000E+00
 0.0000000000000E+00
 0.0000000000000E+00
 0.0000000000000E+00
 0.0000000000000E+00
 0.0000000000000E+00
 0.0000000000000E+00
 0.0000000000000E+00
 0.0000000000000E+00
 0.0000000000000E+00
 0.0000000000000E+00
 0.0000000000000E+00
 0.0000000000000E+00
 0.0000000000000E+00
 0.0000000000000E+00
 0.0000000000000E+00
 0.0000000000000E+00
 0.0000000000000E+00
 0.0000000000000E+00
 0.0000000000000E+00
 0.0000000000000E+00
 0.0000000000000E+00
 0.0000000000000E+00
 0.0000000000000E+00
 0.0000000000000E+00
 0.0000000000000E+00
 0.0000000000000E+00
 0.0000000000000E+00
 0.0000000000000E+00
 0.0000000000000E+00
 0.0000000000000E+00
 0.0000000000000E+00
 0.0000000000000E+00
 0.0000000000000E+00
 0.0000000000000E+00
 0.0000000000000E+00
 0.0000000000000E+00
 0.0000000000000E+00
 0.0000000000000E+00
 0.0000000000000E+00
 0.0000000000000E+00
 0.0000000000000E+00
 0.0000000000000E+00
 0.0000000000000E+00
 0.0000000000000E+00
 0.0000000000000E+00
 0.0000000000000E+00
 0.0000000000000E+00
 0.0000000000000E+00
 0.0000000000000E+00
 0.0000000000000E+00
 0.0000000000000E+00
 0.0000000000000E+00
 0.0000000000000E+00
 0.0000000000000E+00
 0.0000000000000E+00
 0.0000000000000E+00
 0.0000000000000E+00
 0.0000000000000E+00
 0.0000000000000E+00
 0.0000000000000E+00
 0.0000000000000E+00
 0.0000000000000E+00
 0.0000000000000E+00
 0.0000000000000E+00
 0.0000000000000E+00
 0.0000000000000E+00
 0.0000000000000E+00
 0.0000000000000E+00
 0.0000000000000E+00
 0.0000000000000E+00
 0.0000000000000E+00
 0.0000000000000E+00
 0.0000000000000E+00
 0.0000000000000E+00
 0.0000000000000E+00
 0.0000000000000E+00
 0.0000000000000E+00
 0.0000000000000E+00
 0.0000000000000E+00
 0.0000000000000E+00
 0.0000000000000E+00
 0.0000000000000E+00
 0.0000000000000E+00
 0.0000000000000E+00
 0.0000000000000E+00
 0.0000000000000E+00
 0.0000000000000E+00
 0.0000000000000E+00
 0.0000000000000E+00
 0.0000000000000E+00
 0.0000000000000E+00
 0.0000000000000E+00
 0.0000000000000E+00
 0.0000000000000E+00
 0.0000000000000E+00
 0.0000000000000E+00
 0.0000000000000E+00
 0.0000000000000E+00
 0.0000000000000E+00
 0.0000000000000E+00
 0.0000000000000E+00
 0.0000000000000E+00
 0.0000000000000E+00
 0.0000000000000E+00
 0.0000000000000E+00
 0.0000000000000E+00
 0.0000000000000E+00
 0.0000000000000E+00
 0.0000000000000E+00
 0.0000000000000E+00
 0.0000000000000E+00
 0.0000000000000E+00
 0.0000000000000E+00
 0.0000000000000E+00
 0.0000000000000E+00
 0.0000000000000E+00
 0.0000000000000E+00
 0.0000000000000E+00
 0.0000000000000E+00
 0.0000000000000E+00
 0.0000000000000E+00
 0.0000000000000E+00
 0.0000000000000E+00
 0.0000000000000E+00
 0.0000000000000E+00
 0.0000000000000E+00
 0.0000000000000E+00
 0.0000000000000E+00
 0.0000000000000E+00
 0.0000000000000E+00
 0.0000000000000E+00
 0.0000000000000E+00
 0.0000000000000E+00
 0.0000000000000E+00
 0.0000000000000E+00
 0.0000000000000E+00
 0.0000000000000E+00
 0.0000000000000E+00
 0.0000000000000E+00
 0.0000000000000E+00
 0.0000000000000E+00
 0.0000000000000E+00
 0.0000000000000E+00
 0.0000000000000E+00
 0.0000000000000E+00
 0.0000000000000E+00
 0.0000000000000E+00
 0.0000000000000E+00
 0.0000000000000E+00
 0.0000000000000E+00
 0.0000000000000E+00
 0.0000000000000E+00
 0.0000000000000E+00
 0.0000000000000E+00
 0.0000000000000E+00
 0.0000000000000E+00
 0.0000000000000E+00
 0.0000000000000E+00
 0.0000000000000E+00
 0.0000000000000E+00
 0.0000000000000E+00
 0.0000000000000E+00
 0.0000000000000E+00
 0.0000000000000E+00
 0.0000000000000E+00
 0.0000000000000E+00
 0.0000000000000E+00
 0.0000000000000E+00
 0.0000000000000E+00
 0.0000000000000E+00
 0.0000000000000E+00
 0.0000000000000E+00
 0.0000000000000E+00
 0.0000000000000E+00
 0.0000000000000E+00
 0.0000000000000E+00
 0.0000000000000E+00
 0.0000000000000E+00
 0.0000000000000E+00
 0.0000000000000E+00
 0.0000000000000E+00
 0.0000000000000E+00
 0.0000000000000E+00
 0.0000000000000E+00
 0.0000000000000E+00
 0.0000000000000E+00
 0.0000000000000E+00
 0.0000000000000E+00
 0.0000000000000E+00
 0.0000000000000E+00
 0.0000000000000E+00
 0.0000000000000E+00
 0.0000000000000E+00
 0.0000000000000E+00
 0.0000000000000E+00
 0.0000000000000E+00
 0.0000000000000E+00
 0.0000000000000E+00
 0.0000000000000E+00
 0.0000000000000E+00
 0.0000000000000E+00
 0.0000000000000E+00
 0.0000000000000E+00
 0.0000000000000E+00
 0.0000000000000E+00
 0.0000000000000E+00
 0.0000000000000E+00
 0.0000000000000E+00
 0.0000000000000E+00
 0.0000000000000E+00
 0.0000000000000E+00
 0.0000000000000E+00
 0.0000000000000E+00
 0.0000000000000E+00
 0.0000000000000E+00
 0.0000000000000E+00
 0.0000000000000E+00
 0.0000000000000E+00
 0.0000000000000E+00
 0.0000000000000E+00
 0.0000000000000E+00
 0.0000000000000E+00
 0.0000000000000E+00
 0.0000000000000E+00
 0.0000000000000E+00
 0.0000000000000E+00
 0.0000000000000E+00
 0.0000000000000E+00
 0.0000000000000E+00
 0.0000000000000E+00
 0.0000000000000E+00
 0.0000000000000E+00
 0.0000000000000E+00
 0.0000000000000E+00
 0.0000000000000E+00
 0.0000000000000E+00
 0.0000000000000E+00
 0.0000000000000E+00
 0.0000000000000E+00
 0.0000000000000E+00
 0.0000000000000E+00
 0.0000000000000E+00
 0.0000000000000E+00
 0.0000000000000E+00
 0.0000000000000E+00
 0.0000000000000E+00
 0.0000000000000E+00
 0.0000000000000E+00
 0.0000000000000E+00
 0.0000000000000E+00
 0.0000000000000E+00
 0.0000000000000E+00
 0.0000000000000E+00
 0.0000000000000E+00
 0.0000000000000E+00
 0.0000000000000E+00
 0.0000000000000E+00
 0.0000000000000E+00
 0.0000000000000E+00
 0.0000000000000E+00
 0.0000000000000E+00
 0.0000000000000E+00
 0.0000000000000E+00
 0.0000000000000E+00
 0.0000000000000E+00
 0.0000000000000E+00
 0.0000000000000E+00
 0.0000000000000E+00
 0.0000000000000E+00
 0.0000000000000E+00
 0.0000000000000E+00
 0.0000000000000E+00
 0.0000000000000E+00
 0.0000000000000E+00
 0.0000000000000E+00
 0.0000000000000E+00
 0.0000000000000E+00
 0.0000000000000E+00
 0.0000000000000E+00
 0.0000000000000E+00
 0.0000000000000E+00
 0.0000000000000E+00
 0.0000000000000E+00
 0.0000000000000E+00
 0.0000000000000E+00
 0.0000000000000E+00
 0.0000000000000E+00
 0.0000000000000E+00
 0.0000000000000E+00
 0.0000000000000E+00
 0.0000000000000E+00
 0.0000000000000E+00
 0.0000000000000E+00
 0.0000000000000E+00
 0.0000000000000E+00
 0.0000000000000E+00
 0.0000000000000E+00
 0.0000000000000E+00
 0.0000000000000E+00
 0.0000000000000E+00
 0.0000000000000E+00
 0.0000000000000E+00
 0.0000000000000E+00
 0.0000000000000E+00
 0.0000000000000E+00
 0.0000000000000E+00
 0.0000000000000E+00
 0.0000000000000E+00
 0.0000000000000E+00
 0.0000000000000E+00
 0.0000000000000E+00
 0.0000000000000E+00
 0.0000000000000E+00
 0.0000000000000E+00
 0.0000000000000E+00
 0.0000000000000E+00
 0.0000000000000E+00
 0.0000000000000E+00
 0.0000000000000E+00
 0.0000000000000E+00
 0.0000000000000E+00
 0.0000000000000E+00
 0.0000000000000E+00
 0.0000000000000E+00
 0.0000000000000E+00
 0.0000000000000E+00
 0.0000000000000E+00
 0.0000000000000E+00
 0.0000000000000E+00
 0.0000000000000E+00
 0.0000000000000E+00
 0.0000000000000E+00
 0.0000000000000E+00
 0.0000000000000E+00
 0.0000000000000E+00
 0.0000000000000E+00
 0.0000000000000E+00
 0.0000000000000E+00
 0.0000000000000E+00
 0.0000000000000E+00
 0.0000000000000E+00
 0.0000000000000E+00
 0.0000000000000E+00
 0.0000000000000E+00
 0.0000000000000E+00
 0.0000000000000E+00
 0.0000000000000E+00
 0.0000000000000E+00
 0.0000000000000E+00
 0.0000000000000E+00
 0.0000000000000E+00
 0.0000000000000E+00
 0.0000000000000E+00
 0.0000000000000E+00
 0.0000000000000E+00
 0.0000000000000E+00
 0.0000000000000E+00
 0.0000000000000E+00
 0.0000000000000E+00
 0.0000000000000E+00
 0.0000000000000E+00
 0.0000000000000E+00
 0.0000000000000E+00
 0.0000000000000E+00
 0.0000000000000E+00
 0.0000000000000E+00
 0.0000000000000E+00
 0.0000000000000E+00
 0.0000000000000E+00
 0.0000000000000E+00
 0.0000000000000E+00
 0.0000000000000E+00
 0.0000000000000E+00
 0.0000000000000E+00
 0.0000000000000E+00
 0.0000000000000E+00
 0.0000000000000E+00
 0.0000000000000E+00
 0.0000000000000E+00
 0.0000000000000E+00
 0.0000000000000E+00
 0.0000000000000E+00
 0.0000000000000E+00
 0.0000000000000E+00
 0.0000000000000E+00
 0.0000000000000E+00
 0.0000000000000E+00
 0.0000000000000E+00
 0.0000000000000E+00
 0.0000000000000E+00
 0.0000000000000E+00
 0.0000000000000E+00
 0.0000000000000E+00
 0.0000000000000E+00
 0.0000000000000E+00
 0.0000000000000E+00
 0.0000000000000E+00
 0.0000000000000E+00
 0.0000000000000E+00
 0.0000000000000E+00
 0.0000000000000E+00
 0.0000000000000E+00
 0.0000000000000E+00
 0.0000000000000E+00
 0.0000000000000E+00
 0.0000000000000E+00
 0.0000000000000E+00
 0.0000000000000E+00
 0.0000000000000E+00
 0.0000000000000E+00
 0.0000000000000E+00
 0.0000000000000E+00
 0.0000000000000E+00
 0.0000000000000E+00
 0.0000000000000E+00
 0.0000000000000E+00
 0.0000000000000E+00
 0.0000000000000E+00
 0.0000000000000E+00
 0.0000000000000E+00
 0.0000000000000E+00
 0.0000000000000E+00
 0.0000000000000E+00
 0.0000000000000E+00
 0.0000000000000E+00
 0.0000000000000E+00
 0.0000000000000E+00
 0.0000000000000E+00
 0.0000000000000E+00
 0.0000000000000E+00
 0.0000000000000E+00
 0.0000000000000E+00
 0.0000000000000E+00
 0.0000000000000E+00
 0.0000000000000E+00
 0.0000000000000E+00
 0.0000000000000E+00
 0.0000000000000E+00
 0.0000000000000E+00
 0.0000000000000E+00
 0.0000000000000E+00
 0.0000000000000E+00
 0.0000000000000E+00
 0.0000000000000E+00
 0.0000000000000E+00
 0.0000000000000E+00
 0.0000000000000E+00
 0.0000000000000E+00
 0.0000000000000E+00
 0.0000000000000E+00
 0.0000000000000E+00
 0.0000000000000E+00
 0.0000000000000E+00
 0.0000000000000E+00
 0.0000000000000E+00
 0.0000000000000E+00
 0.0000000000000E+00
 0.0000000000000E+00
 0.0000000000000E+00
 0.0000000000000E+00
 0.0000000000000E+00
 0.0000000000000E+00
 0.0000000000000E+00
 0.0000000000000E+00
 0.0000000000000E+00
 0.0000000000000E+00
 0.0000000000000E+00
 0.0000000000000E+00
 0.0000000000000E+00
 0.0000000000000E+00
 0.0000000000000E+00
 0.0000000000000E+00
 0.0000000000000E+00
 0.0000000000000E+00
 0.0000000000000E+00
 0.0000000000000E+00
 0.0000000000000E+00
 0.0000000000000E+00
 0.0000000000000E+00
 0.0000000000000E+00
 0.0000000000000E+00
 0.0000000000000E+00
 0.0000000000000E+00
 0.0000000000000E+00
 0.0000000000000E+00
 0.0000000000000E+00
 0.0000000000000E+00
 0.0000000000000E+00
 0.0000000000000E+00
 0.0000000000000E+00
 0.0000000000000E+00
 0.0000000000000E+00
 0.0000000000000E+00
 0.0000000000000E+00
 0.0000000000000E+00
 0.0000000000000E+00
 0.0000000000000E+00
 0.0000000000000E+00
 0.0000000000000E+00
 0.0000000000000E+00
 0.0000000000000E+00
 0.0000000000000E+00
 0.0000000000000E+00
 0.0000000000000E+00
 0.0000000000000E+00
 0.0000000000000E+00
 0.0000000000000E+00
 0.0000000000000E+00
 0.0000000000000E+00
 0.0000000000000E+00
 0.0000000000000E+00
 0.0000000000000E+00
 0.0000000000000E+00
 0.0000000000000E+00
 0.0000000000000E+00
 0.0000000000000E+00
 0.0000000000000E+00
 0.0000000000000E+00
 0.0000000000000E+00
 0.0000000000000E+00
 0.0000000000000E+00
 0.0000000000000E+00
 0.0000000000000E+00
 0.0000000000000E+00
 0.0000000000000E+00
 0.0000000000000E+00
 0.0000000000000E+00
 0.0000000000000E+00
 0.0000000000000E+00
 0.0000000000000E+00
 0.0000000000000E+00
 0.0000000000000E+00
 0.0000000000000E+00
 0.0000000000000E+00
 0.0000000000000E+00
 0.0000000000000E+00
 0.0000000000000E+00
 0.0000000000000E+00
 0.0000000000000E+00
 0.0000000000000E+00
 0.0000000000000E+00
 0.0000000000000E+00
 0.0000000000000E+00
 0.0000000000000E+00
 0.0000000000000E+00
 0.0000000000000E+00
 0.0000000000000E+00
 0.0000000000000E+00
 0.0000000000000E+00
 0.0000000000000E+00
 0.0000000000000E+00
 0.0000000000000E+00
 0.0000000000000E+00
 0.0000000000000E+00
 0.0000000000000E+00
 0.0000000000000E+00
 0.0000000000000E+00
 0.0000000000000E+00
 0.0000000000000E+00
 0.0000000000000E+00
 0.0000000000000E+00
 0.0000000000000E+00
 0.0000000000000E+00
 0.0000000000000E+00
 0.0000000000000E+00
 0.0000000000000E+00
 0.0000000000000E+00
 0.0000000000000E+00
 0.0000000000000E+00
 0.0000000000000E+00
 0.0000000000000E+00
 0.0000000000000E+00
 0.0000000000000E+00
 0.0000000000000E+00
 0.0000000000000E+00
 0.0000000000000E+00
 0.0000000000000E+00
 0.0000000000000E+00
 0.0000000000000E+00
 0.0000000000000E+00
 0.0000000000000E+00
 0.0000000000000E+00
 0.0000000000000E+00
 0.0000000000000E+00
 0.0000000000000E+00
 0.0000000000000E+00
 0.0000000000000E+00
 0.0000000000000E+00
 0.0000000000000E+00
 0.0000000000000E+00
 0.0000000000000E+00
 0.0000000000000E+00
 0.0000000000000E+00
 0.0000000000000E+00
 0.0000000000000E+00
 0.0000000000000E+00
 0.0000000000000E+00
 0.0000000000000E+00
 0.0000000000000E+00
 0.0000000000000E+00
 0.0000000000000E+00
 0.0000000000000E+00
 0.0000000000000E+00
 0.0000000000000E+00
 0.0000000000000E+00
 0.0000000000000E+00
 0.0000000000000E+00
 0.0000000000000E+00
 0.0000000000000E+00
 0.0000000000000E+00
 0.0000000000000E+00
 0.0000000000000E+00
 0.0000000000000E+00
 0.0000000000000E+00
 0.0000000000000E+00
 0.0000000000000E+00
 0.0000000000000E+00
 0.0000000000000E+00
 0.0000000000000E+00
 0.0000000000000E+00
 0.0000000000000E+00
 0.0000000000000E+00
 0.0000000000000E+00
 0.0000000000000E+00
 0.0000000000000E+00
 0.0000000000000E+00
 0.0000000000000E+00
 0.0000000000000E+00
 0.0000000000000E+00
 0.0000000000000E+00
 0.0000000000000E+00
 0.0000000000000E+00
 0.0000000000000E+00
 0.0000000000000E+00
 0.0000000000000E+00
 0.0000000000000E+00
 0.0000000000000E+00
 0.0000000000000E+00
 0.0000000000000E+00
 0.0000000000000E+00
 0.0000000000000E+00
 0.0000000000000E+00
 0.0000000000000E+00
 0.0000000000000E+00
 0.0000000000000E+00
 0.0000000000000E+00
 0.0000000000000E+00
 0.0000000000000E+00
 0.0000000000000E+00
 0.0000000000000E+00
 0.0000000000000E+00
 0.0000000000000E+00
 0.0000000000000E+00
 0.0000000000000E+00
 0.0000000000000E+00
 0.0000000000000E+00
 0.0000000000000E+00
 0.0000000000000E+00
 0.0000000000000E+00
 0.0000000000000E+00
 0.0000000000000E+00
 0.0000000000000E+00
 0.0000000000000E+00
 0.0000000000000E+00
 0.0000000000000E+00
 0.0000000000000E+00
 0.0000000000000E+00
 0.0000000000000E+00
 0.0000000000000E+00
 0.0000000000000E+00
 0.0000000000000E+00
 0.0000000000000E+00
 0.0000000000000E+00
 0.0000000000000E+00
 0.0000000000000E+00
 0.0000000000000E+00
 0.0000000000000E+00
 0.0000000000000E+00
 0.0000000000000E+00
 0.0000000000000E+00
 0.0000000000000E+00
 0.0000000000000E+00
 0.0000000000000E+00
 0.0000000000000E+00
 0.0000000000000E+00
 0.0000000000000E+00
 0.0000000000000E+00
 0.0000000000000E+00
 0.0000000000000E+00
 0.0000000000000E+00
 0.0000000000000E+00
 0.0000000000000E+00
 0.0000000000000E+00
 0.0000000000000E+00
 0.0000000000000E+00
 0.0000000000000E+00
 0.0000000000000E+00
 0.0000000000000E+00
 0.0000000000000E+00
 0.0000000000000E+00
 0.0000000000000E+00
 0.0000000000000E+00
 0.0000000000000E+00
 0.0000000000000E+00
 0.0000000000000E+00
 0.0000000000000E+00
 0.0000000000000E+00
 0.0000000000000E+00
 0.0000000000000E+00
 0.0000000000000E+00
 0.0000000000000E+00
 0.0000000000000E+00
 0.0000000000000E+00
 0.0000000000000E+00
 0.0000000000000E+00
 0.0000000000000E+00
 0.0000000000000E+00
 0.0000000000000E+00
 0.0000000000000E+00
 0.0000000000000E+00
 0.0000000000000E+00
 0.0000000000000E+00
 0.0000000000000E+00
 0.0000000000000E+00
 0.0000000000000E+00
 0.0000000000000E+00
 0.0000000000000E+00
 0.0000000000000E+00
 0.0000000000000E+00
 0.0000000000000E+00
 0.0000000000000E+00
 0.0000000000000E+00
 0.0000000000000E+00
 0.0000000000000E+00
 0.0000000000000E+00
 0.0000000000000E+00
 0.0000000000000E+00
 0.0000000000000E+00
 0.0000000000000E+00
 0.0000000000000E+00
 0.0000000000000E+00
 0.0000000000000E+00
 0.0000000000000E+00
 0.0000000000000E+00
 0.0000000000000E+00
 0.0000000000000E+00
 0.0000000000000E+00
 0.0000000000000E+00
 0.0000000000000E+00
 0.0000000000000E+00
 0.0000000000000E+00
 0.0000000000000E+00
 0.0000000000000E+00
 0.0000000000000E+00
 0.0000000000000E+00
 0.0000000000000E+00
 0.0000000000000E+00
 0.0000000000000E+00
 0.0000000000000E+00
 0.0000000000000E+00
 0.0000000000000E+00
 0.0000000000000E+00
 0.0000000000000E+00
 0.0000000000000E+00
 0.0000000000000E+00
 0.0000000000000E+00
 0.0000000000000E+00
 0.0000000000000E+00
 0.0000000000000E+00
 0.0000000000000E+00
 0.0000000000000E+00
 0.0000000000000E+00
 0.0000000000000E+00
 0.0000000000000E+00
 0.0000000000000E+00
 0.0000000000000E+00
 0.0000000000000E+00
 0.0000000000000E+00
 0.0000000000000E+00
 0.0000000000000E+00
 0.0000000000000E+00
 0.0000000000000E+00
 0.0000000000000E+00
 0.0000000000000E+00
 0.0000000000000E+00
 0.0000000000000E+00
 0.0000000000000E+00
 0.0000000000000E+00
 0.0000000000000E+00
 0.0000000000000E+00
 0.0000000000000E+00
 0.0000000000000E+00
 0.0000000000000E+00
 0.0000000000000E+00
 0.0000000000000E+00
 0.0000000000000E+00
 0.0000000000000E+00
 0.0000000000000E+00
 0.0000000000000E+00
 0.0000000000000E+00
 0.0000000000000E+00
 0.0000000000000E+00
 0.0000000000000E+00
 0.0000000000000E+00
 0.0000000000000E+00
 0.0000000000000E+00
 0.0000000000000E+00
 0.0000000000000E+00
 0.0000000000000E+00
 0.0000000000000E+00
 0.0000000000000E+00
 0.0000000000000E+00
 0.0000000000000E+00
 0.0000000000000E+00
 0.0000000000000E+00
 0.0000000000000E+00
 0.0000000000000E+00
 0.0000000000000E+00
 0.0000000000000E+00
 0.0000000000000E+00
 0.0000000000000E+00
 0.0000000000000E+00
 0.0000000000000E+00
 0.0000000000000E+00
 0.0000000000000E+00
 0.0000000000000E+00
 0.0000000000000E+00
 0.0000000000000E+00
 0.0000000000000E+00
 0.0000000000000E+00
 0.0000000000000E+00
 0.0000000000000E+00
 0.0000000000000E+00
 0.0000000000000E+00
 0.0000000000000E+00
 0.0000000000000E+00
 0.0000000000000E+00
 0.0000000000000E+00
 0.0000000000000E+00
 0.0000000000000E+00
 0.0000000000000E+00
 0.0000000000000E+00
 0.0000000000000E+00
 0.0000000000000E+00
 0.0000000000000E+00
 0.0000000000000E+00
 0.0000000000000E+00
 0.0000000000000E+00
 0.0000000000000E+00
 0.0000000000000E+00
 0.0000000000000E+00
 0.0000000000000E+00
 0.0000000000000E+00
 0.0000000000000E+00
 0.0000000000000E+00
 0.0000000000000E+00
 0.0000000000000E+00
 0.0000000000000E+00
 0.0000000000000E+00
 0.0000000000000E+00
 0.0000000000000E+00
 0.0000000000000E+00
 0.0000000000000E+00
 0.0000000000000E+00
 0.0000000000000E+00
 0.0000000000000E+00
 0.0000000000000E+00
 0.0000000000000E+00
 0.0000000000000E+00
 0.0000000000000E+00
 0.0000000000000E+00
 0.0000000000000E+00
 0.0000000000000E+00
 0.0000000000000E+00
 0.0000000000000E+00
 0.0000000000000E+00
 0.0000000000000E+00
 0.0000000000000E+00
 0.0000000000000E+00
 0.0000000000000E+00
 0.0000000000000E+00
 0.0000000000000E+00
 0.0000000000000E+00
 0.0000000000000E+00
 0.0000000000000E+00
 0.0000000000000E+00
 0.0000000000000E+00
 0.0000000000000E+00
 0.0000000000000E+00
 0.0000000000000E+00
 0.0000000000000E+00
 0.0000000000000E+00
 0.0000000000000E+00
 0.0000000000000E+00
 0.0000000000000E+00
 0.0000000000000E+00
 0.0000000000000E+00
 0.0000000000000E+00
 0.0000000000000E+00
 0.0000000000000E+00
 0.0000000000000E+00
 0.0000000000000E+00
 0.0000000000000E+00
 0.0000000000000E+00
 0.0000000000000E+00
 0.0000000000000E+00
 0.0000000000000E+00
 0.0000000000000E+00
 0.0000000000000E+00
 0.0000000000000E+00
 0.0000000000000E+00
 0.0000000000000E+00
 0.0000000000000E+00
 0.0000000000000E+00
 0.0000000000000E+00
 0.0000000000000E+00
 0.0000000000000E+00
 0.0000000000000E+00
 0.0000000000000E+00
 0.0000000000000E+00
 0.0000000000000E+00
 0.0000000000000E+00
 0.0000000000000E+00
 0.0000000000000E+00
 0.0000000000000E+00
 0.0000000000000E+00
 0.0000000000000E+00
 0.0000000000000E+00
 0.0000000000000E+00
 0.0000000000000E+00
 0.0000000000000E+00
 0.0000000000000E+00
 0.0000000000000E+00
 0.0000000000000E+00
 0.0000000000000E+00
 0.0000000000000E+00
 0.0000000000000E+00
 0.0000000000000E+00
 0.0000000000000E+00
 0.0000000000000E+00
 0.0000000000000E+00
 0.0000000000000E+00
 0.0000000000000E+00
 0.0000000000000E+00
 0.0000000000000E+00
 0.0000000000000E+00
 0.0000000000000E+00
 0.0000000000000E+00
 0.0000000000000E+00
 0.0000000000000E+00
 0.0000000000000E+00
 0.0000000000000E+00
 0.0000000000000E+00
 0.0000000000000E+00
 0.0000000000000E+00
 0.0000000000000E+00
 0.0000000000000E+00
 0.0000000000000E+00
 0.0000000000000E+00
 0.0000000000000E+00
 0.0000000000000E+00
 0.0000000000000E+00
 0.0000000000000E+00
 0.0000000000000E+00
 0.0000000000000E+00
 0.0000000000000E+00
 0.0000000000000E+00
 0.0000000000000E+00
 0.0000000000000E+00
 0.0000000000000E+00
 0.0000000000000E+00
 0.0000000000000E+00
 0.0000000000000E+00
 0.0000000000000E+00
 0.0000000000000E+00
 0.0000000000000E+00
 0.0000000000000E+00
 0.0000000000000E+00
 0.0000000000000E+00
 0.0000000000000E+00
 0.0000000000000E+00
 0.0000000000000E+00
 0.0000000000000E+00
 0.0000000000000E+00
 0.0000000000000E+00
 0.0000000000000E+00
 0.0000000000000E+00
 0.0000000000000E+00
 0.0000000000000E+00
 0.0000000000000E+00
 0.0000000000000E+00
 0.0000000000000E+00
 0.0000000000000E+00
 0.0000000000000E+00
 0.0000000000000E+00
 0.0000000000000E+00
 0.0000000000000E+00
 0.0000000000000E+00
 0.0000000000000E+00
 0.0000000000000E+00
 0.0000000000000E+00
 0.0000000000000E+00
 0.0000000000000E+00
 0.0000000000000E+00
 0.0000000000000E+00
 0.0000000000000E+00
 0.0000000000000E+00
 0.0000000000000E+00
 0.0000000000000E+00
 0.0000000000000E+00
 0.0000000000000E+00
 0.0000000000000E+00
 0.0000000000000E+00
 0.0000000000000E+00
 0.0000000000000E+00
 0.0000000000000E+00
 0.0000000000000E+00
 0.0000000000000E+00
 0.0000000000000E+00
 0.0000000000000E+00
 0.0000000000000E+00
 0.0000000000000E+00
 0.0000000000000E+00
 0.0000000000000E+00
 0.0000000000000E+00
 0.0000000000000E+00
 0.0000000000000E+00
 0.0000000000000E+00
 0.0000000000000E+00
 0.0000000000000E+00
 0.0000000000000E+00
 0.0000000000000E+00
 0.0000000000000E+00
 0.0000000000000E+00
 0.0000000000000E+00
 0.0000000000000E+00
 0.0000000000000E+00
 0.0000000000000E+00
 0.0000000000000E+00
 0.0000000000000E+00
 0.0000000000000E+00
 0.0000000000000E+00
 0.0000000000000E+00
 0.0000000000000E+00
 0.0000000000000E+00
 0.0000000000000E+00
 0.0000000000000E+00
 0.0000000000000E+00
 0.0000000000000E+00
 0.0000000000000E+00
 0.0000000000000E+00
 0.0000000000000E+00
 0.0000000000000E+00
 0.0000000000000E+00
 0.0000000000000E+00
 0.0000000000000E+00
 0.0000000000000E+00
 0.0000000000000E+00
 0.0000000000000E+00
 0.0000000000000E+00
 0.0000000000000E+00
 0.0000000000000E+00
 0.0000000000000E+00
 0.0000000000000E+00
 0.0000000000000E+00
 0.0000000000000E+00
 0.0000000000000E+00
 0.0000000000000E+00
 0.0000000000000E+00
 0.0000000000000E+00
 0.0000000000000E+00
 0.0000000000000E+00
 0.0000000000000E+00
 0.0000000000000E+00
 0.0000000000000E+00
 0.0000000000000E+00
 0.0000000000000E+00
 0.0000000000000E+00
 0.0000000000000E+00
 0.0000000000000E+00
 0.0000000000000E+00
 0.0000000000000E+00
 0.0000000000000E+00
 0.0000000000000E+00
 0.0000000000000E+00
 0.0000000000000E+00
 0.0000000000000E+00
 0.0000000000000E+00
 0.0000000000000E+00
 0.0000000000000E+00
 0.0000000000000E+00
 0.0000000000000E+00
 0.0000000000000E+00
 0.0000000000000E+00
 0.0000000000000E+00
 0.0000000000000E+00
 0.0000000000000E+00
 0.0000000000000E+00
 0.0000000000000E+00
 0.0000000000000E+00
 0.0000000000000E+00
 0.0000000000000E+00
 0.0000000000000E+00
 0.0000000000000E+00
 0.0000000000000E+00
 0.0000000000000E+00
 0.0000000000000E+00
 0.0000000000000E+00
 0.0000000000000E+00
 0.0000000000000E+00
 0.0000000000000E+00
 0.0000000000000E+00
 0.0000000000000E+00
 0.0000000000000E+00
 0.0000000000000E+00
 0.0000000000000E+00
 0.0000000000000E+00
 0.0000000000000E+00
 0.0000000000000E+00
 0.0000000000000E+00
 0.0000000000000E+00
 0.0000000000000E+00
 0.0000000000000E+00
 0.0000000000000E+00
 0.0000000000000E+00
 0.0000000000000E+00
 0.0000000000000E+00
 0.0000000000000E+00
 0.0000000000000E+00
 0.0000000000000E+00
 0.0000000000000E+00
 0.0000000000000E+00
 0.0000000000000E+00
 0.0000000000000E+00
 0.0000000000000E+00
 0.0000000000000E+00
 0.0000000000000E+00
 0.0000000000000E+00
 0.0000000000000E+00
 0.0000000000000E+00
 0.0000000000000E+00
 0.0000000000000E+00
 0.0000000000000E+00
 0.0000000000000E+00
 0.0000000000000E+00
 0.0000000000000E+00
 0.0000000000000E+00
 0.0000000000000E+00
 0.0000000000000E+00
 0.0000000000000E+00
 0.0000000000000E+00
 0.0000000000000E+00
 0.0000000000000E+00
 0.0000000000000E+00
 0.0000000000000E+00
 0.0000000000000E+00
 0.0000000000000E+00
 0.0000000000000E+00
 0.0000000000000E+00
 0.0000000000000E+00
 0.0000000000000E+00
 0.0000000000000E+00
 0.0000000000000E+00
 0.0000000000000E+00
 0.0000000000000E+00
 0.0000000000000E+00
 0.0000000000000E+00
 0.0000000000000E+00
 0.0000000000000E+00
 0.0000000000000E+00
 0.0000000000000E+00
 0.0000000000000E+00
 0.0000000000000E+00
 0.0000000000000E+00
 0.0000000000000E+00
 0.0000000000000E+00
 0.0000000000000E+00
 0.0000000000000E+00
 0.0000000000000E+00
 0.0000000000000E+00
 0.0000000000000E+00
 0.0000000000000E+00
 0.0000000000000E+00
 0.0000000000000E+00
 0.0000000000000E+00
 0.0000000000000E+00
 0.0000000000000E+00
 0.0000000000000E+00
 0.0000000000000E+00
 0.0000000000000E+00
 0.0000000000000E+00
 0.0000000000000E+00
 0.0000000000000E+00
 0.0000000000000E+00
 0.0000000000000E+00
 0.0000000000000E+00
 0.0000000000000E+00
 0.0000000000000E+00
 0.0000000000000E+00
 0.0000000000000E+00
 0.0000000000000E+00
 0.0000000000000E+00
 0.0000000000000E+00
 0.0000000000000E+00
 0.0000000000000E+00
 0.0000000000000E+00
 0.0000000000000E+00
 0.0000000000000E+00
 0.0000000000000E+00
 0.0000000000000E+00
 0.0000000000000E+00
 0.0000000000000E+00
 0.0000000000000E+00
 0.0000000000000E+00
 0.0000000000000E+00
 0.0000000000000E+00
 0.0000000000000E+00
 0.0000000000000E+00
 0.0000000000000E+00
 0.0000000000000E+00
 0.0000000000000E+00
 0.0000000000000E+00
 0.0000000000000E+00
 0.0000000000000E+00
 0.0000000000000E+00
 0.0000000000000E+00
 0.0000000000000E+00
 0.0000000000000E+00
 0.0000000000000E+00
 0.0000000000000E+00
 0.0000000000000E+00
 0.0000000000000E+00
 0.0000000000000E+00
 0.0000000000000E+00
 0.0000000000000E+00
 0.0000000000000E+00
 0.0000000000000E+00
 0.0000000000000E+00
 0.0000000000000E+00
 0.0000000000000E+00
 0.0000000000000E+00
 0.0000000000000E+00
 0.0000000000000E+00
 0.0000000000000E+00
 0.0000000000000E+00
 0.0000000000000E+00
 0.0000000000000E+00
 0.0000000000000E+00
 0.0000000000000E+00
 0.0000000000000E+00
 0.0000000000000E+00
 0.0000000000000E+00
 0.0000000000000E+00
 0.0000000000000E+00
 0.0000000000000E+00
 0.0000000000000E+00
 0.0000000000000E+00
 0.0000000000000E+00
 0.0000000000000E+00
 0.0000000000000E+00
 0.0000000000000E+00
 0.0000000000000E+00
 0.0000000000000E+00
 0.0000000000000E+00
 0.0000000000000E+00
 0.0000000000000E+00
 0.0000000000000E+00
 0.0000000000000E+00
 0.0000000000000E+00
 0.0000000000000E+00
 0.0000000000000E+00
 0.0000000000000E+00
 0.0000000000000E+00
 0.0000000000000E+00
 0.0000000000000E+00
 0.0000000000000E+00
 0.0000000000000E+00
 0.0000000000000E+00
 0.0000000000000E+00
 0.0000000000000E+00
 0.0000000000000E+00
 0.0000000000000E+00
 0.0000000000000E+00
 0.0000000000000E+00
 0.0000000000000E+00
 0.0000000000000E+00
 0.0000000000000E+00
 0.0000000000000E+00
 0.0000000000000E+00
 0.0000000000000E+00
 0.0000000000000E+00
 0.0000000000000E+00
 0.0000000000000E+00
 0.0000000000000E+00
 0.0000000000000E+00
 0.0000000000000E+00
 0.0000000000000E+00
 0.0000000000000E+00
 0.0000000000000E+00
 0.0000000000000E+00
 0.0000000000000E+00
 0.0000000000000E+00
 0.0000000000000E+00
 0.0000000000000E+00
 0.0000000000000E+00
 0.0000000000000E+00
 0.0000000000000E+00
 0.0000000000000E+00
 0.0000000000000E+00
 0.0000000000000E+00
 0.0000000000000E+00
 0.0000000000000E+00
 0.0000000000000E+00
 0.0000000000000E+00
 0.0000000000000E+00
 0.0000000000000E+00
 0.0000000000000E+00
 0.0000000000000E+00
 0.0000000000000E+00
 0.0000000000000E+00
 0.0000000000000E+00
 0.0000000000000E+00
 0.0000000000000E+00
 0.0000000000000E+00
 0.0000000000000E+00
 0.0000000000000E+00
 0.0000000000000E+00
 0.0000000000000E+00
 0.0000000000000E+00
 0.0000000000000E+00
 0.0000000000000E+00
 0.0000000000000E+00
 0.0000000000000E+00
 0.0000000000000E+00
 0.0000000000000E+00
 0.0000000000000E+00
 0.0000000000000E+00
 0.0000000000000E+00
 0.0000000000000E+00
 0.0000000000000E+00
 0.0000000000000E+00
 0.0000000000000E+00
 0.0000000000000E+00
 0.0000000000000E+00
 0.0000000000000E+00
 0.0000000000000E+00
 0.0000000000000E+00
 0.0000000000000E+00
 0.0000000000000E+00
 0.0000000000000E+00
 0.0000000000000E+00
 0.0000000000000E+00
 0.0000000000000E+00
 0.0000000000000E+00
 0.0000000000000E+00
 0.0000000000000E+00
 0.0000000000000E+00
 0.0000000000000E+00
 0.0000000000000E+00
 0.0000000000000E+00
 0.0000000000000E+00
 0.0000000000000E+00
 0.0000000000000E+00
 0.0000000000000E+00
 0.0000000000000E+00
 0.0000000000000E+00
 0.0000000000000E+00
 0.0000000000000E+00
 0.0000000000000E+00
 0.0000000000000E+00
 0.0000000000000E+00
 0.0000000000000E+00
 0.0000000000000E+00
 0.0000000000000E+00
 0.0000000000000E+00
 0.0000000000000E+00
 0.0000000000000E+00
 0.0000000000000E+00
 0.0000000000000E+00
 0.0000000000000E+00
 0.0000000000000E+00
 0.0000000000000E+00
 0.0000000000000E+00
 0.0000000000000E+00
 0.0000000000000E+00
 0.0000000000000E+00
 0.0000000000000E+00
 0.0000000000000E+00
 0.0000000000000E+00
 0.0000000000000E+00
 0.0000000000000E+00
 0.0000000000000E+00
 0.0000000000000E+00
 0.0000000000000E+00
 0.0000000000000E+00
 0.0000000000000E+00
 0.0000000000000E+00
 0.0000000000000E+00
 0.0000000000000E+00
 0.0000000000000E+00
 0.0000000000000E+00
 0.0000000000000E+00
 0.0000000000000E+00
 0.0000000000000E+00
 0.0000000000000E+00
 0.0000000000000E+00
 0.0000000000000E+00
 0.0000000000000E+00
 0.0000000000000E+00
 0.0000000000000E+00
 0.0000000000000E+00
 0.0000000000000E+00
 0.0000000000000E+00
 0.0000000000000E+00
 0.0000000000000E+00
 0.0000000000000E+00
 0.0000000000000E+00
 0.0000000000000E+00
 0.0000000000000E+00
 0.0000000000000E+00
 0.0000000000000E+00
 0.0000000000000E+00
 0.0000000000000E+00
 0.0000000000000E+00
 0.0000000000000E+00
 0.0000000000000E+00
 0.0000000000000E+00
 0.0000000000000E+00
 0.0000000000000E+00
 0.0000000000000E+00
 0.0000000000000E+00
 0.0000000000000E+00
 0.0000000000000E+00
 0.0000000000000E+00
 0.0000000000000E+00
 0.0000000000000E+00
 0.0000000000000E+00
 0.0000000000000E+00
 0.0000000000000E+00
 0.0000000000000E+00
 0.0000000000000E+00
 0.0000000000000E+00
 0.0000000000000E+00
 0.0000000000000E+00
 0.0000000000000E+00
 0.0000000000000E+00
 0.0000000000000E+00
 0.0000000000000E+00
 0.0000000000000E+00
 0.0000000000000E+00
 0.0000000000000E+00
 0.0000000000000E+00
 0.0000000000000E+00
 0.0000000000000E+00
 0.0000000000000E+00
 0.0000000000000E+00
 0.0000000000000E+00
 0.0000000000000E+00
 0.0000000000000E+00
 0.0000000000000E+00
 0.0000000000000E+00
 0.0000000000000E+00
 0.0000000000000E+00
 0.0000000000000E+00
 0.0000000000000E+00
 0.0000000000000E+00
 0.0000000000000E+00
 0.0000000000000E+00
 0.0000000000000E+00
 0.0000000000000E+00
 0.0000000000000E+00
 0.0000000000000E+00
 0.0000000000000E+00
 0.0000000000000E+00
 0.0000000000000E+00
 0.0000000000000E+00
 0.0000000000000E+00
 0.0000000000000E+00
 0.0000000000000E+00
 0.0000000000000E+00
 0.0000000000000E+00
 0.0000000000000E+00
 0.0000000000000E+00
 0.0000000000000E+00
 0.0000000000000E+00
 0.0000000000000E+00
 0.0000000000000E+00
 0.0000000000000E+00
 0.0000000000000E+00
 0.0000000000000E+00
 0.0000000000000E+00
 0.0000000000000E+00
 0.0000000000000E+00
 0.0000000000000E+00
 0.0000000000000E+00
 0.0000000000000E+00
 0.0000000000000E+00
 0.0000000000000E+00
 0.0000000000000E+00
 0.0000000000000E+00
 0.0000000000000E+00
 0.0000000000000E+00
 0.0000000000000E+00
 0.0000000000000E+00
 0.0000000000000E+00
 0.0000000000000E+00
 0.0000000000000E+00
 0.0000000000000E+00
 0.0000000000000E+00
 0.0000000000000E+00
 0.0000000000000E+00
 0.0000000000000E+00
 0.0000000000000E+00
 0.0000000000000E+00
 0.0000000000000E+00
 0.0000000000000E+00
 0.0000000000000E+00
 0.0000000000000E+00
 0.0000000000000E+00
 0.0000000000000E+00
 0.0000000000000E+00
 0.0000000000000E+00
 0.0000000000000E+00
 0.0000000000000E+00
 0.0000000000000E+00
 0.0000000000000E+00
 0.0000000000000E+00
 0.0000000000000E+00
 0.0000000000000E+00
 0.0000000000000E+00
 0.0000000000000E+00
 0.0000000000000E+00
 0.0000000000000E+00
 0.0000000000000E+00
 0.0000000000000E+00
 0.0000000000000E+00
 0.0000000000000E+00
 0.0000000000000E+00
 0.0000000000000E+00
 0.0000000000000E+00
 0.0000000000000E+00
 0.0000000000000E+00
 0.0000000000000E+00
 0.0000000000000E+00
 0.0000000000000E+00
 0.0000000000000E+00
 0.0000000000000E+00
 0.0000000000000E+00
 0.0000000000000E+00
 0.0000000000000E+00
 0.0000000000000E+00
 0.0000000000000E+00
 0.0000000000000E+00
 0.0000000000000E+00
 0.0000000000000E+00
 0.0000000000000E+00
 0.0000000000000E+00
 0.0000000000000E+00
 0.0000000000000E+00
 0.0000000000000E+00
 0.0000000000000E+00
 0.0000000000000E+00
 0.0000000000000E+00
 0.0000000000000E+00
 0.0000000000000E+00
 0.0000000000000E+00
 0.0000000000000E+00
 0.0000000000000E+00
 0.0000000000000E+00
 0.0000000000000E+00
 0.0000000000000E+00
 0.0000000000000E+00
 0.0000000000000E+00
 0.0000000000000E+00
 0.0000000000000E+00
 0.0000000000000E+00
 0.0000000000000E+00
 0.0000000000000E+00
 0.0000000000000E+00
 0.0000000000000E+00
 0.0000000000000E+00
 0.0000000000000E+00
 0.0000000000000E+00
 0.0000000000000E+00
 0.0000000000000E+00
 0.0000000000000E+00
 0.0000000000000E+00
 0.0000000000000E+00
 0.0000000000000E+00
 0.0000000000000E+00
 0.0000000000000E+00
 0.0000000000000E+00
 0.0000000000000E+00
 0.0000000000000E+00
 0.0000000000000E+00
 0.0000000000000E+00
 0.0000000000000E+00
 0.0000000000000E+00
 0.0000000000000E+00
 0.0000000000000E+00
 0.0000000000000E+00
 0.0000000000000E+00
 0.0000000000000E+00
 0.0000000000000E+00
 0.0000000000000E+00
 0.0000000000000E+00
 0.0000000000000E+00
 0.0000000000000E+00
 0.0000000000000E+00
 0.0000000000000E+00
 0.0000000000000E+00
 0.0000000000000E+00
 0.0000000000000E+00
 0.0000000000000E+00
 0.0000000000000E+00
 0.0000000000000E+00
 0.0000000000000E+00
 0.0000000000000E+00
 0.0000000000000E+00
 0.0000000000000E+00
 0.0000000000000E+00
 0.0000000000000E+00
 0.0000000000000E+00
 0.0000000000000E+00
 0.0000000000000E+00
 0.0000000000000E+00
 0.0000000000000E+00
 0.0000000000000E+00
 0.0000000000000E+00
 0.0000000000000E+00
 0.0000000000000E+00
 0.0000000000000E+00
 0.0000000000000E+00
 0.0000000000000E+00
 0.0000000000000E+00
 0.0000000000000E+00
 0.0000000000000E+00
 0.0000000000000E+00
 0.0000000000000E+00
 0.0000000000000E+00
 0.0000000000000E+00
 0.0000000000000E+00
 0.0000000000000E+00
 0.0000000000000E+00
 0.0000000000000E+00
 0.0000000000000E+00
 0.0000000000000E+00
 0.0000000000000E+00
 0.0000000000000E+00
 0.0000000000000E+00
 0.0000000000000E+00
 0.0000000000000E+00
 0.0000000000000E+00
 0.0000000000000E+00
 0.0000000000000E+00
 0.0000000000000E+00
 0.0000000000000E+00
 0.0000000000000E+00
 0.0000000000000E+00
 0.0000000000000E+00
 0.0000000000000E+00
 0.0000000000000E+00
 0.0000000000000E+00
 0.0000000000000E+00
 0.0000000000000E+00
 0.0000000000000E+00
 0.0000000000000E+00
 0.0000000000000E+00
 0.0000000000000E+00
 0.0000000000000E+00
 0.0000000000000E+00
 0.0000000000000E+00
 0.0000000000000E+00
 0.0000000000000E+00
 0.0000000000000E+00
 0.0000000000000E+00
 0.0000000000000E+00
 0.0000000000000E+00
 0.0000000000000E+00
 0.0000000000000E+00
 0.0000000000000E+00
 0.0000000000000E+00
 0.0000000000000E+00
 0.0000000000000E+00
 0.0000000000000E+00
 0.0000000000000E+00
 0.0000000000000E+00
 0.0000000000000E+00
 0.0000000000000E+00
 0.0000000000000E+00
 0.0000000000000E+00
 0.0000000000000E+00
 0.0000000000000E+00
 0.0000000000000E+00
 0.0000000000000E+00
 0.0000000000000E+00
 0.0000000000000E+00
 0.0000000000000E+00
 0.0000000000000E+00
 0.0000000000000E+00
 0.0000000000000E+00
 0.0000000000000E+00
 0.0000000000000E+00
 0.0000000000000E+00
 0.0000000000000E+00
 0.0000000000000E+00
 0.0000000000000E+00
 0.0000000000000E+00
 0.0000000000000E+00
 0.0000000000000E+00
 0.0000000000000E+00
 0.0000000000000E+00
 0.0000000000000E+00
 0.0000000000000E+00
 0.0000000000000E+00
 0.0000000000000E+00
 0.0000000000000E+00
 0.0000000000000E+00
 0.0000000000000E+00
 0.0000000000000E+00
 0.0000000000000E+00
 0.0000000000000E+00
 0.0000000000000E+00
 0.0000000000000E+00
 0.0000000000000E+00
 0.0000000000000E+00
 0.0000000000000E+00
 0.0000000000000E+00
 0.0000000000000E+00
 0.0000000000000E+00
 0.0000000000000E+00
 0.0000000000000E+00
 0.0000000000000E+00
 0.0000000000000E+00
 0.0000000000000E+00
 0.0000000000000E+00
 0.0000000000000E+00
 0.0000000000000E+00
 0.0000000000000E+00
 0.0000000000000E+00
 0.0000000000000E+00
 0.0000000000000E+00
 0.0000000000000E+00
 0.0000000000000E+00
 0.0000000000000E+00
 0.0000000000000E+00
 0.0000000000000E+00
 0.0000000000000E+00
 0.0000000000000E+00
 0.0000000000000E+00
 0.0000000000000E+00
 0.0000000000000E+00
 0.0000000000000E+00
 0.0000000000000E+00
 0.0000000000000E+00
 0.0000000000000E+00
 0.0000000000000E+00
 0.0000000000000E+00
 0.0000000000000E+00
 0.0000000000000E+00
 0.0000000000000E+00
 0.0000000000000E+00
 0.0000000000000E+00
 0.0000000000000E+00
 0.0000000000000E+00
 0.0000000000000E+00
 0.0000000000000E+00
 0.0000000000000E+00
 0.0000000000000E+00
 0.0000000000000E+00
 0.0000000000000E+00
 0.0000000000000E+00
 0.0000000000000E+00
 0.0000000000000E+00
 0.0000000000000E+00
 0.0000000000000E+00
 0.0000000000000E+00
 0.0000000000000E+00
 0.0000000000000E+00
 0.0000000000000E+00
 0.0000000000000E+00
 0.0000000000000E+00
 0.0000000000000E+00
 0.0000000000000E+00
 0.0000000000000E+00
 0.0000000000000E+00
 0.0000000000000E+00
 0.0000000000000E+00
 0.0000000000000E+00
 0.0000000000000E+00
 0.0000000000000E+00
 0.0000000000000E+00
 0.0000000000000E+00
 0.0000000000000E+00
 0.0000000000000E+00
 0.0000000000000E+00
 0.0000000000000E+00
 0.0000000000000E+00
 0.0000000000000E+00
 0.0000000000000E+00
 0.0000000000000E+00
 0.0000000000000E+00
 0.0000000000000E+00
 0.0000000000000E+00
 0.0000000000000E+00
 0.0000000000000E+00
 0.0000000000000E+00
 0.0000000000000E+00
 0.0000000000000E+00
 0.0000000000000E+00
 0.0000000000000E+00
 0.0000000000000E+00
 0.0000000000000E+00
 0.0000000000000E+00
 0.0000000000000E+00
 0.0000000000000E+00
 0.0000000000000E+00
 0.0000000000000E+00
 0.0000000000000E+00
 0.0000000000000E+00
 0.0000000000000E+00
 0.0000000000000E+00
 0.0000000000000E+00
 0.0000000000000E+00
 0.0000000000000E+00
 0.0000000000000E+00
 0.0000000000000E+00
 0.0000000000000E+00
 0.0000000000000E+00
 0.0000000000000E+00
 0.0000000000000E+00
 0.0000000000000E+00
 0.0000000000000E+00
 0.0000000000000E+00
 0.0000000000000E+00
 0.0000000000000E+00
 0.0000000000000E+00
 0.0000000000000E+00
 0.0000000000000E+00
 0.0000000000000E+00
 0.0000000000000E+00
 0.0000000000000E+00
 0.0000000000000E+00
 0.0000000000000E+00
 0.0000000000000E+00
 0.0000000000000E+00
 0.0000000000000E+00
 0.0000000000000E+00
 0.0000000000000E+00
 0.0000000000000E+00
 0.0000000000000E+00
 0.0000000000000E+00
 0.0000000000000E+00
 0.0000000000000E+00
 0.0000000000000E+00
 0.0000000000000E+00
 0.0000000000000E+00
 0.0000000000000E+00
 0.0000000000000E+00
 0.0000000000000E+00
 0.0000000000000E+00
 0.0000000000000E+00
 0.0000000000000E+00
 0.0000000000000E+00
 0.0000000000000E+00
 0.0000000000000E+00
 0.0000000000000E+00
 0.0000000000000E+00
 0.0000000000000E+00
 0.0000000000000E+00
 0.0000000000000E+00
 0.0000000000000E+00
 0.0000000000000E+00
 0.0000000000000E+00
 0.0000000000000E+00
 0.0000000000000E+00
 0.0000000000000E+00
 0.0000000000000E+00
 0.0000000000000E+00
 0.0000000000000E+00
 0.0000000000000E+00
 0.0000000000000E+00
 0.0000000000000E+00
 0.0000000000000E+00
 0.0000000000000E+00
 0.0000000000000E+00
 0.0000000000000E+00
 0.0000000000000E+00
 0.0000000000000E+00
 0.0000000000000E+00
 0.0000000000000E+00
 0.0000000000000E+00
 0.0000000000000E+00
 0.0000000000000E+00
 0.0000000000000E+00
 0.0000000000000E+00
 0.0000000000000E+00
 0.0000000000000E+00
 0.0000000000000E+00
 0.0000000000000E+00
 0.0000000000000E+00
 0.0000000000000E+00
 0.0000000000000E+00
 0.0000000000000E+00
 0.0000000000000E+00
 0.0000000000000E+00
 0.0000000000000E+00
 0.0000000000000E+00
 0.0000000000000E+00
 0.0000000000000E+00
 0.0000000000000E+00
 0.0000000000000E+00
 0.0000000000000E+00
 0.0000000000000E+00
 0.0000000000000E+00
 0.0000000000000E+00
 0.0000000000000E+00
 0.0000000000000E+00
 0.0000000000000E+00
 0.0000000000000E+00
 0.0000000000000E+00
 0.0000000000000E+00
 0.0000000000000E+00
 0.0000000000000E+00
 0.0000000000000E+00
 0.0000000000000E+00
 0.0000000000000E+00
 0.0000000000000E+00
 0.0000000000000E+00
 0.0000000000000E+00
 0.0000000000000E+00
 0.0000000000000E+00
 0.0000000000000E+00
 0.0000000000000E+00
 0.0000000000000E+00
 0.0000000000000E+00
 0.0000000000000E+00
 0.0000000000000E+00
 0.0000000000000E+00
 0.0000000000000E+00
 0.0000000000000E+00
 0.0000000000000E+00
 0.0000000000000E+00
 0.0000000000000E+00
 0.0000000000000E+00
 0.0000000000000E+00
 0.0000000000000E+00
 0.0000000000000E+00
 0.0000000000000E+00
 0.0000000000000E+00
 0.0000000000000E+00
 0.0000000000000E+00
 0.0000000000000E+00
 0.0000000000000E+00
 0.0000000000000E+00
 0.0000000000000E+00
 0.0000000000000E+00
 0.0000000000000E+00
 0.0000000000000E+00
 0.0000000000000E+00
 0.0000000000000E+00
 0.0000000000000E+00
 0.0000000000000E+00
 0.0000000000000E+00
 0.0000000000000E+00
 0.0000000000000E+00
 0.0000000000000E+00
 0.0000000000000E+00
 0.0000000000000E+00
 0.0000000000000E+00
 0.0000000000000E+00
 0.0000000000000E+00
 0.0000000000000E+00
 0.0000000000000E+00
 0.0000000000000E+00
 0.0000000000000E+00
 0.0000000000000E+00
 0.0000000000000E+00
 0.0000000000000E+00
 0.0000000000000E+00
 0.0000000000000E+00
 0.0000000000000E+00
 0.0000000000000E+00
 0.0000000000000E+00
 0.0000000000000E+00
 0.0000000000000E+00
 0.0000000000000E+00
 0.0000000000000E+00
 0.0000000000000E+00
 0.0000000000000E+00
 0.0000000000000E+00
 0.0000000000000E+00
 0.0000000000000E+00
 0.0000000000000E+00
 0.0000000000000E+00
 0.0000000000000E+00
 0.0000000000000E+00
 0.0000000000000E+00
 0.0000000000000E+00
 0.0000000000000E+00
 0.0000000000000E+00
 0.0000000000000E+00
 0.0000000000000E+00
 0.0000000000000E+00
 0.0000000000000E+00
 0.0000000000000E+00
 0.0000000000000E+00
 0.0000000000000E+00
 0.0000000000000E+00
 0.0000000000000E+00
 0.0000000000000E+00
 0.0000000000000E+00
 0.0000000000000E+00
 0.0000000000000E+00
 0.0000000000000E+00
 0.0000000000000E+00
 0.0000000000000E+00
 0.0000000000000E+00
 0.0000000000000E+00
 0.0000000000000E+00
 0.0000000000000E+00
 0.0000000000000E+00
 0.0000000000000E+00
 0.0000000000000E+00
 0.0000000000000E+00
 0.0000000000000E+00
 0.0000000000000E+00
 0.0000000000000E+00
 0.0000000000000E+00
 0.0000000000000E+00
 0.0000000000000E+00
 0.0000000000000E+00
 0.0000000000000E+00
 0.0000000000000E+00
 0.0000000000000E+00
 0.0000000000000E+00
 0.0000000000000E+00
 0.0000000000000E+00
 0.0000000000000E+00
 0.0000000000000E+00
 0.0000000000000E+00
 0.0000000000000E+00
 0.0000000000000E+00
 0.0000000000000E+00
 0.0000000000000E+00
 0.0000000000000E+00
 0.0000000000000E+00
 0.0000000000000E+00
 0.0000000000000E+00
 0.0000000000000E+00
 0.0000000000000E+00
 0.0000000000000E+00
 0.0000000000000E+00
 0.0000000000000E+00
 0.0000000000000E+00
 0.0000000000000E+00
 0.0000000000000E+00
 0.0000000000000E+00
 0.0000000000000E+00
 0.0000000000000E+00
 0.0000000000000E+00
 0.0000000000000E+00
 0.0000000000000E+00
 0.0000000000000E+00
 0.0000000000000E+00
 0.0000000000000E+00
 0.0000000000000E+00
 0.0000000000000E+00
 0.0000000000000E+00
 0.0000000000000E+00
 0.0000000000000E+00
 0.0000000000000E+00
 0.0000000000000E+00
 0.0000000000000E+00
 0.0000000000000E+00
 0.0000000000000E+00
 0.0000000000000E+00
 0.0000000000000E+00
 0.0000000000000E+00
 0.0000000000000E+00
 0.0000000000000E+00
 0.0000000000000E+00
 0.0000000000000E+00
 0.0000000000000E+00
 0.0000000000000E+00
 0.0000000000000E+00
 0.0000000000000E+00
 0.0000000000000E+00
 0.0000000000000E+00
 0.0000000000000E+00
 0.0000000000000E+00
 0.0000000000000E+00
 0.0000000000000E+00
 0.0000000000000E+00
 0.0000000000000E+00
 0.0000000000000E+00
 0.0000000000000E+00
 0.0000000000000E+00
 0.0000000000000E+00
 0.0000000000000E+00
 0.0000000000000E+00
 0.0000000000000E+00
 0.0000000000000E+00
 0.0000000000000E+00
 0.0000000000000E+00
 0.0000000000000E+00
 0.0000000000000E+00
 0.0000000000000E+00
 0.0000000000000E+00
 0.0000000000000E+00
 0.0000000000000E+00
 0.0000000000000E+00
 0.0000000000000E+00
 0.0000000000000E+00
 0.0000000000000E+00
 0.0000000000000E+00
 0.0000000000000E+00
 0.0000000000000E+00
 0.0000000000000E+00
 0.0000000000000E+00
 0.0000000000000E+00
 0.0000000000000E+00
 0.0000000000000E+00
 0.0000000000000E+00
 0.0000000000000E+00
 0.0000000000000E+00
 0.0000000000000E+00
 0.0000000000000E+00
 0.0000000000000E+00
 0.0000000000000E+00
 0.0000000000000E+00
 0.0000000000000E+00
 0.0000000000000E+00
 0.0000000000000E+00
 0.0000000000000E+00
 0.0000000000000E+00
 0.0000000000000E+00
 0.0000000000000E+00
 0.0000000000000E+00
 0.0000000000000E+00
 0.0000000000000E+00
 0.0000000000000E+00
 0.0000000000000E+00
 0.0000000000000E+00
 0.0000000000000E+00
 0.0000000000000E+00
 0.0000000000000E+00
 0.0000000000000E+00
 0.0000000000000E+00
 0.0000000000000E+00
 0.0000000000000E+00
 0.0000000000000E+00
 0.0000000000000E+00
 0.0000000000000E+00
 0.0000000000000E+00
 0.0000000000000E+00
 0.0000000000000E+00
 0.0000000000000E+00
 0.0000000000000E+00
 0.0000000000000E+00
 0.0000000000000E+00
 0.0000000000000E+00
 0.0000000000000E+00
 0.0000000000000E+00
 0.0000000000000E+00
 0.0000000000000E+00
 0.0000000000000E+00
 0.0000000000000E+00
 0.0000000000000E+00
 0.0000000000000E+00
 0.0000000000000E+00
 0.0000000000000E+00
 0.0000000000000E+00
 0.0000000000000E+00
 0.0000000000000E+00
 0.0000000000000E+00
 0.0000000000000E+00
 0.0000000000000E+00
 0.0000000000000E+00
 0.0000000000000E+00
 0.0000000000000E+00
 0.0000000000000E+00
 0.0000000000000E+00
 0.0000000000000E+00
 0.0000000000000E+00
 0.0000000000000E+00
 0.0000000000000E+00
 0.0000000000000E+00
 0.0000000000000E+00
 0.0000000000000E+00
 0.0000000000000E+00
 0.0000000000000E+00
 0.0000000000000E+00
 0.0000000000000E+00
 0.0000000000000E+00
 0.0000000000000E+00
 0.0000000000000E+00
 0.0000000000000E+00
 0.0000000000000E+00
 0.0000000000000E+00
 0.0000000000000E+00
 0.0000000000000E+00
 0.0000000000000E+00
 0.0000000000000E+00
 0.0000000000000E+00
 0.0000000000000E+00
 0.0000000000000E+00
 0.0000000000000E+00
 0.0000000000000E+00
 0.0000000000000E+00
 0.0000000000000E+00
 0.0000000000000E+00
 0.0000000000000E+00
 0.0000000000000E+00
 0.0000000000000E+00
 0.0000000000000E+00
 0.0000000000000E+00
 0.0000000000000E+00
 0.0000000000000E+00
 0.0000000000000E+00
 0.0000000000000E+00
 0.0000000000000E+00
 0.0000000000000E+00
 0.0000000000000E+00
 0.0000000000000E+00
 0.0000000000000E+00
 0.0000000000000E+00
 0.0000000000000E+00
 0.0000000000000E+00
 0.0000000000000E+00
 0.0000000000000E+00
 0.0000000000000E+00
 0.0000000000000E+00
 0.0000000000000E+00
 0.0000000000000E+00
 0.0000000000000E+00
 0.0000000000000E+00
 0.0000000000000E+00
 0.0000000000000E+00
 0.0000000000000E+00
 0.0000000000000E+00
 0.0000000000000E+00
 0.0000000000000E+00
 0.0000000000000E+00
 0.0000000000000E+00
 0.0000000000000E+00
 0.0000000000000E+00
 0.0000000000000E+00
 0.0000000000000E+00
 0.0000000000000E+00
 0.0000000000000E+00
 0.0000000000000E+00
 0.0000000000000E+00
 0.0000000000000E+00
 0.0000000000000E+00
 0.0000000000000E+00
 0.0000000000000E+00
 0.0000000000000E+00
 0.0000000000000E+00
 0.0000000000000E+00
 0.0000000000000E+00
 0.0000000000000E+00
 0.0000000000000E+00
 0.0000000000000E+00
 0.0000000000000E+00
 0.0000000000000E+00
 0.0000000000000E+00
 0.0000000000000E+00
 0.0000000000000E+00
 0.0000000000000E+00
 0.0000000000000E+00
 0.0000000000000E+00
 0.0000000000000E+00
 0.0000000000000E+00
 0.0000000000000E+00
 0.0000000000000E+00
 0.0000000000000E+00
 0.0000000000000E+00
 0.0000000000000E+00
 0.0000000000000E+00
 0.0000000000000E+00
 0.0000000000000E+00
 0.0000000000000E+00
 0.0000000000000E+00
 0.0000000000000E+00
 0.0000000000000E+00
 0.0000000000000E+00
 0.0000000000000E+00
 0.0000000000000E+00
 0.0000000000000E+00
 0.0000000000000E+00
 0.0000000000000E+00
 0.0000000000000E+00
 0.0000000000000E+00
 0.0000000000000E+00
 0.0000000000000E+00
 0.0000000000000E+00
 0.0000000000000E+00
 0.0000000000000E+00
 0.0000000000000E+00
 0.0000000000000E+00
 0.0000000000000E+00
 0.0000000000000E+00
 0.0000000000000E+00
 0.0000000000000E+00
 0.0000000000000E+00
 0.0000000000000E+00
 0.0000000000000E+00
 0.0000000000000E+00
 0.0000000000000E+00
 0.0000000000000E+00
 0.0000000000000E+00
 0.0000000000000E+00
 0.0000000000000E+00
 0.0000000000000E+00
 0.0000000000000E+00
 0.0000000000000E+00
 0.0000000000000E+00
 0.0000000000000E+00
 0.0000000000000E+00
 0.0000000000000E+00
 0.0000000000000E+00
 0.0000000000000E+00
 0.0000000000000E+00
 0.0000000000000E+00
 0.0000000000000E+00
 0.0000000000000E+00
 0.0000000000000E+00
 0.0000000000000E+00
 0.0000000000000E+00
 0.0000000000000E+00
 0.0000000000000E+00
 0.0000000000000E+00
 0.0000000000000E+00
 0.0000000000000E+00
 0.0000000000000E+00
 0.0000000000000E+00
 0.0000000000000E+00
 0.0000000000000E+00
 0.0000000000000E+00
 0.0000000000000E+00
 0.0000000000000E+00
 0.0000000000000E+00
 0.0000000000000E+00
 0.0000000000000E+00
 0.0000000000000E+00
 0.0000000000000E+00
 0.0000000000000E+00
 0.0000000000000E+00
 0.0000000000000E+00
 0.0000000000000E+00
 0.0000000000000E+00
 0.0000000000000E+00
 0.0000000000000E+00
 0.0000000000000E+00
 0.0000000000000E+00
 0.0000000000000E+00
 0.0000000000000E+00
 0.0000000000000E+00
 0.0000000000000E+00
 0.0000000000000E+00
 0.0000000000000E+00
 0.0000000000000E+00
 0.0000000000000E+00
 0.0000000000000E+00
 0.0000000000000E+00
 0.0000000000000E+00
 0.0000000000000E+00
 0.0000000000000E+00
 0.0000000000000E+00
 0.0000000000000E+00
 0.0000000000000E+00
 0.0000000000000E+00
 0.0000000000000E+00
 0.0000000000000E+00
 0.0000000000000E+00
 0.0000000000000E+00
 0.0000000000000E+00
 0.0000000000000E+00
 0.0000000000000E+00
 0.0000000000000E+00
 0.0000000000000E+00
 0.0000000000000E+00
 0.0000000000000E+00
 0.0000000000000E+00
 0.0000000000000E+00
 0.0000000000000E+00
 0.0000000000000E+00
 0.0000000000000E+00
 0.0000000000000E+00
 0.0000000000000E+00
 0.0000000000000E+00
 0.0000000000000E+00
 0.0000000000000E+00
 0.0000000000000E+00
 0.0000000000000E+00
 0.0000000000000E+00
 0.0000000000000E+00
 0.0000000000000E+00
 0.0000000000000E+00
 0.0000000000000E+00
 0.0000000000000E+00
 0.0000000000000E+00
 0.0000000000000E+00
 0.0000000000000E+00
 0.0000000000000E+00
 0.0000000000000E+00
 0.0000000000000E+00
 0.0000000000000E+00
 0.0000000000000E+00
 0.0000000000000E+00
 0.0000000000000E+00
 0.0000000000000E+00
 0.0000000000000E+00
 0.0000000000000E+00
 0.0000000000000E+00
 0.0000000000000E+00
 0.0000000000000E+00
 0.0000000000000E+00
 0.0000000000000E+00
 0.0000000000000E+00
 0.0000000000000E+00
 0.0000000000000E+00
 0.0000000000000E+00
 0.0000000000000E+00
 0.0000000000000E+00
 0.0000000000000E+00
 0.0000000000000E+00
 0.0000000000000E+00
 0.0000000000000E+00
 0.0000000000000E+00
 0.0000000000000E+00
 0.0000000000000E+00
 0.0000000000000E+00
 0.0000000000000E+00
 0.0000000000000E+00
 0.0000000000000E+00
 0.0000000000000E+00
 0.0000000000000E+00
 0.0000000000000E+00
 0.0000000000000E+00
 0.0000000000000E+00
 0.0000000000000E+00
 0.0000000000000E+00
 0.0000000000000E+00
 0.0000000000000E+00
 0.0000000000000E+00
 0.0000000000000E+00
 0.0000000000000E+00
 0.0000000000000E+00
 0.0000000000000E+00
 0.0000000000000E+00
 0.0000000000000E+00
 0.0000000000000E+00
 0.0000000000000E+00
 0.0000000000000E+00
 0.0000000000000E+00
 0.0000000000000E+00
 0.0000000000000E+00
 0.0000000000000E+00
 0.0000000000000E+00
 0.0000000000000E+00
 0.0000000000000E+00
 0.0000000000000E+00
 0.0000000000000E+00
 0.0000000000000E+00
 0.0000000000000E+00
 0.0000000000000E+00
 0.0000000000000E+00
 0.0000000000000E+00
 0.0000000000000E+00
 0.0000000000000E+00
 0.0000000000000E+00
 0.0000000000000E+00
 0.0000000000000E+00
 0.0000000000000E+00
 0.0000000000000E+00
 0.0000000000000E+00
 0.0000000000000E+00
 0.0000000000000E+00
 0.0000000000000E+00
 0.0000000000000E+00
 0.0000000000000E+00
 0.0000000000000E+00
 0.0000000000000E+00
 0.0000000000000E+00
 0.0000000000000E+00
 0.0000000000000E+00
 0.0000000000000E+00
 0.0000000000000E+00
 0.0000000000000E+00
 0.0000000000000E+00
 0.0000000000000E+00
 0.0000000000000E+00
 0.0000000000000E+00
 0.0000000000000E+00
 0.0000000000000E+00
 0.0000000000000E+00
 0.0000000000000E+00
 0.0000000000000E+00
 0.0000000000000E+00
 0.0000000000000E+00
 0.0000000000000E+00
 0.0000000000000E+00
 0.0000000000000E+00
 0.0000000000000E+00
 0.0000000000000E+00
 0.0000000000000E+00
 0.0000000000000E+00
 0.0000000000000E+00
 0.0000000000000E+00
 0.0000000000000E+00
 0.0000000000000E+00
 0.0000000000000E+00
 0.0000000000000E+00
 0.0000000000000E+00
 0.0000000000000E+00
 0.0000000000000E+00
 0.0000000000000E+00
 0.0000000000000E+00
 0.0000000000000E+00
 0.0000000000000E+00
 0.0000000000000E+00
 0.0000000000000E+00
 0.0000000000000E+00
 0.0000000000000E+00
 0.0000000000000E+00
 0.0000000000000E+00
 0.0000000000000E+00
 0.0000000000000E+00
 0.0000000000000E+00
 0.0000000000000E+00
 0.0000000000000E+00
 0.0000000000000E+00
 0.0000000000000E+00
 0.0000000000000E+00
 0.0000000000000E+00
 0.0000000000000E+00
 0.0000000000000E+00
 0.0000000000000E+00
 0.0000000000000E+00
 0.0000000000000E+00
 0.0000000000000E+00
 0.0000000000000E+00
 0.0000000000000E+00
 0.0000000000000E+00
 0.0000000000000E+00
 0.0000000000000E+00
 0.0000000000000E+00
 0.0000000000000E+00
 0.0000000000000E+00
 0.0000000000000E+00
 0.0000000000000E+00
 0.0000000000000E+00
 0.0000000000000E+00
 0.0000000000000E+00
 0.0000000000000E+00
 0.0000000000000E+00
 0.0000000000000E+00
 0.0000000000000E+00
 0.0000000000000E+00
 0.0000000000000E+00
 0.0000000000000E+00
 0.0000000000000E+00
 0.0000000000000E+00
 0.0000000000000E+00
 0.0000000000000E+00
 0.0000000000000E+00
 0.0000000000000E+00
 0.0000000000000E+00
 0.0000000000000E+00
 0.0000000000000E+00
 0.0000000000000E+00
 0.0000000000000E+00
 0.0000000000000E+00
 0.0000000000000E+00
 0.0000000000000E+00
 0.0000000000000E+00
 0.0000000000000E+00
 0.0000000000000E+00
 0.0000000000000E+00
 0.0000000000000E+00
 0.0000000000000E+00
 0.0000000000000E+00
 0.0000000000000E+00
 0.0000000000000E+00
 0.0000000000000E+00
 0.0000000000000E+00
 0.0000000000000E+00
 0.0000000000000E+00
 0.0000000000000E+00
 0.0000000000000E+00
 0.0000000000000E+00
 0.0000000000000E+00
 0.0000000000000E+00
 0.0000000000000E+00
 0.0000000000000E+00
 0.0000000000000E+00
 0.0000000000000E+00
 0.0000000000000E+00
 0.0000000000000E+00
 0.0000000000000E+00
 0.0000000000000E+00
 0.0000000000000E+00
 0.0000000000000E+00
 0.0000000000000E+00
 0.0000000000000E+00
 0.0000000000000E+00
 0.0000000000000E+00
 0.0000000000000E+00
 0.0000000000000E+00
 0.0000000000000E+00
 0.0000000000000E+00
 0.0000000000000E+00
 0.0000000000000E+00
 0.0000000000000E+00
 0.0000000000000E+00
 0.0000000000000E+00
 0.0000000000000E+00
 0.0000000000000E+00
 0.0000000000000E+00
 0.0000000000000E+00
 0.0000000000000E+00
 0.0000000000000E+00
 0.0000000000000E+00
 0.0000000000000E+00
 0.0000000000000E+00
 0.0000000000000E+00
 0.0000000000000E+00
 0.0000000000000E+00
 0.0000000000000E+00
 0.0000000000000E+00
 0.0000000000000E+00
 0.0000000000000E+00
 0.0000000000000E+00
 0.0000000000000E+00
 0.0000000000000E+00
 0.0000000000000E+00
 0.0000000000000E+00
 0.0000000000000E+00
 0.0000000000000E+00
 0.0000000000000E+00
 0.0000000000000E+00
 0.0000000000000E+00
 0.0000000000000E+00
 0.0000000000000E+00
 0.0000000000000E+00
 0.0000000000000E+00
 0.0000000000000E+00
 0.0000000000000E+00
 0.0000000000000E+00
 0.0000000000000E+00
 0.0000000000000E+00
 0.0000000000000E+00
 0.0000000000000E+00
 0.0000000000000E+00
 0.0000000000000E+00
 0.0000000000000E+00
 0.0000000000000E+00
 0.0000000000000E+00
 0.0000000000000E+00
 0.0000000000000E+00
 0.0000000000000E+00
 0.0000000000000E+00
 0.0000000000000E+00
 0.0000000000000E+00
 0.0000000000000E+00
 0.0000000000000E+00
 0.0000000000000E+00
 0.0000000000000E+00
 0.0000000000000E+00
 0.0000000000000E+00
 0.0000000000000E+00
 0.0000000000000E+00
 0.0000000000000E+00
 0.0000000000000E+00
 0.0000000000000E+00
 0.0000000000000E+00
 0.0000000000000E+00
 0.0000000000000E+00
 0.0000000000000E+00
 0.0000000000000E+00
 0.0000000000000E+00
 0.0000000000000E+00
 0.0000000000000E+00
 0.0000000000000E+00
 0.0000000000000E+00
 0.0000000000000E+00
 0.0000000000000E+00
 0.0000000000000E+00
 0.0000000000000E+00
 0.0000000000000E+00
 0.0000000000000E+00
 0.0000000000000E+00
 0.0000000000000E+00
 0.0000000000000E+00
 0.0000000000000E+00
 0.0000000000000E+00
 0.0000000000000E+00
 0.0000000000000E+00
 0.0000000000000E+00
 0.0000000000000E+00
 0.0000000000000E+00
 0.0000000000000E+00
 0.0000000000000E+00
 0.0000000000000E+00
 0.0000000000000E+00
 0.0000000000000E+00
 0.0000000000000E+00
 0.0000000000000E+00
 0.0000000000000E+00
 0.0000000000000E+00
 0.0000000000000E+00
 0.0000000000000E+00
 0.0000000000000E+00
 0.0000000000000E+00
 0.0000000000000E+00
 0.0000000000000E+00
 0.0000000000000E+00
 0.0000000000000E+00
 0.0000000000000E+00
 0.0000000000000E+00
 0.0000000000000E+00
 0.0000000000000E+00
 0.0000000000000E+00
 0.0000000000000E+00
 0.0000000000000E+00
 0.0000000000000E+00
 0.0000000000000E+00
 0.0000000000000E+00
 0.0000000000000E+00
 0.0000000000000E+00
 0.0000000000000E+00
 0.0000000000000E+00
 0.0000000000000E+00
 0.0000000000000E+00
 0.0000000000000E+00
 0.0000000000000E+00
 0.0000000000000E+00
 0.0000000000000E+00
 0.0000000000000E+00
 0.0000000000000E+00
 0.0000000000000E+00
 0.0000000000000E+00
 0.0000000000000E+00
 0.0000000000000E+00
 0.0000000000000E+00
 0.0000000000000E+00
 0.0000000000000E+00
 0.0000000000000E+00
 0.0000000000000E+00
 0.0000000000000E+00
 0.0000000000000E+00
 0.0000000000000E+00
 0.0000000000000E+00
 0.0000000000000E+00
 0.0000000000000E+00
 0.0000000000000E+00
 0.0000000000000E+00
 0.0000000000000E+00
 0.0000000000000E+00
 0.0000000000000E+00
 0.0000000000000E+00
 0.0000000000000E+00
 0.0000000000000E+00
 0.0000000000000E+00
 0.0000000000000E+00
 0.0000000000000E+00
 0.0000000000000E+00
 0.0000000000000E+00
 0.0000000000000E+00
 0.0000000000000E+00
 0.0000000000000E+00
 0.0000000000000E+00
 0.0000000000000E+00
 0.0000000000000E+00
 0.0000000000000E+00
 0.0000000000000E+00
 0.0000000000000E+00
 0.0000000000000E+00
 0.0000000000000E+00
 0.0000000000000E+00
 0.0000000000000E+00
 0.0000000000000E+00
 0.0000000000000E+00
 0.0000000000000E+00
 0.0000000000000E+00
 0.0000000000000E+00
 0.0000000000000E+00
 0.0000000000000E+00
 0.0000000000000E+00
 0.0000000000000E+00
 0.0000000000000E+00
 0.0000000000000E+00
 0.0000000000000E+00
 0.0000000000000E+00
 0.0000000000000E+00
 0.0000000000000E+00
 0.0000000000000E+00
 0.0000000000000E+00
 0.0000000000000E+00
 0.0000000000000E+00
 0.0000000000000E+00
 0.0000000000000E+00
 0.0000000000000E+00
 0.0000000000000E+00
 0.0000000000000E+00
 0.0000000000000E+00
 0.0000000000000E+00
 0.0000000000000E+00
 0.0000000000000E+00
 0.0000000000000E+00
 0.0000000000000E+00
 0.0000000000000E+00
 0.0000000000000E+00
 0.0000000000000E+00
 0.0000000000000E+00
 0.0000000000000E+00
 0.0000000000000E+00
 0.0000000000000E+00
 0.0000000000000E+00
 0.0000000000000E+00
 0.0000000000000E+00
 0.0000000000000E+00
 0.0000000000000E+00
 0.0000000000000E+00
 0.0000000000000E+00
 0.0000000000000E+00
 0.0000000000000E+00
 0.0000000000000E+00
 0.0000000000000E+00
 0.0000000000000E+00
 0.0000000000000E+00
 0.0000000000000E+00
 0.0000000000000E+00
 0.0000000000000E+00
 0.0000000000000E+00
 0.0000000000000E+00
 0.0000000000000E+00
 0.0000000000000E+00
 0.0000000000000E+00
 0.0000000000000E+00
 0.0000000000000E+00
 0.0000000000000E+00
 0.0000000000000E+00
 0.0000000000000E+00
 0.0000000000000E+00
 0.0000000000000E+00
 0.0000000000000E+00
 0.0000000000000E+00
 0.0000000000000E+00
 0.0000000000000E+00
 0.0000000000000E+00
 0.0000000000000E+00
 0.0000000000000E+00
 0.0000000000000E+00
 0.0000000000000E+00
 0.0000000000000E+00
 0.0000000000000E+00
 0.0000000000000E+00
 0.0000000000000E+00
 0.0000000000000E+00
 0.0000000000000E+00
 0.0000000000000E+00
 0.0000000000000E+00
 0.0000000000000E+00
 0.0000000000000E+00
 0.0000000000000E+00
 0.0000000000000E+00
 0.0000000000000E+00
 0.0000000000000E+00
 0.0000000000000E+00
 0.0000000000000E+00
 0.0000000000000E+00
 0.0000000000000E+00
 0.0000000000000E+00
 0.0000000000000E+00
 0.0000000000000E+00
 0.0000000000000E+00
 0.0000000000000E+00
 0.0000000000000E+00
 0.0000000000000E+00
 0.0000000000000E+00
 0.0000000000000E+00
 0.0000000000000E+00
 0.0000000000000E+00
 0.0000000000000E+00
 0.0000000000000E+00
 0.0000000000000E+00
 0.0000000000000E+00
 0.0000000000000E+00
 0.0000000000000E+00
 0.0000000000000E+00
 0.0000000000000E+00
 0.0000000000000E+00
 0.0000000000000E+00
 0.0000000000000E+00
 0.0000000000000E+00
 0.0000000000000E+00
 0.0000000000000E+00
 0.0000000000000E+00
 0.0000000000000E+00
 0.0000000000000E+00
 0.0000000000000E+00
 0.0000000000000E+00
 0.0000000000000E+00
 0.0000000000000E+00
 0.0000000000000E+00
 0.0000000000000E+00
 0.0000000000000E+00
 0.0000000000000E+00
 0.0000000000000E+00
 0.0000000000000E+00
 0.0000000000000E+00
 0.0000000000000E+00
 0.0000000000000E+00
 0.0000000000000E+00
 0.0000000000000E+00
 0.0000000000000E+00
 0.0000000000000E+00
 0.0000000000000E+00
 0.0000000000000E+00
 0.0000000000000E+00
 0.0000000000000E+00
 0.0000000000000E+00
 0.0000000000000E+00
 0.0000000000000E+00
 0.0000000000000E+00
 0.0000000000000E+00
 0.0000000000000E+00
 0.0000000000000E+00
 0.0000000000000E+00
 0.0000000000000E+00
 0.0000000000000E+00
 0.0000000000000E+00
 0.0000000000000E+00
 0.0000000000000E+00
 0.0000000000000E+00
 0.0000000000000E+00
 0.0000000000000E+00
 0.0000000000000E+00
 0.0000000000000E+00
 0.0000000000000E+00
 0.0000000000000E+00
 0.0000000000000E+00
 0.0000000000000E+00
 0.0000000000000E+00
 0.0000000000000E+00
 0.0000000000000E+00
 0.0000000000000E+00
 0.0000000000000E+00
 0.0000000000000E+00
 0.0000000000000E+00
 0.0000000000000E+00
 0.0000000000000E+00
 0.0000000000000E+00
 0.0000000000000E+00
 0.0000000000000E+00
 0.0000000000000E+00
 0.0000000000000E+00
 0.0000000000000E+00
 0.0000000000000E+00
 0.0000000000000E+00
 0.0000000000000E+00
 0.0000000000000E+00
 0.0000000000000E+00
 0.0000000000000E+00
 0.0000000000000E+00
 0.0000000000000E+00
 0.0000000000000E+00
 0.0000000000000E+00
 0.0000000000000E+00
 0.0000000000000E+00
 0.0000000000000E+00
 0.0000000000000E+00
 0.0000000000000E+00
 0.0000000000000E+00
 0.0000000000000E+00
 0.0000000000000E+00
 0.0000000000000E+00
 0.0000000000000E+00
 0.0000000000000E+00
 0.0000000000000E+00
 0.0000000000000E+00
 0.0000000000000E+00
 0.0000000000000E+00
 0.0000000000000E+00
 0.0000000000000E+00
 0.0000000000000E+00
 0.0000000000000E+00
 0.0000000000000E+00
 0.0000000000000E+00
 0.0000000000000E+00
 0.0000000000000E+00
 0.0000000000000E+00
 0.0000000000000E+00
 0.0000000000000E+00
 0.0000000000000E+00
 0.0000000000000E+00
 0.0000000000000E+00
 0.0000000000000E+00
 0.0000000000000E+00
 0.0000000000000E+00
 0.0000000000000E+00
 0.0000000000000E+00
 0.0000000000000E+00
 0.0000000000000E+00
 0.0000000000000E+00
 0.0000000000000E+00
 0.0000000000000E+00
 0.0000000000000E+00
 0.0000000000000E+00
 0.0000000000000E+00
 0.0000000000000E+00
 0.0000000000000E+00
 0.0000000000000E+00
 0.0000000000000E+00
 0.0000000000000E+00
 0.0000000000000E+00
 0.0000000000000E+00
 0.0000000000000E+00
 0.0000000000000E+00
 0.0000000000000E+00
 0.0000000000000E+00
 0.0000000000000E+00
 0.0000000000000E+00
 0.0000000000000E+00
 0.0000000000000E+00
 0.0000000000000E+00
 0.0000000000000E+00
 0.0000000000000E+00
 0.0000000000000E+00
 0.0000000000000E+00
 0.0000000000000E+00
 0.0000000000000E+00
 0.0000000000000E+00
 0.0000000000000E+00
 0.0000000000000E+00
 0.0000000000000E+00
 0.0000000000000E+00
 0.0000000000000E+00
 0.0000000000000E+00
 0.0000000000000E+00
 0.0000000000000E+00
 0.0000000000000E+00
 0.0000000000000E+00
 0.0000000000000E+00
 0.0000000000000E+00
 0.0000000000000E+00
 0.0000000000000E+00
 0.0000000000000E+00
 0.0000000000000E+00
 0.0000000000000E+00
 0.0000000000000E+00
 0.0000000000000E+00
 0.0000000000000E+00
 0.0000000000000E+00
 0.0000000000000E+00
 0.0000000000000E+00
 0.0000000000000E+00
 0.0000000000000E+00
 0.0000000000000E+00
 0.0000000000000E+00
 0.0000000000000E+00
 0.0000000000000E+00
 0.0000000000000E+00
 0.0000000000000E+00
 0.0000000000000E+00
 0.0000000000000E+00
 0.0000000000000E+00
 0.0000000000000E+00
 0.0000000000000E+00
 0.0000000000000E+00
 0.0000000000000E+00
 0.0000000000000E+00
 0.0000000000000E+00
 0.0000000000000E+00
 0.0000000000000E+00
 0.0000000000000E+00
 0.0000000000000E+00
 0.0000000000000E+00
 0.0000000000000E+00
 0.0000000000000E+00
 0.0000000000000E+00
 0.0000000000000E+00
 0.0000000000000E+00
 0.0000000000000E+00
 0.0000000000000E+00
 0.0000000000000E+00
 0.0000000000000E+00
 0.0000000000000E+00
 0.0000000000000E+00
 0.0000000000000E+00
 0.0000000000000E+00
 0.0000000000000E+00
 0.0000000000000E+00
 0.0000000000000E+00
 0.0000000000000E+00
 0.0000000000000E+00
 0.0000000000000E+00
 0.0000000000000E+00
 0.0000000000000E+00
 0.0000000000000E+00
 0.0000000000000E+00
 0.0000000000000E+00
 0.0000000000000E+00
 0.0000000000000E+00
 0.0000000000000E+00
 0.0000000000000E+00
 0.0000000000000E+00
 0.0000000000000E+00
 0.0000000000000E+00
 0.0000000000000E+00
 0.0000000000000E+00
 0.0000000000000E+00
 0.0000000000000E+00
 0.0000000000000E+00
 0.0000000000000E+00
 0.0000000000000E+00
 0.0000000000000E+00
 0.0000000000000E+00
 0.0000000000000E+00
 0.0000000000000E+00
 0.0000000000000E+00
 0.0000000000000E+00
 0.0000000000000E+00
 0.0000000000000E+00
 0.0000000000000E+00
 0.0000000000000E+00
 0.0000000000000E+00
 0.0000000000000E+00
 0.0000000000000E+00
 0.0000000000000E+00
 0.0000000000000E+00
 0.0000000000000E+00
 0.0000000000000E+00
 0.0000000000000E+00
 0.0000000000000E+00
 0.0000000000000E+00
 0.0000000000000E+00
 0.0000000000000E+00
 0.0000000000000E+00
 0.0000000000000E+00
 0.0000000000000E+00
 0.0000000000000E+00
 0.0000000000000E+00
 0.0000000000000E+00
 0.0000000000000E+00
 0.0000000000000E+00
 0.0000000000000E+00
 0.0000000000000E+00
 0.0000000000000E+00
 0.0000000000000E+00
 0.0000000000000E+00
 0.0000000000000E+00
 0.0000000000000E+00
 0.0000000000000E+00
 0.0000000000000E+00
 0.0000000000000E+00
 0.0000000000000E+00
 0.0000000000000E+00
 0.0000000000000E+00
 0.0000000000000E+00
 0.0000000000000E+00
 0.0000000000000E+00
 0.0000000000000E+00
 0.0000000000000E+00
 0.0000000000000E+00
 0.0000000000000E+00
 0.0000000000000E+00
 0.0000000000000E+00
 0.0000000000000E+00
 0.0000000000000E+00
 0.0000000000000E+00
 0.0000000000000E+00
 0.0000000000000E+00
 0.0000000000000E+00
 0.0000000000000E+00
 0.0000000000000E+00
 0.0000000000000E+00
 0.0000000000000E+00
 0.0000000000000E+00
 0.0000000000000E+00
 0.0000000000000E+00
 0.0000000000000E+00
 0.0000000000000E+00
 0.0000000000000E+00
 0.0000000000000E+00
 0.0000000000000E+00
 0.0000000000000E+00
 0.0000000000000E+00
 0.0000000000000E+00
 0.0000000000000E+00
 0.0000000000000E+00
 0.0000000000000E+00
 0.0000000000000E+00
 0.0000000000000E+00
 0.0000000000000E+00
 0.0000000000000E+00
 0.0000000000000E+00
 0.0000000000000E+00
 0.0000000000000E+00
 0.0000000000000E+00
 0.0000000000000E+00
 0.0000000000000E+00
 0.0000000000000E+00
 0.0000000000000E+00
 0.0000000000000E+00
 0.0000000000000E+00
 0.0000000000000E+00
 0.0000000000000E+00
 0.0000000000000E+00
 0.0000000000000E+00
 0.0000000000000E+00
 0.0000000000000E+00
 0.0000000000000E+00
 0.0000000000000E+00
 0.0000000000000E+00
 0.0000000000000E+00
 0.0000000000000E+00
 0.0000000000000E+00
 0.0000000000000E+00
 0.0000000000000E+00
 0.0000000000000E+00
 0.0000000000000E+00
 0.0000000000000E+00
 0.0000000000000E+00
 0.0000000000000E+00
 0.0000000000000E+00
 0.0000000000000E+00
 0.0000000000000E+00
 0.0000000000000E+00
 0.0000000000000E+00
 0.0000000000000E+00
 0.0000000000000E+00
 0.0000000000000E+00
 0.0000000000000E+00
 0.0000000000000E+00
 0.0000000000000E+00
 0.0000000000000E+00
 0.0000000000000E+00
 0.0000000000000E+00
 0.0000000000000E+00
 0.0000000000000E+00
 0.0000000000000E+00
 0.0000000000000E+00
 0.0000000000000E+00
 0.0000000000000E+00
 0.0000000000000E+00
 0.0000000000000E+00
 0.0000000000000E+00
 0.0000000000000E+00
 0.0000000000000E+00
 0.0000000000000E+00
 0.0000000000000E+00
 0.0000000000000E+00
 0.0000000000000E+00
 0.0000000000000E+00
 0.0000000000000E+00
 0.0000000000000E+00
 0.0000000000000E+00
 0.0000000000000E+00
 0.0000000000000E+00
 0.0000000000000E+00
 0.0000000000000E+00
 0.0000000000000E+00
 0.0000000000000E+00
 0.0000000000000E+00
 0.0000000000000E+00
 0.0000000000000E+00
 0.0000000000000E+00
 0.0000000000000E+00
 0.0000000000000E+00
 0.0000000000000E+00
 0.0000000000000E+00
 0.0000000000000E+00
 0.0000000000000E+00
 0.0000000000000E+00
 0.0000000000000E+00
 0.0000000000000E+00
 0.0000000000000E+00
 0.0000000000000E+00
 0.0000000000000E+00
 0.0000000000000E+00
 0.0000000000000E+00
 0.0000000000000E+00
 0.0000000000000E+00
 0.0000000000000E+00
 0.0000000000000E+00
 0.0000000000000E+00
 0.0000000000000E+00
 0.0000000000000E+00
 0.0000000000000E+00
 0.0000000000000E+00
 0.0000000000000E+00
 0.0000000000000E+00
 0.0000000000000E+00
 0.0000000000000E+00
 0.0000000000000E+00
 0.0000000000000E+00
 0.0000000000000E+00
 0.0000000000000E+00
 0.0000000000000E+00
 0.0000000000000E+00
 0.0000000000000E+00
 0.0000000000000E+00
 0.0000000000000E+00
 0.0000000000000E+00
 0.0000000000000E+00
 0.0000000000000E+00
 0.0000000000000E+00
 0.0000000000000E+00
 0.0000000000000E+00
 0.0000000000000E+00
 0.0000000000000E+00
 0.0000000000000E+00
 0.0000000000000E+00
 0.0000000000000E+00
 0.0000000000000E+00
 0.0000000000000E+00
 0.0000000000000E+00
 0.0000000000000E+00
 0.0000000000000E+00
 0.0000000000000E+00
 0.0000000000000E+00
 0.0000000000000E+00
 0.0000000000000E+00
 0.0000000000000E+00
 0.0000000000000E+00
 0.0000000000000E+00
 0.0000000000000E+00
 0.0000000000000E+00
 0.0000000000000E+00
 0.0000000000000E+00
 0.0000000000000E+00
 0.0000000000000E+00
 0.0000000000000E+00
 0.0000000000000E+00
 0.0000000000000E+00
 0.0000000000000E+00
 0.0000000000000E+00
 0.0000000000000E+00
 0.0000000000000E+00
 0.0000000000000E+00
 0.0000000000000E+00
 0.0000000000000E+00
 0.0000000000000E+00
 0.0000000000000E+00
 0.0000000000000E+00
 0.0000000000000E+00
 0.0000000000000E+00
 0.0000000000000E+00
 0.0000000000000E+00
 0.0000000000000E+00
 0.0000000000000E+00
 0.0000000000000E+00
 0.0000000000000E+00
 0.0000000000000E+00
 0.0000000000000E+00
 0.0000000000000E+00
 0.0000000000000E+00
 0.0000000000000E+00
 0.0000000000000E+00
 0.0000000000000E+00
 0.0000000000000E+00
 0.0000000000000E+00
 0.0000000000000E+00
 0.0000000000000E+00
 0.0000000000000E+00
 0.0000000000000E+00
 0.0000000000000E+00
 0.0000000000000E+00
 0.0000000000000E+00
 0.0000000000000E+00
 0.0000000000000E+00
 0.0000000000000E+00
 0.0000000000000E+00
 0.0000000000000E+00
 0.0000000000000E+00
 0.0000000000000E+00
 0.0000000000000E+00
 0.0000000000000E+00
 0.0000000000000E+00
 0.0000000000000E+00
 0.0000000000000E+00
 0.0000000000000E+00
 0.0000000000000E+00
 0.0000000000000E+00
 0.0000000000000E+00
 0.0000000000000E+00
 0.0000000000000E+00
 0.0000000000000E+00
 0.0000000000000E+00
 0.0000000000000E+00
 0.0000000000000E+00
 0.0000000000000E+00
 0.0000000000000E+00
 0.0000000000000E+00
 0.0000000000000E+00
 0.0000000000000E+00
 0.0000000000000E+00
 0.0000000000000E+00
 0.0000000000000E+00
 0.0000000000000E+00
 0.0000000000000E+00
 0.0000000000000E+00
 0.0000000000000E+00
 0.0000000000000E+00
 0.0000000000000E+00
 0.0000000000000E+00
 0.0000000000000E+00
 0.0000000000000E+00
 0.0000000000000E+00
 0.0000000000000E+00
 0.0000000000000E+00
 0.0000000000000E+00
 0.0000000000000E+00
 0.0000000000000E+00
 0.0000000000000E+00
 0.0000000000000E+00
 0.0000000000000E+00
 0.0000000000000E+00
 0.0000000000000E+00
 0.0000000000000E+00
 0.0000000000000E+00
 0.0000000000000E+00
 0.0000000000000E+00
 0.0000000000000E+00
 0.0000000000000E+00
 0.0000000000000E+00
 0.0000000000000E+00
 0.0000000000000E+00
 0.0000000000000E+00
 0.0000000000000E+00
 0.0000000000000E+00
 0.0000000000000E+00
 0.0000000000000E+00
 0.0000000000000E+00
 0.0000000000000E+00
 0.0000000000000E+00
 0.0000000000000E+00
 0.0000000000000E+00
 0.0000000000000E+00
 0.0000000000000E+00
 0.0000000000000E+00
 0.0000000000000E+00
 0.0000000000000E+00
 0.0000000000000E+00
 0.0000000000000E+00
 0.0000000000000E+00
 0.0000000000000E+00
 0.0000000000000E+00
 0.0000000000000E+00
 0.0000000000000E+00
 0.0000000000000E+00
 0.0000000000000E+00
 0.0000000000000E+00
 0.0000000000000E+00
 0.0000000000000E+00
 0.0000000000000E+00
 0.0000000000000E+00
 0.0000000000000E+00
 0.0000000000000E+00
 0.0000000000000E+00
 0.0000000000000E+00
 0.0000000000000E+00
 0.0000000000000E+00
 0.0000000000000E+00
 0.0000000000000E+00
 0.0000000000000E+00
 0.0000000000000E+00
 0.0000000000000E+00
 0.0000000000000E+00
 0.0000000000000E+00
 0.0000000000000E+00
 0.0000000000000E+00
 0.0000000000000E+00
 0.0000000000000E+00
 0.0000000000000E+00
 0.0000000000000E+00
 0.0000000000000E+00
 0.0000000000000E+00
 0.0000000000000E+00
 0.0000000000000E+00
 0.0000000000000E+00
 0.0000000000000E+00
 0.0000000000000E+00
 0.0000000000000E+00
 0.0000000000000E+00
 0.0000000000000E+00
 0.0000000000000E+00
 0.0000000000000E+00
 0.0000000000000E+00
 0.0000000000000E+00
 0.0000000000000E+00
 0.0000000000000E+00
 0.0000000000000E+00
 0.0000000000000E+00
 0.0000000000000E+00
 0.0000000000000E+00
 0.0000000000000E+00
 0.0000000000000E+00
 0.0000000000000E+00
 0.0000000000000E+00
 0.0000000000000E+00
 0.0000000000000E+00
 0.0000000000000E+00
 0.0000000000000E+00
 0.0000000000000E+00
 0.0000000000000E+00
 0.0000000000000E+00
 0.0000000000000E+00
 0.0000000000000E+00
 0.0000000000000E+00
 0.0000000000000E+00
 0.0000000000000E+00
 0.0000000000000E+00
 0.0000000000000E+00
 0.0000000000000E+00
 0.0000000000000E+00
 0.0000000000000E+00
 0.0000000000000E+00
 0.0000000000000E+00
 0.0000000000000E+00
 0.0000000000000E+00
 0.0000000000000E+00
 0.0000000000000E+00
 0.0000000000000E+00
 0.0000000000000E+00
 0.0000000000000E+00
 0.0000000000000E+00
 0.0000000000000E+00
 0.0000000000000E+00
 0.0000000000000E+00
 0.0000000000000E+00
 0.0000000000000E+00
 0.0000000000000E+00
 0.0000000000000E+00
 0.0000000000000E+00
 0.0000000000000E+00
 0.0000000000000E+00
 0.0000000000000E+00
 0.0000000000000E+00
 0.0000000000000E+00
 0.0000000000000E+00
 0.0000000000000E+00
 0.0000000000000E+00
 0.0000000000000E+00
 0.0000000000000E+00
 0.0000000000000E+00
 0.0000000000000E+00
 0.0000000000000E+00
 0.0000000000000E+00
 0.0000000000000E+00
 0.0000000000000E+00
 0.0000000000000E+00
 0.0000000000000E+00
 0.0000000000000E+00
 0.0000000000000E+00
 0.0000000000000E+00
 0.0000000000000E+00
 0.0000000000000E+00
 0.0000000000000E+00
 0.0000000000000E+00
 0.0000000000000E+00
 0.0000000000000E+00
 0.0000000000000E+00
 0.0000000000000E+00
 0.0000000000000E+00
 0.0000000000000E+00
 0.0000000000000E+00
 0.0000000000000E+00
 0.0000000000000E+00
 0.0000000000000E+00
 0.0000000000000E+00
 0.0000000000000E+00
 0.0000000000000E+00
 0.0000000000000E+00
 0.0000000000000E+00
 0.0000000000000E+00
 0.0000000000000E+00
 0.0000000000000E+00
 0.0000000000000E+00
 0.0000000000000E+00
 0.0000000000000E+00
 0.0000000000000E+00
 0.0000000000000E+00
 0.0000000000000E+00
 0.0000000000000E+00
 0.0000000000000E+00
 0.0000000000000E+00
 0.0000000000000E+00
 0.0000000000000E+00
 0.0000000000000E+00
 0.0000000000000E+00
 0.0000000000000E+00
 0.0000000000000E+00
 0.0000000000000E+00
 0.0000000000000E+00
 0.0000000000000E+00
 0.0000000000000E+00
 0.0000000000000E+00
 0.0000000000000E+00
 0.0000000000000E+00
 0.0000000000000E+00
 0.0000000000000E+00
 0.0000000000000E+00
 0.0000000000000E+00
 0.0000000000000E+00
 0.0000000000000E+00
 0.0000000000000E+00
 0.0000000000000E+00
 0.0000000000000E+00
 0.0000000000000E+00
 0.0000000000000E+00
 0.0000000000000E+00
 0.0000000000000E+00
 0.0000000000000E+00
 0.0000000000000E+00
 0.0000000000000E+00
 0.0000000000000E+00
 0.0000000000000E+00
 0.0000000000000E+00
 0.0000000000000E+00
 0.0000000000000E+00
 0.0000000000000E+00
 0.0000000000000E+00
 0.0000000000000E+00
 0.0000000000000E+00
 0.0000000000000E+00
 0.0000000000000E+00
 0.0000000000000E+00
 0.0000000000000E+00
 0.0000000000000E+00
 0.0000000000000E+00
 0.0000000000000E+00
 0.0000000000000E+00
 0.0000000000000E+00
 0.0000000000000E+00
 0.0000000000000E+00
 0.0000000000000E+00
 0.0000000000000E+00
 0.0000000000000E+00
 0.0000000000000E+00
 0.0000000000000E+00
 0.0000000000000E+00
 0.0000000000000E+00
 0.0000000000000E+00
 0.0000000000000E+00
 0.0000000000000E+00
 0.0000000000000E+00
 0.0000000000000E+00
 0.0000000000000E+00
 0.0000000000000E+00
 0.0000000000000E+00
 0.0000000000000E+00
 0.0000000000000E+00
 0.0000000000000E+00
 0.0000000000000E+00
 0.0000000000000E+00
 0.0000000000000E+00
 0.0000000000000E+00
 0.0000000000000E+00
 0.0000000000000E+00
 0.0000000000000E+00
 0.0000000000000E+00
 0.0000000000000E+00
 0.0000000000000E+00
 0.0000000000000E+00
 0.0000000000000E+00
 0.0000000000000E+00
 0.0000000000000E+00
 0.0000000000000E+00
 0.0000000000000E+00
 0.0000000000000E+00
 0.0000000000000E+00
 0.0000000000000E+00
 0.0000000000000E+00
 0.0000000000000E+00
 0.0000000000000E+00
 0.0000000000000E+00
 0.0000000000000E+00
 0.0000000000000E+00
 0.0000000000000E+00
 0.0000000000000E+00
 0.0000000000000E+00
 0.0000000000000E+00
 0.0000000000000E+00
 0.0000000000000E+00
 0.0000000000000E+00
 0.0000000000000E+00
 0.0000000000000E+00
 0.0000000000000E+00
 0.0000000000000E+00
 0.0000000000000E+00
 0.0000000000000E+00
 0.0000000000000E+00
 0.0000000000000E+00
 0.0000000000000E+00
 0.0000000000000E+00
 0.0000000000000E+00
 0.0000000000000E+00
 0.0000000000000E+00
 0.0000000000000E+00
 0.0000000000000E+00
 0.0000000000000E+00
 0.0000000000000E+00
 0.0000000000000E+00
 0.0000000000000E+00
 0.0000000000000E+00
 0.0000000000000E+00
 0.0000000000000E+00
 0.0000000000000E+00
 0.0000000000000E+00
 0.0000000000000E+00
 0.0000000000000E+00
 0.0000000000000E+00
 0.0000000000000E+00
 0.0000000000000E+00
 0.0000000000000E+00
 0.0000000000000E+00
 0.0000000000000E+00
 0.0000000000000E+00
 0.0000000000000E+00
 0.0000000000000E+00
 0.0000000000000E+00
 0.0000000000000E+00
 0.0000000000000E+00
 0.0000000000000E+00
 0.0000000000000E+00
 0.0000000000000E+00
 0.0000000000000E+00
 0.0000000000000E+00
 0.0000000000000E+00
 0.0000000000000E+00
 0.0000000000000E+00
 0.0000000000000E+00
 0.0000000000000E+00
 0.0000000000000E+00
 0.0000000000000E+00
 0.0000000000000E+00
 0.0000000000000E+00
 0.0000000000000E+00
 0.0000000000000E+00
 0.0000000000000E+00
 0.0000000000000E+00
 0.0000000000000E+00
 0.0000000000000E+00
 0.0000000000000E+00
 0.0000000000000E+00
 0.0000000000000E+00
 0.0000000000000E+00
 0.0000000000000E+00
 0.0000000000000E+00
 0.0000000000000E+00
 0.0000000000000E+00
 0.0000000000000E+00
 0.0000000000000E+00
 0.0000000000000E+00
 0.0000000000000E+00
 0.0000000000000E+00
 0.0000000000000E+00
 0.0000000000000E+00
 0.0000000000000E+00
 0.0000000000000E+00
 0.0000000000000E+00
 0.0000000000000E+00
 0.0000000000000E+00
 0.0000000000000E+00
 0.0000000000000E+00
 0.0000000000000E+00
 0.0000000000000E+00
 0.0000000000000E+00
 0.0000000000000E+00
 0.0000000000000E+00
 0.0000000000000E+00
 0.0000000000000E+00
 0.0000000000000E+00
 0.0000000000000E+00
 0.0000000000000E+00
 0.0000000000000E+00
 0.0000000000000E+00
 0.0000000000000E+00
 0.0000000000000E+00
 0.0000000000000E+00
 0.0000000000000E+00
 0.0000000000000E+00
 0.0000000000000E+00
 0.0000000000000E+00
 0.0000000000000E+00
 0.0000000000000E+00
 0.0000000000000E+00
 0.0000000000000E+00
 0.0000000000000E+00
 0.0000000000000E+00
 0.0000000000000E+00
 0.0000000000000E+00
 0.0000000000000E+00
 0.0000000000000E+00
 0.0000000000000E+00
 0.0000000000000E+00
 0.0000000000000E+00
 0.0000000000000E+00
 0.0000000000000E+00
 0.0000000000000E+00
 0.0000000000000E+00
 0.0000000000000E+00
 0.0000000000000E+00
 0.0000000000000E+00
 0.0000000000000E+00
 0.0000000000000E+00
 0.0000000000000E+00
 0.0000000000000E+00
 0.0000000000000E+00
 0.0000000000000E+00
 0.0000000000000E+00
 0.0000000000000E+00
 0.0000000000000E+00
 0.0000000000000E+00
 0.0000000000000E+00
 0.0000000000000E+00
 0.0000000000000E+00
 0.0000000000000E+00
 0.0000000000000E+00
 0.0000000000000E+00
 0.0000000000000E+00
 0.0000000000000E+00
 0.0000000000000E+00
 0.0000000000000E+00
 0.0000000000000E+00
 0.0000000000000E+00
 0.0000000000000E+00
 0.0000000000000E+00
 0.0000000000000E+00
 0.0000000000000E+00
 0.0000000000000E+00
 0.0000000000000E+00
 0.0000000000000E+00
 0.0000000000000E+00
 0.0000000000000E+00
 0.0000000000000E+00
 0.0000000000000E+00
 0.0000000000000E+00
 0.0000000000000E+00
 0.0000000000000E+00
 0.0000000000000E+00
 0.0000000000000E+00
 0.0000000000000E+00
 0.0000000000000E+00
 0.0000000000000E+00
 0.0000000000000E+00
 0.0000000000000E+00
 0.0000000000000E+00
 0.0000000000000E+00
 0.0000000000000E+00
 0.0000000000000E+00
 0.0000000000000E+00
 0.0000000000000E+00
 0.0000000000000E+00
 0.0000000000000E+00
 0.0000000000000E+00
 0.0000000000000E+00
 0.0000000000000E+00
 0.0000000000000E+00
 0.0000000000000E+00
 0.0000000000000E+00
 0.0000000000000E+00
 0.0000000000000E+00
 0.0000000000000E+00
 0.0000000000000E+00
 0.0000000000000E+00
 0.0000000000000E+00
 0.0000000000000E+00
 0.0000000000000E+00
 0.0000000000000E+00
 0.0000000000000E+00
 0.0000000000000E+00
 0.0000000000000E+00
 0.0000000000000E+00
 0.0000000000000E+00
 0.0000000000000E+00
 0.0000000000000E+00
 0.0000000000000E+00
 0.0000000000000E+00
 0.0000000000000E+00
 0.0000000000000E+00
 0.0000000000000E+00
 0.0000000000000E+00
 0.0000000000000E+00
 0.0000000000000E+00
 0.0000000000000E+00
 0.0000000000000E+00
 0.0000000000000E+00
 0.0000000000000E+00
 0.0000000000000E+00
 0.0000000000000E+00
 0.0000000000000E+00
 0.0000000000000E+00
 0.0000000000000E+00
 0.0000000000000E+00
 0.0000000000000E+00
 0.0000000000000E+00
 0.0000000000000E+00
 0.0000000000000E+00
 0.0000000000000E+00
 0.0000000000000E+00
 0.0000000000000E+00
 0.0000000000000E+00
 0.0000000000000E+00
 0.0000000000000E+00
 0.0000000000000E+00
 0.0000000000000E+00
 0.0000000000000E+00
 0.0000000000000E+00
 0.0000000000000E+00
 0.0000000000000E+00
 0.0000000000000E+00
 0.0000000000000E+00
 0.0000000000000E+00
 0.0000000000000E+00
 0.0000000000000E+00
 0.0000000000000E+00
 0.0000000000000E+00
 0.0000000000000E+00
 0.0000000000000E+00
 0.0000000000000E+00
 0.0000000000000E+00
 0.0000000000000E+00
 0.0000000000000E+00
 0.0000000000000E+00
 0.0000000000000E+00
 0.0000000000000E+00
 0.0000000000000E+00
 0.0000000000000E+00
 0.0000000000000E+00
 0.0000000000000E+00
 0.0000000000000E+00
 0.0000000000000E+00
 0.0000000000000E+00
 0.0000000000000E+00
 0.0000000000000E+00
 0.0000000000000E+00
 0.0000000000000E+00
 0.0000000000000E+00
 0.0000000000000E+00
 0.0000000000000E+00
 0.0000000000000E+00
 0.0000000000000E+00
 0.0000000000000E+00
 0.0000000000000E+00
 0.0000000000000E+00
 0.0000000000000E+00
 0.0000000000000E+00
 0.0000000000000E+00
 0.0000000000000E+00
 0.0000000000000E+00
 0.0000000000000E+00
 0.0000000000000E+00
 0.0000000000000E+00
 0.0000000000000E+00
 0.0000000000000E+00
 0.0000000000000E+00
 0.0000000000000E+00
 0.0000000000000E+00
 0.0000000000000E+00
 0.0000000000000E+00
 0.0000000000000E+00
 0.0000000000000E+00
 0.0000000000000E+00
 0.0000000000000E+00
 0.0000000000000E+00
 0.0000000000000E+00
 0.0000000000000E+00
 0.0000000000000E+00
 0.0000000000000E+00
 0.0000000000000E+00
 0.0000000000000E+00
 0.0000000000000E+00
 0.0000000000000E+00
 0.0000000000000E+00
 0.0000000000000E+00
 0.0000000000000E+00
 0.0000000000000E+00
 0.0000000000000E+00
 0.0000000000000E+00
 0.0000000000000E+00
 0.0000000000000E+00
 0.0000000000000E+00
 0.0000000000000E+00
 0.0000000000000E+00
 0.0000000000000E+00
 0.0000000000000E+00
 0.0000000000000E+00
 0.0000000000000E+00
 0.0000000000000E+00
 0.0000000000000E+00
 0.0000000000000E+00
 0.0000000000000E+00
 0.0000000000000E+00
 0.0000000000000E+00
 0.0000000000000E+00
 0.0000000000000E+00
 0.0000000000000E+00
 0.0000000000000E+00
 0.0000000000000E+00
 0.0000000000000E+00
 0.0000000000000E+00
 0.0000000000000E+00
 0.0000000000000E+00
 0.0000000000000E+00
 0.0000000000000E+00
 0.0000000000000E+00
 0.0000000000000E+00
 0.0000000000000E+00
 0.0000000000000E+00
 0.0000000000000E+00
 0.0000000000000E+00
 0.0000000000000E+00
 0.0000000000000E+00
 0.0000000000000E+00
 0.0000000000000E+00
 0.0000000000000E+00
 0.0000000000000E+00
 0.0000000000000E+00
 0.0000000000000E+00
 0.0000000000000E+00
 0.0000000000000E+00
 0.0000000000000E+00
 0.0000000000000E+00
 0.0000000000000E+00
 0.0000000000000E+00
 0.0000000000000E+00
 0.0000000000000E+00
 0.0000000000000E+00
 0.0000000000000E+00
 0.0000000000000E+00
 0.0000000000000E+00
 0.0000000000000E+00
 0.0000000000000E+00
 0.0000000000000E+00
 0.0000000000000E+00
 0.0000000000000E+00
 0.0000000000000E+00
 0.0000000000000E+00
 0.0000000000000E+00
 0.0000000000000E+00
 0.0000000000000E+00
 0.0000000000000E+00
 0.0000000000000E+00
 0.0000000000000E+00
 0.0000000000000E+00
 0.0000000000000E+00
 0.0000000000000E+00
 0.0000000000000E+00
 0.0000000000000E+00
 0.0000000000000E+00
 0.0000000000000E+00
 0.0000000000000E+00
 0.0000000000000E+00
 0.0000000000000E+00
 0.0000000000000E+00
 0.0000000000000E+00
 0.0000000000000E+00
 0.0000000000000E+00
 0.0000000000000E+00
 0.0000000000000E+00
 0.0000000000000E+00
 0.0000000000000E+00
 0.0000000000000E+00
 0.0000000000000E+00
 0.0000000000000E+00
 0.0000000000000E+00
 0.0000000000000E+00
 0.0000000000000E+00
 0.0000000000000E+00
 0.0000000000000E+00
 0.0000000000000E+00
 0.0000000000000E+00
 0.0000000000000E+00
 0.0000000000000E+00
 0.0000000000000E+00
 0.0000000000000E+00
 0.0000000000000E+00
 0.0000000000000E+00
 0.0000000000000E+00
 0.0000000000000E+00
 0.0000000000000E+00
 0.0000000000000E+00
 0.0000000000000E+00
 0.0000000000000E+00
 0.0000000000000E+00
 0.0000000000000E+00
 0.0000000000000E+00
 0.0000000000000E+00
 0.0000000000000E+00
 0.0000000000000E+00
 0.0000000000000E+00
 0.0000000000000E+00
 0.0000000000000E+00
 0.0000000000000E+00
 0.0000000000000E+00
 0.0000000000000E+00
 0.0000000000000E+00
 0.0000000000000E+00
 0.0000000000000E+00
 0.0000000000000E+00
 0.0000000000000E+00
 0.0000000000000E+00
 0.0000000000000E+00
 0.0000000000000E+00
 0.0000000000000E+00
 0.0000000000000E+00
 0.0000000000000E+00
 0.0000000000000E+00
 0.0000000000000E+00
 0.0000000000000E+00
 0.0000000000000E+00
 0.0000000000000E+00
 0.0000000000000E+00
 0.0000000000000E+00
 0.0000000000000E+00
 0.0000000000000E+00
 0.0000000000000E+00
 0.0000000000000E+00
 0.0000000000000E+00
 0.0000000000000E+00
 0.0000000000000E+00
 0.0000000000000E+00
 0.0000000000000E+00
 0.0000000000000E+00
 0.0000000000000E+00
 0.0000000000000E+00
 0.0000000000000E+00
 0.0000000000000E+00
 0.0000000000000E+00
 0.0000000000000E+00
 0.0000000000000E+00
 0.0000000000000E+00
 0.0000000000000E+00
 0.0000000000000E+00
 0.0000000000000E+00
 0.0000000000000E+00
 0.0000000000000E+00
 0.0000000000000E+00
 0.0000000000000E+00
 0.0000000000000E+00
 0.0000000000000E+00
 0.0000000000000E+00
 0.0000000000000E+00
 0.0000000000000E+00
 0.0000000000000E+00
 0.0000000000000E+00
 0.0000000000000E+00
 0.0000000000000E+00
 0.0000000000000E+00
 0.0000000000000E+00
 0.0000000000000E+00
 0.0000000000000E+00
 0.0000000000000E+00
 0.0000000000000E+00
 0.0000000000000E+00
 0.0000000000000E+00
 0.0000000000000E+00
 0.0000000000000E+00
 0.0000000000000E+00
 0.0000000000000E+00
 0.0000000000000E+00
 0.0000000000000E+00
 0.0000000000000E+00
 0.0000000000000E+00
 0.0000000000000E+00
 0.0000000000000E+00
 0.0000000000000E+00
 0.0000000000000E+00
 0.0000000000000E+00
 0.0000000000000E+00
 0.0000000000000E+00
 0.0000000000000E+00
 0.0000000000000E+00
 0.0000000000000E+00
 0.0000000000000E+00
 0.0000000000000E+00
 0.0000000000000E+00
 0.0000000000000E+00
 0.0000000000000E+00
 0.0000000000000E+00
 0.0000000000000E+00
 0.0000000000000E+00
 0.0000000000000E+00
 0.0000000000000E+00
 0.0000000000000E+00
 0.0000000000000E+00
 0.0000000000000E+00
 0.0000000000000E+00
 0.0000000000000E+00
 0.0000000000000E+00
 0.0000000000000E+00
 0.0000000000000E+00
 0.0000000000000E+00
 0.0000000000000E+00
 0.0000000000000E+00
 0.0000000000000E+00
 0.0000000000000E+00
 0.0000000000000E+00
 0.0000000000000E+00
 0.0000000000000E+00
 0.0000000000000E+00
 0.0000000000000E+00
 0.0000000000000E+00
 0.0000000000000E+00
 0.0000000000000E+00
 0.0000000000000E+00
 0.0000000000000E+00
 0.0000000000000E+00
 0.0000000000000E+00
 0.0000000000000E+00
 0.0000000000000E+00
 0.0000000000000E+00
 0.0000000000000E+00
 0.0000000000000E+00
 0.0000000000000E+00
 0.0000000000000E+00
 0.0000000000000E+00
 0.0000000000000E+00
 0.0000000000000E+00
 0.0000000000000E+00
 0.0000000000000E+00
 0.0000000000000E+00
 0.0000000000000E+00
 0.0000000000000E+00
 0.0000000000000E+00
 0.0000000000000E+00
 0.0000000000000E+00
 0.0000000000000E+00
 0.0000000000000E+00
 0.0000000000000E+00
 0.0000000000000E+00
 0.0000000000000E+00
 0.0000000000000E+00
 0.0000000000000E+00
 0.0000000000000E+00
 0.0000000000000E+00
 0.0000000000000E+00
 0.0000000000000E+00
 0.0000000000000E+00
 0.0000000000000E+00
 0.0000000000000E+00
 0.0000000000000E+00
 0.0000000000000E+00
 0.0000000000000E+00
 0.0000000000000E+00
 0.0000000000000E+00
 0.0000000000000E+00
 0.0000000000000E+00
 0.0000000000000E+00
 0.0000000000000E+00
 0.0000000000000E+00
 0.0000000000000E+00
 0.0000000000000E+00
 0.0000000000000E+00
 0.0000000000000E+00
 0.0000000000000E+00
 0.0000000000000E+00
 0.0000000000000E+00
 0.0000000000000E+00
 0.0000000000000E+00
 0.0000000000000E+00
 0.0000000000000E+00
 0.0000000000000E+00
 0.0000000000000E+00
 0.0000000000000E+00
 0.0000000000000E+00
 0.0000000000000E+00
 0.0000000000000E+00
 0.0000000000000E+00
 0.0000000000000E+00
 0.0000000000000E+00
 0.0000000000000E+00
 0.0000000000000E+00
 0.0000000000000E+00
 0.0000000000000E+00
 0.0000000000000E+00
 0.0000000000000E+00
 0.0000000000000E+00
 0.0000000000000E+00
 0.0000000000000E+00
 0.0000000000000E+00
 0.0000000000000E+00
 0.0000000000000E+00
 0.0000000000000E+00
 0.0000000000000E+00
 0.0000000000000E+00
 0.0000000000000E+00
 0.0000000000000E+00
 0.0000000000000E+00
 0.0000000000000E+00
 0.0000000000000E+00
 0.0000000000000E+00
 0.0000000000000E+00
 0.0000000000000E+00
 0.0000000000000E+00
 0.0000000000000E+00
 0.0000000000000E+00
 0.0000000000000E+00
 0.0000000000000E+00
 0.0000000000000E+00
 0.0000000000000E+00
 0.0000000000000E+00
 0.0000000000000E+00
 0.0000000000000E+00
 0.0000000000000E+00
 0.0000000000000E+00
 0.0000000000000E+00
 0.0000000000000E+00
 0.0000000000000E+00
 0.0000000000000E+00
 0.0000000000000E+00
 0.0000000000000E+00
 0.0000000000000E+00
 0.0000000000000E+00
 0.0000000000000E+00
 0.0000000000000E+00
 0.0000000000000E+00
 0.0000000000000E+00
 0.0000000000000E+00
 0.0000000000000E+00
 0.0000000000000E+00
 0.0000000000000E+00
 0.0000000000000E+00
 0.0000000000000E+00
 0.0000000000000E+00
 0.0000000000000E+00
 0.0000000000000E+00
 0.0000000000000E+00
 0.0000000000000E+00
 0.0000000000000E+00
 0.0000000000000E+00
 0.0000000000000E+00
 0.0000000000000E+00
 0.0000000000000E+00
 0.0000000000000E+00
 0.0000000000000E+00
 0.0000000000000E+00
 0.0000000000000E+00
 0.0000000000000E+00
 0.0000000000000E+00
 0.0000000000000E+00
 0.0000000000000E+00
 0.0000000000000E+00
 0.0000000000000E+00
 0.0000000000000E+00
 0.0000000000000E+00
 0.0000000000000E+00
 0.0000000000000E+00
 0.0000000000000E+00
 0.0000000000000E+00
 0.0000000000000E+00
 0.0000000000000E+00
 0.0000000000000E+00
 0.0000000000000E+00
 0.0000000000000E+00
 0.0000000000000E+00
 0.0000000000000E+00
 0.0000000000000E+00
 0.0000000000000E+00
 0.0000000000000E+00
 0.0000000000000E+00
 0.0000000000000E+00
 0.0000000000000E+00
 0.0000000000000E+00
 0.0000000000000E+00
 0.0000000000000E+00
 0.0000000000000E+00
 0.0000000000000E+00
 0.0000000000000E+00
 0.0000000000000E+00
 0.0000000000000E+00
 0.0000000000000E+00
 0.0000000000000E+00
 0.0000000000000E+00
 0.0000000000000E+00
 0.0000000000000E+00
 0.0000000000000E+00
 0.0000000000000E+00
 0.0000000000000E+00
 0.0000000000000E+00
 0.0000000000000E+00
 0.0000000000000E+00
 0.0000000000000E+00
 0.0000000000000E+00
 0.0000000000000E+00
 0.0000000000000E+00
 0.0000000000000E+00
 0.0000000000000E+00
 0.0000000000000E+00
 0.0000000000000E+00
 0.0000000000000E+00
 0.0000000000000E+00
 0.0000000000000E+00
 0.0000000000000E+00
 0.0000000000000E+00
 0.0000000000000E+00
 0.0000000000000E+00
 0.0000000000000E+00
 0.0000000000000E+00
 0.0000000000000E+00
 0.0000000000000E+00
 0.0000000000000E+00
 0.0000000000000E+00
 0.0000000000000E+00
 0.0000000000000E+00
 0.0000000000000E+00
 0.0000000000000E+00
 0.0000000000000E+00
 0.0000000000000E+00
 0.0000000000000E+00
 0.0000000000000E+00
 0.0000000000000E+00
 0.0000000000000E+00
 0.0000000000000E+00
 0.0000000000000E+00
 0.0000000000000E+00
 0.0000000000000E+00
 0.0000000000000E+00
 0.0000000000000E+00
 0.0000000000000E+00
 0.0000000000000E+00
 0.0000000000000E+00
 0.0000000000000E+00
 0.0000000000000E+00
 0.0000000000000E+00
 0.0000000000000E+00
 0.0000000000000E+00
 0.0000000000000E+00
 0.0000000000000E+00
 0.0000000000000E+00
 0.0000000000000E+00
 0.0000000000000E+00
 0.0000000000000E+00
 0.0000000000000E+00
 0.0000000000000E+00
 0.0000000000000E+00
 0.0000000000000E+00
 0.0000000000000E+00
 0.0000000000000E+00
 0.0000000000000E+00
 0.0000000000000E+00
 0.0000000000000E+00
 0.0000000000000E+00
 0.0000000000000E+00
 0.0000000000000E+00
 0.0000000000000E+00
 0.0000000000000E+00
 0.0000000000000E+00
 0.0000000000000E+00
 0.0000000000000E+00
 0.0000000000000E+00
 0.0000000000000E+00
 0.0000000000000E+00
 0.0000000000000E+00
 0.0000000000000E+00
 0.0000000000000E+00
 0.0000000000000E+00
 0.0000000000000E+00
 0.0000000000000E+00
 0.0000000000000E+00
 0.0000000000000E+00
 0.0000000000000E+00
 0.0000000000000E+00
 0.0000000000000E+00
 0.0000000000000E+00
 0.0000000000000E+00
 0.0000000000000E+00
 0.0000000000000E+00
 0.0000000000000E+00
 0.0000000000000E+00
 0.0000000000000E+00
 0.0000000000000E+00
 0.0000000000000E+00
 0.0000000000000E+00
 0.0000000000000E+00
 0.0000000000000E+00
 0.0000000000000E+00
 0.0000000000000E+00
 0.0000000000000E+00
 0.0000000000000E+00
 0.0000000000000E+00
 0.0000000000000E+00
 0.0000000000000E+00
 0.0000000000000E+00
 0.0000000000000E+00
 0.0000000000000E+00
 0.0000000000000E+00
 0.0000000000000E+00
 0.0000000000000E+00
 0.0000000000000E+00
 0.0000000000000E+00
 0.0000000000000E+00
 0.0000000000000E+00
 0.0000000000000E+00
 0.0000000000000E+00
 0.0000000000000E+00
 0.0000000000000E+00
 0.0000000000000E+00
 0.0000000000000E+00
 0.0000000000000E+00
 0.0000000000000E+00
 0.0000000000000E+00
 0.0000000000000E+00
 0.0000000000000E+00
 0.0000000000000E+00
 0.0000000000000E+00
 0.0000000000000E+00
 0.0000000000000E+00
 0.0000000000000E+00
 0.0000000000000E+00
 0.0000000000000E+00
 0.0000000000000E+00
 0.0000000000000E+00
 0.0000000000000E+00
 0.0000000000000E+00
 0.0000000000000E+00
 0.0000000000000E+00
 0.0000000000000E+00
 0.0000000000000E+00
 0.0000000000000E+00
 0.0000000000000E+00
 0.0000000000000E+00
 0.0000000000000E+00
 0.0000000000000E+00
 0.0000000000000E+00
 0.0000000000000E+00
 0.0000000000000E+00
 0.0000000000000E+00
 0.0000000000000E+00
 0.0000000000000E+00
 0.0000000000000E+00
 0.0000000000000E+00
 0.0000000000000E+00
 0.0000000000000E+00
 0.0000000000000E+00
 0.0000000000000E+00
 0.0000000000000E+00
 0.0000000000000E+00
 0.0000000000000E+00
 0.0000000000000E+00
 0.0000000000000E+00
 0.0000000000000E+00
 0.0000000000000E+00
 0.0000000000000E+00
 0.0000000000000E+00
 0.0000000000000E+00
 0.0000000000000E+00
 0.0000000000000E+00
 0.0000000000000E+00
 0.0000000000000E+00
 0.0000000000000E+00
 0.0000000000000E+00
 0.0000000000000E+00
 0.0000000000000E+00
 0.0000000000000E+00
 0.0000000000000E+00
 0.0000000000000E+00
 0.0000000000000E+00
 0.0000000000000E+00
 0.0000000000000E+00
 0.0000000000000E+00
 0.0000000000000E+00
 0.0000000000000E+00
 0.0000000000000E+00
 0.0000000000000E+00
 0.0000000000000E+00
 0.0000000000000E+00
 0.0000000000000E+00
 0.0000000000000E+00
 0.0000000000000E+00
 0.0000000000000E+00
 0.0000000000000E+00
 0.0000000000000E+00
 0.0000000000000E+00
 0.0000000000000E+00
 0.0000000000000E+00
 0.0000000000000E+00
 0.0000000000000E+00
 0.0000000000000E+00
 0.0000000000000E+00
 0.0000000000000E+00
 0.0000000000000E+00
 0.0000000000000E+00
 0.0000000000000E+00
 0.0000000000000E+00
 0.0000000000000E+00
 0.0000000000000E+00
 0.0000000000000E+00
 0.0000000000000E+00
 0.0000000000000E+00
 0.0000000000000E+00
 0.0000000000000E+00
 0.0000000000000E+00
 0.0000000000000E+00
 0.0000000000000E+00
 0.0000000000000E+00
 0.0000000000000E+00
 0.0000000000000E+00
 0.0000000000000E+00
 0.0000000000000E+00
 0.0000000000000E+00
 0.0000000000000E+00
 0.0000000000000E+00
 0.0000000000000E+00
 0.0000000000000E+00
 0.0000000000000E+00
 0.0000000000000E+00
 0.0000000000000E+00
 0.0000000000000E+00
 0.0000000000000E+00
 0.0000000000000E+00
 0.0000000000000E+00
 0.0000000000000E+00
 0.0000000000000E+00
 0.0000000000000E+00
 0.0000000000000E+00
 0.0000000000000E+00
 0.0000000000000E+00
 0.0000000000000E+00
 0.0000000000000E+00
 0.0000000000000E+00
 0.0000000000000E+00
 0.0000000000000E+00
 0.0000000000000E+00
 0.0000000000000E+00
 0.0000000000000E+00
 0.0000000000000E+00
 0.0000000000000E+00
 0.0000000000000E+00
 0.0000000000000E+00
 0.0000000000000E+00
 0.0000000000000E+00
 0.0000000000000E+00
 0.0000000000000E+00
 0.0000000000000E+00
 0.0000000000000E+00
 0.0000000000000E+00
 0.0000000000000E+00
 0.0000000000000E+00
 0.0000000000000E+00
 0.0000000000000E+00
 0.0000000000000E+00
 0.0000000000000E+00
 0.0000000000000E+00
 0.0000000000000E+00
 0.0000000000000E+00
 0.0000000000000E+00
 0.0000000000000E+00
 0.0000000000000E+00
 0.0000000000000E+00
 0.0000000000000E+00
 0.0000000000000E+00
 0.0000000000000E+00
 0.0000000000000E+00
 0.0000000000000E+00
 0.0000000000000E+00
 0.0000000000000E+00
 0.0000000000000E+00
 0.0000000000000E+00
 0.0000000000000E+00
 0.0000000000000E+00
 0.0000000000000E+00
 0.0000000000000E+00
 0.0000000000000E+00
 0.0000000000000E+00
 0.0000000000000E+00
 0.0000000000000E+00
 0.0000000000000E+00
 0.0000000000000E+00
 0.0000000000000E+00
 0.0000000000000E+00
 0.0000000000000E+00
 0.0000000000000E+00
 0.0000000000000E+00
 0.0000000000000E+00
 0.0000000000000E+00
 0.0000000000000E+00
 0.0000000000000E+00
 0.0000000000000E+00
 0.0000000000000E+00
 0.0000000000000E+00
 0.0000000000000E+00
 0.0000000000000E+00
 0.0000000000000E+00
 0.0000000000000E+00
 0.0000000000000E+00
 0.0000000000000E+00
 0.0000000000000E+00
 0.0000000000000E+00
 0.0000000000000E+00
 0.0000000000000E+00
 0.0000000000000E+00
 0.0000000000000E+00
 0.0000000000000E+00
 0.0000000000000E+00
 0.0000000000000E+00
 0.0000000000000E+00
 0.0000000000000E+00
 0.0000000000000E+00
 0.0000000000000E+00
 0.0000000000000E+00
 0.0000000000000E+00
 0.0000000000000E+00
 0.0000000000000E+00
 0.0000000000000E+00
 0.0000000000000E+00
 0.0000000000000E+00
 0.0000000000000E+00
 0.0000000000000E+00
 0.0000000000000E+00
 0.0000000000000E+00
 0.0000000000000E+00
 0.0000000000000E+00
 0.0000000000000E+00
 0.0000000000000E+00
 0.0000000000000E+00
 0.0000000000000E+00
 0.0000000000000E+00
 0.0000000000000E+00
 0.0000000000000E+00
 0.0000000000000E+00
 0.0000000000000E+00
 0.0000000000000E+00
 0.0000000000000E+00
 0.0000000000000E+00
 0.0000000000000E+00
 0.0000000000000E+00
 0.0000000000000E+00
 0.0000000000000E+00
 0.0000000000000E+00
 0.0000000000000E+00
 0.0000000000000E+00
 0.0000000000000E+00
 0.0000000000000E+00
 0.0000000000000E+00
 0.0000000000000E+00
 0.0000000000000E+00
 0.0000000000000E+00
 0.0000000000000E+00
 0.0000000000000E+00
 0.0000000000000E+00
 0.0000000000000E+00
 0.0000000000000E+00
 0.0000000000000E+00
 0.0000000000000E+00
 0.0000000000000E+00
 0.0000000000000E+00
 0.0000000000000E+00
 0.0000000000000E+00
 0.0000000000000E+00
 0.0000000000000E+00
 0.0000000000000E+00
 0.0000000000000E+00
 0.0000000000000E+00
 0.0000000000000E+00
 0.0000000000000E+00
 0.0000000000000E+00
 0.0000000000000E+00
 0.0000000000000E+00
 0.0000000000000E+00
 0.0000000000000E+00
 0.0000000000000E+00
 0.0000000000000E+00
 0.0000000000000E+00
 0.0000000000000E+00
 0.0000000000000E+00
 0.0000000000000E+00
 0.0000000000000E+00
 0.0000000000000E+00
 0.0000000000000E+00
 0.0000000000000E+00
 0.0000000000000E+00
 0.0000000000000E+00
 0.0000000000000E+00
 0.0000000000000E+00
 0.0000000000000E+00
 0.0000000000000E+00
 0.0000000000000E+00
 0.0000000000000E+00
 0.0000000000000E+00
 0.0000000000000E+00
 0.0000000000000E+00
 0.0000000000000E+00
 0.0000000000000E+00
 0.0000000000000E+00
 0.0000000000000E+00
 0.0000000000000E+00
 0.0000000000000E+00
 0.0000000000000E+00
 0.0000000000000E+00
 0.0000000000000E+00
 0.0000000000000E+00
 0.0000000000000E+00
 0.0000000000000E+00
 0.0000000000000E+00
 0.0000000000000E+00
 0.0000000000000E+00
 0.0000000000000E+00
 0.0000000000000E+00
 0.0000000000000E+00
 0.0000000000000E+00
 0.0000000000000E+00
 0.0000000000000E+00
 0.0000000000000E+00
 0.0000000000000E+00
 0.0000000000000E+00
 0.0000000000000E+00
 0.0000000000000E+00
 0.0000000000000E+00
 0.0000000000000E+00
 0.0000000000000E+00
 0.0000000000000E+00
 0.0000000000000E+00
 0.0000000000000E+00
 0.0000000000000E+00
 0.0000000000000E+00
 0.0000000000000E+00
 0.0000000000000E+00
 0.0000000000000E+00
 0.0000000000000E+00
 0.0000000000000E+00
 0.0000000000000E+00
 0.0000000000000E+00
 0.0000000000000E+00
 0.0000000000000E+00
 0.0000000000000E+00
 0.0000000000000E+00
 0.0000000000000E+00
 0.0000000000000E+00
 0.0000000000000E+00
 0.0000000000000E+00
 0.0000000000000E+00
 0.0000000000000E+00
 0.0000000000000E+00
 0.0000000000000E+00
 0.0000000000000E+00
 0.0000000000000E+00
 0.0000000000000E+00
 0.0000000000000E+00
 0.0000000000000E+00
 0.0000000000000E+00
 0.0000000000000E+00
 0.0000000000000E+00
 0.0000000000000E+00
 0.0000000000000E+00
 0.0000000000000E+00
 0.0000000000000E+00
 0.0000000000000E+00
 0.0000000000000E+00
 0.0000000000000E+00
 0.0000000000000E+00
 0.0000000000000E+00
 0.0000000000000E+00
 0.0000000000000E+00
 0.0000000000000E+00
 0.0000000000000E+00
 0.0000000000000E+00
 0.0000000000000E+00
 0.0000000000000E+00
 0.0000000000000E+00
 0.0000000000000E+00
 0.0000000000000E+00
 0.0000000000000E+00
 0.0000000000000E+00
 0.0000000000000E+00
 0.0000000000000E+00
 0.0000000000000E+00
 0.0000000000000E+00
 0.0000000000000E+00
 0.0000000000000E+00
 0.0000000000000E+00
 0.0000000000000E+00
 0.0000000000000E+00
 0.0000000000000E+00
 0.0000000000000E+00
 0.0000000000000E+00
 0.0000000000000E+00
 0.0000000000000E+00
 0.0000000000000E+00
</DataArray>
<DataArray type="Int32" Name="Region" format="ascii">
           1
           1
           1
           1
           1
           1
           1
           1
           1
           1
           1
           1
           1
           1
           1
           1
           1
           1
           1
           1
           1
           1
           1
           1
           1
           1
           1
           1
           1
           1
           1
           1
           1
           1
           1
           1
           1
           1
           1
           1
           1
           1
           1
           1
           1
           1
           1
           1
           1
           1
           1
           1
           1
           1
           1
           1
           1
           1
           1
           1
           1
           1
           1
           1
           1
           1
           1
           1
           1
           1
           1
           1
           1
           1
           1
           1
           1
           1
           1
           1
           1
           1
           1
           1
           1
           1
           1
           1
           1
           1
           1
           1
           1
           1
           1
           1
           1
           1
           1
           1
           1
           1
           1
           1
           1
           1
           1
           1
           1
           1
           1
           1
           1
           1
           1
           1
           1
           1
           1
           1
           1
           1
           1
           1
           1
           1
           1
           1
           1
           1
           1
           1
           1
           1
           1
           1
           1
           1
           1
           1
           1
           1
           1
           1
           1
           1
           1
           1
           1
           1
           1
           1
           1
           1
           1
           1
           1
           1
           1
           1
           1
           1
           1
           1
           1
           1
           1
           1
           1
           1
           1
           1
           1
           1
           1
           1
           1
           1
           1
           1
           1
           1
           1
           1
           1
           1
           1
           1
           1
           1
           1
           1
           1
           1
           1
           1
           1
           1
           1
           1
           1
           1
           1
           1
           1
           1
           1
           1
           1
           1
           1
           1
           1
           1
           1
           1
           1
           1
           1
           1
           1
           1
           1
           1
           1
           1
           1
           1
           1
           1
           1
           1
           1
           1
           1
           1
           1
           1
           1
           1
           1
           1
           1
           1
           1
           1
           1
           1
           1
           1
           1
           1
           1
           1
           1
           1
           1
           1
           1
           1
           1
           1
           1
           1
           1
           1
           1
           1
           1
           1
           1
           1
           1
           1
           1
           1
           1
           1
           1
           1
           1
           1
           1
           1
           1
           1
           1
           1
           1
           1
           1
           1
           1
           1
           1
           1
           1
           1
           1
           1
           1
           1
           1
           1
           1
           1
           1
           1
           1
           1
           1
           1
           1
           1
           1
           1
           1
           1
           1
           1
           1
           1
           1
           1
           1
           1
           1
           1
           1
           1
           1
           1
           1
           1
           1
           1
           1
           1
           1
           1
           1
           1
           1
           1
           1
           1
           1
           1
           1
           1
           1
           1
           1
           1
           1
           1
           1
           1
           1
           1
           1
           1
           1
           1
           1
           1
           1
           1
           1
           1
           1
           1
           1
           1
           1
           1
           1
           1
           1
           1
           1
           1
           1
           1
           1
           1
           1
           1
           1
           1
           1
           1
           1
           1
           1
           1
           1
           1
           1
           1
           1
           1
           1
           1
           1
           1
           1
           1
           1
           1
           1
           1
           1
           1
           1
           1
           1
           1
           1
           1
           1
           1
           1
           1
           1
           1
           1
           1
           1
           1
           1
           1
           1
           1
           1
           1
           1
           1
           1
           1
           1
           1
           1
           1
           1
           1
           1
           1
           1
           1
           1
           1
           1
           1
           1
           1
           1
           1
           1
           1
           1
           1
           1
           1
           1
           1
           1
           1
           1
           1
           1
           1
           1
           1
           1
           1
           1
           1
           1
           1
           1
           1
           1
           1
           1
           1
           1
           1
           1
           1
           1
           1
           1
           1
           1
           1
           1
           1
           1
           1
           1
           1
           1
           1
           1
           1
           1
           1
           1
           1
           1
           1
           1
           1
           1
           1
           1
           1
           1
           1
           1
           1
           1
           1
           1
           1
           1
           1
           1
           1
           1
           1
           1
           1
           1
           1
           1
           1
           1
           1
           1
           1
           1
           1
           1
           1
           1
           1
           1
           1
           1
           1
           1
           1
           1
           1
           1
           1
           1
           1
           1
           1
           1
           1
           1
           1
           1
           1
           1
           1
           1
           1
           1
           1
           1
           1
           1
           1
           1
           1
           1
           1
           1
           1
           1
           1
           1
           1
           1
           1
           1
           1
           1
           1
           1
           1
           1
           1
           1
           1
           1
           1
           1
           1
           1
           1
           1
           1
           1
           1
           1
           1
           1
           1
           1
           1
           1
           1
           1
           1
           1
           1
           1
           1
           1
           1
           1
           1
           1
           1
           1
           1
           1
           1
           1
           1
           1
           1
           1
           1
           1
           1
           1
           1
           1
           1
           1
           1
           1
           1
           1
           1
           1
           1
           1
           1
           1
           1
           1
           1
           1
           1
           1
           1
           1
           1
           1
           1
           1
           1
           1
           1
           1
           1
           1
           1
           1
           1
           1
           1
           1
           1
           1
           1
           1
           1
           1
           1
           1
           1
           1
           1
           1
           1
           1
           1
           1
           1
           1
           1
           1
           1
           1
           1
           1
           1
           1
           1
           1
           1
           1
           1
           1
           1
           1
           1
           1
           1
           1
           1
           1
           1
           1
           1
           1
           1
           1
           1
           1
           1
           1
           1
           1
           1
           1
           1
           1
           1
           1
           1
           1
           1
           1
           1
           1
           1
           1
           1
           1
           1
           1
           1
           1
           1
           1
           1
           1
           1
           1
           1
           1
           1
           1
           1
           1
           1
           1
           1
           1
           1
           1
           1
           1
           1
           1
           1
           1
           1
           1
           1
           1
           1
           1
           1
           1
           1
           1
           1
           1
           1
           1
           1
           1
           1
           1
           1
           1
           1
           1
           1
           1
           1
           1
           1
           1
           1
           1
           1
           1
           1
           1
           1
           1
           1
           1
           1
           1
           1
           1
           1
           1
           1
           1
           1
           1
           1
           1
           1
           1
           1
           1
           1
           1
           1
           1
           1
           1
           1
           1
           1
           1
           1
           1
           1
           1
           1
           1
           1
           1
           1
           1
           1
           1
           1
           1
           1
           1
           1
           1
           1
           1
           1
           1
           1
           1
           1
           1
           1
           1
           1
           1
           1
           1
           1
           1
           1
           1
           1
           1
           1
           1
           1
           1
           1
           1
           1
           1
           1
           1
           1
           1
           1
           1
           1
           1
           1
           1
           1
           1
           1
           1
           1
           1
           1
           1
           1
           1
           1
           1
           1
           1
           1
           1
           1
           1
           1
           1
           1
           1
           1
           1
           1
           1
           1
           1
           1
           1
           1
           1
           1
           1
           1
           1
           1
           1
           1
           1
           1
           1
           1
           1
           1
           1
           1
           1
           1
           1
           1
           1
           1
           1
           1
           1
           1
           1
           1
           1
           1
           1
           1
           1
           1
           1
           1
           1
           1
           1
           1
           1
           1
           1
           1
           1
           1
           1
           1
           1
           1
           1
           1
           1
           1
           1
           1
           1
           1
           1
           1
           1
           1
           1
           1
           1
           1
           1
           1
           1
           1
           1
           1
           1
           1
           1
           1
           1
           1
           1
           1
           1
           1
           1
           1
           1
           1
           1
           1
           1
           1
           1
           1
           1
           1
           1
           1
           1
           1
           1
           1
           1
           1
           1
           1
           1
           1
           1
           1
           1
           1
           1
           1
           1
           1
           1
           1
           1
           1
           1
           1
           1
           1
           1
           1
           1
           1
           1
           1
           1
           1
           1
           1
           1
           1
           1
           1
           1
           1
           1
           1
           1
           1
           1
           1
           1
           1
           1
           1
           1
           1
           1
           1
           1
           1
           1
           1
           1
           1
           1
           1
           1
           1
           1
           1
           1
           1
           1
           1
           1
           1
           1
           1
           1
           1
           1
           1
           1
           1
           1
           1
           1
           1
           1
           1
           1
           1
           1
           1
           1
           1
           1
           1
           1
           1
           1
           1
           1
           1
           1
           1
           1
           1
           1
           1
           1
           1
           1
           1
           1
           1
           1
           1
           1
           1
           1
           1
           1
           1
           1
           1
           1
           1
           1
           1
           1
           1
           1
           1
           1
           1
           1
           1
           1
           1
           1
           1
           1
           1
           1
           1
           1
           1
           1
           1
           1
           1
           1
           1
           1
           1
           1
           1
           1
           1
           1
           1
           1
           1
           1
           1
           1
           1
           1
           1
           1
           1
           1
           1
           1
           1
           1
           1
           1
           1
           1
           1
           1
           1
           1
           1
           1
           1
           1
           1
           1
           1
           1
           1
           1
           1
           1
           1
           1
           1
           1
           1
           1
           1
           1
           1
           1
           1
           1
           1
           1
           1
           1
           1
           1
           1
           1
           1
           1
           1
           1
           1
           1
           1
           1
           1
           1
           1
           1
           1
           1
           1
           1
           1
           1
           1
           1
           1
           1
           1
           1
           1
           1
           1
           1
           1
           1
           1
           1
           1
           1
           1
           1
           1
           1
           1
           1
           1
           1
           1
           1
           1
           1
           1
           1
           1
           1
           1
           1
           1
           1
           1
           1
           1
           1
           1
           1
           1
           1
           1
           1
           1
           1
           1
           1
           1
           1
           1
           1
           1
           1
           1
           1
           1
           1
           1
           1
           1
           1
           1
           1
           1
           1
           1
           1
           1
           1
           1
           1
           1
           1
           1
           1
           1
           1
           1
           1
           1
           1
           1
           1
           1
           1
           1
           1
           1
           1
           1
           1
           1
           1
           1
           1
           1
           1
           1
           1
           1
           1
           1
           1
           1
           1
           1
           1
           1
           1
           1
           1
           1
           1
           1
           1
           1
           1
           1
           1
           1
           1
           1
           1
           1
           1
           1
           1
           1
           1
           1
           1
           1
           1
           1
           1
           1
           1
           1
           1
           1
           1
           1
           1
           1
           1
           1
           1
           1
           1
           1
           1
           1
           1
           1
           1
           1
           1
           1
           1
           1
           1
           1
           1
           1
           1
           1
           1
           1
           1
           1
           1
           1
           1
           1
           1
           1
           1
           1
           1
           1
           1
           1
           1
           1
           1
           1
           1
           1
           1
           1
           1
           1
           1
           1
           1
           1
           1
           1
           1
           1
           1
           1
           1
           1
           1
           1
           1
           1
           1
           1
           1
           1
           1
           1
           1
           1
           1
           1
           1
           1
           1
           1
           1
           1
           1
           1
           1
           1
           1
           1
           1
           1
           1
           1
           1
           1
           1
           1
           1
           1
           1
           1
           1
           1
           1
           1
           1
           1
           1
           1
           1
           1
           1
           1
           1
           1
           1
           1
           1
           1
           1
           1
           1
           1
           1
           1
           1
           1
           1
           1
           1
           1
           1
           1
           1
           1
           1
           1
           1
           1
           1
           1
           1
           1
           1
           1
           1
           1
           1
           1
           1
           1
           1
           1
           1
           1
           1
           1
           1
           1
           1
           1
           1
           1
           1
           1
           1
           1
           1
           1
           1
           1
           1
           1
           1
           1
           1
           1
           1
           1
           1
           1
           1
           1
           1
           1
           1
           1
           1
           1
           1
           1
           1
           1
           1
           1
           1
           1
           1
           1
           1
           1
           1
           1
           1
           1
           1
           1
           1
           1
           1
           1
           1
           1
           1
           1
           1
           1
           1
           1
           1
           1
           1
           1
           1
           1
           1
           1
           1
           1
           1
           1
           1
           1
           1
           1
           1
           1
           1
           1
           1
           1
           1
           1
           1
           1
           1
           1
           1
           1
           1
           1
           1
           1
           1
           1
           1
           1
           1
           1
           1
           1
           1
           1
           1
           1
           1
           1
           1
           1
           1
           1
           1
           1
           1
           1
           1
           1
           1
           1
           1
           1
           1
           1
           1
           1
           1
           1
           1
           1
           1
           1
           1
           1
           1
           1
           1
           1
           1
           1
           1
           1
           1
           1
           1
           1
           1
           1
           1
           1
           1
           1
           1
           1
           1
           1
           1
           1
           1
           1
           1
           1
           1
           1
           1
           1
           1
           1
           1
           1
           1
           1
           1
           1
           1
           1
           1
           1
           1
           1
           1
           1
           1
           1
           1
           1
           1
           1
           1
           1
           1
           1
           1
           1
           1
           1
           1
           1
           1
           1
           1
           1
           1
           1
           1
           1
           1
           1
           1
           1
           1
           1
           1
           1
           1
           1
           1
           1
           1
           1
           1
           1
           1
           1
           1
           1
           1
           1
           1
           1
           1
           1
           1
           1
           1
           1
           1
           1
           1
           1
           1
           1
           1
           1
           1
           1
           1
           1
           1
           1
           1
           1
           1
           1
           1
           1
           1
           1
           1
           1
           1
           1
           1
           1
           1
           1
           1
           1
           1
           1
           1
           1
           1
           1
           1
           1
           1
           1
           1
           1
           1
           1
           1
           1
           1
           1
           1
           1
           1
           1
           1
           1
           1
           1
           1
           1
           1
           1
           1
           1
           1
           1
           1
           1
           1
           1
           1
           1
           1
           1
           1
           1
           1
           1
           1
           1
           1
           1
           1
           1
           1
           1
           1
           1
           1
           1
           1
           1
           1
           1
           1
           1
           1
           1
           1
           1
           1
           1
           1
           1
           1
           1
           1
           1
           1
           1
           1
           1
           1
           1
           1
           1
           1
           1
           1
           1
           1
           1
           1
           1
           1
           1
           1
           1
           1
           1
           1
           1
           1
           1
           1
           1
           1
           1
           1
           1
           1
           1
           1
           1
           1
           1
           1
           1
           1
           1
           1
           1
           1
           1
           1
           1
           1
           1
           1
           1
           1
           1
           1
           1
           1
           1
           1
           1
           1
           1
           1
           1
           1
           1
           1
           1
           1
           1
           1
           1
           1
           1
           1
           1
           1
           1
           1
           1
           1
           1
           1
           1
           1
           1
           1
           1
           1
           1
           1
           1
           1
           1
           1
           1
           1
           1
           1
           1
           1
           1
           1
           1
           1
           1
           1
           1
           1
           1
           1
           1
           1
           1
           1
           1
           1
           1
           1
           1
           1
           1
           1
           1
           1
           1
           1
           1
           1
           1
           1
           1
           1
           1
           1
           1
           1
           1
           1
           1
           1
           1
           1
           1
           1
           1
           1
           1
           1
           1
           1
           1
           1
           1
           1
           1
           1
           1
           1
           1
           1
           1
           1
           1
           1
           1
           1
           1
           1
           1
           1
           1
           1
           1
           1
           1
           1
           1
           1
           1
           1
           1
           1
           1
           1
           1
           1
           1
           1
           1
           1
           1
           1
           1
           1
           1
           1
           1
           1
           1
           1
           1
           1
           1
           1
           1
           1
           1
           1
           1
           1
           1
           1
           1
           1
           1
           1
           1
           1
           1
           1
           1
           1
           1
           1
           1
           1
           1
           1
           1
           1
           1
           1
           1
           1
           1
           1
           1
           1
           1
           1
           1
           1
           1
           1
           1
           1
           1
           1
           1
           1
           1
           1
           1
           1
           1
           1
           1
           1
           1
           1
           1
           1
           1
           1
           1
           1
           1
           1
           1
           1
           1
           1
           1
           1
           1
           1
           1
           1
           1
           1
           1
           1
           1
           1
           1
           1
           1
           1
           1
           1
           1
           1
           1
           1
           1
           1
           1
           1
           1
           1
           1
           1
           1
           1
           1
           1
           1
           1
           1
           1
           1
           1
           1
           1
           1
           1
           1
           1
           1
           1
           1
           1
           1
           1
           1
           1
           1
           1
           1
           1
           1
           1
           1
           1
           1
           1
           1
           1
           1
           1
           1
           1
           1
           1
           1
           1
           1
           1
           1
           1
           1
           1
           1
           1
           1
           1
           1
           1
           1
           1
           1
           1
           1
           1
           1
           1
           1
           1
           1
           1
           1
           1
           1
           1
           1
           1
           1
           1
           1
           1
           1
           1
           1
           1
           1
           1
           1
           1
           1
           1
           1
           1
           1
           1
           1
           1
           1
           1
           1
           1
           1
           1
           1
           1
           1
           1
           1
           1
           1
           1
           1
           1
           1
           1
           1
           1
           1
           1
           1
           1
           1
           1
           1
           1
           1
           1
           1
           1
           1
           1
           1
           1
           1
           1
           1
           1
           1
           1
           1
           1
           1
           1
           1
           1
           1
           1
           1
           1
           1
           1
           1
           1
           1
           1
           1
           1
           1
           1
           1
           1
           1
           1
           1
           1
           1
           1
           1
           1
           1
           1
           1
           1
           1
           1
           1
           1
           1
           1
           1
           1
           1
           1
           1
           1
           1
           1
           1
           1
           1
           1
           1
           1
           1
           1
           1
           1
           1
           1
           1
           1
           1
           1
           1
           1
           1
           1
           1
           1
           1
           1
           1
           1
           1
           1
           1
           1
           1
           1
           1
           1
           1
           1
           1
           1
           1
           1
           1
           1
           1
           1
           1
           1
           1
           1
           1
           1
           1
           1
           1
           1
           1
           1
           1
           1
           1
           1
           1
           1
           1
           1
           1
           1
           1
           1
           1
           1
           1
           1
           1
           1
           1
           1
           1
           1
           1
           1
           1
           1
           1
           1
           1
           1
           1
           1
           1
           1
           1
           1
           1
           1
           1
           1
           1
           1
           1
           1
           1
           1
           1
           1
           1
           1
           1
           1
           1
           1
           1
           1
           1
           1
           1
           1
           1
           1
           1
           1
           1
           1
           1
           1
           1
           1
           1
           1
           1
           1
           1
           1
           1
           1
           1
           1
           1
           1
           1
           1
           1
           1
           1
           1
           1
           1
           1
           1
           1
           1
           1
           1
           1
           1
           1
           1
           1
           1
           1
           1
           1
           1
           1
           1
           1
           1
           1
           1
           1
           1
           1
           1
           1
           1
           1
           1
           1
           1
           1
           1
           1
           1
           1
           1
           1
           1
           1
           1
           1
           1
           1
           1
           1
           1
           1
           1
           1
           1
           1
           1
           1
           1
           1
           1
           1
           1
           1
           1
           1
           1
           1
           1
           1
           1
           1
           1
           1
           1
           1
           1
           1
           1
           1
           1
           1
           1
           1
           1
           1
           1
           1
           1
           1
           1
           1
           1
           1
           1
           1
           1
           1
           1
           1
           1
           1
           1
           1
           1
           1
           1
           1
           1
           1
           1
           1
           1
           1
           1
           1
           1
           1
           1
           1
           1
           1
           1
           1
           1
           1
           1
           1
           1
           1
           1
           1
           1
           1
           1
           1
           1
           1
           1
           1
           1
           1
           1
           1
           1
           1
           1
           1
           1
           1
           1
           1
           1
           1
           1
           1
           1
           1
           1
           1
           1
           1
           1
           1
           1
           1
           1
           1
           1
           1
           1
           1
           1
           1
           1
           1
           1
           1
           1
           1
           1
           1
           1
           1
           1
           1
           1
           1
           1
           1
           1
           1
           1
           1
           1
           1
           1
           1
           1
           1
           1
           1
           1
           1
           1
           1
           1
           1
           1
           1
           1
           1
           1
           1
           1
           1
           1
           1
           1
           1
           1
           1
           1
           1
           1
           1
           1
           1
           1
           1
           1
           1
           1
           1
           1
           1
           1
           1
           1
           1
           1
           1
           1
           1
           1
           1
           1
           1
           1
           1
           1
           1
           1
           1
           1
           1
           1
           1
           1
           1
           1
           1
           1
           1
           1
           1
           1
           1
           1
           1
           1
           1
           1
           1
           1
           1
           1
           1
           1
           1
           1
           1
           1
           1
           1
           1
           1
           1
           1
           1
           1
           1
           1
           1
           1
           1
           1
           1
           1
           1
           1
           1
           1
           1
           1
           1
           1
           1
           1
           1
           1
           1
           1
           1
           1
           1
           1
           1
           1
           1
           1
           1
           1
           1
           1
           1
           1
           1
           1
           1
           1
           1
           1
           1
           1
           1
           1
           1
           1
           1
           1
           1
           1
           1
           1
           1
           1
           1
           1
           1
           1
           1
           1
           1
           1
           1
           1
           1
           1
           1
           1
           1
           1
           1
           1
           1
           1
           1
           1
           1
           1
           1
           1
           1
           1
           1
           1
           1
           1
           1
           1
           1
           1
           1
           1
           1
           1
           1
           1
           1
           1
           1
           1
           1
           1
           1
           1
           1
           1
           1
           1
           1
           1
           1
           1
           1
           1
           1
           1
           1
           1
           1
           1
           1
           1
           1
           1
           1
           1
           1
           1
           1
           1
           1
           1
           1
           1
           1
           1
           1
           1
           1
           1
           1
           1
           1
           1
           1
           1
           1
           1
           1
           1
           1
           1
           1
           1
           1
           1
           1
           1
           1
           1
           1
           1
           1
           1
           1
           1
           1
           1
           1
           1
           1
           1
           1
           1
           1
           1
           1
           1
           1
           1
           1
           1
           1
           1
           1
           1
           1
           1
           1
           1
           1
           1
           1
           1
           1
           1
           1
           1
           1
           1
           1
           1
           1
           1
           1
           1
           1
           1
           1
           1
           1
           1
           1
           1
           1
           1
           1
           1
           1
           1
           1
           1
           1
           1
           1
           1
           1
           1
           1
           1
           1
           1
           1
           1
           1
           1
           1
           1
           1
           1
           1
           1
           1
           1
           1
           1
           1
           1
           1
           1
           1
           1
           1
           1
           1
           1
           1
           1
           1
           1
           1
           1
           1
           1
           1
           1
           1
           1
           1
           1
           1
           1
           1
           1
           1
           1
           1
           1
           1
           1
           1
           1
           1
           1
           1
           1
           1
           1
           1
           1
           1
           1
           1
           1
           1
           1
           1
           1
           1
           1
           1
           1
           1
           1
           1
           1
           1
           1
           1
           1
           1
           1
           1
           1
           1
           1
           1
           1
           1
           1
           1
           1
           1
           1
           1
           1
           1
           1
           1
           1
           1
           1
           1
           1
           1
           1
           1
           1
           1
           1
           1
           1
           1
           1
           1
           1
           1
           1
           1
           1
           1
           1
           1
           1
           1
           1
           1
           1
           1
           1
           1
           1
           1
           1
           1
           1
           1
           1
           1
           1
           1
           1
           1
           1
           1
           1
           1
           1
           1
           1
           1
           1
           1
           1
           1
           1
           1
           1
           1
           1
           1
           1
           1
           1
           1
           1
           1
           1
           1
           1
           1
           1
           1
           1
           1
           1
           1
           1
           1
           1
           1
           1
           1
           1
           1
           1
           1
           1
           1
           1
           1
           1
           1
           1
           1
           1
           1
           1
           1
           1
           1
           1
           1
           1
           1
           1
           1
           1
           1
           1
           1
           1
           1
           1
           1
           1
           1
           1
           1
           1
           1
           1
           1
           2
           2
           2
           2
           2
           2
           2
           2
           2
           2
           2
           2
           2
           2
           2
           2
           2
           2
           2
           2
           2
           2
           2
           2
           2
           2
           2
           2
           2
           2
           2
           2
           2
           2
           2
           2
           2
           2
           2
           2
           2
           2
           2
           2
           2
           2
           2
           2
           2
           2
           2
           2
           2
           2
           2
           2
           2
           2
           2
           2
           2
           2
           2
           2
           2
           2
           2
           2
           2
           2
           2
           2
           2
           2
           2
           2
           2
           2
           2
           2
           2
           2
           2
           2
           2
           2
           2
           2
           2
           2
           2
           2
           2
           2
           2
           2
           2
           2
           2
           2
           2
           2
           2
           2
           2
           2
           2
           2
           2
           2
           2
           2
           2
           2
           2
           2
           2
           2
           2
           2
           2
           2
           2
           2
           2
           2
           2
           2
           2
           2
           2
           2
           2
           2
           2
           2
           2
           2
           2
           2
           2
           2
           2
           2
           2
           2
           2
           2
           2
           2
           2
           2
           2
           2
           2
           2
           2
           2
           2
           2
           2
           2
           2
           2
           2
           2
           2
           2
           2
           2
           2
           2
           2
           2
           2
           2
           2
           2
           2
           2
           2
           2
           2
           2
           2
           2
           2
           2
           2
           2
           2
           2
           2
           2
           2
           2
           2
           2
           2
           2
           2
           2
           2
           2
           2
           2
           2
           2
           2
           2
           2
           2
           2
           2
           2
           2
           2
           2
           2
           2
           2
           2
           2
           2
           2
           2
           2
           2
           2
           2
           2
           2
           2
           2
           2
           2
           2
           2
           2
           2
           2
           2
           2
           2
           2
           2
           2
           2
           2
           2
           2
           2
           2
           2
           2
           2
           2
           2
           2
           2
           2
           2
           2
           2
           2
           2
           2
           2
           2
           2
           2
           2
           2
           2
           2
           2
           2
           2
           2
           2
           2
           2
           2
           2
           2
           2
           2
           2
           2
           2
           2
           2
           2
           2
           2
           2
           2
           2
           2
           2
           2
           2
           2
           2
           2
           2
           2
           2
           2
           2
           2
           2
           2
           2
           2
           2
           2
           2
           2
           2
           2
           2
           2
           2
           2
           2
           2
           2
           2
           2
           2
           2
           2
           2
           2
           2
           2
           2
           2
           2
           2
           2
           2
           2
           2
           2
           2
           2
           2
           2
           2
           2
           2
           2
           2
           2
           2
           2
           2
           2
           2
           2
           2
           2
           2
           2
           2
           2
           2
           2
           2
           2
           2
           2
           2
           2
           2
           2
           2
           2
           2
           2
           2
           2
           2
           2
           2
           2
           2
           2
           2
           2
           2
           2
           2
           2
           2
           2
           2
           2
           2
           2
           2
           2
           2
           2
           2
           2
           2
           2
           2
           2
           2
           2
           2
           2
           2
           2
           2
           2
           2
           2
           2
           2
           2
           2
           2
           2
           2
           2
           2
           2
           2
           2
           2
           2
           2
           2
           2
           2
           2
           2
           2
           2
           2
           2
           2
           2
           2
           2
           2
           2
           2
           2
           2
           2
           2
           2
           2
           2
           2
           2
           2
           2
           2
           2
           2
           2
           2
           2
           2
           2
           2
           2
           2
           2
           2
           2
           2
           2
           2
           2
           2
           2
           2
           2
           2
           2
           2
           2
           2
           2
           2
           2
           2
           2
           2
           2
           2
           2
           2
           2
           2
           2
           2
           2
           2
           2
           2
           2
           2
           2
           2
           2
           2
           2
           2
           2
           2
           2
           2
           2
           2
           2
           2
           2
           2
           2
           2
           2
           2
           2
           2
           2
           2
           2
           2
           2
           2
           2
           2
           2
           2
           2
           2
           2
           2
           2
           2
           2
           2
           2
           2
           2
           2
           2
           2
           2
           2
           2
           2
           2
           2
           2
           2
           2
           2
           2
           2
           2
           2
           2
           2
           2
           2
           2
           2
           2
           2
           2
           2
           2
           2
           2
           2
           2
           2
           2
           2
           2
           2
           2
           2
           2
           2
           2
           2
           2
           2
           2
           2
           2
           2
           2
           2
           2
           2
           2
           2
           2
           2
           2
           2
           2
           2
           2
           2
           2
           2
           2
           2
           2
           2
           2
           2
           2
           2
           2
           2
           2
           2
           2
           2
           2
           2
           2
           2
           2
           2
           2
           2
           2
           2
           2
           2
           2
           2
           2
           2
           2
           2
           2
           2
           2
           2
           2
           2
           2
           2
           2
           2
           2
           2
           2
           2
           2
           2
           2
           2
           2
           2
           2
           2
           2
           2
           2
           2
           2
           2
           2
           2
           2
           2
           2
           2
           2
           2
           2
           2
           2
           2
           2
           2
           2
           2
           2
           2
           2
           2
           2
           2
           2
           2
           2
           2
           2
           2
           2
           2
           2
           2
           2
           2
           2
           2
           2
           2
           2
           2
           2
           2
           2
           2
           2
           2
           2
           2
           2
           2
           2
           2
           2
           2
           2
           2
           2
           2
           2
           2
           2
           2
           2
           2
           2
           2
           2
           2
           2
           2
           2
           2
           2
           2
           2
           2
           2
           2
           2
           2
           2
           2
           2
           2
           2
           2
           2
           2
           2
           2
           2
           2
           2
           2
           2
           2
           2
           2
           2
           2
           2
           2
           2
           2
           2
           2
           2
           2
           2
           2
           2
           2
           2
           2
           2
           2
           2
           2
           2
           2
           2
           2
           2
           2
           2
           2
           2
           2
           2
           2
           2
           2
           2
           2
           2
           2
           2
           2
           2
           2
           2
           2
           2
           2
           2
           2
           2
           2
           2
           2
           2
           2
           2
           2
           2
           2
           2
           2
           2
           2
           2
           2
           2
           2
           2
           2
           2
           2
           2
           2
           2
           2
           2
           2
           2
           2
           2
           2
           2
           2
           2
           2
           2
           2
           2
           2
           2
           2
           2
           2
           2
           2
           2
           2
           2
           2
           2
           2
           2
           2
           2
           2
           2
           2
           2
           2
           2
           2
           2
           2
           2
           2
           2
           2
           2
           2
           2
           2
           2
           2
           2
           2
           2
           2
           2
           2
           2
           2
           2
           2
           2
           2
           2
           2
           2
           2
           2
           2
           2
           2
           2
           2
           2
           2
           2
           2
           2
           2
           2
           2
           2
           2
           2
           2
           2
           2
           2
           2
           2
           2
           2
           2
           2
           2
           2
           2
           2
           2
           2
           2
           2
           2
           2
           2
           2
           2
           2
           2
           2
           2
           2
           2
           2
           2
           2
           2
           2
           2
           2
           2
           2
           2
           2
           2
           2
           2
           2
           2
           2
           2
           2
           2
           2
           2
           2
           2
           2
           2
           2
           2
           2
           2
           2
           2
           2
           2
           2
           2
           2
           2
           2
           2
           2
           2
           2
           2
           2
           2
           2
           2
           2
           2
           2
           2
           2
           2
           2
           2
           2
           2
           2
           2
           2
           2
           2
           2
           2
           2
           2
           2
           2
           2
           2
           2
           2
           2
           2
           2
           2
           2
           2
           2
           2
           2
           2
           2
           2
           2
           2
           2
           2
           2
           2
           2
           2
           2
           2
           2
           2
           2
           2
           2
           2
           2
           2
           2
           2
           2
           2
           2
           2
           2
           2
           2
           2
           2
           2
           2
           2
           2
           2
           2
           2
           2
           2
           2
           2
           2
           2
           2
           2
           2
           2
           2
           2
           2
           2
           2
           2
           2
           2
           2
           2
           2
           2
           2
           2
           2
           2
           2
           2
           2
           2
           2
           2
           2
           2
           2
           2
           2
           2
           2
           2
           2
           2
           2
           2
           2
           2
           2
           2
           2
           2
           2
           2
           2
           2
           2
           2
           2
           2
           2
           2
           2
           2
           2
           2
           2
           2
           2
           2
           2
           2
           2
           2
           2
           2
           2
           2
           2
           2
           2
           2
           2
           2
           2
           2
           2
           2
           2
           2
           2
           2
           2
           2
           2
           2
           2
           2
           2
           2
           2
           2
           2
           2
           2
           2
           2
           2
           2
           2
           2
           2
           2
           2
           2
           2
           2
           2
           2
           2
           2
           2
           2
           2
           2
           2
           2
           2
           2
           2
           2
           2
           2
           2
           2
           2
           2
           2
           2
           2
           2
           2
           2
           2
           2
           2
           2
           2
           2
           2
           2
           2
           2
           2
           2
           2
           2
           2
           2
           2
           2
           2
           2
           2
           2
           2
           2
           2
           2
           2
           2
           2
           2
           2
           2
           2
           2
           2
           2
           2
           2
           2
           2
           2
           2
           2
           2
           2
           2
           2
           2
           2
           2
           2
           2
           2
           2
           2
           2
           2
           2
           2
           2
           2
           2
           2
           2
           2
           2
           2
           2
           2
           2
           2
           2
           2
           2
           2
           2
           2
           2
           2
           2
           2
           2
           2
           2
           2
           2
           2
           2
           2
           2
           2
           2
           2
           2
           2
           2
           2
           2
           2
           2
           2
           2
           2
           2
           2
           2
           2
           2
           2
           2
           2
           2
           2
           2
           2
           2
           2
           2
           2
           2
           2
           2
           2
           2
           2
           2
           2
           2
           2
           2
           2
           2
           2
           2
           2
           2
           2
           2
           2
           2
           2
           2
           2
           2
           2
           2
           2
           2
           2
           2
           2
           2
           2
           2
           2
           2
           2
           2
           2
           2
           2
           2
           2
           2
           2
           2
           2
           2
           2
           2
           2
           2
           2
           2
           2
           2
           2
           2
           2
           2
           2
           2
           2
           2
           2
           2
           2
           2
           2
           2
           2
           2
           2
           2
           2
           2
           2
           2
           2
           2
           2
           2
           2
           2
           2
           2
           2
           2
           2
           2
           2
           2
           2
           2
           2
           2
           2
           2
           2
           2
           2
           2
           2
           2
           2
           2
           2
           2
           2
           2
           2
           2
           2
           2
           2
           2
           2
           2
           2
           2
           2
           2
           2
           2
           2
           2
           2
           2
           2
           2
           2
           2
           2
           2
           2
           2
           2
           2
           2
           2
           2
           2
           2
           2
           2
           2
           2
           2
           2
           2
           2
           2
           2
           2
           2
           2
           2
           2
           2
           2
           2
           2
           2
           2
           2
           2
           2
           2
           2
           2
           2
           2
           2
           2
           2
           2
           2
           2
           2
           2
           2
           2
           2
           2
           2
           2
           2
           2
           2
           2
           2
           2
           2
           2
           2
           2
           2
           2
           2
           2
           2
           2
           2
           2
           2
           2
           2
           2
           2
           2
           2
           2
           2
           2
           2
           2
           2
           2
           2
           2
           2
           2
           2
           2
           2
           2
           2
           2
           2
           2
           2
           2
           2
           2
           2
           2
           2
           2
           2
           2
           2
           2
           2
           2
           2
           2
           2
           2
           2
           2
           2
           2
           2
           2
           2
           2
           2
           2
           2
           2
           2
           2
           2
           2
           2
           2
           2
           2
           2
           2
           2
           2
           2
           2
           2
           2
           2
           2
           2
           2
           2
           2
           2
           2
           2
           2
           2
           2
           2
           2
           2
           2
           2
           2
           2
           2
           2
           2
           2
           2
           2
           2
           2
           2
           2
           2
           2
           2
           2
           2
           2
           2
           2
           2
           2
           2
           2
           2
           2
           2
           2
           2
           2
           2
           2
           2
           2
           2
           2
           2
           2
           2
           2
           2
           2
           2
           2
           2
           2
           2
           2
           2
           2
           2
           2
           2
           2
           2
           2
           2
           2
           2
           2
           2
           2
           2
           2
           2
           2
           2
           2
           2
           2
           2
           2
           2
           2
           2
           2
           2
           2
           2
           2
           2
           2
           2
           2
           2
           2
           2
           2
           2
           2
           2
           2
           2
           2
           2
           2
           2
           2
           2
           2
           2
           2
           2
           2
           2
           2
           2
           2
           2
           2
           2
           2
           2
           2
           2
           2
           2
           2
           2
           2
           2
           2
           2
           2
           2
           2
           2
           2
           2
           2
           2
           2
           2
           2
           2
           2
           2
           2
           2
           2
           2
           2
           2
           2
           2
           2
           2
           2
           2
           2
           2
           2
           2
           2
           2
           2
           2
           2
           2
           2
           2
           2
           2
           2
           2
           2
           2
           2
           2
           2
           2
           2
           2
           2
           2
           2
           2
           2
           2
           2
           2
           2
           2
           2
           2
           2
           2
           2
           2
           2
           2
           2
           2
           2
           2
           2
           2
           2
           2
           2
           2
           2
           2
           2
           2
           2
           2
           2
           2
           2
           2
           2
           2
           2
           2
           2
           2
           2
           2
           2
           2
           2
           2
           2
           2
           2
           2
           2
           2
           2
           2
           2
           2
           2
           2
           2
           2
           2
           2
           2
           2
           2
           2
           2
           2
           2
           2
           2
           2
           2
           2
           2
           2
           2
           2
           2
           2
           2
           2
           2
           2
           2
           2
           2
           2
           2
           2
           2
           2
           2
           2
           2
           2
           2
           2
           2
           2
           2
           2
           2
           2
           2
           2
           2
           2
           2
           2
           2
           2
           2
           2
           2
           2
           2
           2
           2
           2
           2
           2
           2
           2
           2
           2
           2
           2
           2
           2
           2
           2
           2
           2
           2
           2
           2
           2
           2
           2
           2
           2
           2
           2
           2
           2
           2
           2
           2
           2
           2
           2
           2
           2
           2
           2
           2
           2
           2
           2
           2
           2
           2
           2
           2
           2
           2
           2
           2
           2
           2
           2
           2
           2
           2
           2
           2
           2
           2
           2
           2
           2
           2
           2
           2
           2
           2
           2
           2
           2
           2
           2
           2
           2
           2
           2
           2
           2
           2
           2
           2
           2
           2
           2
           2
           2
           2
           2
           2
           2
           2
           2
           2
           2
           2
           2
           2
           2
           2
           2
           2
           2
           2
           2
           2
           2
           2
           2
           2
           2
           2
           2
           2
           2
           2
           2
           2
           2
           2
           2
           2
           2
           2
           2
           2
           2
           2
           2
           2
           2
           2
           2
           2
           2
           2
           2
           2
           2
           2
           2
           2
           2
           2
           2
           2
           2
           2
           2
           2
           2
           2
           2
           2
           2
           2
           2
           2
           2
           2
           2
           2
           2
           2
           2
           2
           2
           2
           2
           2
           2
           2
           2
           2
           2
           2
           2
           2
           2
           2
           2
           2
           2
           2
           2
           2
           2
           2
           2
           2
           2
           2
           2
           2
           2
           2
           2
           2
           2
           2
           2
           2
           2
           2
           2
           2
           2
           2
           2
           2
           2
           2
           2
           2
           2
           2
           2
           2
           2
           2
           2
           2
           2
           2
           2
           2
           2
           2
           2
           2
           2
           2
           2
           2
           2
           2
           2
           2
           2
           2
           2
           2
           2
           2
           2
           2
           2
           2
           2
           2
           2
           2
           2
           2
           2
           2
           2
           2
           2
           2
           2
           2
           2
           2
           2
           2
           2
           2
           2
           2
           2
           2
           2
           2
           2
           2
           2
           2
           2
           2
           2
           2
           2
           2
           2
           2
           2
           2
           2
           2
           2
           2
           2
           2
           2
           2
           2
           2
           2
           2
           2
           2
           2
           2
           2
           2
           2
           2
           2
           2
           2
           2
           2
           2
           2
           2
           2
           2
           2
           2
           2
           2
           2
           2
           2
           2
           2
           2
           2
           2
           2
           2
           2
           2
           2
           2
           2
           2
           2
           2
           2
           2
           2
           2
           2
           2
           2
           2
           2
           2
           2
           2
           2
           2
           2
           2
           2
           2
           2
           2
           2
           2
           2
           2
           2
           2
           2
           2
           2
           2
           2
           2
           2
           2
           2
           2
           2
           2
           2
           2
           2
           2
           2
           2
           2
           2
           2
           2
           2
           2
           2
           2
           2
           2
           2
           2
           2
           2
           2
           2
           2
           2
           2
           2
           2
           2
           2
           2
           2
           2
           2
           2
           2
           2
           2
           2
           2
           2
           2
           2
           2
           2
           2
           2
           2
           2
           2
           2
           2
           2
           2
           2
           2
           2
           2
           2
           2
           2
           2
           2
           2
           2
           2
           2
           2
           2
           2
           2
           2
           2
           2
           2
           2
           2
           2
           2
           2
           2
           2
           2
           2
           2
           2
           2
           2
           2
           2
           2
</DataArray>
</CellData>
</Piece>
</UnstructuredGrid>
</VTKFile>
